# x y z rho theta phi s1 s2 stress_xx np intf bulk
-0.771777 -10.648616 -14.468155 17.980995 1.498446 2.505858 -0.012891 0.002172 -725099.000000 1 0 0
2.164923 -13.439816 -13.102355 18.894106 -1.411086 2.337080 -0.005869 0.005050 -208207.000000 1 0 0
2.167723 -11.120616 -14.801355 18.639937 -1.378282 2.488267 -0.007436 0.007516 784298.000000 1 0 0
-5.596277 -6.269416 -16.599655 18.605710 0.842067 2.672947 0.011713 -0.004955 -74926.700000 1 0 0
4.521323 -14.042416 -11.504055 18.707621 -1.259302 2.233106 -0.004207 0.003790 1472340.000000 1 0 0
13.950823 -10.573116 -7.965655 19.231950 -0.648528 1.997848 0.001040 -0.006547 827845.000000 1 0 0
7.017423 10.849084 -10.831955 16.860548 0.996659 2.268479 0.005355 -0.004559 -1680220.000000 1 0 0
5.776723 -4.141316 -12.579155 14.448397 -0.621977 2.627270 -0.006458 0.001225 2150120.000000 1 0 0
13.557723 0.512684 -9.993955 16.850929 0.037797 2.205676 -0.001000 0.000479 188719.000000 1 0 0
14.092323 5.069384 -10.365555 18.213647 0.345314 2.176218 -0.002709 -0.000613 -494525.000000 1 0 0
4.086323 4.377184 -13.495955 14.764775 0.819751 2.723991 0.003442 -0.001314 2843260.000000 1 0 0
10.285223 -4.900616 -13.674155 17.798437 -0.444648 2.446944 0.008897 -0.005925 -544314.000000 1 0 0
2.542623 -7.528516 -12.056855 14.439918 -1.245092 2.558869 -0.009430 0.005385 446912.000000 1 0 0
-5.508477 -1.994116 -15.173655 16.265289 0.347333 2.773140 0.006439 -0.004994 1920050.000000 1 0 0
10.602023 0.134484 -9.599055 14.302546 0.012684 2.306546 -0.003567 -0.000433 613643.000000 1 0 0
-1.664277 -9.420716 -17.037255 19.539390 1.395939 2.629955 0.000070 -0.003816 2534200.000000 1 0 0
8.658523 1.668884 -17.975555 20.021882 0.190410 2.685534 0.008958 0.001243 -1170700.000000 1 0 0
16.364723 -5.987516 -8.879455 19.557587 -0.350751 2.042064 0.009924 -0.000808 -1904040.000000 1 0 0
10.233523 7.611284 -9.873255 16.128788 0.639495 2.229574 0.001649 -0.000410 972015.000000 1 0 0
13.816723 -2.261316 -10.593955 17.556972 -0.162227 2.218560 0.009632 -0.002460 -2684140.000000 1 0 0
7.278023 -1.719816 -13.724555 15.629805 -0.232046 2.642676 -0.000332 -0.003909 -615403.000000 1 0 0
-2.716077 6.694284 -13.869555 15.638257 -1.185359 2.661385 -0.000019 -0.000052 657816.000000 1 0 0
11.220723 1.857684 -13.935655 17.987720 0.164070 2.457087 -0.000308 -0.006075 236805.000000 1 0 0
-2.256777 10.734584 -12.966255 16.983760 -1.363580 2.439435 0.001793 0.002606 -917458.000000 1 0 0
2.965123 -1.025216 -15.339155 15.656714 -0.332891 2.939843 0.003282 -0.003075 307814.000000 1 0 0
-9.002877 0.326784 -15.271255 17.730477 -0.036282 2.608619 0.006911 0.001856 -724777.000000 1 0 0
2.369923 -1.831416 -17.980555 18.228302 -0.657918 2.976534 0.011447 -0.012655 -525572.000000 1 0 0
1.013123 7.806884 -13.182855 15.354528 1.441745 2.603260 0.001593 -0.004771 523977.000000 1 0 0
9.299223 -8.928516 -9.887655 16.246836 -0.765063 2.225078 0.009069 -0.003438 970126.000000 1 0 0
3.932523 7.350384 -13.581355 15.935686 1.079535 2.591088 -0.001597 -0.001873 499902.000000 1 0 0
-2.628377 9.176784 -15.584555 18.275669 -1.291848 2.592022 -0.001470 0.006846 -76703.300000 1 0 0
5.467323 -7.541616 -15.278155 17.893843 -0.943518 2.594080 -0.001377 -0.001817 -404960.000000 1 0 0
4.258423 7.251484 -16.432055 18.458890 1.039806 2.668575 0.005332 -0.000917 729370.000000 1 0 0
-0.250077 5.018784 -13.541755 14.444025 -1.521009 2.786267 0.012175 -0.005152 1386210.000000 1 0 0
8.686623 4.208284 -16.600255 19.202488 0.451135 2.614920 0.000145 -0.004431 -2286060.000000 1 0 0
5.419823 0.398784 -14.520555 15.504194 0.073446 2.783470 -0.003376 -0.001147 1705220.000000 1 0 0
6.301423 7.944684 -11.619355 15.421911 0.900239 2.424062 -0.000199 -0.001109 -802052.000000 1 0 0
2.752723 -8.378716 -15.118855 17.503147 -1.253368 2.613519 -0.005496 0.003497 -416819.000000 1 0 0
3.857523 11.519184 -13.882355 18.447001 1.247656 2.422727 -0.001438 -0.002268 -2796040.000000 1 0 0
0.625323 -4.450716 -13.784355 14.498564 -1.431211 2.826409 0.000570 0.001086 684246.000000 1 0 0
8.495423 -0.048416 -11.654555 14.422316 -0.005699 2.511702 -0.009466 0.000371 -1233010.000000 1 0 0
-0.856477 -4.995216 -16.356455 17.123649 1.400988 2.841120 -0.000484 -0.006503 497419.000000 1 0 0
4.516623 0.885684 -11.779455 12.646734 0.193637 2.769099 -0.003447 -0.002196 2920690.000000 1 0 0
-2.876677 -7.053316 -15.688455 17.439959 1.183543 2.689579 -0.003419 -0.000330 2521000.000000 1 0 0
11.327023 -3.608616 -11.331555 16.423389 -0.308419 2.332236 0.005565 -0.005554 2047540.000000 1 0 0
6.451123 -6.978516 -12.575355 15.762494 -0.824649 2.494438 0.000541 0.001561 -861910.000000 1 0 0
3.483723 -3.983016 -14.628655 15.556294 -0.852168 2.794509 -0.000948 -0.000334 3222360.000000 1 0 0
-0.512977 -1.542016 -18.347455 18.419285 1.249646 3.053249 0.018366 -0.011765 627898.000000 1 0 0
14.830723 2.936184 -8.523455 17.355714 0.195452 2.084153 0.001009 -0.002033 -478094.000000 1 0 0
6.965623 4.325484 -14.230055 16.423281 0.555700 2.618856 0.000617 -0.001814 2214390.000000 1 0 0
10.111023 -9.513116 -14.055755 19.755921 -0.754940 2.362385 0.031220 -0.004937 -1782160.000000 1 0 0
9.131023 -3.047416 -15.563655 18.299991 -0.322119 2.587681 0.007701 -0.012511 -1120130.000000 1 0 0
-5.124277 -2.080316 -18.067755 18.895230 0.385645 2.844553 -0.004732 -0.001187 2388580.000000 1 0 0
5.020423 -8.962816 -11.067855 15.100799 -1.060202 2.393418 -0.009425 0.004399 1624580.000000 1 0 0
-2.443877 3.943484 -17.176955 17.792453 -1.015999 2.877795 0.005221 0.000491 1886030.000000 1 0 0
9.441923 9.282184 -14.449655 19.598504 0.776867 2.399837 0.015516 -0.005752 -408376.000000 1 0 0
9.762623 10.078984 -11.585055 18.196379 0.801341 2.260966 0.003846 -0.003187 683307.000000 1 0 0
12.013423 -5.855416 -9.692755 16.509322 -0.453522 2.198278 0.014975 -0.005358 -595786.000000 1 0 0
8.132023 6.947684 -13.689655 17.372586 0.707020 2.478355 0.006386 0.002931 754873.000000 1 0 0
4.003923 -4.167316 -17.572355 18.498259 -0.805392 2.823861 0.011358 -0.008886 -257194.000000 1 0 0
9.298923 -7.390316 -12.378655 17.155694 -0.671531 2.376832 0.013418 -0.005610 -412744.000000 1 0 0
11.981023 -8.536916 -8.880255 17.183794 -0.619090 2.113883 0.009610 -0.005414 349605.000000 1 0 0
-2.871777 -2.507516 -13.847155 14.362397 0.717786 2.872926 0.002988 -0.004805 -2177440.000000 1 0 0
-0.378277 6.053384 -17.616855 18.631697 -1.508387 2.810020 0.011754 0.000348 1012550.000000 1 0 0
1.092523 -8.441616 -17.614855 19.563681 -1.442091 2.691451 -0.003872 -0.002873 852663.000000 1 0 0
0.151823 8.485084 -16.016855 18.126206 1.552905 2.654356 0.005934 0.002321 -141057.000000 1 0 0
1.735223 3.398584 -15.020955 15.498079 1.098727 2.892814 0.009979 -0.003834 509770.000000 1 0 0
-1.947177 -0.514316 -15.846855 15.974318 0.258237 3.015182 0.009777 -0.008318 471243.000000 1 0 0
14.103823 -4.244116 -8.444355 16.977558 -0.292300 2.091376 0.012154 -0.004034 -361383.000000 1 0 0
0.603423 0.642484 -14.674355 14.700803 0.816739 3.081599 0.006098 -0.005718 1955720.000000 1 0 0
8.843523 2.794884 -12.465555 15.537353 0.306104 2.501928 -0.004053 -0.001103 623750.000000 1 0 0
5.997923 1.044984 -17.303255 18.343110 0.172493 2.803264 0.007901 0.003242 -1492140.000000 1 0 0
15.140423 1.453384 -12.361455 19.599752 0.095700 2.253244 -0.008870 -0.001497 -1695050.000000 1 0 0
8.823823 -11.156016 -11.856055 18.517089 -0.901600 2.265654 0.017534 -0.003250 958867.000000 1 0 0
-4.557377 0.725384 -15.071055 15.761744 -0.157843 2.844458 0.005901 -0.004986 -53381.400000 1 0 0
2.381423 5.148684 -17.377855 18.280316 1.137571 2.826063 0.013259 -0.002198 2084820.000000 1 0 0
5.902723 -11.587816 -12.297955 17.898584 -1.099665 2.328274 0.003217 -0.001421 2015230.000000 1 0 0
12.924523 7.233684 -8.622955 17.138402 0.510250 2.098021 0.010387 -0.002811 -20629.000000 1 0 0
-5.028077 3.613584 -15.617955 16.800597 -0.623154 2.764142 0.000009 -0.001395 1935460.000000 1 0 0
-0.519677 -4.375116 -19.200055 19.699082 1.452570 2.916026 0.010171 -0.010155 -172685.000000 1 0 0
9.852923 4.459984 -10.207555 14.871641 0.425060 2.327292 -0.003172 0.000720 772786.000000 1 0 0
13.291223 3.661584 -12.824555 18.829047 0.268821 2.320067 -0.005104 -0.005108 359007.000000 1 0 0
-6.268477 5.778484 -17.097155 19.104905 -0.744747 2.679024 -0.004400 0.004386 -1989290.000000 1 0 0
-10.136877 3.037884 -15.590455 18.842699 -0.291169 2.545259 0.008158 0.009758 38541.500000 1 0 0
10.734523 13.437384 -8.420755 19.149474 0.896754 2.026103 0.027095 -0.001678 -485610.000000 1 0 0
7.369323 13.479284 -12.302555 19.681231 1.070479 2.246044 0.006571 -0.004102 1555020.000000 1 0 0
5.343023 15.282484 -11.192355 19.681743 1.234462 2.175681 -0.008219 -0.006038 906746.000000 1 0 0
14.220123 9.459484 -9.949655 19.765863 0.586999 2.098297 0.027705 -0.004790 -1565690.000000 1 0 0
8.292423 -17.332516 -2.115555 19.330183 -1.124552 1.680459 0.016074 -0.001993 388464.000000 1 0 0
0.660023 -16.010216 0.075445 16.023993 -1.529595 1.566088 0.010574 -0.010205 1758850.000000 1 0 0
-9.209977 -11.712216 7.648345 16.748041 0.904430 1.096547 0.014113 -0.002281 784399.000000 1 0 0
1.862523 -15.992416 -2.581855 16.306206 -1.454856 1.729801 0.006336 -0.005252 453835.000000 1 0 0
-1.288977 -11.040416 -9.457155 14.594178 1.454572 2.275763 -0.002943 0.003358 613554.000000 1 0 0
-4.733577 -12.486416 -12.948255 18.600394 1.208438 2.340786 0.009209 -0.009200 -263050.000000 1 0 0
-8.329277 -17.803616 -1.837355 19.741365 1.133205 1.664003 0.009700 -0.008676 414992.000000 1 0 0
-11.321777 -7.043516 -8.890655 16.026151 0.556526 2.158870 0.016288 -0.002926 2335370.000000 1 0 0
-13.590677 -11.506716 -4.633055 18.400441 0.702553 1.825326 -0.001107 0.002462 -2432.000000 1 0 0
-5.719177 -13.388016 9.894545 17.602556 1.167075 0.973863 0.006961 -0.002911 -159614.000000 1 0 0
0.099023 -14.030216 -3.690555 14.507824 -1.563739 1.828007 0.004686 -0.001766 -189253.000000 1 0 0
-14.776777 -11.602816 2.007045 18.894622 0.665655 1.464372 -0.008868 0.003901 1085880.000000 1 0 0
-3.884977 -16.502516 -7.504055 18.540144 1.339589 1.987498 -0.006163 -0.000805 -296764.000000 1 0 0
0.518223 -15.298316 -9.331755 17.927317 -1.536935 2.118271 -0.005481 0.007231 977327.000000 1 0 0
4.479423 -14.356416 -2.654755 15.271530 -1.268353 1.745521 0.002269 0.000179 1450750.000000 1 0 0
-3.676577 -18.066816 -2.468555 18.601635 1.370039 1.703895 -0.002001 -0.010336 835052.000000 1 0 0
-1.065377 -13.492616 0.698645 13.552632 1.492000 1.519223 0.012066 -0.005910 3621670.000000 1 0 0
-8.426777 -11.262616 -10.505055 17.556004 0.928443 2.212266 0.018828 -0.009706 1774550.000000 1 0 0
-3.825377 -14.096016 -0.468455 14.613372 1.305799 1.602858 0.005330 -0.004624 4246030.000000 1 0 0
-1.522777 -14.854716 -7.326255 16.632963 1.468642 2.026914 -0.008233 0.004468 918952.000000 1 0 0
-14.238677 -7.710716 -1.836355 16.296235 0.496320 1.683722 -0.005772 -0.000540 1115540.000000 1 0 0
-10.743977 -7.351616 -11.697655 17.501841 0.600080 2.302808 0.017019 0.000604 7555.520000 1 0 0
-9.476177 -14.703116 6.854445 18.787309 0.998296 1.197331 0.003488 0.002688 -113961.000000 1 0 0
-2.409877 -14.158916 -12.380455 18.962017 1.402210 2.282214 0.004802 -0.004338 331540.000000 1 0 0
2.193923 -17.892416 -4.738655 18.638849 -1.448788 1.827853 0.008637 -0.003971 -738184.000000 1 0 0
-6.606077 -9.589116 -9.160855 14.815960 0.967549 2.237387 0.012268 -0.006986 556286.000000 1 0 0
-10.982877 -15.381216 0.430045 18.904771 0.950706 1.548046 0.000160 -0.001532 -539217.000000 1 0 0
-12.707177 -10.942016 4.119545 17.267621 0.710897 1.329903 0.005034 0.001705 2650860.000000 1 0 0
-16.977277 -8.855116 -1.583655 19.213251 0.480767 1.653315 -0.009092 -0.002118 -322518.000000 1 0 0
-1.618277 -19.203216 -4.013555 19.684790 1.486724 1.776127 -0.005645 -0.004082 -29019.900000 1 0 0
3.176923 -14.279516 -8.817155 17.080388 -1.351881 2.113222 -0.008123 0.005544 790179.000000 1 0 0
-4.348777 -8.026416 -13.141655 16.001197 1.074264 2.534468 0.004329 0.004724 1876710.000000 1 0 0
5.543523 -16.696216 1.233545 17.635643 -1.250226 1.500793 0.013922 -0.005429 4256600.000000 1 0 0
-2.855377 -13.780116 -3.248255 14.442851 1.366478 1.797641 -0.000746 -0.001094 396225.000000 1 0 0
-0.385377 -14.034816 3.666345 14.510916 1.543345 1.315367 0.007327 -0.003923 -2681090.000000 1 0 0
1.144123 -16.231616 7.043245 17.730812 -1.500425 1.162298 0.019922 -0.011388 2194110.000000 1 0 0
-5.519377 -10.302516 -14.761855 18.828641 1.078974 2.471897 0.011103 -0.002199 254722.000000 1 0 0
-0.439877 -17.296416 -5.935455 18.291778 1.545370 1.901266 -0.000928 0.000506 84984.200000 1 0 0
-6.655677 -13.345416 -1.325655 14.971825 1.108170 1.659456 0.005700 -0.002907 3271530.000000 1 0 0
-1.781777 -17.744016 -0.149655 17.833879 1.470716 1.579188 0.009134 -0.008700 4030080.000000 1 0 0
-9.508777 -9.720716 -4.883655 14.448504 0.796419 1.915592 0.013323 -0.005156 626050.000000 1 0 0
-0.865977 -16.736716 4.866445 17.451357 1.519101 1.288192 0.007484 -0.006129 2409350.000000 1 0 0
-6.799377 -9.771516 -6.314955 13.475634 0.962870 2.058525 0.012664 -0.007126 2495200.000000 1 0 0
-5.924777 -14.419716 -8.514455 17.763084 1.180946 2.070692 0.001865 -0.009447 -535477.000000 1 0 0
-5.631377 -12.122116 -10.225055 16.828840 1.135905 2.223821 0.008366 -0.009226 1902780.000000 1 0 0
-10.716677 -12.135416 -8.781255 18.418087 0.847402 2.067777 0.029691 -0.016775 -793648.000000 1 0 0
3.940723 -17.157816 6.642945 18.816181 -1.345037 1.209973 0.030813 -0.015138 1332210.000000 1 0 0
-6.754077 -14.367916 -4.124755 16.403298 1.131369 1.824984 0.009426 -0.004580 -46118.700000 1 0 0
-2.835677 -12.208516 -7.063255 14.386748 1.342573 2.083983 0.001018 -0.000628 1710220.000000 1 0 0
-7.175477 -12.773216 4.504645 15.327568 1.058969 1.272501 0.002937 0.000454 1241650.000000 1 0 0
2.602323 -16.458716 2.427045 16.839001 -1.413982 1.426160 0.018753 -0.009285 3236590.000000 1 0 0
-6.286077 -12.018916 7.361545 15.432481 1.088906 1.073540 0.004449 0.002793 1160900.000000 1 0 0
-11.219877 -12.867416 -0.953055 17.098666 0.853690 1.626564 -0.002718 0.004099 516223.000000 1 0 0
-14.372777 -8.681016 4.652145 17.423525 0.543348 1.300514 0.003591 0.000445 -34436.000000 1 0 0
-8.070877 -15.483716 4.365145 17.998306 1.090294 1.325823 0.004119 0.002385 920031.000000 1 0 0
-16.436177 -9.195716 1.205545 18.872267 0.510093 1.506874 -0.017247 0.001579 -353537.000000 1 0 0
-6.632577 -16.956016 2.304545 18.352343 1.197931 1.444892 0.007891 -0.007102 909591.000000 1 0 0
-11.629577 -14.879016 -4.779555 19.480153 0.907370 1.818682 0.020769 -0.004468 -79016.800000 1 0 0
-10.130177 -10.004316 -12.563955 18.988412 0.779147 2.293833 0.026814 -0.001831 405645.000000 1 0 0
-4.397177 -15.962816 -4.589655 17.181723 1.301999 1.841204 -0.002031 -0.003610 -234927.000000 1 0 0
-11.875877 -8.177416 -0.014855 14.418974 0.603016 1.571827 -0.005553 0.002932 783874.000000 1 0 0
-9.733577 -11.077916 3.535445 15.164502 0.849905 1.335491 0.003082 0.004374 1457280.000000 1 0 0
-14.150977 -12.861516 -0.572055 19.131022 0.737699 1.600703 -0.012331 0.007859 -403668.000000 1 0 0
5.602523 -14.815916 -7.290755 17.437166 -1.209274 2.002166 0.001953 -0.001847 437211.000000 1 0 0
-7.534277 -10.506516 -1.273755 12.991331 0.948682 1.669001 0.003636 -0.000356 3419740.000000 1 0 0
-11.668377 -8.118516 -6.045555 15.447009 0.607882 1.972920 0.011656 -0.003773 -286513.000000 1 0 0
-14.323177 -6.575416 -9.234155 18.266339 0.430375 2.100791 0.004829 -0.000214 2075370.000000 1 0 0
-3.915877 -16.385216 1.361445 16.901566 1.336208 1.490158 0.001762 -0.007961 735242.000000 1 0 0
-8.038977 -15.526616 0.095745 17.484569 1.093046 1.565320 0.011869 -0.003474 532499.000000 1 0 0
1.026223 -18.647416 3.672445 19.033290 -1.515819 1.376630 0.018983 -0.011308 700418.000000 1 0 0
-14.038377 -8.660116 -4.503355 17.098358 0.552745 1.837320 -0.005445 -0.003440 -302027.000000 1 0 0
-3.304177 -14.528116 11.195245 18.636450 1.347167 0.926398 -0.004820 -0.005453 527362.000000 1 0 0
-10.851577 -12.112216 -3.817655 16.704401 0.840240 1.801376 0.003431 -0.006293 -222534.000000 1 0 0
-10.103277 -10.607816 0.535945 14.659100 0.809754 1.534228 0.000484 0.005820 2065360.000000 1 0 0
0.038323 -13.110216 -11.203755 17.245387 -1.567873 2.277942 -0.000235 0.000634 1142790.000000 1 0 0
-5.849877 -12.571216 -6.319355 15.237808 1.135260 1.998426 0.003231 -0.006959 1572210.000000 1 0 0
1.611123 -15.954016 10.051545 18.925113 -1.470152 1.010872 0.017679 -0.004746 649421.000000 1 0 0
-9.038377 -15.751216 -5.446055 18.959235 1.049849 1.862152 0.023035 -0.009098 -1322740.000000 1 0 0
-3.383877 -15.503816 5.905945 16.932192 1.355905 1.214506 0.001983 -0.004163 -526275.000000 1 0 0
-17.385377 -5.484616 -6.508355 19.356938 0.305591 1.913706 -0.000038 0.002179 333960.000000 1 0 0
18.699723 5.526684 -2.947155 19.720791 0.287368 1.720802 -0.011971 0.005832 -1178280.000000 1 0 0
12.653623 -12.453216 -5.965255 18.729149 -0.777416 1.894944 0.004746 -0.003462 -223473.000000 1 0 0
10.984323 -13.557716 -1.692655 17.530890 -0.889873 1.667500 0.012527 -0.002392 896096.000000 1 0 0
18.707323 -3.002816 4.773745 19.538922 -0.159158 1.323978 0.025218 -0.004071 -478675.000000 1 0 0
8.734123 -17.031616 4.814245 19.736712 -1.096947 1.324387 0.029065 -0.017308 -1509980.000000 1 0 0
17.984023 -1.060716 6.761545 19.242367 -0.058913 1.211743 0.031090 -0.011923 -982440.000000 1 0 0
17.749123 -4.206816 -5.088255 18.937238 -0.232721 1.842830 0.023019 -0.001606 -497978.000000 1 0 0
5.436823 -11.772016 14.683645 19.589508 -1.138138 0.723389 0.008669 0.002698 547628.000000 1 0 0
15.893623 -8.924416 -0.801855 18.245422 -0.511637 1.614759 0.006683 0.000403 229021.000000 1 0 0
13.841723 -12.700216 -1.617455 18.854839 -0.742417 1.656687 0.017929 0.003201 70220.400000 1 0 0
11.067523 -2.129316 13.900345 17.895352 -0.190071 0.681296 0.006415 0.001504 -1569020.000000 1 0 0
16.880523 -6.186616 -1.452655 18.037086 -0.351293 1.651421 0.021023 0.003470 -1811390.000000 1 0 0
17.799123 3.657184 -0.929055 18.194694 0.202649 1.621880 0.005504 0.006519 1322620.000000 1 0 0
9.698823 -11.245116 9.498345 17.627772 -0.859095 1.001751 0.012058 0.002432 769960.000000 1 0 0
9.079323 -11.172016 4.234045 15.005838 -0.888369 1.284752 0.010714 -0.005337 -1496130.000000 1 0 0
13.887323 -10.304616 6.721545 18.553221 -0.638372 1.200079 0.023161 -0.007383 -549873.000000 1 0 0
16.142523 -0.535616 -4.777055 16.843045 -0.033168 1.858365 0.016257 0.001163 1241450.000000 1 0 0
15.854623 -0.541916 -1.742055 15.959245 -0.034167 1.680171 0.023856 0.004428 985422.000000 1 0 0
12.837923 -5.142216 -0.191755 13.830814 -0.380980 1.584661 0.011407 -0.000118 852817.000000 1 0 0
14.198523 -7.527216 1.105045 16.108326 -0.487469 1.502142 0.017201 0.000441 1635920.000000 1 0 0
15.516223 2.391484 3.755945 16.142474 0.152925 1.335969 0.012428 -0.000511 -356268.000000 1 0 0
15.828823 -7.296316 4.931945 18.113860 -0.431924 1.295040 0.023504 -0.004970 -1201540.000000 1 0 0
13.667723 -12.292316 3.187045 18.656498 -0.732466 1.399127 0.017843 -0.002899 947843.000000 1 0 0
13.876723 -0.979516 9.318345 16.743788 -0.070470 0.980598 0.019591 -0.007458 770869.000000 1 0 0
14.180823 -2.799816 -1.509755 14.533205 -0.194930 1.674867 0.009053 0.003520 1065100.000000 1 0 0
14.957023 1.780784 9.241445 17.671673 0.118502 1.020485 0.018397 -0.007123 -1434680.000000 1 0 0
14.246023 -10.140016 -3.026755 17.746277 -0.618588 1.742191 0.008190 0.000271 -34498.500000 1 0 0
7.327023 -12.690316 5.989845 15.830592 -1.047182 1.182760 0.004590 -0.004984 -489747.000000 1 0 0
12.374223 -4.688616 6.997045 14.968739 -0.362187 1.084399 0.015205 -0.004286 2348540.000000 1 0 0
14.790823 -8.957616 -5.675955 18.199555 -0.544542 1.887960 0.010948 -0.003828 -1493970.000000 1 0 0
14.240023 -4.760916 4.629345 15.712269 -0.322650 1.271725 0.017416 -0.005905 763885.000000 1 0 0
17.135323 -4.302816 0.935345 17.692043 -0.246021 1.517904 0.027217 0.001432 -1898950.000000 1 0 0
10.161023 -14.461316 1.077045 17.706950 -0.958304 1.509933 0.016099 -0.009599 -413548.000000 1 0 0
16.267323 -2.612216 8.564445 18.568769 -0.159221 1.091417 0.032260 -0.013808 -318843.000000 1 0 0
16.083323 -2.780416 3.315045 16.655134 -0.171184 1.370418 0.023661 -0.004117 2165380.000000 1 0 0
7.791523 -15.274516 2.607945 17.344165 -1.099102 1.419859 0.015571 -0.014092 1772590.000000 1 0 0
16.604223 -7.109816 7.710145 19.639145 -0.404572 1.167350 0.037264 -0.012434 -83768.700000 1 0 0
10.168723 -8.630216 5.103645 14.280432 -0.703740 1.205327 0.010510 -0.003622 1483340.000000 1 0 0
10.915123 -11.968016 2.144745 16.339316 -0.831378 1.439154 0.013265 -0.005098 398656.000000 1 0 0
12.241523 -7.381216 12.022745 18.678427 -0.542597 0.871512 0.013429 -0.007232 -164177.000000 1 0 0
15.238123 -10.072716 4.218645 18.747185 -0.584084 1.343824 0.028242 -0.003110 -305786.000000 1 0 0
7.312023 -10.329616 7.732645 14.831064 -0.954808 1.022327 0.001371 0.000369 1156630.000000 1 0 0
15.091523 -3.293216 -4.285255 16.030057 -0.214848 1.841414 0.020779 0.002485 1860030.000000 1 0 0
11.725623 -9.047116 9.741245 17.726601 -0.657162 0.988998 0.012958 -0.007080 -1172200.000000 1 0 0
16.930923 -6.736216 2.420745 18.381859 -0.378664 1.438721 0.023894 -0.001132 2338440.000000 1 0 0
17.565623 3.833984 2.091745 18.100440 0.214896 1.454974 0.008415 0.003159 88773.600000 1 0 0
14.718223 -4.994616 8.747745 17.835227 -0.327155 1.058161 0.031642 -0.011941 577961.000000 1 0 0
12.774823 -12.829416 6.002345 19.074018 -0.787530 1.250669 0.011883 -0.003685 -901653.000000 1 0 0
18.421023 0.747984 -1.140455 18.471443 0.040583 1.632577 0.037542 0.005376 -349362.000000 1 0 0
11.623423 -2.246816 11.064445 16.204138 -0.190946 0.819186 0.006803 -0.002136 256152.000000 1 0 0
5.688523 -12.587916 10.424245 17.305485 -1.146361 0.924334 0.002604 0.004696 -1199940.000000 1 0 0
10.641823 -5.139316 11.040345 16.172513 -0.449903 0.819398 0.007956 -0.001754 739381.000000 1 0 0
17.823823 1.269084 5.033145 18.564261 0.071082 1.296240 0.024333 -0.005370 -653902.000000 1 0 0
12.253623 -7.741916 7.176045 16.173563 -0.563479 1.111085 0.020090 -0.006889 833173.000000 1 0 0
10.572323 -8.096916 14.211245 19.475460 -0.653574 0.752913 0.014940 -0.006600 -327579.000000 1 0 0
14.241823 -0.333516 3.852145 14.757363 -0.023414 1.306705 0.014262 -0.000186 2560360.000000 1 0 0
11.625423 -7.792516 2.570245 14.229544 -0.590514 1.389172 0.011379 -0.002478 1637520.000000 1 0 0
9.302923 6.045184 3.537545 11.644863 0.576246 1.262133 0.003584 -0.000285 1230540.000000 1 0 0
-3.889677 14.732084 -9.993855 18.221993 -1.312659 2.151306 -0.003832 -0.002493 716195.000000 1 0 0
8.664123 -6.446416 9.239945 14.212666 -0.639673 0.863053 0.002030 -0.002502 -80909.500000 1 0 0
5.790823 -10.430816 -8.465555 14.628779 -1.063996 2.187920 -0.008925 -0.000846 483906.000000 1 0 0
5.381323 1.103084 0.506245 5.516494 0.202183 1.478898 0.002311 0.000336 3375680.000000 1 0 0
-0.445077 9.920284 10.943345 14.777243 -1.525961 0.736902 -0.012371 0.002443 1039110.000000 1 0 0
-6.318577 -5.280516 0.922945 8.286139 0.696141 1.459181 0.006553 -0.001730 2686730.000000 1 0 0
-0.997777 3.988684 -10.889055 11.639445 -1.325675 2.780554 0.012398 -0.005492 2402960.000000 1 0 0
10.968523 5.774484 1.212745 12.454875 0.484591 1.473271 0.002810 0.000305 1471180.000000 1 0 0
-10.013877 -1.875216 -13.569055 16.968012 0.185118 2.497566 0.015716 -0.006048 3054450.000000 1 0 0
7.441323 10.904984 -6.054155 14.523937 0.971995 2.000762 -0.002373 -0.003788 827443.000000 1 0 0
-12.497077 -2.809916 -9.667655 16.047932 0.221168 2.217331 0.012087 -0.002827 569542.000000 1 0 0
-3.984077 -8.700216 2.621745 9.921703 1.141369 1.303377 0.007282 0.001593 -1294010.000000 1 0 0
7.947423 -6.583816 -5.794655 11.835801 -0.691833 2.082412 -0.006047 -0.001868 1078910.000000 1 0 0
14.333223 3.163884 -4.160455 15.256501 0.217254 1.846995 0.011911 -0.001696 1068630.000000 1 0 0
-2.529877 -4.981916 9.828545 11.305754 1.100919 0.516931 -0.003559 0.000637 882125.000000 1 0 0
3.515223 -1.832616 -4.574155 6.052947 -0.480571 2.427504 -0.008261 0.001153 -1602750.000000 1 0 0
-3.907577 8.433984 -3.435855 9.909911 -1.136926 1.924856 0.000767 -0.001129 846965.000000 1 0 0
5.790623 0.067484 11.694145 13.049479 0.011653 0.459805 -0.006483 -0.005287 1023710.000000 1 0 0
7.056623 4.736084 12.378945 15.015482 0.591103 0.601634 -0.003495 0.001030 776724.000000 1 0 0
1.177823 -14.531216 12.603745 19.271686 -1.489918 0.857932 -0.000075 0.001892 135332.000000 1 0 0
3.044323 8.730384 -9.112355 12.981622 1.235276 2.348918 -0.000706 -0.001530 844798.000000 1 0 0
-4.435677 -8.790116 -4.547055 10.845141 1.103459 2.003439 0.010687 -0.004708 1291300.000000 1 0 0
5.665923 -6.555716 -3.937055 9.517379 -0.858075 1.997278 -0.008641 -0.003720 2377700.000000 1 0 0
-3.123577 3.472784 8.586745 9.774925 -0.838288 0.498196 -0.007056 0.000382 2195220.000000 1 0 0
-3.814277 3.206784 -11.082455 12.151254 -0.699089 2.719033 0.004534 -0.006506 1082480.000000 1 0 0
3.017023 -6.157116 8.488745 10.911980 -1.115176 0.679433 -0.007453 0.001856 -246028.000000 1 0 0
-5.189877 -8.672016 10.559445 14.616449 1.031508 0.763478 0.004301 -0.001514 1031230.000000 1 0 0
-13.108877 -2.445816 6.504845 14.837038 0.184456 1.116957 -0.003776 -0.002782 -179444.000000 1 0 0
3.887023 -5.867316 -8.337655 10.911042 -0.985693 2.440516 -0.010077 0.002542 2523170.000000 1 0 0
2.955323 -0.605516 12.382145 12.744336 -0.202093 0.238979 -0.006223 -0.005245 194171.000000 1 0 0
1.555523 -1.327116 -7.516655 7.789800 -0.706328 2.875994 -0.001389 0.000502 89708.500000 1 0 0
3.521823 -3.517416 3.457945 6.060762 -0.784772 0.963626 -0.001056 -0.001471 4113710.000000 1 0 0
1.551823 0.385284 -11.894755 12.001741 0.243357 3.007970 0.005938 -0.005014 -470409.000000 1 0 0
4.166223 3.565884 -10.662955 11.990477 0.707911 2.666576 -0.003191 0.000766 2036420.000000 1 0 0
2.804123 3.303984 3.389745 5.501798 0.867052 0.906994 -0.008380 0.002532 -82823.900000 1 0 0
-5.310677 0.861384 2.540245 5.949632 -0.160798 1.129670 -0.000035 -0.002973 824733.000000 1 0 0
-9.473777 -9.283416 5.797145 14.475537 0.775250 1.158757 0.006049 0.002565 -1259530.000000 1 0 0
-3.000377 3.853784 -0.576355 4.917936 -0.909270 1.688261 -0.003052 -0.004221 -382328.000000 1 0 0
-15.909377 -6.396416 4.952845 17.848056 0.382275 1.289605 0.011399 -0.004684 -997926.000000 1 0 0
0.980823 6.742184 -8.161655 10.631635 1.426334 2.446004 0.003511 -0.000553 156127.000000 1 0 0
-1.618377 6.554884 -9.507655 11.661096 -1.328741 2.524097 0.005704 -0.000884 1534210.000000 1 0 0
2.052823 -0.381616 5.203045 5.606370 -0.183800 0.381628 -0.003962 -0.000265 3147140.000000 1 0 0
-3.323577 -0.599716 -6.314955 7.161319 0.178522 2.650493 0.010849 -0.006899 -38570.800000 1 0 0
1.895423 -1.094316 -2.448755 3.284289 -0.523596 2.412226 0.000830 0.000296 -548038.000000 1 0 0
2.398023 -8.604316 -7.590255 11.721636 -1.298994 2.275151 -0.009298 0.003618 2196230.000000 1 0 0
-2.414977 13.995784 -5.594955 15.264914 -1.399929 1.946066 -0.000766 0.000095 2112350.000000 1 0 0
6.821223 -5.098216 -8.125355 11.770399 -0.641838 2.332729 -0.007570 -0.001237 4059750.000000 1 0 0
-14.129677 -4.844216 -2.152355 15.091284 0.330282 1.713907 -0.004062 -0.002588 -32261.900000 1 0 0
-2.682577 6.912384 -6.803355 10.062947 -1.200605 2.313225 0.004395 -0.001731 -2693560.000000 1 0 0
-5.615177 -1.136616 -8.135855 9.950591 0.199720 2.528071 0.015513 -0.009166 184416.000000 1 0 0
-5.749077 -10.665316 3.460045 12.600507 1.076403 1.292627 0.003210 0.001228 -2886040.000000 1 0 0
8.022923 -7.606416 6.634245 12.893334 -0.758755 1.030315 0.002158 -0.001788 1299850.000000 1 0 0
8.676023 -6.122016 13.194145 16.936290 -0.614491 0.677654 0.002689 0.000810 647112.000000 1 0 0
-4.707377 9.487384 -0.723555 10.615714 -1.110216 1.639008 0.000170 -0.000450 557619.000000 1 0 0
2.718323 6.566584 12.088745 14.023090 1.178311 0.531476 -0.009576 -0.001593 2216020.000000 1 0 0
6.030223 -2.892516 10.887045 12.777245 -0.447252 0.550878 -0.004103 -0.003265 701215.000000 1 0 0
-9.745377 -6.536916 -1.121955 11.788233 0.590839 1.666116 0.003229 -0.002755 -1144990.000000 1 0 0
0.833923 -13.476216 6.316945 14.906630 -1.508994 1.133196 0.004094 -0.002694 1246290.000000 1 0 0
-0.586377 -3.213916 8.770245 9.358969 1.390332 0.356583 -0.006570 0.001012 1259850.000000 1 0 0
4.224223 0.777484 3.366645 5.457365 0.182017 0.905999 -0.003260 0.001763 2317870.000000 1 0 0
-10.180577 5.573584 8.255145 14.242767 -0.500900 0.952555 -0.007759 -0.009732 569367.000000 1 0 0
9.426223 7.973784 0.028645 12.346486 0.702118 1.568476 0.002848 0.001942 508042.000000 1 0 0
4.150723 2.797184 8.340545 9.727149 0.592996 0.540503 -0.006232 0.000537 3583950.000000 1 0 0
1.369123 2.631784 -9.780455 10.220474 1.091099 2.847092 0.008699 -0.002711 1590860.000000 1 0 0
-1.422777 -10.166916 3.072045 10.715780 1.431757 1.280032 0.007553 -0.000489 -1636540.000000 1 0 0
-9.916277 9.510084 9.030745 16.441673 -0.764492 0.989318 -0.001453 -0.009676 169352.000000 1 0 0
9.786923 -1.982216 -7.590055 12.542806 -0.199834 2.220728 -0.001506 0.000194 1122140.000000 1 0 0
-5.208077 -1.833516 6.663745 8.653979 0.338502 0.691922 -0.004432 0.001655 1732800.000000 1 0 0
3.163023 -7.783016 -4.890755 9.721087 -1.184784 2.097987 -0.011278 -0.000102 2019700.000000 1 0 0
-5.075877 4.998284 -13.051055 14.868672 -0.777696 2.641953 -0.003900 -0.004339 2160730.000000 1 0 0
-5.619577 9.649284 5.456645 12.428327 -1.043431 1.116256 -0.003869 -0.002772 2355060.000000 1 0 0
-0.374777 -1.717616 -9.415955 9.578668 1.355967 2.957011 0.006689 -0.003225 126609.000000 1 0 0
-16.586877 0.165984 6.280845 17.736997 -0.010007 1.208834 -0.002483 -0.005363 -414066.000000 1 0 0
-6.033777 -2.862416 4.069145 7.820348 0.442958 1.023561 -0.007621 0.002036 1515220.000000 1 0 0
1.029423 -5.693716 -5.160455 7.752962 -1.391929 2.299108 -0.003074 -0.001159 701854.000000 1 0 0
-7.029377 1.421084 -8.533755 11.147044 -0.199475 2.442711 0.005701 -0.005628 74363.800000 1 0 0
7.944623 1.976184 4.843045 9.511962 0.243797 1.036596 0.000284 0.000897 -108172.000000 1 0 0
0.538123 -8.152016 -0.572555 8.189796 -1.504881 1.640764 -0.001255 -0.000206 1341620.000000 1 0 0
5.424823 5.547284 -3.383155 8.464443 0.796559 1.981975 -0.002888 0.001420 442005.000000 1 0 0
-0.727577 -0.353416 -1.222855 1.466167 0.452178 2.557203 0.001097 -0.002818 379784.000000 1 0 0
9.098023 6.411284 -6.279755 12.779433 0.613867 2.084488 -0.000085 -0.003365 80976.900000 1 0 0
-14.977877 -7.062516 2.511445 16.748830 0.440613 1.420281 -0.009424 -0.001718 1372030.000000 1 0 0
-6.423077 6.887584 8.982145 13.014364 -0.820281 0.809070 -0.000942 -0.004040 358099.000000 1 0 0
-9.479777 -3.177716 -9.683155 13.918605 0.323439 2.340188 0.011342 -0.003376 1823610.000000 1 0 0
14.924723 3.550184 -1.201355 15.388125 0.233533 1.648946 0.006143 0.001704 1964510.000000 1 0 0
12.076323 1.657584 -5.700655 13.456694 0.136407 2.008245 0.005414 -0.001196 -912463.000000 1 0 0
1.608523 -9.459816 12.723245 15.936010 -1.402370 0.646170 -0.012947 0.002884 1280960.000000 1 0 0
-3.687377 6.368384 7.885845 10.786084 -1.045951 0.750845 -0.003247 -0.002417 1482000.000000 1 0 0
-3.925777 13.125684 -12.470955 18.526198 -1.280173 2.309260 0.000805 0.001178 -136563.000000 1 0 0
-10.198277 7.783484 6.470345 14.368467 -0.651906 1.103678 -0.008267 -0.009296 568265.000000 1 0 0
8.039823 -9.188416 -7.085355 14.116232 -0.851969 2.096625 -0.002552 -0.002455 838802.000000 1 0 0
5.789923 -3.779516 -0.307255 6.921153 -0.578323 1.615205 0.000206 -0.001534 -711926.000000 1 0 0
-1.602777 -4.485316 4.073545 6.267434 1.227599 0.863272 -0.003438 0.002666 1562950.000000 1 0 0
9.893423 -2.045416 -2.466055 10.399277 -0.203873 1.810214 0.002342 -0.001472 -871079.000000 1 0 0
13.640223 6.982684 1.453645 15.392421 0.473137 1.476216 0.000837 0.003754 248079.000000 1 0 0
5.443123 -3.646316 -3.203055 7.292652 -0.590234 2.025523 -0.004153 -0.003271 -2270430.000000 1 0 0
-12.277777 -5.915516 1.959445 13.768681 0.448987 1.428000 -0.003033 0.000457 1127140.000000 1 0 0
3.706723 -5.747616 -0.191155 6.841888 -0.998004 1.598739 -0.000543 -0.003041 -155494.000000 1 0 0
-5.293977 3.693084 -8.668555 10.807817 -0.609114 2.501539 0.003736 -0.004378 -681835.000000 1 0 0
-1.752177 -9.413716 7.212045 11.987567 1.386772 0.925260 -0.004818 -0.000616 1625550.000000 1 0 0
-7.408677 -7.443016 2.669545 10.835749 0.787710 1.321869 0.009549 -0.001818 -3835090.000000 1 0 0
-5.636077 13.065484 -8.558555 16.604852 -1.163541 2.112300 0.003447 -0.006651 618548.000000 1 0 0
9.088823 -13.953916 -4.132255 17.157914 -0.993476 1.814024 0.009518 -0.001239 -152577.000000 1 0 0
-6.512977 -5.112816 -6.786455 10.705874 0.665540 2.257382 0.016217 -0.007087 441006.000000 1 0 0
3.507623 0.501584 -6.165255 7.110933 0.142035 2.619968 -0.005435 -0.001716 1094310.000000 1 0 0
-3.597077 5.746384 4.959645 8.399879 -1.011498 0.939189 -0.004021 -0.001103 246867.000000 1 0 0
-2.685677 -10.827916 -2.883555 11.522653 1.327670 1.823736 0.009471 -0.002959 2432720.000000 1 0 0
-12.533677 -0.351416 1.717845 12.655732 0.028030 1.434640 -0.002948 -0.002565 562862.000000 1 0 0
8.343423 -11.912616 -5.966955 15.720295 -0.959812 1.960128 0.003276 -0.005148 -254536.000000 1 0 0
6.145323 3.956684 1.039845 7.382521 0.572042 1.429474 0.000988 0.000659 -789362.000000 1 0 0
3.457123 -4.810316 -11.003555 12.496762 -0.947637 2.647739 -0.009862 0.003034 -51175.700000 1 0 0
-7.628577 4.216684 8.586045 12.235023 -0.504951 0.792932 -0.003275 -0.004321 399869.000000 1 0 0
8.273923 8.747684 4.108945 12.722547 0.813224 1.241935 0.004147 -0.000086 3450840.000000 1 0 0
0.310923 10.652784 -6.432755 12.448245 1.541618 2.113858 -0.001028 0.001415 752013.000000 1 0 0
5.414723 8.032884 3.421245 10.273819 0.977686 1.231306 -0.001713 0.000734 3035100.000000 1 0 0
8.025923 6.695584 -3.730255 11.097796 0.695276 1.913597 0.000918 -0.002097 1077710.000000 1 0 0
10.506923 2.637484 -8.128155 13.543214 0.245942 2.214503 -0.004088 -0.000227 634603.000000 1 0 0
3.368023 -12.601216 -0.327455 13.047661 -1.309624 1.595896 0.000608 -0.003122 -2821760.000000 1 0 0
0.612223 2.100484 5.253245 5.690644 1.287186 0.394635 -0.005527 0.000507 1239140.000000 1 0 0
-4.827477 13.449884 1.564645 14.375396 -1.226194 1.461738 -0.001292 0.001028 2032780.000000 1 0 0
8.219123 4.171384 -8.095455 12.267470 0.469647 2.291498 -0.006458 0.000560 -518416.000000 1 0 0
-13.876977 -0.477816 -3.692355 14.367752 0.034419 1.830702 0.000492 -0.002334 702491.000000 1 0 0
-8.579177 -0.027016 -0.537855 8.596063 0.003149 1.633407 -0.000699 -0.002503 212326.000000 1 0 0
1.822223 -3.819816 -1.135755 4.381944 -1.125681 1.832980 -0.001844 -0.000676 -2346120.000000 1 0 0
8.013823 -5.654416 -0.281255 9.811874 -0.614463 1.599465 0.001673 -0.000842 1895200.000000 1 0 0
-2.287177 -1.139016 7.392745 7.821842 0.462047 0.332770 -0.005591 0.000683 1638040.000000 1 0 0
-5.819577 8.908084 -11.715055 15.826053 -0.992111 2.404221 -0.001151 0.001088 -697553.000000 1 0 0
-6.130977 9.175084 -8.806355 14.118177 -0.981719 2.244340 -0.005877 0.000829 -721455.000000 1 0 0
-1.477477 14.024584 -8.422255 16.425781 -1.465834 2.109177 0.002393 -0.002181 -898084.000000 1 0 0
-1.496277 7.245584 9.708545 12.206276 -1.367150 0.651173 -0.008344 -0.003253 -148785.000000 1 0 0
9.968223 2.293484 -3.985755 10.977785 0.226144 1.942362 -0.000781 -0.000455 -1882880.000000 1 0 0
-3.005677 -7.463316 -6.887355 10.591074 1.187941 2.278773 0.007390 -0.004565 1138580.000000 1 0 0
-5.479977 -5.052416 -1.641055 7.632177 0.744826 1.787507 0.012391 -0.003999 533085.000000 1 0 0
5.751823 7.486084 -8.821655 12.920778 0.915664 2.322315 -0.001086 -0.001367 1456760.000000 1 0 0
-9.577377 5.234984 -7.450655 13.215274 -0.500228 2.169765 -0.003118 0.000676 966280.000000 1 0 0
-0.463477 6.168684 -5.313055 8.154509 -1.495803 2.280420 0.004587 -0.000387 -1020410.000000 1 0 0
-8.219577 2.802684 -6.400555 10.788123 -0.328614 2.205944 0.003276 -0.001592 471631.000000 1 0 0
3.612423 1.466984 -2.021755 4.391939 0.385749 2.049167 -0.001339 -0.001674 2442470.000000 1 0 0
-6.707477 12.424084 -3.418255 14.526960 -1.075758 1.808328 0.003882 -0.000690 1358160.000000 1 0 0
-6.539077 3.165284 -2.355555 7.637224 -0.450812 1.884339 0.003695 -0.002994 -1550450.000000 1 0 0
12.087523 4.129484 -0.888855 12.804331 0.329201 1.640271 0.003529 -0.001156 -221357.000000 1 0 0
2.291623 12.407984 -5.589155 13.800299 1.388165 1.987778 -0.002737 -0.002974 -1062780.000000 1 0 0
-9.175377 -1.435616 -4.292855 10.231185 0.155206 2.003785 0.005393 -0.002904 -91771.100000 1 0 0
-1.123677 5.664084 3.444445 6.723741 -1.374953 1.032958 -0.004786 -0.001521 1028900.000000 1 0 0
11.388623 2.567584 12.130645 16.835847 0.221744 0.766238 0.002053 0.004042 956789.000000 1 0 0
-7.014077 -2.316616 -5.834455 9.413015 0.319001 2.239320 0.014942 -0.007454 1676020.000000 1 0 0
7.348523 -7.451116 10.788245 15.030175 -0.792330 0.770199 -0.000932 0.002547 -1846600.000000 1 0 0
-5.429077 -1.907516 -10.951855 12.371606 0.337879 2.657809 0.011712 -0.003173 -34761.000000 1 0 0
0.725723 -6.270916 4.477645 7.739533 -1.455581 0.953856 -0.005308 0.002193 1771640.000000 1 0 0
-4.794077 -9.446116 7.471345 12.962765 1.101152 0.956517 -0.002992 0.002150 1603740.000000 1 0 0
-8.712377 9.325884 1.632245 12.866307 -0.819396 1.443592 0.006749 -0.004604 701130.000000 1 0 0
-8.095677 7.240984 -9.032855 14.126723 -0.729727 2.264535 -0.002928 0.001323 -806710.000000 1 0 0
-1.337377 -10.613016 -0.111655 10.697531 1.445444 1.581234 0.006304 -0.001958 -307175.000000 1 0 0
-3.892777 10.224084 7.712945 13.385631 -1.206998 0.956712 0.000927 -0.003353 496407.000000 1 0 0
-7.504677 12.054884 1.936145 14.331401 -1.013966 1.435284 0.004705 -0.003916 723092.000000 1 0 0
-8.154677 -8.217316 -2.807555 11.912406 0.789224 1.808718 0.011398 -0.005647 -250291.000000 1 0 0
5.440623 4.661284 -8.087755 10.804616 0.708403 2.416663 -0.001217 0.001514 2167710.000000 1 0 0
-8.915677 -0.149516 -10.271355 13.601926 0.016768 2.426664 0.007872 -0.003319 -2249380.000000 1 0 0
-15.118377 -2.077716 -1.597055 15.343820 0.136574 1.675070 0.000082 -0.005513 -241114.000000 1 0 0
-7.118377 -5.792316 8.776145 12.698147 0.683047 0.807737 0.000706 0.000067 -951390.000000 1 0 0
8.147023 3.395484 -0.888555 8.870897 0.394884 1.671130 0.002134 0.001461 248859.000000 1 0 0
11.887823 7.254284 -5.866955 15.111787 0.547906 1.969514 0.000537 -0.004342 243825.000000 1 0 0
3.802423 13.328684 -9.645355 16.886240 1.292897 2.178759 -0.009788 -0.004542 704894.000000 1 0 0
-9.652477 5.457784 -0.513655 11.100521 -0.514611 1.617086 0.001646 -0.002892 1789020.000000 1 0 0
11.205323 -1.294916 -5.100655 12.379529 -0.115052 1.995470 0.004182 -0.001073 -605980.000000 1 0 0
10.654923 1.740684 -1.176955 10.860137 0.161938 1.679383 0.006798 0.000955 727249.000000 1 0 0
14.533623 4.962684 4.866745 16.110233 0.329049 1.263912 -0.000106 -0.002246 2264320.000000 1 0 0
0.822123 -0.861816 10.333945 10.402357 -0.808966 0.114750 -0.004024 -0.002124 1820210.000000 1 0 0
-7.914177 1.416384 -12.677655 15.012105 -0.177093 2.576419 0.002096 -0.000540 -1418140.000000 1 0 0
3.066023 -11.525616 -7.800355 14.250820 -1.310800 2.150005 -0.010974 0.002566 1550210.000000 1 0 0
2.873523 5.105584 -6.835355 9.002566 1.058164 2.432983 0.000171 0.001378 -2677010.000000 1 0 0
6.515223 8.048684 0.602145 10.372657 0.890304 1.512712 0.001129 -0.001229 143529.000000 1 0 0
-9.066477 -5.391116 6.813545 12.557450 0.536455 0.997279 0.001290 0.001845 -1074140.000000 1 0 0
-0.283877 -6.850616 -11.894755 13.729411 1.529382 2.618684 -0.003919 0.004610 2479980.000000 1 0 0
6.301423 -13.441116 -4.679055 15.564867 -1.132405 1.876135 -0.000112 -0.002081 2554190.000000 1 0 0
-3.242577 -0.281016 10.034545 10.549188 0.086448 0.313646 -0.004311 0.001121 -86154.400000 1 0 0
8.653223 8.495284 7.008145 14.005792 0.776188 1.046765 0.002883 -0.002128 -1258560.000000 1 0 0
-7.872077 5.736684 -2.718955 10.112955 -0.629754 1.843004 0.003472 -0.004301 1001580.000000 1 0 0
-5.385777 5.836884 -6.499655 10.262618 -0.825573 2.256649 0.001864 -0.000572 -184332.000000 1 0 0
3.319823 -13.685716 2.470945 14.297749 -1.332817 1.397104 0.012027 -0.008601 -2250300.000000 1 0 0
-11.270877 -6.921316 6.560845 14.764213 0.550714 1.110320 0.004325 -0.001273 -261032.000000 1 0 0
-12.904477 -3.637916 -6.827055 15.045553 0.274780 2.041775 0.010146 -0.004165 -22979.400000 1 0 0
6.100723 0.381084 -7.243755 9.478187 0.062384 2.440682 -0.008641 0.003118 -1614180.000000 1 0 0
-1.427877 2.193184 -2.474455 3.601641 -0.993682 2.328198 0.002070 -0.003590 1722370.000000 1 0 0
7.538923 0.969784 -4.969955 9.081646 0.127934 2.149875 -0.002587 0.001189 66250.800000 1 0 0
3.639923 -4.505616 10.793645 12.249587 -0.891279 0.492521 -0.007557 -0.001547 -575281.000000 1 0 0
5.982923 -2.538916 2.148845 6.845363 -0.401329 1.251485 0.005281 -0.003128 -2237400.000000 1 0 0
-6.261477 7.648784 1.117045 9.947753 -0.884802 1.458268 0.000587 -0.002890 2672820.000000 1 0 0
5.998123 -3.441016 7.892145 10.493046 -0.520843 0.719507 0.000485 -0.003899 1208470.000000 1 0 0
6.782423 -2.250316 -7.831555 10.601813 -0.320358 2.401935 -0.008567 -0.000099 -17046.200000 1 0 0
11.937923 -8.143416 -5.847355 15.589124 -0.598643 1.955292 0.005806 -0.005029 1681170.000000 1 0 0
5.508623 -9.743816 9.909745 14.949579 -1.056248 0.846140 -0.004726 0.005639 2798910.000000 1 0 0
-6.528777 7.606684 -4.524355 10.998016 -0.861506 1.994763 0.001194 -0.001490 1508610.000000 1 0 0
-1.353277 -7.659616 9.662545 12.404268 1.395924 0.677776 -0.005881 -0.000045 -485843.000000 1 0 0
10.081323 -9.390316 0.736945 13.796891 -0.749925 1.517357 0.004668 -0.004331 1176810.000000 1 0 0
11.070523 6.053484 9.893045 16.033511 0.500392 0.905842 0.005417 0.000869 2310480.000000 1 0 0
-15.286077 -4.122816 -4.963355 16.592066 0.263442 1.874588 -0.000628 -0.000346 1953990.000000 1 0 0
-4.697077 -4.581516 7.795345 10.189221 0.772944 0.699665 -0.000441 -0.000062 164810.000000 1 0 0
3.001223 10.917284 -11.152955 15.892855 1.302518 2.348660 -0.003627 -0.002463 -2492090.000000 1 0 0
9.929323 -1.381816 1.679845 10.164780 -0.138277 1.404773 0.005307 0.000844 -222659.000000 1 0 0
-1.629977 -2.604916 0.620845 3.134942 1.011671 1.371438 -0.001012 -0.001591 508329.000000 1 0 0
1.558923 2.992684 0.933045 3.500995 1.090560 1.301028 -0.006350 0.000148 -1318080.000000 1 0 0
-8.931877 -2.345316 4.342745 10.204821 0.256781 1.131218 -0.001972 -0.000151 2357500.000000 1 0 0
9.862623 4.859284 -2.747155 11.332732 0.457788 1.815644 0.000019 -0.000939 1640770.000000 1 0 0
2.569323 8.411484 2.527945 9.151228 1.274343 1.290916 -0.003444 -0.001521 2113250.000000 1 0 0
-8.136677 -0.071216 2.435545 8.493672 0.008752 1.279966 -0.004532 -0.001974 670611.000000 1 0 0
6.792123 2.099084 13.698145 15.433025 0.299736 0.478717 -0.004915 -0.005309 -1631820.000000 1 0 0
6.845923 4.398884 3.832345 8.994649 0.571124 1.130653 0.000075 0.001115 54052.900000 1 0 0
-0.292377 3.412784 7.783545 8.503890 -1.485334 0.414563 -0.009597 -0.001371 -728972.000000 1 0 0
2.611723 -10.366816 9.237145 14.128582 -1.324001 0.858212 -0.002813 -0.001414 1222570.000000 1 0 0
1.211323 -4.598216 6.895945 8.376452 -1.313215 0.603677 -0.006907 0.001013 173316.000000 1 0 0
-0.055177 10.751184 -2.014055 10.938346 -1.565664 1.755981 -0.001822 -0.000690 1844010.000000 1 0 0
8.730323 5.528484 8.113445 13.138137 0.564510 0.905174 -0.005574 -0.001691 165499.000000 1 0 0
2.703523 11.462084 -2.991255 12.150556 1.339163 1.819536 -0.000696 -0.005417 2100900.000000 1 0 0
1.505423 2.551384 -6.745555 7.367386 1.037731 2.727786 0.003202 -0.001176 1458970.000000 1 0 0
-13.540077 -2.203416 3.588145 14.179687 0.161319 1.314967 -0.003071 -0.004136 682313.000000 1 0 0
-0.918377 -10.598716 -5.269655 11.872046 1.484362 2.030710 -0.000144 0.000223 -535913.000000 1 0 0
-5.626077 2.817884 0.411745 6.305771 -0.464336 1.505453 0.001463 -0.002939 794588.000000 1 0 0
3.777023 7.310584 -5.036555 9.647664 1.093917 2.120048 -0.004230 0.000339 -2777140.000000 1 0 0
3.026923 9.835984 -6.552455 12.200144 1.272254 2.137768 -0.001803 -0.001590 1862910.000000 1 0 0
-12.188677 1.765284 -2.574155 12.581985 -0.143830 1.776842 0.001381 -0.001428 1095450.000000 1 0 0
-2.387977 9.674284 -5.701355 11.480403 -1.328796 2.090492 0.000171 0.000119 987018.000000 1 0 0
-1.338877 3.286584 1.750845 3.957232 -1.183947 1.112477 -0.006210 -0.001789 541257.000000 1 0 0
12.805223 3.653284 9.801945 16.534761 0.277913 0.936255 0.010784 -0.001434 1413460.000000 1 0 0
-2.550577 -9.521416 11.649045 15.259851 1.309063 0.702269 -0.011269 -0.003091 583203.000000 1 0 0
-0.499477 -8.899216 -7.483855 11.638454 1.514729 2.269242 -0.002063 0.001175 2258860.000000 1 0 0
2.376123 7.753184 -0.508755 8.125063 1.273414 1.633453 -0.004684 0.002475 1164980.000000 1 0 0
-11.856677 -1.232716 -5.583155 13.163283 0.103596 2.008815 0.003260 0.001166 -1033180.000000 1 0 0
-6.101077 -7.194316 -10.953755 14.455659 0.867440 2.430652 0.009273 0.000475 611340.000000 1 0 0
-4.637377 -2.302516 -1.478655 5.384540 0.460854 1.848982 0.006931 -0.004200 -536451.000000 1 0 0
-10.426977 3.748084 4.490145 11.955392 -0.345078 1.185779 -0.006688 -0.007334 3876810.000000 1 0 0
6.789723 9.320984 -3.643255 12.093568 0.941241 1.876805 -0.003568 -0.000629 -953348.000000 1 0 0
1.324123 -2.681116 -11.549155 11.929990 -1.112065 2.888240 0.000793 -0.001188 -1452670.000000 1 0 0
1.266923 8.778084 7.617645 11.691380 1.427458 0.861156 -0.009426 0.002640 224730.000000 1 0 0
10.257623 0.255584 10.535845 14.706739 0.024911 0.772174 0.000409 -0.001380 159686.000000 1 0 0
-5.266777 -0.871016 -4.015155 6.679752 0.163896 2.215665 0.009958 -0.007162 -16593.500000 1 0 0
11.661823 5.663484 5.475745 14.073270 0.452096 1.171155 0.001921 0.000448 2191060.000000 1 0 0
9.866423 -3.567716 3.705745 11.126879 -0.346973 1.231266 0.013748 -0.005440 -363203.000000 1 0 0
7.311023 -1.600616 -3.334455 8.193388 -0.215531 1.989930 -0.002257 0.000228 -4558200.000000 1 0 0
2.471423 9.147484 10.409045 14.075958 1.306921 0.738482 -0.008971 0.000396 2506310.000000 1 0 0
2.392223 -10.957216 6.366845 12.896512 -1.355845 1.054472 -0.003527 -0.000787 1394950.000000 1 0 0
5.848623 -7.578016 -1.166955 9.643366 -0.913496 1.692105 -0.004654 -0.003223 1857620.000000 1 0 0
-0.125877 -5.607316 -2.346455 6.079777 1.548351 1.967027 -0.000181 -0.000100 1496450.000000 1 0 0
7.681123 -5.118316 2.625045 9.596232 -0.587783 1.293715 0.004379 -0.004198 1830990.000000 1 0 0
-2.723577 -12.563516 4.625445 13.662158 1.357315 1.225411 0.005590 -0.002731 163908.000000 1 0 0
4.844923 -10.338916 -1.231555 11.484041 -1.132574 1.678244 -0.002325 -0.006038 349032.000000 1 0 0
0.952523 0.199184 1.122745 1.485776 0.206141 0.714131 -0.006707 0.000473 -2700980.000000 1 0 0
-1.559277 8.507784 2.516245 9.008064 -1.389531 1.287697 -0.005748 -0.000547 -923674.000000 1 0 0
-7.533277 0.641684 -3.033955 8.146589 -0.084975 1.952412 0.004301 -0.002230 -414278.000000 1 0 0
4.362223 -6.355616 12.781345 14.926005 -0.969285 0.542707 -0.003683 0.001660 -1464950.000000 1 0 0
-5.087477 12.942984 8.372845 16.232923 -1.196280 1.028862 0.005294 -0.007518 1880840.000000 1 0 0
0.599323 6.142084 8.267545 10.316815 1.473528 0.641221 -0.009531 0.001460 4537.340000 1 0 0
8.007723 -0.518816 -0.667955 8.052264 -0.064699 1.653844 0.004274 -0.000618 3368910.000000 1 0 0
2.379023 -9.258216 -2.403755 9.856589 -1.319275 1.817154 -0.005279 -0.001367 1956780.000000 1 0 0
-7.180477 12.149784 4.860945 14.926664 -1.037023 1.239092 0.002079 -0.002800 180206.000000 1 0 0
-14.918077 0.375484 0.124145 14.923318 -0.025164 1.562477 0.001698 -0.005847 283007.000000 1 0 0
6.815923 -0.497416 3.925745 7.881351 -0.072849 1.049384 0.004330 -0.000927 -326.874000 1 0 0
-4.208877 -5.008016 5.049645 8.264006 0.871886 0.913422 -0.002704 0.001581 1400330.000000 1 0 0
2.869523 5.044284 6.951845 9.055778 1.053584 0.695600 -0.007721 0.000767 -2133680.000000 1 0 0
2.011023 -7.240316 1.772545 7.720642 -1.299872 1.339145 -0.002411 0.000016 1297040.000000 1 0 0
-2.399877 6.423184 -1.702355 7.065035 -1.213230 1.814146 -0.001571 0.000304 1669920.000000 1 0 0
2.736723 -3.771116 -6.527355 8.019809 -0.943025 2.521637 -0.009111 -0.000798 -278997.000000 1 0 0
-5.123877 0.942584 -12.165255 13.233896 -0.181925 2.736967 0.004640 -0.003330 749960.000000 1 0 0
-7.461877 6.483084 -11.846555 15.428897 -0.715323 2.446222 -0.001908 -0.002810 1725250.000000 1 0 0
-0.945977 11.220284 -9.127355 14.494766 -1.486686 2.251963 -0.001513 0.002022 1924650.000000 1 0 0
4.660823 5.966284 -0.622555 7.596538 0.907628 1.652841 -0.002944 0.000714 449216.000000 1 0 0
-2.546177 13.316984 3.649545 14.040807 -1.381879 1.307853 -0.004821 0.003331 159884.000000 1 0 0
1.435623 -7.986016 10.198245 13.032332 -1.392929 0.672071 -0.010477 0.000685 -191027.000000 1 0 0
13.062123 -0.124316 -0.975455 13.099084 -0.009517 1.645333 0.012269 0.000427 929113.000000 1 0 0
-1.020777 3.124584 -5.403755 6.324996 -1.255035 2.595093 0.005440 -0.003553 1895440.000000 1 0 0
6.457423 1.051784 7.329545 9.824805 0.161462 0.728724 -0.000438 0.000309 2113230.000000 1 0 0
5.391123 -6.150616 6.782945 10.625565 -0.851108 0.878429 -0.001234 -0.001114 1336910.000000 1 0 0
12.158723 -4.995516 2.659845 13.411357 -0.389832 1.371145 0.011692 -0.002394 -347964.000000 1 0 0
4.420523 -9.167616 13.792345 17.141032 -1.121499 0.635729 -0.001224 0.004611 507934.000000 1 0 0
-2.665277 -4.356416 -1.529755 5.331249 1.021742 1.861829 0.007326 -0.003537 1776490.000000 1 0 0
-9.296777 -5.166016 -7.572855 13.056260 0.507192 2.189546 0.013013 -0.005717 47438.900000 1 0 0
-10.489477 -3.082716 7.897545 13.487160 0.285839 0.945225 -0.000972 -0.000148 -31321.800000 1 0 0
12.097823 -0.545216 1.779045 12.240081 -0.045037 1.424934 0.008930 0.000146 1300930.000000 1 0 0
-7.556977 4.717784 4.390545 9.931882 -0.558092 1.112896 -0.001722 -0.005702 1717260.000000 1 0 0
-1.038477 10.490784 7.039645 12.676418 -1.472128 0.982032 -0.003381 0.001940 902060.000000 1 0 0
7.377223 -10.061016 1.860845 12.613889 -0.938103 1.422732 0.000854 -0.005447 4234380.000000 1 0 0
-4.330377 -1.765716 1.614145 4.947260 0.387170 1.238441 -0.001197 0.001429 1964540.000000 1 0 0
6.684923 -15.104516 -1.005655 16.548291 -1.154132 1.631605 0.007608 -0.003938 -1471860.000000 1 0 0
-10.443377 1.736884 2.332945 10.840827 -0.164806 1.353900 -0.006165 -0.002880 833719.000000 1 0 0
-3.002677 8.327384 -11.450655 14.473386 -1.224729 2.483487 0.000515 0.001357 -361833.000000 1 0 0
-1.241477 -5.108016 -6.851255 8.635554 1.332374 2.487134 0.000217 -0.002134 -1048990.000000 1 0 0
12.775523 -0.560516 6.495845 14.343087 -0.043846 1.100792 0.011992 -0.004472 2547560.000000 1 0 0
5.936023 -13.286316 3.620745 14.995745 -1.150626 1.326935 0.007862 -0.007530 691933.000000 1 0 0
-5.649977 3.515484 -4.985455 8.314784 -0.556592 2.213784 0.005141 -0.003917 -174876.000000 1 0 0
-4.324877 8.033584 3.383845 9.731055 -1.076942 1.215640 -0.002384 -0.002759 -452852.000000 1 0 0
14.035323 6.187084 -3.993755 15.849933 0.415196 1.825515 0.015609 -0.002982 1431360.000000 1 0 0
-6.688777 -8.538616 5.382445 12.108610 0.906287 1.110165 0.010554 0.001991 653621.000000 1 0 0
1.707323 11.341484 2.697645 11.782253 1.421380 1.339789 -0.003313 -0.001338 1575970.000000 1 0 0
-7.311477 7.291584 6.032845 11.959102 -0.784036 1.042044 -0.004459 -0.006360 -28857.700000 1 0 0
-17.294977 -3.977916 5.099545 18.464707 0.226072 1.290981 0.006080 -0.008850 -649537.000000 1 0 0
7.485723 -12.870216 -8.544755 17.166577 -1.043993 2.091805 0.004724 -0.004381 -655679.000000 1 0 0
-2.229877 12.799384 -2.777055 13.285654 -1.398310 1.781376 -0.004032 0.002330 347824.000000 1 0 0
-5.431777 13.853784 -5.714255 15.940020 -1.197137 1.937441 0.001413 -0.000934 1857090.000000 1 0 0
-5.688377 2.473684 7.438945 9.685796 -0.410198 0.695043 -0.003581 -0.002443 1497230.000000 1 0 0
-7.420577 5.043184 1.501345 9.096852 -0.596918 1.404998 0.000136 -0.002555 1200120.000000 1 0 0
10.648223 -5.647716 -5.016255 13.055426 -0.487663 1.965167 0.001992 -0.002166 1784100.000000 1 0 0
-9.503677 -0.689416 6.798345 11.705241 0.072415 0.951091 -0.004416 -0.001869 -268564.000000 1 0 0
-11.259877 -4.584416 -2.595355 12.431314 0.386652 1.781119 -0.002406 -0.001342 -32646.900000 1 0 0
6.495723 -4.352416 13.464445 15.570139 -0.590337 0.526123 -0.002323 -0.004837 909413.000000 1 0 0
0.326123 10.220084 -11.658955 15.507666 1.538897 2.421613 -0.003107 -0.000126 -1882810.000000 1 0 0
-11.779777 -3.149416 1.434445 12.277606 0.261248 1.453695 -0.002302 -0.000974 4825110.000000 1 0 0
5.222923 5.917384 5.485445 9.611683 0.847655 0.963431 -0.003096 0.000791 -4534890.000000 1 0 0
-7.156177 -0.023716 8.085345 10.797418 0.003314 0.724513 -0.004676 -0.000412 -872044.000000 1 0 0
1.607223 2.006884 9.696445 10.031540 0.895534 0.259198 -0.007127 -0.003377 2267420.000000 1 0 0
10.398623 -4.958816 -2.025755 11.697217 -0.444975 1.744857 0.001274 -0.000989 1728630.000000 1 0 0
-9.651777 -2.373416 -1.636255 10.073095 0.241120 1.733957 0.003039 -0.002383 -1610910.000000 1 0 0
-1.922777 -5.180716 -9.882655 11.322710 1.215413 2.631741 0.008510 -0.002529 572631.000000 1 0 0
7.631523 -1.534716 6.578245 10.191604 -0.198455 0.869175 0.004446 -0.003697 3508590.000000 1 0 0
1.519923 -11.918316 -2.527855 12.277886 -1.443953 1.778166 -0.000943 -0.000071 -3707290.000000 1 0 0
-0.788677 -1.553216 4.767545 5.075823 1.100952 0.350313 -0.002882 0.000327 1038070.000000 1 0 0
7.626523 1.485584 9.867145 12.559114 0.192383 0.667040 -0.003144 -0.000659 508301.000000 1 0 0
-3.789877 10.708284 -8.030055 13.910870 -1.230633 2.186154 0.001600 0.002433 2758260.000000 1 0 0
-9.567877 12.683284 6.443445 17.144327 -0.924505 1.185498 -0.002742 -0.002336 1280860.000000 1 0 0
-2.461777 -2.395116 -11.058555 11.579662 0.771674 2.840450 0.011507 -0.004842 -1204330.000000 1 0 0
1.162623 -12.009316 11.119045 16.407575 -1.474287 0.826197 -0.006807 0.003959 1962050.000000 1 0 0
1.398623 3.526084 -1.912255 4.248074 1.193181 2.037726 -0.001565 -0.001099 2466480.000000 1 0 0
-1.967077 -9.406316 -12.111155 15.460539 1.364644 2.470848 -0.004269 0.004180 476337.000000 1 0 0
1.265023 -2.684416 1.558645 3.351977 -1.130415 1.087170 0.001874 -0.000733 1170780.000000 1 0 0
-0.962177 -2.158616 -6.623555 7.032559 1.151492 2.798864 0.004569 -0.006877 205567.000000 1 0 0
1.786723 5.843384 4.135945 7.378587 1.274056 0.975767 -0.009856 0.002468 -1573520.000000 1 0 0
-10.908877 8.656284 3.595545 14.382726 -0.670770 1.318126 -0.005485 -0.006671 567412.000000 1 0 0
-16.244077 -1.479716 3.812645 16.750996 0.090842 1.341177 0.002005 -0.004376 197301.000000 1 0 0
-12.152077 0.343184 6.707745 13.884689 -0.028233 1.066600 -0.008027 -0.006010 58611.300000 1 0 0
-5.048177 3.030484 4.573645 7.455612 -0.540649 0.910375 -0.004728 -0.002255 2114440.000000 1 0 0
5.145823 -6.082716 3.892945 8.867578 -0.868644 1.116301 -0.002210 -0.001582 1626170.000000 1 0 0
9.865823 3.406184 6.356645 12.220617 0.332438 1.023761 0.000518 0.002470 681084.000000 1 0 0
-12.060877 5.925084 3.223845 13.818993 -0.456635 1.335336 -0.000100 -0.007591 1927940.000000 1 0 0
-4.808277 12.343784 -1.177055 13.299398 -1.199348 1.659417 -0.003999 0.001096 1663860.000000 1 0 0
-1.759077 -12.193716 10.434245 16.144799 1.427524 0.868082 -0.005517 -0.002113 1411970.000000 1 0 0
5.156323 6.288084 13.941345 16.139664 0.883970 0.528044 -0.003979 -0.002544 1278070.000000 1 0 0
12.795423 -3.753616 -5.923855 14.591249 -0.285350 1.988855 0.000738 0.000364 1137070.000000 1 0 0
3.479623 -2.623516 6.431145 7.768541 -0.646034 0.595542 -0.005670 0.000281 1458360.000000 1 0 0
7.123523 -11.972316 -0.670355 13.947412 -1.034062 1.618878 0.000746 -0.002945 -872460.000000 1 0 0
-6.089677 -6.545216 -4.089155 9.830830 0.821437 1.999786 0.015790 -0.006987 -1733350.000000 1 0 0
0.297223 -8.980316 5.093745 10.328633 -1.537711 1.055069 -0.000203 -0.000328 2638160.000000 1 0 0
-10.289177 2.506184 -0.460955 10.600029 -0.238922 1.614296 -0.001752 -0.000995 -645445.000000 1 0 0
-1.778477 8.978084 -0.311655 9.157844 -1.375237 1.604834 -0.000390 0.000730 144855.000000 1 0 0
-3.586477 2.293084 -6.562155 7.821952 -0.568866 2.566130 0.011225 -0.006854 1288380.000000 1 0 0
-12.672777 3.077484 6.377345 14.516912 -0.238231 1.115972 -0.006597 -0.009417 -389652.000000 1 0 0
11.328323 1.553284 8.046145 13.981560 0.136265 0.957602 0.003954 -0.004875 -2053070.000000 1 0 0
6.028823 2.692284 -3.168355 7.323494 0.419997 2.018203 -0.002474 0.000719 1544310.000000 1 0 0
10.479223 -2.436416 6.412845 12.524968 -0.228441 1.033279 0.011800 -0.005499 3980710.000000 1 0 0
-0.880077 10.957084 4.157145 11.752194 -1.490648 1.209237 0.000789 0.000166 1579050.000000 1 0 0
-1.699377 -12.303516 7.441345 14.478882 1.433543 1.031019 -0.007915 0.000824 -400454.000000 1 0 0
8.121823 8.662284 -7.790155 14.201608 0.817588 2.151414 0.000775 -0.004921 1966270.000000 1 0 0
-4.643477 -5.916716 -8.750155 11.538398 0.905389 2.431576 0.011597 -0.004984 821214.000000 1 0 0
-8.468977 -5.367416 -11.680055 15.393389 0.564884 2.432220 0.010520 -0.000183 2792000.000000 1 0 0
6.102923 -0.594116 -9.959055 11.695359 -0.097044 2.589710 -0.008121 0.003106 -1057730.000000 1 0 0
-11.126177 -5.339316 -5.404155 13.472380 0.447429 1.983545 0.002196 -0.006117 531505.000000 1 0 0
3.954923 8.968684 -2.782855 10.189356 1.155477 1.847425 -0.001281 -0.002110 1918280.000000 1 0 0
11.558423 -10.428616 -4.061355 16.088747 -0.734058 1.825992 0.006270 -0.004821 229362.000000 1 0 0
3.885523 -11.359516 3.908045 12.625716 -1.241221 1.256097 0.001133 -0.002427 748381.000000 1 0 0
-1.076177 0.849184 3.188245 3.470472 -0.668043 0.406077 -0.005087 0.000255 -975444.000000 1 0 0
-10.614677 -5.038616 4.555145 12.601920 0.443190 1.200958 0.004043 -0.001554 3942360.000000 1 0 0
4.550923 -8.682516 2.775345 10.188205 -1.088018 1.294902 -0.003336 -0.001690 5717140.000000 1 0 0
-3.756777 -5.704016 2.544445 7.288579 0.988385 1.214186 0.000733 0.001615 1947630.000000 1 0 0
9.913423 5.077384 12.319145 16.607742 0.473338 0.735089 -0.001625 -0.000456 4268.670000 1 0 0
1.601523 -12.312316 -5.251955 13.481136 -1.441448 1.970970 -0.003628 0.001520 1893570.000000 1 0 0
9.814423 -10.816116 -1.720355 14.706151 -0.833914 1.688047 0.002699 -0.004682 927804.000000 1 0 0
9.563423 -4.421016 -9.177755 13.972674 -0.433022 2.287411 0.000835 -0.003097 2604130.000000 1 0 0
-7.302777 -3.120716 -13.137455 15.351292 0.403845 2.597869 0.009883 0.000518 680892.000000 1 0 0
0.468123 6.273184 -2.501555 6.769767 1.496312 1.949287 -0.002108 -0.000453 1425630.000000 1 0 0
-5.968177 -9.520316 0.964045 11.277630 1.010840 1.485209 0.009833 -0.000820 1509090.000000 1 0 0
-9.034677 -4.152016 0.558145 9.958723 0.430779 1.514721 -0.001185 -0.001810 2130470.000000 1 0 0
1.855823 3.740184 12.100545 12.800634 1.110205 0.332258 -0.008339 -0.005791 1822320.000000 1 0 0
6.552423 4.234684 9.671545 12.426004 0.573754 0.678793 -0.009512 0.000624 2329520.000000 1 0 0
-8.225377 9.874684 -3.578055 13.340491 -0.876269 1.842331 0.002366 -0.001658 1258510.000000 1 0 0
16.360523 2.129684 -6.102555 17.591004 0.129444 1.925074 0.015715 -0.001234 -1767520.000000 1 0 0
-10.926377 2.645284 -5.116955 12.351780 -0.237530 1.997935 0.000061 0.001387 1540440.000000 1 0 0
-13.708177 4.133684 1.457045 14.391819 -0.292877 1.469381 0.000046 -0.002797 568717.000000 1 0 0
-17.364577 10.526484 3.308645 20.573831 -0.544969 1.409277 0.020270 -0.012676 -1179580.000000 1 0 0
-14.321877 2.992484 -1.171655 14.678008 -0.205981 1.650705 0.004165 -0.000205 1098960.000000 1 0 0
-14.284377 5.168684 5.105345 16.025707 -0.347185 1.246573 -0.006925 -0.010756 1028870.000000 1 0 0
-17.395077 7.606284 3.210045 19.254835 -0.412214 1.403301 0.015862 -0.011517 -2177690.000000 1 0 0
-15.214577 12.586884 -3.189455 20.002141 -0.691162 1.730936 0.049898 -0.009035 -1580610.000000 1 0 0
-8.427777 12.435484 -9.582955 17.818578 -0.975180 2.138630 0.005363 -0.013668 1161630.000000 1 0 0
-12.258477 8.899784 -9.840655 18.064189 -0.627970 2.146900 0.003608 0.000816 -1199380.000000 1 0 0
-13.887877 -3.431616 -12.314055 18.875515 0.242242 2.281520 0.013231 0.005379 -1237350.000000 1 0 0
-14.704777 5.922184 -7.688955 17.618819 -0.382865 2.022396 0.008083 0.004069 -104476.000000 1 0 0
-10.775577 13.577784 -8.330055 19.231721 -0.899959 2.018772 0.015676 -0.015024 2363860.000000 1 0 0
-10.849877 13.591284 3.910445 17.825106 -0.897095 1.349619 0.004618 0.000006 274849.000000 1 0 0
-15.147377 3.343084 3.005845 15.800454 -0.217222 1.379392 0.000073 -0.002853 2166.550000 1 0 0
-11.017077 9.418884 -12.506455 19.144262 -0.707352 2.282697 0.000687 -0.001859 -996050.000000 1 0 0
-12.978977 11.629784 -8.913955 19.574583 -0.730627 2.043600 0.017888 -0.019415 1242270.000000 1 0 0
-8.797577 14.555584 -3.281455 17.321384 -1.027139 1.761394 0.013677 -0.007265 859532.000000 1 0 0
-16.698277 8.345384 -4.117655 19.116301 -0.463468 1.787898 0.020638 0.002967 -640768.000000 1 0 0
-16.974477 6.760484 0.473345 18.277338 -0.379017 1.544896 0.016343 0.001527 -273182.000000 1 0 0
-10.471177 2.836884 -12.644355 16.660528 -0.264572 2.432481 0.005418 -0.000082 1334050.000000 1 0 0
-16.749777 0.938284 2.324545 16.936320 -0.055959 1.433110 0.005996 -0.005416 615421.000000 1 0 0
-12.702077 1.333684 -7.025955 14.576883 -0.104614 2.073724 0.006136 0.000408 1356190.000000 1 0 0
-12.291977 9.133484 -5.347655 16.220686 -0.639035 1.906762 0.018092 -0.002282 -281539.000000 1 0 0
-9.546577 13.995584 1.190945 16.983282 -0.972176 1.500614 0.021226 -0.003273 -554103.000000 1 0 0
-12.149077 11.137084 2.790145 16.715849 -0.741966 1.403095 0.002709 -0.000725 1627690.000000 1 0 0
-12.513077 6.872284 -3.664755 14.738922 -0.502235 1.822077 0.008467 0.001046 -366247.000000 1 0 0
-15.787777 3.766584 -9.450255 18.781597 -0.234198 2.098054 0.011186 0.002521 -2798310.000000 1 0 0
-15.046077 5.945484 -4.716455 16.851652 -0.376320 1.854466 0.013179 0.002837 1766700.000000 1 0 0
-17.781477 5.348784 7.559045 20.048182 -0.292197 1.184194 0.008142 -0.008603 526052.000000 1 0 0
-15.834677 10.031084 -1.932655 18.843959 -0.564680 1.673538 0.026003 -0.003495 -1876220.000000 1 0 0
-8.719977 9.976584 -8.262555 15.615378 -0.852508 2.128371 0.001717 -0.006011 -400707.000000 1 0 0
-17.005977 4.280084 -1.324955 17.586298 -0.246560 1.646208 0.008564 0.003601 659201.000000 1 0 0
-10.193477 5.405484 -4.523255 12.392985 -0.487584 1.944413 -0.001003 -0.000510 -445152.000000 1 0 0
-18.012077 2.826684 6.216745 19.263255 -0.155663 1.242189 0.006209 -0.005761 -724215.000000 1 0 0
-10.280477 10.181884 -5.699555 15.551331 -0.780580 1.946040 0.007110 -0.005527 903648.000000 1 0 0
-15.412677 0.545684 -6.016555 16.554375 -0.035390 1.942756 0.004445 -0.000528 1144780.000000 1 0 0
-16.400577 -4.096616 -8.897155 19.102894 0.244776 2.055277 0.000977 -0.002540 -1212640.000000 1 0 0
-9.978177 9.701184 -1.110055 13.960989 -0.771324 1.650392 0.009786 -0.004084 1560880.000000 1 0 0
-17.332377 -2.938316 -3.175155 17.864115 0.167931 1.749485 0.006419 -0.004909 -68304.100000 1 0 0
-11.884177 5.026984 -11.600855 17.351774 -0.400174 2.303079 0.001060 0.003231 23471.600000 1 0 0
-16.236177 7.116484 5.866445 18.672787 -0.413090 1.251213 0.003490 -0.011144 1835090.000000 1 0 0
-12.086677 6.072384 -8.915455 16.200215 -0.465568 2.153555 0.005593 0.001489 1363980.000000 1 0 0
-14.499177 8.346384 0.000545 16.729862 -0.522319 1.570764 0.014578 -0.003512 1990390.000000 1 0 0
-14.833277 11.817784 3.973945 19.377264 -0.672730 1.364248 0.002698 -0.013238 782708.000000 1 0 0
-17.247477 4.134884 -4.173255 18.220560 -0.235298 1.801889 0.006796 0.001663 668519.000000 1 0 0
-13.906477 13.477084 -0.621855 19.375464 -0.769719 1.602897 0.025254 -0.002703 -323641.000000 1 0 0
-9.977877 6.788584 -13.166055 17.860233 -0.597425 2.399671 -0.006107 -0.001388 67724.200000 1 0 0
-15.872177 -1.132316 -8.378155 17.983371 0.071219 2.055429 0.003176 -0.003452 -440592.000000 1 0 0
-11.380877 12.054484 -0.029455 16.578173 -0.814133 1.572573 0.020591 -0.002561 1405740.000000 1 0 0
-11.952877 7.379484 -0.898155 14.076034 -0.553102 1.634647 0.007519 -0.001930 2749380.000000 1 0 0
-11.376077 0.246084 -11.708655 16.326919 -0.021628 2.370483 0.011465 -0.007054 -767036.000000 1 0 0
-19.158977 -1.243316 -4.686655 19.763021 0.064804 1.810220 0.016104 -0.004211 -461664.000000 1 0 0
-17.992877 1.460584 -5.084855 18.754538 -0.080998 1.845360 0.006327 0.002050 -681238.000000 1 0 0
-13.334977 0.025684 -9.584355 16.422002 -0.001926 2.193987 0.010947 -0.003014 428533.000000 1 0 0
-6.104677 11.394184 -13.207855 18.480853 -1.078943 2.366960 -0.010708 0.006433 -676754.000000 1 0 0
16.250123 5.731384 7.150845 18.656094 0.339076 1.177432 0.004987 -0.008362 19642.800000 1 0 0
14.862523 10.121684 -5.397755 18.774419 0.597874 1.862418 0.033105 -0.001066 318318.000000 1 0 0
2.489623 16.891384 4.349445 17.619158 1.424460 1.321359 0.012140 -0.000961 1636160.000000 1 0 0
-3.802677 18.216084 -6.014255 19.556516 -1.364998 1.883395 -0.003394 0.002421 -778129.000000 1 0 0
5.511123 14.418184 5.742345 16.469093 1.205698 1.214640 0.005948 -0.005446 -2136120.000000 1 0 0
9.754723 5.941284 15.118445 18.947845 0.547060 0.646997 0.008040 -0.003401 -179808.000000 1 0 0
4.699423 12.742184 -1.123155 13.627520 1.217465 1.653308 -0.002746 -0.004238 263007.000000 1 0 0
3.489323 13.413284 13.091145 19.064879 1.316298 0.813908 -0.003034 0.000341 -1580080.000000 1 0 0
-0.719477 12.380484 9.248645 15.470341 -1.512748 0.930004 -0.007060 0.002043 906607.000000 1 0 0
-7.690477 13.936384 8.400745 17.998299 -1.066551 1.085182 0.011016 -0.010446 870153.000000 1 0 0
11.402023 12.812384 -4.118455 17.638735 0.843577 1.806461 0.021267 -0.001391 757260.000000 1 0 0
-5.726077 16.165984 0.928745 17.175260 -1.230380 1.516695 -0.002703 0.003288 -44012.200000 1 0 0
3.245823 10.619384 6.812445 13.027512 1.274163 1.020514 -0.007937 0.003415 973184.000000 1 0 0
-1.168477 15.471484 2.372945 15.695955 -1.495415 1.419032 0.000956 -0.000299 -1497060.000000 1 0 0
9.946423 8.812584 9.600845 16.394181 0.725029 0.945145 0.011244 -0.002949 1240010.000000 1 0 0
7.262923 12.223184 6.305745 15.553735 1.034658 1.153362 0.006693 -0.004646 -321503.000000 1 0 0
11.820123 13.983684 -1.474555 18.369350 0.869049 1.651155 0.013085 0.002277 -1698490.000000 1 0 0
9.582623 15.857384 -1.185455 18.565791 1.027221 1.634691 0.006655 -0.002033 647830.000000 1 0 0
10.158423 13.766884 3.103345 17.388254 0.935092 1.391361 0.012154 -0.002186 2119120.000000 1 0 0
-5.996177 14.531884 6.171245 16.888281 -1.179456 1.196717 -0.001655 -0.003877 -96305.900000 1 0 0
-0.845677 18.237384 -6.226255 19.289468 -1.524459 1.899462 0.011915 0.000628 1856640.000000 1 0 0
-3.475877 15.691784 5.416045 16.960169 -1.352807 1.245764 -0.006656 0.000210 3019740.000000 1 0 0
7.081223 12.213384 10.678345 17.701342 1.045368 0.923226 0.006088 -0.003302 1423100.000000 1 0 0
1.527523 14.599284 6.163945 15.920635 1.466546 1.173239 0.000913 0.000812 1529780.000000 1 0 0
17.366323 7.647384 -1.466055 19.032103 0.414806 1.647903 0.006697 0.011957 1431210.000000 1 0 0
2.161323 16.113984 -3.404555 16.610924 1.437465 1.777218 -0.007073 -0.001115 1324460.000000 1 0 0
6.763723 11.190284 0.637345 13.091089 1.027127 1.522092 0.001789 -0.001599 3117090.000000 1 0 0
12.695723 9.165984 3.261545 15.994821 0.625322 1.365444 0.003110 0.003771 -2763960.000000 1 0 0
5.978223 14.247084 -3.434855 15.827722 1.173500 1.789552 -0.008594 -0.002257 139732.000000 1 0 0
3.120823 16.513284 1.562545 16.878081 1.384011 1.478085 -0.001094 -0.002821 -968785.000000 1 0 0
2.733623 18.897184 -2.614555 19.272056 1.427135 1.706882 -0.006949 -0.001604 -1171340.000000 1 0 0
3.953923 11.850884 10.633645 16.405833 1.248770 0.865627 -0.003763 -0.001080 2572220.000000 1 0 0
8.093723 11.527484 3.428045 14.496300 0.958646 1.332058 0.003188 -0.000032 1295110.000000 1 0 0
0.926823 12.394484 0.139045 12.429866 1.496158 1.559610 -0.001512 -0.001922 -2871200.000000 1 0 0
11.946923 9.839684 -4.589855 16.143578 0.688976 1.859088 0.015687 -0.000221 1609030.000000 1 0 0
-1.201377 16.363784 9.945145 19.186522 -1.497511 1.025887 -0.003927 -0.003112 -1015510.000000 1 0 0
8.203223 14.776684 -7.991455 18.695096 1.064011 2.012481 0.001428 -0.002048 625891.000000 1 0 0
14.485923 7.632184 -1.340155 16.428274 0.484911 1.652463 0.006922 0.004591 -574909.000000 1 0 0
12.413123 8.296284 6.096145 16.126900 0.589166 1.183149 0.002531 -0.002529 -1328410.000000 1 0 0
-3.030477 14.177384 10.111245 17.675386 -1.360211 0.961791 -0.001287 -0.003734 2886900.000000 1 0 0
-4.597377 17.189584 -3.210955 18.081148 -1.309461 1.749329 -0.002294 0.000806 -397353.000000 1 0 0
-7.083177 16.493584 -1.673055 18.028001 -1.165162 1.663733 0.006217 0.002953 541949.000000 1 0 0
8.342623 11.249384 -1.831255 14.124499 0.932688 1.700813 0.003875 -0.000140 1560170.000000 1 0 0
8.545923 12.906584 -4.152255 16.026663 0.985936 1.832870 0.013075 -0.002903 1385210.000000 1 0 0
2.606123 14.804384 -7.453855 16.778606 1.396544 2.031131 -0.009588 -0.003032 -1606830.000000 1 0 0
11.327223 11.358684 9.750445 18.772236 0.786785 1.024639 0.018526 -0.008315 -917954.000000 1 0 0
8.638223 15.760084 1.581945 18.041665 1.069407 1.483001 0.002923 0.001711 1153670.000000 1 0 0
6.045323 9.967584 7.761945 14.005229 1.025612 0.983374 -0.000658 0.000008 1736320.000000 1 0 0
14.413623 11.316784 2.693745 18.522375 0.665617 1.424847 0.013157 0.007321 1218430.000000 1 0 0
12.071623 12.642684 1.172145 17.519573 0.808501 1.503841 0.014948 0.006171 1559580.000000 1 0 0
5.324323 15.822584 8.323545 18.654328 1.246197 1.108283 0.015049 -0.007903 -1243020.000000 1 0 0
11.691923 15.004684 5.185945 19.716379 0.908856 1.304638 0.022562 -0.000766 608415.000000 1 0 0
5.998023 16.841284 1.816245 17.969526 1.228653 1.469550 -0.005550 -0.004837 1313080.000000 1 0 0
-0.607277 16.178684 -4.290855 16.749031 -1.533278 1.829870 0.000258 0.000006 1676700.000000 1 0 0
16.082323 6.314784 2.606745 17.473200 0.374157 1.421052 0.001820 0.001134 -661434.000000 1 0 0
7.462923 16.685284 -3.081155 18.536111 1.150210 1.737796 -0.013243 -0.001870 193014.000000 1 0 0
14.791723 8.126584 7.589045 18.504865 0.502383 1.148221 0.014407 -0.002928 645017.000000 1 0 0
2.148623 12.961584 8.553345 15.677338 1.406522 0.993707 -0.003466 0.001421 980765.000000 1 0 0
15.984223 7.453384 -5.835255 18.576827 0.436323 1.890320 0.010899 0.000960 -1138920.000000 1 0 0
-2.943277 16.972184 0.585945 17.235464 -1.399086 1.536793 -0.003268 0.003125 747614.000000 1 0 0
-2.926277 18.445384 4.563645 19.225559 -1.413462 1.331135 -0.005595 -0.002025 336771.000000 1 0 0
-0.774577 19.058984 0.776545 19.090517 -1.530178 1.530108 -0.000032 0.001985 670420.000000 1 0 0
7.021023 16.693584 -6.010755 19.081396 1.172674 1.891259 -0.007104 -0.004514 297044.000000 1 0 0
11.068923 10.023584 0.799445 14.954344 0.735879 1.517312 0.001767 0.004431 -1347500.000000 1 0 0
9.044023 8.684384 14.299745 19.018296 0.765115 0.719866 0.010130 -0.005648 -1024820.000000 1 0 0
6.376223 12.433184 -8.367255 16.286535 1.096930 2.110350 -0.000119 -0.005817 151260.000000 1 0 0
6.282923 8.949284 13.321645 17.234588 0.958690 0.687303 -0.000075 -0.005854 701418.000000 1 0 0
16.611723 9.353784 2.992345 19.297583 0.512832 1.415105 0.007666 0.000871 -1713140.000000 1 0 0
2.587423 14.704684 -0.790755 14.951514 1.396620 1.623709 -0.001296 -0.002090 437419.000000 1 0 0
9.057023 12.876484 8.384045 17.836079 0.957808 1.081436 0.017252 -0.007804 57241.300000 1 0 0
7.240823 9.335984 10.508445 15.811942 0.911123 0.843853 0.000963 -0.004861 1100150.000000 1 0 0
4.335123 15.734984 -5.400755 17.191601 1.301957 1.890358 -0.006465 -0.004137 156710.000000 1 0 0
0.330523 16.392984 -8.206855 18.335529 1.550637 2.034868 -0.001778 0.000514 -761299.000000 1 0 0
-2.406377 15.717484 -2.095155 16.038068 -1.418874 1.701807 -0.004860 0.004584 23468.700000 1 0 0
13.279223 10.506084 7.696945 18.599960 0.669332 1.144155 0.019907 -0.005989 1756100.000000 1 0 0
-0.937477 15.898284 7.040545 17.412741 -1.511897 1.154547 -0.000689 0.000548 3531000.000000 1 0 0
13.408123 13.297084 6.736045 20.049052 0.781240 1.228153 0.028200 -0.002909 -1006570.000000 1 0 0
5.456123 17.289184 4.565745 18.695753 1.265108 1.324088 0.005911 -0.005005 445556.000000 1 0 0
10.762223 9.506484 -1.859055 14.479460 0.723523 1.699544 0.001474 0.002480 -79761.200000 1 0 0
3.247923 12.698484 4.712645 13.928730 1.320392 1.225644 -0.001793 0.001575 -94185.400000 1 0 0
-0.133077 17.946184 3.492845 18.283413 -1.563381 1.378576 0.002423 0.002093 3818900.000000 1 0 0
-7.641877 15.827684 -5.662855 18.465692 -1.120989 1.882488 0.015513 -0.013538 11975.200000 1 0 0
-12.523677 -9.003416 8.269745 17.501219 0.623306 1.078644 0.008057 -0.001079 18930.400000 1 0 0
-13.338477 -11.618316 6.881845 18.980517 0.716581 1.199768 0.008282 -0.000524 -1510100.000000 1 0 0
-6.202277 -12.240616 12.513045 18.570870 1.101806 0.831457 0.006970 0.000072 -1121040.000000 1 0 0
-1.798577 -10.645716 14.404545 18.001585 1.403428 0.643198 -0.011747 0.002794 674702.000000 1 0 0
-8.836777 2.848884 10.987345 14.384941 -0.311869 0.701603 0.000745 -0.005127 998374.000000 1 0 0
0.416623 9.842184 15.359345 18.246962 1.528491 0.570283 -0.024538 0.004979 -1936570.000000 1 0 0
1.133123 -6.783916 16.560145 17.931645 -1.405293 0.393650 -0.001737 -0.008839 2302130.000000 1 0 0
6.047323 2.374984 17.665145 18.822008 0.374226 0.352430 0.001061 -0.010028 -413270.000000 1 0 0
-5.143277 -2.952916 17.581745 18.555074 0.521181 0.325335 0.014273 -0.008904 2251430.000000 1 0 0
-4.270277 8.118484 12.951345 15.870803 -1.086570 0.616255 -0.009003 -0.003400 -309493.000000 1 0 0
0.099623 -4.850716 18.457945 19.084944 -1.550262 0.257039 0.003623 -0.017096 642273.000000 1 0 0
-11.661577 2.131384 11.132645 16.262563 -0.180774 0.816801 -0.000667 -0.008104 548878.000000 1 0 0
-3.337277 -6.066416 14.316945 15.903262 1.067858 0.450448 0.004795 -0.010389 1347190.000000 1 0 0
-7.459977 -2.189816 14.572345 16.516652 0.285521 0.490108 0.006043 -0.002803 -22725.400000 1 0 0
-6.064377 -1.129316 10.582945 12.249520 0.184112 0.527739 0.001010 -0.001926 679767.000000 1 0 0
-3.968977 2.483984 11.125945 12.071023 -0.559210 0.398338 -0.006937 0.000911 49474.400000 1 0 0
-6.473277 6.316284 13.578145 16.314557 -0.773124 0.587603 -0.001984 -0.002293 1018140.000000 1 0 0
-8.920877 5.495384 12.489145 16.302148 -0.552111 0.698039 -0.003208 -0.008587 -209280.000000 1 0 0
-12.099877 -2.039416 15.838445 20.035533 0.166979 0.659142 -0.002972 0.002524 1229260.000000 1 0 0
-3.427877 -7.592716 16.909645 18.850352 1.146721 0.457756 0.008978 -0.006957 -735118.000000 1 0 0
-0.453877 -5.394016 14.419745 15.402287 1.486849 0.359116 0.002691 -0.006170 372364.000000 1 0 0
-14.150277 -2.197616 13.663045 19.792389 0.154075 0.808868 -0.003442 -0.000111 -887906.000000 1 0 0
-6.455977 1.471284 12.143345 13.831310 -0.224068 0.499211 0.001800 -0.001588 640846.000000 1 0 0
2.266923 -2.263516 14.585245 14.932910 -0.784646 0.216207 -0.003536 -0.006261 612853.000000 1 0 0
-12.530577 4.052884 9.070345 15.991010 -0.312820 0.967676 -0.012612 -0.008818 -348710.000000 1 0 0
-9.094577 -3.038416 12.547445 15.791823 0.322432 0.652525 0.000221 -0.001677 839849.000000 1 0 0
-7.152477 -7.281916 15.379945 18.458790 0.794365 0.585919 0.016754 -0.005092 -396115.000000 1 0 0
-3.386277 5.954484 19.527845 20.694431 -1.053714 0.337371 0.001575 0.003060 902639.000000 1 0 0
0.536123 5.238884 16.098945 16.938399 1.468816 0.316146 -0.006800 -0.006408 904880.000000 1 0 0
3.420223 1.434884 16.741145 17.147092 0.397228 0.218029 -0.006963 -0.005980 1163260.000000 1 0 0
-11.752277 11.356284 7.871345 18.139440 -0.768264 1.121940 -0.004142 -0.015482 419757.000000 1 0 0
0.691523 -9.464016 15.458445 18.138614 -1.497857 0.550545 -0.015287 0.007184 1031250.000000 1 0 0
-2.467477 -3.605016 18.768545 19.270259 0.970578 0.228689 0.010156 -0.019397 1802140.000000 1 0 0
-13.076277 2.209884 13.640445 19.024572 -0.167418 0.771320 0.007829 -0.010870 579316.000000 1 0 0
-5.366377 -0.621916 15.823745 16.720517 0.115377 0.328997 0.006614 0.000389 2193660.000000 1 0 0
-4.455577 -6.043916 11.671445 13.878174 0.935537 0.571681 0.003260 -0.004179 -23621.900000 1 0 0
2.455623 1.718684 14.039645 14.356030 0.610657 0.210332 -0.008301 -0.007502 98756.400000 1 0 0
0.033623 3.140384 14.269145 14.610669 1.560090 0.216641 -0.002526 -0.006327 -516157.000000 1 0 0
-12.960477 6.904784 12.241745 19.118324 -0.489508 0.875888 -0.001076 -0.011483 1261380.000000 1 0 0
0.891823 1.340384 18.236745 18.307672 0.983707 0.088053 0.004859 -0.004254 1778720.000000 1 0 0
-2.009377 6.369784 12.341845 14.033278 -1.265222 0.496049 -0.010959 -0.001609 1001090.000000 1 0 0
-13.543977 -2.555716 10.833645 17.531083 0.186505 0.904641 0.000707 -0.001812 -1092730.000000 1 0 0
-2.523977 3.633384 13.454645 14.163312 -0.963661 0.317674 -0.006250 -0.001539 -492562.000000 1 0 0
3.331523 5.924484 16.308145 17.667884 1.058535 0.394890 -0.009534 -0.008783 -954025.000000 1 0 0
-3.574277 12.382584 12.294545 17.811785 -1.289781 0.808965 -0.008623 0.000132 571339.000000 1 0 0
3.723223 -1.478216 17.049045 17.513350 -0.377940 0.230779 0.004721 -0.009703 -1121720.000000 1 0 0
-15.832177 0.497584 9.086045 18.260932 -0.031418 1.050004 -0.003979 -0.003621 290850.000000 1 0 0
-4.670577 4.601584 15.198245 16.552206 -0.777957 0.407283 0.000159 -0.004481 1714440.000000 1 0 0
-8.081477 -8.131916 10.496845 15.544198 0.788509 0.829438 0.012481 -0.003350 4116830.000000 1 0 0
-2.571077 -0.541916 14.810345 15.041623 0.207733 0.175587 0.004968 -0.005609 2649320.000000 1 0 0
-1.908477 1.004084 17.199645 17.334309 -0.484323 0.124729 0.003392 -0.003773 1687530.000000 1 0 0
-0.664077 -2.545616 14.379145 14.617831 1.315613 0.180959 0.004899 -0.006285 -1266210.000000 1 0 0
5.078223 -8.274216 16.456745 19.106948 -1.020335 0.532981 0.005562 -0.000089 23003.800000 1 0 0
-4.493177 9.996884 10.611345 15.255391 -1.148393 0.801569 -0.002148 -0.003898 -923516.000000 1 0 0
-6.163277 2.126384 15.147145 16.490709 -0.332221 0.406460 0.006332 -0.003038 -764625.000000 1 0 0
-5.007877 6.800984 17.272345 19.226703 -0.936091 0.454793 -0.000006 0.004752 -1604.150000 1 0 0
-3.954977 9.086184 15.698045 18.564191 -1.160256 0.563092 -0.010072 0.005163 207895.000000 1 0 0
-4.440677 -9.807916 18.478345 21.386072 1.145646 0.527563 0.018109 -0.005834 -2608370.000000 1 0 0
-6.816077 -4.170716 11.134045 13.704771 0.549119 0.622504 0.002150 -0.000179 1281160.000000 1 0 0
-2.300477 -0.823816 19.456545 19.609386 0.343878 0.124935 0.008332 -0.007917 -850331.000000 1 0 0
-5.694377 -4.542916 15.228845 16.881402 0.673392 0.446167 0.012675 -0.007577 1418730.000000 1 0 0
-12.933177 0.060384 9.665245 16.145826 -0.004669 0.929017 -0.007977 -0.003001 1146470.000000 1 0 0
-14.327477 8.683184 10.360645 19.698153 -0.544857 1.016941 -0.013569 -0.014309 -1769430.000000 1 0 0
-8.391777 10.472084 12.799045 18.544595 -0.895234 0.809063 0.002589 -0.011718 -732295.000000 1 0 0
-10.469177 7.115384 10.688845 16.567552 -0.596938 0.869554 -0.004264 -0.008364 -68775.300000 1 0 0
-9.853477 -6.482016 14.913845 19.013951 0.581867 0.669127 0.009854 -0.000924 118332.000000 1 0 0
-0.795177 -13.434316 14.547745 19.817922 1.511675 0.746500 -0.014523 0.000781 -681439.000000 1 0 0
3.953623 -5.702816 16.868545 18.240095 -0.964598 0.390272 0.004469 -0.006983 1419210.000000 1 0 0
-7.326077 9.381284 10.359445 15.779670 -0.907795 0.854619 -0.001522 -0.006672 -39676.700000 1 0 0
-10.296077 -6.668916 11.942245 17.120189 0.574767 0.798819 0.003607 -0.000808 1075670.000000 1 0 0
-11.035677 -3.991516 10.711945 15.889120 0.347053 0.830958 0.004254 0.000257 1482970.000000 1 0 0
-10.206677 -10.154316 9.917045 17.482396 0.782827 0.967623 0.026966 -0.006597 1904680.000000 1 0 0
-9.774677 -3.635116 15.285645 18.504306 0.356042 0.598718 0.006336 -0.002833 -578695.000000 1 0 0
5.633523 -3.327916 16.020045 17.304723 -0.533579 0.387752 0.000801 -0.006167 -546031.000000 1 0 0
-11.253477 0.606884 15.187745 18.912341 -0.053876 0.638384 0.003678 -0.010205 -608568.000000 1 0 0
-3.163177 3.216684 18.728745 19.264440 -0.793785 0.236378 0.001250 0.000537 210777.000000 1 0 0
0.435323 7.240884 13.874145 15.656047 1.510749 0.481752 -0.012193 -0.005436 926907.000000 1 0 0
-13.106877 -7.453916 12.202045 19.396933 0.517089 0.890439 -0.004406 0.002052 -539401.000000 1 0 0
-1.578177 -1.171516 12.176345 12.333956 0.638569 0.160037 0.000276 -0.004212 -243664.000000 1 0 0
1.982323 -4.887916 13.073045 14.097015 -1.185510 0.383495 -0.005564 -0.004214 -920209.000000 1 0 0
-14.714877 -3.957016 8.593245 17.493698 0.262698 1.057307 0.002117 -0.007015 -493399.000000 1 0 0
8.006023 0.973284 16.078445 17.987776 0.120975 0.464928 0.004252 -0.005987 550664.000000 1 0 0
-1.110977 11.308184 13.436445 17.596799 -1.472865 0.701967 -0.017051 0.005026 -902616.000000 1 0 0
2.813523 -12.222616 -13.868955 18.699096 -1.344548 2.406385 -0.006270 0.006385 -482063.000000 1 0 0
0.745523 -10.677516 -14.151155 17.743177 -1.501088 2.494027 -0.011832 0.009184 -2167360.000000 1 0 0
3.316823 -14.337116 -12.517855 19.319703 -1.343451 2.275663 -0.002729 0.004480 -777897.000000 1 0 0
-5.114277 -10.372816 -16.309355 19.993654 1.112727 2.524781 0.005427 -0.007857 -153514.000000 1 0 0
-1.034077 -12.084416 -15.219155 19.460861 1.485433 2.468727 -0.006117 -0.000613 -161343.000000 1 0 0
5.839123 -14.873416 -11.987055 19.975068 -1.196696 2.214423 -0.002552 0.003094 952424.000000 1 0 0
2.021223 -11.891516 -16.188755 20.188345 -1.402434 2.501242 -0.005708 0.008525 -419922.000000 1 0 0
1.308123 -14.317216 -14.137155 20.163160 -1.479682 2.347788 -0.001423 0.004621 -977939.000000 1 0 0
-1.180677 -10.595316 -16.042055 19.261419 1.459820 2.555050 -0.006149 -0.003408 -308781.000000 1 0 0
-6.101477 -5.740916 -15.172855 17.332100 0.754961 2.637099 0.013657 -0.000585 98807.900000 1 0 0
-6.240877 -7.671016 -16.967855 19.639276 0.887838 2.613909 0.008081 0.006961 197099.000000 1 0 0
4.837723 -12.444516 -11.436755 17.580356 -1.200031 2.279094 -0.004964 0.003849 419909.000000 1 0 0
-1.780177 -15.343516 -13.242155 20.345692 1.455291 2.279510 0.003493 -0.006038 71656.200000 1 0 0
15.637323 -7.430416 -8.975155 19.501035 -0.443589 2.049062 -0.003298 0.005054 493892.000000 1 0 0
19.120623 -3.780716 -4.415655 19.984745 -0.195212 1.793586 0.017834 -0.003993 -118142.000000 1 0 0
14.926523 -11.544216 -8.790855 20.817040 -0.658312 2.006768 0.005680 -0.011125 398861.000000 1 0 0
17.624423 -3.452416 -6.471855 19.089902 -0.193439 1.916671 0.023821 -0.002840 367061.000000 1 0 0
9.405423 -8.974916 -15.369655 20.130509 -0.761980 2.439513 0.032426 -0.013206 -254737.000000 1 0 0
1.335523 1.901284 -15.410955 15.585122 0.958440 2.991952 0.010832 -0.007770 411006.000000 1 0 0
4.887923 -4.334616 -13.914755 15.372088 -0.725475 2.702637 -0.003557 0.003058 278993.000000 1 0 0
13.084023 -5.449516 -8.680255 16.620340 -0.394650 2.120303 0.012081 -0.003067 -2121410.000000 1 0 0
2.958423 0.944584 -12.317255 12.702727 0.309055 2.894609 0.003746 -0.004063 -654956.000000 1 0 0
0.694423 6.211784 -13.021655 14.444098 1.459467 2.694067 0.011337 -0.004296 109803.000000 1 0 0
3.184323 -1.122916 -16.848055 17.183068 -0.339024 2.943803 0.009036 -0.004908 -190255.000000 1 0 0
13.083323 4.425784 -11.438655 17.933313 0.326193 2.262492 -0.005418 -0.003836 686676.000000 1 0 0
-3.705577 9.608884 -16.678955 19.602283 -1.202730 2.588432 -0.002627 0.009351 -400783.000000 1 0 0
-0.109877 -5.080216 -17.786555 18.498168 1.549171 2.863317 0.001629 -0.005679 771242.000000 1 0 0
-0.491277 -8.554916 -17.779655 19.736871 1.513433 2.692484 -0.000791 0.001940 -329502.000000 1 0 0
5.491223 -10.056116 -12.155255 16.704168 -1.070985 2.385727 -0.002333 0.001120 610878.000000 1 0 0
1.737023 -9.772516 -18.143255 20.680837 -1.394888 2.640999 -0.006239 -0.002894 -687759.000000 1 0 0
10.974623 8.737384 -14.517455 20.187638 0.672386 2.373340 0.020191 -0.005801 606861.000000 1 0 0
10.865123 -3.682316 -12.852155 17.227543 -0.326763 2.412867 0.002748 -0.008323 302646.000000 1 0 0
4.988323 7.501284 -12.387655 15.316874 0.983951 2.512835 -0.003937 -0.001208 -644164.000000 1 0 0
9.590323 -5.879916 -12.626055 16.910499 -0.550003 2.413793 0.007793 -0.005619 -1398040.000000 1 0 0
-3.283677 0.319084 -15.884455 16.223448 -0.096869 2.936808 0.009066 -0.007114 -2828390.000000 1 0 0
-0.686777 10.729684 -12.739655 16.670231 -1.506876 2.440621 -0.001116 -0.000843 -1779720.000000 1 0 0
6.760623 -5.413516 -12.607955 15.296166 -0.675193 2.539683 0.000711 0.001135 -350127.000000 1 0 0
17.735823 -6.251416 -8.150155 20.495478 -0.338877 1.979757 0.008026 -0.004550 -688887.000000 1 0 0
13.218923 4.690384 -14.038355 19.844773 0.340965 2.356621 0.000283 -0.003964 331543.000000 1 0 0
14.022923 0.834384 -11.438655 18.115777 0.059431 2.254179 -0.003768 -0.004255 -775747.000000 1 0 0
15.043223 6.128784 -11.162055 19.709186 0.386879 2.172852 -0.000256 -0.001209 324253.000000 1 0 0
8.299323 1.571784 -11.651955 14.391571 0.187170 2.514330 -0.011115 0.002748 566848.000000 1 0 0
9.880823 1.333684 -8.810655 13.305526 0.134166 2.294521 -0.009666 -0.000348 451002.000000 1 0 0
-0.137777 -5.679316 -13.016955 14.202631 1.546542 2.730081 -0.005090 0.002195 426438.000000 1 0 0
10.573223 -5.662116 -9.009655 15.000883 -0.491654 2.215058 0.005529 -0.005829 -392562.000000 1 0 0
10.225823 8.586084 -11.178755 17.414157 0.698453 2.267815 0.003935 -0.003784 821959.000000 1 0 0
8.381423 8.145584 -14.717455 18.793676 0.771129 2.470442 0.013825 0.003255 171820.000000 1 0 0
8.546823 10.623784 -10.633855 17.291380 0.893318 2.233157 0.005808 -0.004477 -1400760.000000 1 0 0
7.096723 1.827984 -18.098155 19.525578 0.252101 2.756849 0.009825 0.007601 -2513200.000000 1 0 0
12.144223 2.570684 -12.863855 17.876502 0.208600 2.374016 -0.001895 -0.005132 -1890100.000000 1 0 0
2.656323 -0.921416 -19.268255 19.472306 -0.333890 2.996697 0.022973 -0.011447 -424520.000000 1 0 0
10.255123 -1.956716 -15.414255 18.617077 -0.188538 2.546262 0.005469 -0.010561 -797344.000000 1 0 0
8.260723 -0.626516 -13.105855 15.504693 -0.075698 2.577891 -0.007158 -0.003000 -222555.000000 1 0 0
0.489723 4.298584 -14.733555 15.355627 1.457359 2.855979 0.011662 -0.005403 -1272270.000000 1 0 0
3.982423 -7.622816 -15.762155 17.955850 -1.089363 2.642106 0.000829 -0.004434 -2618090.000000 1 0 0
11.452223 -5.719316 -14.394555 19.263105 -0.463173 2.414726 0.015083 -0.007916 -1257060.000000 1 0 0
-5.888877 4.343884 -16.743855 18.273064 -0.635545 2.729572 0.000824 -0.000367 -196744.000000 1 0 0
11.512623 7.919084 -8.970555 16.604916 0.602532 2.141513 0.006047 -0.004569 -626899.000000 1 0 0
9.589323 6.273484 -13.470155 17.684931 0.579333 2.436689 0.009640 0.003076 264111.000000 1 0 0
11.986423 0.591484 -10.157855 15.722792 0.049306 2.273207 -0.003529 0.001481 -3019690.000000 1 0 0
5.418723 -7.257216 -13.732655 16.450397 -0.929432 2.558551 -0.000119 -0.000185 -1252340.000000 1 0 0
8.590523 -10.110416 -10.679455 17.031393 -0.866494 2.248551 0.007994 -0.002443 -162135.000000 1 0 0
9.995623 4.802184 -15.952855 19.428511 0.447868 2.534141 0.009088 -0.001344 -656369.000000 1 0 0
9.870623 -0.285716 -10.938555 14.736445 -0.028938 2.407261 -0.007788 -0.000868 -1714080.000000 1 0 0
-1.686277 5.482284 -14.076455 15.200183 -1.272394 2.754661 0.006601 -0.003725 -41851.600000 1 0 0
1.452023 -0.664316 -15.025055 15.109665 -0.429082 3.035716 0.004623 -0.004829 -953654.000000 1 0 0
11.476323 -10.196116 -14.448955 21.081724 -0.726396 2.325919 0.029304 -0.004979 -795942.000000 1 0 0
9.329123 -7.605016 -10.800155 16.171337 -0.683935 2.302123 0.010265 -0.004255 -226116.000000 1 0 0
13.977423 -0.940416 -9.681155 17.028725 -0.067180 2.175501 0.001074 0.002186 623470.000000 1 0 0
4.053123 11.145784 -12.306155 17.090867 1.222017 2.374660 -0.000407 -0.005879 -993313.000000 1 0 0
-1.299577 2.876884 -16.957455 17.248787 -1.146504 2.957540 0.006072 -0.006895 -355735.000000 1 0 0
6.084923 -0.500316 -17.708955 18.731890 -0.082038 2.809588 0.003884 0.002295 -38205.200000 1 0 0
6.290923 -6.433816 -16.123855 18.464788 -0.796627 2.632571 0.004644 -0.000822 122492.000000 1 0 0
-1.783977 -5.163216 -19.850655 20.588586 1.238121 2.873049 0.012112 -0.019329 45960.700000 1 0 0
-0.013977 -4.211316 -15.242255 15.813340 1.567477 2.872024 -0.001778 -0.004384 -296304.000000 1 0 0
0.567323 0.678884 -13.074955 13.104854 0.874681 3.074030 0.006718 -0.006920 111488.000000 1 0 0
15.382423 0.537884 -13.673555 20.588209 0.034953 2.297146 -0.010867 -0.002462 486271.000000 1 0 0
-0.029877 6.980084 -16.388255 17.812843 -1.566516 2.738940 0.007561 0.003422 -896348.000000 1 0 0
-4.727777 -0.560516 -18.308355 18.917239 0.118007 2.887188 0.002966 -0.004389 -430155.000000 1 0 0
10.362323 -8.335416 -13.011955 18.605587 -0.677416 2.345294 0.019343 -0.012830 -425709.000000 1 0 0
4.252723 8.333084 -17.583955 19.917867 1.098909 2.652636 0.004625 -0.002012 -140586.000000 1 0 0
9.197323 0.352384 -17.244055 19.546671 0.038295 2.651308 0.004249 0.007525 -613784.000000 1 0 0
3.506423 4.867884 -18.462155 19.412431 0.946564 2.827406 0.019530 -0.002557 -487966.000000 1 0 0
1.513323 -8.126816 -16.088355 18.087854 -1.386692 2.666950 -0.006638 0.000787 -84962.000000 1 0 0
4.408023 7.866684 -14.993955 17.496687 1.060049 2.600138 -0.000177 0.002025 673487.000000 1 0 0
-5.670577 -0.390216 -15.189555 16.218209 0.068706 2.783520 0.002036 -0.003621 -1042430.000000 1 0 0
2.796523 3.459284 -13.851355 14.548100 0.890948 2.830852 0.004753 -0.003303 468045.000000 1 0 0
-2.579077 -10.084816 -18.181255 20.950255 1.320424 2.621614 0.012112 -0.010405 138919.000000 1 0 0
6.158223 -9.019716 -15.363555 18.849876 -0.971741 2.523609 0.006064 -0.008181 11319.600000 1 0 0
-1.762377 5.383384 -17.206655 18.115070 -1.254419 2.823562 0.006099 -0.004750 116427.000000 1 0 0
10.086023 -12.048316 -11.501855 19.472608 -0.873821 2.202683 0.021526 -0.005155 -326879.000000 1 0 0
10.954023 3.705384 -9.273155 14.822681 0.326184 2.246704 -0.002522 -0.001728 -958316.000000 1 0 0
4.900323 -0.484316 -11.027255 12.076758 -0.098514 2.721613 -0.004989 -0.001219 436417.000000 1 0 0
6.335123 9.536784 -11.447255 16.190234 0.984446 2.356110 0.002944 -0.004903 -159146.000000 1 0 0
10.824723 -9.406716 -9.552955 17.231363 -0.715423 2.158430 0.018390 -0.004668 222654.000000 1 0 0
3.373123 -2.383116 -14.584555 15.158049 -0.615076 2.865639 -0.001141 -0.000862 -69633.800000 1 0 0
9.237623 -4.446616 -14.801255 18.005089 -0.448624 2.535815 0.013463 -0.006175 309977.000000 1 0 0
-4.008077 -6.443216 -16.636155 18.285004 1.014313 2.713659 -0.003242 -0.004564 -594193.000000 1 0 0
5.902423 -7.642516 -11.256955 14.831240 -0.913167 2.432577 -0.002806 0.002073 64284.100000 1 0 0
5.525023 6.332284 -16.638855 18.640686 0.853375 2.673897 0.008269 -0.016631 -1299180.000000 1 0 0
9.283423 1.653084 -19.464855 21.628574 0.176221 2.690474 0.022608 -0.001119 732029.000000 1 0 0
13.153523 5.805784 -9.308155 17.127873 0.415668 2.145339 0.001591 -0.003492 284357.000000 1 0 0
-1.562377 -0.878616 -17.354855 17.447177 0.512282 3.038673 0.012391 -0.006808 113761.000000 1 0 0
-0.358977 -0.459916 -19.524555 19.533270 0.908042 3.111720 0.021079 -0.012718 -244162.000000 1 0 0
2.805223 6.494584 -16.587355 18.033004 1.163068 2.738451 0.006397 -0.001108 721545.000000 1 0 0
7.642923 3.731084 -15.527055 17.703804 0.454143 2.640475 0.001016 -0.004744 -700277.000000 1 0 0
3.108923 -9.906216 -14.992155 18.236316 -1.266695 2.535894 -0.005303 0.003344 -425004.000000 1 0 0
9.131923 -10.522016 -13.291955 19.255672 -0.856009 2.332683 0.031153 -0.003555 280864.000000 1 0 0
3.844523 0.234484 -14.909955 15.399419 0.060916 2.888791 0.002611 -0.003967 -305664.000000 1 0 0
-1.099677 -2.889016 -18.976055 19.226190 1.207090 2.980109 0.016439 -0.008447 478219.000000 1 0 0
9.172623 10.072784 -13.086755 18.890769 0.832137 2.336104 0.010038 -0.006558 168542.000000 1 0 0
4.760723 2.117784 -10.772155 11.966153 0.418559 2.691068 -0.007196 0.002273 208310.000000 1 0 0
-0.487377 7.125184 -18.815055 20.124912 -1.502501 2.778812 0.022094 -0.001908 -120613.000000 1 0 0
0.857723 -1.845716 -17.610655 17.727874 -1.135777 3.026532 0.018324 -0.013149 -3349860.000000 1 0 0
-4.405377 -2.238116 -14.043255 14.887227 0.470060 2.803259 0.006037 -0.007489 -3277480.000000 1 0 0
10.155623 6.061184 -10.376455 15.733577 0.538086 2.290963 0.002426 -0.000975 240743.000000 1 0 0
8.087423 5.227384 -17.659255 20.114205 0.573812 2.642358 0.008709 -0.003562 -307449.000000 1 0 0
11.419723 0.297384 -13.598055 17.759662 0.026035 2.442880 -0.002049 -0.000291 567691.000000 1 0 0
6.751723 12.073584 -11.801355 18.183211 1.060906 2.277098 0.006866 -0.005505 -343695.000000 1 0 0
-0.898477 0.430184 -15.155855 15.188557 -0.446538 3.075960 0.008800 -0.007624 -869962.000000 1 0 0
-4.158277 -3.048616 -18.926955 19.616701 0.632626 2.875626 -0.000904 -0.004895 -276847.000000 1 0 0
5.723623 -11.886116 -13.820055 19.105851 -1.122027 2.379426 -0.000945 -0.002693 -133558.000000 1 0 0
2.179623 -4.739316 -14.049555 14.986723 -1.139738 2.786076 -0.002690 0.002928 -324615.000000 1 0 0
11.752223 1.976384 -15.441455 19.505368 0.166612 2.484304 0.005668 -0.003669 366451.000000 1 0 0
9.671123 2.186884 -13.707155 16.917422 0.222385 2.515356 -0.003167 -0.004104 -108355.000000 1 0 0
-2.140877 -4.066116 -16.479555 17.108255 1.086161 2.869653 -0.004560 -0.006437 -1495670.000000 1 0 0
-2.830877 10.152284 -14.322455 17.782448 -1.298862 2.507191 0.001573 0.001632 260351.000000 1 0 0
3.559523 5.840484 -13.718355 15.328885 1.023452 2.679082 -0.001337 -0.001737 -171667.000000 1 0 0
-4.875077 -2.501216 -16.579555 17.461504 0.474042 2.822409 -0.001136 -0.005497 397512.000000 1 0 0
-4.225077 6.189084 -13.705455 15.620356 -0.971799 2.641233 -0.002067 -0.000475 175302.000000 1 0 0
6.012023 -1.037116 -14.280655 15.529235 -0.170826 2.737853 -0.000156 0.002224 -2487450.000000 1 0 0
6.656923 -2.779216 -12.649055 14.561499 -0.395495 2.623296 -0.002759 -0.002737 1230120.000000 1 0 0
2.920923 -3.250416 -18.197055 18.714428 -0.838738 2.905906 0.011499 -0.012236 -1213460.000000 1 0 0
7.445923 -11.962916 -11.989955 18.501680 -1.014057 2.275813 0.006887 0.000391 515288.000000 1 0 0
-6.137277 -5.309516 -17.768955 19.534403 0.713210 2.713174 0.024288 -0.005976 268409.000000 1 0 0
0.561223 8.656484 -11.942155 14.760242 1.506054 2.513374 -0.000897 -0.000951 70736.800000 1 0 0
0.333723 8.529384 -14.440955 16.775069 1.531690 2.607750 0.003137 -0.001739 -200996.000000 1 0 0
7.751023 -2.494516 -15.016555 17.082093 -0.311363 2.644729 0.004631 -0.011663 -696111.000000 1 0 0
14.095023 1.545084 -8.906855 16.744820 0.109183 2.131659 -0.007779 0.001865 509363.000000 1 0 0
2.596623 10.881784 -14.594955 18.389355 1.336556 2.487603 -0.002329 0.004434 -850297.000000 1 0 0
6.159623 1.137384 -15.693455 16.897311 0.182595 2.761835 0.002017 -0.001012 145299.000000 1 0 0
16.630323 -5.549516 -10.393055 20.380882 -0.322079 2.105913 0.022580 -0.009650 559075.000000 1 0 0
4.947623 -4.267116 -11.199155 12.965659 -0.711682 2.613471 -0.008537 0.003528 -642197.000000 1 0 0
8.914723 -3.306316 -17.159955 19.618055 -0.355156 2.635617 0.009335 -0.004634 377153.000000 1 0 0
13.260723 -9.479516 -8.944855 18.593505 -0.620627 2.072676 0.007414 -0.004152 -119183.000000 1 0 0
2.398823 -7.834616 -13.643155 15.914498 -1.273677 2.600756 -0.008370 0.005449 -76199.900000 1 0 0
-6.708477 -2.480216 -18.458255 19.795513 0.354128 2.771922 -0.002434 -0.004827 2471460.000000 1 0 0
-1.428377 -6.357616 -15.730255 17.026464 1.349794 2.748871 -0.005914 -0.005056 569113.000000 1 0 0
1.519423 -7.288316 -18.585755 20.021451 -1.365266 2.760590 0.002162 -0.003379 -622688.000000 1 0 0
5.100523 10.889784 -14.608755 18.921375 1.132766 2.452899 0.002764 -0.007688 -1116370.000000 1 0 0
5.482523 -3.513516 -17.509255 18.680922 -0.569921 2.785540 0.012131 -0.004727 151127.000000 1 0 0
3.749123 13.122684 -14.064455 19.597695 1.292512 2.371231 -0.002514 -0.003723 -206971.000000 1 0 0
9.342123 10.342584 -15.615255 20.930372 0.836179 2.412917 0.020648 -0.009507 253623.000000 1 0 0
2.528623 3.964884 -16.293355 16.958410 1.003078 2.860609 0.011774 -0.004336 670478.000000 1 0 0
16.469523 1.582484 -11.497355 20.147918 0.095792 2.178090 -0.011012 -0.001162 -559509.000000 1 0 0
9.963523 -3.535016 -10.415655 14.840957 -0.340941 2.348743 0.003657 -0.003126 1308740.000000 1 0 0
14.663423 -2.098716 -11.924755 19.016318 -0.142160 2.248595 0.011209 -0.003695 -74319.200000 1 0 0
-2.739277 -8.533316 -16.228155 18.538450 1.260178 2.637014 -0.000817 0.002956 720971.000000 1 0 0
14.047723 8.309984 -8.882755 18.582187 0.534186 2.069201 0.021430 -0.001061 -38201.700000 1 0 0
-8.216577 -0.034916 -16.613755 18.534568 0.004249 2.682299 -0.009185 0.000698 -450494.000000 1 0 0
-3.454777 3.908784 -15.876455 16.711550 -0.846976 2.824125 0.004186 -0.004255 907302.000000 1 0 0
14.993823 3.957684 -9.671955 18.276342 0.258068 2.128461 -0.002293 0.000327 248597.000000 1 0 0
5.366323 1.157484 -13.125855 14.227623 0.212439 2.745463 -0.002057 -0.000557 467671.000000 1 0 0
7.835023 -7.690616 -12.925055 16.958485 -0.776097 2.437437 0.013340 -0.002237 -2055940.000000 1 0 0
3.288323 -6.109816 -11.947655 13.816272 -1.077055 2.615454 -0.007883 0.003604 -937037.000000 1 0 0
-3.280977 3.722584 -18.539555 19.192122 -0.848369 2.880073 0.009070 0.000791 -4835.680000 1 0 0
0.871423 5.120684 -17.970655 18.706288 1.402234 2.860218 0.015257 -0.001309 595258.000000 1 0 0
6.380723 7.169584 -10.222555 14.022025 0.843550 2.387708 -0.000588 0.001531 92428.000000 1 0 0
9.768423 3.764484 -11.614155 15.635921 0.367833 2.408019 0.000646 -0.000433 -211775.000000 1 0 0
4.579223 1.601784 -17.742055 18.393355 0.336491 2.874683 0.013132 0.003618 -869826.000000 1 0 0
2.605423 8.123884 -13.269055 15.775092 1.260448 2.570183 -0.001104 -0.001984 -501780.000000 1 0 0
14.332523 -3.544216 -9.837755 17.741592 -0.242422 2.158561 0.008970 -0.002048 -88159.600000 1 0 0
-1.197277 9.347984 -16.266155 18.799098 -1.443411 2.616470 0.007159 0.003485 -645745.000000 1 0 0
-5.251777 2.045284 -15.681355 16.663410 -0.371375 2.796562 0.003025 -0.003643 834408.000000 1 0 0
4.467023 4.329284 -11.958155 13.479409 0.769741 2.661912 -0.001237 -0.000607 500168.000000 1 0 0
9.288223 2.944384 -17.313055 19.866614 0.306981 2.628977 0.003406 -0.007391 881620.000000 1 0 0
-4.147177 14.387284 -13.442655 20.122077 -1.290151 2.302388 0.004646 -0.002530 -87778.300000 1 0 0
15.437723 -4.953816 -8.060255 18.106112 -0.310510 2.032158 0.008011 -0.002465 -877756.000000 1 0 0
1.319123 9.110484 -16.898755 19.243412 1.427004 2.642794 0.006420 0.002106 -841043.000000 1 0 0
0.472323 -3.147916 -12.844955 13.233493 -1.421864 2.898673 -0.000304 -0.000618 139048.000000 1 0 0
7.587523 3.656984 -12.916555 15.420163 0.449123 2.563746 -0.002719 0.000363 -158023.000000 1 0 0
-2.913177 7.631184 -15.168155 17.227725 -1.206124 2.647607 -0.000476 0.005094 425959.000000 1 0 0
12.075923 -4.987216 -11.018055 17.090868 -0.391653 2.271394 0.014614 -0.007169 -1215940.000000 1 0 0
0.781623 -4.537416 -20.116355 20.636541 -1.400209 2.916588 0.018769 -0.010660 -239292.000000 1 0 0
3.653223 -4.547116 -16.089555 17.114207 -0.893976 2.793804 0.004257 -0.009079 502597.000000 1 0 0
-5.646977 4.123084 -14.219055 15.845179 -0.630669 2.684579 -0.005006 0.000633 532499.000000 1 0 0
12.275523 -7.395516 -9.935755 17.438502 -0.542227 2.177010 0.014257 -0.000445 247000.000000 1 0 0
-2.027977 -1.831316 -14.993755 15.240705 0.734484 2.961330 0.006390 -0.004103 -18939.300000 1 0 0
7.070023 5.932284 -14.309755 17.027810 0.698118 2.568772 0.006783 -0.000760 -208291.000000 1 0 0
4.063623 -5.473016 -18.480455 19.697567 -0.932123 2.788217 0.011610 -0.008620 -31948.500000 1 0 0
7.625423 7.439184 -12.284455 16.260269 0.773036 2.427197 0.003005 -0.002367 -1271480.000000 1 0 0
12.324823 -2.417216 -11.029855 16.715319 -0.193668 2.291435 0.008847 -0.003644 -2249820.000000 1 0 0
7.442923 -0.686116 -10.723955 13.071766 -0.091924 2.532890 -0.011103 0.000860 -3343340.000000 1 0 0
5.397223 4.023084 -14.362655 15.861938 0.640550 2.703304 -0.000956 -0.003362 102527.000000 1 0 0
14.718223 2.928984 -12.869555 19.769433 0.196438 2.279674 -0.007987 -0.008360 452341.000000 1 0 0
-6.699377 6.681184 -15.845355 18.455220 -0.784038 2.603297 -0.000271 0.006731 604145.000000 1 0 0
-11.209777 3.633384 -16.614455 20.369112 -0.313441 2.524681 0.021067 -0.002043 62728.600000 1 0 0
-5.056177 6.535884 -17.811955 19.635388 -0.912360 2.707223 -0.001582 0.005288 -67936.800000 1 0 0
-10.096877 1.416384 -15.681655 18.704742 -0.139370 2.565098 0.011743 -0.001393 180034.000000 1 0 0
-7.574677 5.655684 -17.961655 20.297378 -0.641358 2.657129 -0.009316 0.004439 -935790.000000 1 0 0
-8.664377 3.646284 -15.871355 18.446320 -0.398339 2.606865 -0.007305 0.016286 -524886.000000 1 0 0
8.988923 13.498784 -12.031755 20.193589 0.983320 2.209083 0.015484 -0.003845 798782.000000 1 0 0
13.736523 8.923584 -11.420055 19.968477 0.576111 2.179622 0.005260 -0.005074 563018.000000 1 0 0
8.420123 15.909384 -9.108355 20.173475 1.084019 2.039244 0.013923 -0.004855 -304337.000000 1 0 0
7.033523 13.685584 -13.852455 20.704013 1.096062 2.303754 0.002228 -0.004351 3231.430000 1 0 0
4.887623 16.184584 -12.454555 20.998703 1.277513 2.205713 -0.001285 -0.006800 46609.200000 1 0 0
11.026423 11.029884 -11.551855 19.408392 0.785555 2.208310 0.008225 -0.002951 -303749.000000 1 0 0
15.791123 9.733284 -10.088455 21.115712 0.552374 2.068911 0.039091 0.004758 -104853.000000 1 0 0
13.431023 10.795984 -9.484055 19.669594 0.677060 2.073924 0.051479 -0.004091 621042.000000 1 0 0
10.407523 11.886284 -8.451155 17.917095 0.851632 2.061993 0.018897 0.001820 176899.000000 1 0 0
5.503923 16.161584 -9.864755 19.718097 1.242560 2.094729 -0.008711 -0.012227 -197920.000000 1 0 0
6.813523 14.731784 -11.524655 19.906462 1.137592 2.188225 0.002573 0.002094 -258831.000000 1 0 0
10.775923 14.004084 -9.916755 20.262697 0.914941 2.082209 0.025730 0.007520 -657230.000000 1 0 0
8.147323 -18.695916 -1.303155 20.435615 -1.159830 1.634608 0.021399 0.006337 -396056.000000 1 0 0
7.440523 -17.391716 -3.464955 19.231201 -1.166540 1.751959 0.024076 -0.001981 -238999.000000 1 0 0
4.471223 -18.419816 5.854645 19.838305 -1.332662 1.271217 0.029662 -0.004865 129807.000000 1 0 0
9.860123 -17.150016 -2.512255 19.941326 -1.049012 1.697114 0.022521 -0.002455 294548.000000 1 0 0
-9.549777 -12.129216 -9.843155 18.308573 0.903825 2.138415 0.028986 -0.014738 -1071720.000000 1 0 0
-5.094577 -6.995816 -12.145455 14.913358 0.941373 2.522493 0.005118 0.002123 -77318.900000 1 0 0
-10.818377 -9.383316 -5.656255 15.397309 0.714481 1.946958 0.011305 -0.004497 -1749100.000000 1 0 0
-4.548377 -11.335816 -14.019655 18.594063 1.189222 2.424905 0.011911 -0.008740 367758.000000 1 0 0
-2.962677 -15.475516 7.447045 17.427781 1.381642 1.129282 0.000608 -0.002950 207436.000000 1 0 0
-4.698977 -11.918416 -11.477555 17.200677 1.195246 2.301338 0.006358 -0.005243 110864.000000 1 0 0
-14.354377 -12.797816 -4.107855 19.664860 0.728134 1.781239 -0.003850 0.000391 -438843.000000 1 0 0
-3.267077 -12.263516 -3.320755 13.118500 1.310437 1.826716 0.006327 -0.002674 839956.000000 1 0 0
-2.591277 -17.424116 -1.497155 17.679254 1.423161 1.655582 -0.002415 -0.005572 -793977.000000 1 0 0
-5.911877 -12.228516 3.730945 14.085697 1.120476 1.302722 -0.001208 0.000814 -85990.200000 1 0 0
-8.830677 -10.736616 -11.929655 18.318637 0.882496 2.280001 0.021562 -0.005530 896285.000000 1 0 0
-10.054877 -12.323616 -7.306255 17.502955 0.886433 2.001411 0.023887 -0.005495 404498.000000 1 0 0
-10.911177 -15.135416 6.257445 19.679691 0.946178 1.247214 0.010834 -0.002954 -144529.000000 1 0 0
-9.492877 -15.820816 0.610645 18.460386 1.030359 1.537712 0.007444 0.005630 -3267370.000000 1 0 0
-14.717877 -7.724716 -8.194355 18.531989 0.483331 2.028817 -0.011612 0.001931 1124.100000 1 0 0
-2.462277 -16.592316 5.093845 17.530403 1.423473 1.275972 0.005731 -0.004233 1145710.000000 1 0 0
4.462223 -15.834916 5.892145 17.474936 -1.296123 1.226880 0.023402 -0.010210 -20152.400000 1 0 0
4.076323 -14.603216 -10.088855 18.211407 -1.298586 2.157940 -0.005035 0.004595 -251689.000000 1 0 0
-7.797777 -14.028216 -0.420455 16.055310 1.063462 1.596987 0.005145 0.001730 754198.000000 1 0 0
2.766923 -14.866816 9.743945 17.989512 -1.386788 0.998402 0.012715 -0.008747 -635317.000000 1 0 0
2.334923 -17.364316 10.343545 20.346013 -1.437131 1.037492 0.031078 -0.007648 -407088.000000 1 0 0
-8.381077 -17.231716 -5.589255 19.960318 1.118108 1.854610 0.022890 -0.003865 -217029.000000 1 0 0
-6.557277 -8.977916 -7.676055 13.510096 0.939972 2.175079 0.012357 -0.007849 323286.000000 1 0 0
-6.197377 -13.027916 -4.853755 15.221466 1.126777 1.895339 0.004642 -0.005096 371357.000000 1 0 0
2.014323 -19.474616 -4.899955 20.182362 -1.467730 1.816031 0.005918 -0.001079 133469.000000 1 0 0
-5.531877 -12.939216 8.375045 16.375786 1.166786 1.033950 0.006503 -0.000612 753372.000000 1 0 0
2.107023 -17.475016 3.534845 17.953018 -1.450802 1.372607 0.019500 -0.013524 -14266.800000 1 0 0
-17.494177 -10.024516 -2.540455 20.322182 0.520345 1.696133 -0.008008 -0.001778 520742.000000 1 0 0
-3.584877 -15.390616 2.511445 16.000930 1.341951 1.413188 0.004589 -0.006770 -193439.000000 1 0 0
-10.116877 -10.333816 -14.107055 20.202672 0.796006 2.343784 0.020416 -0.008020 -71675.300000 1 0 0
6.063723 -14.536716 -5.806755 16.786997 -1.175609 1.924003 0.002116 -0.004078 299505.000000 1 0 0
-7.189777 -12.278916 -10.693555 17.799348 1.041078 2.215277 0.014280 -0.012183 375164.000000 1 0 0
-7.179777 -14.232916 3.906145 16.412894 1.103596 1.330498 0.001749 -0.000197 1085900.000000 1 0 0
3.121323 -15.149116 -3.032055 15.761717 -1.367600 1.764371 0.003096 -0.003693 -160430.000000 1 0 0
-7.646377 -11.420416 7.931545 15.868283 0.980810 1.047386 0.005918 -0.003351 -667337.000000 1 0 0
-12.715377 -12.298116 -0.895555 17.712326 0.768718 1.621379 -0.008670 0.006936 -1741480.000000 1 0 0
-1.856277 -13.762616 4.089345 14.476813 1.436727 1.284423 -0.002378 -0.002590 -3472720.000000 1 0 0
-3.201277 -14.004316 5.234445 15.289489 1.346065 1.221373 -0.002210 -0.002355 297444.000000 1 0 0
-14.429977 -10.204816 -4.261855 18.180372 0.615539 1.807419 -0.006854 -0.000043 793203.000000 1 0 0
-6.080277 -8.662216 -10.387255 14.828986 0.958776 2.346852 0.007669 -0.002773 458495.000000 1 0 0
0.608423 -19.376916 2.304545 19.522961 -1.539407 1.452478 0.016897 -0.015588 299340.000000 1 0 0
6.299423 -13.883616 -8.349355 17.382441 -1.144844 2.071830 0.000909 -0.001468 -2142790.000000 1 0 0
-3.869077 -16.739916 -5.900455 18.166175 1.343656 1.901601 -0.006433 -0.001324 -409516.000000 1 0 0
-3.580477 -13.534316 -13.254655 19.279093 1.312173 2.328857 0.011587 -0.005503 -1186050.000000 1 0 0
-8.284477 -14.675616 -4.485055 17.439094 1.056884 1.830903 0.013269 -0.006909 -592604.000000 1 0 0
-4.646877 -14.466616 10.327045 18.371835 1.259993 0.973858 0.004544 0.004418 -893739.000000 1 0 0
-0.252177 -12.101016 -10.002955 15.702143 1.549960 2.261454 0.000951 0.002384 341978.000000 1 0 0
2.334723 -17.261116 6.816045 18.704425 -1.436353 1.197799 0.026009 -0.014390 -173106.000000 1 0 0
-3.122177 -19.125416 -3.488155 19.690017 1.408976 1.748890 -0.010396 -0.006517 -1068760.000000 1 0 0
0.490123 -15.422516 -3.052155 15.729268 -1.539027 1.766078 0.007109 -0.004026 -1182070.000000 1 0 0
5.998023 -18.115716 0.629545 19.093239 -1.251062 1.537818 0.020499 -0.004889 -272228.000000 1 0 0
-7.133077 -16.670116 3.805245 18.527101 1.166475 1.363936 0.005507 -0.000409 616281.000000 1 0 0
-5.192877 -13.450116 -9.494955 17.263423 1.202344 2.153166 0.004560 -0.007662 -389064.000000 1 0 0
5.686223 -15.309616 -2.215855 16.481125 -1.215172 1.705653 0.005259 -0.002407 -840072.000000 1 0 0
-8.972377 -10.175316 -0.529855 13.576500 0.848140 1.609834 0.000581 0.002308 1408300.000000 1 0 0
-7.394377 -18.363716 -3.038455 20.028357 1.187997 1.723092 0.005514 -0.009308 211709.000000 1 0 0
7.948723 -16.043316 -1.222555 17.946165 -1.110792 1.638973 0.013114 -0.004453 -401530.000000 1 0 0
-8.075577 -10.021616 -9.570155 16.038566 0.892519 2.210174 0.016671 -0.006551 -919916.000000 1 0 0
-9.064477 -15.167016 -6.934155 18.981192 1.032111 1.944770 0.027831 -0.009202 -221599.000000 1 0 0
-11.487777 -10.613916 -11.919655 19.664751 0.745881 2.221999 0.029608 0.004037 404214.000000 1 0 0
6.571123 -16.325416 2.375745 17.757901 -1.188129 1.436609 0.020212 -0.011188 197002.000000 1 0 0
-2.172777 -11.134616 -6.085955 12.873985 1.378081 2.063186 0.003194 -0.001260 -565697.000000 1 0 0
-12.522877 -15.261716 -3.435355 20.038565 0.883655 1.743085 0.000488 -0.005120 321131.000000 1 0 0
-0.670777 -19.646716 -2.797655 19.856240 1.536668 1.712162 0.013316 -0.012330 -146758.000000 1 0 0
-5.919677 -15.576816 -4.735555 17.323547 1.207622 1.847680 -0.000927 -0.004872 -2474530.000000 1 0 0
1.820223 -16.031716 -0.977555 16.164305 -1.457742 1.631309 0.010527 -0.007848 -194048.000000 1 0 0
-13.260177 -11.900116 5.301545 18.589014 0.731395 1.281584 0.008886 0.000829 343872.000000 1 0 0
2.032123 -15.377516 -8.863255 17.864905 -1.439409 2.089928 -0.002982 0.010120 -1903970.000000 1 0 0
-11.847377 -16.687216 0.112045 20.465485 0.953412 1.565321 0.012890 -0.005913 320590.000000 1 0 0
-7.679677 -16.586516 -1.054555 18.308524 1.137178 1.628427 0.014408 -0.004758 242263.000000 1 0 0
-2.957477 -14.363116 -1.770455 14.770927 1.367727 1.690946 0.002122 -0.004341 238132.000000 1 0 0
-1.771777 -10.496216 -13.188355 16.948229 1.403571 2.462520 -0.004367 0.000807 243364.000000 1 0 0
1.556123 -19.665516 4.755045 20.291981 -1.491831 1.334266 0.024604 -0.008650 -123729.000000 1 0 0
-17.389377 -9.322316 2.522245 19.891147 0.492103 1.443652 -0.006236 -0.001066 41829.100000 1 0 0
-2.613977 -15.723716 -8.099555 17.879343 1.406059 2.040937 -0.008908 0.006826 -830734.000000 1 0 0
-10.427177 -12.157816 0.203045 16.018107 0.861877 1.558120 -0.000076 0.006713 104801.000000 1 0 0
-6.809377 -11.355116 -6.561255 14.776886 1.030616 2.030878 0.011938 -0.007824 133541.000000 1 0 0
-2.285177 -13.613616 -6.683955 15.337139 1.404487 2.021725 -0.008544 0.002896 331344.000000 1 0 0
-14.254277 -14.376716 -1.037455 20.271919 0.789675 1.621996 -0.005343 0.004431 -85526.600000 1 0 0
-9.659177 -11.225116 -4.358755 15.437023 0.860240 1.857047 0.014156 -0.008241 231004.000000 1 0 0
9.291323 -15.235316 -5.111755 18.562693 -1.023163 1.849779 0.009902 -0.001762 179327.000000 1 0 0
-5.549677 -10.806416 -9.331955 15.318712 1.096364 2.225831 0.011171 -0.007051 25395.800000 1 0 0
-10.492977 -15.979216 -4.970355 19.752022 0.989751 1.825168 0.022773 -0.006591 -2864730.000000 1 0 0
2.049623 -17.437116 -3.215455 17.849177 -1.453790 1.751931 0.007840 -0.003961 420729.000000 1 0 0
-0.340577 -14.416816 -8.297955 16.637808 1.547177 2.092942 -0.004644 0.003780 -194657.000000 1 0 0
-0.728077 -18.268416 -7.179455 19.642039 1.530963 1.944982 -0.009630 0.005589 -89274.600000 1 0 0
-1.767577 -10.007816 -10.601255 14.685616 1.395980 2.377312 -0.000645 0.001688 428817.000000 1 0 0
-5.085177 -17.207816 2.094645 18.065312 1.283459 1.454586 0.006377 -0.008636 -1660410.000000 1 0 0
0.258023 -12.864616 -2.629755 13.133185 -1.550742 1.772397 0.004170 -0.001890 -1642730.000000 1 0 0
2.645923 -15.001116 3.026545 15.530434 -1.396210 1.374663 0.015467 -0.004786 -854290.000000 1 0 0
-9.528877 -13.085316 6.827445 17.568125 0.941386 1.171656 0.008343 -0.002532 -348322.000000 1 0 0
-1.162777 -17.773816 -4.559255 18.386065 1.505469 1.821384 -0.002780 -0.005227 -193550.000000 1 0 0
-9.770577 -17.323516 -2.434055 20.037291 1.057263 1.692573 0.019702 -0.021973 658471.000000 1 0 0
1.334323 -16.169416 1.507745 16.294285 -1.488461 1.478132 0.012552 -0.012296 -169308.000000 1 0 0
-0.387677 -18.094416 4.193045 18.577939 1.549374 1.343135 0.012903 -0.012877 246350.000000 1 0 0
-17.382177 -9.186516 -0.066755 19.660535 0.486188 1.574192 -0.014024 -0.004242 764269.000000 1 0 0
-14.700677 -7.136516 -10.668755 19.515689 0.451944 2.149185 0.011036 -0.000922 365872.000000 1 0 0
2.809423 -12.733016 -8.823555 15.744132 -1.353635 2.165707 -0.010257 0.003966 311540.000000 1 0 0
-11.641277 -14.730116 1.724645 18.853914 0.901995 1.479194 -0.000097 0.005825 23171.100000 1 0 0
-2.323077 -15.537516 10.409945 18.846168 1.422382 0.985599 -0.003697 -0.003229 -101899.000000 1 0 0
-7.071777 -15.781916 1.324445 17.344540 1.149529 1.494361 0.013338 -0.006895 -1290720.000000 1 0 0
-12.490077 -15.006716 -6.121555 20.461598 0.876669 1.874622 0.010795 -0.003901 -46462.700000 1 0 0
0.942923 -13.751116 -5.037155 14.674987 -1.502333 1.921169 0.000703 -0.001044 276542.000000 1 0 0
5.971823 -16.345516 -7.669555 19.017377 -1.220513 1.985908 0.006900 -0.002168 102488.000000 1 0 0
-6.692577 -12.836216 6.016945 15.676819 1.090189 1.176876 0.005389 0.001432 -255231.000000 1 0 0
-2.707977 -13.564816 0.563045 13.843930 1.373754 1.530114 0.009594 -0.006536 2414710.000000 1 0 0
-4.325877 -15.513516 0.074345 16.105525 1.298858 1.566180 0.002446 -0.005065 -44197.800000 1 0 0
-17.660477 -7.466016 -1.978855 19.275625 0.399966 1.673639 -0.010093 -0.000554 278259.000000 1 0 0
1.404223 -12.694216 -11.896755 17.454161 -1.460625 2.320743 -0.002864 0.004980 -622261.000000 1 0 0
1.135323 -17.127016 -5.701755 18.086837 -1.504605 1.891509 0.001471 -0.000943 -347725.000000 1 0 0
-12.739677 -6.329216 -9.106555 16.890462 0.461093 2.140228 0.009797 0.000379 154745.000000 1 0 0
-11.722177 -13.343316 -9.024755 19.922343 0.849984 2.040920 0.045683 -0.017298 108572.000000 1 0 0
-4.329877 -9.973516 3.593845 11.451401 1.161212 1.251567 0.006721 -0.001234 -4507110.000000 1 0 0
-7.142377 -14.131816 9.847645 18.646659 1.102829 1.014413 0.010992 -0.002913 -358860.000000 1 0 0
-5.203377 -15.773416 -8.015155 18.442302 1.252155 2.020398 -0.000549 -0.009839 -729199.000000 1 0 0
-0.344177 -13.487616 2.146745 13.661726 1.545284 1.413007 0.009459 -0.006835 922103.000000 1 0 0
-11.015577 -13.459216 -4.612155 17.993483 0.884911 1.830013 0.019944 -0.004481 -1194480.000000 1 0 0
-9.785677 -10.522516 6.731145 15.867928 0.821665 1.132720 0.011933 0.001334 -309803.000000 1 0 0
-15.476977 -8.044816 -4.838455 18.101562 0.479356 1.841381 -0.002290 0.001063 -246579.000000 1 0 0
-14.690877 -7.342716 5.470345 17.310749 0.463499 1.249277 0.008923 -0.001512 64062.100000 1 0 0
-1.721677 -19.342116 -0.049655 19.418653 1.482018 1.573353 0.010069 -0.008580 -294099.000000 1 0 0
-15.270977 -12.058216 -1.381755 19.506732 0.668377 1.641690 -0.012595 0.007873 75486.000000 1 0 0
-4.386477 -12.066516 -6.745255 14.503119 1.222124 2.054533 0.002489 -0.004542 -1088770.000000 1 0 0
-7.279177 -18.319316 1.741645 19.789318 1.192577 1.482673 0.010144 -0.008786 -77025.200000 1 0 0
-2.480077 -11.723916 -8.584855 14.741124 1.362330 2.192443 -0.001861 0.001294 630415.000000 1 0 0
-1.562477 -20.270916 -5.225955 20.991951 1.493869 1.822393 -0.008819 0.002307 -90305.200000 1 0 0
-5.423577 -8.856416 -14.057555 17.477590 1.021317 2.505325 0.007245 0.003511 1049360.000000 1 0 0
-8.677977 -19.023416 -0.761155 20.923122 1.142820 1.607183 0.018839 -0.006204 232868.000000 1 0 0
-17.102277 -7.090116 5.725045 19.378694 0.393005 1.270891 0.011569 -0.006289 -1336430.000000 1 0 0
-3.669977 -14.567016 -4.331455 15.634200 1.323995 1.851519 -0.001749 0.000260 -2818230.000000 1 0 0
-2.886877 -14.741116 -10.944755 18.585538 1.377405 2.200476 -0.004545 -0.004577 -303641.000000 1 0 0
-0.173077 -16.696616 6.271645 17.836493 1.560431 1.211497 0.014679 -0.012201 -768518.000000 1 0 0
-11.202477 -11.492916 3.853845 16.505597 0.798195 1.335134 0.003761 0.003244 -1431410.000000 1 0 0
-0.273477 -14.684916 -0.040355 14.687518 1.552175 1.573544 0.007915 -0.005284 1161070.000000 1 0 0
-7.323977 -9.474716 -2.434355 12.220351 0.912736 1.771343 0.010139 -0.003097 -509256.000000 1 0 0
-11.169477 -14.402416 -0.816055 18.244253 0.911156 1.615541 0.003161 -0.004747 -114021.000000 1 0 0
0.339623 -14.565416 -10.715655 18.085684 -1.547483 2.204947 -0.006679 0.002955 -263628.000000 1 0 0
-1.432877 -13.968416 -3.968355 14.591697 1.468574 1.846225 -0.000316 -0.001410 -2569230.000000 1 0 0
-11.376977 -7.981716 -7.597755 15.838854 0.611777 2.071099 0.015258 -0.005200 695933.000000 1 0 0
-0.205277 -17.308916 -0.231455 17.311681 1.558937 1.584167 0.009543 -0.011955 1253560.000000 1 0 0
-12.924477 -9.424516 4.630245 16.652411 0.630055 1.289030 0.002526 0.001821 791882.000000 1 0 0
3.955923 -16.914516 1.614145 17.445792 -1.341049 1.478140 0.012460 -0.010264 3099010.000000 1 0 0
-3.922777 -17.966716 -8.168755 20.122615 1.355834 1.988813 -0.002441 0.001623 -426075.000000 1 0 0
-13.372377 -11.198516 2.671245 17.645475 0.697155 1.418828 -0.007347 0.002450 -8683.240000 1 0 0
-8.634777 -12.149216 4.145045 15.470754 0.952907 1.299555 0.006984 0.000783 1439760.000000 1 0 0
-8.316677 -9.394016 -5.900155 13.864577 0.846153 2.010373 0.010868 -0.008453 419333.000000 1 0 0
3.636823 -17.550816 -5.278155 18.684661 -1.366471 1.857181 -0.000127 0.004032 -1083450.000000 1 0 0
-2.611277 -13.101516 11.431745 17.582755 1.374063 0.862991 -0.006940 -0.002347 210417.000000 1 0 0
-0.032877 -16.768516 -9.574355 19.309389 1.568836 2.089597 -0.009614 0.006637 -500938.000000 1 0 0
-7.071877 -10.739016 -14.634055 19.480593 0.988454 2.420693 0.010062 -0.000861 -81880.700000 1 0 0
-4.816577 -18.757916 -1.562255 19.429346 1.319451 1.651290 0.014448 -0.016060 -426318.000000 1 0 0
-2.561577 -17.185416 1.121545 17.411435 1.422830 1.506337 0.012642 -0.012093 -136064.000000 1 0 0
4.017823 -14.713116 -7.479855 16.987258 -1.304218 2.026753 -0.001438 0.003691 -21718.100000 1 0 0
-0.971977 -15.831316 -6.220355 17.037257 1.509477 1.944540 -0.003552 0.002307 -675660.000000 1 0 0
-9.471777 -15.294616 8.348545 19.832752 1.016315 1.136307 0.005339 0.001961 -205591.000000 1 0 0
-7.351277 -12.000616 -1.914855 14.202913 1.021182 1.706029 0.003050 -0.000158 907504.000000 1 0 0
-7.276377 -14.905416 -9.235255 18.984389 1.116657 2.078836 0.019976 -0.016077 5230.090000 1 0 0
-5.165277 -13.184416 -0.683355 14.176597 1.197404 1.619018 0.004492 -0.001733 2633780.000000 1 0 0
-6.481977 -13.644616 -7.276355 16.767138 1.127301 2.019686 0.008498 -0.009309 601933.000000 1 0 0
5.729223 -15.495216 0.208945 16.521785 -1.216644 1.558149 0.003486 -0.004224 118676.000000 1 0 0
-14.446877 -12.776016 1.010545 19.312174 0.724098 1.518446 -0.015974 0.004288 794993.000000 1 0 0
0.752923 -15.372216 11.278245 19.080638 -1.521856 0.938395 0.012324 -0.003491 135493.000000 1 0 0
-9.500277 -10.606116 2.012045 14.380309 0.840342 1.430419 0.002109 0.005860 457168.000000 1 0 0
-9.441977 -8.793316 -3.553055 13.382733 0.749841 1.839514 0.007169 -0.003756 -305930.000000 1 0 0
-12.248177 -7.351716 -12.252855 18.820150 0.540588 2.279763 0.018442 0.000975 -454641.000000 1 0 0
-13.371377 -8.137216 -0.543055 15.662150 0.546686 1.605476 -0.006214 -0.000118 -1041990.000000 1 0 0
-11.398577 -9.660316 0.339845 14.945393 0.703042 1.548055 -0.006000 0.006493 694935.000000 1 0 0
-15.792477 -12.097316 3.164845 20.143576 0.653674 1.413028 -0.000310 0.006179 -87960.800000 1 0 0
-10.499977 -12.420116 -2.288455 16.423941 0.868978 1.710588 0.009325 -0.003591 573709.000000 1 0 0
-3.456877 -8.952816 -12.259155 15.568873 1.202311 2.477400 0.003423 0.004395 -2134840.000000 1 0 0
-0.346977 -15.597316 3.891145 16.079107 1.548554 1.326370 0.009213 -0.007338 -511373.000000 1 0 0
-15.683477 -7.764416 1.259145 17.545457 0.459696 1.498970 -0.015156 -0.001438 339422.000000 1 0 0
-6.074677 -13.294216 -13.299655 19.761546 1.142185 2.309063 0.010722 -0.008833 -481396.000000 1 0 0
-15.363077 -10.378716 1.119645 18.574055 0.594136 1.510480 -0.010180 0.002790 -10845.100000 1 0 0
-9.917277 -8.462516 -12.477255 18.045733 0.706413 2.334255 0.022443 -0.000600 476512.000000 1 0 0
-13.384077 -11.633616 -6.191255 18.783136 0.715543 1.906695 0.010582 -0.002917 912.488000 1 0 0
-12.188877 -11.297316 -3.894055 17.069322 0.747455 1.800955 -0.003810 0.001069 -2506990.000000 1 0 0
-11.541177 -10.785516 -8.731355 18.048897 0.751565 2.075743 0.012609 -0.018123 337747.000000 1 0 0
-13.187877 -8.440616 -5.818255 16.703778 0.569333 1.926574 -0.001839 -0.001562 -2280590.000000 1 0 0
-13.460977 -8.034016 -3.141955 15.987971 0.538091 1.768604 -0.001095 -0.004524 -387530.000000 1 0 0
-4.339177 -16.872316 -3.281255 17.727666 1.319074 1.756962 -0.003041 -0.013069 146177.000000 1 0 0
-15.398277 -8.842916 -1.727855 17.840673 0.521293 1.667798 -0.006394 -0.000301 -1689820.000000 1 0 0
-9.487577 -15.487316 3.611445 18.517927 1.021161 1.374514 0.007611 -0.002351 -680407.000000 1 0 0
4.663823 -17.139416 8.047745 19.500693 -1.305118 1.145391 0.035574 -0.026493 81879.900000 1 0 0
-8.343777 -15.414316 5.936845 18.505834 1.074657 1.244212 0.005763 0.002671 166048.000000 1 0 0
0.832823 -16.161216 8.622345 18.336394 -1.519310 1.081244 0.018682 -0.008006 197211.000000 1 0 0
-10.847077 -7.800916 -10.233555 16.829707 0.623478 2.224417 0.016789 0.000706 1084660.000000 1 0 0
-4.915477 -15.958216 5.830445 17.686737 1.271996 1.234863 0.008955 -0.005127 -811224.000000 1 0 0
-1.263477 -13.073816 -12.129655 17.878747 1.474454 2.316433 -0.001966 -0.001905 -182489.000000 1 0 0
-6.480677 -14.336516 -2.578755 15.943176 1.146247 1.733257 0.006295 -0.003354 299495.000000 1 0 0
-17.493177 -6.958916 -7.166155 20.144268 0.378615 1.934504 -0.010647 0.002542 -33211.700000 1 0 0
-17.294577 -4.097416 -10.203455 20.493944 0.232630 2.091945 0.004418 -0.002143 226377.000000 1 0 0
-15.251677 -5.249316 -9.045355 18.492902 0.331480 2.081883 -0.001012 -0.003772 897469.000000 1 0 0
-16.037377 -5.337616 -5.647655 17.820876 0.321292 1.893269 -0.003811 0.001745 -131562.000000 1 0 0
-15.336377 -4.078616 -12.515455 20.210794 0.259928 2.238579 0.025501 0.001466 -1050910.000000 1 0 0
-18.608677 -5.247116 -5.489055 20.098379 0.274836 1.847420 -0.000871 0.002385 -228832.000000 1 0 0
-17.366577 -4.364516 -7.666855 19.478903 0.246218 1.975338 -0.002954 -0.001841 525159.000000 1 0 0
12.103923 -7.859916 8.757045 16.881027 -0.575932 1.025407 0.019819 -0.008437 126742.000000 1 0 0
16.132523 -3.404416 1.819845 16.587953 -0.207977 1.460866 0.024305 -0.001987 202176.000000 1 0 0
11.973423 -2.272116 12.611845 17.538073 -0.187533 0.768272 0.013132 0.000397 -32094.200000 1 0 0
9.609623 -10.140316 5.266845 14.930188 -0.812262 1.210272 0.009385 -0.004319 64818.900000 1 0 0
16.786923 -1.946316 7.225045 18.379069 -0.115427 1.166782 0.024635 -0.015264 -647447.000000 1 0 0
4.792723 -12.958616 9.127445 16.559172 -1.216550 0.986992 0.006719 0.001711 -386561.000000 1 0 0
15.027823 -9.058816 -2.138855 17.676886 -0.542478 1.692091 0.001196 0.000210 343727.000000 1 0 0
11.027223 -8.481916 6.419345 15.321571 -0.655664 1.138481 0.018226 -0.007183 -1579270.000000 1 0 0
19.999623 -3.372316 3.905645 20.654575 -0.167048 1.380557 0.033103 -0.008322 77156.000000 1 0 0
13.483723 -8.705416 6.710845 17.396278 -0.573293 1.174761 0.022447 -0.007003 -594912.000000 1 0 0
8.296423 -11.092416 8.742845 16.380161 -0.928617 1.007772 0.002774 -0.000489 -881244.000000 1 0 0
17.026323 0.064884 -0.890655 17.049725 0.003811 1.623059 0.028017 0.003771 -1680730.000000 1 0 0
12.417523 -12.449516 2.206545 17.721573 -0.786685 1.445961 0.015206 -0.005352 -1528500.000000 1 0 0
10.404023 -11.594816 3.572145 15.982605 -0.839475 1.345390 0.014884 -0.006084 -1512700.000000 1 0 0
16.291623 2.915884 2.436445 16.728885 0.177105 1.424633 0.010408 -0.000960 1133.120000 1 0 0
18.299223 -3.288516 0.507945 18.599298 -0.177810 1.543483 0.023503 0.003995 33135.400000 1 0 0
13.602023 -11.847216 -0.284355 18.040300 -0.716554 1.586559 0.021512 0.002294 -224219.000000 1 0 0
16.883323 -7.669216 -0.830555 18.562146 -0.426381 1.615556 0.019362 0.000800 189583.000000 1 0 0
10.050923 -5.808716 9.707445 15.132637 -0.524032 0.874357 0.008136 -0.003364 -109124.000000 1 0 0
11.308023 -13.469716 6.015045 18.587237 -0.872421 1.241252 0.020671 -0.007892 -617008.000000 1 0 0
12.967823 -1.843316 10.311445 16.669977 -0.141199 0.903883 0.021271 -0.005489 -227629.000000 1 0 0
15.628723 -2.090416 -1.394255 15.829427 -0.132966 1.658991 0.023133 0.002303 338433.000000 1 0 0
10.472523 -12.564516 8.945545 18.643057 -0.875960 1.070333 0.018361 -0.010847 370296.000000 1 0 0
14.653123 1.149184 3.413145 15.089208 0.078266 1.342624 0.017147 0.000977 243207.000000 1 0 0
14.708223 -6.152816 5.227145 16.778319 -0.396203 1.253981 0.019056 -0.007529 -275839.000000 1 0 0
14.101723 -3.318116 -3.007655 14.795758 -0.231095 1.775501 0.006274 0.002400 1370550.000000 1 0 0
14.001223 0.568584 9.680045 17.031171 0.040587 0.966270 0.017494 -0.004693 32026.900000 1 0 0
15.447823 -3.733816 4.438645 16.500854 -0.237157 1.298447 0.022316 -0.006633 -787759.000000 1 0 0
18.451223 4.576184 -4.242655 19.477916 0.243110 1.790375 -0.010402 -0.005621 466521.000000 1 0 0
17.820323 -5.763816 -5.250655 19.451346 -0.312821 1.844125 0.020456 -0.003412 448778.000000 1 0 0
17.310523 0.041184 5.874545 18.280212 0.002379 1.243630 0.030221 -0.007139 675138.000000 1 0 0
16.963923 -6.748016 4.017945 18.693696 -0.378597 1.354170 0.020638 -0.007171 -438111.000000 1 0 0
9.680323 -6.777916 14.261845 18.521582 -0.610843 0.691936 0.008843 -0.001688 -70796.700000 1 0 0
8.612523 -12.414516 5.098645 15.946534 -0.964280 1.245348 0.011907 -0.006427 -1527340.000000 1 0 0
16.771623 -10.259516 -0.647055 19.671392 -0.548992 1.603695 0.010917 0.004644 -6165.610000 1 0 0
14.918023 -8.782916 0.429345 17.316794 -0.532103 1.546000 0.025250 -0.005728 -125710.000000 1 0 0
9.887623 -12.987416 1.511445 16.392758 -0.920088 1.478463 0.011520 -0.008244 -49239.900000 1 0 0
16.986523 -8.283516 8.728645 20.817008 -0.453721 1.138118 0.048371 -0.017518 396830.000000 1 0 0
19.275823 0.065184 -2.309855 19.413836 0.003382 1.690059 0.034265 0.010037 67677.500000 1 0 0
13.389723 -1.261016 7.805145 15.549763 -0.093901 1.044949 0.016042 -0.007923 -111569.000000 1 0 0
12.698823 -9.784616 -3.108855 16.329844 -0.656501 1.762344 0.006605 -0.000494 -1266180.000000 1 0 0
8.758423 -15.190316 1.352845 17.586525 -1.047776 1.493795 0.017259 -0.009074 -806728.000000 1 0 0
11.335923 -8.331016 11.054145 17.891425 -0.633781 0.904796 0.012778 -0.006156 454747.000000 1 0 0
13.897823 -3.998016 -0.522855 14.470901 -0.280109 1.606936 0.013068 0.000747 -594111.000000 1 0 0
7.022623 -13.487216 10.310245 18.371809 -1.090736 0.974962 0.011852 -0.001963 -132060.000000 1 0 0
15.399023 -6.778416 1.846745 16.925935 -0.414662 1.461471 0.018887 -0.001332 587486.000000 1 0 0
15.729223 -6.139916 -2.508655 17.070453 -0.372161 1.718289 0.017868 0.002479 -816667.000000 1 0 0
11.172123 -8.620216 3.861245 14.629889 -0.657172 1.303703 0.017187 -0.006162 384373.000000 1 0 0
10.731723 -14.511516 -0.462955 18.054592 -0.934029 1.596441 0.022425 -0.005092 1000230.000000 1 0 0
13.317023 -13.119516 4.535445 19.236295 -0.777927 1.332780 0.011228 -0.000518 312432.000000 1 0 0
12.662423 -11.273416 6.387245 18.116947 -0.727433 1.210495 0.010914 -0.003826 -50571.500000 1 0 0
10.939723 -10.648416 1.274045 15.319579 -0.771905 1.487536 0.006422 -0.002505 716504.000000 1 0 0
13.811423 -7.578316 11.778845 19.670472 -0.501844 0.928784 0.026920 -0.015639 -450881.000000 1 0 0
15.260123 -1.828416 -5.022855 16.169215 -0.119248 1.886666 0.020820 -0.002257 -611022.000000 1 0 0
12.807623 -11.475216 -7.213655 18.648126 -0.730583 1.967988 0.007900 -0.003039 1068270.000000 1 0 0
17.710123 -5.433616 1.900645 18.622166 -0.297691 1.468555 0.028735 0.000005 453376.000000 1 0 0
10.507923 -9.924916 9.162645 17.113575 -0.756873 1.005813 0.002360 -0.001633 -434533.000000 1 0 0
16.397923 1.764084 9.997445 19.286077 0.107168 1.025845 0.027414 -0.004875 1010340.000000 1 0 0
18.201323 3.640584 0.641645 18.572929 0.197412 1.536242 0.004023 0.005335 656300.000000 1 0 0
13.248423 -4.138116 5.721745 15.012764 -0.302746 1.179783 0.019698 -0.009429 -743658.000000 1 0 0
12.089923 -6.246216 6.622845 15.134184 -0.476876 1.117859 0.021924 -0.007632 -539317.000000 1 0 0
16.696323 -10.455216 3.677545 20.040037 -0.559461 1.386241 0.028072 0.000457 -48180.200000 1 0 0
16.106523 -8.071516 -5.591155 18.863469 -0.464554 1.871719 0.008131 0.000978 -230153.000000 1 0 0
14.007223 -0.458016 5.452345 15.037956 -0.032687 1.199770 0.014572 -0.002684 863338.000000 1 0 0
18.243823 -4.344016 5.497645 19.543071 -0.233756 1.285638 0.029315 -0.002515 117247.000000 1 0 0
13.655523 -13.648116 7.040945 20.550408 -0.785127 1.221094 0.019409 -0.007390 -251557.000000 1 0 0
14.928023 -13.832316 -1.151455 20.383932 -0.747319 1.627315 0.015083 0.005382 944560.000000 1 0 0
17.812823 -6.051716 7.774145 20.355767 -0.327505 1.178930 0.043791 -0.010216 -66766.900000 1 0 0
14.309423 3.220684 9.391145 17.416256 0.221385 1.001289 0.011328 -0.008060 121900.000000 1 0 0
18.721023 3.702284 3.182445 19.347133 0.195242 1.405554 0.018338 0.000412 -293211.000000 1 0 0
14.566323 -10.706916 8.101945 19.810536 -0.633862 1.149470 0.018613 -0.011979 -385629.000000 1 0 0
14.819723 -4.940316 10.374445 18.752600 -0.321775 0.984563 0.030828 -0.014608 167512.000000 1 0 0
17.714223 -8.103416 1.990445 19.581137 -0.429034 1.468969 0.027622 -0.005656 141828.000000 1 0 0
18.338423 -5.851116 -2.040755 19.357117 -0.308853 1.676419 0.022243 0.002777 84830.000000 1 0 0
14.110323 -13.015616 -5.520355 19.974529 -0.745064 1.850811 0.002748 -0.003764 -184258.000000 1 0 0
15.353223 -1.613416 9.366245 18.056885 -0.104702 1.025458 0.032440 -0.014811 -496917.000000 1 0 0
12.926523 -9.985316 10.183545 19.248535 -0.657726 1.013309 0.010095 -0.013555 -1539140.000000 1 0 0
16.528323 2.156084 4.901445 17.374070 0.129715 1.284801 0.017325 -0.003954 -1881590.000000 1 0 0
14.956523 2.567084 0.029445 15.175255 0.169980 1.568856 0.011484 0.004050 -1098470.000000 1 0 0
14.921923 -9.750416 -7.031055 19.161684 -0.578782 1.946506 0.005713 -0.006085 930461.000000 1 0 0
16.114423 -0.097616 -3.249955 16.439171 -0.006058 1.769803 0.015093 0.004539 324317.000000 1 0 0
11.820723 2.496684 13.672945 18.245885 0.208153 0.723684 0.004646 0.004502 -50212.600000 1 0 0
17.513423 -3.121016 9.420445 20.129717 -0.176356 1.083785 0.028746 -0.016775 -242452.000000 1 0 0
7.783423 -18.280116 4.523445 20.376601 -1.168260 1.346939 0.033048 -0.014821 -579872.000000 1 0 0
6.864723 -11.267716 6.533045 14.722993 -1.023612 1.111039 0.005178 -0.002282 -217186.000000 1 0 0
18.137423 2.239184 -1.611555 18.346039 0.122835 1.658752 0.025221 0.007166 874073.000000 1 0 0
17.601423 -2.460816 3.735245 18.160885 -0.138907 1.363643 0.025629 -0.004974 -219892.000000 1 0 0
12.500523 -13.420116 -2.091955 18.459113 -0.820861 1.684369 0.012943 0.000928 -1632920.000000 1 0 0
15.051723 -8.518716 4.238145 17.806874 -0.515016 1.330484 0.026493 -0.003038 -181495.000000 1 0 0
11.368323 -3.336516 14.906845 19.041668 -0.285476 0.671557 0.010877 0.000325 151161.000000 1 0 0
11.907523 -13.786916 -6.494055 19.340137 -0.858412 1.913231 0.006642 -0.006120 24875.700000 1 0 0
10.691023 -12.056216 -1.240055 16.161313 -0.845342 1.647602 0.008702 -0.004846 -906097.000000 1 0 0
13.119223 -8.112516 2.121045 15.570027 -0.553817 1.434145 0.018289 -0.000722 -1291600.000000 1 0 0
8.620823 -7.908016 9.963745 15.366571 -0.742300 0.865310 -0.000001 0.001083 -1456430.000000 1 0 0
15.544523 -3.900616 8.014845 17.918837 -0.245856 1.107068 0.034408 -0.014665 -1194270.000000 1 0 0
10.206523 -17.501816 5.136945 20.901552 -1.042844 1.322484 0.026855 -0.016407 -1143450.000000 1 0 0
15.236123 -6.413416 8.220245 18.461955 -0.398422 1.109339 0.033717 -0.008053 441824.000000 1 0 0
16.515023 -5.031116 -0.353555 17.267979 -0.295707 1.591272 0.023645 0.002522 -512225.000000 1 0 0
14.062123 -10.762316 3.393845 18.030223 -0.653247 1.381436 0.024494 -0.003163 106936.000000 1 0 0
14.813623 -10.011416 -4.476555 18.431262 -0.594316 1.816128 0.008621 -0.006691 145628.000000 1 0 0
13.588823 -6.527916 -0.007055 15.075471 -0.447836 1.571264 0.014487 -0.000266 -81398.000000 1 0 0
17.735423 -0.919016 -5.014555 18.453606 -0.051772 1.845995 0.019802 -0.001001 1894190.000000 1 0 0
14.525023 0.282484 -1.463355 14.601284 0.019446 1.671186 0.013004 0.003019 -1146150.000000 1 0 0
4.876623 -13.068216 11.683145 18.194933 -1.213634 0.873549 0.007951 0.006403 -327192.000000 1 0 0
11.938323 -7.662016 13.540145 19.610343 -0.570589 0.808672 0.016008 -0.004656 -384698.000000 1 0 0
11.913423 -5.910516 11.535145 17.604642 -0.460541 0.856305 0.013430 -0.004352 -432718.000000 1 0 0
13.201723 -4.674816 8.369345 16.315187 -0.340329 1.032145 0.025266 -0.008710 -1070880.000000 1 0 0
15.465923 -1.273116 3.367245 15.879355 -0.082132 1.357122 0.022103 -0.001445 724542.000000 1 0 0
15.027623 -10.589416 5.694545 19.245597 -0.613849 1.270411 0.025959 -0.005621 -912209.000000 1 0 0
13.549423 -8.004816 -5.642255 16.718223 -0.533617 1.915047 0.009518 -0.004272 -530785.000000 1 0 0
9.547623 -2.352416 13.524745 16.721534 -0.241576 0.628650 0.000301 -0.001355 -1653530.000000 1 0 0
9.739423 -9.321116 13.565145 19.124663 -0.763455 0.782290 0.014652 -0.001426 43848.200000 1 0 0
20.167623 6.164384 -3.034355 21.305866 0.296639 1.713701 0.002503 0.001902 -59513.400000 1 0 0
11.154623 -3.678916 10.582545 15.809816 -0.318577 0.837442 0.013759 -0.002567 941678.000000 1 0 0
9.995723 -14.022016 -2.861155 17.456163 -0.951492 1.735444 0.005988 -0.001828 33528.900000 1 0 0
14.827923 -13.136916 2.452845 19.961521 -0.725003 1.447606 0.015351 0.002851 -178283.000000 1 0 0
11.264923 -0.726416 14.619745 18.470601 -0.064396 0.657513 0.014948 0.004647 225837.000000 1 0 0
19.054823 -1.899116 5.879645 20.031553 -0.099338 1.272890 0.042629 -0.009745 1273940.000000 1 0 0
18.764023 -0.497816 8.006145 20.406732 -0.026524 1.167635 0.029132 -0.011933 -155146.000000 1 0 0
19.198923 0.678184 0.300545 19.213248 0.035309 1.555153 0.036187 0.001224 420415.000000 1 0 0
18.390523 0.768784 3.637645 18.762591 0.041779 1.375683 0.021107 -0.004840 148563.000000 1 0 0
16.571123 -3.865916 -4.033455 17.487601 -0.229193 1.803538 0.023712 -0.000466 408706.000000 1 0 0
10.922123 -8.561816 15.712845 20.964040 -0.664844 0.723468 0.024723 -0.008188 440512.000000 1 0 0
16.402723 -7.783416 6.293145 19.215477 -0.443056 1.237136 0.023027 -0.005944 -24602.900000 1 0 0
18.964323 2.098584 5.835045 19.952377 0.110211 1.274010 0.035868 -0.011999 377104.000000 1 0 0
15.297123 1.640384 7.700645 17.204440 0.106827 1.106721 0.021373 -0.008427 325088.000000 1 0 0
8.707423 -15.785716 3.826045 18.429505 -1.066724 1.361671 0.018456 -0.017787 505816.000000 1 0 0
11.230623 -15.190216 1.970445 18.993478 -0.934157 1.466866 0.018440 -0.004178 -730861.000000 1 0 0
8.211523 -16.202016 6.073145 19.152481 -1.101707 1.248132 0.025590 -0.014448 -267798.000000 1 0 0
14.439723 -11.704816 -2.660655 18.777311 -0.681170 1.712970 0.005347 0.002375 118672.000000 1 0 0
13.651723 -4.889716 3.190545 14.847843 -0.343940 1.354225 0.012728 -0.001641 -1832850.000000 1 0 0
-0.995577 10.392084 -5.574455 11.834742 -1.475286 2.061248 -0.001169 -0.001803 -1841610.000000 1 0 0
8.282723 -1.719116 -7.985655 11.633123 -0.204649 2.327404 -0.010014 0.000086 -3380830.000000 1 0 0
2.918223 -10.175916 7.645545 13.058317 -1.291514 0.945309 -0.003986 -0.000193 621670.000000 1 0 0
-6.254377 1.260584 8.266545 10.442321 -0.198888 0.657310 -0.005908 -0.000319 -501178.000000 1 0 0
7.076123 -6.201616 -7.044255 11.753854 -0.719631 2.213441 -0.008347 -0.002230 -416054.000000 1 0 0
-11.424377 -4.435716 -4.143255 12.936713 0.370352 1.896812 0.000894 -0.003759 -245164.000000 1 0 0
1.987423 -3.193716 2.953345 4.782459 -1.014147 0.905189 -0.001646 0.000452 2090610.000000 1 0 0
-3.653177 -4.260216 8.946945 10.561391 0.861959 0.560222 -0.004078 0.001058 -1743740.000000 1 0 0
-4.860677 -1.148716 -2.521355 5.594905 0.232070 2.038292 0.004436 -0.001973 -267858.000000 1 0 0
4.983723 -5.125916 -3.608955 8.008562 -0.799462 2.038275 -0.004803 -0.003479 368034.000000 1 0 0
2.672823 14.236484 -8.960655 17.032756 1.385212 2.124785 -0.005860 -0.004680 -129.653000 1 0 0
5.326023 -5.476616 13.625845 15.621251 -0.799338 0.510985 -0.004185 -0.001975 -991891.000000 1 0 0
-4.707077 -0.826816 9.878945 10.974231 0.173880 0.450580 -0.000240 0.000237 -4318070.000000 1 0 0
-0.888377 11.991984 -2.577155 12.297911 -1.496850 1.781922 -0.002603 -0.000101 -407563.000000 1 0 0
3.187923 9.442584 -10.542355 14.507463 1.245201 2.384280 0.001085 -0.000036 -345955.000000 1 0 0
-10.695577 2.723084 1.064145 11.087965 -0.249302 1.474675 -0.003213 -0.002179 -147977.000000 1 0 0
5.646523 -9.059016 -0.714055 10.698545 -1.013417 1.637589 -0.005262 -0.004127 648410.000000 1 0 0
-6.940877 5.443484 9.333845 12.842428 -0.665072 0.757148 -0.001402 -0.005321 203642.000000 1 0 0
-5.400777 -1.856916 5.113445 7.665759 0.331162 0.840554 -0.002407 -0.000228 704963.000000 1 0 0
6.570123 -3.732416 -7.342855 10.536364 -0.516625 2.341870 -0.008376 -0.000739 239553.000000 1 0 0
6.084923 4.727384 11.097445 13.510282 0.660497 0.606922 -0.003555 -0.001141 658758.000000 1 0 0
3.729923 -9.878016 3.449445 11.107934 -1.209750 1.255036 -0.003305 -0.002230 1279240.000000 1 0 0
-6.619577 6.635984 -5.819855 11.032941 -0.786636 2.126449 -0.000163 -0.001621 135865.000000 1 0 0
-10.968377 8.441684 5.193445 14.783071 -0.655952 1.211826 -0.005844 -0.010824 269591.000000 1 0 0
-9.149577 -5.429116 5.182745 11.834311 0.535533 1.117488 0.001726 0.000521 -235494.000000 1 0 0
3.419223 9.888984 -8.085555 13.223437 1.237903 2.228696 -0.001276 -0.002470 884344.000000 1 0 0
-8.083877 -8.612516 6.132145 13.308934 0.817049 1.091952 0.004975 0.003756 -2253700.000000 1 0 0
-7.786477 -5.688616 -7.541855 12.242106 0.630954 2.234526 0.013250 -0.006220 -1054890.000000 1 0 0
9.224223 -1.556916 7.020445 11.696021 -0.167210 0.926993 0.004803 -0.005199 3619410.000000 1 0 0
-4.027777 -0.468816 -4.916855 6.373244 0.115874 2.451966 0.010891 -0.007922 -767734.000000 1 0 0
9.053323 1.098284 -4.478555 10.160036 0.120723 2.027287 -0.003689 0.001576 -2274510.000000 1 0 0
-1.970777 -10.669716 10.775245 15.291590 1.388147 0.788864 -0.011829 -0.000885 145130.000000 1 0 0
-12.891677 0.353084 -2.744055 13.185213 -0.027382 1.780445 0.001683 -0.003767 -579255.000000 1 0 0
-9.693877 -5.030816 -6.040255 12.480587 0.478707 2.075984 0.011638 -0.006385 -794975.000000 1 0 0
-5.529377 8.212984 -0.199055 9.902865 -0.978251 1.590898 0.000500 -0.001129 454477.000000 1 0 0
6.272123 9.613884 0.604545 11.494858 0.992734 1.518179 0.002793 -0.002461 658265.000000 1 0 0
-0.674277 -12.070916 0.020645 12.089752 1.514995 1.569089 0.010127 -0.002404 -152717.000000 1 0 0
6.209123 4.698584 2.410745 8.151171 0.647790 1.270551 0.001963 0.000424 382399.000000 1 0 0
3.412923 -7.445716 -8.175755 11.572800 -1.141000 2.355284 -0.009847 0.001593 963964.000000 1 0 0
-6.630677 -9.873316 4.541045 12.730646 0.979403 1.206061 0.004978 0.003413 -2619670.000000 1 0 0
-0.032477 6.583684 -9.327755 11.417222 -1.565863 2.526968 0.005114 -0.000862 -1610120.000000 1 0 0
-17.204377 -2.717416 4.134045 17.901544 0.156655 1.337761 0.010522 -0.006056 531539.000000 1 0 0
-8.319977 0.832884 -9.232355 12.456007 -0.099774 2.405648 0.005443 -0.004391 55339.700000 1 0 0
-9.989477 -5.915816 -11.808355 16.559704 0.534668 2.364675 0.010299 0.003211 873922.000000 1 0 0
2.229223 9.445584 6.511245 11.686950 1.339030 0.979861 -0.007349 0.002372 -106656.000000 1 0 0
-11.399077 1.639584 -1.218055 11.580624 -0.142855 1.676172 -0.001027 -0.002947 -1580630.000000 1 0 0
-5.894677 -5.315216 -3.142955 8.536798 0.733752 1.947832 0.017275 -0.006554 615437.000000 1 0 0
-7.064577 -8.428516 1.410945 11.087782 0.873207 1.443198 0.007544 0.000226 302001.000000 1 0 0
0.104323 11.052584 -7.974855 13.629703 1.561358 2.195810 -0.001465 0.000448 201272.000000 1 0 0
-2.768177 9.328884 -4.163555 10.584237 -1.282340 1.975094 -0.000076 -0.000507 831550.000000 1 0 0
3.426723 -4.815316 9.261145 10.986287 -0.952308 0.568010 -0.005837 -0.001166 -1554220.000000 1 0 0
-8.966377 1.586784 -0.460355 9.117331 -0.175157 1.621310 -0.002397 -0.000914 -894754.000000 1 0 0
2.570323 3.525484 -10.403155 11.281012 0.940826 2.744483 0.002561 -0.001141 973944.000000 1 0 0
-13.646577 0.610784 1.080145 13.702877 -0.044727 1.491888 -0.000530 -0.003606 -176492.000000 1 0 0
9.332723 -12.622216 -4.932055 16.454337 -0.934121 1.875218 0.009667 -0.002568 -1898260.000000 1 0 0
-4.622277 9.409484 -8.391455 13.428341 -1.114184 2.245808 -0.000511 0.000501 -1086060.000000 1 0 0
-2.377377 7.236684 8.360545 11.310182 -1.253386 0.738907 -0.004601 -0.001520 346439.000000 1 0 0
-10.716877 -1.218816 -4.502155 11.687873 0.113242 1.966220 0.003729 -0.002681 -3046430.000000 1 0 0
2.730423 -7.259916 9.626745 12.362678 -1.211065 0.678215 -0.008693 0.002072 -631000.000000 1 0 0
-16.219677 -6.521916 3.377445 17.805068 0.382315 1.379950 0.007479 -0.003579 98166.900000 1 0 0
-10.707877 0.069084 6.100345 12.323864 -0.006452 1.052958 -0.004962 -0.006081 -1846850.000000 1 0 0
-8.426577 9.940784 9.357945 16.043613 -0.867652 0.948033 0.001602 -0.008605 -421725.000000 1 0 0
0.333723 -6.081616 -3.763255 7.159575 -1.515977 2.124247 -0.003849 0.000753 131104.000000 1 0 0
4.909923 1.524284 -2.972955 5.938791 0.301016 2.095087 -0.003405 0.001203 1067850.000000 1 0 0
0.339723 5.269384 3.929945 6.582270 1.506414 0.930978 -0.008086 0.000564 -2689720.000000 1 0 0
5.970423 -11.366416 -1.591455 12.937314 -1.087139 1.694121 -0.003212 -0.003841 -2769730.000000 1 0 0
6.267423 -13.527116 5.154245 15.774337 -1.136918 1.237935 0.010085 -0.008671 -324307.000000 1 0 0
8.150123 -8.145016 -5.891755 12.941351 -0.785085 2.043467 -0.004780 -0.003921 552511.000000 1 0 0
-13.130477 -1.344816 -4.739355 14.024245 0.102064 1.915524 0.002246 -0.001127 -3849820.000000 1 0 0
-6.752977 -1.475616 -7.152355 9.946674 0.215132 2.373259 0.013200 -0.006983 -1299480.000000 1 0 0
-5.616677 12.825684 -4.525255 14.714726 -1.158030 1.883395 0.000276 -0.001046 744161.000000 1 0 0
-4.252277 6.889384 -6.839955 10.598606 -1.017810 2.272296 0.003228 -0.000093 -2358650.000000 1 0 0
-9.361177 -3.728516 -8.210455 12.997886 0.379036 2.254510 0.010013 -0.002557 798658.000000 1 0 0
-2.216877 -6.395916 9.187845 11.412221 1.237146 0.634972 -0.006618 0.000788 -144995.000000 1 0 0
7.334523 -6.018816 10.051245 13.822044 -0.687185 0.756578 0.000103 -0.000440 24258.200000 1 0 0
9.523223 -5.175116 12.217445 16.332163 -0.497778 0.725662 0.004367 0.002335 15406.600000 1 0 0
-6.528177 2.849284 -9.126055 11.576718 -0.411537 2.478856 0.001564 -0.004683 -1163580.000000 1 0 0
7.383223 5.407584 8.967945 12.813195 0.632151 0.795540 -0.005496 0.000647 238240.000000 1 0 0
12.640823 3.040184 11.275445 17.209555 0.236023 0.856369 0.007491 0.001841 -477209.000000 1 0 0
-7.456277 -7.200716 -3.840055 11.054068 0.767964 1.925581 0.015542 -0.010035 -2361550.000000 1 0 0
2.504423 1.683084 -5.818655 6.554514 0.591717 2.663192 -0.005645 0.000926 298300.000000 1 0 0
12.838223 6.913084 -7.075255 16.207095 0.493953 2.022560 0.007650 -0.002346 131536.000000 1 0 0
0.784523 -7.802116 0.939845 7.897582 -1.470581 1.451509 -0.000858 -0.000486 249718.000000 1 0 0
-10.118977 -6.050716 -8.552555 14.565407 0.538916 2.198370 0.011560 -0.000504 -694468.000000 1 0 0
-6.680077 0.196084 3.050245 7.346147 -0.029345 1.142615 -0.001917 -0.003430 -497890.000000 1 0 0
10.780223 -8.029516 1.184945 13.494089 -0.640189 1.482871 0.004584 -0.003672 55790.200000 1 0 0
6.246723 0.993484 10.488045 12.247761 0.157720 0.542688 -0.005021 -0.002841 -534124.000000 1 0 0
-12.949177 5.470884 1.941045 14.190822 -0.399742 1.433584 -0.000695 -0.003801 249122.000000 1 0 0
1.941423 7.366684 3.635645 8.441272 1.313114 1.125529 -0.007168 0.001924 424084.000000 1 0 0
10.042223 -9.498216 -0.823955 13.847066 -0.757565 1.630335 0.002570 -0.002064 796179.000000 1 0 0
6.842723 -11.497616 -9.060355 16.158839 -1.033956 2.166034 -0.005018 -0.004907 -82002.100000 1 0 0
10.111623 3.529984 11.850145 15.972840 0.335874 0.734907 -0.002475 0.000030 -244244.000000 1 0 0
-11.016577 -3.094616 -1.960255 11.609661 0.273848 1.740456 -0.002665 -0.002324 -1039600.000000 1 0 0
12.293923 0.949384 6.940645 14.149714 0.077071 1.058116 0.009353 -0.002591 -242544.000000 1 0 0
-9.477577 9.167784 3.064145 13.537419 -0.768785 1.342471 0.000770 -0.006177 423660.000000 1 0 0
-6.586177 7.655084 -8.783355 13.383772 -0.860315 2.286660 -0.002383 0.001096 -1332740.000000 1 0 0
8.409523 5.521784 12.075345 15.717001 0.581009 0.694618 -0.003690 0.002559 -2016360.000000 1 0 0
1.286223 4.918484 -2.691155 5.752231 1.315016 2.057648 -0.000937 0.000059 149743.000000 1 0 0
1.201123 0.455884 9.473345 9.560062 0.362752 0.134793 -0.004716 -0.002363 635420.000000 1 0 0
2.649323 12.656184 -4.053955 13.551105 1.364446 1.874609 -0.001007 -0.003953 331174.000000 1 0 0
2.169023 0.599584 12.973645 13.167370 0.269696 0.171748 -0.008296 -0.009058 -224026.000000 1 0 0
-12.279877 -1.691916 0.811945 12.422448 0.136918 1.505389 -0.004838 -0.001389 -327742.000000 1 0 0
3.304323 8.817584 -1.305755 9.506489 1.212252 1.708586 -0.001646 -0.000641 516228.000000 1 0 0
3.725623 -2.810716 -5.803355 7.447101 -0.646329 2.464308 -0.008470 0.001051 -1263160.000000 1 0 0
-7.782777 -7.126216 9.321545 14.079978 0.741389 0.847255 0.005246 -0.000153 -138924.000000 1 0 0
-6.971677 10.862584 -3.470755 13.365858 -1.000203 1.833480 0.005578 0.000878 212116.000000 1 0 0
0.257723 0.391384 2.502945 2.546436 0.988475 0.185084 -0.004893 0.001872 -2757240.000000 1 0 0
-7.065877 4.615684 -1.993355 8.672060 -0.578647 1.802730 0.004036 -0.003223 -1394010.000000 1 0 0
-6.870277 -3.870616 -5.885855 9.840004 0.513062 2.211994 0.013427 -0.007398 21453.900000 1 0 0
2.915023 -6.112916 13.388945 15.004298 -1.125829 0.468292 -0.007214 -0.000966 -1563010.000000 1 0 0
-5.574577 -0.489816 -11.644955 12.919784 0.087641 2.693621 0.010225 -0.004018 -1506180.000000 1 0 0
11.915823 2.557184 -0.680555 12.206112 0.211398 1.626581 0.004875 -0.001079 -1515120.000000 1 0 0
6.020423 -11.051816 10.627245 16.471990 -1.071997 0.869550 0.002256 0.003618 92761.100000 1 0 0
-8.117977 6.375184 -10.387155 14.643685 -0.665723 2.359339 -0.001585 -0.001451 444085.000000 1 0 0
2.966123 7.871884 11.223245 14.025893 1.210449 0.643200 -0.008547 0.000733 931183.000000 1 0 0
-6.202377 -10.168816 -0.460255 11.919989 1.023099 1.609418 0.011598 -0.000754 488612.000000 1 0 0
11.200823 4.264084 6.137645 13.465197 0.363753 1.097508 0.003726 -0.001416 -17566.200000 1 0 0
-7.781477 10.579984 1.466745 13.215097 -0.936646 1.459577 0.004378 -0.002718 304503.000000 1 0 0
4.331923 -2.610716 -3.473855 6.135883 -0.542380 2.172629 -0.005528 -0.001388 -4762980.000000 1 0 0
6.384423 6.430284 6.332045 11.054601 0.788977 0.960882 -0.001031 0.000810 -4884200.000000 1 0 0
-0.269077 10.245484 -10.187155 14.450622 -1.544539 2.353167 -0.004322 -0.000107 79432.800000 1 0 0
14.001823 6.605884 -2.461755 15.676383 0.440824 1.728485 0.008227 0.000288 690047.000000 1 0 0
1.453923 9.570184 -6.236955 11.515291 1.420027 2.143164 -0.001624 -0.001003 138862.000000 1 0 0
0.581823 7.400684 7.261245 10.384330 1.492340 0.796448 -0.011085 0.000849 14396.400000 1 0 0
12.258923 6.285084 1.942845 13.912516 0.473752 1.430691 -0.001023 0.000149 -710696.000000 1 0 0
-6.670777 6.679584 -3.229155 9.977152 -0.786058 1.900386 0.000384 -0.004297 886051.000000 1 0 0
1.145923 9.749684 11.122845 14.835335 1.453799 0.723107 -0.015166 0.002522 578388.000000 1 0 0
-3.446577 13.647384 -11.076055 17.911141 -1.323424 2.237488 -0.002514 0.002138 5730.940000 1 0 0
-9.999677 -5.504316 -2.280655 11.640122 0.503188 1.768003 0.000912 -0.001241 10539.300000 1 0 0
-3.985977 3.988484 -12.456055 13.672941 -0.785712 2.716500 0.001301 -0.005599 -252050.000000 1 0 0
-3.122477 8.494584 2.529945 9.397257 -1.218543 1.298212 -0.003632 0.000457 -3967820.000000 1 0 0
7.127623 8.978084 7.100645 13.484367 0.899791 1.016220 0.001895 -0.001473 -141827.000000 1 0 0
-1.255977 -2.209416 -8.181155 8.566814 1.053887 2.840396 0.007840 -0.005797 -1340990.000000 1 0 0
0.784323 -1.330216 4.804345 5.046421 -1.038044 0.310993 -0.003406 -0.000441 -578189.000000 1 0 0
2.737523 -8.783916 -6.032655 11.002006 -1.268684 2.151154 -0.010226 0.000770 485538.000000 1 0 0
5.192723 3.903084 8.901245 11.019555 0.644553 0.630440 -0.003889 -0.000377 378771.000000 1 0 0
6.181923 -7.365216 -2.658755 9.976550 -0.872523 1.840557 -0.006634 -0.002837 1171740.000000 1 0 0
1.837123 2.322084 -8.329555 8.840169 0.901473 2.800051 0.003853 -0.001265 310778.000000 1 0 0
-5.355877 10.931484 -0.656355 12.190716 -1.115221 1.624663 -0.001493 0.000590 543808.000000 1 0 0
-5.421077 3.408384 -3.449855 7.273696 -0.561276 2.064956 0.003963 -0.002300 165938.000000 1 0 0
1.981723 13.733884 -6.460755 15.306474 1.427491 2.006549 -0.007729 -0.002881 766026.000000 1 0 0
-5.338477 -2.581616 2.575545 6.465100 0.450431 1.161050 -0.005907 0.000104 966239.000000 1 0 0
10.296423 -3.378416 -1.707555 10.970221 -0.317047 1.727085 0.000441 0.001063 161881.000000 1 0 0
2.246023 -3.386016 7.037345 8.126127 -0.985112 0.523620 -0.005648 -0.000753 -1413110.000000 1 0 0
-2.884077 9.878484 -11.802655 15.659023 -1.286736 2.424514 0.000124 0.003588 -2658660.000000 1 0 0
0.427523 -2.085216 9.348945 9.588205 -1.368573 0.223866 -0.004750 -0.000976 392842.000000 1 0 0
9.355623 2.689284 5.053145 10.967871 0.279905 1.091987 0.000812 -0.001152 -730907.000000 1 0 0
13.439523 2.074184 -4.999855 14.488670 0.153126 1.923128 0.008021 -0.001565 -1935040.000000 1 0 0
-6.447277 3.824584 7.629345 10.695874 -0.535411 0.776604 -0.004290 -0.004365 -938827.000000 1 0 0
10.600423 0.015684 2.074945 10.801602 0.001480 1.377499 0.004797 0.004019 1746330.000000 1 0 0
15.464323 6.680684 -4.589255 17.459613 0.407790 1.836771 0.021879 -0.001393 737190.000000 1 0 0
8.026123 -4.945116 -9.214655 13.182666 -0.552194 2.344791 -0.007526 0.000460 1401020.000000 1 0 0
4.397723 5.739384 -2.166155 7.548027 0.916985 1.861872 -0.002056 -0.000400 385007.000000 1 0 0
-1.685377 -10.343916 1.479245 10.584199 1.409281 1.430578 0.008733 -0.000463 -1074950.000000 1 0 0
-2.759677 12.248284 -13.036755 18.099537 -1.349186 2.375004 0.002415 0.003458 -551962.000000 1 0 0
8.366623 4.240284 -9.659955 13.464587 0.469080 2.370908 -0.004339 0.001409 -1069690.000000 1 0 0
4.141923 7.637184 -8.990355 12.502343 1.073856 2.373293 0.001774 -0.002508 -610251.000000 1 0 0
-1.649877 -5.093116 -2.507655 5.911875 1.257521 2.008844 0.004469 -0.003686 38913.100000 1 0 0
-3.307777 -9.301016 6.933145 12.063117 1.229109 0.958511 -0.002645 0.002321 -1726890.000000 1 0 0
1.079723 7.294384 -1.347355 7.495946 1.423842 1.751523 -0.003881 0.000548 485300.000000 1 0 0
0.382423 -0.796716 -2.260055 2.426696 -1.123278 2.768845 0.001960 0.000213 -2971340.000000 1 0 0
3.967523 -6.649916 7.303145 10.644179 -1.032860 0.814659 -0.000395 0.001003 -861609.000000 1 0 0
-13.885077 3.858584 5.893745 15.569851 -0.271055 1.182583 -0.007443 -0.007009 -1946610.000000 1 0 0
4.206723 6.241384 12.663545 14.731489 0.977731 0.536263 -0.004160 -0.000399 -212306.000000 1 0 0
8.364623 10.113784 -7.184855 14.962542 0.879777 2.071667 0.007141 -0.005960 1010180.000000 1 0 0
12.483323 5.244084 9.796645 16.712511 0.397702 0.944453 0.010435 0.002261 692926.000000 1 0 0
7.588723 3.966884 0.462145 8.575457 0.481669 1.516879 0.003594 0.001913 -2244460.000000 1 0 0
-11.004277 -7.494116 -1.101455 13.359233 0.597873 1.653339 -0.000137 -0.000046 -2067090.000000 1 0 0
10.558323 6.915384 0.193945 12.622928 0.579861 1.555431 0.002615 0.000998 -1172580.000000 1 0 0
14.518723 3.468184 4.310445 15.537102 0.234483 1.289679 0.006732 -0.001031 236994.000000 1 0 0
2.120623 5.591084 8.250745 10.189801 1.208273 0.627145 -0.010693 0.000457 184982.000000 1 0 0
4.206723 0.037684 11.701345 12.434605 0.008958 0.345132 -0.006061 -0.005783 -2374600.000000 1 0 0
-1.460677 -1.562216 -0.567555 2.212740 0.818976 1.830190 0.003777 -0.004566 -1180190.000000 1 0 0
3.101223 -5.226116 -9.537255 11.308807 -1.035238 2.574279 -0.010601 0.002777 101692.000000 1 0 0
-3.917677 -5.354316 -1.400455 6.780721 0.939120 1.778828 0.007379 -0.004480 -578299.000000 1 0 0
-1.287277 -8.858816 8.614045 12.423264 1.426496 0.804627 -0.008002 0.000779 -207331.000000 1 0 0
3.967123 8.616584 -5.963655 11.204854 1.139323 2.132039 -0.002061 -0.001001 689869.000000 1 0 0
-14.335377 -1.706716 -2.843555 14.713998 0.118498 1.765275 0.001598 -0.004128 -1874620.000000 1 0 0
8.778323 -10.430116 -6.421055 15.069048 -0.871180 2.010984 -0.006395 -0.004725 -12852.600000 1 0 0
14.845923 5.996184 1.659545 16.096886 0.383859 1.467516 -0.000899 0.002645 -1357810.000000 1 0 0
-5.775877 0.434984 -8.472455 10.263161 -0.075169 2.541921 0.011296 -0.007566 -256815.000000 1 0 0
-7.895977 -4.616116 -12.964855 15.866394 0.529031 2.527205 0.009512 -0.002281 620208.000000 1 0 0
0.870623 -10.718716 12.058445 16.157195 -1.489750 0.728280 -0.009020 0.002001 -498119.000000 1 0 0
0.234323 11.669184 3.254145 12.116692 1.550719 1.298891 -0.001078 0.000042 -876082.000000 1 0 0
4.941323 -13.353416 -3.827155 14.743728 -1.216380 1.833382 -0.001219 -0.001709 540279.000000 1 0 0
-7.576277 1.547984 -7.090455 10.491463 -0.201546 2.312888 0.003017 -0.002871 392913.000000 1 0 0
1.428823 2.788684 4.086945 5.149894 1.097306 0.654097 -0.007640 0.001597 -834500.000000 1 0 0
17.256023 5.390784 2.145245 18.205300 0.302794 1.452686 -0.000129 -0.000805 -535022.000000 1 0 0
2.416323 -8.230916 -3.555955 9.286087 -1.285252 1.963766 -0.009174 0.000114 557203.000000 1 0 0
-0.406777 -9.466016 -0.738455 9.503486 1.527850 1.648578 0.005414 -0.000453 -819666.000000 1 0 0
0.792023 11.923584 -5.673055 13.228103 1.504469 2.014031 -0.001583 -0.000452 -1210520.000000 1 0 0
5.856123 -5.027916 7.851445 11.009964 -0.709451 0.776855 -0.000798 -0.001369 -1939460.000000 1 0 0
-5.969277 -1.963816 -9.452355 11.350589 0.317834 2.554877 0.014721 -0.006593 -355302.000000 1 0 0
2.047823 -1.287116 11.271145 11.527747 -0.561133 0.211389 -0.007419 -0.004958 -644766.000000 1 0 0
17.927723 2.196784 -5.959055 19.019449 0.121928 1.889477 0.003991 0.000749 -1463310.000000 1 0 0
-8.833677 4.839484 7.763845 12.717380 -0.501187 0.914116 -0.003859 -0.009397 -842583.000000 1 0 0
11.288223 -7.062216 -4.875855 14.180015 -0.559050 1.921814 0.007344 -0.003250 27385.800000 1 0 0
10.870123 0.419784 9.077245 14.167998 0.038599 0.875404 0.003704 -0.002064 -470259.000000 1 0 0
-8.501477 -7.386016 -1.518455 11.363717 0.715303 1.704820 0.007556 -0.003198 -1561350.000000 1 0 0
10.196123 -10.560116 -3.216455 15.027393 -0.802933 1.786505 0.003714 -0.005250 495402.000000 1 0 0
7.536123 -13.947916 -3.798055 16.302231 -1.075427 1.805935 0.003303 -0.004767 -1994180.000000 1 0 0
1.827523 -1.181516 -11.632955 11.834757 -0.573920 2.956659 0.001710 -0.004031 -152703.000000 1 0 0
-11.882377 -2.503616 -6.471755 13.760182 0.207662 2.060455 0.006922 -0.001912 -410784.000000 1 0 0
2.702823 -12.189816 -6.405855 14.033241 -1.352598 2.044828 -0.005420 0.002088 629901.000000 1 0 0
-5.504977 1.415884 1.117945 5.793039 -0.251744 1.376597 -0.000877 -0.003041 312545.000000 1 0 0
0.134123 6.921084 -3.984455 7.987194 1.551420 2.093074 0.002349 -0.001231 984323.000000 1 0 0
5.408823 -11.797116 3.558345 13.456936 -1.140907 1.303189 -0.002081 -0.006457 -1648550.000000 1 0 0
-4.414577 -9.160816 1.140945 10.232830 1.121735 1.459066 0.011402 -0.000582 -177858.000000 1 0 0
7.140623 -6.257016 -4.470355 10.493942 -0.719541 2.010856 -0.004798 -0.002000 21569.900000 1 0 0
-6.900277 -6.032716 2.172445 9.419502 0.718417 1.338068 0.005003 0.001079 -343226.000000 1 0 0
-6.303377 -0.782116 6.994245 9.447949 0.123448 0.737291 -0.005493 0.000717 -2022960.000000 1 0 0
4.059023 -5.072216 3.257145 7.267189 -0.895905 1.106047 -0.004408 0.001419 -365533.000000 1 0 0
-2.386577 10.521784 -8.796355 13.920472 -1.347748 2.254799 -0.001197 0.000467 1148660.000000 1 0 0
-2.401777 -4.821916 2.701945 6.026601 1.108673 1.105893 -0.001085 0.003390 203635.000000 1 0 0
15.025723 5.032084 6.339245 17.066934 0.323158 1.190243 0.003706 -0.008219 626080.000000 1 0 0
6.833923 0.397584 0.073445 6.845872 0.058112 1.560068 0.004012 -0.000716 4501190.000000 1 0 0
-9.649577 9.221784 0.379245 13.352882 -0.762733 1.542391 0.006562 -0.005906 -1588830.000000 1 0 0
7.142423 10.399084 -2.533655 12.867578 0.968963 1.768994 -0.003018 -0.000427 604818.000000 1 0 0
1.624323 -4.284916 -5.414055 7.093019 -1.208454 2.439192 -0.005224 -0.001124 353003.000000 1 0 0
0.875723 -8.073016 -7.760155 11.232119 -1.462744 2.333515 -0.005973 0.004329 1304410.000000 1 0 0
-10.394177 0.287884 -10.456155 14.746287 -0.027690 2.358975 0.007365 -0.004792 -4407730.000000 1 0 0
5.829923 -2.478816 0.593045 6.362722 -0.402030 1.477455 0.001315 -0.000959 236076.000000 1 0 0
-3.367577 5.272284 -1.178555 6.366046 -1.002383 1.757002 -0.000712 -0.002819 1022940.000000 1 0 0
-0.385677 4.583284 -5.091055 6.861055 -1.486845 2.406878 0.004348 -0.001804 -1002250.000000 1 0 0
3.895723 -9.813616 10.014045 14.552141 -1.192904 0.811861 -0.006066 0.003476 -1118440.000000 1 0 0
7.202323 -13.581716 -0.717655 15.389980 -1.083207 1.617445 0.006205 -0.003707 346471.000000 1 0 0
12.979123 0.121984 0.619145 12.994454 0.009398 1.523131 0.007501 -0.002109 647679.000000 1 0 0
9.320923 2.450984 -0.584055 9.655467 0.257134 1.631323 0.005275 0.000578 -884657.000000 1 0 0
-0.837077 -5.835316 4.392145 7.351364 1.428318 0.930467 -0.005920 0.003630 192280.000000 1 0 0
11.408523 -3.795216 3.402645 12.495441 -0.321149 1.295002 0.011681 -0.003877 -1334920.000000 1 0 0
1.551023 -8.247516 11.749545 14.438802 -1.384908 0.620225 -0.007780 0.002047 279534.000000 1 0 0
9.295023 -5.750316 -5.843055 12.393743 -0.554016 2.061733 -0.008240 -0.005225 -1455210.000000 1 0 0
3.240023 6.443884 -0.116155 7.213520 1.104907 1.586899 -0.005297 0.001764 -731896.000000 1 0 0
6.367923 -1.390216 11.396745 13.128935 -0.214943 0.519509 -0.005675 -0.004345 423736.000000 1 0 0
-4.898377 -7.524616 -3.757655 9.733135 0.993732 1.967162 0.015105 -0.006783 -344472.000000 1 0 0
-3.335577 -8.373016 -5.616655 10.619807 1.191694 2.128082 0.010930 -0.002515 -778178.000000 1 0 0
9.746023 5.378884 2.164045 11.340213 0.504305 1.378789 0.003398 -0.001736 49565.100000 1 0 0
8.859323 -1.393816 0.430345 8.978614 -0.156049 1.522848 0.006343 -0.000063 1334330.000000 1 0 0
-3.931777 9.607384 9.192445 13.865848 -1.182345 0.846036 -0.001090 -0.004227 103609.000000 1 0 0
-14.346377 -3.469716 -6.118255 15.977813 0.237296 1.963754 -0.000025 -0.000229 278361.000000 1 0 0
10.613623 6.263584 -5.955355 13.687502 0.533142 2.020939 0.002550 -0.004516 -1677490.000000 1 0 0
-1.767677 4.395684 2.756145 5.481154 -1.188447 1.043915 -0.005057 -0.002925 77502.600000 1 0 0
6.857823 -3.769316 2.670745 8.268637 -0.502565 1.241902 0.004618 -0.004324 -1294340.000000 1 0 0
8.307623 -11.301616 -1.571155 14.114236 -0.936911 1.682345 0.001513 -0.005144 -887847.000000 1 0 0
4.529023 0.497884 1.765345 4.886346 0.109492 1.201155 0.000213 0.000565 329639.000000 1 0 0
-10.862377 2.381284 3.715945 11.724760 -0.215809 1.248304 -0.006642 -0.004358 103425.000000 1 0 0
-0.779777 -3.117116 4.356645 5.413393 1.325667 0.635475 -0.004579 0.001628 255583.000000 1 0 0
8.648423 -8.614616 -8.463255 14.853737 -0.783440 2.177026 0.001510 -0.002646 -614611.000000 1 0 0
11.993323 -4.821016 1.082745 12.971288 -0.382208 1.487227 0.007668 -0.000217 198929.000000 1 0 0
2.882623 4.863684 3.485345 6.641729 1.035774 1.018358 -0.007556 0.001213 -348367.000000 1 0 0
6.050023 7.408684 2.076145 9.787837 0.886008 1.357058 -0.001865 0.000048 372569.000000 1 0 0
-1.586177 -1.237216 -10.349655 10.543340 0.662425 2.949619 0.011110 -0.004046 1414800.000000 1 0 0
-0.952577 -8.653916 6.074245 10.615749 1.461163 0.961620 -0.004108 0.000738 205425.000000 1 0 0
-4.248577 -0.293216 2.256345 4.819489 0.068906 1.083577 -0.001772 -0.001039 426067.000000 1 0 0
-8.509077 6.314184 -7.861155 13.193600 -0.638395 2.209096 -0.005219 -0.000141 -917098.000000 1 0 0
6.414823 11.220484 -9.381255 15.970509 1.051441 2.198653 0.002760 -0.006190 106024.000000 1 0 0
-11.169377 -5.741616 3.172345 12.953182 0.474824 1.323371 0.000256 0.000416 1258450.000000 1 0 0
1.522023 -6.433016 3.087045 7.295896 -1.338473 1.133910 -0.003710 0.001369 254358.000000 1 0 0
10.054023 2.151584 7.330545 12.627334 0.210822 0.951417 0.001915 -0.000806 -1743440.000000 1 0 0
-3.971777 -2.407816 -10.609455 11.581586 0.544989 2.728945 0.008756 -0.005119 -2726430.000000 1 0 0
-8.323977 11.792584 5.948745 15.612213 -0.956145 1.179885 -0.000345 -0.002868 377759.000000 1 0 0
6.848323 6.044984 -2.870455 9.575012 0.723172 1.875265 0.001922 -0.000511 -2903270.000000 1 0 0
3.873723 -9.885016 -2.429955 10.891462 -1.197311 1.795796 -0.006370 -0.004021 -464938.000000 1 0 0
8.436723 -12.808716 -7.286355 16.980355 -0.988350 2.014298 0.004457 -0.005206 540721.000000 1 0 0
-1.105977 9.392684 3.728645 10.166046 -1.453587 1.195257 -0.002711 -0.000746 -143070.000000 1 0 0
0.649423 -13.345516 4.727845 14.173111 -1.522172 1.230699 0.006973 -0.004218 94666.400000 1 0 0
-11.221777 -6.886016 -5.102255 14.120146 0.550381 1.940507 0.004219 -0.004998 265472.000000 1 0 0
3.747423 10.381984 -3.478755 11.572835 1.224396 1.876114 0.001829 -0.005178 -457499.000000 1 0 0
11.550923 -8.047016 -7.401755 15.904850 -0.608478 2.054857 0.009168 -0.004861 234608.000000 1 0 0
11.605723 -4.808116 -5.936755 13.894454 -0.392763 2.012273 0.002866 -0.000963 -932766.000000 1 0 0
1.270623 -10.392716 -2.658555 10.802358 -1.449139 1.819460 -0.004509 0.001374 -1244220.000000 1 0 0
2.364123 -12.073316 -3.864155 12.895183 -1.377429 1.875131 -0.002776 0.000570 -1978530.000000 1 0 0
-7.607977 -5.749316 7.283145 11.999173 0.647136 0.918553 0.001891 0.002459 -1974740.000000 1 0 0
-7.168577 -0.907916 9.409345 11.863751 0.125981 0.654886 -0.000529 -0.000514 354835.000000 1 0 0
16.140123 2.650784 -7.630055 18.048489 0.162782 2.007277 0.007758 -0.001864 -217081.000000 1 0 0
-2.026877 6.363884 -5.487455 8.644039 -1.262457 2.258579 0.002960 -0.000670 -1021400.000000 1 0 0
7.665423 1.184884 8.310945 11.368133 0.153361 0.750902 -0.000732 -0.002420 -1128990.000000 1 0 0
7.952523 8.255484 -3.786555 12.072018 0.804088 1.889845 0.001531 -0.000941 -257680.000000 1 0 0
7.937723 0.642084 3.937945 8.884094 0.080714 1.111566 0.002577 -0.003018 442136.000000 1 0 0
-6.965677 5.844884 5.415445 10.583495 -0.698131 1.033648 -0.002229 -0.008305 210035.000000 1 0 0
-6.082177 -2.089916 -4.576655 7.893441 0.330974 2.189285 0.011760 -0.007178 -1263740.000000 1 0 0
-15.022877 -2.165416 2.992545 15.470333 0.143155 1.376132 0.000605 -0.003734 -683227.000000 1 0 0
1.115223 1.335284 -10.680055 10.820826 0.874960 2.980115 0.008225 -0.006770 556989.000000 1 0 0
1.410523 -9.360516 9.478545 13.395957 -1.421233 0.784746 -0.006904 -0.000613 -1099720.000000 1 0 0
-0.079277 -6.785116 -1.202055 6.891228 1.559113 1.746126 -0.000219 -0.000003 656772.000000 1 0 0
-0.459777 -10.231016 -8.370755 13.227042 1.525887 2.256027 -0.004199 0.002410 -330408.000000 1 0 0
-4.271177 6.506284 3.720045 8.626321 -0.989887 1.124926 -0.003327 -0.001689 -180472.000000 1 0 0
10.762123 -1.093316 -8.580855 13.807596 -0.101242 2.241400 0.001494 -0.000825 944072.000000 1 0 0
2.965623 -1.134016 6.259745 7.018926 -0.365231 0.469404 -0.003535 0.000351 284942.000000 1 0 0
1.800323 -12.359716 6.904545 14.271527 -1.426153 1.065806 0.005263 -0.000936 95291.700000 1 0 0
2.916523 -4.957716 -1.296355 5.896235 -1.039039 1.792469 -0.000830 -0.001179 -1966870.000000 1 0 0
-0.958177 9.519984 -1.591855 9.699598 -1.470485 1.735658 -0.001292 -0.000326 119168.000000 1 0 0
4.542623 -2.547416 2.657545 5.846990 -0.511083 1.098969 0.000561 -0.001445 -2529840.000000 1 0 0
17.640423 6.683884 -2.690355 19.055100 0.362182 1.712458 -0.000900 0.006876 -246319.000000 1 0 0
-7.145977 3.499484 -5.469555 9.655434 -0.455385 2.173017 0.003532 -0.002767 -2510380.000000 1 0 0
-13.828777 -5.965916 2.325045 15.239195 0.407290 1.417628 -0.009614 -0.001916 4911.990000 1 0 0
6.560323 -6.142316 3.090545 9.503544 -0.752503 1.239574 0.001313 -0.004474 685513.000000 1 0 0
-4.625777 1.988084 3.414445 6.083480 -0.405915 0.974883 -0.001484 -0.002938 218819.000000 1 0 0
6.855823 -12.072316 -5.357455 14.881043 -1.054317 1.939084 0.000443 -0.002521 11401.700000 1 0 0
2.889023 -12.299016 3.123845 13.014248 -1.340080 1.328397 0.006293 -0.004855 -674063.000000 1 0 0
3.298923 11.368484 -6.182855 13.354887 1.288372 2.052135 -0.004857 -0.000391 -1570320.000000 1 0 0
-5.584577 -8.463716 6.557645 12.075790 0.987545 0.996742 0.003159 0.003576 -757554.000000 1 0 0
-4.026477 6.484384 6.335345 9.919493 -1.015115 0.878020 -0.001509 -0.003412 6140.360000 1 0 0
4.252323 4.400584 -7.084455 9.361458 0.802531 2.429151 -0.000233 0.000960 -2311980.000000 1 0 0
-0.299677 -2.700616 1.564745 3.135532 1.460282 1.048310 -0.002261 0.000044 -1638890.000000 1 0 0
-13.079177 -0.891316 6.454145 14.612163 0.068043 1.113307 -0.005642 -0.005312 -512079.000000 1 0 0
-0.477777 -9.196416 -5.887455 10.929980 1.518890 2.139633 -0.002591 0.001444 266408.000000 1 0 0
2.066423 -1.578116 -3.955755 4.733767 -0.652208 2.560105 -0.002609 0.001528 -900766.000000 1 0 0
11.383723 -1.922416 1.217045 11.608877 -0.167296 1.465766 0.005845 -0.000394 1194840.000000 1 0 0
0.541623 -4.231616 -1.917455 4.677239 -1.443494 1.993200 0.000129 -0.001908 -2254150.000000 1 0 0
1.150123 -7.326016 -11.321055 13.533646 -1.415076 2.561682 -0.010619 0.005092 -742057.000000 1 0 0
-4.439977 4.165484 -9.917755 11.637290 -0.753511 2.591047 0.003345 -0.004517 449750.000000 1 0 0
-0.960277 5.814584 -1.992555 6.221076 -1.407124 1.896833 -0.000581 -0.001240 -2212230.000000 1 0 0
-11.300877 1.688784 -3.899455 12.073424 -0.148341 1.899671 0.001263 -0.001053 -312425.000000 1 0 0
-1.779177 -11.320116 4.133545 12.181818 1.414902 1.224602 0.009049 -0.001400 2840.730000 1 0 0
-3.434977 -5.625316 -9.764055 11.780493 1.022599 2.547814 0.005036 -0.001437 -1523850.000000 1 0 0
-12.919677 -3.680616 -8.394355 15.840776 0.277532 2.129303 0.007205 -0.000897 -237325.000000 1 0 0
11.319923 4.469784 0.440545 12.178411 0.376067 1.534614 0.005468 0.000690 -263744.000000 1 0 0
-8.945077 -2.368416 -3.035155 9.738376 0.258834 1.887746 0.005335 -0.004104 -510902.000000 1 0 0
-2.418177 -6.049216 -6.396855 9.130189 1.190505 2.347072 0.003001 -0.003623 -763472.000000 1 0 0
-0.005977 2.733984 -1.933555 3.348632 -1.568610 2.186357 -0.001195 -0.002801 263686.000000 1 0 0
8.006523 6.046484 -5.178155 11.290601 0.646817 2.047244 0.000385 -0.001264 -194857.000000 1 0 0
-9.810077 -0.940416 -0.994255 9.905077 0.095570 1.671344 0.000813 -0.001631 -344651.000000 1 0 0
6.146123 0.604884 -8.849155 10.791119 0.098101 2.532278 -0.009377 0.003029 438999.000000 1 0 0
-4.153777 2.505884 7.883945 9.256884 -0.542827 0.551605 -0.009076 0.000889 -841451.000000 1 0 0
-10.116577 -3.348416 1.477445 10.758247 0.319634 1.433030 -0.001726 -0.001502 3087450.000000 1 0 0
-1.902777 -8.219916 -7.780955 11.477406 1.343319 2.315749 0.003072 -0.002757 -476741.000000 1 0 0
-9.418777 -9.742916 4.306045 14.218995 0.802313 1.263128 0.005450 0.000813 -821621.000000 1 0 0
-1.177277 -10.877616 7.207345 13.101692 1.462987 0.988303 -0.005380 0.001218 -301464.000000 1 0 0
9.370923 3.728984 -3.751055 10.760573 0.378722 1.926865 -0.000893 0.001350 -821986.000000 1 0 0
12.911523 -0.867116 3.083745 13.302962 -0.067058 1.336860 0.011778 0.000839 39392.500000 1 0 0
6.514023 11.933384 -6.838155 15.218361 1.071133 2.036818 -0.002190 -0.003281 253770.000000 1 0 0
-11.961977 -0.001516 -6.600655 13.662267 0.000127 2.075023 0.003534 0.000209 305803.000000 1 0 0
-7.568277 -6.685616 -11.316155 15.166794 0.723553 2.413002 0.011945 -0.002913 -634371.000000 1 0 0
4.131923 5.862584 6.619645 9.760244 0.956859 0.825451 -0.006798 0.001949 -3732170.000000 1 0 0
-4.200477 -1.430616 -7.399755 8.628270 0.328262 2.601415 0.012001 -0.008397 351113.000000 1 0 0
9.671023 9.239184 0.931545 13.407422 0.762566 1.501261 0.007175 0.001598 -897981.000000 1 0 0
-8.830077 3.836884 4.824345 10.768763 -0.409910 1.106276 -0.003556 -0.007906 1428320.000000 1 0 0
-7.056377 7.994284 -12.089455 16.120048 -0.847634 2.418804 0.001111 -0.003403 -674271.000000 1 0 0
11.174923 -3.622516 7.199945 13.778270 -0.313476 1.020948 0.011269 -0.004416 -192942.000000 1 0 0
11.774523 6.868084 6.483745 15.094665 0.528050 1.126814 0.004652 -0.001378 -51010.800000 1 0 0
-9.887877 -0.884516 -14.779655 17.804232 0.089217 2.550120 0.010532 -0.000653 491120.000000 1 0 0
1.726023 -13.124316 12.084745 17.923947 -1.440033 0.830884 0.000427 0.003296 -85025.800000 1 0 0
2.886123 3.035784 13.199345 13.848047 0.810665 0.307293 -0.010801 -0.004788 -1099290.000000 1 0 0
-2.574577 -1.449216 10.982145 11.372607 0.512689 0.262800 -0.000032 -0.000694 -550241.000000 1 0 0
2.576123 -10.073116 -8.231055 13.261009 -1.320420 2.240426 -0.012106 0.004674 -1337500.000000 1 0 0
13.910723 3.678484 -7.455855 16.205839 0.258518 2.048873 0.005754 -0.002905 -2198080.000000 1 0 0
7.366023 -1.481516 5.069945 9.064079 -0.198480 0.977201 0.002933 -0.002458 493601.000000 1 0 0
-1.242077 8.737084 10.195245 13.484154 -1.429581 0.713477 -0.007991 -0.000723 327127.000000 1 0 0
-12.340577 -4.602416 0.980645 13.207337 0.356972 1.496478 -0.002245 -0.001653 178683.000000 1 0 0
-4.926077 4.864584 -5.323255 8.733124 -0.779117 2.226286 0.003362 -0.002934 -297199.000000 1 0 0
-11.149077 0.347184 2.020545 11.336007 -0.031130 1.391597 -0.008762 -0.000305 -3006100.000000 1 0 0
-1.392777 2.259084 -4.097055 4.881511 -1.018316 2.566792 0.003369 -0.004086 914456.000000 1 0 0
3.185623 -9.741916 12.979345 16.538335 -1.254755 0.668417 -0.003402 0.004152 -708441.000000 1 0 0
8.880823 4.666084 -1.511055 10.145178 0.483769 1.720296 0.002779 -0.002151 -576181.000000 1 0 0
4.009923 2.323284 3.804045 5.995655 0.525122 0.883478 -0.005237 0.002811 225644.000000 1 0 0
-5.533677 -3.251816 7.387745 9.786453 0.531283 0.715302 -0.003492 0.000373 146926.000000 1 0 0
1.658423 -5.821916 7.757345 9.839790 -1.293288 0.662650 -0.008805 0.000420 -1040010.000000 1 0 0
-5.763677 -6.195716 -9.782855 12.934880 0.821508 2.428459 0.016306 -0.002702 -1328920.000000 1 0 0
-11.725277 -5.714016 5.539245 14.170933 0.453456 1.169200 0.002830 -0.001051 -1072520.000000 1 0 0
10.527723 6.179684 4.521745 13.017973 0.530800 1.216057 0.000757 0.000549 -1848570.000000 1 0 0
1.362923 -3.714516 0.391645 3.976000 -1.219130 1.472134 0.007007 -0.001047 -716725.000000 1 0 0
8.759223 4.357384 7.021445 12.042071 0.461615 0.948286 -0.000171 0.002486 59065.800000 1 0 0
-7.890977 12.127384 3.445045 14.873106 -0.993947 1.337044 0.005473 -0.003477 -401024.000000 1 0 0
-6.057277 13.186484 -7.002055 16.112192 -1.140190 2.020369 0.003156 -0.007167 336340.000000 1 0 0
4.357023 -7.033016 -0.844955 8.316304 -1.016155 1.672574 -0.002210 -0.001713 97618.400000 1 0 0
-1.887177 -8.229516 11.042345 13.900351 1.345376 0.652788 -0.009674 -0.000926 -563908.000000 1 0 0
11.564823 8.834784 -5.758255 15.651071 0.652361 1.947561 0.009921 -0.002204 508845.000000 1 0 0
-3.249077 -2.949716 -2.029355 4.834833 0.737142 2.003951 0.008508 -0.004738 -1059880.000000 1 0 0
-2.015077 5.912684 4.741545 7.842360 -1.242336 0.921524 -0.006360 -0.001339 -218240.000000 1 0 0
0.374623 -11.366316 -5.649255 12.698329 -1.537849 2.031839 -0.004902 0.000209 -1223890.000000 1 0 0
-8.747277 6.309484 -1.568955 10.898902 -0.624884 1.715254 0.003941 -0.003713 -689113.000000 1 0 0
2.875523 0.033484 3.883945 4.832678 0.011644 0.637336 -0.004317 0.001174 -131447.000000 1 0 0
-10.009977 3.986284 -1.080755 10.828580 -0.378980 1.670769 0.006012 -0.003235 -30797.600000 1 0 0
6.443623 5.398384 13.673145 16.050474 0.697361 0.551224 0.002528 -0.001160 -739636.000000 1 0 0
-8.718277 -1.519216 5.686245 10.519019 0.172524 0.999684 -0.002554 -0.002056 -580055.000000 1 0 0
13.029623 -1.702216 -1.227855 13.197584 -0.129906 1.663967 0.010259 0.001003 -946532.000000 1 0 0
5.378923 -5.527816 5.365245 9.395500 -0.799049 0.963019 -0.003784 -0.002687 -17428.300000 1 0 0
-8.998277 -1.189316 3.228745 9.633705 0.131410 1.229031 -0.007001 -0.000122 160380.000000 1 0 0
2.001323 5.468184 5.669945 8.127398 1.219945 0.798707 -0.006957 0.000728 -1298860.000000 1 0 0
9.217423 3.198784 -7.387555 12.238017 0.334032 2.218876 -0.003992 -0.000971 -1485840.000000 1 0 0
2.261423 -2.352116 -1.542755 3.609235 -0.805054 2.012463 -0.001714 -0.000142 -344833.000000 1 0 0
-6.280377 0.322384 -3.990655 7.447980 -0.051287 2.136256 0.004004 -0.002614 -1465500.000000 1 0 0
-3.943777 4.189584 4.948345 7.588947 -0.815611 0.860516 -0.004556 -0.003327 802407.000000 1 0 0
-6.438577 1.870284 -12.410455 14.105766 -0.282701 2.646268 0.000460 -0.002510 -1689670.000000 1 0 0
-0.059277 3.116984 6.306145 7.034669 -1.551781 0.459131 -0.008381 -0.001349 1164930.000000 1 0 0
-8.695277 9.538484 -2.040855 13.067349 -0.831609 1.727618 0.005896 -0.000392 334565.000000 1 0 0
-1.209677 -3.685416 -6.122955 7.248185 1.253643 2.576907 -0.000740 -0.002921 57689.200000 1 0 0
-3.149277 7.116284 -2.949955 8.322360 -1.154159 1.933134 0.002455 0.001140 976341.000000 1 0 0
7.048723 -0.355816 -4.277155 8.252585 -0.050437 2.115636 -0.002543 0.002190 -293556.000000 1 0 0
-5.217877 -10.909516 6.991845 13.968883 1.124670 1.046585 0.001021 0.000714 213971.000000 1 0 0
9.683423 8.385584 -1.453455 12.891828 0.713695 1.683779 0.005422 0.000972 140428.000000 1 0 0
13.764723 4.649484 -4.295455 15.150453 0.325750 1.858259 0.006087 -0.006448 699233.000000 1 0 0
4.826523 1.164284 -6.744555 8.374957 0.236704 2.507018 -0.008543 0.002533 -2066290.000000 1 0 0
8.901523 -4.854516 3.609845 10.762640 -0.499272 1.228761 0.007158 -0.005462 72948.800000 1 0 0
-8.780377 -3.302716 -0.749155 9.410855 0.359776 1.650486 0.000392 -0.002239 -140338.000000 1 0 0
-8.588677 -4.305316 -10.455655 14.199361 0.464670 2.398452 0.009928 -0.002314 712771.000000 1 0 0
10.411923 -1.279516 10.778545 15.040689 -0.122276 0.771844 0.003510 -0.002502 -86435.900000 1 0 0
2.192823 -11.742616 9.882645 15.503683 -1.386182 0.879627 -0.003872 0.000706 325166.000000 1 0 0
-6.333477 -10.648616 1.995945 12.549492 1.034231 1.411072 0.008413 0.002368 -426479.000000 1 0 0
-3.725977 -1.210416 6.727945 7.785452 0.314104 0.527300 -0.003920 0.003088 -671304.000000 1 0 0
4.679223 -7.605616 3.923745 9.753784 -1.019252 1.156791 -0.004702 0.000078 145779.000000 1 0 0
11.311423 -9.488216 -5.326155 15.695300 -0.697966 1.917019 0.006672 -0.005074 225139.000000 1 0 0
11.066123 1.076784 11.673945 16.121400 0.096999 0.761028 -0.002264 0.004394 195866.000000 1 0 0
-10.209977 -3.421316 4.478345 11.662102 0.323336 1.176663 0.002051 -0.001596 1346830.000000 1 0 0
2.160723 8.612384 8.958645 12.613453 1.324984 0.780950 -0.010877 0.002220 -103519.000000 1 0 0
6.616123 8.780384 4.173645 11.759572 0.925051 1.207973 -0.000137 0.000215 2290210.000000 1 0 0
-4.228777 3.565784 0.403645 5.546197 -0.700544 1.497953 -0.000189 -0.003639 -1300360.000000 1 0 0
4.808423 6.875984 4.295445 9.426077 0.960536 1.097640 -0.002299 -0.000165 -1400290.000000 1 0 0
-8.231177 13.131384 1.026045 15.531848 -1.010880 1.504687 0.008071 -0.001964 -662933.000000 1 0 0
8.927423 8.125384 -9.101055 15.117868 0.738400 2.216808 -0.000754 -0.004088 -705560.000000 1 0 0
6.920023 1.846084 6.056145 9.379319 0.260703 0.868868 -0.002237 0.000997 -260993.000000 1 0 0
11.493523 -6.314316 3.145745 13.485821 -0.502367 1.335364 0.010541 -0.002037 -225978.000000 1 0 0
11.388623 4.753784 -2.210855 12.537427 0.395429 1.748064 0.005215 0.000092 730359.000000 1 0 0
-3.929177 14.289884 -6.012055 15.993249 -1.302465 1.956177 -0.003104 0.000848 -1151900.000000 1 0 0
7.114423 -2.987116 6.851745 10.319122 -0.397516 0.844660 0.004098 -0.004712 -466631.000000 1 0 0
-8.018277 -0.488616 0.904345 8.083895 0.060863 1.458692 -0.002720 -0.001570 336335.000000 1 0 0
-3.200377 1.134484 10.806045 11.326962 -0.340664 0.304454 -0.002915 0.000076 -117295.000000 1 0 0
7.122423 -1.280216 -1.780555 7.452398 -0.177845 1.812054 0.001172 -0.000377 -2219900.000000 1 0 0
-7.831577 5.408684 3.006545 9.981321 -0.604406 1.264828 -0.000394 -0.004727 678290.000000 1 0 0
9.471423 -2.207516 2.944245 10.161179 -0.228983 1.276826 0.007107 -0.003276 -1316200.000000 1 0 0
0.250023 3.368284 1.700045 3.781270 1.496704 1.104483 -0.006269 -0.000114 -4044590.000000 1 0 0
-7.590177 -3.080116 4.059345 9.142001 0.385499 1.110702 -0.001182 0.001287 -2828120.000000 1 0 0
-2.225377 8.409684 -6.658155 10.954730 -1.312105 2.224069 -0.000580 -0.000328 -476257.000000 1 0 0
4.564723 9.785284 7.257545 13.010013 1.134315 0.979012 -0.006114 0.004771 -260853.000000 1 0 0
-11.719477 -3.077016 6.906845 13.946996 0.256760 1.052707 -0.002283 -0.002399 -2047190.000000 1 0 0
-4.866777 2.275784 -5.571055 7.739597 -0.437407 2.374328 0.007859 -0.005259 61155.200000 1 0 0
-2.683877 2.866184 -1.813855 4.325307 -0.818234 2.003535 0.000947 -0.003021 -123301.000000 1 0 0
2.253823 5.156284 11.454245 12.761924 1.158720 0.456654 -0.006912 -0.004894 249515.000000 1 0 0
-0.748777 1.632084 4.568845 4.909044 -1.140660 0.374475 -0.005237 0.000063 188795.000000 1 0 0
4.953423 1.497684 7.747345 9.316695 0.293614 0.588895 -0.006088 0.000916 1567210.000000 1 0 0
3.271923 -8.242516 1.859545 9.061041 -1.192916 1.364104 -0.001908 -0.000339 2220630.000000 1 0 0
5.041123 6.460784 -4.653255 9.423769 0.908205 2.087226 0.000217 -0.000114 -2867660.000000 1 0 0
-4.129777 2.890984 -7.935955 9.401714 -0.610749 2.575674 0.009633 -0.008685 394359.000000 1 0 0
-8.527677 -2.160216 -12.908155 15.620764 0.248099 2.543384 0.009755 -0.004036 825772.000000 1 0 0
-7.795277 8.104984 1.249445 11.314514 -0.804874 1.460142 0.002453 -0.004103 -550698.000000 1 0 0
7.383523 0.959384 -6.550855 9.917183 0.129212 2.292355 -0.005412 0.001889 -644031.000000 1 0 0
9.069423 8.812284 5.522245 13.798767 0.771019 1.159063 0.004364 -0.001227 266764.000000 1 0 0
9.455623 -0.999916 -1.292155 9.595744 -0.105357 1.705866 0.004351 -0.000481 424168.000000 1 0 0
5.379123 0.063684 4.265045 6.865102 0.011839 0.900441 -0.000610 0.000498 -1388820.000000 1 0 0
-4.199277 -7.208116 -7.900655 11.489614 1.043287 2.329022 0.012784 -0.006309 -837215.000000 1 0 0
-2.124777 7.425184 -0.551355 7.742869 -1.292086 1.642065 -0.000637 -0.001590 326153.000000 1 0 0
13.375523 -3.336216 -7.338555 15.616957 -0.244439 2.059984 0.004128 -0.003638 1098320.000000 1 0 0
-4.829777 -5.026216 1.464245 7.122753 0.805326 1.363747 0.005175 0.000286 984311.000000 1 0 0
-8.894077 1.350484 2.438845 9.320750 -0.150690 1.306057 -0.005684 -0.002707 -647402.000000 1 0 0
-0.983777 11.263184 10.250045 15.260752 -1.483673 0.834348 -0.008793 0.000742 543048.000000 1 0 0
-8.520577 0.381484 7.439145 11.317537 -0.044742 0.853551 -0.004723 -0.003512 -1755550.000000 1 0 0
-6.029677 12.865284 -2.024255 14.351660 -1.132519 1.712315 -0.000271 0.000898 257166.000000 1 0 0
-12.987977 -0.726016 3.239745 13.405618 0.055841 1.326709 -0.002774 -0.002764 401201.000000 1 0 0
-6.670177 12.699284 8.561145 16.704978 -1.087161 1.032714 0.010766 -0.009213 410678.000000 1 0 0
-7.994677 0.884684 -14.150155 16.276499 -0.110211 2.624704 0.000883 0.000921 -174045.000000 1 0 0
7.254623 2.874284 3.818145 8.687306 0.377226 1.115745 0.001841 0.001802 -800243.000000 1 0 0
-1.623177 0.629184 -2.125955 2.747774 -0.369793 2.455458 0.003122 -0.004871 658076.000000 1 0 0
-6.233377 9.616084 -10.353055 15.443763 -0.995671 2.305505 -0.003251 -0.000249 34458.600000 1 0 0
-9.965377 13.701284 5.286345 17.747658 -0.941961 1.268345 -0.002339 -0.003187 81469.700000 1 0 0
-5.589977 8.220584 2.454745 10.239708 -0.973621 1.328711 -0.001187 -0.002692 -950639.000000 1 0 0
-2.471877 -10.901716 -1.239755 11.246981 1.347824 1.681251 0.009530 -0.002157 76165.600000 1 0 0
-2.318377 -12.372416 8.950145 15.445279 1.385562 0.952713 -0.005231 0.000740 493414.000000 1 0 0
-14.802677 -6.240916 -1.802555 16.165318 0.398993 1.682536 0.001841 -0.001578 136173.000000 1 0 0
-2.759677 -9.361416 3.411145 10.338658 1.284124 1.234555 0.005683 0.001052 -211754.000000 1 0 0
4.608323 -2.656816 7.581245 9.261241 -0.522980 0.611828 -0.004025 0.000633 -310209.000000 1 0 0
-14.828777 -1.139716 -0.390855 14.877646 0.076708 1.597071 -0.003993 -0.006526 -537102.000000 1 0 0
5.546323 8.732484 -2.908955 10.746161 1.004941 1.844913 -0.001344 -0.001015 -1812180.000000 1 0 0
-5.565577 -5.728716 8.517145 11.676284 0.799842 0.753294 0.001361 0.001000 -2562800.000000 1 0 0
3.309223 3.500484 7.128845 8.603765 0.813477 0.594243 -0.004694 -0.000182 231338.000000 1 0 0
3.191523 2.283384 9.540645 10.316180 0.621022 0.390225 -0.003040 -0.003763 433734.000000 1 0 0
9.829623 -3.259616 5.244945 11.608446 -0.320200 1.101990 0.011404 -0.004198 -540573.000000 1 0 0
6.562123 10.013784 -5.084555 13.007306 0.990698 1.972405 -0.000582 -0.003122 -91932.800000 1 0 0
-4.430477 12.036784 -8.591755 15.437990 -1.218108 2.161004 -0.002192 -0.001828 -848311.000000 1 0 0
-3.405077 -7.225216 2.292745 8.309933 1.130390 1.291266 0.005174 -0.002082 997235.000000 1 0 0
-7.528377 -4.206416 1.106945 8.694581 0.509530 1.443135 0.001613 -0.002098 1804610.000000 1 0 0
-1.881777 -3.897216 -10.852555 11.683635 1.120961 2.762141 0.009033 -0.000790 -1157360.000000 1 0 0
-5.097277 8.290684 -4.451755 10.702140 -1.019551 1.999804 0.003798 -0.001429 -1127690.000000 1 0 0
-11.010477 -3.162816 -10.178555 15.324392 0.279724 2.297228 0.011848 -0.001455 362363.000000 1 0 0
4.666523 -11.270816 -7.720555 14.436575 -1.178249 2.135057 -0.005310 -0.000151 -268571.000000 1 0 0
-9.310677 -3.940516 7.311645 12.477040 0.400367 0.944673 -0.001216 0.000821 -872556.000000 1 0 0
-5.740377 -9.461116 -5.196655 12.225787 1.025440 2.009821 0.013292 -0.007923 -265385.000000 1 0 0
5.038323 4.360584 -9.577855 11.667677 0.713414 2.533760 -0.003719 0.004071 450707.000000 1 0 0
-3.408077 -7.208916 -14.183655 16.271433 1.129178 2.629438 -0.001366 0.004240 388648.000000 1 0 0
0.681523 -0.705816 -8.754455 8.809264 -0.802907 3.029984 0.005237 -0.005258 704475.000000 1 0 0
-7.683877 2.242384 -2.906555 8.515769 -0.283944 1.919111 0.004636 -0.002436 -1078800.000000 1 0 0
-2.277377 7.484384 -12.619455 14.847663 -1.275414 2.586646 -0.000057 -0.000846 -41735.300000 1 0 0
-9.735577 8.889184 7.567445 15.200831 -0.739985 1.049700 -0.008143 -0.009288 -163367.000000 1 0 0
-10.581777 -3.241516 -14.141055 17.956917 0.297254 2.477537 0.019256 -0.005240 -419029.000000 1 0 0
-3.289877 4.880684 7.900845 9.852295 -0.977692 0.640279 -0.005263 -0.002275 -241351.000000 1 0 0
8.646323 -2.290716 -3.455355 9.588835 -0.258985 1.939441 -0.001945 0.000342 -5399000.000000 1 0 0
2.012023 -8.476716 -1.107255 8.782310 -1.337750 1.697211 -0.003354 0.000796 -979313.000000 1 0 0
-13.597877 -2.870416 5.033445 14.780972 0.208039 1.223310 -0.001698 -0.004572 170857.000000 1 0 0
7.048923 2.745484 -1.895255 7.798524 0.371413 1.816282 0.000680 -0.000208 778753.000000 1 0 0
-11.004677 4.329684 8.771345 14.723640 -0.374839 0.932619 -0.011799 -0.008467 -2481900.000000 1 0 0
-1.846877 -2.497016 8.109345 8.683750 0.933963 0.365758 -0.005460 0.000870 -940642.000000 1 0 0
3.142823 11.938884 -9.978355 15.873936 1.313393 2.250548 -0.006110 -0.005265 593154.000000 1 0 0
3.693423 -4.906516 -7.088655 9.378929 -0.925532 2.427681 -0.011589 -0.000460 -397529.000000 1 0 0
8.353323 -13.607616 -9.686355 18.675403 -1.020240 2.116090 0.005851 0.001132 320487.000000 1 0 0
-6.220677 -5.913416 -0.516655 8.598387 0.760081 1.630920 0.012877 -0.003256 -185613.000000 1 0 0
-1.208077 -4.151216 9.963245 10.860861 1.287600 0.409417 -0.006673 0.001189 -249294.000000 1 0 0
2.824323 3.294184 1.781845 4.690780 0.862041 1.181150 -0.008953 0.002744 -1065710.000000 1 0 0
-9.089177 13.443684 7.799445 18.004919 -0.976296 1.122774 0.003183 -0.009644 134721.000000 1 0 0
4.069223 -11.154016 -0.113155 11.873645 -1.220979 1.580326 -0.001772 -0.003638 -835806.000000 1 0 0
-12.555177 -1.282116 -9.155055 15.591387 0.101766 2.198375 0.010907 -0.001498 -79514.500000 1 0 0
-4.258777 0.813084 -13.510755 14.189390 -0.188649 2.831067 0.004508 -0.004110 362790.000000 1 0 0
3.896823 -3.231816 5.019045 7.128862 -0.692381 0.789718 -0.002924 0.002352 -193695.000000 1 0 0
1.710423 -1.170816 1.087145 2.340564 -0.600260 1.087749 -0.001821 0.000690 169076.000000 1 0 0
8.067823 -9.029016 7.284645 14.130780 -0.841560 1.029186 0.007350 -0.001917 -1468000.000000 1 0 0
-0.003977 2.283784 -6.345255 6.743734 -1.569055 2.796107 0.005088 -0.003275 -456445.000000 1 0 0
-3.833977 -9.804116 -3.383755 11.057571 1.198022 1.881798 0.012626 -0.003512 1144840.000000 1 0 0
-9.398977 2.319284 -5.451155 11.110128 -0.241926 2.083629 0.001531 0.000490 -895114.000000 1 0 0
8.850623 -7.678816 5.216045 12.825945 -0.714624 1.151980 0.003843 -0.001342 1710340.000000 1 0 0
-5.573177 -4.272216 4.647545 8.420915 0.654020 0.986149 -0.003293 0.002082 50169.900000 1 0 0
-0.192977 -12.521516 10.456645 16.314626 1.555386 0.875078 -0.006875 0.001263 -1209330.000000 1 0 0
-14.211277 -8.262016 3.182345 16.743615 0.526609 1.379570 -0.010033 -0.001201 -1032540.000000 1 0 0
10.920123 -1.354716 -3.508655 11.549675 -0.123426 1.879463 0.005876 0.000848 -23683.900000 1 0 0
-13.592777 3.106484 2.702045 14.202637 -0.224681 1.379380 -0.005207 -0.003810 -1625020.000000 1 0 0
-6.322377 6.089484 0.961345 8.830541 -0.766637 1.461714 -0.000552 -0.002193 978947.000000 1 0 0
7.030823 -6.895216 -0.372255 9.854697 -0.775661 1.608580 -0.003996 -0.003102 -756234.000000 1 0 0
-6.952577 7.862384 10.152445 14.602313 -0.846732 0.802011 0.003311 -0.005032 265540.000000 1 0 0
-12.576077 -4.977616 -1.859955 13.652612 0.376881 1.707456 -0.005932 -0.002147 -2963940.000000 1 0 0
-9.535377 -5.619316 0.194945 11.069695 0.532524 1.553185 0.004004 -0.001360 -1035340.000000 1 0 0
-1.890577 1.814984 2.148745 3.389034 -0.765001 0.884045 -0.003696 -0.001509 140236.000000 1 0 0
-7.095877 7.425384 7.644045 12.803094 -0.808086 0.930982 -0.001973 -0.008288 -235630.000000 1 0 0
5.618023 7.253384 -0.415355 9.184023 0.911775 1.616038 -0.000214 -0.000599 -1366220.000000 1 0 0
-0.143177 -4.014616 7.456545 8.469811 1.535147 0.494160 -0.006528 0.001242 -1177560.000000 1 0 0
6.370623 0.696784 13.016145 14.508286 0.108941 0.457516 -0.005622 -0.005844 481116.000000 1 0 0
5.831523 6.194384 -7.943355 11.639327 0.815562 2.321917 -0.005402 0.000311 -483992.000000 1 0 0
9.968923 5.232384 9.097145 14.474643 0.483345 0.891188 -0.000719 0.000609 -1191680.000000 1 0 0
-1.174877 -5.002416 -8.490555 9.924416 1.340115 2.597354 0.008111 -0.002054 640775.000000 1 0 0
9.857723 -3.555616 -7.864755 13.102346 -0.346169 2.214617 -0.002615 -0.002650 124881.000000 1 0 0
8.423223 -5.506016 1.240645 10.139334 -0.578952 1.448129 0.005591 -0.002978 1299110.000000 1 0 0
15.704523 3.137284 -4.989955 16.774213 0.197174 1.872846 0.015818 -0.002443 -105570.000000 1 0 0
-6.793577 3.611684 1.177145 7.783484 -0.488632 1.418978 0.002114 -0.003752 467300.000000 1 0 0
-1.732577 3.878884 0.333945 4.261348 -1.150716 1.492350 -0.001439 -0.002692 -1323600.000000 1 0 0
-2.513177 9.898384 6.934845 12.344478 -1.322153 0.974264 -0.000883 0.001008 73698.400000 1 0 0
5.448423 -5.736516 -8.734855 11.785187 -0.811150 2.405611 -0.009274 -0.000108 587772.000000 1 0 0
-1.221977 -1.030816 6.239845 6.441388 0.700746 0.250812 -0.004077 0.000532 -271806.000000 1 0 0
-5.682877 4.999684 -7.861455 10.913038 -0.721531 2.375136 0.000999 -0.001327 -107344.000000 1 0 0
6.781123 -1.243616 2.537245 7.346279 -0.181378 1.218155 0.002833 0.000122 -1480800.000000 1 0 0
8.789823 7.534184 3.276645 12.031679 0.708630 1.294978 0.003398 0.001194 -63926.000000 1 0 0
-5.274077 -4.831916 -7.789955 10.575760 0.741674 2.398805 0.013314 -0.008194 1120080.000000 1 0 0
-2.233477 7.929884 -10.113955 13.044676 -1.296255 2.458037 0.003478 -0.000749 380217.000000 1 0 0
-2.785477 -2.208516 1.676245 3.930169 0.670377 1.130169 -0.003960 0.001917 314094.000000 1 0 0
6.117123 -2.047216 -9.270655 11.294040 -0.322953 2.533685 -0.011047 0.001361 977917.000000 1 0 0
1.091623 -7.634216 5.158545 9.278119 -1.428768 0.981242 -0.006341 0.002115 -111494.000000 1 0 0
1.917223 11.676884 1.133245 11.887371 1.408059 1.475319 -0.001149 -0.000569 105529.000000 1 0 0
-1.027877 7.006184 2.537045 7.521950 -1.425126 1.226764 -0.004793 -0.000593 320701.000000 1 0 0
8.729823 7.878184 -6.561055 13.465624 0.734164 2.079728 0.002850 -0.005566 -23563.300000 1 0 0
3.628523 -11.371016 5.459145 13.125108 -1.261907 1.141830 0.002658 -0.003275 -37372.300000 1 0 0
7.814723 -7.186716 12.320245 16.263678 -0.743560 0.711273 0.001776 0.000667 407500.000000 1 0 0
-8.681677 0.057184 -3.902355 9.518570 -0.006587 1.993221 0.004690 -0.003920 -1654950.000000 1 0 0
-3.292977 -5.063416 11.228845 12.750249 0.994177 0.493508 -0.001961 -0.001784 14896.100000 1 0 0
-8.190577 0.214284 -11.647655 14.240763 -0.026156 2.528564 0.006660 -0.001964 -2716130.000000 1 0 0
1.334023 -5.055316 5.393545 7.511735 -1.312793 0.769849 -0.006037 0.001982 -440944.000000 1 0 0
6.748123 3.775784 -7.658755 10.883484 0.510131 2.351394 -0.004042 0.001033 53484.400000 1 0 0
16.305823 4.300984 -1.147355 16.902507 0.257896 1.638729 0.006557 0.005371 -296806.000000 1 0 0
7.946323 7.465084 0.314945 10.907369 0.754182 1.541918 0.002898 -0.000715 -1930900.000000 1 0 0
5.480323 -10.388916 13.838645 18.151353 -1.085379 0.703778 0.002270 0.004465 350542.000000 1 0 0
-5.065177 -9.314416 9.081545 13.960259 1.072726 0.862516 -0.004874 -0.000031 596434.000000 1 0 0
-12.451977 -3.090816 2.867045 13.146286 0.243302 1.350942 -0.001489 -0.002169 -805030.000000 1 0 0
-1.982577 -1.243916 -5.862055 6.312023 0.560340 2.761722 0.009389 -0.007997 -2146190.000000 1 0 0
-2.356777 12.981584 -4.362055 13.896166 -1.391205 1.890098 -0.000680 0.002220 427248.000000 1 0 0
3.984323 -0.388516 -4.944855 6.362182 -0.097204 2.461042 -0.006528 0.002120 -516297.000000 1 0 0
-8.833377 3.824584 -7.422355 12.155137 -0.408602 2.227659 0.001274 -0.001063 73246.100000 1 0 0
-4.552277 8.004984 -11.328355 14.599131 -1.053724 2.459033 0.000714 -0.000476 -1634740.000000 1 0 0
-10.125377 -6.317316 7.518445 14.105274 0.557815 1.008626 0.003584 0.002902 -1674530.000000 1 0 0
8.094223 5.326784 4.213345 10.566141 0.582046 1.160633 0.000299 0.001131 -1892630.000000 1 0 0
-6.686477 -7.607316 4.107745 10.929493 0.849732 1.185493 0.009907 0.001693 -983175.000000 1 0 0
-4.029477 11.799384 7.957045 14.791102 -1.241715 1.002779 -0.000844 -0.003145 73287.600000 1 0 0
-7.161077 9.964184 -7.906155 14.597030 -0.947642 2.143169 0.001000 -0.004153 -1241940.000000 1 0 0
13.025123 5.446184 4.659345 14.866884 0.396037 1.252021 -0.002251 -0.001591 -185039.000000 1 0 0
5.322323 3.999084 -3.633555 7.584360 0.644383 2.070409 -0.000729 0.000910 337711.000000 1 0 0
-2.806177 -4.220116 5.099645 7.189603 0.983981 0.782280 -0.002391 0.003149 -198481.000000 1 0 0
12.351423 -2.335316 -5.357655 13.664399 -0.186867 1.973697 0.003685 -0.001671 -2192540.000000 1 0 0
-5.112277 9.639084 6.968445 12.946294 -1.083149 1.002428 -0.003143 -0.002787 -1491590.000000 1 0 0
1.744223 3.836184 -0.405255 4.233539 1.144060 1.666668 -0.003745 -0.001176 678374.000000 1 0 0
0.023423 9.697384 7.895945 12.505429 1.568381 0.887437 -0.007405 -0.000317 -1324500.000000 1 0 0
-5.528677 2.221184 5.874345 8.367070 -0.382020 0.792483 -0.003736 -0.002886 832886.000000 1 0 0
8.800323 0.827384 10.679145 13.862697 0.093742 0.691405 -0.003456 0.000652 -2861130.000000 1 0 0
0.513323 -2.847116 -10.139955 10.544584 -1.392417 2.863668 0.002485 -0.000212 -1703070.000000 1 0 0
1.297823 10.653784 -2.846155 11.103515 1.449576 1.830019 -0.002694 -0.002418 90648.000000 1 0 0
2.307723 -4.306016 11.606345 12.592641 -1.078820 0.398416 -0.007815 -0.002966 -1283660.000000 1 0 0
6.531023 -3.088216 9.390345 11.847781 -0.441695 0.655764 -0.001305 -0.004123 394497.000000 1 0 0
-10.564877 -8.116216 5.750745 14.510709 0.655064 1.163302 0.001551 0.000585 -692322.000000 1 0 0
-3.045477 0.815884 -6.881655 7.569529 -0.261754 2.711977 0.012938 -0.006713 662040.000000 1 0 0
11.078023 2.576984 -4.991755 12.420992 0.228557 1.984366 0.001865 -0.000705 -3505730.000000 1 0 0
-2.063377 -4.050316 -0.055055 4.545945 1.099628 1.582907 -0.000131 -0.001484 800325.000000 1 0 0
-1.200477 -6.393616 -10.660455 12.488586 1.385195 2.593684 0.002699 0.002562 728566.000000 1 0 0
0.322223 6.751584 -6.667455 9.494349 1.523107 2.349356 0.004551 0.001149 -3626060.000000 1 0 0
1.973223 3.986784 -6.230355 7.655415 1.111204 2.521543 0.000685 0.000770 -2120450.000000 1 0 0
1.676723 -14.794516 6.571045 16.274758 -1.457944 1.155177 0.014675 -0.008400 220937.000000 1 0 0
-1.635377 5.449884 -10.603355 12.033571 -1.279270 2.649081 0.008564 -0.003362 208019.000000 1 0 0
13.631623 4.473584 -0.783655 14.368305 0.317103 1.625364 0.004790 -0.001043 302339.000000 1 0 0
-2.435377 3.295984 -6.115155 7.361365 -0.934442 2.551177 0.008384 -0.005234 -514217.000000 1 0 0
5.695023 7.743484 14.167645 17.120660 0.936666 0.596125 -0.000589 -0.004247 542831.000000 1 0 0
15.750223 0.650184 -5.795455 16.795224 0.041257 1.923105 0.004834 -0.001656 164960.000000 1 0 0
6.057223 -8.343916 10.545545 14.748539 -0.942869 0.774139 -0.004265 0.005826 -187256.000000 1 0 0
0.093123 -5.862416 -6.422355 8.696162 -1.554913 2.401680 -0.002206 -0.001203 -1096700.000000 1 0 0
8.670523 5.565184 -7.560255 12.779151 0.570625 2.203849 -0.001958 -0.000348 -374947.000000 1 0 0
-15.834977 -0.727816 5.201645 16.683325 0.045930 1.253723 -0.004023 -0.004493 -828401.000000 1 0 0
-0.408977 3.941984 -12.375855 12.994933 -1.467417 2.831679 0.011115 -0.005663 572268.000000 1 0 0
-11.302677 3.755684 5.834445 13.262595 -0.320805 1.115290 -0.006147 -0.008240 191727.000000 1 0 0
5.104923 -9.465816 -9.551955 14.384080 -1.076205 2.297038 -0.011469 0.001797 80852.700000 1 0 0
1.584223 11.130284 -11.720055 16.240464 1.429412 2.376990 -0.003526 -0.000603 -4508990.000000 1 0 0
5.790223 2.441684 1.219045 6.401138 0.399064 1.379184 0.000875 0.001505 -478142.000000 1 0 0
5.648823 4.474584 4.855045 8.689221 0.669922 0.977926 -0.003195 0.001150 -667392.000000 1 0 0
0.468823 -1.423516 -6.333855 6.508757 -1.252643 2.909244 0.001133 -0.001742 353172.000000 1 0 0
12.728923 6.856484 -4.612755 15.176111 0.494090 1.879631 0.005170 -0.003652 -22530.900000 1 0 0
7.318823 3.225084 12.699445 15.008072 0.415056 0.562031 -0.003138 -0.004456 -537164.000000 1 0 0
-2.435177 -0.131216 8.636745 8.974445 0.053832 0.275200 -0.007150 -0.000414 844804.000000 1 0 0
2.297123 -15.326316 13.457445 20.524999 -1.422023 0.855738 0.009985 0.004181 115245.000000 1 0 0
18.836823 4.565584 -1.668555 19.453907 0.237790 1.656671 0.000252 0.005017 445577.000000 1 0 0
-0.492577 -13.333016 7.220445 15.170589 1.533869 1.074752 -0.005518 -0.000936 -671373.000000 1 0 0
4.339923 1.633884 -0.584955 4.674043 0.360065 1.696275 -0.000192 -0.000758 539517.000000 1 0 0
2.853023 -0.421416 -7.293955 7.843412 -0.146648 2.765064 -0.006922 0.001630 -61849.300000 1 0 0
7.149423 -11.329216 0.823045 13.421728 -1.007851 1.509436 -0.000654 -0.005642 438458.000000 1 0 0
-11.809777 -7.302316 1.332445 13.948838 0.553787 1.475127 -0.001625 0.001090 253587.000000 1 0 0
0.122423 -7.142216 9.906545 12.213348 -1.553657 0.624724 -0.010044 0.001516 -1967530.000000 1 0 0
-4.757277 -7.188816 10.602745 13.664881 0.986198 0.682637 0.001893 -0.001433 -983406.000000 1 0 0
11.955923 0.849884 -1.616455 12.094599 0.070965 1.704848 0.008345 -0.000905 795508.000000 1 0 0
6.481123 -9.513116 -7.362555 13.664243 -0.972743 2.139831 -0.009993 -0.001381 254152.000000 1 0 0
-10.844477 4.909684 3.463745 12.397791 -0.425127 1.287644 -0.005826 -0.007937 242699.000000 1 0 0
5.956823 -9.166516 2.045145 11.121662 -0.994529 1.385855 -0.001539 -0.004117 4779610.000000 1 0 0
11.577623 -1.398116 5.834945 13.040041 -0.120178 1.106869 0.008955 -0.005488 -22667.100000 1 0 0
-6.398977 3.700784 4.062545 8.434867 -0.524341 1.068275 -0.003103 -0.003970 -1378960.000000 1 0 0
9.472123 6.295684 -3.139255 11.798799 0.586608 1.840106 0.007113 -0.001909 466319.000000 1 0 0
-2.348577 6.469784 10.804745 12.810794 -1.222581 0.567198 -0.013228 -0.001399 167374.000000 1 0 0
1.909723 9.782784 3.084045 10.433659 1.378008 1.270727 -0.005593 -0.001684 -179846.000000 1 0 0
2.867623 6.192884 -5.615355 8.837832 1.137142 2.259293 -0.002879 0.001663 -2082790.000000 1 0 0
11.893623 0.073284 -5.620255 13.154881 0.006162 2.012231 0.004553 -0.001654 576948.000000 1 0 0
-2.710977 -12.568116 6.241945 14.292264 1.358349 1.118829 -0.001275 0.000229 -263590.000000 1 0 0
10.796523 1.844684 -2.721455 11.286012 0.169225 1.814332 0.005050 0.000075 589918.000000 1 0 0
-8.841677 5.209884 0.848145 10.297451 -0.532471 1.488338 0.000288 -0.004916 -892151.000000 1 0 0
1.188723 -10.292916 5.524445 11.742090 -1.455816 1.080959 -0.002665 -0.002011 291000.000000 1 0 0
9.222823 -5.770216 -1.358755 10.963670 -0.559063 1.695048 0.003647 -0.003341 48751.100000 1 0 0
-7.786077 8.587584 -4.424755 12.407580 -0.834310 1.935441 0.000378 -0.002709 20705.800000 1 0 0
-7.454777 -0.086316 -1.652555 7.636236 0.011578 1.788932 0.001031 -0.002137 -1646890.000000 1 0 0
4.140823 8.784684 2.804645 10.108566 1.130315 1.289655 -0.000622 -0.000783 1117350.000000 1 0 0
-1.297877 -10.547216 -3.707655 11.254997 1.448358 1.906489 0.005719 -0.000340 179755.000000 1 0 0
3.133623 7.883484 -3.682655 9.248289 1.192454 1.980348 0.000017 -0.001947 411389.000000 1 0 0
-4.301977 1.687184 -11.050555 11.977828 -0.373754 2.745522 0.005474 -0.005888 -495266.000000 1 0 0
1.219923 2.633984 11.085945 11.459680 1.137063 0.256093 -0.006929 -0.004298 630232.000000 1 0 0
2.205223 5.709684 -8.114955 10.164447 1.202221 2.495374 0.001641 -0.000311 -327734.000000 1 0 0
15.536623 5.966684 4.071145 17.133656 0.366672 1.330891 0.002670 -0.003449 803299.000000 1 0 0
-4.398777 9.028984 4.601145 11.047277 -1.117454 1.141209 -0.001022 -0.000855 624496.000000 1 0 0
-0.967977 -8.163316 -12.433755 14.905535 1.452771 2.557423 -0.005629 0.003797 301650.000000 1 0 0
14.146523 -4.222116 -5.204155 15.653549 -0.290040 1.909705 0.008104 0.001239 1184390.000000 1 0 0
-6.065477 -6.133216 -5.664655 10.319626 0.790951 2.151869 0.015167 -0.007199 407637.000000 1 0 0
-8.874177 2.645384 -12.446955 15.513728 -0.289712 2.501966 0.001567 -0.000732 135727.000000 1 0 0
10.422923 5.326484 13.799745 18.095350 0.472437 0.703454 0.006521 -0.004677 652559.000000 1 0 0
-0.373977 10.855184 5.648545 12.242587 -1.536358 1.091241 -0.000887 0.002230 382242.000000 1 0 0
0.597523 11.131584 -0.659955 11.167127 1.517170 1.629929 -0.003489 -0.000944 -260253.000000 1 0 0
-1.530577 -0.610516 3.716045 4.065020 0.379540 0.417386 -0.004259 0.001426 -39278.300000 1 0 0
-4.828377 6.730484 8.911545 12.166687 -0.948495 0.748876 -0.002003 -0.005616 -1280760.000000 1 0 0
3.468923 -8.612316 -11.369655 14.679049 -1.187890 2.456799 -0.011776 0.006262 440824.000000 1 0 0
6.713523 -3.872216 11.958545 14.250342 -0.523170 0.575030 0.001101 -0.001996 -376258.000000 1 0 0
-2.324777 -1.882616 -12.514655 12.867223 0.680691 2.906959 0.007978 -0.005540 964729.000000 1 0 0
-15.933477 -4.824116 5.339645 17.483124 0.293993 1.260420 -0.000759 -0.006618 778515.000000 1 0 0
-8.887577 7.286684 5.751045 12.851432 -0.686742 1.106826 -0.010045 -0.006742 -2371550.000000 1 0 0
-12.792877 1.562384 5.907145 14.177204 -0.121527 1.141023 -0.006159 -0.008353 314577.000000 1 0 0
-3.515577 3.631284 10.123545 11.315108 -0.801587 0.463053 -0.005888 -0.000517 558981.000000 1 0 0
2.048323 -12.328216 -1.108755 12.546309 -1.406151 1.659285 0.004738 -0.001409 -2962430.000000 1 0 0
10.271123 -4.925116 -3.647855 11.960752 -0.447122 1.880719 0.000814 -0.000689 560867.000000 1 0 0
3.121323 -13.567716 0.899645 13.951163 -1.344676 1.506266 0.006871 -0.004654 521694.000000 1 0 0
9.964023 -1.703516 -6.031155 11.771089 -0.169330 2.108739 0.000694 -0.001024 -49359.600000 1 0 0
11.842823 -5.394116 -1.444455 13.093334 -0.427398 1.681341 0.007855 -0.000642 589655.000000 1 0 0
1.465423 0.926184 5.903445 6.152718 0.563635 0.285625 -0.004913 -0.000522 238558.000000 1 0 0
-10.729977 11.661384 6.694345 17.202748 -0.826971 1.171094 -0.006974 -0.008971 -1069760.000000 1 0 0
4.792023 -14.071416 2.884245 15.142229 -1.242565 1.379148 0.008637 -0.008860 -4007470.000000 1 0 0
5.210623 -3.359616 -1.657555 6.417562 -0.572685 1.832042 -0.001357 -0.001659 -1604350.000000 1 0 0
2.027823 -2.841716 -7.642855 8.402419 -0.951007 2.713121 -0.005263 0.001466 -557200.000000 1 0 0
-2.783777 14.789984 -8.849655 17.458792 -1.384752 2.102367 0.000767 -0.003782 -1955900.000000 1 0 0
-2.177577 6.101984 -8.078155 10.355319 -1.228020 2.465617 0.007894 -0.002996 -904946.000000 1 0 0
2.570623 -3.595516 -11.478555 12.300125 -0.950106 2.774031 -0.007305 0.001903 -2745090.000000 1 0 0
14.678323 2.798984 -2.626155 15.171821 0.188426 1.744767 0.010672 0.001638 744175.000000 1 0 0
-3.494777 13.087884 2.404045 13.758110 -1.309860 1.395158 -0.003693 0.001582 -262531.000000 1 0 0
7.820023 -5.098816 13.996345 16.824041 -0.577794 0.588228 0.000970 -0.002650 -890576.000000 1 0 0
-11.355277 7.310284 2.846845 13.801706 -0.571989 1.363037 -0.000845 -0.006683 916532.000000 1 0 0
-2.225077 11.869784 4.127745 12.762485 -1.385490 1.241446 -0.001897 0.000681 562663.000000 1 0 0
1.801123 1.414284 0.839745 2.439142 0.665666 1.219326 -0.007848 0.000732 -1823050.000000 1 0 0
-6.847877 8.624184 5.325945 12.232566 -0.899705 1.120324 -0.005211 -0.004278 -522925.000000 1 0 0
-1.112377 9.190584 1.123445 9.325575 -1.450348 1.450034 -0.003909 0.000088 386868.000000 1 0 0
4.947823 13.022484 -8.589055 16.365754 1.207698 2.123299 -0.007523 -0.008929 -2694260.000000 1 0 0
8.887023 6.944284 7.337845 13.455342 0.663294 0.993992 -0.005707 -0.000554 -1259380.000000 1 0 0
7.217923 -13.829916 2.817345 15.852521 -1.089778 1.392125 0.009850 -0.008398 -260549.000000 1 0 0
4.189123 -13.406616 -1.399455 14.115402 -1.267942 1.670103 0.000682 0.000269 -2989630.000000 1 0 0
12.043123 -11.840716 -4.657055 17.519347 -0.776924 1.839854 0.004083 -0.001367 -1318810.000000 1 0 0
2.834423 0.086784 -1.936955 3.434134 0.030608 2.170055 -0.001884 -0.001425 409160.000000 1 0 0
-13.618277 -3.117216 -10.746655 17.625695 0.225023 2.226498 0.010655 -0.004740 21919.400000 1 0 0
-6.671977 13.646584 4.988945 15.988562 -1.116058 1.253465 0.004310 -0.004319 228283.000000 1 0 0
7.282823 -4.288916 -0.589155 8.472391 -0.532224 1.640391 -0.002381 0.000690 -870594.000000 1 0 0
11.690723 2.140584 -7.182255 13.886680 0.181095 2.114378 0.002340 -0.000919 -955662.000000 1 0 0
-7.458977 -4.552116 9.726045 13.074940 0.547949 0.731955 0.004359 -0.000635 335439.000000 1 0 0
0.926123 2.874284 8.568845 9.085390 1.259090 0.338826 -0.006306 -0.002023 -3070550.000000 1 0 0
1.595623 8.123784 -8.744755 12.042118 1.376851 2.383547 0.000182 -0.000555 422779.000000 1 0 0
-8.608877 -2.010016 -5.660555 10.497372 0.229373 2.140325 0.011263 -0.005553 935635.000000 1 0 0
6.537423 -0.502016 7.144545 9.697136 -0.076641 0.742518 -0.000276 -0.000835 550667.000000 1 0 0
-10.847277 6.473384 7.148745 14.514568 -0.538045 1.055811 -0.007138 -0.010075 94584.400000 1 0 0
-5.987677 11.088484 4.888945 13.516972 -1.075670 1.200717 -0.004986 -0.000873 19980.100000 1 0 0
6.079623 -1.200516 -6.857455 9.242713 -0.194957 2.406742 -0.008396 0.002753 -794750.000000 1 0 0
4.453723 -5.773516 11.309745 13.456577 -0.913736 0.572661 -0.005120 0.001710 -1653600.000000 1 0 0
-8.968077 -7.296416 2.831845 11.903086 0.682978 1.330584 0.008361 -0.001489 -2751810.000000 1 0 0
-1.189777 12.741184 -9.364955 15.857355 -1.477686 2.202567 0.003101 -0.000690 644682.000000 1 0 0
-4.583677 9.236584 -2.271955 10.558710 -1.110151 1.787666 0.000400 -0.002412 449538.000000 1 0 0
-3.228977 9.591484 -0.168255 10.121816 -1.246063 1.587420 0.000195 -0.001099 -1945760.000000 1 0 0
-3.411677 10.697784 -6.453455 12.951031 -1.262078 2.092429 0.002506 0.000721 1059180.000000 1 0 0
4.888623 -4.893016 0.405745 6.928555 -0.785847 1.512202 -0.002028 -0.001487 -1482640.000000 1 0 0
-2.251077 2.970984 -10.847355 11.469926 -0.922393 2.810604 0.011277 -0.005973 -238582.000000 1 0 0
-3.476777 12.126584 -2.087255 12.786659 -1.291579 1.734767 -0.003693 0.002011 -135980.000000 1 0 0
-0.152777 0.415484 0.013545 0.442890 -1.218432 1.540208 -0.005578 -0.000172 -1455700.000000 1 0 0
-4.754477 -1.734316 0.056845 5.061239 0.349777 1.559565 0.002553 -0.001308 60106.400000 1 0 0
2.617123 2.625884 -2.434355 4.435164 0.787069 2.151815 -0.007303 -0.000500 327509.000000 1 0 0
5.940323 -9.812016 8.371445 14.200147 -1.026406 0.940317 -0.001670 0.001719 -66269.500000 1 0 0
-4.224977 -5.432016 6.554145 9.503370 0.909744 0.809770 -0.000949 0.000764 28452.800000 1 0 0
-6.188977 5.464284 -11.996355 14.562774 -0.723290 2.538823 -0.003944 -0.004282 873369.000000 1 0 0
-13.042077 3.148884 7.919345 15.579707 -0.236906 1.037573 -0.009257 -0.007506 731480.000000 1 0 0
4.742523 -7.506216 -4.847755 10.116103 -1.007313 2.070553 -0.012401 -0.001469 206336.000000 1 0 0
-5.868577 2.505084 -1.082055 6.471977 -0.403448 1.738776 0.001556 -0.003571 -757820.000000 1 0 0
-6.817677 -2.802316 -14.615955 16.369479 0.389985 2.674494 0.007933 -0.000764 828318.000000 1 0 0
2.650723 -6.065516 0.945845 6.686661 -1.158793 1.428868 -0.001297 -0.000480 -254799.000000 1 0 0
4.778023 -7.884616 12.904445 15.859425 -1.025982 0.620347 -0.003265 0.002428 -433821.000000 1 0 0
-9.944377 -1.583216 8.059145 12.897559 0.157882 0.895846 0.002084 -0.002847 -784073.000000 1 0 0
-4.420277 13.363984 0.001045 14.076040 -1.251363 1.570722 -0.002707 0.001284 722698.000000 1 0 0
6.761123 2.227484 -4.488555 8.415556 0.318256 2.133369 -0.002765 0.002451 -1597190.000000 1 0 0
5.099823 4.598784 0.025745 6.867144 0.733783 1.567047 -0.002099 0.001105 -464946.000000 1 0 0
-5.933277 12.337784 1.866245 13.816930 -1.122543 1.435313 -0.000100 -0.000210 -711001.000000 1 0 0
6.448723 -7.319116 6.581045 11.767142 -0.848533 0.977288 -0.000485 -0.000965 -804145.000000 1 0 0
-0.329277 4.988484 7.732945 9.208248 -1.504884 0.573910 -0.010525 -0.001337 -1274600.000000 1 0 0
-5.750377 -3.478516 -1.580955 6.904081 0.544029 1.801835 0.009385 -0.004377 22976.100000 1 0 0
2.401823 -6.471816 -5.282555 8.692442 -1.215431 2.223980 -0.008783 0.000710 -758866.000000 1 0 0
-14.356677 -4.621716 -3.755455 15.542776 0.311445 1.814832 -0.001021 -0.003619 -327247.000000 1 0 0
-12.363277 -5.066716 -6.360855 14.798065 0.388943 2.015116 0.009494 -0.005260 -835778.000000 1 0 0
-14.745077 -3.604516 -1.289555 15.233936 0.239754 1.655548 -0.003646 -0.006342 218525.000000 1 0 0
11.935523 2.855884 8.748245 15.071316 0.234860 0.951507 0.006977 -0.004007 -1549070.000000 1 0 0
8.599923 -6.515916 7.647545 13.225006 -0.648393 0.954197 0.006980 -0.003062 -156212.000000 1 0 0
-8.778077 -1.736616 -9.818655 13.284445 0.195314 2.402543 0.011605 -0.003969 -117698.000000 1 0 0
-8.774477 5.150684 -3.915655 10.901988 -0.530811 1.938174 0.003241 -0.002625 -1825330.000000 1 0 0
-4.197077 -6.199416 4.026645 8.500711 0.975666 1.077328 0.001419 0.002329 -1161520.000000 1 0 0
-0.235477 -9.216716 3.558345 9.882567 1.545253 1.202461 0.001137 -0.001160 71972.900000 1 0 0
7.925123 -10.526016 3.310545 13.585444 -0.925437 1.324635 0.001634 -0.003502 266176.000000 1 0 0
-0.062677 6.530284 9.634345 11.639121 -1.561199 0.595701 -0.010647 -0.003298 -295153.000000 1 0 0
0.066123 3.506684 -9.795355 10.404335 1.551942 2.797757 0.010817 -0.003321 -1076560.000000 1 0 0
4.445723 -3.128516 10.996345 12.266689 -0.613214 0.459127 -0.004294 -0.003988 -1129750.000000 1 0 0
8.603123 -9.212616 1.315245 12.673432 -0.819596 1.466829 -0.000283 -0.003353 -582866.000000 1 0 0
-0.342177 -0.577416 11.402745 11.422482 1.035835 0.058794 -0.000754 -0.003186 -2122960.000000 1 0 0
10.757423 6.027584 11.442045 16.821840 0.510731 0.822775 0.005494 -0.000533 -726121.000000 1 0 0
-6.221077 -2.932716 -11.934455 13.774391 0.440520 2.618790 0.010561 -0.002850 481220.000000 1 0 0
-1.648677 2.837984 8.464045 9.078125 -1.044515 0.369920 -0.005415 -0.001153 482705.000000 1 0 0
-1.590177 13.545584 -6.888455 15.279474 -1.453937 2.038492 0.002184 -0.001329 629333.000000 1 0 0
7.630123 3.062584 9.831245 12.816067 0.381696 0.696483 -0.002974 0.000174 624434.000000 1 0 0
6.528223 8.536784 -7.946555 13.365706 0.917943 2.207500 0.003818 -0.005100 -232273.000000 1 0 0
6.619823 -2.887316 -3.903755 8.209625 -0.411287 2.066339 -0.002948 -0.001635 -2451060.000000 1 0 0
1.994923 8.134384 1.036945 8.439382 1.330297 1.447615 -0.004370 0.000554 774767.000000 1 0 0
-17.564277 6.287284 6.334945 19.701911 -0.343747 1.243441 0.014444 -0.012997 1063880.000000 1 0 0
-14.649477 3.177584 -10.356855 18.220007 -0.213599 2.175396 0.014107 0.003501 -1246760.000000 1 0 0
-18.260577 0.047784 -4.372155 18.776760 -0.002617 1.805803 0.013087 -0.003535 706735.000000 1 0 0
-13.006777 7.796484 0.248545 15.166515 -0.539991 1.554408 0.006175 -0.005208 35812.600000 1 0 0
-12.909077 -4.523816 -12.899155 18.801526 0.337064 2.326869 0.022821 0.009441 -449805.000000 1 0 0
-17.346177 -0.660616 -8.684755 19.410081 0.038066 2.034692 -0.004902 -0.005182 -1343150.000000 1 0 0
-16.658877 -2.030416 -2.034155 16.904987 0.121284 1.691417 0.008285 -0.007087 -78573.900000 1 0 0
-15.315777 4.173384 1.648245 15.959539 -0.266030 1.467335 0.001668 0.001270 -572541.000000 1 0 0
-13.056677 5.949184 4.461345 15.025752 -0.427537 1.269338 -0.004523 -0.008918 -358109.000000 1 0 0
-10.012177 14.235484 2.697045 17.611551 -0.957842 1.417051 0.023606 -0.003469 291111.000000 1 0 0
-11.796377 2.479084 -6.442255 13.667590 -0.207142 2.061620 -0.000198 0.003098 -257024.000000 1 0 0
-15.889077 10.624684 3.895045 19.506872 -0.589394 1.369770 0.008042 -0.012390 -825191.000000 1 0 0
-12.792877 1.234784 -8.641755 15.487490 -0.096223 2.162750 0.007698 -0.001092 734127.000000 1 0 0
-12.252877 14.344384 4.203645 19.327829 -0.863873 1.351552 0.009823 -0.002978 345860.000000 1 0 0
-10.493777 11.218184 -1.111555 15.401382 -0.818750 1.643032 0.016301 -0.003124 733373.000000 1 0 0
-17.009977 5.894984 8.849745 20.060113 -0.333607 1.113904 0.004389 -0.006547 199672.000000 1 0 0
-11.782477 12.677984 -9.207855 19.604659 -0.821992 2.059721 0.019959 -0.008954 339341.000000 1 0 0
-17.081977 -0.417816 3.005645 17.349421 0.024455 1.396676 0.006065 -0.004990 444473.000000 1 0 0
-13.245477 14.919484 -0.466355 19.956231 -0.844764 1.594167 0.040242 -0.004381 201497.000000 1 0 0
-16.713077 4.720584 -10.310155 20.196786 -0.275278 2.106545 0.030504 -0.002065 -198785.000000 1 0 0
-11.785677 7.655884 -8.982255 16.679198 -0.576088 2.139488 0.001027 0.003182 -75448.600000 1 0 0
-14.775677 13.487484 -1.950555 20.100685 -0.739851 1.667989 0.035947 -0.012200 769527.000000 1 0 0
-11.802377 10.635784 -5.436755 16.792091 -0.733453 1.900506 0.022105 -0.010325 850249.000000 1 0 0
-17.684777 2.830384 -0.954555 17.935261 -0.158700 1.624044 0.010128 0.003335 38082.700000 1 0 0
-9.275977 15.516284 0.754545 18.093318 -1.031980 1.529081 0.019953 -0.001679 -139483.000000 1 0 0
-8.096877 13.164984 -3.566155 15.861705 -1.019398 1.797563 0.004955 -0.003630 -1105590.000000 1 0 0
-17.693977 11.671284 2.223145 21.312862 -0.583108 1.466296 0.032739 0.005254 -134539.000000 1 0 0
-8.015077 15.572884 -7.211755 18.941108 -1.095473 1.961399 0.024939 -0.015370 24116.600000 1 0 0
-6.189677 15.197984 -5.333155 17.254952 -1.184039 1.885022 0.001183 -0.005146 -229676.000000 1 0 0
-17.413077 5.336584 -0.159155 18.213174 -0.297382 1.579535 0.016477 0.003849 765047.000000 1 0 0
-5.326877 12.409884 -12.252555 18.234745 -1.165336 2.307614 -0.007952 0.001618 -585578.000000 1 0 0
-11.076277 3.691584 -11.457555 16.358095 -0.321709 2.346784 0.001346 -0.002969 -36086.300000 1 0 0
-11.679377 11.133784 1.239945 16.183524 -0.761487 1.494103 0.010513 -0.003071 465279.000000 1 0 0
-12.855377 0.206184 -11.089555 16.978854 -0.016037 2.282519 0.014186 -0.006208 499447.000000 1 0 0
-13.892077 -2.084116 -13.205655 19.280111 0.148911 2.325313 0.007378 0.000694 13144.600000 1 0 0
-18.771577 -2.413016 -3.629955 19.270997 0.127845 1.760292 0.012891 -0.002713 696463.000000 1 0 0
-18.194677 4.788984 -5.327355 19.554063 -0.257371 1.846727 0.014568 0.002234 483405.000000 1 0 0
-8.264977 15.547384 -2.162255 17.739964 -1.082190 1.692986 0.016620 -0.000957 -541444.000000 1 0 0
-16.080077 9.282284 -5.271855 19.300833 -0.523526 1.847453 0.022078 0.002380 -91782.800000 1 0 0
-18.153577 1.703284 2.125845 18.356818 -0.093552 1.454729 0.015571 -0.004986 38825.000000 1 0 0
-15.702677 -2.686616 -8.675555 18.139935 0.169452 2.069466 -0.000570 -0.004079 -669221.000000 1 0 0
-9.580977 10.534284 -7.059455 15.893463 -0.832755 2.031048 0.008195 -0.010868 -88173.400000 1 0 0
-13.748377 11.879284 -7.492055 19.653655 -0.712594 1.961895 0.022614 -0.023398 486513.000000 1 0 0
-10.965277 6.554784 -3.752255 13.314726 -0.538783 1.856479 0.002241 -0.001295 -1401350.000000 1 0 0
-13.065577 4.824584 -12.721455 18.863227 -0.353728 2.310955 0.012012 -0.002649 956012.000000 1 0 0
-17.649577 9.088584 2.648845 20.028138 -0.475533 1.438152 0.021802 -0.010083 1070580.000000 1 0 0
-13.371277 8.786484 -6.518755 17.276791 -0.581362 1.957689 0.011980 -0.000852 112063.000000 1 0 0
-15.748777 7.082084 -3.812555 17.683763 -0.422597 1.788099 0.013891 0.004440 -390964.000000 1 0 0
-14.915777 -0.221216 -9.351555 17.606275 0.014830 2.130752 0.006190 -0.004701 992086.000000 1 0 0
-10.166477 5.740684 -6.063855 13.156103 -0.514035 2.049823 -0.003257 -0.000948 415732.000000 1 0 0
-12.796377 12.339484 -0.695655 17.790280 -0.767223 1.609909 0.028111 -0.007227 -661926.000000 1 0 0
-10.554677 3.495584 -14.112555 17.966205 -0.319819 2.474309 0.003046 0.005345 417124.000000 1 0 0
-10.882177 6.168284 -12.006955 17.338872 -0.515668 2.335728 -0.003997 0.002373 -797177.000000 1 0 0
-5.734077 11.606584 -14.760655 19.633374 -1.111931 2.421606 -0.000913 -0.003717 -198981.000000 1 0 0
-15.497077 13.282584 3.752145 20.752470 -0.708603 1.388992 0.001934 -0.010060 375337.000000 1 0 0
-15.016477 11.055384 -2.795555 18.855536 -0.634621 1.719607 0.030707 -0.003642 634347.000000 1 0 0
-18.164277 7.831384 -4.508955 20.287982 -0.407061 1.794915 0.022733 0.003737 154397.000000 1 0 0
-4.040277 16.180084 -10.587355 19.753760 -1.326094 2.136449 -0.000106 -0.003969 212537.000000 1 0 0
-15.686777 4.483484 -4.448855 16.910616 -0.278391 1.837010 0.010533 0.005037 927186.000000 1 0 0
-19.004677 -1.704516 -6.210355 20.066182 0.089450 1.885457 0.026036 -0.003781 797940.000000 1 0 0
-10.785477 8.663684 -5.661355 14.947805 -0.676734 1.959233 0.007436 -0.001305 373877.000000 1 0 0
-11.199077 13.513684 -6.745055 18.802520 -0.878786 1.937705 0.019215 -0.015012 211429.000000 1 0 0
-9.367177 10.566484 -4.377255 14.783604 -0.845491 1.871391 0.005317 -0.004830 -675022.000000 1 0 0
-10.971877 6.303784 -0.221855 12.655789 -0.521489 1.588327 0.004259 -0.002254 -678778.000000 1 0 0
-14.741377 9.065284 -1.367855 17.359683 -0.551343 1.649673 0.021303 -0.000729 -461915.000000 1 0 0
-18.353077 3.644684 4.845845 19.328771 -0.196037 1.317387 0.001428 -0.001735 -11768.800000 1 0 0
-14.951977 13.137084 0.534045 19.910545 -0.720876 1.543971 0.019307 -0.001673 208980.000000 1 0 0
-16.786777 2.647884 -8.958455 19.210963 -0.156447 2.055922 0.006107 0.000340 66712.600000 1 0 0
-9.065777 8.523184 -8.818455 15.251168 -0.754559 2.187336 0.001499 0.001864 -2466290.000000 1 0 0
-17.592477 4.748984 -2.736855 18.426570 -0.263660 1.719876 0.005330 0.003021 801189.000000 1 0 0
-13.460877 5.921884 -4.491755 15.376599 -0.414451 1.867235 0.007585 0.005192 -1037660.000000 1 0 0
-12.093077 9.633784 3.314445 15.812585 -0.672687 1.359622 -0.002831 -0.006079 -180519.000000 1 0 0
-17.544877 2.566484 -4.030055 18.183809 -0.145251 1.794281 0.010537 0.003596 1011670.000000 1 0 0
-11.268077 1.478484 -12.713555 17.052565 -0.130465 2.412157 0.015820 -0.002549 106067.000000 1 0 0
-11.055877 12.020484 3.542845 16.711559 -0.827174 1.357176 0.003788 -0.003682 184759.000000 1 0 0
-16.693277 12.976684 -3.674155 21.460644 -0.660783 1.742848 0.046810 -0.009581 102935.000000 1 0 0
-11.078577 4.113584 -4.430255 12.620761 -0.355531 1.929466 -0.004321 0.001916 -434925.000000 1 0 0
-10.904877 15.122284 -8.764055 20.601177 -0.946041 2.010217 0.018288 -0.007758 231921.000000 1 0 0
-15.481777 7.101484 0.076245 17.032977 -0.430065 1.566320 0.013382 0.002173 -968925.000000 1 0 0
-12.757277 8.409284 -4.010055 15.796985 -0.582798 1.827454 0.010461 -0.002967 759484.000000 1 0 0
-19.361177 1.861484 -5.793155 20.294851 -0.095851 1.860272 0.028453 -0.004139 139591.000000 1 0 0
-12.402177 10.134984 -8.849555 18.298812 -0.685137 2.075575 0.009949 -0.008823 575804.000000 1 0 0
-16.602677 10.912184 -0.828255 19.884935 -0.581458 1.612461 0.016072 -0.001204 -20696.200000 1 0 0
-10.504177 6.453384 -14.630155 19.131789 -0.550914 2.441378 0.001780 -0.003930 -90743.900000 1 0 0
-14.221977 12.907884 -4.385455 19.700516 -0.736999 1.795283 0.048506 -0.010277 -102445.000000 1 0 0
-18.108277 7.808784 -0.040955 19.720256 -0.407133 1.572873 0.029893 0.003162 825276.000000 1 0 0
-12.752977 6.683784 -2.107555 14.551742 -0.482738 1.716139 0.005636 0.000671 495912.000000 1 0 0
-13.647977 8.628084 -10.609755 19.320404 -0.563751 2.152140 0.005039 0.000002 -710514.000000 1 0 0
-14.931277 1.521884 -0.971155 15.040024 -0.101575 1.635413 0.001306 -0.001909 -979959.000000 1 0 0
-13.365477 2.880484 -2.487655 13.896820 -0.212270 1.750775 0.004540 0.001283 1051740.000000 1 0 0
-11.127777 9.211484 -10.906055 18.100301 -0.691459 2.217469 0.003805 -0.005003 -254425.000000 1 0 0
-15.276577 4.528384 -8.152855 17.898299 -0.288175 2.043741 0.005440 0.002502 322897.000000 1 0 0
-18.337077 10.618284 4.568745 21.676480 -0.524881 1.358434 0.031363 -0.015710 69028.700000 1 0 0
-15.291277 6.263284 -6.257755 17.669504 -0.388753 1.932807 0.011840 0.006203 650491.000000 1 0 0
-7.695277 11.441684 -13.040055 18.978210 -0.978721 2.328296 -0.008620 0.005487 -844803.000000 1 0 0
-16.876077 9.139884 -2.741155 19.386939 -0.496362 1.712664 0.021729 0.002068 610165.000000 1 0 0
-20.733677 -1.001416 -4.446655 21.228777 0.048262 1.781823 0.023952 -0.005955 555317.000000 1 0 0
-15.381677 4.449384 4.154245 16.542393 -0.281579 1.316952 0.004352 -0.007119 265917.000000 1 0 0
-6.842477 12.544484 -9.420155 17.114990 -1.071448 2.153644 0.004101 -0.008693 -1058380.000000 1 0 0
-17.043077 1.598384 5.731845 18.052018 -0.093511 1.247685 0.004719 -0.006861 728830.000000 1 0 0
-10.359977 14.304084 -2.968155 17.909380 -0.943969 1.737296 0.033238 -0.011718 343644.000000 1 0 0
-9.908077 8.389484 -13.007955 18.378257 -0.702594 2.357162 -0.011172 -0.002651 -258947.000000 1 0 0
-13.666977 11.696884 2.908045 18.222516 -0.707881 1.410526 0.006023 -0.004802 334793.000000 1 0 0
-16.970377 6.688484 2.022845 18.352695 -0.375433 1.460351 0.016103 -0.001645 922560.000000 1 0 0
-9.199677 13.177984 -8.424655 18.145747 -0.961340 2.053615 0.013861 -0.019303 816233.000000 1 0 0
-5.514477 9.958184 -12.870755 17.182294 -1.065068 2.417455 -0.004588 0.004196 -813636.000000 1 0 0
-15.785077 1.915684 3.183145 16.216378 -0.120770 1.373221 0.000916 -0.004321 -496847.000000 1 0 0
-18.572077 -4.804916 4.614445 19.730747 0.253166 1.334739 0.015269 -0.006387 -418780.000000 1 0 0
-5.268377 14.454284 -9.232455 17.942139 -1.221276 2.111300 0.005099 -0.003540 -37245.900000 1 0 0
-15.387977 -0.785016 -6.881555 16.874890 0.050971 1.990838 0.003145 -0.001475 684103.000000 1 0 0
-8.942877 10.941284 -9.529855 17.044204 -0.885564 2.164127 0.001254 -0.011430 476209.000000 1 0 0
-16.806777 1.312384 -6.139555 17.941133 -0.077928 1.920059 0.006184 -0.000052 -265438.000000 1 0 0
-11.183277 8.705084 -1.473455 14.248342 -0.661432 1.674394 0.007799 -0.005295 11885.200000 1 0 0
-10.624977 10.940784 -12.800755 19.911058 -0.800041 2.269071 0.000079 -0.002655 -392829.000000 1 0 0
-14.105177 11.759784 -10.081355 20.949517 -0.694967 2.072844 0.025464 -0.012783 422681.000000 1 0 0
-13.121777 5.868484 -7.764555 16.337333 -0.420550 2.066061 0.006312 0.004654 -1767770.000000 1 0 0
-8.746777 15.138484 -4.735055 18.113546 -1.046872 1.835279 0.016548 -0.016197 559229.000000 1 0 0
-8.515677 6.226084 -12.955555 16.707103 -0.631316 2.458227 -0.006439 -0.002352 -1815760.000000 1 0 0
-16.290477 7.590184 4.320445 18.483960 -0.436020 1.334874 0.010797 -0.010260 -421566.000000 1 0 0
-12.629577 5.348484 -10.253255 17.124303 -0.400590 2.212742 0.003486 0.005156 362436.000000 1 0 0
-12.367077 8.971684 -13.196355 20.188598 -0.627602 2.283199 0.011812 -0.008493 -1922950.000000 1 0 0
-10.768577 5.214584 -8.538355 14.698900 -0.450961 2.190611 -0.001624 0.004631 109897.000000 1 0 0
-17.614677 -4.363316 -2.548755 18.325161 0.242821 1.710334 -0.001307 -0.007374 341630.000000 1 0 0
-8.793977 13.063184 -10.991755 19.204153 -0.978293 2.180182 0.010181 -0.007598 97947.000000 1 0 0
-14.934777 6.194884 6.144645 17.296844 -0.393196 1.207618 -0.002918 -0.013830 47124.900000 1 0 0
-16.358177 -3.035116 -4.465655 17.226258 0.183455 1.833027 0.003469 -0.003707 -268181.000000 1 0 0
-11.050977 -1.090716 -12.570155 16.772673 0.098380 2.418016 0.012522 -0.003519 762658.000000 1 0 0
-15.355077 7.015284 -8.733955 19.007224 -0.428553 2.048237 0.009215 0.004314 562191.000000 1 0 0
-14.825477 9.358084 1.203145 17.573163 -0.563057 1.502278 0.010756 -0.004761 75326.900000 1 0 0
-19.373377 5.505284 7.936045 21.647557 -0.276869 1.195442 0.025493 -0.008303 1379380.000000 1 0 0
-16.269777 0.630684 0.846945 16.304010 -0.038745 1.518826 0.007515 -0.004183 -1347300.000000 1 0 0
-17.320777 3.856184 7.210745 19.153964 -0.219061 1.184822 0.001626 -0.002677 533576.000000 1 0 0
-15.410077 4.128984 -1.417055 16.016461 -0.261791 1.659387 0.005184 0.002169 -848687.000000 1 0 0
-10.722377 13.467484 0.296045 17.217147 -0.898396 1.553601 0.023967 -0.005295 -1329910.000000 1 0 0
-13.397277 3.462984 0.047545 13.837686 -0.252948 1.567360 0.002322 -0.000804 -708178.000000 1 0 0
-15.082277 0.258484 -4.475855 15.734522 -0.017137 1.859240 0.001999 0.001219 185197.000000 1 0 0
-18.818777 7.065884 3.733445 20.445335 -0.359183 1.387160 0.023342 -0.005326 35661.200000 1 0 0
-14.200477 1.490484 -6.473755 15.677519 -0.104577 1.996468 0.004057 0.002277 138275.000000 1 0 0
-14.275777 11.829484 5.459145 19.327099 -0.691962 1.284438 0.000641 -0.019113 -268877.000000 1 0 0
17.575923 5.311484 6.368245 19.433977 0.293476 1.236943 0.005372 -0.010805 -426011.000000 1 0 0
18.468223 7.423784 -0.275855 19.906379 0.382209 1.584654 0.012943 0.009160 707614.000000 1 0 0
16.511223 5.093484 8.576845 19.290576 0.299224 1.110054 0.013075 -0.005750 180599.000000 1 0 0
11.657423 12.350184 11.024145 20.247329 0.814246 0.995034 0.024788 -0.009511 738035.000000 1 0 0
-2.306577 16.163884 -0.616255 16.339254 -1.429054 1.608522 -0.003638 0.000806 76220.500000 1 0 0
15.063523 12.522184 3.601845 19.917030 0.693532 1.388953 0.016742 0.005361 682579.000000 1 0 0
13.553023 11.701984 6.680945 19.111668 0.712235 1.213680 0.020564 -0.000517 1003140.000000 1 0 0
-0.505177 15.826784 8.604845 18.021810 -1.538888 1.073025 -0.006297 0.000670 207683.000000 1 0 0
0.760823 12.968084 9.328245 15.992692 1.512195 0.948033 -0.007043 0.001448 -810434.000000 1 0 0
0.789223 15.458884 -3.966855 15.979233 1.519788 1.821670 -0.003777 -0.000622 869129.000000 1 0 0
5.213523 10.134584 13.552345 17.707531 1.095672 0.699221 -0.002341 -0.007183 584518.000000 1 0 0
-1.351877 16.555684 -2.918155 16.865167 -1.489321 1.744700 -0.002966 0.005487 -426149.000000 1 0 0
8.646523 10.057784 3.315045 13.671536 0.860707 1.325877 0.003613 -0.000496 344341.000000 1 0 0
12.567723 13.649784 -4.831755 19.173161 0.826647 1.825549 0.036798 -0.009020 77181.000000 1 0 0
2.394423 11.610884 7.742845 14.159715 1.367425 0.992232 -0.003150 0.000633 453343.000000 1 0 0
-0.271977 14.987084 -8.748155 17.355600 -1.552651 2.099082 0.001423 -0.001994 -1421010.000000 1 0 0
2.357523 15.940284 0.242745 16.115504 1.423964 1.555733 -0.001448 -0.001104 -418642.000000 1 0 0
1.936523 13.344384 5.313445 14.493288 1.426683 1.195429 0.001673 0.002415 -188679.000000 1 0 0
17.457823 9.176584 -1.942955 19.818182 0.483951 1.668993 -0.000814 0.012135 -17328.900000 1 0 0
-7.082777 14.925284 7.258345 18.044761 -1.127716 1.156833 0.005486 -0.008630 -1250330.000000 1 0 0
8.534223 15.808284 0.016945 17.964829 1.075773 1.569853 -0.000845 -0.002554 -166186.000000 1 0 0
15.588823 10.352184 2.214745 18.843678 0.586208 1.452992 0.004287 0.005579 -97239.600000 1 0 0
14.121823 7.431884 8.883545 18.264067 0.484442 1.062838 0.010540 -0.002218 -684001.000000 1 0 0
4.170423 18.584784 -1.986255 19.150243 1.350053 1.674703 -0.007436 0.000213 -467384.000000 1 0 0
-0.205377 17.584084 -4.938155 18.265474 -1.559117 1.844558 -0.000020 0.001614 537095.000000 1 0 0
1.415223 13.626084 -0.774255 13.721242 1.467306 1.627254 -0.001205 -0.004558 -838812.000000 1 0 0
10.403123 14.814784 4.279945 18.601632 0.958587 1.338632 0.016603 -0.004963 106926.000000 1 0 0
-1.642977 15.314084 -5.161155 16.243708 -1.463920 1.894133 -0.000734 -0.000850 675578.000000 1 0 0
15.123323 8.755884 -6.148655 18.525289 0.524809 1.909120 0.019389 -0.003182 363684.000000 1 0 0
-2.241677 18.401684 0.710745 18.551341 -1.449574 1.532475 -0.006634 0.002232 -46764.500000 1 0 0
-3.792477 19.104684 3.427245 19.776699 -1.374834 1.396620 0.006703 -0.009238 -322941.000000 1 0 0
1.900323 17.555784 -2.695755 17.862919 1.462971 1.722289 -0.006749 -0.001869 -301870.000000 1 0 0
2.829723 12.340784 3.243445 13.069897 1.345394 1.320014 -0.000523 0.001214 582942.000000 1 0 0
-2.499177 16.158284 1.829145 16.452410 -1.417344 1.459388 -0.002373 -0.000911 -1161810.000000 1 0 0
11.706323 12.780984 -2.528655 17.515297 0.829256 1.715671 0.004943 0.004927 196587.000000 1 0 0
7.260423 11.671484 4.812245 14.563481 1.014310 1.234035 0.002088 -0.001485 213996.000000 1 0 0
7.131623 15.739284 2.132645 17.410723 1.145359 1.447998 -0.002946 -0.001733 -293730.000000 1 0 0
5.529423 12.157984 10.344145 16.893561 1.143960 0.911814 -0.000276 0.002258 188466.000000 1 0 0
-1.312477 14.042584 2.984245 14.416049 -1.477603 1.362280 -0.002100 -0.002284 -968411.000000 1 0 0
4.636923 16.071984 1.494145 16.794112 1.289914 1.481710 -0.006696 -0.005330 -1808710.000000 1 0 0
7.380623 13.114184 11.955245 19.219347 1.058181 0.899448 0.015373 -0.006037 356548.000000 1 0 0
0.720523 17.326284 -9.482655 19.764615 1.529235 2.071200 -0.000716 0.002620 285300.000000 1 0 0
9.627123 9.514584 15.518645 20.592162 0.779519 0.717246 0.016841 -0.008052 -696249.000000 1 0 0
13.558723 7.559884 -0.043655 15.523940 0.508634 1.573608 -0.003454 0.003455 -140921.000000 1 0 0
12.362023 13.565984 -0.043655 18.353676 0.831800 1.573175 0.014719 0.004358 300966.000000 1 0 0
9.404323 12.451484 3.576745 16.008555 0.923926 1.345467 0.004820 -0.000038 582233.000000 1 0 0
-0.512577 12.792784 0.652945 12.819688 -1.530750 1.519841 0.002512 -0.002284 -868220.000000 1 0 0
15.929523 7.256284 -0.815355 17.523360 0.427438 1.617343 0.010699 0.007936 -1227510.000000 1 0 0
-4.182877 18.430884 -2.335055 19.043278 -1.347627 1.693724 -0.004049 0.003090 -145701.000000 1 0 0
11.452223 9.150184 -3.216055 15.007407 0.674123 1.786769 0.006691 0.000216 101633.000000 1 0 0
14.686623 9.711684 7.843845 19.275362 0.584251 1.151699 0.014993 -0.005723 420273.000000 1 0 0
4.509323 13.615084 4.816545 15.129560 1.250967 1.246804 0.002667 -0.001121 -1314850.000000 1 0 0
2.188723 15.947784 5.604345 17.044970 1.434405 1.235766 0.005889 0.003443 317675.000000 1 0 0
6.211923 18.275284 5.551545 20.084662 1.243140 1.290743 0.012593 -0.013985 -786417.000000 1 0 0
10.524123 17.084684 -0.845355 20.083780 1.018697 1.612900 0.023374 -0.007229 -977227.000000 1 0 0
9.983523 13.580784 -4.382155 17.415846 0.936886 1.825149 0.016324 -0.004029 936095.000000 1 0 0
16.601123 7.846184 2.392645 18.517144 0.441513 1.441222 0.004954 0.002218 99408.700000 1 0 0
4.000723 14.013784 -0.469755 14.581241 1.292709 1.603018 -0.001851 -0.004028 372870.000000 1 0 0
5.639923 13.080284 -2.348955 14.436763 1.163705 1.734229 -0.003655 -0.005116 -1330450.000000 1 0 0
-6.107577 16.801784 -2.940655 18.117668 -1.222139 1.733826 -0.001538 -0.002608 -1249690.000000 1 0 0
18.100723 9.892784 2.762745 20.811922 0.500184 1.437655 0.017350 0.000666 -8213.410000 1 0 0
7.878123 12.921084 9.461745 17.847796 1.023267 1.012036 0.016382 -0.005441 377001.000000 1 0 0
-2.547077 15.834584 6.755045 17.402651 -1.411307 1.172160 -0.005274 0.004456 1660500.000000 1 0 0
11.320223 16.039584 6.346745 20.632422 0.956210 1.258116 0.022763 -0.002320 256740.000000 1 0 0
13.508823 11.957684 1.505745 18.103639 0.724564 1.487527 0.019241 0.006987 883250.000000 1 0 0
17.517023 7.915084 -5.622855 20.027759 0.424392 1.855375 -0.001572 0.008263 292289.000000 1 0 0
9.534923 9.220684 8.082745 15.532756 0.768645 1.023515 0.009158 -0.003043 -641309.000000 1 0 0
-1.940877 14.176584 -2.060855 14.456474 -1.434735 1.713839 -0.006895 0.001324 832078.000000 1 0 0
10.951423 11.578284 0.870145 15.960810 0.813215 1.516252 0.005952 0.005569 -356467.000000 1 0 0
11.745823 9.803484 -0.637955 15.312728 0.695506 1.612470 0.000255 0.007296 -1204320.000000 1 0 0
-0.287577 15.880584 11.205745 19.438219 -1.552690 0.956382 0.004455 -0.004746 -108187.000000 1 0 0
1.974423 20.035284 -1.796455 20.212328 1.472566 1.659793 -0.001063 -0.005031 -376117.000000 1 0 0
9.336423 14.427484 1.951345 17.295341 0.996443 1.457731 0.006342 -0.002023 -968058.000000 1 0 0
8.500623 11.673584 -5.124755 15.323063 0.941398 1.911815 0.008891 -0.005253 -527097.000000 1 0 0
10.646323 10.088184 10.311445 17.928791 0.758486 0.958029 0.015516 -0.004480 -5997.780000 1 0 0
-5.048477 15.759484 5.830645 17.545509 -1.260780 1.232039 -0.008360 -0.001562 799235.000000 1 0 0
14.500723 9.133884 -1.869855 17.239349 0.562109 1.679475 0.025305 0.007420 -654816.000000 1 0 0
12.139023 9.574184 7.010345 16.975447 0.667820 1.145084 0.006146 -0.003139 -989007.000000 1 0 0
3.226023 12.910384 9.712645 16.474851 1.325932 0.940302 -0.003042 -0.000695 -519540.000000 1 0 0
8.442323 12.598184 -2.569155 15.381404 0.980405 1.738613 0.003601 0.000072 -1059810.000000 1 0 0
9.480023 17.032584 2.147345 19.610987 1.062914 1.461079 0.009220 -0.000159 376870.000000 1 0 0
9.621923 14.188184 -7.584455 18.745931 0.974876 1.987329 0.023860 -0.011267 -1307400.000000 1 0 0
6.307223 11.471684 7.381145 15.028702 1.068101 1.057402 0.002100 -0.001445 -677426.000000 1 0 0
5.461923 16.768184 -5.696555 18.532548 1.255903 1.883236 -0.008218 -0.002661 -2182360.000000 1 0 0
-4.192177 17.300584 -4.741155 18.421810 -1.333064 1.831092 -0.006991 0.004112 361671.000000 1 0 0
0.013223 18.444984 -0.453355 18.450559 1.570079 1.595370 -0.001114 -0.000028 -580562.000000 1 0 0
6.239223 15.644884 -2.737855 17.064177 1.191322 1.731937 -0.009867 0.001795 1030730.000000 1 0 0
-0.749377 20.681784 0.780045 20.710051 -1.534578 1.533122 0.005894 0.002410 6141.690000 1 0 0
-1.368977 18.683184 4.243745 19.207936 -1.497654 1.348021 0.002756 -0.000949 442012.000000 1 0 0
7.243123 13.764084 -4.274155 16.130134 1.086383 1.838979 -0.003436 -0.001755 -1522480.000000 1 0 0
-1.029277 11.898384 7.757945 14.241371 -1.484505 0.994709 -0.002775 0.004214 512347.000000 1 0 0
7.624223 10.770184 11.041645 17.205916 0.954787 0.874037 0.006288 -0.004922 101573.000000 1 0 0
1.597323 16.044684 -7.358455 17.723718 1.471569 1.998932 -0.005807 -0.002268 -1034500.000000 1 0 0
8.819223 7.159484 14.719645 18.593140 0.681897 0.657257 0.002647 -0.005104 27951.800000 1 0 0
11.360123 11.315784 -4.769055 16.728516 0.783443 1.859892 0.021598 -0.001910 -291622.000000 1 0 0
-3.307577 16.926184 4.469145 17.815977 -1.377816 1.317238 -0.006249 -0.001168 -94103.500000 1 0 0
3.975523 15.272884 -6.862155 17.209152 1.316148 1.980950 -0.006319 -0.007682 -1336740.000000 1 0 0
-4.490577 13.990184 9.409345 17.447816 -1.260204 1.001209 0.006993 -0.008772 390104.000000 1 0 0
6.254323 17.836784 0.623245 18.911791 1.233550 1.537835 -0.006884 -0.004811 -383006.000000 1 0 0
9.839723 10.706084 -2.148355 14.698837 0.827540 1.717480 0.005813 0.002522 -548347.000000 1 0 0
7.261623 18.081484 -2.330655 19.624046 1.188907 1.689843 -0.006391 0.003320 54477.000000 1 0 0
3.622823 10.292584 10.333245 15.027910 1.232355 0.812613 -0.005449 0.000868 751601.000000 1 0 0
0.085623 18.534084 2.033745 18.645528 1.566177 1.461505 0.003317 0.001790 612020.000000 1 0 0
-0.770877 17.229684 -7.447355 18.786148 -1.526085 1.978419 0.007857 0.003049 -421380.000000 1 0 0
10.051023 8.719084 13.106945 18.677191 0.714556 0.792928 0.015602 -0.003750 -786050.000000 1 0 0
3.559823 11.342084 5.428745 13.068530 1.266673 1.142407 -0.005069 0.001073 819513.000000 1 0 0
13.063523 13.842584 8.220545 20.732827 0.814345 1.163096 0.025768 -0.006741 236711.000000 1 0 0
-0.422377 17.396384 6.761445 18.668950 -1.546521 1.200195 0.001339 0.002040 -215356.000000 1 0 0
12.195623 13.614584 5.798045 19.175699 0.840320 1.263624 0.019657 -0.000578 -438665.000000 1 0 0
4.867923 14.489684 -4.565455 15.952774 1.246686 1.861040 -0.007526 -0.001408 -795528.000000 1 0 0
3.880123 17.585984 4.719945 18.617198 1.353638 1.314473 0.008285 -0.000546 -524747.000000 1 0 0
7.114723 11.712284 2.152245 13.871879 1.024911 1.415015 0.003078 -0.000376 922389.000000 1 0 0
6.386123 8.685784 11.704945 15.913238 0.936810 0.744322 0.000178 -0.002230 829244.000000 1 0 0
-5.389077 14.889984 1.786445 15.935657 -1.223536 1.458457 0.000746 0.002819 -101308.000000 1 0 0
6.863523 13.728584 6.054745 16.499754 1.107194 1.195058 0.007431 -0.004201 -1507360.000000 1 0 0
5.802423 15.763984 4.881345 17.492822 1.218105 1.287993 0.000586 -0.007347 598391.000000 1 0 0
1.326523 18.000984 4.245445 18.542354 1.497238 1.339788 0.015640 0.002363 1675080.000000 1 0 0
7.355423 17.973584 -6.927855 20.619096 1.182354 1.913455 -0.009267 -0.000672 517526.000000 1 0 0
-2.339577 18.761784 -5.885055 19.801819 -1.446738 1.872553 0.005668 0.001820 -1445860.000000 1 0 0
13.558223 9.983684 -4.507755 17.430410 0.634712 1.832384 0.023062 0.000628 11866.500000 1 0 0
-1.391277 17.964184 9.924645 20.570516 -1.493503 1.067325 0.003593 -0.003839 171979.000000 1 0 0
3.515223 11.818084 -1.619355 12.435683 1.281686 1.701386 -0.000906 -0.004894 -449063.000000 1 0 0
4.336523 14.025484 -10.954055 18.316958 1.270931 2.211835 -0.009481 -0.010467 69178.600000 1 0 0
11.598323 13.460384 2.445545 17.935543 0.859570 1.434018 0.019609 0.003761 321700.000000 1 0 0
15.914323 6.515384 -7.106755 18.607038 0.388587 1.962690 0.002399 -0.002670 -311276.000000 1 0 0
2.525123 16.099184 2.969145 16.564292 1.415216 1.390573 0.005749 0.001123 -325176.000000 1 0 0
13.532323 10.451784 3.665245 17.487068 0.657657 1.359633 0.010011 0.006838 -1137030.000000 1 0 0
-4.775177 19.447484 -6.219355 20.968722 -1.330018 1.871928 -0.008032 0.005711 -154849.000000 1 0 0
5.500623 12.033084 0.079745 13.230960 1.142033 1.564769 -0.000024 -0.003062 790573.000000 1 0 0
5.047423 15.296584 9.815445 18.862792 1.252075 1.023524 0.012685 -0.005578 90261.700000 1 0 0
7.692823 9.376184 13.907545 18.452971 0.883701 0.717160 0.005725 -0.007763 -1980430.000000 1 0 0
-5.021377 13.537484 6.906945 16.005736 -1.215604 1.124609 -0.001510 -0.001221 -1708330.000000 1 0 0
-4.515777 17.069284 0.531945 17.664531 -1.312166 1.540678 -0.000103 0.001203 -2843620.000000 1 0 0
-0.541677 16.458084 3.490645 16.832900 -1.537896 1.361910 0.001333 0.001178 -1028310.000000 1 0 0
7.724323 17.041584 -4.599955 19.267598 1.145232 1.811865 -0.011714 0.003466 748318.000000 1 0 0
3.105723 16.410384 -4.679555 17.344868 1.383755 1.843976 -0.007278 -0.001228 -405564.000000 1 0 0
9.372023 14.399984 8.005345 18.954680 0.993834 1.134770 0.015087 -0.007863 323592.000000 1 0 0
12.737423 11.036484 9.121945 19.163919 0.713973 1.074700 0.022030 -0.009620 -228095.000000 1 0 0
3.461823 12.156084 12.097545 17.495862 1.293360 0.807300 -0.003781 -0.002108 621343.000000 1 0 0
-3.368577 19.052684 6.008745 20.259741 -1.395801 1.269681 0.003303 -0.000234 93606.000000 1 0 0
-2.610577 15.713084 10.066745 18.842916 -1.406160 1.007181 0.000281 -0.007805 -1672270.000000 1 0 0
2.081923 14.290084 7.672945 16.352828 1.426124 1.082398 0.000959 0.000664 224918.000000 1 0 0
4.498623 17.170684 8.185845 19.546817 1.314561 1.138693 0.016766 -0.008581 -87207.400000 1 0 0
-1.901877 13.433384 9.295845 16.446449 -1.430153 0.970098 0.000312 -0.001619 -1209280.000000 1 0 0
5.839923 17.737284 3.125845 18.933749 1.252729 1.404943 -0.004339 -0.004036 384304.000000 1 0 0
7.419223 15.315384 -6.725155 18.298458 1.119683 1.947144 0.000898 -0.008325 -327574.000000 1 0 0
11.001623 7.599684 9.430645 16.362395 0.604510 0.956528 0.008974 -0.003585 171609.000000 1 0 0
8.828723 16.079484 -2.575055 18.523689 1.068669 1.710262 0.002193 -0.013022 -679299.000000 1 0 0
14.508923 11.270784 -6.445755 19.470161 0.660445 1.908221 0.037059 -0.002552 763174.000000 1 0 0
10.935223 6.478884 16.125845 20.532849 0.534871 0.667506 0.017649 -0.009030 537531.000000 1 0 0
8.546623 8.411484 10.228545 15.761375 0.777429 0.864576 0.004636 -0.002985 -199281.000000 1 0 0
16.263723 9.201484 4.550645 19.232378 0.514868 1.331917 0.008035 0.000623 -132723.000000 1 0 0
-3.173677 14.254384 4.743045 15.354353 -1.351724 1.256754 -0.012714 0.002801 -907992.000000 1 0 0
4.722523 14.398684 12.891045 19.894807 1.253869 0.865893 0.005048 0.000112 -1624540.000000 1 0 0
16.155223 10.568884 -4.552655 19.834797 0.579328 1.802390 0.034495 0.001870 287304.000000 1 0 0
14.829923 13.953384 6.310745 21.317810 0.754955 1.270261 0.027358 0.004830 202201.000000 1 0 0
6.220223 9.505684 9.298945 14.680585 0.991356 0.884834 -0.000748 -0.000947 341338.000000 1 0 0
10.457023 12.290684 8.797745 18.379623 0.865833 1.071659 0.019070 -0.005693 -774961.000000 1 0 0
8.087823 11.496284 -0.283955 14.059091 0.957714 1.590995 0.003049 0.000668 832445.000000 1 0 0
7.443323 13.554984 -8.698655 17.742808 1.068628 2.083189 0.001462 -0.003229 -1070620.000000 1 0 0
2.818023 15.197184 -2.282955 15.623941 1.387448 1.717440 -0.006325 -0.001591 284870.000000 1 0 0
12.141723 13.656084 -7.673655 19.819057 0.844032 1.968374 0.027861 -0.011113 270020.000000 1 0 0
-7.785277 14.712884 9.750645 19.291308 -1.084104 1.040902 0.013189 -0.011940 76795.200000 1 0 0
11.621623 9.435984 2.170345 15.126477 0.681975 1.426820 0.009394 0.003809 -2254240.000000 1 0 0
12.035323 8.622584 4.566945 15.493706 0.621674 1.271591 0.001877 0.000841 -58387.800000 1 0 0
13.962423 7.932884 6.196145 17.212557 0.516678 1.202552 0.001663 -0.000169 -2002580.000000 1 0 0
16.151523 7.331584 7.260945 19.166250 0.426113 1.182254 0.013356 -0.007044 72658.500000 1 0 0
13.633523 8.118384 2.609545 16.080759 0.537084 1.407798 -0.003062 0.007658 -2878410.000000 1 0 0
-4.010277 17.321484 -7.349755 19.238893 -1.343284 1.962784 -0.003125 -0.001341 121546.000000 1 0 0
2.940623 19.382084 -4.129255 20.034050 1.420226 1.778396 -0.013135 -0.003821 552953.000000 1 0 0
-0.086677 14.804784 6.220445 16.058738 -1.564942 1.173035 0.003489 0.003759 1082450.000000 1 0 0
6.880823 16.176384 8.269145 19.426782 1.168619 1.131109 0.023141 -0.006096 -922823.000000 1 0 0
12.718423 15.126184 -2.035955 19.867179 0.871655 1.673455 0.032056 -0.004676 -850350.000000 1 0 0
12.913523 15.725084 4.347445 20.807153 0.883258 1.360305 0.032095 -0.005114 962534.000000 1 0 0
3.030523 18.091384 1.298245 18.389336 1.404825 1.500140 0.006185 0.001247 -486419.000000 1 0 0
10.361723 14.468384 -1.189155 17.835737 0.949305 1.637518 0.011168 0.006440 -2165470.000000 1 0 0
-6.421477 15.734984 -0.433155 17.000374 -1.183325 1.596278 0.004355 -0.000165 -337286.000000 1 0 0
-3.864477 15.881984 -2.721155 16.570343 -1.332110 1.735762 -0.003519 0.001941 -899764.000000 1 0 0
-6.707077 17.151084 1.761045 18.499888 -1.198022 1.475460 -0.001003 0.001947 158803.000000 1 0 0
0.104523 19.474484 -6.513055 20.535003 1.565429 1.893539 0.005149 -0.001198 326873.000000 1 0 0
4.902523 14.791284 7.159645 17.148683 1.250745 1.140100 0.011948 -0.002394 -330975.000000 1 0 0
8.675923 12.125784 6.992345 16.468125 0.949747 1.132278 0.014892 -0.006233 -1132480.000000 1 0 0
-7.634477 17.428484 -5.478555 19.800299 -1.157928 1.851145 0.021585 -0.007710 315220.000000 1 0 0
-7.677277 17.918884 -1.260655 19.535000 -1.166010 1.635374 0.012277 0.004587 131441.000000 1 0 0
-13.913977 -9.024916 9.063745 18.899718 0.575406 1.070631 0.004754 -0.008390 -7902.670000 1 0 0
-12.725877 -12.782216 7.814745 19.657142 0.787607 1.161948 0.016260 -0.001783 331599.000000 1 0 0
-3.684377 -15.154216 12.587945 20.041988 1.332298 0.891715 -0.010519 0.002214 124111.000000 1 0 0
-2.091877 -14.166916 15.060345 20.781998 1.424196 0.760223 -0.003496 0.005488 -1488940.000000 1 0 0
-6.786877 -13.683716 12.915745 20.003056 1.110368 0.868872 0.003332 -0.001603 64421.400000 1 0 0
-9.984577 -11.480016 9.042245 17.698722 0.854956 1.034567 0.020662 -0.003198 588616.000000 1 0 0
-10.634577 -10.492116 11.411645 18.799053 0.778655 0.918475 0.018595 -0.009119 334074.000000 1 0 0
-5.803377 -12.147816 10.928945 17.340429 1.125123 0.888911 0.009526 -0.003606 593018.000000 1 0 0
-12.528977 -10.285116 7.316845 17.784688 0.687359 1.146793 0.005407 0.000624 -199551.000000 1 0 0
-7.413677 -11.230416 12.815945 18.583146 0.987324 0.809785 0.008058 0.000280 121245.000000 1 0 0
-14.852377 -11.424416 7.325645 20.119033 0.655675 1.198114 0.003403 0.001847 -773759.000000 1 0 0
-11.303377 -9.124216 9.291745 17.243961 0.679123 1.001736 0.018220 -0.001415 240008.000000 1 0 0
-4.987877 -11.838116 13.463845 18.609004 1.172029 0.761919 0.005819 -0.003757 -1096860.000000 1 0 0
3.942123 -12.415016 14.616045 19.578093 -1.263337 0.727933 0.004921 0.002022 475384.000000 1 0 0
6.497423 -12.844116 14.148345 20.183248 -1.102466 0.794005 0.018282 0.004332 -96888.200000 1 0 0
6.599023 -8.704216 16.177445 19.519739 -0.922105 0.593884 0.006203 0.006201 -423793.000000 1 0 0
0.724423 -1.806916 14.426945 14.557695 -1.189500 0.134127 0.001053 -0.007732 -1679590.000000 1 0 0
-0.102977 -6.379416 15.616945 16.869989 1.554656 0.387852 -0.002550 -0.005792 119562.000000 1 0 0
-1.456077 -4.701616 18.237145 18.889648 1.270467 0.263604 0.004230 -0.022283 -1926980.000000 1 0 0
-4.914477 12.812684 13.086545 18.962453 -1.204539 0.809129 0.003034 0.006935 250163.000000 1 0 0
-3.998477 8.915584 11.660845 15.213506 -1.149206 0.697454 -0.007201 0.003760 -91839.300000 1 0 0
-0.643177 -3.956516 15.063645 15.587851 1.409644 0.260074 0.003294 -0.007323 -67198.100000 1 0 0
-4.271477 9.174984 14.130745 17.381133 -1.135081 0.621522 -0.009731 -0.000772 439835.000000 1 0 0
-13.261977 -2.097116 16.940945 21.616511 0.156831 0.670190 -0.008222 0.006553 -657787.000000 1 0 0
-0.308877 0.780484 17.320045 17.340372 -1.193958 0.048425 0.004350 -0.002218 512800.000000 1 0 0
-3.333677 -7.323716 15.344845 17.326699 1.143635 0.482972 0.004590 -0.011528 260877.000000 1 0 0
-7.332677 5.475084 12.565145 15.544374 -0.641366 0.629469 -0.000067 -0.006048 -1421110.000000 1 0 0
-9.858877 10.064684 13.322045 19.390003 -0.795728 0.813365 0.007078 -0.013706 424398.000000 1 0 0
-5.529477 2.240084 11.097945 12.599900 -0.384910 0.493255 -0.002457 -0.000681 -1874450.000000 1 0 0
-7.090777 -7.434616 16.964945 19.833356 0.809065 0.544523 0.012559 -0.005860 -234819.000000 1 0 0
-4.744777 2.976384 18.560645 19.387349 -0.560249 0.293080 0.000703 -0.001373 -324293.000000 1 0 0
1.109423 -8.369116 16.578345 18.604151 -1.439003 0.471011 -0.005068 0.003411 674895.000000 1 0 0
-14.596677 -3.731016 13.945345 20.529396 0.250249 0.824006 -0.012079 0.002278 106760.000000 1 0 0
-14.397377 1.748884 12.841445 19.371262 -0.120880 0.846095 -0.006601 -0.010215 -820636.000000 1 0 0
-5.539077 0.937984 16.011745 16.968711 -0.167748 0.337444 0.005339 -0.001982 513899.000000 1 0 0
4.433223 5.724284 15.244045 16.876072 0.911824 0.443411 -0.007328 -0.001588 -1055870.000000 1 0 0
-1.126977 -12.016016 13.894745 18.404311 1.477280 0.715184 -0.012504 0.001051 -84966.600000 1 0 0
-5.902077 -4.078316 16.737245 18.209957 0.604658 0.404940 0.016921 -0.009864 -4819.770000 1 0 0
-12.869077 -1.501216 9.887345 16.298049 0.116128 0.918946 -0.007872 -0.001193 -937498.000000 1 0 0
-14.174277 10.282284 10.386645 20.359712 -0.627582 1.035429 -0.017198 -0.003158 145934.000000 1 0 0
-3.533277 -3.283616 17.594645 18.243840 0.748791 0.267572 0.008377 -0.016013 775388.000000 1 0 0
-8.086677 9.296584 11.738145 17.017781 -0.854888 0.809642 0.004982 -0.011298 -318728.000000 1 0 0
-3.945077 10.616184 16.305345 19.852740 -1.215001 0.607085 -0.016634 0.008042 307431.000000 1 0 0
-12.566577 12.649584 8.331245 19.680967 -0.788690 1.133695 0.003128 -0.016660 -70400.700000 1 0 0
-12.637877 3.186584 10.398545 16.673332 -0.246997 0.897376 -0.008138 -0.007484 965845.000000 1 0 0
-10.044677 -3.544916 13.733645 17.380304 0.339269 0.659687 0.001779 -0.001097 -1239820.000000 1 0 0
-4.207177 -6.419016 17.642245 19.239359 0.990618 0.410335 0.013289 -0.010132 -781023.000000 1 0 0
0.933723 -3.657816 17.693445 18.091696 -1.320866 0.210210 0.004677 -0.019149 -149935.000000 1 0 0
-5.922577 1.822784 13.616845 14.960546 -0.298569 0.427069 0.003383 0.000565 -956549.000000 1 0 0
-10.535277 8.607884 10.210945 17.010324 -0.685053 0.926946 -0.001180 -0.014730 -294246.000000 1 0 0
4.593923 2.492184 17.087645 17.869043 0.497064 0.296822 -0.001988 -0.005465 -1139500.000000 1 0 0
0.505323 -5.352616 13.134845 14.192604 -1.476669 0.388519 -0.002207 -0.004245 -2400170.000000 1 0 0
-4.435277 5.546484 20.716645 21.900104 -0.896265 0.330251 0.021332 -0.000939 297724.000000 1 0 0
-10.788477 10.808684 9.027945 17.740425 -0.786334 1.036900 0.003824 -0.014159 136452.000000 1 0 0
0.647923 4.064884 13.115245 13.746008 1.412731 0.304113 -0.004240 -0.005955 -2509910.000000 1 0 0
-3.137377 7.045484 13.240245 15.322730 -1.151855 0.527453 -0.009550 -0.003210 -1003210.000000 1 0 0
0.563423 8.783784 14.199445 16.706183 1.506741 0.554903 -0.016594 0.003208 -7642.040000 1 0 0
-4.065977 -6.716316 13.056345 15.235131 1.026424 0.541397 0.005418 -0.007105 28398.400000 1 0 0
-5.050077 8.177484 16.468745 19.068143 -1.017566 0.528274 -0.001895 0.003732 391721.000000 1 0 0
1.642323 -10.732316 15.673045 19.066310 -1.418948 0.605833 -0.013079 0.009100 -227361.000000 1 0 0
-15.185377 -1.259516 14.389345 20.957942 0.082753 0.814019 -0.000069 -0.002244 -369386.000000 1 0 0
-13.712777 -5.170316 8.422245 16.902859 0.360561 1.049190 0.005133 -0.003633 -447964.000000 1 0 0
-14.211077 -1.875516 12.130345 18.778114 0.131217 0.868486 0.001625 -0.002084 366932.000000 1 0 0
9.370023 1.225984 16.888845 19.352867 0.130102 0.510134 0.014816 -0.005227 -256993.000000 1 0 0
5.148623 -6.708116 16.717645 18.734641 -0.916176 0.468296 0.009556 -0.006566 -161635.000000 1 0 0
-6.143877 -2.671816 11.085345 12.952633 0.410205 0.543629 -0.000188 -0.000936 203120.000000 1 0 0
0.701423 -6.285716 18.000545 19.079356 -1.459666 0.337889 0.003279 -0.008447 152379.000000 1 0 0
-8.431477 11.912884 12.083545 18.947788 -0.954880 0.879251 0.009125 -0.009967 239094.000000 1 0 0
-6.555677 -5.885016 14.827345 17.247043 0.731542 0.536107 0.013056 -0.006026 -130673.000000 1 0 0
-4.269977 -8.901016 17.180545 19.814942 1.123506 0.521546 0.014564 -0.004470 -273235.000000 1 0 0
2.579523 -6.178916 16.201045 17.530168 -1.175319 0.391911 -0.000788 -0.008944 -179229.000000 1 0 0
2.103523 5.046784 15.860845 16.776806 1.175888 0.331967 -0.006967 -0.011225 -2313820.000000 1 0 0
0.951823 -8.888916 14.037645 16.642544 -1.464123 0.567068 -0.012961 0.000945 -589459.000000 1 0 0
-9.984477 -2.851616 11.207845 15.278655 0.278199 0.747248 -0.001870 -0.004582 585231.000000 1 0 0
-1.131377 10.077884 12.376145 16.000397 -1.459001 0.686467 -0.013794 0.000920 -5488.970000 1 0 0
-12.492477 -3.636016 11.356345 17.269892 0.283232 0.853194 0.002190 -0.000727 -121941.000000 1 0 0
-2.071377 6.621684 20.174145 21.333856 -1.267622 0.331240 -0.008683 0.008892 152314.000000 1 0 0
0.166523 -13.351916 15.803045 20.689070 -1.558325 0.701561 -0.017708 0.003434 -1025770.000000 1 0 0
4.109723 -8.676316 15.248545 18.019057 -1.128433 0.561898 0.001973 0.001243 -328519.000000 1 0 0
4.480223 -4.404316 16.107245 17.289122 -0.776855 0.371895 0.000286 -0.003374 -961782.000000 1 0 0
7.934123 1.854784 14.753345 16.853834 0.229649 0.504595 -0.006252 -0.003051 -144188.000000 1 0 0
-6.356877 -0.111016 11.813545 13.415739 0.017462 0.493725 -0.000032 -0.000412 248617.000000 1 0 0
-3.254777 -10.849916 18.547245 21.732799 1.279356 0.548281 0.008876 -0.002171 -716056.000000 1 0 0
3.276023 -1.547116 13.637845 14.110872 -0.441206 0.259658 -0.005251 -0.005851 -231556.000000 1 0 0
-2.454577 8.526084 15.927345 18.231823 -1.290486 0.508242 -0.014160 0.003243 -1268770.000000 1 0 0
-3.230877 3.988884 14.839745 15.702477 -0.890005 0.333026 -0.002999 -0.002427 9984.100000 1 0 0
-4.306477 -8.944116 19.834945 22.180352 1.122068 0.464027 0.014948 -0.006656 -237248.000000 1 0 0
-5.654377 -3.101416 19.088445 20.148437 0.501690 0.325813 0.016959 -0.008984 -1338600.000000 1 0 0
-6.678677 -8.678216 11.103245 15.594814 0.914874 0.778478 0.007887 -0.003930 -456985.000000 1 0 0
-11.856577 2.517384 12.639645 17.512175 -0.209213 0.764450 0.003534 -0.010771 255913.000000 1 0 0
-11.574177 -7.591716 11.805245 18.192294 0.580525 0.864639 0.002179 0.004686 -1667650.000000 1 0 0
-11.124177 -7.128116 15.585945 20.432304 0.569864 0.703150 0.022798 -0.012946 -998092.000000 1 0 0
0.263623 5.556784 17.628645 18.485574 1.523390 0.305677 -0.006301 -0.002370 -310526.000000 1 0 0
-2.282177 -0.246216 13.262345 13.459523 0.107471 0.171380 0.001138 -0.004622 -26857.000000 1 0 0
-5.825177 -10.551916 18.468145 22.053299 1.066381 0.578228 0.010020 0.001120 -1207430.000000 1 0 0
0.336223 2.485884 19.217945 19.380972 1.436359 0.129796 0.007831 -0.004023 -280986.000000 1 0 0
-0.756177 10.797484 14.926345 18.437821 -1.500878 0.627410 -0.019047 0.008938 -738792.000000 1 0 0
-12.693677 -2.086116 14.318045 19.248058 0.162887 0.731954 0.000893 -0.001639 -365827.000000 1 0 0
-13.798077 8.211284 11.774845 19.911281 -0.536811 0.938045 0.006228 -0.016145 513315.000000 1 0 0
-17.953577 -0.556616 6.719745 19.178001 0.030993 1.212811 0.016742 -0.005312 -84952.300000 1 0 0
-2.014877 -7.816016 17.681445 19.436649 1.318501 0.428245 0.001337 -0.005818 -997081.000000 1 0 0
5.490923 2.677784 14.354545 15.600440 0.453739 0.402366 -0.003234 -0.004709 -4054070.000000 1 0 0
-13.909777 -6.751116 11.047145 19.002602 0.451859 0.950411 -0.007380 -0.001249 129879.000000 1 0 0
2.930523 7.473884 16.409345 18.267827 1.197117 0.454992 -0.012752 -0.005907 -311841.000000 1 0 0
0.954723 1.888284 14.603145 14.755641 1.102676 0.143893 -0.002339 -0.008140 -706123.000000 1 0 0
-14.393777 0.690284 9.728845 17.386999 -0.047920 0.976957 -0.007703 -0.003762 -1864750.000000 1 0 0
-9.496077 -5.132416 15.706045 19.057729 0.495503 0.602132 0.001379 0.005119 -1914.730000 1 0 0
-2.690577 0.067084 18.205745 18.403610 -0.024928 0.146770 0.007835 -0.002899 -72173.600000 1 0 0
6.713723 3.773484 17.440945 19.065671 0.512052 0.415827 0.006411 -0.007433 -1255630.000000 1 0 0
-4.110477 -1.033116 14.902945 15.493906 0.246237 0.277079 0.005618 -0.002123 551144.000000 1 0 0
4.542423 -9.059816 17.736945 20.428242 -1.106044 0.519120 0.006167 -0.001146 -102551.000000 1 0 0
1.916223 6.902884 13.407445 15.201358 1.300017 0.490728 -0.008214 -0.001122 -1362440.000000 1 0 0
-3.632077 -1.026016 20.340545 20.687737 0.275314 0.183465 0.009017 -0.005021 -983641.000000 1 0 0
-10.634177 1.787584 16.045645 19.332457 -0.166541 0.591716 0.010631 -0.016301 -270908.000000 1 0 0
-3.975977 7.027184 18.472345 20.159793 -1.055904 0.412063 -0.000858 0.007544 97274.100000 1 0 0
-12.668877 0.975384 14.546345 19.314450 -0.076839 0.717985 0.004568 -0.007712 -221301.000000 1 0 0
-16.194577 -4.523316 8.370645 18.782769 0.272369 1.108890 0.014343 -0.005785 -1208160.000000 1 0 0
-2.379477 0.742884 15.733745 15.929988 -0.302616 0.157127 0.005229 -0.002185 -244097.000000 1 0 0
-13.620677 -8.949516 12.510645 20.545874 0.581318 0.916107 -0.008479 -0.000566 408051.000000 1 0 0
6.177523 -3.163316 14.520345 16.093749 -0.473256 0.445872 0.001072 -0.004346 945719.000000 1 0 0
-15.612177 0.451084 7.507545 17.329362 -0.028885 1.122726 -0.002638 -0.004717 370795.000000 1 0 0
-13.939877 5.686984 12.639945 19.657827 -0.387354 0.872390 -0.007480 -0.006299 -245575.000000 1 0 0
0.233423 9.191284 16.810945 19.160951 1.545406 0.500476 -0.018086 0.000198 -857024.000000 1 0 0
-10.463477 -5.438516 10.908445 16.064121 0.479332 0.824320 0.004599 0.000288 123723.000000 1 0 0
-3.104177 -10.965916 15.324245 19.097636 1.294938 0.639464 0.002833 0.004194 -603269.000000 1 0 0
-3.597377 2.855984 12.630745 13.439996 -0.671015 0.348787 -0.001300 -0.001973 -2152510.000000 1 0 0
-12.371177 -7.599316 7.456545 16.321633 0.550850 1.096345 0.005253 -0.000486 -580386.000000 1 0 0
-8.204977 -1.856516 13.158545 15.617798 0.222520 0.568824 0.002485 -0.001298 -133692.000000 1 0 0
-9.752277 6.387384 9.510245 15.044944 -0.579856 0.886507 -0.005034 -0.008600 -955460.000000 1 0 0
-17.825277 -3.389916 6.477045 19.266140 0.187931 1.227930 0.010771 -0.010364 257008.000000 1 0 0
-1.380077 -0.080016 20.516745 20.563264 0.057915 0.067277 0.009316 -0.003171 -1034290.000000 1 0 0
-2.828577 2.701084 20.221045 20.595809 -0.762346 0.191058 0.010976 -0.000905 -487456.000000 1 0 0
-3.819077 11.352084 11.117645 16.341884 -1.246270 0.822603 -0.003806 -0.002058 -341520.000000 1 0 0
-4.164677 -4.800416 14.847045 16.150024 0.856192 0.404447 0.005932 -0.009341 -246108.000000 1 0 0
-0.150877 -14.386016 13.470645 19.708843 1.560309 0.818274 -0.003790 0.000192 -603782.000000 1 0 0
-12.152077 0.457284 8.318545 14.733645 -0.037612 0.970854 -0.004689 -0.004565 -510137.000000 1 0 0
-7.737877 2.249884 15.352745 17.339074 -0.282961 0.483352 0.002287 -0.004543 -1121330.000000 1 0 0
3.609423 -2.246616 18.456545 18.939886 -0.556750 0.226402 0.005942 -0.007339 -261181.000000 1 0 0
-2.011477 4.834884 12.541945 13.591266 -1.176544 0.395525 -0.008249 0.000639 -627347.000000 1 0 0
-10.314577 -6.207616 13.427145 18.033669 0.541764 0.730921 -0.000204 -0.002846 -55143.600000 1 0 0
2.332523 -3.862916 14.259245 14.956231 -1.027570 0.306491 -0.005603 -0.005594 -1049580.000000 1 0 0
6.761923 1.141384 17.039745 18.367887 0.167219 0.382613 -0.001299 -0.004586 -1772780.000000 1 0 0
-1.850577 -5.733416 13.888245 15.138694 1.258582 0.409298 -0.000310 -0.005917 -3446990.000000 1 0 0
-13.326577 3.502584 14.606945 20.080553 -0.257014 0.756245 0.016643 -0.005627 -49984.800000 1 0 0
-13.256277 -6.591816 13.586145 20.093886 0.461453 0.828295 -0.000730 0.001562 -526643.000000 1 0 0
-9.490677 6.885084 11.914445 16.716200 -0.627608 0.777388 -0.000878 -0.006776 -592807.000000 1 0 0
-1.161377 -2.553416 12.861345 13.163697 1.143931 0.214742 0.001267 -0.004855 324642.000000 1 0 0
-0.012477 6.465584 15.195045 16.513428 -1.568867 0.402300 -0.008732 -0.007738 396140.000000 1 0 0
-16.394377 -0.870716 9.672145 19.054767 0.053061 1.038403 0.005833 0.000559 -479569.000000 1 0 0
-1.356877 2.610184 13.768945 14.079702 -1.091403 0.210490 -0.006511 -0.003642 -2154890.000000 1 0 0
-11.034477 -3.213116 16.114345 19.792825 0.283354 0.619531 -0.000611 -0.003876 -591165.000000 1 0 0
-5.351277 -1.406216 17.168745 18.038276 0.256972 0.311760 0.020737 0.001182 363872.000000 1 0 0
-11.872577 6.450884 11.156045 17.522253 -0.497718 0.880613 -0.002370 -0.009157 -412832.000000 1 0 0
-2.761177 4.759084 18.685945 19.479156 -1.045070 0.286358 -0.002936 0.000387 371468.000000 1 0 0
5.105523 -1.883516 16.457345 17.333730 -0.353427 0.319347 -0.000821 -0.005369 -1540100.000000 1 0 0
-8.060677 -4.150016 12.135645 15.148301 0.475455 0.641628 0.004374 -0.001978 -1630420.000000 1 0 0
-11.318377 -0.683416 16.066045 19.664448 0.060308 0.614590 0.001615 -0.003107 476891.000000 1 0 0
2.061823 1.956184 17.321245 17.552871 0.759113 0.162635 -0.000865 -0.008278 -1605780.000000 1 0 0
-8.926577 -7.451916 11.703345 16.497973 0.695604 0.782177 0.010239 -0.004433 133866.000000 1 0 0
-7.283077 7.006584 14.836545 17.951560 -0.766051 0.597976 0.001651 -0.004135 -154501.000000 1 0 0
-5.662277 3.495984 15.748145 17.096414 -0.553127 0.399804 0.005463 -0.001207 -290948.000000 1 0 0
-9.323177 4.240684 11.611045 15.482939 -0.426883 0.722847 -0.005052 -0.006866 41918.800000 1 0 0
-10.248677 0.260784 13.990545 17.344704 -0.025440 0.632389 0.002549 -0.006791 -354721.000000 1 0 0
7.994923 -0.581516 15.672745 17.603746 -0.072608 0.472777 -0.005241 -0.003851 114988.000000 1 0 0
-8.619277 -7.527416 14.855545 18.752097 0.717880 0.656379 0.012351 -0.001894 -1120910.000000 1 0 0
-0.108077 3.882884 15.642045 16.117135 -1.542969 0.243406 -0.002989 -0.007861 -395676.000000 1 0 0
-8.093577 3.058784 9.605045 12.927453 -0.361335 0.733261 -0.003029 -0.002892 -446624.000000 1 0 0
-2.143977 -9.673916 13.171745 16.482602 1.352697 0.644949 -0.011338 -0.000971 300742.000000 1 0 0
-6.054777 10.234484 10.590245 15.923513 -1.036572 0.843209 0.006753 -0.007126 -3113860.000000 1 0 0
-8.490177 -2.792216 15.613645 17.990706 0.317734 0.519892 0.008806 -0.004399 -1733380.000000 1 0 0
3.818023 5.418984 17.787145 18.982234 0.957014 0.356736 -0.009140 -0.010513 405069.000000 1 0 0
-6.805677 -0.912616 15.164145 16.646363 0.133301 0.425195 0.008666 -0.001172 327890.000000 1 0 0
-0.866877 -9.882216 15.418045 18.333734 1.483299 0.571730 -0.016262 0.000932 -623399.000000 1 0 0
-4.368677 5.657684 16.334445 17.829998 -0.913259 0.412500 -0.003664 0.001188 238321.000000 1 0 0
3.829823 0.055884 17.405245 17.821706 0.014591 0.216609 0.001034 -0.007206 -446205.000000 1 0 0
1.392123 0.165884 19.231345 19.282379 0.118600 0.072772 0.003800 -0.004741 -225852.000000 1 0 0
-6.484377 6.403384 17.742845 19.946404 -0.779114 0.474490 0.009733 -0.005453 -535138.000000 1 0 0
-12.166177 0.628784 10.895545 16.343933 -0.051637 0.841102 0.000129 -0.007340 -564883.000000 1 0 0
-5.364377 5.255684 13.944145 15.837864 -0.775164 0.494026 -0.000823 -0.001771 -1190720.000000 1 0 0
-8.819077 -9.376916 9.834645 16.199473 0.816046 0.918395 0.020034 -0.006245 -659101.000000 1 0 0
6.905623 -3.739516 16.901145 18.636531 -0.496308 0.434970 0.003841 -0.006333 -251643.000000 1 0 0
-16.704377 1.783384 9.507645 19.303160 -0.106359 1.055786 0.003313 -0.004765 183101.000000 1 0 0
-4.148577 -9.431916 11.505645 15.445116 1.156420 0.730355 0.002179 -0.004379 32933.800000 1 0 0
-11.088577 -3.800016 9.136645 14.861862 0.330154 0.908700 -0.002078 -0.000793 -263921.000000 1 0 0
3.686123 -5.452216 18.434945 19.574508 -0.976307 0.342901 0.002436 -0.009900 -92467.700000 1 0 0
2.507123 -1.854616 16.081145 16.380735 -0.636902 0.191547 -0.000235 -0.007863 -220425.000000 1 0 0
-3.048777 -4.206516 20.164345 20.822839 0.943636 0.252158 0.011520 -0.013179 -961380.000000 1 0 0
-6.335377 -3.297616 14.436245 16.106410 0.479919 0.459432 0.012213 -0.002474 -476512.000000 1 0 0
-9.610777 5.257984 13.898845 17.697212 -0.500608 0.667504 0.001469 -0.010187 25270.700000 1 0 0
-5.811077 -5.216816 11.790045 14.141745 0.731563 0.585013 0.006059 -0.001607 -534755.000000 1 0 0
5.919123 2.162384 19.212645 20.219734 0.350259 0.316943 0.008976 -0.019290 67270.000000 1 0 0
-2.563977 11.874684 13.457645 18.129818 -1.358141 0.734310 -0.008687 -0.003192 -1808700.000000 1 0 0
3.415723 1.254684 15.186545 15.616419 0.352026 0.235178 -0.004317 -0.007264 -1321220.000000 1 0 0
-5.694977 7.481184 12.826445 15.903414 -0.920140 0.632552 -0.009156 -0.007557 -1321540.000000 1 0 0
-1.573077 -1.687016 15.292445 15.465428 0.820334 0.149707 0.008776 -0.005774 -873134.000000 1 0 0
-7.242677 10.410284 13.928445 18.836984 -0.962946 0.738588 0.015892 -0.009155 412192.000000 1 0 0
-10.148677 2.062884 10.670745 14.869968 -0.200534 0.770441 -0.002485 -0.005322 -2174820.000000 1 0 0
-13.538277 5.306984 9.061645 17.133664 -0.373590 1.013516 -0.012682 -0.009691 172977.000000 1 0 0
0.437823 -4.788916 20.037045 20.606033 -1.479626 0.235545 0.003065 -0.016057 -199911.000000 1 0 0
-14.288877 -2.833316 7.498845 16.383906 0.195749 1.095394 -0.004322 -0.006110 428244.000000 1 0 0
-2.273277 2.488584 17.619245 17.938747 -0.830582 0.189018 -0.002507 -0.000751 -10643.900000 1 0 0
-6.258477 -8.470916 14.749745 18.124015 0.934489 0.620095 0.016344 -0.002129 -73842.000000 1 0 0
-7.963677 1.914584 11.977145 14.509920 -0.235937 0.599806 -0.000364 -0.002374 -566320.000000 1 0 0
-14.575077 -3.380416 10.053245 18.025755 0.227902 0.979165 0.000618 -0.004645 -1017370.000000 1 0 0
-0.562977 6.954084 12.674245 14.467644 -1.490016 0.503207 -0.009741 -0.004607 -978485.000000 1 0 0
-1.713377 -2.256316 19.076645 19.285876 0.921326 0.147435 0.008976 -0.018560 -370292.000000 1 0 0
-12.710477 10.221884 7.292945 17.867014 -0.677302 1.150338 -0.006120 -0.019376 -423555.000000 1 0 0
-19.357577 2.264184 6.855245 20.660027 -0.116437 1.232573 0.015855 -0.007233 93692.800000 1 0 0
-16.075877 8.415384 6.800345 19.377750 -0.482254 1.212226 0.004924 -0.012550 394219.000000 1 0 0
-12.195677 7.248484 13.640045 19.680597 -0.536254 0.805056 0.003280 -0.012689 165278.000000 1 0 0
-15.879477 8.413984 10.119245 20.624065 -0.487253 1.057958 -0.006990 -0.010394 -789862.000000 1 0 0
1.769823 10.688284 15.303245 18.749960 1.406700 0.616037 -0.022102 0.003067 -885309.000000 1 0 0
2.311823 14.434384 12.789545 19.423399 1.411984 0.852025 -0.011093 0.004349 -1447300.000000 1 0 0
-3.023477 13.658984 11.617545 18.184515 -1.352954 0.877768 -0.016606 -0.003125 -132401.000000 1 0 0
8.785423 4.883684 15.843345 18.762878 0.507350 0.565355 0.005382 0.000755 -89075.800000 1 0 0
-0.115177 12.456884 12.982745 17.992745 -1.561551 0.764752 -0.019221 0.001760 -455467.000000 1 0 0
3.548623 12.937284 14.622245 19.843792 1.303086 0.742371 -0.007699 -0.002013 46288.100000 1 0 0
-2.677877 -4.112916 -13.779655 14.627577 0.993655 2.799434 -0.000939 -0.002465 -784235.000000 1 0 0
5.870223 -11.566916 16.197345 20.751073 -1.101166 0.675244 0.019374 -0.002306 192464.000000 1 0 0
7.775523 -13.637416 7.213145 17.276207 -1.052606 1.140083 -0.000983 -0.006012 -27755.500000 1 0 0
-0.107977 15.412184 1.220345 15.460799 -1.563790 1.491783 -0.000846 -0.001767 -2633860.000000 1 0 0
-13.503177 8.166084 9.096245 18.214346 -0.543907 1.047890 -0.014967 -0.009951 177579.000000 1 0 0
-15.571077 -9.669316 4.898245 18.972267 0.555703 1.309659 0.005601 0.000862 -1667530.000000 1 0 0
9.456123 -11.348616 11.066445 18.457398 -0.876113 0.927836 0.006365 0.002351 111397.000000 1 0 0
-5.770477 -10.636116 -16.943755 20.821052 1.073702 2.521423 0.014859 -0.006619 51959.900000 1 0 0
-1.830377 -12.446116 -14.848255 19.460904 1.424779 2.438705 0.002732 -0.004481 -6971.200000 1 0 0
5.668723 -15.665716 -12.482855 20.817559 -1.223599 2.213836 0.005678 0.001674 250206.000000 1 0 0
2.585423 -11.558316 -16.876655 20.617967 -1.350734 2.529663 -0.007488 0.004702 198478.000000 1 0 0
0.393623 -14.061116 -14.111855 19.925220 -1.542810 2.357800 0.002609 0.000169 181093.000000 1 0 0
-6.604477 -6.378316 -14.679655 17.314569 0.767980 2.582659 0.014542 0.001626 -43472.700000 1 0 0
-5.789277 -8.201616 -17.613555 20.273617 0.956141 2.623554 -0.005003 -0.003288 -59142.500000 1 0 0
-2.411977 -16.050416 -13.302655 20.985570 1.421637 2.257376 0.006901 -0.008178 354124.000000 1 0 0
16.240723 -8.147916 -9.128855 20.334345 -0.465004 2.036373 0.001417 0.001421 -114235.000000 1 0 0
19.026423 -3.541516 -3.501055 19.667346 -0.184031 1.749764 0.018227 -0.006906 149120.000000 1 0 0
15.810523 -11.260816 -8.992855 21.392757 -0.618891 2.004648 0.002074 -0.009823 413430.000000 1 0 0
18.449223 -3.027216 -6.674955 19.851773 -0.162634 1.913718 0.134212 -0.006202 -305525.000000 1 0 0
8.705623 -9.522916 -15.704955 20.325339 -0.830204 2.453846 0.029306 -0.002736 195278.000000 1 0 0
-4.535677 9.817184 -16.266555 19.533312 -1.137997 2.554870 -0.001535 0.004461 371675.000000 1 0 0
1.950423 -9.866716 -19.064155 21.554541 -1.375635 2.656134 -0.002422 0.019615 309055.000000 1 0 0
10.993923 7.875884 -14.917355 20.135128 0.621638 2.405149 0.010744 -0.027684 391065.000000 1 0 0
18.488423 -6.348816 -8.721555 21.405484 -0.330778 1.990451 0.020091 0.002233 161127.000000 1 0 0
12.566823 5.374384 -13.941155 19.523443 0.404125 2.366095 -0.000642 0.001297 96014.700000 1 0 0
15.812023 6.261184 -10.619955 20.050085 0.377033 2.129009 -0.011422 -0.007470 132064.000000 1 0 0
3.127423 -0.111416 -19.111855 19.366367 -0.035611 2.979291 0.024038 -0.011102 168154.000000 1 0 0
9.907123 -1.096816 -15.209555 18.184737 -0.110261 2.561462 -0.006645 0.003768 42358.500000 1 0 0
12.257223 -5.503916 -13.938455 19.360091 -0.422051 2.374538 0.015206 -0.006899 173705.000000 1 0 0
10.172423 6.618184 -12.804155 17.641568 0.576797 2.382985 0.008532 -0.004182 559329.000000 1 0 0
10.582523 5.121984 -16.627855 20.364431 0.450769 2.526144 0.005824 -0.000841 278999.000000 1 0 0
11.986223 -9.822416 -15.158055 21.677547 -0.686504 2.345146 0.048379 -0.011994 460113.000000 1 0 0
-1.630177 2.106584 -17.404455 17.607107 -0.912206 2.989725 0.001383 -0.009005 496336.000000 1 0 0
6.301923 -1.151616 -17.052355 18.216017 -0.180746 2.782223 0.003709 0.003410 106297.000000 1 0 0
6.502523 -5.670616 -15.599155 17.826170 -0.717165 2.636378 -0.011182 -0.007446 288151.000000 1 0 0
-2.335177 -4.555416 -20.329455 20.964055 1.097107 2.894915 0.021602 -0.026203 328125.000000 1 0 0
15.953023 -0.188416 -13.451155 20.867870 -0.011810 2.271279 -0.003678 0.004881 -187047.000000 1 0 0
-3.915077 -0.466216 -18.791055 19.200233 0.118524 2.934773 0.003808 -0.002605 172259.000000 1 0 0
3.745123 9.114984 -17.401155 19.997727 1.180950 2.626316 0.005417 -0.014532 -29929.500000 1 0 0
10.109923 0.436184 -16.994055 19.778744 0.043117 2.604516 0.018708 -0.012966 -409858.000000 1 0 0
4.291423 4.425484 -18.161055 19.178768 0.800776 2.814360 0.021680 -0.009402 495378.000000 1 0 0
-2.730077 -10.999516 -17.973755 21.248495 1.327513 2.579016 0.015794 -0.022335 281239.000000 1 0 0
5.902223 -9.679516 -15.997355 19.607260 -1.023228 2.525062 0.006476 -0.000226 134519.000000 1 0 0
10.146423 -12.293416 -10.586055 19.134851 -0.880786 2.157038 0.004825 -0.000883 61247.900000 1 0 0
6.195923 6.652284 -17.230455 19.481553 0.820903 2.656110 0.011598 -0.006354 130777.000000 1 0 0
8.702023 1.232384 -20.087355 21.925916 0.140685 2.729156 0.022990 -0.005115 163922.000000 1 0 0
-0.964677 -0.763416 -20.190555 20.227998 0.669456 3.080738 0.021322 -0.013932 244786.000000 1 0 0
-1.010577 6.850784 -19.558955 20.748668 -1.424340 2.801311 0.015968 -0.005028 64413.700000 1 0 0
8.318423 6.147984 -17.619855 20.431670 0.636476 2.610748 0.007347 -0.014954 86157.300000 1 0 0
11.800523 0.191284 -12.734255 17.362321 0.016208 2.394168 -0.023902 -0.008301 -124914.000000 1 0 0
-3.891477 -2.615416 -19.729255 20.278745 0.591747 2.908268 -0.017095 -0.011318 378517.000000 1 0 0
5.439823 -11.182216 -14.391455 19.019664 -1.118030 2.428989 -0.010374 -0.004734 25970.100000 1 0 0
11.514523 2.733584 -15.963555 19.871885 0.233088 2.503652 0.015741 -0.001049 -103372.000000 1 0 0
-2.704777 -4.217416 -17.229055 17.942763 1.000537 2.858596 -0.008653 -0.005082 223669.000000 1 0 0
-7.040977 -5.047816 -17.637655 19.650514 0.621992 2.685016 0.023961 -0.007022 64861.300000 1 0 0
2.733123 10.810784 -15.532455 19.120674 1.323171 2.518947 -0.007156 0.003291 246637.000000 1 0 0
16.741423 -6.280416 -10.989655 20.987886 -0.358895 2.121890 0.004901 -0.007135 -147639.000000 1 0 0
9.689023 -3.198816 -17.699755 20.430147 -0.318881 2.618653 0.010113 -0.003931 -54123.400000 1 0 0
-7.091977 -1.806016 -19.006755 20.366997 0.249356 2.774051 -0.011132 0.004589 551186.000000 1 0 0
1.910823 -7.598816 -19.393655 20.916671 -1.324441 2.757627 0.004141 -0.008514 230369.000000 1 0 0
5.841323 10.738884 -14.033455 18.611355 1.072617 2.424967 0.002006 -0.001215 352951.000000 1 0 0
6.119923 -3.914816 -18.088255 19.492671 -0.569089 2.759675 0.012584 -0.009089 601957.000000 1 0 0
4.556923 13.457984 -14.435155 20.254791 1.244310 2.364106 -0.004376 -0.009512 78580.600000 1 0 0
8.980223 11.185984 -15.369655 21.023723 0.894344 2.390674 0.017861 -0.013061 -15516.900000 1 0 0
17.012423 0.804384 -11.544755 20.575493 0.047247 2.166501 0.002888 0.002993 215287.000000 1 0 0
14.226023 -2.329716 -12.735755 19.235560 -0.162324 2.294406 -0.006151 0.003410 30198.200000 1 0 0
-8.562577 0.322584 -17.423055 19.416092 -0.037656 2.684527 -0.012433 -0.001210 431327.000000 1 0 0
-3.479877 4.588584 -18.875555 19.734519 -0.921955 2.845466 0.015388 -0.002701 75694.400000 1 0 0
4.104123 2.027384 -17.038055 17.642263 0.458826 2.879124 0.011846 -0.004990 478054.000000 1 0 0
-4.906077 14.312884 -14.009355 20.620142 -1.240574 2.317743 -0.002748 -0.001925 297880.000000 1 0 0
1.163223 9.186184 -17.832755 20.093437 1.444839 2.662669 0.012584 -0.005354 349807.000000 1 0 0
1.260523 -5.348216 -19.991155 20.732550 -1.339330 2.873357 0.011404 0.003241 518492.000000 1 0 0
3.616823 -6.271716 -18.225355 19.610696 -1.047695 2.763466 0.009555 -0.009189 -157908.000000 1 0 0
-7.275777 7.419184 -16.005355 19.082783 -0.795157 2.565748 -0.004107 0.005217 47968.400000 1 0 0
-11.723777 3.011684 -17.116355 20.963941 -0.251450 2.526061 0.029011 -0.006840 372450.000000 1 0 0
-4.330077 6.828084 -17.273555 19.072179 -1.005639 2.703810 -0.002063 0.009008 473855.000000 1 0 0
-8.163377 4.976184 -17.654755 20.077189 -0.547430 2.645279 -0.003002 -0.000381 261249.000000 1 0 0
-8.281077 4.036184 -15.094455 17.683597 -0.453516 2.593625 -0.020506 -0.006710 385296.000000 1 0 0
9.364523 14.368784 -12.098555 20.988837 0.993208 2.185147 0.012407 -0.003698 442185.000000 1 0 0
14.123423 9.484084 -12.082455 20.866352 0.591351 2.188347 0.025073 -0.005172 -21134.000000 1 0 0
8.685323 15.458884 -9.901555 20.308932 1.058913 2.080074 0.003955 -0.008633 -54930.800000 1 0 0
7.772023 13.926084 -14.399555 21.486911 1.061762 2.305214 0.011297 -0.007694 181810.000000 1 0 0
4.287223 15.823684 -13.096255 20.982877 1.306211 2.244827 -0.005562 -0.004599 232560.000000 1 0 0
11.140323 11.364884 -10.670255 19.160420 0.795376 2.161434 0.016999 -0.026665 241869.000000 1 0 0
15.997323 10.568884 -10.490555 21.855603 0.583837 2.071444 0.046073 -0.000978 94583.200000 1 0 0
13.747323 11.639984 -9.784455 20.499114 0.702580 2.068389 0.058528 -0.003108 -132599.000000 1 0 0
10.409723 11.508384 -7.579555 17.270057 0.835482 2.025153 0.011345 -0.005514 -39098.400000 1 0 0
5.549423 17.087184 -10.073755 20.597293 1.256772 2.081833 0.009579 -0.001800 113216.000000 1 0 0
11.602623 14.014884 -10.384555 20.949387 0.879286 2.089434 0.034396 -0.006757 93406.800000 1 0 0
7.833423 -19.409816 -1.845755 21.012146 -1.187207 1.658752 0.015312 0.001361 284082.000000 1 0 0
7.377623 -16.569116 -3.935855 18.559523 -1.151888 1.784486 0.016161 -0.016764 232884.000000 1 0 0
3.825923 -18.637416 5.192345 19.721851 -1.368327 1.304377 0.030474 -0.022422 41896.500000 1 0 0
10.155823 -17.918016 -2.986755 20.811457 -1.055151 1.714809 0.017775 0.004998 603170.000000 1 0 0
-3.399277 -14.751216 7.879645 17.065822 1.344310 1.090862 0.015165 -0.031733 72188.200000 1 0 0
-15.303877 -12.767516 -4.113855 20.350478 0.695289 1.774349 -0.006554 0.002113 147983.000000 1 0 0
-9.233077 -12.796116 -7.369455 17.415487 0.945751 2.007721 0.022356 -0.008969 92864.100000 1 0 0
-11.360177 -15.700416 6.875245 20.562726 0.944433 1.229876 0.007415 0.005854 179638.000000 1 0 0
-14.238677 -8.537716 -8.303655 18.562953 0.540136 2.034567 -0.009771 0.001956 -64050.300000 1 0 0
4.238723 -14.963316 6.196745 16.741184 -1.294754 1.191626 0.009498 -0.020836 82916.200000 1 0 0
2.476023 -14.198916 9.134245 17.063831 -1.398151 1.005935 0.010257 -0.005062 391477.000000 1 0 0
3.265623 -17.422716 10.524745 20.615179 -1.385511 1.034991 0.027074 -0.005640 250739.000000 1 0 0
-7.525677 -17.288616 -5.179955 19.554130 1.160237 1.838900 -0.022779 -0.014563 -91359.400000 1 0 0
1.910023 -19.920616 -4.067655 20.421189 -1.475207 1.771326 0.015852 -0.000859 120519.000000 1 0 0
-16.741777 -10.496016 -2.878155 19.968406 0.559990 1.715436 -0.111688 -0.003631 -101982.000000 1 0 0
-4.319177 -14.941016 2.912945 15.823227 1.289386 1.385647 0.004421 -0.001947 78302.300000 1 0 0
-10.947777 -10.202116 -14.548255 20.870763 0.750157 2.342091 0.029503 0.001431 -51972.300000 1 0 0
0.379623 -20.296216 2.376145 20.438360 -1.552094 1.454274 0.014433 -0.013200 252886.000000 1 0 0
6.864023 -18.397216 0.900445 19.656632 -1.213691 1.524972 0.021834 -0.003527 291406.000000 1 0 0
-7.826177 -19.022616 -3.569355 20.877004 1.180489 1.742611 0.008044 -0.013886 104589.000000 1 0 0
-9.389677 -15.818416 -7.544455 19.882332 1.035102 1.960004 0.037438 -0.008178 104702.000000 1 0 0
-11.932277 -11.314216 -12.382955 20.584662 0.758817 2.216252 0.034175 0.009034 128337.000000 1 0 0
-13.446977 -15.096216 -3.580655 20.531392 0.843114 1.746092 -0.002384 -0.001441 136242.000000 1 0 0
-1.119677 -20.388416 -2.409155 20.560769 1.515934 1.688239 0.004016 -0.010884 440286.000000 1 0 0
-12.200277 -16.775516 -0.765555 20.756946 0.942004 1.607687 0.011830 -0.001730 247820.000000 1 0 0
0.798723 -19.983116 5.232445 20.672237 -1.530848 1.314898 0.019864 -0.015814 240334.000000 1 0 0
-18.162977 -8.774816 2.457245 20.320659 0.450049 1.449576 0.005953 0.001929 -184762.000000 1 0 0
-14.962977 -14.829916 -0.596055 21.075398 0.780932 1.599082 -0.009462 0.002046 -59627.000000 1 0 0
10.195823 -15.483816 -5.262355 19.271631 -0.988481 1.847371 0.015390 -0.000381 -158511.000000 1 0 0
-0.141377 -19.015616 -7.181755 20.327106 1.563362 1.931902 -0.006553 0.005398 224291.000000 1 0 0
-10.101477 -17.880516 -3.128855 20.773600 1.056553 1.721989 0.015609 0.024000 437161.000000 1 0 0
-14.921677 -6.550716 -11.383255 19.878301 0.413674 2.180528 0.027047 0.000491 137595.000000 1 0 0
-12.278277 -15.217416 2.233845 19.680343 0.891888 1.457045 0.006151 -0.001215 263792.000000 1 0 0
-2.711877 -16.286916 9.974345 19.290036 1.405803 1.027369 -0.002055 -0.010258 223141.000000 1 0 0
-12.240177 -14.370116 -6.780955 20.057506 0.865270 1.915668 0.006125 -0.004062 207184.000000 1 0 0
5.598423 -16.937616 -7.027355 19.173130 -1.251569 1.946063 0.012628 -0.006552 17751.200000 1 0 0
-17.453377 -7.249316 -2.880255 19.117239 0.393671 1.722035 -0.022284 0.000018 -29482.400000 1 0 0
-12.528077 -13.146416 -9.487555 20.488892 0.809477 2.052239 0.056256 -0.025689 227927.000000 1 0 0
-7.154477 -14.745216 9.122345 18.757002 1.119053 1.062896 0.008387 0.002135 346605.000000 1 0 0
-15.602477 -7.767316 -5.738355 18.349311 0.461907 1.888861 -0.003924 0.000008 101595.000000 1 0 0
-0.841277 -19.688916 -0.133655 19.707335 1.528094 1.577578 0.015464 -0.008591 144460.000000 1 0 0
-14.886177 -11.269716 -1.745855 18.752408 0.648004 1.664032 -0.013236 0.000499 163265.000000 1 0 0
-6.761277 -18.645216 1.014945 19.859231 1.222916 1.519667 0.002183 -0.019344 88826.600000 1 0 0
-2.362877 -20.778016 -5.294855 21.571848 1.457563 1.818782 -0.007480 0.002786 206676.000000 1 0 0
-9.479477 -19.520916 -0.873555 21.718420 1.118730 1.611029 0.017810 -0.009178 108264.000000 1 0 0
-17.727677 -7.461816 5.114245 19.902380 0.398404 1.310914 0.009254 -0.000670 25088.400000 1 0 0
-2.777877 -15.684716 -10.958755 19.334457 1.395507 2.173412 -0.004508 0.003564 56458.200000 1 0 0
-3.084777 -18.377116 -8.347255 20.418397 1.404487 1.991947 -0.007314 0.012209 159133.000000 1 0 0
3.795523 -17.710016 -6.201155 19.144320 -1.359675 1.900662 0.005439 0.025400 310647.000000 1 0 0
0.625723 -17.410216 -9.812955 19.995031 -1.534872 2.083769 -0.006477 0.011385 18083.500000 1 0 0
-7.402277 -11.102416 -13.820855 19.211283 0.982752 2.373754 0.000959 -0.038660 164197.000000 1 0 0
-5.197177 -19.545716 -1.932355 20.316980 1.310911 1.666051 0.010985 -0.009099 386721.000000 1 0 0
-10.114277 -14.858616 8.895845 20.055252 0.973140 1.111222 0.005818 -0.023783 202986.000000 1 0 0
-7.391777 -14.709416 -10.157655 19.343817 1.105135 2.123642 0.026182 -0.023157 141880.000000 1 0 0
-12.718577 -8.167716 -12.377455 19.536509 0.570864 2.256936 0.017586 0.003377 382090.000000 1 0 0
-15.481177 -12.900816 3.564945 20.464768 0.694732 1.395704 -0.006416 0.003522 180241.000000 1 0 0
-5.948777 -14.235516 -13.320455 20.383140 1.174969 2.283000 -0.013232 0.000352 290174.000000 1 0 0
-14.215577 -11.516516 -6.635555 19.461330 0.680889 1.918735 0.015558 -0.007212 177299.000000 1 0 0
-11.680777 -10.557816 -7.819655 17.579962 0.734945 2.031753 0.025135 -0.008386 75772.400000 1 0 0
-9.843677 -14.606716 3.597645 17.977686 0.977793 1.369319 0.004082 -0.002987 448870.000000 1 0 0
4.896523 -18.023816 8.305145 20.440385 -1.305529 1.152384 0.042605 -0.023475 202746.000000 1 0 0
-5.137977 -16.703316 5.284845 18.257305 1.272380 1.277129 0.014928 0.003631 476572.000000 1 0 0
-18.361577 -7.313716 -7.016455 20.973045 0.379054 1.911920 -0.004390 0.003299 124204.000000 1 0 0
-17.024877 -3.482016 -10.875055 20.499700 0.201743 2.129985 0.015324 -0.004580 -272443.000000 1 0 0
-15.600977 -3.924616 -13.414755 20.946331 0.246448 2.265860 0.009752 0.005023 293441.000000 1 0 0
-19.488077 -5.216116 -5.847155 21.004339 0.261527 1.852902 0.026236 0.002180 -73570.900000 1 0 0
5.167223 -13.640916 8.582745 16.924488 -1.208696 1.038956 0.017438 -0.005779 301292.000000 1 0 0
19.912123 -3.510716 2.969945 20.436201 -0.174517 1.424952 0.029852 -0.000900 -69200.800000 1 0 0
18.075323 -2.384016 0.322945 18.234723 -0.131137 1.553085 0.031049 -0.004896 91006.400000 1 0 0
14.429323 -11.615716 0.121345 18.524172 -0.677787 1.564246 0.028408 0.004105 140549.000000 1 0 0
11.088823 -13.898616 5.196145 18.523861 -0.897376 1.286470 0.017905 -0.003247 385454.000000 1 0 0
9.880023 -13.300816 8.848745 18.783686 -0.931911 1.080274 0.018274 -0.008918 288945.000000 1 0 0
18.491823 3.627384 -4.216555 19.310224 0.193702 1.790929 0.026072 0.000043 -74760.600000 1 0 0
18.689423 -6.145216 -5.291555 20.372991 -0.317671 1.833543 0.021491 -0.000115 -160337.000000 1 0 0
17.665423 -10.107216 -0.363355 20.355712 -0.519687 1.588648 0.025099 0.000963 447291.000000 1 0 0
17.364123 -9.070716 8.354245 21.297513 -0.481393 1.167705 0.058055 -0.017108 44004.500000 1 0 0
20.207123 0.155684 -2.145155 20.321263 0.007704 1.676555 0.050135 0.003909 -19971.700000 1 0 0
7.557923 -13.575616 11.090045 19.089491 -1.062803 0.950901 0.017195 0.000283 461250.000000 1 0 0
15.877923 -6.648516 -3.297155 17.526621 -0.396545 1.760047 0.011847 0.001511 403090.000000 1 0 0
14.347623 -6.796116 11.834145 19.801224 -0.442367 0.930233 0.030332 -0.026781 411265.000000 1 0 0
16.443823 1.505384 10.910345 19.791440 0.091293 0.986916 0.038719 -0.005478 286997.000000 1 0 0
16.803923 -10.514516 2.735545 20.010249 -0.559115 1.433660 0.032120 -0.002068 229015.000000 1 0 0
15.952523 -7.199216 -5.934655 18.480580 -0.423926 1.897718 0.009781 0.003231 151404.000000 1 0 0
18.874623 -5.049416 5.581245 20.319899 -0.261403 1.292551 0.143576 -0.015226 -268690.000000 1 0 0
13.205323 -13.683416 7.876745 20.582991 -0.803177 1.178099 0.019722 -0.009769 177647.000000 1 0 0
14.948323 -14.599416 -1.711455 20.964837 -0.773590 1.652522 0.007549 0.005505 152893.000000 1 0 0
18.410923 -6.146616 8.506045 21.191880 -0.322222 1.157771 0.038504 -0.011960 287863.000000 1 0 0
19.570223 3.469684 2.825645 20.075273 0.175471 1.429575 0.021951 0.000533 203228.000000 1 0 0
15.304723 -11.294816 7.994145 20.632832 -0.635774 1.172935 0.027277 -0.017804 277566.000000 1 0 0
13.998523 -4.657516 10.759345 18.259644 -0.321194 0.940676 0.025018 -0.010937 -103743.000000 1 0 0
18.644823 -7.929016 2.068345 20.366069 -0.402096 1.469063 0.024983 -0.004380 128092.000000 1 0 0
18.942423 -5.671016 -1.330055 19.817791 -0.290890 1.637961 0.020295 -0.000022 35519.700000 1 0 0
14.411723 -13.805316 -5.953755 20.826226 -0.763911 1.860719 0.000642 -0.002831 397077.000000 1 0 0
13.812723 -9.643016 10.182345 19.683984 -0.609467 1.027114 0.022158 -0.016504 604122.000000 1 0 0
14.193223 2.363984 0.557345 14.399535 0.165042 1.532081 0.003080 -0.000508 -230757.000000 1 0 0
12.603523 3.013384 13.823645 18.947887 0.234685 0.753116 -0.004200 -0.003106 141215.000000 1 0 0
18.181423 -3.527916 8.881345 20.539927 -0.191658 1.123650 0.033176 -0.021633 150769.000000 1 0 0
6.936523 -18.202316 4.946745 20.097511 -1.206707 1.322104 0.017646 -0.021860 351260.000000 1 0 0
12.182823 -3.153216 15.360345 19.857093 -0.253267 0.686381 0.013607 0.017127 234926.000000 1 0 0
12.146123 -14.068616 -7.369355 19.994040 -0.858603 1.948275 0.025687 0.005332 195844.000000 1 0 0
10.706123 -17.973816 4.481045 21.395301 -1.033581 1.359793 0.022597 -0.009665 541586.000000 1 0 0
18.295723 -0.160416 -5.128355 19.001558 -0.008768 1.844076 0.026382 -0.007935 225156.000000 1 0 0
4.166223 -13.686416 11.557645 18.391698 -1.275303 0.891281 0.007243 -0.002674 51128.200000 1 0 0
9.010623 -2.683716 14.235045 17.059606 -0.289473 0.583699 -0.004948 -0.000231 344543.000000 1 0 0
8.874223 -9.402316 13.948945 19.019160 -0.814285 0.747464 0.011459 -0.005148 400072.000000 1 0 0
20.927923 5.594984 -3.021855 21.872663 0.261236 1.709396 0.007221 0.005173 471128.000000 1 0 0
14.653023 -13.567316 1.624245 20.035501 -0.746945 1.489639 0.017191 -0.004908 106164.000000 1 0 0
10.941123 0.034884 14.152745 17.888811 0.003188 0.658108 0.008280 -0.018491 119001.000000 1 0 0
19.116523 0.370584 7.850945 20.669207 0.019383 1.181175 0.031670 -0.015010 70286.600000 1 0 0
19.995723 1.195384 0.307845 20.033787 0.059711 1.555429 0.035753 0.002266 262519.000000 1 0 0
17.799823 0.149384 3.225445 18.090315 0.008392 1.391541 0.018457 -0.001173 9575.320000 1 0 0
10.252523 -8.451216 16.377545 21.089364 -0.689387 0.681580 0.023635 -0.001199 55884.500000 1 0 0
19.559423 2.641784 5.331845 20.444525 0.134252 1.306950 0.059411 -0.012789 108402.000000 1 0 0
15.103823 2.425984 7.202645 16.908251 0.159260 1.130747 0.013229 -0.010269 69128.500000 1 0 0
11.154223 -16.131016 2.078045 19.721679 -0.965814 1.465232 -0.002538 0.002824 84496.900000 1 0 0
8.640723 -16.321516 6.912145 19.718817 -1.083901 1.212654 0.021652 -0.008039 305019.000000 1 0 0
6.040123 6.779584 7.145645 11.554483 0.843016 0.904052 -0.000205 0.000009 -804981.000000 1 0 0
18.386723 2.821984 -6.507555 19.707446 0.152291 1.907320 -0.002395 0.001842 253127.000000 1 0 0
14.375023 4.467084 -7.201055 16.686860 0.301293 2.016996 0.016485 -0.006785 327292.000000 1 0 0
-10.440177 -3.985316 -13.567255 17.576987 0.364657 2.452583 0.012771 -0.009998 -118152.000000 1 0 0
7.830623 -13.857116 -10.439355 19.034665 -1.056436 2.151293 -0.001337 0.001298 54238.800000 1 0 0
2.074023 -15.888616 14.189945 21.403370 -1.440995 0.846008 0.005328 0.002068 211268.000000 1 0 0
-9.391977 -7.651416 2.059345 12.287974 0.683626 1.402411 0.008829 0.005047 266248.000000 1 0 0
-13.819977 3.089284 -9.902355 17.279817 -0.219922 2.181030 0.012026 0.001760 252009.000000 1 0 0
-13.370077 -5.353316 -12.942155 19.362757 0.380847 2.302858 0.035848 0.000819 -67085.200000 1 0 0
-17.915377 -0.336016 -7.996855 19.622012 0.018754 1.990561 0.027548 -0.019485 504190.000000 1 0 0
-12.271877 15.287084 4.087545 20.025033 -0.894374 1.365230 0.011279 -0.008717 360177.000000 1 0 0
-17.326177 6.759384 9.084945 20.698355 -0.371965 1.116399 0.006795 -0.002915 82721.000000 1 0 0
-13.764277 15.447884 0.128845 20.690796 -0.842968 1.564569 0.032550 -0.013602 112097.000000 1 0 0
-16.301377 5.516284 -10.626155 20.225713 -0.326298 2.123956 0.038041 -0.000854 22655.300000 1 0 0
-18.421577 2.973184 -0.372155 18.663677 -0.160017 1.590738 0.040625 -0.000487 -208705.000000 1 0 0
-9.583377 15.595784 -0.140855 18.305448 -1.019794 1.578491 0.015473 -0.002466 -160519.000000 1 0 0
-18.069377 12.474684 2.563745 22.106400 -0.604238 1.454562 0.045540 -0.007101 19824.700000 1 0 0
-8.476577 16.331784 -7.548655 19.888733 -1.092046 1.960100 0.034045 -0.019030 -66385.500000 1 0 0
-14.668177 -1.565416 -13.029255 19.681652 0.106320 2.294280 0.001209 -0.014806 185442.000000 1 0 0
-18.700477 5.525484 -5.004555 20.131676 -0.287298 1.822022 0.011918 0.002655 -99246.500000 1 0 0
-16.380177 10.180984 -5.203255 19.975898 -0.556109 1.834312 0.013655 0.020044 -28932.400000 1 0 0
-18.863577 1.236184 2.550445 19.075311 -0.065439 1.436691 0.020006 -0.010236 247979.000000 1 0 0
-13.199077 12.224884 -6.798255 19.232257 -0.747099 1.932087 0.018382 -0.007603 -283340.000000 1 0 0
-13.227377 5.554784 -13.307255 19.567886 -0.397582 2.318635 0.027946 -0.009084 -222905.000000 1 0 0
-14.121677 9.368184 -6.550055 18.168320 -0.585731 1.939622 0.020872 -0.007686 87024.800000 1 0 0
-6.393977 11.540884 -15.440855 20.309972 -1.064866 2.434509 -0.002609 -0.015718 -50417.800000 1 0 0
-14.999677 13.767284 3.103945 20.595215 -0.742584 1.419508 0.009398 -0.011261 -32308.900000 1 0 0
-18.777677 8.390584 -4.970955 21.159240 -0.420221 1.807944 0.035695 -0.000085 369716.000000 1 0 0
-3.962677 16.789584 -9.862855 19.871307 -1.339018 2.090170 -0.000851 -0.006272 -220348.000000 1 0 0
-19.396677 -2.541616 -6.429455 20.591960 0.130291 1.888337 0.014234 -0.004064 -70664.000000 1 0 0
-10.602477 14.114884 -6.314755 18.748829 -0.926556 1.914321 0.020530 -0.009896 151845.000000 1 0 0
-19.200077 3.313884 4.570745 20.012908 -0.170914 1.340373 0.023841 0.000316 85395.900000 1 0 0
-15.798577 12.774884 0.300745 20.319526 -0.679969 1.555995 0.039137 0.002532 94376.800000 1 0 0
-17.164677 2.035784 -9.578955 19.761755 -0.118052 2.076842 -0.007656 0.010484 201779.000000 1 0 0
-16.761777 13.890784 -3.923555 22.120247 -0.692008 1.749114 0.030077 0.031305 360967.000000 1 0 0
-10.120277 15.657584 -8.749055 20.594317 -0.996991 2.009569 0.009393 -0.008531 -53378.200000 1 0 0
-19.198377 2.417184 -6.546255 20.427284 -0.125247 1.897018 0.026680 -0.002940 113994.000000 1 0 0
-17.451077 10.590284 -0.547155 20.420421 -0.545445 1.597594 0.036887 0.007811 -13230.700000 1 0 0
-11.417777 6.634484 -14.817155 19.847672 -0.526381 2.413648 0.005800 -0.006873 211139.000000 1 0 0
-13.562677 12.224084 -4.400955 18.781450 -0.733535 1.807320 0.041448 -0.016525 41045.700000 1 0 0
-18.861477 7.720084 0.531245 20.387183 -0.388501 1.544736 0.028950 -0.001053 -80782.800000 1 0 0
-14.410577 9.005684 -10.187555 19.812959 -0.558553 2.110855 0.011354 -0.002745 554534.000000 1 0 0
-18.256277 11.376784 5.135045 22.115414 -0.557283 1.336465 0.011749 -0.021011 161051.000000 1 0 0
-8.160877 11.963884 -13.682755 19.923660 -0.972167 2.327817 -0.015257 -0.000450 414924.000000 1 0 0
-21.217777 -0.505716 -5.096555 21.827155 0.023830 1.806468 0.017105 -0.002900 325333.000000 1 0 0
-10.709677 13.454284 -3.208955 17.493208 -0.898496 1.755281 0.029491 -0.003456 459438.000000 1 0 0
-18.676877 -5.191316 3.752945 19.744876 0.271111 1.379561 0.010636 -0.003830 -135528.000000 1 0 0
-11.346277 11.519284 -13.018855 20.758673 -0.792964 2.248688 0.009658 -0.001313 148273.000000 1 0 0
-14.942877 11.383484 -9.838055 21.205203 -0.651010 2.053240 0.023837 -0.015296 258956.000000 1 0 0
-12.763577 9.646784 -13.734455 21.085649 -0.647206 2.280178 0.027356 -0.007909 277884.000000 1 0 0
-17.993777 -5.012016 -3.130055 18.939207 0.271656 1.736827 -0.025638 -0.003957 -223848.000000 1 0 0
-9.276277 12.431484 -11.512055 19.316276 -0.929737 2.209278 0.006432 -0.008680 -131713.000000 1 0 0
-15.452277 7.832484 -8.259255 19.192081 -0.469138 2.015674 -0.002016 0.005149 43739.400000 1 0 0
-14.534177 9.045684 2.051745 17.241704 -0.556708 1.451515 0.011336 -0.003671 -102909.000000 1 0 0
-19.654277 6.412684 7.922945 22.140149 -0.315384 1.204827 0.034096 -0.008957 284789.000000 1 0 0
-18.874877 6.123884 3.624245 20.171715 -0.313731 1.390146 0.016398 -0.001326 172631.000000 1 0 0
-14.583577 12.542884 6.005645 20.151239 -0.710311 1.268170 0.011501 -0.018972 19654.100000 1 0 0
17.803423 5.711284 5.537045 19.499730 0.310426 1.282880 -0.004165 -0.011557 193301.000000 1 0 0
18.323723 7.735984 0.609645 19.899144 0.399483 1.540155 0.018965 0.008522 -103893.000000 1 0 0
16.903323 4.235584 8.463645 19.372552 0.245522 1.118660 0.017922 -0.011912 -92672.800000 1 0 0
12.136023 13.113984 10.723945 20.838969 0.824110 1.030243 0.035780 -0.015939 58791.100000 1 0 0
15.479823 12.409384 4.448345 20.332375 0.675746 1.350231 0.021894 0.002205 169472.000000 1 0 0
5.123023 10.192384 14.496245 18.446440 1.105045 0.666717 -0.004470 -0.002393 186717.000000 1 0 0
12.976423 13.141184 -5.522255 19.276243 0.791707 1.861347 0.030432 -0.005614 79586.700000 1 0 0
17.373123 9.368984 -2.869455 19.945852 0.494576 1.715159 -0.015959 0.011892 -113086.000000 1 0 0
14.585423 7.753884 9.647645 19.129410 0.488621 1.042184 0.014337 -0.003252 203923.000000 1 0 0
4.862723 19.234784 -2.010755 19.941567 1.323176 1.671800 -0.008337 0.003916 578705.000000 1 0 0
-4.554777 19.585984 3.726845 20.451067 -1.342305 1.387540 -0.003931 0.014677 263121.000000 1 0 0
6.760823 13.828184 12.047045 19.546321 1.116055 0.906719 0.011865 0.013863 -697276.000000 1 0 0
0.485123 16.923784 -10.310355 19.823048 1.542139 2.117787 -0.003135 0.002487 -75594.500000 1 0 0
10.515723 9.831784 15.407845 21.086633 0.751798 0.751461 0.019225 -0.001982 62613.000000 1 0 0
-1.134077 12.123484 0.914245 12.210685 -1.477524 1.495854 -0.001941 0.000824 555327.000000 1 0 0
-4.619777 19.219284 -2.635155 19.941596 -1.334900 1.703328 -0.006982 0.015127 92155.500000 1 0 0
5.874823 18.437584 6.424645 20.389559 1.262334 1.250240 0.016215 -0.012569 147325.000000 1 0 0
11.006023 17.443984 -1.580955 20.686337 1.007940 1.647296 0.025737 -0.005694 207383.000000 1 0 0
18.225223 10.738484 3.177145 21.390840 0.532448 1.421716 0.003124 0.004285 254457.000000 1 0 0
11.388123 15.697684 7.230545 20.697521 0.943183 1.213926 0.022861 -0.005661 -95058.900000 1 0 0
18.112723 7.189284 -5.478255 20.242722 0.377848 1.844842 -0.007689 0.004811 411954.000000 1 0 0
0.597723 16.221484 11.155545 19.696192 1.533965 0.968689 -0.007240 0.028078 444446.000000 1 0 0
1.078123 20.269784 -2.006355 20.397351 1.517658 1.669319 -0.001969 0.004249 284028.000000 1 0 0
14.443423 9.772384 -1.168755 17.477927 0.594846 1.637717 0.020892 0.004054 -22658.100000 1 0 0
9.905523 17.614184 1.528445 20.266104 1.058513 1.495306 0.024289 -0.007396 223450.000000 1 0 0
0.329323 17.550784 -0.398155 17.558388 1.552035 1.593474 -0.006833 0.002042 78672.300000 1 0 0
-0.103777 20.971784 1.413745 21.019637 -1.565848 1.503487 0.011994 0.005602 258179.000000 1 0 0
6.255723 17.437384 -0.238655 18.527098 1.226345 1.583678 -0.007766 -0.011764 27403.100000 1 0 0
6.974123 18.781284 -2.905255 20.243901 1.215244 1.714806 -0.012749 -0.005369 -9550.710000 1 0 0
10.107123 9.587684 12.726445 18.869022 0.759030 0.830560 0.016023 -0.007509 211101.000000 1 0 0
13.441923 14.693384 8.408645 21.616802 0.829849 1.171265 0.036901 -0.007177 63596.200000 1 0 0
0.455923 17.659184 7.010345 19.005251 1.544984 1.193010 0.002939 0.003106 249806.000000 1 0 0
6.821123 18.075484 -7.706755 20.800118 1.209951 1.950360 -0.014857 -0.003706 60497.300000 1 0 0
-1.678577 18.395784 9.128645 20.604724 -1.479800 1.111813 0.055253 -0.015750 12973.900000 1 0 0
16.078323 6.994984 -7.910255 19.235758 0.410358 1.994596 0.022040 0.000954 -786257.000000 1 0 0
-5.033077 19.551184 -7.127755 21.409940 -1.318836 1.910193 -0.006294 -0.004086 236463.000000 1 0 0
4.145123 15.450484 10.069745 18.902361 1.308684 1.008980 0.005640 -0.007253 187613.000000 1 0 0
9.021623 14.713984 7.180045 18.693422 1.020776 1.176569 0.018966 -0.010095 -115113.000000 1 0 0
-2.663377 19.414484 6.532445 20.656442 -1.434462 1.249030 0.003462 0.003282 135099.000000 1 0 0
4.811523 17.886984 8.725745 20.475194 1.308021 1.130551 0.016274 -0.010872 275486.000000 1 0 0
13.876623 11.132684 -7.141155 19.170117 0.676119 1.952514 -0.037694 -0.027055 -83095.800000 1 0 0
11.511323 7.050684 15.632345 20.654125 0.549560 0.712296 0.011473 -0.003874 178047.000000 1 0 0
16.946723 8.737984 5.020945 19.716837 0.476061 1.313308 0.006934 -0.002931 255250.000000 1 0 0
4.672923 14.843984 12.053345 19.684085 1.265815 0.911780 -0.010049 -0.013618 275729.000000 1 0 0
16.998323 10.512684 -4.986855 20.599228 0.553878 1.815315 0.088300 0.025622 175819.000000 1 0 0
15.519523 13.316784 6.458245 21.445308 0.709159 1.264898 0.029505 -0.001941 -47861.300000 1 0 0
12.456123 14.546884 -7.572255 20.593831 0.862671 1.947326 0.034764 -0.003797 320243.000000 1 0 0
-7.851277 15.653084 9.631145 19.985508 -1.105885 1.067967 0.013740 -0.007607 252196.000000 1 0 0
-4.714377 16.688084 -7.274555 18.805229 -1.295471 1.967995 -0.002347 0.002611 39435.500000 1 0 0
2.219723 19.225984 -4.727955 19.922831 1.455851 1.810396 -0.014164 -0.015585 30286.800000 1 0 0
7.409523 16.069584 9.051145 19.876010 1.138758 1.097997 0.026821 -0.022533 465340.000000 1 0 0
13.331423 15.496384 -1.411655 20.490425 0.860357 1.639744 0.049001 -0.006798 217190.000000 1 0 0
12.914323 16.674984 4.363445 21.537745 0.911816 1.366789 0.037919 -0.014328 338216.000000 1 0 0
2.813323 18.416584 0.432445 18.635245 1.419208 1.547588 0.004282 -0.002168 141600.000000 1 0 0
-6.758977 18.003984 1.346045 19.277942 -1.211661 1.500916 -0.024014 0.023416 250298.000000 1 0 0
-0.413177 20.270984 -6.521655 21.298251 -1.550416 1.882001 -0.000846 0.016365 241963.000000 1 0 0
-7.390477 17.845584 -6.296455 20.315742 -1.178164 1.885916 0.019202 -0.010417 7172.030000 1 0 0
-7.057377 18.623784 -1.114555 19.947284 -1.208572 1.626700 0.000770 0.005417 28706.800000 1 0 0
-14.538277 -9.737516 8.993245 19.673820 0.590158 1.096045 0.005002 0.013712 393759.000000 1 0 0
-13.103077 -13.648016 7.711445 20.430990 0.805766 1.183768 0.004020 0.002146 -81907.800000 1 0 0
-3.478877 -16.081616 12.594445 20.720546 1.357753 0.917479 -0.005167 0.004253 98804.400000 1 0 0
-1.916377 -14.842316 15.705045 21.693669 1.442391 0.761291 -0.010717 0.009914 430075.000000 1 0 0
-7.712477 -13.687616 13.129645 20.474880 1.057675 0.874662 0.000257 0.000622 13254.500000 1 0 0
-9.907477 -10.671316 11.996245 18.866504 0.822499 0.881689 0.018542 -0.005609 111091.000000 1 0 0
-7.279477 -10.635016 13.543945 18.695796 0.970561 0.760578 0.015415 0.006204 374858.000000 1 0 0
-15.231977 -12.216716 7.686945 20.984528 0.675986 1.195751 0.001636 0.007802 266659.000000 1 0 0
-4.330777 -12.519616 13.543345 18.945148 1.237761 0.774356 0.000563 -0.000823 379508.000000 1 0 0
3.746323 -13.201416 14.120545 19.690153 -1.294284 0.771110 0.005938 0.023917 423145.000000 1 0 0
6.979223 -13.296016 14.831045 21.105769 -1.087419 0.791610 0.044130 0.002735 174645.000000 1 0 0
7.036823 -9.166816 16.882345 20.458763 -0.916100 0.600260 0.016603 0.002991 560497.000000 1 0 0
-4.663477 13.528684 13.658145 19.781765 -1.238842 0.808698 -0.014677 0.014542 505671.000000 1 0 0
-13.879677 -1.378916 16.869145 21.888694 0.099023 0.690891 0.017779 -0.021364 35495.000000 1 0 0
-10.104077 9.169284 13.120245 18.929051 -0.736934 0.804977 0.001382 -0.016448 286894.000000 1 0 0
-6.793277 -8.306416 17.197345 20.270517 0.885275 0.557856 0.012498 -0.002664 -12875.400000 1 0 0
-5.009877 2.234084 18.030345 18.846308 -0.419469 0.295336 0.004619 -0.004477 619107.000000 1 0 0
-14.899877 -3.644316 14.841545 21.343824 0.239878 0.801882 -0.011936 0.001431 -3604.800000 1 0 0
-14.626677 2.300884 12.103045 19.123741 -0.156029 0.885528 -0.005115 -0.014758 121597.000000 1 0 0
-13.277777 10.595584 10.410845 19.923641 -0.673516 1.020972 -0.075535 0.023904 -49776.300000 1 0 0
-4.167677 11.204984 15.593845 19.649153 -1.214704 0.654070 -0.008001 0.002344 251332.000000 1 0 0
-13.515777 12.685584 8.339745 20.326131 -0.753724 1.148017 0.010806 -0.029135 157525.000000 1 0 0
-3.967177 -6.249816 18.545645 19.968466 1.005204 0.379779 0.016838 -0.009850 242158.000000 1 0 0
0.612823 -2.775216 17.836745 18.061751 -1.353464 0.158010 0.005128 -0.017822 95629.600000 1 0 0
-4.553077 6.282184 21.306045 22.674741 -0.943645 0.349226 0.010016 0.003871 269162.000000 1 0 0
1.796923 -10.994216 16.573045 19.969165 -1.408786 0.591811 -0.009118 0.011998 364320.000000 1 0 0
-15.073777 -0.368516 14.079545 20.629788 0.024443 0.819638 -0.016006 0.003867 195751.000000 1 0 0
-14.273977 -5.933216 8.348245 17.568229 0.393939 1.075616 0.010552 0.001555 237279.000000 1 0 0
9.976723 0.502584 16.994845 19.713253 0.050333 0.531392 0.010713 0.017899 589669.000000 1 0 0
-7.641977 12.415184 12.247745 19.040585 -1.019032 0.872068 0.016911 0.001055 160329.000000 1 0 0
-1.906577 7.501384 19.855645 21.310852 -1.321903 0.371689 -0.008532 -0.008614 379830.000000 1 0 0
1.053523 -13.629816 15.606645 20.747269 -1.493654 0.719362 -0.013883 0.005777 453892.000000 1 0 0
-3.283377 -11.496516 17.851745 21.485699 1.292605 0.590134 0.004000 -0.006557 427146.000000 1 0 0
-2.045977 8.482684 16.783945 18.916732 -1.334122 0.479439 -0.017052 -0.004160 205221.000000 1 0 0
-4.214877 -9.570716 20.543045 23.051692 1.155960 0.470872 0.015745 -0.005986 211833.000000 1 0 0
-6.592577 -2.960416 19.137445 20.456489 0.422066 0.361070 0.013709 -0.008834 -89337.900000 1 0 0
-11.302177 -8.057816 15.666045 20.930661 0.619360 0.725039 0.077322 -0.010987 419248.000000 1 0 0
-0.118677 6.424384 17.689545 18.820382 -1.552325 0.348417 -0.005570 -0.006860 187518.000000 1 0 0
-5.922777 -11.221216 19.135245 22.959804 1.085142 0.585522 0.014470 -0.001359 369895.000000 1 0 0
0.403223 3.329284 18.785945 19.082936 1.450269 0.176656 0.004596 -0.003945 124774.000000 1 0 0
-18.114177 -0.731316 7.639645 19.672885 0.040351 1.171974 -0.001193 0.002152 62575.900000 1 0 0
-1.625677 -8.665216 17.508345 19.602830 1.385343 0.466487 -0.000732 -0.002154 332321.000000 1 0 0
5.498523 3.449784 14.908145 16.259998 0.560325 0.410653 -0.003484 -0.006420 334549.000000 1 0 0
-13.331777 -6.274816 10.462645 18.071429 0.439906 0.953343 -0.020678 -0.003483 -31249.300000 1 0 0
3.207323 7.965984 17.173345 19.200719 1.188027 0.463683 -0.002093 0.004581 113814.000000 1 0 0
6.301823 4.377084 18.047945 19.611225 0.607075 0.401984 0.007248 -0.009381 417823.000000 1 0 0
5.217523 -9.293616 18.363045 21.231940 -1.059236 0.525888 0.011349 0.013212 385758.000000 1 0 0
-4.288277 -0.367516 20.145445 20.600081 0.085494 0.210482 0.000270 0.002869 667727.000000 1 0 0
-11.220177 2.185884 16.678345 20.219734 -0.192407 0.600851 0.031916 -0.017308 105437.000000 1 0 0
-16.869977 -3.976316 8.754045 19.417532 0.231479 1.103099 0.019927 -0.007926 480056.000000 1 0 0
-12.944677 -9.491516 12.120945 20.113947 0.632686 0.924024 -0.004240 -0.009567 138427.000000 1 0 0
-14.491177 5.991984 13.350945 20.594801 -0.392083 0.865489 -0.011328 -0.004654 238648.000000 1 0 0
0.791123 9.507084 17.512145 19.942059 1.487774 0.498812 -0.025573 0.012052 116363.000000 1 0 0
-3.846977 -10.409716 15.120845 18.756369 1.216807 0.633144 0.010732 -0.000457 578949.000000 1 0 0
-18.661877 -2.974816 6.302745 19.920838 0.158076 1.248875 0.085662 -0.017834 -335112.000000 1 0 0
-0.845277 -0.699816 20.998745 21.027399 0.691531 0.052212 0.009857 -0.007016 342297.000000 1 0 0
-1.917977 2.434284 20.267545 20.503116 -0.903476 0.151734 0.000565 -0.008058 148291.000000 1 0 0
-7.939077 2.015784 16.251145 18.198683 -0.248652 0.466863 0.000617 0.001763 536638.000000 1 0 0
2.750223 -2.165016 18.853645 19.175791 -0.666896 0.183558 0.002084 -0.006878 22151.500000 1 0 0
-12.846077 4.292184 14.387445 19.759634 -0.322462 0.755217 0.005208 -0.005967 161462.000000 1 0 0
-13.339977 -5.657316 13.437245 19.761573 0.401097 0.823077 0.004796 0.004016 -36905.400000 1 0 0
-17.313277 -1.074416 9.543345 19.798469 0.061978 1.067833 0.009672 -0.010329 -99823.700000 1 0 0
-7.127777 7.933484 14.975545 18.385111 -0.838842 0.618848 0.003776 -0.000796 -81287.200000 1 0 0
-9.508277 0.852084 13.923545 16.881898 -0.089376 0.601015 0.007623 -0.007952 199431.000000 1 0 0
7.354523 -0.740816 14.989445 16.712907 -0.100391 0.458136 -0.006516 -0.002614 171998.000000 1 0 0
3.585623 6.077384 18.431345 19.735900 1.037766 0.365628 -0.006677 -0.006869 1422.190000 1 0 0
1.519523 0.388184 20.146145 20.207098 0.250115 0.077691 0.001760 0.001598 160017.000000 1 0 0
-7.181677 7.048584 17.735245 20.391124 -0.776046 0.516094 0.012016 -0.002935 773896.000000 1 0 0
7.723123 -3.330916 16.642045 18.646696 -0.407187 0.467954 0.003360 0.001709 479060.000000 1 0 0
-16.208477 2.587284 9.405745 18.917632 -0.158290 1.050434 0.000603 -0.003633 217684.000000 1 0 0
4.315823 -5.911416 18.978245 20.340721 -0.940165 0.368087 0.019598 -0.014067 104386.000000 1 0 0
-3.657077 -3.643216 20.628345 21.264427 0.783499 0.245207 0.010801 -0.008423 373005.000000 1 0 0
-9.592977 6.021084 14.464445 18.371141 -0.560507 0.664304 0.001363 -0.008609 -153592.000000 1 0 0
6.644823 2.527284 19.705245 20.948449 0.363443 0.346244 0.026400 -0.018165 99265.800000 1 0 0
-6.812477 11.225484 14.158645 19.310323 -1.025336 0.747756 -0.001967 -0.011718 281350.000000 1 0 0
-14.450077 5.102684 8.890045 17.716518 -0.339456 1.045125 -0.008544 -0.014515 271902.000000 1 0 0
0.914523 -5.558416 20.325245 21.091418 -1.407728 0.270364 0.001925 -0.011153 290815.000000 1 0 0
-5.812177 -8.292116 13.930345 17.221937 0.959448 0.628565 0.006886 -0.001759 342833.000000 1 0 0
-12.585177 10.053184 6.366545 17.320106 -0.674016 1.194390 -0.021655 -0.022776 81684.900000 1 0 0
-19.238477 2.112884 7.785545 20.861400 -0.109388 1.188337 -0.014854 -0.001440 160931.000000 1 0 0
-15.355577 8.979084 6.543545 18.953514 -0.529126 1.218300 -0.016158 -0.019436 131542.000000 1 0 0
-12.744977 7.714584 14.259245 20.622204 -0.544310 0.807301 0.002919 -0.011110 292003.000000 1 0 0
-16.282777 9.256484 9.945645 21.206772 -0.516923 1.082656 -0.003778 -0.024442 162713.000000 1 0 0
2.429923 10.184984 14.841145 18.163094 1.336595 0.614426 -0.018913 -0.027744 231167.000000 1 0 0
1.476723 14.238984 13.198245 19.471082 1.467456 0.825978 -0.008936 -0.018914 182857.000000 1 0 0
8.362123 5.221684 16.623845 19.327268 0.558200 0.535284 -0.001643 -0.003072 69765.800000 1 0 0
-0.446077 13.321784 13.194745 18.755538 -1.537324 0.790469 -0.014875 0.007933 24564.400000 1 0 0
3.978623 12.098384 14.740145 19.480046 1.253081 0.712578 -0.002111 -0.004085 64211.800000 1 0 0
-3.504277 -4.580316 -13.812655 14.968256 0.917718 2.746073 -0.002231 -0.003905 166916.000000 1 0 0
5.192223 -11.863716 16.792845 21.206286 -1.158255 0.656914 -0.025957 0.013825 270295.000000 1 0 0
8.612523 -14.058616 7.056745 17.933708 -1.021153 1.166371 0.006611 -0.003856 343175.000000 1 0 0
-0.461177 15.116884 0.389345 15.128928 -1.540298 1.545058 -0.000985 0.001426 -444748.000000 1 0 0
-14.104277 7.923284 8.401845 18.229099 -0.511831 1.091784 -0.005325 -0.012587 94669.000000 1 0 0
-16.178177 -9.435416 5.590345 19.545139 0.527989 1.280723 0.009803 0.001738 205237.000000 1 0 0
9.130323 -10.564216 11.491945 18.083978 -0.858077 0.882171 0.006806 0.008882 131742.000000 1 0 0
-24.722977 6.407084 31.430071 40.498465 -0.253576 0.682370 0.017126 0.001384 -157216.000000 0 0 1
-23.857377 5.298084 31.469441 39.844320 -0.218527 0.660297 0.019802 -0.001515 386348.000000 0 0 1
-22.785677 5.539584 32.396151 39.992308 -0.238490 0.626543 0.007776 0.001141 519503.000000 0 0 1
-21.493077 4.736984 32.112981 38.931156 -0.216928 0.600831 0.007898 -0.001496 -117197.000000 0 0 1
-21.546277 3.365684 32.333891 39.000646 -0.154955 0.593371 -0.004151 -0.005894 -124965.000000 0 0 1
-20.376377 2.755784 31.830611 37.894312 -0.134428 0.573543 -0.000538 -0.003655 129143.000000 0 0 1
-20.022577 1.520884 32.690361 38.365041 -0.075813 0.550836 -0.014521 0.000632 -353819.000000 0 0 1
-21.023777 0.576084 32.659321 38.845364 -0.027395 0.572126 -0.007466 0.009640 -228834.000000 0 0 1
-20.706877 -0.360216 33.650507 39.512797 0.017394 0.551698 -0.010775 0.007955 123300.000000 0 0 1
-21.209077 -1.806716 33.287241 39.511133 0.084981 0.568931 -0.008706 -0.011333 77144.500000 0 0 1
-20.349477 -2.458616 32.335401 38.284777 0.120237 0.564975 -0.003526 -0.011110 269925.000000 0 0 1
-20.260077 -3.865116 32.382491 38.393171 0.188510 0.567134 0.003816 -0.018389 -803156.000000 0 0 1
-21.453177 -4.743416 32.027121 38.839095 0.217605 0.601283 -0.000162 -0.013820 -253028.000000 0 0 1
-22.670277 -4.756516 32.769701 40.130029 0.206813 0.615321 -0.006134 -0.005199 734842.000000 0 0 1
-22.630177 -5.101316 34.143078 41.278301 0.221715 0.596791 0.005928 -0.001043 -1227940.000000 0 0 1
-23.994877 -4.877016 -34.252402 42.104233 0.200521 2.520966 -0.007627 0.006534 -561231.000000 0 0 1
-24.084477 -5.138216 -32.857235 41.061676 0.210190 2.498412 0.009254 0.011823 561790.000000 0 0 1
-25.301397 -4.595416 -32.323595 41.304883 0.179668 2.469565 0.002887 0.008258 450394.000000 0 0 1
-25.425307 -5.043516 -30.857155 40.299471 0.195824 2.442919 -0.003561 0.021541 -615843.000000 0 0 1
-25.534577 -6.457916 -30.708085 40.456221 0.247714 2.432641 0.000430 0.008586 556797.000000 0 0 1
-25.374757 -6.960316 -29.387775 39.445730 0.267716 2.411358 -0.008444 0.018270 -381379.000000 0 0 1
-25.818827 -8.435616 -29.273785 39.934020 0.315790 2.393597 -0.011739 0.016392 553522.000000 0 0 1
-27.235807 -8.635616 -29.354875 40.964274 0.307041 2.369707 0.013618 0.015053 529712.000000 0 0 1
-27.513897 -9.919016 -28.782345 41.034435 0.346006 2.348183 0.008935 0.002086 -206918.000000 0 0 1
-28.953327 -10.172516 -28.346105 41.776512 0.337870 2.316539 0.032056 0.003137 -273246.000000 0 0 1
-29.052807 -11.307316 -27.539045 41.597116 0.371160 2.294337 0.034915 -0.001718 -104144.000000 0 0 1
-30.364117 -11.610916 -27.086305 42.313838 0.365233 2.265462 0.033648 0.005130 159433.000000 0 0 1
-30.243587 -12.452416 -25.723385 41.610453 0.390584 2.237241 0.034025 0.001482 131120.000000 0 0 1
-29.845357 -11.669116 -24.624755 40.414010 0.372712 2.225989 0.036790 -0.001636 94388.300000 0 0 1
-29.818037 -12.406516 -23.415255 39.891242 0.394286 2.198117 0.037353 -0.005956 -303933.000000 0 0 1
-29.343667 -11.521316 -22.242655 38.581437 0.374140 2.185250 0.040461 -0.009891 103361.000000 0 0 1
-29.104967 -12.130716 -20.986855 37.877454 0.394898 2.158045 0.035761 -0.010634 439121.000000 0 0 1
-27.968317 -12.989216 -20.941955 37.276159 0.434786 2.167363 0.031533 -0.017273 -208763.000000 0 0 1
-27.536487 -13.460616 -19.523955 36.340489 0.454670 2.137970 0.046819 -0.021624 20093.500000 0 0 1
-27.057847 -12.341716 -18.772455 35.168880 0.427934 2.133861 0.031070 -0.019507 260989.000000 0 0 1
-26.624797 -12.670716 -17.456755 34.266094 0.444182 2.105338 0.034238 -0.014514 -133473.000000 0 0 1
-26.502107 -11.428016 -16.606755 33.297831 0.407120 2.092934 0.025116 -0.020143 -458717.000000 0 0 1
-25.392067 -10.609516 -16.827355 32.256454 0.395780 2.119608 0.028215 -0.026538 -93942.000000 0 0 1
-25.392857 -9.532816 -15.936855 31.458785 0.359133 2.102027 0.029894 -0.027293 -381034.000000 0 0 1
-24.081377 -8.727016 -15.802155 30.096207 0.347676 2.123576 0.032885 -0.022764 -336285.000000 0 0 1
-22.994677 -9.481916 -15.368755 29.237999 0.391110 2.124267 0.012348 -0.027838 -927731.000000 0 0 1
-21.869877 -8.696416 -15.227555 28.032082 0.378473 2.145063 0.025608 -0.043419 -812575.000000 0 0 1
-20.848977 -9.323916 -14.286455 26.939155 0.420533 2.129778 0.006397 -0.008537 -622773.000000 0 0 1
-20.087577 -10.413116 -14.725155 26.995814 0.478248 2.147735 0.003613 -0.006711 806620.000000 0 0 1
-18.940877 -10.501416 -13.852355 25.708448 0.506239 2.139838 0.008465 0.005368 748048.000000 0 0 1
-17.908777 -11.633416 -14.177655 25.633310 0.576089 2.156871 0.013666 0.008659 334013.000000 0 0 1
-17.053577 -11.376116 -15.275755 25.565391 0.588289 2.211197 0.017545 -0.000212 733774.000000 0 0 1
-17.752877 -11.503816 -16.531855 26.847806 0.574966 2.234149 0.017359 -0.006581 353266.000000 0 0 1
-16.970477 -10.650916 -17.559755 26.641774 0.560477 2.290426 0.017939 -0.002366 625835.000000 0 0 1
-17.684377 -10.655316 -18.846155 27.954437 0.542276 2.310642 0.018720 -0.001608 741470.000000 0 0 1
-17.008377 -10.071116 -19.959155 28.090571 0.534610 2.361046 0.023758 -0.005647 -310082.000000 0 0 1
-17.718877 -10.497616 -21.212955 29.565994 0.534852 2.370972 0.022485 -0.005428 142574.000000 0 0 1
-18.969977 -9.843116 -21.337155 30.199688 0.478636 2.355387 0.017037 -0.014324 -235270.000000 0 0 1
-19.749277 -10.389616 -22.325455 31.565868 0.484290 2.356419 0.011463 -0.001400 732649.000000 0 0 1
-21.215977 -9.828016 -22.451655 32.415805 0.433807 2.335904 0.003774 -0.007598 837566.000000 0 0 1
-21.058277 -8.524016 -22.969955 32.306791 0.384622 2.361708 -0.002816 -0.010318 419906.000000 0 0 1
-22.086577 -8.082716 -23.857955 33.501481 0.350818 2.363347 -0.004623 -0.015507 73071.900000 0 0 1
-21.519077 -7.397416 -25.107465 33.884764 0.331106 2.405304 -0.009779 -0.010819 -179415.000000 0 0 1
-20.829777 -8.294316 -25.946605 34.291422 0.378950 2.428970 0.003066 -0.015622 57441.500000 0 0 1
-20.363477 -7.578316 -27.095935 34.731712 0.356272 2.465701 -0.001075 -0.026658 194644.000000 0 0 1
-19.108377 -8.277516 -27.718525 34.669352 0.408785 2.497277 0.031585 -0.027518 168619.000000 0 0 1
-19.339377 -9.448416 -28.424695 35.654556 0.454453 2.493480 0.032438 -0.024931 -409894.000000 0 0 1
-18.172277 -9.887316 -29.039415 35.654990 0.498293 2.522587 0.010317 -0.014475 -544740.000000 0 0 1
-18.336177 -11.099816 -29.994515 36.865868 0.544344 2.521134 0.017311 -0.006532 -188668.000000 0 0 1
-18.982177 -10.778616 -31.232635 38.104844 0.516428 2.531596 0.025344 -0.006105 512081.000000 0 0 1
-19.167777 -12.014216 -31.917695 39.121405 0.559887 2.525016 -0.003959 0.002698 -134304.000000 0 0 1
-19.510577 -11.685116 -33.380675 40.391510 0.539619 2.543530 -0.023262 0.009575 -26720.600000 0 0 1
-18.443177 -11.190116 -34.171495 40.411144 0.545357 2.578477 -0.005475 0.005428 127475.000000 0 0 1
-18.850577 -11.036416 33.478218 39.974215 0.529666 0.578113 -0.003405 -0.000259 -125036.000000 0 0 1
-18.214377 -12.025116 32.546331 39.187123 0.583512 0.590726 0.003005 0.004643 679186.000000 0 0 1
-16.839977 -11.743316 32.171941 38.164435 0.608944 0.567993 0.012720 0.004293 1542630.000000 0 0 1
-16.299577 -12.547516 31.073521 37.264998 0.656057 0.584745 0.021567 0.009773 191340.000000 0 0 1
-16.395677 -14.098316 31.147341 37.917511 0.710202 0.606847 0.018501 0.008866 -545487.000000 0 0 1
-17.640277 -14.734416 30.853041 38.473271 0.695881 0.640270 0.010889 0.004460 293324.000000 0 0 1
-17.669477 -16.130616 31.150801 39.278233 0.739901 0.654947 0.018384 0.003694 -211705.000000 0 0 1
-18.056077 -16.434316 32.627811 40.751475 0.738412 0.642411 -0.004174 -0.000343 -441418.000000 0 0 1
-17.103377 -15.993116 33.575413 40.934260 0.751865 0.608987 -0.000527 0.005008 -174646.000000 0 0 1
-17.608277 -15.920816 -34.170032 41.606669 0.735112 2.534418 -0.009003 0.003834 -93128.500000 0 0 1
-16.544477 -15.451616 -33.161725 40.151864 0.751255 2.542606 0.004944 -0.007322 165799.000000 0 0 1
-15.983677 -14.192816 -33.529685 39.763724 0.726121 2.574047 0.010523 -0.004476 54180.500000 0 0 1
-14.999977 -13.543016 -32.720115 38.458010 0.734398 2.588304 0.020511 -0.007224 192518.000000 0 0 1
-15.357177 -13.168916 -31.249715 37.226441 0.708837 2.567066 0.022158 -0.009155 -256377.000000 0 0 1
-15.576777 -14.325416 -30.436615 37.070758 0.743574 2.534029 0.023013 -0.010306 -220926.000000 0 0 1
-15.974177 -14.028316 -29.147565 36.076981 0.720632 2.511422 0.021720 -0.007167 -254368.000000 0 0 1
-15.811677 -15.275916 -28.258145 35.803429 0.768166 2.480396 0.015486 0.006450 685354.000000 0 0 1
-14.524177 -15.805316 -27.927005 35.223250 0.827614 2.486279 0.035793 -0.013267 479420.000000 0 0 1
-13.841777 -16.500016 -28.994675 36.118368 0.872785 2.502719 0.034784 -0.018852 -544525.000000 0 0 1
-12.461177 -17.007116 -28.586095 35.520245 0.938457 2.506106 0.047564 -0.013164 -587691.000000 0 0 1
-11.573977 -15.914316 -28.625445 34.736703 0.942003 2.539353 0.044602 -0.009695 -1131470.000000 0 0 1
-10.282577 -16.338416 -28.305755 34.262093 1.009075 2.543043 0.040610 -0.009614 90069.700000 0 0 1
-9.308977 -15.109716 -28.238605 33.352352 1.018628 2.580502 0.026714 -0.009814 116741.000000 0 0 1
-9.342777 -14.320516 -27.059075 32.008721 0.992732 2.578046 0.029748 -0.008018 -431580.000000 0 0 1
-8.282377 -13.437516 -26.791085 31.095448 1.018433 2.609162 0.024920 -0.004238 -263132.000000 0 0 1
-8.134877 -12.083816 -27.632835 31.237292 0.978281 2.656454 0.017500 -0.015524 -134480.000000 0 0 1
-7.804777 -12.306316 -29.026155 32.478880 1.005602 2.676307 0.026629 -0.013416 181727.000000 0 0 1
-7.898177 -11.060816 -29.720305 32.680566 0.950691 2.712680 0.023270 -0.018705 -216703.000000 0 0 1
-6.848677 -10.887616 -30.844685 33.419144 1.009302 2.746509 0.016151 -0.004955 -445165.000000 0 0 1
-5.540777 -11.000416 -30.335965 32.741108 1.104203 2.755907 0.021402 -0.006766 -284305.000000 0 0 1
-4.562177 -10.565816 -31.239035 33.291549 1.163191 2.788614 0.031838 -0.005799 -188417.000000 0 0 1
-4.330377 -9.055416 -31.460145 33.022620 1.124733 2.832746 0.021729 -0.006315 -477987.000000 0 0 1
-3.128677 -8.683516 -32.152465 33.451055 1.224975 2.862042 0.026704 -0.005843 581604.000000 0 0 1
-3.002477 -7.236616 -32.284545 33.221609 1.177511 2.903517 0.019547 -0.006796 78127.800000 0 0 1
-1.614977 -6.902116 -32.881375 33.636768 1.340948 2.929263 0.025663 -0.011390 245768.000000 0 0 1
-1.270577 -7.254716 -34.228403 35.011839 1.397417 2.929648 0.022836 -0.012183 -607815.000000 0 0 1
0.030523 -6.822616 -34.502529 35.170635 -1.566323 2.946367 0.013003 0.004748 -173690.000000 0 0 1
0.635023 -7.353316 33.193058 34.003729 -1.484651 0.218797 0.000031 0.010359 -257717.000000 0 0 1
0.071523 -6.849916 32.020031 32.744600 -1.560355 0.210761 -0.015241 0.014916 -207883.000000 0 0 1
0.539823 -7.531916 30.900281 31.809567 -1.499247 0.239677 -0.019028 0.010907 -234787.000000 0 0 1
0.199623 -6.931616 29.542381 30.345336 -1.542005 0.230556 -0.018578 0.011459 -372953.000000 0 0 1
1.020123 -5.912316 29.081271 29.693711 -1.399937 0.203453 -0.011392 0.012010 -281141.000000 0 0 1
0.915423 -5.724316 27.686121 28.286518 -1.412221 0.206403 -0.013654 0.013246 -625640.000000 0 0 1
-0.187977 -4.743616 27.251901 27.662309 1.531190 0.172471 -0.005991 0.015639 -572335.000000 0 0 1
-1.490077 -5.152216 27.417831 27.937486 1.289267 0.193177 -0.011597 0.016718 -1485990.000000 0 0 1
-2.453077 -4.161416 27.201261 27.626863 1.038147 0.175756 -0.008227 0.010317 -570923.000000 0 0 1
-3.806177 -4.643816 27.691161 28.334650 0.884204 0.213527 -0.004010 0.009272 -543474.000000 0 0 1
-4.243077 -5.826916 27.040921 27.985140 0.941403 0.260505 -0.006599 0.013475 599720.000000 0 0 1
-5.639477 -6.137816 27.207421 28.455584 0.827686 0.297281 -0.004997 -0.000348 1343260.000000 0 0 1
-5.886177 -7.679916 27.008671 28.689658 0.916858 0.344016 0.009524 0.002284 198951.000000 0 0 1
-5.272577 -8.331316 28.104601 29.783880 1.006563 0.337402 0.005751 -0.000020 -105131.000000 0 0 1
-5.528277 -9.702216 28.155801 30.289338 1.052882 0.377575 0.004372 -0.005345 23393.000000 0 0 1
-4.917377 -10.357816 29.406361 31.562621 1.127552 0.371777 0.005213 -0.005096 -90886.200000 0 0 1
-5.071877 -11.756816 29.399331 32.066608 1.163518 0.410752 0.011845 -0.012337 -39630.000000 0 0 1
-4.606277 -12.342516 30.575081 33.292508 1.213601 0.406837 0.016161 -0.009372 -472550.000000 0 0 1
-4.674077 -13.842216 30.359111 33.691684 1.245149 0.448528 0.021745 -0.017899 676951.000000 0 0 1
-5.967277 -14.416116 30.072391 33.878924 1.178338 0.478595 0.031426 -0.017171 558640.000000 0 0 1
-6.001977 -15.870616 30.243951 34.678477 1.209239 0.511269 0.026602 -0.023585 49416.400000 0 0 1
-6.201477 -16.310016 31.748171 36.227356 1.207453 0.502546 0.040924 -0.021274 -513725.000000 0 0 1
-7.489477 -16.205016 32.262331 36.872114 1.137868 0.505404 0.048256 -0.014236 -731786.000000 0 0 1
-7.405277 -16.679516 33.580100 38.218680 1.152965 0.497810 0.045528 -0.017719 -487437.000000 0 0 1
-8.685977 -17.021916 34.375969 39.330638 1.098957 0.507370 0.048127 -0.013033 625194.000000 0 0 1
-9.499577 -18.177716 34.008097 39.714254 1.089237 0.542696 0.050664 -0.012723 901127.000000 0 0 1
-10.046677 -18.098316 32.661881 38.668892 1.064033 0.564876 0.046585 -0.018420 -695761.000000 0 0 1
-10.530977 -19.482316 32.033871 38.943947 1.075245 0.604892 0.053364 -0.018965 -216799.000000 0 0 1
-11.659277 -19.979116 32.695211 40.050976 1.042543 0.615751 0.051536 -0.016883 -71318.400000 0 0 1
-11.998577 -21.337516 32.463481 40.658739 1.058541 0.646100 0.038799 -0.015080 -9510.310000 0 0 1
-11.413477 -22.231616 33.572056 41.852063 1.096495 0.639892 0.040858 -0.017526 521459.000000 0 0 1
-9.997977 -22.390216 33.473283 41.493879 1.150829 0.632243 0.028429 -0.014114 591701.000000 0 0 1
-9.305477 -23.115116 34.503338 42.560320 1.188075 0.625462 0.025020 -0.023611 404806.000000 0 0 1
-9.723677 -24.613216 -34.294087 43.317949 1.194557 2.484355 0.025730 -0.011220 -224650.000000 0 0 1
-9.307677 -25.501286 33.728057 43.295846 1.220832 0.677705 0.025597 -0.010924 -55122.100000 0 0 1
-9.572077 -26.835826 34.149582 44.474489 1.228174 0.695323 0.020291 -0.017711 -892851.000000 0 0 1
-9.298577 -27.928346 33.065348 44.269327 1.249396 0.727389 0.010356 -0.013196 -277522.000000 0 0 1
-7.957877 -28.192556 32.728101 43.923532 1.295685 0.730088 0.007457 -0.002901 208697.000000 0 0 1
-7.135377 -28.703186 33.803862 44.916451 1.327143 0.718803 -0.004941 -0.006378 254590.000000 0 0 1
-5.606977 -28.400336 33.691083 44.419662 1.375877 0.709831 -0.008701 -0.006516 689680.000000 0 0 1
-5.386177 -27.053376 34.089400 43.851833 1.374272 0.680311 -0.009821 -0.000027 -73617.700000 0 0 1
-5.271477 -26.252276 32.949451 42.457470 1.372631 0.682406 0.016346 0.007695 -187943.000000 0 0 1
-4.901977 -24.758516 33.231729 41.729622 1.375333 0.649546 0.019988 -0.004768 -357369.000000 0 0 1
-3.668077 -24.599616 33.844924 42.000890 1.422776 0.633747 0.020006 -0.008999 -603727.000000 0 0 1
-3.595577 -23.259116 34.285630 41.586285 1.417423 0.601574 0.016974 -0.007643 -486043.000000 0 0 1
33.795881 -15.379416 2.872245 37.241614 -0.427060 1.493595 0.067770 -0.028816 -398591.000000 0 0 1
34.561801 -15.732316 3.975145 38.181483 -0.427165 1.466495 0.049089 -0.030295 -188088.000000 0 0 1
33.935551 -16.679716 4.762145 38.111843 -0.456834 1.445517 0.058046 -0.034372 -13647.400000 0 0 1
34.801854 -16.935416 6.023145 39.169575 -0.452890 1.416413 0.038592 -0.019897 54111.300000 0 0 1
-34.798196 -17.752016 5.788045 39.491138 0.471728 1.423701 0.045202 -0.018834 -428783.000000 0 0 1
-34.090759 -17.891816 7.006345 39.132925 0.483313 1.390786 0.038187 -0.008159 -153387.000000 0 0 1
-32.888567 -18.838916 6.904945 38.525847 0.520187 1.390594 0.028164 -0.011420 -256468.000000 0 0 1
-33.169627 -20.221616 6.936945 39.462123 0.547479 1.394091 0.041114 -0.018324 1152980.000000 0 0 1
-31.958227 -20.956016 7.303145 38.907825 0.580394 1.381973 0.026181 -0.005706 1248000.000000 0 0 1
-32.227587 -22.473316 7.403245 39.980938 0.608933 1.384552 0.013874 -0.012518 -128563.000000 0 0 1
-32.129817 -23.170316 6.180745 40.092273 0.624778 1.416016 0.029033 -0.007934 53537.600000 0 0 1
-32.584637 -24.521916 6.278345 41.261369 0.645138 1.418043 0.023401 -0.012016 63768.200000 0 0 1
-32.095457 -25.453216 5.144045 41.284934 0.670487 1.445873 0.027427 -0.015723 172433.000000 0 0 1
-32.612527 -25.148476 3.884545 41.365595 0.656887 1.476750 0.034284 -0.016590 280552.000000 0 0 1
-31.745757 -25.722246 2.915245 40.962492 0.680964 1.499567 0.034064 -0.015287 372676.000000 0 0 1
-32.293307 -25.244736 1.527245 41.018129 0.663503 1.533554 0.037641 -0.010233 346844.000000 0 0 1
-33.467277 -26.035776 1.259845 42.420602 0.661149 1.541093 0.034498 -0.007793 689931.000000 0 0 1
-34.156013 -25.763616 0.031945 42.783153 0.646242 1.570050 0.027795 -0.005876 -33211.800000 0 0 1
-35.129075 -24.582916 0.233045 42.876871 0.610584 1.565361 0.035564 -0.009145 -540483.000000 0 0 1
34.195351 -24.865416 0.120845 42.280321 -0.628721 1.567938 0.019934 -0.006494 175149.000000 0 0 1
33.429241 -23.735916 0.495145 41.001866 -0.617429 1.558720 0.048854 -0.012791 870651.000000 0 0 1
31.931351 -23.788816 0.038245 39.818594 -0.640293 1.569836 0.020892 -0.007942 700306.000000 0 0 1
31.642181 -23.885016 -1.351755 39.667983 -0.646596 1.604880 0.028718 -0.022333 207963.000000 0 0 1
30.243711 -23.786116 -1.558655 38.508321 -0.666443 1.611283 0.026518 -0.009566 277929.000000 0 0 1
29.826541 -23.410316 -2.977055 38.033252 -0.665454 1.649152 0.021863 0.002510 -368506.000000 0 0 1
30.264061 -22.158516 -3.390755 37.661790 -0.631994 1.660950 0.033240 -0.019025 6690.450000 0 0 1
29.994491 -21.726216 -4.683855 37.331440 -0.626876 1.696595 0.029323 -0.039058 13613.500000 0 0 1
30.065601 -20.242616 -4.905755 36.575542 -0.592568 1.705328 0.044293 -0.036471 944872.000000 0 0 1
28.852951 -19.713916 -4.333655 35.212382 -0.599399 1.694181 0.041009 -0.037436 761740.000000 0 0 1
28.916161 -18.329516 -4.185355 34.491053 -0.564963 1.692442 0.044061 -0.027652 996756.000000 0 0 1
27.870491 -17.904116 -3.024855 33.263665 -0.571017 1.661858 0.050086 -0.026136 1009650.000000 0 0 1
28.447321 -18.060216 -1.685255 33.738132 -0.565662 1.620768 0.051653 -0.019458 328189.000000 0 0 1
28.857151 -19.375516 -1.190755 34.778782 -0.591292 1.605041 0.040006 -0.017590 -32293.400000 0 0 1
27.689931 -20.354116 -0.947955 34.379077 -0.633879 1.598373 0.019581 -0.000637 -268317.000000 0 0 1
26.941251 -19.958416 0.186245 33.529152 -0.637595 1.565242 0.033525 -0.000899 44934.100000 0 0 1
26.100391 -21.066316 0.516845 33.545301 -0.679071 1.555388 0.014765 -0.005223 -541458.000000 0 0 1
25.214141 -20.775016 1.703545 32.714771 -0.689171 1.518700 0.026144 0.005789 -1354980.000000 0 0 1
24.381941 -21.881516 2.070345 32.826302 -0.731403 1.507685 0.020750 0.024295 58975.000000 0 0 1
23.378141 -21.545116 3.017145 31.934819 -0.744617 1.476177 0.008648 0.020485 811925.000000 0 0 1
22.197541 -20.688116 2.407445 30.438869 -0.750216 1.491622 -0.002401 0.013997 -867468.000000 0 0 1
22.452941 -19.345916 1.976645 29.703639 -0.711202 1.504202 0.010645 -0.000592 -182599.000000 0 0 1
22.577341 -18.506416 3.109345 29.357993 -0.686632 1.464686 0.015148 0.006911 -181923.000000 0 0 1
22.425041 -17.055116 2.654745 28.298535 -0.650212 1.476846 0.014008 0.006705 -262445.000000 0 0 1
21.133441 -16.853516 2.166445 27.117463 -0.673203 1.490820 0.005014 0.006016 -611852.000000 0 0 1
20.999541 -15.595216 1.520745 26.201224 -0.638778 1.512723 0.006149 -0.003030 376182.000000 0 0 1
19.678441 -15.317916 0.720945 24.947933 -0.661438 1.541894 -0.010193 0.003740 138117.000000 0 1 0
18.620941 -15.110416 1.614345 24.034771 -0.681698 1.503579 0.004619 -0.008365 -500237.000000 0 1 0
17.880741 -13.947716 1.415045 22.721400 -0.662452 1.508478 0.018813 -0.009455 -615070.000000 0 1 0
18.397141 -12.615016 2.018145 22.397909 -0.601068 1.480570 0.031107 -0.010056 -514506.000000 0 1 0
19.511041 -12.075516 1.330645 22.984112 -0.554206 1.512870 0.026306 -0.007383 363685.000000 0 1 0
20.072341 -10.990616 2.052745 22.976211 -0.500961 1.481335 0.031292 -0.005842 -219773.000000 0 1 0
20.928341 -10.175116 1.082145 23.295911 -0.452537 1.524327 0.033569 -0.007699 -612729.000000 0 1 0
20.216141 -9.585516 0.053845 22.373586 -0.442756 1.568390 0.033251 -0.006944 220352.000000 0 1 0
21.084341 -9.115316 -0.971055 22.990897 -0.408060 1.613045 0.036672 0.007806 -466050.000000 0 1 0
20.464741 -8.593716 -2.252055 22.309848 -0.397567 1.671913 0.053519 0.003735 -403512.000000 0 1 0
21.394941 -8.317916 -3.278955 23.187987 -0.370796 1.712679 0.048731 0.003425 203766.000000 0 1 0
21.876341 -9.389116 -4.088455 24.154611 -0.405415 1.740877 0.017178 0.012743 -353149.000000 0 1 0
20.965741 -10.037316 -5.145955 23.807370 -0.446502 1.788666 -0.013772 0.004098 -285611.000000 0 1 0
20.640341 -9.248916 -6.265055 23.469491 -0.421272 1.841018 -0.004310 -0.010770 511930.000000 0 1 0
19.238541 -9.084516 -6.409055 22.219943 -0.441165 1.863390 -0.015502 0.001186 -12788.700000 0 1 0
18.613441 -9.255616 -7.806055 22.204979 -0.461449 1.930018 -0.010690 0.008991 -481387.000000 0 1 0
18.630841 -10.550016 -8.396255 22.998004 -0.515246 1.944522 -0.013019 0.006485 1772180.000000 0 1 0
19.881741 -10.875616 -9.089455 24.416815 -0.500549 1.952241 -0.007239 0.002862 1080470.000000 0 1 0
19.929241 -12.239016 -9.742955 25.335614 -0.550740 1.965523 -0.011003 0.002586 -99436.000000 0 0 1
18.810241 -12.323716 -10.605655 24.863207 -0.579994 2.011483 -0.002788 -0.000947 354560.000000 0 1 0
18.736641 -13.627816 -11.109555 25.694383 -0.628837 2.017919 -0.002964 0.000172 -704358.000000 0 0 1
17.425941 -13.919816 -11.814555 25.239025 -0.674008 2.057943 -0.009502 -0.001135 -706848.000000 0 0 1
17.340641 -15.279116 -12.161655 26.116184 -0.722283 2.055194 0.002505 -0.008732 1068070.000000 0 0 1
16.267841 -15.545516 -13.121155 26.047465 -0.762697 2.098719 0.007258 -0.009919 551766.000000 0 0 1
16.223841 -17.006016 -13.610355 27.159885 -0.808932 2.095689 0.013163 -0.013443 -657340.000000 0 0 1
15.793241 -17.929916 -12.664855 27.042687 -0.848673 2.058194 0.010310 -0.011799 168670.000000 0 0 1
15.756441 -19.223316 -13.172255 28.130226 -0.884186 2.058117 0.016095 -0.008126 -231136.000000 0 0 1
14.763041 -20.115816 -12.386255 27.857005 -0.937678 2.031565 0.017013 -0.005772 450582.000000 0 0 1
13.395141 -19.966416 -12.737755 27.209152 -0.979880 2.057984 0.016370 -0.005628 142060.000000 0 0 1
12.556541 -20.567916 -11.762355 26.815273 -1.022698 2.024885 0.011186 0.002958 265755.000000 0 0 1
11.063341 -20.465916 -12.150655 26.246707 -1.075219 2.052106 0.008733 -0.002809 -142951.000000 0 0 1
10.227541 -21.079416 -11.214555 25.975192 -1.119066 2.017218 0.004602 0.004907 -124345.000000 0 0 1
8.866541 -20.859516 -11.593755 25.458793 -1.168875 2.043610 -0.003685 0.006985 525352.000000 0 0 1
7.909141 -21.467516 -10.543655 25.190820 -1.217804 2.002646 -0.002529 0.006796 -229892.000000 0 0 1
7.785641 -22.890616 -10.618455 26.407349 -1.242947 1.984608 -0.005151 0.007953 180376.000000 0 0 1
6.997141 -23.467816 -9.567755 26.291449 -1.281029 1.943260 0.001116 -0.001454 365177.000000 0 0 1
6.981541 -24.982026 -9.590355 27.655351 -1.298286 1.924933 0.001518 0.003841 1394400.000000 0 0 1
8.334541 -25.455436 -9.366755 28.375692 -1.254380 1.907204 -0.001176 0.009910 914868.000000 0 0 1
8.528541 -26.774266 -9.852555 29.777008 -1.262423 1.908030 0.003993 0.009372 685375.000000 0 0 1
10.003541 -27.203686 -9.564855 30.522087 -1.218417 1.889541 0.007911 0.010329 596834.000000 0 0 1
10.162341 -27.452806 -8.163155 30.390243 -1.216263 1.842747 0.014923 0.005888 970263.000000 0 0 1
11.561541 -27.751876 -7.941955 31.095185 -1.176059 1.829066 0.030707 0.006521 888728.000000 0 0 1
11.909941 -27.974486 -6.440555 31.078921 -1.168297 1.779541 0.028156 0.001813 77603.300000 0 0 1
11.534341 -29.234116 -5.796455 31.957369 -1.194996 1.753187 0.028413 0.001848 -38689.000000 0 0 1
10.136241 -29.310366 -5.634155 31.521178 -1.237846 1.750504 0.025779 0.001366 -356947.000000 0 0 1
9.627541 -30.421056 -4.714455 32.254555 -1.264293 1.717486 0.033347 -0.005103 -35174.000000 0 0 1
9.705241 -31.789186 -5.102955 33.627135 -1.274484 1.723136 0.046586 -0.007971 -337285.000000 0 0 1
8.966041 -32.126256 -6.223655 33.929635 -1.298634 1.755269 0.045889 -0.009302 -142501.000000 0 0 1
9.369241 -33.556186 -6.608455 35.460851 -1.298520 1.758251 0.045635 -0.010155 -282422.000000 0 0 1
9.122341 -34.484657 -5.589655 36.106134 -1.312187 1.726233 0.032877 -0.005357 116295.000000 0 0 1
9.500241 33.280614 -5.964955 35.120287 1.292733 1.741467 0.035688 -0.005104 -156048.000000 0 0 1
9.173341 32.271630 -4.906555 33.906969 1.293847 1.716013 0.044975 -0.002358 -219644.000000 0 0 1
7.811541 31.966390 -4.809255 33.256566 1.331126 1.715916 0.041460 -0.013602 -781619.000000 0 0 1
7.551441 31.023120 -3.783055 32.152290 1.332026 1.688730 0.027754 -0.016245 76235.500000 0 0 1
6.128841 30.446170 -3.924155 31.303849 1.372150 1.696484 0.028831 -0.020314 153223.000000 0 0 1
5.948141 29.625280 -5.045555 30.634870 1.372652 1.736250 0.022956 -0.017795 6352.000000 0 0 1
5.492541 30.350060 -6.179255 31.455959 1.391761 1.768524 0.031218 -0.021196 -347571.000000 0 0 1
5.319241 29.527840 -7.439855 30.911796 1.392565 1.813863 0.035778 -0.021495 4392.830000 0 0 1
4.341841 28.508780 -7.494655 29.795503 1.419659 1.825064 0.027525 -0.024756 152845.000000 0 0 1
4.813941 27.326160 -6.812655 28.571058 1.396420 1.811562 0.019392 -0.020523 -756308.000000 0 0 1
4.117941 26.057880 -7.229855 27.354001 1.414062 1.838282 0.015459 -0.021109 -505692.000000 0 0 1
2.759341 25.967320 -6.831055 26.992202 1.464932 1.826654 0.024639 -0.025854 -558704.000000 0 0 1
1.873041 26.511480 -7.728255 27.678381 1.500263 1.853774 0.042646 -0.031078 -892131.000000 0 0 1
1.568741 25.689630 -9.029355 27.275397 1.509807 1.908206 0.044088 -0.020343 275453.000000 0 0 1
2.712841 25.669180 -9.937855 27.659127 1.465502 1.938311 0.018391 -0.014775 1005580.000000 0 0 1
2.454241 25.049820 -11.201455 27.549762 1.473134 1.989515 0.013281 -0.007357 -585513.000000 0 0 1
2.258041 23.515900 -11.190155 26.140311 1.475068 2.013164 0.020237 -0.000086 65015.100000 0 0 1
1.146441 23.071100 -10.430455 25.345303 1.521146 1.994933 0.039966 -0.005255 49383.900000 0 0 1
1.044541 21.692100 -10.419755 24.087540 1.522680 2.018147 0.006284 -0.004356 -701919.000000 0 1 0
-0.072259 21.141500 -9.544955 23.196431 -1.567378 1.994878 0.023951 -0.001460 15380.300000 0 1 0
-1.319659 21.002200 -10.206255 23.388064 -1.508044 2.022376 0.044532 -0.011031 352172.000000 0 1 0
-2.213159 20.105200 -9.522855 22.356250 -1.461159 2.010818 0.030065 -0.006156 800283.000000 0 1 0
-3.623559 19.997600 -10.165155 22.723657 -1.391542 2.034583 0.023288 -0.015580 611634.000000 0 1 0
-4.555159 19.182000 -9.456255 21.865941 -1.337644 2.018021 0.015743 -0.020812 -939502.000000 0 1 0
-5.711659 19.070300 -10.159555 22.349854 -1.279793 2.042685 0.021187 -0.018959 -2438440.000000 0 1 0
-6.595459 17.955300 -9.537655 21.374278 -1.218770 2.033335 0.026401 -0.017255 -420667.000000 0 1 0
-7.452459 18.427900 -8.474955 21.609061 -1.186493 1.973812 0.032012 -0.011638 151472.000000 0 1 0
-8.621559 18.893600 -9.142155 22.690932 -1.142698 1.985478 0.040324 -0.013002 -881615.000000 0 1 0
-9.721359 19.113600 -8.064355 22.910006 -1.100285 1.930505 0.041733 -0.015077 -84062.900000 0 1 0
-10.174959 17.888100 -7.569355 21.927359 -1.053625 1.923250 0.046112 -0.018089 -677677.000000 0 1 0
-11.078759 18.156700 -6.557955 22.257840 -1.022929 1.869871 0.053387 -0.012199 -613633.000000 0 1 0
-11.728659 16.967400 -5.870155 21.445579 -0.965969 1.848058 0.049714 -0.019895 -188015.000000 0 1 0
-12.759959 17.225400 -4.949455 22.000638 -0.933232 1.797707 0.064731 -0.015438 24391.300000 0 1 0
-13.143659 16.103500 -4.262255 21.218985 -0.886256 1.773042 0.063376 -0.021652 -495632.000000 0 1 0
-14.287159 16.415600 -3.297955 22.010710 -0.854612 1.721197 0.045802 -0.024557 -693729.000000 0 1 0
-15.507859 16.618100 -3.949355 23.070595 -0.819943 1.742829 0.064020 -0.030396 -597856.000000 0 1 0
-16.395059 17.206800 -3.054355 23.962492 -0.809551 1.698608 0.055569 -0.022852 220070.000000 0 1 0
-17.832059 17.484400 -3.603555 25.232364 -0.775554 1.714101 0.051666 -0.026863 438899.000000 0 0 1
-17.822859 18.449300 -4.628955 26.066419 -0.802667 1.749326 0.058306 -0.025440 -214176.000000 0 0 1
-19.113359 18.881300 -4.984855 27.325314 -0.779291 1.754250 0.039729 -0.024877 -1282.030000 0 0 1
-19.060459 19.840000 -6.179355 28.197715 -0.805435 1.791733 0.030849 -0.007302 84252.300000 0 0 1
-18.454959 21.080000 -5.907555 28.633043 -0.851699 1.778608 0.031056 -0.012154 93213.600000 0 0 1
-18.465759 21.888600 -7.092155 29.502436 -0.870015 1.813566 0.016935 0.014121 84555.000000 0 0 1
-18.205659 23.362000 -6.768055 30.381502 -0.908815 1.795450 0.026643 0.008758 1209950.000000 0 0 1
-16.851159 23.674300 -6.364555 29.747968 -0.952201 1.786412 0.025654 0.004172 983400.000000 0 0 1
-16.914159 24.392360 -5.158155 30.127771 -0.964500 1.742853 0.035698 -0.001270 -3650.810000 0 0 1
-15.579459 24.767200 -4.475355 29.600043 -1.009300 1.722573 0.020034 0.002743 -161431.000000 0 0 1
-15.760759 25.665920 -3.432455 30.313739 -1.020093 1.684271 0.020608 -0.005207 -87257.400000 0 0 1
-14.561159 26.274080 -3.030555 30.191703 -1.064732 1.671343 0.029226 -0.000199 -90468.700000 0 0 1
-14.078659 27.508710 -3.902455 31.147503 -1.097762 1.696416 0.026837 0.004498 -114888.000000 0 0 1
-14.857659 28.670540 -3.732055 32.506586 -1.092679 1.685859 0.033607 -0.001737 -260477.000000 0 0 1
-14.387559 29.741450 -4.516155 33.345935 -1.120229 1.706647 0.018841 0.015385 -617497.000000 0 0 1
-15.008359 31.124700 -4.283855 34.818806 -1.121489 1.694142 0.029642 0.005023 242289.000000 0 0 1
-16.356159 31.260290 -4.701755 35.592642 -1.088742 1.703283 0.040515 0.004047 -157602.000000 0 0 1
-16.607459 32.600220 -4.732455 36.891438 -1.099635 1.699431 0.037344 -0.006020 -60039.600000 0 0 1
13.169723 -8.800316 18.691741 24.500374 -0.589080 0.702984 0.044596 -0.003220 64765.800000 0 1 0
13.480123 -10.077816 19.200041 25.532678 -0.641967 0.719737 0.039212 -0.003737 497828.000000 0 0 1
14.263923 -10.851116 18.244341 25.574640 -0.650338 0.776492 0.052338 -0.006234 320505.000000 0 0 1
14.466323 -12.292016 18.755541 26.685923 -0.704319 0.791435 0.057029 -0.016776 -104947.000000 0 0 1
15.604223 -12.391116 19.614641 27.960073 -0.671125 0.793264 0.040571 -0.015281 456655.000000 0 0 1
15.801523 -13.622116 20.283141 29.097353 -0.711463 0.799482 0.036309 -0.012982 35795.300000 0 0 1
16.217823 -14.809216 19.335841 29.260988 -0.740030 0.848904 0.025889 -0.013024 -191120.000000 0 0 1
15.155623 -15.274216 18.508741 28.382531 -0.789295 0.860422 0.039370 -0.017732 524673.000000 0 0 1
15.607223 -16.319216 17.698841 28.690611 -0.807696 0.906016 0.038468 -0.022710 -341006.000000 0 0 1
15.105823 -16.179716 16.260341 27.465757 -0.819710 0.937230 0.037017 -0.019218 1443.240000 0 0 1
13.770623 -16.595416 16.058841 26.887251 -0.878156 0.930708 0.063712 -0.020665 -53592.600000 0 0 1
13.374223 -16.283416 14.774641 25.735374 -0.883178 0.959294 0.078546 -0.026970 16815.300000 0 0 1
12.617323 -17.462916 14.090841 25.743000 -0.945115 0.991583 0.040426 -0.012396 66976.100000 0 0 1
13.479023 -18.538216 13.842041 26.775952 -0.942117 1.027503 0.033116 -0.003830 244791.000000 0 0 1
12.695923 -19.667916 13.429241 26.988107 -0.997581 1.049968 0.032782 -0.004335 62086.700000 0 0 1
13.479323 -20.821116 12.817441 27.919488 -0.996260 1.093830 0.031073 -0.002948 -193816.000000 0 0 1
14.376423 -21.495716 13.675541 29.253509 -0.981315 1.084354 0.027421 -0.002659 13184.500000 0 0 1
14.775623 -22.798916 13.258641 30.230798 -0.995769 1.116778 0.013002 -0.017460 -438473.000000 0 0 1
15.718123 -23.489816 14.199941 31.630194 -0.981079 1.105222 0.010011 -0.017981 147076.000000 0 0 1
17.037423 -22.989416 14.403241 32.034987 -0.933017 1.104468 -0.010009 -0.016034 248512.000000 0 0 1
17.621323 -23.560716 15.540641 33.273561 -0.928633 1.084837 0.010098 -0.023741 737545.000000 0 0 1
19.091823 -23.081816 15.807241 33.869408 -0.879726 1.085228 -0.003062 -0.018033 860209.000000 0 0 1
20.093923 -23.767016 15.065941 34.577729 -0.868947 1.119967 -0.000896 -0.026309 -997999.000000 0 0 1
21.299023 -23.153916 15.383041 35.019854 -0.827101 1.116015 0.005309 -0.016850 -550598.000000 0 0 1
22.471823 -23.929316 14.729841 35.980039 -0.816799 1.149012 -0.000644 -0.024054 -945.129000 0 0 1
22.882223 -25.029546 15.506441 37.289731 -0.830186 1.141934 0.002488 -0.022600 -1154910.000000 0 0 1
24.043223 -25.602346 15.138241 38.245562 -0.816793 1.163839 0.009226 -0.025340 -1611330.000000 0 0 1
24.625523 -26.728026 16.045441 39.727320 -0.826317 1.155032 0.009071 -0.023621 -449471.000000 0 0 1
24.936723 -26.243146 17.377041 40.156001 -0.810919 1.123268 0.008519 -0.013981 189481.000000 0 0 1
25.445223 -27.269896 18.172041 41.488910 -0.819998 1.117426 0.020757 -0.005644 -115683.000000 0 0 1
25.744123 -26.791416 19.609441 42.012736 -0.805330 1.085184 0.007615 0.000309 -803159.000000 0 0 1
24.595023 -26.660176 20.348741 41.590280 -0.825668 1.059548 0.022347 0.005515 -686971.000000 0 0 1
24.854323 -26.036796 21.567341 41.961915 -0.808629 1.030985 0.026631 0.006474 -7329.690000 0 0 1
23.520023 -25.931166 22.322141 41.519812 -0.834118 1.003177 0.024280 -0.002619 -55500.800000 0 0 1
22.948323 -27.109486 22.791441 42.201890 -0.868335 1.000291 0.031398 0.008224 -22448.900000 0 0 1
21.841923 -26.858866 23.635941 41.918087 -0.888052 0.971744 0.027262 0.006585 -12683.600000 0 0 1
21.052823 -28.165806 23.898841 42.516921 -0.928923 0.973871 0.038448 0.007686 -277325.000000 0 0 1
21.811923 -29.127566 24.609071 43.929278 -0.928037 0.976172 0.031115 0.017827 369621.000000 0 0 1
21.969723 -30.332706 23.876641 44.416616 -0.943953 1.003254 0.039301 0.014434 -158152.000000 0 0 1
22.954223 -31.296966 24.605831 45.954797 -0.937983 1.005773 0.029164 0.017657 194844.000000 0 0 1
22.504223 -31.908156 25.844731 46.824359 -0.956535 0.986095 0.027326 0.017398 661539.000000 0 0 1
23.631323 -32.450606 26.554961 48.131561 -0.941378 0.986376 0.022439 0.012301 -180273.000000 0 0 1
23.428823 -32.915306 28.051891 49.185727 -0.952201 0.963894 0.023148 0.005410 62158.100000 0 0 1
22.791223 -34.176787 28.270331 49.866865 -0.982658 0.968039 0.013058 0.013411 -81573.600000 0 0 1
21.426223 -34.178222 27.950411 49.076057 -1.010834 0.964859 0.017653 0.018165 -982687.000000 0 0 1
20.724123 33.667699 28.444601 48.704194 1.019022 0.947115 0.032020 -0.003438 -342886.000000 0 0 1
20.572923 33.562867 29.811631 49.380609 1.020897 0.922648 0.028676 -0.011645 -40095.400000 0 0 1
20.078723 32.333360 30.186051 48.577762 1.015085 0.900272 0.033704 -0.008597 -198620.000000 0 0 1
19.718823 32.485200 31.675971 49.472086 1.025239 0.875934 0.021468 -0.010892 441565.000000 0 0 1
20.902323 32.741570 32.430551 50.602946 1.002617 0.875149 0.017888 -0.007957 703982.000000 0 0 1
20.550523 33.074920 33.747039 51.528021 1.014839 0.856712 0.007010 -0.015859 28659.800000 0 0 1
21.841223 32.989750 -34.444272 52.457321 0.985989 2.287118 -0.005239 -0.010852 17714.300000 0 0 1
22.139723 31.633590 -34.121997 51.528264 0.960151 2.294547 0.005288 -0.004714 -645270.000000 0 0 1
23.345623 31.519810 -33.457255 51.554868 0.933296 2.277018 -0.008810 0.003117 -674363.000000 0 0 1
23.705523 30.040640 -33.293555 50.723295 0.902728 2.286801 0.003136 -0.001224 -136035.000000 0 0 1
23.984523 29.398680 34.459784 51.254428 0.886473 0.833447 0.007895 -0.008313 201481.000000 0 0 1
23.923323 27.985270 -34.473396 50.437246 0.863491 2.323331 0.034975 -0.022609 -210342.000000 0 0 1
24.010623 27.387890 33.149622 49.249406 0.851011 0.832408 0.051438 -0.020097 -154299.000000 0 0 1
25.316823 26.924100 32.903531 49.482229 0.816155 0.843361 0.048026 -0.020089 187661.000000 0 0 1
25.334423 26.032790 31.827541 48.296289 0.798993 0.851300 0.077817 -0.033805 -224198.000000 0 0 1
26.521023 25.049080 31.784701 48.384794 0.756863 0.854076 0.061179 -0.024778 -239737.000000 0 0 1
26.616523 24.123260 32.872381 48.692550 0.736299 0.829695 0.074345 -0.031331 344656.000000 0 0 1
27.378723 24.563630 33.995643 50.086626 0.731255 0.824755 0.067646 -0.028277 -821011.000000 0 0 1
26.955923 23.922300 -33.659195 49.313686 0.725844 2.322046 0.048152 -0.027051 -772483.000000 0 0 1
25.792023 24.400910 -33.068665 48.519784 0.757690 2.320675 0.046479 -0.030766 1450160.000000 0 0 1
24.489723 24.099500 -33.674815 48.109517 0.777367 2.346140 0.050047 -0.023676 1221250.000000 0 0 1
24.090223 22.595900 -33.802165 47.259918 0.753401 2.367763 0.044136 -0.028167 -838821.000000 0 0 1
23.867023 21.958800 -32.558165 45.954954 0.743781 2.358138 0.025980 -0.032354 362078.000000 0 0 1
23.497023 20.609000 -32.646655 45.195631 0.720012 2.377978 0.015465 -0.022764 -145960.000000 0 0 1
23.570823 19.809500 -31.335535 43.930806 0.698909 2.364982 0.011468 -0.022702 -689560.000000 0 0 1
22.560623 20.154900 -30.452165 42.924772 0.729138 2.359487 -0.000409 -0.012867 -198204.000000 0 0 1
22.725523 19.560800 -29.163575 41.828081 0.710697 2.342315 -0.001501 -0.008215 328180.000000 0 0 1
21.349823 19.601800 -28.389495 40.571036 0.742739 2.345841 0.006616 -0.008016 721760.000000 0 0 1
21.430623 18.855700 -27.196645 39.426723 0.721569 2.332012 0.008806 0.000611 239220.000000 0 0 1
21.988623 19.591100 -26.103295 39.353434 0.727801 2.296022 -0.003358 0.013702 -94556.900000 0 0 1
22.127023 18.818300 -24.748355 38.160380 0.704765 2.276455 0.000371 0.014400 288043.000000 0 0 1
23.092423 17.760500 -24.844955 38.287950 0.655617 2.276931 0.002705 0.000393 665990.000000 0 0 1
22.960123 16.843700 -23.718755 37.060178 0.632927 2.265303 0.005828 0.003782 -728035.000000 0 0 1
23.876023 15.633400 -23.825455 37.176874 0.579724 2.266424 0.022303 -0.005705 181275.000000 0 0 1
25.232223 16.052500 -23.581855 38.084796 0.566606 2.238511 0.035965 -0.016317 1154250.000000 0 0 1
26.202623 14.986200 -23.586655 38.307883 0.519528 2.234087 0.036874 -0.019988 297720.000000 0 0 1
26.261423 13.997600 -22.394655 37.244002 0.489706 2.215918 0.043455 -0.015744 -712007.000000 0 0 1
25.036923 13.348600 -22.155855 35.998813 0.489820 2.233767 0.024961 -0.007721 -38668.500000 0 0 1
24.997323 12.724300 -20.913255 34.987686 0.470843 2.211465 0.019826 -0.014047 -700007.000000 0 0 1
23.627423 12.086100 -20.718855 33.668975 0.472828 2.233651 0.021553 -0.009505 -706960.000000 0 0 1
22.677923 13.071600 -20.500955 33.248219 0.522887 2.235217 0.029602 -0.006805 -873175.000000 0 0 1
21.392623 12.663100 -20.898555 32.476884 0.534470 2.269845 0.022603 -0.009244 135983.000000 0 0 1
20.363423 13.839300 -20.892155 32.290515 0.596914 2.274447 0.023778 -0.006299 -235001.000000 0 0 1
20.600823 14.753600 -21.921355 33.505349 0.621493 2.284006 0.014111 0.003617 269690.000000 0 0 1
19.780823 15.921400 -21.911755 33.539483 0.677716 2.282748 0.010070 0.005746 68340.700000 0 0 1
18.421623 15.771500 -22.638955 33.175574 0.708048 2.321835 0.018454 0.022273 -430312.000000 0 0 1
17.452923 14.992400 -21.992255 31.828224 0.709707 2.333622 0.025251 0.003726 -115879.000000 0 0 1
16.379123 14.861600 -22.898655 31.835377 0.736861 2.373566 0.030534 -0.008761 947513.000000 0 0 1
15.060023 14.245000 -22.258655 30.416641 0.757594 2.391744 0.029951 -0.016229 471545.000000 0 0 1
13.905523 14.261200 -23.022655 30.443194 0.798025 2.428358 0.035677 -0.013540 -1374920.000000 0 0 1
12.835523 13.818400 -22.267055 29.180825 0.822257 2.438848 0.042773 -0.021128 -734095.000000 0 0 1
11.557623 13.807800 -23.127855 29.310948 0.873877 2.480060 0.039368 -0.017582 -338916.000000 0 0 1
11.024823 15.084200 -23.276955 29.847888 0.939641 2.465227 0.023449 -0.014290 -8936.700000 0 0 1
10.953923 15.407400 -24.626255 31.045593 0.952758 2.486889 0.026345 -0.008685 -390497.000000 0 0 1
10.656423 16.893000 -24.863455 31.892385 1.008024 2.464831 0.027215 -0.009256 397068.000000 0 0 1
11.695923 17.875900 -24.698355 32.655033 0.991415 2.428499 0.022484 0.003093 765154.000000 0 0 1
12.862223 17.906600 -25.531115 33.733084 0.947897 2.429287 0.031066 0.000735 390120.000000 0 0 1
12.675823 18.010100 -27.056625 34.886977 0.957513 2.458384 0.036436 -0.010980 -633121.000000 0 0 1
13.800323 17.828300 -27.868905 35.846521 0.912069 2.461399 0.019203 -0.009641 -213833.000000 0 0 1
13.340023 17.479900 -29.167875 36.527634 0.918924 2.495621 0.034757 -0.018349 -396906.000000 0 0 1
14.327623 17.761900 -30.249505 37.891931 0.892014 2.495280 0.022020 -0.017104 -903251.000000 0 0 1
15.419023 16.920500 -30.400935 38.056096 0.831793 2.496170 0.001554 -0.009819 -478851.000000 0 0 1
16.257823 17.373100 -31.444985 39.432582 0.818548 2.493831 -0.000895 -0.006359 60096.300000 0 0 1
17.518323 16.515100 -31.686635 39.795515 0.755929 2.491845 0.006735 -0.004940 -134076.000000 0 0 1
18.474523 16.648800 -30.590605 39.424303 0.733465 2.458989 0.007809 -0.003923 897852.000000 0 0 1
19.638823 15.850000 -30.780195 39.803596 0.679040 2.454829 0.005543 -0.001927 237131.000000 0 0 1
20.759223 16.506600 -31.592275 41.249061 0.671774 2.443222 0.005984 -0.007288 -934273.000000 0 0 1
20.404723 16.979200 -32.897905 42.271954 0.694022 2.462661 -0.001105 -0.001005 -250461.000000 0 0 1
21.526523 17.453800 -33.592895 43.548926 0.681294 2.451808 0.004145 -0.002047 -351666.000000 0 0 1
21.251423 18.017500 34.025292 43.976969 0.703230 0.686125 0.008239 0.009566 -457219.000000 0 0 1
22.245723 18.973100 33.724586 44.634050 0.706168 0.714258 0.019554 0.000602 272020.000000 0 0 1
22.104923 19.493200 32.458371 43.842426 0.722696 0.737218 0.030224 0.005733 -518440.000000 0 0 1
23.074423 20.644900 32.189271 44.663073 0.729884 0.765966 0.050079 0.000898 26495.400000 0 0 1
24.420523 20.209000 32.230421 45.205814 0.691310 0.777071 0.045567 -0.011662 -343656.000000 0 0 1
25.283123 21.302800 32.116701 46.092603 0.700165 0.799889 0.063258 -0.020361 266805.000000 0 0 1
26.783823 20.875700 32.084461 46.718098 0.662062 0.813764 0.048632 -0.021497 213268.000000 0 0 1
27.327123 20.432700 33.289996 47.670648 0.642032 0.797730 0.048603 -0.024200 -1376380.000000 0 0 1
28.619323 20.086800 32.998973 48.077826 0.611974 0.814316 0.046311 -0.023720 -1083200.000000 0 0 1
29.376023 19.430100 34.213860 49.102624 0.584367 0.799894 0.027210 -0.016320 63612.000000 0 0 1
29.613223 20.307300 -33.660975 49.217788 0.601099 2.323917 0.026242 -0.022643 474231.000000 0 0 1
28.450023 20.434900 -32.848415 48.020905 0.622885 2.324089 0.026809 -0.029731 259888.000000 0 0 1
28.796023 20.603200 -31.378285 47.310671 0.621045 2.295935 0.021505 -0.028188 60806.300000 0 0 1
29.281323 19.431100 -30.776615 46.713633 0.585877 2.290067 0.020626 -0.025104 138267.000000 0 0 1
30.003823 19.680400 -29.568115 46.495386 0.580532 2.260018 0.010073 -0.029899 361847.000000 0 0 1
31.422623 19.075400 -29.496295 47.130495 0.545594 2.247008 0.033262 -0.028710 399498.000000 0 0 1
32.399823 19.737600 -30.271755 48.535559 0.547148 2.244267 0.003259 -0.021213 -406794.000000 0 0 1
33.549923 20.094200 -29.585735 49.037638 0.539636 2.218463 0.022456 -0.018261 -585400.000000 0 0 1
34.543423 21.011200 -30.273805 50.509621 0.546467 2.213507 0.021235 -0.012347 -455507.000000 0 0 1
35.344723 20.368100 -31.217985 51.368001 0.522788 2.223998 0.004542 -0.012798 -13849.200000 0 0 1
-34.351295 21.322100 -31.575005 51.299361 -0.555506 2.233823 0.007063 -0.014255 153666.000000 0 0 1
-33.407095 20.871000 -32.706505 51.199103 -0.558418 2.263747 0.007572 -0.019245 2711.440000 0 0 1
-32.560695 19.800100 -32.259855 49.929361 -0.546353 2.273273 0.021707 -0.013249 617306.000000 0 0 1
-31.851095 19.264400 -33.405905 50.015636 -0.543961 2.302192 0.022287 -0.010102 -477952.000000 0 0 1
-30.852995 18.166400 -33.192295 48.822678 -0.532147 2.318360 0.007647 -0.000596 -917237.000000 0 0 1
-31.426495 17.005900 -32.762255 48.478765 -0.496010 2.312854 0.007611 -0.001061 -194367.000000 0 0 1
-30.765995 15.840500 -33.173385 47.936848 -0.475473 2.335084 0.009480 -0.000153 460615.000000 0 0 1
-31.859495 14.721900 -33.285505 48.370307 -0.432861 2.329718 0.013625 -0.006339 585841.000000 0 0 1
-31.273695 13.511200 -33.709365 47.926171 -0.407811 2.350910 0.025006 -0.010066 295840.000000 0 0 1
-32.279095 12.523800 -33.824295 48.403187 -0.370106 2.344519 0.033595 -0.012598 79365.700000 0 0 1
-31.708995 11.113600 -33.641355 47.546959 -0.337109 2.356807 0.037643 -0.015233 65038.200000 0 0 1
-30.909195 10.628300 34.330717 47.401870 -0.331191 0.760853 0.015513 -0.016255 204838.000000 0 0 1
-31.448295 9.355500 33.901147 47.178474 -0.289151 0.769049 0.037201 -0.016457 -72403.200000 0 0 1
-30.627695 8.741100 32.775101 45.701967 -0.278008 0.771094 0.031584 -0.009624 -154220.000000 0 0 1
-29.347195 8.414500 33.271811 45.156119 -0.279232 0.742446 0.034188 -0.004632 -530579.000000 0 0 1
-28.552995 7.961900 32.194261 43.762265 -0.271939 0.744152 0.025820 -0.000499 -131624.000000 0 0 1
20.471323 -4.258316 -31.264675 37.612341 -0.205089 2.552121 0.028674 -0.019159 115377.000000 0 0 1
21.299923 -3.929516 -32.359875 38.939560 -0.182434 2.551750 0.035797 -0.024215 274772.000000 0 0 1
22.405823 -3.116516 -31.930665 39.131840 -0.138207 2.525213 0.039760 -0.020232 406782.000000 0 0 1
22.312323 -1.621816 -32.356935 39.337530 -0.072559 2.536670 0.037012 -0.014838 -84567.600000 0 0 1
23.338123 -0.774816 -31.880535 39.517551 -0.033187 2.509417 0.046398 -0.015151 229572.000000 0 0 1
23.124923 0.543484 -32.374635 39.789124 0.023498 2.521209 0.035430 -0.018587 -594160.000000 0 0 1
24.189423 1.546284 -31.935305 40.092180 0.063837 2.492358 0.035967 -0.014621 -829399.000000 0 0 1
25.363823 1.240184 -32.604815 41.327177 0.048857 2.479884 0.038315 -0.013714 -544194.000000 0 0 1
26.437023 2.119084 -32.236915 41.744765 0.079985 2.453153 0.042424 -0.005736 683074.000000 0 0 1
27.809723 1.706584 -32.823115 43.054036 0.061290 2.437764 0.045376 -0.014062 127527.000000 0 0 1
28.055623 2.330784 -34.093472 44.214425 0.082887 2.451354 0.049701 -0.023216 -65657.700000 0 0 1
28.481323 1.417084 33.985915 44.364809 0.049714 0.698114 0.045145 -0.020429 -405006.000000 0 0 1
28.968723 2.173184 32.726711 43.760110 0.074878 0.725954 0.043490 -0.019686 -631783.000000 0 0 1
28.032023 2.988484 32.094561 42.717516 0.106208 0.720735 0.041505 -0.016543 -132235.000000 0 0 1
28.237923 4.298584 32.441411 43.223873 0.151068 0.721912 0.041860 -0.014426 -152116.000000 0 0 1
27.335423 5.326584 31.723311 42.213342 0.192449 0.720464 0.047048 -0.021788 -157484.000000 0 0 1
27.442223 6.615484 32.292691 42.891236 0.236556 0.718343 0.034537 -0.017495 138212.000000 0 0 1
26.829123 7.511884 31.369461 41.955611 0.272999 0.726232 0.027708 -0.015316 -35667.600000 0 0 1
26.880423 9.008684 31.692581 42.522149 0.323375 0.729783 0.024356 -0.011951 975615.000000 0 0 1
28.210523 9.425384 31.330611 43.200447 0.322448 0.759416 0.028376 -0.016939 692110.000000 0 0 1
28.322923 10.806584 31.298481 43.572527 0.364500 0.769430 0.027046 -0.012312 -288076.000000 0 0 1
29.711123 11.253084 30.824731 44.266768 0.362054 0.800511 0.025513 -0.011085 -325980.000000 0 0 1
30.758323 10.875984 31.728921 45.509184 0.339874 0.799315 0.042506 -0.018188 -289628.000000 0 0 1
32.017023 10.931984 31.138871 45.980727 0.329031 0.826824 0.041809 -0.021042 -328448.000000 0 0 1
32.681623 12.358784 31.362461 46.951379 0.361536 0.839309 0.048330 -0.020241 -436231.000000 0 0 1
33.256723 12.465884 32.685591 48.267543 0.358629 0.826879 0.050382 -0.026670 51780.700000 0 0 1
33.732423 13.797684 32.903091 49.100568 0.388269 0.836431 0.044059 -0.019739 219805.000000 0 0 1
32.751623 15.044984 32.901631 48.801000 0.430615 0.830915 0.046798 -0.016674 -260477.000000 0 0 1
32.314223 15.359284 31.591341 47.729754 0.443702 0.847473 0.038784 -0.025291 656738.000000 0 0 1
31.276523 16.357784 31.560531 47.348338 0.481882 0.841211 0.040892 -0.021832 444185.000000 0 0 1
29.853423 15.786884 31.666641 46.295018 0.486432 0.817539 0.032505 -0.012936 -712291.000000 0 0 1
29.190223 15.439184 30.475001 44.935100 0.486512 0.825485 0.032855 -0.008379 128951.000000 0 0 1
27.901223 14.998184 30.837031 44.207988 0.493231 0.798832 0.020330 -0.011073 16348.200000 0 0 1
26.967123 14.353384 29.782641 42.664400 0.489117 0.798101 0.013395 0.000887 -6961.080000 0 0 1
27.260623 13.043284 29.331611 42.114275 0.446273 0.800321 0.022573 -0.002898 -158979.000000 0 0 1
26.501223 12.736484 28.197411 40.738517 0.448007 0.806324 0.013728 -0.006463 -327833.000000 0 0 1
26.213523 11.193584 28.133251 40.049031 0.403577 0.791934 0.013313 0.000526 -853226.000000 0 0 1
27.355523 10.386984 27.961981 40.473280 0.362888 0.808098 0.024223 -0.007130 -332991.000000 0 0 1
27.055723 9.036284 27.794281 39.826983 0.322340 0.798369 0.025645 -0.004390 319354.000000 0 0 1
28.243623 8.058384 27.446361 40.198787 0.277932 0.819255 0.029763 -0.020391 323313.000000 0 0 1
28.650923 8.350484 26.136111 39.669916 0.283600 0.851521 0.025111 -0.014935 202528.000000 0 0 1
29.589823 7.419084 25.617831 39.835583 0.245666 0.872271 0.026134 -0.013899 22468.000000 0 0 1
30.218223 7.660384 24.275131 39.510814 0.248272 0.909181 0.031360 -0.009751 -225454.000000 0 0 1
30.891923 8.871784 24.112541 40.180021 0.279661 0.927154 0.030492 -0.011005 330765.000000 0 0 1
30.122523 9.908584 23.467541 39.449612 0.317794 0.933688 0.026237 -0.011189 219403.000000 0 0 1
29.597823 9.770084 21.983741 38.141454 0.318833 0.956512 0.023458 0.000495 215467.000000 0 0 1
30.658923 9.983184 21.106141 38.537030 0.314793 0.991202 0.017933 -0.001655 206160.000000 0 0 1
30.106023 10.013184 19.779341 37.387950 0.321088 1.013339 0.017083 -0.009454 -734285.000000 0 0 1
30.864123 10.830084 18.721941 37.688139 0.337472 1.050935 0.028953 -0.023969 52339.500000 0 0 1
32.097223 10.298184 18.275141 38.344036 0.310468 1.074002 0.034533 -0.017479 447501.000000 0 0 1
33.159723 10.528084 19.194841 39.734741 0.307430 1.066634 0.030346 -0.004708 524274.000000 0 0 1
34.604523 10.029284 18.756241 40.618421 0.282097 1.090810 0.043257 -0.003113 967978.000000 0 0 1
34.740923 8.640784 18.605841 40.345659 0.243774 1.091493 0.041177 0.001062 514956.000000 0 0 1
-34.878995 8.322684 17.737241 40.005263 -0.234236 1.111438 0.039906 0.003209 222756.000000 0 0 1
-34.694395 6.809084 17.442441 39.424655 -0.193796 1.112496 0.034702 -0.001374 -108632.000000 0 0 1
34.855823 6.298184 16.804041 39.204225 0.178764 1.127822 0.032623 -0.000907 265958.000000 0 0 1
34.982523 4.977484 16.295241 38.911272 0.141336 1.138696 0.031309 0.004979 -239733.000000 0 0 1
33.735523 4.076984 16.391841 37.727970 0.120268 1.121342 0.033416 0.003491 -219986.000000 0 0 1
33.404423 3.611784 17.688141 37.970657 0.107705 1.086216 0.026962 0.002264 -193205.000000 0 0 1
32.221323 2.867584 17.584441 36.819142 0.088763 1.072887 0.026142 0.003299 -154960.000000 0 0 1
31.985823 2.047984 18.862941 37.190021 0.063941 1.038858 0.020989 0.001402 6912.260000 0 0 1
32.785623 0.889484 18.910741 37.859006 0.027124 1.047770 0.021506 -0.002268 -32053.800000 0 0 1
32.446323 0.138184 20.006541 38.118822 0.004259 1.018261 0.013631 0.001584 -4503.310000 0 0 1
33.081623 -1.259116 19.963941 38.659256 -0.038043 1.028146 0.011950 0.004275 -73241.100000 0 0 1
32.707123 -2.067416 21.061141 38.956408 -0.063126 0.999606 0.015034 0.011692 147340.000000 0 0 1
33.298423 -3.386916 21.097841 39.564821 -0.101365 1.008362 0.021000 0.009674 107517.000000 0 0 1
32.779323 -4.269816 22.302441 39.876236 -0.129530 0.977265 0.013106 0.016882 87425.800000 0 0 1
33.080123 -3.662116 23.568641 40.782183 -0.110255 0.954625 0.006799 0.009215 433510.000000 0 0 1
32.377823 -4.293816 24.650541 40.919548 -0.131847 0.924273 0.006517 0.012731 419962.000000 0 0 1
33.049223 -3.965516 26.025451 42.252817 -0.119417 0.907210 -0.005967 0.012518 13971.800000 0 0 1
32.231423 -4.307516 27.112961 42.338304 -0.132856 0.875792 0.017078 0.011900 -189594.000000 0 0 1
32.832623 -3.922316 28.326561 43.540323 -0.118900 0.862445 0.030875 0.004495 -479650.000000 0 0 1
32.055123 -4.315116 29.623451 43.860004 -0.133811 0.829277 0.042632 -0.001542 95555.300000 0 0 1
32.010723 -5.700116 29.950741 44.206612 -0.176222 0.826415 0.033588 -0.004243 155730.000000 0 0 1
31.001123 -5.915816 30.919441 44.182330 -0.188559 0.795658 0.039290 -0.014466 -326337.000000 0 0 1
30.953723 -7.295216 31.532671 44.784623 -0.231458 0.789647 0.041748 -0.008953 -392795.000000 0 0 1
32.169823 -7.653016 32.131231 46.107290 -0.233553 0.799759 0.048266 -0.016142 -523331.000000 0 0 1
32.803223 -8.670516 31.402171 46.231219 -0.258409 0.824067 0.042727 -0.014289 -280806.000000 0 0 1
34.082023 -9.071416 32.153811 47.725700 -0.260133 0.831564 0.044089 -0.008168 -257213.000000 0 0 1
33.832523 -9.579316 33.411362 48.504866 -0.275917 0.810929 0.022035 -0.008963 230331.000000 0 0 1
35.017223 -9.915916 34.129532 49.893449 -0.275948 0.817498 -0.001027 -0.004877 35936.800000 0 0 1
34.793423 -10.241716 -33.355995 49.275728 -0.286272 2.314374 0.013395 -0.003520 -196060.000000 0 0 1
34.460323 -9.106216 -32.522525 48.250924 -0.258347 2.310446 0.004356 -0.002964 706773.000000 0 0 1
-35.172995 -8.180016 -32.361545 48.490431 0.228503 2.301481 0.005036 0.005786 141605.000000 0 0 1
35.145323 -6.823816 -31.695355 47.815831 -0.191774 2.295433 0.004041 -0.004959 -377167.000000 0 0 1
34.644123 -6.911316 -30.370575 46.587051 -0.196910 2.280897 0.001694 -0.003436 396282.000000 0 0 1
34.172723 -5.623316 -29.940865 45.780477 -0.163094 2.283669 0.013008 -0.005436 -108126.000000 0 0 1
34.261223 -5.343516 -28.406685 44.825487 -0.154718 2.257146 0.015646 -0.000091 185291.000000 0 0 1
-35.116595 -5.246516 -27.913175 45.164660 0.148306 2.237032 -0.002856 0.006677 119152.000000 0 0 1
-35.052595 -4.844416 -26.540775 44.233082 0.137334 2.214324 -0.000992 0.009161 1506000.000000 0 0 1
-33.540795 -4.641216 -26.079855 42.739732 0.137502 2.227111 0.001444 0.016122 573504.000000 0 0 1
-33.509195 -3.998316 -24.849055 41.908570 0.118758 2.205495 0.006589 0.017987 34678.400000 0 0 1
-32.291795 -3.765016 -24.164555 40.507544 0.116070 2.209985 0.011158 0.017311 590122.000000 0 0 1
-31.194695 -2.871716 -24.877655 40.003169 0.091799 2.241953 0.015984 0.014846 261469.000000 0 0 1
-30.560595 -3.483116 -25.972755 40.257497 0.113484 2.272036 0.017206 0.016168 235829.000000 0 0 1
-29.414695 -2.741416 -26.407345 39.624330 0.092930 2.300224 0.021688 0.007231 656294.000000 0 0 1
-28.725095 -3.466116 -27.618395 39.999010 0.120085 2.332945 0.014175 0.022259 3667.590000 0 0 1
-29.538395 -3.483316 -28.774935 41.384142 0.117383 2.339652 -0.001508 0.033874 -15969.800000 0 0 1
-29.036295 -4.405816 -29.753155 41.806314 0.150586 2.362698 0.003682 0.023935 -1104990.000000 0 0 1
-29.969595 -4.677816 -30.949375 43.335002 0.154836 2.366261 -0.004868 0.026441 -56044.700000 0 0 1
-31.172195 -5.401116 -30.649615 44.048572 0.171564 2.340349 -0.007628 0.021563 672699.000000 0 0 1
-32.173495 -4.641216 -30.010765 44.241617 0.143268 2.316294 0.006251 0.016715 -850436.000000 0 0 1
-33.013995 -3.644116 -30.875925 45.348939 0.109936 2.319722 0.024566 0.011665 -561313.000000 0 0 1
-32.354595 -2.509216 -31.453385 45.193268 0.077399 2.340573 0.018952 0.016395 158716.000000 0 0 1
-31.808495 -1.504216 -30.621905 44.178548 0.047255 2.336632 -0.000461 0.018446 60798.100000 0 0 1
-31.290895 -0.235016 -31.344765 44.290740 0.007511 2.357040 0.020959 0.019240 -156578.000000 0 0 1
-32.304195 0.570484 -31.870895 45.383262 -0.017658 2.349365 0.013622 0.022048 -303633.000000 0 0 1
-31.807795 1.680584 -32.594315 45.573562 -0.052787 2.367710 0.008843 0.023246 -148234.000000 0 0 1
-32.906495 2.521384 -33.237985 46.839710 -0.076473 2.359743 0.032741 0.011118 -138234.000000 0 0 1
-33.646795 1.825184 -34.218774 48.024605 -0.054192 2.363888 0.033565 0.010360 355475.000000 0 0 1
-34.903795 2.498084 -34.355873 49.039182 -0.071449 2.347006 0.037934 0.011142 1048190.000000 0 0 1
34.800023 1.885784 33.593302 48.405658 0.054136 0.803773 0.042736 0.007004 493339.000000 0 0 1
35.031423 2.202684 32.229701 47.652975 0.062795 0.828011 0.026695 0.005446 26787.100000 0 0 1
-34.657895 1.466884 31.599371 46.923786 -0.042299 0.831972 0.031920 0.004448 -360530.000000 0 0 1
-34.505895 1.767484 30.044831 45.787255 -0.051178 0.855047 0.031405 0.004164 -60417.900000 0 0 1
-34.066195 3.106984 29.799531 45.367070 -0.090953 0.854158 0.026172 -0.000545 232795.000000 0 0 1
-33.708395 3.252484 28.431351 44.217375 -0.096191 0.872400 0.011026 -0.002148 17288.300000 0 0 1
-33.174195 4.677284 28.164331 43.767954 -0.140068 0.871745 0.019196 -0.000028 -164416.000000 0 0 1
-32.656895 4.785484 26.837361 42.539601 -0.145503 0.888110 0.031436 0.001936 501052.000000 0 0 1
-31.950295 6.022984 26.661121 42.046558 -0.186324 0.883971 0.032221 0.003289 -216123.000000 0 0 1
-31.173695 6.152884 25.338161 40.640862 -0.194869 0.897629 0.014368 0.004701 -480986.000000 0 0 1
-30.023795 5.352484 25.320841 39.638647 -0.176421 0.877870 0.027569 0.009471 -537869.000000 0 0 1
-29.324295 5.443384 24.120391 38.358024 -0.183538 0.890758 0.026187 0.009178 -464298.000000 0 0 1
-29.922095 4.865484 22.793241 37.928044 -0.161194 0.926095 0.037592 0.001362 -323843.000000 0 0 1
-30.161195 3.470984 22.781441 37.957074 -0.114577 0.927058 0.023456 0.003385 322964.000000 0 0 1
-31.076995 3.003184 21.771241 38.062918 -0.096338 0.961878 0.027851 0.000066 182454.000000 0 0 1
-31.010595 1.497984 21.494541 37.761307 -0.048268 0.965238 0.027485 -0.004443 31900.500000 0 0 1
-29.834995 0.993184 20.895541 36.438126 -0.033277 0.960082 0.040700 -0.007398 96987.600000 0 0 1
-29.694695 1.367884 19.520941 35.562806 -0.046032 0.989731 0.037566 -0.006731 -466307.000000 0 0 1
-28.514795 0.621984 18.906741 34.219078 -0.021809 0.985411 0.041022 -0.011125 -355504.000000 0 0 1
-28.800595 -0.731116 18.572841 34.277679 0.025380 0.998178 0.048799 -0.005876 277002.000000 0 0 1
-27.788895 -1.379816 17.785041 33.021724 0.049613 1.002038 0.057136 -0.007412 22122.900000 0 0 1
-27.645595 -0.893416 16.296541 32.103806 0.032306 1.038376 0.040500 -0.003646 283090.000000 0 0 1
-26.942195 0.356184 16.089041 31.382575 -0.013220 1.032500 0.044257 -0.002901 554174.000000 0 0 1
-27.099995 0.743484 14.747241 30.861686 -0.027428 1.072591 0.043447 -0.002547 33508.500000 0 0 1
-26.558995 2.169684 14.457941 30.316989 -0.081512 1.073681 0.046660 -0.008525 -113676.000000 0 0 1
-25.155995 2.227584 14.368741 29.055928 -0.088320 1.053514 0.041779 -0.015717 -178114.000000 0 0 1
-24.853695 3.552984 13.983541 28.737942 -0.141994 1.062616 0.042783 -0.012173 -389745.000000 0 0 1
-23.429595 3.953384 13.573641 27.364556 -0.167160 1.051776 0.037587 -0.002648 -406257.000000 0 0 1
-22.589395 4.106684 14.692541 27.258327 -0.179833 1.001534 0.033081 -0.005253 231092.000000 0 0 1
-21.343995 4.631684 14.268041 26.088228 -0.213689 0.992122 0.022793 -0.000119 432459.000000 0 0 1
-20.418995 5.204984 15.418441 26.110449 -0.249593 0.939108 0.006868 0.001430 62330.100000 0 0 1
-20.736795 6.517884 15.896041 26.929196 -0.304537 0.939378 0.012073 0.002087 347843.000000 0 0 1
-19.975695 6.917784 16.994241 27.123576 -0.333384 0.893679 0.011588 0.003540 -354590.000000 0 0 1
-20.280095 8.438184 17.225641 27.914296 -0.394293 0.905757 0.009926 -0.001379 -229113.000000 0 0 1
-19.660095 9.313284 16.318341 27.194574 -0.442399 0.927222 0.012229 -0.004058 428363.000000 0 0 1
-20.110295 10.634384 16.419041 28.055285 -0.486424 0.945622 0.021004 -0.003560 -188248.000000 0 0 1
-19.370695 11.497584 17.478541 28.511711 -0.535667 0.910906 0.034582 -0.007195 -418425.000000 0 0 1
-19.655195 11.023484 18.744041 29.311823 -0.511130 0.876987 0.021581 -0.014537 409692.000000 0 0 1
-19.108195 11.890684 19.708941 29.915779 -0.556642 0.851555 0.028554 -0.008776 -303247.000000 0 0 1
-12.244277 -33.002433 -21.234155 41.109272 1.215527 2.113589 0.042042 -0.026418 -323478.000000 0 0 1
-12.734877 -33.677933 -20.160855 41.265486 1.209278 2.081240 0.063244 -0.019082 -278661.000000 0 0 1
-13.842377 -32.952233 -19.659355 40.791559 1.173105 2.073671 0.065934 -0.040414 68435.300000 0 0 1
-14.953877 -33.869833 -19.103555 41.662091 1.155025 2.047143 0.073414 -0.027463 -1124260.000000 0 0 1
-15.601577 34.513584 -20.131255 42.893637 -1.146246 2.059328 0.060994 -0.027211 75943.800000 0 0 1
-16.346677 33.361484 -19.685255 42.044164 -1.115192 2.058054 0.065044 -0.017216 240185.000000 0 0 1
-17.759677 33.695484 -19.164155 42.638675 -1.085733 2.036951 0.068908 -0.014232 -800516.000000 0 0 1
-17.692077 -34.453233 -18.128955 42.763230 1.096399 2.008585 0.063096 -0.018645 562700.000000 0 0 1
-19.017277 -34.141833 -17.643855 42.879216 1.062589 1.994871 0.039257 -0.019775 857269.000000 0 0 1
-19.146577 34.448084 -16.182255 42.604311 -1.063504 1.960405 0.038241 -0.017635 -223394.000000 0 0 1
-19.137177 33.013784 -15.970855 41.366770 -1.045458 1.967174 0.047086 -0.024351 78904.600000 0 0 1
-19.393077 32.656084 -14.622255 40.697931 -1.034905 1.938301 0.042211 -0.017895 37437.400000 0 0 1
-19.622377 31.079884 -14.445355 39.492596 -1.007642 1.945260 0.039806 -0.013526 1033290.000000 0 0 1
-18.373777 30.477884 -14.050455 38.261108 -1.028279 1.946821 0.037008 -0.009150 837737.000000 0 0 1
-18.553977 29.096884 -13.887455 37.198658 -1.003144 1.953395 0.034202 -0.008529 79016.100000 0 0 1
-17.285677 28.485084 -13.239955 35.853745 -1.025368 1.949027 0.038611 -0.008463 -211548.000000 0 0 1
-16.174377 28.610884 -14.066855 35.750099 -1.056265 1.975207 0.035599 -0.014578 -232892.000000 0 0 1
-15.055477 27.815884 -13.623755 34.438314 -1.074692 1.977516 0.038099 -0.017846 606874.000000 0 0 1
-13.768477 28.216184 -14.360355 34.524539 -1.116824 1.999779 0.038218 -0.022940 -289432.000000 0 0 1
-13.811777 27.987184 -15.751955 34.959573 -1.112359 2.038207 0.036688 -0.012916 -241527.000000 0 0 1
-12.741877 28.698184 -16.310055 35.383034 -1.152947 2.049870 0.039912 -0.017623 -132156.000000 0 0 1
-12.901477 28.766084 -17.870655 36.239426 -1.149194 2.086477 0.054172 -0.028482 -163853.000000 0 0 1
-12.831277 27.526184 -18.516655 35.569636 -1.134595 2.118320 0.025812 -0.023835 -196229.000000 0 0 1
-13.301777 27.693184 -19.793355 36.546226 -1.123011 2.143133 0.025101 -0.028557 -284922.000000 0 0 1
-12.832777 26.690684 -20.884455 36.238560 -1.122630 2.184996 0.003662 -0.011633 -355323.000000 0 0 1
-11.458177 26.696284 -21.152355 35.936103 -1.165369 2.200135 0.005920 -0.016282 -382342.000000 0 0 1
-10.972077 25.454684 -21.639255 35.165107 -1.163818 2.233641 0.005397 -0.013697 -133850.000000 0 0 1
-9.679877 25.712784 -22.409955 35.454948 -1.210745 2.255016 0.018663 -0.014422 -341848.000000 0 0 1
-9.910877 26.507484 -23.555655 36.820389 -1.212999 2.264963 0.017850 -0.013515 775738.000000 0 0 1
-8.736177 26.556584 -24.392455 37.102086 -1.252983 2.288215 0.006276 -0.011102 666351.000000 0 0 1
-9.120577 27.324084 -25.672995 38.586178 -1.248632 2.298748 0.012107 -0.009200 -240953.000000 0 0 1
-10.067177 26.647084 -26.442895 38.866976 -1.209576 2.319028 0.004251 -0.007081 -607994.000000 0 0 1
-10.237877 27.354284 -27.644885 40.215801 -1.212666 2.328718 0.019026 -0.001540 -619010.000000 0 0 1
-11.454177 26.871784 -28.393785 40.736936 -1.167865 2.342006 0.007647 0.002180 -616055.000000 0 0 1
-11.535077 27.330184 -29.748015 42.011205 -1.171415 2.357596 0.012171 0.008010 1240520.000000 0 0 1
-12.849877 26.927084 -30.263945 42.498159 -1.125546 2.363315 0.003416 0.015274 1519290.000000 0 0 1
-13.052177 27.161984 -31.763545 43.784192 -1.122845 2.382494 -0.005393 0.021655 -389272.000000 0 0 1
-12.403577 26.273684 -32.638885 43.697277 -1.129724 2.414232 -0.001495 0.014848 -14830.100000 0 0 1
-12.608677 24.851584 -32.486895 42.801616 -1.101279 2.432589 -0.007245 0.007460 262188.000000 0 0 1
-11.905177 24.091384 -33.672605 43.080998 -1.111826 2.468042 0.000085 0.011364 740535.000000 0 0 1
-12.566777 24.346484 34.087211 43.733432 -1.094301 0.677039 0.001674 0.012771 1369160.000000 0 0 1
-11.610377 23.877884 33.058506 42.400696 -1.118217 0.676659 -0.004765 0.006377 647147.000000 0 0 1
-12.139077 23.863884 31.612081 41.426632 -1.100229 0.702722 0.004749 0.017700 344487.000000 0 0 1
-13.201777 22.909884 31.355721 41.016228 -1.048025 0.700576 0.002907 0.009039 762962.000000 0 0 1
-13.707977 22.895584 30.015751 40.162939 -1.031321 0.726732 0.013555 0.015439 602458.000000 0 0 1
-14.945677 21.963084 29.824541 39.940625 -0.973284 0.727676 0.013908 0.008735 759596.000000 0 0 1
-14.530977 20.614984 30.023561 39.211492 -0.956806 0.698694 -0.010579 0.003786 -472828.000000 0 0 1
-15.658477 19.823484 29.822611 39.083840 -0.902247 0.702790 -0.008155 0.003490 -222832.000000 0 0 1
-15.360877 18.351184 30.063091 38.425407 -0.873868 0.672326 -0.021355 -0.000869 -226881.000000 0 0 1
-15.061877 17.661384 28.841801 37.022076 -0.864671 0.677658 -0.006814 -0.004201 -18420.800000 0 0 1
-14.286577 16.490384 29.054281 36.334423 -0.856882 0.644109 -0.026199 -0.010553 85042.700000 0 0 1
-13.846577 15.965584 27.668171 34.816020 -0.856357 0.652289 -0.009790 -0.012777 -316705.000000 0 0 1
-12.921477 16.766084 27.014611 34.319897 -0.914184 0.664636 -0.029259 -0.011649 -596658.000000 0 0 1
-12.597477 16.249684 25.770321 32.967531 -0.911334 0.673429 -0.028460 -0.009439 219244.000000 0 0 1
-11.429577 17.037084 25.094141 32.413167 -0.979893 0.685353 -0.018403 -0.000759 -43.859900 0 0 1
-11.683977 18.165384 24.298471 32.510186 -0.999216 0.726640 -0.016878 0.003381 -245023.000000 0 0 1
-12.073477 19.421984 24.976591 33.864619 -1.014617 0.741373 -0.013343 0.000874 371069.000000 0 0 1
-11.006677 20.075084 25.927431 34.588836 -1.069278 0.723355 -0.028302 0.004933 168169.000000 0 0 1
-10.970777 19.598184 27.241291 35.306298 -1.060471 0.689490 -0.021567 -0.002055 -186508.000000 0 0 1
-12.029477 19.876684 28.137251 36.489667 -1.026558 0.690226 -0.014535 -0.004464 -378565.000000 0 0 1
-11.694877 19.399584 29.562391 37.243106 -1.028290 0.653817 -0.017786 -0.002794 -896929.000000 0 0 1
-10.712777 20.154084 30.167811 37.829189 -1.082233 0.647699 -0.023487 -0.007345 -723889.000000 0 0 1
-10.766777 20.124384 31.546501 38.937078 -1.079533 0.626317 -0.022315 -0.004112 -138427.000000 0 0 1
-9.632577 20.948084 32.211721 39.613176 -1.139797 0.621241 -0.021257 -0.005170 57866.900000 0 0 1
-8.425677 20.212384 32.162221 38.909394 -1.175843 0.597770 -0.018639 -0.011288 -361432.000000 0 0 1
-7.371777 21.045384 32.592251 39.490582 -1.233872 0.600033 -0.008721 -0.010528 -498779.000000 0 0 1
-6.212177 20.311484 33.228406 39.436968 -1.273985 0.568759 -0.007833 -0.004231 -1039800.000000 0 0 1
-6.541977 19.598584 34.423010 40.147797 -1.248627 0.540586 -0.014951 -0.005065 -331221.000000 0 0 1
-5.447177 19.109884 -33.871115 39.269732 -1.293116 2.611034 -0.025699 -0.000644 236026.000000 0 0 1
-4.526477 18.048284 34.433694 39.139607 -1.325067 0.495427 -0.035423 0.001823 -3166.360000 0 0 1
-5.221277 16.841784 34.274644 38.544243 -1.270173 0.475140 -0.039560 0.000307 -61854.000000 0 0 1
-4.863177 16.127484 33.128117 37.164746 -1.277922 0.470403 -0.022778 0.002196 -47244.400000 0 0 1
-5.578577 14.728084 33.022212 36.585563 -1.208723 0.445020 -0.023274 -0.001647 -375487.000000 0 0 1
-5.060677 13.704584 33.852724 36.870489 -1.217060 0.407405 -0.019913 -0.004835 421123.000000 0 0 1
-5.709377 12.422484 33.524417 36.204994 -1.139988 0.387223 -0.007691 -0.008634 -217185.000000 0 0 1
-4.756277 11.296884 33.876394 36.025710 -1.172297 0.347170 0.004133 -0.015213 -107413.000000 0 0 1
-4.553777 11.166484 -33.757695 35.847025 -1.183577 2.798490 0.002169 -0.012694 -122927.000000 0 0 1
-3.788577 9.978884 -33.555975 35.212709 -1.207947 2.833622 0.014362 -0.017907 222644.000000 0 0 1
-3.609377 9.573584 -32.052625 33.645979 -1.210261 2.832610 0.017362 -0.013723 245905.000000 0 0 1
-4.805477 9.105484 -31.444705 33.087338 -1.085191 2.825170 0.018274 -0.014010 110597.000000 0 0 1
-4.599877 8.761684 -30.091375 31.676755 -1.087350 2.823876 0.027204 -0.013544 -263516.000000 0 0 1
-5.875577 8.113584 -29.558705 31.210090 -0.944035 2.814835 0.020611 -0.011142 -344796.000000 0 0 1
-5.748077 7.418784 -28.301155 29.816675 -0.911611 2.821391 0.021174 -0.010248 -397688.000000 0 0 1
-6.836777 6.562584 -28.228045 29.776359 -0.764938 2.817694 0.030430 -0.015699 -797893.000000 0 0 1
-6.761977 5.621884 -27.040615 28.434570 -0.693594 2.827175 0.027519 -0.014949 -267741.000000 0 0 1
-6.966277 6.110184 -25.740915 27.357962 -0.720023 2.796054 0.006220 -0.004545 -41090.900000 0 0 1
-5.972577 6.960384 -25.244885 26.859316 -0.861629 2.793113 0.014087 -0.007880 -227058.000000 0 0 1
-6.589377 7.839884 -24.115755 26.200254 -0.871847 2.740000 -0.000225 -0.003498 214769.000000 0 0 1
-6.821577 7.159384 -22.935355 24.976413 -0.809555 2.734512 -0.003058 -0.000245 -421502.000000 0 1 0
-7.962677 7.570684 -22.259755 24.823702 -0.760168 2.683084 -0.004466 0.002721 -508081.000000 0 1 0
-7.709377 7.664684 -20.710655 23.390449 -0.782491 2.658219 -0.008882 0.001037 -121926.000000 0 1 0
-7.031777 8.863084 -20.391155 23.319506 -0.900106 2.635045 -0.024530 0.002285 40886.600000 0 1 0
-6.894577 9.018484 -19.036155 22.164012 -0.918083 2.603869 -0.011047 0.000888 -250774.000000 0 1 0
-7.976077 9.825584 -18.300755 22.250338 -0.888922 2.536577 -0.022789 0.019437 -434662.000000 0 1 0
-7.732477 9.703684 -16.889855 20.957574 -0.897973 2.508002 -0.023109 0.006325 352075.000000 0 1 0
-8.946477 9.895984 -16.196255 20.983056 -0.835747 2.452578 -0.009224 0.003998 279033.000000 0 1 0
-9.581277 11.319584 -16.232255 21.986813 -0.868376 2.401302 -0.007949 -0.001288 -845043.000000 0 1 0
-8.685377 12.314684 -15.755955 21.802232 -0.956531 2.378463 -0.016423 -0.001065 57281.200000 0 1 0
-9.067877 13.669484 -16.002855 22.916644 -0.985082 2.343826 -0.003648 -0.005160 553347.000000 0 1 0
-7.914877 14.727084 -15.679955 22.921459 -1.077650 2.324129 0.009599 -0.007259 912688.000000 0 1 0
-7.309077 14.687084 -14.401155 21.829483 -1.109028 2.291231 0.011899 -0.008547 334581.000000 0 1 0
-8.146877 15.223284 -13.385955 21.847283 -1.079419 2.230276 0.008061 -0.023666 -224644.000000 0 1 0
-7.410877 16.212884 -12.459355 21.748890 -1.142055 2.180803 0.012151 -0.013430 213519.000000 0 1 0
-7.058677 17.547784 -12.889355 22.888537 -1.188348 2.168972 0.024855 -0.012328 -26452.700000 0 1 0
-6.081377 17.634384 -13.906155 23.266624 -1.238709 2.211409 0.028236 -0.008536 -90771.300000 0 1 0
-5.754877 19.090984 -14.278755 24.524827 -1.278015 2.192248 0.046484 -0.006721 410387.000000 0 1 0
-5.000577 19.941784 -13.374355 24.526595 -1.325104 2.147543 0.034550 -0.015693 305860.000000 0 1 0
-4.812377 21.242284 -13.959355 25.870006 -1.348010 2.140754 0.040905 -0.013474 -180367.000000 0 0 1
-4.176977 22.246984 -12.988255 26.097322 -1.385202 2.091724 0.042978 -0.013128 -789126.000000 0 0 1
-4.209777 23.709484 -13.241755 27.481010 -1.395071 2.073562 0.041608 -0.013699 639908.000000 0 0 1
-5.505177 24.320884 -13.121955 28.177971 -1.348192 2.055201 0.039933 -0.016376 889541.000000 0 0 1
-6.265577 24.242584 -11.764655 27.665275 -1.317878 2.010034 0.041319 -0.016565 -363185.000000 0 0 1
-6.821577 22.940484 -11.642355 26.614735 -1.281764 2.023546 0.039855 -0.017791 22684.900000 0 0 1
-7.912577 22.866784 -10.719655 26.465254 -1.237663 1.987826 0.037596 -0.011748 363100.000000 0 0 1
-7.699077 23.236984 -9.210255 26.154579 -1.250851 1.930660 0.030342 -0.006108 -329473.000000 0 0 1
-7.669577 24.636984 -9.018855 27.333919 -1.269002 1.907048 0.017119 -0.009754 -134335.000000 0 0 1
-7.144477 24.927584 -7.747655 27.063890 -1.291669 1.861131 0.017346 -0.007841 -31504.900000 0 0 1
-7.272577 26.385484 -7.347955 28.338606 -1.301846 1.833085 0.027509 -0.006656 -330510.000000 0 0 1
-6.444277 27.301884 -8.087355 29.194638 -1.339001 1.851483 0.013845 -0.010745 5871.340000 0 0 1
-6.545977 27.457484 -9.469855 29.773166 -1.336761 1.894486 0.017394 -0.007575 -72004.500000 0 0 1
-5.588077 28.537484 -10.022055 30.758026 -1.377428 1.902692 0.009370 -0.008495 83157.500000 0 0 1
-6.053377 29.891084 -10.046055 32.109866 -1.370984 1.889004 0.001863 -0.007843 -124992.000000 0 0 1
-6.807477 30.170484 -11.221055 32.901549 -1.348879 1.918829 0.004504 -0.008991 -180804.000000 0 0 1
-7.901477 31.207684 -10.948155 34.003161 -1.322817 1.898611 0.003081 -0.004549 -501784.000000 0 0 1
-9.003477 30.723384 -10.242755 33.614029 -1.285728 1.880437 0.004448 0.003662 267609.000000 0 0 1
-10.147377 31.577284 -10.414755 34.764367 -1.259869 1.875050 0.002606 -0.005994 1130040.000000 0 0 1
-11.331877 31.330984 -9.413355 34.621572 -1.223752 1.846156 0.004096 -0.000724 716430.000000 0 0 1
-12.069077 30.161684 -9.786255 33.928757 -1.190164 1.863389 0.002740 0.002625 -490558.000000 0 0 1
-13.070177 29.852784 -8.879355 33.776637 -1.158116 1.836807 0.018376 0.008302 -470166.000000 0 0 1
-14.005277 28.727684 -9.288755 33.282256 -1.117184 1.853643 0.024738 0.007058 -81781.400000 0 0 1
-13.536877 27.394784 -9.053755 31.869919 -1.111847 1.858848 0.002658 0.008606 -75484.200000 0 0 1
-14.585777 26.561084 -9.453155 31.742688 -1.068613 1.873190 0.021668 0.005795 -230480.000000 0 0 1
-14.586877 25.181784 -8.783855 30.398278 -1.045764 1.863936 0.019541 0.005953 46800.500000 0 0 1
-13.565277 24.306484 -9.231355 29.326435 -1.061761 1.891020 0.023706 0.003817 328493.000000 0 0 1
-13.961777 23.003284 -8.819155 28.317129 -1.025284 1.887507 0.045213 0.000940 623801.000000 0 0 1
-12.943677 21.915384 -9.339555 27.111808 -1.037302 1.922484 0.048179 0.003351 340436.000000 0 0 1
-13.046777 21.753684 -10.736555 27.544778 -1.030560 1.971195 0.052964 0.001795 139546.000000 0 0 1
-12.435977 20.580284 -11.212055 26.531336 -1.027246 2.007105 0.058118 -0.001583 -152093.000000 0 0 1
-12.450977 20.463484 -12.733355 27.127833 -1.024188 2.059389 0.059757 0.010003 335551.000000 0 0 1
-13.792077 20.120684 -13.041655 27.661310 -0.969890 2.061761 0.053147 0.016109 17691.200000 0 0 1
-13.951377 19.579484 -14.343955 27.995467 -0.951697 2.108735 0.055534 0.016769 226090.000000 0 0 1
-15.413377 19.139484 -14.634555 28.601787 -0.892821 2.107919 0.038838 0.016521 194178.000000 0 0 1
-16.168377 20.268884 -14.977355 29.942699 -0.897463 2.094627 0.000821 0.015601 178268.000000 0 0 1
-17.470577 19.848984 -15.412155 30.606172 -0.849043 2.098515 -0.012314 0.022973 515990.000000 0 0 1
-18.186177 20.915884 -16.307255 32.158013 -0.855095 2.102610 -0.018470 0.013172 69710.300000 0 0 1
-18.514277 22.056284 -15.515255 32.710568 -0.872482 2.064987 -0.005971 0.009421 364351.000000 0 0 1
-19.329377 22.945984 -16.270155 34.130059 -0.870739 2.067705 -0.006881 0.003047 62079.700000 0 0 1
-19.426377 24.335184 -15.614055 34.833662 -0.897103 2.035599 -0.003887 0.009221 10727.100000 0 0 1
-20.279477 24.306484 -14.493355 34.815509 -0.875474 2.000158 0.000284 0.020087 -80988.200000 0 0 1
-20.558877 25.613484 -14.125655 35.752652 -0.894437 1.976966 0.017653 0.008099 120881.000000 0 0 1
-25.424217 -0.986116 3.647045 25.703389 0.038767 1.428426 0.047469 -0.010922 -125357.000000 0 0 1
-25.820387 0.057084 4.530145 26.214841 -0.002211 1.397116 0.049794 -0.013991 275530.000000 0 0 1
-26.818157 -0.495016 5.372445 27.355471 0.018456 1.373118 0.031222 -0.008262 -96400.800000 0 0 1
-27.130367 0.388384 6.630545 27.931556 -0.014314 1.331123 0.024532 0.001009 -62915.800000 0 0 1
-27.725057 1.715284 6.400645 28.505951 -0.061789 1.344328 0.047709 -0.000370 420923.000000 0 0 1
-28.066967 2.472784 7.551645 29.170133 -0.087876 1.308931 0.063928 0.004033 -38631.500000 0 0 1
-26.898447 2.966084 8.445745 28.348805 -0.109826 1.268281 0.066916 0.000802 168380.000000 0 0 1
-26.332907 2.023784 9.338545 28.012964 -0.076703 1.230926 0.054610 -0.000609 262722.000000 0 0 1
-25.170117 2.451184 10.009045 27.197869 -0.097079 1.193930 0.048823 -0.005207 -31611.800000 0 0 1
-24.490577 1.355084 10.873045 26.829978 -0.055274 1.153536 0.038298 -0.001220 120376.000000 0 0 1
-23.697577 0.361284 10.150345 25.782459 -0.015244 1.166152 0.029439 -0.002191 819797.000000 0 0 1
-24.355977 -0.451816 9.172145 26.029714 0.018548 1.210692 0.026868 -0.005485 -613608.000000 0 0 1
-23.348077 -1.216016 8.325345 24.817792 0.052035 1.228704 0.035728 -0.006714 -27761.500000 0 1 0
-22.524477 -2.120916 9.040545 24.363535 0.093884 1.190637 0.028182 -0.006876 206103.000000 0 1 0
-21.430477 -2.635716 8.306945 23.134772 0.122375 1.203528 0.033613 -0.008740 400060.000000 0 1 0
-20.197377 -2.900816 9.234445 22.396959 0.142648 1.145810 0.034217 -0.002560 257234.000000 0 1 0
-19.499677 -1.709216 9.589745 21.797294 0.087430 1.115252 0.022731 -0.003094 609766.000000 0 1 0
-20.204477 -0.902316 10.570745 22.820511 0.044630 1.089180 0.023593 -0.007503 -331499.000000 0 1 0
-19.624177 0.496984 10.805045 22.407685 -0.025320 1.067629 0.007224 -0.004900 -351070.000000 0 1 0
-20.055077 1.515584 9.882445 22.409057 -0.075428 1.114081 0.007676 -0.002390 475814.000000 0 1 0
-20.456077 2.608784 10.696045 23.230631 -0.126846 1.092318 0.015388 0.010027 -351179.000000 0 1 0
-21.252777 3.718884 9.992845 23.777460 -0.173230 1.137058 0.015051 0.005177 -406597.000000 0 1 0
-21.546677 4.779084 10.874545 24.603956 -0.218268 1.112988 0.018562 0.003258 510522.000000 0 1 0
-22.070677 5.898084 10.237645 25.034208 -0.261134 1.149497 0.022153 -0.005323 -337072.000000 0 0 1
-22.263977 7.128584 11.154645 25.902268 -0.309870 1.125591 0.018040 -0.003109 -110360.000000 0 0 1
-23.240077 6.852684 12.133245 27.097529 -0.286739 1.106535 0.021394 -0.003058 317509.000000 0 0 1
-23.438877 7.989584 12.992745 27.964725 -0.328517 1.087600 0.025256 -0.004564 -79995.800000 0 0 1
-24.209977 7.643684 14.274545 29.125788 -0.305820 1.058592 0.029228 -0.007959 1291080.000000 0 0 1
-25.620287 7.351784 14.097045 30.152521 -0.279443 1.084308 0.026581 -0.011481 1194390.000000 0 0 1
-26.143777 6.840784 15.320945 31.064848 -0.255922 1.055041 0.026733 -0.013615 831186.000000 0 0 1
-27.692497 6.530384 15.315145 32.312134 -0.231587 1.076997 0.026944 -0.013399 923108.000000 0 0 1
-27.958097 5.297384 14.615645 31.989601 -0.187256 1.096303 0.035995 -0.016243 209926.000000 0 0 1
-28.296287 5.530084 13.254745 31.732475 -0.193002 1.139881 0.044205 -0.001912 -575724.000000 0 0 1
-28.511057 4.316784 12.324245 31.359242 -0.150266 1.166902 0.053338 -0.000269 -113998.000000 0 0 1
-29.634757 3.543184 12.684445 32.429433 -0.118997 1.168926 0.034498 -0.002421 209127.000000 0 0 1
-29.797727 2.457884 11.782245 32.136693 -0.082299 1.195413 0.036779 0.004300 257012.000000 0 0 1
-30.955257 1.481584 12.178845 33.297857 -0.047826 1.196353 0.037306 0.006654 -11794.000000 0 0 1
-30.659317 0.512884 13.174745 33.374102 -0.016727 1.164990 0.026004 0.004330 -530987.000000 0 0 1
-31.771227 0.024584 13.847645 34.657882 -0.000774 1.159768 0.033149 0.010414 -699358.000000 0 0 1
-31.483037 -1.168416 14.790845 34.803964 0.037096 1.131861 0.024849 0.000311 -110711.000000 0 0 1
-31.333717 -2.417716 14.196445 34.484580 0.077008 1.146505 0.017333 0.002197 147515.000000 0 0 1
-31.422667 -3.434716 15.177845 35.064915 0.108875 1.123145 0.017615 0.008361 -142316.000000 0 0 1
-31.284777 -4.862416 14.681145 34.898659 0.154191 1.136602 0.024508 0.004251 -326019.000000 0 0 1
-32.380457 -5.218116 13.889445 35.617965 0.159777 1.170212 0.021844 -0.005905 -217994.000000 0 0 1
-32.251997 -6.559116 13.438945 35.550226 0.200635 1.183132 0.036662 -0.010200 -225845.000000 0 0 1
-33.379567 -6.933916 12.404445 36.278712 0.204816 1.221836 0.045473 -0.005355 978325.000000 0 0 1
-34.714223 -6.953816 12.881945 37.674625 0.197699 1.221830 0.041649 -0.005293 429288.000000 0 0 1
-35.297582 -5.712216 13.336945 38.163108 0.160439 1.213789 0.042388 -0.009191 -718677.000000 0 0 1
33.908111 -5.626316 12.994945 36.746211 -0.164430 1.209336 0.047963 -0.011301 466787.000000 0 0 1
33.039881 -6.498816 13.717945 36.360010 -0.194217 1.183938 0.050495 -0.011035 1294690.000000 0 0 1
31.647761 -6.222916 13.427245 34.937034 -0.194154 1.176318 0.038427 -0.008170 1596510.000000 0 0 1
30.550861 -7.259416 13.831245 34.312644 -0.233291 1.155900 0.016039 -0.008076 297358.000000 0 0 1
30.293491 -7.227516 15.204945 34.657220 -0.234205 1.116618 0.030812 -0.002163 292061.000000 0 0 1
29.275401 -8.203516 15.404545 34.082940 -0.273212 1.101821 0.040375 0.000055 243299.000000 0 0 1
28.617061 -8.193016 16.804245 34.182515 -0.278840 1.056866 0.027800 -0.002394 -50794.800000 0 0 1
29.521021 -8.697316 17.812345 35.558594 -0.286509 1.046124 0.028904 0.001961 300459.000000 0 0 1
28.992081 -8.695416 19.123845 35.803246 -0.291387 1.007310 0.024272 0.002245 3120.150000 0 0 1
29.976611 -9.133616 20.273545 37.323408 -0.295755 0.996569 0.021233 0.002570 889080.000000 0 0 1
31.136961 -8.399416 20.665745 38.303179 -0.263485 1.000917 0.026698 -0.001661 1293300.000000 0 0 1
32.265241 -8.687116 19.784345 38.832101 -0.263004 1.036211 0.023830 0.005807 236125.000000 0 0 1
33.588351 -8.109116 20.276745 40.063468 -0.236893 1.040121 0.024250 0.004063 -398866.000000 0 0 1
34.027571 -8.658616 21.499545 41.171321 -0.249171 1.021371 0.028247 -0.000758 -860391.000000 0 0 1
35.147044 -7.985116 21.947145 42.198980 -0.223400 1.023843 0.022160 0.000212 -577543.000000 0 0 1
-35.075919 -8.647216 23.258145 42.965518 0.241709 0.998789 0.026686 -0.004181 -295832.000000 0 0 1
34.893602 -8.235616 24.370845 43.351204 -0.231779 0.973786 0.026661 0.002158 73375.700000 0 0 1
35.113476 -9.084916 25.510045 44.342466 -0.253178 0.957830 0.024113 -0.007452 -509006.000000 0 0 1
34.480131 -8.472316 26.724845 44.439587 -0.240943 0.925576 0.032589 -0.007224 -952130.000000 0 0 1
-35.270934 -7.758916 27.353145 45.303798 0.216532 0.922572 0.012688 -0.007060 -855548.000000 0 0 1
34.969223 -7.066416 28.456745 45.635152 -0.199390 0.897494 0.019537 -0.004477 644831.000000 0 0 1
-34.518613 -6.583616 29.335845 45.776309 0.188463 0.875189 0.024502 -0.007602 1065020.000000 0 0 1
-34.001427 -7.571816 30.218145 46.114702 0.219116 0.856240 0.019408 -0.011160 -447801.000000 0 0 1
-32.810877 -7.151716 30.814245 45.576512 0.214611 0.828341 0.011493 -0.013765 -81798.300000 0 0 1
-32.419887 -7.940016 32.092145 46.303334 0.240184 0.805036 -0.009307 -0.003188 -77624.000000 0 0 1
-32.137057 -9.338116 31.913945 46.243819 0.282785 0.809137 -0.005503 -0.001920 118223.000000 0 0 1
-31.839377 -9.963916 33.141245 47.025182 0.303289 0.788718 -0.015018 -0.001348 -437737.000000 0 0 1
-32.073207 -11.495216 33.191745 47.565981 0.344143 0.798469 0.003048 -0.006073 -131748.000000 0 0 1
-33.430957 -11.861016 33.302145 48.655375 0.340937 0.816948 -0.006713 -0.004639 -96656.800000 0 0 1
-33.459607 -13.284916 33.293645 49.035713 0.377955 0.824441 0.007207 -0.005465 1048740.000000 0 0 1
-34.955292 -13.693116 33.561545 50.356243 0.373359 0.841316 0.010011 -0.002010 901448.000000 0 0 1
-35.126749 -15.039216 33.872145 51.062596 0.404528 0.845516 0.013114 -0.001690 -1035000.000000 0 0 1
34.247091 -15.370816 33.873645 50.562328 -0.421873 0.836671 0.008369 0.003438 -1069460.000000 0 0 1
33.911911 -16.833316 34.307345 51.091801 -0.460750 0.834586 0.005485 0.003147 -235840.000000 0 0 1
34.225741 -17.225016 -33.410351 50.836543 -0.466265 2.287909 0.010536 0.001845 200261.000000 0 0 1
34.342771 -18.635816 -33.366551 51.381381 -0.497176 2.277578 0.004695 -0.005738 -400881.000000 0 0 1
34.659630 -19.125716 -31.949851 50.871170 -0.504236 2.249847 0.018728 -0.013880 279629.000000 0 0 1
33.578741 -19.015116 -31.026051 49.514870 -0.515260 2.247980 0.021442 -0.007552 336430.000000 0 0 1
33.944951 -19.735516 -29.864551 49.331954 -0.526629 2.221039 0.021103 -0.008778 -526055.000000 0 0 1
32.903671 -19.505216 -28.719451 47.832122 -0.535107 2.214825 0.021469 -0.000818 843938.000000 0 0 1
31.679681 -20.225516 -28.870351 47.393785 -0.568204 2.225796 0.020979 -0.001661 1182110.000000 0 0 1
30.798401 -19.685516 -29.898451 47.222647 -0.568727 2.256397 0.017186 0.002124 -613778.000000 0 0 1
29.575891 -20.554216 -30.223751 47.017914 -0.607339 2.268962 0.006127 0.006548 -80792.900000 0 0 1
28.677661 -19.980416 -31.167951 46.830187 -0.608524 2.299030 -0.006208 0.008984 298899.000000 0 0 1
27.497831 -20.782216 -31.113651 46.433721 -0.647188 2.305094 -0.002196 0.011716 139065.000000 0 0 1
26.460311 -20.330616 -32.143751 46.332523 -0.655138 2.337496 -0.004914 0.013653 15436.500000 0 0 1
26.876611 -20.635216 -33.461451 47.621771 -0.654781 2.349912 -0.004936 0.009762 649406.000000 0 0 1
25.863121 -20.132316 -34.365451 47.488898 -0.661442 2.379876 0.014694 0.005974 584129.000000 0 0 1
26.418171 -20.067816 33.231745 46.957277 -0.649631 0.784556 0.018342 0.006753 -577879.000000 0 0 1
27.303201 -19.042316 33.071445 46.923289 -0.609005 0.788658 0.005938 0.008047 -708185.000000 0 0 1
27.569001 -18.737016 31.707145 46.005093 -0.596931 0.810399 0.007082 0.004410 153464.000000 0 0 1
26.473011 -18.052016 30.793745 44.440413 -0.598477 0.805262 0.006053 0.002500 205055.000000 0 0 1
26.126731 -16.717316 31.196645 43.992106 -0.569210 0.782516 0.007229 0.002501 541235.000000 0 0 1
25.492341 -15.995216 30.138645 42.591599 -0.560360 0.784673 0.016849 -0.000269 83206.700000 0 0 1
25.081341 -14.625116 30.560545 42.153465 -0.527906 0.759787 0.024757 -0.003031 -233370.000000 0 0 1
26.214601 -13.805516 30.533245 42.544995 -0.484728 0.770346 0.024889 -0.002770 190432.000000 0 0 1
25.906381 -12.578216 31.103845 42.388693 -0.452001 0.746932 0.046201 -0.009805 174150.000000 0 0 1
27.135111 -11.640216 31.107645 42.889328 -0.405231 0.759326 0.050540 -0.011247 182590.000000 0 0 1
27.744671 -11.365316 29.883645 42.331660 -0.388789 0.787046 0.047299 -0.007062 -510390.000000 0 0 1
29.070581 -10.978016 30.033645 43.216147 -0.361077 0.802427 0.051408 -0.003011 -290836.000000 0 0 1
29.812261 -10.388516 28.800845 42.733837 -0.335306 0.831242 0.046723 -0.008343 194844.000000 0 0 1
29.407561 -9.031716 28.617245 42.015750 -0.297978 0.821522 0.042497 -0.008995 270589.000000 0 0 1
29.982281 -8.658516 27.400845 41.529668 -0.281139 0.850258 0.033580 -0.000070 11939.700000 0 0 1
30.015661 -7.145516 27.374345 41.247461 -0.233709 0.845094 0.034749 0.004973 -868436.000000 0 0 1
28.825281 -6.526716 27.101445 40.099665 -0.222669 0.828676 0.045666 0.003281 -822620.000000 0 0 1
29.009571 -5.108816 27.263145 40.136446 -0.174320 0.824040 0.039633 0.009465 89075.000000 0 0 1
27.631491 -4.443016 27.100445 38.957333 -0.159431 0.801480 0.043422 0.005614 -8179.180000 0 0 1
27.083941 -4.613716 25.829845 37.709510 -0.168729 0.816235 0.035873 0.011977 -337198.000000 0 0 1
25.713271 -4.309916 25.901545 36.751023 -0.166071 0.788677 0.046795 0.007948 7792.280000 0 0 1
24.857041 -4.639516 24.637445 35.304409 -0.184525 0.798395 0.042258 0.021377 174364.000000 0 0 1
25.299941 -3.979016 23.441045 34.718902 -0.155996 0.829606 0.040139 0.025787 250548.000000 0 0 1
24.451241 -4.300216 22.345445 33.401706 -0.174089 0.837946 0.038100 0.018235 177222.000000 0 0 1
24.749241 -3.566316 21.038045 32.677865 -0.143113 0.871341 0.040804 0.015690 -66415.400000 0 0 1
24.326741 -2.218116 21.110145 32.285423 -0.090929 0.858121 0.035474 0.016626 -103142.000000 0 0 1
24.718341 -1.455316 19.968445 31.809639 -0.058808 0.892139 0.032831 0.010977 -162685.000000 0 0 1
23.594441 -0.647316 19.245845 30.455200 -0.027428 0.886743 0.026501 0.004836 -63314.600000 0 0 1
22.841841 -1.413416 18.371145 29.347000 -0.061800 0.894386 0.031704 0.001607 457076.000000 0 0 1
21.587141 -0.738116 18.109545 28.186966 -0.034179 0.873067 0.035232 0.005633 976373.000000 0 0 1
20.621441 -1.522916 17.167445 26.875347 -0.073717 0.877884 0.023940 0.004531 -218294.000000 0 0 1
21.084341 -1.921016 15.944245 26.503937 -0.090860 0.925318 0.038994 -0.006867 -420760.000000 0 0 1
20.139441 -2.797116 15.404745 25.509353 -0.138005 0.922429 0.050472 -0.012656 -421274.000000 0 0 1
20.412641 -3.403716 14.000745 24.985637 -0.165225 0.975986 0.052572 -0.029004 -857248.000000 0 1 0
19.598541 -4.485816 13.655045 24.304024 -0.225009 0.974184 0.065893 -0.022233 321161.000000 0 1 0
19.847241 -4.832016 12.309345 23.849137 -0.238814 1.028465 0.061061 -0.023759 160945.000000 0 1 0
18.720641 -5.697916 11.623445 22.760341 -0.295457 1.034811 0.061803 -0.030607 310969.000000 0 1 0
18.806741 -7.037816 12.076445 23.432133 -0.358085 1.029346 0.057985 -0.035105 -362551.000000 0 1 0
17.594141 -7.677416 12.006145 22.641644 -0.411455 1.011879 0.056654 -0.024725 -1090320.000000 0 1 0
17.617941 -9.112316 12.548845 23.471252 -0.477327 1.006706 0.060865 -0.030390 -639998.000000 0 1 0
18.183141 -9.939916 11.621645 23.759023 -0.500272 1.059685 0.041731 -0.037678 245268.000000 0 1 0
17.816441 -11.276416 11.823045 24.173695 -0.564276 1.059753 0.050449 -0.022926 70299.500000 0 1 0
18.402041 -12.048816 10.580345 24.408047 -0.579710 1.122448 0.037163 -0.025564 201235.000000 0 1 0
17.848541 -11.631816 9.356045 23.268114 -0.577566 1.156990 0.036371 -0.022284 463186.000000 0 1 0
18.809741 -11.858016 8.320545 23.741322 -0.562487 1.212727 0.046987 -0.029189 261104.000000 0 1 0
18.821041 -11.175616 6.927745 22.959086 -0.535836 1.264276 0.055478 -0.022103 -208961.000000 0 1 0
19.353341 -9.861616 6.848845 22.775205 -0.471263 1.265354 0.074308 -0.015705 583398.000000 0 1 0
19.555241 -9.471516 5.487045 22.410371 -0.451047 1.323438 0.031837 -0.019318 -165173.000000 0 1 0
19.942441 -7.989816 5.304945 22.128727 -0.381061 1.328707 0.044414 -0.018094 -500256.000000 0 1 0
20.310441 -7.760516 3.961045 22.100441 -0.364976 1.390593 0.031395 -0.018389 560258.000000 0 1 0
20.855041 -6.476516 3.855545 22.175284 -0.301107 1.396041 0.052119 -0.018365 -537738.000000 0 1 0
21.486241 -6.000216 2.504045 22.448416 -0.272321 1.459017 0.045163 -0.010545 703291.000000 0 1 0
20.554241 -6.003116 1.367645 21.456576 -0.284159 1.507013 0.021769 -0.015157 975381.000000 0 1 0
21.175641 -5.366416 0.281045 21.846857 -0.248199 1.557932 0.033166 -0.003419 -40698.200000 0 1 0
-25.479887 -15.852016 0.108545 30.008713 0.556539 1.567179 0.009220 0.001152 -258497.000000 0 0 1
-24.568677 -14.950616 -0.499955 28.764401 0.546663 1.588178 0.005307 0.004974 819708.000000 0 0 1
-23.201877 -15.404016 -0.443455 27.853321 0.586093 1.586718 0.007977 0.007277 965313.000000 0 0 1
-22.407977 -14.983616 0.801445 26.967917 0.589391 1.541073 0.003869 0.001184 -615528.000000 0 0 1
-22.820677 -15.687616 1.954945 27.761600 0.602240 1.500319 0.005486 0.008306 71887.000000 0 0 1
-22.053277 -15.225916 3.042745 26.970982 0.604264 1.457740 0.006809 0.016595 110847.000000 0 0 1
-22.345077 -15.932016 4.412645 27.795738 0.619397 1.411369 0.005684 0.016533 -719648.000000 0 0 1
-21.959277 -17.248116 4.423545 28.271454 0.665811 1.413684 0.003962 0.009497 24884.500000 0 0 1
-22.507777 -17.838016 5.590645 29.258335 0.670167 1.378535 0.007064 0.000274 -227218.000000 0 0 1
-22.672877 -19.353316 5.361145 30.287821 0.706574 1.392852 0.002033 -0.004819 -35469.500000 0 0 1
-23.022677 -20.068816 6.516945 31.229339 0.716957 1.360571 0.002390 -0.005043 -142236.000000 0 0 1
-23.157677 -21.459416 6.212145 32.177248 0.747354 1.376516 0.007345 -0.013592 62335.300000 0 0 1
-23.711477 -22.357616 7.354945 33.409465 0.756019 1.348833 0.008531 -0.013621 814743.000000 0 0 1
-22.739877 -22.656216 8.375845 33.174703 0.783555 1.315557 0.018006 -0.010972 171734.000000 0 0 1
-23.397577 -23.452416 9.319145 34.413790 0.786569 1.296576 0.021364 -0.020313 -156321.000000 0 0 1
-22.451577 -23.873916 10.409045 34.385832 0.816092 1.263258 0.031971 -0.020376 -200440.000000 0 0 1
-22.270377 -22.794416 11.327545 33.821124 0.797026 1.229271 0.034199 -0.016944 -92381.200000 0 0 1
-21.643877 -23.354316 12.473845 34.197636 0.823391 1.197424 0.045093 -0.016483 -408093.000000 0 0 1
-21.952277 -22.463216 13.722645 34.275495 0.796901 1.158883 0.032830 -0.006853 686306.000000 0 0 1
-23.253077 -22.758416 14.260545 35.524840 0.774648 1.157725 0.028769 -0.007937 443077.000000 0 0 1
-23.545577 -21.825016 15.258445 35.546388 0.747494 1.127129 0.028301 0.007290 -310900.000000 0 0 1
-24.965877 -21.919516 15.878545 36.822390 0.720515 1.124952 0.021818 0.005024 291617.000000 0 0 1
-26.009267 -21.576516 14.957245 36.956017 0.692513 1.154112 0.022755 0.012710 491298.000000 0 0 1
-26.425597 -22.681616 14.134345 37.583874 0.709304 1.185240 0.012379 0.014188 -764937.000000 0 0 1
-27.573997 -23.537416 14.661445 39.106179 0.706586 1.186493 0.007394 0.006690 -604826.000000 0 0 1
-27.083547 -24.305616 15.731645 39.645506 0.731394 1.162760 0.011376 0.005253 67069.100000 0 0 1
-28.016577 -25.163216 16.391845 41.070776 0.731795 1.160248 -0.006011 0.004691 155620.000000 0 0 1
-28.111617 -26.594496 15.838345 41.813675 0.757673 1.182314 0.000371 0.003615 182712.000000 0 0 1
-28.919597 -26.699276 14.677145 42.007298 0.745499 1.213871 -0.003868 0.001454 449162.000000 0 0 1
-29.958437 -27.676116 14.836345 43.400375 0.745819 1.221913 -0.014981 0.001559 199033.000000 0 0 1
-30.610357 -28.021216 13.479045 43.633327 0.741267 1.256743 -0.014737 0.000853 -106796.000000 0 0 1
-29.757767 -28.873606 12.761045 43.382648 0.770319 1.272229 -0.013585 -0.006308 83919.300000 0 0 1
-30.425747 -29.498576 11.682545 43.958776 0.769927 1.301803 -0.006618 -0.000511 -163625.000000 0 0 1
-29.691857 -30.689416 11.046145 44.107414 0.801918 1.317664 -0.013302 -0.000258 -127083.000000 0 0 1
-29.819447 -31.975726 11.716745 45.265093 0.820278 1.308968 -0.006194 -0.004407 -119879.000000 0 0 1
-29.265877 -32.955046 10.901245 45.402244 0.844620 1.328324 0.002436 0.003129 -273566.000000 0 0 1
-29.356477 -34.399266 11.479245 46.657104 0.864329 1.322210 0.013530 0.000832 720508.000000 0 0 1
-30.675527 34.128161 11.578345 47.326287 -0.838626 1.323638 0.017034 -0.000061 336629.000000 0 0 1
-30.621037 32.759420 11.722845 46.349246 -0.819124 1.315095 0.023080 -0.007456 -908134.000000 0 0 1
-31.980327 32.081220 12.011845 46.863957 -0.786973 1.311590 0.033816 -0.011142 465167.000000 0 0 1
-32.977117 32.141890 10.994345 47.344134 -0.772573 1.336435 0.025469 -0.008714 171065.000000 0 0 1
-33.462647 33.385047 10.725945 48.470156 -0.784237 1.347660 0.025660 -0.001834 -725946.000000 0 0 1
-34.941497 33.422939 10.186645 49.414257 -0.763189 1.363160 0.022887 0.003023 758926.000000 0 0 1
-35.137009 32.789590 8.985345 48.892771 -0.750854 1.385969 0.005661 0.008665 598145.000000 0 0 1
34.182191 32.567700 8.715745 48.010847 0.761216 1.388247 0.007700 0.005181 524276.000000 0 0 1
33.771891 32.081820 7.336445 47.155140 0.759740 1.414581 0.014422 0.002009 -52754.400000 0 0 1
33.984941 30.701670 7.124645 46.350073 0.734685 1.416471 0.014872 0.000456 537.943000 0 0 1
33.883381 30.369960 5.744445 45.863020 0.730772 1.445214 0.020998 -0.001455 -47713.900000 0 0 1
34.181781 28.846310 5.442645 45.056921 0.700947 1.449706 0.019587 0.000038 279742.000000 0 0 1
33.331601 27.852080 6.065245 43.857966 0.696078 1.432059 0.015306 0.008100 458092.000000 0 0 1
33.794411 27.415730 7.352245 44.133207 0.681563 1.403424 0.007040 0.001853 50951.200000 0 0 1
32.735331 26.472500 7.970645 42.847711 0.680013 1.383684 -0.002522 0.010472 22181.700000 0 0 1
32.906091 25.172560 7.448945 42.094600 0.653021 1.392902 0.006657 0.008078 502909.000000 0 0 1
31.727311 24.368870 7.554545 40.712839 0.654967 1.384158 -0.002604 0.014409 -151045.000000 0 0 1
31.750911 23.113000 6.602345 39.823637 0.629238 1.404238 0.000864 0.017185 516432.000000 0 0 1
32.700971 22.049400 6.880345 40.035842 0.593250 1.398084 0.003845 0.011232 -71401.700000 0 0 1
34.040351 22.397100 6.709145 41.296346 0.581949 1.407610 0.019495 0.001851 -1267150.000000 0 0 1
34.981480 21.242200 6.799445 41.486955 0.545727 1.406160 0.003162 -0.000785 -656312.000000 0 0 1
34.901629 20.407400 5.674745 40.826320 0.529102 1.431348 0.015371 -0.004318 52452.500000 0 0 1
-35.311728 19.142600 6.005145 40.613041 -0.496760 1.422390 0.009810 -0.001901 -284541.000000 0 0 1
35.196306 18.108100 4.939645 39.888386 0.475171 1.446641 0.018880 -0.006957 -525810.000000 0 0 1
-34.652111 18.112700 3.829445 39.287446 -0.481643 1.473169 0.013931 -0.002326 -32503.900000 0 0 1
-35.060534 17.046500 2.934445 39.095207 -0.452548 1.495667 0.015463 -0.001983 -348461.000000 0 0 1
-34.083260 16.556700 1.833045 37.936170 -0.452201 1.522458 0.010688 0.004971 106808.000000 0 0 1
-33.014857 15.709600 2.151445 36.625142 -0.444129 1.512020 0.022255 -0.008204 304319.000000 0 0 1
-31.820087 16.334800 2.573845 35.860401 -0.474269 1.498961 0.020619 -0.006112 188671.000000 0 0 1
-30.655707 15.369000 2.984445 34.422165 -0.464721 1.483986 -0.006238 0.000028 271117.000000 0 0 1
-30.936637 14.661000 4.153245 34.485793 -0.442554 1.450070 0.013843 -0.004079 -215068.000000 0 0 1
-29.730887 14.298300 4.743945 33.329747 -0.448271 1.427978 0.010317 -0.003318 -597810.000000 0 0 1
-29.784247 13.295200 5.955545 33.156180 -0.419842 1.390195 0.027349 0.003062 -310159.000000 0 0 1
-30.047867 11.944000 5.643045 32.823428 -0.378349 1.398017 0.022458 0.012010 429523.000000 0 0 1
-29.770987 11.129100 6.821945 32.507038 -0.357739 1.359364 0.026704 0.013707 -45610.500000 0 0 1
-29.969597 9.593700 6.623845 32.157288 -0.309807 1.363328 0.030324 -0.001770 685106.000000 0 0 1
-31.328397 9.140800 6.583545 33.292128 -0.283893 1.371733 0.022291 0.018698 602351.000000 0 0 1
-31.425107 7.764600 6.434545 33.003481 -0.242231 1.374574 0.031936 0.001566 310972.000000 0 0 1
-32.887277 7.235900 6.393345 34.275445 -0.216571 1.383169 0.030475 0.005131 272937.000000 0 0 1
-33.613227 7.366000 7.592145 35.238440 -0.215730 1.353643 0.031904 0.013983 118098.000000 0 0 1
-34.857383 6.685600 7.502245 36.276964 -0.189497 1.362488 0.010450 0.013058 101395.000000 0 0 1
-35.192033 5.961400 8.831845 36.769811 -0.167803 1.328232 0.022908 0.011443 -249780.000000 0 0 1
35.050621 6.693400 9.914645 37.035764 0.188692 1.299786 0.042084 0.007520 2688.810000 0 0 1
-34.660265 7.434700 10.587945 36.996126 -0.211300 1.280548 0.036196 0.005263 -190385.000000 0 0 1
-35.188990 8.429000 11.622345 38.005157 -0.235105 1.260008 0.034116 0.002328 -168809.000000 0 0 1
34.841817 7.933600 12.785945 37.952267 0.223886 1.227179 0.026914 -0.005626 651290.000000 0 0 1
34.323901 8.990900 13.554045 37.982609 0.256187 1.205904 0.045748 -0.010260 -218847.000000 0 0 1
33.542491 8.616900 14.846645 37.679869 0.251458 1.165794 0.041365 -0.009741 -290352.000000 0 0 1
32.196551 8.240000 14.706945 36.342946 0.250550 1.154177 0.054180 -0.017361 171449.000000 0 0 1
31.653981 7.790800 15.932645 36.283884 0.241327 1.116188 0.045778 -0.012322 1047890.000000 0 0 1
30.095061 7.575300 15.967245 34.900584 0.246590 1.095607 0.048413 -0.009612 647714.000000 0 0 1
29.247651 8.720700 16.129445 34.520062 0.289775 1.084620 0.028372 -0.008968 406541.000000 0 0 1
27.880751 8.364600 16.118145 33.273073 0.291469 1.065096 0.029402 -0.008729 149186.000000 0 0 1
27.249291 7.654400 17.337945 33.192138 0.273846 1.021191 0.034477 -0.001855 -753158.000000 0 0 1
27.079031 8.521400 18.476945 33.871605 0.304875 0.993811 0.038279 -0.007440 -52387.000000 0 0 1
26.371421 7.909800 19.509845 33.743900 0.291400 0.954307 0.039437 -0.007586 -551096.000000 0 0 1
27.054801 6.884200 20.419845 34.587924 0.249166 0.939273 0.040417 -0.010121 -211998.000000 0 0 1
26.552621 6.948500 21.747545 35.018267 0.255948 0.900735 0.029476 -0.002659 174097.000000 0 0 1
26.980231 5.808100 22.447345 35.574572 0.212037 0.887962 0.036672 -0.004452 -618676.000000 0 0 1
26.538431 5.712500 23.939545 36.194237 0.212019 0.848088 0.040493 -0.000221 780881.000000 0 0 1
25.180141 5.323200 24.183945 35.316273 0.208337 0.816492 0.030684 0.000196 273065.000000 0 0 1
24.266841 6.367500 24.181945 34.845245 0.256610 0.803792 0.028813 0.001420 -691854.000000 0 0 1
22.793341 5.978500 24.314145 33.859363 0.256513 0.769739 0.027932 -0.002538 -272936.000000 0 0 1
22.200941 5.232400 23.296945 32.603795 0.231460 0.774820 0.027524 0.006745 -2104450.000000 0 0 1
20.902141 5.486600 23.141445 31.662734 0.256699 0.751196 0.037214 -0.002185 -3430780.000000 0 0 1
20.388341 4.605400 22.015045 30.357147 0.222156 0.759469 0.032807 -0.000928 -479109.000000 0 0 1
19.062341 4.699200 21.556745 29.157307 0.241698 0.738728 0.039891 -0.006447 212657.000000 0 0 1
18.114641 4.252000 22.507045 29.202513 0.230553 0.690821 0.034327 -0.006845 -1140750.000000 0 0 1
16.706741 4.139200 21.919245 27.869364 0.242866 0.665676 0.047372 -0.007178 -622821.000000 0 0 1
16.559341 3.031500 21.101645 26.994095 0.181064 0.673388 0.035346 -0.005185 -438380.000000 0 0 1
15.445341 2.984700 20.266745 25.655563 0.190890 0.660060 0.051028 -0.012399 -820729.000000 0 0 1
14.392141 2.022400 20.788345 25.364919 0.139607 0.610135 0.055223 -0.013012 -657468.000000 0 0 1
14.843041 0.676800 20.850745 25.603271 0.045566 0.619139 0.032327 -0.011996 541559.000000 0 0 1
13.765441 -0.022200 21.454345 25.490719 -0.001613 0.570459 0.043839 -0.015981 159470.000000 0 0 1
14.055641 -1.493500 21.688745 25.888091 -0.105859 0.577576 0.024312 -0.008357 -48558.100000 0 0 1
13.804341 -2.361900 20.565045 24.880906 -0.169457 0.597865 0.042663 -0.005989 118045.000000 0 1 0
13.804341 -3.718800 20.964845 25.375461 -0.263146 0.598493 0.018129 0.012995 -124467.000000 0 0 1
13.531141 -4.620800 19.735545 24.370788 -0.329077 0.626980 0.022781 0.009715 -19044.700000 0 1 0
12.231241 -4.451400 19.208245 23.202907 -0.349036 0.595554 0.029447 0.002220 -41956.100000 0 1 0
12.061941 -5.165000 17.994745 22.270574 -0.404583 0.630037 0.035952 0.000013 70665.500000 0 1 0
10.614541 -5.415700 17.529945 21.196633 -0.471786 0.597018 0.035433 -0.004349 186872.000000 0 1 0
9.916841 -6.353100 18.319845 21.778942 -0.569765 0.571349 0.034867 0.000334 -19889.300000 0 1 0
8.512641 -6.280800 18.162945 21.019183 -0.635660 0.527411 0.027869 -0.008273 55363.400000 0 1 0
7.769641 -7.151800 19.160545 21.877889 -0.744016 0.503716 0.028389 -0.011959 -608690.000000 0 1 0
7.919641 -8.548800 18.899345 22.203331 -0.823584 0.552540 0.032707 -0.010047 -288964.000000 0 1 0
9.055241 -9.092400 19.483045 23.329341 -0.787446 0.582426 0.044962 -0.013180 -510575.000000 0 1 0
9.411641 -10.501900 19.154045 23.785422 -0.840093 0.634640 0.059308 -0.018817 1069.440000 0 1 0
9.546441 -10.591900 17.706845 22.734450 -0.837265 0.677958 0.060660 -0.004580 186304.000000 0 1 0
10.108041 -11.834900 17.294445 23.266610 -0.863934 0.732782 0.056540 -0.010371 261141.000000 0 1 0
9.757841 -12.029300 15.795645 22.122882 -0.889280 0.775608 0.046028 -0.010055 63862.400000 0 1 0
10.306141 -13.161200 15.207945 22.599011 -0.906464 0.832610 0.030157 -0.005735 52385.700000 0 1 0
9.878041 -13.305300 13.841145 21.591294 -0.932168 0.874928 0.016390 0.001056 -471516.000000 0 1 0
10.584241 -14.496900 13.122845 22.235002 -0.940151 0.939504 0.021653 -0.006119 -16057.300000 0 1 0
11.899441 -14.273900 12.683545 22.499183 -0.875871 0.971897 0.003748 -0.009067 -330956.000000 0 1 0
12.048541 -13.375500 11.632745 21.433434 -0.837544 0.997102 -0.015268 -0.009395 -1612280.000000 0 1 0
13.426141 -13.136600 11.051445 21.793713 -0.774498 1.038987 0.007975 -0.019796 -565247.000000 0 1 0
13.987941 -14.272700 10.387445 22.522688 -0.795474 1.091450 0.015308 -0.016058 -1149690.000000 0 1 0
15.278541 -13.945200 10.046345 22.996336 -0.739805 1.118683 0.022465 -0.024039 -1493500.000000 0 1 0
16.011941 -15.115100 9.444845 23.959415 -0.756594 1.165597 0.014469 -0.024477 -396706.000000 0 1 0
16.503841 -16.066300 10.375345 25.261641 -0.771965 1.147558 0.019749 -0.018493 169532.000000 0 0 1
15.703441 -17.242100 10.479445 25.567691 -0.832067 1.148484 0.036288 -0.016623 17387.100000 0 0 1
15.906941 -18.094500 11.701745 26.783811 -0.849647 1.118651 0.024579 -0.010581 198832.000000 0 0 1
17.165641 -18.762300 11.763845 28.019121 -0.829810 1.137516 0.045236 -0.009006 358785.000000 0 0 1
17.229141 -19.503900 12.988745 29.085269 -0.847246 1.107863 0.015722 -0.006605 -730253.000000 0 0 1
18.514941 -20.296900 13.053045 30.416265 -0.831279 1.127248 0.004065 -0.011521 -602016.000000 0 0 1
19.578941 -19.433000 13.404945 30.670327 -0.781657 1.118463 0.012238 -0.012135 -682045.000000 0 0 1
20.826441 -20.007300 13.067645 31.698518 -0.765340 1.145876 0.004973 -0.014840 448887.000000 0 0 1
21.667341 -19.061300 12.141745 31.308605 -0.721500 1.172543 0.017885 -0.005825 -201817.000000 0 0 1
21.483541 -19.152700 10.742845 30.720956 -0.728102 1.213555 0.013928 0.002718 893115.000000 0 0 1
20.309741 -18.534900 10.115645 29.297685 -0.739739 1.218269 0.013493 -0.000845 1016560.000000 0 0 1
20.181241 -17.003400 10.037645 28.233887 -0.700144 1.207328 0.036823 -0.017866 -49470.700000 0 0 1
21.136941 -16.347800 9.244845 28.275218 -0.658324 1.237712 0.029078 -0.010468 -62605.900000 0 0 1
20.933741 -14.982200 9.435645 27.417498 -0.621183 1.219466 0.042337 -0.022606 161032.000000 0 0 1
-34.004627 25.180684 7.898145 43.043724 -0.637398 1.386260 0.032231 -0.000975 526822.000000 0 0 1
-33.085187 24.407484 8.742745 42.033207 -0.635593 1.361270 0.036535 -0.014571 1201030.000000 0 0 1
-32.094777 25.336584 9.237845 41.920818 -0.668263 1.348609 0.040899 -0.014584 -174771.000000 0 0 1
-30.986307 24.588884 10.004145 40.802541 -0.670790 1.323086 0.041500 -0.025729 -539861.000000 0 0 1
-30.334077 23.711184 9.163145 39.577010 -0.663463 1.337149 0.035440 -0.025291 -320381.000000 0 0 1
-29.578367 22.763884 9.864245 38.605408 -0.655935 1.312416 0.034933 -0.024313 -25308.000000 0 0 1
-28.657707 21.947184 8.901645 37.177713 -0.653561 1.329012 0.036595 -0.028449 -351956.000000 0 0 1
-29.320077 20.916484 8.266245 36.952632 -0.619652 1.345189 0.033969 -0.030936 -318845.000000 0 0 1
-28.693567 20.332184 7.165545 35.889602 -0.616473 1.369790 0.031989 -0.027523 -216483.000000 0 0 1
-29.720537 19.618184 6.235345 36.153326 -0.583435 1.397460 0.021447 -0.017078 158206.000000 0 0 1
-30.298847 18.390984 6.652645 36.062531 -0.545541 1.385258 0.023124 -0.007909 39220.200000 0 0 1
-31.360587 18.043484 5.825945 36.646901 -0.522101 1.411144 0.000490 -0.005467 -332523.000000 0 0 1
-32.129507 16.758884 6.212845 36.766355 -0.480781 1.401000 0.015396 0.005277 -312346.000000 0 0 1
-32.625557 16.767984 7.527645 37.446732 -0.474747 1.368394 0.009358 0.002703 87577.300000 0 0 1
-33.507437 15.671084 7.715245 37.786985 -0.437467 1.365173 0.015785 0.004108 -485157.000000 0 0 1
-34.340824 15.858584 8.972645 38.875381 -0.432623 1.337891 0.014078 0.000591 -612345.000000 0 0 1
-35.201698 16.943184 8.767045 40.038633 -0.448590 1.350043 0.008300 -0.002617 63268.600000 0 0 1
34.820704 17.266584 9.997245 40.131798 0.460339 1.319035 0.022835 -0.000634 256015.000000 0 0 1
33.898651 18.515584 9.966945 39.890918 0.499924 1.318266 0.016858 -0.006993 -70384.500000 0 0 1
32.760851 18.326684 9.153945 38.638522 0.510038 1.331610 0.004954 0.001366 -78739.100000 0 0 1
32.020941 19.544684 9.104045 38.603354 0.548011 1.332718 -0.002013 0.006012 74295.500000 0 0 1
30.636161 19.408684 8.450245 37.238125 0.564704 1.341878 -0.010863 0.004783 -37971.700000 0 0 1
29.906091 20.645884 8.424345 37.304106 0.604225 1.343003 -0.019992 0.009468 1236020.000000 0 0 1
28.543161 20.659484 7.939545 36.118730 0.626520 1.349168 -0.025893 0.009173 1250940.000000 0 0 1
28.425331 20.569584 6.413145 35.668412 0.626413 1.390014 -0.040452 0.024992 -606936.000000 0 0 1
28.692901 19.216684 6.067445 35.062478 0.590125 1.396874 -0.025326 0.016326 94182.300000 0 0 1
28.533101 18.894784 4.660245 34.537929 0.584908 1.435452 -0.025705 0.014483 267761.000000 0 0 1
27.145951 19.267084 4.019645 33.530295 0.617246 1.450626 0.008857 0.015962 485390.000000 0 0 1
26.139531 18.366884 4.549245 32.269383 0.612501 1.429348 0.007404 0.008475 862542.000000 0 0 1
24.763741 18.580684 4.321145 31.259510 0.643705 1.432118 0.025732 0.002602 649753.000000 0 0 1
24.066041 19.866984 4.910145 31.590835 0.690109 1.414734 0.038040 0.003862 -490773.000000 0 0 1
24.661141 21.009484 4.407745 32.695542 0.705612 1.435573 0.022426 0.002689 -72292.500000 0 0 1
24.095341 22.158084 4.925845 33.103324 0.743539 1.421440 0.018597 0.012370 -194936.000000 0 0 1
24.919941 23.399284 4.498345 34.478472 0.753937 1.439955 -0.000192 0.021395 -340937.000000 0 0 1
26.126571 23.511084 5.190545 35.529009 0.732755 1.424178 -0.019247 0.023692 -87022.300000 0 0 1
26.843121 24.695984 4.823345 36.792790 0.743762 1.439323 -0.012846 0.030428 -422838.000000 0 0 1
28.326801 24.736984 5.252045 37.972490 0.717850 1.432040 -0.033046 0.026936 -471410.000000 0 0 1
29.189491 23.788784 4.683045 37.945533 0.683807 1.447066 -0.037219 0.024442 -94427.500000 0 0 1
29.433511 23.849984 3.293545 38.026316 0.680990 1.484075 -0.033828 0.016851 -839721.000000 0 0 1
30.322101 24.996584 2.821845 39.398246 0.689424 1.499111 -0.025084 0.011037 -728048.000000 0 0 1
29.735781 26.262384 3.071545 39.791505 0.723451 1.493528 -0.023593 0.010858 -263162.000000 0 0 1
30.432031 27.259884 2.392545 40.925958 0.730469 1.512303 0.004923 0.008984 -1082250.000000 0 0 1
30.000891 28.677184 2.829045 41.598531 0.762843 1.502736 0.011636 0.012731 279049.000000 0 0 1
28.759021 29.121684 2.331045 40.994969 0.791664 1.513904 0.030462 0.003868 654745.000000 0 0 1
27.618041 28.449884 2.901745 39.756411 0.800233 1.497743 0.012921 0.022384 -592790.000000 0 0 1
26.264501 28.903684 2.360145 39.125659 0.833201 1.510438 -0.007988 0.021535 -427743.000000 0 0 1
25.970251 30.165984 2.935945 39.913159 0.860001 1.497172 -0.006484 0.013217 1106630.000000 0 0 1
24.668841 30.667384 2.530345 39.439102 0.893378 1.506594 -0.008488 0.024486 1188580.000000 0 0 1
24.324441 32.139184 2.971145 40.415755 0.922928 1.497215 0.016231 0.010258 -346748.000000 0 0 1
24.199741 32.421084 4.381045 40.693337 0.929590 1.462927 0.009965 -0.013516 213607.000000 0 0 1
25.446841 32.434484 5.079045 41.537142 0.905540 1.448212 0.008609 -0.012178 284575.000000 0 0 1
25.347141 32.001784 6.584445 41.351501 0.900919 1.410885 0.025540 -0.025654 -36473.600000 0 0 1
25.107741 30.672184 6.975745 40.247267 0.884826 1.396594 0.025057 -0.020963 -40184.100000 0 0 1
26.024951 29.707184 6.507145 40.026963 0.851372 1.407503 0.014489 -0.014784 -261651.000000 0 0 1
25.728401 28.297384 6.935645 38.868955 0.832913 1.391399 0.006636 -0.001321 695637.000000 0 0 1
24.461541 27.825184 6.441445 37.604521 0.849640 1.398653 0.009333 -0.007943 912663.000000 0 0 1
24.036941 26.518284 6.824245 36.435755 0.834441 1.382388 0.016108 -0.003319 -128026.000000 0 0 1
22.777041 26.017384 6.064945 35.106714 0.851709 1.397168 0.034848 0.002426 -115856.000000 0 0 1
22.740041 25.862184 4.620045 34.746321 0.849549 1.437436 0.012763 0.002725 46952.700000 0 0 1
22.807441 27.118784 3.893245 35.647793 0.871539 1.461364 0.024067 0.001639 -264590.000000 0 0 1
22.893441 26.943284 2.401145 35.437489 0.866482 1.502987 0.016146 0.013587 288723.000000 0 0 1
24.083741 26.230784 2.078645 35.670735 0.828045 1.512490 -0.018311 0.034726 357512.000000 0 0 1
24.078041 25.968084 0.704345 35.420185 0.823146 1.550910 -0.016078 0.029203 148159.000000 0 0 1
25.343341 25.251384 0.132345 35.776177 0.783581 1.567097 -0.000399 0.022776 122074.000000 0 0 1
26.457581 26.205384 0.007245 37.238767 0.780609 1.570602 0.003944 0.028427 1306910.000000 0 0 1
27.486461 25.688284 -0.834355 37.630966 0.751595 1.592970 0.000401 0.031795 373441.000000 0 0 1
28.254611 24.342984 -0.461855 37.297683 0.711166 1.583180 -0.002054 0.017876 -1293640.000000 0 0 1
27.505621 23.188084 -0.227055 35.976353 0.700434 1.577108 -0.003162 0.013821 -339537.000000 0 0 1
28.216981 22.023984 0.146045 35.794904 0.662751 1.566716 -0.007581 0.007420 22998.800000 0 0 1
27.213811 21.094584 0.877545 34.443331 0.659399 1.545316 -0.001864 0.012406 466033.000000 0 0 1
26.438381 20.320384 -0.040855 33.345279 0.655296 1.572022 0.016466 -0.011113 429704.000000 0 0 1
25.236341 19.879684 0.549145 32.130613 0.667221 1.553704 0.024216 0.000053 -342337.000000 0 0 1
24.729741 18.526084 0.029145 30.899461 0.642952 1.569853 0.038988 -0.011045 333460.000000 0 0 1
23.352041 18.261184 0.309945 29.645990 0.663666 1.560341 0.045124 -0.009200 466412.000000 0 0 1
22.984841 17.026184 -0.251755 28.605196 0.637559 1.579597 0.060846 -0.026191 1238420.000000 0 0 1
21.397741 16.963284 -0.154555 27.306413 0.670311 1.576456 0.052260 -0.008255 473128.000000 0 0 1
20.823441 15.800584 -0.710755 26.149174 0.649102 1.597980 0.047078 -0.010389 1290760.000000 0 0 1
19.475141 15.501784 -0.290755 24.893191 0.672284 1.582477 0.061374 -0.009496 676496.000000 0 1 0
18.323541 16.377684 -0.751055 24.587492 0.729382 1.601347 0.062934 -0.016341 -1186360.000000 0 1 0
18.376941 17.694384 -0.325055 25.512915 0.766478 1.583537 0.052367 -0.012102 184718.000000 0 0 1
17.212541 18.426284 -0.656555 25.223611 0.819442 1.596829 0.044791 -0.021523 123869.000000 0 0 1
17.551841 19.897384 -0.340655 26.534676 0.847949 1.583635 0.047094 -0.015806 -9629.650000 0 0 1
17.449841 20.124384 1.017545 26.655640 0.856459 1.532613 0.056052 -0.018521 53738.000000 0 0 1
17.664641 21.386784 1.509245 27.779702 0.880425 1.516441 0.062736 -0.018039 -80279.400000 0 0 1
16.690641 22.512284 0.996045 28.042334 0.932821 1.535270 0.075457 -0.029858 -52468.400000 0 0 1
15.398341 22.410484 1.516145 27.233020 0.968778 1.515094 0.068877 -0.027650 -689504.000000 0 0 1
14.550041 23.336184 0.930545 27.516305 1.013279 1.536972 0.046235 -0.029496 221646.000000 0 0 1
13.032441 23.185084 1.236245 26.625569 1.058707 1.524349 0.030331 -0.031715 429799.000000 0 0 1
12.800941 23.616784 2.563145 26.984927 1.074095 1.475669 0.026338 -0.019427 974844.000000 0 0 1
11.404041 23.542584 2.931045 26.322926 1.119706 1.459215 0.011786 -0.022598 1202810.000000 0 0 1
11.134941 23.976084 4.370545 26.794424 1.136017 1.406950 0.017322 -0.012189 153780.000000 0 0 1
11.708241 23.090184 5.342445 26.434470 1.101512 1.367293 0.019645 -0.019166 153045.000000 0 0 1
10.874441 22.974484 6.467745 26.228078 1.128714 1.321630 0.007088 -0.005894 -733691.000000 0 0 1
11.308041 21.933484 7.535745 25.801879 1.094778 1.274414 0.011986 -0.010689 605689.000000 0 0 1
12.504641 22.131384 8.313345 26.744642 1.056496 1.254718 0.006301 -0.001031 979175.000000 0 0 1
13.664041 21.778884 7.559445 26.798712 1.010474 1.284832 0.025787 -0.007687 597437.000000 0 0 1
15.027041 21.815684 8.345245 27.773713 0.967614 1.265608 0.013826 0.000243 408711.000000 0 0 1
15.168141 20.732584 9.278245 27.312970 0.939170 1.224197 0.013524 0.001346 1165120.000000 0 0 1
16.480741 20.567284 9.886745 28.149169 0.895258 1.211915 0.021074 -0.004270 1220580.000000 0 0 1
16.783241 21.544284 11.016345 29.448144 0.908985 1.187378 0.016854 0.004755 -164084.000000 0 0 1
15.837641 21.389384 12.064245 29.221270 0.933439 1.145206 0.010175 0.000737 -180565.000000 0 0 1
16.065141 22.138084 13.234245 30.386325 0.943043 1.120166 -0.002780 0.007396 -167819.000000 0 0 1
17.042041 21.409684 14.191745 30.825498 0.898501 1.092362 0.023123 0.001619 1175250.000000 0 0 1
18.427141 21.563684 13.835845 31.559192 0.863669 1.116968 0.022229 0.000904 466824.000000 0 0 1
19.315441 21.070784 14.823945 32.199589 0.828835 1.092377 0.007052 -0.006768 1050120.000000 0 0 1
20.800941 21.501584 14.546545 33.265586 0.801959 1.118219 0.012068 -0.005585 805396.000000 0 0 1
21.331041 21.077584 13.310545 32.809274 0.779422 1.153058 0.010013 -0.002618 -27303.400000 0 0 1
22.717141 21.351584 13.257045 33.877837 0.754421 1.168732 0.024631 0.005733 315630.000000 0 0 1
23.477741 20.820484 12.014245 33.601175 0.725484 1.205149 0.023241 0.007313 49576.900000 0 0 1
23.162641 21.529984 10.846745 33.432021 0.748884 1.240375 0.039545 0.009397 112504.000000 0 0 1
24.164641 21.453784 9.854845 33.783319 0.726043 1.274785 0.038259 -0.000777 -284875.000000 0 0 1
24.120641 22.532784 8.752445 34.148747 0.751376 1.311600 0.029202 0.008581 -215538.000000 0 0 1
24.502241 23.807184 9.141345 35.365322 0.771012 1.309345 0.023457 0.010975 -525500.000000 0 0 1
25.858851 24.128284 9.059945 36.509407 0.750792 1.320022 -0.004194 0.015694 -690014.000000 0 0 1
26.248401 25.539684 9.668745 37.877944 0.771714 1.312679 -0.002634 0.022647 310947.000000 0 0 1
27.550141 25.976684 9.275145 38.984954 0.756011 1.330577 -0.011369 0.021936 704890.000000 0 0 1
27.985641 27.126384 10.046645 40.248874 0.769808 1.318516 -0.007713 0.015901 -758533.000000 0 0 1
29.224731 27.705684 9.463745 41.367285 0.758722 1.339979 -0.007935 0.014852 -1074020.000000 0 0 1
28.950991 28.516784 8.340445 41.484091 0.777843 1.368365 0.000722 0.007883 280419.000000 0 0 1
30.159991 28.853384 7.685945 42.440741 0.763261 1.388693 0.001611 0.008046 -119319.000000 0 0 1
29.946291 29.677984 6.386545 42.642127 0.780898 1.420460 0.021540 0.002272 -79626.100000 0 0 1
29.795961 31.042684 6.554945 43.524876 0.805888 1.419619 0.032236 -0.004477 91175.800000 0 0 1
29.786011 31.805184 5.362045 43.903618 0.818170 1.448358 0.037815 -0.013566 113175.000000 0 0 1
29.949411 33.300684 5.669145 45.144678 0.838333 1.444887 0.018918 -0.013720 106186.000000 0 0 1
28.788661 33.710584 6.357345 44.783996 0.863988 1.428359 0.019243 -0.019885 56494.800000 0 0 1
28.713381 -33.983333 6.591745 44.975285 -0.869256 1.423703 0.022215 -0.021140 -163063.000000 0 0 1
27.348731 -33.540233 7.143545 43.862632 -0.886735 1.407206 0.047701 -0.026149 512948.000000 0 0 1
26.280611 -33.731533 6.208945 43.209233 -0.908923 1.426602 0.039138 -0.027652 -295621.000000 0 0 1
25.095541 -33.088633 6.560145 42.043778 -0.921919 1.414125 0.030711 -0.026667 -209008.000000 0 0 1
23.975341 -33.258433 5.522345 41.369513 -0.946194 1.436908 0.034371 -0.018139 -5814.290000 0 0 1
24.371441 -32.616733 4.304745 40.943244 -0.929085 1.465462 0.006634 -0.002489 -246334.000000 0 0 1
23.328341 -32.595733 3.374045 40.225333 -0.949620 1.486819 0.004489 -0.006032 -195528.000000 0 0 1
23.746341 -31.758533 2.159045 39.713405 -0.928759 1.516404 0.005895 0.009859 -60547.200000 0 0 1
24.075141 -30.418433 2.484345 38.872425 -0.901281 1.506843 0.024538 0.009451 185810.000000 0 0 1
24.731641 -29.837133 1.365445 38.778512 -0.878687 1.535578 0.004939 0.016604 -613799.000000 0 0 1
24.838441 -28.289533 1.459645 37.674612 -0.850265 1.532043 0.006457 0.006989 -557640.000000 0 0 1
23.673041 -27.567933 1.213845 36.357629 -0.861264 1.537404 0.012180 0.001278 -515093.000000 0 0 1
23.281941 -27.492033 -0.130655 36.026070 -0.868127 1.574423 0.012012 0.005690 -57099.200000 0 0 1
22.077741 -26.553333 -0.479155 34.536006 -0.877171 1.584671 0.002997 0.004991 142261.000000 0 0 1
22.309741 -25.199833 -0.187355 33.656964 -0.846155 1.576363 0.005059 -0.002809 -161071.000000 0 0 1
22.255941 -24.770833 1.195245 33.321910 -0.838825 1.534919 0.005103 0.008658 405125.000000 0 0 1
20.836441 -24.752833 1.833445 32.407121 -0.871094 1.514191 0.011320 0.008911 306114.000000 0 0 1
20.894741 -23.809733 2.914245 31.811733 -0.850512 1.479059 0.010202 0.007182 566961.000000 0 0 1
19.607041 -23.562933 3.523945 30.855567 -0.876778 1.456339 0.005248 0.010294 680574.000000 0 0 1
19.630041 -22.836933 4.870345 30.505479 -0.860770 1.410455 -0.002647 0.013458 -203526.000000 0 0 1
19.965441 -21.475133 4.844045 29.719773 -0.821812 1.407075 0.002398 0.017038 396341.000000 0 0 1
18.828041 -20.617233 4.686445 28.311273 -0.830726 1.404498 -0.000867 0.011030 109369.000000 0 0 1
19.055041 -19.075633 4.844845 27.394285 -0.785938 1.393005 -0.001618 0.011158 12754.900000 0 0 1
19.277241 -18.570933 6.172845 27.469903 -0.766739 1.344148 0.004558 -0.000377 518191.000000 0 0 1
18.065841 -18.447233 6.935445 26.735284 -0.795843 1.308383 0.013082 0.007525 789091.000000 0 0 1
18.054023 -26.255966 -12.588455 34.260658 -0.968430 1.947042 0.044183 -0.004410 -45588.300000 0 0 1
18.373423 -24.919416 -12.749555 33.482997 -0.935464 1.961433 0.056398 -0.007447 -43127.500000 0 0 1
17.270123 -24.244916 -13.317155 32.610117 -0.951850 1.991469 0.049727 -0.005126 -64882.200000 0 0 1
17.541523 -22.766516 -13.634155 31.810524 -0.914306 2.013745 0.041681 -0.006587 23985.500000 0 0 1
17.717623 -21.777316 -12.609155 30.775907 -0.887829 1.992931 0.040488 -0.006822 157724.000000 0 0 1
18.882423 -21.904316 -11.792955 31.231695 -0.859353 1.957995 0.038400 -0.015649 -254508.000000 0 0 1
18.722323 -22.783416 -10.521255 31.309842 -0.882932 1.913502 0.035257 -0.013902 199764.000000 0 0 1
17.779623 -22.398516 -9.523455 30.141412 -0.899856 1.892264 0.030401 -0.017397 1211660.000000 0 0 1
16.385223 -22.644316 -9.799555 29.618775 -0.944412 1.908007 0.037274 -0.003919 598722.000000 0 0 1
15.459923 -22.046216 -8.746355 28.311545 -0.959232 1.884867 0.026463 -0.005364 -925605.000000 0 0 1
15.374123 -20.637616 -8.831455 27.207893 -0.930531 1.901376 0.014187 -0.011229 55362.600000 0 0 1
14.565123 -19.948216 -7.904855 25.933778 -0.940123 1.880534 0.011238 -0.015552 -251739.000000 0 0 1
13.063423 -20.047116 -8.225755 25.302232 -0.993272 1.901914 0.018388 -0.003479 -392528.000000 0 0 1
12.515723 -21.328716 -7.880355 25.954912 -1.040138 1.879283 0.015854 -0.001662 847416.000000 0 0 1
11.113123 -21.350816 -8.253555 25.445629 -1.090883 1.901132 0.009239 0.001743 912686.000000 0 0 1
10.433623 -22.658816 -7.874555 26.158957 -1.139273 1.876566 0.002259 0.007110 -271143.000000 0 0 1
10.602323 -22.995016 -6.536855 26.151682 -1.138774 1.823435 0.011885 0.002983 203336.000000 0 0 1
10.058823 -24.261116 -6.250455 26.997220 -1.177762 1.804438 0.005921 0.005182 69497.300000 0 0 1
10.226623 -24.619916 -4.742755 27.077995 -1.177102 1.746856 0.026662 -0.001841 142580.000000 0 0 1
9.579223 -25.827616 -4.444255 27.903023 -1.215633 1.730753 0.034017 -0.000585 -38899.200000 0 0 1
10.181923 -26.166656 -3.174855 28.256772 -1.199706 1.683391 0.025092 -0.001641 98018.600000 0 0 1
9.370123 -27.199666 -2.397255 28.868112 -1.239035 1.653934 0.035678 -0.001004 -261739.000000 0 0 1
8.125123 -26.608446 -2.116855 27.901758 -1.274431 1.646737 0.020383 0.001407 -592100.000000 0 0 1
7.336323 -27.447576 -1.291555 28.440450 -1.309617 1.616225 0.017624 0.000051 -28637.400000 0 0 1
6.906723 -26.592976 -0.011055 27.475249 -1.316691 1.571199 0.030447 0.001863 124317.000000 0 0 1
5.860523 -25.650976 -0.242755 26.313062 -1.346180 1.580022 0.036829 -0.006174 286149.000000 0 0 1
5.350123 -25.228356 1.030045 25.809974 -1.361824 1.530877 0.028807 -0.006178 -140919.000000 0 0 1
3.882223 -24.773816 1.072245 25.099070 -1.415354 1.528063 0.030994 -0.007792 -311514.000000 0 0 1
2.998923 -25.813606 0.880645 26.002141 -1.455139 1.536922 0.028804 -0.007035 -1554840.000000 0 0 1
1.686623 -25.420366 0.905845 25.492357 -1.504544 1.535255 0.021262 -0.006806 -674185.000000 0 0 1
0.599923 -26.476696 0.522645 26.488649 -1.548142 1.551064 0.022075 -0.001958 450473.000000 0 0 1
0.352523 -27.463826 1.535045 27.508951 -1.557961 1.514966 0.021676 -0.002397 -155358.000000 0 0 1
0.741523 -28.753706 1.119345 28.785038 -1.545013 1.531900 0.017815 -0.005346 -206478.000000 0 0 1
0.173523 -29.860376 2.038045 29.930349 -1.564985 1.502651 0.029614 -0.005117 198943.000000 0 0 1
0.728323 -29.925646 3.372845 30.123925 -1.546463 1.458595 0.015529 -0.002640 -119718.000000 0 0 1
0.112823 -30.872646 4.177045 31.154145 -1.567142 1.436315 0.018118 -0.005311 -371619.000000 0 0 1
0.481523 -30.833716 5.664645 31.353439 -1.555181 1.389128 0.011502 -0.006759 482070.000000 0 0 1
1.884623 -30.948446 5.929745 31.567705 -1.509976 1.381832 0.009174 0.001240 705278.000000 0 0 1
2.016823 -30.954316 7.318745 31.871638 -1.505733 1.339097 0.014834 0.001203 -175571.000000 0 0 1
3.399123 -31.513586 7.651945 32.606938 -1.463350 1.333915 0.012657 0.003645 -198443.000000 0 0 1
3.539323 -32.886666 7.335845 33.880293 -1.463587 1.352545 0.018691 -0.000558 -1062950.000000 0 0 1
4.866923 -33.243736 7.414945 34.406603 -1.425428 1.353583 0.014367 0.000946 -821384.000000 0 0 1
4.869623 34.335565 7.138845 35.406318 1.429911 1.367778 0.001796 0.012161 -82091.000000 0 0 1
4.817423 33.961913 5.755945 34.781461 1.429889 1.404543 0.009509 0.007215 103066.000000 0 0 1
4.529323 32.536080 5.630945 33.328949 1.432476 1.401031 0.005082 0.003367 -709509.000000 0 0 1
4.780423 32.124570 4.150945 32.742492 1.423071 1.443679 0.013355 0.001719 811811.000000 0 0 1
6.115723 32.233020 3.608745 33.005949 1.383290 1.461241 0.013721 -0.000801 800734.000000 0 0 1
6.991923 31.275400 4.173645 32.318059 1.350853 1.441292 0.004072 -0.007316 511698.000000 0 0 1
8.408423 31.191610 3.451445 32.488930 1.307482 1.464361 -0.000880 -0.008206 984000.000000 0 0 1
9.357623 31.966180 4.152645 33.565551 1.286018 1.446761 -0.003399 -0.009699 715348.000000 0 0 1
10.667123 31.742820 3.561945 33.676128 1.246604 1.464827 0.005015 -0.009752 674980.000000 0 0 1
11.885523 32.085730 4.401945 34.498360 1.216038 1.442849 0.012201 -0.015282 -433382.000000 0 0 1
12.066423 31.297100 5.550645 33.998775 1.202813 1.406802 0.014022 -0.017022 -73037.600000 0 0 1
13.148723 31.820520 6.296445 35.001138 1.178950 1.389919 0.032576 -0.017642 27880.700000 0 0 1
13.917923 30.777760 7.144045 34.525592 1.146108 1.362370 0.028077 -0.018998 -487695.000000 0 0 1
13.272023 30.509280 8.353545 34.303709 1.160473 1.324806 0.011702 -0.004903 411788.000000 0 0 1
14.124323 29.619870 9.114345 34.057371 1.125837 1.299877 0.005758 -0.005410 515591.000000 0 0 1
13.796423 29.490950 10.614445 34.245056 1.133223 1.255650 -0.010702 0.009055 -53441.800000 0 0 1
14.467623 30.482580 11.374745 35.607368 1.127659 1.245648 0.003410 0.003457 -7445.330000 0 0 1
13.890823 30.737130 12.611045 36.010618 1.146344 1.213008 0.003641 0.010262 33774.500000 0 0 1
14.726523 31.818420 13.436545 37.547611 1.137324 1.204828 -0.000992 0.014254 489250.000000 0 0 1
15.942223 31.289280 13.915845 37.773327 1.099569 1.193505 -0.014562 0.018794 -500807.000000 0 0 1
16.538623 32.216480 14.730245 39.094856 1.096519 1.184476 0.003699 0.015418 -26254.700000 0 0 1
17.682423 31.606880 15.620545 39.441911 1.060728 1.163597 0.002614 0.015595 769024.000000 0 0 1
18.859623 31.234710 14.907145 39.414660 1.027585 1.182931 -0.000232 0.010146 289411.000000 0 0 1
19.126723 29.849290 14.943345 38.472265 1.000932 1.171881 -0.009160 0.010074 912941.000000 0 0 1
20.539923 29.405900 14.368945 38.640160 0.961080 1.189778 0.009009 0.008196 1473850.000000 0 0 1
21.542323 29.337550 15.399445 39.520962 0.937424 1.170542 0.017857 -0.000974 -240515.000000 0 0 1
22.821023 29.351790 14.839045 40.031537 0.909926 1.191051 0.026736 -0.005225 -399135.000000 0 0 1
23.930823 29.467990 15.901745 41.157165 0.888723 1.174108 0.040008 -0.015199 -133461.000000 0 0 1
23.986923 28.340950 16.747645 40.731628 0.868414 1.147059 0.030077 -0.009920 -117160.000000 0 0 1
24.911023 28.436600 17.810345 41.790043 0.851389 1.130523 0.031741 -0.014146 -605458.000000 0 0 1
25.808723 27.199340 17.940245 41.566172 0.811626 1.124523 0.011899 -0.009580 -299861.000000 0 0 1
25.297723 25.967200 18.551645 40.723872 0.798457 1.097810 0.017572 -0.010334 207390.000000 0 0 1
24.681923 26.022400 19.850745 40.992861 0.811829 1.065292 0.022290 -0.012035 32476.500000 0 0 1
24.217823 24.564650 20.239845 39.994703 0.792508 1.040182 0.032005 -0.015933 52498.300000 0 0 1
25.304623 23.690900 20.544445 40.294626 0.752474 1.035779 0.025033 -0.010590 -43590.800000 0 0 1
24.952223 22.329300 20.417245 39.218299 0.729980 1.023237 0.033926 -0.018085 -1358880.000000 0 0 1
25.993123 21.329000 20.645745 39.456501 0.687154 1.020132 0.012204 -0.012363 -1349490.000000 0 0 1
25.408423 20.069000 20.771845 38.468458 0.668525 1.000394 0.009905 -0.000433 128493.000000 0 0 1
26.314523 18.995100 20.995545 38.653342 0.625239 0.996582 0.018371 -0.005337 38988.200000 0 0 1
26.852823 18.554300 22.350545 39.558602 0.604635 0.970365 0.029560 0.000551 -266380.000000 0 0 1
25.845423 17.989600 23.151245 39.084418 0.608067 0.936837 0.023916 0.006377 310281.000000 0 0 1
26.332923 17.677000 24.452945 40.048042 0.591196 0.913991 0.035686 0.005099 -404581.000000 0 0 1
25.204623 17.056700 25.256045 39.548348 0.594937 0.878103 0.023501 0.011631 -211170.000000 0 0 1
24.718323 15.843500 24.659045 38.341628 0.569995 0.872204 0.021760 0.002733 454593.000000 0 0 1
23.787123 15.211100 25.539845 38.072148 0.568936 0.835472 0.021698 0.009838 103365.000000 0 0 1
23.050723 14.052400 24.822045 36.673419 0.547470 0.827335 0.019387 0.007950 -330996.000000 0 0 1
21.917023 13.588400 25.506845 36.271196 0.554991 0.790872 0.005791 0.009535 135932.000000 0 0 1
21.356123 12.536800 24.752245 35.013268 0.530832 0.785635 0.016627 0.007595 742264.000000 0 0 1
19.906723 12.008500 25.068645 34.189452 0.542797 0.747740 0.016832 -0.001507 645015.000000 0 0 1
18.886223 12.955800 24.956945 33.873164 0.601263 0.742506 0.029041 -0.004269 237928.000000 0 0 1
17.624323 12.310400 25.151645 33.087278 0.609711 0.707236 0.023728 -0.005248 410028.000000 0 0 1
16.444823 13.284700 25.358045 33.014329 0.679500 0.694940 0.029781 -0.010813 -84430.000000 0 0 1
16.324923 13.652400 26.678645 34.126840 0.696482 0.673330 0.036630 -0.013380 77700.600000 0 0 1
15.078523 14.242200 26.944845 34.003335 0.756883 0.656034 0.050298 -0.020862 -160402.000000 0 0 1
14.856423 14.560400 28.462445 35.253784 0.775335 0.631135 0.049302 -0.009555 -118517.000000 0 0 1
14.619623 13.422000 29.257945 35.354078 0.742715 0.596033 0.038761 -0.007915 -62129.900000 0 0 1
14.928023 13.562200 30.641945 36.683892 0.737495 0.582124 0.030046 -0.002510 396890.000000 0 0 1
16.425123 13.294100 31.000145 37.517019 0.680432 0.598298 0.028706 0.004598 -112541.000000 0 0 1
17.242323 14.351500 30.632545 37.968619 0.694153 0.632105 0.039819 -0.002442 -690855.000000 0 0 1
18.580323 13.948100 30.686645 38.489584 0.643944 0.648035 0.017444 0.009603 -418660.000000 0 0 1
19.616823 15.073400 30.331545 39.141152 0.655168 0.684196 0.007272 0.007669 -45863.700000 0 0 1
19.671923 15.738400 29.097745 38.488447 0.674768 0.713597 0.019192 0.004383 266800.000000 0 0 1
19.593023 14.879900 27.938445 37.227069 0.649521 0.721997 0.025049 0.004409 -515576.000000 0 0 1
19.433923 15.708700 26.618445 36.510029 0.679790 0.753831 0.032928 -0.001017 -538900.000000 0 0 1
20.532123 16.464400 26.217645 37.148478 0.675889 0.787311 0.036942 0.007460 -117201.000000 0 0 1
20.293723 17.075300 24.916245 36.389838 0.699485 0.816600 0.035950 0.000014 198277.000000 0 0 1
21.396323 18.104200 24.518745 37.238871 0.702247 0.852081 0.033159 -0.003668 254203.000000 0 0 1
21.092023 18.684200 23.212345 36.507338 0.724938 0.881717 0.026903 -0.018927 277935.000000 0 0 1
22.289923 19.197800 22.670745 37.139721 0.711005 0.914208 0.035574 -0.011694 257475.000000 0 0 1
22.699423 20.577000 23.190245 38.424786 0.736394 0.922884 0.046567 -0.017863 -71939.000000 0 0 1
21.885823 21.605200 22.618245 38.175370 0.778946 0.936659 0.040114 -0.015335 202495.000000 0 0 1
22.202623 22.846000 23.187645 39.402577 0.799679 0.941618 0.054214 -0.015376 -310252.000000 0 0 1
21.210723 23.971400 22.879345 39.344469 0.846423 0.950208 0.046651 -0.023167 -179807.000000 0 0 1
21.388223 24.542290 21.619245 39.079046 0.853961 0.984574 0.053030 -0.022693 147861.000000 0 0 1
20.561923 25.707000 21.424545 39.276630 0.896143 0.993837 0.048835 -0.022200 -10976.300000 0 0 1
20.877423 26.467020 20.148445 39.272507 0.902917 1.032071 0.048408 -0.019461 -287509.000000 0 0 1
20.783123 25.816600 18.980345 38.192781 0.892996 1.050702 0.039729 -0.019700 124191.000000 0 0 1
21.181023 26.668320 17.916545 38.481653 0.899578 1.086499 0.034117 -0.025769 -86298.500000 0 0 1
21.056123 26.074220 16.451445 37.334639 0.891471 1.114476 0.010867 -0.004098 -547061.000000 0 0 1
19.721723 25.951350 16.038045 36.326819 0.920958 1.113534 0.006610 0.004669 -438274.000000 0 0 1
19.722423 25.632990 14.653445 35.507008 0.914985 1.145389 0.010182 0.012482 -291631.000000 0 0 1
18.341123 25.331940 14.038845 34.281090 0.944123 1.148867 0.000043 0.017766 -43689.500000 0 0 1
17.612023 26.528790 13.764745 34.690463 0.984723 1.162782 -0.012463 0.026034 155289.000000 0 0 1
16.697423 26.905410 14.796245 34.951880 1.015369 1.133676 0.000297 0.030163 434537.000000 0 0 1
15.224723 26.393220 14.679545 33.821344 1.047579 1.121833 -0.000956 0.016764 -55159.100000 0 0 1
14.978423 25.006240 14.764145 32.674840 1.031122 1.101958 -0.010694 0.020348 -136832.000000 0 0 1
14.993223 24.348080 15.985745 32.759270 1.018850 1.061027 -0.012834 0.026373 -362164.000000 0 0 1
13.914523 24.765550 16.981445 33.095557 1.058901 1.032000 0.009529 0.019204 -366739.000000 0 0 1
14.138623 26.107860 17.454845 34.441147 1.074466 1.039325 0.001015 0.014747 -932261.000000 0 0 1
13.247723 26.529920 18.354745 34.874568 1.107669 1.016544 0.000597 0.005050 -1065230.000000 0 0 1
13.661923 27.945770 18.848845 36.371598 1.116090 1.026017 0.013353 0.000715 -126475.000000 0 0 1
13.631023 28.913700 17.843845 36.608874 1.130258 1.061665 0.011629 0.003321 -26461.900000 0 0 1
14.186923 30.075610 18.387745 37.998951 1.130037 1.065689 0.011989 -0.000911 -272335.000000 0 0 1
14.139223 31.343630 17.531045 38.596351 1.147025 1.099305 0.001568 0.002678 878562.000000 0 0 1
12.822523 31.938120 17.559245 38.636611 1.189015 1.099017 0.000532 0.006117 911598.000000 0 0 1
12.821423 33.147160 16.853845 39.334148 1.201718 1.127988 0.004254 0.008300 912220.000000 0 0 1
11.448523 33.949044 16.877945 39.603930 1.245546 1.130543 0.009640 0.004122 719197.000000 0 0 1
11.563223 -33.839446 16.281045 39.292349 -1.241527 1.143561 0.013968 -0.000083 66855.000000 0 0 1
12.292623 -32.748406 16.869345 38.834797 -1.211705 1.121438 0.019342 -0.005923 -89530.600000 0 0 1
12.033923 -32.470326 18.349645 39.189882 -1.215877 1.083517 0.017252 -0.009370 -545676.000000 0 0 1
12.603523 -33.361456 19.247645 40.525392 -1.209585 1.075886 0.026567 -0.003336 36629.300000 0 0 1
12.340323 -32.999876 20.608545 40.816510 -1.212946 1.041522 0.023422 -0.002979 -228097.000000 0 0 1
13.242623 -33.657176 21.747445 42.203364 -1.195944 1.029437 0.045622 -0.000969 -550941.000000 0 0 1
14.501523 -33.176666 21.440945 42.079680 -1.158722 1.036155 0.048328 0.000466 -1346420.000000 0 0 1
15.494923 -33.642956 22.336145 43.253260 -1.139188 1.028150 0.040872 0.006315 787775.000000 0 0 1
16.789923 -32.762316 22.200945 42.990148 -1.097217 1.028132 0.055861 -0.000671 637793.000000 0 0 1
16.575123 -31.488996 22.796545 42.260786 -1.086269 1.001042 0.068721 -0.002359 74147.900000 0 0 1
17.497923 -30.538936 22.306145 41.669750 -1.050488 1.005924 0.046364 -0.007165 13332.200000 0 0 1
-4.472777 13.640384 17.888641 22.936200 -1.253937 0.676242 -0.011782 0.023483 -213993.000000 0 1 0
-4.131477 14.987584 17.984341 23.772532 -1.301817 0.712825 -0.014980 0.028421 -149510.000000 0 1 0
-5.136377 15.832484 17.480441 24.137434 -1.257089 0.760916 -0.009350 0.021185 -181780.000000 0 1 0
-4.751377 17.305184 17.587041 25.126659 -1.302836 0.795489 -0.006961 0.023056 -181791.000000 0 0 1
-4.566477 17.754884 18.882341 26.317891 -1.319057 0.770630 -0.009730 0.027441 178707.000000 0 0 1
-4.184577 19.123684 18.774841 27.124170 -1.355375 0.806289 -0.007072 0.009981 -238252.000000 0 0 1
-3.661377 19.782584 20.126741 28.457723 -1.387786 0.785195 -0.004467 0.008633 163840.000000 0 0 1
-4.652577 19.856984 21.131841 29.368367 -1.340644 0.767650 -0.000699 0.012110 128027.000000 0 0 1
-4.181077 20.572884 22.211841 30.562900 -1.370295 0.757206 0.002395 0.009311 -443493.000000 0 0 1
-5.339977 20.789284 23.171241 31.585061 -1.319370 0.747172 -0.005415 0.009938 -145786.000000 0 0 1
-5.764777 19.653784 23.899141 31.474955 -1.285482 0.708549 -0.010330 0.005323 -108361.000000 0 0 1
-6.382077 19.976884 25.155831 32.750918 -1.261571 0.694935 -0.019120 0.002211 -243765.000000 0 0 1
-5.440077 20.457184 26.232981 33.708457 -1.310886 0.678952 -0.019142 0.000034 -889441.000000 0 0 1
-4.985077 21.791084 25.969391 34.265312 -1.345899 0.710721 -0.006843 -0.000233 213470.000000 0 0 1
-3.910377 22.297284 26.754981 35.046953 -1.397187 0.702230 -0.009141 0.006224 -651382.000000 0 0 1
-2.553077 21.806784 26.356311 34.303194 -1.454250 0.694562 -0.002131 0.011531 -1605070.000000 0 0 1
-2.255377 20.457384 26.523801 33.572359 -1.460992 0.659908 0.006186 0.016693 627641.000000 0 0 1
-0.881277 20.218584 26.147441 33.064429 -1.527236 0.658677 0.005547 0.017583 892478.000000 0 0 1
-0.366777 18.879784 26.701691 32.704144 -1.551372 0.615540 0.003691 0.025883 -259224.000000 0 0 1
-1.034177 17.785884 26.132711 31.627927 -1.512716 0.598371 0.006809 0.017862 -255458.000000 0 0 1
-0.428077 16.577984 26.508491 31.268401 -1.544980 0.559025 0.000818 0.017694 324252.000000 0 0 1
1.021223 16.210484 26.080741 30.725034 1.507882 0.557003 0.002623 0.020356 117552.000000 0 0 1
1.285323 15.929084 24.748081 29.459383 1.490280 0.573376 -0.000198 0.024024 -323534.000000 0 0 1
0.839623 14.625484 24.404451 28.463783 1.513451 0.540627 0.006548 0.024432 -333709.000000 0 0 1
1.100123 14.192484 22.947341 27.004024 1.493437 0.555238 0.004224 0.018971 126525.000000 0 0 1
2.498123 14.178684 22.721641 26.898860 1.396398 0.564780 0.004206 0.011636 -30741.100000 0 0 1
2.667023 13.552184 21.463941 25.524017 1.376483 0.571795 0.000434 0.005690 65073.600000 0 0 1
4.138923 13.804284 21.066641 25.524347 1.279497 0.599966 0.002798 0.003049 47954.900000 0 0 1
4.427823 14.897584 20.277741 25.548589 1.281894 0.653940 -0.000666 0.004169 -402105.000000 0 0 1
5.816923 14.904584 20.067741 25.665101 1.198699 0.673076 0.008453 0.001689 -407983.000000 0 0 1
6.111423 15.985784 19.028641 25.592654 1.205638 0.732478 0.015621 -0.005939 -225346.000000 0 0 1
5.757223 15.644584 17.732241 24.337851 1.218176 0.754540 0.016125 -0.011372 249425.000000 0 1 0
6.243223 16.667684 16.853041 24.511518 1.212402 0.812678 0.017537 -0.008523 1656.650000 0 1 0
6.277623 16.170384 15.390841 23.189822 1.200489 0.845056 0.015929 -0.012289 1270830.000000 0 1 0
7.460523 15.393984 15.008241 22.757008 1.119513 0.850643 0.014401 -0.009362 1089120.000000 0 1 0
7.644723 14.152784 15.646841 22.440292 1.075542 0.799221 0.020432 -0.008716 120596.000000 0 1 0
8.791923 13.305084 14.997841 21.891971 0.986870 0.816077 0.023964 -0.013889 761460.000000 0 1 0
10.110123 13.786884 15.258041 22.915073 0.938060 0.842161 0.034572 -0.019421 -62612.600000 0 1 0
10.974423 12.946584 14.548841 22.354435 0.867657 0.862125 0.035531 -0.012671 179141.000000 0 1 0
12.436023 13.483884 14.487841 23.374501 0.825803 0.902291 0.041321 -0.010317 -49263.900000 0 1 0
13.184423 13.513684 15.678441 24.541030 0.797730 0.877772 0.035610 -0.012278 265924.000000 0 1 0
14.458823 14.110684 15.625141 25.540438 0.773213 0.912487 0.038311 -0.016815 248569.000000 0 0 1
15.618623 13.382884 14.911741 25.404782 0.708460 0.943490 0.047486 -0.014546 -90769.300000 0 0 1
16.865123 14.057884 15.106641 26.650836 0.694865 0.968137 0.040839 -0.021906 607974.000000 0 0 1
17.798623 13.707384 14.115441 26.531660 0.656265 1.009809 0.034598 -0.006704 -362986.000000 0 0 1
19.215523 14.263084 14.312941 27.884263 0.638535 1.031773 0.020952 -0.009208 -32725.500000 0 0 1
19.939123 13.559084 15.312341 28.563703 0.597193 1.005013 0.018807 -0.008900 227538.000000 0 0 1
21.330623 13.804384 15.202641 29.608728 0.574378 1.031594 -0.014122 -0.001835 173527.000000 0 0 1
22.142323 13.310384 16.408141 30.605161 0.541249 1.004958 -0.005177 0.000563 -213836.000000 0 0 1
22.350323 11.906284 16.604441 30.282073 0.489473 0.990435 0.014427 -0.005136 545152.000000 0 0 1
23.087623 11.677184 17.809041 31.409503 0.468258 0.967943 0.012116 -0.003792 -272489.000000 0 0 1
23.277123 10.153684 17.930741 31.087509 0.411326 0.956011 0.024538 0.001658 228677.000000 0 0 1
22.104223 9.493484 18.414541 30.295515 0.405665 0.917471 0.019626 -0.002028 858018.000000 0 0 1
21.720323 8.342684 17.673441 29.218544 0.366721 0.921193 0.027744 0.014191 74744.000000 0 0 1
20.562623 7.525484 18.326041 28.553426 0.350838 0.873933 0.035666 0.009867 101586.000000 0 0 1
20.231623 6.276284 17.743041 27.631970 0.300808 0.873536 0.041226 0.001840 856880.000000 0 0 1
19.197423 5.642184 18.510041 27.257969 0.285854 0.824303 0.036008 0.003294 85869.900000 0 0 1
18.956723 4.119984 18.146641 26.563738 0.214008 0.818748 0.033751 0.010328 -698381.000000 0 0 1
18.335923 3.928984 16.921941 25.258564 0.211086 0.836657 0.024598 0.001735 138658.000000 0 0 1
18.316523 2.647684 16.309541 24.667922 0.143557 0.848427 0.027349 -0.003055 -117984.000000 0 1 0
17.517823 1.563884 17.077941 24.514810 0.089038 0.800096 0.030489 0.001580 -230116.000000 0 1 0
18.252623 0.887984 18.086341 25.711135 0.048611 0.790565 0.036570 -0.003750 82466.600000 0 0 1
17.402223 0.169884 18.938641 25.720387 0.009762 0.743169 0.045173 -0.002910 -415288.000000 0 0 1
18.164423 -0.657716 19.959841 26.995816 -0.036193 0.738665 0.028205 0.000998 -330355.000000 0 0 1
18.557023 -1.972916 19.587441 27.054082 -0.105919 0.761197 0.026121 0.012796 321535.000000 0 0 1
17.519323 -2.915916 19.827041 26.618429 -0.164928 0.730469 0.016596 0.002010 255042.000000 0 0 1
17.770023 -4.168716 19.010041 26.354005 -0.230426 0.765070 0.005081 0.013525 3005.860000 0 0 1
17.332323 -3.841016 17.732141 25.091665 -0.218085 0.785981 0.010272 0.005567 222907.000000 0 0 1
17.420323 -5.021516 16.956241 24.823323 -0.280648 0.818829 0.026485 0.001645 -189759.000000 0 1 0
16.855123 -4.891816 15.512541 23.423577 -0.282467 0.846963 0.017767 -0.010659 -925197.000000 0 1 0
15.485023 -4.689416 15.390641 22.330436 -0.294056 0.810381 0.021274 -0.011089 -513245.000000 0 1 0
15.117323 -4.559216 14.001741 21.103759 -0.292914 0.845347 0.027063 -0.015278 187975.000000 0 1 0
15.565723 -3.295516 13.213441 20.682049 -0.208635 0.877749 0.024934 -0.014686 -200249.000000 0 1 0
14.863323 -2.119816 13.546541 20.221789 -0.141665 0.836725 0.024574 -0.007321 100771.000000 0 1 0
15.436223 -0.974416 12.931741 20.160763 -0.063042 0.874434 0.022946 -0.007422 540143.000000 0 1 0
14.473323 0.271384 13.135341 19.547069 0.018748 0.833910 0.027186 -0.000831 223234.000000 0 1 0
14.922323 1.503384 12.623041 19.602985 0.100408 0.871166 0.025202 -0.001918 195065.000000 0 1 0
15.544423 2.348384 13.606641 20.791456 0.149942 0.857362 0.021937 -0.000833 88837.300000 0 1 0
15.782123 3.822584 13.103441 20.865946 0.237633 0.891839 0.015994 -0.001609 -69759.800000 0 1 0
14.585723 4.571184 13.037141 20.089949 0.303706 0.864608 -0.000093 -0.008049 630779.000000 0 1 0
14.909423 5.851884 12.476041 20.302390 0.374020 0.909030 0.015068 -0.005634 648220.000000 0 1 0
13.781223 6.914684 12.716941 19.986384 0.465044 0.881129 0.008620 -0.003307 350435.000000 0 1 0
14.124723 8.118684 12.021141 20.246695 0.521673 0.935106 0.006808 -0.011648 260093.000000 0 1 0
13.296823 9.205684 12.374741 20.363799 0.605554 0.917656 0.011575 0.002695 -436668.000000 0 1 0
13.587723 9.949984 13.678041 21.696018 0.632062 0.888676 0.033878 -0.005150 17360.800000 0 1 0
13.035123 9.267484 14.799441 21.790460 0.618046 0.824164 0.020515 -0.005572 508637.000000 0 1 0
13.472723 9.865184 15.983241 23.114932 0.632033 0.807277 0.031026 -0.013394 -201266.000000 0 1 0
12.917123 9.130684 17.259541 23.411817 0.615320 0.741857 0.030264 -0.021406 1072650.000000 0 1 0
11.493123 9.341984 17.476841 22.908612 0.682517 0.703019 0.010312 -0.021177 1167530.000000 0 1 0
10.927623 8.632584 18.590641 23.228137 0.668600 0.642917 0.023153 -0.017656 33272.500000 0 1 0
11.411923 9.116784 19.967641 24.739733 0.674059 0.631559 0.032624 -0.016582 18395.900000 0 1 0
12.776823 8.831984 20.251441 25.521990 0.604830 0.654274 0.042137 -0.017674 396507.000000 0 0 1
13.219723 9.194784 21.549941 26.901767 0.607723 0.641732 0.036162 -0.003221 -580795.000000 0 0 1
14.731023 9.107184 21.721841 27.780968 0.553717 0.673094 0.039916 -0.007170 -389085.000000 0 0 1
15.468323 10.056884 20.998941 27.952915 0.576488 0.720880 0.039508 -0.001745 -74892.800000 0 0 1
16.159823 9.487484 19.896841 27.331968 0.530883 0.755441 0.041230 -0.009284 -38349.900000 0 0 1
17.039723 10.580984 19.210041 27.772919 0.555689 0.806980 0.037408 -0.008676 85892.400000 0 0 1
17.999123 11.199484 20.018141 29.156866 0.556601 0.814040 0.035032 -0.005169 122432.000000 0 0 1
18.978123 11.950084 19.336541 29.612083 0.561955 0.859264 0.024384 -0.002072 366816.000000 0 0 1
19.856823 12.799584 20.299141 31.147678 0.572565 0.860964 0.025159 -0.005206 -546701.000000 0 0 1
19.119923 13.793584 20.896541 31.503965 0.624961 0.845578 0.020412 -0.011469 -14756.300000 0 0 1
19.847623 14.462984 21.913541 32.913664 0.629730 0.842246 0.030099 -0.004337 160196.000000 0 0 1
21.159923 15.245384 21.578941 33.849885 0.624342 0.879561 0.016878 -0.007695 64492.800000 0 0 1
22.285023 14.409984 21.510841 34.161179 0.573997 0.889646 0.004684 0.002930 -397876.000000 0 0 1
23.430423 15.158584 21.177541 35.032208 0.574236 0.921638 -0.002095 0.000056 -434221.000000 0 0 1
24.722223 14.349284 21.151141 35.559260 0.525898 0.933762 -0.012781 -0.001761 -559849.000000 0 0 1
25.007423 13.628784 19.971741 34.784844 0.498988 0.959230 -0.013953 -0.002361 207410.000000 0 0 1
26.030023 12.692484 20.269041 35.348200 0.453686 0.960133 -0.007887 -0.003775 -120242.000000 0 0 1
26.492923 11.989084 19.016441 34.745332 0.424963 0.991651 0.009285 -0.009164 -521934.000000 0 0 1
27.228823 12.824284 18.147441 35.145421 0.440165 1.028210 -0.001275 -0.012459 564636.000000 0 0 1
27.742123 12.255884 16.898841 34.718912 0.415996 1.062450 0.016863 -0.021892 76412.300000 0 0 1
26.654323 11.828684 15.884741 33.206862 0.417670 1.072013 0.011932 -0.019518 -96706.300000 0 0 1
26.203423 12.908484 15.151241 32.906054 0.457731 1.092306 0.006910 -0.008413 163829.000000 0 0 1
25.372223 12.560284 14.055841 31.608180 0.459672 1.109968 0.003321 -0.007058 -22833.000000 0 0 1
25.009123 13.624484 12.992141 31.303011 0.498827 1.142805 -0.015887 -0.009269 -222656.000000 0 0 1
24.176223 14.625084 13.528041 31.327156 0.544042 1.124274 -0.015721 -0.005847 88634.500000 0 0 1
24.028423 15.630184 12.566341 31.298253 0.576718 1.157639 -0.012181 -0.002529 -670276.000000 0 0 1
23.212723 16.792084 13.001641 31.461838 0.626259 1.144775 -0.013086 -0.001628 -1043060.000000 0 0 1
21.862723 16.490284 13.185941 30.393702 0.646225 1.122048 0.003322 -0.008041 -134916.000000 0 0 1
21.037823 17.578984 13.563441 30.587213 0.696068 1.111369 0.019924 -0.006526 -92443.500000 0 0 1
20.317223 18.326784 12.385041 30.034143 0.733937 1.145747 0.019454 0.000215 -211121.000000 0 0 1
19.227023 17.682484 11.745941 28.641155 0.743576 1.148225 0.027404 -0.004030 961138.000000 0 0 1
17.983023 18.035384 12.418341 28.335126 0.786852 1.117127 0.026863 -0.006656 456863.000000 0 0 1
16.787223 17.343384 11.744641 26.842883 0.801692 1.117943 0.037396 -0.006106 -387847.000000 0 0 1
16.821823 15.968784 11.804641 26.025474 0.759389 1.100018 0.040216 -0.002426 54281.600000 0 0 1
15.648723 15.429984 11.245041 24.686390 0.778360 1.097845 0.045890 -0.010065 -154740.000000 0 1 0
15.780323 14.129484 10.418841 23.605362 0.730260 1.113665 0.048252 -0.014312 -285881.000000 0 1 0
16.078523 13.001784 11.217041 23.524185 0.679989 1.073751 0.065024 -0.010852 456003.000000 0 1 0
16.511923 11.930784 10.352241 22.850735 0.625704 1.100627 0.050719 -0.003403 100295.000000 0 1 0
16.888923 10.646784 11.183941 22.883842 0.562473 1.060167 0.041725 -0.005694 -360768.000000 0 1 0
17.537823 9.622684 10.375241 22.534793 0.501831 1.092339 0.037515 -0.003029 564154.000000 0 1 0
17.816523 8.473184 11.164641 22.668757 0.443922 1.055822 0.034724 -0.002119 -196627.000000 0 1 0
18.941023 8.498384 12.184941 24.071927 0.421752 1.040036 0.025856 -0.006040 -814089.000000 0 1 0
18.641023 9.433684 13.214641 24.720616 0.468493 1.006810 0.028805 -0.006940 567580.000000 0 1 0
19.710823 9.599584 14.174041 26.106933 0.453211 0.996883 0.029331 -0.003981 -443865.000000 0 0 1
19.182023 10.019284 15.532741 26.638357 0.481349 0.948261 0.038725 -0.003839 24355.000000 0 0 1
18.521523 8.958384 16.241241 26.212160 0.450502 0.902554 0.044056 -0.005987 746294.000000 0 0 1
17.159423 8.742784 15.914941 24.983342 0.471221 0.880167 0.034550 -0.011253 -494095.000000 0 1 0
16.731723 7.308884 16.203341 24.411444 0.411846 0.844962 0.028685 0.000314 181127.000000 0 1 0
15.434123 7.212584 16.788341 23.918234 0.437159 0.792727 0.031200 -0.006969 289125.000000 0 1 0
15.187123 5.893884 17.172441 23.670219 0.370192 0.759054 0.031724 0.003463 -821943.000000 0 1 0
13.823923 5.643984 17.799941 23.233452 0.387621 0.697992 0.016036 -0.000564 -491669.000000 0 1 0
13.417623 4.284984 17.972741 22.834472 0.309118 0.664722 0.024178 0.000525 135625.000000 0 1 0
12.956523 3.704884 16.768641 21.512437 0.278515 0.676952 0.020462 0.000981 -533071.000000 0 1 0
12.834723 2.200284 16.951941 21.376147 0.169782 0.655028 0.024437 -0.002504 -591028.000000 0 1 0
14.083823 1.589184 16.930841 22.080148 0.112362 0.696971 0.030729 -0.000220 -435676.000000 0 1 0
14.054923 0.148884 16.685341 21.816590 0.010593 0.700065 0.031673 -0.002534 43812.400000 0 1 0
13.269723 -0.694516 17.761441 22.181900 -0.052291 0.642304 0.034871 -0.006960 -108909.000000 0 1 0
11.876623 -0.601116 17.751641 21.366709 -0.050570 0.590238 0.029646 0.006724 -539670.000000 0 1 0
11.317923 -1.573016 18.613041 21.840674 -0.138100 0.550584 0.026847 -0.002916 -82879.400000 0 1 0
-24.719577 14.247584 29.170171 40.803799 -0.522862 0.774332 0.047701 -0.005602 238206.000000 0 0 1
-23.799277 14.243384 30.280781 41.063430 -0.539301 0.741561 0.049063 -0.004949 614509.000000 0 0 1
-23.050077 13.053284 30.341211 40.277579 -0.515272 0.717727 0.026502 0.007273 161984.000000 0 0 1
-21.924577 13.068384 31.409041 40.472183 -0.537518 0.682394 0.037181 0.000550 210999.000000 0 0 1
-22.467977 13.035984 32.696661 41.759053 -0.525736 0.671348 0.027104 0.002038 -385458.000000 0 0 1
-21.441177 13.295684 33.565694 41.989940 -0.555068 0.644543 0.008394 0.007770 -604045.000000 0 0 1
-21.943677 13.486284 -33.996765 42.651903 -0.551076 2.493232 0.008941 0.007402 -121064.000000 0 0 1
-22.488377 12.355384 -33.373355 42.097072 -0.502392 2.486139 -0.000524 0.003225 -136797.000000 0 0 1
-23.098677 12.698884 -32.184375 41.601016 -0.502664 2.455368 -0.009263 0.002516 -57039.700000 0 0 1
-24.130177 11.735584 -31.538985 41.408900 -0.452664 2.436648 -0.013930 -0.005358 17772.300000 0 0 1
-23.612877 10.591584 -30.859565 40.274836 -0.421648 2.443741 -0.010463 -0.007277 -36473.200000 0 0 1
-23.259777 9.513484 -31.702615 40.454659 -0.388249 2.471329 -0.014687 -0.006779 -523404.000000 0 0 1
-22.421977 8.523784 -30.980825 39.181775 -0.363281 2.482739 -0.012536 0.001556 -592580.000000 0 0 1
-23.159977 7.742184 -30.044915 38.717217 -0.322613 2.459110 -0.008997 0.001306 329390.000000 0 0 1
-22.276477 7.006184 -29.237055 37.418357 -0.304715 2.467632 -0.013652 0.007540 -379670.000000 0 0 1
-22.940877 6.141284 -28.179015 36.851813 -0.261567 2.441306 -0.006887 0.009368 -127414.000000 0 0 1
-23.673577 5.044484 -28.714175 37.555145 -0.209945 2.441197 0.004854 0.001486 41318.800000 0 0 1
-23.902077 4.069284 -27.762385 36.859441 -0.168631 2.423704 0.025548 0.011808 -491754.000000 0 0 1
-24.608777 2.821684 -28.386115 37.673935 -0.114163 2.424118 0.022488 0.014958 2267610.000000 0 0 1
-26.033297 2.939484 -28.755015 38.900180 -0.112436 2.402678 0.014287 0.007842 2134420.000000 0 0 1
-26.367867 3.958484 -29.684975 39.901526 -0.149012 2.409767 -0.005002 0.010072 -673210.000000 0 0 1
-27.793647 3.816984 -30.265855 41.268368 -0.136479 2.394093 0.009177 0.003870 -38170.700000 0 0 1
-28.874687 3.965284 -29.345055 41.359440 -0.136474 2.359603 0.011552 0.001053 -110110.000000 0 0 1
-30.124207 4.123284 -29.943365 42.674049 -0.136031 2.348544 0.013141 0.001684 -73209.400000 0 0 1
-30.514507 5.362884 -30.777925 43.671230 -0.173972 2.352887 0.025821 -0.012672 -562139.000000 0 0 1
-29.639257 5.518684 -31.897165 43.890438 -0.184087 2.384368 0.031341 -0.014711 250156.000000 0 0 1
-29.522347 6.801984 -32.488105 44.421987 -0.226449 2.391098 0.029719 -0.016444 -533457.000000 0 0 1
-29.159037 8.091184 -31.691505 43.818583 -0.270675 2.379284 0.025868 -0.013294 643452.000000 0 0 1
-27.775897 8.412384 -31.433755 42.782586 -0.294084 2.396069 0.013851 -0.017711 1166070.000000 0 0 1
-27.155867 7.613084 -30.389775 41.460084 -0.273331 2.393502 0.004496 -0.011279 -180663.000000 0 0 1
-27.147137 8.423184 -29.043975 40.638277 -0.300860 2.366984 0.004272 -0.004434 -91418.300000 0 0 1
-28.417537 8.721184 -28.513915 41.190519 -0.297770 2.335391 0.006728 -0.010250 -270141.000000 0 0 1
-28.956097 7.802484 -27.657605 40.795557 -0.263208 2.315775 0.003953 -0.002283 1348190.000000 0 0 1
-30.416857 8.324984 -27.177235 41.630430 -0.267154 2.282099 -0.001680 -0.001426 1547840.000000 0 0 1
-30.590967 9.023184 -25.974925 41.132978 -0.286829 2.254265 -0.023759 -0.000698 -111877.000000 0 0 1
-30.461817 8.235884 -24.837255 40.157706 -0.264054 2.237620 -0.014825 0.000283 -154421.000000 0 0 1
-29.887267 9.079084 -23.668055 39.189990 -0.294919 2.219220 -0.013485 0.001000 121215.000000 0 0 1
-30.756267 10.131984 -23.210855 39.841547 -0.318232 2.192695 -0.013211 -0.002369 250000.000000 0 0 1
-30.005447 11.003684 -22.419455 39.038954 -0.351494 2.182526 -0.016290 -0.006724 -301727.000000 0 0 1
-30.808837 12.036684 -21.596855 39.503042 -0.372454 2.149231 -0.025106 0.001098 -383973.000000 0 0 1
-31.421207 11.439984 -20.502755 39.224080 -0.349167 2.120821 -0.032569 -0.002340 -98285.600000 0 0 1
-31.996657 12.399384 -19.630355 39.533298 -0.369703 2.090419 -0.029162 0.001286 202214.000000 0 0 1
-31.003247 13.268284 -18.751955 38.586066 -0.404379 2.078277 -0.024188 0.005224 409222.000000 0 0 1
-30.282177 12.581984 -17.716755 37.271973 -0.393789 2.066144 -0.006694 0.003615 147876.000000 0 0 1
-31.048357 12.183784 -16.585555 37.249506 -0.373949 2.032256 -0.003059 0.007184 -264839.000000 0 0 1
-31.438377 13.333184 -15.663955 37.569999 -0.401113 2.000858 -0.001648 0.006831 -136843.000000 0 0 1
-32.312817 14.289184 -16.249055 38.888697 -0.416360 2.001857 -0.009548 0.003249 218345.000000 0 0 1
-33.081897 14.966384 -15.295855 39.400098 -0.424851 1.969494 -0.014341 0.002258 -65303.900000 0 0 1
-33.687557 16.252584 -15.917855 40.649429 -0.449510 1.973154 -0.012844 -0.004138 159258.000000 0 0 1
-34.566994 15.953384 -17.005655 41.696281 -0.432393 1.990890 -0.012231 -0.009550 447869.000000 0 0 1
-35.191355 17.134684 -17.456955 42.857603 -0.453113 1.990319 -0.014109 -0.009394 -713953.000000 0 0 1
35.093692 17.086184 -18.902155 43.368149 0.453091 2.021783 -0.010538 -0.012813 91702.400000 0 0 1
34.133201 16.089684 -19.213555 42.345177 0.440490 2.041750 0.021267 -0.011257 221722.000000 0 0 1
32.822281 16.571084 -19.014055 41.393686 0.467538 2.048056 0.049739 -0.019129 -178048.000000 0 0 1
31.647381 15.551584 -19.198755 40.149728 0.456746 2.069376 0.059141 -0.024543 273248.000000 0 0 1
31.230231 15.203284 -20.533855 40.349800 0.453043 2.104698 0.053465 -0.023814 1204470.000000 0 0 1
30.076491 14.325284 -20.547055 39.140650 0.444504 2.123458 0.029745 -0.016266 826351.000000 0 0 1
30.444661 12.852784 -20.208455 38.735682 0.399470 2.119640 0.024904 0.004460 -24742.000000 0 0 1
30.568291 12.539784 -18.830055 38.029430 0.389287 2.088797 0.034637 -0.001549 620830.000000 0 0 1
31.497281 11.450584 -18.644555 38.351193 0.348688 2.078479 0.034856 0.002576 259323.000000 0 0 1
31.619541 10.974184 -17.163155 37.613853 0.334062 2.044628 0.031753 0.009383 -858275.000000 0 0 1
30.507491 10.265184 -16.753655 36.287270 0.324581 2.050702 0.032097 0.007340 -328906.000000 0 0 1
30.719481 9.840184 -15.399255 35.744269 0.309997 2.016195 0.006734 0.011973 -328342.000000 0 0 1
30.251971 10.795284 -14.304255 35.161507 0.342760 1.989762 0.014401 0.008865 -410954.000000 0 0 1
28.850221 10.952384 -14.226955 33.980821 0.362823 2.002783 0.009786 0.014620 215621.000000 0 0 1
28.583511 11.971884 -13.347255 33.741552 0.396641 1.977488 0.010311 0.004885 -255053.000000 0 0 1
27.068651 12.233984 -13.373355 32.576507 0.424484 1.993822 0.023596 0.015045 -371902.000000 0 0 1
26.250451 11.282484 -12.666455 31.254115 0.405931 1.988074 0.017496 0.005042 1491310.000000 0 0 1
24.841241 11.521284 -12.909955 30.273654 0.434268 2.011352 0.021872 0.007962 1252890.000000 0 0 1
24.288941 10.966484 -14.299955 30.244092 0.424102 2.063283 0.029146 0.003087 -778618.000000 0 0 1
24.363441 9.551784 -14.478055 29.906987 0.373638 2.076134 0.027952 0.004903 1026130.000000 0 0 1
25.685501 9.129884 -14.844055 31.039422 0.341521 2.069437 0.020920 0.002813 582127.000000 0 0 1
26.229561 7.945284 -13.947055 30.751223 0.294127 2.041535 0.010740 0.002986 22520.800000 0 0 1
25.730501 6.629484 -14.313455 30.180850 0.252166 2.064915 0.030521 -0.001407 612342.000000 0 0 1
25.872111 5.751884 -13.196155 29.607242 0.218762 2.032760 0.007168 -0.005686 123851.000000 0 0 1
25.038241 4.437384 -13.375155 28.731492 0.175403 2.055021 0.015415 -0.001748 118818.000000 0 0 1
24.735341 3.769284 -12.190255 27.832479 0.151221 2.024154 -0.006634 -0.002440 298803.000000 0 0 1
23.739441 2.773384 -12.328055 26.893004 0.116299 2.047003 -0.011759 -0.002112 -32479.700000 0 0 1
23.118641 2.388284 -10.954555 25.693924 0.102940 2.011248 -0.025687 -0.001866 85141.300000 0 0 1
24.031841 1.780484 -10.026055 26.100216 0.073953 1.965069 -0.018573 -0.001816 766217.000000 0 0 1
23.461941 1.776584 -8.760755 25.107165 0.075578 1.927230 -0.016661 0.005928 -434587.000000 0 0 1
24.351641 1.041584 -7.721155 25.567627 0.042747 1.877575 -0.002512 0.004768 -459448.000000 0 0 1
24.271741 -0.343716 -7.371655 25.368816 -0.014160 1.865629 -0.019459 0.001908 323232.000000 0 0 1
24.855141 -1.268216 -8.314955 26.239757 -0.050980 1.893239 -0.017336 0.003508 -316169.000000 0 0 1
25.058341 -2.653416 -7.629255 26.328057 -0.105496 1.864790 0.000832 0.001111 -353686.000000 0 0 1
26.132381 -2.678216 -6.718455 27.114789 -0.102130 1.821183 0.003766 0.000234 315349.000000 0 0 1
26.137091 -3.968216 -6.156455 27.143990 -0.150673 1.799595 0.014843 -0.007124 -676604.000000 0 0 1
27.401451 -4.257516 -5.358955 28.243306 -0.154143 1.761696 0.020212 -0.008739 -438987.000000 0 0 1
28.578651 -4.332516 -6.137755 29.549653 -0.150454 1.780030 0.022247 -0.007369 193995.000000 0 0 1
29.653811 -4.896216 -5.406255 30.537666 -0.163636 1.748770 0.021532 -0.007199 72456.100000 0 0 1
30.786851 -5.177216 -6.441655 31.876773 -0.166604 1.774277 0.038573 -0.013027 -66610.400000 0 0 1
30.536731 -6.337816 -7.203255 32.008541 -0.204642 1.797782 0.037953 -0.014208 48604.200000 0 0 1
31.432341 -6.442616 -8.272855 33.135170 -0.202168 1.823136 0.037157 -0.021679 -1198710.000000 0 0 1
31.100341 -7.620616 -9.237155 33.326116 -0.240299 1.851649 0.034922 -0.019334 750328.000000 0 0 1
29.871971 -7.474216 -9.972655 32.367459 -0.245175 1.883999 0.047527 -0.024173 1814420.000000 0 0 1
28.652871 -7.699916 -9.220855 31.069275 -0.262529 1.872119 0.046697 -0.014306 392877.000000 0 0 1
27.600011 -6.574416 -9.158555 29.813800 -0.233846 1.883037 0.033683 -0.013223 -717710.000000 0 0 1
26.889391 -6.377516 -10.364655 29.515049 -0.232873 1.929611 0.025132 -0.010907 616775.000000 0 0 1
25.896841 -5.370916 -10.122155 28.318742 -0.204497 1.936318 0.026433 -0.005355 1197920.000000 0 0 1
24.445841 -5.833016 -9.714755 26.944381 -0.234230 1.939652 0.038950 -0.006427 -574428.000000 0 0 1
24.457941 -6.615716 -8.543055 26.738406 -0.264172 1.896003 0.035395 -0.007680 859883.000000 0 0 1
23.198441 -7.197616 -8.165055 25.625016 -0.300846 1.895087 0.031619 -0.010453 150002.000000 0 0 1
22.253641 -6.156916 -7.538955 24.289257 -0.269918 1.886391 0.037706 -0.000038 -852855.000000 0 1 0
21.741241 -5.221116 -8.479055 23.913092 -0.235685 1.933259 0.031113 0.001558 229868.000000 0 1 0
21.262941 -4.108616 -7.803955 23.019450 -0.190877 1.916667 0.013919 -0.002941 -345918.000000 0 1 0
20.891641 -3.005316 -8.797755 22.866855 -0.142872 1.965721 -0.007531 -0.003344 -220395.000000 0 1 0
22.051441 -2.563116 -9.496255 24.145692 -0.115714 1.975003 -0.008716 -0.003292 740868.000000 0 1 0
21.786141 -2.000416 -10.771455 24.385689 -0.091564 2.028303 -0.013810 -0.000411 -650927.000000 0 1 0
22.975841 -2.024516 -11.741455 25.881455 -0.087888 2.041668 -0.003556 -0.002724 233560.000000 0 0 1
24.055441 -1.197416 -11.282855 26.597008 -0.049736 2.008891 -0.016470 -0.002427 1022330.000000 0 0 1
25.254641 -1.385216 -12.015655 28.001637 -0.054795 2.014299 -0.003184 0.000355 777058.000000 0 0 1
26.375011 -0.310616 -11.706955 28.858109 -0.011776 1.988511 0.008157 0.008946 -143985.000000 0 0 1
27.640711 -0.605316 -12.211555 30.224119 -0.021896 1.986718 0.016928 -0.002326 -283983.000000 0 0 1
28.638851 0.310484 -11.869255 31.002571 0.010841 1.963673 0.030173 -0.005726 -95302.000000 0 0 1
28.652301 1.612684 -12.752055 31.403344 0.056225 1.988949 0.036584 -0.016166 -526156.000000 0 0 1
28.852401 1.390484 -14.111455 32.148525 0.048156 2.025221 0.024562 -0.014757 289674.000000 0 0 1
28.798081 2.605484 -14.850155 32.506078 0.090229 2.045239 0.028332 -0.008049 -73621.900000 0 0 1
29.163541 2.408884 -16.336255 33.513998 0.082412 2.079958 0.025765 -0.006252 -393100.000000 0 0 1
28.266551 1.591084 -17.027955 33.037565 0.056229 2.112285 0.014839 -0.002543 -311447.000000 0 0 1
28.499591 1.534284 -18.403755 33.959960 0.053783 2.143522 0.000378 0.003089 -670387.000000 0 0 1
27.399411 0.863684 -19.215555 33.477025 0.031512 2.182169 -0.015804 0.011155 -544648.000000 0 0 1
27.379641 -0.551216 -19.047355 33.357912 -0.020130 2.178519 -0.000672 0.012065 261898.000000 0 0 1
26.963241 -1.154916 -20.253055 33.742205 -0.042807 2.214584 -0.002980 0.016724 -180371.000000 0 0 1
26.845881 -2.694316 -20.258055 33.739435 -0.100027 2.214831 0.007290 0.008651 758869.000000 0 0 1
25.605341 -3.180516 -19.680155 32.450850 -0.123580 2.222398 0.003926 0.015638 1117060.000000 0 0 1
25.382241 -4.595616 -19.651355 32.427667 -0.179116 2.221826 0.009827 0.010782 -64253.800000 0 0 1
26.126261 -5.331016 -18.460355 32.431249 -0.201285 2.176347 0.009761 0.006484 94248.600000 0 0 1
27.515541 -5.287516 -18.685555 33.678076 -0.189850 2.158953 0.013004 0.010489 -255987.000000 0 0 1
28.265491 -5.514316 -17.507855 33.702680 -0.192670 2.117038 0.011960 0.002359 756099.000000 0 0 1
29.786831 -5.185516 -17.717555 35.043639 -0.172360 2.100857 0.021332 0.008683 500100.000000 0 0 1
30.397541 -6.074016 -18.569155 36.134716 -0.197222 2.110506 0.013216 0.011649 177610.000000 0 0 1
31.743011 -5.732216 -18.916455 37.393974 -0.178657 2.101185 0.019574 0.015594 556341.000000 0 0 1
32.340861 -6.883716 -19.744055 38.511616 -0.209719 2.109097 0.017180 0.015101 -272689.000000 0 0 1
32.633081 -7.992816 -18.972055 38.584219 -0.240201 2.084843 0.021725 0.015427 -21160.000000 0 0 1
33.123531 -9.065116 -19.734255 39.607896 -0.267135 2.092365 0.015253 0.020297 -247480.000000 0 0 1
33.874101 -10.077716 -18.865455 40.061458 -0.289166 2.061122 0.021640 0.007878 -648841.000000 0 0 1
33.024251 -10.650716 -17.900355 39.044354 -0.311980 2.047060 0.022502 0.002614 221404.000000 0 0 1
33.612161 -11.547016 -16.958055 39.378758 -0.330905 2.015998 0.037213 -0.003877 -192068.000000 0 0 1
34.527891 -10.925516 -15.829155 39.523465 -0.306457 1.982859 0.048244 -0.000957 33344.400000 0 0 1
35.026761 -11.675416 -14.715755 39.745978 -0.321746 1.950069 0.035867 -0.009004 627472.000000 0 0 1
-34.779063 -12.705416 -15.073255 39.977667 0.350255 1.957397 0.033323 -0.011788 792583.000000 0 0 1
-33.324257 -12.464716 -15.652855 38.870132 0.357932 1.985257 0.036051 -0.012458 622728.000000 0 0 1
-33.212567 -12.098116 -16.995155 39.220841 0.349325 2.018969 0.027679 -0.003248 -377578.000000 0 0 1
-31.886927 -12.143316 -17.431255 38.315596 0.363867 2.043100 0.041190 -0.006396 -359626.000000 0 0 1
-31.619647 -11.113016 -18.585755 38.324033 0.337974 2.077118 0.044462 -0.007252 129106.000000 0 0 1
-31.775047 -9.821816 -18.128555 37.878308 0.299789 2.069856 0.041968 -0.002288 -188354.000000 0 0 1
-33.058347 -9.293616 -18.322155 38.922063 0.274054 2.060925 0.032695 -0.001139 -553919.000000 0 0 1
-33.253487 -7.820716 -18.039655 38.631427 0.230987 2.056656 0.042091 -0.006279 -207234.000000 0 0 1
-34.608911 -7.442016 -18.024555 39.724614 0.211807 2.041752 0.033371 -0.001789 -55749.700000 0 0 1
-34.683152 -6.151816 -17.432655 39.302206 0.175546 2.030357 0.036166 0.001023 35851.600000 0 0 1
24.009123 28.543784 -27.527315 46.356646 0.871473 2.206590 0.034203 0.006404 41340.400000 0 0 1
24.343623 27.435784 -26.726885 45.383484 0.845045 2.200508 0.027485 0.008650 1005170.000000 0 0 1
25.580923 26.799984 -27.149255 45.931523 0.808667 2.203195 0.022382 -0.001156 805135.000000 0 0 1
26.094623 25.761484 -26.209355 45.072316 0.778974 2.191362 0.012411 0.003866 -367515.000000 0 0 1
26.569623 26.282384 -24.983055 44.953994 0.779963 2.160058 0.020884 0.008629 199887.000000 0 0 1
26.556923 25.246584 -24.063455 43.837313 0.760109 2.151876 0.019718 0.007668 -393941.000000 0 0 1
27.292523 25.481284 -22.777155 43.737586 0.751091 2.118547 0.020823 0.010821 -334096.000000 0 0 1
26.623623 26.394384 -21.945955 43.440830 0.781074 2.100401 0.012442 0.016973 103151.000000 0 0 1
27.503823 27.004084 -21.021555 43.904289 0.776230 2.070088 0.004886 0.019250 -9948.380000 0 0 1
26.859323 28.179184 -20.245855 43.879201 0.809374 2.050369 0.013244 0.019783 -141603.000000 0 0 1
25.970123 27.632084 -19.282555 42.541700 0.816394 2.041218 0.015885 0.014137 266773.000000 0 0 1
25.140723 28.720084 -18.877255 42.582272 0.851756 2.030087 0.020862 0.004889 322426.000000 0 0 1
24.206323 28.546884 -17.626855 41.371206 0.867494 2.010936 0.027421 -0.001376 -33361.000000 0 0 1
23.190623 27.651984 -17.956155 40.309561 0.872922 2.032480 0.020458 0.000685 344466.000000 0 0 1
22.033123 27.796484 -17.106455 39.379358 0.900548 2.020170 0.022595 -0.005108 640573.000000 0 0 1
20.923723 26.784384 -17.429355 38.196699 0.907630 2.044635 0.011433 0.008007 -543308.000000 0 0 1
20.270923 26.996584 -18.637555 38.562732 0.926739 2.075222 0.014967 0.003903 259113.000000 0 0 1
19.309523 25.974184 -18.955755 37.507820 0.931525 2.100620 0.004919 0.005649 455776.000000 0 0 1
18.768223 26.060884 -20.416355 38.055793 0.946662 2.137063 -0.002358 0.005079 679943.000000 0 0 1
17.841123 27.142084 -20.622055 38.474245 0.989290 2.136484 -0.005309 0.004622 -21589.200000 0 0 1
16.977623 26.989084 -21.723055 38.581620 1.009286 2.168858 -0.001483 0.004349 -37354.300000 0 0 1
15.827723 28.021684 -21.562455 38.738495 1.056632 2.161103 -0.006542 0.004681 -859305.000000 0 0 1
15.024923 27.746784 -20.483255 37.619091 1.074501 2.146578 0.000342 0.002498 -519919.000000 0 0 1
13.965923 28.707584 -20.536855 37.959647 1.118016 2.142444 -0.005792 0.002907 145629.000000 0 0 1
13.388723 28.890584 -19.117255 37.140183 1.136831 2.111492 -0.001049 -0.001232 -431837.000000 0 0 1
12.739823 27.731784 -18.686655 35.784717 1.140158 2.120221 0.000001 0.000896 -299000.000000 0 0 1
12.271523 27.832684 -17.340755 35.013574 1.155533 2.088928 0.009798 0.002900 -15776.300000 0 0 1
11.329223 26.713784 -16.890655 33.574868 1.169691 2.097949 0.021534 0.007845 -103909.000000 0 0 1
12.052923 25.549884 -16.691555 32.812764 1.130011 2.104460 0.011260 0.009509 -279341.000000 0 0 1
11.176023 24.450784 -16.525155 31.556696 1.142068 2.121944 0.025558 0.012246 -108593.000000 0 0 1
11.834223 23.049084 -16.656555 30.801784 1.096458 2.142144 0.018830 0.010410 665285.000000 0 0 1
12.610623 22.870184 -17.875955 31.648426 1.066879 2.171023 0.023929 0.006260 73967.900000 0 0 1
13.301623 21.678484 -18.092355 31.212548 1.020447 2.189096 0.023997 0.005668 2144.570000 0 0 1
12.409423 20.417184 -18.368255 30.137152 1.024666 2.226212 0.023087 0.003749 320889.000000 0 0 1
11.824123 19.900784 -17.180155 28.827223 1.034687 2.209269 0.024357 0.006419 -47962.800000 0 0 1
11.327923 18.571284 -17.210555 27.738378 1.023078 2.240125 0.031657 -0.002164 67983.100000 0 0 1
12.428723 17.473984 -17.346155 27.580833 0.952546 2.250960 0.017265 -0.003057 22312.200000 0 0 1
13.130323 17.310684 -16.151455 27.072766 0.921871 2.210047 0.016820 0.000724 -125350.000000 0 0 1
14.090223 16.289884 -16.351055 27.041666 0.857677 2.220137 0.017886 0.002106 -679173.000000 0 0 1
14.630223 15.612084 -15.062455 26.165973 0.817853 2.184196 0.027447 0.016715 -1218440.000000 0 0 1
15.387523 16.419184 -14.167755 26.591178 0.817822 2.132701 0.022367 0.014179 1571580.000000 0 0 1
16.727223 16.792484 -14.595455 27.835495 0.787345 2.122744 0.023410 0.009436 534799.000000 0 0 1
17.659023 15.627784 -14.938455 27.914622 0.724451 2.135479 0.025951 0.002535 -1845420.000000 0 0 1
18.007223 14.698484 -13.880955 27.073722 0.684574 2.109134 0.020810 0.003386 162698.000000 0 0 1
18.918823 15.181584 -12.954355 27.499412 0.676239 2.061308 0.032819 0.004491 -817100.000000 0 0 1
19.486223 14.074084 -12.012555 26.871810 0.625509 2.034241 0.031005 0.005236 76181.200000 0 0 1
18.499323 13.451084 -11.179555 25.458575 0.628691 2.025423 0.038192 0.005728 687032.000000 0 0 1
19.019423 12.397984 -10.405555 24.974467 0.577681 2.000551 0.028728 0.005920 -136626.000000 0 1 0
19.588823 11.098484 -11.019555 25.066490 0.515478 2.025964 0.028558 0.001595 -381716.000000 0 0 1
20.818123 11.252984 -11.690455 26.394897 0.495550 2.029634 0.027106 0.002968 435698.000000 0 0 1
21.132523 10.134384 -12.523355 26.572988 0.447165 2.061539 0.020812 0.002704 -318289.000000 0 0 1
21.806723 8.902784 -11.902955 26.390776 0.387606 2.038712 0.016660 0.009954 -398084.000000 0 0 1
20.937123 8.244484 -10.984755 25.039957 0.375127 2.024936 0.009071 0.006975 468615.000000 0 0 1
21.547723 7.227384 -10.303855 24.954135 0.323621 1.996445 0.001170 0.003756 -1180170.000000 0 1 0
21.947523 5.955984 -11.106455 25.308513 0.264992 2.025107 -0.003004 0.005188 181407.000000 0 0 1
20.890923 5.072684 -11.488855 24.375327 0.238207 2.061596 -0.000541 -0.000597 1226260.000000 0 1 0
19.960223 5.534684 -12.504055 24.194929 0.270490 2.113911 -0.032726 -0.000838 594068.000000 0 1 0
18.955223 4.409884 -12.866055 23.329872 0.228581 2.154939 -0.035588 -0.014413 -21689.700000 0 1 0
19.595423 3.476384 -13.720155 24.172474 0.175581 2.174377 -0.031544 -0.003139 196408.000000 0 1 0
18.889223 2.302284 -13.996355 23.622049 0.121285 2.204970 -0.011712 -0.001357 -754584.000000 0 1 0
19.711923 1.228984 -14.706455 24.624177 0.062267 2.210847 0.005195 0.004066 -302605.000000 0 1 0
20.786023 0.796584 -13.879955 25.006928 0.038304 2.159213 0.009936 0.004351 17578.600000 0 0 1
21.866523 0.329984 -14.626155 26.309278 0.015090 2.160279 -0.008826 -0.002641 -748120.000000 0 0 1
21.841023 -1.175316 -14.997855 26.520696 -0.053760 2.171854 -0.000016 -0.002454 -615961.000000 0 0 1
20.941923 -1.562016 -16.052555 26.432717 -0.074450 2.223452 -0.010261 0.005325 597660.000000 0 0 1
21.582023 -2.355916 -17.065955 27.614867 -0.108731 2.236991 -0.003099 0.001843 -46476.800000 0 0 1
20.519823 -3.005816 -17.988155 27.453083 -0.145449 2.285287 -0.005884 -0.002826 234259.000000 0 0 1
19.671323 -3.834916 -17.195055 26.407147 -0.192535 2.279897 -0.003708 -0.003929 224291.000000 0 0 1
18.772923 -4.573116 -17.996455 26.404704 -0.238948 2.320692 -0.002570 -0.008054 -401092.000000 0 0 1
17.952623 -5.579116 -17.248755 25.513580 -0.301307 2.313201 0.003163 -0.011664 -407388.000000 0 0 1
18.772523 -6.631216 -16.730855 26.005810 -0.339559 2.269663 -0.004901 -0.001299 260148.000000 0 0 1
18.073323 -7.704616 -16.168255 25.444421 -0.402969 2.259367 -0.002448 0.005180 -417874.000000 0 0 1
18.926823 -8.910616 -15.632355 26.115019 -0.440010 2.212544 -0.001527 0.007798 387232.000000 0 0 1
19.682623 -9.508416 -16.720155 27.520523 -0.450026 2.223772 0.005923 0.005863 335996.000000 0 0 1
20.503123 -10.477816 -16.158155 28.129142 -0.472437 2.182701 0.001456 0.000668 -537813.000000 0 0 1
21.187423 -11.328016 -17.247955 29.575713 -0.490988 2.193434 0.003844 0.001521 -85237.100000 0 0 1
22.195923 -10.780216 -18.072955 30.586006 -0.452130 2.202958 -0.000455 0.000445 196434.000000 0 0 1
22.548023 -11.772416 -19.065555 31.788339 -0.481174 2.214005 0.007332 0.001189 28956.800000 0 0 1
21.680723 -11.902616 -20.400555 32.061015 -0.502072 2.260494 0.015434 0.000542 784318.000000 0 0 1
20.342923 -12.363016 -20.276755 31.270201 -0.546084 2.276326 0.013256 -0.006054 312277.000000 0 0 1
20.129823 -13.757916 -20.109055 31.604812 -0.599538 2.260444 0.007999 0.003259 2913.270000 0 0 1
18.603423 -14.015916 -20.013755 30.709667 -0.645677 2.280631 0.012814 0.004736 227689.000000 0 0 1
17.910723 -13.768416 -21.203955 30.983398 -0.655378 2.324529 0.013907 0.006419 -404970.000000 0 0 1
16.520223 -13.749716 -20.971955 30.029908 -0.694126 2.343912 0.012662 0.008087 61192.900000 0 0 1
15.664523 -13.212716 -22.151155 30.176594 -0.700697 2.395064 0.010583 0.004037 -457323.000000 0 0 1
15.834223 -13.929816 -23.374055 31.481881 -0.721502 2.407532 -0.002413 0.008116 253548.000000 0 0 1
15.423123 -13.193316 -24.460255 31.784279 -0.707635 2.448965 0.003564 0.001668 -518544.000000 0 0 1
15.593723 -13.973016 -25.846455 33.263322 -0.730638 2.460723 -0.006233 0.002377 -80080.100000 0 0 1
14.614523 -15.006716 -25.992865 33.382852 -0.798638 2.463275 0.000513 0.001834 360710.000000 0 0 1
14.559223 -15.605916 -27.310575 34.660974 -0.820083 2.478244 0.002946 0.003433 -147311.000000 0 0 1
15.507023 -16.823116 -27.410515 35.704640 -0.826084 2.446043 0.002187 0.006652 492138.000000 0 0 1
16.899523 -16.557816 -27.434865 36.227434 -0.775185 2.429958 0.008414 0.007222 75925.100000 0 0 1
17.735723 -17.674416 -27.482545 37.178369 -0.783667 2.402690 0.013998 0.004081 258227.000000 0 0 1
19.225723 -17.251116 -27.474475 37.710426 -0.731318 2.387020 0.015836 0.003308 103280.000000 0 0 1
19.693223 -16.871916 -26.215645 36.874715 -0.708392 2.361628 0.019043 0.001384 88387.000000 0 0 1
21.093223 -16.675416 -26.091795 37.466990 -0.668957 2.341157 0.023045 0.000783 136204.000000 0 0 1
21.546223 -16.192416 -24.729055 36.578139 -0.644473 2.313200 0.017826 0.003558 -117309.000000 0 0 1
21.214523 -14.850216 -24.365455 35.556438 -0.610728 2.325759 0.027737 0.000871 -514614.000000 0 0 1
19.853423 -14.541716 -24.258155 34.555434 -0.632177 2.349008 0.026106 0.003106 -472501.000000 0 0 1
19.542023 -13.145416 -23.726255 33.430941 -0.592150 2.359882 0.026550 0.009323 -97904.100000 0 0 1
20.024623 -12.114016 -24.558055 33.923929 -0.544056 2.380257 0.026673 -0.000183 265658.000000 0 0 1
19.763223 -10.928116 -23.872455 32.861875 -0.505107 2.383936 0.021880 -0.002793 -94860.500000 0 0 1
20.136123 -9.598416 -24.551555 33.171854 -0.444815 2.404063 0.020360 -0.000456 -96813.200000 0 0 1
19.720023 -8.397216 -23.827455 32.049027 -0.402567 2.409039 0.024343 -0.010189 250287.000000 0 0 1
19.534123 -7.408516 -24.837055 32.455313 -0.362500 2.442256 0.016212 -0.006059 -518317.000000 0 0 1
19.037323 -5.989216 -24.360455 31.491620 -0.304800 2.455226 0.014365 -0.011450 -97598.400000 0 0 1
17.732323 -6.151616 -23.842055 30.343389 -0.333924 2.474690 0.008734 -0.004983 -65013.100000 0 0 1
17.262223 -5.198316 -22.850255 29.105686 -0.292501 2.473620 -0.005994 -0.006467 170324.000000 0 0 1
17.995723 -5.279816 -21.470955 28.508322 -0.285384 2.423629 -0.000681 -0.012548 -163664.000000 0 0 1
17.736723 -6.383016 -20.591355 27.916628 -0.345446 2.400308 0.003274 -0.009470 199531.000000 0 0 1
18.071423 -7.659816 -21.126555 28.837136 -0.400908 2.392954 0.007185 -0.011503 -343397.000000 0 0 1
17.977723 -8.844816 -20.134555 28.404746 -0.457217 2.358655 0.010967 -0.005604 731036.000000 0 0 1
16.599423 -9.018716 -19.773155 27.346951 -0.497696 2.379001 0.016688 -0.002806 532929.000000 0 0 1
16.464323 -10.235816 -19.013555 27.154394 -0.556220 2.346476 0.018635 0.004962 150058.000000 0 0 1
15.035523 -10.548916 -18.451555 26.034716 -0.611799 2.358491 0.023755 -0.001017 564874.000000 0 0 1
14.491023 -9.725316 -17.437855 24.670839 -0.591084 2.355790 0.035735 0.000215 140409.000000 0 1 0
14.343823 -8.385616 -17.800055 24.349656 -0.529030 2.390610 0.045920 -0.015016 -1023830.000000 0 1 0
13.133323 -7.696216 -17.141655 22.924926 -0.530067 2.415433 0.057421 -0.006263 -274910.000000 0 1 0
11.990123 -7.734216 -17.954655 22.933617 -0.572887 2.470105 0.045999 -0.007745 -56312.500000 0 1 0
11.113623 -6.654616 -17.574555 21.832579 -0.539522 2.506420 0.038913 -0.013895 1094090.000000 0 1 0
9.582123 -6.890416 -17.828255 21.380870 -0.623424 2.556827 0.040865 -0.012408 807918.000000 0 1 0
9.216923 -6.708216 -19.197655 22.327154 -0.629151 2.605742 0.029663 -0.012334 160316.000000 0 1 0
7.813423 -6.501416 -19.200155 21.724731 -0.694000 2.654703 0.023205 -0.024646 -10707.600000 0 1 0
7.180323 -6.075716 -20.473855 22.531092 -0.702262 2.710940 0.018749 -0.024248 -294430.000000 0 1 0
7.192823 -7.102116 -21.431955 23.696106 -0.779053 2.700886 0.017697 -0.016676 -66679.900000 0 1 0
6.734923 -6.680516 -22.658955 24.564542 -0.781343 2.745111 0.027702 -0.015631 -278957.000000 0 1 0
6.909623 -7.808816 -23.735455 25.924743 -0.846415 2.727675 0.026247 -0.019818 -442189.000000 0 0 1
5.887923 -8.759216 -23.712255 25.955010 -0.978975 2.722825 0.020452 -0.016906 57926.600000 0 0 1
6.143423 -9.666216 -24.788455 27.306499 -1.004642 2.708771 0.027812 -0.010515 -272463.000000 0 0 1
5.219723 -10.860916 -24.747255 27.525109 -1.122791 2.688458 0.021469 -0.014678 -323148.000000 0 0 1
5.639223 -11.941716 -23.953355 27.352672 -1.129611 2.637727 0.014959 -0.026082 48087.700000 0 0 1
4.660423 -12.980516 -24.020655 27.698469 -1.226098 2.620387 0.021332 -0.037491 44417.300000 0 0 1
5.161123 -14.226316 -23.266155 27.754986 -1.222776 2.564898 0.024716 -0.032313 266174.000000 0 0 1
6.129423 -15.136516 -23.841955 28.898491 -1.186036 2.541041 0.039247 -0.024058 632719.000000 0 0 1
7.467423 -14.671316 -23.934555 29.049490 -1.099990 2.539096 0.029051 -0.020772 473403.000000 0 0 1
8.304323 -14.335916 -22.659655 28.070273 -1.045761 2.510270 0.032625 -0.009794 -573181.000000 0 0 1
8.669523 -15.506216 -21.913455 28.209978 -1.060994 2.460362 0.032019 -0.000278 -104967.000000 0 0 1
7.735023 -16.024516 -20.996655 27.522268 -1.121085 2.438579 0.037819 -0.008204 -247219.000000 0 0 1
8.263523 -15.718716 -19.561855 26.420258 -1.086791 2.404478 0.031464 -0.012176 587783.000000 0 0 1
9.512523 -16.367116 -19.311155 27.042398 -1.044317 2.366143 0.034777 -0.020001 128160.000000 0 0 1
9.953623 -16.454516 -17.946755 26.304215 -1.026769 2.321669 0.029042 -0.013353 186226.000000 0 0 1
9.006523 -17.243116 -16.968455 25.814162 -1.089448 2.288068 0.012551 0.001096 -163034.000000 0 0 1
8.854123 -18.671416 -17.082055 26.810705 -1.127995 2.261573 0.009659 -0.001530 164135.000000 0 0 1
8.160623 -19.153016 -18.250155 27.685772 -1.168015 2.290536 0.024669 -0.011007 497341.000000 0 0 1
6.614823 -18.975316 -18.227155 27.130199 -1.235368 2.307487 0.022756 -0.008691 104044.000000 0 0 1
6.177923 -17.643016 -18.491955 26.294394 -1.233977 2.350778 0.018791 -0.010115 589277.000000 0 0 1
4.756423 -17.446116 -18.316055 25.738462 -1.304630 2.362601 0.019483 -0.008294 1160830.000000 0 0 1
4.426823 -16.042816 -17.769755 24.346107 -1.301558 2.388944 0.007896 -0.004042 97237.700000 0 1 0
4.844923 -15.711016 -16.416755 23.234009 -1.271672 2.355454 0.000333 -0.004308 115252.000000 0 1 0
4.435723 -14.441016 -16.154655 22.117673 -1.272782 2.389698 -0.005566 0.004858 -146221.000000 0 1 0
10.483523 30.682084 -18.238455 37.201287 1.241551 2.083189 0.018527 -0.004064 633038.000000 0 0 1
9.409523 30.188384 -19.104755 36.944137 1.268646 2.114285 0.030900 -0.002713 1156280.000000 0 0 1
8.520923 29.325984 -18.361655 35.633830 1.288024 2.112139 0.031724 0.005320 95769.000000 0 0 1
7.465223 28.719384 -19.283455 35.389041 1.316488 2.147065 0.042313 -0.004380 137346.000000 0 0 1
6.536023 29.705884 -19.776655 36.280507 1.354223 2.147310 0.051978 -0.017565 -52991.000000 0 0 1
5.960223 29.264484 -20.960155 36.486468 1.369877 2.182745 0.060533 -0.023133 427434.000000 0 0 1
4.762923 30.148684 -21.478755 37.322453 1.414110 2.184001 0.057710 -0.024362 1180770.000000 0 0 1
3.613323 30.042884 -20.623155 36.618923 1.451099 2.169029 0.057393 -0.024816 508770.000000 0 0 1
2.533823 30.825784 -21.116855 37.450911 1.488783 2.169842 0.050591 -0.025494 -269829.000000 0 0 1
1.130923 30.474584 -20.573055 36.786272 1.533703 2.164288 0.042511 -0.023439 -22622.100000 0 0 1
0.710523 29.178584 -21.013055 35.964470 1.546450 2.194780 0.043919 -0.034876 -226160.000000 0 0 1
0.167523 29.202284 -22.267455 36.723848 1.565060 2.222257 0.050117 -0.036722 -982925.000000 0 0 1
-0.394977 27.797184 -22.595455 35.824489 -1.556588 2.253285 0.053083 -0.030403 76013.800000 0 0 1
-1.405177 27.394184 -21.700555 34.976134 -1.519547 2.240099 0.048638 -0.028953 -22075.700000 0 0 1
-2.044577 26.153784 -22.019455 34.249921 -1.492780 2.269082 0.059851 -0.034682 133517.000000 0 0 1
-3.161977 25.885084 -20.984355 33.472060 -1.449244 2.248392 0.044522 -0.028412 -147273.000000 0 0 1
-4.343477 26.636984 -21.230155 34.338232 -1.409157 2.237331 0.025022 -0.023944 -190088.000000 0 0 1
-5.288177 26.068984 -20.358655 33.496740 -1.370659 2.224059 0.027353 -0.023108 312504.000000 0 0 1
-6.516477 27.027884 -20.077255 34.293835 -1.334210 2.196229 0.025968 -0.025944 1088500.000000 0 0 1
-7.582077 26.351984 -19.414855 33.598386 -1.290640 2.186889 0.035728 -0.024004 327612.000000 0 0 1
-8.636377 27.215684 -18.979355 34.285513 -1.263516 2.157439 0.046607 -0.026160 637860.000000 0 0 1
-9.811777 26.580084 -18.232655 33.692752 -1.217173 2.142594 0.045764 -0.023943 -550764.000000 0 0 1
-9.481877 26.121584 -16.982255 32.567470 -1.222596 2.119344 0.062957 -0.027048 -341691.000000 0 0 1
-10.572377 25.539684 -16.297955 32.088533 -1.178315 2.103548 0.041124 -0.022645 -201694.000000 0 0 1
-10.200277 24.852284 -15.007255 30.771730 -1.181326 2.080245 0.044064 -0.018115 -179581.000000 0 0 1
-9.404377 23.733984 -15.292655 29.759193 -1.193535 2.110498 0.050294 -0.018761 -319144.000000 0 0 1
-9.343277 22.949384 -14.096055 28.507364 -1.184162 2.088022 0.053426 -0.015606 -49437.800000 0 0 1
-8.526077 21.665184 -14.177655 27.259495 -1.195873 2.117764 0.052216 -0.014248 90024.500000 0 0 1
-9.301777 20.483984 -14.566155 26.800924 -1.144538 2.145391 0.055763 -0.007717 256981.000000 0 0 1
-9.769877 20.467784 -15.904855 27.700994 -1.125449 2.182376 0.053586 -0.006818 -503025.000000 0 0 1
-8.742877 20.328884 -17.002355 27.906657 -1.164638 2.225921 0.044601 -0.009784 -625103.000000 0 0 1
-8.116177 19.069684 -16.955855 26.777345 -1.168412 2.256498 0.041542 -0.008922 -600880.000000 0 0 1
-7.435177 18.890384 -18.132355 27.219676 -1.195823 2.299829 0.035846 -0.011137 -285512.000000 0 0 1
-6.912077 17.437984 -18.287455 26.197158 -1.193414 2.343495 0.025485 -0.012570 194002.000000 0 0 1
-7.935977 16.490484 -18.530255 26.043927 -1.122264 2.362427 0.017792 -0.012503 -285148.000000 0 0 1
-7.886077 15.753584 -19.707755 26.434092 -1.106677 2.412146 0.029007 -0.015165 57743.300000 0 0 1
-6.715577 14.759084 -19.935455 25.697313 -1.143781 2.458746 0.021991 -0.004766 -12346.700000 0 0 1
-6.747677 13.529084 -19.168455 24.413048 -1.108146 2.473771 0.001025 -0.003850 843055.000000 0 1 0
-5.424477 12.996084 -18.985355 23.638250 -1.175386 2.503381 0.011940 0.006675 1107110.000000 0 1 0
-4.673977 13.472984 -17.695055 22.726248 -1.236873 2.463256 0.018972 0.008364 -606.750000 0 1 0
-4.276877 14.824484 -17.707955 23.486777 -1.289922 2.424857 0.020203 -0.001149 -89752.200000 0 1 0
-3.646077 15.189884 -16.492455 22.716239 -1.335220 2.383314 0.015148 0.006404 -54996.800000 0 1 0
-2.718177 16.397184 -16.479355 23.405667 -1.406519 2.351917 0.025657 -0.001143 -82589.000000 0 1 0
-3.373777 17.650684 -16.499455 24.395922 -1.381933 2.313552 0.017455 -0.012233 1102730.000000 0 1 0
-2.373677 18.735384 -16.466055 25.055537 -1.444773 2.287871 0.030848 -0.019333 1263570.000000 0 0 1
-3.077477 19.972384 -17.051055 26.440602 -1.417912 2.271665 0.035980 -0.020844 416941.000000 0 0 1
-3.401377 19.707384 -18.418555 27.188113 -1.399886 2.315085 0.041923 -0.024330 -52480.300000 0 0 1
-3.989777 20.796584 -19.153355 28.552885 -1.381252 2.306087 0.064319 -0.016243 24144.700000 0 0 1
-3.063277 21.951384 -19.583455 29.576319 -1.432143 2.294458 0.050228 -0.016860 -782397.000000 0 0 1
-2.091677 21.694184 -20.570155 29.969051 -1.474677 2.327296 0.057856 -0.016258 181748.000000 0 0 1
-1.019377 22.633784 -20.507755 30.559701 -1.525789 2.306450 0.056489 -0.020901 930150.000000 0 0 1
0.141823 22.253684 -19.521655 29.603067 1.564423 2.290879 0.053918 -0.012382 -116081.000000 0 0 1
-0.326177 22.268284 -18.197855 28.760125 -1.556150 2.255891 0.043411 -0.010114 -522988.000000 0 0 1
0.687823 21.881784 -17.312755 27.910877 1.539373 2.239905 0.032073 -0.007854 -296378.000000 0 0 1
0.464223 22.321284 -15.816755 27.361012 1.550002 2.187166 0.031548 -0.010172 35715.200000 0 0 1
-0.537677 21.497784 -15.244855 26.359996 -1.545791 2.187480 0.025288 -0.003468 1771.080000 0 0 1
-0.350177 21.350384 -13.809655 25.429669 -1.554396 2.144865 0.033252 -0.007343 -97223.100000 0 0 1
-1.105377 20.161384 -13.213655 24.130975 -1.516025 2.150266 0.028120 -0.005861 -239905.000000 0 1 0
-0.762077 18.816684 -13.622155 23.242449 -1.530318 2.197020 0.021127 -0.003282 -453901.000000 0 1 0
-1.474577 17.907884 -12.847655 22.089113 -1.488639 2.191525 0.006919 -0.004413 -164936.000000 0 1 0
-1.146877 16.403084 -12.841255 20.863229 -1.500992 2.233813 0.001831 -0.003775 683297.000000 0 1 0
0.141023 16.004384 -12.293755 20.181591 1.561985 2.225793 0.006377 -0.000012 1054570.000000 0 1 0
0.359923 14.636084 -12.313055 19.129972 1.546210 2.270058 0.012254 0.002341 43611.900000 0 1 0
0.731423 14.009784 -13.672155 19.589202 1.518636 2.343318 0.001831 0.003561 -806557.000000 0 1 0
-0.279477 13.793784 -14.626555 20.106782 -1.550538 2.385386 0.007618 -0.001354 -50041.800000 0 1 0
0.236623 12.878784 -15.584355 20.218585 1.552425 2.450882 0.008861 0.000145 -117412.000000 0 1 0
-0.471577 12.937584 -16.948755 21.327535 -1.534362 2.489291 0.011674 0.004600 -149475.000000 0 1 0
-0.304377 14.155984 -17.614955 22.600247 -1.549298 2.464527 0.017707 0.001076 -10848.300000 0 1 0
-0.602777 14.071484 -19.005455 23.655387 -1.527986 2.503831 0.025694 -0.000726 -432883.000000 0 1 0
-1.072777 15.412584 -19.580155 24.941553 -1.501304 2.473560 0.032421 -0.008477 -604553.000000 0 1 0
-0.103477 16.393884 -19.651155 25.591757 -1.564484 2.446307 0.034714 -0.012965 -547954.000000 0 0 1
-0.729477 17.665984 -19.867455 26.595768 -1.529527 2.414358 0.052968 -0.014844 -55016.800000 0 0 1
0.171023 18.783884 -20.347955 27.693010 1.561692 2.396122 0.062141 -0.012885 -232328.000000 0 0 1
0.669323 18.599384 -21.634155 28.538075 1.534826 2.431161 0.063937 -0.016914 -504939.000000 0 0 1
1.678223 19.490484 -21.961855 29.411196 1.484903 2.413910 0.066803 -0.016318 -200139.000000 0 0 1
2.229423 19.404984 -23.422355 30.498040 1.456409 2.446502 0.072683 -0.020941 78641.700000 0 0 1
2.970423 18.230684 -23.659355 30.015768 1.409280 2.478725 0.051587 -0.017509 -223850.000000 0 0 1
3.329823 18.106084 -24.996555 31.044255 1.388922 2.506794 0.053998 -0.025452 285003.000000 0 0 1
4.339923 16.996584 -25.423855 30.888367 1.320797 2.537624 0.031043 -0.012243 261060.000000 0 0 1
5.634523 17.078784 -24.802855 30.636813 1.252127 2.514227 0.026339 -0.008016 1225770.000000 0 0 1
6.568023 16.056584 -25.266925 30.649149 1.182509 2.539924 0.029837 -0.012988 882268.000000 0 0 1
6.960623 16.168384 -26.781725 32.048833 1.164269 2.560118 0.029718 -0.015838 -1416210.000000 0 0 1
7.825923 17.260684 -27.069925 33.044774 1.145122 2.530792 0.023565 -0.008660 467824.000000 0 0 1
8.388323 17.366884 -28.367125 34.302571 1.120835 2.544490 0.031333 -0.010752 237393.000000 0 0 1
9.062623 16.094384 -28.973575 34.360273 1.057957 2.574058 0.040355 -0.018722 -632405.000000 0 0 1
10.196923 15.706684 -28.232805 33.878731 0.994977 2.555935 0.039121 -0.012559 108720.000000 0 0 1
10.678823 14.409784 -28.621455 33.776720 0.933028 2.581813 0.037853 -0.004995 33258.300000 0 0 1
10.199623 13.335284 -27.569935 32.279458 0.917853 2.594617 0.034263 -0.004359 31716.600000 0 0 1
8.829623 13.027684 -27.660445 31.824252 0.975154 2.624303 0.030227 -0.000137 -304713.000000 0 0 1
8.368123 12.368184 -26.496535 30.414862 0.975959 2.628378 0.041161 -0.002541 24031.100000 0 0 1
6.946223 11.804284 -26.661195 29.973496 1.038913 2.667029 0.037298 -0.016752 -487835.000000 0 0 1
5.907023 12.724284 -26.703985 30.164601 1.136170 2.657883 0.043748 -0.017964 -1459550.000000 0 0 1
4.729823 12.005084 -26.702885 29.656995 1.195486 2.691463 0.052005 -0.020540 -270502.000000 0 0 1
3.484023 12.942584 -26.918415 30.070749 1.307839 2.679607 0.057127 -0.027122 -209913.000000 0 0 1
3.235723 13.255984 -28.305435 31.422741 1.331383 2.692392 0.066431 -0.033132 51488.700000 0 0 1
3.841723 14.416184 -28.838645 32.469257 1.310362 2.664172 0.070181 -0.032015 -84863.000000 0 0 1
3.861923 14.267484 -30.355555 33.762927 1.306451 2.688459 0.080496 -0.031810 43194.000000 0 0 1
4.681823 13.209284 -30.844475 33.878995 1.230177 2.715120 0.076895 -0.031063 119428.000000 0 0 1
4.560623 13.120684 -32.279275 35.141190 1.236270 2.735217 0.070352 -0.026953 -225974.000000 0 0 1
5.842223 12.440284 -32.813705 35.575715 1.131746 2.744948 0.064057 -0.016752 1245180.000000 0 0 1
7.122123 13.080084 -32.569195 35.812926 1.072185 2.712697 0.072492 -0.014594 1401100.000000 0 0 1
7.740523 13.064584 -31.261525 34.754597 1.035924 2.689405 0.070769 -0.014986 -228518.000000 0 0 1
7.883923 11.691884 -30.533675 33.632747 0.977523 2.708937 0.081608 -0.012352 -105414.000000 0 0 1
8.869023 10.765284 -30.987825 33.982292 0.881679 2.718641 0.048653 -0.009739 260878.000000 0 0 1
8.616223 9.504484 -30.377095 32.974875 0.834378 2.742000 0.046503 -0.015525 254831.000000 0 0 1
9.678023 8.433884 -30.797515 33.365873 0.716814 2.746665 0.021323 -0.007882 -326927.000000 0 0 1
10.794723 8.536984 -30.002285 33.008230 0.669135 2.711515 0.032682 -0.005509 -1000900.000000 0 0 1
11.530123 7.331584 -30.017835 32.981302 0.566373 2.714435 0.003732 -0.000859 -271403.000000 0 0 1
12.743123 7.303384 -29.060955 32.561721 0.520423 2.673628 0.003100 0.011041 358494.000000 0 0 1
13.502223 6.106584 -28.829895 32.415478 0.424736 2.666798 0.008319 0.003573 -127609.000000 0 0 1
14.464223 5.905484 -29.812515 33.658202 0.387626 2.658889 -0.009632 0.007714 -727902.000000 0 0 1
15.392123 4.712484 -29.431115 33.545722 0.297100 2.641094 0.001787 0.000326 -95564.500000 0 0 1
16.078323 4.900184 -28.242355 32.865710 0.295827 2.604746 -0.011518 -0.007663 234815.000000 0 0 1
16.937823 3.759684 -27.994205 32.934793 0.218428 2.586760 -0.006776 -0.010031 277388.000000 0 0 1
17.701723 3.912784 -26.672755 32.250531 0.217542 2.544633 -0.002016 -0.010879 -42030.600000 0 0 1
18.590123 5.014384 -26.619985 32.853619 0.263464 2.515393 0.013119 -0.013729 180434.000000 0 0 1
19.098323 5.220984 -25.302725 32.128375 0.266854 2.477621 0.015588 -0.011148 138244.000000 0 0 1
20.114723 6.388984 -25.296345 32.944290 0.307549 2.446278 0.012233 -0.009994 -95358.700000 0 0 1
19.507323 7.613184 -25.740565 33.182418 0.372093 2.458666 0.021155 -0.012298 175100.000000 0 0 1
20.420723 8.545584 -26.245205 34.334293 0.396332 2.440910 0.023430 -0.019031 -865236.000000 0 0 1
20.734523 8.437584 -27.752805 35.655735 0.386470 2.462837 0.026412 -0.013242 110529.000000 0 0 1
19.654523 8.666284 -28.657845 35.814478 0.415286 2.498383 0.025736 -0.007196 338309.000000 0 0 1
18.648823 7.670184 -28.615445 35.006485 0.390206 2.527736 0.017689 -0.002442 -259725.000000 0 0 1
17.260523 8.266684 -28.970755 34.721295 0.446655 2.557803 0.011739 0.013865 -200471.000000 0 0 1
17.070923 8.562984 -30.316835 35.830875 0.464937 2.579439 0.007420 0.014879 516223.000000 0 0 1
15.836623 9.249784 -30.523515 35.609579 0.528628 2.600549 -0.004146 0.014303 397135.000000 0 0 1
15.346523 9.210884 -32.029355 36.691085 0.540562 2.632007 -0.011879 0.012965 -202458.000000 0 0 1
14.793923 7.989684 -32.262095 36.380461 0.495184 2.661165 -0.009398 0.009676 -182402.000000 0 0 1
13.858823 8.053684 -33.318295 36.973471 0.526424 2.693190 -0.018351 0.014153 202764.000000 0 0 1
13.352323 6.621784 -33.723205 36.869867 0.460384 2.725450 -0.019757 0.012134 -109104.000000 0 0 1
12.667223 5.940284 -32.690885 35.558958 0.438500 2.737204 -0.003043 0.001975 -5888.460000 0 0 1
11.945023 4.882984 -33.259125 35.674872 0.388059 2.771474 0.005219 -0.004584 -187370.000000 0 0 1
11.470823 3.802584 -32.327405 34.512324 0.320100 2.783856 0.012872 -0.011307 419945.000000 0 0 1
12.510423 2.906584 -31.820815 34.315058 0.228283 2.757966 0.009951 -0.017462 623362.000000 0 0 1
12.170323 1.927984 -30.914075 33.279332 0.157111 2.762301 0.011382 -0.018274 -186428.000000 0 0 1
11.564123 0.559484 -31.446255 33.509833 0.048343 2.788821 0.015321 -0.018992 -43500.200000 0 0 1
12.433623 -0.321916 -32.136855 34.459774 -0.025885 2.772321 0.018239 -0.018662 -164143.000000 0 0 1
13.111423 -1.115216 -31.174825 33.838186 -0.084853 2.742184 0.010508 -0.019725 -22314.800000 0 0 1
13.746023 -2.369316 -31.810015 34.733901 -0.170687 2.728342 0.013855 -0.018743 -114972.000000 0 0 1
12.911923 -3.489416 -32.020175 34.701374 -0.263943 2.745914 0.021369 -0.016936 60932.200000 0 0 1
13.545723 -4.493816 -32.842915 35.809748 -0.320326 2.731666 0.032995 -0.015602 156346.000000 0 0 1
12.781223 -5.834316 -32.860165 35.737786 -0.428226 2.737551 0.036824 -0.008239 105091.000000 0 0 1
12.947423 -6.410816 -31.562515 34.712054 -0.459754 2.712315 0.027090 -0.006400 84369.800000 0 0 1
12.372923 -7.688716 -31.565505 34.764733 -0.556017 2.709222 0.022581 -0.003784 -108063.000000 0 0 1
12.574623 -8.552816 -30.266805 33.872574 -0.597289 2.675985 0.003840 0.000027 562255.000000 0 0 1
13.962823 -8.876716 -30.092735 34.341363 -0.566285 2.638888 0.022735 -0.002376 932186.000000 0 0 1
14.371423 -9.455016 -28.868065 33.605064 -0.581912 2.604186 0.023078 0.000054 -54340.200000 0 0 1
14.222923 -10.978316 -28.716855 33.874367 -0.657355 2.582517 0.008252 0.002360 -25178.200000 0 0 1
12.909223 -11.418416 -28.427845 33.244107 -0.724194 2.596587 -0.004543 -0.000890 33795.900000 0 0 1
12.677123 -12.783516 -28.450885 33.668689 -0.789577 2.577408 0.000348 -0.011658 -103220.000000 0 0 1
-9.975577 -3.314316 -17.677655 20.566874 0.320769 2.605128 0.013682 -0.005266 116302.000000 0 1 0
-10.676177 -2.866116 -18.798555 21.807821 0.262275 2.610018 0.014333 -0.011089 -837249.000000 0 1 0
-11.662677 -3.725016 -19.205455 22.775937 0.309155 2.574069 0.017400 -0.009968 -866201.000000 0 1 0
-12.357777 -3.120216 -20.426655 24.076932 0.247321 2.583735 0.021497 -0.023544 -423735.000000 0 1 0
-13.113077 -1.946116 -20.240155 24.195124 0.147335 2.561731 0.021831 -0.020220 134725.000000 0 1 0
-13.902677 -1.671116 -21.394655 25.569676 0.119627 2.562062 0.018125 -0.019416 358667.000000 0 0 1
-14.768877 -0.374616 -21.310055 25.930263 0.025360 2.535398 0.022727 -0.016634 353973.000000 0 0 1
-13.901677 0.714084 -21.332655 25.472509 -0.051322 2.563447 0.025418 -0.015150 175138.000000 0 0 1
-14.675577 1.882784 -21.072955 25.748532 -0.127597 2.529442 0.021296 -0.012015 451184.000000 0 0 1
-14.023977 3.203084 -21.697755 26.033138 -0.224549 2.556149 0.035367 -0.013067 617970.000000 0 0 1
-12.841677 3.680684 -21.049655 24.930786 -0.279137 2.576098 0.029530 -0.013478 557797.000000 0 1 0
-12.441977 4.851984 -21.761355 25.532354 -0.371829 2.591173 0.024716 -0.012392 -313515.000000 0 0 1
-11.308877 5.595584 -21.033355 24.527603 -0.459475 2.601261 0.001995 -0.007788 -162334.000000 0 1 0
-11.772977 6.076584 -19.763955 23.793734 -0.476481 2.551047 0.022375 -0.012079 551465.000000 0 1 0
-10.745177 6.582284 -18.926655 22.737712 -0.549618 2.554204 0.005812 -0.007304 -222851.000000 0 1 0
-11.309877 7.157984 -17.626155 22.132135 -0.564258 2.492124 0.023685 -0.007249 -40359.300000 0 1 0
-11.905877 8.417884 -17.780255 22.994524 -0.615433 2.454729 0.021158 -0.005754 664717.000000 0 1 0
-12.994277 8.516684 -16.838855 22.911399 -0.580175 2.396397 0.033942 -0.000449 108161.000000 0 1 0
-13.509577 9.964284 -16.805255 23.753152 -0.635500 2.356745 0.034892 0.001329 53387.900000 0 1 0
-12.704677 10.896184 -16.060455 23.196419 -0.708919 2.335562 0.000200 0.012149 549740.000000 0 1 0
-13.318077 12.171384 -16.230255 24.267982 -0.740442 2.303380 0.009867 -0.000545 46599.800000 0 1 0
-12.649877 13.285284 -15.379655 23.938504 -0.809893 2.268507 0.011406 0.006286 -399832.000000 0 1 0
-12.834477 13.224484 -14.035455 23.164731 -0.800363 2.221690 0.035217 0.004168 -2405.580000 0 1 0
-12.339177 14.358584 -13.381055 23.183547 -0.860894 2.186066 0.029900 0.000924 -772068.000000 0 1 0
-12.743677 14.475284 -11.848155 22.634353 -0.848930 2.121702 0.029129 -0.012361 348893.000000 0 1 0
-14.031477 14.939384 -11.471455 23.487482 -0.816727 2.081060 0.030258 -0.007889 -48923.600000 0 1 0
-15.052977 14.051084 -11.830255 23.748263 -0.750987 2.092263 0.029184 -0.003127 -2619030.000000 0 1 0
-16.364477 14.611884 -11.447855 24.745841 -0.728880 2.051742 0.011444 0.009631 -1271740.000000 0 1 0
-17.434177 13.808184 -11.983555 25.263057 -0.669855 2.065023 0.006978 0.007694 -36194.400000 0 0 1
-18.620577 14.309784 -11.446555 26.125073 -0.655232 2.024330 0.030430 0.002410 268393.000000 0 0 1
-19.954377 13.905684 -12.207255 27.213274 -0.608625 2.035969 0.028571 -0.007132 844441.000000 0 0 1
-20.312877 12.540984 -11.940355 26.691971 -0.553109 2.034584 0.039590 -0.016708 -107273.000000 0 0 1
-21.428377 12.205084 -12.707855 27.742188 -0.517748 2.046619 0.058238 -0.014975 -580669.000000 0 0 1
-22.017277 10.773184 -12.287055 27.418857 -0.455056 2.035462 0.054403 -0.018040 -504543.000000 0 0 1
-21.124177 9.713784 -12.364255 26.333691 -0.431008 2.059546 0.051072 -0.021184 -110910.000000 0 0 1
-21.569177 8.583284 -11.641855 25.969886 -0.378731 2.035640 0.044917 -0.017899 -277550.000000 0 0 1
-20.595477 7.375984 -11.575255 24.750058 -0.343905 2.057467 0.052237 -0.014760 -192559.000000 0 1 0
-20.503277 6.638984 -12.797855 25.064828 -0.313147 2.106667 0.062165 -0.012909 504141.000000 0 0 1
-19.263177 5.962884 -12.789855 23.878994 -0.300194 2.136028 0.057578 -0.016013 -91056.200000 0 1 0
-19.229677 4.848384 -13.778755 24.148321 -0.246983 2.178019 0.062549 -0.016315 -27733.300000 0 1 0
-19.944177 3.668484 -13.384055 24.297344 -0.181904 2.154172 0.046614 -0.018503 604226.000000 0 1 0
-20.099777 2.684084 -14.434155 24.890765 -0.132753 2.189402 0.052903 -0.019716 -178899.000000 0 1 0
-20.783477 1.344784 -14.044255 25.119763 -0.064614 2.164086 0.045104 -0.019192 390809.000000 0 0 1
-22.074577 1.218784 -14.637955 26.514942 -0.055156 2.155634 0.038765 -0.012661 473627.000000 0 0 1
-22.522777 -0.093716 -14.655755 26.871461 0.004161 2.147665 0.034844 -0.023620 20841.500000 0 0 1
-23.894577 -0.263016 -15.379355 28.417329 0.011007 2.142656 0.037633 -0.019158 236519.000000 0 0 1
-24.977477 0.096584 -14.560455 28.911772 -0.003867 2.098577 0.059983 -0.021624 394653.000000 0 0 1
-26.243587 -0.300116 -15.085255 30.271783 0.011435 2.092465 0.050783 -0.011241 1038490.000000 0 0 1
-27.482717 0.081984 -14.206655 30.937607 -0.002983 2.047895 0.042931 -0.011715 -3139.650000 0 0 1
-27.682777 -0.621616 -12.999155 30.589224 0.022451 2.009713 0.049294 -0.015983 602603.000000 0 0 1
-28.944637 -0.326516 -12.382755 31.483826 0.011280 1.975020 0.060852 -0.019301 696763.000000 0 0 1
-29.280377 -1.222516 -11.192955 31.370644 0.041728 1.935633 0.057553 -0.028651 -305927.000000 0 0 1
-29.669777 -2.559016 -11.435655 31.900133 0.086037 1.937439 0.065158 -0.030574 415528.000000 0 0 1
-28.658867 -3.389416 -11.987555 31.249325 0.117721 1.964499 0.062103 -0.027433 -110685.000000 0 0 1
-28.704577 -4.809416 -11.379355 31.250168 0.166007 1.943503 0.058933 -0.024518 695552.000000 0 0 1
-29.802057 -5.637516 -11.889255 32.577578 0.186956 1.944378 0.062470 -0.023310 1032020.000000 0 0 1
-29.996017 -6.936516 -11.274255 32.786966 0.227253 1.921825 0.066704 -0.019091 197077.000000 0 0 1
-29.147757 -8.108416 -11.894555 32.508747 0.271323 1.945383 0.065321 -0.023625 272334.000000 0 0 1
-27.756457 -8.047616 -11.640455 31.155822 0.282199 1.953705 0.044103 -0.024385 -24735.900000 0 0 1
-27.085577 -9.071216 -12.341355 31.116306 0.323168 1.978628 0.051516 -0.021279 -357168.000000 0 0 1
-25.596087 -9.110916 -11.966555 29.687825 0.341965 1.985676 0.039596 -0.022225 -643557.000000 0 0 1
-24.914377 -7.926416 -12.356755 28.917878 0.308021 2.012306 0.026252 -0.024558 991738.000000 0 0 1
-23.620877 -7.801616 -11.724655 27.500520 0.319004 2.011242 0.020980 -0.023263 558661.000000 0 0 1
-23.546477 -7.539516 -10.182155 26.738683 0.309882 1.961460 0.018135 -0.019621 -609701.000000 0 0 1
-23.798677 -6.211516 -9.737455 26.453318 0.255307 1.947761 0.021912 -0.013965 40977.400000 0 0 1
-25.115617 -5.753916 -9.861955 27.589127 0.225211 1.936341 0.026170 -0.010061 -748595.000000 0 0 1
-25.337737 -4.356016 -9.250255 27.322940 0.170254 1.916175 0.032148 -0.015288 -444404.000000 0 0 1
-25.329847 -4.381216 -7.867255 26.882893 0.171272 1.867792 0.027864 -0.014141 450075.000000 0 0 1
-25.663867 -3.113116 -7.310955 26.865883 0.120714 1.846400 0.042155 -0.014864 -49548.300000 0 0 1
-25.607907 -3.108416 -5.827955 26.446025 0.120794 1.792992 0.036439 -0.009458 -594139.000000 0 0 1
-24.350777 -3.224116 -5.248955 25.117858 0.131637 1.781321 0.032329 -0.002207 -667652.000000 0 0 1
-24.335777 -2.868616 -3.908155 24.813962 0.117335 1.728953 0.021925 0.001510 439730.000000 0 1 0
-22.982877 -3.142616 -3.174355 23.412928 0.135895 1.706796 0.013961 0.000459 452845.000000 0 1 0
-22.607377 -4.531516 -3.334355 23.296911 0.197823 1.714414 0.014279 -0.004350 -77763.200000 0 1 0
-21.390677 -4.868216 -2.740155 22.108122 0.223774 1.695059 0.012177 -0.007331 -419920.000000 0 1 0
-21.141277 -6.400116 -2.780955 22.263172 0.293960 1.696036 0.010158 -0.007637 440439.000000 0 1 0
-21.955477 -7.141216 -1.810955 23.158573 0.314466 1.649074 0.022945 -0.009030 955520.000000 0 1 0
-22.044077 -8.498616 -2.201855 23.727958 0.367969 1.663726 -0.000759 -0.007836 57261.000000 0 1 0
-22.785777 -9.296616 -1.132955 24.635387 0.387385 1.616801 0.004819 -0.010410 160574.000000 0 1 0
-21.914877 -9.461716 -0.007155 23.870190 0.407573 1.571096 0.001605 -0.006984 310501.000000 0 1 0
-22.335277 -10.369516 0.974945 24.644310 0.434654 1.531225 -0.000194 -0.002457 -3002.220000 0 1 0
-21.183077 -10.963316 1.831145 23.922169 0.477589 1.494175 0.003197 -0.003610 410598.000000 0 1 0
-20.390977 -11.919716 1.146145 23.647098 0.528988 1.522309 0.003269 0.003174 677575.000000 0 1 0
-19.234277 -12.310216 1.888045 22.914266 0.569323 1.488307 -0.011243 0.004337 729721.000000 0 1 0
-18.368577 -13.416616 1.216945 22.779183 0.630846 1.517347 -0.010757 0.004796 303537.000000 0 1 0
-19.159077 -14.633616 1.232845 24.139861 0.652272 1.519703 -0.005547 0.004910 710841.000000 0 1 0
-18.602977 -15.715516 0.527045 24.358284 0.701459 1.549157 -0.009175 -0.001025 -131173.000000 0 1 0
-17.426877 -16.516916 1.143845 24.037740 0.758597 1.523193 -0.015724 -0.001240 748987.000000 0 1 0
-16.165077 -15.817016 1.150445 22.645336 0.774516 1.519972 -0.010888 0.000434 582362.000000 0 1 0
-15.139177 -16.526916 1.784245 22.483709 0.829194 1.491356 0.000473 -0.007264 -103738.000000 0 1 0
-15.065777 -16.510616 3.353445 22.601409 0.831123 1.421873 0.004038 -0.001558 -479361.000000 0 1 0
-14.785677 -15.188516 3.815245 21.537488 0.798837 1.392712 -0.000778 -0.004200 47313.400000 0 1 0
-14.089477 -15.189016 5.046945 21.323490 0.822935 1.331844 -0.000229 -0.001567 -157981.000000 0 1 0
-14.853477 -15.685416 6.314745 22.506312 0.812633 1.286402 0.004497 -0.000401 -529291.000000 0 1 0
-15.745577 -14.735716 6.941645 22.655043 0.752280 1.259381 0.005796 0.004075 346012.000000 0 1 0
-15.890377 -14.886616 8.351945 23.321030 0.752796 1.204533 0.006801 0.003636 159346.000000 0 1 0
-16.695077 -16.166416 8.780245 24.842933 0.769312 1.209561 -0.002293 0.007112 -126159.000000 0 1 0
-15.934277 -17.323616 8.509045 25.028238 0.827149 1.223903 -0.003762 0.002927 -152861.000000 0 0 1
-16.581977 -18.545716 8.855145 26.406801 0.841243 1.228835 -0.010450 0.001811 -118845.000000 0 0 1
-16.271077 -18.952016 10.313545 27.023991 0.861365 1.179222 -0.007946 0.004243 581870.000000 0 0 1
-14.942977 -19.454716 10.477945 26.675192 0.915818 1.167125 -0.001031 -0.002098 359310.000000 0 0 1
-14.734177 -19.963716 11.796645 27.473747 0.934989 1.126991 0.006139 -0.003960 994016.000000 0 0 1
-13.338477 -20.700016 11.959045 27.375617 0.998389 1.118702 0.006908 -0.002160 1916750.000000 0 0 1
-12.211577 -19.787316 12.038845 26.183856 1.017868 1.093048 0.001511 0.000156 815614.000000 0 0 1
-11.013777 -20.520616 12.316345 26.345613 1.078208 1.084346 0.006961 0.000918 1315320.000000 0 0 1
-9.721377 -19.645816 12.551345 25.258653 1.111292 1.050759 0.003494 0.002336 939029.000000 0 0 1
-9.328977 -18.922316 11.403845 23.981900 1.112753 1.075243 0.001674 0.003419 -342950.000000 0 1 0
-8.366777 -17.946816 11.742345 23.021161 1.134554 1.035533 0.006170 -0.000539 60399.500000 0 1 0
-7.692377 -17.308616 10.516545 21.664685 1.152588 1.063949 -0.000420 -0.001642 -141407.000000 0 1 0
-6.595577 -18.034216 10.053645 21.675110 1.220181 1.088479 0.004127 -0.002671 -487133.000000 0 1 0
-5.948577 -17.539316 8.889145 20.543371 1.243814 1.123309 0.006614 -0.000495 413474.000000 0 1 0
-4.712777 -18.354616 8.465945 20.755106 1.319463 1.150647 0.003158 0.000487 -232521.000000 0 1 0
-3.547877 -18.242416 9.209245 20.740863 1.378709 1.110722 0.003286 -0.002781 -424945.000000 0 1 0
-2.506577 -18.978416 8.570145 20.974046 1.439481 1.149869 0.008565 -0.004414 525070.000000 0 1 0
-1.150077 -19.099516 9.307845 21.277927 1.510654 1.118045 0.010939 -0.010315 346071.000000 0 1 0
-0.193477 -19.788016 8.517145 21.544020 1.561019 1.164362 0.019903 -0.000340 -646812.000000 0 1 0
0.938423 -20.084816 9.283445 22.146395 -1.524107 1.138248 0.027478 0.002222 206192.000000 0 1 0
2.140423 -20.528616 8.378245 22.275558 -1.466906 1.185193 0.037390 -0.015336 -164827.000000 0 1 0
1.883623 -21.803116 7.749445 23.215896 -1.484618 1.230465 0.022865 -0.009093 905.723000 0 1 0
2.005223 -22.892416 8.641445 24.551135 -1.483426 1.211113 0.019346 -0.005639 -69411.600000 0 1 0
1.670723 -24.243616 8.022645 25.591152 -1.501991 1.251927 0.003776 -0.008091 141589.000000 0 0 1
1.648023 -25.243016 9.016945 26.855747 -1.505603 1.228390 0.009169 -0.003853 -287167.000000 0 0 1
1.318423 -26.489936 8.556045 27.868636 -1.521067 1.258743 0.011170 -0.007113 -825683.000000 0 0 1
1.540123 -27.628236 9.606845 29.291345 -1.515109 1.236637 0.017427 -0.004476 287792.000000 0 0 1
0.819523 -27.541956 10.859445 29.616862 -1.541050 1.195375 0.003684 -0.009676 481672.000000 0 0 1
-0.582777 -27.784266 10.743745 29.794851 1.549824 1.201895 -0.010403 -0.004511 413002.000000 0 0 1
-1.219577 -27.867016 12.132145 30.417871 1.527060 1.160535 -0.003297 -0.004835 1880.060000 0 0 1
-0.711277 -28.990126 12.835745 31.712611 1.546266 1.154089 -0.007015 -0.004588 -107582.000000 0 0 1
-1.088877 -28.906776 14.147545 32.201559 1.533146 1.115929 -0.008346 -0.004099 -515418.000000 0 0 1
-0.630277 -30.084296 14.995845 33.620492 1.549849 1.108468 -0.006767 -0.001981 70629.500000 0 0 1
-0.957477 -29.930476 16.353545 34.120208 1.538817 1.070948 -0.002117 -0.006245 31540.300000 0 0 1
-0.544077 -31.046466 17.137945 35.466720 1.553274 1.066477 -0.005312 -0.004870 9365.030000 0 0 1
-0.871677 -30.769586 18.623945 35.977473 1.542475 1.026688 -0.003900 -0.004939 126397.000000 0 0 1
-2.258577 -30.819036 18.890845 36.218479 1.497642 1.022094 0.005541 -0.005830 47445.600000 0 0 1
-2.485677 -30.684546 20.284945 36.867316 1.489965 0.988175 0.002146 -0.008288 -255812.000000 0 0 1
-3.993577 -30.665686 20.575845 37.144291 1.441296 0.983703 0.013458 -0.002572 -460274.000000 0 0 1
-4.590177 -29.519636 20.042045 35.974466 1.416536 0.979884 0.019251 -0.009689 -761510.000000 0 0 1
-5.837777 -29.292596 20.608645 36.288457 1.374082 0.966830 0.018791 -0.008563 -473135.000000 0 0 1
-5.917177 -28.178476 21.702245 36.055886 1.363814 0.924911 0.015512 -0.011033 -148878.000000 0 0 1
-4.994177 -28.458406 22.738345 36.767581 1.397075 0.904047 0.016422 -0.007851 149405.000000 0 0 1
-5.186077 -27.639736 23.870745 36.887164 1.385322 0.866984 0.011256 -0.008342 -348836.000000 0 0 1
-4.257377 -27.878506 25.083845 37.743021 1.419255 0.843844 0.015247 -0.008603 -69759.400000 0 0 1
-4.415077 -29.036626 25.880245 39.145953 1.419900 0.848483 0.018395 -0.008171 307020.000000 0 0 1
-3.601577 -30.119896 25.397845 39.562988 1.451787 0.873745 0.015845 -0.007131 161776.000000 0 0 1
-3.825077 -31.386326 26.194245 41.059361 1.449524 0.878950 0.017376 0.001567 -196172.000000 0 0 1
-3.468877 -31.348816 27.548045 41.876917 1.460590 0.852858 0.022426 -0.011605 86411.000000 0 0 1
-4.095577 -32.367696 28.211945 43.131837 1.444932 0.857822 0.027890 -0.006224 -451930.000000 0 0 1
-3.570977 -32.283716 29.640245 43.971972 1.460632 0.831090 0.031082 -0.012613 569872.000000 0 0 1
-2.176877 -32.590206 29.745945 44.177840 1.504100 0.832103 0.019107 -0.013684 903819.000000 0 0 1
-1.797677 -32.992446 31.085945 45.365947 1.516363 0.815882 0.019810 -0.014794 -157716.000000 0 0 1
-27.950867 3.056384 -10.097755 29.875695 -0.108916 1.915579 0.052774 -0.007244 82824.500000 0 0 1
-28.964157 2.664184 -11.008455 31.099942 -0.091724 1.932609 0.038143 -0.018540 102108.000000 0 0 1
-29.480537 3.857084 -11.645155 31.931001 -0.130096 1.944104 0.018382 -0.021258 132561.000000 0 0 1
-30.309467 3.447884 -12.878055 33.111871 -0.113269 1.970261 0.025166 -0.019535 609256.000000 0 0 1
-31.532997 2.757884 -12.550055 34.050547 -0.087238 1.948268 0.038098 -0.021711 699752.000000 0 0 1
-32.272907 2.531984 -13.723155 35.160724 -0.078295 1.971751 0.041327 -0.019400 -143469.000000 0 0 1
-33.513967 1.670784 -13.415355 36.137920 -0.049812 1.951126 0.036309 -0.026370 39179.300000 0 0 1
-33.071987 0.422384 -13.014555 35.543120 -0.012771 1.945678 0.054470 -0.027418 -3997.060000 0 0 1
-34.139481 -0.439416 -12.784555 36.457402 0.012870 1.929084 0.038874 -0.031155 -497761.000000 0 0 1
-33.612487 -1.826116 -12.534255 35.919933 0.054275 1.927247 0.047990 -0.031656 -184947.000000 0 0 1
-33.282537 -2.596316 -13.616455 36.053793 0.077851 1.958076 0.041257 -0.027237 123945.000000 0 0 1
-32.754647 -3.798316 -13.069855 35.469920 0.115447 1.948167 0.054581 -0.023946 59267.800000 0 0 1
-32.783117 -5.029616 -14.030055 36.012113 0.152234 1.970986 0.062669 -0.018054 153922.000000 0 0 1
-32.829547 -6.279916 -13.333155 35.985963 0.189005 1.950354 0.052410 -0.017403 -100046.000000 0 0 1
-33.253987 -7.323216 -14.168455 36.880920 0.216761 1.965102 0.053772 -0.014929 -435066.000000 0 0 1
-32.973527 -8.702016 -13.547855 36.694999 0.258026 1.948946 0.052926 -0.017545 -447529.000000 0 0 1
-31.628347 -9.064516 -13.487755 35.558928 0.279113 1.959844 0.054237 -0.022309 -563690.000000 0 0 1
-31.108307 -9.546716 -14.701455 35.707133 0.297763 1.995140 0.046047 -0.014664 -913477.000000 0 0 1
-29.916967 -10.473816 -14.569455 34.885452 0.336761 2.001639 0.048497 -0.018824 -734024.000000 0 0 1
-30.238647 -11.607016 -13.737355 35.182574 0.366504 1.971927 0.042781 -0.017965 1103030.000000 0 0 1
-29.171247 -12.602016 -13.564055 34.550775 0.407786 1.974235 0.052014 -0.017572 663483.000000 0 0 1
-29.269397 -13.910916 -14.312655 35.426873 0.443670 1.986688 0.057276 -0.020858 -160143.000000 0 0 1
-29.151917 -13.873216 -15.714255 35.905964 0.444177 2.023780 0.048647 -0.019115 8361.630000 0 0 1
-29.559717 -15.077516 -16.275655 36.959509 0.471671 2.026801 0.063918 -0.016236 -512262.000000 0 0 1
-28.645267 -16.331516 -16.180455 36.729782 0.518166 2.026982 0.029816 -0.006550 1117250.000000 0 0 1
-27.479027 -16.085916 -17.048755 36.118052 0.529607 2.062387 0.023680 -0.008994 881197.000000 0 0 1
-26.560737 -17.169116 -16.912755 35.864922 0.573847 2.061865 0.014953 -0.006840 602499.000000 0 0 1
-25.132437 -16.722616 -17.339755 34.813107 0.587111 2.092181 0.006359 -0.013113 361097.000000 0 0 1
-25.055977 -16.607516 -18.710655 35.407629 0.585332 2.127553 0.019901 -0.020261 -176708.000000 0 0 1
-23.790477 -16.145216 -19.132955 34.535848 0.596247 2.157961 0.014914 -0.011107 -257471.000000 0 0 1
-23.862077 -15.487416 -20.572855 35.106996 0.575699 2.196915 0.020937 -0.012660 95292.200000 0 0 1
-24.254377 -16.431716 -21.597255 36.396669 0.595448 2.206055 0.017004 -0.020198 1328380.000000 0 0 1
-25.692827 -16.500816 -21.747155 37.487826 0.570897 2.189663 0.029748 -0.026190 723580.000000 0 0 1
-26.138717 -17.777616 -22.425255 38.757815 0.597263 2.187807 0.029290 -0.029150 -457536.000000 0 0 1
-25.729487 -17.957116 -23.775855 39.366938 0.609328 2.219250 0.023657 -0.015058 69377.800000 0 0 1
-26.286107 -19.131916 -24.360655 40.625499 0.629163 2.213847 0.023677 -0.014531 -588722.000000 0 0 1
-25.565357 -19.476016 -25.691675 41.145654 0.651019 2.245170 0.014153 -0.015978 1519220.000000 0 0 1
-24.157377 -19.819716 -25.704055 40.461074 0.687082 2.259166 0.011278 -0.018119 1017050.000000 0 0 1
-23.927077 -21.059616 -25.138435 40.594992 0.721744 2.238583 0.018579 -0.009219 -795257.000000 0 0 1
-22.487177 -21.579216 -25.231975 40.099729 0.764797 2.251359 0.014125 0.001238 30145.900000 0 0 1
-21.952677 -21.548116 -26.550365 40.634508 0.776098 2.282856 0.015980 -0.007061 414699.000000 0 0 1
-20.532777 -21.697116 -26.538105 39.957863 0.812963 2.297156 0.009690 -0.005529 351037.000000 0 0 1
-19.961377 -21.633416 -27.918345 40.569635 0.825575 2.329744 0.015391 -0.003710 -467820.000000 0 0 1
-20.150677 -22.774016 -28.739375 41.840857 0.846437 2.327975 0.041961 -0.005995 -227796.000000 0 0 1
-20.774977 -22.493416 -29.963355 42.841056 0.825093 2.345364 0.043187 -0.003510 -287513.000000 0 0 1
-19.883477 -22.614216 -31.219865 43.375516 0.849566 2.374250 0.047894 -0.015878 164622.000000 0 0 1
-19.531377 -23.963616 -31.522165 44.151744 0.886950 2.365921 0.059589 -0.026588 -195485.000000 0 0 1
-18.613477 -23.978316 -32.574945 44.525815 0.910698 2.391458 0.058704 -0.026756 -370967.000000 0 0 1
-18.427977 -25.353676 -33.310135 45.737997 0.942285 2.386607 0.062685 -0.015754 -51594.000000 0 0 1
-17.883277 -25.196726 34.363129 46.211592 0.953559 0.732352 0.061873 -0.020958 28704.000000 0 0 1
-18.734277 -24.675616 33.358195 45.526128 0.921419 0.748477 0.042314 -0.014741 -926092.000000 0 0 1
-17.981877 -24.541016 31.988541 44.146077 0.938442 0.760333 0.034282 -0.009074 -10316.000000 0 0 1
-17.057177 -23.482916 31.963091 43.174458 0.942594 0.737244 0.032982 -0.012113 -339894.000000 0 0 1
-16.704577 -23.248816 30.597101 41.901467 0.947753 0.752159 0.030248 -0.014426 167084.000000 0 0 1
-15.784477 -22.030016 30.317151 40.664493 0.949083 0.729446 0.029687 -0.011420 -104371.000000 0 0 1
-16.472777 -20.805516 30.263231 40.250280 0.901106 0.719893 0.024251 -0.009379 9716.820000 0 0 1
-15.693977 -19.633616 30.018051 39.151797 0.896457 0.697097 0.023996 -0.006353 -134041.000000 0 0 1
-14.969177 -19.008816 31.227151 39.503751 0.903733 0.659195 0.020515 -0.007753 194119.000000 0 0 1
-14.386777 -17.715416 31.063871 38.545809 0.888718 0.633611 0.020003 -0.004851 116912.000000 0 0 1
-13.833277 -17.237116 32.277311 39.119082 0.894516 0.600410 0.023251 -0.004202 -131923.000000 0 0 1
-13.341777 -15.811316 31.981271 38.089401 0.869906 0.574182 0.026877 -0.004795 654917.000000 0 0 1
-12.106077 -15.756616 31.222121 37.008768 0.915675 0.566767 0.031317 -0.008139 914731.000000 0 0 1
-11.770177 -14.404916 30.898771 36.066227 0.885718 0.541914 0.021980 -0.008190 -212556.000000 0 0 1
-10.360677 -14.212816 30.326491 35.057721 0.940893 0.525557 0.041864 -0.009865 -78233.300000 0 0 1
-9.998377 -12.854916 30.381241 34.470802 0.909748 0.492060 0.047992 -0.011173 -266745.000000 0 0 1
-8.694377 -12.640116 30.862761 34.465559 0.968278 0.461318 0.030669 -0.012240 -298501.000000 0 0 1
-8.422177 -11.139816 30.822621 33.838773 0.923439 0.425416 0.023491 -0.008468 -157025.000000 0 0 1
-9.347577 -10.368916 31.573441 34.522077 0.837153 0.416311 0.026352 -0.003843 257408.000000 0 0 1
-9.015177 -8.982316 31.493631 33.967694 0.783572 0.384025 0.027680 -0.002081 135719.000000 0 0 1
-9.781177 -7.976616 32.427211 34.796865 0.684125 0.371179 0.014158 -0.007174 1179310.000000 0 0 1
-11.195077 -7.834316 32.143351 34.927085 0.610592 0.401953 0.029670 -0.012710 1329790.000000 0 0 1
-12.039577 -7.392816 33.196677 36.078034 0.550681 0.402370 0.019775 -0.009143 223423.000000 0 0 1
-11.815877 -5.984616 33.735165 36.242129 0.468826 0.374126 0.010380 -0.004549 -611139.000000 0 0 1
-12.050177 -5.068216 32.703161 35.219176 0.398132 0.380279 0.004973 -0.002833 336316.000000 0 0 1
-12.227877 -3.740316 33.229423 35.604852 0.296846 0.367347 0.001098 -0.007088 -198139.000000 0 0 1
-11.690077 -2.711016 32.162851 34.328654 0.227879 0.357114 -0.004251 -0.004060 876012.000000 0 0 1
-10.263277 -2.659116 32.059861 33.767447 0.253516 0.319378 0.003487 -0.007979 750975.000000 0 0 1
-9.812277 -1.560616 31.290881 32.830406 0.157726 0.307455 -0.002107 -0.006236 -597613.000000 0 0 1
-8.369977 -1.203716 31.607891 32.719478 0.142834 0.261409 0.007384 -0.004833 -549518.000000 0 0 1
-8.173977 -0.720416 32.910081 33.917640 0.087908 0.244353 0.000318 -0.014239 105954.000000 0 0 1
-6.810477 -0.383916 33.107543 33.802949 0.056312 0.203191 0.015269 -0.016218 102558.000000 0 0 1
-6.525177 0.570084 34.323763 34.943149 -0.087146 0.188564 0.030194 -0.017791 -621517.000000 0 0 1
-7.049877 1.850684 34.351190 35.115952 -0.256720 0.209082 0.028145 -0.020090 -250373.000000 0 0 1
-6.536677 2.687484 33.337333 34.078270 -0.390072 0.208909 0.031400 -0.016530 -172598.000000 0 0 1
-7.182777 4.140584 33.222039 34.240920 -0.522931 0.244561 0.030041 -0.012810 585103.000000 0 0 1
-8.484977 4.109984 32.659521 33.993104 -0.451077 0.281035 0.009450 0.001431 388998.000000 0 0 1
-9.195277 5.344084 32.670081 34.357627 -0.526464 0.314721 -0.003636 0.003868 -420390.000000 0 0 1
-10.635377 5.280884 32.197841 34.317633 -0.460875 0.353317 -0.015690 0.016657 -502810.000000 0 0 1
-11.373777 6.398584 32.645631 35.157388 -0.512445 0.380291 -0.009717 0.015229 -32625.300000 0 0 1
-12.570877 6.571984 31.909081 34.920014 -0.481716 0.418311 -0.017046 0.017930 108786.000000 0 0 1
-13.283177 7.860684 32.434211 35.919510 -0.534352 0.444166 -0.008964 0.010396 -271502.000000 0 0 1
-14.159377 7.692784 33.512148 37.185090 -0.497684 0.448207 -0.000340 0.006440 -155047.000000 0 0 1
-14.697977 8.947484 33.780573 37.910620 -0.546833 0.471125 0.005582 0.007808 -252252.000000 0 0 1
-15.420077 9.143284 -33.892655 38.341759 -0.535217 2.655065 0.014124 0.012766 -24966.600000 0 0 1
-14.604277 9.336984 -32.747495 37.052161 -0.568839 2.654765 0.015207 0.005190 -300364.000000 0 0 1
-15.267977 10.052384 -31.748745 36.635289 -0.582255 2.619177 0.011818 0.005072 -779208.000000 0 0 1
-14.451877 10.233084 -30.410715 35.190686 -0.616128 2.614294 0.024104 -0.004602 1577670.000000 0 0 1
-13.381577 11.227884 -30.499595 35.147650 -0.698106 2.621466 0.031262 -0.003629 1254010.000000 0 0 1
-12.268077 10.944384 -31.353505 35.402366 -0.728435 2.658652 0.032556 -0.012133 -61842.600000 0 0 1
-11.464777 12.250984 -31.710365 35.875827 -0.818537 2.654916 0.023111 -0.007373 306424.000000 0 0 1
-12.160177 13.264384 -32.468735 37.121861 -0.828802 2.635515 0.020668 -0.011144 404269.000000 0 0 1
-11.372977 14.465484 -32.626635 37.457872 -0.904518 2.628076 0.008783 -0.009750 137508.000000 0 0 1
-11.645377 15.454384 -31.454855 36.930485 -0.925038 2.590077 0.016599 -0.008813 -227804.000000 0 0 1
-12.908477 16.055084 -31.403815 37.557877 -0.893614 2.561013 0.020826 -0.009910 -371406.000000 0 0 1
-12.932177 17.178984 -30.573175 37.377503 -0.925512 2.528646 0.007714 -0.008116 -594293.000000 0 0 1
-14.286277 17.870984 -30.516615 38.140970 -0.896414 2.498259 -0.003299 -0.014335 -895945.000000 0 0 1
-14.544077 18.443084 -31.777015 39.515266 -0.903050 2.505075 -0.002688 -0.012493 351687.000000 0 0 1
-15.921177 18.805084 -31.871675 40.285466 -0.868255 2.483476 -0.007033 -0.014958 686491.000000 0 0 1
-16.359877 20.090884 -31.106825 40.483623 -0.887400 2.447103 -0.029131 -0.007539 -663108.000000 0 0 1
-15.630277 21.238484 -31.576715 41.139612 -0.936354 2.445807 -0.027610 -0.002461 134667.000000 0 0 1
-15.954777 22.480584 -31.052025 41.523004 -0.953581 2.415579 -0.028530 -0.000647 302588.000000 0 0 1
-17.366277 23.003184 -31.480635 42.682133 -0.924134 2.400246 -0.025456 -0.001626 114330.000000 0 0 1
-18.414477 22.240784 -30.985005 42.353465 -0.879238 2.391435 -0.013131 -0.011214 -772143.000000 0 0 1
-19.526177 22.259784 -31.842495 43.482342 -0.850724 2.392502 0.007481 -0.012824 -455146.000000 0 0 1
-20.808377 21.593084 -31.272305 43.326746 -0.803903 2.377165 0.020988 -0.020828 -202980.000000 0 0 1
-21.475077 22.480684 -30.369275 43.460936 -0.808272 2.344475 0.056845 -0.016579 740861.000000 0 0 1
-22.438477 23.405184 -30.896255 44.786901 -0.806482 2.332079 0.059523 -0.011282 1432640.000000 0 0 1
-23.806477 22.858484 -31.531025 45.644980 -0.765086 2.333375 0.062364 -0.022785 771469.000000 0 0 1
-23.655777 22.080684 -32.644785 45.965578 -0.750973 2.360580 0.066816 -0.013843 717037.000000 0 0 1
-24.909877 21.777684 -33.289795 46.935913 -0.718410 2.359245 0.078450 -0.011707 566314.000000 0 0 1
-24.712377 20.949384 34.447663 47.288685 -0.703174 0.754733 0.070547 0.001426 -37410.800000 0 0 1
-24.312277 19.567984 -34.370578 46.425526 -0.677697 2.404369 0.067366 -0.007520 254338.000000 0 0 1
-24.100077 18.923284 33.406855 45.331251 -0.665649 0.742250 0.051219 -0.015320 -215244.000000 0 0 1
-23.635377 17.461784 33.597804 44.635831 -0.636294 0.718629 0.038907 -0.000262 -74262.100000 0 0 1
-24.624077 16.558284 34.074550 45.184034 -0.591991 0.716471 0.042891 0.000001 481682.000000 0 0 1
-25.082157 15.761484 32.944701 44.304540 -0.561036 0.732363 0.050725 -0.002432 -230339.000000 0 0 1
-25.950647 14.557584 33.333881 44.682289 -0.511228 0.728731 0.030190 0.000253 423257.000000 0 0 1
-27.210887 14.866084 33.952771 45.980686 -0.500020 0.740081 0.037275 -0.003460 467738.000000 0 0 1
-28.159827 13.828784 33.836609 46.142467 -0.456488 0.747623 0.033736 -0.002170 -125085.000000 0 0 1
-27.994657 12.521084 -34.368727 46.061782 -0.420579 2.413048 0.026820 -0.005029 -851656.000000 0 0 1
-26.904297 11.718584 34.325737 45.159967 -0.410786 0.707341 0.019561 -0.007031 -741744.000000 0 0 1
-27.193097 10.392284 -34.416334 45.077136 -0.365039 2.439510 0.029484 -0.006655 -284531.000000 0 0 1
-25.935997 9.461784 -34.195766 43.949422 -0.349810 2.462385 0.019558 -0.011414 533530.000000 0 0 1
-25.195747 9.076784 33.678243 43.028336 -0.345777 0.671806 0.008680 -0.001110 -175897.000000 0 0 1
-24.408677 10.156984 33.263967 42.490462 -0.394327 0.671551 0.000016 -0.000356 -1571690.000000 0 0 1
-23.135677 9.800684 32.502861 41.082222 -0.400699 0.658083 0.007375 0.004513 -466718.000000 0 0 1
-23.278177 9.416884 31.132031 39.996932 -0.384411 0.678746 0.014670 0.009214 684921.000000 0 0 1
-21.972977 9.339184 30.526591 38.754417 -0.401896 0.663741 0.007552 0.018080 1009170.000000 0 0 1
-22.088977 9.332884 28.958951 37.598490 -0.399762 0.691617 0.024225 0.016944 78680.100000 0 0 1
-22.562777 10.546184 28.389861 37.766190 -0.437242 0.720120 0.021923 0.007856 238601.000000 0 0 1
-22.231377 10.661184 26.976481 36.546211 -0.447159 0.740477 0.020050 0.004192 -664782.000000 0 0 1
-22.549377 12.095184 26.425821 36.784398 -0.492331 0.769300 0.026201 0.001334 94439.100000 0 0 1
-23.895277 12.485884 26.505141 37.807460 -0.481505 0.793919 0.034738 -0.002323 -351591.000000 0 0 1
-24.796877 11.882284 25.595271 37.565831 -0.446857 0.821198 0.035965 -0.000980 -420297.000000 0 0 1
-26.226297 12.328584 25.947541 38.898426 -0.439430 0.840542 0.029948 0.000806 -397969.000000 0 0 1
-26.467757 13.634784 25.503821 39.203245 -0.475692 0.862483 0.041519 -0.009770 760506.000000 0 0 1
-27.732927 14.249684 25.861611 40.509155 -0.474641 0.878360 0.035195 -0.011403 1010140.000000 0 0 1
-28.110147 15.471484 25.092441 40.733006 -0.503141 0.907113 0.047983 -0.019825 31589.400000 0 0 1
-27.298907 16.570984 25.481801 40.855233 -0.545565 0.897317 0.045248 -0.020499 79957.000000 0 0 1
-27.605677 17.660984 24.660031 41.013423 -0.569142 0.925710 0.043465 -0.014528 -30007.900000 0 0 1
-22.160677 -9.966416 31.734071 39.968442 0.422633 0.653471 0.003596 -0.024338 452124.000000 0 0 1
-21.190577 -9.392616 30.844251 38.582763 0.417222 0.644449 0.003065 -0.015240 207677.000000 0 0 1
-21.752977 -9.237616 29.532111 37.824214 0.401583 0.674895 0.002538 -0.012250 -388794.000000 0 0 1
-20.874277 -8.520716 28.530331 36.363689 0.387549 0.668773 0.003551 -0.010780 -1119140.000000 0 0 1
-20.628177 -7.133116 28.756941 36.102143 0.332924 0.649239 0.006926 -0.014478 -415852.000000 0 0 1
-19.486077 -6.824416 29.489671 35.998897 0.336871 0.610812 0.011158 -0.009535 -1220980.000000 0 0 1
-18.120277 -7.132216 28.920071 34.865219 0.374981 0.592617 0.020809 -0.004498 -1516050.000000 0 0 1
-17.666777 -8.504516 28.939361 34.956093 0.448645 0.595483 0.015201 -0.004478 161518.000000 0 0 1
-17.012477 -8.978116 30.099421 35.721228 0.485590 0.568666 0.018751 -0.005907 -769405.000000 0 0 1
-15.582277 -8.585216 30.402611 35.225446 0.503580 0.529447 0.027018 -0.004684 -461629.000000 0 0 1
-14.597977 -9.165116 29.517971 34.182026 0.560635 0.528524 0.028381 -0.000841 1089180.000000 0 0 1
-13.297177 -8.942816 30.136511 34.132070 0.592054 0.488712 0.037022 -0.010273 874878.000000 0 0 1
-12.241277 -9.900716 29.590381 33.518110 0.680082 0.488969 0.036074 -0.003958 -344927.000000 0 0 1
-11.723077 -9.554016 28.334591 32.117889 0.683806 0.490270 0.045430 -0.004708 288842.000000 0 0 1
-10.651577 -10.420416 27.934331 31.660196 0.774429 0.490034 0.046074 -0.004588 330758.000000 0 0 1
-10.135977 -10.122916 26.483961 30.109993 0.784753 0.495831 0.043759 -0.007952 -121598.000000 0 0 1
-11.063577 -10.354016 25.457761 29.626103 0.752280 0.536894 0.030409 -0.009512 -389100.000000 0 0 1
-10.495577 -10.220416 24.195971 28.285315 0.772116 0.544425 0.026023 -0.013187 -371255.000000 0 0 1
-11.461977 -10.663816 23.104341 27.908860 0.749340 0.595533 0.023606 -0.013914 -598935.000000 0 0 1
-11.666777 -12.093216 22.959741 28.451877 0.803344 0.631797 0.025077 -0.017258 877857.000000 0 0 1
-12.847177 -12.447416 22.190641 28.502854 0.769595 0.678459 0.014522 -0.009630 1647690.000000 0 0 1
-14.210277 -12.240316 22.947741 29.637074 0.711058 0.685201 0.008135 -0.006774 -132344.000000 0 0 1
-15.324177 -12.888916 22.356941 30.013120 0.699295 0.730403 0.014349 0.005447 -297212.000000 0 0 1
-16.348477 -12.744616 23.312441 31.195638 0.662153 0.726810 0.019162 0.010867 32807.500000 0 0 1
-17.616977 -13.584016 22.965041 31.973059 0.656853 0.769495 0.037776 0.003060 -56985.400000 0 0 1
-17.368677 -14.965616 23.081541 32.533032 0.711215 0.782036 0.036644 -0.000341 872648.000000 0 0 1
-18.507777 -15.832316 22.877541 33.415295 0.707645 0.816683 0.046068 -0.002481 1103290.000000 0 0 1
-19.519277 -15.965116 24.076961 34.865272 0.685570 0.808517 0.034397 0.001124 363325.000000 0 0 1
-19.000277 -16.832716 25.040361 35.656284 0.724981 0.792214 0.037108 0.002628 437443.000000 0 0 1
-19.910177 -16.807316 26.175261 36.932984 0.701092 0.783110 0.031138 0.002604 319914.000000 0 0 1
-19.573377 -17.646716 27.388721 38.008759 0.733680 0.766144 0.030900 0.003362 -367790.000000 0 0 1
-19.489977 -19.033516 27.131171 38.447814 0.773550 0.787439 0.032863 0.003061 190653.000000 0 0 1
-19.247477 -19.627016 28.412491 39.534223 0.795161 0.768893 0.022267 -0.002225 -317131.000000 0 0 1
-19.244577 -21.150416 28.232781 40.184372 0.832543 0.791778 0.028584 0.000794 -229076.000000 0 0 1
-20.448377 -21.703516 27.735491 40.723902 0.815166 0.821585 0.027769 0.000048 53107.800000 0 0 1
-20.314777 -23.101816 27.618641 41.342151 0.849503 0.839211 0.036873 0.003576 -62658.400000 0 0 1
-21.567777 -23.859216 27.169311 42.102288 0.835798 0.869359 0.034684 0.011935 -212412.000000 0 0 1
-22.555877 -24.069116 28.143361 43.360566 0.817842 0.864456 0.034159 0.014049 -440907.000000 0 0 1
-23.564777 -24.896916 27.653841 44.044183 0.812880 0.891988 0.024631 0.017837 -137599.000000 0 0 1
-24.170077 -25.807206 28.766541 45.581997 0.818144 0.887833 0.019253 0.017906 -369407.000000 0 0 1
-24.855377 -25.155416 29.760641 46.219915 0.791398 0.871222 0.021375 0.021715 -141925.000000 0 0 1
-25.573347 -26.090966 30.551591 47.624934 0.795417 0.874339 0.017967 0.020226 490310.000000 0 0 1
-26.618197 -25.433216 31.522001 48.466622 0.762637 0.862704 0.013277 0.017496 635848.000000 0 0 1
-27.750767 -24.862016 30.888781 48.397745 0.730547 0.878602 0.003424 0.019960 212814.000000 0 0 1
-28.816377 -24.655016 31.800891 49.492930 0.707731 0.872996 0.009647 0.007441 -720259.000000 0 0 1
-30.012647 -24.013416 31.133881 49.464348 0.674808 0.889989 0.007741 0.006189 -873547.000000 0 0 1
-30.455697 -24.937516 30.193751 49.609392 0.686107 0.916464 0.000920 0.003007 572402.000000 0 0 1
-31.719007 -24.673316 29.582291 49.899698 0.661102 0.936222 -0.007286 0.002269 691823.000000 0 0 1
-33.029847 -25.288626 30.096741 51.344905 0.653429 0.944475 -0.012799 0.000335 -112519.000000 0 0 1
-32.996987 -26.690756 30.075521 52.016676 0.680135 0.954288 -0.003753 -0.005361 314116.000000 0 0 1
-34.034367 -27.338406 30.830351 53.443776 0.676725 0.955899 0.003095 -0.004743 75328.700000 0 0 1
-33.778717 -28.833586 31.171321 54.258904 0.706582 0.958813 0.010072 -0.006868 352674.000000 0 0 1
-32.727657 -29.007896 32.128911 54.266237 0.725218 0.937183 0.009830 -0.002031 222249.000000 0 0 1
-32.439637 -30.321046 32.377841 54.954713 0.751654 0.940761 0.016321 -0.012228 495974.000000 0 0 1
-31.372237 -30.549906 33.515146 55.143259 0.772119 0.917530 0.015980 -0.007441 453722.000000 0 0 1
-31.885897 -30.123436 -34.232571 55.641718 0.756983 2.233477 0.005390 -0.001792 204127.000000 0 0 1
-30.910017 -30.196236 -33.210245 54.499195 0.773718 2.226064 0.002164 -0.001020 218584.000000 0 0 1
-31.538317 -29.768426 -31.827885 53.794414 0.756537 2.203910 0.002100 -0.000240 316153.000000 0 0 1
-31.742657 -28.347246 -31.649185 53.036154 0.728953 2.210238 0.011380 -0.003094 -246600.000000 0 0 1
-30.544747 -27.646956 -31.423795 51.814966 0.735642 2.222399 0.010209 0.009449 -408533.000000 0 0 1
-30.781007 -26.180366 -31.175985 51.037477 0.704805 2.227924 0.011258 0.008675 -268006.000000 0 0 1
-31.393147 -25.854106 -29.916505 50.487244 0.688942 2.205024 0.004696 -0.003936 129056.000000 0 0 1
-31.406457 -24.477116 -29.621955 49.628167 0.662032 2.210400 0.015362 -0.004576 -40420.800000 0 0 1
-29.991387 -23.917416 -29.367275 48.311106 0.673200 2.224182 0.023845 -0.003511 -366688.000000 0 0 1
-30.035847 -22.557216 -29.008745 47.460377 0.644147 2.228398 0.022221 0.000937 160092.000000 0 0 1
-28.835447 -22.099716 -28.408665 46.118681 0.653920 2.234439 0.029470 -0.005103 141796.000000 0 0 1
-28.531797 -20.551616 -28.585405 45.316198 0.624224 2.253379 0.031037 -0.012785 -113725.000000 0 0 1
-28.160717 -20.180116 -29.894875 45.759880 0.621784 2.282730 0.040934 -0.005889 323507.000000 0 0 1
-27.812337 -18.809416 -29.972845 45.007685 0.594641 2.299562 0.035249 -0.008068 -301763.000000 0 0 1
-27.291547 -18.350616 -31.367945 45.448010 0.591956 2.332553 0.042840 -0.008018 -174409.000000 0 0 1
-28.224237 -18.233616 -32.409165 46.684326 0.573577 2.338131 0.036260 -0.007445 686058.000000 0 0 1
-29.275817 -17.240916 -32.200545 46.810232 0.532228 2.329382 0.028290 -0.003831 -65606.600000 0 0 1
-29.716607 -16.569716 -33.516435 47.759645 0.508653 2.348680 0.030918 -0.008738 36789.800000 0 0 1
-30.542587 -17.396016 -34.339653 49.139422 0.517741 2.344544 0.031797 -0.013380 1223820.000000 0 0 1
-31.931517 -17.210716 -33.989855 49.710570 0.494350 2.323693 0.022958 -0.005163 287509.000000 0 0 1
-32.893077 -17.674616 33.949481 50.466958 0.493068 0.832935 0.018228 -0.009722 -585285.000000 0 0 1
-33.218237 -19.022316 34.009159 51.204714 0.520064 0.844400 0.010754 -0.005286 322333.000000 0 0 1
-34.021807 -19.554916 32.960031 51.246871 0.521666 0.872176 0.007641 -0.002525 89892.000000 0 0 1
-34.597792 -20.996916 33.119573 52.295161 0.545467 0.884961 0.005319 -0.005809 247947.000000 0 0 1
-33.676087 -22.064916 32.892781 51.989176 0.580029 0.885781 0.007384 -0.008536 316529.000000 0 0 1
-34.128118 -23.138716 33.699471 53.252070 0.595805 0.885594 0.004884 -0.006952 -1281260.000000 0 0 1
-32.994707 -24.047116 34.110329 53.201777 0.629806 0.874800 0.004267 -0.001866 -119960.000000 0 0 1
-32.103337 -23.558416 -33.908995 52.301465 0.633072 2.276195 0.000456 -0.002221 619073.000000 0 0 1
-31.219647 -22.467816 -34.299333 51.535555 0.623805 2.299023 0.007798 0.002583 -995133.000000 0 0 1
-29.938267 -22.529916 -33.471915 50.242075 0.645128 2.299915 0.007797 0.005755 -620853.000000 0 0 1
-29.174417 -23.705716 -33.881125 50.606702 0.682348 2.304330 0.005322 0.008856 417465.000000 0 0 1
-27.855587 -23.603116 -33.373575 49.465507 0.702947 2.311333 0.008958 0.004750 140157.000000 0 0 1
-27.598227 -24.171216 -31.925885 48.633034 0.719297 2.286919 0.020312 0.006290 -838979.000000 0 0 1
-27.487047 -25.587716 -31.755615 49.180159 0.749627 2.272736 0.007989 0.006297 -67965.200000 0 0 1
-27.045667 -25.886546 -30.457005 48.261896 0.763503 2.253738 0.014804 0.001146 -324813.000000 0 0 1
-26.680967 -27.364846 -30.276815 48.758531 0.798051 2.240756 0.013259 0.003901 102470.000000 0 0 1
-27.767277 -28.263166 -30.096695 49.755797 0.794248 2.220422 0.017948 0.008263 85328.800000 0 0 1
-27.322767 -29.513916 -29.542945 49.903812 0.823931 2.204332 0.020572 0.003329 -176845.000000 0 0 1
-27.983437 -30.752056 -30.147075 51.357647 0.832500 2.198148 0.016602 0.016103 -245085.000000 0 0 1
-27.558797 -31.013136 -31.444895 52.058461 0.844306 2.219345 0.018002 -0.000799 198837.000000 0 0 1
-28.032487 -32.283646 -31.900965 53.345344 0.855763 2.211810 0.031169 0.000548 -11154.900000 0 0 1
-27.489067 -32.670046 -33.329305 54.164779 0.871307 2.233603 0.017627 -0.006130 -511299.000000 0 0 1
-26.134677 -32.958316 -33.413815 53.719224 0.900362 2.242102 0.025179 -0.011409 -1162360.000000 0 0 1
-25.691207 -33.112556 34.283935 54.146724 0.910940 0.885158 0.040759 -0.020294 85533.600000 0 0 1
-24.188677 -33.463426 34.226484 53.631569 0.944906 0.878667 0.048787 -0.019508 27335.400000 0 0 1
-23.920377 -33.994112 32.986126 53.064759 0.957617 0.899987 0.044168 -0.015672 -286595.000000 0 0 1
-22.929077 34.104649 32.892951 52.638540 -0.978893 0.895814 0.037583 -0.002776 -327251.000000 0 0 1
-22.884777 33.297492 31.559821 51.268492 -0.968657 0.907676 0.038335 -0.006797 -163420.000000 0 0 1
-24.049077 32.494410 31.418841 51.199496 -0.933662 0.910115 0.035106 -0.030544 -83934.600000 0 0 1
-24.038977 31.682870 30.280961 49.986131 -0.921727 0.920041 0.023711 -0.017304 -982601.000000 0 0 1
-25.377877 31.078010 29.964321 50.077339 -0.886023 0.929343 0.023907 -0.013784 -1029240.000000 0 0 1
-26.024937 30.393750 31.008671 50.622279 -0.862680 0.911514 0.032112 -0.016432 -243244.000000 0 0 1
-27.192817 29.795380 30.500221 50.571509 -0.831035 0.923401 0.030016 -0.015308 -62444.800000 0 0 1
-27.675137 28.627490 31.374651 50.693344 -0.802311 0.903441 0.039512 -0.024621 42903.800000 0 0 1
-26.877717 27.487610 31.129721 49.467564 -0.796616 0.890150 0.031115 -0.017341 142208.000000 0 0 1
-27.408107 26.329050 31.671951 49.472575 -0.765321 0.876048 0.023667 -0.011581 345842.000000 0 0 1
-28.352247 25.434900 30.799671 48.983710 -0.731213 0.890821 0.020839 -0.003466 454991.000000 0 0 1
-27.658257 24.734760 29.807841 47.595115 -0.729657 0.894025 0.014731 0.006229 -96786.400000 0 0 1
-28.577237 24.174540 28.880181 47.277180 -0.702131 0.913638 0.025584 0.010423 359159.000000 0 0 1
-27.914177 23.948800 27.479751 45.911687 -0.709088 0.929125 0.026448 0.004846 609113.000000 0 0 1
-26.816737 23.026400 27.588531 44.838371 -0.709499 0.908045 0.025832 0.002764 366590.000000 0 0 1
-26.125387 22.952700 26.357371 43.635689 -0.720842 0.922245 0.015041 0.001916 -586521.000000 0 0 1
-24.803377 22.221300 26.455761 42.531177 -0.730544 0.899461 0.007676 0.000019 -694022.000000 0 0 1
-25.019277 20.871600 26.858521 42.225207 -0.695262 0.881392 0.034962 -0.007045 1514460.000000 0 0 1
-23.684477 20.401500 27.161651 41.411725 -0.711068 0.855432 0.031419 0.007060 1177160.000000 0 0 1
-23.790677 19.123400 28.073071 41.470448 -0.677065 0.827197 0.053385 -0.008233 96117.100000 0 0 1
-22.543377 18.527000 28.358861 40.690031 -0.687916 0.799663 0.038361 -0.002705 32306.700000 0 0 1
-22.689377 17.435900 29.202061 40.884946 -0.655212 0.775245 0.041151 -0.007022 379401.000000 0 0 1
-21.492877 16.418400 29.286121 39.864577 -0.652338 0.745660 0.050410 -0.008306 828877.000000 0 0 1
-20.346777 16.879900 29.997421 39.984593 -0.692537 0.722395 0.060846 -0.000650 481844.000000 0 0 1
-19.283777 15.951700 30.113961 39.155733 -0.691113 0.693393 0.043105 -0.010452 926319.000000 0 0 1
-18.161077 16.429400 31.114741 39.596427 -0.735378 0.666813 0.024656 -0.008015 318126.000000 0 0 1
-18.496377 16.125900 32.482901 40.709943 -0.717038 0.646975 0.008667 0.002422 610193.000000 0 0 1
-17.451477 16.616900 33.316711 41.117863 -0.760906 0.626178 0.004045 -0.003153 -221724.000000 0 0 1
-17.696977 16.507200 -34.145481 41.851936 -0.750628 2.525018 -0.000935 -0.014164 -134277.000000 0 0 1
-18.643377 17.252600 -33.440955 41.994347 -0.746673 2.491984 0.006686 -0.015467 207773.000000 0 0 1
-20.013177 16.958900 -33.684015 42.693611 -0.702975 2.479929 0.017848 -0.012019 -340.970000 0 0 1
-20.968077 17.800900 -32.845455 42.841058 -0.703886 2.444453 0.027573 -0.019802 -246492.000000 0 0 1
-20.930677 17.461600 -31.467935 41.632099 -0.695284 2.427759 0.025582 -0.021657 48368.300000 0 0 1
-21.981177 18.140300 -30.825885 41.981875 -0.689958 2.395382 0.021636 -0.025727 -351812.000000 0 0 1
-22.083877 17.912900 -29.310305 40.837037 -0.681491 2.371345 0.029350 -0.034570 -101023.000000 0 0 1
-22.625977 16.716500 -28.792845 40.254244 -0.636307 2.367814 0.028716 -0.034766 583372.000000 0 0 1
-24.011177 16.477200 -29.072375 41.148970 -0.601425 2.355358 0.039626 -0.031314 637404.000000 0 0 1
-24.763677 15.523900 -28.104075 40.547136 -0.559951 2.336606 0.038558 -0.021005 130081.000000 0 0 1
-24.304477 14.180400 -28.160405 39.809544 -0.528160 2.356578 0.008352 -0.006026 104432.000000 0 0 1
-25.198277 13.242100 -27.572815 39.630374 -0.483851 2.340259 0.001621 -0.007521 193622.000000 0 0 1
-24.673777 11.811800 -27.760395 38.973753 -0.446478 2.363544 0.006116 -0.004072 -699268.000000 0 0 1
-23.510377 11.585200 -27.073595 37.682015 -0.457847 2.372404 0.006112 -0.007906 -916851.000000 0 0 1
-22.816577 10.484700 -27.652155 37.351932 -0.430743 2.404334 -0.010725 0.003136 78025.500000 0 0 1
-21.806377 9.798000 -26.711205 35.847000 -0.422287 2.411548 0.010927 -0.005101 178989.000000 0 0 1
-22.394377 8.953400 -25.729455 35.265796 -0.380339 2.388514 0.013910 -0.001430 12376.600000 0 0 1
-21.408877 8.465300 -24.873155 33.892111 -0.376544 2.394831 0.030371 0.007638 -327839.000000 0 0 1
-22.065277 7.483800 -23.865555 33.353387 -0.326991 2.368188 0.031233 0.014328 280274.000000 0 0 1
-22.689677 6.383700 -24.570955 34.048567 -0.274258 2.376971 0.028203 -0.000533 444807.000000 0 0 1
-22.902177 5.335700 -23.584955 33.305098 -0.228895 2.357669 0.043710 0.008124 -399886.000000 0 0 1
33.853751 24.886784 -10.851455 43.395651 0.633914 1.823537 0.001655 0.008899 -48161.500000 0 0 1
34.650232 24.233184 -9.911655 43.429560 0.610300 1.801049 0.016916 -0.002158 279430.000000 0 0 1
-35.053575 23.410784 -10.548055 43.452036 -0.588826 1.815998 0.022730 -0.006350 247054.000000 0 0 1
-34.094539 22.724384 -9.566955 42.075668 -0.587895 1.800178 0.023489 -0.010055 -115324.000000 0 0 1
-34.648336 21.738884 -8.742655 41.827267 -0.560334 1.781367 0.005714 -0.014572 268168.000000 0 0 1
-33.610857 21.336084 -7.831155 40.573947 -0.565614 1.765025 0.015657 -0.009377 171465.000000 0 0 1
-34.037487 20.506284 -6.646855 40.289439 -0.542228 1.736532 -0.000900 -0.000515 -246110.000000 0 0 1
-34.524635 19.236784 -7.039555 40.144235 -0.508347 1.747064 0.002204 -0.005586 250024.000000 0 0 1
-34.690172 18.324584 -5.987655 39.686905 -0.485980 1.722247 0.002538 -0.019501 -213387.000000 0 0 1
35.193094 17.086484 -6.398855 39.641482 0.451986 1.732924 0.013401 -0.010157 387647.000000 0 0 1
33.847381 17.431084 -6.720255 38.660699 0.475568 1.745510 0.020780 -0.005346 297806.000000 0 0 1
33.276741 16.421784 -7.515155 37.861511 0.458427 1.770614 0.030840 0.002001 233357.000000 0 0 1
31.984471 16.803984 -8.285555 37.067919 0.483744 1.796224 0.035006 -0.001568 240533.000000 0 0 1
31.673291 15.723184 -9.165555 36.529758 0.460778 1.824413 0.029772 -0.004458 413910.000000 0 0 1
30.945131 16.260584 -10.319455 36.448578 0.483811 1.857846 0.024467 -0.001317 -29455.400000 0 0 1
30.309421 15.120484 -11.126055 35.652196 0.462744 1.888170 0.010420 0.007434 -10352.000000 0 0 1
29.161271 14.432584 -10.627355 34.228933 0.459578 1.886493 0.002674 0.011490 535937.000000 0 0 1
29.175161 13.821284 -9.297455 33.595544 0.442415 1.851203 0.016481 0.010099 -575149.000000 0 0 1
28.022881 12.800684 -9.123955 32.130763 0.428489 1.858721 0.018619 0.015019 -80974.700000 0 0 1
28.217021 11.619784 -9.919755 32.087711 0.390638 1.885090 0.016640 0.011867 255073.000000 0 0 1
27.298001 10.605384 -9.607955 30.821548 0.370557 1.887808 0.008705 0.011998 -608403.000000 0 0 1
27.787671 9.261784 -10.162055 31.003268 0.321726 1.904742 0.019064 0.010561 -917483.000000 0 0 1
28.940141 8.765484 -9.591355 31.723170 0.294100 1.877949 0.034022 0.006121 -404004.000000 0 0 1
28.945861 7.333984 -9.608055 31.368215 0.248147 1.882099 0.039044 0.001790 -1129330.000000 0 0 1
29.955751 6.758884 -8.668855 31.908910 0.221913 1.845929 0.061360 -0.001226 240826.000000 0 0 1
31.299131 7.010584 -9.135255 33.350214 0.220350 1.848262 0.061920 -0.004359 762845.000000 0 0 1
32.247751 6.540284 -8.194355 33.909294 0.200100 1.814868 0.065970 -0.005329 32788.200000 0 0 1
33.688741 6.873684 -8.635155 35.450595 0.201272 1.816855 0.054897 -0.005966 -26642.000000 0 0 1
34.088611 6.196884 -9.834955 36.016123 0.179824 1.847380 0.053542 -0.009525 1033970.000000 0 0 1
-35.200344 6.311184 -10.030655 37.141746 -0.177408 1.844256 0.046107 -0.006035 -65013.800000 0 0 1
-34.622432 5.658284 -11.262055 36.845120 -0.161996 1.881427 0.047837 -0.015509 -636225.000000 0 0 1
-33.257897 5.752684 -11.544055 35.671365 -0.171277 1.900352 0.037287 -0.011042 75912.800000 0 0 1
-32.818157 7.018084 -12.054055 35.659293 -0.210674 1.915624 0.020401 -0.007395 -518689.000000 0 0 1
-32.236887 8.019584 -11.040855 35.006158 -0.243821 1.891672 0.020980 -0.005168 -844457.000000 0 0 1
-33.175567 8.671984 -10.217855 35.780248 -0.255676 1.860400 0.025743 -0.001011 101861.000000 0 0 1
-33.711767 9.845684 -10.809455 36.745953 -0.284152 1.869380 0.029162 -0.000150 50253.000000 0 0 1
-34.482377 10.770084 -9.852255 37.444572 -0.302735 1.837047 0.030686 0.002605 -43652.400000 0 0 1
-33.671717 11.473784 -8.931055 36.676914 -0.328415 1.816776 0.031464 -0.002238 49252.500000 0 0 1
-34.400804 12.366784 -8.080755 37.438634 -0.345105 1.788348 0.036007 -0.004964 -652668.000000 0 0 1
-33.560527 13.331284 -7.248055 36.831595 -0.378117 1.768878 0.031537 -0.006735 -488581.000000 0 0 1
-32.917187 14.312384 -7.990355 36.772698 -0.410142 1.789834 0.023693 -0.007133 199314.000000 0 0 1
-31.898467 14.968784 -7.232355 35.970594 -0.438757 1.773239 0.014971 -0.014412 369802.000000 0 0 1
-30.980457 15.938984 -8.002255 35.747392 -0.475168 1.796565 0.001925 -0.009703 -253352.000000 0 0 1
-31.668407 17.033384 -8.543055 36.959545 -0.493480 1.804052 0.007160 -0.005910 -365188.000000 0 0 1
-30.873557 17.996484 -9.188555 36.898232 -0.527758 1.822469 0.006310 -0.007723 -240382.000000 0 0 1
-31.686587 18.942484 -10.073155 38.266512 -0.538806 1.837172 -0.002914 -0.016708 165790.000000 0 0 1
-31.343397 18.700884 -11.422355 38.243977 -0.537949 1.874096 -0.004205 -0.015414 56387.900000 0 0 1
-32.341417 19.312584 -12.226555 39.603432 -0.538319 1.884648 -0.006781 -0.020509 -117754.000000 0 0 1
-32.028357 19.547884 -13.701455 39.945780 -0.547981 1.920907 -0.002884 -0.008637 -625586.000000 0 0 1
-31.083527 20.547684 -13.962055 39.791104 -0.584102 1.929311 -0.005940 -0.013583 -66777.900000 0 0 1
-30.997007 20.808784 -15.343655 40.363941 -0.591214 1.960736 -0.012687 -0.007082 -611100.000000 0 0 1
-30.106827 22.036984 -15.552555 40.421921 -0.631855 1.965739 -0.001425 -0.015512 -1114610.000000 0 0 1
-28.798897 21.809584 -15.114655 39.159765 -0.648161 1.967060 -0.003060 -0.011713 95266.900000 0 0 1
-28.009217 23.034884 -15.154555 39.303723 -0.688253 1.966628 0.017220 -0.010774 397091.000000 0 0 1
-27.595457 23.667184 -16.523455 39.933312 -0.708917 1.997394 -0.003135 -0.002803 -502236.000000 0 0 1
-28.674937 24.355784 -17.184055 41.361189 -0.704131 1.999248 0.002271 0.002500 681912.000000 0 0 1
-28.280737 25.060184 -18.338855 42.001506 -0.725095 2.022639 -0.009505 0.005034 -363151.000000 0 0 1
-27.480067 26.357084 -18.177155 42.193115 -0.764542 2.016185 -0.007182 0.001792 -66257.200000 0 0 1
-28.301377 27.355284 -17.702855 43.158668 -0.768401 1.993449 -0.010805 0.002799 141617.000000 0 0 1
-27.619127 28.584884 -17.863555 43.577728 -0.802580 1.993167 0.000552 0.002587 281918.000000 0 0 1
-28.288507 29.779184 -17.085855 44.485569 -0.811064 1.965004 0.000414 -0.001776 -386828.000000 0 0 1
-28.194067 29.797184 -15.678955 43.915911 -0.813035 1.935874 0.003885 -0.002146 -63053.300000 0 0 1
-26.919767 29.835984 -15.085855 42.923686 -0.836735 1.929924 0.010618 -0.004015 -370551.000000 0 0 1
-26.890027 30.472984 -13.670255 42.878342 -0.847778 1.895275 0.015657 -0.004906 -29857.700000 0 0 1
-26.987037 31.866684 -13.801055 43.980164 -0.868120 1.889991 0.026024 -0.000467 139958.000000 0 0 1
-27.651777 32.524684 -12.745055 44.552354 -0.866199 1.860918 0.018216 -0.008111 130837.000000 0 0 1
-27.088927 33.957884 -12.624355 45.236293 -0.897446 1.853628 0.003101 -0.006831 251607.000000 0 0 1
-27.421617 -34.323133 -13.767855 46.038857 0.896711 1.874492 -0.003042 -0.008922 104824.000000 0 0 1
-26.459867 -33.292133 -13.926855 44.748720 0.899247 1.887277 0.009820 -0.013418 61750.200000 0 0 1
-26.470557 -32.564933 -15.302555 44.669155 0.888266 1.920453 0.005008 -0.013559 -42846.900000 0 0 1
-26.087017 -33.372133 -16.377555 45.414271 0.907314 1.939735 0.000760 -0.015667 -60459.900000 0 0 1
-26.255977 -32.585833 -17.543055 45.375893 0.892560 1.967756 -0.003582 0.003769 106287.000000 0 0 1
-25.477137 -33.186533 -18.752155 45.848378 0.916066 1.992158 -0.000373 0.003948 -375431.000000 0 0 1
-25.864067 -34.470233 -19.205355 47.180426 0.927084 1.990031 0.005369 0.005941 -255257.000000 0 0 1
-25.664797 33.498184 -18.398955 46.036200 -0.917036 1.981945 -0.005850 -0.015681 -491534.000000 0 0 1
-25.871077 32.118684 -19.147555 45.470335 -0.892721 2.005454 0.004980 -0.030462 126740.000000 0 0 1
-27.240347 31.829084 -19.360955 46.151638 -0.862926 2.003699 0.002691 -0.016946 223596.000000 0 0 1
-27.880677 32.440684 -20.484455 47.427239 -0.860850 2.017409 0.013824 -0.013227 -252709.000000 0 0 1
-29.388107 32.166284 -20.579355 48.185480 -0.830501 2.012064 0.007883 -0.013132 -220861.000000 0 0 1
-29.695447 30.824784 -20.723155 47.554559 -0.804056 2.021697 -0.004801 -0.014313 234572.000000 0 0 1
-31.086177 30.688884 -20.956155 48.449133 -0.778967 2.018104 -0.001078 -0.009533 -85475.700000 0 0 1
-31.332687 29.232084 -21.412755 47.903633 -0.750728 2.034201 -0.014485 -0.004908 218296.000000 0 0 1
-32.709417 29.037884 -21.739055 48.843538 -0.726007 2.032055 -0.004137 0.000264 583807.000000 0 0 1
-32.886737 27.711984 -22.121755 48.361799 -0.700211 2.045890 -0.009170 0.007800 545179.000000 0 0 1
-34.397435 27.306584 -22.127155 49.177679 -0.670983 2.037498 -0.004276 0.020318 704166.000000 0 0 1
-35.172208 27.824484 -23.172655 50.480274 -0.669286 2.047715 0.000843 0.023386 -134829.000000 0 0 1
34.808559 26.809484 -23.891955 50.012095 0.656303 2.068858 -0.000126 0.023572 253960.000000 0 0 1
33.955131 27.386384 -25.015055 50.286359 0.678720 2.091456 0.011326 0.009517 -359783.000000 0 0 1
34.652414 27.634984 -26.226005 51.500344 0.673209 2.105097 0.012263 0.010793 -10590.700000 0 0 1
33.839071 28.105084 -27.351145 51.798297 0.693094 2.127078 0.022751 0.010961 31142.300000 0 0 1
34.560121 28.164384 -28.677585 53.009795 0.683784 2.142406 0.016535 0.013165 -87654.500000 0 0 1
34.891037 26.927684 -29.252325 52.897855 0.657286 2.156753 0.017343 0.013172 78888.500000 0 0 1
-35.148220 27.082884 -30.508645 53.848467 -0.656514 2.173127 -0.002028 0.013776 -563695.000000 0 0 1
-34.694446 25.697984 -31.158895 53.244415 -0.637519 2.195929 -0.007783 0.011967 65372.300000 0 0 1
-33.667427 25.014684 -30.493995 51.856666 -0.639002 2.199435 0.009525 0.012102 -172735.000000 0 0 1
-32.396507 25.592684 -30.752915 51.480685 -0.668603 2.211012 -0.000282 0.011705 -219765.000000 0 0 1
-31.287717 24.975084 -29.852805 49.938623 -0.673666 2.211538 0.001489 0.012380 -147988.000000 0 0 1
-30.994047 23.630784 -30.141425 49.270178 -0.651409 2.229077 0.010485 0.007699 174233.000000 0 0 1
-31.440837 22.806884 -29.104605 48.536154 -0.627564 2.213857 0.008972 0.007791 -117580.000000 0 0 1
-31.017707 21.369684 -29.408625 47.787329 -0.603272 2.233698 0.019280 -0.005463 -7608.780000 0 0 1
-29.652717 21.038984 -29.293425 46.690762 -0.617082 2.248996 0.049733 -0.009980 -121410.000000 0 0 1
-29.434567 19.652684 -29.461945 46.050276 -0.588699 2.265005 0.041957 -0.012666 471690.000000 0 0 1
-27.939827 19.232484 -29.699365 45.084084 -0.602867 2.289959 0.064919 -0.018930 385327.000000 0 0 1
-27.437497 19.725584 -30.893835 45.785849 -0.623317 2.311417 0.064330 -0.016527 -444145.000000 0 0 1
-26.185137 19.185484 -31.227495 45.043320 -0.632328 2.336823 0.062860 -0.026089 -407397.000000 0 0 1
-26.144237 17.830184 -32.050305 45.040633 -0.598538 2.362550 0.059143 -0.014180 -294438.000000 0 0 1
-26.391267 16.742084 -31.208745 44.167659 -0.565316 2.355474 0.038451 -0.010800 -32897.000000 0 0 1
-26.426057 15.599384 -32.018555 44.349353 -0.533259 2.377430 0.019636 -0.001572 -154811.000000 0 0 1
-27.040657 14.361884 -31.355175 43.824740 -0.488234 2.368089 0.015927 -0.001627 105846.000000 0 0 1
-28.406977 14.573684 -31.002315 44.502721 -0.474019 2.341498 0.012465 -0.003601 410634.000000 0 0 1
-29.121707 13.349584 -30.791745 44.434410 -0.429823 2.336398 0.010367 -0.004075 73788.500000 0 0 1
-28.708297 12.381884 -29.622645 43.069461 -0.407195 2.329233 -0.005590 -0.010598 -259256.000000 0 0 1
-29.218197 12.856284 -28.355925 42.697138 -0.414515 2.297109 -0.011293 -0.008528 345089.000000 0 0 1
-29.298867 11.846884 -27.389565 41.820576 -0.384247 2.284887 -0.001576 -0.003250 1745.350000 0 0 1
-29.312597 12.462584 -25.951975 41.085878 -0.402007 2.254479 -0.011826 -0.008543 327932.000000 0 0 1
-28.070957 13.009084 -25.511245 40.100356 -0.433971 2.260340 0.001051 -0.016395 152010.000000 0 0 1
-28.101947 13.843184 -24.329255 39.664415 -0.457715 2.231126 -0.002473 -0.009219 76943.400000 0 0 1
-26.657147 14.098684 -23.842155 38.442486 -0.486491 2.239798 0.004973 -0.004625 -410.284000 0 0 1
-25.845217 14.937784 -24.679255 38.732135 -0.524064 2.261627 0.015793 -0.015662 1054450.000000 0 0 1
-24.430577 14.964484 -24.446355 37.661826 -0.549582 2.277199 0.027793 -0.020102 1058300.000000 0 0 1
-24.029977 15.636284 -23.114955 36.827087 -0.576866 2.249342 0.028677 -0.015059 -990005.000000 0 0 1
-24.437877 17.004584 -23.105555 37.685971 -0.607921 2.230785 0.040111 -0.019370 219276.000000 0 0 1
-24.444877 17.493384 -21.787255 37.124857 -0.621136 2.197977 0.036093 -0.013042 -308707.000000 0 0 1
-25.904817 17.773084 -21.392155 38.007451 -0.601331 2.168615 0.032173 -0.010905 -196217.000000 0 0 1
-26.612497 16.554784 -21.230455 37.855226 -0.556488 2.166188 0.034723 -0.009826 -1380360.000000 0 0 1
-27.799117 16.812884 -20.631955 38.485602 -0.543941 2.136601 0.016102 -0.000785 -2595240.000000 0 0 1
-28.748917 15.632084 -20.581755 38.658388 -0.498028 2.132231 -0.015322 -0.004280 -235816.000000 0 0 1
-29.386967 15.459884 -21.848355 39.748616 -0.484293 2.152757 -0.016661 -0.001812 791977.000000 0 0 1
-30.431177 16.389184 -22.219355 41.089678 -0.494022 2.142128 -0.029997 0.000524 51311.400000 0 0 1
-30.913147 16.307384 -23.725755 42.242927 -0.485422 2.167175 -0.020253 -0.001038 8149.780000 0 0 1
-31.879857 15.309184 -24.069555 42.778966 -0.447695 2.168383 -0.012870 -0.002706 294831.000000 0 0 1
-32.189147 15.509184 -25.422275 43.851660 -0.448993 2.189198 -0.000339 -0.011354 -974765.000000 0 0 1
-33.383367 14.696784 -25.797235 44.675967 -0.414710 2.186373 -0.011340 -0.008279 -806812.000000 0 0 1
-33.077807 13.280984 -25.907925 44.065252 -0.381805 2.199312 -0.003269 -0.005074 217092.000000 0 0 1
-33.187257 12.626884 -24.647255 43.224061 -0.363561 2.177571 -0.011714 -0.005207 -297658.000000 0 0 1
-33.302957 11.093784 -24.790555 42.973604 -0.321556 2.185699 -0.000125 -0.007028 -410688.000000 0 0 1
-34.466615 10.616084 -25.399125 44.110819 -0.298790 2.184382 0.009424 -0.008545 -84491.200000 0 0 1
-34.167887 9.344084 -25.962525 43.918210 -0.266948 2.203288 0.006071 -0.004503 -233922.000000 0 0 1
35.238693 8.779384 -26.494705 44.953447 0.244170 2.201089 0.010251 0.001139 -794432.000000 0 0 1
34.300461 8.332784 -25.587305 43.596641 0.238318 2.198033 0.002918 0.004792 -43740.900000 0 0 1
33.241271 7.727484 -26.384205 43.137250 0.228410 2.228921 0.000975 0.011900 962982.000000 0 0 1
32.273011 6.893984 -25.487735 41.697708 0.210452 2.228436 0.002504 0.008322 -151078.000000 0 0 1
32.960281 5.775284 -25.069145 41.811434 0.173459 2.213768 0.005500 0.002614 -118099.000000 0 0 1
32.217121 4.929184 -24.239155 40.617439 0.151822 2.210263 0.007630 0.008627 -47747.100000 0 0 1
33.148341 4.221684 -23.213555 40.687888 0.126675 2.177944 -0.005852 0.014130 292913.000000 0 0 1
34.020591 3.269684 -23.815755 41.656711 0.095815 2.179391 -0.011952 0.008234 -136797.000000 0 0 1
34.664714 2.587184 -22.801355 41.572078 0.074496 2.151339 -0.007447 0.011990 -375715.000000 0 0 1
-35.166456 1.461284 -23.419355 42.276248 -0.041529 2.157910 0.010161 0.008330 212493.000000 0 0 1
34.728628 0.401384 -23.930655 42.177185 0.011557 2.174122 -0.004647 0.016210 564881.000000 0 0 1
-35.182068 -0.712216 -24.336255 42.784793 0.020241 2.175850 0.008447 0.003154 222368.000000 0 0 1
-22.354177 29.859484 27.873221 46.564090 -0.928162 0.929045 0.014863 -0.009335 -631277.000000 0 0 1
-23.418177 30.368884 27.089951 46.952589 -0.913912 0.955790 -0.000690 -0.015823 493173.000000 0 0 1
-23.709277 29.657484 25.915551 45.970773 -0.896399 0.971890 -0.007419 -0.012052 -399754.000000 0 0 1
-24.018177 28.146584 25.884081 45.156269 -0.864375 0.960377 -0.010895 -0.007391 768637.000000 0 0 1
-25.350367 27.775784 26.343211 45.914051 -0.831020 0.959719 -0.010521 0.002151 1282890.000000 0 0 1
-25.449327 27.556384 27.779861 46.677010 -0.825129 0.933343 -0.006899 0.001677 -786294.000000 0 0 1
-24.847777 26.184084 28.299751 45.868226 -0.811578 0.905898 -0.001595 0.006372 35279.500000 0 0 1
-23.518677 26.214184 28.743581 45.458828 -0.839545 0.886279 0.009642 0.008116 -488260.000000 0 0 1
-23.429777 26.863184 30.034101 46.611504 -0.853561 0.870624 0.012064 0.005111 -443292.000000 0 0 1
-22.116177 26.613784 30.793391 46.321180 -0.877434 0.843597 0.032380 0.011942 -611884.000000 0 0 1
-21.006277 27.215984 30.163351 45.736213 -0.913466 0.850634 0.031959 0.007017 -107368.000000 0 0 1
-19.812877 26.771984 30.788091 45.356320 -0.933687 0.824662 0.042361 0.015867 348471.000000 0 0 1
-19.151577 25.412784 30.429311 44.028803 -0.924983 0.807755 0.032188 0.026629 -478178.000000 0 0 1
-18.537177 25.351084 29.167911 42.861071 -0.939424 0.822321 0.031218 0.014718 5901.910000 0 0 1
-19.300777 24.710084 28.139751 42.130201 -0.907693 0.839381 0.031704 0.006320 -39139.000000 0 0 1
-19.121377 23.191684 28.033741 41.101970 -0.881298 0.820229 0.035336 0.017955 201354.000000 0 0 1
-19.710177 22.494384 29.140571 41.757170 -0.851272 0.798394 0.026364 0.019762 187117.000000 0 0 1
-19.509677 21.156284 28.931531 40.807467 -0.825867 0.782751 0.026589 0.015350 160102.000000 0 0 1
-20.015277 20.323784 30.114361 41.479420 -0.793046 0.758298 0.029782 0.007447 427913.000000 0 0 1
-19.147277 20.477184 31.254451 41.985402 -0.818948 0.731142 0.021792 0.007790 460586.000000 0 0 1
-19.727477 19.963984 32.444171 42.899397 -0.791357 0.713180 0.023362 0.006263 -29992.300000 0 0 1
-19.096777 20.580884 33.708904 43.869692 -0.822785 0.694479 0.016074 -0.001017 -637191.000000 0 0 1
-19.114677 21.952384 33.883216 44.669345 -0.854388 0.709736 0.005293 0.004040 468285.000000 0 0 1
-18.219177 22.736084 33.055770 44.063044 -0.895243 0.722443 0.019415 0.012730 968606.000000 0 0 1
-16.685577 22.577284 33.330781 43.578472 -0.934345 0.699995 0.004088 0.019965 391491.000000 0 0 1
-16.085577 21.312984 33.177112 42.587672 -0.924274 0.677678 -0.000446 0.001900 -1055290.000000 0 0 1
-14.822077 21.322584 33.747820 42.582413 -0.963343 0.655851 -0.002494 0.005389 -1283040.000000 0 0 1
-14.123377 19.934184 33.683899 41.610654 -0.954388 0.627493 -0.008902 0.002096 -36278.000000 0 0 1
-12.771977 19.931784 34.083792 41.498244 -1.000927 0.607056 -0.019032 -0.007027 -46880.900000 0 0 1
-12.561377 20.184784 -33.557905 41.125986 -1.014127 2.525216 -0.009624 -0.002449 -390074.000000 0 0 1
-11.076377 20.113484 -33.107495 40.290751 -1.067420 2.535209 -0.009773 -0.002688 671334.000000 0 0 1
-10.295477 21.229684 -33.443075 40.928420 -1.119256 2.527178 -0.004096 -0.004821 130440.000000 0 0 1
-8.956777 21.228884 -32.968785 40.222259 -1.171542 2.531623 -0.008570 -0.001866 438124.000000 0 0 1
-8.185677 22.577084 -32.987355 40.803132 -1.222971 2.512313 -0.002491 -0.010165 28867.800000 0 0 1
-8.286377 23.518684 -31.959795 40.536663 -1.232046 2.479028 0.003644 -0.006435 414787.000000 0 0 1
-7.665477 23.093684 -30.691355 39.166785 -1.250310 2.471247 0.003616 -0.009128 120463.000000 0 0 1
-7.240577 24.202384 -29.705465 38.994820 -1.280103 2.436852 0.000155 -0.004903 -590750.000000 0 0 1
-6.152677 24.930284 -30.122735 39.582239 -1.328836 2.435675 0.003837 -0.006774 -770824.000000 0 0 1
-5.815177 25.943284 -29.170305 39.468683 -1.350291 2.402492 0.008425 0.001338 -456111.000000 0 0 1
-4.669577 26.815684 -29.665185 40.260515 -1.398389 2.399167 0.004421 -0.001525 188747.000000 0 0 1
-3.417377 26.147084 -29.393795 39.488525 -1.440835 2.410377 0.012941 0.002746 637480.000000 0 0 1
-2.209277 26.615984 -29.931045 40.114324 -1.487981 2.413047 0.021955 0.002785 368555.000000 0 0 1
-1.718377 28.000684 -29.440715 40.666286 -1.509504 2.380320 0.019199 -0.009092 -653556.000000 0 0 1
-1.278577 28.074084 -28.114825 39.752136 -1.525285 2.356402 0.031624 -0.018652 213844.000000 0 0 1
-0.816377 29.346284 -27.761655 40.405202 -1.542985 2.328261 0.027412 -0.018142 -958117.000000 0 0 1
-0.412677 29.577084 -26.277865 39.566405 -1.556845 2.297147 0.045279 -0.033758 817245.000000 0 0 1
0.817723 28.995584 -25.817765 38.832583 1.542602 2.298087 0.070644 -0.041716 1056010.000000 0 0 1
1.997723 29.453884 -26.465025 39.647443 1.503075 2.301655 0.075940 -0.039626 176232.000000 0 0 1
3.344523 29.247184 -25.691585 39.072255 1.456937 2.288346 0.074680 -0.044084 646844.000000 0 0 1
3.778823 27.932684 -25.360235 37.916432 1.436329 2.303451 0.086697 -0.036645 144212.000000 0 0 1
5.109623 28.013984 -24.884655 37.817160 1.390384 2.288990 0.063710 -0.028014 46868.700000 0 0 1
5.608223 26.629684 -24.369955 36.530630 1.363229 2.301119 0.068905 -0.029440 301131.000000 0 0 1
6.956423 26.720184 -23.920655 36.531600 1.316107 2.284706 0.053476 -0.023728 -241385.000000 0 0 1
7.412123 25.598084 -23.177155 35.318295 1.288947 2.286617 0.047586 -0.008224 353127.000000 0 0 1
8.877223 25.799984 -22.730255 35.512093 1.239406 2.265387 0.031946 0.004644 -593086.000000 0 0 1
9.054823 26.560884 -21.548355 35.380813 1.242244 2.225647 0.035606 0.006448 875641.000000 0 0 1
10.442223 26.793684 -21.235455 35.747532 1.199177 2.206868 0.038195 0.006090 810549.000000 0 0 1
11.321923 25.643584 -20.795755 34.903334 1.155024 2.209070 0.022125 0.013422 -822407.000000 0 0 1
11.641023 24.699984 -21.740255 34.903314 1.130374 2.243203 0.023397 0.007058 -193192.000000 0 0 1
11.826823 23.407784 -21.130855 33.679535 1.102956 2.249018 0.018766 0.010349 -333741.000000 0 0 1
11.975323 22.295684 -22.161655 33.639929 1.077900 2.290006 0.015256 0.002662 722261.000000 0 0 1
10.795523 22.059284 -22.970655 33.627463 1.115675 2.322784 0.017194 -0.000436 767454.000000 0 0 1
10.974323 20.972084 -23.841555 33.595890 1.088697 2.359807 0.012902 0.001545 309159.000000 0 0 1
9.959023 20.879284 -25.027755 34.081009 1.125733 2.395521 0.031095 0.002236 1485110.000000 0 0 1
8.550623 20.818184 -24.715955 33.427359 1.181076 2.402965 0.029368 -0.000183 1249520.000000 0 0 1
7.758823 20.706184 -25.920645 34.070885 1.212280 2.435319 0.037900 -0.000632 -315903.000000 0 0 1
6.284823 20.419384 -25.631605 33.368090 1.272211 2.446739 0.027297 -0.010018 -582123.000000 0 0 1
5.464123 21.503884 -25.297315 33.648593 1.321963 2.421598 0.051926 -0.008390 -135057.000000 0 0 1
5.712323 22.110384 -24.051055 33.165539 1.317970 2.382095 0.048521 -0.005232 -390315.000000 0 0 1
4.382923 22.692984 -23.477855 32.945276 1.380006 2.364039 0.065807 -0.012850 553775.000000 0 0 1
3.968423 23.883784 -24.144355 34.192593 1.406145 2.354812 0.065473 -0.019014 366824.000000 0 0 1
2.647023 24.244784 -23.728355 34.027211 1.462048 2.342468 0.076319 -0.011384 588444.000000 0 0 1
1.988323 25.232984 -24.745255 35.397522 1.492160 2.344889 0.064451 -0.010231 -405650.000000 0 0 1
0.594023 25.123684 -24.815055 35.317691 1.547157 2.349875 0.073627 -0.034576 -419900.000000 0 0 1
0.108623 25.584384 -26.040655 36.506002 1.566551 2.365028 0.057023 -0.024700 -1001890.000000 0 0 1
-1.372777 25.375784 -26.203175 36.502347 -1.516751 2.371504 0.063242 -0.019791 -992688.000000 0 0 1
-1.643277 24.032284 -26.622025 35.902413 -1.502525 2.406116 0.078302 -0.027977 358752.000000 0 0 1
-2.943477 24.020684 -27.220825 36.422941 -1.448865 2.414867 0.071891 -0.017211 357439.000000 0 0 1
-3.442977 22.672184 -27.700565 35.961136 -1.420089 2.450095 0.052842 -0.018078 -425146.000000 0 0 1
-2.768677 22.187184 -28.837125 36.489950 -1.446651 2.482055 0.066414 -0.022479 -96833.700000 0 0 1
-3.182677 20.927784 -29.283305 36.133274 -1.419874 2.515673 0.041545 -0.023636 358197.000000 0 0 1
-4.482977 20.879884 -30.161575 36.956559 -1.359304 2.525489 0.013046 -0.013669 271819.000000 0 0 1
-4.309077 21.270984 -31.507085 38.258585 -1.370921 2.538402 0.014961 -0.011757 -67363.300000 0 0 1
-4.023977 22.611484 -31.804905 39.230391 -1.394678 2.516179 0.035386 -0.014937 -254452.000000 0 0 1
-3.609677 22.677384 -33.285205 40.437586 -1.412945 2.537689 0.020803 -0.010476 1179580.000000 0 0 1
-2.301677 22.079584 -33.508405 40.194763 -1.466927 2.556482 0.012711 -0.007724 1192080.000000 0 0 1
-2.030677 22.244684 34.134296 40.793379 -1.479760 0.579456 0.007576 0.006436 642363.000000 0 0 1
-0.905077 21.245784 33.647717 39.804162 -1.528222 0.563611 0.013676 0.017262 933571.000000 0 0 1
-1.420377 19.916584 33.391117 38.905713 -1.499601 0.538932 0.006288 0.025408 315548.000000 0 0 1
-0.359777 19.134884 32.886891 38.050241 -1.551996 0.527036 0.014365 0.023839 -30404.800000 0 0 1
-0.679277 17.678684 32.529711 37.029439 -1.532392 0.498120 0.004402 0.032473 -376790.000000 0 0 1
-1.453977 17.739284 31.382291 36.078310 -1.489015 0.515922 -0.003329 0.029189 -168586.000000 0 0 1
-1.811977 16.447784 30.909901 35.060445 -1.461073 0.491518 -0.011392 0.024596 -171263.000000 0 0 1
-2.754577 16.403584 29.672071 34.016129 -1.404423 0.510922 -0.004522 0.020405 276873.000000 0 0 1
-4.083377 16.744784 30.020531 34.616384 -1.331605 0.521175 -0.016350 0.011771 -6700.720000 0 0 1
-4.437377 18.083684 29.640171 35.003566 -1.330170 0.560902 -0.010228 0.013943 413337.000000 0 0 1
-5.969977 18.384584 29.711101 35.445494 -1.256811 0.576787 -0.022822 0.004087 486980.000000 0 0 1
-6.643777 17.730484 28.692791 34.377116 -1.212281 0.583303 -0.031951 0.006625 -1133950.000000 0 0 1
-8.005877 18.007984 28.761341 34.865402 -1.152464 0.600727 -0.026308 0.008609 -980853.000000 0 0 1
-8.901177 17.156284 27.866871 33.913589 -1.092199 0.606405 -0.027303 0.002972 -291872.000000 0 0 1
-9.173177 15.796584 28.251451 33.642588 -1.044684 0.573969 -0.027065 -0.005494 54897.500000 0 0 1
-9.884977 15.620484 29.474111 34.791314 -1.006592 0.560163 -0.030791 -0.003467 -165503.000000 0 0 1
-10.236777 14.119784 29.819421 34.545011 -0.943491 0.529213 -0.032229 -0.002331 1239250.000000 0 0 1
-9.001377 13.383584 30.084811 34.135626 -0.978719 0.492123 -0.021648 -0.005999 1668590.000000 0 0 1
-8.372877 13.472984 31.395981 35.175758 -1.014749 0.467837 -0.023941 -0.000961 -514845.000000 0 0 1
-9.196777 13.005384 32.603531 36.286512 -0.955287 0.454450 0.000444 -0.006323 -669924.000000 0 0 1
-9.471177 11.604184 32.712671 35.978870 -0.886263 0.429392 0.002391 -0.005057 412848.000000 0 0 1
-9.889677 11.237684 34.017338 37.165449 -0.849116 0.414557 0.003356 -0.003699 -206924.000000 0 0 1
-10.135677 9.718584 34.207681 36.977672 -0.764393 0.389523 -0.001729 0.002815 423049.000000 0 0 1
-8.933677 8.909784 34.167716 36.422900 -0.784059 0.353741 0.004367 0.000390 789330.000000 0 0 1
-8.646377 8.051584 -33.737635 35.746550 -0.749792 2.804745 0.019078 -0.009076 -5557.710000 0 0 1
-7.878977 8.746284 -32.599635 34.659948 -0.837519 2.795061 0.023577 -0.012523 -239351.000000 0 0 1
-8.657077 9.768884 -31.964135 34.526541 -0.845664 2.753902 0.018175 -0.011969 -21416.300000 0 0 1
-7.959277 10.507284 -31.011695 33.696859 -0.922512 2.739679 0.011132 -0.010996 -663947.000000 0 0 1
-7.100377 11.650584 -31.526885 34.352525 -1.023462 2.733163 -0.011935 0.001410 -149108.000000 0 0 1
-7.831477 12.773584 -32.019895 35.352088 -1.020801 2.703925 -0.008452 0.001795 107268.000000 0 0 1
-6.939577 13.745884 -32.488615 35.952985 -1.103278 2.698994 -0.024298 0.005911 -79167.500000 0 0 1
-7.582077 15.149384 -32.657655 36.790137 -1.106759 2.663066 -0.025085 0.005558 251026.000000 0 0 1
-8.236477 15.403984 -33.938705 38.170119 -1.079777 2.666266 -0.018592 -0.002897 378085.000000 0 0 1
-8.609777 16.770584 -34.104301 38.967731 -1.096498 2.636632 -0.007876 -0.003955 -897535.000000 0 0 1
-8.928377 17.077984 33.459172 38.612040 -1.089075 0.522553 -0.003927 -0.014107 504474.000000 0 0 1
-10.018877 16.367284 32.850161 38.044697 -1.021507 0.528702 -0.024905 -0.008815 995872.000000 0 0 1
-11.303577 16.803784 33.289825 38.966017 -0.978642 0.546537 -0.020640 -0.007841 315821.000000 0 0 1
-12.513777 16.459384 32.347581 38.391040 -0.920747 0.568738 -0.010831 -0.012370 430207.000000 0 0 1
-12.784477 15.118884 31.978131 37.611492 -0.868864 0.554389 -0.018501 -0.005946 29174.200000 0 0 1
-13.617777 14.450884 32.881751 38.411996 -0.815070 0.543260 -0.004489 -0.001848 -312663.000000 0 0 1
-13.432977 12.954384 32.919331 37.841027 -0.767263 0.515721 -0.011263 0.007109 -102392.000000 0 0 1
-13.717677 12.232784 31.713181 36.654352 -0.728240 0.525256 -0.024808 0.004591 -403008.000000 0 0 1
-12.641977 11.499884 31.237581 35.606929 -0.738126 0.500611 -0.018701 0.003001 -597448.000000 0 0 1
-12.638977 11.272784 29.709151 34.197267 -0.728325 0.518107 -0.017807 0.010275 -271196.000000 0 0 1
-13.509677 10.215784 29.383031 33.915131 -0.647446 0.522910 -0.025641 0.009136 -40931.300000 0 0 1
-13.413377 9.664184 28.078601 32.584091 -0.624345 0.532132 -0.036458 0.020599 -24898.900000 0 0 1
-14.266877 8.394284 27.890401 32.432734 -0.531828 0.535632 -0.021708 0.021519 277200.000000 0 0 1
-13.800777 7.233384 28.569651 32.542407 -0.482764 0.499294 -0.042105 0.018558 213864.000000 0 0 1
-14.689277 6.172184 28.246121 32.430141 -0.397783 0.513596 -0.024725 0.022896 256790.000000 0 0 1
-14.028977 4.767784 28.447271 32.074775 -0.327606 0.480195 -0.018292 0.021070 648111.000000 0 0 1
-13.077877 4.340084 27.440221 30.705585 -0.320428 0.465370 -0.021037 0.011330 377040.000000 0 0 1
-13.591777 4.339384 26.119441 29.762256 -0.309036 0.499958 -0.006125 0.012256 -632028.000000 0 0 1
-12.554477 4.340684 24.985611 28.297300 -0.332882 0.488649 -0.010815 0.013386 -642425.000000 0 0 1
-11.890877 3.106784 25.011351 27.867773 -0.255562 0.456727 -0.014431 0.006880 -335521.000000 0 0 1
-11.431677 2.900184 23.677541 26.452226 -0.248455 0.462128 -0.006023 0.003101 163549.000000 0 0 1
-10.412277 1.704084 23.650041 25.896792 -0.162223 0.419624 -0.005754 -0.008784 -365762.000000 0 0 1
-9.150877 2.057284 24.126301 25.885312 -0.221141 0.370777 -0.011131 -0.008840 -687642.000000 0 0 1
-8.469477 0.900084 24.581451 26.015186 -0.105876 0.333542 -0.015012 0.000709 -243660.000000 0 0 1
-6.946777 1.063984 24.535211 25.521880 -0.151981 0.278967 -0.005630 -0.001035 -626008.000000 0 0 1
-6.442977 1.479384 23.271341 24.192062 -0.225700 0.276777 -0.001902 0.002875 466922.000000 0 1 0
-5.020077 1.596484 23.297141 23.885282 -0.307906 0.222375 -0.002815 0.009709 592475.000000 0 1 0
-4.445677 2.961184 23.786141 24.378539 -0.587597 0.220903 0.010589 0.006055 -654599.000000 0 1 0
-4.347377 2.919884 25.210651 25.748832 -0.591440 0.204814 0.008637 0.008455 89317.800000 0 0 1
-3.801477 4.107784 25.766971 26.367820 -0.824106 0.213889 0.013596 0.004436 167420.000000 0 0 1
3.647223 -23.342916 12.467445 26.713876 -1.415804 1.085237 0.031120 -0.007194 20990.900000 0 0 1
3.477323 -24.557616 13.222345 28.106915 -1.430133 1.081018 0.021505 -0.005745 -120411.000000 0 0 1
2.251923 -25.268656 13.120945 28.561081 -1.481912 1.093477 0.000900 -0.003564 124081.000000 0 0 1
2.216623 -26.576966 13.834345 30.043929 -1.487585 1.092271 -0.004200 -0.005107 -73190.200000 0 0 1
2.203323 -26.451526 15.257545 30.615855 -1.487692 1.049097 0.008600 -0.013040 75491.200000 0 0 1
2.373923 -27.711086 15.863545 32.018618 -1.485338 1.052446 0.000819 -0.009426 -257596.000000 0 0 1
2.152923 -27.764006 17.384145 32.828092 -1.493408 1.012725 -0.004330 -0.008539 401943.000000 0 0 1
3.211223 -27.239926 18.203345 32.919406 -1.453451 0.984875 0.012600 -0.006272 688668.000000 0 0 1
2.923923 -27.522546 19.547645 33.884367 -1.464956 0.955877 0.004944 -0.005957 77748.800000 0 0 1
3.731723 -26.636276 20.490145 33.812172 -1.431603 0.919775 0.015330 -0.007178 -390780.000000 0 0 1
3.083823 -25.403686 20.644245 32.879204 -1.449995 0.891968 0.020503 -0.006951 28612.000000 0 0 1
3.686223 -24.557116 21.579145 32.898324 -1.421801 0.855376 0.029433 -0.004209 275987.000000 0 0 1
2.706523 -23.409616 22.045045 32.269481 -1.455692 0.818723 0.031427 0.002909 535713.000000 0 0 1
2.213223 -22.581316 20.952945 30.884302 -1.473097 0.825168 0.035588 -0.003513 13297.900000 0 0 1
3.175823 -21.734216 20.354645 29.946178 -1.425702 0.823432 0.035002 -0.000775 -154844.000000 0 0 1
2.510523 -20.487416 19.799345 28.601591 -1.448864 0.806199 0.021021 -0.010848 4257.070000 0 0 1
2.295423 -19.479116 20.790345 28.582221 -1.453497 0.756289 0.018124 -0.007808 -299332.000000 0 0 1
1.555223 -18.476816 20.168845 27.396966 -1.486823 0.743401 0.004824 -0.016229 -215447.000000 0 0 1
1.269023 -17.319816 21.145345 27.362603 -1.497657 0.687582 0.002421 -0.005832 -76183.000000 0 0 1
2.335623 -16.442716 21.387945 27.078815 -1.429694 0.660247 -0.008907 0.017023 -187250.000000 0 0 1
1.801123 -15.160216 21.544245 26.405126 -1.452545 0.616492 -0.002839 0.012772 397031.000000 0 0 1
2.835423 -14.078816 21.143745 25.559942 -1.372058 0.596651 -0.011066 0.010043 -384113.000000 0 0 1
2.896523 -13.780416 19.736845 24.245263 -1.363621 0.619705 -0.006124 0.011284 224474.000000 0 1 0
1.792323 -13.261216 18.971445 23.216115 -1.436455 0.614317 -0.004449 0.022131 430364.000000 0 1 0
1.065823 -11.992716 19.506245 22.922801 -1.482157 0.552998 -0.013334 0.022728 -329684.000000 0 1 0
1.724323 -10.778616 19.234945 22.116396 -1.412164 0.516173 -0.011077 0.018483 -313364.000000 0 1 0
1.424823 -9.733716 20.138145 22.412502 -1.425448 0.454404 -0.008417 0.004171 4311.040000 0 1 0
0.009323 -9.121916 20.095645 22.069082 -1.569774 0.426113 0.000565 -0.001169 103545.000000 0 1 0
-0.240977 -8.117416 21.065245 22.576427 1.541119 0.367958 -0.003114 -0.012277 837520.000000 0 1 0
-1.576377 -7.553516 21.143445 22.507462 1.365055 0.349929 -0.004449 -0.010223 1073370.000000 0 1 0
-2.014677 -6.911216 22.478845 23.603438 1.287148 0.309931 -0.004054 -0.004200 -176957.000000 0 1 0
-2.097777 -7.885916 23.540345 24.914578 1.310802 0.333684 0.000421 0.002065 74446.800000 0 1 0
-1.989077 -7.275516 24.778945 25.901461 1.303924 0.295481 -0.004410 0.012546 -135362.000000 0 0 1
-2.140477 -8.137216 26.099845 27.422579 1.313576 0.311859 0.003175 0.009419 -7002.660000 0 0 1
-1.084877 -9.071416 26.272945 27.816096 1.451769 0.334657 -0.001947 0.007808 179201.000000 0 0 1
-1.315177 -9.962816 27.335345 29.124019 1.439547 0.352292 0.013100 -0.001620 -496403.000000 0 0 1
-0.113877 -10.832516 27.625545 29.673677 1.560284 0.373713 0.007482 -0.004208 288557.000000 0 0 1
1.068123 -10.241516 28.186945 30.008889 -1.466879 0.350251 -0.005289 0.000882 1068380.000000 0 0 1
2.079223 -11.271216 28.401445 30.626876 -1.388375 0.383563 0.006071 -0.007716 899989.000000 0 0 1
3.033823 -10.822716 29.564645 31.629156 -1.297491 0.363305 0.002138 -0.002867 258016.000000 0 0 1
2.583523 -10.976716 30.880345 32.874893 -1.339640 0.350127 0.008842 -0.003346 257772.000000 0 0 1
3.557523 -10.357716 31.718945 33.556366 -1.239954 0.332456 -0.000866 0.004638 264350.000000 0 0 1
3.031323 -10.337516 33.189845 34.894397 -1.285557 0.313853 -0.002155 0.005449 -108409.000000 0 0 1
3.078423 -11.564416 33.904145 35.954185 -1.310632 0.339318 0.005098 -0.001347 156850.000000 0 0 1
2.535623 -11.596316 -33.754451 35.780817 -1.355527 2.803434 0.008712 -0.003789 -16519.900000 0 0 1
3.184723 -10.743416 -32.600451 34.472494 -1.282614 2.810521 0.003432 0.002863 -87446.500000 0 0 1
2.972323 -9.335316 -32.717951 34.153289 -1.262550 2.850649 0.003918 -0.002567 265801.000000 0 0 1
3.743523 -8.614016 -31.763151 33.122696 -1.160835 2.854087 0.001762 -0.000975 5741.610000 0 0 1
3.168423 -7.222116 -31.416151 32.390931 -1.157370 2.895640 -0.000134 -0.002994 -24163.000000 0 0 1
3.378123 -6.169816 -32.333951 33.090221 -1.069856 2.927385 0.012443 -0.003470 159115.000000 0 0 1
2.652623 -5.034116 -31.928951 32.432031 -1.085838 2.965229 0.016063 -0.001271 -43297.000000 0 0 1
2.979323 -3.860516 -32.845251 33.205278 -0.913525 2.994201 0.019600 0.001347 85971.400000 0 0 1
2.337223 -4.035116 -34.092551 34.409981 -1.045796 3.005658 0.010783 0.000337 37726.500000 0 0 1
2.567423 -2.864816 34.224845 34.440366 -0.840090 0.111932 0.016106 0.007259 11828.200000 0 0 1
1.948423 -2.993616 32.813545 33.007375 -0.993817 0.108426 0.015659 0.001047 -412633.000000 0 0 1
0.566723 -2.870816 32.703945 32.834597 -1.375894 0.089238 0.020690 -0.003394 -922680.000000 0 0 1
0.252723 -3.324616 31.358045 31.534805 -1.494927 0.105929 0.008726 0.008699 -163121.000000 0 0 1
-1.243777 -3.520416 31.101945 31.325250 1.231181 0.119475 0.008574 -0.000929 71397.900000 0 0 1
-1.993477 -2.283316 31.022145 31.169873 0.853065 0.097398 0.016292 0.000584 300743.000000 0 0 1
-3.373077 -2.630316 31.042145 31.335459 0.662300 0.136931 -0.003618 0.000770 717312.000000 0 0 1
-4.342377 -1.622216 30.323945 30.676204 0.357523 0.151692 0.005234 -0.005493 -4585.140000 0 0 1
-4.362577 -1.721716 28.901345 29.279415 0.375891 0.160875 0.000091 -0.002871 384576.000000 0 0 1
-5.523177 -1.220116 28.220045 28.781333 0.217417 0.197816 -0.014627 -0.009388 601889.000000 0 0 1
-5.741677 0.309884 28.237445 28.816943 -0.053919 0.200885 -0.004052 -0.007543 -188013.000000 0 0 1
-6.191977 0.778784 29.468745 30.122318 -0.125116 0.208692 0.002000 -0.002746 -495099.000000 0 0 1
-6.475377 2.128184 29.362645 30.143401 -0.317537 0.228096 0.001886 -0.001645 -213418.000000 0 0 1
-7.941777 2.270284 29.812545 30.935640 -0.278440 0.270282 -0.012424 0.005844 -22867.300000 0 0 1
-8.901077 1.636384 28.995445 30.375035 -0.181811 0.302544 -0.025657 0.011192 -456334.000000 0 0 1
-10.224477 2.013584 29.206545 31.009946 -0.194449 0.342719 -0.033871 0.021684 -631249.000000 0 0 1
-11.205077 1.346884 28.252445 30.423157 -0.119629 0.380041 -0.028886 0.015398 -302899.000000 0 0 1
-11.283677 -0.040116 28.601345 30.746706 0.003555 0.375772 -0.023849 0.013658 184699.000000 0 0 1
-11.810577 -0.741116 27.458145 29.899644 0.062668 0.406922 -0.015797 0.014477 -978704.000000 0 0 1
-11.603877 -2.223616 27.700345 30.114839 0.189332 0.403165 -0.011197 0.010502 -93051.900000 0 0 1
-10.312477 -2.652716 28.113645 30.062620 0.251775 0.362059 -0.005598 0.008702 678906.000000 0 0 1
-9.134177 -2.379716 27.385545 28.966607 0.254863 0.331922 0.009245 -0.000764 -405624.000000 0 0 1
-9.104477 -2.924216 25.967445 27.672202 0.310777 0.352841 0.001698 -0.000371 -991139.000000 0 0 1
-10.051777 -2.278316 25.135145 27.166238 0.222892 0.389143 -0.005784 0.002568 307339.000000 0 0 1
-10.190377 -2.854016 23.833745 26.077511 0.273073 0.417864 0.004404 0.000720 -116356.000000 0 0 1
-9.086277 -2.400016 22.833445 24.691835 0.258239 0.390453 0.000886 -0.000684 958279.000000 0 1 0
-7.750177 -2.602016 23.300745 24.693328 0.323912 0.337441 -0.010539 0.000256 231948.000000 0 1 0
-6.805577 -2.201716 22.301545 23.420554 0.312889 0.310369 -0.006026 0.001580 41137.500000 0 1 0
-5.372577 -2.533116 22.752645 23.515189 0.440581 0.255361 -0.004420 0.001983 -425534.000000 0 1 0
-4.966477 -3.911216 22.708845 23.572339 0.667087 0.271505 0.006715 -0.000924 -57327.900000 0 1 0
-5.689877 -4.751316 23.595745 24.732749 0.695749 0.304395 0.010490 0.000771 -233884.000000 0 1 0
-5.552977 -6.278516 23.347345 24.806327 0.846644 0.344676 0.014850 0.004153 -312887.000000 0 1 0
-6.277677 -6.791416 22.242345 24.088472 0.824687 0.394053 0.019483 -0.003721 -77449.500000 0 1 0
-5.813977 -6.437816 20.955845 22.680283 0.836272 0.392469 0.017601 -0.007924 -524082.000000 0 1 0
-6.925977 -6.181916 19.944045 21.998868 0.728695 0.435654 0.017405 -0.008152 -284281.000000 0 1 0
-7.831677 -5.148616 20.258045 22.321107 0.581566 0.433328 0.012668 -0.003918 -128090.000000 0 1 0
-8.766677 -5.077416 19.184245 21.694931 0.524964 0.485861 0.009667 -0.003410 504577.000000 0 1 0
-9.605877 -3.769216 19.283045 21.870430 0.373926 0.491354 0.005619 -0.002574 286014.000000 0 1 0
-8.792177 -2.686916 18.865845 20.986710 0.296589 0.453447 0.009232 -0.007529 -305348.000000 0 1 0
-9.397677 -1.443216 18.845545 21.108145 0.152381 0.467253 0.001966 -0.008463 -447720.000000 0 1 0
-8.421177 -0.351216 18.349845 20.192979 0.041682 0.430579 0.011072 -0.005920 597992.000000 0 1 0
-7.356077 -0.033116 19.277345 20.633201 0.004502 0.364541 0.009449 0.007218 733230.000000 0 1 0
-7.776177 0.601784 20.494545 21.928462 -0.077234 0.363637 0.019671 0.009884 -380785.000000 0 1 0
-7.802277 2.143584 20.319345 21.871129 -0.268123 0.378963 0.016402 0.000593 -324040.000000 0 1 0
-8.598677 2.631084 19.311645 21.302570 -0.296940 0.435781 0.012534 -0.011831 -288531.000000 0 1 0
-8.473177 3.989684 19.180045 21.344471 -0.440065 0.454238 0.012375 -0.011517 -20560.600000 0 1 0
-9.214477 4.509184 17.937945 20.664201 -0.455098 0.519498 0.009682 -0.013838 -480310.000000 0 1 0
-10.614377 4.455584 18.120745 21.468084 -0.397431 0.565952 0.006870 -0.012257 28018.600000 0 1 0
-11.315377 4.830284 16.933045 20.930777 -0.403460 0.628344 0.004078 -0.008560 -11059.800000 0 1 0
-11.514477 6.398184 16.754745 21.312940 -0.507182 0.666274 0.009150 -0.006942 -850836.000000 0 1 0
-10.365577 7.172384 16.564245 20.814958 -0.605298 0.650493 0.010341 -0.006372 -186927.000000 0 1 0
-10.662077 8.548884 16.702945 21.581281 -0.675839 0.685733 0.015356 -0.009366 -30297.900000 0 1 0
-9.381277 9.398784 16.755745 21.379909 -0.786330 0.670173 0.012044 -0.001787 -169399.000000 0 1 0
-8.592977 9.190784 17.914045 21.891157 -0.819001 0.612309 0.017221 0.001310 597515.000000 0 1 0
-7.556477 10.183384 18.152345 22.142928 -0.932409 0.609768 0.013717 0.005107 663469.000000 0 1 0
-7.829977 11.673984 18.064545 22.889260 -0.979993 0.661267 0.002926 0.008334 -548417.000000 0 1 0
-7.747877 12.178284 16.716445 22.085736 -1.004180 0.712257 -0.001559 0.002306 -120176.000000 0 1 0
-8.510577 13.321484 16.478745 22.835080 -1.002292 0.764626 0.011037 -0.005322 -614524.000000 0 1 0
-8.460777 13.904984 15.061345 22.176055 -1.024172 0.824163 0.022706 -0.005493 210553.000000 0 1 0
-7.386377 14.800284 14.873845 22.244960 -1.107893 0.838420 0.016352 0.005964 20741.100000 0 1 0
-7.475977 15.259684 13.535045 21.724310 -1.115248 0.898177 0.019189 -0.004939 -99202.600000 0 1 0
-6.668377 16.505284 13.190445 22.155800 -1.186834 0.933096 -0.004398 0.003653 791619.000000 0 1 0
-5.260277 16.330484 13.386945 21.761560 -1.259177 0.908201 -0.005854 0.002221 276809.000000 0 1 0
-4.536377 17.529784 13.488245 22.578857 -1.317570 0.930561 -0.006548 -0.000582 2109750.000000 0 1 0
-2.943977 17.330384 13.350945 22.073897 -1.402529 0.921245 -0.008995 -0.007437 1921510.000000 0 1 0
-2.170077 16.771684 14.404245 22.214430 -1.442122 0.865291 -0.011413 -0.004742 -178835.000000 0 1 0
-2.465777 15.461584 14.909345 21.620111 -1.412650 0.809852 -0.016455 0.008865 -768873.000000 0 1 0
-1.459277 15.078084 15.983845 22.021839 -1.474315 0.758574 -0.017955 0.017036 -611810.000000 0 1 0
-0.291777 14.542884 15.379345 21.168487 -1.550736 0.757551 -0.025434 0.002084 -226084.000000 0 1 0
0.619323 13.994084 16.302945 21.494277 1.526569 0.709821 -0.026986 0.011133 681941.000000 0 1 0
1.660023 14.986784 16.942745 22.680740 1.460480 0.727243 -0.021414 0.008663 171216.000000 0 1 0
0.984323 15.973784 17.704545 23.865908 1.509253 0.734995 -0.024657 0.010279 100058.000000 0 1 0
1.881523 16.984684 18.196845 24.962868 1.460469 0.754000 -0.013903 0.007773 192553.000000 0 1 0
1.129523 18.245684 18.772545 26.202848 1.508969 0.772123 -0.004738 0.004715 339153.000000 0 0 1
0.558923 19.130684 17.858345 26.176630 1.541589 0.819995 -0.003262 0.005134 -690331.000000 0 0 1
-0.668777 18.696884 17.365545 25.526121 -1.535042 0.822618 -0.005581 0.009448 -1208930.000000 0 0 1
-1.327577 19.781084 16.451845 25.762704 -1.503783 0.878130 -0.004780 0.008154 -142592.000000 0 0 1
-1.906677 20.768384 17.291245 27.091481 -1.479246 0.878568 -0.001915 0.005018 110073.000000 0 0 1
-2.677077 21.689084 16.504245 27.385639 -1.447988 0.923965 0.013494 -0.005562 -122962.000000 0 0 1
-3.473177 22.740784 17.286945 28.775765 -1.419238 0.926362 0.012047 -0.000699 -58461.500000 0 0 1
-4.490877 22.197084 18.103245 28.993206 -1.371173 0.896438 0.022264 -0.006788 -123113.000000 0 0 1
-4.904777 23.207184 19.071945 30.436315 -1.362514 0.893590 0.022006 -0.002571 -429682.000000 0 0 1
-6.091777 22.878784 19.942345 30.955543 -1.310571 0.870786 0.016288 -0.006888 -166199.000000 0 0 1
-7.374577 22.899584 19.310145 30.848939 -1.259244 0.894437 0.008306 -0.005565 -184177.000000 0 0 1
-8.286877 22.407684 20.244345 31.314695 -1.216572 0.867834 -0.018595 -0.004275 591238.000000 0 0 1
-9.745977 22.803484 19.768745 31.714133 -1.166903 0.897787 -0.009456 -0.007861 780786.000000 0 0 1
-10.018377 24.208184 19.875145 32.885034 -1.178414 0.921806 0.004759 -0.005490 755685.000000 0 0 1
-11.282977 24.571784 19.283045 33.210148 -1.140331 0.951285 -0.009596 -0.002388 501568.000000 0 0 1
-11.658077 25.996584 19.560945 34.559567 -1.149235 0.969143 -0.003738 -0.006498 -389841.000000 0 0 1
-12.210077 26.089184 20.835245 35.550512 -1.133064 0.944591 -0.003753 0.003218 -85765.700000 0 0 1
-12.797177 27.360084 21.005745 36.791076 -1.133295 0.963138 0.008986 -0.010892 -1445300.000000 0 0 1
-13.658577 27.353984 22.219745 37.795691 -1.107687 0.942347 0.028340 -0.011640 -1162010.000000 0 0 1
-14.859377 26.633384 22.031745 37.623610 -1.061891 0.945197 0.018115 -0.011720 -241680.000000 0 0 1
-15.508477 26.747084 23.270245 38.696559 -1.045348 0.925604 0.012454 -0.007202 -543433.000000 0 0 1
-17.007377 26.439484 23.220145 39.082890 -0.999176 0.934618 0.026666 -0.003470 -260072.000000 0 0 1
-17.247177 25.035884 23.022945 38.135503 -0.967560 0.922644 0.037841 -0.000540 -204747.000000 0 0 1
-18.609577 24.688484 23.058445 38.568504 -0.924883 0.929971 0.049075 0.007177 -235544.000000 0 0 1
26.832123 24.409284 24.246411 43.631002 0.738151 0.981573 0.041002 -0.009968 -46741.600000 0 0 1
26.787723 23.598584 25.377531 43.800620 0.722189 0.952819 0.047125 -0.015661 346540.000000 0 0 1
26.176923 22.319584 25.132021 42.602976 0.706027 0.939846 0.049670 -0.013101 55511.500000 0 0 1
25.650123 21.659384 26.435211 42.730295 0.701244 0.903770 0.056974 -0.014691 498558.000000 0 0 1
24.476223 22.325784 26.938601 42.699114 0.739483 0.888092 0.072425 -0.009514 580941.000000 0 0 1
24.145823 21.822384 28.255211 43.099816 0.734897 0.855851 0.067283 -0.009140 -440705.000000 0 0 1
22.742023 22.238484 28.667231 42.820087 0.774204 0.837287 0.070847 -0.002851 -657745.000000 0 0 1
22.616223 23.632884 28.859841 43.622209 0.807377 0.847865 0.080764 -0.021595 -426677.000000 0 0 1
21.609023 23.804584 29.807841 43.841937 0.833706 0.823179 0.087159 -0.019218 -443844.000000 0 0 1
21.309023 25.331584 30.148701 44.773963 0.871431 0.832061 0.080717 -0.013732 -146872.000000 0 0 1
20.397423 25.922284 29.245421 44.083039 0.904114 0.845421 0.075758 -0.030471 -40258.700000 0 0 1
19.849823 27.131584 29.651201 44.825573 0.939167 0.848006 0.057015 -0.029332 276526.000000 0 0 1
18.631023 27.170284 30.637411 44.988779 0.969723 0.821667 0.062158 -0.026169 688537.000000 0 0 1
17.409523 26.879684 29.933071 43.836031 0.996051 0.819151 0.074850 -0.020818 420995.000000 0 0 1
16.199823 27.138784 30.581831 43.979498 1.032641 0.801868 0.062961 -0.021005 144763.000000 0 0 1
15.654723 25.932084 31.476811 43.684470 1.027674 0.766202 0.017996 -0.009266 -172447.000000 0 0 1
16.452623 25.644384 32.635461 44.647469 1.000371 0.751070 0.033903 -0.012777 298991.000000 0 0 1
15.905723 24.692284 33.529991 44.575343 0.998539 0.719388 0.005187 -0.007124 -313170.000000 0 0 1
16.793723 24.537384 -34.275771 45.375553 0.970608 2.427030 0.023253 -0.014195 -395468.000000 0 0 1
17.163023 25.644084 -33.447415 45.507340 0.980988 2.396447 0.027629 -0.014292 -31361.400000 0 0 1
16.533423 25.602184 -32.229265 44.357090 0.997392 2.384137 -0.006520 -0.004767 -438603.000000 0 0 1
16.895623 26.764584 -31.280935 44.500583 1.007702 2.350309 0.002909 -0.008051 -389784.000000 0 0 1
16.348923 28.038784 -31.490005 45.222573 1.042909 2.341073 0.002928 -0.001470 6452.700000 0 0 1
16.951023 29.084484 -30.710755 45.567476 1.043105 2.310355 0.017981 -0.006395 -25652.300000 0 0 1
16.286823 29.349484 -29.317605 44.566521 1.064178 2.288743 0.020994 -0.010511 -30221.600000 0 0 1
16.605323 28.371684 -28.407805 43.447584 1.041272 2.283446 0.002748 -0.005636 -166110.000000 0 0 1
16.117023 28.721284 -27.153285 42.684557 1.059431 2.260279 -0.004314 -0.000173 -322018.000000 0 0 1
16.695323 27.838884 -25.993715 41.586181 1.030588 2.246000 -0.006373 0.008144 -1920830.000000 0 0 1
18.030823 27.740984 -26.188255 42.195941 0.994442 2.240348 0.012540 0.008854 -2271060.000000 0 0 1
18.655023 27.493884 -24.943055 41.546113 0.974636 2.214760 0.015864 0.008324 -654199.000000 0 0 1
20.161223 27.329484 -25.016655 42.180666 0.935208 2.205679 0.010716 0.005304 -574300.000000 0 0 1
20.773623 27.118884 -23.775155 41.620130 0.917121 2.178814 0.012475 0.006937 466423.000000 0 0 1
22.179523 26.886784 -23.861055 42.239559 0.881042 2.171106 0.013555 0.009997 615972.000000 0 0 1
22.962723 26.762084 -22.554455 41.859279 0.861658 2.139828 0.020898 0.013062 4589.620000 0 0 1
22.690023 25.546684 -21.868755 40.567384 0.844551 2.140132 0.011169 0.017725 459013.000000 0 0 1
23.377123 25.514684 -20.593855 40.269043 0.829091 2.107617 0.011023 0.013618 -20089.000000 0 0 1
22.715923 24.569384 -19.603355 38.780914 0.824576 2.100746 0.003291 0.009009 -893780.000000 0 0 1
22.919223 23.232684 -19.946555 38.248051 0.792190 2.119410 0.001574 0.016523 389038.000000 0 0 1
22.569123 22.338584 -18.895755 36.951687 0.780265 2.107567 0.001847 0.008189 -904438.000000 0 0 1
23.017323 20.917384 -19.223855 36.563516 0.737638 2.124412 0.014072 0.010623 38854.500000 0 0 1
22.398323 20.301184 -20.346255 36.438894 0.736324 2.163212 0.003897 0.013226 228076.000000 0 0 1
21.002423 20.140584 -20.192155 35.418470 0.764454 2.177427 -0.001907 0.013860 -702199.000000 0 0 1
20.300623 20.021784 -21.540555 35.734894 0.778483 2.217787 0.003076 0.016495 -297656.000000 0 0 1
20.358523 21.066884 -22.512255 36.947052 0.802496 2.225988 -0.010474 0.020485 129082.000000 0 0 1
19.955123 22.358484 -22.045455 37.203640 0.842136 2.205032 -0.011939 0.022781 -215422.000000 0 0 1
19.657323 23.315784 -23.184355 38.308621 0.870327 2.220813 -0.002233 0.021587 169072.000000 0 0 1
18.373623 23.049284 -23.719055 37.834549 0.897799 2.248384 0.011036 0.019244 -215270.000000 0 0 1
18.041723 23.823384 -24.810555 38.840971 0.922632 2.263698 0.005589 0.010165 -1361040.000000 0 0 1
16.587423 23.967984 -25.092735 38.461048 0.965415 2.281569 0.004026 0.011865 -1115830.000000 0 0 1
15.888823 24.756984 -24.128055 38.046366 1.000213 2.257737 0.009530 -0.005075 -544279.000000 0 0 1
14.501023 24.728484 -24.268355 37.559694 1.040430 2.273296 0.008694 -0.001470 -364221.000000 0 0 1
13.872423 25.975284 -23.650355 37.769019 1.080272 2.247446 0.003934 0.000773 -390823.000000 0 0 1
14.002423 27.072384 -24.518955 39.117272 1.093467 2.248244 -0.012678 0.010350 -262157.000000 0 0 1
13.126123 28.082884 -24.108955 39.270665 1.133562 2.231810 0.008075 0.010585 -134788.000000 0 0 1
13.160223 29.447184 -24.903555 40.749419 1.150516 2.228295 0.003653 0.003931 -111987.000000 0 0 1
12.768323 29.270484 -26.247605 41.336764 1.159462 2.258766 0.007154 -0.011889 -157217.000000 0 0 1
12.017023 30.305684 -26.824345 42.218347 1.193287 2.259286 0.038079 -0.018308 -218358.000000 0 0 1
12.663123 31.735284 -26.856105 43.459559 1.191132 2.236937 0.049027 -0.014436 1040360.000000 0 0 1
13.938423 31.712084 -27.560485 44.266423 1.156683 2.242863 0.024395 0.005847 785102.000000 0 0 1
14.555423 32.932084 -27.360125 45.221222 1.154629 2.220598 0.022049 -0.010485 -78539.900000 0 0 1
16.031423 33.009984 -27.833395 46.058261 1.118691 2.219694 0.007942 0.006710 328313.000000 0 0 1
16.884823 32.306784 -26.929885 45.321565 1.089201 2.207062 -0.019164 0.005335 1675050.000000 0 0 1
18.230623 32.170684 -27.516615 46.092001 1.055234 2.210544 0.008203 0.005844 1026160.000000 0 0 1
19.177223 31.245284 -26.739385 45.376517 1.020318 2.200961 0.007896 0.014163 -635701.000000 0 0 1
19.657523 31.733384 -25.526435 45.221950 1.016192 2.170587 0.013846 0.014767 494817.000000 0 0 1
20.537723 32.894284 -25.577955 46.454965 1.012661 2.153875 0.017707 0.002290 1661920.000000 0 0 1
22.091323 32.529784 -25.806445 47.033881 0.974228 2.151578 0.011064 0.008348 1499220.000000 0 0 1
22.185023 31.934184 -27.101635 47.396898 0.963629 2.179497 0.006462 0.008679 -421754.000000 0 0 1
23.384723 32.269984 -27.728765 48.549784 0.943712 2.178691 0.006624 0.017039 -951570.000000 0 0 1
23.545123 31.506584 -29.085025 48.918057 0.929020 2.207522 0.005776 0.007149 77880.300000 0 0 1
22.589223 31.853584 -30.092445 49.299889 0.953950 2.227357 0.020285 0.006215 -39865.100000 0 0 1
21.319423 31.318984 -29.906225 48.267782 0.973128 2.239016 0.016276 -0.004877 -1090050.000000 0 0 1
20.182723 31.838084 -30.782845 48.668156 1.005810 2.255579 -0.003055 -0.016088 -534183.000000 0 0 1
19.771223 33.105084 -30.437965 49.125528 1.032419 2.239024 0.005263 -0.008856 95781.200000 0 0 1
19.005723 33.805884 -31.424525 49.915489 1.058634 2.251776 0.001332 -0.008464 -177980.000000 0 0 1
17.472823 33.682084 -31.364825 49.229407 1.092256 2.261547 -0.001521 -0.010596 -114131.000000 0 0 1
16.830323 32.520184 -31.945475 48.593575 1.093220 2.288161 0.004902 -0.007669 246295.000000 0 0 1
17.008323 32.191784 -33.313215 49.349410 1.084732 2.311826 0.012283 -0.011735 -677883.000000 0 0 1
16.432823 33.088384 -34.455819 50.518138 1.109845 2.321356 0.009242 -0.017556 -33629.900000 0 0 1
16.907323 34.453784 -34.416228 51.549952 1.114596 2.301815 0.000226 -0.010565 57158.800000 0 0 1
17.010323 -34.052233 33.291214 50.568869 -1.107520 0.852193 0.011317 -0.005741 -422558.000000 0 0 1
15.743523 -33.573433 32.575151 49.357617 -1.132314 0.850001 0.012295 -0.007770 -667960.000000 0 0 1
14.929623 34.456684 32.042791 49.364938 1.161928 0.864395 0.028357 -0.017810 331643.000000 0 0 1
13.573623 -34.208033 32.004301 48.772000 -1.193055 0.855021 0.036515 -0.008322 588818.000000 0 0 1
13.050123 -33.387633 30.744411 47.225613 -1.198188 0.861880 0.020841 0.001306 -327872.000000 0 0 1
13.660823 -32.141233 30.660751 46.473203 -1.168905 0.850309 0.012137 -0.000418 215830.000000 0 0 1
13.140723 -31.521733 29.491551 45.122609 -1.175825 0.858482 0.007960 -0.003208 106317.000000 0 0 1
13.383123 -29.990633 29.573111 44.194060 -1.151071 0.837712 0.017556 -0.011699 -70455.600000 0 0 1
12.627123 -29.335433 30.558411 44.202130 -1.164328 0.807463 0.013844 0.002623 221588.000000 0 0 1
12.865823 -27.942233 30.402821 43.250772 -1.139292 0.791270 0.028757 -0.012125 -481128.000000 0 0 1
12.393823 -27.044133 31.548731 43.362592 -1.141077 0.756043 0.005346 -0.005576 242839.000000 0 0 1
10.977223 -26.956533 31.605931 42.966137 -1.184082 0.744243 -0.020352 -0.001347 323781.000000 0 0 1
10.264123 -26.068933 30.780421 41.621819 -1.195707 0.738430 -0.032908 -0.006066 -327390.000000 0 0 1
10.598823 -24.597933 30.922011 40.909218 -1.163954 0.713816 -0.041633 -0.002984 -326773.000000 0 0 1
10.000423 -24.058933 32.083361 41.330168 -1.176860 0.682069 -0.011362 -0.006478 196173.000000 0 0 1
10.640523 -22.873633 32.479411 41.125855 -1.135385 0.660384 -0.017731 -0.000139 -58723.300000 0 0 1
9.980723 -22.385033 33.794486 41.746518 -1.151386 0.627469 -0.017738 0.003091 -557273.000000 0 0 1
10.145723 -23.173733 -34.051385 42.419976 -1.158125 2.502640 -0.011778 0.003473 40876.600000 0 0 1
11.466523 -23.454033 -33.650365 42.590138 -1.116073 2.481764 -0.005954 0.001206 -58989.300000 0 0 1
12.328123 -22.344133 -33.048765 41.754805 -1.066619 2.484049 0.000945 -0.006427 -465892.000000 0 0 1
12.633423 -21.314533 -33.937665 42.019969 -1.035751 2.510962 -0.002995 -0.001801 438197.000000 0 0 1
13.642123 -20.450733 -33.405205 41.475869 -0.982513 2.507168 -0.004302 -0.003899 223181.000000 0 0 1
13.720223 -19.127033 -34.217916 41.532562 -0.948540 2.539022 -0.001285 0.001786 -477518.000000 0 0 1
14.185723 -19.387433 33.474009 41.202143 -0.939113 0.622482 0.013541 0.004706 285239.000000 0 0 1
14.006523 -18.288133 32.606411 39.922632 -0.917209 0.615058 -0.004736 0.005908 -53251.000000 0 0 1
14.825523 -16.966733 32.759391 39.759827 -0.852647 0.602481 0.009212 0.004464 -375674.000000 0 0 1
14.498523 -16.105333 33.877946 40.215720 -0.837854 0.569064 0.000615 0.007510 331437.000000 0 0 1
15.106823 -14.812233 33.805132 39.879886 -0.775552 0.559211 0.027652 -0.003137 450192.000000 0 0 1
16.607123 -14.635233 34.213404 40.749768 -0.722366 0.574254 0.037447 -0.001208 567687.000000 0 0 1
17.467923 -15.453733 33.433707 40.764678 -0.724293 0.609099 0.044247 -0.003658 734214.000000 0 0 1
18.817223 -14.943733 33.514342 41.238503 -0.671165 0.622033 0.050615 -0.007128 765126.000000 0 0 1
19.814923 -15.727433 32.648041 41.302274 -0.670898 0.659227 0.058418 -0.008533 -312984.000000 0 0 1
19.804523 -15.379033 31.313921 40.116024 -0.660272 0.675197 0.045243 -0.001082 250062.000000 0 0 1
20.719723 -16.125633 30.540891 40.275166 -0.661353 0.710086 0.044591 -0.001670 -180940.000000 0 0 1
20.940323 -15.548733 29.165461 39.126517 -0.638701 0.729640 0.047423 0.008289 168466.000000 0 0 1
21.813523 -14.416533 29.276871 39.253043 -0.583999 0.728987 0.024388 0.004383 562556.000000 0 0 1
22.183223 -13.790633 28.013491 38.301861 -0.556201 0.750442 0.019157 0.003933 115987.000000 0 0 1
22.796923 -12.423833 28.329991 38.427070 -0.498980 0.741820 0.018811 0.004633 1195640.000000 0 0 1
21.790223 -11.404333 28.684511 37.784571 -0.482168 0.708776 0.018397 0.001896 1586410.000000 0 0 1
22.501523 -10.228633 29.119071 38.195075 -0.426652 0.703817 0.027140 -0.002881 155079.000000 0 0 1
21.614623 -8.996833 29.130471 37.372707 -0.394426 0.676996 0.030126 -0.001942 417434.000000 0 0 1
20.580623 -9.052333 30.130471 37.594575 -0.414379 0.641067 0.027757 -0.012950 419722.000000 0 0 1
19.673123 -7.980733 29.977101 36.733506 -0.385382 0.616219 0.027075 -0.006605 962662.000000 0 0 1
18.482523 -7.905833 31.038961 36.980034 -0.404195 0.574721 0.021855 -0.001955 534456.000000 0 0 1
18.916223 -7.465033 32.276211 38.148447 -0.375874 0.562229 0.024450 -0.004772 227416.000000 0 0 1
19.311323 -8.524933 33.115353 39.271214 -0.415719 0.567500 0.030558 -0.011224 -865685.000000 0 0 1
19.400323 -8.105433 -34.383055 40.302172 -0.395755 2.592755 0.036836 -0.020661 -782456.000000 0 0 1
18.177623 -7.949633 -33.750995 39.150381 -0.412268 2.610168 0.025011 -0.021468 -602283.000000 0 0 1
18.230323 -7.096933 -32.641175 38.054664 -0.371242 2.601662 0.023020 -0.015179 242566.000000 0 0 1
16.854023 -6.871133 -31.954515 36.774469 -0.387114 2.623837 0.020830 -0.016644 321330.000000 0 0 1
16.995423 -5.931833 -30.937025 35.792884 -0.335806 2.614622 0.014863 -0.014151 99804.500000 0 0 1
15.871723 -5.948033 -30.094245 34.539170 -0.358557 2.628657 0.006135 -0.008550 -311841.000000 0 0 1
15.863223 -4.767133 -29.076695 33.463735 -0.291929 2.623775 -0.003929 -0.006411 60051.400000 0 0 1
16.707023 -4.860633 -27.913715 32.892641 -0.283118 2.584188 -0.005016 -0.002792 531230.000000 0 0 1
16.398423 -5.912233 -26.951255 32.097241 -0.346031 2.567481 -0.003013 -0.007279 -520327.000000 0 0 1
15.092223 -5.723133 -26.180395 30.756179 -0.362457 2.589109 -0.015018 -0.006832 -298010.000000 0 0 1
15.085823 -4.554533 -25.319355 29.822736 -0.293206 2.584877 -0.023576 0.001622 -752837.000000 0 0 1
13.783423 -4.470733 -24.850755 28.766825 -0.313649 2.613696 -0.019314 0.005811 -460957.000000 0 0 1
13.412323 -3.276433 -23.966555 27.659016 -0.239593 2.618945 -0.018455 0.007974 3689.200000 0 0 1
13.628223 -2.039433 -24.637155 28.229013 -0.148545 2.631625 -0.021846 0.002384 107325.000000 0 0 1
13.354823 -0.938433 -23.810455 27.316107 -0.070154 2.629383 -0.016196 0.010564 -198110.000000 0 0 1
13.900723 0.356567 -24.332455 28.025446 0.025645 2.622414 -0.027644 0.001897 -370165.000000 0 0 1
13.133023 0.946567 -25.374565 28.587424 0.071951 2.662933 -0.013867 -0.000137 -35952.900000 0 0 1
13.656423 2.166567 -25.805515 29.276552 0.157337 2.649698 -0.019654 0.014843 -482288.000000 0 0 1
13.038623 2.765567 -27.062735 30.166963 0.209008 2.683954 -0.017545 0.008861 761798.000000 0 0 1
11.721423 3.320567 -26.892045 29.522873 0.276057 2.716228 -0.006452 -0.001402 830085.000000 0 0 1
11.096723 3.864567 -28.034755 30.397691 0.335126 2.744698 0.012747 -0.005571 96885.300000 0 0 1
9.782123 4.621567 -27.793195 29.824663 0.441366 2.770375 0.032396 -0.009711 20183.100000 0 0 1
9.988723 5.822567 -27.037835 29.406146 0.527762 2.737506 0.027066 -0.015015 -140543.000000 0 0 1
8.902323 6.698567 -27.170765 29.366182 0.645068 2.752464 0.033833 -0.023431 -148924.000000 0 0 1
7.697023 5.004284 -31.610715 32.916931 0.576487 2.858936 0.033169 -0.020730 -100798.000000 0 0 1
7.566423 4.002884 -30.628785 31.802458 0.486603 2.869070 0.033593 -0.016504 351099.000000 0 0 1
7.621523 2.765584 -31.256585 32.291023 0.348090 2.887792 0.019797 -0.013845 -168074.000000 0 0 1
7.571823 1.605484 -30.179065 31.155835 0.208939 2.890530 0.022798 -0.013146 -426459.000000 0 0 1
8.745423 1.519984 -29.432935 30.742323 0.172084 2.848682 0.023428 -0.014216 -285461.000000 0 0 1
8.519723 0.750184 -28.295045 29.559398 0.087826 2.848056 0.021312 -0.012078 475856.000000 0 0 1
9.845423 0.257484 -27.622735 29.325998 0.026147 2.799098 0.012467 -0.009483 348481.000000 0 0 1
10.500123 -0.760516 -28.304985 30.199390 -0.072303 2.785511 0.000256 -0.002266 45648.300000 0 0 1
11.553023 -1.322916 -27.532755 29.887707 -0.114012 2.741967 -0.001635 0.000688 -107427.000000 0 0 1
12.147723 -2.617016 -28.085595 30.711831 -0.212190 2.725037 -0.009856 -0.001202 183733.000000 0 0 1
11.284923 -3.775216 -28.042635 30.462947 -0.322833 2.740280 -0.001652 0.003368 162149.000000 0 0 1
11.966923 -4.960416 -28.372255 31.189707 -0.392953 2.713279 -0.002534 0.000095 -302155.000000 0 0 1
11.199123 -6.211316 -27.890665 30.690226 -0.506387 2.711147 -0.008641 0.006069 -154429.000000 0 0 1
11.009823 -6.111316 -26.498785 29.338541 -0.506734 2.697981 -0.006487 0.008380 76537.100000 0 0 1
10.768523 -7.304116 -25.874075 28.961681 -0.596002 2.675631 -0.000135 0.004877 -233764.000000 0 0 1
10.527023 -7.056716 -24.393155 27.488933 -0.590543 2.662429 0.014927 -0.001924 -23207.800000 0 0 1
11.657223 -6.970616 -23.533055 27.171401 -0.538922 2.618136 0.003270 0.002349 255623.000000 0 0 1
11.232623 -6.792316 -22.149255 25.746784 -0.543865 2.606601 0.021739 -0.004259 -177127.000000 0 0 1
12.419623 -6.728116 -21.217355 25.489032 -0.496474 2.554241 0.017433 -0.007050 -121473.000000 0 0 1
13.100423 -5.471516 -21.116655 25.445465 -0.395637 2.549687 0.002872 -0.006553 -201731.000000 0 0 1
14.091523 -5.525316 -20.128455 25.184416 -0.373679 2.496830 -0.005099 -0.006905 -60129.600000 0 0 1
14.593423 -4.170016 -19.634955 24.817101 -0.278329 2.483543 -0.001309 -0.007744 -98613.100000 0 1 0
15.277123 -3.442716 -20.619455 25.892174 -0.221649 2.492047 -0.006320 -0.003947 150890.000000 0 0 1
15.663923 -2.099216 -20.261255 25.695985 -0.133222 2.479161 -0.010007 0.005686 -488283.000000 0 0 1
16.656823 -1.414816 -21.149355 26.958239 -0.084736 2.472723 -0.003825 0.000982 276559.000000 0 0 1
17.948923 -2.055716 -21.191355 27.847142 -0.114035 2.435632 -0.004874 -0.005796 1234010.000000 0 0 1
18.921623 -1.122116 -21.733055 28.837695 -0.059234 2.424369 0.001304 0.001185 559079.000000 0 0 1
20.255023 -1.827716 -22.078855 30.018033 -0.089991 2.397230 0.003795 -0.004517 -854991.000000 0 0 1
21.086023 -2.125416 -20.974455 29.817202 -0.100458 2.351015 -0.002003 -0.000579 754704.000000 0 0 1
22.254023 -2.899616 -21.274455 30.923320 -0.129566 2.329491 -0.004221 0.000163 1085930.000000 0 0 1
23.414523 -2.228116 -22.080555 32.260739 -0.094874 2.324632 0.003805 -0.003928 -902941.000000 0 0 1
22.998623 -1.921316 -23.409655 32.873090 -0.083347 2.363313 0.013030 -0.007307 324386.000000 0 0 1
23.870223 -1.157316 -24.267955 34.059662 -0.048446 2.363870 0.012505 -0.005011 28792.700000 0 0 1
25.117423 -1.879916 -24.807955 35.353269 -0.074706 2.348600 0.027765 -0.007628 -843383.000000 0 0 1
26.117623 -1.971816 -23.807455 35.395101 -0.075355 2.308540 0.029139 0.000508 329553.000000 0 0 1
27.330923 -2.514216 -24.325755 36.674828 -0.091733 2.295992 0.028922 0.008124 832103.000000 0 0 1
28.299723 -1.632116 -25.191745 37.923108 -0.057609 2.297333 0.028308 0.000911 -678728.000000 0 0 1
27.806823 -1.393516 -26.464575 38.412693 -0.050072 2.330841 0.042004 -0.009890 180846.000000 0 0 1
28.413523 -0.323116 -27.153115 39.302981 -0.011371 2.333483 0.032418 -0.009822 -968416.000000 0 0 1
27.817923 -0.229516 -28.508475 39.832432 -0.008250 2.368437 0.036797 -0.016038 780339.000000 0 0 1
26.437723 0.171784 -28.610725 38.955825 0.006498 2.395638 0.038618 -0.012143 894768.000000 0 0 1
26.105423 1.473284 -28.187865 38.447619 0.056376 2.393738 0.031080 -0.012469 -2049360.000000 0 0 1
24.660123 1.807984 -28.296665 37.577809 0.073185 2.423429 0.036935 -0.015930 -1675940.000000 0 0 1
23.868423 1.496284 -27.185005 36.207250 0.062607 2.420094 0.038852 -0.016871 -914688.000000 0 0 1
22.555523 1.606084 -27.621035 35.696676 0.071086 2.455568 0.031240 -0.014949 -1041080.000000 0 0 1
21.550623 1.227584 -26.524055 34.197395 0.056901 2.458487 0.024344 -0.012796 -231665.000000 0 0 1
21.650723 2.127384 -25.448975 33.480291 0.097945 2.434291 0.024357 -0.014055 110353.000000 0 0 1
20.704623 1.799584 -24.464455 32.100303 0.086699 2.437386 0.014543 -0.011067 -227848.000000 0 0 1
20.973023 2.403384 -23.065455 31.267541 0.114096 2.400425 0.007217 -0.004334 -393246.000000 0 0 1
20.883423 3.812584 -22.955055 31.266399 0.180576 2.395249 0.007131 -0.007493 345331.000000 0 0 1
21.113323 4.236984 -21.603055 30.502728 0.198048 2.357789 -0.006002 -0.001760 -327923.000000 0 0 1
20.621223 5.646784 -21.186455 30.099616 0.267281 2.351639 -0.004147 -0.001864 -598732.000000 0 0 1
21.424223 6.571584 -21.803355 31.266105 0.297625 2.342487 -0.004698 -0.000958 -189143.000000 0 0 1
21.151323 7.892484 -21.451855 31.142444 0.357142 2.330670 -0.008986 -0.010920 -692324.000000 0 0 1
21.552623 8.277084 -20.012155 30.553429 0.366673 2.284964 -0.014697 -0.007370 -2032570.000000 0 0 1
22.891123 8.320084 -19.809155 31.394743 0.348618 2.253600 -0.020251 -0.004753 -1310310.000000 0 0 1
23.309223 8.636884 -18.453055 30.958535 0.354850 2.209378 -0.002139 -0.004970 -177659.000000 0 0 1
23.088223 10.077184 -17.868355 30.885171 0.411541 2.187736 0.005071 -0.009991 577800.000000 0 0 1
21.709023 10.438484 -17.667155 29.872596 0.448199 2.203611 0.006485 -0.012807 678701.000000 0 0 1
21.726623 11.784084 -17.238855 30.134513 0.496974 2.179816 0.018899 -0.009470 367671.000000 0 0 1
20.269423 12.316884 -16.931955 29.141829 0.546032 2.190776 0.016775 -0.015266 1374710.000000 0 0 1
19.320923 12.205184 -17.997155 29.088866 0.563409 2.237878 0.018364 -0.021215 377189.000000 0 0 1
18.810323 10.927884 -18.169555 28.343952 0.526295 2.266646 0.018752 -0.022780 -1058780.000000 0 0 1
17.938323 10.806084 -19.437255 28.572045 0.542184 2.318954 0.031431 -0.022476 196385.000000 0 0 1
18.731223 10.818084 -20.614455 29.880519 0.523743 2.332142 0.029292 -0.015612 551499.000000 0 0 1
17.930323 10.424284 -21.720355 30.032249 0.526614 2.379271 0.022434 -0.019884 276363.000000 0 0 1
18.694623 10.552584 -23.083655 31.523024 0.513886 2.392459 0.033484 -0.025241 17077.100000 0 0 1
18.877123 11.881784 -23.501555 32.401321 0.561777 2.382306 0.032957 -0.020666 539932.000000 0 0 1
19.795823 12.012984 -24.586855 33.774248 0.545437 2.386162 0.030659 -0.023582 150708.000000 0 0 1
19.949823 13.468984 -24.943055 34.663597 0.593848 2.373986 0.026506 -0.011856 -239723.000000 0 0 1
20.872623 13.793684 -25.963555 36.056044 0.583965 2.374727 0.018932 -0.014024 182190.000000 0 0 1
20.787823 15.124484 -26.502475 36.922415 0.628987 2.371417 0.019765 -0.009195 -154671.000000 0 0 1
19.534723 15.559684 -27.303285 37.002412 0.672612 2.400718 0.030881 -0.009958 42580.500000 0 0 1
18.362223 15.496384 -26.528075 35.791729 0.700958 2.405621 0.030267 -0.003337 479365.000000 0 0 1
17.199223 15.878184 -27.305405 35.965471 0.745482 2.432897 0.031719 -0.009326 562893.000000 0 0 1
15.860023 15.550884 -26.651675 34.694122 0.775557 2.446805 0.029567 -0.011155 -366631.000000 0 0 1
15.669023 14.125984 -26.488205 33.862763 0.733656 2.469021 0.029185 -0.009774 -80642.600000 0 0 1
14.328323 13.731384 -26.337165 32.977234 0.764127 2.495840 0.031802 -0.013287 -210692.000000 0 0 1
14.212323 12.188184 -26.112125 32.130749 0.708877 2.519539 0.027417 -0.016981 -1322470.000000 0 0 1
12.928623 11.729984 -26.163245 31.452459 0.736827 2.553201 0.025861 -0.018958 -1248840.000000 0 0 1
12.846423 10.481884 -25.523375 30.435886 0.684384 2.565495 0.031484 -0.014533 -258490.000000 0 0 1
11.391123 9.988484 -25.511395 29.670840 0.719886 2.605701 0.029361 -0.023156 62569.400000 0 0 1
10.612223 10.462584 -24.415255 28.604014 0.778298 2.593578 0.028817 -0.016188 -4693.590000 0 0 1
9.408523 9.735284 -24.289755 27.808061 0.802465 2.633099 0.038356 -0.018085 -426669.000000 0 0 1
8.508023 10.268084 -23.220555 26.777120 0.878864 2.620306 0.038733 -0.018069 -528464.000000 0 0 1
7.646523 11.339684 -23.535455 27.220863 0.977517 2.615172 0.035062 -0.018166 211786.000000 0 0 1
6.947623 11.918384 -22.418855 26.323419 1.043020 2.589959 0.035463 -0.007768 720578.000000 0 0 1
7.809423 12.866384 -21.465155 26.216098 1.025272 2.530075 0.033240 -0.012732 245472.000000 0 0 1
8.613823 12.163284 -20.585255 25.414487 0.954600 2.514916 0.028838 -0.020697 -858875.000000 0 0 1
9.515023 12.953384 -19.915955 25.592403 0.937251 2.462588 0.026311 -0.014231 -1056900.000000 0 0 1
10.629723 12.270884 -19.124655 25.086212 0.856940 2.437744 0.036401 -0.018447 128168.000000 0 0 1
11.744223 11.718884 -19.829055 25.854408 0.784318 2.444872 0.046363 -0.027921 477617.000000 0 0 1
11.397923 10.700484 -20.724655 25.960052 0.753848 2.495311 0.049902 -0.032019 -1055330.000000 0 0 1
12.609523 10.312784 -21.569155 27.029281 0.685535 2.494753 0.047578 -0.033608 131527.000000 0 0 1
13.475723 9.384884 -20.906255 26.584632 0.608325 2.475762 0.055854 -0.032122 -123101.000000 0 0 1
14.289223 8.794084 -21.853855 27.551929 0.551691 2.486822 0.054474 -0.028263 -240630.000000 0 0 1
15.017823 7.451584 -21.372455 27.163264 0.460589 2.476427 0.054030 -0.020152 141294.000000 0 0 1
15.803823 7.641784 -20.242055 26.793627 0.450393 2.427183 0.035195 -0.022861 -217559.000000 0 0 1
16.182523 6.409984 -19.739755 26.317672 0.377144 2.418945 0.020147 -0.011421 -271382.000000 0 0 1
16.895123 6.547784 -18.407355 25.829235 0.369732 2.364073 0.004550 -0.014775 -167605.000000 0 0 1
18.184723 7.178984 -18.509755 26.922722 0.375999 2.328857 0.005816 -0.020523 763745.000000 0 0 1
18.682823 7.268284 -17.172555 26.396448 0.371019 2.279122 -0.004451 -0.012809 117499.000000 0 0 1
19.329123 5.988784 -16.466355 26.088721 0.300453 2.253854 -0.013704 -0.006413 -1101750.000000 0 0 1
20.579923 5.752084 -17.002455 27.307566 0.272545 2.242893 -0.023586 -0.003041 -507185.000000 0 0 1
21.226423 4.746584 -16.231955 27.139776 0.219997 2.211909 -0.017749 -0.007515 219028.000000 0 0 1
22.626623 4.374184 -16.815855 28.528416 0.190965 2.201165 -0.022173 0.027117 -29663.000000 0 0 1
23.225123 3.315984 -16.144055 28.478634 0.141817 2.173514 -0.024292 0.018531 530153.000000 0 0 1
24.255623 2.775084 -16.994555 29.746449 0.113915 2.178902 -0.008171 0.007455 332455.000000 0 0 1
25.101823 1.669584 -16.326155 29.990538 0.066415 2.146442 0.007396 -0.005944 -208990.000000 0 0 1
24.524723 0.374684 -16.318855 29.460269 0.015277 2.157871 0.001502 0.004433 409003.000000 0 0 1
25.571923 -0.543016 -15.972255 30.155116 -0.021232 2.129008 -0.001642 0.004064 298562.000000 0 0 1
25.292723 -2.045916 -16.064155 30.032727 -0.080714 2.135172 -0.003237 0.000224 -429058.000000 0 0 1
24.819623 -2.731516 -14.918755 29.086837 -0.109614 2.109361 0.002455 -0.004451 342672.000000 0 0 1
24.656323 -4.140616 -15.191955 29.255332 -0.166381 2.116814 -0.000286 -0.001243 -1000970.000000 0 0 1
24.081923 -4.934916 -13.952555 28.265990 -0.202124 2.087039 -0.001241 -0.005009 -567022.000000 0 0 1
22.746623 -4.787616 -13.593655 26.928007 -0.207448 2.099964 0.001372 -0.000576 -44819.200000 0 0 1
21.826823 -5.273216 -14.613355 26.791177 -0.237051 2.147727 -0.000558 0.002646 629973.000000 0 0 1
20.329623 -5.270416 -14.101755 25.296844 -0.253664 2.162109 0.008090 -0.003500 767240.000000 0 0 1
20.008723 -6.322316 -13.202855 24.791854 -0.306050 2.132405 0.007385 -0.000328 388083.000000 0 1 0
20.414423 -5.920116 -11.882155 24.351222 -0.282254 2.080535 0.021062 -0.007261 -727795.000000 0 1 0
20.320423 -7.070216 -10.778555 24.064180 -0.334835 2.035221 0.028032 -0.004802 101543.000000 0 1 0
19.026923 -7.668816 -10.670755 23.123571 -0.383134 2.050444 0.028131 -0.002715 938142.000000 0 1 0
18.761823 -8.517216 -11.757655 23.723225 -0.426147 2.089342 0.014595 -0.007886 -398507.000000 0 1 0
17.380823 -9.257016 -11.744955 22.928788 -0.489386 2.108583 0.033524 -0.005964 338770.000000 0 1 0
16.325923 -8.351016 -11.925255 21.874344 -0.472820 2.147389 0.021981 -0.007153 -429864.000000 0 1 0
15.126823 -8.977616 -12.312455 21.471258 -0.535619 2.181494 0.022336 -0.005455 -47968.200000 0 1 0
14.000123 -7.972316 -12.622255 20.466621 -0.517650 2.235370 0.017918 -0.004032 -385538.000000 0 1 0
14.223023 -6.994316 -13.645755 20.914623 -0.457034 2.281610 0.024017 -0.006873 504328.000000 0 1 0
15.194423 -6.003016 -13.262655 21.042925 -0.376258 2.252693 0.014724 -0.012032 99819.000000 0 1 0
15.280323 -4.823116 -14.267655 21.454992 -0.305745 2.298295 0.016909 -0.013928 -407605.000000 0 1 0
14.114223 -4.053316 -14.241055 20.456009 -0.279654 2.340858 0.015817 -0.015435 -156696.000000 0 1 0
13.802223 -3.396616 -15.454255 20.996961 -0.241297 2.397974 0.011550 -0.010831 -231093.000000 0 1 0
14.575223 -2.090616 -15.668555 21.501428 -0.142465 2.387250 0.003751 -0.011292 -669387.000000 0 1 0
15.742423 -2.337316 -16.405755 22.856853 -0.147396 2.371378 -0.003118 -0.006995 65172.100000 0 1 0
16.749423 -1.325916 -16.282955 23.397347 -0.078997 2.340513 -0.001030 -0.001237 680266.000000 0 1 0
17.850323 -1.769416 -15.277155 23.561755 -0.098802 2.276261 0.000577 0.001907 -566489.000000 0 1 0
17.371323 -1.800416 -13.935055 22.342563 -0.103274 2.244264 0.000517 0.004500 -119385.000000 0 1 0
18.404423 -2.267916 -13.115555 22.713080 -0.122609 2.186392 -0.002556 0.007989 -313403.000000 0 1 0
18.088423 -2.481616 -11.603955 21.633336 -0.136342 2.136953 0.006572 0.000606 -418520.000000 0 1 0
17.927223 -1.340316 -10.803855 20.973913 -0.074625 2.111931 0.009859 -0.002666 571327.000000 0 1 0
17.470723 -1.656616 -9.519155 19.964590 -0.094540 2.067809 0.017418 -0.007693 -1051240.000000 0 1 0
17.485823 -0.391916 -8.586355 19.484175 -0.022410 2.027156 0.016581 -0.007505 587441.000000 0 1 0
18.783923 0.028884 -8.108955 20.459515 0.001538 1.978325 0.017223 -0.003712 1295790.000000 0 1 0
19.662323 0.699184 -8.978755 21.626693 0.035545 1.998926 0.002954 0.003794 -371497.000000 0 1 0
19.229323 2.075984 -9.508955 21.552187 0.107543 2.027738 -0.008053 0.001703 -633065.000000 0 1 0
19.198623 3.063984 -8.564855 21.244572 0.158259 1.985758 -0.007492 0.002284 685938.000000 0 1 0
18.622723 4.213484 -9.210355 21.198818 0.222509 2.020252 -0.012431 -0.004625 -244956.000000 0 1 0
18.646423 5.593084 -8.512855 21.247126 0.291415 1.983032 0.015367 -0.007937 -1117490.000000 0 1 0
17.965123 6.387184 -9.374955 21.246918 0.341595 2.027774 0.011791 -0.011359 201192.000000 0 1 0
18.236723 7.761984 -9.086055 21.803276 0.402399 2.000640 0.020805 -0.004703 -1082350.000000 0 1 0
-25.124637 -29.200196 5.406945 38.899022 0.860280 1.431345 0.020290 -0.002646 -444831.000000 0 0 1
-25.612737 -28.325776 6.383745 38.718395 0.835655 1.405164 0.013603 -0.007999 -114516.000000 0 0 1
-24.715677 -27.222216 6.615345 37.358755 0.833621 1.392781 0.022206 -0.013562 -145557.000000 0 0 1
-25.177777 -26.183156 7.645345 37.120472 0.804970 1.363351 0.011411 -0.013964 -438255.000000 0 0 1
-26.336057 -25.443456 7.282245 37.336155 0.768161 1.374493 -0.002879 -0.011777 1241070.000000 0 0 1
-27.592707 -26.100376 7.644545 38.743080 0.757612 1.372179 0.017827 -0.007690 1056330.000000 0 0 1
-28.013197 -26.316046 9.104345 39.498894 0.754170 1.338209 0.007135 -0.002385 -987028.000000 0 0 1
-27.083697 -27.040206 9.838845 39.515849 0.784595 1.319164 0.001424 -0.006021 -622884.000000 0 0 1
-27.430977 -27.175816 11.175845 40.198047 0.780725 1.289065 0.005025 -0.005023 481403.000000 0 0 1
-26.270397 -27.875356 12.002845 40.140224 0.815031 1.267128 -0.008101 -0.000402 974592.000000 0 0 1
-25.116177 -27.113346 12.271545 38.942865 0.823618 1.250217 -0.000307 0.001698 -184898.000000 0 0 1
-25.172147 -26.389956 13.502945 38.889540 0.809012 1.216199 0.008854 0.000784 -1153180.000000 0 0 1
-23.836877 -25.878536 13.964245 37.853606 0.826442 1.192970 0.026264 -0.005476 -377254.000000 0 0 1
-22.965877 -26.910796 14.497545 38.233510 0.864327 1.181882 0.041066 -0.008997 -345200.000000 0 0 1
-21.974377 -26.409966 15.301245 37.609675 0.876817 1.151801 0.043936 -0.011869 -453087.000000 0 0 1
-21.160877 -27.461056 16.065645 38.209911 0.914255 1.136847 0.033943 -0.010759 -111991.000000 0 0 1
-21.987977 -28.122216 17.008345 39.542559 0.907207 1.126162 0.040432 -0.002868 262299.000000 0 0 1
-21.368077 -29.278446 17.554945 40.274039 0.940334 1.119772 0.036042 -0.005054 -153587.000000 0 0 1
-22.148877 -30.017506 18.679345 41.719796 0.935107 1.106568 0.049976 -0.006028 -93289.600000 0 0 1
-23.225277 -30.744586 18.118245 42.578327 0.923831 1.131252 0.020270 -0.000785 121070.000000 0 0 1
-23.541177 -31.940086 18.827645 43.918520 0.935640 1.127749 0.021717 0.000649 -326146.000000 0 0 1
-24.583077 -32.838176 18.159845 44.860378 0.928184 1.154027 0.010922 -0.001450 -205600.000000 0 0 1
-24.126177 -33.505126 17.012345 44.655188 0.946724 1.179950 0.012925 -0.005827 23815.200000 0 0 1
-25.113467 -34.384031 16.532045 45.675555 0.939970 1.200443 0.010066 -0.007738 -565535.000000 0 0 1
-24.726977 34.039901 15.188245 44.730539 -0.942564 1.224358 0.006298 -0.010230 1260220.000000 0 0 1
-23.508577 33.230406 15.150845 43.433411 -0.955093 1.214475 0.001634 -0.006922 923135.000000 0 0 1
-22.336177 33.953775 14.973345 43.312409 -0.988929 1.217806 0.013344 -0.009963 -571408.000000 0 0 1
-21.029077 33.131610 15.141945 42.061909 -1.005243 1.202537 0.036732 -0.011740 261892.000000 0 0 1
-20.875477 32.223280 14.042845 40.881864 -0.995942 1.220157 0.038203 -0.004868 -58611.700000 0 0 1
-19.884277 31.257560 14.307045 39.712858 -1.004224 1.202247 0.034541 -0.003837 -93983.300000 0 0 1
-19.704377 30.409470 12.995645 38.495261 -0.995851 1.226440 0.031242 -0.006202 -27585.600000 0 0 1
-19.012877 31.080720 11.998245 38.359595 -1.021800 1.252674 0.022252 -0.000182 -317769.000000 0 0 1
-19.325277 30.497190 10.773645 37.677797 -1.005984 1.280808 0.025535 0.000510 -188708.000000 0 0 1
-18.795177 31.097840 9.480845 37.552906 -1.027156 1.315568 0.012710 0.008982 -303585.000000 0 0 1
-17.393677 31.002490 9.359945 36.760073 -1.059516 1.313339 0.015898 -0.002601 -466082.000000 0 0 1
-17.025077 31.631010 8.148945 36.834486 -1.077027 1.347719 0.016054 -0.001537 27204.300000 0 0 1
-16.583977 30.655740 7.020645 35.554074 -1.074909 1.372026 0.010014 0.000833 -127551.000000 0 0 1
-17.588977 29.776600 6.524145 35.193501 -1.037245 1.384339 0.003383 0.004292 7888.660000 0 0 1
-17.722577 28.578440 7.244645 34.399155 -1.015701 1.358602 -0.009200 0.004763 -230874.000000 0 0 1
-18.730577 27.664470 6.541945 34.043421 -0.975631 1.377429 -0.000400 0.013458 53969.800000 0 0 1
-18.223177 27.058560 5.394945 33.065924 -0.978097 1.406906 0.008708 0.003269 873116.000000 0 0 1
-19.327377 26.342650 4.798145 33.022794 -0.937815 1.424982 0.014501 0.000299 276357.000000 0 0 1
-18.906077 25.306910 3.709745 31.806315 -0.929172 1.453895 0.024949 -0.011335 -1269890.000000 0 0 1
-18.598577 25.788590 2.424645 31.887888 -0.945987 1.494686 0.029975 -0.017806 1115510.000000 0 0 1
-17.364777 26.522130 2.191945 31.776776 -0.991105 1.501762 0.026139 -0.020291 1139040.000000 0 0 1
-16.047377 25.731520 2.596245 30.436326 -1.013171 1.485392 0.016041 -0.019677 -222486.000000 0 0 1
-15.716777 24.590020 1.867145 29.243331 -1.002084 1.506904 0.025967 -0.028020 -54382.300000 0 0 1
-15.239277 24.912340 0.591645 29.209764 -1.021807 1.550540 0.039829 -0.024750 -569074.000000 0 0 1
-15.119077 23.788000 -0.419255 28.189204 -1.004628 1.585670 0.037507 -0.024062 273192.000000 0 0 1
-16.314477 23.087600 -0.798255 28.281384 -0.955632 1.599026 0.045515 -0.034390 279391.000000 0 0 1
-16.342077 22.099000 -1.839755 27.546579 -0.934053 1.637633 0.047224 -0.026782 -236173.000000 0 0 1
-15.381577 20.902200 -1.534555 25.997111 -0.936391 1.629859 0.050518 -0.029167 374259.000000 0 0 1
-15.817677 20.132400 -0.393155 25.605996 -0.904847 1.586151 0.056746 -0.035049 717340.000000 0 0 1
-14.880377 19.092600 -0.091655 24.206640 -0.908756 1.574583 0.066356 -0.024541 262606.000000 0 1 0
-15.592577 18.173200 0.911145 23.962969 -0.861677 1.532764 0.056069 -0.012919 558520.000000 0 1 0
-16.556377 17.304600 0.310845 23.951189 -0.807491 1.557818 0.050700 -0.003819 702521.000000 0 1 0
-17.266477 16.548200 1.283745 23.950411 -0.764160 1.517171 0.051201 -0.015942 193485.000000 0 1 0
-17.940877 15.265500 0.747345 23.568392 -0.705004 1.539081 0.081716 -0.016886 35903.900000 0 1 0
-18.785177 15.454500 -0.365355 24.328131 -0.688428 1.585815 0.060220 -0.018213 181635.000000 0 1 0
-19.449677 14.276400 -0.700955 24.137044 -0.633193 1.599841 0.047925 -0.012048 -650288.000000 0 1 0
-20.442777 14.560300 -1.876755 25.168069 -0.618898 1.645435 0.044758 -0.003073 -81796.400000 0 0 1
-21.336677 13.493200 -2.206655 25.341460 -0.563899 1.657984 0.032013 -0.005971 1653210.000000 0 0 1
-22.383177 13.185900 -1.247155 26.008268 -0.532365 1.618767 0.032488 0.000866 414717.000000 0 0 1
-23.576977 14.178600 -1.054055 27.532119 -0.541430 1.609090 0.018347 0.005345 -408712.000000 0 0 1
-23.317377 15.413400 -0.398255 27.954098 -0.584088 1.585044 0.012244 -0.006933 172595.000000 0 0 1
-24.450477 16.039500 0.161245 29.242391 -0.580581 1.565282 0.020166 -0.002074 -337650.000000 0 0 1
-23.986577 17.085900 1.201445 29.474181 -0.618941 1.530022 0.008967 -0.010316 189320.000000 0 0 1
-23.486177 16.600200 2.436345 28.863523 -0.615280 1.486287 0.025719 -0.010566 85826.000000 0 0 1
-22.884377 17.533900 3.284045 29.015812 -0.653786 1.457372 0.020260 -0.016176 -453853.000000 0 0 1
-23.710677 18.762500 3.774645 30.470897 -0.669420 1.446600 0.025818 -0.022616 -1093640.000000 0 0 1
-24.671977 18.318100 4.697845 31.085833 -0.638662 1.419090 0.031445 -0.019619 211365.000000 0 0 1
-25.928367 18.970300 4.563845 32.449672 -0.631649 1.429685 0.016220 -0.019843 558144.000000 0 0 1
-26.808467 18.564500 3.327145 32.778110 -0.605665 1.469116 0.016224 -0.013721 -987700.000000 0 0 1
-28.071877 19.166100 3.386845 34.159046 -0.599055 1.471484 0.007141 -0.014299 -47919.000000 0 0 1
-28.910427 18.770100 2.320645 34.547285 -0.575848 1.503573 0.006790 -0.009303 -206823.000000 0 0 1
-30.125637 19.677300 2.115545 36.044774 -0.578604 1.512070 0.023895 -0.020665 -54843.000000 0 0 1
-31.255837 19.437600 2.941645 36.924260 -0.556358 1.491045 0.039191 -0.014957 692360.000000 0 0 1
-32.335587 20.335000 2.667345 38.291215 -0.561380 1.501080 0.031673 -0.012100 370129.000000 0 0 1
-32.753497 21.069200 3.958345 39.145514 -0.571626 1.469504 0.023253 -0.011873 -494115.000000 0 0 1
-31.696257 21.847600 4.422445 38.749560 -0.603495 1.456418 0.033459 -0.019236 199121.000000 0 0 1
-32.109767 22.446400 5.628745 39.579803 -0.610090 1.428100 0.027463 -0.018801 -153889.000000 0 0 1
-31.058967 23.425100 6.182045 39.390512 -0.646192 1.413202 0.034677 -0.028016 -288167.000000 0 0 1
-30.897387 24.549240 5.311645 39.818680 -0.671403 1.437002 0.041982 -0.020638 54488.400000 0 0 1
-30.080567 25.470450 5.949545 39.862030 -0.702599 1.420983 0.022260 -0.018366 -887974.000000 0 0 1
-30.464577 26.954710 5.768645 41.084354 -0.724347 1.429921 0.012974 -0.008670 -345843.000000 0 0 1
-31.520787 27.390890 6.631445 42.282348 -0.715409 1.413309 0.020995 -0.006263 386221.000000 0 0 1
-31.871557 28.730900 6.323145 43.373298 -0.733621 1.424491 0.013003 -0.001062 -268298.000000 0 0 1
-33.060887 29.032450 7.249945 44.592232 -0.720612 1.407488 0.017321 0.000233 -489566.000000 0 0 1
-32.711237 29.071950 8.620645 44.604023 -0.726562 1.376302 0.033755 -0.012609 65947.900000 0 0 1
-33.718967 29.656000 9.392645 45.876670 -0.721376 1.364601 0.038178 -0.009437 206429.000000 0 0 1
-34.859724 28.764440 10.002945 46.288793 -0.689888 1.352979 0.032061 -0.000467 390830.000000 0 0 1
-34.338738 27.575960 10.670745 45.314979 -0.676602 1.333084 0.048274 -0.011188 274163.000000 0 0 1
-35.296397 26.806920 11.374645 45.758378 -0.649541 1.319582 0.035046 -0.005556 -345852.000000 0 0 1
-34.679912 25.585950 11.921645 44.715353 -0.635631 1.300920 0.050328 -0.015757 -384003.000000 0 0 1
-33.554917 25.958590 12.695945 44.282817 -0.658444 1.280014 0.048517 -0.023550 91470.400000 0 0 1
-33.024367 24.918160 13.494945 43.515941 -0.646399 1.255482 0.046510 -0.025467 109948.000000 0 0 1
-31.868277 25.475900 14.370845 43.256558 -0.674383 1.232136 0.057950 -0.026989 7600.910000 0 0 1
-32.322947 26.413460 15.308045 44.460995 -0.685125 1.219300 0.053896 -0.018911 -133636.000000 0 0 1
-31.307317 26.819090 16.180645 44.285720 -0.708336 1.196767 0.065965 -0.015315 -285595.000000 0 0 1
-31.696087 28.049100 17.108145 45.651754 -0.724431 1.186666 0.057563 -0.010505 -133469.000000 0 0 1
-31.835887 29.228820 16.373045 46.216061 -0.742731 1.208661 0.066158 -0.009255 167796.000000 0 0 1
-32.009827 30.384450 17.196645 47.366322 -0.759354 1.199250 0.052722 -0.004091 -141769.000000 0 0 1
-31.650277 31.678700 16.464745 47.711298 -0.785847 1.218460 0.044790 -0.007639 -517646.000000 0 0 1
-30.282467 31.749660 16.211945 46.774950 -0.809046 1.216858 0.034647 -0.006583 -560126.000000 0 0 1
-29.911377 32.954310 15.558245 47.145902 -0.833764 1.234491 0.028532 -0.002124 -128592.000000 0 0 1
-28.430277 33.083190 15.113145 46.164763 -0.860895 1.237273 0.035570 -0.004438 47270.200000 0 0 1
-28.099487 32.361510 13.924345 45.063687 -0.855774 1.256663 0.029048 -0.005745 260051.000000 0 0 1
-27.725127 30.982010 14.228945 43.943492 -0.840818 1.241052 0.035248 -0.007216 -518450.000000 0 0 1
-28.839427 29.953820 14.027845 43.883076 -0.804350 1.245421 0.045116 -0.010811 -217266.000000 0 0 1
-29.203557 29.780030 12.682445 43.595210 -0.795171 1.275615 0.044177 -0.016719 188502.000000 0 0 1
-30.118317 28.701390 12.490645 43.438451 -0.761313 1.279130 0.048586 -0.018337 246465.000000 0 0 1
-30.238737 28.306220 10.997845 42.855291 -0.752401 1.311265 0.042947 -0.014408 432667.000000 0 0 1
-29.058897 27.641300 10.559145 41.472359 -0.760402 1.313355 0.034385 -0.010841 261970.000000 0 0 1
-29.071817 27.682280 9.167445 41.176708 -0.760920 1.346278 0.026667 -0.011707 -455426.000000 0 0 1
-27.870927 27.089600 8.440245 39.772764 -0.771183 1.356959 0.020095 -0.007811 -468312.000000 0 0 1
-27.691367 27.520510 7.106845 39.682459 -0.782304 1.390732 0.011927 -0.006461 -436012.000000 0 0 1
-26.743617 26.762710 6.374945 38.368003 -0.785755 1.403870 0.020848 -0.005577 -631209.000000 0 0 1
-26.544697 27.253970 4.941345 38.364264 -0.798581 1.441637 0.008553 -0.005473 -283097.000000 0 0 1
-25.747997 28.393460 4.731545 38.620402 -0.834221 1.447974 0.010359 -0.002797 91416.500000 0 0 1
-25.514567 28.620730 3.355245 38.488921 -0.842713 1.483511 0.000389 -0.001921 -490505.000000 0 0 1
-24.457077 29.650290 2.980545 38.550901 -0.881085 1.493405 0.000114 0.002969 -537168.000000 0 0 1
-23.152677 29.161630 3.174145 37.370073 -0.899759 1.485756 0.009688 0.002592 -59132.300000 0 0 1
-22.192577 30.205120 2.979345 37.599685 -0.937141 1.491475 0.008269 0.002597 386878.000000 0 0 1
-20.742677 29.813220 3.336645 36.472181 -0.962925 1.479184 0.008900 -0.004311 263244.000000 0 0 1
-19.862477 30.898040 3.067945 36.859452 -0.999471 1.487466 0.009267 -0.001829 -493264.000000 0 0 1
-18.532477 30.490190 3.302845 35.833130 -1.024648 1.478492 0.016171 -0.004541 -191588.000000 0 0 1
-17.456577 31.415800 2.745045 36.044693 -1.063616 1.494566 0.018254 -0.007293 -416035.000000 0 0 1
-17.250777 32.569150 3.548745 37.026105 -1.083698 1.474805 0.016665 -0.006916 133019.000000 0 0 1
-16.182477 33.338135 3.006345 37.179859 -1.118893 1.489848 0.021380 0.000372 265655.000000 0 0 1
-15.823177 -34.537136 3.905245 38.189497 1.141186 1.468358 0.020307 -0.004784 -272376.000000 0 0 1
-16.790977 -33.531676 3.877445 37.700727 1.106549 1.467766 0.012894 -0.007503 -140820.000000 0 0 1
-16.380877 -32.424426 4.697345 36.629791 1.102996 1.442204 0.014799 -0.009298 621739.000000 0 0 1
-17.501377 -31.339316 4.938645 36.233150 1.061490 1.434069 0.010992 0.001200 525251.000000 0 0 1
-17.842477 -30.452646 3.856445 35.504786 1.040802 1.461964 0.009815 0.000974 130314.000000 0 0 1
-18.812177 -29.493486 4.248745 35.239404 1.003016 1.449934 0.016027 -0.002886 30564.100000 0 0 1
-19.303577 -28.577936 3.102845 34.625918 0.976723 1.481065 0.000747 -0.008182 228487.000000 0 0 1
-18.353877 -27.558886 2.810345 33.230334 0.983264 1.486124 -0.000386 -0.010835 -123208.000000 0 0 1
-18.855477 -26.540796 1.963245 32.615904 0.953102 1.510567 -0.004873 -0.008828 45185.500000 0 0 1
-17.950677 -25.301046 1.934145 31.082321 0.953734 1.508530 -0.002936 -0.005153 84997.300000 0 0 1
-16.749077 -25.461056 1.232045 30.501064 0.988936 1.530392 -0.016528 0.000013 -886281.000000 0 0 1
-15.906877 -24.339916 1.361545 29.108660 0.991943 1.524005 -0.002741 -0.005241 289907.000000 0 0 1
-14.583977 -24.556516 0.577045 28.566552 1.034878 1.550595 0.019701 -0.015242 -170404.000000 0 0 1
-14.695677 -24.641016 -0.837255 28.702676 1.033035 1.599970 0.007664 -0.006486 -21326.900000 0 0 1
-15.168077 -23.436016 -1.424155 27.952561 0.996383 1.621767 0.018332 -0.010487 -316801.000000 0 0 1
-15.102977 -23.509916 -3.012555 28.105010 0.999776 1.678192 -0.000277 0.005364 833579.000000 0 0 1
-13.770877 -23.721516 -3.525855 27.654639 1.044822 1.698640 0.004382 0.010071 707082.000000 0 0 1
-13.816477 -23.885916 -4.906755 28.026921 1.046384 1.746776 0.015701 0.015287 750108.000000 0 0 1
-12.507277 -24.371316 -5.638155 27.967514 1.096647 1.773784 0.010314 0.006655 668559.000000 0 0 1
-12.401077 -25.777586 -5.612655 29.150859 1.122399 1.764544 0.002309 0.013221 -429800.000000 0 0 1
-11.626777 -26.241676 -6.683155 29.469850 1.153724 1.799566 0.001584 0.004975 -112022.000000 0 0 1
22.709323 13.099184 28.623631 38.815128 0.523201 0.741532 0.008007 0.008983 -346326.000000 0 0 1
23.404623 11.858084 28.756091 38.926897 0.468958 0.739626 0.009164 0.003732 -240471.000000 0 0 1
22.931423 11.032284 29.772991 39.166215 0.448413 0.707221 0.009292 0.003022 -649722.000000 0 0 1
22.942023 11.524884 31.254841 40.447799 0.465524 0.687680 0.013617 -0.003328 416643.000000 0 0 1
21.817423 12.332084 31.599741 40.331425 0.514469 0.670515 0.006316 0.006928 641148.000000 0 0 1
22.060223 12.789684 32.890361 41.617367 0.525406 0.659492 0.005453 0.002967 -96514.000000 0 0 1
20.996323 13.821084 33.341157 41.755247 0.582161 0.646013 -0.007597 0.007225 389497.000000 0 0 1
19.707023 13.283584 33.636042 41.184993 0.593099 0.615116 -0.012839 0.011905 516962.000000 0 0 1
19.143823 14.091184 -34.335906 41.761248 0.634526 2.536054 -0.006407 0.012447 -695259.000000 0 0 1
17.890223 13.515684 -33.709835 40.485636 0.646998 2.554648 -0.001054 0.013938 -727653.000000 0 0 1
16.870023 13.220484 34.399548 40.530331 0.664702 0.557206 0.003345 0.015039 -712683.000000 0 0 1
15.810423 12.632184 -33.959255 39.531918 0.674118 2.604176 0.003328 0.011655 -638592.000000 0 0 1
14.495523 12.428584 34.308949 39.264409 0.708779 0.507849 0.006822 0.014126 -127629.000000 0 0 1
14.698523 11.477984 33.282653 38.151352 0.662982 0.510737 0.000828 0.019827 -118028.000000 0 0 1
13.465823 10.991284 32.831911 37.149308 0.684563 0.486911 0.001690 0.016480 -101652.000000 0 0 1
13.745223 9.869784 31.741771 35.970596 0.622739 0.489780 -0.007010 0.021800 259392.000000 0 0 1
14.338723 8.691284 32.319281 36.409797 0.544923 0.478572 -0.012993 0.018120 302948.000000 0 0 1
14.822823 7.798684 31.307351 35.506137 0.484330 0.491248 -0.017144 0.008951 171185.000000 0 0 1
15.299523 6.365784 31.765161 35.827699 0.394289 0.480835 -0.003259 0.000018 -504559.000000 0 0 1
14.259623 5.564684 32.198741 35.651949 0.372065 0.443766 -0.004941 0.005616 -553273.000000 0 0 1
14.719023 4.226784 32.482321 35.911231 0.279640 0.440550 0.001782 -0.004638 178419.000000 0 0 1
13.587623 3.261184 32.904621 35.748747 0.235556 0.401588 0.001093 -0.004633 -56115.700000 0 0 1
13.979323 1.910084 33.127206 36.006689 0.135795 0.402641 0.015479 -0.011277 358504.000000 0 0 1
12.827723 1.120484 33.495750 35.885529 0.087127 0.367007 0.015358 -0.011654 553870.000000 0 0 1
13.150923 -0.311616 33.981007 36.438341 -0.023691 0.369351 -0.009039 -0.018134 -195529.000000 0 0 1
13.784523 -1.020416 32.919681 35.703777 -0.073891 0.397524 0.004416 -0.008253 -59783.000000 0 0 1
14.142023 -2.253616 33.411909 36.351496 -0.158027 0.404919 0.028943 -0.012497 -376417.000000 0 0 1
14.246523 -3.304716 32.249211 35.410396 -0.227935 0.425755 0.034174 -0.015363 -516208.000000 0 0 1
14.649723 -4.633316 32.555901 35.999565 -0.306319 0.440962 0.030330 -0.011840 1514240.000000 0 0 1
15.974323 -4.961916 33.088161 37.075949 -0.301170 0.468066 0.025177 -0.011480 1432590.000000 0 0 1
17.204623 -4.656916 32.219301 36.820772 -0.264344 0.505297 0.026037 -0.011126 -603990.000000 0 0 1
17.447923 -3.297116 32.230841 36.798479 -0.186767 0.503552 0.030031 -0.012464 217986.000000 0 0 1
18.449023 -2.818316 31.333941 36.470881 -0.151590 0.537191 0.045071 -0.015528 7419.230000 0 0 1
18.584223 -1.318316 31.402131 36.513081 -0.070819 0.535479 0.047470 -0.021497 -286482.000000 0 0 1
18.945923 -0.811416 32.674841 37.778984 -0.042802 0.525856 0.047404 -0.022455 21607.800000 0 0 1
18.651023 0.578484 32.669231 37.622785 0.031006 0.518958 0.042732 -0.019820 -298890.000000 0 0 1
19.736123 1.537084 32.170001 37.772823 0.077725 0.551632 0.049189 -0.021957 -674048.000000 0 0 1
19.984323 1.417584 30.779771 36.725699 0.070816 0.577007 0.059226 -0.025518 595782.000000 0 0 1
20.897223 2.382284 30.173831 36.780827 0.113510 0.608741 0.051751 -0.025723 574405.000000 0 0 1
20.283023 3.786984 30.069911 36.468367 0.184582 0.601394 0.036993 -0.019429 -111407.000000 0 0 1
20.348923 4.511684 31.291251 37.597557 0.218187 0.587610 0.028680 -0.017009 962037.000000 0 0 1
19.377223 5.586684 31.240081 37.183739 0.280700 0.573229 0.016845 -0.012019 224041.000000 0 0 1
19.081323 6.173884 32.589271 38.265837 0.312926 0.551662 0.023062 -0.004091 -128943.000000 0 0 1
18.071023 5.457584 33.302630 38.280703 0.293297 0.515678 0.015615 -0.000679 385395.000000 0 0 1
17.930923 6.116984 -34.484899 39.346458 0.328761 2.639219 0.016650 0.001870 -544185.000000 0 0 1
16.853823 5.507784 -33.624175 38.012790 0.315857 2.656323 0.020324 -0.000926 -831014.000000 0 0 1
17.050323 4.095784 -33.415845 37.737351 0.235751 2.658332 0.018627 -0.009945 -128972.000000 0 0 1
15.916123 3.420184 -32.920315 36.725574 0.211669 2.682346 0.012532 -0.015185 -49028.300000 0 0 1
15.884723 1.906284 -33.314665 36.957073 0.119436 2.693886 0.016255 -0.020656 -602529.000000 0 0 1
16.920323 1.184084 -32.745895 36.878083 0.069866 2.663665 0.010842 -0.017625 -409557.000000 0 0 1
16.944023 -0.154816 -33.191145 37.266285 -0.009137 2.669565 0.016127 -0.018501 61999.700000 0 0 1
17.999723 -0.978216 -32.375485 37.055620 -0.054293 2.633553 0.019299 -0.016399 197412.000000 0 0 1
17.785823 -1.174116 -30.957785 35.722521 -0.065919 2.619181 0.012454 -0.013509 204459.000000 0 0 1
17.754323 0.023984 -30.175625 35.011211 0.001351 2.609771 0.008102 -0.011970 -376827.000000 0 0 1
17.379523 -0.000616 -28.687055 33.540944 -0.000035 2.596896 0.005186 -0.004568 363194.000000 0 0 1
16.014823 -0.415616 -28.590995 32.773347 -0.025946 2.630858 0.014948 -0.011145 490072.000000 0 0 1
15.647823 -0.871716 -27.252585 31.437520 -0.055651 2.619707 -0.003177 -0.000818 55675.100000 0 0 1
16.563323 -1.888916 -26.465825 31.278612 -0.113552 2.579481 0.002194 -0.002172 -788861.000000 0 0 1
17.692823 -1.258716 -25.883295 31.377784 -0.071023 2.540808 0.019746 -0.007068 -267607.000000 0 0 1
18.563623 -2.204316 -25.345735 31.494021 -0.118190 2.506100 0.016972 -0.009801 -248409.000000 0 0 1
19.550023 -2.811816 -26.341655 32.924041 -0.142847 2.498214 0.021711 -0.015379 -1192090.000000 0 0 1
20.527123 -1.923716 -26.799025 33.811998 -0.093443 2.485840 0.043232 -0.013481 -345639.000000 0 0 1
20.844723 -2.257816 -28.133545 35.086986 -0.107895 2.501136 0.054422 -0.016978 721016.000000 0 0 1
22.314623 -1.931216 -28.568095 36.301626 -0.086330 2.476670 0.042579 -0.015368 1217450.000000 0 0 1
23.325923 -2.884016 -28.256215 36.753638 -0.123016 2.447760 0.038944 -0.014422 -674119.000000 0 0 1
24.613723 -2.435616 -28.435565 37.687517 -0.098632 2.425702 0.031153 -0.015725 -755521.000000 0 0 1
25.664023 -3.518116 -28.086005 38.207890 -0.136234 2.396587 0.037821 -0.014325 -136616.000000 0 0 1
25.665823 -4.541316 -29.095885 39.063135 -0.175128 2.411095 0.035278 -0.021221 301470.000000 0 0 1
26.650423 -5.527416 -28.845885 39.659582 -0.204505 2.385230 0.027460 -0.021147 -111362.000000 0 0 1
26.330123 -6.615416 -27.760505 38.828916 -0.246154 2.367340 0.024023 -0.016174 -231015.000000 0 0 1
26.430223 -6.047116 -26.478305 37.897558 -0.224924 2.344349 0.019353 -0.004650 380517.000000 0 0 1
26.245723 -7.124816 -25.542675 37.309908 -0.265078 2.324863 0.009485 -0.003047 -367447.000000 0 0 1
26.438723 -6.663716 -24.102855 36.391741 -0.246901 2.294703 0.006844 0.003443 7548.180000 0 0 1
27.751923 -6.227516 -23.781555 37.074432 -0.220743 2.267189 0.003574 0.007840 587070.000000 0 0 1
27.819923 -5.780816 -22.422455 36.195751 -0.204879 2.238873 0.008304 0.007373 559443.000000 0 0 1
29.303823 -5.430816 -22.041955 37.068256 -0.183249 2.207604 0.005007 0.019002 556900.000000 0 0 1
29.697423 -4.205316 -22.641355 37.579949 -0.140670 2.217407 0.009261 0.011615 869408.000000 0 0 1
31.006723 -3.782416 -22.218655 38.332651 -0.121387 2.189068 -0.000169 0.016957 789166.000000 0 0 1
31.615123 -2.543916 -22.867755 39.101428 -0.080292 2.195469 0.005160 0.012604 66321.600000 0 0 1
30.817123 -1.385716 -22.640155 38.264760 -0.044936 2.203927 -0.000414 0.012390 531474.000000 0 0 1
31.474323 -0.199216 -22.997155 38.981301 -0.006329 2.201798 0.005197 0.010814 -45698.700000 0 0 1
30.491123 0.933984 -22.640855 37.989330 0.030622 2.209281 0.004243 0.014681 -217489.000000 0 0 1
29.531623 1.049384 -23.641555 37.843640 0.035519 2.245565 0.009760 0.015624 315864.000000 0 0 1
28.378123 1.740084 -23.122455 36.646878 0.061241 2.253577 0.002008 0.012608 771764.000000 0 0 1
27.244623 1.949684 -24.172955 36.474683 0.071440 2.295258 -0.003093 0.012304 -375547.000000 0 0 1
26.254623 2.841984 -23.770055 35.530235 0.107827 2.303671 -0.007940 0.009772 -480751.000000 0 0 1
25.510623 3.156184 -24.932155 35.810134 0.123095 2.340931 0.013805 0.001319 -96746.800000 0 0 1
24.299123 4.035184 -24.536055 34.767054 0.164561 2.354245 0.004922 0.003562 130230.000000 0 0 1
24.781823 5.313084 -24.214555 35.052992 0.211197 2.333389 -0.007694 0.010483 1032170.000000 0 0 1
23.624623 6.113384 -23.909855 34.163978 0.253217 2.345992 -0.001249 0.001899 298516.000000 0 0 1
23.958323 7.518984 -23.415355 34.333878 0.304102 2.321276 0.002543 0.001036 -671543.000000 0 0 1
24.593423 8.424984 -24.301555 35.586267 0.330041 2.322510 -0.001149 0.008664 286160.000000 0 0 1
24.892923 9.652884 -23.685255 35.690714 0.369924 2.296451 -0.001204 0.004531 -15523.400000 0 0 1
25.802423 10.642584 -24.485255 37.128928 0.391205 2.290904 0.012663 0.003744 32367.200000 0 0 1
25.347123 11.087984 -25.772135 37.810355 0.412365 2.320765 0.016816 -0.000783 52596.400000 0 0 1
24.196423 11.895684 -25.774925 37.300414 0.456929 2.333680 0.020721 -0.006415 -10587.700000 0 0 1
23.771223 12.337084 -27.240345 38.200930 0.478726 2.364679 0.016029 -0.010584 -180048.000000 0 0 1
23.395123 11.254884 -28.126365 38.276580 0.448396 2.396196 0.020076 -0.009914 244412.000000 0 0 1
24.360723 10.291684 -28.529765 38.901299 0.399726 2.394089 0.013903 -0.009648 -232968.000000 0 0 1
25.227023 10.629484 -29.741915 40.422396 0.398778 2.397611 0.010034 -0.005423 -937065.000000 0 0 1
26.145423 11.656384 -29.491325 41.099789 0.419380 2.371081 0.001877 -0.001233 765659.000000 0 0 1
27.044923 12.038584 -30.565005 42.550850 0.418799 2.372177 0.006982 0.004684 882454.000000 0 0 1
28.112223 11.033684 -31.085535 43.339932 0.374013 2.370643 0.004907 0.003784 -508002.000000 0 0 1
27.501923 9.916184 -31.711745 43.131441 0.346054 2.396810 0.005379 0.003705 -151854.000000 0 0 1
28.350923 8.871484 -31.998345 43.662022 0.303265 2.393319 0.006588 0.006442 -747286.000000 0 0 1
27.681723 7.936984 -33.013235 43.808072 0.279232 2.424300 0.011927 0.002761 -606247.000000 0 0 1
26.565423 7.335584 -32.466035 42.586100 0.269419 2.437752 0.017841 0.003643 -572316.000000 0 0 1
25.975823 6.408584 -33.346325 42.752669 0.241883 2.465434 0.030314 -0.006157 388882.000000 0 0 1
24.652723 5.696484 -32.917085 41.517962 0.227084 2.486251 0.035519 -0.008106 1019190.000000 0 0 1
23.457223 6.490984 -32.979195 40.987821 0.269961 2.505814 0.037995 -0.010323 558673.000000 0 0 1
23.057923 6.977384 -31.731655 39.840301 0.293843 2.492233 0.034416 0.000496 378526.000000 0 0 1
21.525423 7.306384 -31.824715 39.109328 0.327228 2.521350 0.033355 -0.003881 667353.000000 0 0 1
21.230523 8.386984 -32.691625 39.872534 0.376226 2.532039 0.027851 0.002567 881584.000000 0 0 1
19.850623 8.794384 -32.569825 39.143095 0.417041 2.553627 0.013721 0.004136 877082.000000 0 0 1
19.389523 9.764184 -33.665465 40.058163 0.466508 2.568844 0.008402 0.006377 -281626.000000 0 0 1
19.130823 9.212884 34.112749 40.181404 0.448797 0.556766 0.010120 0.005425 19620.500000 0 0 1
18.757323 10.217884 33.237320 39.509008 0.498797 0.571188 -0.002148 0.010029 -686520.000000 0 0 1
17.812223 9.813384 32.148031 38.040421 0.503561 0.564041 -0.001954 0.012107 -882483.000000 0 0 1
18.314623 9.022484 31.077601 37.183974 0.457741 0.581245 -0.005239 0.001957 -242525.000000 0 0 1
19.378923 9.566084 30.342761 37.252325 0.458541 0.618895 0.004878 -0.000386 -1063750.000000 0 0 1
19.064423 10.677984 29.360911 36.599653 0.510564 0.639795 0.016055 -0.003973 -151452.000000 0 0 1
18.317023 10.242184 28.213311 35.162573 0.509850 0.639545 0.008767 -0.007280 293090.000000 0 0 1
16.938623 10.127084 28.438381 34.615261 0.538851 0.606661 0.001704 -0.007666 -922761.000000 0 0 1
16.072823 9.401384 27.441851 33.162883 0.529261 0.596179 0.009047 -0.006904 -669909.000000 0 0 1
15.764323 10.015684 26.204041 32.178868 0.565999 0.619232 0.011132 -0.006641 752701.000000 0 0 1
14.517423 9.603284 25.607861 30.963546 0.584418 0.596988 0.025434 -0.004240 822017.000000 0 0 1
14.372123 8.121884 25.164181 30.095829 0.514373 0.580597 0.017359 -0.001013 -468514.000000 0 0 1
14.302223 7.161284 26.198931 30.695627 0.464216 0.548118 0.002036 0.004192 -21789.400000 0 0 1
13.913323 5.920984 25.632331 29.759956 0.402347 0.532968 0.023378 -0.000489 -97018.100000 0 0 1
13.775123 4.780984 26.648851 30.377180 0.334066 0.500661 0.031701 0.000912 213043.000000 0 0 1
15.068223 4.497984 27.167771 31.390619 0.290087 0.524700 0.008038 -0.004310 224724.000000 0 0 1
15.084123 4.398784 28.581011 32.615245 0.283748 0.502651 -0.012068 -0.002280 68695.300000 0 0 1
16.204223 3.506184 29.171321 33.553481 0.213090 0.516814 0.017456 -0.015953 27510.100000 0 0 1
16.109523 2.101884 29.033611 33.269884 0.129742 0.510154 0.019570 -0.006058 226761.000000 0 0 1
15.290523 1.548884 30.082061 33.780609 0.100953 0.472325 0.010683 -0.000044 411787.000000 0 0 1
15.021223 0.023184 30.037391 33.583962 0.001543 0.463715 0.015920 -0.005735 -220082.000000 0 0 1
14.307523 -0.421916 28.891021 32.242430 -0.029481 0.459992 0.015845 0.001110 143862.000000 0 0 1
14.945123 -0.512816 27.600221 31.390952 -0.034300 0.496529 0.023014 0.003653 -396331.000000 0 0 1
16.052423 -1.622716 27.376901 31.777479 -0.100746 0.532543 0.036303 -0.005359 1040430.000000 0 0 1
17.344423 -1.448616 27.939391 32.917124 -0.083327 0.557123 0.041464 -0.004985 332630.000000 0 0 1
18.065823 -0.347516 27.364731 32.792121 -0.019234 0.583588 0.046947 -0.007644 -1589380.000000 0 0 1
19.517123 -0.464116 27.787041 33.959581 -0.023775 0.612456 0.057585 -0.014578 -670687.000000 0 0 1
20.269423 -1.207516 26.824381 33.643053 -0.059503 0.647950 0.050896 -0.008189 -263870.000000 0 0 1
21.633023 -1.194416 27.182521 34.760664 -0.055157 0.672943 0.054387 -0.009737 343766.000000 0 0 1
22.517523 -1.666116 25.935071 34.386664 -0.073857 0.716333 0.043708 0.006628 305254.000000 0 0 1
22.419923 -0.822316 24.792621 33.436555 -0.036661 0.735519 0.049898 0.008176 54875.200000 0 0 1
21.788623 -1.526816 23.772541 32.283261 -0.069960 0.743102 0.039805 0.019401 -326688.000000 0 0 1
21.696323 -0.754416 22.468341 31.243014 -0.034758 0.768221 0.034357 0.007319 208401.000000 0 0 1
20.728323 0.297584 22.555041 30.634650 0.014355 0.743271 0.016288 0.005580 366127.000000 0 0 1
20.874923 1.135784 21.406841 29.921652 0.054355 0.773557 0.018046 -0.003884 -128830.000000 0 0 1
-29.931107 -27.598633 -10.658955 42.085259 0.744877 1.826856 0.006736 0.012851 55810.900000 0 0 1
-29.890397 -26.379133 -9.860355 41.067275 0.723078 1.813268 0.013091 0.010783 -220423.000000 0 0 1
-30.446257 -26.705933 -8.617255 41.405779 0.720046 1.780446 0.021542 0.004508 -441640.000000 0 0 1
-30.627637 -25.397733 -7.727155 40.531542 0.692319 1.762616 0.024343 0.001697 1497210.000000 0 0 1
-29.365917 -24.815733 -7.236655 39.122204 0.701615 1.756843 0.019244 0.000912 1133030.000000 0 0 1
-28.727237 -25.503133 -6.156955 38.904653 0.726016 1.729722 0.025292 0.002845 668328.000000 0 0 1
-27.509707 -24.647433 -5.631855 37.363053 0.730575 1.722106 0.027805 0.003091 382893.000000 0 0 1
-27.700047 -23.646733 -4.669655 36.718746 0.706622 1.698315 0.026201 0.002048 -393034.000000 0 0 1
-28.494477 -22.594633 -5.165355 36.730554 0.670426 1.711892 0.021265 -0.002234 51503.700000 0 0 1
-28.476677 -21.383433 -4.220355 35.860616 0.644084 1.688757 0.018998 -0.006128 -453673.000000 0 0 1
-27.287807 -20.657133 -4.335255 34.498348 0.647972 1.696795 0.021498 -0.009086 -361131.000000 0 0 1
-27.306687 -19.615133 -3.374955 33.790515 0.622920 1.670842 0.024791 -0.007507 -375804.000000 0 0 1
-26.157677 -18.614433 -3.299255 32.273926 0.618485 1.673202 0.021612 -0.009442 -359326.000000 0 0 1
-26.160447 -17.724733 -4.450055 31.911411 0.595492 1.710703 0.023683 -0.012825 -536995.000000 0 0 1
-25.254497 -16.688933 -4.373355 30.584904 0.583951 1.714279 0.025116 -0.013482 -493433.000000 0 0 1
-25.474017 -15.503033 -5.363355 30.299095 0.546706 1.748748 0.016929 -0.020235 -821171.000000 0 0 1
-26.612997 -14.761033 -5.114255 30.859283 0.506410 1.737293 0.019825 -0.015290 -729431.000000 0 0 1
-26.790207 -13.915633 -6.193255 30.817470 0.479070 1.773140 0.032662 -0.028795 -641906.000000 0 0 1
-28.168367 -13.271533 -6.216755 31.752772 0.440303 1.767855 0.037213 -0.020130 -478810.000000 0 0 1
-29.117017 -14.136033 -6.822255 33.078260 0.451973 1.778533 0.041071 -0.019168 552302.000000 0 0 1
-30.428447 -13.544233 -6.762455 33.986283 0.418786 1.771109 0.040362 -0.016167 982846.000000 0 0 1
-31.426367 -14.439033 -7.603255 35.410616 0.430690 1.787198 0.030493 -0.016625 104855.000000 0 0 1
-31.934077 -15.568133 -6.973755 36.204769 0.453605 1.764628 0.029609 -0.019923 -21970.700000 0 0 1
-32.715667 -16.333133 -7.846755 37.398632 0.463043 1.782181 0.042479 -0.010557 -202311.000000 0 0 1
-33.365657 -17.592033 -7.171855 38.395081 0.485209 1.758691 0.027339 -0.015403 194173.000000 0 0 1
-34.594275 -17.501033 -6.473955 39.306006 0.468352 1.736257 0.029592 -0.013334 -1872.160000 0 0 1
-34.688129 -16.680333 -5.333655 38.858045 0.448223 1.708491 0.028269 -0.004204 122619.000000 0 0 1
34.525751 -16.365733 -5.002855 38.534312 -0.442645 1.700992 0.054854 -0.004052 -185443.000000 0 0 1
33.928841 -15.483733 -5.938555 37.764780 -0.428129 1.728703 0.045824 -0.025280 -5334.840000 0 0 1
32.530211 -15.556233 -6.001155 36.554409 -0.446063 1.735713 0.058407 -0.024101 76189.300000 0 0 1
31.685651 -14.991733 -4.816955 35.382702 -0.441929 1.707359 0.071224 -0.018011 -594858.000000 0 0 1
31.865941 -15.630833 -3.551755 35.670381 -0.456034 1.670533 0.066305 -0.013443 298767.000000 0 0 1
30.903301 -15.152333 -2.640755 34.519281 -0.455869 1.647372 0.072031 -0.021349 -673595.000000 0 0 1
30.671221 -16.103933 -1.381555 34.669426 -0.483486 1.610656 0.079433 -0.020959 -62900.500000 0 0 1
31.747871 -16.241433 -0.424555 35.663590 -0.472865 1.582701 0.090894 -0.020525 2387320.000000 0 0 1
33.069371 -16.689033 -0.900655 37.052912 -0.467375 1.595106 0.070758 -0.028735 1281850.000000 0 0 1
33.169261 -18.081933 -1.649455 37.813712 -0.499105 1.614431 0.062817 -0.028384 -813300.000000 0 0 1
33.349901 -19.180333 -0.776755 38.479922 -0.521928 1.590984 0.057631 -0.030229 104628.000000 0 0 1
33.038081 -20.374033 -1.449655 38.842213 -0.552596 1.608127 0.053751 -0.027148 23371.600000 0 0 1
33.970201 -21.000433 -2.535255 40.017749 -0.553696 1.634192 0.046929 -0.027240 57559.800000 0 0 1
33.809171 -20.355233 -3.766555 39.643189 -0.541935 1.665951 0.031691 -0.031965 -370326.000000 0 0 1
34.693820 -20.819233 -4.719055 40.735378 -0.540482 1.686904 0.031294 -0.030874 -582062.000000 0 0 1
34.602481 -20.084733 -6.021355 40.459670 -0.525914 1.720175 0.040905 -0.031744 -132382.000000 0 0 1
33.315881 -20.181733 -6.599755 39.507050 -0.544651 1.738636 0.037175 -0.035633 265868.000000 0 0 1
33.099021 -19.168333 -7.554555 38.987709 -0.524926 1.765797 0.042274 -0.035611 -128412.000000 0 0 1
32.039001 -19.531933 -8.596855 38.495453 -0.547470 1.796017 0.044288 -0.042083 -110433.000000 0 0 1
32.506761 -20.464833 -9.563355 39.584803 -0.561869 1.814802 0.041962 -0.046455 111501.000000 0 0 1
31.465681 -20.787133 -10.443055 39.131207 -0.583811 1.840943 0.038666 -0.047113 -415150.000000 0 0 1
31.528381 -22.237033 -10.911155 40.094610 -0.614276 1.846408 0.036289 -0.037819 -390230.000000 0 0 1
31.190121 -23.160233 -9.949255 40.102465 -0.638716 1.821510 0.026340 -0.035196 -96884.800000 0 0 1
31.047281 -24.452833 -10.494755 40.890275 -0.667134 1.830358 0.022657 -0.024851 -413767.000000 0 0 1
30.201161 -25.309733 -9.542355 40.543177 -0.697509 1.808388 0.024944 -0.027954 -723497.000000 0 0 1
28.882631 -24.882433 -9.400655 39.264668 -0.711134 1.812562 0.032176 -0.028847 -831246.000000 0 0 1
28.099241 -26.029033 -9.113755 39.371797 -0.747170 1.804394 0.021614 -0.021519 756240.000000 0 0 1
26.647291 -25.536233 -8.740955 37.928638 -0.764110 1.803345 0.017461 -0.023389 911389.000000 0 0 1
25.824691 -25.163833 -9.839255 37.375715 -0.772438 1.837189 0.009955 -0.021953 997718.000000 0 0 1
24.565041 -24.555733 -9.486255 36.005753 -0.785209 1.837409 0.019741 -0.030023 885496.000000 0 0 1
23.670341 -24.230333 -10.729055 35.531770 -0.797088 1.877541 0.031474 -0.029015 -146953.000000 0 0 1
23.215741 -25.434033 -11.316355 36.248042 -0.830964 1.888296 0.033230 -0.022985 78169.800000 0 0 1
22.629641 -25.033633 -12.512655 35.990970 -0.835792 1.925872 0.039455 -0.006775 -59937.100000 0 0 1
21.835441 -26.082233 -13.350255 36.541738 -0.873794 1.944797 0.044529 -0.009789 -89843.100000 0 0 1
22.719141 -27.038633 -13.884255 37.947590 -0.871991 1.945374 0.029211 -0.000936 24912.000000 0 0 1
22.262641 -28.366533 -13.954855 38.665532 -0.905380 1.940042 0.032353 0.006095 -523274.000000 0 0 1
23.203841 -29.420933 -14.585955 40.208949 -0.902993 1.942018 0.031456 -0.001562 -248430.000000 0 0 1
23.212941 -29.359133 -16.036655 40.718222 -0.901780 1.975607 0.041098 0.000536 366154.000000 0 0 1
23.377341 -30.661633 -16.610055 41.982493 -0.919388 1.977564 0.033515 -0.001685 -229112.000000 0 0 1
23.401941 -30.703633 -18.150455 42.659148 -0.919540 2.010284 0.028660 0.004564 680255.000000 0 0 1
22.082641 -30.444733 -18.656555 41.983233 -0.943268 2.031280 0.036991 -0.002267 622819.000000 0 0 1
21.903341 -30.762733 -20.014155 42.739542 -0.952056 2.058142 0.033692 0.001063 -554585.000000 0 0 1
20.531141 -30.318333 -20.507655 41.967761 -0.975547 2.081341 0.029834 0.004786 -517025.000000 0 0 1
20.416741 -30.370133 -21.890755 42.642624 -0.978929 2.109885 0.004177 0.005666 -118395.000000 0 0 1
19.244041 -29.768033 -22.362955 41.911462 -0.996909 2.133620 0.007255 0.000176 -519739.000000 0 0 1
19.038041 -30.000133 -23.870455 42.804831 -1.005324 2.162358 0.007052 0.001909 -424227.000000 0 0 1
19.949841 -29.233833 -24.607755 43.106319 -0.971965 2.178352 0.014637 -0.001216 115763.000000 0 0 1
19.865541 -29.687633 -25.974345 44.166298 -0.981075 2.199508 0.005149 -0.004406 -622966.000000 0 0 1
20.386141 -28.673933 -26.985965 44.339953 -0.952750 2.225110 0.000619 -0.011351 47440.300000 0 0 1
19.590241 -27.483833 -27.135765 43.306909 -0.951537 2.247969 0.026109 -0.015146 365191.000000 0 0 1
18.316641 -27.717833 -27.716035 43.266109 -0.986849 2.266069 0.021191 -0.018827 172153.000000 0 0 1
17.411141 -26.497733 -28.037105 42.324425 -0.989460 2.294859 0.012157 -0.023230 2997.200000 0 0 1
16.546841 -25.971733 -27.036765 40.979452 -1.003536 2.291301 0.005218 -0.018358 -75512.100000 0 0 1
16.051941 -24.727633 -27.436115 40.272336 -0.995019 2.320285 -0.009353 0.009820 -291325.000000 0 0 1
14.973441 -24.183833 -26.481025 38.862661 -1.016414 2.320470 0.005001 0.003661 -1144730.000000 0 0 1
13.766541 -24.855533 -26.548125 38.885963 -1.064993 2.322272 0.034381 -0.010313 -1457280.000000 0 0 1
12.790041 -24.203233 -25.802605 37.618560 -1.084654 2.326637 0.020170 -0.008019 -411690.000000 0 0 1
12.697341 -24.497733 -24.280455 36.754617 -1.092611 2.292427 0.021507 -0.007648 -1033540.000000 0 0 1
13.798841 -24.029033 -23.580355 36.384551 -1.049521 2.275866 0.004122 -0.003408 -613621.000000 0 0 1
13.645641 -24.227933 -22.199255 35.580938 -1.057861 2.244531 0.025995 -0.011613 358098.000000 0 0 1
14.848241 -23.641233 -21.414455 35.184613 -1.009996 2.225131 0.008798 -0.014293 292948.000000 0 0 1
14.949241 -22.217533 -21.450755 34.310836 -0.978520 2.246170 0.009932 -0.013859 -703836.000000 0 0 1
16.100841 -21.733133 -20.857755 34.155703 -0.933181 2.227699 0.016349 -0.004508 -1105690.000000 0 0 1
16.045541 -20.275433 -20.246655 32.840213 -0.901335 2.235112 0.017926 0.005950 151223.000000 0 0 1
15.388241 -20.138933 -18.978455 31.663170 -0.918330 2.213530 0.019578 -0.004456 1951400.000000 0 0 1
13.928441 -20.218133 -19.092755 31.101570 -0.967553 2.231768 0.013485 -0.006125 1511970.000000 0 0 1
13.133341 -20.098333 -17.752855 29.859529 -0.991997 2.207497 0.019342 -0.008227 75620.900000 0 0 1
13.122541 -18.833633 -17.152255 28.654959 -0.962248 2.212522 0.028873 -0.004005 65221.500000 0 0 1
12.472641 -18.868833 -15.899855 27.647875 -0.986714 2.183503 0.029373 -0.005992 58839.900000 0 0 1
12.911341 -17.710433 -14.944955 26.527605 -0.940855 2.169260 0.017340 0.000645 -435227.000000 0 0 1
12.209841 -16.505933 -15.274855 25.589983 -0.933904 2.210438 0.032187 -0.005197 330948.000000 0 0 1
12.504541 -15.320133 -14.542455 24.546955 -0.886245 2.204873 0.030519 -0.009263 367422.000000 0 1 0
11.212841 -14.498533 -14.171855 23.168442 -0.912501 2.228989 0.030095 -0.010496 259944.000000 0 1 0
10.471041 -14.012233 -15.231155 23.194255 -0.929039 2.287202 0.026960 -0.003884 -791870.000000 0 1 0
9.187541 -13.637033 -14.848155 22.155073 -0.977927 2.305264 0.029535 -0.008048 -304619.000000 0 1 0
8.296641 -13.154733 -16.012655 22.322329 -1.008111 2.370770 0.032549 -0.005045 -97807.800000 0 1 0
8.604841 -11.908733 -16.592755 22.162597 -0.945086 2.416869 0.031892 -0.004822 655125.000000 0 1 0
9.780341 -11.914133 -17.440055 23.275677 -0.883439 2.417774 0.042567 -0.004863 695114.000000 0 1 0
9.780541 -10.777233 -18.485355 23.526922 -0.833843 2.474641 0.040402 -0.005047 -120324.000000 0 1 0
8.958141 -11.037233 -19.588855 24.203141 -0.889005 2.513844 0.039520 -0.007268 83909.100000 0 1 0
8.842641 -9.939533 -20.446055 24.393191 -0.843733 2.564747 0.023876 -0.005700 -39851.300000 0 1 0
8.636241 -10.251533 -21.937955 25.708996 -0.870711 2.593113 0.033883 0.003074 278874.000000 0 0 1
9.844841 -10.767933 -22.488655 26.806881 -0.830151 2.566080 0.022256 -0.003984 -279781.000000 0 0 1
9.887541 -10.791433 -23.887555 28.014885 -0.829081 2.591878 0.006899 -0.002262 -71282.100000 0 0 1
11.004841 -11.585833 -24.576355 29.314421 -0.811111 2.565084 0.035324 -0.002522 -32360.400000 0 0 1
10.721441 -12.972633 -24.421155 29.658579 -0.880125 2.538190 0.024502 -0.007746 -805178.000000 0 0 1
11.843841 -13.709033 -24.693055 30.626151 -0.858262 2.508622 0.009890 -0.013819 -1218850.000000 0 0 1
11.718641 -15.209433 -24.326955 30.991194 -0.914313 2.473433 0.006695 -0.015760 -585743.000000 0 0 1
10.766741 -15.815033 -25.118205 31.574708 -0.973079 2.490656 0.010802 -0.018105 -685391.000000 0 0 1
10.437341 -17.081933 -24.593655 31.710856 -1.022316 2.458397 0.011472 -0.017761 410489.000000 0 0 1
9.297041 -17.793133 -25.419935 32.391413 -1.089305 2.473128 0.022451 -0.024782 541425.000000 0 0 1
9.641441 -18.437833 -26.619295 33.786061 -1.088984 2.478152 0.023372 -0.028881 426741.000000 0 0 1
8.488141 -19.115533 -27.171025 34.288726 -1.152906 2.485560 0.033594 -0.026105 697573.000000 0 0 1
8.777941 -19.945133 -28.466205 35.849482 -1.156202 2.488236 0.021986 -0.013254 -483331.000000 0 0 1
9.525241 -21.109433 -28.203675 36.493638 -1.146919 2.454098 0.018362 -0.014188 -11968.900000 0 0 1
9.743841 -21.922533 -29.334185 37.895043 -1.152553 2.456073 0.023880 -0.012137 -217181.000000 0 0 1
10.395841 -23.261733 -28.947385 38.563361 -1.150517 2.419834 0.007791 -0.004264 25082.300000 0 0 1
10.358641 -24.267033 -29.964765 39.925900 -1.167351 2.419629 0.013030 -0.006487 17648.400000 0 0 1
10.873941 -25.567933 -29.669285 40.647611 -1.168675 2.388993 0.031299 -0.009548 -8949.960000 0 0 1
10.188141 -26.433233 -28.531275 40.206314 -1.202914 2.359758 0.031220 -0.010319 83411.400000 0 0 1
10.697841 -26.282333 -27.193435 39.302515 -1.184240 2.334915 0.035572 -0.008868 -550703.000000 0 0 1
9.910541 -26.727233 -26.086865 38.640501 -1.215710 2.311920 0.024779 -0.006968 175117.000000 0 0 1
8.899241 -25.651733 -25.646375 37.348955 -1.236863 2.327694 0.016127 -0.001536 70954.200000 0 0 1
9.512241 -24.578333 -24.984355 36.315219 -1.201532 2.329506 0.010561 -0.001183 -159221.000000 0 0 1
8.582941 -23.537033 -24.700155 35.181763 -1.221124 2.349100 0.013292 -0.007784 112053.000000 0 0 1
9.323041 -22.219833 -24.428755 34.313323 -1.173524 2.363042 0.023437 -0.010985 -82313.200000 0 0 1
10.150241 -22.166033 -23.310855 33.730644 -1.141377 2.333790 0.022519 -0.015376 -633395.000000 0 0 1
11.047141 -21.128233 -23.489955 33.469681 -1.089027 2.348757 0.010151 -0.011502 -395999.000000 0 0 1
11.899341 -20.851133 -22.220055 32.712305 -1.052214 2.317546 0.008601 -0.002476 222736.000000 0 0 1
11.213141 -20.251433 -21.072955 31.303746 -1.065120 2.309293 0.005459 -0.004638 460008.000000 0 0 1
10.686241 -18.905233 -21.217955 30.361245 -1.056318 2.344585 0.004666 -0.000213 -118869.000000 0 0 1
11.761041 -17.809933 -21.150755 30.047799 -0.987170 2.351675 0.008100 -0.000881 -102969.000000 0 0 1
12.663241 -17.880233 -22.233055 31.214886 -0.954571 2.363506 0.005101 -0.003959 -524297.000000 0 0 1
13.846341 -17.238933 -21.849855 31.085658 -0.894106 2.350251 0.012391 -0.001711 -984818.000000 0 0 1
14.887841 -17.112633 -22.937555 32.258664 -0.854810 2.361788 -0.003361 0.007021 -1063550.000000 0 0 1
16.108041 -17.593033 -22.470455 32.770492 -0.829433 2.326350 0.000355 0.009012 -290156.000000 0 0 1
17.179941 -17.111933 -23.290255 33.621490 -0.783415 2.336049 0.001318 0.008100 365929.000000 0 0 1
18.537441 -17.436733 -22.598355 34.034718 -0.754811 2.296925 0.002689 0.009960 -20016.600000 0 0 1
18.828641 -18.789833 -22.529455 34.859029 -0.784367 2.273524 0.007554 0.010158 -833246.000000 0 0 1
20.036441 -18.999533 -21.907455 35.247380 -0.758842 2.241496 0.007957 0.006287 -802233.000000 0 0 1
20.432041 -20.450933 -21.767555 36.187503 -0.785860 2.216200 -0.001520 0.007643 -113377.000000 0 0 1
19.694941 -21.094533 -20.744455 35.541559 -0.819697 2.194034 0.005144 0.008741 311820.000000 0 0 1
19.978941 -22.476333 -20.698155 36.506948 -0.844155 2.173613 0.006996 0.006783 -228064.000000 0 0 1
-15.879977 12.938784 28.723881 35.279557 -0.683692 0.619482 -0.007334 -0.003560 -546546.000000 0 0 1
-16.977677 13.678684 28.305811 35.729076 -0.678199 0.656334 0.005212 -0.012363 -653484.000000 0 0 1
-17.023077 13.789684 26.842661 34.647785 -0.680844 0.684509 0.003764 -0.007780 -159673.000000 0 0 1
-18.225577 14.500684 26.215041 35.066649 -0.672066 0.726389 0.014054 -0.013942 -131196.000000 0 0 1
-18.386277 15.737884 26.866401 36.159918 -0.707943 0.733272 0.015892 -0.009386 113194.000000 0 0 1
-19.424877 16.539784 26.293131 36.636308 -0.705349 0.770332 0.041055 -0.012914 -474714.000000 0 0 1
-19.407077 18.049684 26.729021 37.641284 -0.749175 0.781158 0.048877 -0.011538 -531103.000000 0 0 1
-18.492677 18.924484 26.197531 37.234740 -0.796938 0.790377 0.019632 -0.008950 -583198.000000 0 0 1
-17.151977 18.623084 26.550741 36.687211 -0.826496 0.761639 0.018629 -0.003388 -417290.000000 0 0 1
-16.146577 19.525784 25.814601 36.171284 -0.879845 0.776063 0.019419 -0.004320 -228713.000000 0 0 1
-16.245877 20.893984 26.098241 37.169951 -0.909902 0.792408 0.030562 -0.002510 -114432.000000 0 0 1
-15.327777 21.728784 25.427651 36.791932 -0.956446 0.807758 0.037160 -0.004013 25145.700000 0 0 1
-15.622977 23.234184 25.632071 37.959291 -0.978826 0.829491 0.042587 0.001746 15473.400000 0 0 1
-15.032477 23.822884 26.748461 38.845660 -1.007887 0.811263 0.041049 0.007271 -32110.800000 0 0 1
-15.460177 25.156684 26.787781 39.868045 -1.019743 0.834010 0.041426 0.000025 409250.000000 0 0 1
-14.726677 25.928484 27.993581 40.899901 -1.054259 0.816959 0.019018 0.007631 750425.000000 0 0 1
-13.358977 26.249384 27.790221 40.494306 -1.100034 0.814441 0.009126 0.011805 41495.400000 0 0 1
-12.891277 26.948084 28.910281 41.571488 -1.124598 0.801771 0.020566 0.018028 1504550.000000 0 0 1
-11.303677 27.063084 28.972361 41.225979 -1.175143 0.791513 0.032326 0.011915 1512480.000000 0 0 1
-10.687677 27.795584 27.940001 40.834600 -1.203714 0.817258 0.025329 0.011851 -468951.000000 0 0 1
-9.300977 27.750684 28.155481 40.612064 -1.247401 0.804768 0.009737 0.008677 4907.330000 0 0 1
-8.483477 28.186884 26.848421 39.841028 -1.278448 0.831337 0.022772 0.008649 442019.000000 0 0 1
-7.077877 28.067584 26.965761 39.560559 -1.323774 0.820805 0.000525 -0.001543 52245.500000 0 0 1
-6.422677 28.535684 25.825331 39.019018 -1.349410 0.847492 0.025970 -0.002644 -818359.000000 0 0 1
-4.934577 28.280684 25.888111 38.656712 -1.398050 0.837002 0.001686 -0.017174 -994218.000000 0 0 1
-4.176877 29.131584 26.748641 39.769150 -1.428387 0.833083 0.012819 -0.014952 778748.000000 0 0 1
-2.761377 29.095684 26.567141 39.496797 -1.476173 0.833025 0.007611 -0.011557 633251.000000 0 0 1
-2.258177 30.076184 25.472071 39.477875 -1.495855 0.869480 0.003313 -0.004023 -717075.000000 0 0 1
-2.667777 29.694584 24.196311 38.397224 -1.481196 0.889040 0.001963 -0.001072 140326.000000 0 0 1
-2.211877 30.712484 23.278541 38.601030 -1.498902 0.923471 -0.002344 -0.001247 -404545.000000 0 0 1
-2.625177 30.448484 21.827641 37.555927 -1.484792 0.950589 0.004648 0.000528 1006570.000000 0 0 1
-4.039777 30.310184 21.627441 37.453615 -1.438296 0.955199 0.007662 0.003667 708061.000000 0 0 1
-4.604277 29.040184 21.862541 36.640174 -1.413557 0.931436 0.018498 -0.001453 -299714.000000 0 0 1
-6.045877 28.849484 21.346241 36.393782 -1.364220 0.944022 0.022347 -0.006272 -226538.000000 0 0 1
-6.212877 28.952384 19.960441 35.710777 -1.359413 0.977681 0.030006 -0.008784 56222.700000 0 0 1
-7.258077 28.203484 19.367241 34.974365 -1.318915 0.983929 0.017018 -0.013183 -1144370.000000 0 0 1
-6.877977 26.743584 19.107641 33.580170 -1.319069 0.965488 0.014202 -0.009927 -333195.000000 0 0 1
-5.871577 26.500084 18.169841 32.663022 -1.352751 0.980892 0.016157 -0.005153 -127705.000000 0 0 1
-4.597077 26.791984 18.712341 33.001443 -1.400867 0.967918 0.022864 -0.004629 -1236420.000000 0 0 1
-3.513477 27.143384 17.697641 32.593163 -1.442071 0.996807 0.021045 -0.004323 -315495.000000 0 0 1
-3.143177 26.095284 16.816941 31.203412 -1.450924 1.001611 0.020712 -0.003099 -332689.000000 0 0 1
-2.375377 26.662984 15.796941 31.082157 -1.481942 1.037666 0.023456 -0.007318 -349527.000000 0 0 1
-1.763677 25.536584 14.974741 29.655868 -1.501841 1.041472 0.023286 -0.008770 -22805.300000 0 0 1
-0.727277 24.754284 15.540741 29.237273 -1.541425 1.010380 0.020102 -0.011676 115902.000000 0 0 1
-0.202077 23.740584 14.719641 27.934280 -1.562285 1.015802 0.019560 -0.020150 -238450.000000 0 0 1
1.070023 23.056584 15.269341 27.674967 1.524421 0.986349 0.015346 -0.020929 446790.000000 0 0 1
2.158023 23.977884 15.138141 28.438693 1.481038 1.009472 0.026061 -0.025579 61898.900000 0 0 1
3.330723 23.561984 15.807641 28.568204 1.430367 0.984440 0.027384 -0.019974 332607.000000 0 0 1
4.562623 24.449284 15.433841 29.270949 1.386303 1.015406 0.032882 -0.017536 -66970.300000 0 0 1
5.752023 23.737884 15.664641 29.016441 1.333064 1.000533 0.029384 -0.013916 -790876.000000 0 0 1
6.777723 24.708384 15.652941 30.024262 1.303073 1.022372 0.032979 -0.008639 -379080.000000 0 0 1
8.180323 24.064984 15.681841 29.865720 1.243124 1.017989 0.035378 -0.006538 2862.920000 0 0 1
8.621523 23.525584 14.427041 28.912337 1.219521 1.048360 0.027415 -0.008345 -2318.450000 0 0 1
9.695123 24.254284 13.876341 29.577331 1.190524 1.082463 0.023703 -0.008759 -368384.000000 0 0 1
10.145423 23.814984 12.541041 28.763879 1.168070 1.119648 0.022189 -0.002183 -292150.000000 0 0 1
10.739223 22.538484 12.702141 28.011757 1.126138 1.100156 0.005692 -0.002147 -194950.000000 0 0 1
11.284023 21.974484 11.540841 27.265328 1.096403 1.133735 0.019516 -0.003601 -170256.000000 0 0 1
12.535623 21.140084 11.815241 27.269853 1.035555 1.122677 0.003987 0.000680 -228413.000000 0 0 1
12.292323 20.010184 12.677241 26.687471 1.019926 1.075803 0.015070 0.002306 -63781.500000 0 0 1
13.498223 19.266284 12.761541 26.762822 0.959659 1.073742 0.018033 0.002389 -50812.500000 0 0 1
13.848823 18.898884 14.204741 27.399496 0.938404 1.025782 0.022291 -0.005580 -428300.000000 0 0 1
15.169723 18.429384 14.359341 27.855939 0.882112 1.029222 0.019036 -0.009344 37875.900000 0 0 1
15.390123 17.953884 15.651841 28.358031 0.862135 0.986111 0.019302 -0.016870 -295377.000000 0 0 1
16.823723 17.440384 15.807541 28.932386 0.803394 0.992783 0.018311 -0.016140 -366565.000000 0 0 1
17.023723 16.994584 17.107241 29.517464 0.784542 0.952604 0.016138 -0.024674 53563.200000 0 0 1
18.256823 16.308884 17.106341 29.864999 0.729103 0.960892 0.026093 -0.021575 -62651.000000 0 0 1
18.836223 16.024784 18.511841 30.891507 0.704925 0.928228 0.023436 -0.025762 -119753.000000 0 0 1
19.276423 17.149784 19.321341 32.233674 0.727082 0.928027 0.030044 -0.018229 -60258.700000 0 0 1
18.256723 17.850784 19.968241 32.414334 0.774156 0.907102 0.025479 -0.020639 -517510.000000 0 0 1
18.665823 19.030584 20.923041 33.887309 0.795074 0.905325 0.025285 -0.017416 -547319.000000 0 0 1
17.549923 19.714484 21.410741 33.986475 0.843420 0.889271 0.024718 -0.023519 -94078.000000 0 0 1
18.015123 20.872184 22.067541 35.315281 0.858737 0.895828 0.031487 -0.011799 -59773.000000 0 0 1
16.853023 21.767884 22.507241 35.558980 0.911977 0.885432 0.032565 -0.019353 -283525.000000 0 0 1
16.283223 21.217284 23.659341 35.708275 0.916220 0.846547 0.040601 -0.022801 13446.500000 0 0 1
15.481623 22.177184 24.383831 36.415372 0.961355 0.837123 0.041427 -0.025402 539086.000000 0 0 1
14.735023 21.647084 25.648121 36.654375 0.973146 0.795779 0.051641 -0.018137 254717.000000 0 0 1
13.668623 20.756784 25.396751 35.534072 0.988459 0.774579 0.049109 -0.019940 -70756.000000 0 0 1
12.908223 20.544284 26.567211 35.979251 1.009819 0.740096 0.038265 -0.014687 -27610.100000 0 0 1
11.901523 19.383684 26.463901 34.895723 1.020148 0.709986 0.028779 -0.014510 -104313.000000 0 0 1
12.479623 18.073884 26.379011 34.325770 0.966489 0.694318 0.046004 -0.018946 274724.000000 0 0 1
13.205423 17.665084 25.202091 33.490055 0.928869 0.718909 0.051841 -0.020765 71887.300000 0 0 1
12.493023 17.724384 23.809041 32.204034 0.956823 0.738739 0.053437 -0.019152 -782567.000000 0 0 1
12.439423 18.945684 23.086341 32.352083 0.989807 0.776177 0.047903 -0.015993 732393.000000 0 0 1
13.643223 19.325584 22.364041 32.554048 0.956077 0.813469 0.049594 -0.019187 1160000.000000 0 0 1
14.279623 18.292684 21.339441 31.526206 0.907985 0.827281 0.044900 -0.020129 -434373.000000 0 0 1
13.337023 17.843584 20.410541 30.213570 0.928935 0.829097 0.049165 -0.017148 -153405.000000 0 0 1
13.879223 16.873884 19.552641 29.320071 0.882470 0.840797 0.034534 -0.021967 -214888.000000 0 0 1
12.837923 16.297584 18.606541 27.868026 0.903589 0.839727 0.044351 -0.016995 -64848.200000 0 0 1
12.281323 17.205584 17.659041 27.544595 0.950869 0.874856 0.041854 -0.013590 126185.000000 0 0 1
11.336623 16.581684 16.818641 26.198052 0.971105 0.873718 0.048543 -0.015108 102584.000000 0 0 1
10.943723 17.186684 15.457541 25.575041 1.003788 0.921784 0.037094 -0.011148 -104258.000000 0 0 1
10.263323 18.422784 15.498741 26.171468 1.062519 0.937010 0.036703 -0.011624 95002.300000 0 0 1
9.940023 18.765784 14.150741 25.518663 1.083681 0.983004 0.027291 -0.008964 -680601.000000 0 0 1
8.896223 19.906984 14.128341 25.981547 1.150532 0.995857 0.023894 -0.006462 -203759.000000 0 0 1
7.589923 19.440584 14.430141 25.372666 1.198579 0.965838 0.027700 -0.013423 16871.800000 0 0 1
6.781023 20.604784 14.607141 26.151634 1.252861 0.978153 0.027527 -0.013809 -110378.000000 0 0 1
5.452623 20.388484 15.332841 26.086728 1.309475 0.942504 0.023329 -0.009706 -131103.000000 0 0 1
4.522923 19.620884 14.597441 24.870086 1.344238 0.943513 0.028388 -0.019440 206536.000000 0 1 0
3.340423 19.440884 15.378641 25.012177 1.400633 0.908605 0.014485 -0.005608 832866.000000 0 0 1
2.038923 18.806584 14.834341 24.039602 1.462803 0.905771 -0.001524 -0.006095 310022.000000 0 1 0
1.307523 19.711984 14.039241 24.235763 1.504562 0.952954 0.004228 -0.014844 109682.000000 0 1 0
0.273323 19.099184 13.257441 23.251092 1.556487 0.964064 0.002923 -0.018523 -51413.900000 0 1 0
-0.494077 20.069684 12.367841 23.579648 -1.546183 1.018653 0.013989 -0.023139 75789.500000 0 1 0
-1.497077 20.735584 13.144441 24.596382 -1.498723 1.006992 0.009292 -0.017814 543168.000000 0 1 0
-2.634277 21.035584 12.329641 24.524585 -1.446215 1.044024 0.011199 -0.014854 1008910.000000 0 1 0
-3.873477 21.731884 12.970741 25.603100 -1.394409 1.039550 0.013511 -0.010830 552348.000000 0 0 1
-4.587277 20.850684 13.801841 25.422135 -1.354240 0.996902 0.009709 -0.016775 -345137.000000 0 0 1
-5.740977 21.479384 14.301241 26.435738 -1.309623 0.999193 0.008813 -0.011666 -403594.000000 0 0 1
-6.358777 20.839184 15.586841 26.789088 -1.274635 0.949813 0.003171 -0.005236 -1135510.000000 0 0 1
-7.056177 19.679784 15.231241 25.866469 -1.226525 0.941172 0.002524 -0.002830 -190580.000000 0 0 1
-7.769877 19.128884 16.316941 26.315922 -1.184969 0.902002 0.001296 0.010247 1252020.000000 0 0 1
-9.009877 19.994784 16.858441 27.661820 -1.147434 0.915432 0.001209 0.016675 -189301.000000 0 0 1
-10.111777 20.114884 16.034741 27.639998 -1.104990 0.951910 -0.000396 0.006105 -546199.000000 0 0 1
-11.319677 19.891384 16.751541 28.362235 -1.053427 0.938959 0.001078 0.009907 -407815.000000 0 0 1
-12.471577 19.710384 15.797841 28.171107 -1.006649 0.975467 0.000946 -0.001282 -822212.000000 0 0 1
-12.955777 20.937884 15.269041 28.972241 -1.016688 1.015702 -0.010743 0.008996 -448220.000000 0 0 1
-13.816077 20.724684 14.208741 28.675509 -0.982806 1.052385 -0.004599 -0.007601 -695835.000000 0 0 1
-14.817277 21.869884 14.010141 29.901966 -0.975318 1.083164 -0.004484 -0.007679 -28143.900000 0 0 1
-15.915377 21.753584 14.909941 30.802987 -0.939162 1.065528 -0.007087 -0.012771 -307562.000000 0 0 1
-16.765977 22.865084 14.841041 32.002602 -0.938097 1.088579 0.002716 -0.016507 -1075250.000000 0 0 1
-17.924077 22.632484 15.749241 32.886782 -0.900976 1.071403 0.047777 -0.026962 -1865380.000000 0 0 1
-18.827677 21.654684 15.338141 32.537138 -0.855118 1.079914 0.040114 -0.024864 100246.000000 0 0 1
-19.980377 21.624284 16.182941 33.596320 -0.824890 1.068217 0.041777 -0.020587 558324.000000 0 0 1
-21.123477 22.611884 15.915441 34.796549 -0.819417 1.095743 0.031699 -0.021896 -787443.000000 0 0 1
-21.800877 22.473484 14.699741 34.589277 -0.800589 1.131857 0.037475 -0.019954 210410.000000 0 0 1
-22.796277 23.446184 14.465741 35.758236 -0.799452 1.154317 0.053633 -0.030924 75348.900000 0 0 1
-22.213077 24.773784 13.821441 36.030451 -0.839843 1.177100 0.042635 -0.026896 -69809.200000 0 0 1
-21.270777 25.373984 14.721641 36.235504 -0.873139 1.152421 0.021308 -0.021124 133204.000000 0 0 1
-20.896877 26.577284 14.167041 36.657012 -0.904485 1.173989 0.023081 -0.008778 337378.000000 0 0 1
-19.407077 26.930484 14.503741 36.224910 -0.946355 1.158864 0.018248 -0.009168 428080.000000 0 0 1
-18.477977 26.102084 13.857041 34.853580 -0.954780 1.161920 0.015972 -0.003713 241595.000000 0 0 1
-17.162077 26.653584 13.986241 34.649175 -0.998726 1.155290 -0.003155 -0.003446 443792.000000 0 0 1
-16.148077 25.951684 13.072641 33.243710 -1.014187 1.166647 -0.004005 -0.005623 -235519.000000 0 0 1
-14.859777 26.492284 13.037241 33.054859 -1.059616 1.165368 -0.002258 0.000665 -91407.800000 0 0 1
-13.915877 25.900284 12.161941 31.818063 -1.077766 1.178584 -0.002988 0.003948 -81173.000000 0 0 1
-12.582177 26.646784 12.261641 31.917238 -1.129648 1.176488 -0.002314 0.006955 -177369.000000 0 0 1
-11.513177 25.879784 11.681941 30.639586 -1.152215 1.179627 -0.005658 0.007234 938841.000000 0 0 1
-10.207477 26.322284 12.045441 30.694427 -1.200861 1.167523 0.006355 0.005365 653628.000000 0 0 1
-9.461877 27.362484 11.128141 31.017224 -1.237870 1.203843 0.001010 0.003934 -600214.000000 0 0 1
-8.473977 28.038484 11.809541 31.582117 -1.277298 1.187552 0.024157 -0.009296 -577538.000000 0 0 1
-8.174477 29.251884 11.154941 32.356259 -1.298296 1.218820 0.023554 -0.012953 439795.000000 0 0 1
-6.843977 29.806484 11.775141 32.770725 -1.345095 1.203258 0.027387 -0.015093 734205.000000 0 0 1
-5.619077 29.246584 11.369741 31.878013 -1.380982 1.206102 0.043160 -0.016260 604391.000000 0 0 1
-4.481577 29.962584 11.901241 32.549662 -1.422325 1.196483 0.042513 -0.019621 1327910.000000 0 0 1
-3.131577 29.614184 11.190041 31.812319 -1.465442 1.211354 0.045817 -0.017777 419842.000000 0 0 1
-3.085877 30.107684 9.906841 31.845577 -1.468658 1.254457 0.047779 -0.019846 -251667.000000 0 0 1
-1.830277 29.993884 9.301241 31.456256 -1.509850 1.270621 0.043119 -0.020230 -145279.000000 0 0 1
-1.771077 30.775084 7.992041 31.845176 -1.513311 1.317119 0.045805 -0.025251 152057.000000 0 0 1
-2.607177 30.270784 6.956441 31.169052 -1.484880 1.345716 0.050598 -0.019552 204171.000000 0 0 1
-2.466477 31.120084 5.831841 31.757731 -1.491705 1.386113 0.042183 -0.018419 161404.000000 0 0 1
10.408723 -34.194633 -26.309775 44.382639 -1.275311 2.205320 0.078119 -0.020005 -523395.000000 0 0 1
11.401923 -34.188033 -25.343165 44.057933 -1.248890 2.183674 0.061901 -0.018178 -446845.000000 0 0 1
12.437123 -33.288433 -25.644915 43.823093 -1.213239 2.195913 0.056487 -0.014379 -248612.000000 0 0 1
13.336823 -33.058133 -24.431455 43.215819 -1.187332 2.171637 0.052561 -0.004449 -433389.000000 0 0 1
12.686423 -32.253933 -23.426855 41.833946 -1.196054 2.165178 0.050840 -0.005342 397050.000000 0 0 1
13.132523 -32.349833 -22.046755 41.292060 -1.185168 2.134029 0.024717 0.000617 755347.000000 0 0 1
14.630623 -32.022333 -21.672755 41.342390 -1.142229 2.122602 0.007566 0.004918 830752.000000 0 0 1
15.538223 -32.955133 -22.202055 42.666244 -1.130211 2.118076 0.015052 0.007050 111503.000000 0 0 1
16.815223 -32.852133 -21.570255 42.746816 -1.097717 2.099721 0.003862 0.003749 385670.000000 0 0 1
17.766623 -33.946433 -22.104755 44.233849 -1.088626 2.094077 -0.003641 0.014585 -709400.000000 0 0 1
19.021823 -33.992833 -21.508655 44.496794 -1.060625 2.075303 0.004073 0.019818 -427424.000000 0 0 1
19.674323 33.931684 -21.922255 44.933544 1.045346 2.080458 0.005179 0.018424 -79956.900000 0 0 1
21.206323 33.920584 -21.687955 45.504742 1.012071 2.067589 0.029277 0.017911 20849.800000 0 0 1
21.898023 -34.391533 -22.623055 46.627283 -1.003808 2.077376 0.020857 0.017798 -1181080.000000 0 0 1
23.247923 -34.371233 -22.357655 47.135043 -0.976101 2.065001 0.010597 0.016976 -959361.000000 0 0 1
24.069823 -33.741433 -23.496455 47.643720 -0.951159 2.086526 0.011712 0.008627 -104491.000000 0 0 1
24.128023 -32.310033 -23.560255 46.703162 -0.929368 2.099562 0.015060 0.009679 -210327.000000 0 0 1
22.938723 -31.680033 -23.977855 45.877522 -0.944095 2.120752 0.013861 0.006689 -61948.100000 0 0 1
22.952223 -30.139233 -23.808155 44.743783 -0.919951 2.131875 0.004012 -0.001169 -179741.000000 0 0 1
23.769223 -29.449633 -24.765055 45.227920 -0.891732 2.150243 0.007475 -0.006092 108977.000000 0 0 1
23.733723 -28.047733 -24.494455 44.158162 -0.868518 2.158797 0.013627 -0.000468 178368.000000 0 0 1
24.222023 -27.187233 -25.653585 44.541648 -0.843013 2.184557 0.002339 -0.006163 437624.000000 0 0 1
23.258523 -27.073533 -26.706415 44.577659 -0.861050 2.213171 -0.000596 -0.010969 -261756.000000 0 0 1
23.884723 -26.638533 -27.890635 45.364953 -0.839850 2.232936 -0.013350 -0.007283 -661131.000000 0 0 1
22.947423 -26.253533 -29.036205 45.375471 -0.852493 2.265177 -0.010095 -0.009620 35736.100000 0 0 1
22.245723 -25.035433 -28.925195 44.252819 -0.844332 2.283174 -0.000678 -0.007779 -622127.000000 0 0 1
21.157623 -24.974533 -28.071505 43.120548 -0.867949 2.279698 -0.005955 -0.006687 -859928.000000 0 0 1
20.586823 -23.539433 -27.805435 41.845721 -0.852211 2.297587 -0.003315 -0.000379 66247.000000 0 0 1
20.029523 -22.907333 -28.952665 42.002196 -0.852322 2.331337 0.003241 0.001694 344250.000000 0 0 1
19.373523 -21.691433 -28.561095 40.762578 -0.841783 2.347132 -0.004863 0.016352 -484339.000000 0 0 1
18.375923 -21.218433 -29.613065 40.802329 -0.857066 2.382948 0.002565 0.009437 128536.000000 0 0 1
17.180623 -21.989133 -29.613775 40.689943 -0.907548 2.385892 0.001257 0.004266 77638.400000 0 0 1
16.143023 -21.469333 -30.391775 40.560935 -0.926073 2.417781 0.000488 0.000297 -627553.000000 0 0 1
15.011323 -22.491333 -30.398485 40.684982 -0.982268 2.414586 0.001453 -0.002230 -752205.000000 0 0 1
15.270723 -23.711333 -31.041065 41.940076 -0.998632 2.404058 0.002454 0.003266 -173636.000000 0 0 1
14.335123 -24.686033 -30.660655 41.892383 -1.044691 2.391889 0.012242 -0.009920 -216691.000000 0 0 1
14.687323 -26.086933 -31.178295 43.224201 -1.058016 2.376496 0.029275 -0.005796 29226.300000 0 0 1
13.786023 -27.021033 -30.629395 43.108589 -1.099025 2.361029 0.037697 -0.006778 -46833.200000 0 0 1
14.215723 -28.332333 -30.902195 44.269103 -1.105750 2.343472 0.062563 -0.017751 465403.000000 0 0 1
13.364123 -29.444533 -30.166595 44.222209 -1.144725 2.321508 0.067950 -0.031940 125247.000000 0 0 1
13.706923 -29.687633 -28.815625 43.584120 -1.138251 2.293146 0.079478 -0.034369 -75056.800000 0 0 1
13.460023 -28.592733 -27.910205 42.162734 -1.130821 2.294232 0.067593 -0.023790 -110539.000000 0 0 1
14.533323 -28.301733 -26.814575 41.608016 -1.096396 2.271109 0.038720 -0.015061 -252456.000000 0 0 1
14.660723 -29.364833 -25.848275 41.777548 -1.107740 2.237899 0.043789 -0.022472 482042.000000 0 0 1
15.480623 -28.983933 -24.707455 41.111755 -1.080234 2.215526 0.056850 -0.021278 -808821.000000 0 0 1
14.846723 -27.925833 -23.776755 39.567808 -1.082152 2.215437 0.043505 -0.019264 -114768.000000 0 0 1
13.879023 -28.392533 -22.876655 39.014158 -1.116127 2.197364 0.043592 -0.020277 -58931.300000 0 0 1
12.643823 -28.569133 -23.553455 39.125782 -1.154139 2.216791 0.049698 -0.017880 -820697.000000 0 0 1
11.363323 -28.475533 -22.693555 38.144181 -1.191104 2.207989 0.024919 -0.007527 346.838000 0 0 1
11.072123 -27.104233 -22.426155 36.880398 -1.182983 2.224434 0.011220 -0.010702 356322.000000 0 0 1
9.854223 -26.980633 -21.693755 35.995545 -1.220616 2.217650 0.017461 -0.012663 -62465.800000 0 0 1
9.442023 -25.506833 -21.389455 34.601432 -1.216261 2.237205 0.019373 -0.009185 5134.180000 0 0 1
10.216923 -24.883733 -20.367955 33.740766 -1.181197 2.218880 0.008115 -0.009423 230079.000000 0 0 1
9.819323 -23.533833 -20.336055 32.616185 -1.175514 2.244002 0.009711 -0.009405 -821860.000000 0 0 1
10.091923 -22.791733 -19.000255 31.341979 -1.153955 2.222100 -0.002648 -0.010575 -281469.000000 0 0 1
9.286623 -23.114433 -17.883955 30.665195 -1.188767 2.193459 0.003487 -0.007113 -121865.000000 0 0 1
9.548023 -22.341533 -16.748155 29.509482 -1.166923 2.174325 0.006362 -0.000838 -479454.000000 0 0 1
8.828423 -22.698533 -15.485755 28.861272 -1.199859 2.137150 0.008150 0.003736 -272814.000000 0 0 1
9.242723 -23.945633 -15.068455 29.763729 -1.202427 2.101649 0.001272 0.001544 4672.810000 0 0 1
8.692323 -24.279133 -13.822655 29.259162 -1.226998 2.062832 0.000823 0.003468 -122289.000000 0 0 1
8.785823 -25.790133 -13.728955 30.509111 -1.242461 2.037556 0.008510 -0.004694 567656.000000 0 0 1
10.014823 -26.327833 -13.225755 31.118677 -1.207309 2.009769 0.018795 -0.004703 364396.000000 0 0 1
10.029323 -27.737133 -13.472255 32.425877 -1.223839 1.999265 0.016097 -0.011492 -1538220.000000 0 0 1
11.257523 -28.381833 -12.854955 33.128690 -1.193185 1.969290 0.037519 -0.006379 124080.000000 0 0 1
12.514923 -27.956933 -13.376255 33.423608 -1.149898 1.982536 0.038676 0.000044 426329.000000 0 0 1
12.740023 -28.404833 -14.710955 34.431888 -1.149177 2.012243 0.042013 -0.012205 -1268060.000000 0 0 1
14.059923 -27.887333 -15.290855 34.773481 -1.103819 2.026092 0.021504 -0.008459 504685.000000 0 0 1
15.177223 -28.774333 -15.157955 35.889747 -1.085425 2.006830 0.043731 -0.002877 865633.000000 0 0 1
16.431823 -28.205233 -15.528555 36.147973 -1.043284 2.014827 0.042664 -0.003298 413373.000000 0 0 1
17.615823 -29.124833 -15.247955 37.297094 -1.026827 1.991962 0.028896 -0.000210 -203905.000000 0 0 1
17.816523 -29.967433 -16.369355 38.515338 -1.034409 2.009768 0.019948 0.010929 -312981.000000 0 0 1
19.115723 -30.481133 -16.233455 39.471957 -1.010665 1.994638 0.024326 0.011867 -65828.800000 0 0 1
19.410123 -31.455233 -17.353455 40.832915 -1.017919 2.009744 0.029381 0.001049 -349272.000000 0 0 1
19.057423 -32.789033 -17.032155 41.574034 -1.044305 1.992902 0.016979 0.012357 72560.700000 0 0 1
19.400523 -33.696233 -18.119655 42.896833 -1.048400 2.006889 0.019464 0.003763 23616.400000 0 0 1
19.405323 33.903184 -17.638855 42.861657 1.050937 1.994928 0.004689 0.007816 -13257.200000 0 0 1
20.310323 33.586084 -16.590155 42.611823 1.026910 1.970703 0.020237 -0.003494 54353.100000 0 0 1
20.068223 32.324384 -15.986855 41.269588 1.015195 1.968580 0.024016 -0.010011 -945493.000000 0 0 1
21.104023 31.847284 -14.986455 41.039287 0.985570 1.944615 0.019102 -0.017719 -814833.000000 0 0 1
22.379623 31.507884 -15.479655 41.631886 0.953200 1.951767 0.024276 -0.011302 286668.000000 0 0 1
23.395523 31.337384 -14.502055 41.709612 0.929495 1.925904 0.032313 -0.013605 448939.000000 0 0 1
23.141223 30.092984 -13.569655 40.314258 0.915252 1.914097 0.026412 -0.010009 -1097500.000000 0 0 1
23.142323 28.851384 -14.264255 39.641372 0.894763 1.938885 0.033495 -0.009993 78599.800000 0 0 1
22.906423 27.753484 -13.373555 38.390260 0.880786 1.926615 0.008963 0.000734 21935.200000 0 0 1
21.422123 27.468684 -13.038055 37.194446 0.908448 1.928941 0.012438 -0.003912 -274729.000000 0 0 1
20.681423 27.245984 -14.211655 37.041004 0.921520 1.964567 0.012967 -0.010726 441427.000000 0 0 1
19.266523 27.203884 -14.003255 36.157175 0.954570 1.968485 0.015875 -0.013164 653115.000000 0 0 1
18.440423 28.522384 -14.155555 36.796132 0.996868 1.965682 0.024270 -0.011596 -155701.000000 0 0 1
18.351923 29.191784 -15.425655 37.774385 1.009564 1.991456 0.022836 -0.007917 -44142.100000 0 0 1
17.706623 28.488884 -16.484155 37.374702 1.014698 2.027566 0.011064 -0.001644 -343187.000000 0 0 1
17.859823 29.195184 -17.840955 38.595747 1.021790 2.051329 0.010769 -0.005108 -57020.300000 0 0 1
16.902923 30.225184 -17.898055 38.982187 1.060892 2.047817 0.007448 -0.003531 66445.800000 0 0 1
16.842623 30.816484 -19.218355 40.033421 1.070609 2.071517 -0.003302 0.000447 -314244.000000 0 0 1
15.825123 31.951484 -19.272555 40.531015 1.110927 2.066330 -0.014389 0.006032 191612.000000 0 0 1
16.293523 33.131484 -18.570055 41.328211 1.113743 2.036813 -0.006386 0.004808 358647.000000 0 0 1
15.293523 34.119184 -18.753255 41.829357 1.149408 2.035690 -0.006875 0.005324 229324.000000 0 0 1
15.416023 -33.693333 -17.926955 41.161513 -1.141690 2.021420 -0.009446 0.010168 895.002000 0 0 1
14.417423 -32.772633 -18.319655 40.218370 -1.156354 2.043735 -0.014260 0.015424 42805.500000 0 0 1
14.141423 -31.761033 -17.367055 38.863320 -1.151904 2.034066 0.002744 0.004367 712670.000000 0 0 1
13.051723 -30.709133 -17.850855 37.842454 -1.168916 2.062031 0.021533 -0.006691 1499060.000000 0 0 1
11.728223 -31.255933 -17.994955 37.924965 -1.211822 2.065179 0.014324 -0.001245 344930.000000 0 0 1
10.796023 -30.191433 -17.988555 36.764995 -1.227380 2.082066 0.004378 -0.001244 -333767.000000 0 0 1
9.376923 -30.713633 -18.190055 36.907073 -1.274483 2.086171 0.024691 -0.008245 -1665750.000000 0 0 1
8.976723 -31.635733 -17.127455 37.077633 -1.294311 2.050972 0.023071 -0.016302 539383.000000 0 0 1
7.817523 -32.433033 -17.347755 37.602658 -1.334272 2.050306 0.047354 -0.007305 469960.000000 0 0 1
6.508523 -31.755233 -17.840855 37.000700 -1.368637 2.073933 0.035369 0.000741 -1015860.000000 0 0 1
6.356323 -31.326433 -19.189755 37.282636 -1.370608 2.111466 0.031194 0.006228 -128689.000000 0 0 1
6.433423 -32.412233 -20.100255 38.677668 -1.374856 2.117280 0.032735 0.000960 -893254.000000 0 0 1
6.612423 -31.977933 -21.608855 39.156799 -1.366889 2.155383 0.020488 0.019001 -131385.000000 0 0 1
7.781323 -31.337833 -22.119155 39.139057 -1.327414 2.171403 0.028092 0.006882 1101250.000000 0 0 1
8.950223 -32.202433 -22.221655 40.136082 -1.299702 2.157547 0.030988 0.001600 841880.000000 0 0 1
8.908823 -33.339733 -23.316755 41.648241 -1.309684 2.165001 0.039055 -0.000138 -141163.000000 0 0 1
7.855123 -34.299533 -23.129855 42.108801 -1.345663 2.152308 0.043333 -0.009319 115747.000000 0 0 1
7.714723 33.813984 -24.118755 42.244725 1.346484 2.178434 0.049392 -0.018768 -514197.000000 0 0 1
6.583023 32.781784 -23.891155 41.094633 1.372619 2.191207 0.054271 -0.026917 364880.000000 0 0 1
5.265523 33.283984 -23.916355 41.322407 1.413897 2.188021 0.053240 -0.021098 63166.100000 0 0 1
4.832423 33.992784 -22.754755 41.190297 1.429582 2.156073 0.036027 -0.020734 -219700.000000 0 0 1
3.456123 -34.379933 -22.894455 41.449736 -1.470606 2.155968 0.024157 -0.007703 720901.000000 0 0 1
2.332023 33.844384 -22.904055 40.932583 1.502001 2.164646 0.026070 -0.017248 -172836.000000 0 0 1
1.148423 34.545184 -23.026855 41.532212 1.537564 2.158479 0.020582 -0.005352 -138778.000000 0 0 1
-0.209877 33.857284 -22.684755 40.754850 -1.564598 2.161102 0.012538 -0.015198 581800.000000 0 0 1
-0.363577 33.796384 -21.265755 39.931943 -1.560039 2.132407 0.004792 -0.010626 889334.000000 0 0 1
-1.575777 33.131484 -20.808955 39.155982 -1.523271 2.131093 0.002376 -0.008164 1208460.000000 0 0 1
-1.925177 33.470784 -19.306855 38.687909 -1.513341 2.093288 0.002440 -0.006396 -103158.000000 0 0 1
-0.994977 32.840684 -18.457255 37.685153 -1.540508 2.082628 0.012976 -0.017580 -315953.000000 0 0 1
-1.347977 32.628184 -17.102755 36.863527 -1.529507 2.053243 -0.002979 -0.013047 -331640.000000 0 0 1
-0.365977 31.777184 -16.275055 35.704352 -1.559280 2.044099 -0.018575 -0.016971 -169408.000000 0 0 1
0.723423 32.461284 -15.743255 36.084739 1.548514 2.022263 0.000202 -0.010570 -674208.000000 0 0 1
1.389323 31.631884 -14.817855 34.958191 1.526903 2.008514 0.015365 0.001981 338429.000000 0 0 1
2.378723 32.447884 -13.921655 35.388359 1.497618 1.975119 0.021105 -0.008645 520143.000000 0 0 1
3.498023 33.019984 -14.585655 36.267021 1.465253 1.984686 0.024446 -0.014767 463198.000000 0 0 1
4.307823 33.886884 -13.780355 36.834446 1.444351 1.954240 0.022249 -0.022287 -457505.000000 0 0 1
5.616323 34.251084 -14.456855 37.598942 1.408268 1.965464 0.042217 -0.037649 -394562.000000 0 0 1
6.424923 33.081984 -14.468655 36.674777 1.378972 1.976334 0.030056 -0.023321 -686592.000000 0 0 1
7.529723 33.127584 -15.313055 37.264235 1.347299 1.994272 0.030852 -0.009047 -114164.000000 0 0 1
8.253623 31.748684 -15.332055 36.210125 1.316459 2.008012 0.024896 -0.010161 -118309.000000 0 0 1
8.964423 31.496484 -14.154155 35.675334 1.293512 1.978769 0.017406 -0.012488 -664533.000000 0 0 1
9.900923 30.486784 -14.321755 35.108189 1.256780 1.990984 0.015655 -0.007217 -54333.700000 0 0 1
9.331423 29.017584 -14.232755 33.640258 1.259662 2.007646 0.010434 -0.001092 67256.200000 0 0 1
8.535623 28.560384 -15.299155 33.505470 1.280384 2.044985 0.012576 -0.008755 27545.500000 0 0 1
7.943023 27.319084 -14.995555 32.160389 1.287847 2.055871 0.006523 -0.000560 40351.700000 0 0 1
7.250223 26.494884 -16.094855 31.836912 1.303689 2.100805 0.009213 0.016183 -111075.000000 0 0 1
8.126423 25.714784 -16.833955 31.791050 1.264707 2.128829 0.013471 0.014475 -371676.000000 0 0 1
7.412823 24.916484 -17.783755 31.496715 1.281628 2.170772 0.008851 0.018913 311884.000000 0 0 1
8.334623 23.953884 -18.598055 31.450630 1.235954 2.203517 0.014915 0.020657 -53910.000000 0 0 1
7.680323 23.044684 -19.472055 31.132069 1.249094 2.246525 0.026358 0.009155 45866.300000 0 0 1
8.578123 22.070484 -19.965355 30.972663 1.200096 2.271312 0.018993 0.009664 -230893.000000 0 0 1
8.013723 21.277184 -21.139255 31.045232 1.210593 2.319812 0.020972 0.001705 -169749.000000 0 0 1
6.972823 20.404784 -20.753055 29.927659 1.241512 2.337050 0.017355 0.010308 -80690.100000 0 0 1
6.514123 19.531284 -21.739355 29.941683 1.248876 2.383366 0.014384 0.008542 -49681.800000 0 0 1
24.477323 -12.841016 -9.365355 29.184600 -0.483140 1.897477 0.036186 -0.009389 -390785.000000 0 0 1
24.895123 -12.175816 -8.221755 28.907004 -0.454877 1.859199 0.047104 -0.015137 54720.700000 0 0 1
24.100823 -12.414116 -7.105955 28.025962 -0.475647 1.827144 0.037220 -0.004527 -896591.000000 0 0 1
24.648623 -11.778416 -5.860955 27.939873 -0.445773 1.782136 0.029395 -0.000199 -562051.000000 0 0 1
24.681323 -10.378916 -5.791455 27.393987 -0.398067 1.783817 0.033680 -0.002873 810882.000000 0 0 1
25.711623 -9.671616 -6.512455 28.231893 -0.359785 1.803570 0.028076 -0.007342 -155631.000000 0 0 1
26.091123 -8.233716 -5.971755 28.003618 -0.305684 1.785696 0.050760 -0.005529 -695.565000 0 0 1
26.737023 -8.061516 -4.723755 28.322611 -0.292843 1.738363 0.050589 -0.014254 -311664.000000 0 0 1
28.060823 -8.480116 -4.652255 29.681065 -0.293478 1.728187 0.034676 -0.009490 -712442.000000 0 0 1
28.690723 -8.067816 -3.273655 29.982729 -0.274121 1.680199 0.042996 -0.008287 -89405.400000 0 0 1
28.906723 -6.714216 -2.977855 29.825273 -0.228225 1.670806 0.041348 -0.010306 325623.000000 0 0 1
29.797623 -6.600116 -1.892155 30.578425 -0.217979 1.632715 0.040783 -0.005424 -287205.000000 0 0 1
29.817923 -5.160716 -1.318955 30.289951 -0.171377 1.614354 0.047893 -0.014581 514599.000000 0 0 1
28.553723 -4.731216 -0.778855 28.953516 -0.164203 1.597700 0.044271 -0.011753 368525.000000 0 0 1
28.539823 -3.398416 -0.350655 28.743585 -0.118518 1.582996 0.044605 -0.017002 -458495.000000 0 0 1
29.151923 -3.104016 1.038345 29.335093 -0.106078 1.535393 0.046424 -0.021192 -442321.000000 0 0 1
28.553123 -3.588216 2.225345 28.863615 -0.125013 1.493621 0.043660 -0.022872 -5546.820000 0 0 1
29.233223 -3.139116 3.345945 29.591058 -0.106972 1.457481 0.048836 -0.021081 -321200.000000 0 0 1
28.893623 -3.954916 4.596845 29.523106 -0.136033 1.414457 0.056522 -0.024788 -253626.000000 0 0 1
29.480323 -5.228616 4.649345 30.299245 -0.175534 1.416740 0.049841 -0.027802 103980.000000 0 0 1
29.265723 -5.891716 5.862745 30.423126 -0.198663 1.376876 0.049905 -0.019399 -98949.200000 0 0 1
29.905923 -7.300316 5.762845 31.318832 -0.239427 1.385736 0.036891 -0.022059 -94394.300000 0 0 1
31.305523 -7.191216 5.739345 32.629579 -0.225794 1.393983 0.041704 -0.018902 -296296.000000 0 0 1
31.951923 -8.465016 5.728145 33.546885 -0.258980 1.399205 0.039827 -0.016681 352217.000000 0 0 1
33.492623 -8.309916 5.804645 34.992919 -0.243201 1.404145 0.033339 -0.018289 317283.000000 0 0 1
34.074223 -7.769516 4.602745 35.250579 -0.224185 1.439850 0.035496 -0.016706 211681.000000 0 0 1
-35.224495 -7.642816 4.747345 36.355399 0.213663 1.439841 0.033383 -0.011041 194790.000000 0 0 1
-34.701995 -7.359216 3.375845 35.634013 0.208973 1.475917 0.031308 -0.012317 -529908.000000 0 0 1
-34.562095 -8.540616 2.544745 35.692524 0.242256 1.499439 0.038870 -0.015041 458402.000000 0 0 1
-33.579795 -8.233116 1.555745 34.609351 0.240438 1.525830 0.059138 -0.021006 53581.000000 0 0 1
-33.281695 -9.491616 0.769745 34.617258 0.277815 1.548559 0.060295 -0.014607 -95710.700000 0 0 1
-32.668095 -10.463116 1.600045 34.340085 0.309962 1.524185 0.050313 -0.012702 377579.000000 0 0 1
-32.657695 -11.657116 0.879645 34.686989 0.342852 1.545434 0.056584 -0.008033 -787780.000000 0 0 1
-32.475395 -12.926516 1.771145 34.998330 0.378816 1.520168 0.042428 -0.014272 564590.000000 0 0 1
-31.225195 -13.215016 2.398545 33.991212 0.400359 1.500174 0.036264 -0.016417 370217.000000 0 0 1
-30.213295 -13.563916 1.486345 33.151656 0.421971 1.525947 0.036095 -0.000355 -323322.000000 0 0 1
-28.914295 -14.119016 2.144545 32.248755 0.454249 1.504247 0.024854 -0.006069 552612.000000 0 0 1
-28.142495 -13.028316 2.694245 31.128701 0.433563 1.484136 0.019466 -0.007904 765202.000000 0 0 1
-26.838395 -13.439016 3.111645 30.175967 0.464238 1.467496 0.016433 -0.003744 220122.000000 0 0 1
-25.945795 -12.253516 3.509845 28.907646 0.441222 1.449080 0.012220 0.001188 -980668.000000 0 0 1
-24.792495 -12.727716 4.107345 28.169716 0.474286 1.424468 0.010284 0.002675 -722349.000000 0 0 1
-24.163595 -11.617016 4.727845 27.224748 0.448142 1.396252 0.012030 0.006517 120184.000000 0 0 1
-22.841595 -11.839416 5.502545 26.309471 0.478202 1.360094 0.004411 0.016375 253815.000000 0 0 1
-23.071495 -12.748016 6.569945 27.165603 0.504794 1.326526 0.002684 0.014725 277603.000000 0 0 1
-21.876095 -13.343816 7.074545 26.583269 0.547720 1.301423 0.003655 0.018520 466125.000000 0 0 1
-21.429995 -12.915716 8.492445 26.423135 0.542398 1.243587 0.007694 0.011656 -287977.000000 0 0 1
-21.021095 -11.551016 8.628545 25.490473 0.502456 1.225473 0.003595 0.008988 159614.000000 0 0 1
-22.035495 -10.607016 8.884145 26.019221 0.448625 1.222342 0.011584 0.009363 -531267.000000 0 0 1
-22.504695 -10.516816 10.365145 26.916556 0.437161 1.175497 0.012442 0.007057 -331192.000000 0 0 1
-23.107295 -11.750416 10.763645 28.069119 0.470437 1.177246 0.004468 -0.000377 -118110.000000 0 0 1
-24.508495 -11.690316 10.813245 29.227660 0.445071 1.191824 0.012212 -0.002294 -432091.000000 0 0 1
-25.067795 -11.226816 12.197945 30.053712 0.421071 1.152864 0.009537 -0.009945 -563600.000000 0 0 1
-25.229595 -12.260916 13.156845 30.983304 0.452364 1.132229 0.014543 -0.010482 92050.200000 0 0 1
-26.233995 -11.919316 14.078245 32.070073 0.426462 1.116329 0.001283 -0.011439 -339208.000000 0 0 1
-26.234695 -12.870216 15.336245 33.001547 0.456083 1.087486 0.004119 -0.021318 -393211.000000 0 0 1
-26.434395 -14.189016 15.008945 33.546593 0.492624 1.106934 0.002201 -0.011758 394419.000000 0 0 1
-26.076795 -15.008216 16.130345 34.138451 0.522239 1.078674 -0.006554 -0.008436 -567804.000000 0 0 1
-26.208395 -16.480216 15.762245 34.740839 0.561338 1.099873 0.006320 -0.010006 -1345670.000000 0 0 1
-27.441695 -17.089416 15.755745 35.963013 0.556982 1.117302 -0.001517 0.000144 -997390.000000 0 0 1
-27.291495 -18.461616 15.708145 36.502093 0.594752 1.125932 0.006970 0.008060 226503.000000 0 0 1
-28.353295 -19.268516 16.536245 38.060905 0.596894 1.121349 -0.003597 0.010068 278264.000000 0 0 1
-28.127095 -19.124816 17.930045 38.449689 0.597138 1.085665 0.001412 0.009857 21690.400000 0 0 1
-28.580795 -20.251216 18.680545 39.698065 0.616448 1.080865 0.005146 0.008647 31416.900000 0 0 1
-27.592695 -21.457916 18.783645 39.681536 0.660974 1.077695 0.007351 0.011300 -136615.000000 0 0 1
-26.457995 -21.119916 19.537245 39.086831 0.673669 1.047380 0.017539 0.016860 -456357.000000 0 0 1
-25.662595 -22.263416 19.699145 39.271934 0.714591 1.045339 0.025536 0.016964 639658.000000 0 0 1
-24.252295 -21.973916 20.335445 38.529951 0.736150 1.014808 0.042140 0.013591 864896.000000 0 0 1
-23.186495 -21.703516 19.454345 37.244164 0.752374 1.021196 0.053788 0.009208 -452106.000000 0 0 1
-21.977295 -21.572616 20.135445 36.794231 0.776106 0.991728 0.052765 0.012031 -51598.400000 0 0 1
-20.749495 -21.363516 19.206945 35.437947 0.799977 0.997995 0.051105 0.002487 -51609.300000 0 0 1
-20.439895 -22.531416 18.529145 35.619984 0.834032 1.023723 0.047882 0.007263 -231012.000000 0 0 1
-19.346595 -22.439716 17.668045 34.496252 0.859286 1.033084 0.040682 -0.002587 -335841.000000 0 0 1
-19.321395 -23.562016 16.624845 34.711243 0.883965 1.071342 0.027602 0.002717 -749043.000000 0 0 1
-19.135495 -24.881916 17.173145 35.779797 0.915213 1.070178 0.034624 -0.007556 69805.700000 0 0 1
-17.897595 -25.345936 17.694045 35.718617 0.955966 1.052532 0.036862 -0.004842 183054.000000 0 0 1
-16.739895 -25.407066 16.660645 34.688906 0.988212 1.069814 0.035311 -0.005336 -161367.000000 0 0 1
-16.255295 -24.083516 16.449445 33.389139 0.977077 1.055654 0.030544 -0.008984 235972.000000 0 0 1
-15.009095 -24.109216 15.738445 32.468845 1.013964 1.064748 0.024607 -0.011015 631166.000000 0 0 1
-14.233495 -22.767016 15.586345 31.046152 1.012067 1.044843 0.021916 -0.006182 -53191.200000 0 0 1
-14.858295 -21.790616 14.762745 30.224800 0.972344 1.060505 0.019646 -0.003410 222568.000000 0 0 1
-15.884995 -21.045216 15.453545 30.562170 0.924228 1.040669 0.029834 -0.002426 516026.000000 0 0 1
-15.366295 -19.906116 16.407245 30.026225 0.913402 0.992700 0.032423 -0.001254 -217202.000000 0 0 1
-14.805695 -18.825916 15.680045 28.626693 0.904371 0.991133 0.019662 -0.000632 -59006.700000 0 0 1
-14.665595 -17.740516 16.517345 28.330695 0.880002 0.948356 0.012087 0.001632 -713260.000000 0 0 1
-14.090495 -16.545116 15.807345 26.872943 0.865350 0.941934 0.012181 -0.001263 -175707.000000 0 0 1
-14.861795 -15.932316 14.792545 26.334978 0.820148 0.974349 0.008413 -0.000731 -62587.900000 0 0 1
-14.942795 -16.597916 13.526345 26.110151 0.837826 1.026228 0.009662 -0.000178 139526.000000 0 0 1
-15.860295 -15.766716 12.550645 25.644824 0.782439 1.059392 0.011238 -0.001025 497571.000000 0 0 1
-17.217095 -15.702416 12.978345 26.672677 0.739419 1.062628 0.007801 -0.003635 773924.000000 0 0 1
-18.016795 -14.665116 12.303745 26.287881 0.683201 1.083726 0.012262 -0.001887 -47975.000000 0 0 1
-19.494795 -14.813716 12.726245 27.594393 0.649795 1.091461 0.004180 -0.002838 100222.000000 0 0 1
-20.178695 -15.912516 12.113045 28.409748 0.667739 1.130321 0.007435 -0.002648 44986.900000 0 0 1
-20.414995 -15.792516 10.718545 27.947501 0.658419 1.177187 0.004255 0.009588 -873131.000000 0 0 1
-21.049295 -17.016016 10.004545 28.856690 0.679835 1.216748 0.000983 0.011478 41422.400000 0 0 1
-20.311495 -18.234416 9.873245 29.026397 0.731564 1.223723 0.001406 0.013425 -288476.000000 0 0 1
-21.111995 -19.224116 9.287545 30.025680 0.738629 1.256318 -0.000639 0.003232 -375998.000000 0 0 1
-20.655995 -20.651316 9.302445 30.654241 0.785285 1.262471 0.009183 0.003657 -735676.000000 0 0 1
-19.530695 -20.858816 8.506045 29.814276 0.818269 1.281476 0.011571 0.001875 -703851.000000 0 0 1
-19.207095 -22.243216 8.518845 30.598103 0.858515 1.288657 0.006098 -0.011162 -440179.000000 0 0 1
-17.948795 -22.521016 7.708045 29.812236 0.897900 1.309272 0.004567 -0.015221 -386153.000000 0 0 1
-16.798695 -22.099716 8.422445 29.009157 0.920842 1.276217 -0.010550 -0.010684 -93468.000000 0 0 1
-15.620595 -22.463816 7.728345 28.431556 0.963187 1.295510 -0.008598 -0.000680 -489005.000000 0 0 1
-14.319895 -22.101216 8.407345 27.644287 0.995882 1.261776 -0.029928 0.013979 -935550.000000 0 0 1
-13.181195 -22.310516 7.637645 27.015489 1.037164 1.284174 -0.004815 0.012071 -214512.000000 0 0 1
-12.010695 -21.886516 8.360645 26.328251 1.068897 1.247647 0.009800 0.006935 719221.000000 0 0 1
-10.753995 -22.326516 7.570945 25.912178 1.121921 1.274294 0.023505 0.007655 4892.110000 0 0 1
-10.694095 -23.733316 7.638045 27.128835 1.147448 1.285390 0.015431 0.012229 -449243.000000 0 0 1
-9.490295 -24.230516 7.126645 26.980969 1.197494 1.303488 0.019996 0.010586 -142565.000000 0 0 1
-9.450495 -25.823146 7.053045 28.388240 1.219966 1.319717 0.018203 0.004166 -81853.900000 0 0 1
-9.931595 -26.497166 5.912445 28.908362 1.212186 1.364819 0.012312 0.001166 -219643.000000 0 0 1
-9.882695 -27.906706 6.022645 30.211325 1.230444 1.370101 0.018359 0.007439 326946.000000 0 0 1
-8.580095 -28.455086 5.381445 30.203806 1.277935 1.391669 0.010265 0.001257 -338405.000000 0 0 1
-7.417395 -28.138856 6.072145 29.726822 1.313059 1.365084 0.016504 -0.000347 -409380.000000 0 0 1
-6.292495 -29.003236 5.866745 30.252304 1.357149 1.375633 0.015839 0.003719 664029.000000 0 0 1
-6.453895 -30.469786 6.355345 31.787593 1.362068 1.369508 0.016876 -0.002485 -626943.000000 0 0 1
-6.551695 -30.570646 7.736545 32.207814 1.359677 1.328217 0.024704 0.002607 -20260.700000 0 0 1
-6.423995 -31.946096 8.138345 33.586507 1.372354 1.326050 0.047007 -0.003209 -106152.000000 0 0 1
-6.577095 -32.039166 9.670245 34.106891 1.368326 1.283326 0.048535 -0.002178 238594.000000 0 0 1
-5.482495 -31.598196 10.478845 33.738849 1.399000 1.254986 0.032767 0.007868 398159.000000 0 0 1
-5.926595 -31.556506 11.800645 34.208082 1.385150 1.218593 0.029465 0.006555 -326149.000000 0 0 1
-5.050495 -30.728366 12.746445 33.648356 1.407893 1.182283 0.027452 0.003141 15961.600000 0 0 1
-5.435495 -29.344246 13.004445 32.553725 1.387640 1.159851 0.021206 0.008368 -537041.000000 0 0 1
-4.587495 -28.741806 13.918245 32.262270 1.412521 1.124742 0.006481 0.001009 -932493.000000 0 0 1
-5.235495 -28.354076 15.233945 32.610384 1.388206 1.084731 0.018185 0.008299 -27710.800000 0 0 1
-5.897695 -29.332286 16.034345 33.945045 1.372377 1.078828 0.029549 -0.001890 -125945.000000 0 0 1
-5.067495 -30.276476 16.699245 34.945805 1.404959 1.072578 0.012405 -0.007528 173604.000000 0 0 1
-5.743495 -31.635956 17.180245 36.455209 1.391203 1.080066 0.016468 -0.003320 122344.000000 0 0 1
-5.851395 -32.600496 16.113745 36.833191 1.393199 1.118003 0.019551 0.001337 -61034.800000 0 0 1
-6.336995 -33.842326 16.561445 38.206570 1.385689 1.122455 0.016026 -0.001158 -88456.800000 0 0 1
-5.772495 34.083529 15.760245 37.992025 -1.403025 1.143040 0.023628 -0.006194 -328303.000000 0 0 1
-6.222195 34.049997 14.453945 37.510459 -1.390054 1.175230 0.016923 -0.005694 6581.770000 0 0 1
-5.564495 33.022240 13.706745 36.184345 -1.403857 1.182294 0.024936 -0.010338 160179.000000 0 0 1
-4.298495 33.605511 13.019845 36.294956 -1.443577 1.203897 0.037440 -0.011166 56103.300000 0 0 1
-4.529495 33.879759 11.686545 36.123811 -1.437891 1.241356 0.032626 -0.007312 -133945.000000 0 0 1
-3.446495 34.507917 11.063045 36.401451 -1.471251 1.261994 0.037835 -0.014909 -379518.000000 0 0 1
-3.842495 -34.279762 9.601245 35.805737 1.459170 1.299326 0.034236 -0.013528 -845228.000000 0 0 1
-3.966495 33.793993 8.642545 35.106419 -1.453958 1.322058 0.043853 -0.024547 191094.000000 0 0 1
-4.818495 32.675390 8.855245 34.195239 -1.424386 1.308850 0.052521 -0.025051 1586020.000000 0 0 1
-6.351595 32.943880 9.251445 34.802748 -1.380333 1.301737 0.053476 -0.014106 1211050.000000 0 0 1
-7.084995 33.544908 8.242245 35.261773 -1.362646 1.334869 0.051896 -0.016086 -972282.000000 0 0 1
-8.459195 33.631033 8.506545 35.706662 -1.324379 1.330249 0.033775 -0.016458 -58398.600000 0 0 1
-9.231895 33.959896 7.200245 35.921386 -1.305364 1.368985 0.041492 -0.021123 -138670.000000 0 0 1
-9.207595 -33.761656 6.898645 35.668201 1.304548 1.376158 0.047352 -0.021834 2804.110000 0 0 1
-9.812395 -33.564306 5.660245 35.424344 1.286376 1.410324 0.033552 -0.014121 -516740.000000 0 0 1
-9.798295 -32.113286 5.106345 33.960926 1.274652 1.419865 0.023933 -0.012596 622608.000000 0 0 1
-10.793695 -31.291766 5.771045 33.600349 1.238639 1.398185 0.039718 -0.012217 477653.000000 0 0 1
-12.070395 -31.379276 5.165745 34.015266 1.203582 1.418341 0.045606 -0.011174 37965.200000 0 0 1
-13.045195 -30.362716 5.858545 33.561797 1.164998 1.395338 0.033172 -0.013056 295529.000000 0 0 1
-13.742195 -30.891656 6.995145 34.526431 1.152232 1.366781 0.045580 -0.010831 393352.000000 0 0 1
-14.643995 -29.997416 7.660045 34.248619 1.116653 1.345228 0.038509 -0.011546 354635.000000 0 0 1
32.590951 -12.753516 -12.848355 37.281396 -0.373002 1.922643 0.031097 -0.013086 -205940.000000 0 0 1
31.531871 -12.634316 -11.908655 35.995845 -0.381096 1.907984 0.037277 -0.019745 150900.000000 0 0 1
31.119421 -13.949116 -11.498255 35.988971 -0.421393 1.895992 0.035502 -0.021288 -198284.000000 0 0 1
32.000451 -14.854816 -10.576355 36.831423 -0.434605 1.862053 0.035662 -0.019295 -601741.000000 0 0 1
33.211341 -15.205416 -11.159755 38.193428 -0.429353 1.867313 0.041128 -0.026472 -859186.000000 0 0 1
34.045521 -15.767116 -10.175055 38.874557 -0.433710 1.835622 0.033346 -0.025146 446133.000000 0 0 1
-35.184574 -15.959816 -10.638555 40.073044 0.425846 1.839497 0.020661 -0.029832 496095.000000 0 0 1
-34.463732 -14.747016 -10.761755 39.000496 0.404324 1.850363 0.026295 -0.023605 -965897.000000 0 0 1
-33.137687 -14.895716 -11.099055 37.989179 0.422446 1.867285 0.042371 -0.023439 -843327.000000 0 0 1
-32.584987 -13.523816 -11.502955 37.107856 0.393398 1.885976 0.042074 -0.024249 -342705.000000 0 0 1
-32.408027 -12.636816 -10.410655 36.309105 0.371794 1.861601 0.057913 -0.018322 331717.000000 0 0 1
-31.707457 -11.466116 -10.832455 35.414358 0.346991 1.881656 0.054892 -0.012489 -113387.000000 0 0 1
-31.878537 -10.324316 -9.839055 34.923340 0.313204 1.856396 0.059827 -0.015532 265031.000000 0 0 1
-31.220057 -10.453316 -8.549755 34.015616 0.323094 1.824869 0.065172 -0.010391 810453.000000 0 0 1
-32.033777 -9.775416 -7.580355 34.339241 0.296184 1.793379 0.065555 -0.013465 -4208.940000 0 0 1
-31.409617 -9.589116 -6.264655 33.432935 0.296305 1.759290 0.052036 -0.004735 -396178.000000 0 0 1
-30.233867 -8.777516 -6.226555 32.092079 0.282553 1.766056 0.050815 -0.019810 608412.000000 0 0 1
-29.621177 -8.609616 -4.957855 31.242919 0.282864 1.730157 0.056886 -0.017440 -91585.500000 0 0 1
-28.786367 -9.798816 -4.400855 30.725222 0.328095 1.714523 0.059212 -0.013198 -932490.000000 0 0 1
-29.500317 -10.925616 -4.047355 31.717801 0.354693 1.698750 0.076557 -0.008880 -24144.400000 0 0 1
-30.155467 -10.761016 -2.794755 32.139731 0.342765 1.657863 0.049279 -0.010484 -110749.000000 0 0 1
-30.786877 -12.077616 -2.316055 33.152145 0.373849 1.640715 0.051388 -0.003129 -69361.700000 0 0 1
-32.048807 -12.408916 -2.873355 34.487149 0.369413 1.654210 0.059654 -0.011126 184363.000000 0 0 1
-32.430597 -13.711216 -2.535655 35.301142 0.399994 1.642688 0.059549 -0.016190 878488.000000 0 0 1
-34.010837 -13.835416 -2.552855 36.805881 0.386350 1.640212 0.037536 -0.008906 1055560.000000 0 0 1
-34.491290 -12.994216 -1.519255 36.889116 0.360294 1.611992 0.043269 -0.011019 335159.000000 0 0 1
34.804568 -13.134116 -1.408755 37.226973 -0.360845 1.608648 0.077260 -0.007617 467749.000000 0 0 1
34.073861 -12.172416 -0.442755 36.185518 -0.343107 1.583032 0.067338 -0.015396 -56523.500000 0 0 1
34.156941 -12.633916 0.887445 36.429384 -0.354273 1.546433 0.075467 -0.007559 122564.000000 0 0 1
33.951531 -11.509916 1.681045 35.888863 -0.326851 1.523939 0.064950 -0.007967 -163234.000000 0 0 1
34.389921 -11.656716 3.153445 36.448455 -0.326804 1.484170 0.051422 -0.013183 -57435.200000 0 0 1
33.455771 -12.150616 4.076045 35.826529 -0.348372 1.456778 0.054740 -0.018958 138009.000000 0 0 1
34.182361 -12.434816 5.288145 36.756264 -0.348897 1.426425 0.043899 -0.018479 256018.000000 0 0 1
33.344151 -12.542116 6.585045 36.228440 -0.359771 1.388016 0.044251 -0.016938 -45876.700000 0 0 1
32.789201 -11.336916 7.018645 35.396592 -0.332885 1.371188 0.047029 -0.023125 15554.800000 0 0 1
32.105311 -11.534516 8.256445 35.099358 -0.344910 1.333340 0.041541 -0.010485 -321155.000000 0 0 1
31.534551 -10.234116 8.855945 34.316072 -0.313813 1.309772 0.036246 -0.022670 -117443.000000 0 0 1
30.195121 -10.048816 8.429345 32.920782 -0.321267 1.311863 0.029168 -0.018998 -58961.200000 0 0 1
29.689061 -9.050316 9.274545 32.393915 -0.295888 1.280428 0.028798 -0.012397 -226316.000000 0 0 1
28.149271 -8.924416 9.372845 30.981880 -0.307015 1.263454 0.021982 -0.017242 11740.700000 0 0 1
27.525461 -8.471816 8.216145 29.948751 -0.298580 1.292893 0.039905 -0.023584 158039.000000 0 0 1
26.950591 -9.496816 7.360245 29.507576 -0.338792 1.318699 0.034370 -0.032512 -477369.000000 0 0 1
25.981851 -8.949316 6.332045 28.200029 -0.331717 1.344325 0.047083 -0.031456 -1496960.000000 0 0 1
24.761641 -8.633516 6.903545 27.117068 -0.335485 1.313380 0.055300 -0.029026 335793.000000 0 0 1
23.750541 -8.030316 6.033545 25.787164 -0.326044 1.334632 0.047485 -0.029587 894787.000000 0 0 1
24.186841 -6.653216 5.420745 25.664236 -0.268437 1.357976 0.047551 -0.025766 -586822.000000 0 0 1
25.115241 -6.659416 4.345245 26.343961 -0.259190 1.405096 0.045301 -0.025553 464860.000000 0 0 1
25.105741 -5.410616 3.731045 25.951757 -0.212267 1.426528 0.049765 -0.025795 -479976.000000 0 0 1
25.762481 -5.434416 2.373045 26.436143 -0.207895 1.480910 0.056411 -0.023818 -375418.000000 0 0 1
25.111441 -6.002016 1.294645 25.851204 -0.234614 1.520695 0.042062 -0.014185 -210305.000000 0 0 1
25.930861 -5.816716 0.162545 26.575744 -0.220664 1.564680 0.040860 -0.014528 -352570.000000 0 0 1
25.213441 -6.194816 -1.158655 25.989148 -0.240923 1.615393 0.051019 -0.011186 -527166.000000 0 0 1
24.199941 -5.335716 -1.485155 24.825646 -0.217013 1.630655 0.055919 -0.010206 -712556.000000 0 1 0
23.983841 -5.260916 -2.872955 24.721564 -0.215933 1.687272 0.073414 -0.009186 73595.000000 0 1 0
22.778641 -4.371516 -3.236755 23.419078 -0.189608 1.709450 0.045382 -0.003402 -44432.500000 0 1 0
23.068441 -3.044616 -2.933955 23.452734 -0.131223 1.696226 0.017014 -0.002515 293390.000000 0 1 0
23.621641 -2.320516 -4.016255 24.072744 -0.097923 1.738418 0.015781 -0.004024 -423251.000000 0 1 0
22.635341 -1.597416 -4.974755 23.230553 -0.070455 1.786615 0.025859 0.002528 -300318.000000 0 1 0
22.266841 -0.351616 -4.493555 22.718448 -0.015790 1.769902 0.017746 0.006133 202362.000000 0 1 0
21.594841 0.322684 -5.536255 22.295546 0.014942 1.821734 0.039700 0.009029 -496569.000000 0 1 0
21.089141 1.765684 -5.121355 21.773786 0.083530 1.808228 0.025916 0.015476 -33802.800000 0 1 0
22.005341 2.865384 -4.844755 22.713808 0.129485 1.785743 0.015093 0.010772 586811.000000 0 1 0
22.340941 2.840484 -3.500255 22.791177 0.126464 1.724986 0.011543 0.014191 -661185.000000 0 1 0
23.545241 3.711784 -3.209255 24.051092 0.156358 1.704630 0.003999 0.010027 -584718.000000 0 1 0
23.260941 5.071184 -3.423355 24.052185 0.214654 1.713612 -0.000572 0.009925 1214180.000000 0 1 0
24.372841 5.797084 -2.883155 25.218131 0.233511 1.685376 0.004481 0.005085 514370.000000 0 0 1
23.956741 7.298484 -2.922055 25.213720 0.295720 1.686949 0.007426 -0.002672 -99254.300000 0 0 1
22.991441 7.529084 -1.926555 24.269426 0.316467 1.650262 0.024454 -0.004573 253617.000000 0 1 0
22.328341 8.746484 -2.131755 24.074886 0.373349 1.659459 0.017095 -0.003428 -253318.000000 0 1 0
21.343741 9.139784 -1.005855 23.240109 0.404594 1.614091 0.017507 0.004502 -411821.000000 0 1 0
21.950341 9.595784 0.177745 23.956797 0.412124 1.563377 0.017885 -0.000290 566823.000000 0 1 0
20.976141 10.018184 1.110145 23.272192 0.445567 1.523076 0.022328 -0.000437 18977.000000 0 1 0
21.665841 10.411584 2.475645 24.164820 0.447969 1.468168 0.055528 0.003211 -190475.000000 0 1 0
22.496641 11.548084 2.426245 25.403617 0.474251 1.475143 0.067152 -0.010247 291638.000000 0 0 1
21.965741 12.836484 2.071345 25.525664 0.528860 1.489559 0.059385 -0.003143 -668735.000000 0 0 1
20.951841 13.582084 2.988945 25.147294 0.575146 1.451657 0.046571 0.001702 1179720.000000 0 0 1
19.584441 13.159184 2.623445 23.740196 0.591631 1.460064 0.077397 0.008842 1590420.000000 0 1 0
18.631641 13.802184 3.408045 23.436149 0.637582 1.424861 0.061493 0.003529 -383429.000000 0 1 0
18.553441 13.490584 4.983645 23.474725 0.628697 1.356870 0.042245 0.002308 -1081100.000000 0 1 0
18.080241 12.213484 5.316345 22.457244 0.594104 1.331796 0.028282 0.004016 597621.000000 0 1 0
17.939041 12.083684 6.748745 22.657673 0.592785 1.268349 0.003894 -0.005095 -520503.000000 0 1 0
17.944041 10.652084 7.312645 22.111767 0.535721 1.233738 -0.017231 -0.013629 -740180.000000 0 1 0
19.210141 10.084184 7.189945 22.856412 0.483400 1.250793 -0.019131 -0.008567 -196139.000000 0 1 0
19.244241 8.771284 7.545245 22.454553 0.427656 1.228105 -0.014068 -0.007655 147017.000000 0 1 0
20.198941 7.857984 6.700245 22.685643 0.371013 1.270973 -0.001170 -0.012968 386395.000000 0 1 0
19.718741 7.688084 5.375545 21.836480 0.371758 1.322067 -0.012055 -0.014206 1123890.000000 0 1 0
20.698841 6.923284 4.676645 22.321399 0.322779 1.359718 0.005677 -0.015816 -41367.700000 0 1 0
20.374541 6.543484 3.241845 21.643674 0.310755 1.420448 0.006243 -0.010389 -1205200.000000 0 1 0
21.388241 5.934584 2.534145 22.340502 0.270661 1.457119 0.011674 -0.009665 -190369.000000 0 1 0
21.165841 5.775884 1.148345 21.969805 0.266401 1.518503 0.014037 0.004997 -451680.000000 0 1 0
22.331541 4.979784 0.567045 22.887060 0.219404 1.546018 0.023284 0.003161 -171223.000000 0 1 0
22.289041 3.577784 0.848145 22.590290 0.159160 1.533243 0.028549 0.003488 601828.000000 0 1 0
23.465041 2.893084 0.438945 23.646791 0.122674 1.552233 0.029192 0.003657 149984.000000 0 1 0
23.330741 1.373584 0.468345 23.375832 0.058807 1.550760 0.038188 -0.000915 -523224.000000 0 1 0
22.419541 0.891484 -0.458655 22.441945 0.039743 1.591235 0.035876 0.000973 444552.000000 0 1 0
22.696241 -0.485916 -0.845755 22.717191 -0.021406 1.608035 0.039747 -0.001532 -1002630.000000 0 1 0
22.422841 -1.656916 0.185545 22.484741 -0.073760 1.562544 0.049201 0.000604 102065.000000 0 1 0
23.238641 -1.751616 1.370045 23.344798 -0.075233 1.512075 0.052063 -0.006898 -140034.000000 0 1 0
24.578741 -1.953016 1.057045 24.678860 -0.079293 1.527951 0.056142 -0.010598 -1448290.000000 0 1 0
25.489941 -1.705216 2.253545 25.646117 -0.066798 1.482812 0.060543 -0.019501 -766369.000000 0 0 1
25.584241 -0.343116 2.636945 25.722064 -0.013410 1.468099 0.052429 -0.026462 826237.000000 0 0 1
26.599571 -0.011016 3.602445 26.842408 -0.000414 1.436183 0.061074 -0.029685 321158.000000 0 0 1
26.397061 1.368384 4.289245 26.778254 0.051792 1.409927 0.077285 -0.023492 26096.400000 0 0 1
26.392621 2.525784 3.456845 26.737610 0.095410 1.441146 0.062875 -0.018968 554290.000000 0 0 1
27.678611 2.725084 2.872445 27.960374 0.098138 1.467882 0.071766 -0.025396 114744.000000 0 0 1
27.672411 3.745584 1.690045 27.975846 0.134537 1.510349 0.072493 -0.024659 -221761.000000 0 0 1
27.023151 3.301484 0.503145 27.228728 0.121570 1.552317 0.057113 -0.007054 371045.000000 0 0 1
27.282521 4.182084 -0.569555 27.607067 0.152104 1.591429 0.056365 -0.007336 876898.000000 0 0 1
28.677641 3.896584 -1.284955 28.969666 0.135048 1.615166 0.059091 -0.013187 738613.000000 0 0 1
29.795971 4.184584 -0.471455 30.092073 0.139529 1.586464 0.082739 -0.028658 -71040.000000 0 0 1
30.942511 3.686784 -1.157555 31.182868 0.118590 1.607926 0.067360 -0.026748 264110.000000 0 0 1
32.284301 3.947484 -0.424555 32.527511 0.121669 1.583849 0.036032 -0.031296 -148111.000000 0 0 1
32.402101 3.186184 0.786645 32.567878 0.098018 1.546640 0.026633 -0.031579 296848.000000 0 0 1
31.796491 3.807584 1.915245 32.080877 0.119181 1.511060 0.040160 -0.017365 -125484.000000 0 0 1
31.709131 2.865184 3.120545 31.990874 0.090114 1.473096 0.036892 -0.014990 -287925.000000 0 0 1
30.785601 1.799884 2.982245 30.982036 0.058399 1.474390 0.046585 -0.026809 183139.000000 0 0 1
30.937891 0.833184 4.005445 31.207225 0.026924 1.442091 0.038826 -0.027695 -578785.000000 0 0 1
32.100771 -0.156416 3.858945 32.332266 -0.004873 1.451158 0.035986 -0.021423 -20450.800000 0 0 1
33.336041 0.492784 4.147445 33.596663 0.014781 1.447032 0.023669 -0.017325 1791400.000000 0 0 1
34.465701 -0.469516 4.122145 34.714508 -0.013622 1.451771 0.015270 -0.020242 469974.000000 0 0 1
-34.864267 0.062384 4.548845 35.159821 -0.001789 1.441056 0.016656 -0.026478 -90514.600000 0 0 1
-34.309832 1.060184 3.718845 34.527068 -0.030890 1.462879 0.020175 -0.026084 311804.000000 0 0 1
-34.090232 0.692584 2.358445 34.178734 -0.020313 1.501738 0.013078 -0.022482 -1137150.000000 0 0 1
-34.425036 1.859684 1.375645 34.502666 -0.053969 1.530915 0.009271 -0.026319 -55705.100000 0 0 1
-33.541527 2.933884 1.402445 33.698792 -0.087248 1.529167 0.006642 -0.028734 -271569.000000 0 0 1
-32.315217 2.766684 0.735245 32.441769 -0.085407 1.548131 0.027185 -0.009971 -578553.000000 0 0 1
-31.292677 3.774384 1.291245 31.545918 -0.120036 1.529853 0.026366 -0.004587 -378959.000000 0 0 1
-31.061567 3.593084 2.676445 31.383030 -0.115164 1.485409 0.029921 -0.010452 161689.000000 0 0 1
-30.177957 4.581884 3.158645 30.686802 -0.150678 1.467682 0.039830 -0.013095 -521900.000000 0 0 1
-29.726647 4.402584 4.611945 30.402736 -0.147033 1.418513 0.039009 -0.015122 306621.000000 0 0 1
-30.687277 4.564284 5.689745 31.542271 -0.147653 1.389419 0.035340 -0.011894 311211.000000 0 0 1
-31.770777 3.679684 5.676745 32.483039 -0.115306 1.395134 0.030469 -0.008027 -442774.000000 0 0 1
-32.005277 2.827184 6.928145 32.868373 -0.088106 1.358419 0.029122 -0.007236 -22761.200000 0 0 1
-32.647517 3.609584 8.022645 33.812014 -0.110115 1.331240 0.034430 0.000063 868859.000000 0 0 1
-32.886077 2.850584 9.245345 34.279678 -0.086464 1.297711 0.031560 0.002995 -332311.000000 0 0 1
-33.935967 1.725184 9.199545 35.203093 -0.050793 1.306399 0.026565 0.005612 -734223.000000 0 0 1
-33.673417 0.596184 8.395645 34.709384 -0.017703 1.326489 0.023514 0.000012 51591.300000 0 0 1
-34.468972 -0.582416 8.543445 35.516753 0.016895 1.327867 0.029242 0.000581 -204009.000000 0 0 1
-34.358346 -1.407516 9.846145 35.769032 0.040943 1.291926 0.030029 0.006499 546799.000000 0 0 1
-33.056757 -2.022016 9.922845 34.573120 0.061092 1.279692 0.025060 -0.006003 999056.000000 0 0 1
-32.952347 -2.879216 10.997945 34.858311 0.087154 1.249808 0.022213 0.004147 -213259.000000 0 0 1
-31.572807 -3.550416 11.080545 33.648568 0.111981 1.235232 0.028842 0.003695 -342179.000000 0 0 1
-31.367497 -4.354316 9.904245 33.180929 0.137935 1.267684 0.024437 -0.000654 -113816.000000 0 0 1
-30.125557 -5.004816 9.889545 32.099852 0.164628 1.257615 0.009494 -0.008273 -410542.000000 0 0 1
-30.094187 -6.109816 8.771545 31.936342 0.200301 1.292563 0.020349 -0.009565 227596.000000 0 0 1
-31.080407 -7.086716 9.058845 33.140247 0.224180 1.293924 0.021416 -0.013696 39606.000000 0 0 1
-31.127277 -8.076616 8.031545 33.145812 0.253872 1.326051 0.037111 -0.012593 125005.000000 0 0 1
-32.312237 -9.008516 8.330545 34.563449 0.271892 1.327378 0.041142 -0.015883 668654.000000 0 0 1
-33.628557 -8.458816 8.199145 35.632253 0.246424 1.338611 0.044422 -0.017650 103179.000000 0 0 1
-34.520390 -9.492116 8.459945 36.787611 0.268340 1.338752 0.050596 -0.023244 -391969.000000 0 0 1
7.094023 -24.080616 10.687045 27.283954 -1.284306 1.168321 0.064036 -0.014284 173977.000000 0 0 1
6.555623 -24.725416 9.564745 27.309463 -1.311623 1.212974 0.048698 -0.012008 37391.600000 0 0 1
5.362723 -25.455766 9.853245 27.818003 -1.363164 1.208734 0.051562 -0.008401 610770.000000 0 0 1
5.139723 -26.645026 8.871745 28.549642 -1.380241 1.254816 0.035061 -0.000812 -58833.700000 0 0 1
4.546823 -26.194206 7.648845 27.664325 -1.398928 1.290659 0.036024 0.002575 -198427.000000 0 0 1
4.405123 -27.160236 6.645645 28.306327 -1.410006 1.333808 0.029003 -0.000131 -34366.200000 0 0 1
3.753223 -26.505066 5.348345 27.298535 -1.430128 1.373600 0.024887 0.005057 1252820.000000 0 0 1
2.338823 -26.257316 5.351645 26.899012 -1.481958 1.370507 0.014200 -0.001533 410325.000000 0 0 1
1.605923 -27.296626 4.722745 27.748678 -1.512032 1.399767 0.013285 -0.002481 2406.690000 0 0 1
0.089923 -26.991816 4.753445 27.407325 -1.567465 1.396478 0.015597 -0.005401 93981.500000 0 0 1
-0.414477 -26.840196 6.104445 27.528752 1.555355 1.347190 0.012936 -0.006486 363934.000000 0 0 1
-1.836077 -26.977276 6.232145 27.748590 1.502841 1.344271 -0.006419 -0.002967 899024.000000 0 0 1
-2.444177 -28.374366 6.456845 29.202218 1.484868 1.347846 -0.008947 0.002996 -396897.000000 0 0 1
-2.278877 -28.877356 7.748445 29.985553 1.492044 1.309425 0.000151 -0.000832 -96498.100000 0 0 1
-2.581577 -30.275056 7.815845 31.374050 1.485731 1.319027 -0.002608 0.002813 -63352.200000 0 0 1
-2.221677 -30.862076 9.181445 32.275417 1.498933 1.282341 0.003493 0.001312 1341280.000000 0 0 1
-0.842877 -31.113676 9.572445 32.563830 1.543713 1.272430 0.007502 0.000416 1042430.000000 0 0 1
-0.688177 -31.537106 10.878845 33.367828 1.548979 1.238697 0.009881 0.006787 -13780.100000 0 0 1
0.784423 -31.778386 11.251045 33.720427 -1.546117 1.230616 0.003630 0.003344 978.881000 0 0 1
1.345923 -33.022966 10.737645 34.750897 -1.530062 1.256666 0.016810 -0.002432 1250000.000000 0 0 1
2.733023 -33.216416 11.118345 35.134276 -1.488702 1.248808 0.019313 0.003091 1073210.000000 0 0 1
3.108823 -33.700506 12.546645 36.094421 -1.478808 1.215779 0.017422 0.004455 -721400.000000 0 0 1
2.723323 -32.784016 13.539745 35.574329 -1.487918 1.180347 0.007796 0.002340 138098.000000 0 0 1
3.335223 -33.208376 14.753545 36.490917 -1.470699 1.154575 -0.003268 0.002624 -706056.000000 0 0 1
2.986323 -32.167816 15.863845 35.990945 -1.478226 1.114336 -0.004311 0.005868 62361.100000 0 0 1
3.507723 -30.871416 15.563945 34.750321 -1.457658 1.106404 -0.008245 0.000537 156258.000000 0 0 1
4.910723 -30.822886 15.754745 34.962516 -1.412804 1.103339 -0.001594 0.006946 -121031.000000 0 0 1
5.554923 -29.629666 14.996745 33.670115 -1.385469 1.109173 0.013274 -0.000097 -187881.000000 0 0 1
5.688823 -29.726046 13.572245 33.169359 -1.381708 1.149241 0.015620 0.000784 -1009160.000000 0 0 1
4.527923 -29.761726 12.829345 32.723914 -1.419815 1.167940 -0.003624 0.007329 -1080400.000000 0 0 1
4.626123 -30.044546 11.326345 32.440127 -1.418021 1.214137 0.010520 -0.003396 79471.700000 0 0 1
5.161323 -31.316396 10.981545 33.584971 -1.407453 1.237692 0.013008 0.004600 -489342.000000 0 0 1
6.543923 -31.533086 10.984445 34.026703 -1.366175 1.242091 0.018545 0.001457 -512881.000000 0 0 1
6.906223 -32.948546 10.431745 35.243778 -1.364181 1.270306 0.011350 0.006953 -243788.000000 0 0 1
6.629723 -33.943646 11.324745 36.391952 -1.377909 1.254353 -0.004852 0.003144 170774.000000 0 0 1
6.741023 33.949474 10.679445 36.222351 1.374785 1.271518 0.001798 0.004859 -105268.000000 0 0 1
6.404223 32.743870 11.548345 35.306365 1.377649 1.237574 -0.003686 0.004061 -526449.000000 0 0 1
5.056723 32.569550 11.837545 35.021044 1.416767 1.225992 0.006100 0.004911 -597451.000000 0 0 1
4.930023 31.494920 12.796645 34.350972 1.415522 1.189066 0.011039 0.007986 -90236.800000 0 0 1
3.706023 31.488400 13.721345 34.547493 1.453640 1.162361 0.013864 0.003108 -238619.000000 0 0 1
3.894923 32.229360 14.902245 35.720848 1.450529 1.140449 0.022352 -0.000688 115161.000000 0 0 1
3.105323 31.801200 15.961145 35.717188 1.473457 1.107526 0.018169 0.001443 -186120.000000 0 0 1
3.928023 32.073350 17.258445 36.633087 1.448933 1.080240 0.004897 0.003158 192150.000000 0 0 1
3.965323 33.475180 17.597945 38.026295 1.452890 1.089664 0.004837 0.004141 278107.000000 0 0 1
4.493523 33.712639 18.913545 38.916012 1.438288 1.063279 0.000126 0.007909 -57065.400000 0 0 1
4.619123 -33.894506 19.355445 39.304034 -1.435351 1.055889 -0.004745 -0.003072 756580.000000 0 0 1
3.370523 -33.316316 19.817545 38.911084 -1.469972 1.036421 -0.018631 -0.006477 607524.000000 0 0 1
3.572323 -32.080146 20.491345 38.233395 -1.459897 1.005159 -0.016606 -0.005569 -123056.000000 0 0 1
2.291023 -31.333796 20.896645 37.732285 -1.497810 0.983859 -0.019766 -0.000443 48742.900000 0 0 1
1.453823 -32.103776 21.742345 38.800717 -1.525542 0.975977 -0.010594 -0.005042 -105930.000000 0 0 1
0.652023 -31.377826 22.672645 38.717463 -1.550020 0.945186 -0.004912 -0.007840 -156069.000000 0 0 1
-0.370977 -32.372466 23.274645 39.872588 1.559337 0.947487 -0.002520 0.003190 -813420.000000 0 0 1
-1.153777 -32.906236 22.258645 39.744168 1.535748 0.976352 0.005180 -0.002033 -224838.000000 0 0 1
-1.912577 -34.042245 22.655345 40.936500 1.514673 0.984324 0.002515 0.001121 77049.500000 0 0 1
-3.262277 -33.867816 23.372545 41.278896 1.474769 0.968895 -0.000343 0.008473 958277.000000 0 0 1
-4.359377 -33.359916 22.540445 40.496418 1.440856 0.980505 0.007279 -0.002324 133322.000000 0 0 1
-5.577477 -33.434606 23.217845 41.085879 1.405501 0.970236 0.016849 -0.006082 -420058.000000 0 0 1
-6.757377 -32.977826 22.350745 40.407363 1.368687 0.984673 0.012987 -0.006389 -279962.000000 0 0 1
-6.903877 -33.825036 21.216945 40.521048 1.369456 1.019722 0.008979 -0.005405 -303023.000000 0 0 1
-7.890377 -33.435086 20.311145 39.908717 1.339045 1.036843 0.022986 -0.012958 -256106.000000 0 0 1
-9.193077 -34.244333 20.398045 40.905590 1.308525 1.048742 0.014812 -0.012589 -227397.000000 0 0 1
-9.873377 -34.086250 21.601645 41.545001 1.288854 1.023995 0.037808 -0.012803 -399262.000000 0 0 1
-11.047377 34.232573 21.661845 41.989870 -1.258632 1.028759 0.028317 -0.016200 173376.000000 0 0 1
-11.511277 33.924581 23.116245 42.635050 -1.243668 0.997757 0.029072 -0.007320 18306.600000 0 0 1
-12.028277 -34.129491 23.976945 43.409625 1.231958 0.985626 0.026552 -0.002484 15618.100000 0 0 1
-11.041177 -33.284266 24.513945 42.786487 1.250495 0.960712 0.021077 0.008542 -95923.100000 0 0 1
-11.526377 -32.102876 25.385545 42.519148 1.226086 0.930993 0.009740 0.013372 -68769.600000 0 0 1
-11.987277 -32.243446 26.730245 43.564213 1.214857 0.910207 0.013628 0.010386 163992.000000 0 0 1
-12.508477 -30.987966 27.103345 43.026821 1.187142 0.889349 0.021038 0.006622 -120210.000000 0 0 1
-13.056377 -30.814146 28.532245 43.978058 1.170016 0.864811 0.004944 0.002809 -31737.400000 0 0 1
-12.144277 -30.600336 29.555645 44.242516 1.192993 0.839228 0.000757 0.009824 62346.000000 0 0 1
-12.993077 -29.976766 30.512445 44.703869 1.161800 0.819556 0.002487 0.004187 267221.000000 0 0 1
-12.417877 -29.617156 31.883545 45.254172 1.173781 0.789016 0.007699 0.000879 -1241500.000000 0 0 1
-13.316177 -29.020796 32.734345 45.728159 1.140608 0.772961 0.022931 -0.006612 -495527.000000 0 0 1
-12.872277 -28.709866 34.024945 46.342732 1.149309 0.746305 0.011799 -0.005027 -565596.000000 0 0 1
-12.342277 -29.844226 -34.062251 46.938754 1.178658 2.382810 0.006479 -0.006272 -761960.000000 0 0 1
-11.104577 -30.344556 -34.422351 47.212308 1.219984 2.387798 -0.010945 -0.003755 -917982.000000 0 0 1
-10.659577 -31.303106 -33.514251 47.082014 1.242585 2.362892 -0.004968 0.002853 318879.000000 0 0 1
-9.230977 -31.858986 -33.783751 47.344987 1.288774 2.365371 -0.006435 -0.001606 146409.000000 0 0 1
-8.232677 -31.009306 -33.274651 46.222900 1.311292 2.374417 0.002109 -0.008430 -252696.000000 0 0 1
-7.008177 -31.734796 -33.164051 46.433459 1.353449 2.366316 0.008113 -0.009359 325435.000000 0 0 1
-6.063277 -30.936486 -32.251851 45.100016 1.377258 2.367590 0.003660 -0.000554 -76690.000000 0 0 1
-6.530477 -30.983116 -30.915851 44.253706 1.363062 2.344242 0.014366 -0.011555 140832.000000 0 0 1
-5.937577 -29.918556 -30.156651 42.892872 1.374884 2.350500 0.007882 -0.008812 162853.000000 0 0 1
-6.347277 -30.012876 -28.659051 41.980970 1.362382 2.322203 0.005803 -0.010319 37140.500000 0 0 1
-5.934577 -31.158156 -27.964551 42.285530 1.382584 2.293382 0.006872 -0.008815 113833.000000 0 0 1
-6.816377 -31.309636 -26.859451 41.811319 1.356433 2.268418 0.014950 -0.011235 355874.000000 0 0 1
-6.547977 -32.610176 -26.139351 42.303254 1.372636 2.236870 0.017019 -0.013374 390983.000000 0 0 1
-5.496477 -32.430936 -25.203751 41.439184 1.402909 2.224601 0.006860 -0.010864 -65773.300000 0 0 1
-5.117377 -33.671926 -24.674851 42.057514 1.419973 2.197765 0.007050 -0.019342 -195749.000000 0 0 1
-4.320177 -33.588766 -23.332351 41.125026 1.442879 2.174083 0.006862 -0.018655 -172422.000000 0 0 1
-4.901377 -32.929646 -22.219351 40.026050 1.423037 2.159306 0.011054 -0.012046 -241183.000000 0 0 1
-5.003677 -31.522086 -22.297651 38.934098 1.413374 2.180595 -0.003797 -0.000326 -266739.000000 0 0 1
-5.654777 -30.887376 -21.088751 37.825150 1.389724 2.162207 0.006025 -0.005449 -415603.000000 0 0 1
-7.059877 -31.020146 -21.054351 38.149404 1.347018 2.155428 0.013792 -0.006642 -316754.000000 0 0 1
-7.690977 -29.967846 -20.386951 37.052000 1.319577 2.153430 0.017084 -0.012332 -275350.000000 0 0 1
-7.956877 -28.681896 -21.215351 36.552075 1.300183 2.190034 0.028240 -0.019051 -1183120.000000 0 0 1
-6.822577 -28.101496 -21.793651 36.210563 1.332621 2.216623 0.025593 -0.009122 -758589.000000 0 0 1
-7.043877 -27.493676 -23.045651 36.559821 1.319991 2.252806 0.041805 -0.017384 -995907.000000 0 0 1
-6.037877 -28.089096 -24.112851 37.508437 1.359064 2.269029 0.042055 -0.013819 1328660.000000 0 0 1
-4.709377 -27.544306 -24.158951 36.939436 1.401459 2.283676 0.054801 -0.008594 1073340.000000 0 0 1
-3.995377 -27.584996 -22.896551 36.071417 1.426958 2.258489 0.037631 -0.003698 -10153.400000 0 0 1
-2.455277 -27.193596 -22.924351 35.651731 1.480752 2.269216 0.034403 -0.003659 1415520.000000 0 0 1
-2.092477 -25.780286 -23.101251 34.679525 1.489808 2.299811 0.043946 -0.007856 123461.000000 0 0 1
-2.539977 -24.937316 -22.081051 33.405000 1.469292 2.292961 0.054673 -0.004302 -407332.000000 0 0 1
-2.330277 -23.450616 -22.473551 32.564123 1.471752 2.332468 0.054092 -0.005962 76443.200000 0 0 1
-3.101777 -23.067516 -23.604451 33.149682 1.437133 2.363219 0.037517 -0.007453 -231647.000000 0 0 1
-4.429277 -22.679816 -23.390951 32.880529 1.377928 2.362273 0.040090 -0.008467 -572629.000000 0 0 1
-5.335777 -22.939716 -24.603651 34.059371 1.342260 2.378028 0.028769 -0.009196 -247820.000000 0 0 1
-5.244877 -21.945416 -25.608051 34.130372 1.336200 2.419314 0.034646 -0.005574 117511.000000 0 0 1
-5.674277 -22.400016 -26.909651 35.469529 1.322699 2.432065 0.038109 -0.003056 -11985.800000 0 0 1
-5.561977 -21.281216 -27.935551 35.555882 1.315158 2.474591 0.040074 0.006907 -98510.500000 0 0 1
-5.597677 -21.675016 -29.335051 36.901024 1.318064 2.489747 0.031100 0.004186 521190.000000 0 0 1
-4.364077 -22.226416 -29.831451 37.456298 1.376916 2.492171 0.032676 0.010521 553347.000000 0 0 1
-4.460077 -22.455616 -31.347651 38.817808 1.374730 2.510797 0.042215 -0.010123 185130.000000 0 0 1
-4.829677 -21.335416 -32.121651 38.862916 1.348179 2.543724 0.079787 -0.016909 -370942.000000 0 0 1
-6.078177 -21.537216 -32.740451 39.657699 1.295733 2.542019 0.058007 -0.015610 -226868.000000 0 0 1
-6.335877 -20.661516 -33.942251 40.238265 1.273249 2.574622 0.045706 -0.007271 339766.000000 0 0 1
-5.317377 -20.795716 34.085445 40.280937 1.320464 0.561996 0.045264 -0.005376 -51296.900000 0 0 1
-5.543477 -19.932316 32.973245 38.926370 1.299536 0.560354 0.036996 -0.005810 65927.000000 0 0 1
-4.433677 -20.120216 31.939845 38.008345 1.353903 0.572890 0.031127 -0.001056 -1238140.000000 0 0 1
-4.351977 -21.419616 31.314645 38.188305 1.370348 0.609375 0.027382 0.001487 237974.000000 0 0 1
-3.209177 -21.671116 30.504045 37.555730 1.423779 0.622824 0.020263 -0.004057 -500330.000000 0 0 1
-1.852377 -21.590116 31.146945 37.943334 1.485208 0.607845 0.012240 -0.009983 -1751110.000000 0 0 1
-1.334277 -20.271616 31.183645 37.217448 1.505071 0.577414 0.013495 -0.021408 136764.000000 0 0 1
-0.159377 -20.082816 31.950345 37.738170 1.562860 0.561172 0.010634 -0.012375 135214.000000 0 0 1
-0.499077 -19.658916 33.380545 38.742520 1.545415 0.532383 0.003344 -0.017079 -4499.520000 0 0 1
-1.238277 -18.486816 33.619745 38.387276 1.503915 0.503696 0.002681 -0.020388 -117103.000000 0 0 1
-1.859277 -18.539416 -34.130051 38.884795 1.470843 2.641884 0.007908 -0.019138 131678.000000 0 0 1
-2.970577 -17.465016 -34.047351 38.380636 1.402321 2.661814 0.013110 -0.020746 6453.110000 0 0 1
-2.493077 -16.138416 -34.116851 37.823583 1.417527 2.695175 0.023398 -0.020564 111465.000000 0 0 1
-3.549977 -15.188716 -33.982251 37.391080 1.341193 2.711275 0.035966 -0.024262 -141095.000000 0 0 1
-3.219577 -13.741716 -34.331051 37.119018 1.340655 2.751546 0.032182 -0.028294 -461129.000000 0 0 1
-2.308277 -13.218216 -33.322051 35.922256 1.397911 2.758775 0.030411 -0.021679 568568.000000 0 0 1
-1.860577 -11.877216 -33.439751 35.535151 1.415408 2.796467 0.028955 -0.017641 114591.000000 0 0 1
-1.206177 -11.495616 34.236645 36.135189 1.466254 0.325597 0.024504 -0.017848 -773569.000000 0 0 1
-2.135377 -11.361416 33.175145 35.131636 1.385014 0.335306 0.021400 -0.013097 156456.000000 0 0 1
-1.631777 -10.774116 31.957845 33.764599 1.420485 0.328617 0.010455 -0.006691 137388.000000 0 0 1
-0.629177 -11.692516 31.165645 33.292765 1.517038 0.359398 0.005920 -0.015002 190352.000000 0 0 1
-1.263777 -12.749616 30.541745 33.120206 1.471996 0.397198 0.018168 -0.017625 136484.000000 0 0 1
-0.327977 -13.793116 30.218745 33.219425 1.547022 0.428305 0.024535 -0.025370 310969.000000 0 0 1
-0.726377 -15.282116 30.686345 34.288810 1.523301 0.462505 0.025971 -0.024310 217937.000000 0 0 1
-1.659377 -15.944516 29.818045 33.854053 1.467098 0.493285 0.023936 -0.022895 528046.000000 0 0 1
-2.174877 -17.098216 30.402545 34.948445 1.444277 0.515745 0.023277 -0.016591 -219686.000000 0 0 1
-2.599077 -18.152016 29.366445 34.621366 1.428579 0.558186 0.016481 -0.002894 -485325.000000 0 0 1
-3.670477 -17.823116 28.548745 33.855084 1.367697 0.567471 0.008606 -0.000996 -531001.000000 0 0 1
-4.270077 -18.805516 27.695945 33.748279 1.347517 0.608227 0.012703 0.008493 -204120.000000 0 0 1
-3.447677 -19.632516 26.697145 33.317559 1.396958 0.641342 0.012786 -0.003132 -578887.000000 0 0 1
-4.218377 -20.354816 25.746445 33.090674 1.366447 0.679229 0.013629 0.004746 -158479.000000 0 0 1
-4.808077 -21.512516 26.222845 34.257022 1.350909 0.699019 0.003861 0.001972 -202711.000000 0 0 1
-28.245497 -34.272633 -0.784455 44.418879 0.881507 1.588458 0.018611 -0.002550 -91629.500000 0 0 1
-27.643657 -33.070033 -0.409955 43.104140 0.874538 1.580307 0.030272 -0.001293 5035.010000 0 0 1
-28.195247 -32.551933 0.825545 43.072983 0.856994 1.551629 0.011949 0.002320 276989.000000 0 0 1
-27.522757 -31.218433 1.277345 41.638015 0.848230 1.540114 0.029075 -0.000446 507307.000000 0 0 1
-26.175007 -31.394733 1.672545 40.909139 0.875819 1.529901 0.028453 0.000633 -369712.000000 0 0 1
-25.451197 -30.194533 1.892645 39.535495 0.870434 1.522906 0.038913 0.001225 52711.100000 0 0 1
-23.968277 -30.597833 1.967945 38.917586 0.906301 1.520208 0.026372 0.010412 -368735.000000 0 0 1
-23.697177 -31.119933 3.223545 39.247900 0.919989 1.488571 0.017946 0.008301 -594893.000000 0 0 1
-22.316577 -31.147633 3.447845 38.471968 0.949097 1.481056 0.009996 0.012410 -340185.000000 0 0 1
-21.879177 -31.530833 4.882445 38.687596 0.964178 1.444257 0.017844 0.004261 -29800.000000 0 0 1
-22.364177 -30.623533 5.868945 38.371887 0.940027 1.417245 0.020928 -0.001607 -40970.700000 0 0 1
-21.974777 -31.161033 7.140145 38.792815 0.956589 1.385682 0.019408 -0.000947 299444.000000 0 0 1
-22.701377 -30.393933 8.316645 38.836970 0.929279 1.354982 0.016660 -0.004984 -86817.000000 0 0 1
-22.097677 -29.205033 8.693245 37.640587 0.923060 1.337738 0.029308 -0.017162 -140891.000000 0 0 1
-22.717977 -28.731833 9.888445 37.939505 0.901758 1.307114 0.020439 -0.008895 200557.000000 0 0 1
-22.041677 -27.449933 10.527145 36.744457 0.894242 1.280229 0.035512 -0.019605 540909.000000 0 0 1
-20.761877 -27.868433 10.981145 36.445722 0.930505 1.264739 0.024077 -0.025305 -465508.000000 0 0 1
-20.192277 -26.882633 11.807245 35.634464 0.926574 1.233069 0.031619 -0.025962 441213.000000 0 0 1
-18.815977 -27.335333 12.376045 35.417904 0.967939 1.213835 0.026490 -0.025652 397624.000000 0 0 1
-18.980177 -28.486333 13.216945 36.693404 0.983054 1.202315 0.027925 -0.009677 -251963.000000 0 0 1
-17.839977 -28.564933 14.040645 36.487805 1.012527 1.175801 0.027539 -0.017089 7780.370000 0 0 1
-18.005377 -29.598033 15.207045 37.835055 1.024274 1.157173 0.049383 -0.023673 91075.700000 0 0 1
-17.785477 -30.878133 14.714045 38.552372 1.048219 1.179201 0.050720 -0.016011 -147814.000000 0 0 1
-17.515977 -31.799733 15.752745 39.575010 1.067323 1.161409 0.056057 -0.011787 215405.000000 0 0 1
-17.317977 -33.231933 15.170945 40.428100 1.090392 1.186122 0.051640 -0.011642 184723.000000 0 0 1
-17.132677 -34.275333 16.137245 41.578092 1.107265 1.172207 0.058143 -0.005930 -52023.500000 0 0 1
-17.015577 33.511384 15.566745 40.680047 -1.100964 1.178119 0.041473 -0.007802 95274.000000 0 0 1
-16.802777 32.395184 16.671245 40.121212 -1.092316 1.142280 0.052371 -0.013300 128563.000000 0 0 1
-18.013477 32.104384 17.341845 40.692953 -1.059478 1.130549 0.047268 -0.015875 275427.000000 0 0 1
-17.904777 30.910884 18.105845 40.048538 -1.045782 1.101681 0.029105 -0.012374 388995.000000 0 0 1
-18.730177 30.914184 19.429245 41.036592 -1.026067 1.077580 0.032560 -0.008657 364721.000000 0 0 1
-18.010377 31.783684 20.288445 41.787525 -1.055256 1.063845 0.040247 -0.009805 839539.000000 0 0 1
-18.817177 32.192684 21.442645 43.014440 -1.041839 1.048930 0.030942 -0.004251 468334.000000 0 0 1
-18.169177 33.285184 22.370045 44.027734 -1.071134 1.037831 0.021907 0.005646 330974.000000 0 0 1
-17.078277 32.840384 23.163445 43.665817 -1.091246 1.011640 0.013798 -0.004351 225012.000000 0 0 1
-16.762577 33.476884 24.429745 44.704566 -1.106572 0.992652 0.013633 -0.005634 56093.100000 0 0 1
-17.746177 32.913384 25.496445 45.257998 -1.076300 0.972352 0.006385 -0.000420 -217083.000000 0 0 1
-19.051477 33.388284 25.372545 46.059769 -1.052272 0.987400 0.008845 -0.011327 -847753.000000 0 0 1
-19.941677 32.620484 26.121445 46.304388 -1.022092 0.971424 0.010937 -0.010958 -923667.000000 0 0 1
-21.386877 33.004684 25.897745 47.089286 -0.995832 0.988467 0.018081 -0.023363 -843758.000000 0 0 1
-21.892077 32.450684 24.687445 46.279368 -0.977304 1.008129 0.017838 -0.017806 -293978.000000 0 0 1
-23.211077 32.820784 24.428145 47.039263 -0.955250 1.024748 0.008477 -0.018326 -524648.000000 0 0 1
-23.667777 32.322884 23.056645 46.222737 -0.938766 1.048564 0.000410 -0.015961 -324038.000000 0 0 1
-23.099377 33.023784 22.005045 45.917029 -0.960421 1.071013 0.002701 -0.007097 -27882.600000 0 0 1
-23.023777 32.280184 20.842845 44.794294 -0.951234 1.086821 -0.006525 0.000787 -297017.000000 0 0 1
-22.461377 32.994484 19.649845 44.488941 -0.973099 1.113327 0.001317 0.006797 -782968.000000 0 0 1
-21.163877 33.446284 19.827745 44.268534 -1.006628 1.106384 0.019299 0.006822 -949747.000000 0 0 1
-20.682177 34.062884 18.668245 44.006089 -1.025117 1.132696 0.032522 0.000770 -106770.000000 0 0 1
-19.399577 -34.220433 18.886845 43.635932 1.055070 1.123169 0.051300 -0.000746 -154595.000000 0 0 1
-19.612277 -33.058633 19.626545 43.159192 1.035349 1.098707 0.036963 -0.009315 179581.000000 0 0 1
-18.396677 -32.387233 19.892245 42.226437 1.054222 1.080276 0.045769 -0.011154 -144883.000000 0 0 1
-18.516677 -31.217633 20.906245 41.886502 1.035430 1.048217 0.027544 -0.004723 -321751.000000 0 0 1
-19.357777 -30.144133 20.660045 41.354924 0.999942 1.047684 0.044084 -0.006575 26028.500000 0 0 1
-19.067477 -29.247633 21.715345 41.116285 0.993064 1.014382 0.049830 -0.004779 -63466.100000 0 0 1
-19.851177 -27.950233 21.648845 40.545743 0.953236 1.007547 0.039350 -0.011026 -557026.000000 0 0 1
-19.340277 -26.996933 20.762045 39.165587 0.949156 1.012067 0.041940 -0.001924 307396.000000 0 0 1
-20.075377 -25.767133 20.600445 38.617926 0.908925 1.008131 0.045257 0.005257 -172010.000000 0 0 1
-21.276577 -25.720733 19.657945 38.738658 0.879680 1.038573 0.046565 0.002323 232768.000000 0 0 1
-22.510577 -26.323533 20.058745 40.025089 0.863320 1.045864 0.044615 0.000977 376865.000000 0 0 1
-23.540977 -25.912733 19.194245 39.925761 0.833321 1.069288 0.035499 0.010858 -261387.000000 0 0 1
-24.943977 -26.175033 19.811345 41.228919 0.809476 1.069548 0.029730 -0.001521 81095.100000 0 0 1
-25.311737 -27.530033 19.878045 42.352372 0.827353 1.082243 0.025380 -0.000087 -68239.700000 0 0 1
-25.583197 -28.197233 18.641245 42.391980 0.833966 1.115493 0.026011 -0.006231 -832293.000000 0 0 1
-26.542077 -29.341633 18.745645 43.781417 0.835452 1.128336 0.030911 -0.010709 -62445.300000 0 0 1
-27.899757 -29.088433 19.062645 44.586072 0.806253 1.129019 0.007916 -0.012113 -82028.500000 0 0 1
-28.748677 -29.767333 18.156345 45.191077 0.802805 1.157349 0.003234 -0.005605 -923187.000000 0 0 1
-30.167607 -29.320533 18.398745 45.916141 0.771160 1.158512 0.003803 -0.004535 -909394.000000 0 0 1
-30.416637 -27.930033 18.060845 45.071639 0.742806 1.158500 0.005062 0.001092 -169067.000000 0 0 1
-31.754577 -27.631333 18.383745 45.932623 0.716078 1.159025 -0.003124 0.011438 -410105.000000 0 0 1
-32.316547 -26.450933 17.641545 45.334702 0.685917 1.171099 -0.011923 0.012256 -420646.000000 0 0 1
-32.415787 -26.608133 16.221445 44.965668 0.687319 1.201722 0.002327 -0.000144 -236418.000000 0 0 1
-33.055357 -25.488033 15.673545 44.586506 0.656851 1.211590 -0.000698 0.004333 -239781.000000 0 0 1
-32.198137 -24.264833 15.183045 43.081632 0.645807 1.210635 -0.014155 0.006944 -89800.900000 0 0 1
-31.412257 -23.749633 16.215645 42.587816 0.647370 1.180181 -0.022108 -0.000259 -72555.000000 0 0 1
-30.903527 -22.409333 15.990845 41.387357 0.627399 1.174103 -0.014193 0.004526 -133041.000000 0 0 1
-31.858027 -21.202133 16.155945 41.538884 0.587208 1.171321 -0.017044 -0.000588 -70552.100000 0 0 1
-32.158797 -20.866833 17.524545 42.151188 0.575579 1.142024 -0.013906 -0.002676 302375.000000 0 0 1
-33.133947 -19.845433 17.611145 42.448228 0.539644 1.142980 0.001056 -0.005743 -213358.000000 0 0 1
-33.510607 -19.349933 19.006345 43.111737 0.523656 1.114237 -0.002269 0.002238 -119091.000000 0 0 1
-34.425539 -20.175633 19.733545 44.515017 0.530111 1.111519 0.004531 -0.001792 545326.000000 0 0 1
-34.729968 -19.685133 21.036945 45.124585 0.515654 1.085809 0.010693 0.003378 -30131.700000 0 0 1
34.584941 -20.170033 21.550745 45.468483 -0.527977 1.077001 0.009999 0.001169 99770.800000 0 0 1
34.455611 -21.583633 21.784745 46.126103 -0.559619 1.078913 0.009527 -0.004188 306799.000000 0 0 1
35.171545 -22.120733 22.909545 47.446935 -0.561426 1.066895 0.010788 0.005885 75591.200000 0 0 1
34.604951 -23.558733 23.294145 47.907554 -0.597717 1.063025 0.010818 0.009063 476413.000000 0 0 1
33.370211 -23.326333 23.963245 47.243263 -0.610066 1.038828 0.032891 -0.007048 330042.000000 0 0 1
33.013981 -24.536433 24.706145 47.982841 -0.639144 1.029911 0.039628 -0.019629 -54508.100000 0 0 1
32.093871 -24.333033 25.957745 47.915734 -0.648718 0.998294 0.043818 -0.024340 38430.000000 0 0 1
30.754991 -24.208633 25.554345 46.743469 -0.666853 0.992386 0.048040 -0.020086 -249515.000000 0 0 1
29.901011 -24.172533 26.681345 46.800384 -0.679853 0.964157 0.049018 -0.014310 554029.000000 0 0 1
28.448761 -24.700733 26.475145 46.047709 -0.714996 0.958253 0.038431 -0.008820 107252.000000 0 0 1
27.561971 -23.817033 25.878245 44.683295 -0.712638 0.953113 0.034321 -0.004059 -57173.100000 0 0 1
26.280341 -24.447733 25.856645 44.237021 -0.749288 0.946530 0.027365 0.006146 1844170.000000 0 0 1
25.036441 -23.536733 25.352245 42.702898 -0.754533 0.935161 0.008183 0.009507 1143930.000000 0 0 1
25.044941 -23.106833 23.976145 41.665697 -0.745170 0.957653 0.028127 -0.002223 315189.000000 0 0 1
26.175351 -22.301633 23.625845 41.721605 -0.705659 0.968819 0.011306 0.006485 344262.000000 0 0 1
26.146991 -21.755333 22.179745 40.606658 -0.693974 0.992964 0.012796 0.004472 205063.000000 0 0 1
25.332741 -20.601633 22.026045 39.386821 -0.682763 0.977347 -0.001100 -0.000802 56251.300000 0 0 1
25.436641 -20.020333 20.756445 38.453432 -0.666805 1.000619 -0.010842 0.002908 421777.000000 0 0 1
24.613541 -18.653733 20.711845 37.185597 -0.648516 0.980044 0.005711 0.000029 394431.000000 0 0 1
25.141841 -17.529333 21.449745 37.409641 -0.608856 0.960177 0.005541 -0.015776 166232.000000 0 0 1
24.977341 -17.607333 22.891945 38.182808 -0.614029 0.927876 0.003548 -0.008283 -213862.000000 0 0 1
25.308841 -16.315933 23.680745 38.308286 -0.572621 0.904393 0.003247 -0.002258 -418277.000000 0 0 1
24.178841 -15.487833 23.529745 37.123284 -0.569706 0.884305 -0.001504 -0.003294 -48160.700000 0 0 1
24.320641 -14.302633 24.269045 37.216198 -0.531613 0.860432 0.002235 -0.003458 -1099000.000000 0 0 1
23.123841 -13.417933 24.166545 36.038519 -0.525781 0.835812 0.018444 -0.009564 -1243510.000000 0 0 1
22.006541 -14.182233 24.489645 35.849216 -0.572468 0.818757 0.017975 -0.003156 -1318360.000000 0 0 1
20.855141 -13.424533 24.334045 34.746233 -0.571936 0.794928 0.018350 -0.010397 -49806.800000 0 0 1
19.479941 -14.131733 24.519345 34.356546 -0.627603 0.776068 0.023626 -0.002951 429648.000000 0 0 1
19.185241 -15.102733 23.581545 33.944886 -0.666891 0.802792 0.024276 -0.008512 -634425.000000 0 0 1
17.857641 -15.503133 23.725645 33.498488 -0.714938 0.783766 0.033456 -0.006701 -318566.000000 0 0 1
17.457041 -16.660133 22.798645 33.197688 -0.762044 0.813782 0.031546 -0.012376 130980.000000 0 0 1
18.024741 -17.937533 23.178645 34.407789 -0.782973 0.831666 0.028357 -0.007799 139803.000000 0 0 1
17.502841 -18.964133 22.369145 34.152107 -0.825448 0.856633 0.029451 -0.009479 -340606.000000 0 0 1
17.754941 -20.404133 22.866245 35.417957 -0.854712 0.868972 0.017465 -0.007639 -419063.000000 0 0 1
17.007841 -20.739933 24.002845 35.993722 -0.883947 0.840807 0.025266 -0.007024 28040.500000 0 0 1
17.172341 -22.118333 24.344245 37.104611 -0.910622 0.855160 0.025186 -0.009495 -236737.000000 0 0 1
16.708241 -23.279633 23.391945 36.990400 -0.948277 0.886176 0.018932 -0.003785 512419.000000 0 0 1
17.615341 -23.364833 22.275345 36.775082 -0.924788 0.920128 0.019377 -0.000336 764556.000000 0 0 1
18.830641 -24.076233 22.481445 37.943028 -0.907050 0.936631 0.009950 -0.004825 733470.000000 0 0 1
19.779141 -24.090733 21.206645 37.700127 -0.883365 0.973380 0.015079 -0.000869 118492.000000 0 0 1
19.291341 -24.981633 20.261345 37.506798 -0.913225 1.000116 0.032651 -0.016770 244871.000000 0 0 1
20.197841 -25.302233 19.231745 37.656550 -0.897115 1.034781 0.026781 -0.012764 117353.000000 0 0 1
19.352341 -25.998633 18.116545 37.130193 -0.930915 1.061092 0.032972 -0.014524 296457.000000 0 0 1
18.744341 -27.176333 18.556345 37.871378 -0.966996 1.058726 0.045316 -0.019631 -322854.000000 0 0 1
18.178941 -27.895933 17.521645 37.625324 -0.993248 1.086385 0.040956 -0.022216 -636983.000000 0 0 1
17.423141 -29.198433 17.875345 38.414089 -1.032796 1.086785 0.044091 -0.020505 -410310.000000 0 0 1
16.252641 -28.974333 18.586745 38.067406 -1.059599 1.060703 0.046302 -0.018262 -756756.000000 0 0 1
15.579341 -30.152133 18.974845 38.883309 -1.093885 1.061006 0.063039 -0.017116 299860.000000 0 0 1
14.342541 -29.700333 19.815745 38.477032 -1.120915 1.029786 0.044139 -0.011199 248229.000000 0 0 1
13.307341 -29.163433 19.037445 37.282911 -1.142714 1.034889 0.042220 -0.016874 172661.000000 0 0 1
12.108541 -28.784433 19.724645 36.935375 -1.172605 1.007435 0.018738 -0.005336 1082600.000000 0 0 1
11.139341 -28.102733 18.662445 35.526544 -1.193415 1.017717 0.013316 -0.004592 355484.000000 0 0 1
10.622341 -29.088833 17.778745 35.708236 -1.220672 1.049633 0.017443 -0.008646 6299.790000 0 0 1
9.999241 -28.552233 16.638845 34.526308 -1.233936 1.067954 0.030281 -0.011091 -81605.500000 0 0 1
9.976041 -29.497033 15.446845 34.759191 -1.244668 1.110296 0.032118 -0.010557 136346.000000 0 0 1
9.071341 -30.600233 15.434745 35.452712 -1.282603 1.120357 0.018523 -0.003153 225680.000000 0 0 1
9.241241 -31.414833 14.284445 35.725868 -1.284698 1.159460 0.016506 0.001044 129782.000000 0 0 1
8.072941 -32.424933 14.121845 36.276372 -1.326784 1.170941 0.006268 0.008202 -57182.800000 0 0 1
8.015041 -33.355633 15.207645 37.524813 -1.334977 1.153523 0.005079 0.009174 104037.000000 0 0 1
7.189541 -34.450733 14.816645 38.184754 -1.365059 1.172308 -0.010488 0.006000 53897.200000 0 0 1
7.285141 33.530984 15.818245 37.783820 1.356855 1.138837 0.000355 -0.000181 -365456.000000 0 0 1
8.373041 32.677284 15.698845 37.207075 1.319959 1.135221 0.005164 0.002654 -493051.000000 0 0 1
8.303041 31.824384 16.812245 36.937562 1.315584 1.098252 0.017052 -0.001480 -821262.000000 0 0 1
9.500941 30.936584 16.964345 36.539418 1.272829 1.087980 0.003033 -0.002704 -985632.000000 0 0 1
9.775841 29.992784 15.941745 35.345061 1.255715 1.102875 0.014939 -0.001389 -222777.000000 0 0 1
10.784841 29.102184 16.357945 35.083219 1.215902 1.085737 0.007239 0.003605 -687159.000000 0 0 1
11.534541 28.452184 15.220745 34.267236 1.185643 1.110540 0.011103 0.004280 -501215.000000 0 0 1
10.837041 27.671884 14.306345 32.982512 1.197529 1.122140 0.015486 0.003694 711798.000000 0 0 1
11.768541 27.360684 13.191245 32.574753 1.164592 1.153869 0.014120 0.002137 1068610.000000 0 0 1
-9.095377 -9.301516 19.517441 23.455801 0.796603 0.587923 0.010174 -0.007507 -180340.000000 0 1 0
-9.432777 -9.361016 18.136841 22.484459 0.781580 0.632353 0.012379 -0.009097 88641.400000 0 1 0
-9.260777 -10.699516 17.740341 22.692760 0.857354 0.673310 0.014739 -0.010038 -195047.000000 0 1 0
-9.719477 -10.966416 16.338441 21.947100 0.845605 0.731091 0.022821 -0.006185 -35200.600000 0 1 0
-11.123777 -10.834816 16.221341 22.455814 0.772240 0.763577 0.020989 -0.003491 51647.000000 0 1 0
-11.725977 -11.246816 15.015041 22.123311 0.764543 0.824808 0.026952 -0.000113 66532.600000 0 1 0
-11.664277 -12.772316 14.513841 22.579615 0.830711 0.872668 0.022503 -0.005384 -502499.000000 0 1 0
-10.418877 -13.192116 14.001741 21.877698 0.902318 0.876297 0.030681 -0.006242 -96815.200000 0 1 0
-10.285277 -14.595816 13.848041 22.596305 0.956941 0.911140 0.027587 -0.006263 6812.080000 0 1 0
-9.715477 -15.346416 15.097041 23.618290 1.006409 0.877326 0.023187 -0.008942 118987.000000 0 1 0
-10.585277 -15.138016 16.191141 24.563401 0.960573 0.851099 0.024998 0.003429 179870.000000 0 1 0
-10.014177 -15.499416 17.492341 25.426318 0.997167 0.812119 0.025127 -0.001848 -14751.800000 0 0 1
-11.005477 -15.123516 18.586741 26.368698 0.941717 0.788544 0.019096 -0.003323 -289670.000000 0 0 1
-11.378677 -13.764616 18.682041 25.844876 0.880009 0.762874 0.015721 -0.006460 454798.000000 0 0 1
-12.617177 -13.396416 18.082341 25.799771 0.815344 0.794177 0.012803 -0.007096 -15817.000000 0 0 1
-13.911177 -13.596516 18.848941 27.086319 0.773960 0.801146 0.001711 -0.002442 -536179.000000 0 0 1
-14.239377 -14.948516 19.077841 28.110176 0.809689 0.824831 0.011012 -0.005434 -907702.000000 0 0 1
-15.269177 -15.060116 19.973941 29.307221 0.778505 0.820936 0.024145 -0.008118 -782640.000000 0 0 1
-15.590577 -16.508916 20.385941 30.515521 0.814000 0.839209 0.038127 -0.009664 -282101.000000 0 0 1
-16.688077 -17.005516 19.665741 30.893703 0.794819 0.880765 0.039621 -0.003123 -122962.000000 0 0 1
-16.799677 -18.382416 19.758341 31.788904 0.830355 0.900079 0.026922 -0.006342 14051.500000 0 0 1
-18.151577 -18.903716 19.189041 32.481526 0.805693 0.938786 0.040272 -0.002236 23176.900000 0 0 1
-18.338377 -19.101916 17.819841 31.917488 0.805789 0.978449 0.041338 -0.002933 26601.000000 0 0 1
-18.694477 -17.885516 17.149541 31.040005 0.763287 0.985438 0.040359 -0.012537 -541979.000000 0 0 1
-18.311977 -17.823516 15.678941 29.980584 0.771881 1.020465 0.035907 -0.012339 -162355.000000 0 0 1
-18.982677 -18.884216 14.988641 30.685746 0.782798 1.060477 0.030697 -0.009312 274410.000000 0 0 1
-18.715577 -18.817516 13.559241 29.803100 0.788114 1.098468 0.011963 -0.006182 128539.000000 0 0 1
-19.048177 -20.091616 12.745541 30.478762 0.812051 1.139358 0.014281 -0.004766 -196880.000000 0 0 1
-18.483477 -21.232916 13.297841 31.133716 0.854515 1.129491 0.012401 -0.005508 -180074.000000 0 0 1
-18.294077 -22.235916 12.336141 31.325542 0.882351 1.166029 0.002927 -0.007126 -685211.000000 0 0 1
-17.496277 -23.389616 12.997641 31.970808 0.928553 1.152125 0.005544 -0.011152 -1524.460000 0 0 1
-17.234477 -24.573416 12.179141 32.391534 0.959167 1.185323 0.016070 -0.027922 212855.000000 0 0 1
-16.352777 -24.439216 11.074041 31.421696 0.981097 1.210627 0.006786 -0.021897 -237663.000000 0 0 1
-16.508877 -25.620456 10.096841 32.107585 0.998394 1.250899 0.006316 -0.022016 -744320.000000 0 0 1
-17.791677 -25.839096 9.586641 32.804060 0.967792 1.274229 0.011185 -0.023326 -746787.000000 0 0 1
-17.808477 -26.773246 8.523041 33.265460 0.983838 1.311694 0.016067 -0.022809 -134855.000000 0 0 1
-19.088977 -26.623366 7.713141 33.655389 0.948751 1.339561 0.008649 -0.023162 -196709.000000 0 0 1
-19.116177 -25.460826 6.950241 32.588154 0.926779 1.355870 0.011941 -0.027835 252260.000000 0 0 1
-20.298777 -25.366676 6.159341 33.067297 0.895925 1.383435 0.019620 -0.022791 356475.000000 0 0 1
-20.116077 -24.120116 5.308341 31.853023 0.875667 1.403364 0.015551 -0.022596 59256.600000 0 0 1
-21.108677 -23.912716 4.315141 32.187182 0.847600 1.436327 0.010677 -0.014962 -135674.000000 0 0 1
-20.790677 -22.713216 3.541241 30.994884 0.829562 1.456294 0.008813 -0.017840 32201.600000 0 0 1
-21.461277 -22.702016 2.117741 31.312183 0.813485 1.503112 -0.011153 -0.012568 132667.000000 0 0 1
-20.962877 -23.691816 1.203141 31.657415 0.846434 1.532782 -0.020045 -0.016657 150205.000000 0 0 1
-21.567777 -23.529316 -0.064959 31.918677 0.828867 1.572831 -0.011079 -0.006022 -496248.000000 0 0 1
-20.899377 -24.464416 -1.042859 32.192844 0.863825 1.603196 0.005833 -0.005246 -1165780.000000 0 0 1
-19.577077 -24.063516 -1.245659 31.046198 0.887843 1.610930 -0.008215 -0.008860 -733620.000000 0 0 1
-19.057177 -24.521816 -2.461159 31.153696 0.910143 1.649879 -0.005037 0.000899 65612.400000 0 0 1
-18.659777 -26.010336 -2.526959 32.110908 0.948489 1.649573 0.021423 0.000297 -492944.000000 0 0 1
-19.749377 -26.851886 -2.812259 33.451016 0.936644 1.654967 0.016646 -0.000300 -256833.000000 0 0 1
-19.198777 -27.995526 -3.412459 34.117260 0.969678 1.670985 0.021089 0.009009 -100050.000000 0 0 1
-20.112977 -28.839746 -4.319159 35.424821 0.961814 1.693025 0.020255 0.005811 -247135.000000 0 0 1
-20.643377 -28.214086 -5.417459 35.377006 0.939131 1.724536 0.016078 0.005751 -227701.000000 0 0 1
-21.397877 -29.108566 -6.207159 36.656604 0.936896 1.740949 0.013273 -0.004791 -270186.000000 0 0 1
-21.929977 -28.413476 -7.464959 36.660267 0.913479 1.775856 0.016476 0.008435 604455.000000 0 0 1
-20.879877 -28.286916 -8.463659 36.162860 0.934925 1.807030 0.020706 0.009103 1015620.000000 0 0 1
-21.416277 -28.191896 -9.806159 36.736912 0.921141 1.841002 0.016889 0.006992 327256.000000 0 0 1
-22.373677 -27.008516 -10.141159 36.508691 0.878980 1.852272 0.016297 0.010541 14416.000000 0 0 1
-21.760977 -25.800796 -10.533659 35.357873 0.870133 1.873305 0.008053 0.014458 21203.800000 0 0 1
-21.384877 -24.990446 -9.420359 34.213719 0.862990 1.849738 0.003225 0.019061 323461.000000 0 0 1
-20.804877 -23.637016 -9.943959 33.021717 0.849039 1.876678 -0.011934 0.020393 -140960.000000 0 0 1
-21.841577 -22.822816 -10.410359 33.261254 0.807364 1.889133 0.000302 0.016377 -316659.000000 0 0 1
-21.618777 -21.464716 -10.472859 32.214692 0.781822 1.901909 0.001447 0.019747 -186212.000000 0 0 1
-22.866477 -20.617016 -10.790959 32.624867 0.733713 1.907904 0.003012 0.021929 -668822.000000 0 0 1
-23.419177 -20.923516 -12.032659 33.630883 0.729176 1.936692 -0.003092 0.016806 286220.000000 0 0 1
-24.712677 -20.362816 -12.223759 34.275078 0.689194 1.935462 0.000905 0.013209 169571.000000 0 0 1
-24.799677 -18.803316 -12.382459 33.494985 0.648734 1.949462 0.002423 0.005589 -1182560.000000 0 0 1
-24.162177 -18.214116 -13.490859 33.129566 0.645946 1.990199 0.004630 0.012570 342724.000000 0 0 1
-24.022577 -16.811116 -13.383459 32.230650 0.610595 1.999003 -0.001499 0.006710 89040.900000 0 0 1
-23.075477 -16.256216 -12.265659 30.776430 0.613726 1.980721 -0.019196 0.014357 -608089.000000 0 0 1
-23.551277 -16.428816 -10.938159 30.728033 0.609098 1.934745 0.002013 0.007331 -164858.000000 0 0 1
-22.545377 -16.500516 -9.969859 29.664106 0.631803 1.913560 -0.006961 0.010336 -742365.000000 0 0 1
-22.989277 -16.931516 -8.542559 29.801987 0.634803 1.861518 -0.012773 0.002436 -130065.000000 0 0 1
-23.362177 -18.304716 -8.347659 30.830786 0.664611 1.844976 -0.007956 0.005344 942667.000000 0 0 1
-24.781477 -18.470716 -8.177059 31.971132 0.640514 1.829434 0.001831 -0.009395 742353.000000 0 0 1
-25.261837 -19.781416 -7.581659 32.968870 0.664323 1.802837 0.010850 0.003636 -188865.000000 0 0 1
-25.086717 -20.877416 -8.490159 33.723771 0.694075 1.825291 0.007580 -0.005297 -76245.200000 0 0 1
-25.157577 -22.206216 -7.904959 34.474746 0.723166 1.802152 0.018576 0.002756 50081.300000 0 0 1
-25.407017 -23.318616 -8.886759 35.612482 0.742564 1.823002 0.012526 0.011421 218270.000000 0 0 1
-25.722007 -24.536116 -8.255459 36.493770 0.761807 1.798987 0.018409 0.009953 -341542.000000 0 0 1
-25.718727 -25.550476 -9.191259 37.399987 0.782116 1.819096 0.023037 0.015769 134004.000000 0 0 1
-26.295437 -26.857816 -8.640759 38.567539 0.795978 1.796757 0.022241 0.005397 320437.000000 0 0 1
-25.393567 -27.340486 -7.654859 38.091106 0.822301 1.773136 0.029338 0.000265 235874.000000 0 0 1
-25.888167 -28.485156 -7.115259 39.143687 0.833124 1.753585 0.036883 -0.002561 -290152.000000 0 0 1
-25.361167 -28.819036 -5.732859 38.814834 0.849133 1.719036 0.054483 -0.012813 -391811.000000 0 0 1
-25.892167 -28.046396 -4.698659 38.458836 0.825316 1.693276 0.037660 -0.011610 -71794.800000 0 0 1
-25.473407 -28.383266 -3.387259 38.288090 0.839375 1.659380 0.027302 -0.011994 -11922.500000 0 0 1
-25.925887 -29.795186 -2.788859 39.593970 0.854727 1.641291 0.031138 -0.004245 -258134.000000 0 0 1
-25.272617 -30.883346 -3.406959 40.051138 0.884981 1.655964 0.049211 -0.005595 -94634.300000 0 0 1
-25.246177 -32.123296 -2.748659 40.949124 0.904703 1.637971 0.045413 -0.007615 -281800.000000 0 0 1
-24.332977 -32.166446 -1.490959 40.360835 0.923167 1.607745 0.048917 -0.006194 -353599.000000 0 0 1
-23.018177 -32.428096 -1.935059 39.814098 0.953509 1.619418 0.044632 -0.011931 -444514.000000 0 0 1
-22.073677 -32.662826 -0.914159 39.432767 0.976494 1.593981 0.016049 0.002953 593710.000000 0 0 1
-21.014677 -31.517346 -0.745059 37.888189 0.982725 1.590462 0.019693 -0.000973 -260736.000000 0 0 1
-21.513977 -30.307516 -0.303159 37.168383 0.953486 1.578953 0.026503 0.000784 -269100.000000 0 0 1
-22.046977 -29.449486 -1.262959 36.809462 0.928168 1.605114 0.038056 -0.005249 -427670.000000 0 0 1
-22.502177 -28.049746 -0.854759 35.970361 0.894701 1.594561 0.016675 -0.002868 -614846.000000 0 0 1
-23.747677 -28.156796 -0.251159 36.835044 0.870142 1.577615 0.021804 -0.006922 -731483.000000 0 0 1
-24.423977 -26.932436 0.053741 36.357801 0.834203 1.569318 0.030576 -0.013895 237299.000000 0 0 1
-23.816177 -25.943446 1.083541 35.234170 0.828123 1.540039 0.035055 -0.012110 -533958.000000 0 0 1
-23.779777 -26.544936 2.315641 35.713774 0.840289 1.505912 0.038243 -0.018452 -171803.000000 0 0 1
-23.286977 -25.637996 3.313041 34.793195 0.833415 1.475431 0.037548 -0.020678 -308983.000000 0 0 1
-24.222577 -24.548616 3.933241 34.710779 0.792083 1.457238 0.033860 -0.020211 -144264.000000 0 0 1
-24.530377 -23.571016 2.983841 34.150191 0.765456 1.483311 0.021866 -0.018502 203704.000000 0 0 1
-25.635927 -22.784216 3.454341 34.471057 0.726571 1.470418 0.009608 -0.014688 462377.000000 0 0 1
-25.881957 -21.628816 2.449541 33.818363 0.696117 1.498301 0.003707 -0.013284 -306768.000000 0 0 1
-24.842277 -20.698016 2.525841 32.433416 0.694646 1.492840 -0.005612 -0.008437 -384082.000000 0 0 1
-24.785977 -19.791616 1.445441 31.751253 0.673826 1.525257 -0.011557 -0.006131 -483673.000000 0 0 1
-23.646577 -18.797316 1.636841 30.251925 0.671640 1.516663 -0.006601 0.000256 -180333.000000 0 0 1
-22.423077 -19.483216 1.436341 29.739758 0.715360 1.522481 -0.008325 -0.001242 -2141.650000 0 0 1
-21.295577 -18.641316 1.575741 28.345780 0.719034 1.515178 -0.009478 0.001026 -70292.400000 0 0 1
-19.924377 -19.313616 1.567341 27.793041 0.769834 1.514373 -0.013741 -0.006201 -303201.000000 0 0 1
-19.803677 -19.934116 0.337641 28.101043 0.788681 1.558781 -0.023760 -0.002914 27452.300000 0 0 1
-18.608077 -20.693616 0.249541 27.830713 0.838413 1.561830 -0.011695 -0.000880 197391.000000 0 0 1
-18.245577 -21.136916 -1.191959 27.948007 0.858684 1.613458 -0.001908 -0.003383 -187748.000000 0 0 1
-17.882477 -20.082016 -2.052559 26.968192 0.843270 1.646980 0.001249 -0.005464 -151907.000000 0 0 1
-17.756977 -20.539316 -3.402959 27.363368 0.857924 1.695481 0.009020 -0.000951 105762.000000 0 0 1
-17.064577 -19.465316 -4.272059 26.236403 0.851024 1.734354 0.011800 0.000319 -693797.000000 0 0 1
-15.706277 -19.325716 -4.096859 25.237962 0.888351 1.733847 0.036144 -0.010368 -931747.000000 0 0 1
-15.068577 -18.473816 -5.027159 24.364241 0.886572 1.778623 0.047218 -0.010742 -932550.000000 0 1 0
-13.564677 -18.352416 -5.036559 23.370464 0.934293 1.788010 0.060990 -0.019080 -959336.000000 0 1 0
-12.902677 -19.557716 -5.313359 24.025302 0.987616 1.793797 0.054703 -0.018189 401601.000000 0 1 0
-11.638577 -19.250216 -5.931859 23.264012 1.027005 1.828623 0.053411 -0.023739 657498.000000 0 1 0
-10.657577 -20.422316 -5.975759 23.798417 1.089815 1.824612 0.039952 -0.024325 -170381.000000 0 1 0
-11.015177 -21.340916 -6.949359 25.001249 1.094310 1.852467 0.028982 -0.019411 -88110.100000 0 0 1
-9.873377 -22.037216 -7.441259 25.268455 1.149580 1.869716 0.030038 -0.006526 286794.000000 0 0 1
-10.229577 -23.297616 -8.321459 26.770690 1.157058 1.886875 0.021960 0.005525 -39618.200000 0 0 1
-10.726677 -22.914716 -9.574859 27.052241 1.132982 1.932576 0.026521 0.000144 -181110.000000 0 0 1
-10.567777 -23.950016 -10.529459 28.216143 1.155249 1.953221 0.033035 0.004614 12921.700000 0 0 1
-11.114077 -23.645016 -11.991559 28.747296 1.131404 2.001089 0.050536 0.000134 180149.000000 0 0 1
-10.344177 -22.694816 -12.729659 28.001802 1.143134 2.042721 0.044304 0.010022 500083.000000 0 0 1
-11.266277 -22.054216 -13.614559 28.260815 1.098511 2.073443 0.039973 0.002490 6680.180000 0 0 1
-10.780577 -20.782416 -14.300559 27.434206 1.092273 2.119132 0.033038 0.006569 -251101.000000 0 0 1
-10.539277 -19.745816 -13.377759 26.075622 1.080517 2.109516 0.044539 -0.000135 -84356.700000 0 0 1
-10.257277 -18.546316 -14.040459 25.422669 1.065605 2.155894 0.044701 0.009433 2689.490000 0 0 1
-9.878777 -17.391916 -13.079659 23.898671 1.054231 2.149927 0.045065 -0.006686 -11153.600000 0 1 0
-10.944077 -17.093016 -12.182459 23.671847 1.001294 2.111383 0.045339 -0.013000 365857.000000 0 1 0
-10.597277 -16.039216 -11.305059 22.301639 0.986929 2.102400 0.054714 -0.019959 34744.000000 0 1 0
-10.424677 -14.623616 -11.914659 21.551871 0.951488 2.156561 0.057460 -0.012877 460790.000000 0 1 0
-11.589177 -14.074616 -12.551259 22.134542 0.881943 2.173709 0.050170 0.000674 455367.000000 0 1 0
-11.515777 -14.059416 -13.974559 22.925283 0.884529 2.226314 0.048312 0.000181 -928082.000000 0 1 0
-12.675277 -13.382316 -14.642759 23.540591 0.812525 2.242118 0.040176 0.004626 -797576.000000 0 1 0
-12.755777 -12.006316 -14.317459 22.624127 0.755141 2.256012 0.031404 0.009956 -472794.000000 0 1 0
-13.675577 -11.277216 -15.051259 23.253761 0.689577 2.274782 0.010089 0.008962 -643714.000000 0 1 0
-14.010477 -9.837716 -14.621759 22.513773 0.612180 2.277668 0.011881 0.006281 407612.000000 0 1 0
-12.936377 -8.870316 -14.691159 21.490987 0.601056 2.323475 0.019823 0.003943 483073.000000 0 1 0
-13.149877 -7.816816 -15.651759 21.886056 0.536321 2.367631 0.028341 -0.003143 1160760.000000 0 1 0
-11.916877 -6.786316 -15.877159 20.979758 0.517669 2.429176 0.011225 0.002881 1585380.000000 0 1 0
-10.729677 -7.466716 -16.273259 20.873351 0.607965 2.464853 0.015793 0.007674 -178377.000000 0 1 0
-9.632777 -6.791616 -15.738559 19.662622 0.614109 2.498809 0.006593 0.007069 -348817.000000 0 1 0
11.272823 21.616684 15.875741 29.092898 1.090107 0.993582 0.025812 0.004320 -536907.000000 0 0 1
11.902423 21.651684 17.117641 30.057889 1.068166 0.964912 0.031151 -0.004397 -397814.000000 0 0 1
12.498423 20.407384 17.297641 29.527619 1.021276 0.944914 0.031172 -0.006921 36388.000000 0 0 1
13.658823 20.485884 18.353941 30.709966 0.982741 0.930224 0.026169 -0.011223 -1331220.000000 0 0 1
14.763023 21.071384 17.854041 31.316399 0.959655 0.964147 0.009607 -0.006278 -1991340.000000 0 0 1
15.786523 20.662484 18.730341 32.046501 0.918383 0.946565 0.016471 -0.008141 -401440.000000 0 0 1
17.148523 21.313584 18.425641 32.982494 0.893268 0.978040 0.011231 -0.008864 -1266330.000000 0 0 1
17.267723 22.674484 18.726041 34.102362 0.919945 0.989494 0.015621 -0.011975 -163628.000000 0 0 1
18.434323 23.259284 18.181841 34.805141 0.900610 1.021146 0.021967 -0.006585 -87677.800000 0 0 1
19.743123 22.941584 18.920941 35.694666 0.860191 1.012104 0.017099 -0.016840 -1051780.000000 0 0 1
20.136323 21.631184 18.620241 34.929829 0.821173 1.008565 0.023780 -0.008708 328483.000000 0 0 1
21.349023 21.448284 19.393241 35.943114 0.787717 1.000889 0.035253 -0.018185 352948.000000 0 0 1
21.861523 20.019084 19.207641 35.321712 0.741434 0.995848 0.022230 -0.011509 -255658.000000 0 0 1
22.143223 19.784584 17.857441 34.650256 0.729203 1.029366 0.015812 -0.013735 -139597.000000 0 0 1
21.791023 18.460484 17.445741 33.466282 0.702843 1.022431 0.004780 -0.010232 -206396.000000 0 0 1
22.603123 17.210284 17.881341 33.568398 0.650765 1.009028 -0.005430 -0.003184 -581604.000000 0 0 1
23.797723 17.074884 17.193941 33.963434 0.622375 1.039967 -0.008709 -0.003740 -69713.100000 0 0 1
24.709423 16.174784 17.838841 34.502224 0.579602 1.027413 -0.012294 -0.009019 63227.600000 0 0 1
26.080523 15.935884 17.209841 35.075984 0.548488 1.057967 0.011213 -0.011083 -1475080.000000 0 0 1
26.942523 17.097084 17.182741 36.241639 0.565456 1.076837 0.006857 -0.014843 890286.000000 0 0 1
28.311323 16.783384 17.361441 37.210652 0.535120 1.085385 0.004530 -0.018266 131364.000000 0 0 1
28.969223 15.807884 16.423041 36.862194 0.499519 1.109035 -0.004163 -0.019330 -1768830.000000 0 0 1
28.711323 16.045684 15.061641 36.175365 0.509622 1.141368 0.023079 -0.026103 41909.100000 0 0 1
29.225023 15.022784 14.245841 35.815220 0.474815 1.161723 0.049696 -0.031805 -92213.600000 0 0 1
28.653723 14.986384 12.832241 34.789279 0.481891 1.193018 0.023161 -0.012108 -526485.000000 0 0 1
29.115023 16.031984 12.022341 35.344670 0.503337 1.223724 0.022910 -0.011629 -50458.500000 0 0 1
28.363523 16.370984 10.882641 34.509859 0.523474 1.249972 0.008304 -0.001686 -387140.000000 0 0 1
27.178523 17.321084 11.074041 34.078240 0.567401 1.239828 0.001445 0.001795 -661815.000000 0 0 1
27.507923 18.622284 11.556541 35.171422 0.595108 1.235999 -0.011331 0.002093 130317.000000 0 0 1
27.973723 18.714784 12.921341 36.051815 0.589625 1.204232 0.003236 0.001153 269267.000000 0 0 1
26.897723 18.501184 14.057141 35.544120 0.602515 1.164201 -0.011211 -0.000486 955440.000000 0 0 1
25.921423 19.575784 14.234941 35.464983 0.646819 1.157773 -0.006057 0.007740 913724.000000 0 0 1
25.242823 19.378584 15.472741 35.385524 0.654725 1.118245 -0.002116 0.003289 -214593.000000 0 0 1
25.703823 20.238584 16.689341 36.726297 0.666996 1.099070 0.010366 -0.014168 -148403.000000 0 0 1
25.574723 21.641684 16.611141 37.394638 0.702292 1.110502 0.003805 -0.010278 29476.200000 0 0 1
24.252223 22.088984 16.849041 36.877957 0.738751 1.096304 0.007281 -0.008327 -81727.300000 0 0 1
24.070523 23.592884 16.606541 37.573813 0.775377 1.113001 0.012139 -0.006596 -146948.000000 0 0 1
23.994423 23.999684 15.254441 37.207729 0.785508 1.148364 0.021792 -0.012282 -56935.900000 0 0 1
24.217823 25.425684 15.081841 38.215576 0.809724 1.165108 0.028706 -0.011428 -722198.000000 0 0 1
24.089023 25.931184 13.670841 37.942050 0.822210 1.202198 0.016185 -0.002345 -1276670.000000 0 0 1
22.805323 26.082884 13.213441 37.080919 0.852340 1.206448 0.026926 0.004042 -1044190.000000 0 0 1
22.785723 26.211684 11.807041 36.683071 0.855206 1.243096 0.029402 -0.003466 -238629.000000 0 0 1
22.373323 24.889784 11.105041 35.261719 0.838592 1.250411 0.040007 -0.003533 300112.000000 0 0 1
20.953123 24.720984 11.289141 34.316251 0.867706 1.235580 0.028338 -0.001322 930091.000000 0 0 1
20.443023 23.453384 10.855141 32.951669 0.853870 1.235101 0.029698 0.005306 53172.200000 0 0 1
20.203523 23.300284 9.315041 32.215765 0.856462 1.277462 0.040415 0.008374 -296848.000000 0 0 1
18.919223 23.641084 8.849241 31.545949 0.895891 1.286461 0.040640 0.003657 43277.500000 0 0 1
19.068023 24.001684 7.479541 31.553349 0.899452 1.331474 0.042672 -0.007250 -102496.000000 0 0 1
17.808423 24.020984 6.602841 30.622624 0.932842 1.353470 0.027864 -0.008231 -1408460.000000 0 0 1
17.237223 22.853584 6.116141 29.271408 0.924583 1.360299 0.051087 -0.001235 654600.000000 0 0 1
16.431323 22.991484 4.910741 28.682958 0.950292 1.398741 0.072262 -0.015703 866576.000000 0 0 1
15.157623 23.897784 5.045541 28.745697 1.005559 1.394359 0.050865 -0.015170 -676504.000000 0 0 1
15.403123 25.303284 4.909641 30.026937 1.023975 1.406551 0.073515 -0.022085 151478.000000 0 0 1
14.516623 26.141284 5.628241 30.426570 1.063882 1.384747 0.044223 -0.023797 -150026.000000 0 0 1
14.438623 27.593584 4.984941 31.539330 1.088714 1.412076 0.041521 -0.026912 -496147.000000 0 0 1
13.979023 27.596584 3.661541 31.151106 1.101923 1.452983 0.039593 -0.022623 333820.000000 0 0 1
13.771623 28.940684 3.242241 32.213862 1.126649 1.469978 0.027774 -0.021079 -233345.000000 0 0 1
13.071223 29.034184 1.867541 31.895586 1.147775 1.512211 0.045409 -0.019980 62140.600000 0 0 1
13.869423 28.703284 0.701241 31.886221 1.120679 1.548803 0.069404 -0.019405 232778.000000 0 0 1
14.119723 27.354284 0.486441 30.787336 1.094289 1.554996 0.056993 -0.017646 403909.000000 0 0 1
15.245723 27.044984 -0.560159 31.051199 1.057483 1.588837 0.065591 -0.019967 598056.000000 0 0 1
14.826823 27.435384 -1.865659 31.241249 1.075333 1.630550 0.064529 -0.013544 -391231.000000 0 0 1
15.797623 27.089484 -2.808859 31.484833 1.042848 1.660128 0.063515 -0.010007 -279213.000000 0 0 1
15.435123 27.483184 -4.264559 31.808094 1.059075 1.705273 0.064474 -0.012777 493578.000000 0 0 1
14.515623 26.517984 -4.873559 30.621207 1.069961 1.730632 0.070342 -0.019045 252346.000000 0 0 1
14.053223 27.061284 -6.078559 31.092684 1.091820 1.767562 0.054978 -0.006731 595871.000000 0 0 1
12.700623 26.479084 -6.601659 30.100325 1.123563 1.791916 0.039785 -0.017160 517578.000000 0 0 1
12.810923 25.194784 -7.231459 29.175176 1.100392 1.821271 0.054190 -0.018171 -466456.000000 0 0 1
11.543323 24.969384 -7.778359 28.587083 1.137762 1.846364 0.045752 -0.003148 -170113.000000 0 0 1
11.305823 23.569984 -8.463759 27.477281 1.123544 1.883915 0.045075 -0.008517 -55658.300000 0 0 1
11.823623 23.416984 -9.756559 27.988277 1.103223 1.926867 0.034286 -0.003015 -137010.000000 0 0 1
11.814623 22.097384 -10.199559 27.053848 1.079805 1.957362 0.032636 0.000973 -73285.800000 0 0 1
12.325823 21.807484 -11.632159 27.618823 1.056350 2.005529 0.028087 0.008872 114681.000000 0 0 1
11.578823 20.756784 -12.280359 26.752952 1.061959 2.047697 0.029157 0.010335 -128432.000000 0 0 1
11.802823 20.456084 -13.674859 27.290287 1.047473 2.095653 0.025869 0.012982 223769.000000 0 0 1
13.254523 20.028684 -14.014759 27.807265 0.986187 2.099016 0.020270 0.008614 465023.000000 0 0 1
14.276523 20.970284 -13.759859 28.860104 0.973074 2.067782 0.018595 0.008115 -359288.000000 0 0 1
15.539723 20.451584 -14.107259 29.304693 0.921034 2.073047 0.028288 0.014107 469954.000000 0 0 1
16.764423 21.329184 -13.721459 30.401618 0.904660 2.039062 0.018966 0.017672 -19922.200000 0 0 1
16.928223 22.588784 -14.385959 31.682388 0.927674 2.042122 0.013965 0.011360 -282351.000000 0 0 1
15.946823 23.595384 -14.227659 31.835037 0.976466 2.034114 0.014781 0.010084 46636.400000 0 0 1
16.442923 24.923484 -14.869559 33.356462 0.987607 2.032839 0.002056 0.006196 59313.000000 0 0 1
16.538223 24.934384 -16.304359 34.074454 0.985149 2.069733 0.004643 0.000233 235456.000000 0 0 1
15.264823 24.903084 -16.955259 33.773647 1.020895 2.096736 0.019637 0.002697 362163.000000 0 0 1
15.283123 24.833084 -18.454059 34.508089 1.019106 2.135038 0.009689 0.007153 -14929.100000 0 0 1
15.698123 23.671284 -19.140859 34.251032 0.985217 2.163783 0.008545 0.008056 -90605.900000 0 0 1
15.568523 23.919984 -20.523559 35.153392 0.993818 2.194233 0.010453 0.012300 -262534.000000 0 0 1
15.950623 22.657084 -21.359759 34.985784 0.957390 2.227522 0.014740 0.019999 200825.000000 0 0 1
15.094223 21.499684 -21.217859 33.767877 0.958684 2.250220 0.024170 0.014513 530361.000000 0 0 1
15.622523 20.387384 -21.967759 33.797797 0.916955 2.278349 0.017540 0.019242 -33955.800000 0 0 1
14.655923 19.205184 -22.160259 32.782804 0.918949 2.313079 0.025574 0.016058 -892001.000000 0 0 1
14.420323 18.578484 -20.929959 31.482836 0.910747 2.298030 0.024308 0.007521 238845.000000 0 0 1
13.685123 17.356284 -21.058959 30.528723 0.903118 2.332020 0.029141 -0.001880 575106.000000 0 0 1
12.177923 17.503184 -21.433659 30.233508 0.962925 2.358786 0.033716 -0.003692 47138.100000 0 0 1
11.270823 17.626284 -20.320059 29.165427 1.001886 2.341607 0.015604 -0.002406 13094.300000 0 0 1
9.958823 17.654784 -20.817859 29.056029 1.057203 2.369530 0.024990 0.002080 -6627.550000 0 0 1
8.857423 17.508384 -19.729459 27.825330 1.102443 2.358942 0.015089 -0.005252 -1726.870000 0 0 1
8.707323 16.156384 -19.373859 26.686937 1.076484 2.383237 0.010730 -0.012345 -276797.000000 0 0 1
7.392523 15.855884 -18.985759 25.817000 1.134526 2.397050 0.015171 0.000357 -111458.000000 0 0 1
7.072823 15.726684 -17.480059 24.554142 1.148164 2.362994 0.009172 -0.005579 -17884.100000 0 1 0
6.874523 17.006584 -16.963659 24.984969 1.186651 2.317134 0.011888 -0.008526 -242612.000000 0 1 0
6.408223 16.861684 -15.626559 23.865688 1.207609 2.284676 0.002019 -0.018405 101.297000 0 1 0
5.937123 18.223384 -14.982059 24.327006 1.255844 2.234275 0.001880 -0.012898 -30695.600000 0 1 0
6.901223 19.280684 -14.820559 25.278857 1.227070 2.197259 0.001600 -0.006826 6447.940000 0 0 1
7.339123 19.857684 -16.024959 26.551641 1.216781 2.218729 0.010478 0.002540 597401.000000 0 0 1
8.546623 20.897884 -15.905759 27.618100 1.182581 2.184523 0.010945 0.014628 856926.000000 0 0 1
8.258323 22.133984 -15.248059 28.117902 1.213687 2.143957 -0.000214 0.010348 -40612.300000 0 0 1
8.203723 22.032184 -13.812459 27.267237 1.214349 2.101985 -0.015049 0.006549 -89333.000000 0 0 1
8.039823 23.414884 -13.063059 27.991767 1.240046 2.056324 -0.002076 0.005053 218023.000000 0 0 1
6.761723 24.016784 -13.261959 28.256085 1.296359 2.059349 0.001337 0.004824 655.877000 0 0 1
6.490223 25.104284 -12.354059 28.722305 1.317805 2.015423 -0.007762 0.007987 50858.100000 0 0 1
6.015023 24.695784 -10.923759 27.665696 1.331883 1.976699 -0.020731 -0.001341 -304509.000000 0 0 1
6.965723 24.039784 -10.091959 26.986666 1.288762 1.954073 -0.018177 -0.002469 -112359.000000 0 0 1
6.313423 23.677184 -8.916159 26.076162 1.310213 1.919764 -0.015711 -0.004057 299354.000000 0 0 1
7.225523 23.556184 -7.633259 25.794740 1.273171 1.871218 -0.015550 -0.003275 211226.000000 0 0 1
7.520423 24.817984 -7.036259 26.870021 1.276568 1.835748 -0.008346 -0.010588 111853.000000 0 0 1
8.138123 24.590784 -5.790959 26.541871 1.251200 1.790748 0.005437 -0.011764 -166216.000000 0 0 1
8.464323 25.953884 -5.078659 27.767636 1.255543 1.754730 0.000526 -0.013312 508619.000000 0 0 1
9.228123 26.687784 -6.084959 28.886377 1.237885 1.783038 0.013718 -0.010009 318914.000000 0 0 1
9.334623 28.057984 -5.666959 30.108139 1.249624 1.760146 0.017152 -0.016035 80042.200000 0 0 1
9.480223 29.064484 -6.801959 31.319091 1.255498 1.789723 0.014476 -0.005862 35337.900000 0 0 1
10.742023 29.032784 -7.419659 31.833079 1.216420 1.806040 0.016611 -0.011323 -302477.000000 0 0 1
10.815823 30.128384 -8.261559 33.059868 1.226134 1.823370 0.018206 -0.003653 -206481.000000 0 0 1
12.119223 30.369284 -9.035459 33.923568 1.191099 1.840398 0.030376 -0.007534 1104010.000000 0 0 1
13.220823 30.704084 -8.136959 34.405538 1.164202 1.809560 0.039251 -0.005430 323064.000000 0 0 1
14.428223 31.013084 -8.764959 35.310189 1.135349 1.821646 0.038347 -0.009964 61622.200000 0 0 1
15.586123 31.479084 -7.846459 35.992039 1.111055 1.790567 0.038568 -0.003685 144072.000000 0 0 1
16.259723 30.371884 -7.284659 35.212159 1.079267 1.779180 0.046212 -0.004779 -1135910.000000 0 0 1
17.221223 30.806884 -6.409359 35.870803 1.061065 1.750440 0.036544 -0.001070 153851.000000 0 0 1
18.409123 29.769884 -6.213359 35.549228 1.016971 1.746481 0.033594 -0.003176 376104.000000 0 0 1
18.245223 28.749584 -5.263059 34.454702 1.005305 1.724150 0.056484 -0.010302 552473.000000 0 0 1
19.436123 27.950884 -5.072059 34.420060 0.963187 1.718693 0.046055 -0.007624 597115.000000 0 0 1
19.592323 26.747884 -6.023159 33.698469 0.938602 1.750499 0.047943 0.005136 -202934.000000 0 0 1
19.874823 26.967084 -7.404859 34.308368 0.935665 1.788341 0.032773 0.006907 310075.000000 0 0 1
19.583423 25.826284 -8.195359 33.431591 0.922020 1.818459 0.029095 0.001886 -682806.000000 0 0 1
19.903423 26.004684 -9.747359 34.167248 0.917525 1.860099 0.025458 -0.002681 385853.000000 0 0 1
21.271723 26.188884 -10.073059 35.210941 0.888635 1.860927 0.011339 0.002137 358285.000000 0 0 1
22.109723 25.035784 -9.915459 34.841737 0.847383 1.859371 0.013614 0.001391 -1504880.000000 0 0 1
23.524423 25.410984 -9.649559 35.947608 0.823931 1.842563 -0.006166 0.007314 -1126450.000000 0 0 1
24.229023 25.832484 -10.821459 37.033319 0.817417 1.867332 -0.005488 0.003969 1202670.000000 0 0 1
25.663423 25.897884 -10.654159 37.984507 0.789945 1.855098 -0.011550 0.012828 1497180.000000 0 0 1
26.540723 26.072284 -11.926159 39.069262 0.776495 1.881004 -0.000911 0.002617 214127.000000 0 0 1
26.360723 27.266184 -12.649359 39.979229 0.802281 1.892727 -0.004785 0.002063 -153088.000000 0 0 1
27.144223 27.233984 -13.827959 40.862099 0.787049 1.916018 -0.002014 0.003755 159510.000000 0 0 1
26.793423 28.329884 -14.898959 41.742650 0.813264 1.935769 0.002101 0.002759 9329.820000 0 0 1
27.119923 29.640784 -14.463759 42.699726 0.829781 1.916365 -0.004550 0.002400 -26192.900000 0 0 1
27.261223 30.387184 -15.622459 43.710598 0.839570 1.936286 0.001702 0.001293 -135664.000000 0 0 1
27.615923 31.901284 -15.365459 44.904659 0.857276 1.920032 -0.003791 -0.001373 199336.000000 0 0 1
28.797523 32.169284 -14.635359 45.588966 0.840647 1.897612 -0.005881 -0.005699 -56718.600000 0 0 1
29.076023 33.541684 -14.605059 46.730797 0.856594 1.888658 -0.001886 -0.013828 -186919.000000 0 0 1
14.808123 -32.728733 -29.055875 46.202752 -1.145907 2.250905 0.047125 -0.022660 305153.000000 0 0 1
15.867623 -33.114933 -28.152785 46.270504 -1.123953 2.224889 0.035809 -0.017596 697952.000000 0 0 1
16.292423 -32.060133 -27.296635 45.148659 -1.100624 2.220053 0.033163 -0.017800 -1102690.000000 0 0 1
17.371823 -32.629133 -26.320775 45.378670 -1.081564 2.189556 0.007139 -0.007483 328370.000000 0 0 1
18.702323 -32.553633 -26.789995 46.121792 -1.049332 2.190573 0.000105 -0.011242 75020.400000 0 0 1
19.014723 -33.098833 -28.086945 47.391654 -1.049351 2.205149 0.003672 -0.011465 -217915.000000 0 0 1
20.580023 -32.945333 -28.311425 48.067339 -1.012433 2.200611 0.027229 -0.003162 1267420.000000 0 0 1
20.936023 -31.592433 -28.517785 47.430612 -0.985551 2.215864 0.023227 -0.020473 266446.000000 0 0 1
22.339523 -31.430733 -28.379925 47.878653 -0.952889 2.205262 0.005903 -0.004787 -170928.000000 0 0 1
22.938323 -30.261333 -29.127705 47.857477 -0.922190 2.225135 -0.004739 0.002159 -374860.000000 0 0 1
23.069223 -30.460933 -30.517965 48.901980 -0.922615 2.244729 -0.011580 -0.003335 10937.700000 0 0 1
23.489623 -29.275733 -31.159685 48.782752 -0.894619 2.263661 -0.009910 -0.013045 45121.500000 0 0 1
23.713323 -29.536633 -32.632775 49.996323 -0.894323 2.281944 0.000990 -0.002560 368170.000000 0 0 1
24.923323 -30.249133 -32.821145 51.121518 -0.881630 2.267929 0.022607 -0.023588 -122926.000000 0 0 1
25.188023 -30.589433 -34.150982 52.310988 -0.881936 2.282131 0.023760 -0.022669 41250.100000 0 0 1
26.417623 -31.464533 -34.495479 53.645556 -0.872371 2.269239 0.019004 -0.029100 273595.000000 0 0 1
27.619123 -30.730333 -34.451395 53.796542 -0.838668 2.265817 0.031852 -0.037959 -233159.000000 0 0 1
28.760423 -31.399533 34.084698 54.542270 -0.829238 0.895764 0.027749 -0.023833 -385457.000000 0 0 1
30.007023 -30.551433 34.087874 54.733852 -0.794388 0.898489 0.031225 -0.031037 -743151.000000 0 0 1
30.129423 -29.600833 33.049589 53.630838 -0.776549 0.906834 0.023106 -0.027167 -101360.000000 0 0 1
31.298223 -28.823233 33.163642 53.946127 -0.744255 0.908721 0.027735 -0.027815 -81556.500000 0 0 1
31.425223 -27.833233 31.979581 52.772408 -0.724857 0.919786 0.034861 -0.025806 -332030.000000 0 0 1
32.646923 -27.144133 31.912451 53.113370 -0.693623 0.926249 0.008479 -0.018634 57556.100000 0 0 1
32.699723 -26.348233 30.727041 52.035106 -0.678245 0.939111 0.038546 -0.014238 -374366.000000 0 0 1
33.378923 -26.909233 29.485531 52.035140 -0.678494 0.968366 0.026406 -0.010258 -546218.000000 0 0 1
32.667923 -27.879433 28.724391 51.667655 -0.706476 0.981297 0.031381 -0.016152 250447.000000 0 0 1
31.549323 -27.416733 28.007921 50.313821 -0.715428 0.980431 0.039900 -0.015468 -120984.000000 0 0 1
30.900323 -28.564633 27.139341 50.073067 -0.746140 0.997987 0.023538 -0.009246 178668.000000 0 0 1
29.605623 -28.147433 26.746641 48.827796 -0.760155 0.991094 0.030806 0.003614 61787.200000 0 0 1
28.965323 -29.162033 26.038341 48.656030 -0.788782 1.006109 0.014497 0.011031 -437561.000000 0 0 1
27.655123 -28.764033 25.379141 47.289282 -0.805050 1.004301 0.021673 0.013903 -403949.000000 0 0 1
26.537723 -28.633333 26.212191 47.023371 -0.823364 0.979511 0.030655 0.011298 307371.000000 0 0 1
25.382623 -28.115633 25.530901 45.679243 -0.836440 0.977717 0.028133 0.023518 963141.000000 0 0 1
24.158223 -28.040133 26.491901 45.515817 -0.859630 0.949565 0.027270 0.016156 86199.800000 0 0 1
24.174323 -26.961133 27.365841 45.389314 -0.839843 0.923648 0.025818 0.013117 747623.000000 0 0 1
22.827123 -26.783733 27.815411 44.856916 -0.864983 0.901936 0.031771 0.006216 455319.000000 0 0 1
22.638723 -25.557733 28.733411 44.624190 -0.845889 0.871215 0.017207 0.017886 -51865.600000 0 0 1
21.314023 -25.370333 29.218401 44.177554 -0.872068 0.848132 0.020651 0.016323 314090.000000 0 0 1
21.170723 -24.381433 30.229551 44.232109 -0.855766 0.818345 0.022965 0.020068 -246262.000000 0 0 1
21.058523 -22.910133 29.719881 43.030302 -0.827485 0.808377 0.027473 0.016884 -608673.000000 0 0 1
22.121823 -22.369433 28.998641 42.786537 -0.790963 0.826096 0.032174 0.014541 -91955.000000 0 0 1
21.756123 -21.027433 28.731321 41.724940 -0.768368 0.811255 0.038652 0.016286 155659.000000 0 0 1
22.409323 -19.934833 29.593491 42.134902 -0.727027 0.792101 0.041848 0.016671 -244653.000000 0 0 1
21.945523 -20.002233 30.881501 42.841130 -0.739105 0.765786 0.041846 0.016930 275375.000000 0 0 1
22.758123 -19.181933 31.711431 43.491304 -0.700335 0.753726 0.036424 0.008361 -16460.900000 0 0 1
22.249723 -19.082633 33.148347 44.249406 -0.708923 0.724056 0.046797 0.007543 -88893.100000 0 0 1
22.498323 -20.173333 34.019215 45.502141 -0.730966 0.726295 0.034299 0.004606 138171.000000 0 0 1
22.027923 -19.785933 -33.718705 44.873863 -0.731831 2.420994 0.029044 0.001995 -237818.000000 0 0 1
21.933323 -20.941033 -32.684035 44.585240 -0.762258 2.393619 0.010269 0.013926 -364954.000000 0 0 1
23.068923 -21.255933 -31.936895 44.765557 -0.744519 2.365171 0.005797 0.012428 -385256.000000 0 0 1
22.713723 -22.311133 -31.071435 44.487458 -0.776457 2.344000 -0.003769 0.009943 702660.000000 0 0 1
23.891123 -22.836133 -30.144715 44.732299 -0.762824 2.310260 -0.015932 0.015053 762740.000000 0 0 1
24.898723 -23.475733 -30.915205 46.117310 -0.755991 2.305490 -0.004874 0.012619 -229262.000000 0 0 1
25.870323 -24.074133 -30.080345 46.407592 -0.749450 2.275985 -0.002982 0.001729 368337.000000 0 0 1
26.864923 -24.964833 -30.927515 47.973723 -0.748754 2.271396 0.001460 -0.006618 -148542.000000 0 0 1
27.769823 -24.203933 -31.715215 48.609138 -0.716896 2.281614 0.009489 -0.006432 -104307.000000 0 0 1
27.470023 -23.970133 -33.105265 49.245588 -0.717465 2.308038 0.010386 0.000256 -175991.000000 0 0 1
27.764523 -25.161633 -34.021145 50.610422 -0.736258 2.307994 0.024807 -0.001713 -145156.000000 0 0 1
27.000323 -26.301533 -33.711305 50.569162 -0.772289 2.300485 0.030547 -0.010763 -141361.000000 0 0 1
27.297323 -27.455133 34.506042 51.861306 -0.788280 0.842831 0.041991 -0.019212 -92842.200000 0 0 1
26.888123 -27.539633 33.038718 50.724347 -0.797368 0.861449 0.039709 -0.019338 -166527.000000 0 0 1
27.621023 -26.702033 32.150011 50.095336 -0.768483 0.873984 0.042913 -0.025118 51774.700000 0 0 1
27.184523 -26.638233 30.802011 48.962818 -0.775249 0.890415 0.047090 -0.017226 -557545.000000 0 0 1
28.319723 -26.049833 29.958081 48.765634 -0.743673 0.909263 0.048545 -0.012658 -76844.100000 0 0 1
28.641223 -24.670233 30.131381 48.340874 -0.711049 0.897827 0.040386 -0.016600 242266.000000 0 0 1
29.080123 -24.201933 31.421621 49.180335 -0.694099 0.877721 0.035856 -0.012943 -1320310.000000 0 0 1
29.428323 -22.659933 31.288881 48.564316 -0.656181 0.870719 0.020123 -0.007181 1757610.000000 0 0 1
30.719723 -22.343533 30.661461 48.816596 -0.628837 0.891694 0.017417 -0.014240 1992790.000000 0 0 1
31.831223 -22.816133 31.430641 50.216410 -0.621902 0.894506 0.009287 -0.011167 -552753.000000 0 0 1
33.222823 -22.257033 31.099111 50.658525 -0.590260 0.909809 0.007804 -0.012376 -214948.000000 0 0 1
33.824023 -22.873633 29.987001 50.660515 -0.594611 0.937357 0.011385 -0.021059 52147.700000 0 0 1
34.748623 -22.022533 29.348781 50.535232 -0.564879 0.951136 0.000588 -0.018014 -110234.000000 0 0 1
35.188323 -22.534933 27.966261 50.280742 -0.569604 0.980987 0.006400 -0.017978 -298636.000000 0 0 1
-34.855495 -23.767633 27.968551 50.616655 0.598468 0.985368 0.002783 -0.011564 174449.000000 0 0 1
-34.416795 -24.091433 26.677321 49.765373 0.610720 1.005031 -0.000847 -0.003745 -471424.000000 0 0 1
-34.324495 -25.661533 26.462311 50.368037 0.641973 1.017636 -0.001120 -0.008761 37454.100000 0 0 1
35.115623 -26.293233 26.505561 51.254130 -0.642708 1.027290 0.006703 -0.006498 154896.000000 0 0 1
35.179923 -27.608333 26.028001 51.742669 -0.665388 1.043698 0.007834 -0.001096 217463.000000 0 0 1
-34.679895 -28.659633 26.813931 52.374198 0.690635 1.033322 0.005010 -0.006375 -513842.000000 0 0 1
-34.529095 -29.936233 26.183211 52.668748 0.714273 1.050508 0.014230 -0.004968 799780.000000 0 0 1
-33.570295 -30.766533 26.921121 52.898875 0.741846 1.036870 0.019222 -0.012494 1481620.000000 0 0 1
-32.073095 -30.326533 26.774931 51.626340 0.757416 1.025549 0.031026 -0.014800 -335805.000000 0 0 1
-31.677695 -30.252533 25.436221 50.652675 0.762390 1.044691 0.024360 -0.013101 704966.000000 0 0 1
-30.395595 -29.612233 25.294321 49.402219 0.772345 1.033276 0.021135 -0.012320 756671.000000 0 0 1
-29.925295 -29.547333 23.814441 48.329037 0.779043 1.055542 0.019957 -0.011502 -95461.800000 0 0 1
-29.706195 -30.817933 23.238641 48.705620 0.803765 1.073417 0.025092 -0.015605 365542.000000 0 0 1
-29.080295 -30.656733 21.983941 47.631843 0.811782 1.091067 0.018215 -0.013877 -564651.000000 0 0 1
-29.129095 -31.960733 21.210441 48.165085 0.831717 1.114786 0.020956 -0.011091 270009.000000 0 0 1
-28.220095 -32.974433 21.629241 48.492382 0.862935 1.108467 0.022944 -0.017167 599656.000000 0 0 1
-26.845595 -32.731133 21.328741 47.401775 0.883868 1.104080 0.031512 -0.014415 27105.600000 0 0 1
-26.053195 -34.051733 21.339141 47.892050 0.917697 1.108988 0.021258 -0.004809 -474305.000000 0 0 1
-26.279995 34.075884 20.318741 47.588394 -0.913852 1.129659 0.007907 -0.005332 987481.000000 0 0 1
-27.519095 33.306484 20.336541 47.751412 -0.880260 1.130858 0.013924 -0.004311 1147920.000000 0 0 1
-27.658295 32.184084 21.438941 47.543924 -0.860883 1.102990 0.015101 -0.000897 57675.100000 0 0 1
-26.744495 31.147284 21.135641 46.175065 -0.861304 1.095358 -0.000699 -0.000375 189767.000000 0 0 1
-26.844895 30.111184 22.076041 45.985687 -0.842683 1.070069 -0.001079 -0.003287 84015.900000 0 0 1
-25.905995 28.886884 21.795041 44.503893 -0.839747 1.059012 -0.000736 -0.001403 176402.000000 0 0 1
-24.551895 29.154084 22.090041 44.053673 -0.870882 1.045540 0.003356 -0.002071 -73574.400000 0 0 1
-23.666895 28.375684 21.307341 42.653302 -0.875632 1.047720 0.002228 -0.006050 781265.000000 0 0 1
-22.167195 28.720284 21.627441 42.237252 -0.913469 1.033231 -0.002223 -0.000676 372679.000000 0 0 1
-21.834895 28.447184 22.940041 42.570534 -0.916152 1.001700 -0.001009 0.002536 880000.000000 0 0 1
-20.525495 29.041084 23.097641 42.404970 -0.955538 0.994775 0.033514 -0.001886 771383.000000 0 0 1
-20.154595 29.129884 24.566791 43.107831 -0.965536 0.964422 0.031035 -0.001660 -670533.000000 0 0 1
-19.892195 27.855884 25.182861 42.495014 -0.950662 0.936504 0.047887 -0.007354 223600.000000 0 0 1
-19.321095 27.979084 26.442001 43.073348 -0.966437 0.909826 0.037217 -0.005016 233059.000000 0 0 1
-17.809895 28.316784 26.575101 42.723162 -1.009360 0.899463 0.038398 -0.006638 -163778.000000 0 0 1
-17.446295 29.662484 26.346361 43.340130 -1.039128 0.917386 0.030454 -0.003064 228820.000000 0 0 1
-16.182695 30.056584 26.872481 43.444310 -1.076897 0.903900 0.019810 0.007695 131541.000000 0 0 1
-16.018895 30.388784 28.378221 44.557902 -1.085680 0.880346 0.014440 0.018134 -377920.000000 0 0 1
-16.020195 29.236284 29.214721 44.327270 -1.069524 0.851216 0.014778 0.020334 196599.000000 0 0 1
-15.764195 29.588684 30.597151 45.389269 -1.081272 0.831043 0.010737 0.017381 -115653.000000 0 0 1
-15.888795 28.466684 31.644091 45.432966 -1.061714 0.800287 -0.002739 0.027777 -448825.000000 0 0 1
-14.871295 27.507684 31.604421 44.459729 -1.075181 0.780083 0.005747 0.027740 -228655.000000 0 0 1
-14.959995 26.333284 32.381321 44.337267 -1.054161 0.751975 0.007477 0.022072 -326186.000000 0 0 1
-15.005395 26.432384 33.904986 45.534392 -1.054473 0.730858 0.007439 0.025938 1472940.000000 0 0 1
-16.338295 26.884984 34.324337 46.560738 -1.024726 0.741887 0.009983 0.027416 1285880.000000 0 0 1
-16.577595 27.050984 -33.323845 46.011423 -1.020998 2.380745 0.006669 0.019836 655365.000000 0 0 1
-17.949195 26.413084 -32.865255 45.825207 -0.973923 2.370554 -0.006748 0.017900 113594.000000 0 0 1
-19.021795 27.008984 -33.509345 47.055182 -0.957206 2.363322 -0.003392 0.018616 -1275400.000000 0 0 1
-20.181395 26.381884 -33.059425 46.863825 -0.917782 2.353834 0.015114 0.009914 -903846.000000 0 0 1
-21.410695 26.559084 -33.954985 48.132565 -0.892315 2.353850 0.044263 -0.000685 -530649.000000 0 0 1
-21.648195 25.623684 34.005371 47.765917 -0.869299 0.778572 0.045837 0.001491 90810.500000 0 0 1
-21.807795 24.286884 34.413912 47.431530 -0.839129 0.758964 0.042981 -0.000512 -373871.000000 0 0 1
-22.141995 23.252984 33.213214 46.196177 -0.809867 0.768491 0.030894 0.011585 -1004830.000000 0 0 1
-23.362995 23.414084 32.608671 46.447543 -0.786490 0.792519 0.037500 -0.006455 -1002040.000000 0 0 1
-23.301395 22.725684 31.366721 45.202687 -0.772891 0.803887 0.038501 0.001581 377490.000000 0 0 1
-24.736595 22.484884 30.845721 45.485466 -0.737750 0.825561 0.029343 0.006624 345062.000000 0 0 1
-25.267395 21.224084 31.195611 45.410011 -0.698648 0.813476 0.041566 -0.004383 199907.000000 0 0 1
-26.497595 20.970284 30.520881 45.534597 -0.669477 0.836212 0.039640 -0.001680 333817.000000 0 0 1
-27.107195 19.579684 30.865191 45.506308 -0.625540 0.825402 0.062925 -0.007128 -463432.000000 0 0 1
-27.644295 19.560584 32.136621 46.686035 -0.615796 0.811576 0.057167 -0.006509 -134270.000000 0 0 1
-27.907095 18.345084 32.748261 46.773889 -0.581534 0.795203 0.057243 -0.005034 72163.400000 0 0 1
-28.781095 17.215284 32.087261 46.414543 -0.539055 0.807483 0.040244 -0.006468 -1085110.000000 0 0 1
-30.112295 17.535384 31.964431 47.285990 -0.527328 0.828501 0.030507 -0.008385 -1014090.000000 0 0 1
-30.810195 16.328484 31.681951 47.112987 -0.487335 0.833259 0.024311 -0.006956 431371.000000 0 0 1
-32.372595 16.436584 31.708881 48.203728 -0.469814 0.852889 0.016788 -0.009310 449389.000000 0 0 1
-32.774095 16.785984 32.996869 49.443947 -0.473338 0.840139 0.022381 -0.007418 -139164.000000 0 0 1
-34.146695 16.536084 33.155321 50.385655 -0.450981 0.852596 0.028605 -0.015435 -520211.000000 0 0 1
-34.550795 17.263584 34.455045 51.758467 -0.463374 0.842380 0.033059 -0.008038 -746081.000000 0 0 1
34.797123 17.098984 -34.262005 51.740699 0.456737 2.294530 0.023003 -0.014391 -402927.000000 0 0 1
34.510123 18.020184 -33.213385 51.174257 0.481227 2.277099 0.017555 -0.016418 10303.100000 0 0 1
32.993723 18.162684 -32.983705 50.063895 0.503219 2.290062 0.018521 -0.017421 -6938.370000 0 0 1
32.351823 16.907084 -32.820055 49.088144 0.481564 2.303113 0.019843 -0.016120 916851.000000 0 0 1
30.957723 17.155584 -32.523945 48.067678 0.506033 2.313970 0.019464 -0.015112 1252310.000000 0 0 1
30.040823 15.882384 -32.635525 47.114527 0.486338 2.336001 0.011458 -0.011775 114612.000000 0 0 1
29.572423 15.607584 -33.948485 47.651070 0.485620 2.363764 0.022668 -0.020113 365460.000000 0 0 1
28.688923 14.477384 -34.026785 46.802468 0.467347 2.384782 0.019183 -0.017001 -497458.000000 0 0 1
29.339723 13.140884 -34.248344 46.972877 0.421095 2.387815 0.012584 -0.008768 -158135.000000 0 0 1
30.094023 12.780484 -33.088195 46.516875 0.401604 2.362165 0.017614 -0.003762 192994.000000 0 0 1
31.063923 11.824784 -33.451055 47.156822 0.363723 2.359383 0.035158 -0.005178 -306811.000000 0 0 1
18.134023 -21.555316 9.115045 29.606730 -0.871387 1.257842 0.007828 -0.000919 -142180.000000 0 0 1
17.596923 -22.577916 9.924645 30.297072 -0.908752 1.237058 -0.014086 -0.009330 -139687.000000 0 0 1
18.527823 -23.429816 10.557345 31.681131 -0.901703 1.231061 0.004636 -0.012263 -298756.000000 0 0 1
17.869223 -24.577616 11.429845 32.465515 -0.942144 1.211024 0.008230 -0.015387 343018.000000 0 0 1
17.162723 -25.536196 10.649445 32.558671 -0.979046 1.237579 0.005189 -0.018840 38160.500000 0 0 1
15.976923 -26.018036 11.248145 32.537994 -1.020095 1.217819 0.018802 -0.019894 -86287.200000 0 0 1
15.199723 -26.987546 10.389245 32.669491 -1.057866 1.247166 0.045159 -0.015724 -213202.000000 0 0 1
14.523123 -26.320206 9.332945 31.476630 -1.066583 1.269766 0.030612 -0.017762 -102028.000000 0 0 1
13.831723 -27.176706 8.483145 31.652072 -1.100010 1.299467 0.040896 -0.006543 -195221.000000 0 0 1
13.490423 -26.612006 7.126545 30.675365 -1.101620 1.336333 0.039563 -0.011874 -116531.000000 0 0 1
12.637623 -25.497816 7.177845 29.349099 -1.110646 1.323722 0.051416 -0.019727 -59917.300000 0 0 1
12.241023 -24.984466 5.922545 28.445434 -1.115225 1.361055 0.051469 0.000054 80215.000000 0 0 1
11.737623 -23.476016 6.059445 26.937186 -1.107162 1.343907 0.061072 0.000725 101951.000000 0 0 1
10.875623 -23.012716 5.037045 25.946794 -1.129315 1.375426 0.043916 0.005847 -38848.500000 0 0 1
10.456523 -21.718716 5.310245 24.682792 -1.122097 1.353962 0.050298 0.001583 -244374.000000 0 1 0
9.685423 -21.047116 4.159545 23.539123 -1.139511 1.393156 0.036409 -0.000865 -12798.300000 0 1 0
10.475823 -20.530516 3.086545 23.254499 -1.098977 1.437675 0.029613 0.004048 242023.000000 0 1 0
9.678923 -19.895516 2.065045 22.221105 -1.118017 1.477730 0.018692 0.006669 -64857.000000 0 1 0
10.487723 -19.388616 0.852245 22.059852 -1.074950 1.532153 0.022759 0.007953 183598.000000 0 1 0
11.400523 -18.330816 1.154745 21.617682 -1.014406 1.517354 0.008357 0.009645 163354.000000 0 1 0
12.078523 -17.937716 -0.035655 21.625301 -0.978175 1.572445 0.003305 0.000255 201093.000000 0 1 0
13.325523 -17.055316 0.253345 21.645266 -0.907555 1.559092 0.003420 0.008910 1157840.000000 0 1 0
14.453523 -17.810616 0.794745 22.951122 -0.889075 1.536162 0.013631 -0.000956 -137568.000000 0 1 0
15.591723 -17.047516 0.848545 23.117951 -0.829971 1.534083 0.010857 -0.009822 -319574.000000 0 1 0
16.844123 -17.777016 1.416645 24.530668 -0.812337 1.513014 0.008669 0.001129 66183.600000 0 1 0
17.216123 -18.834916 0.592045 25.524488 -0.830271 1.547599 0.011892 -0.005084 306693.000000 0 0 1
18.465523 -19.372916 1.027245 26.783216 -0.809374 1.532433 0.011676 0.000890 848570.000000 0 0 1
18.963023 -20.664816 0.315345 28.048713 -0.828316 1.559553 0.002826 0.004092 116457.000000 0 0 1
18.110423 -21.661516 0.807745 28.246436 -0.874448 1.542196 0.016833 0.003062 -65970.700000 0 0 1
18.048623 -22.797116 -0.002955 29.076817 -0.901133 1.570898 0.011926 0.001312 -220918.000000 0 0 1
16.978423 -23.848716 0.368145 29.277357 -0.952114 1.558222 0.021705 0.004813 -136177.000000 0 0 1
17.052123 -24.493816 1.624745 29.889157 -0.962638 1.516411 0.017321 0.009591 -628827.000000 0 0 1
15.867223 -25.196496 1.772145 29.829058 -1.008796 1.511351 0.020036 0.009066 -698372.000000 0 0 1
15.999523 -26.176206 3.004145 30.825369 -1.022165 1.473184 0.024628 0.002210 539987.000000 0 0 1
16.968223 -27.246246 2.982445 32.236214 -1.013800 1.478145 0.017077 0.004491 472961.000000 0 0 1
18.203823 -26.749376 3.495345 32.544212 -0.973256 1.463186 0.016335 0.000994 -558010.000000 0 0 1
19.220523 -27.860846 3.700145 34.049175 -0.966898 1.461911 0.024560 0.003191 -504826.000000 0 0 1
19.772123 -28.213416 2.429145 34.537435 -0.959530 1.500405 0.025708 0.005853 -227393.000000 0 0 1
20.686023 -29.284076 2.469445 35.938375 -0.955794 1.502029 0.028800 0.003580 129223.000000 0 0 1
20.098423 -30.742496 2.834745 36.838614 -0.991778 1.493770 0.030876 0.005271 -21839.500000 0 0 1
19.966323 -31.067116 4.228845 37.171264 -0.999582 1.456783 0.042442 0.001531 -131702.000000 0 0 1
19.158923 -32.187016 4.417945 37.717192 -1.033886 1.453393 0.026693 -0.006112 -392476.000000 0 0 1
18.811623 -32.499326 5.901745 38.012024 -1.046088 1.414906 0.034798 -0.007439 158786.000000 0 0 1
19.855723 -33.105346 6.676545 39.176395 -1.030543 1.399538 0.035151 -0.017527 583091.000000 0 0 1
19.371223 -33.506326 7.981645 39.517399 -1.046608 1.367419 0.031168 -0.014210 465688.000000 0 0 1
20.421223 -34.331518 8.775045 40.898422 -1.034191 1.354558 0.024089 -0.010461 403233.000000 0 0 1
21.629623 -33.674506 9.071445 41.037837 -0.999843 1.347905 0.037866 -0.012050 -698734.000000 0 0 1
22.649623 -34.528612 9.389245 42.348417 -0.990238 1.347224 0.034919 -0.013906 -389570.000000 0 0 1
23.745523 -33.757766 10.182345 42.510196 -0.957786 1.328918 0.032503 -0.016086 -260897.000000 0 0 1
24.388323 -32.691526 9.551745 41.889879 -0.929851 1.340752 0.032291 -0.021654 -77635.100000 0 0 1
25.343123 -32.145326 10.433845 42.242881 -0.903174 1.321217 0.029776 -0.018169 -81635.000000 0 0 1
26.066023 -30.952316 9.717945 41.616365 -0.870886 1.335108 0.037125 -0.021329 100702.000000 0 0 1
25.228223 -29.807906 9.462145 40.180924 -0.868419 1.333075 0.027739 -0.019980 345369.000000 0 0 1
25.651323 -29.179426 8.287945 39.725550 -0.849655 1.360622 0.041363 -0.021192 -121860.000000 0 0 1
25.233223 -27.733266 8.176245 38.375781 -0.832564 1.356093 0.036582 -0.012350 -266890.000000 0 0 1
25.857823 -27.002866 9.200245 38.502289 -0.807056 1.329509 0.022731 -0.015115 -47241.100000 0 0 1
25.451523 -25.645606 9.315345 37.312904 -0.789196 1.318473 0.024855 -0.012225 -267001.000000 0 0 1
26.255123 -24.883716 10.355745 37.626749 -0.758587 1.291975 0.036704 -0.017750 874052.000000 0 0 1
27.598823 -24.581716 9.958345 38.276944 -0.727642 1.307603 0.049511 -0.017295 214915.000000 0 0 1
28.378223 -23.802016 10.812545 38.584591 -0.697922 1.286763 0.037385 -0.019849 -604414.000000 0 0 1
29.719823 -23.464416 10.208945 39.218226 -0.668318 1.307452 0.053736 -0.020010 -617839.000000 0 0 1
29.662723 -22.758916 8.995145 38.454623 -0.654454 1.334693 0.059474 -0.015784 -792020.000000 0 0 1
30.926323 -22.454716 8.479045 39.147745 -0.628010 1.352475 0.051406 -0.019111 -656390.000000 0 0 1
30.812623 -21.733316 7.151645 38.378389 -0.614300 1.383355 0.050632 -0.008057 -183237.000000 0 0 1
30.525823 -20.370316 7.278645 37.413290 -0.588451 1.375001 0.046045 -0.005536 -46071.300000 0 0 1
30.859123 -19.588216 6.125045 37.060759 -0.565589 1.404764 0.040847 -0.001640 96809.400000 0 0 1
30.468923 -18.096016 6.267245 35.987490 -0.535935 1.395753 0.041173 0.000819 14413.800000 0 0 1
31.312523 -17.503016 7.214645 36.590719 -0.509710 1.372324 0.041367 -0.002358 126499.000000 0 0 1
30.832923 -16.215216 7.482045 35.631213 -0.484157 1.359236 0.042312 -0.003802 -197533.000000 0 0 1
31.300723 -15.727816 8.808245 36.120418 -0.465625 1.324455 0.039655 -0.018625 -2012370.000000 0 0 1
32.600623 -15.399616 8.730545 37.096781 -0.441302 1.333223 0.046216 -0.012454 -2218390.000000 0 0 1
33.052823 -15.032516 9.984145 37.658316 -0.426841 1.302463 0.051750 -0.019089 704786.000000 0 0 1
34.619523 -14.991816 10.055145 39.043205 -0.408665 1.310322 0.043605 -0.019837 608912.000000 0 0 1
35.245723 -13.906616 9.419845 39.043417 -0.375810 1.327126 0.043759 -0.009010 211125.000000 0 0 1
-34.275495 -14.315916 8.754445 38.162748 0.395647 1.339338 0.040837 -0.013075 334058.000000 0 0 1
-33.313995 -13.192516 8.271145 36.773314 0.377058 1.343933 0.037664 -0.010559 110936.000000 0 0 1
-33.752295 -12.506616 7.081345 36.684852 0.354856 1.376545 0.043382 -0.010942 213826.000000 0 0 1
-32.710795 -12.282616 6.141745 35.476469 0.359201 1.396798 0.034148 -0.005575 -103270.000000 0 0 1
-32.053295 -13.543016 5.430045 35.218070 0.399764 1.415995 0.024592 -0.007485 -432357.000000 0 0 1
-31.031995 -14.121516 6.164645 34.646859 0.427056 1.391916 0.026480 -0.008840 -512563.000000 0 0 1
-30.429695 -15.205216 5.531545 34.463937 0.463394 1.409597 0.014891 0.000852 -188780.000000 0 0 1
-29.552495 -16.015916 6.447145 34.226090 0.496640 1.381295 0.006541 -0.001339 -261500.000000 0 0 1
-30.353495 -16.649416 7.459145 35.414356 0.501704 1.358582 0.009352 -0.007951 312502.000000 0 0 1
-30.183795 -16.086616 8.761645 35.307324 0.489663 1.320022 -0.000018 -0.007484 63001.300000 0 0 1
-31.001595 -16.883716 9.790745 36.633557 0.498694 1.300246 -0.014545 0.003739 -106517.000000 0 0 1
-32.388495 -16.606416 9.782045 37.689204 0.473776 1.308245 0.009085 -0.006022 49493.000000 0 0 1
-33.086495 -17.142316 10.891645 38.822714 0.478027 1.286431 0.022235 -0.003683 -188114.000000 0 0 1
-33.804595 -18.492016 10.703345 39.990836 0.500558 1.299848 0.027530 -0.013905 -1294130.000000 0 0 1
-32.984595 -19.556716 10.381045 39.726751 0.535186 1.306416 0.025293 -0.010242 -890911.000000 0 0 1
-32.285495 -20.110716 11.461245 39.725990 0.557090 1.278129 0.004337 -0.015622 -1077800.000000 0 0 1
-33.049395 -20.914616 12.533245 41.070256 0.564209 1.260684 0.036792 -0.014645 1138.160000 0 0 1
-33.491295 -22.244316 12.227745 42.023734 0.586280 1.275553 0.009631 -0.010500 -789819.000000 0 0 1
-34.607395 -22.243816 11.411945 42.692993 0.571260 1.300204 0.022999 -0.014818 -1282060.000000 0 0 1
-35.114895 -23.656516 11.336945 43.831643 0.592848 1.309175 0.017354 -0.004430 -293253.000000 0 0 1
35.287723 -24.160616 12.639345 44.594975 -0.600366 1.283432 0.043188 -0.004033 83285.000000 0 0 1
34.995323 -25.552206 12.662545 45.143415 -0.630683 1.286486 0.018632 0.014218 -524393.000000 0 0 1
34.119823 -25.975856 13.810345 45.051449 -0.650702 1.259234 0.030100 -0.004078 727625.000000 0 0 1
32.804023 -25.369406 13.720145 43.680122 -0.658286 1.251283 0.026955 -0.001081 831829.000000 0 0 1
32.066323 -25.188256 14.902445 43.414055 -0.665840 1.220407 0.022030 0.011893 -107146.000000 0 0 1
31.743623 -23.740016 15.387545 42.520848 -0.642135 1.200510 0.021934 0.002807 -167756.000000 0 0 1
32.793123 -23.024616 16.018245 43.152126 -0.612146 1.190491 0.029410 -0.000150 -267497.000000 0 0 1
33.491223 -22.324416 15.004445 42.955499 -0.587939 1.213970 0.029657 -0.005262 -31652.400000 0 0 1
34.758423 -21.656816 15.611345 43.827842 -0.557208 1.206602 0.027203 -0.009459 -145600.000000 0 0 1
34.661823 -20.470716 16.351745 43.449646 -0.533467 1.184956 0.019088 -0.002726 -15882.700000 0 0 1
33.720223 -20.437316 17.413845 43.104284 -0.544882 1.154918 0.021925 0.000192 -107780.000000 0 0 1
33.553623 -19.060516 18.062545 42.607563 -0.516604 1.133018 0.015097 0.005016 -337670.000000 0 0 1
33.114223 -18.111416 17.095545 41.434681 -0.500489 1.145501 0.022790 0.000887 35272.900000 0 0 1
32.960023 -16.763016 17.655545 40.976580 -0.470493 1.125341 0.013225 0.006133 160076.000000 0 0 1
34.251723 -15.983616 18.045245 41.884214 -0.436615 1.125377 0.007933 -0.003779 350018.000000 0 0 1
34.947023 -16.474116 19.184845 43.136402 -0.440509 1.109903 0.005740 0.011131 820699.000000 0 0 1
-34.779695 -15.536916 19.688545 42.879620 0.420126 1.093749 0.004745 -0.008627 448216.000000 0 0 1
-34.496195 -15.664916 21.216045 43.422318 0.426263 1.060314 -0.001217 -0.005911 -175277.000000 0 0 1
-33.732595 -16.800716 21.588245 43.430455 0.462091 1.050570 0.000818 -0.003629 343839.000000 0 0 1
-33.525395 -16.772516 23.013145 43.987206 0.463882 1.020220 0.001832 -0.002926 -176524.000000 0 0 1
-32.575395 -17.885916 23.532945 43.987065 0.502123 1.006292 -0.001975 0.001314 -574286.000000 0 0 1
-33.075095 -19.175716 23.672245 44.967157 0.525406 1.016395 -0.003752 0.002082 379179.000000 0 0 1
-32.043495 -20.115216 23.952445 44.778646 0.560572 1.006398 -0.013158 0.008956 133427.000000 0 0 1
-31.233895 -20.625716 22.693945 43.772041 0.583626 1.025750 -0.012855 0.019592 572163.000000 0 0 1
-30.151795 -19.757616 22.297045 42.386936 0.580072 1.016864 -0.005748 0.022262 1684980.000000 0 0 1
-28.898095 -20.482316 22.446945 41.934360 0.616593 1.005948 -0.002836 0.020412 1445770.000000 0 0 1
-27.576395 -19.647016 22.485545 40.645573 0.619038 0.984583 0.013674 0.023973 490416.000000 0 0 1
-27.307595 -19.112916 23.788245 40.949834 0.610667 0.950948 0.016251 0.023817 658372.000000 0 0 1
-26.149195 -18.277116 23.799645 39.802720 0.610024 0.929868 0.040657 0.012802 127870.000000 0 0 1
-25.760995 -17.927016 25.229345 40.268184 0.607967 0.893699 0.033176 -0.000043 -189878.000000 0 0 1
-24.714695 -16.962816 25.361145 39.265010 0.601503 0.868599 0.034462 0.001862 516290.000000 0 0 1
-24.389695 -16.606916 26.733845 39.816396 0.597791 0.834662 0.024585 0.003023 282933.000000 0 0 1
-23.373495 -17.461516 27.513245 40.102412 0.641620 0.814717 0.024005 0.002656 -541559.000000 0 0 1
-23.985795 -18.629216 27.970045 41.287886 0.660357 0.826520 0.027495 0.006592 -168637.000000 0 0 1
-23.055295 -19.438716 28.641345 41.590107 0.700495 0.811160 0.025649 0.001123 -461088.000000 0 0 1
-23.603895 -20.661016 29.372945 42.974311 0.719013 0.818249 0.030228 0.006720 -283362.000000 0 0 1
-24.531295 -20.349816 30.400545 44.046482 0.692498 0.809042 0.024421 0.004491 331094.000000 0 0 1
-24.915795 -21.570816 31.027245 45.263527 0.713566 0.815534 0.020480 0.008897 -765190.000000 0 0 1
-26.048995 -21.304416 32.020145 46.451243 0.685536 0.810235 0.023856 -0.000056 -1211260.000000 0 0 1
-25.817995 -20.460116 33.191545 46.763917 0.670136 0.781627 0.033947 -0.000963 55759.500000 0 0 1
-26.952595 -20.191416 33.972445 47.835789 0.642954 0.781030 0.034439 -0.006030 1344340.000000 0 0 1
-28.278795 -19.546716 33.312745 47.869650 0.604805 0.801117 0.030879 -0.004381 1302570.000000 0 0 1
-29.018995 -20.376816 32.430845 48.052850 0.612194 0.829968 0.034583 -0.007451 628510.000000 0 0 1
-30.141795 -19.724816 31.826045 48.067591 0.579463 0.847165 0.026928 -0.012603 315475.000000 0 0 1
-30.705995 -20.469216 30.596845 47.937604 0.587970 0.878555 0.018376 -0.002792 -98064.500000 0 0 1
-31.379695 -19.557716 29.759245 47.463694 0.557347 0.893113 0.013751 -0.008434 -210062.000000 0 0 1
-32.421595 -20.173816 29.086345 48.001648 0.556608 0.919843 0.009595 -0.004347 -550638.000000 0 0 1
-33.053095 -19.260816 28.002545 47.409162 0.527619 0.938924 0.001380 -0.001159 212393.000000 0 0 1
-34.282295 -19.793516 27.496945 48.198974 0.523612 0.963696 0.001463 -0.001879 557975.000000 0 0 1
-34.719895 -18.982216 26.467045 47.605673 0.500325 0.981274 0.007352 -0.006607 -509385.000000 0 0 1
34.773223 -19.591216 25.740645 47.492879 -0.513072 0.997994 0.010362 -0.007454 -134757.000000 0 0 1
33.615823 -19.548516 26.544745 47.082815 -0.526726 0.971831 0.016859 -0.012062 26725.700000 0 0 1
32.547723 -20.213216 25.885045 46.238122 -0.555742 0.976627 0.027529 -0.008567 181110.000000 0 0 1
31.338923 -20.524216 26.801445 46.061795 -0.579820 0.949784 0.028116 -0.011144 113806.000000 0 0 1
30.704423 -19.380316 27.321345 45.440226 -0.563038 0.925721 0.019359 -0.018910 534211.000000 0 0 1
29.720423 -19.585116 28.331045 45.492070 -0.582661 0.898520 0.018654 -0.005939 75283.900000 0 0 1
-29.277527 -5.709316 34.465230 45.580939 0.192590 0.713413 -0.007246 0.000406 240.906000 0 0 1
-29.949857 -5.640116 33.239900 45.096517 0.186139 0.742052 0.000242 0.004719 316359.000000 0 0 1
-29.355717 -4.589716 32.511671 44.043528 0.155093 0.740441 0.006256 0.004336 105640.000000 0 0 1
-29.917417 -4.322716 31.066241 43.345693 0.143495 0.771725 0.008145 -0.003763 85846.700000 0 0 1
-29.767817 -5.398816 30.126651 42.695260 0.179414 0.787498 0.015153 -0.014186 1806940.000000 0 0 1
-28.399247 -5.455516 29.561281 41.353951 0.189789 0.774407 0.015444 -0.017081 1992110.000000 0 0 1
-28.049697 -6.562016 28.538201 40.549655 0.229810 0.790086 0.013122 -0.022307 -213327.000000 0 0 1
-28.615197 -6.245916 27.309541 40.045624 0.214902 0.820356 0.031663 -0.021289 63199.700000 0 0 1
-28.180497 -7.139316 26.325741 39.219318 0.248122 0.834910 0.046510 -0.019702 125128.000000 0 0 1
-29.015217 -6.849816 25.067211 38.950839 0.231832 0.871656 0.030258 -0.013731 -166816.000000 0 0 1
-28.747087 -5.576716 24.544821 38.209201 0.191612 0.873197 0.037487 -0.008959 280606.000000 0 0 1
-29.648597 -5.134216 23.526741 38.195642 0.171468 0.907201 0.044352 -0.007360 -134063.000000 0 0 1
-29.194747 -3.757316 22.985441 37.346770 0.127995 0.907827 0.046453 -0.008051 591901.000000 0 0 1
-27.946627 -3.913916 22.295641 35.964265 0.139145 0.902132 0.044381 -0.004863 407358.000000 0 0 1
-27.641237 -2.669016 21.661141 35.218840 0.096261 0.908354 0.049876 -0.002793 357625.000000 0 0 1
-26.218297 -2.723416 21.035141 33.723779 0.103503 0.897268 0.045520 -0.002612 247144.000000 0 0 1
-26.055187 -3.533916 19.880041 32.963273 0.134809 0.923419 0.047287 -0.001620 -883017.000000 0 0 1
-24.992877 -3.099016 19.121741 31.621018 0.123366 0.921387 0.052793 -0.010506 -764386.000000 0 0 1
-24.652177 -4.143016 17.981541 30.793347 0.166503 0.947220 0.044843 -0.003629 -445821.000000 0 0 1
-25.680397 -4.077916 17.050441 31.093886 0.157480 0.990402 0.033425 0.000201 -126296.000000 0 0 1
-25.156607 -4.386616 15.771841 30.014134 0.172637 1.017517 0.032428 -0.002012 -503030.000000 0 0 1
-26.174927 -4.513216 14.678241 30.347104 0.170746 1.065944 0.028967 -0.005050 -366100.000000 0 0 1
-26.734207 -3.252816 14.270641 30.478679 0.121077 1.083524 0.032664 -0.007140 586079.000000 0 0 1
-27.949937 -3.423416 13.536341 31.243420 0.121877 1.122696 0.032590 -0.007547 255127.000000 0 0 1
-28.310587 -2.211416 12.650841 31.087353 0.077954 1.151689 0.029775 0.000869 -463871.000000 0 0 1
-27.556317 -1.988216 11.498041 29.925049 0.072026 1.176425 0.032335 0.000339 -291389.000000 0 0 1
-27.816137 -0.757716 10.844541 29.864958 0.027233 1.199183 0.025819 0.002110 -133669.000000 0 0 1
-29.053957 -0.725216 9.915341 30.707855 0.024956 1.242012 0.007680 0.005385 -26158.900000 0 0 1
-28.997717 -1.437416 8.667741 30.299563 0.049529 1.280675 0.003715 -0.002992 -460877.000000 0 0 1
-30.247297 -1.658916 8.075241 31.350606 0.054790 1.310281 0.011537 -0.004597 -421521.000000 0 0 1
-30.227977 -2.436216 6.755441 31.069306 0.080421 1.351614 0.006501 -0.008104 -579762.000000 0 0 1
-29.904707 -1.703216 5.585541 30.469505 0.056893 1.386438 0.010993 -0.009860 622251.000000 0 0 1
-30.801927 -0.643216 5.222341 31.248125 0.020879 1.402883 0.008939 -0.009789 35011.900000 0 0 1
-30.445047 -0.076416 3.824941 30.684474 0.002510 1.445817 0.013143 -0.009005 4651.570000 0 0 1
-30.692987 -0.857016 2.668441 30.820683 0.027915 1.484108 0.005085 -0.015477 651392.000000 0 0 1
-30.009507 -0.274516 1.530941 30.049787 0.009147 1.519827 0.002247 -0.014162 109410.000000 0 0 1
-30.425037 -1.008316 0.273041 30.442966 0.033129 1.561827 0.001421 -0.013601 3605.160000 0 0 1
-31.769347 -0.655616 -0.000459 31.776112 0.020634 1.570811 0.010800 -0.017317 96320.400000 0 0 1
-32.271087 -1.370616 -1.095159 32.318741 0.042446 1.604689 0.018703 -0.020408 584524.000000 0 0 1
-33.804517 -1.076116 -1.229859 33.843995 0.031823 1.607143 0.030415 -0.022371 447400.000000 0 0 1
-34.677738 -1.724516 -0.336859 34.722226 0.049689 1.580498 0.026574 -0.022389 471710.000000 0 0 1
34.670592 -1.390716 -0.587559 34.703447 -0.040091 1.587728 0.051496 -0.024566 47931.600000 0 0 1
33.716961 -2.486116 -0.100559 33.808643 -0.073602 1.573771 0.051185 -0.021660 -685424.000000 0 0 1
33.705961 -2.733716 1.292441 33.841327 -0.080928 1.532596 0.039279 -0.027615 -186872.000000 0 0 1
32.946861 -3.800216 1.691841 33.208427 -0.114836 1.519828 0.045709 -0.018270 -598609.000000 0 0 1
33.344861 -4.368916 3.058141 33.768615 -0.130280 1.480110 0.038566 -0.021465 33259.900000 0 0 1
32.946851 -3.461616 4.079341 33.378418 -0.104683 1.448275 0.033670 -0.026672 340873.000000 0 0 1
33.088551 -4.090316 5.327641 33.763392 -0.122993 1.412341 0.035588 -0.025005 -234951.000000 0 0 1
32.615131 -3.205316 6.459041 33.402695 -0.097962 1.376202 0.033575 -0.018407 -318177.000000 0 0 1
31.225041 -3.003116 6.508841 32.037273 -0.095882 1.366207 0.054455 -0.019983 -169537.000000 0 0 1
31.023481 -1.895616 7.296641 31.926332 -0.061027 1.340212 0.036079 -0.014520 -622698.000000 0 0 1
29.599511 -1.659016 7.789041 30.652121 -0.055990 1.313868 0.053483 -0.015705 -1126640.000000 0 0 1
28.769971 -1.030416 6.842441 29.590403 -0.035800 1.337446 0.068880 -0.022532 1203410.000000 0 0 1
27.365021 -0.952316 7.164541 28.303390 -0.034786 1.314878 0.053872 -0.014846 1454160.000000 0 0 1
26.512661 -2.282816 7.150041 27.554591 -0.085891 1.308306 0.089261 -0.027383 -479220.000000 0 0 1
26.736151 -3.141716 8.200541 28.141446 -0.116972 1.275102 0.057683 -0.028246 299010.000000 0 0 1
26.071401 -4.383616 7.988041 27.617799 -0.166581 1.277368 0.069684 -0.037946 -229126.000000 0 0 1
26.290731 -5.434116 9.130441 28.356606 -0.203823 1.242969 0.044972 -0.023002 -282464.000000 0 0 1
25.538341 -5.361916 10.316141 28.060288 -0.206950 1.194324 0.042859 -0.021677 407606.000000 0 0 1
26.061831 -6.339416 11.220641 29.074215 -0.238611 1.174580 0.025437 -0.016443 -36159.500000 0 0 1
25.163741 -6.576316 12.454341 28.836997 -0.255624 1.124212 0.013217 -0.016892 -503726.000000 0 0 1
24.004441 -7.260616 12.133141 27.859340 -0.293721 1.120187 0.023956 -0.025424 -563536.000000 0 0 1
22.974241 -6.947916 13.061141 27.325495 -0.293677 1.072439 0.037114 -0.024268 583972.000000 0 0 1
21.836041 -8.016016 13.069241 26.680972 -0.351827 1.058897 0.039683 -0.028037 333081.000000 0 0 1
22.188741 -9.192716 13.823041 27.711418 -0.392770 1.048558 0.022486 -0.031640 59857.200000 0 0 1
21.153141 -10.118116 13.736341 27.175701 -0.446159 1.040877 0.049716 -0.042506 -261798.000000 0 0 1
21.597741 -11.329816 14.638641 28.444981 -0.483120 1.030220 0.028324 -0.040284 -75755.100000 0 0 1
21.436241 -11.025316 16.028341 28.947845 -0.475046 0.983999 0.015231 -0.035981 273071.000000 0 0 1
21.899141 -12.101116 16.803341 30.139039 -0.504825 0.979392 0.022097 -0.030712 -501609.000000 0 0 1
21.600841 -11.858916 18.267241 30.674457 -0.502077 0.932884 0.027180 -0.027770 196842.000000 0 0 1
20.249241 -12.062416 18.681141 30.075217 -0.537250 0.900590 0.018275 -0.025221 329064.000000 0 0 1
20.129841 -12.378916 20.068441 31.003070 -0.551342 0.866753 0.039851 -0.016561 220701.000000 0 0 1
20.418241 -11.261416 21.123441 31.463055 -0.504023 0.834737 0.016221 -0.011884 3355.180000 0 0 1
19.373641 -10.317816 21.261541 30.558933 -0.489363 0.801325 0.018527 -0.015651 45130.200000 0 0 1
19.434341 -9.248716 20.318741 29.598709 -0.444179 0.814168 0.014742 0.001212 -877653.000000 0 0 1
20.261041 -8.036216 20.897441 30.195920 -0.377601 0.806455 0.023178 0.017748 1526990.000000 0 0 1
21.672241 -8.238116 21.125941 31.366510 -0.363254 0.831837 0.027665 0.009094 1216740.000000 0 0 1
22.463741 -8.349016 19.969641 31.194748 -0.355845 0.876089 0.022226 0.004169 263497.000000 0 0 1
23.894341 -9.002016 20.109141 32.501590 -0.360298 0.903693 0.024143 0.001440 946845.000000 0 0 1
23.821941 -10.312116 20.483441 33.066538 -0.408529 0.902740 0.015158 -0.011230 -690817.000000 0 0 1
25.044941 -10.946316 20.352941 34.078044 -0.412047 0.930735 0.003788 -0.016170 -658249.000000 0 0 1
24.969141 -12.450216 20.589441 34.675509 -0.462546 0.935054 -0.011225 -0.019749 -225108.000000 0 0 1
24.140741 -13.142416 19.690141 33.811242 -0.498540 0.949174 0.003080 -0.028245 32318.100000 0 0 1
24.239341 -14.515116 20.024541 34.629705 -0.539555 0.954217 -0.006811 -0.028923 280863.000000 0 0 1
23.235641 -15.310916 19.124441 33.764825 -0.582635 0.968664 0.016670 -0.032577 -296595.000000 0 0 1
23.619241 -15.263516 17.739541 33.249583 -0.573722 1.008031 0.013840 -0.027403 477942.000000 0 0 1
22.636541 -15.761816 16.839741 32.317560 -0.608238 1.022691 0.004574 -0.017097 -139423.000000 0 0 1
22.446941 -17.318416 16.878041 32.994863 -0.657137 1.033826 0.013257 -0.023324 -304380.000000 0 0 1
23.639141 -17.973316 16.466841 33.955941 -0.650073 1.064493 0.021116 -0.018591 265491.000000 0 0 1
23.530441 -19.388116 16.644041 34.736217 -0.689180 1.071104 0.022450 -0.012805 -575877.000000 0 0 1
24.762941 -20.234716 16.371741 35.926047 -0.685103 1.097630 0.019504 -0.006146 -415128.000000 0 0 1
25.002441 -20.378716 14.989441 35.568208 -0.683862 1.135777 0.029268 -0.016416 163811.000000 0 0 1
25.952491 -21.391616 14.681541 36.697148 -0.689360 1.159200 0.029438 -0.012290 41743.600000 0 0 1
26.213481 -21.456016 13.139841 36.334042 -0.685927 1.200770 0.029353 -0.026969 215292.000000 0 0 1
25.020941 -21.782116 12.421341 35.423125 -0.716307 1.212525 0.014931 -0.016439 430089.000000 0 0 1
25.086141 -21.335016 11.087741 34.748171 -0.704767 1.246029 0.036959 -0.014510 -478088.000000 0 0 1
23.756041 -21.361816 10.353441 33.583782 -0.732382 1.257405 0.010463 -0.006253 -629325.000000 0 0 1
23.440241 -22.627916 9.914341 34.055273 -0.767767 1.275394 0.006987 -0.007845 908837.000000 0 0 1
22.034941 -22.794616 9.630941 33.134395 -0.802342 1.275877 -0.005397 -0.001430 827651.000000 0 0 1
21.673841 -23.879616 8.604141 33.376978 -0.833782 1.310066 -0.007512 0.000906 -383273.000000 0 0 1
21.890241 -25.231636 9.018541 34.599887 -0.856189 1.307099 -0.008245 0.001390 -2188.580000 0 0 1
21.796041 -26.095236 7.924841 34.911772 -0.874928 1.341804 0.000256 0.001394 489534.000000 0 0 1
20.340141 -26.642796 7.697541 34.392035 -0.918750 1.345067 0.001983 0.007719 982734.000000 0 0 1
19.409341 -25.594546 7.397141 32.962418 -0.921980 1.344457 -0.002631 0.017728 -428900.000000 0 0 1
18.095141 -26.094246 7.520541 32.632841 -0.964478 1.338247 0.011320 -0.002508 388928.000000 0 0 1
17.039541 -24.936816 7.491241 31.117671 -0.971361 1.327669 0.013955 -0.008050 185137.000000 0 0 1
16.788741 -24.354316 6.201541 30.223396 -0.967251 1.364138 0.025326 -0.006420 -127377.000000 0 0 1
15.835741 -23.323416 6.290441 28.884634 -0.974329 1.351259 0.024370 -0.005041 -98362.300000 0 0 1
15.707341 -22.414616 5.019141 27.826738 -0.959558 1.389433 0.041811 -0.003878 -211150.000000 0 0 1
15.145241 -21.129716 5.254541 26.522696 -0.948901 1.371362 0.058333 -0.005236 38219.700000 0 0 1
14.728541 -20.514116 4.061541 25.578409 -0.948111 1.411334 0.037488 -0.001924 -50323.000000 0 0 1
14.212441 -19.116716 4.141841 24.178444 -0.931496 1.398644 0.044572 0.003351 -313825.000000 0 1 0
15.175541 -18.139416 4.403541 24.056738 -0.874130 1.386710 0.033544 -0.001872 -482636.000000 0 1 0
14.673141 -16.873716 4.416841 22.793241 -0.855041 1.375784 0.033962 0.002841 -698244.000000 0 1 0
15.792841 -15.865816 4.513541 22.836593 -0.787703 1.371841 0.033075 0.002155 -552650.000000 0 1 0
16.391441 -15.724816 5.825541 23.449650 -0.764645 1.319740 0.045689 -0.009858 341110.000000 0 1 0
17.360941 -14.683516 5.936441 23.499984 -0.702038 1.315415 0.038719 -0.013498 432273.000000 0 1 0
18.785541 -15.107416 5.495841 24.725186 -0.677299 1.346647 0.057493 -0.022274 -648646.000000 0 1 0
19.558241 -13.962116 5.383741 24.626208 -0.619977 1.350398 0.052547 -0.025542 1167760.000000 0 1 0
20.961541 -14.313416 5.154841 25.900434 -0.599117 1.370433 0.052982 -0.024150 1635600.000000 0 0 1
21.893541 -13.072716 5.176441 26.019581 -0.538287 1.370516 0.049432 -0.027063 -538497.000000 0 0 1
22.048641 -12.685216 6.535141 26.263384 -0.522081 1.319323 0.065557 -0.031235 272066.000000 0 0 1
23.097641 -11.759816 6.700841 26.771170 -0.470929 1.317806 0.065785 -0.026452 -136790.000000 0 0 1
23.157841 -11.087916 8.067141 26.912938 -0.446542 1.266366 0.061724 -0.033163 -145895.000000 0 0 1
23.288441 -11.922416 9.173441 27.724493 -0.473158 1.233562 0.042133 -0.029880 331501.000000 0 0 1
23.395741 -11.272616 10.448241 27.992826 -0.449001 1.188290 0.044902 -0.033608 -204041.000000 0 0 1
23.742641 -12.242816 11.584241 29.116905 -0.476087 1.161621 0.023138 -0.026192 -1030720.000000 0 0 1
22.819741 -13.225216 11.841941 28.911563 -0.525248 1.148790 0.034648 -0.027316 -161158.000000 0 0 1
23.318141 -14.179116 12.788741 30.138595 -0.546334 1.132573 0.035153 -0.026643 379914.000000 0 0 1
22.193241 -15.199916 13.165041 29.948217 -0.600513 1.115650 0.031829 -0.028093 198980.000000 0 0 1
21.090141 -14.609816 13.793641 29.129114 -0.605831 1.077497 0.029446 -0.035465 -783973.000000 0 0 1
20.070641 -15.525716 13.923041 28.943558 -0.658406 1.068954 0.017701 -0.031832 -350098.000000 0 0 1
18.697841 -15.042516 14.444341 28.009383 -0.677482 1.028976 0.023377 -0.030956 -166527.000000 0 0 1
18.694241 -14.609416 15.787041 28.498076 -0.663354 0.983673 0.016495 -0.029102 161897.000000 0 0 1
18.560241 -13.189016 15.856741 27.746512 -0.617809 0.962481 0.020125 -0.038746 1133260.000000 0 0 1
17.012741 -12.782516 15.920341 26.575991 -0.644364 0.928483 0.032622 -0.034589 1284180.000000 0 0 1
16.411841 -12.910316 14.622041 25.491741 -0.666545 0.959903 0.036948 -0.045923 471473.000000 0 0 1
14.986441 -12.863916 14.582841 24.550621 -0.709333 0.934786 0.053410 -0.033772 601140.000000 0 1 0
14.521741 -11.466116 14.170241 23.305547 -0.668357 0.917232 0.040661 -0.033856 -464822.000000 0 1 0
14.848141 -10.467916 15.076241 23.607998 -0.614073 0.878109 0.028387 -0.026458 -106773.000000 0 1 0
14.573841 -9.188216 14.654841 22.618234 -0.562516 0.865944 0.034895 -0.024956 -1223790.000000 0 1 0
15.104641 -8.058816 15.647141 23.193269 -0.490112 0.830317 0.038609 -0.018687 -947726.000000 0 1 0
16.479441 -7.969616 15.704641 24.118924 -0.450450 0.861719 0.030120 -0.020171 -1087380.000000 0 1 0
17.006041 -8.925216 16.569641 25.365684 -0.483311 0.858953 0.027931 -0.020360 -1317470.000000 0 0 1
18.535241 -8.911716 16.534741 26.388852 -0.448169 0.893638 0.021934 -0.017916 -411418.000000 0 0 1
19.207941 -7.795416 17.037441 26.832590 -0.385534 0.882848 0.014360 -0.012457 449283.000000 0 0 1
20.588541 -7.759716 16.712541 27.629879 -0.360431 0.921191 0.016722 -0.006086 244754.000000 0 0 1
21.231141 -6.323916 16.863141 27.840955 -0.289493 0.920157 0.027899 0.006880 -134742.000000 0 0 1
21.520841 -6.048416 18.238241 28.850708 -0.273981 0.886460 0.024155 0.007376 539781.000000 0 0 1
22.192541 -4.798316 18.441141 29.250784 -0.212935 0.888664 0.026451 0.007022 65869.100000 0 0 1
-5.599077 -33.698933 -6.151155 34.710293 1.406150 1.748951 -0.007225 -0.008551 -516023.000000 0 0 1
-6.305877 -32.487733 -6.261355 33.681173 1.379080 1.757785 -0.004749 -0.011728 -61987.000000 0 0 1
-5.829377 -31.500033 -5.384355 32.484227 1.387807 1.737318 -0.001215 -0.011969 -272435.000000 0 0 1
-6.541977 -30.117133 -5.634155 31.330223 1.356901 1.751611 0.004415 -0.013082 1299320.000000 0 0 1
-7.929177 -29.901233 -5.327855 31.390152 1.311583 1.741352 -0.002120 -0.008013 883839.000000 0 0 1
-8.809677 -30.503633 -6.272655 32.363996 1.289639 1.765847 -0.002466 -0.013150 -131750.000000 0 0 1
-10.294077 -30.263533 -5.892755 32.504984 1.242925 1.753092 -0.006645 0.001908 566210.000000 0 0 1
-11.180677 -30.989233 -6.755055 33.629910 1.224540 1.773037 0.001133 -0.004516 -159070.000000 0 0 1
-12.524177 -30.788633 -6.407855 33.850488 1.184459 1.761244 0.011041 0.001512 168370.000000 0 0 1
-13.585577 -31.352733 -7.393355 34.960313 1.161905 1.783884 0.022196 -0.008473 221222.000000 0 0 1
-13.541577 -30.767133 -8.721755 34.728372 1.156179 1.824656 0.028569 -0.011711 -414620.000000 0 0 1
-14.712177 -31.061533 -9.420555 35.637254 1.128453 1.838322 0.038425 -0.008702 -261484.000000 0 0 1
-14.917377 -30.134833 -10.636155 35.267040 1.111140 1.877155 0.032079 -0.002738 -180013.000000 0 0 1
-15.254877 -28.730633 -10.431355 34.160997 1.082687 1.881111 0.032947 -0.006173 576578.000000 0 0 1
-14.147677 -27.983633 -9.920255 32.888477 1.102703 1.877201 0.017782 -0.006235 262847.000000 0 0 1
-14.554877 -26.595933 -9.502955 31.772539 1.070060 1.874539 0.014144 0.015830 -49213.300000 0 0 1
-14.662677 -25.642933 -10.558055 31.369199 1.051369 1.914073 0.020487 0.011411 128864.000000 0 0 1
-15.085477 -24.413033 -9.975255 30.382125 1.017299 1.905328 0.030940 0.016035 -17778.500000 0 0 1
-15.531277 -23.275633 -10.934755 30.042379 0.982372 1.943331 0.027994 0.004320 158941.000000 0 0 1
-16.803677 -23.551333 -11.498155 31.132562 0.951073 1.949083 0.031272 0.008978 115933.000000 0 0 1
-17.252877 -22.752633 -12.617855 31.217853 0.922017 1.986886 0.043282 -0.000379 -553034.000000 0 0 1
-18.551477 -23.297833 -13.183355 32.569114 0.898331 1.987536 0.022517 0.005626 -598031.000000 0 0 1
-18.598277 -24.589333 -13.739455 33.753575 0.923240 1.990020 0.038506 0.002092 -125638.000000 0 0 1
-18.655677 -25.580333 -12.702455 34.113635 0.940677 1.952344 0.042998 -0.003731 -1090740.000000 0 0 1
-18.973577 -27.075533 -13.082455 35.556037 0.959557 1.947588 0.039046 -0.012126 -178842.000000 0 0 1
-18.115877 -27.862733 -13.886255 36.018675 0.994292 1.966578 0.045783 -0.011222 -41194.900000 0 0 1
-16.742377 -27.762333 -13.549955 35.137666 1.028129 1.966681 0.049662 -0.016560 -428622.000000 0 0 1
-16.010177 -29.035633 -13.997055 35.990433 1.066881 1.970245 0.043332 -0.018736 -293022.000000 0 0 1
-15.759677 -29.202833 -15.412155 36.588351 1.075924 2.005599 0.062679 -0.021040 -318586.000000 0 0 1
-15.153177 -30.387833 -15.784455 37.445803 1.108222 2.005926 0.058558 -0.018047 -131940.000000 0 0 1
-15.938177 -31.725833 -15.586055 38.774722 1.105253 1.984457 0.062513 -0.021638 81471.800000 0 0 1
-16.327277 -31.879533 -14.192455 38.526749 1.097472 1.948061 0.061385 -0.024537 15606.300000 0 0 1
-16.529477 -33.245633 -13.958555 39.665312 1.109397 1.930405 0.041924 -0.019405 -970697.000000 0 0 1
-17.108577 -33.538533 -12.577355 39.695421 1.099088 1.893199 0.047115 -0.025292 746710.000000 0 0 1
-18.498177 -33.190633 -12.435455 39.980510 1.062342 1.887081 0.045851 -0.017612 1030630.000000 0 0 1
-18.950077 -31.824533 -12.497255 39.090762 1.033725 1.896208 0.046354 -0.016136 -808337.000000 0 0 1
-18.541977 -30.909533 -11.361455 37.792682 1.030466 1.876145 0.055748 -0.016917 -494358.000000 0 0 1
-18.762177 -31.353533 -10.060055 37.898127 1.031549 1.839467 0.045743 -0.016753 275457.000000 0 0 1
-18.441377 -30.329733 -9.076555 36.638244 1.024494 1.821137 0.046600 -0.005336 -271810.000000 0 0 1
-18.648577 -30.793133 -7.619855 36.797400 1.026263 1.779381 0.036372 -0.000848 -435887.000000 0 0 1
-17.578477 -31.562833 -7.164155 36.831242 1.062644 1.766557 0.035476 -0.008421 -213686.000000 0 0 1
-17.699877 -31.739833 -5.769855 36.796656 1.062095 1.728250 0.032877 -0.017603 -391849.000000 0 0 1
-16.741377 -32.809733 -5.240955 37.205106 1.098977 1.712133 0.033718 -0.011338 228119.000000 0 0 1
-15.486077 -32.330433 -4.781655 36.165449 1.124094 1.703401 0.036577 -0.007318 224976.000000 0 0 1
-15.520477 -31.751433 -3.494455 35.514081 1.116139 1.669352 0.026879 -0.002652 -186859.000000 0 0 1
-14.147677 -31.135933 -3.115155 34.341044 1.144302 1.661633 0.030545 0.001671 444914.000000 0 0 1
-13.085177 -32.057933 -2.974655 34.753151 1.183264 1.656495 0.008592 0.007885 -591938.000000 0 0 1
-11.941977 -31.387733 -2.520255 33.677177 1.207242 1.645702 0.003509 0.010479 376202.000000 0 0 1
-10.609677 -32.191233 -2.647655 33.997806 1.252425 1.648752 0.010555 -0.001277 27967.300000 0 0 1
-10.580777 -33.304233 -1.781955 34.990001 1.263181 1.621746 0.015262 0.000783 -234762.000000 0 0 1
-9.299777 -33.869633 -1.605755 35.159868 1.302825 1.616482 -0.005059 -0.002415 573782.000000 0 0 1
-8.251077 -33.133133 -0.718555 34.152615 1.326733 1.591837 -0.009827 -0.001194 -364183.000000 0 0 1
-8.691577 -33.129333 0.617745 34.256062 1.314226 1.552762 0.002892 -0.003230 -369941.000000 0 0 1
-7.805277 -32.668933 1.604245 33.626703 1.336272 1.523071 -0.002065 -0.006853 298549.000000 0 0 1
-6.829377 -33.780033 2.136245 34.529618 1.371313 1.508890 0.006301 -0.007990 304435.000000 0 0 1
-7.556677 34.340184 2.918645 35.282716 -1.354195 1.487980 0.026322 -0.014956 274743.000000 0 0 1
-6.749277 33.355084 3.562245 34.217013 -1.371146 1.466500 0.025138 -0.014415 81159.200000 0 0 1
-5.832777 33.795084 4.754945 34.622803 -1.399888 1.433025 0.032953 -0.018085 -589156.000000 0 0 1
-4.749077 34.540884 4.394445 35.141678 -1.434162 1.445419 0.030632 -0.015298 -1235930.000000 0 0 1
-4.123177 -34.099433 5.567945 34.796177 1.450464 1.410089 0.016469 -0.017580 52893.500000 0 0 1
-3.055277 -33.011733 5.289545 33.572139 1.478508 1.412579 0.028223 -0.011617 50800.000000 0 0 1
-3.566477 -31.760333 4.804345 32.319038 1.458971 1.421590 0.016637 -0.004119 156400.000000 0 0 1
-3.610677 -31.759533 3.394345 32.143841 1.457594 1.465000 0.010105 -0.009473 -163635.000000 0 0 1
-4.211977 -30.508233 2.756945 30.920766 1.433603 1.481516 0.004698 -0.005269 98449.400000 0 0 1
-3.403977 -29.355033 3.018445 29.705488 1.455353 1.469008 0.007240 0.001578 -66409.400000 0 0 1
-3.702977 -28.187433 2.291145 28.521794 1.440175 1.490380 0.001222 -0.000884 159850.000000 0 0 1
-2.883977 -26.874933 2.573045 27.151425 1.463894 1.475887 0.004631 -0.007049 -152573.000000 0 0 1
-3.158377 -25.848633 1.678845 26.094936 1.449212 1.506416 0.007217 -0.009480 -389768.000000 0 0 1
-2.859777 -24.614733 2.262445 24.883369 1.455133 1.479749 0.000016 -0.010366 444601.000000 0 1 0
-3.969277 -24.030033 3.234245 24.569452 1.407095 1.438776 0.000111 -0.009640 335015.000000 0 1 0
-4.284977 -24.909033 4.278445 25.634470 1.400439 1.403110 0.012979 -0.006006 -159264.000000 0 0 1
-4.912977 -24.136633 5.323845 25.200351 1.369991 1.357932 -0.003619 0.000853 -57706.700000 0 0 1
-5.556377 -25.035433 6.359745 26.421442 1.352396 1.327705 -0.000591 0.004390 -381971.000000 0 0 1
-4.669977 -25.610933 7.272445 27.029928 1.390435 1.298388 -0.009936 -0.001724 -174655.000000 0 0 1
-5.375977 -26.487633 8.158745 28.232268 1.370555 1.277628 -0.005474 -0.001108 1162800.000000 0 0 1
-4.353777 -27.055333 9.252345 28.923214 1.411243 1.245179 -0.008426 0.000918 493390.000000 0 0 1
-4.088977 -26.211333 10.353245 28.477068 1.416043 1.198705 -0.010898 0.003168 -621772.000000 0 0 1
-5.084677 -25.901533 11.294945 28.710958 1.376953 1.166467 0.000917 0.003007 -258193.000000 0 0 1
-4.587477 -24.925933 12.458745 28.241236 1.388789 1.113912 -0.019930 0.002914 213527.000000 0 0 1
-3.786377 -25.585633 13.405545 29.131939 1.423874 1.092614 -0.028004 0.005246 -535892.000000 0 0 1
-3.316477 -24.757633 14.430845 28.847681 1.437631 1.046917 -0.019092 0.004622 30875.700000 0 0 1
-2.093977 -25.435533 15.067845 29.637662 1.488657 1.037468 0.006174 -0.002184 167475.000000 0 0 1
-2.558977 -26.088333 16.232545 30.832531 1.473020 1.016348 -0.005006 0.001203 -25209.600000 0 0 1
-1.465777 -26.384033 17.058445 31.452444 1.515298 0.997557 -0.001345 -0.000499 -104970.000000 0 0 1
-1.863677 -26.850133 18.500045 32.659678 1.501497 0.968606 -0.005749 -0.013408 113302.000000 0 0 1
-2.201277 -25.768833 19.384845 32.321055 1.485579 0.927596 -0.000353 -0.007383 -215271.000000 0 0 1
-2.391877 -26.206933 20.687845 33.474040 1.479780 0.904566 0.008888 -0.013867 17541.800000 0 0 1
-3.111477 -25.131633 21.515245 33.229295 1.447616 0.866526 0.027762 -0.008456 -199574.000000 0 0 1
-3.058377 -25.359333 22.908145 34.310822 1.450774 0.839728 0.041295 -0.009957 -77455.900000 0 0 1
-3.352277 -24.251333 23.760245 34.116186 1.433436 0.800357 0.032486 -0.005534 -322011.000000 0 0 1
-2.339877 -23.111633 23.826245 33.276306 1.469898 0.772723 0.030834 -0.003472 -259235.000000 0 0 1
-2.330777 -22.422333 22.577445 31.905087 1.467219 0.784638 0.025152 -0.002705 420095.000000 0 0 1
-1.161277 -21.608733 22.368345 31.122801 1.517107 0.768848 0.020395 -0.007434 6267.310000 0 0 1
-1.416977 -20.516633 21.335345 29.633376 1.501841 0.767027 0.014669 0.007443 -346259.000000 0 0 1
-2.191477 -19.437933 21.774445 29.270501 1.458528 0.731903 0.021649 -0.005376 -155400.000000 0 0 1
-3.535177 -19.671133 22.121445 29.812904 1.392980 0.734734 0.016990 -0.006917 -738509.000000 0 0 1
-4.561577 -19.561333 20.975045 29.041457 1.341697 0.763754 0.008770 -0.011938 -564454.000000 0 0 1
-4.382277 -20.550133 20.004045 29.011621 1.360695 0.809972 0.009129 -0.008174 -9577.500000 0 0 1
-5.056677 -21.797133 20.243345 30.174128 1.342840 0.835396 0.012516 -0.001772 108011.000000 0 0 1
-4.879777 -22.722633 19.006945 30.023228 1.359255 0.885278 -0.002279 0.003444 -228080.000000 0 0 1
-5.600677 -23.904933 19.087745 31.099122 1.340658 0.909968 -0.004205 -0.000571 -520330.000000 0 0 1
-5.360577 -24.643833 17.932645 30.945663 1.356611 0.952696 -0.003654 -0.004305 174345.000000 0 0 1
-6.032077 -26.044833 17.893245 32.169667 1.343205 0.980972 0.004911 -0.008564 759044.000000 0 0 1
-7.451777 -25.966033 17.890845 32.401330 1.291325 0.985839 0.022111 -0.008389 -121997.000000 0 0 1
-8.080977 -27.228233 17.846845 33.543833 1.282290 1.009782 0.028735 -0.015612 239074.000000 0 0 1
-9.589277 -27.164533 18.184145 34.066541 1.231445 1.007728 0.035384 -0.011371 -301200.000000 0 0 1
-10.280377 -26.667933 17.082045 33.296562 1.202856 1.032088 0.036756 -0.011397 348389.000000 0 0 1
-11.700977 -26.506433 17.205945 33.697899 1.155084 1.034921 0.034070 -0.012494 1111440.000000 0 0 1
-12.250377 -25.379733 18.123945 33.506417 1.121098 0.999278 0.034458 -0.013294 -550632.000000 0 0 1
-12.038177 -24.018633 17.704645 32.175564 1.106188 0.988131 0.027418 -0.015494 -52831.200000 0 0 1
-12.263577 -23.072333 18.737045 32.152834 1.082246 0.948688 0.022254 -0.000839 1000110.000000 0 0 1
-10.913977 -22.552333 19.402145 31.688576 1.120079 0.911861 0.018972 0.000692 1266570.000000 0 0 1
-10.337877 -23.336633 20.452845 32.707629 1.153788 0.895250 0.027387 -0.000250 -916265.000000 0 0 1
-9.005077 -23.545533 20.166945 32.282955 1.205507 0.896058 0.012148 -0.002379 -832834.000000 0 0 1
-8.234577 -24.357433 21.219445 33.337031 1.244787 0.880828 0.002591 0.000043 -47522.900000 0 0 1
-8.212077 -23.750233 22.496345 33.728286 1.237896 0.840638 0.006690 0.000291 -48367.300000 0 0 1
-7.633877 -24.679133 23.369145 34.834647 1.270806 0.835429 -0.003927 0.006608 -3111.680000 0 0 1
-7.488477 -24.242233 24.830045 35.500624 1.271193 0.796203 -0.004191 0.003948 57451.700000 0 0 1
-6.724477 -25.165433 25.597745 36.520708 1.309686 0.794123 0.005177 0.003373 -40905.500000 0 0 1
-6.592077 -24.780433 26.918545 37.177055 1.310798 0.761121 0.011819 0.000716 540346.000000 0 0 1
-5.278777 -25.303833 27.619445 37.828338 1.365130 0.752290 0.012297 -0.006183 820529.000000 0 0 1
-4.147877 -24.538133 27.245345 36.900321 1.403341 0.740176 0.014292 -0.006947 -695500.000000 0 0 1
-3.026777 -24.839733 28.006545 37.557160 1.449542 0.729205 0.025152 -0.006251 -187857.000000 0 0 1
-1.788277 -24.022033 27.553145 36.598248 1.496490 0.718408 0.022980 -0.005448 -453922.000000 0 0 1
-1.872777 -22.605333 27.671345 35.780046 1.488138 0.686651 0.020088 -0.004134 -561688.000000 0 0 1
-0.718277 -21.915833 27.331945 35.040760 1.538034 0.676124 0.015724 -0.000171 -76001.000000 0 0 1
0.400323 -21.771733 28.417345 35.801035 -1.552411 0.653834 0.024913 -0.009466 159475.000000 0 0 1
0.973123 -22.978533 28.902945 36.936976 -1.528472 0.672136 0.028407 -0.002439 123161.000000 0 0 1
1.997123 -22.688133 29.827845 37.529191 -1.482998 0.652134 0.025071 -0.004566 113177.000000 0 0 1
2.694323 -23.890533 30.489045 38.827810 -1.458493 0.667717 0.033049 -0.013367 -545112.000000 0 0 1
3.342623 -24.772233 29.600745 38.743267 -1.436672 0.701271 0.023193 -0.011061 290732.000000 0 0 1
3.948823 -25.907333 30.286445 40.050616 -1.419539 0.713304 -0.006037 -0.004990 -800767.000000 0 0 1
5.313323 -25.612033 30.927745 40.505963 -1.366244 0.702026 -0.015897 -0.012537 488876.000000 0 0 1
6.387923 -25.129633 30.051445 39.691225 -1.321870 0.711887 -0.025106 -0.004813 1077590.000000 0 0 1
6.667023 -25.885533 28.914245 39.376942 -1.318717 0.746171 -0.025346 0.003312 -1128240.000000 0 0 1
7.853423 -25.451333 28.026845 38.664591 -1.271499 0.759949 -0.024913 0.002259 -187701.000000 0 0 1
7.648923 -24.278433 27.263845 37.299672 -1.265590 0.751097 -0.014511 0.004035 -112971.000000 0 0 1
8.786623 -23.996833 26.476945 36.797844 -1.219800 0.767679 -0.027278 0.011134 -262686.000000 0 0 1
8.793723 -22.783533 25.536545 35.334601 -1.202444 0.763086 -0.000105 0.012785 -351782.000000 0 0 1
7.888323 -22.930833 24.483345 34.459874 -1.239472 0.780604 0.000686 0.014425 -154948.000000 0 0 1
7.846723 -21.755233 23.679045 33.099220 -1.224637 0.773606 0.002066 0.025135 -71117.500000 0 0 1
7.052023 -21.932233 22.363945 32.107630 -1.259700 0.800246 0.014270 0.022545 4206.520000 0 0 1
7.722323 -22.836733 21.536745 32.326182 -1.244714 0.841651 0.019243 0.020553 -181385.000000 0 0 1
7.259523 -22.889333 20.219545 31.391913 -1.263674 0.870950 0.031889 0.011562 337308.000000 0 0 1
8.094123 -23.914033 19.297745 31.777331 -1.244432 0.918164 0.045590 -0.005919 628296.000000 0 0 1
9.447923 -23.530833 19.179645 31.793429 -1.188987 0.923216 0.034165 -0.005053 -566527.000000 0 0 1
10.114623 -24.398533 18.309145 32.137498 -1.177803 0.964640 0.047666 -0.011183 74467.500000 0 0 1
11.495623 -23.895333 17.838045 31.958287 -1.122397 0.978622 0.032794 -0.010074 -14568.400000 0 0 1
11.474223 -22.737933 17.016145 30.630386 -1.103452 0.981794 0.033839 -0.012168 -669086.000000 0 0 1
12.563723 -22.646033 16.169245 30.530876 -1.064285 1.012664 0.042321 -0.012763 -975196.000000 0 0 1
-12.016677 22.683084 11.524845 28.137961 -1.083622 1.148799 0.010775 0.000825 -251595.000000 0 0 1
-13.021677 21.716984 11.243045 27.705550 -1.030665 1.152937 0.005075 -0.006527 29180.400000 0 0 1
-12.522777 20.561884 10.587445 26.300285 -1.023765 1.156484 0.023627 -0.014834 -460938.000000 0 0 1
-13.594177 19.868984 9.751145 25.974276 -0.970759 1.185951 0.023322 -0.013211 -743395.000000 0 0 1
-14.004077 20.672184 8.664045 26.429511 -0.975375 1.236804 0.024849 -0.014959 -422028.000000 0 0 1
-14.682977 19.962884 7.699745 25.949810 -0.936631 1.269544 0.024583 -0.012917 -929258.000000 0 0 1
-16.186677 19.882384 7.862245 26.816648 -0.887504 1.273240 0.003774 -0.011820 -1254590.000000 0 0 1
-16.557077 18.985684 8.840945 26.697478 -0.853621 1.233271 -0.002439 -0.018362 521343.000000 0 0 1
-17.984577 18.901784 8.928045 27.575939 -0.810259 1.241093 0.018203 -0.017602 636100.000000 0 0 1
-18.521777 17.755184 9.814745 27.470566 -0.764270 1.205440 0.011010 -0.015089 -264954.000000 0 0 1
-18.635877 16.491284 9.246645 26.547294 -0.724422 1.215030 0.017734 -0.015065 -33558.500000 0 0 1
-18.895977 15.505284 10.230345 26.497769 -0.687152 1.174414 0.021409 -0.019946 -158624.000000 0 0 1
-17.715177 15.037784 11.159345 25.777770 -0.703834 1.123083 0.017249 -0.013490 129107.000000 0 0 1
-16.882377 14.159184 10.439245 24.381858 -0.697895 1.128345 0.007084 -0.007206 -541308.000000 0 1 0
-16.303077 13.198684 11.284045 23.818591 -0.680557 1.077253 0.005643 -0.009820 242548.000000 0 1 0
-17.241977 12.106184 11.969045 24.230219 -0.612157 1.054144 0.018967 -0.014522 344971.000000 0 1 0
-17.926877 11.314984 11.025045 23.894631 -0.563027 1.091221 0.005865 -0.015066 68694.300000 0 1 0
-18.900977 10.516784 11.680345 24.582110 -0.507755 1.075655 0.020630 -0.017874 54433.100000 0 1 0
-19.915777 9.840584 10.722245 24.666613 -0.458924 1.121106 0.028950 -0.014083 -607318.000000 0 1 0
-19.460577 8.856084 9.844845 23.538591 -0.427069 1.139286 0.025112 -0.013705 207663.000000 0 1 0
-18.950277 9.489984 8.647345 22.889941 -0.464274 1.183400 0.025672 -0.012204 -952444.000000 0 1 0
-19.998177 9.709984 7.584845 23.489163 -0.452016 1.241996 0.041620 -0.029695 -404139.000000 0 1 0
-20.438977 8.491484 7.021645 23.219832 -0.393759 1.263588 0.033695 -0.035656 -88053.400000 0 1 0
-21.236477 8.684384 5.919445 23.694859 -0.388187 1.318302 0.038910 -0.029979 -469550.000000 0 1 0
-21.534077 7.285384 5.287245 23.339843 -0.326231 1.342280 0.049109 -0.015765 -625993.000000 0 1 0
-22.326977 6.453884 6.080745 24.023363 -0.281392 1.314895 0.043606 -0.009643 114118.000000 0 1 0
-22.019877 5.118384 5.784845 23.335323 -0.228388 1.320284 0.038645 -0.003547 -967789.000000 0 1 0
-23.144877 4.156384 6.071345 24.286253 -0.177687 1.318125 0.067865 0.003383 -1522140.000000 0 1 0
-24.261977 4.498884 5.343245 25.247451 -0.183347 1.357549 0.066063 0.003671 -912390.000000 0 0 1
-25.005477 3.332484 5.232745 25.763559 -0.132489 1.366267 0.059115 0.002002 -303127.000000 0 0 1
-26.118617 3.245884 4.141145 26.643330 -0.123641 1.414735 0.056232 0.002443 -56954.600000 0 0 1
-25.557197 3.212784 2.847245 25.915230 -0.125054 1.460706 0.047458 0.003830 276686.000000 0 0 1
-26.489537 3.033884 1.793545 26.722965 -0.114035 1.503630 0.036023 0.004460 -417075.000000 0 0 1
-25.973557 3.167984 0.373245 26.168705 -0.121370 1.556533 0.046107 0.000089 -345207.000000 0 0 1
-25.508947 4.470284 0.030245 25.897698 -0.173482 1.569628 0.052928 -0.003568 425288.000000 0 0 1
-25.396217 4.726484 -1.370655 25.868634 -0.184005 1.623806 0.069018 -0.001357 -952808.000000 0 0 1
-26.661817 5.146084 -2.091255 27.234317 -0.190669 1.647659 0.058654 -0.011027 -118993.000000 0 0 1
-27.658377 4.145484 -2.248255 28.057540 -0.148774 1.651012 0.031229 -0.005035 7891.910000 0 0 1
-28.929297 4.625484 -2.547255 29.407276 -0.158547 1.657525 0.009190 0.005655 23929.000000 0 0 1
-30.047627 3.522784 -2.665955 30.370664 -0.116707 1.658690 0.001489 0.010361 -141586.000000 0 0 1
-29.993767 2.682584 -3.777855 30.349539 -0.089201 1.695598 0.003554 0.007298 599703.000000 0 0 1
-30.975427 1.634584 -3.805155 31.251051 -0.052721 1.692860 0.014458 0.000699 233801.000000 0 0 1
-31.186607 1.000184 -5.163555 31.627000 -0.032060 1.734795 0.019976 -0.002871 -504827.000000 0 0 1
-30.004857 0.383184 -5.596655 30.524758 -0.012770 1.755187 0.025617 -0.003072 83585.700000 0 0 1
-30.026537 -0.254016 -6.859055 30.801041 0.008460 1.795368 0.037298 -0.009182 -251473.000000 0 0 1
-30.273327 0.640784 -8.096455 31.343860 -0.021163 1.832069 0.038790 -0.008543 -283408.000000 0 0 1
-31.645697 0.844384 -8.349055 32.739424 -0.026676 1.828660 0.034258 -0.009457 240269.000000 0 0 1
-31.858257 1.546084 -9.542555 33.292631 -0.048492 1.861500 0.065200 -0.014906 -1118980.000000 0 0 1
-33.315367 1.899484 -9.742555 34.762611 -0.056954 1.854861 0.087577 -0.019454 -837201.000000 0 0 1
-33.641727 2.834184 -8.722355 34.869441 -0.084048 1.823625 0.060524 -0.012294 -416198.000000 0 0 1
-34.889788 2.548184 -8.186355 35.927802 -0.072906 1.800671 0.063316 -0.014787 -828837.000000 0 0 1
-35.341308 3.531884 -7.109655 36.221947 -0.099606 1.768359 0.079810 -0.006920 -79115.800000 0 0 1
33.985971 3.395084 -6.843155 34.833914 0.099566 1.768533 0.088920 -0.010987 386799.000000 0 0 1
33.542351 4.140884 -5.726055 34.278622 0.122831 1.738628 0.085037 -0.018848 -198334.000000 0 0 1
32.137911 3.706684 -5.281855 32.779304 0.114829 1.732636 0.073269 -0.020436 -180985.000000 0 0 1
31.984311 2.548684 -4.532355 32.404231 0.079517 1.711126 0.086978 -0.024604 -59521.500000 0 0 1
30.671611 2.043184 -4.606955 31.082895 0.066517 1.719560 0.083224 -0.026931 -97084.700000 0 0 1
30.455811 0.779184 -3.777855 30.699116 0.025578 1.694170 0.078251 -0.015952 -270022.000000 0 0 1
31.018011 -0.364916 -4.373055 31.326886 -0.011764 1.710848 0.075153 -0.023451 266702.000000 0 0 1
30.994911 -1.495616 -3.513355 31.229233 -0.048216 1.683537 0.072886 -0.019712 23052.300000 0 0 1
32.289211 -2.312216 -3.721255 32.585076 -0.071488 1.685247 0.069028 -0.023960 -22371.800000 0 0 1
32.283871 -3.620316 -3.091955 32.633038 -0.111674 1.665688 0.050497 -0.014660 -464620.000000 0 0 1
33.473491 -4.317416 -3.290855 33.910830 -0.128272 1.667994 0.058215 -0.018947 -389299.000000 0 0 1
33.449091 -5.743016 -2.766955 34.051137 -0.170036 1.652145 0.059847 -0.016332 -353500.000000 0 0 1
33.422751 -5.764816 -1.347555 33.943030 -0.170801 1.610507 0.062830 -0.017586 43880.400000 0 0 1
33.616401 -7.107316 -0.889255 34.371021 -0.208356 1.596671 0.071558 -0.013729 -428726.000000 0 0 1
33.051591 -7.332516 0.480845 33.858598 -0.218315 1.556594 0.059219 -0.009077 -1320410.000000 0 0 1
31.677771 -7.296316 0.516545 32.511293 -0.226381 1.554907 0.051027 -0.018418 -1062370.000000 0 0 1
31.037941 -7.526216 1.771045 31.986470 -0.237893 1.515399 0.050791 -0.015583 -228857.000000 0 0 1
31.021801 -9.014916 2.291445 32.386286 -0.282810 1.499984 0.050703 -0.015807 340942.000000 0 0 1
29.938561 -9.819116 1.749445 31.556188 -0.316921 1.515329 0.050970 -0.023764 1052080.000000 0 0 1
28.750221 -9.590216 2.492145 30.409838 -0.321964 1.488752 0.045405 -0.027690 172539.000000 0 0 1
27.570281 -10.625916 2.278645 29.634822 -0.367868 1.493830 0.042658 -0.026895 1073060.000000 0 0 1
26.260511 -10.267916 2.745945 28.329927 -0.372726 1.473717 0.049810 -0.032017 1585450.000000 0 0 1
25.492441 -9.190216 2.123745 27.181518 -0.346005 1.492585 0.049994 -0.025287 65291.000000 0 0 1
24.878941 -9.552716 0.775745 26.661168 -0.366610 1.541696 0.048918 -0.021886 -694013.000000 0 0 1
25.847811 -9.783916 -0.240455 27.638599 -0.361853 1.579496 0.047147 -0.020786 157312.000000 0 0 1
25.346741 -9.972916 -1.543955 27.281864 -0.374855 1.627419 0.045595 -0.006584 -68069.700000 0 0 1
24.580841 -11.311116 -1.905255 27.125432 -0.431271 1.641093 0.040268 0.000469 23049.000000 0 0 1
23.293041 -11.371016 -1.341155 25.955047 -0.454141 1.622492 0.029952 -0.001399 -282289.000000 0 0 1
22.765541 -12.639516 -1.502755 26.082283 -0.506830 1.628444 0.017678 -0.003865 -104789.000000 0 0 1
21.250641 -12.818116 -1.226555 24.847500 -0.542760 1.620180 0.010628 -0.005021 -75551.000000 0 1 0
20.489941 -12.345416 -2.320755 24.033994 -0.542264 1.667508 0.013213 0.003048 256666.000000 0 1 0
19.120941 -12.581016 -2.026755 22.978252 -0.581958 1.659114 0.008652 0.003011 478821.000000 0 1 0
18.100341 -12.073816 -3.099055 21.977341 -0.588267 1.712279 0.000171 0.007425 95843.500000 0 1 0
18.296941 -12.646316 -4.393955 22.671881 -0.604776 1.765837 0.001339 -0.001523 54863.200000 0 1 0
17.342441 -12.246216 -5.333755 21.890158 -0.614836 1.816934 0.002354 -0.003995 -679176.000000 0 1 0
17.400641 -12.805816 -6.729855 22.628791 -0.634441 1.872767 -0.003551 -0.010308 -470117.000000 0 1 0
16.866841 -14.134816 -6.835755 23.043674 -0.697500 1.871972 0.002893 -0.004678 565415.000000 0 1 0
16.747541 -14.507316 -8.199655 23.625763 -0.713844 1.925235 -0.005279 -0.011897 -394301.000000 0 1 0
16.000141 -15.835716 -8.455755 24.047333 -0.780233 1.930108 0.005365 -0.014268 -1067760.000000 0 1 0
14.626941 -15.704616 -8.241355 22.989178 -0.820913 1.937445 0.009240 -0.008292 -139188.000000 0 1 0
13.824241 -16.566116 -9.035355 23.391953 -0.875376 1.967369 0.012276 -0.007863 19199.300000 0 1 0
13.749141 -16.309816 -10.548155 23.797322 -0.870381 2.030017 0.011396 -0.011427 -852402.000000 0 1 0
12.956241 -15.216316 -11.024455 22.824090 -0.865449 2.074895 0.002578 -0.003600 344672.000000 0 1 0
13.376841 -13.887816 -10.648055 22.027083 -0.804137 2.075339 0.005546 -0.004264 -136615.000000 0 1 0
13.360541 -12.765216 -11.725255 21.884616 -0.762615 2.136223 0.022992 0.000336 24256.200000 0 1 0
14.427041 -12.855716 -12.674855 23.109758 -0.727868 2.151322 0.019109 0.001394 158140.000000 0 1 0
14.167341 -12.247516 -13.962455 23.359481 -0.712846 2.211452 0.032015 -0.001721 -432729.000000 0 1 0
15.356641 -12.153016 -14.931455 24.626623 -0.669466 2.222213 0.025231 -0.000422 -15490.700000 0 1 0
15.985641 -13.356716 -15.382255 25.895103 -0.696042 2.206845 0.022759 0.002187 229547.000000 0 0 1
16.985741 -13.076116 -16.345355 26.956833 -0.656071 2.222262 0.019326 0.000890 187007.000000 0 0 1
18.188441 -14.062616 -16.302655 28.184271 -0.658161 2.187600 0.023512 -0.001543 -326804.000000 0 0 1
18.870541 -14.046316 -15.111855 27.960051 -0.639876 2.141804 0.004258 -0.012678 -343728.000000 0 0 1
19.889641 -15.042916 -15.207655 29.208901 -0.647533 2.118410 0.001091 -0.004937 -236905.000000 0 0 1
20.878741 -14.753816 -14.052355 29.173028 -0.615170 2.073378 -0.000444 -0.008801 -236827.000000 0 0 1
21.689741 -13.623416 -14.301755 29.335687 -0.560828 2.080044 -0.001357 -0.004955 465131.000000 0 0 1
22.572641 -13.275216 -13.208455 29.329486 -0.531632 2.037951 0.000956 -0.004762 332455.000000 0 0 1
23.099041 -11.855016 -13.302755 29.173111 -0.474172 2.044285 0.013575 -0.010488 -404102.000000 0 0 1
22.160141 -10.806716 -13.017055 27.880113 -0.453731 2.056571 0.000605 -0.002966 552592.000000 0 0 1
22.702141 -9.490316 -13.182155 27.914557 -0.395957 2.062618 0.007969 -0.002822 -164284.000000 0 0 1
23.778541 -9.057216 -12.177955 28.209125 -0.363932 2.017176 0.016449 -0.009557 -259306.000000 0 0 1
25.018041 -9.674116 -12.395655 29.548996 -0.368976 2.003685 0.021967 -0.010403 -591395.000000 0 0 1
25.937191 -9.393616 -11.392355 29.845664 -0.347473 1.962441 0.029012 -0.013146 -899046.000000 0 0 1
27.171131 -10.283916 -11.522455 31.253740 -0.361824 1.948379 0.043144 -0.017368 -369691.000000 0 0 1
27.869481 -9.940616 -12.694455 32.197407 -0.342618 1.976069 0.029724 -0.012115 391461.000000 0 0 1
29.224811 -10.381816 -12.761755 33.537055 -0.341335 1.961162 0.023303 -0.012393 393413.000000 0 0 1
29.868571 -9.989216 -14.090155 34.502876 -0.322745 1.991471 0.015701 -0.005515 -89011.600000 0 0 1
29.245031 -10.531016 -15.279055 34.635584 -0.345640 2.027662 0.003489 -0.001577 530529.000000 0 0 1
30.020591 -10.201016 -16.415655 35.703926 -0.327560 2.048534 0.006549 0.003060 -5633.540000 0 0 1
29.512241 -11.004216 -17.660655 36.110440 -0.356902 2.081823 -0.001813 0.016876 734499.000000 0 0 1
28.255041 -10.630116 -18.238055 35.270006 -0.359840 2.114253 -0.004508 0.014304 524144.000000 0 0 1
28.352631 -9.412916 -19.001455 35.405225 -0.320545 2.137300 0.001980 0.016782 41294.500000 0 0 1
27.007571 -8.923816 -19.616055 34.551888 -0.319125 2.174539 -0.023646 0.009886 402245.000000 0 0 1
26.536211 -9.771416 -20.676455 35.030941 -0.352822 2.202145 -0.015634 0.014798 496691.000000 0 0 1
25.262941 -9.361116 -21.147155 34.249801 -0.354861 2.236279 -0.001464 0.009127 276357.000000 0 0 1
24.799041 -9.865316 -22.550055 34.940261 -0.378617 2.272329 0.010697 0.002398 79796.700000 0 0 1
24.382141 -11.227016 -22.676655 35.139228 -0.431519 2.272261 0.006814 0.000101 276182.000000 0 0 1
23.910241 -11.506416 -23.987355 35.769965 -0.448522 2.305814 0.020971 -0.006368 -868353.000000 0 0 1
24.016541 -12.970816 -24.481555 36.665827 -0.495194 2.301903 0.017281 0.001812 -31674.500000 0 0 1
25.210441 -13.524016 -24.967555 37.971623 -0.492377 2.288335 0.014151 0.006034 -68914.000000 0 0 1
26.353451 -13.420316 -24.132455 38.170468 -0.471015 2.255222 -0.000290 0.009392 -497711.000000 0 0 1
27.645541 -13.953116 -24.749055 39.641911 -0.467412 2.245051 -0.000346 0.015989 -352762.000000 0 0 1
28.173951 -13.084016 -25.692905 40.312385 -0.434765 2.261844 0.008648 -0.002569 -353497.000000 0 0 1
29.523311 -13.345216 -25.968165 41.521877 -0.424535 2.246452 0.000352 -0.000938 -84405.000000 0 0 1
30.177961 -12.698916 -27.281535 42.617531 -0.398309 2.265487 0.012828 -0.003395 233823.000000 0 0 1
29.816451 -13.366116 -28.471585 43.339416 -0.421423 2.287555 0.008360 0.006804 179730.000000 0 0 1
30.821051 -13.314716 -29.469295 44.672790 -0.407785 2.291176 0.004525 0.002478 126648.000000 0 0 1
30.563661 -14.307616 -30.635485 45.578264 -0.437824 2.307907 0.005921 -0.000671 18225.400000 0 0 1
30.902041 -15.639116 -30.262305 45.992664 -0.468505 2.288931 0.016091 0.006176 -75858.300000 0 0 1
31.009091 -16.534416 -31.393485 47.122198 -0.489863 2.299917 0.013046 0.006451 35450.800000 0 0 1
29.759391 -17.111016 -32.105345 47.001717 -0.521818 2.322751 0.009688 0.010027 -86371.300000 0 0 1
29.107471 -16.188316 -32.968365 46.863840 -0.507558 2.351096 0.001190 0.005763 -1552.440000 0 0 1
27.869231 -16.757316 -33.331005 46.566700 -0.541363 2.368521 -0.001704 -0.002023 -58370.400000 0 0 1
27.173781 -16.055416 34.501584 46.760561 -0.533659 0.740939 0.011568 -0.003410 -251254.000000 0 0 1
26.628321 -14.701716 -34.367176 45.894561 -0.504460 2.417090 0.017260 -0.002717 432272.000000 0 0 1
27.560431 -13.649116 -34.062276 45.892422 -0.459835 2.407173 0.030987 -0.000562 -230768.000000 0 0 1
26.959241 -12.288416 -33.700085 44.872058 -0.427679 2.420411 0.036067 -0.006841 254106.000000 0 0 1
26.064981 -11.650316 34.399122 44.703609 -0.420333 0.692749 0.045606 -0.017579 372578.000000 0 0 1
25.793201 -10.316116 -34.322163 44.155660 -0.380467 2.461158 0.047442 -0.014826 69635.000000 0 0 1
20.321123 -30.115433 9.431445 37.534510 -0.977202 1.316800 0.010834 -0.000120 73592.600000 0 0 1
20.700323 -29.634133 8.179445 37.061955 -0.961058 1.348268 0.015387 -0.003851 -454460.000000 0 0 1
21.875923 -30.219433 7.740145 38.100918 -0.944208 1.366224 0.027775 -0.007137 -528700.000000 0 0 1
22.268523 -29.807433 6.277945 37.733046 -0.929167 1.403641 0.026222 -0.008448 35276.000000 0 0 1
22.687523 -28.460833 6.118245 36.907663 -0.897796 1.404256 0.033632 -0.002157 241416.000000 0 0 1
23.452623 -28.273633 4.931545 37.064052 -0.878332 1.437346 0.028178 -0.002157 41387.800000 0 0 1
23.641723 -26.784533 4.563645 36.016234 -0.847643 1.443744 0.023761 -0.005284 428595.000000 0 0 1
24.374323 -25.993033 5.553045 36.063578 -0.817525 1.416202 0.027639 -0.003531 430952.000000 0 0 1
24.413223 -24.641333 5.160345 35.068930 -0.790048 1.423111 0.021787 0.000180 126024.000000 0 0 1
25.087623 -23.615533 6.110145 34.991657 -0.755182 1.395279 0.026929 0.001176 235600.000000 0 0 1
26.486923 -23.428633 5.973545 35.862810 -0.724205 1.403450 0.024768 0.010278 249134.000000 0 0 1
27.064723 -22.495733 6.882745 35.859858 -0.693468 1.377663 0.043188 -0.002265 39029.200000 0 0 1
26.734323 -21.025333 6.667145 34.658901 -0.666427 1.377225 0.036791 0.001319 -236670.000000 0 0 1
27.037323 -20.461833 5.382645 34.331855 -0.647839 1.413364 0.041783 0.013359 87875.500000 0 0 1
26.854823 -19.073833 5.450945 33.387204 -0.617577 1.406798 0.045649 0.006772 -36501.900000 0 0 1
26.845323 -18.415733 4.087345 32.810318 -0.601264 1.445897 0.045963 0.011786 -274570.000000 0 0 1
28.107723 -18.376233 3.484545 33.761991 -0.579027 1.467403 0.050054 0.000831 -170515.000000 0 0 1
28.073423 -17.537333 2.366245 33.185452 -0.558380 1.499432 0.044665 0.004903 552074.000000 0 0 1
29.343823 -16.631033 2.390745 33.813708 -0.515623 1.500034 0.057471 -0.012363 523256.000000 0 0 1
29.140323 -15.642233 3.421445 33.249724 -0.492645 1.467712 0.059766 -0.019685 824984.000000 0 0 1
30.246123 -14.720933 3.567245 33.826898 -0.452955 1.465144 0.059440 -0.017043 491660.000000 0 0 1
29.800423 -13.443033 4.239345 32.965927 -0.423770 1.441841 0.047136 -0.017386 249899.000000 0 0 1
29.312323 -13.700233 5.562745 32.830668 -0.437219 1.400537 0.035582 -0.011702 38893.600000 0 0 1
29.163223 -12.564733 6.346945 32.382862 -0.406808 1.373522 0.021211 -0.020181 27068.100000 0 0 1
28.617623 -12.918033 7.808845 32.354628 -0.424019 1.327038 0.024830 -0.015216 -649101.000000 0 0 1
27.266923 -13.224933 7.903645 31.318549 -0.451590 1.315675 0.015808 -0.009503 -796729.000000 0 0 1
26.650423 -13.155033 9.165745 31.101620 -0.458526 1.271651 0.014981 -0.006420 107898.000000 0 0 1
26.905923 -14.339633 10.155345 32.135413 -0.489662 1.249268 0.018486 -0.004873 -149339.000000 0 0 1
28.081823 -14.128033 10.904545 33.273100 -0.466126 1.236898 0.016587 0.004488 9198.680000 0 0 1
28.401523 -15.337833 11.564145 34.287389 -0.495161 1.226780 0.014570 0.003189 -40784.500000 0 0 1
29.319923 -15.203633 12.798645 35.420525 -0.478372 1.201098 0.012008 0.008470 -145423.000000 0 0 1
30.635723 -14.777833 12.527845 36.247465 -0.449446 1.217897 0.024836 0.008822 -476396.000000 0 0 1
31.369523 -15.043233 13.656945 37.374563 -0.447154 1.196726 0.038041 0.007164 912676.000000 0 0 1
32.944323 -14.872233 13.626245 38.628827 -0.424047 1.210290 0.039102 -0.002839 1356510.000000 0 0 1
33.451823 -13.541533 13.622245 38.574125 -0.384643 1.209866 0.050019 -0.007057 512416.000000 0 0 1
34.699823 -13.423433 14.303245 39.860369 -0.369114 1.203778 0.053717 -0.012097 352083.000000 0 0 1
-35.339895 -12.030733 14.105145 39.907416 0.328123 1.209543 0.059748 -0.016369 49333.000000 0 0 1
-34.386695 -11.998833 13.036845 38.683021 0.335729 1.227049 0.059831 -0.016762 477906.000000 0 0 1
-33.745495 -10.718333 12.924545 37.691975 0.307545 1.220795 0.058423 -0.016552 572334.000000 0 0 1
-32.459095 -10.770833 12.017445 36.249451 0.320395 1.232881 0.045127 -0.008063 989198.000000 0 0 1
-31.373995 -11.564833 12.493145 35.695260 0.353159 1.213231 0.028062 -0.009808 295552.000000 0 0 1
-31.452295 -12.951233 12.184145 36.130800 0.390615 1.226831 0.017657 -0.011028 -666693.000000 0 0 1
-30.248095 -13.781533 12.612945 35.552276 0.427515 1.208126 0.002999 -0.000932 184979.000000 0 0 1
-29.080195 -13.661733 11.801945 34.228447 0.439193 1.218771 0.007820 -0.002298 212207.000000 0 0 1
-28.180595 -14.705433 12.101445 34.012361 0.480957 1.207031 0.003918 -0.006896 437721.000000 0 0 1
-26.799195 -14.632233 11.371545 32.582375 0.499763 1.214283 0.006254 -0.006461 298256.000000 0 0 1
-26.842095 -14.834433 9.976545 32.250425 0.504880 1.256291 0.000027 0.007890 552041.000000 0 0 1
-25.541395 -14.808033 9.389745 30.980769 0.525409 1.262870 -0.001743 0.007923 408450.000000 0 0 1
-25.585295 -14.583733 7.881145 30.486145 0.518072 1.309311 0.010999 0.014071 -135571.000000 0 0 1
-25.897795 -15.751433 7.178045 31.150085 0.546438 1.338272 0.011288 0.012641 205232.000000 0 0 1
-25.930895 -15.450233 5.815845 30.739959 0.537343 1.380454 0.015827 0.011797 -284286.000000 0 0 1
-25.915095 -16.648133 4.830845 31.178351 0.571021 1.415227 0.010724 0.010673 -517337.000000 0 0 1
-27.155795 -17.312733 4.817445 32.563411 0.567562 1.422311 0.012498 0.012069 -167212.000000 0 0 1
-27.321095 -18.120333 3.669745 32.988721 0.585624 1.459323 0.019025 0.003792 -424039.000000 0 0 1
-28.717295 -18.709533 3.492145 34.451774 0.577434 1.469259 0.025123 -0.000254 -584572.000000 0 0 1
-29.756095 -17.781333 3.315545 34.822318 0.538630 1.475439 0.012227 0.003967 -149799.000000 0 0 1
-30.975895 -18.444733 3.627645 36.233604 0.537070 1.470510 0.014103 -0.001462 498510.000000 0 0 1
-32.198495 -17.528133 3.279045 36.806666 0.498516 1.481590 0.031006 -0.009188 223289.000000 0 0 1
-32.388695 -17.574433 1.876745 36.897296 0.497152 1.519910 0.038214 -0.008389 -287482.000000 0 0 1
-33.436795 -16.740133 1.466845 37.421958 0.464168 1.531589 0.045622 -0.015389 -342353.000000 0 0 1
-34.010195 -17.143233 0.118845 38.086716 0.466892 1.567676 0.051329 -0.010754 -207248.000000 0 0 1
-33.091795 -17.058333 -0.970755 37.242395 0.475959 1.596865 0.043536 -0.006571 289262.000000 0 0 1
-33.396195 -18.062133 -1.970155 38.018785 0.495787 1.622640 0.032747 -0.000279 -182475.000000 0 0 1
-32.335195 -18.378433 -3.034455 37.316747 0.516839 1.652202 0.027187 -0.008614 -386537.000000 0 0 1
-32.794095 -19.469733 -3.776655 38.324748 0.535772 1.669500 0.027072 -0.010248 -316717.000000 0 0 1
-31.806895 -20.039233 -4.587755 37.872113 0.562207 1.692233 0.018472 -0.005356 -596960.000000 0 0 1
-32.288695 -21.062233 -5.715955 38.972422 0.577997 1.717994 0.025406 -0.015973 -410866.000000 0 0 1
-32.813395 -22.222133 -5.189755 39.968433 0.595278 1.701010 0.037099 -0.019401 -64844.900000 0 0 1
-33.247595 -23.112033 -6.216555 40.966013 0.607463 1.723134 0.037680 -0.018758 87421.200000 0 0 1
-33.771695 -24.503133 -5.692555 42.110998 0.627670 1.706391 0.031733 -0.015949 -191506.000000 0 0 1
-32.826895 -25.318733 -5.035755 41.761251 0.656982 1.691675 0.037354 -0.007702 -618424.000000 0 0 1
-33.298895 -26.608933 -4.807455 42.894794 0.674188 1.683108 0.029153 -0.003090 244854.000000 0 0 1
-32.251095 -27.609233 -4.173355 42.659346 0.708008 1.668783 0.022777 -0.000947 -79279.400000 0 0 1
-31.198295 -27.958533 -5.081455 42.199933 0.730687 1.691503 0.027748 0.000587 179233.000000 0 0 1
-30.502295 -29.106333 -4.675955 42.419726 0.761984 1.681251 0.027566 -0.001825 98234.000000 0 0 1
-29.551395 -28.994033 -3.466355 41.544609 0.775878 1.654330 0.029954 -0.005044 -940446.000000 0 0 1
-30.295795 -28.883133 -2.280855 41.919839 0.761532 1.625233 0.018308 -0.002707 10962.500000 0 0 1
-29.495095 -28.637733 -1.120155 41.125845 0.770651 1.598037 0.029512 -0.007111 262542.000000 0 0 1
-30.288095 -28.407133 0.227045 41.525721 0.753363 1.565329 0.020892 -0.007856 126112.000000 0 0 1
-30.722095 -29.595633 0.779945 42.665641 0.766725 1.552515 0.013559 -0.001530 -118553.000000 0 0 1
-31.372195 -29.335833 2.020245 42.998687 0.751867 1.523795 0.025332 0.001020 -136529.000000 0 0 1
-31.861695 -30.636733 2.574445 44.276459 0.765801 1.512619 0.011254 0.009197 -503124.000000 0 0 1
-32.796795 -30.522233 3.651845 44.950778 0.749491 1.489466 0.005803 0.011506 273235.000000 0 0 1
-33.289795 -31.751033 4.166845 46.192003 0.761744 1.480466 0.011219 0.010400 105410.000000 0 0 1
-34.256295 -32.511433 3.227045 47.338154 0.759271 1.502573 0.004181 0.010243 -524962.000000 0 0 1
-34.798095 -33.631833 3.870545 48.548828 0.768357 1.490987 0.012382 0.007588 24558.300000 0 0 1
34.943523 -34.248133 3.008845 49.020787 -0.775348 1.509379 0.014339 0.007702 493664.000000 0 0 1
33.741223 34.161384 3.796545 48.165174 0.791586 1.491891 0.017836 0.001797 725494.000000 0 0 1
32.789123 -34.204133 4.569545 47.601786 -0.806517 1.474653 0.021543 -0.000912 612589.000000 0 0 1
32.282823 -32.986133 3.988045 46.326775 -0.796173 1.484605 0.016996 0.001475 -395657.000000 0 0 1
31.181023 -33.123833 2.907445 45.583963 -0.815601 1.506971 0.023562 -0.002730 -479385.000000 0 0 1
31.631323 -33.558433 1.627245 46.144955 -0.814951 1.535525 0.030702 0.001086 -404524.000000 0 0 1
30.872423 -33.055233 0.556245 45.233442 -0.819530 1.558499 0.024900 0.003539 -1126130.000000 0 0 1
31.230123 -33.811133 -0.779355 46.033908 -0.825060 1.587727 0.031514 -0.005003 -32503.400000 0 0 1
32.299823 -33.346033 -1.547455 46.450307 -0.801334 1.604117 0.021050 -0.002718 -614485.000000 0 0 1
33.533523 -33.446533 -0.872255 47.370123 -0.784099 1.589211 0.011851 0.006365 -812763.000000 0 0 1
34.806623 -33.238633 -1.720855 48.158790 -0.762359 1.606537 0.004075 0.005324 -193353.000000 0 0 1
35.168923 -34.373533 -2.450255 49.238162 -0.773961 1.620580 -0.002109 0.003961 63570.300000 0 0 1
-34.788695 -34.043933 -3.600455 48.807847 0.774579 1.644631 0.000926 0.008157 -486123.000000 0 0 1
-34.153895 33.781084 -4.236055 48.224417 -0.779910 1.658750 -0.002836 0.003287 430895.000000 0 0 1
-32.945795 33.243084 -3.675955 46.947212 -0.789890 1.649176 -0.003832 0.003967 359774.000000 0 0 1
-32.512195 32.247984 -4.534355 46.016689 -0.781318 1.669494 -0.005641 -0.003092 328209.000000 0 0 1
-31.279595 31.479584 -3.926355 44.551022 -0.788585 1.659042 -0.000415 -0.005805 643876.000000 0 0 1
-30.169895 32.368684 -3.687155 44.402133 -0.820543 1.653932 -0.003806 -0.009797 1219180.000000 0 0 1
-28.948995 31.578684 -3.568755 42.988296 -0.828817 1.653909 0.018686 -0.013120 1244700.000000 0 0 1
-28.470395 31.360584 -2.143955 42.410449 -0.833667 1.621370 0.007349 -0.010450 -466298.000000 0 0 1
-29.453695 30.620184 -1.506255 42.513346 -0.804813 1.606234 -0.009012 -0.005323 -292415.000000 0 0 1
-29.129195 30.363784 -0.127755 42.077140 -0.806147 1.573833 -0.006616 0.000547 156248.000000 0 0 1
-30.323595 29.765484 0.662145 42.496387 -0.776110 1.555214 -0.009880 -0.000286 153636.000000 0 0 1
-30.769195 28.487784 0.242845 41.932758 -0.746917 1.565005 -0.006864 -0.001133 1584120.000000 0 0 1
-31.952895 28.485084 -0.650055 42.811331 -0.728083 1.585981 -0.003328 0.000140 1424130.000000 0 0 1
-32.339395 27.052384 -1.194455 42.179316 -0.696613 1.599119 -0.002307 -0.000796 -145937.000000 0 0 1
-32.736495 26.061584 -0.272855 41.844459 -0.672359 1.577317 0.001208 -0.000327 147413.000000 0 0 1
-33.172795 24.871684 -0.928555 41.471644 -0.643348 1.593188 0.018720 0.001998 -47443.700000 0 0 1
-33.367495 23.762384 0.185645 40.964315 -0.618828 1.566264 0.013096 -0.005929 606021.000000 0 0 1
-32.129195 23.235584 0.692445 39.656740 -0.626122 1.553334 0.023007 -0.013633 611640.000000 0 0 1
-31.644095 23.951284 1.813545 39.727846 -0.647900 1.525131 0.017956 -0.016750 -1654390.000000 0 0 1
-30.210095 23.631484 2.138445 38.414448 -0.663816 1.515100 0.029806 -0.025107 -541168.000000 0 0 1
-29.201295 24.335884 1.398545 38.038228 -0.694768 1.534021 0.032776 -0.017303 585699.000000 0 0 1
-28.918895 25.626384 1.970345 38.689744 -0.725108 1.519847 0.001968 -0.013623 -276456.000000 0 0 1
-28.226295 26.597984 0.946645 38.795266 -0.755706 1.546393 -0.004003 -0.004333 -39995.600000 0 0 1
-26.915195 26.233384 0.615145 37.589847 -0.772570 1.554431 0.006001 -0.009184 -643557.000000 0 0 1
-26.384595 27.230684 -0.240255 37.917209 -0.801178 1.577133 0.012409 -0.013540 -105761.000000 0 0 1
-25.144795 26.700484 -0.979855 36.689735 -0.815396 1.597506 0.016963 -0.013253 -781924.000000 0 0 1
-25.431795 25.872184 -2.027755 36.335353 -0.793982 1.626632 0.034008 -0.019133 398014.000000 0 0 1
-24.260995 25.200884 -2.538755 35.073148 -0.804398 1.643244 0.027401 -0.012309 768696.000000 0 0 1
-23.563895 24.242684 -1.556855 33.843591 -0.799596 1.616814 0.023416 -0.014689 -862114.000000 0 0 1
-24.085495 22.994384 -1.343255 33.326523 -0.762227 1.611113 0.014968 -0.010068 -542068.000000 0 0 1
-23.211095 22.156384 -0.599255 32.093915 -0.762154 1.589469 0.015352 -0.023375 -959227.000000 0 0 1
-23.727095 20.721684 -0.348155 31.503721 -0.717886 1.581848 0.013021 -0.021275 325797.000000 0 0 1
-24.792995 20.554284 0.636245 32.211427 -0.692197 1.551043 -0.003270 -0.019444 1800200.000000 0 0 1
-26.039195 21.254484 0.371445 33.614443 -0.684571 1.559746 0.001519 -0.019999 528966.000000 0 0 1
-26.873195 20.653384 -0.802855 33.902440 -0.655268 1.594480 -0.004620 -0.022813 -647510.000000 0 0 1
-27.422895 19.373984 -0.587455 33.581417 -0.615068 1.588291 -0.020237 -0.013784 267447.000000 0 0 1
-27.962895 18.775484 -1.743155 33.726561 -0.591302 1.622504 -0.008776 -0.010061 -83782.600000 0 0 1
-28.028995 17.250384 -1.489555 32.945699 -0.551701 1.616024 -0.041006 -0.002069 301717.000000 0 0 1
-29.006195 16.924184 -0.482255 33.586008 -0.528175 1.585156 -0.025184 -0.004031 770932.000000 0 0 1
-29.242695 15.521884 -0.341055 33.108616 -0.487979 1.581098 -0.019462 -0.005944 528272.000000 0 0 1
-28.057795 14.573584 0.164945 31.617344 -0.479057 1.565579 -0.010750 -0.000971 393851.000000 0 0 1
-27.788895 14.739684 1.561145 31.494732 -0.487684 1.521208 -0.004566 -0.001162 366130.000000 0 0 1
-26.593995 14.189684 2.102745 30.216043 -0.490139 1.501150 0.005912 -0.008187 -10195.700000 0 0 1
-26.420095 12.644984 2.112645 29.366313 -0.446392 1.498793 0.021935 -0.000428 -295405.000000 0 0 1
-26.277895 12.082484 0.829545 28.934449 -0.430971 1.542123 0.010449 0.001770 399549.000000 0 0 1
-25.823495 10.737484 0.821945 27.978958 -0.394055 1.541415 0.036018 -0.000962 -165203.000000 0 0 1
-25.717795 10.246884 -0.634055 27.691256 -0.379157 1.593696 0.027903 0.000408 782682.000000 0 0 1
-27.009495 10.125484 -1.265855 28.872836 -0.358671 1.614653 0.026251 -0.007674 1210750.000000 0 0 1
-26.852795 9.131584 -2.289255 28.455213 -0.327793 1.651335 0.028097 -0.013733 57166.900000 0 0 1
-28.205395 8.754584 -2.927255 29.677532 -0.300959 1.669592 0.026750 -0.017281 -307894.000000 0 0 1
-28.033695 8.011984 -4.117955 29.445501 -0.278377 1.711106 0.035672 -0.010477 498845.000000 0 0 1
-29.240295 7.829084 -4.855455 30.657216 -0.261613 1.729845 0.025235 -0.013901 144392.000000 0 0 1
-11.183877 18.412284 -19.749955 29.225879 -1.024943 2.312804 0.035847 -0.001539 110931.000000 0 0 1
-11.630277 17.497084 -20.669255 29.472519 -0.984158 2.348024 0.014415 -0.001776 129797.000000 0 0 1
-10.830377 17.532284 -21.879855 30.056715 -1.017435 2.386127 0.012545 -0.006272 44190.900000 0 0 1
-10.904477 16.247284 -22.767855 30.020944 -0.979692 2.431650 0.006803 -0.004404 -311407.000000 0 0 1
-10.208777 15.176084 -22.263655 28.813243 -0.978636 2.453862 0.001265 0.000047 -339878.000000 0 0 1
-10.310777 14.019184 -23.114155 28.932919 -0.936655 2.496240 -0.010353 -0.000537 222485.000000 0 0 1
-9.561677 12.727684 -22.595755 27.640328 -0.926495 2.527840 -0.013943 -0.002044 1487320.000000 0 0 1
-8.112577 12.782084 -22.609755 27.210230 -1.005264 2.551571 -0.008988 -0.006055 1036210.000000 0 0 1
-7.669877 11.508884 -22.209155 26.163486 -0.982957 2.584623 -0.012939 -0.001328 467999.000000 0 0 1
-6.115277 11.391184 -22.140055 25.638598 -1.078111 2.613052 0.003089 0.000607 357922.000000 0 0 1
-5.531277 11.380084 -23.416555 26.616468 -1.118372 2.646189 -0.002185 -0.000929 -502446.000000 0 0 1
-4.149677 11.211384 -23.183955 26.084684 -1.216301 2.665507 0.013154 -0.003484 -501206.000000 0 0 1
-3.352177 10.864184 -24.433055 26.948873 -1.271511 2.706058 0.023352 -0.008399 -610378.000000 0 0 1
-3.540377 9.532484 -24.980755 26.971108 -1.215184 2.755014 0.015720 -0.012399 -116306.000000 0 0 1
-3.050877 9.357384 -26.293355 28.075060 -1.255624 2.783417 0.012052 -0.016367 -254484.000000 0 0 1
-2.517477 7.979684 -26.693655 27.974350 -1.265194 2.837834 0.027267 -0.010650 -94566.500000 0 0 1
-1.302877 7.628884 -26.054375 27.179548 -1.401646 2.852848 0.044905 -0.015970 -49303.300000 0 0 1
-1.349877 6.320884 -25.526695 26.332260 -1.360399 2.893602 0.058596 -0.017895 23102.800000 0 0 1
0.061423 5.868784 -25.091275 25.768556 1.560331 2.911814 0.033478 -0.017678 169226.000000 0 0 1
0.457023 6.499084 -23.875255 24.748227 1.500591 2.875196 0.038046 -0.018685 -204953.000000 0 1 0
1.297223 5.729984 -23.066655 23.803069 1.348157 2.892199 0.035011 -0.015593 -149011.000000 0 1 0
1.531723 6.381884 -21.692755 22.663853 1.335241 2.847799 0.034024 -0.010131 180421.000000 0 1 0
2.358323 7.525784 -21.738055 23.124492 1.267123 2.793558 0.015405 -0.009065 -5983.780000 0 1 0
2.172523 8.338284 -20.595155 22.325036 1.315915 2.745340 0.012863 -0.003376 -115474.000000 0 1 0
2.787823 9.728684 -20.675755 23.019689 1.291718 2.686401 0.005334 0.000882 -133972.000000 0 1 0
2.771323 10.410084 -19.443855 22.228666 1.310615 2.635654 0.010386 -0.008050 24521.700000 0 1 0
3.357423 11.749084 -19.456455 22.975354 1.292454 2.580812 0.018309 -0.005799 -402329.000000 0 1 0
4.542623 11.762584 -18.517755 22.403148 1.202249 2.543781 0.008944 -0.014574 461752.000000 0 1 0
5.644923 10.931284 -18.984255 22.622114 1.094114 2.566589 0.021627 -0.013816 749410.000000 0 1 0
6.621723 10.585284 -18.018455 21.921683 1.011795 2.535617 0.020189 -0.014755 202700.000000 0 1 0
7.674523 9.578784 -18.594855 22.280485 0.895324 2.558167 0.029136 -0.012341 -64782.100000 0 1 0
7.316123 8.231984 -18.917755 21.890013 0.844235 2.614391 0.024735 -0.009238 -419100.000000 0 1 0
6.528723 8.176184 -20.078855 22.641436 0.896968 2.661212 0.021673 -0.003250 -145614.000000 0 1 0
6.294623 6.695584 -20.484255 22.451232 0.816255 2.719879 0.028809 0.002444 648851.000000 0 1 0
7.512623 5.973484 -20.740755 22.853904 0.671762 2.708177 0.030900 0.010933 708134.000000 0 1 0
7.268723 4.588684 -20.900855 22.599471 0.563111 2.751406 0.034280 0.005548 -2872.460000 0 1 0
7.432923 4.259284 -22.421755 24.002603 0.520352 2.776634 0.043409 -0.002607 -353534.000000 0 1 0
6.462423 4.860284 -23.251855 24.617758 0.644833 2.806913 0.050798 0.000421 -426040.000000 0 1 0
6.762523 4.870984 -24.617055 25.989567 0.624215 2.815152 0.051955 0.000786 -108439.000000 0 0 1
5.673623 5.414684 -25.640965 26.813576 0.762050 2.844761 0.050933 -0.015069 441237.000000 0 0 1
5.445023 6.805884 -25.576935 27.021250 0.896027 2.813160 0.049324 -0.018528 140444.000000 0 0 1
4.864723 7.269384 -24.391755 25.912684 0.981037 2.797274 0.050933 -0.018154 -1079260.000000 0 0 1
4.623723 8.838584 -24.455255 26.411340 1.088817 2.754307 0.059811 -0.023730 634127.000000 0 0 1
3.587923 9.224084 -25.388185 27.249162 1.199832 2.769876 0.065585 -0.021249 373525.000000 0 0 1
2.338223 9.221284 -24.755055 26.520032 1.322462 2.774702 0.038146 -0.009804 -173931.000000 0 0 1
1.057823 9.625784 -25.535845 27.310329 1.461341 2.779126 0.031046 -0.009001 136233.000000 0 0 1
0.940423 11.010084 -25.708425 27.982664 1.485588 2.735641 0.042766 -0.021582 -274775.000000 0 0 1
-0.127077 11.477784 -26.474715 28.855956 -1.559725 2.732491 0.049682 -0.026476 -668421.000000 0 0 1
-0.004777 12.938784 -26.865115 29.818561 -1.570427 2.692757 0.048163 -0.026438 -474352.000000 0 0 1
-0.239077 13.769484 -25.758885 29.209177 -1.553435 2.650624 0.040937 -0.021467 49525.000000 0 0 1
-0.718877 15.056084 -26.079755 30.122352 -1.523086 2.617532 0.040360 -0.027104 -194242.000000 0 0 1
-1.195177 15.753184 -24.820055 29.421529 -1.495072 2.574752 0.051054 -0.019943 447467.000000 0 0 1
-2.297977 15.106884 -24.155655 28.583112 -1.419839 2.577553 0.038216 -0.017908 179389.000000 0 0 1
-2.503777 15.888484 -23.005355 28.070611 -1.414497 2.531427 0.041200 -0.023928 -106216.000000 0 0 1
-3.776577 15.456384 -22.197355 27.310894 -1.331154 2.519680 0.030230 -0.015808 1400990.000000 0 0 1
-5.075677 15.788384 -22.723355 28.131591 -1.259750 2.511126 0.023595 -0.013804 718312.000000 0 0 1
-5.374277 14.980984 -23.887155 28.703813 -1.226357 2.553850 0.021378 -0.011617 -156104.000000 0 0 1
-6.811277 15.198784 -24.486155 29.613651 -1.149485 2.544286 -0.005442 -0.002233 676395.000000 0 0 1
-7.112377 16.546684 -24.883155 30.717260 -1.164836 2.515069 -0.005509 0.000448 776041.000000 0 0 1
-8.395577 16.558284 -25.544615 31.578313 -1.101539 2.513125 -0.002902 0.003943 641878.000000 0 0 1
-9.022977 17.870784 -25.941695 32.768134 -1.103236 2.484341 0.001030 0.001576 -186920.000000 0 0 1
-9.612877 18.584084 -24.856255 32.490137 -1.093433 2.441900 0.004198 -0.004144 286153.000000 0 0 1
-10.631877 19.467984 -25.321075 33.662977 -1.070936 2.422181 0.004361 0.000061 557000.000000 0 0 1
-11.044677 20.524684 -24.270655 33.649848 -1.077122 2.376432 0.000315 -0.002053 535469.000000 0 0 1
-10.025977 21.531284 -24.182655 33.895681 -1.135007 2.365197 0.007174 -0.001614 471740.000000 0 0 1
-10.492077 22.821884 -24.532755 35.110940 -1.139874 2.344405 0.006614 -0.009714 -201315.000000 0 0 1
-10.368977 23.276584 -26.003455 36.407344 -1.151717 2.366329 -0.001799 -0.002351 -27780.000000 0 0 1
-11.144777 22.549684 -26.975935 36.883538 -1.111774 2.391142 -0.008162 -0.003148 302267.000000 0 0 1
-11.003777 23.137284 -28.275365 38.156432 -1.126870 2.405411 0.011445 -0.003838 13431.500000 0 0 1
-11.563977 22.346684 -29.498815 38.772154 -1.093262 2.435379 0.004008 -0.004057 679805.000000 0 0 1
-10.646177 21.290884 -29.875435 38.199273 -1.107121 2.468816 -0.004693 -0.004900 581556.000000 0 0 1
-10.471077 20.265284 -28.921245 36.834272 -1.093878 2.473770 -0.009779 0.004080 -128315.000000 0 0 1
-9.608777 19.146984 -29.523455 36.476979 -1.105676 2.513879 -0.010417 -0.002235 385468.000000 0 0 1
-8.254477 19.587084 -29.740915 36.555605 -1.171958 2.521079 -0.008181 -0.003529 640529.000000 0 0 1
-7.399877 18.583684 -30.258165 36.272139 -1.191849 2.557474 -0.013957 -0.000566 385088.000000 0 0 1
-7.013877 17.293584 -29.425135 34.843953 -1.185492 2.576396 -0.006789 -0.005721 -445697.000000 0 0 1
-8.036277 16.330884 -29.640015 34.782323 -1.113496 2.590891 -0.013248 -0.001922 540701.000000 0 0 1
-7.678877 15.115184 -28.892725 33.499604 -1.100750 2.610945 -0.027525 0.003651 -484453.000000 0 0 1
-8.826677 14.116584 -28.790825 33.258078 -1.012003 2.617302 -0.011846 0.004110 -463139.000000 0 0 1
-9.798977 14.732984 -27.989455 33.113296 -0.983876 2.577854 0.002991 0.002754 -689688.000000 0 0 1
-11.002577 14.021584 -27.909935 33.115344 -0.905462 2.573279 0.035818 -0.005516 272497.000000 0 0 1
-12.053477 14.581384 -26.908385 32.893225 -0.880024 2.528813 0.024134 -0.002568 399373.000000 0 0 1
-12.633477 15.793684 -27.341815 34.009117 -0.896112 2.504713 0.020813 -0.000974 -356497.000000 0 0 1
-13.410477 16.420684 -26.358995 33.827154 -0.885966 2.464226 0.004575 -0.004520 67026.600000 0 0 1
-14.310877 17.594984 -26.753765 35.073474 -0.887968 2.438416 -0.009753 -0.008765 151465.000000 0 0 1
-13.679977 18.850784 -26.757245 35.474554 -0.943031 2.425332 -0.010430 -0.008801 279289.000000 0 0 1
-14.697377 19.805884 -26.994445 36.564819 -0.932389 2.401288 -0.021176 -0.006312 -108222.000000 0 0 1
-14.249077 21.254884 -26.796115 37.051830 -0.980220 2.379230 -0.019934 0.002176 -393324.000000 0 0 1
-15.295977 22.166884 -26.886195 38.055291 -0.966788 2.355342 -0.033747 -0.008564 -101147.000000 0 0 1
-14.804977 23.521184 -27.005765 38.752352 -1.009017 2.341835 -0.024577 -0.003775 313128.000000 0 0 1
-14.088477 24.134384 -25.761235 38.007827 -1.042410 2.315546 -0.036535 0.002400 34376.000000 0 0 1
-13.570377 25.417384 -26.021365 38.824090 -1.080397 2.305325 -0.020581 -0.003196 -80184.000000 0 0 1
-13.139677 26.090084 -24.855455 38.355407 -1.104251 2.275791 0.000030 -0.009426 -318595.000000 0 0 1
-12.876377 27.581884 -25.010955 39.396818 -1.134025 2.258607 0.021026 -0.006493 266566.000000 0 0 1
-14.087877 28.228184 -25.412485 40.510407 -1.107892 2.248887 0.020050 -0.012668 265704.000000 0 0 1
-14.763677 28.772684 -24.297155 40.449787 -1.096712 2.215141 0.020567 -0.016569 -564675.000000 0 0 1
-16.150577 29.276484 -24.659955 41.545963 -1.066682 2.206270 0.021881 -0.015183 -357031.000000 0 0 1
-17.195677 28.335984 -24.721055 41.349122 -1.025356 2.211627 0.012107 -0.015434 -509452.000000 0 0 1
-18.368877 28.836284 -25.311535 42.539637 -1.003610 2.208075 0.014547 -0.005581 -582335.000000 0 0 1
-19.485677 27.830684 -25.173135 42.283866 -0.959969 2.208481 0.010690 -0.003579 -736080.000000 0 0 1
-19.955377 27.744184 -23.841155 41.669623 -0.947259 2.179918 0.029205 -0.012145 -365620.000000 0 0 1
-21.066877 26.894784 -23.694355 41.576017 -0.906317 2.177186 0.042811 -0.019361 -496810.000000 0 0 1
-21.782077 27.144884 -22.382255 41.379572 -0.894571 2.142304 0.032046 -0.010991 -1013250.000000 0 0 1
-22.575577 28.267484 -22.386555 42.542510 -0.896884 2.124941 0.040283 -0.002543 -606639.000000 0 0 1
-23.014277 28.475484 -21.055055 42.235358 -0.891067 2.092684 0.030787 -0.004834 -114527.000000 0 0 1
-24.370477 29.239384 -21.014955 43.479766 -0.875971 2.075248 0.022528 -0.003200 -549341.000000 0 0 1
-25.378487 28.337884 -21.274555 43.585662 -0.840436 2.080718 -0.001245 -0.003085 -684773.000000 0 0 1
-26.583587 29.058584 -21.522155 44.880860 -0.829849 2.070926 -0.003367 -0.006442 494228.000000 0 0 1
-27.750037 28.236084 -22.115455 45.347926 -0.794079 2.080231 -0.012455 -0.002718 36056.400000 0 0 1
-27.717547 28.170984 -23.514355 45.986864 -0.793511 2.107525 -0.015673 0.007011 216487.000000 0 0 1
-28.964767 27.656884 -23.971055 46.674109 -0.762304 2.110152 -0.019735 0.005746 414526.000000 0 0 1
-28.995907 26.987184 -25.365945 47.037240 -0.749533 2.140371 -0.017174 0.023445 -231664.000000 0 0 1
-28.619307 25.633384 -25.373425 46.042869 -0.730416 2.154457 -0.006377 0.030627 -129159.000000 0 0 1
-28.501867 25.221884 -26.757205 46.523627 -0.724421 2.183561 0.025331 0.018909 -30555.600000 0 0 1
-28.542047 23.684984 -26.878255 45.804667 -0.692666 2.197900 0.031575 0.016512 -777454.000000 0 0 1
-27.447837 23.023984 -26.361425 44.479347 -0.697972 2.205162 0.025084 0.007935 -689933.000000 0 0 1
-27.428427 21.675884 -26.876785 44.096759 -0.668780 2.226221 0.048912 -0.012322 209701.000000 0 0 1
-26.308187 20.671184 -26.425805 42.634983 -0.665980 2.239303 0.056206 -0.024028 246015.000000 0 0 1
-26.480707 20.063984 -25.125325 41.654211 -0.648400 2.218289 0.049361 -0.012195 77931.900000 0 0 1
-25.985737 18.747784 -25.154955 40.737080 -0.624987 2.236351 0.040210 -0.012190 -74761.400000 0 0 1
-27.130497 17.714884 -25.319285 41.121128 -0.578447 2.234101 0.030905 -0.016497 -161817.000000 0 0 1
-27.661257 17.696784 -26.602485 42.261253 -0.569148 2.251676 0.032588 -0.017035 -88850.500000 0 0 1
-28.420337 16.510084 -26.684005 42.335973 -0.526276 2.252725 0.013678 -0.020098 -183076.000000 0 0 1
-29.149537 16.216784 -28.003255 43.552978 -0.507691 2.269166 0.013047 -0.016122 -350215.000000 0 0 1
-30.407537 16.787384 -28.187975 44.732500 -0.504438 2.252537 0.004782 -0.018123 -553863.000000 0 0 1
-31.058017 16.154484 -29.273755 45.634642 -0.479629 2.267224 0.013374 -0.010237 196383.000000 0 0 1
-32.303717 16.976584 -29.706865 47.055631 -0.483863 2.254042 0.021891 -0.014711 -330881.000000 0 0 1
-33.362787 16.849284 -28.839075 47.208751 -0.467665 2.227973 0.012014 -0.013090 -645890.000000 0 0 1
-34.623689 17.100184 -29.422905 48.548156 -0.458745 2.221889 0.013027 -0.014943 112014.000000 0 0 1
34.907465 16.765084 -28.500965 48.082264 0.447741 2.205271 0.023925 -0.015366 -280695.000000 0 0 1
34.678599 17.712684 -27.507085 47.675823 0.472224 2.185799 0.015749 -0.020838 29608.900000 0 0 1
33.562011 17.336184 -26.726865 46.273936 0.476793 2.186557 0.019979 -0.017454 162152.000000 0 0 1
32.927231 18.439084 -25.800655 45.715163 0.510484 2.170477 0.016503 -0.017649 -62710.600000 0 0 1
32.081211 19.360384 -26.427055 45.852129 0.542975 2.185056 0.026745 -0.024082 -85144.400000 0 0 1
31.837411 20.392084 -25.488485 45.597376 0.569673 2.163964 0.033131 -0.020735 -707486.000000 0 0 1
31.298141 21.714684 -26.093645 46.173363 0.606553 2.171379 0.033986 -0.020976 -13009.000000 0 0 1
30.020901 21.697584 -26.676085 45.647050 0.625831 2.194935 0.024659 -0.020363 -120946.000000 0 0 1
28.974181 21.707484 -25.697395 44.396780 0.642990 2.188068 0.015181 -0.011759 -203672.000000 0 0 1
27.588361 21.576084 -26.364635 43.837644 0.663713 2.216068 0.003987 -0.012305 64232.600000 0 0 1
27.303401 20.240784 -26.709515 43.226881 0.637928 2.236854 0.002608 -0.020925 -47278.000000 0 0 1
26.032571 20.115284 -27.324815 42.766399 0.657870 2.263905 -0.005668 -0.017279 113243.000000 0 0 1
25.519341 18.635884 -27.329605 41.778466 0.630751 2.283862 -0.000465 -0.015871 -12220.800000 0 0 1
26.406821 17.768484 -28.070925 42.438379 0.592288 2.293549 0.005246 -0.026884 614829.000000 0 0 1
27.380461 17.127384 -27.264165 42.265489 0.558983 2.271910 0.004934 -0.022349 -317580.000000 0 0 1
28.354501 16.261984 -28.028655 43.058511 0.520724 2.279623 0.001031 -0.016559 -476571.000000 0 0 1
27.880221 15.000584 -28.535005 42.621247 0.493612 2.304334 0.003129 -0.015893 31036.700000 0 0 1
27.412471 14.012884 -27.603125 41.348966 0.472557 2.301730 0.004314 -0.015307 -468457.000000 0 0 1
28.333561 13.432284 -26.536825 41.078218 0.442695 2.273138 0.000048 -0.007762 -468019.000000 0 0 1
28.872711 14.311784 -25.609365 41.161877 0.460190 2.242298 0.008763 -0.012443 9041.880000 0 0 1
29.629781 13.608684 -24.625555 40.859982 0.430553 2.217654 0.017030 -0.006036 -406058.000000 0 0 1
-14.397277 -31.549233 -24.854355 42.665849 1.142680 2.192641 0.041761 -0.010554 470098.000000 0 0 1
-13.550877 -30.453833 -25.235815 41.807997 1.152138 2.218820 0.023612 -0.009052 437919.000000 0 0 1
-13.907077 -30.081433 -26.553375 42.466235 1.137749 2.246289 0.017705 -0.009368 23205.300000 0 0 1
-13.143977 -28.856733 -27.056245 41.683517 1.143386 2.277180 0.018584 -0.007122 -254350.000000 0 0 1
-13.477777 -27.620133 -26.449905 40.547746 1.116820 2.281431 0.027758 0.000804 -67512.100000 0 0 1
-12.917877 -26.560433 -27.164945 40.128075 1.118122 2.314415 0.016939 0.001661 -338941.000000 0 0 1
-13.442477 -25.203333 -26.684505 39.089270 1.080817 2.322187 0.007388 -0.000772 -207047.000000 0 0 1
-12.990777 -24.823233 -25.381675 37.804532 1.088658 2.306882 0.004285 -0.006513 155150.000000 0 0 1
-13.388477 -23.493333 -25.169825 36.941956 1.052815 2.320380 0.014184 -0.005212 -197283.000000 0 0 1
-13.189077 -22.901633 -23.773955 35.547679 1.048285 2.303377 0.008997 0.000417 845193.000000 0 0 1
-11.829277 -22.518933 -23.470255 34.610504 1.087111 2.316005 0.005239 -0.009127 887577.000000 0 0 1
-11.750477 -21.944233 -22.168055 33.332353 1.079177 2.298372 -0.010955 -0.001717 -418105.000000 0 0 1
-10.291877 -21.650033 -21.885555 32.459578 1.127042 2.310732 0.000743 0.000697 -287777.000000 0 0 1
-9.701877 -20.576833 -22.668655 32.115423 1.130211 2.354418 0.016014 -0.007677 -210435.000000 0 0 1
-8.322277 -20.437533 -22.505755 31.519233 1.184094 2.366037 0.028160 0.000274 -332601.000000 0 0 1
-7.633577 -19.336233 -23.363655 31.273340 1.194797 2.414453 0.036563 0.005561 47686.200000 0 0 1
-7.672177 -18.093533 -22.788655 30.092541 1.169749 2.429943 0.033649 0.006665 -215827.000000 0 0 1
-7.926477 -17.035533 -23.680855 30.229478 1.135300 2.470865 0.028188 0.001833 -308161.000000 0 0 1
-6.824877 -16.509433 -24.623955 30.421694 1.178798 2.513962 0.040929 -0.003947 -86323.200000 0 0 1
-6.659677 -17.186133 -25.834115 31.735090 1.201109 2.521897 0.037725 0.001037 490070.000000 0 0 1
-5.697677 -16.569233 -26.733075 31.963421 1.239592 2.561414 0.020201 -0.000989 647563.000000 0 0 1
-5.390677 -17.415933 -27.956185 33.375476 1.270624 2.563720 0.019830 0.004087 196079.000000 0 0 1
-6.520477 -17.374133 -28.812435 34.271468 1.211764 2.569393 0.037414 -0.000375 230596.000000 0 0 1
-6.289877 -18.194933 -29.903935 35.564919 1.237963 2.569605 0.037161 -0.009319 358374.000000 0 0 1
-7.046977 -17.839233 -31.279385 36.691934 1.194584 2.591520 0.045270 -0.015409 476947.000000 0 0 1
-6.667477 -16.700533 -32.067255 36.765091 1.190948 2.630520 0.037432 -0.016878 -275061.000000 0 0 1
-6.884277 -15.436733 -31.469955 35.721759 1.151301 2.648714 0.025542 -0.009704 -34618.400000 0 0 1
-7.315077 -14.337233 -32.445605 36.218557 1.099010 2.681088 0.020190 -0.013149 136245.000000 0 0 1
-6.331777 -13.991533 -33.446045 36.803428 1.145829 2.711136 0.029213 -0.021020 -82915.800000 0 0 1
-6.801677 -13.222433 34.477339 37.547070 1.095692 0.407175 0.034278 -0.016886 -480857.000000 0 0 1
-7.261977 -11.741733 -34.310931 36.984383 1.016902 2.759038 0.020632 -0.013803 558116.000000 0 0 1
-6.207277 -10.780233 -34.214516 36.405725 1.048360 2.792874 0.017710 -0.014751 46257.000000 0 0 1
-5.683077 -10.325533 33.595827 35.603281 1.067653 0.337408 0.018367 -0.014710 174764.000000 0 0 1
-4.702177 -9.130533 33.678583 35.209715 1.095225 0.295990 0.026813 -0.013233 165477.000000 0 0 1
-4.571977 -8.467333 32.456571 33.853031 1.075698 0.288227 0.028708 -0.010601 601830.000000 0 0 1
-3.405677 -7.619033 32.483381 33.538311 1.150443 0.251479 0.017035 -0.014620 -146311.000000 0 0 1
-3.369377 -6.670833 31.254391 32.135489 1.103084 0.234710 0.015222 -0.011014 521147.000000 0 0 1
-4.451677 -5.725433 31.255221 32.085617 0.909910 0.228005 0.026473 -0.005292 343207.000000 0 0 1
-5.676677 -6.275333 30.833311 31.973388 0.835445 0.267847 0.017548 -0.005409 330138.000000 0 0 1
-6.948777 -5.291333 30.898101 32.108820 0.650806 0.275486 0.012457 -0.006466 864020.000000 0 0 1
-7.924677 -5.959233 30.163851 31.751707 0.644770 0.317588 0.020688 -0.006421 -1010260.000000 0 0 1
-9.079577 -5.181833 30.007111 31.776042 0.518607 0.335240 0.008557 -0.006909 -59804.700000 0 0 1
-10.236477 -5.703733 29.143671 31.411329 0.508352 0.382304 0.017041 -0.004463 -123401.000000 0 0 1
-9.987977 -5.713433 27.780791 30.069509 0.519600 0.392683 0.015864 -0.006076 696634.000000 0 0 1
-11.015177 -6.425933 27.059491 29.913923 0.528102 0.440406 0.029174 -0.010271 292305.000000 0 0 1
-10.950077 -6.175133 25.542091 28.468138 0.513479 0.457370 0.021654 -0.010945 477736.000000 0 0 1
-9.851777 -6.909833 24.968821 27.717239 0.611651 0.449094 0.015652 -0.006916 726700.000000 0 0 1
-9.446377 -6.552133 23.621241 26.270278 0.606427 0.452945 0.011745 -0.011612 -121056.000000 0 0 1
-10.510077 -6.639833 22.496341 25.702810 0.563445 0.504847 0.023739 -0.010885 177414.000000 0 0 1
-11.533477 -5.655133 22.641041 26.031104 0.455876 0.516063 0.015016 -0.008779 -135236.000000 0 0 1
-12.382477 -5.771733 21.533341 25.501440 0.436179 0.565358 0.014344 -0.005757 -528502.000000 0 0 1
-13.415177 -4.654133 21.440241 25.715985 0.333938 0.584964 0.012254 -0.000373 -108130.000000 0 0 1
-12.893377 -3.364433 21.094141 24.950378 0.255251 0.563401 0.005142 0.000218 513205.000000 0 1 0
-13.950577 -2.388433 21.177141 25.471445 0.169563 0.589161 0.003805 -0.000324 749082.000000 0 0 1
-13.634377 -1.086433 20.409641 24.568883 0.079515 0.590413 -0.000258 -0.011179 569580.000000 0 1 0
-12.528577 -0.351433 20.976241 24.435455 0.028043 0.538586 -0.004909 -0.005094 478741.000000 0 1 0
-12.532477 1.023567 20.646341 24.173996 -0.081492 0.547032 0.004729 -0.015942 -505068.000000 0 1 0
-12.194277 1.460567 19.211041 22.801266 -0.119207 0.568810 0.013163 -0.024837 17033.900000 0 1 0
-13.012677 1.067567 18.102441 22.319674 -0.081857 0.624846 0.012538 -0.015218 93433.200000 0 1 0
-14.292577 1.677567 18.083541 23.110743 -0.116839 0.672168 0.001075 -0.016533 39641.000000 0 1 0
-15.407177 0.966567 17.301741 23.187618 -0.062653 0.728516 0.014027 -0.008802 -133880.000000 0 1 0
-15.673777 -0.318433 17.837741 23.747709 0.020313 0.721016 -0.000650 -0.008980 -769073.000000 0 1 0
-16.731777 -0.967433 17.256441 24.055624 0.057756 0.770797 -0.002382 0.000722 -840828.000000 0 1 0
-16.624977 -2.423433 17.439041 24.215347 0.144751 0.766756 -0.001687 0.004290 -178835.000000 0 1 0
-16.985177 -2.871433 18.720541 25.440126 0.167472 0.743851 -0.002533 0.008426 -234301.000000 0 0 1
-16.648077 -4.219533 18.977041 25.594746 0.248227 0.735578 -0.001051 0.011367 -154886.000000 0 0 1
-17.445177 -4.796533 20.149541 27.080342 0.268319 0.731662 -0.002041 0.013177 -255928.000000 0 0 1
-17.092877 -4.250233 21.374641 27.696682 0.243713 0.689223 -0.002204 0.006599 523861.000000 0 0 1
-18.098677 -4.395433 22.421541 29.148027 0.238247 0.693161 0.001754 0.004157 398906.000000 0 0 1
-18.205977 -5.793733 23.032841 29.925519 0.308099 0.692469 0.006140 0.000101 -667866.000000 0 0 1
-17.123677 -6.288433 23.742541 29.941158 0.351947 0.655122 0.006891 -0.007833 -891158.000000 0 0 1
-16.180077 -6.928933 22.918841 28.897721 0.404611 0.654911 0.004250 -0.004070 -312683.000000 0 0 1
-15.031077 -7.384333 23.872041 29.160521 0.456640 0.611753 0.007897 -0.013266 159771.000000 0 0 1
-15.400377 -8.583233 24.593161 30.259991 0.508460 0.621976 -0.000258 -0.011090 -299030.000000 0 0 1
-14.371377 -8.806533 25.480971 30.551127 0.549766 0.584399 0.021646 -0.006822 -246081.000000 0 0 1
-14.668477 -9.897433 26.523081 31.884122 0.593572 0.588348 0.015424 -0.001736 -158737.000000 0 0 1
-14.637077 -11.201733 25.966521 31.843101 0.653220 0.617287 0.019586 -0.000116 -270693.000000 0 0 1
-13.816777 -12.031633 26.731631 32.407462 0.716446 0.600841 0.041364 0.007523 -270240.000000 0 0 1
-14.137877 -13.579333 26.540561 32.995139 0.765249 0.636169 0.020370 0.003162 -289498.000000 0 0 1
-15.271277 -13.943233 27.276691 34.229279 0.739971 0.648680 0.018818 0.000397 -185837.000000 0 0 1
-15.677777 -15.300933 27.220351 34.940789 0.773234 0.677660 0.033170 0.001893 885400.000000 0 0 1
-14.645077 -16.378533 27.822601 35.451823 0.841215 0.668423 0.023852 0.003003 983653.000000 0 0 1
-13.346577 -16.454433 27.266061 34.529952 0.889309 0.660582 0.034413 -0.003980 460518.000000 0 0 1
-12.442277 -17.024833 28.211451 35.221317 0.939677 0.641872 0.041199 -0.003609 -172602.000000 0 0 1
-11.128977 -17.522733 27.607281 34.540733 1.004955 0.644721 0.042214 -0.002936 -437033.000000 0 0 1
-10.329477 -18.224533 28.554281 35.414385 1.055154 0.632942 0.037769 -0.011273 -1182.590000 0 0 1
-9.337277 -18.870633 27.790321 34.865276 1.111314 0.648357 0.021600 -0.006793 -442685.000000 0 0 1
-8.180377 -19.553333 28.514221 35.529033 1.174561 0.639220 0.025869 -0.006700 -87263.900000 0 0 1
-8.535477 -20.801933 29.133641 36.801411 1.181424 0.657300 0.031744 -0.004180 422051.000000 0 0 1
-7.388677 -21.355433 29.783161 37.385609 1.237702 0.649068 0.030625 -0.002757 390315.000000 0 0 1
-7.595377 -22.578233 30.659611 38.826255 1.246286 0.660539 0.038458 -0.008796 56651.400000 0 0 1
-7.788777 -23.735633 29.895761 38.958976 1.253721 0.696075 0.023969 -0.005742 -5217.240000 0 0 1
-8.224577 -24.805233 30.717681 40.330127 1.250637 0.704932 0.022298 -0.009134 -217841.000000 0 0 1
-8.391177 -26.143233 29.948841 40.630205 1.260214 0.742016 0.010432 -0.005239 -482036.000000 0 0 1
-9.371977 -26.145033 28.951881 40.119922 1.226604 0.764637 0.017143 -0.001945 -184399.000000 0 0 1
-9.434777 -27.413733 28.304651 40.517663 1.239331 0.797391 0.010227 -0.003599 -214938.000000 0 0 1
-10.710077 -27.728033 27.463091 40.469383 1.202195 0.824922 0.012073 0.004422 198748.000000 0 0 1
-10.807977 -27.030733 26.226941 39.183228 1.190428 0.837475 0.013742 0.006080 161631.000000 0 0 1
-11.159377 -25.661533 26.423591 38.487038 1.160597 0.814052 0.011920 0.006826 -411971.000000 0 0 1
-11.264377 -24.775233 25.160571 37.064170 1.144072 0.824617 0.013856 0.005323 -220910.000000 0 0 1
-12.319777 -25.164533 24.313071 37.096577 1.115528 0.856085 0.015701 0.008323 172423.000000 0 0 1
-12.149877 -24.655133 23.017241 35.850920 1.112931 0.873658 0.023616 0.009629 657675.000000 0 0 1
-13.553077 -24.612333 22.305341 35.874518 1.067445 0.899808 0.031438 0.003600 655681.000000 0 0 1
-14.013777 -25.869433 21.920641 36.689617 1.074339 0.930464 0.024943 -0.001896 -34204.000000 0 0 1
-15.077077 -25.805233 21.000441 36.527343 1.042028 0.958285 0.033070 -0.005972 -88651.800000 0 0 1
-15.655677 -27.121633 20.424441 37.387712 1.047281 0.992871 0.032743 -0.004271 -137973.000000 0 0 1
-14.801577 -27.761333 19.531041 37.030256 1.080964 1.015218 0.035288 -0.010096 -305040.000000 0 0 1
-15.015877 -29.134433 19.460641 38.118346 1.094905 1.034993 0.043945 -0.010577 297342.000000 0 0 1
-14.219377 -29.801333 18.296841 37.750292 1.125604 1.064798 0.045707 -0.014856 248714.000000 0 0 1
-14.593577 -29.219833 17.070141 36.853234 1.107596 1.089202 0.040945 -0.015827 -207368.000000 0 0 1
-13.621477 -29.509733 16.111641 36.276080 1.138344 1.110583 0.042380 -0.018695 -241627.000000 0 0 1
-14.011277 -29.010833 14.718241 35.419923 1.120868 1.142265 0.027013 -0.018168 -319259.000000 0 0 1
-14.075877 -27.623533 14.601641 34.269488 1.099529 1.130638 0.032445 -0.021646 -170315.000000 0 0 1
-14.281177 -27.037633 13.292341 33.341745 1.084847 1.160731 0.028669 -0.019383 155795.000000 0 0 1
-13.235777 -27.326933 12.186141 32.717718 1.119748 1.189135 0.024113 -0.013157 180287.000000 0 0 1
-13.593077 -26.626933 11.041141 31.869611 1.098783 1.217015 0.019579 -0.009967 -30030.900000 0 0 1
-12.788177 -26.999133 9.901341 31.472642 1.128449 1.250760 0.022877 -0.010939 279039.000000 0 0 1
-13.095577 -26.219833 8.582741 30.539110 1.107586 1.285918 0.012321 -0.001982 19845.500000 0 0 1
-14.226777 -26.666833 7.860241 31.229866 1.080709 1.316370 0.020008 -0.018953 -151086.000000 0 0 1
-14.379677 -25.913133 6.634941 30.369195 1.064185 1.350544 0.013675 -0.017445 -68743.900000 0 0 1
-15.328077 -26.506533 5.598841 31.127050 1.046504 1.389941 0.008767 -0.012761 -182286.000000 0 0 1
-14.782277 -27.614233 4.912041 31.704727 1.079298 1.415239 0.017967 -0.008912 -318876.000000 0 0 1
-15.405877 -27.855333 3.693141 32.045279 1.065601 1.455292 0.017393 -0.001042 -797172.000000 0 0 1
-14.867077 -29.031933 2.885241 32.744583 1.097520 1.482568 0.026637 0.000212 476499.000000 0 0 1
-13.555477 -28.856733 2.336041 31.967469 1.131639 1.497656 0.018411 0.006129 360377.000000 0 0 1
-13.152977 -30.064233 1.722141 32.860686 1.158389 1.518365 0.014521 0.005207 167991.000000 0 0 1
-11.825577 -29.973433 0.919941 32.235031 1.195010 1.542254 0.000433 0.006273 155027.000000 0 0 1
-11.771777 -29.211833 -0.289359 31.495867 1.187724 1.579984 -0.001812 0.012730 -178128.000000 0 0 1
-11.844077 -27.782633 -0.090859 30.202071 1.167815 1.573805 -0.002828 0.005471 -249835.000000 0 0 1
-11.687977 -27.007433 -1.485759 29.465534 1.162364 1.621241 -0.001612 0.013873 1054940.000000 0 0 1
-10.357877 -27.164533 -2.032859 29.143266 1.206513 1.640607 -0.006348 0.014217 682526.000000 0 0 1
-10.186877 -26.402933 -3.220859 28.482648 1.202570 1.684120 0.010103 0.004722 474889.000000 0 0 1
-8.748477 -26.629233 -3.763359 28.280997 1.253376 1.704262 0.007004 0.003157 402417.000000 0 0 1
-8.469877 -25.947633 -4.945359 27.739413 1.255279 1.750034 0.012226 0.003183 -567237.000000 0 0 1
-7.220777 -26.382433 -5.434659 27.887415 1.303642 1.766930 0.015722 0.005875 82742.700000 0 0 1
-6.528577 -25.237033 -6.209259 26.797109 1.317655 1.804635 0.007391 0.004853 -371914.000000 0 0 1
-6.952877 -24.907633 -7.535459 26.935401 1.298579 1.854341 0.014759 0.000918 -558407.000000 0 0 1
-6.156877 -23.930633 -8.099559 26.003561 1.318978 1.887545 0.004959 0.005541 -588756.000000 0 0 1
-6.408377 -23.701933 -9.602759 26.364027 1.306736 1.943610 0.019715 0.001334 5297.880000 0 0 1
-5.926377 -24.856133 -10.318459 27.557574 1.336739 1.954581 0.011029 0.002342 89477.600000 0 0 1
-6.200177 -24.940133 -11.745859 28.256285 1.327133 1.999498 0.002894 0.015939 549901.000000 0 0 1
-7.628077 -25.438633 -12.158559 29.208597 1.279466 2.000132 0.000073 0.002502 457579.000000 0 0 1
-7.711977 -25.615333 -13.527559 29.976903 1.278359 2.038980 0.005978 0.009085 -349613.000000 0 0 1
-8.774077 -26.476233 -13.811159 31.124323 1.250792 2.030566 0.009075 0.002674 -1039440.000000 0 0 1
-8.916577 -26.520133 -15.401559 31.937921 1.246451 2.074000 0.008709 0.003926 39929.700000 0 0 1
-7.937577 -27.099033 -16.241759 32.575412 1.285857 2.092767 0.000281 0.004171 298932.000000 0 0 1
-6.581977 -26.701533 -16.080559 31.857160 1.329113 2.099913 0.014284 0.006232 -336640.000000 0 0 1
-5.643777 -27.483633 -16.947359 32.778274 1.368261 2.114174 0.008090 0.004440 -534142.000000 0 0 1
-5.841277 -27.085433 -18.288259 33.199422 1.358388 2.154192 0.027308 0.003544 -99849.300000 0 0 1
-4.984977 -27.874233 -19.047559 34.126710 1.393829 2.162942 0.007785 -0.001491 -350554.000000 0 0 1
-24.360777 14.787184 -5.739755 29.069796 -0.545556 1.769550 0.003288 -0.015385 -2401.460000 0 0 1
-24.640877 13.452684 -5.285755 28.567232 -0.499728 1.756897 -0.006357 -0.008039 110057.000000 0 0 1
-23.460477 12.773184 -4.928955 27.163262 -0.498576 1.753264 0.011975 -0.009595 -457857.000000 0 0 1
-23.650177 11.321984 -4.402755 26.587637 -0.446485 1.737157 0.017289 -0.014188 -74723.100000 0 0 1
-24.146777 10.415984 -5.378455 26.841896 -0.407246 1.772537 0.023173 -0.017121 345397.000000 0 0 1
-25.556287 10.377084 -5.534555 28.132526 -0.385709 1.768820 0.013834 -0.021233 35231.700000 0 0 1
-26.076497 9.878684 -6.935555 28.734544 -0.362128 1.814570 0.034962 -0.021148 -72329.000000 0 0 1
-25.761647 10.806084 -7.994555 29.057647 -0.397172 1.849519 0.062087 -0.014792 -89010.000000 0 0 1
-26.117387 10.340584 -9.265555 29.578643 -0.376990 1.889411 0.065429 -0.012457 -405025.000000 0 0 1
-26.503207 11.433084 -10.294355 30.644888 -0.407266 1.913382 0.028704 -0.011387 -375245.000000 0 0 1
-25.455987 12.258984 -10.698055 30.211560 -0.448800 1.932753 0.041942 -0.018795 -61701.100000 0 0 1
-25.815077 12.906784 -11.921155 31.226867 -0.463624 1.962496 0.035565 -0.020988 467012.000000 0 0 1
-24.633277 13.819784 -12.399455 30.846900 -0.511265 1.984461 0.040548 -0.018547 200674.000000 0 0 1
-24.416877 14.948284 -11.602855 30.891121 -0.549350 1.955846 0.038326 -0.015100 -581207.000000 0 0 1
-23.560177 15.833084 -12.178155 30.888120 -0.591705 1.976066 0.040367 -0.016130 -551109.000000 0 0 1
-23.740877 17.182384 -11.453155 31.464875 -0.626486 1.943353 0.027487 -0.003283 117748.000000 0 0 1
-23.043577 17.182484 -10.219655 30.507139 -0.640712 1.912393 0.025926 0.003737 69896.900000 0 0 1
-22.951377 18.525084 -9.798355 31.079772 -0.679082 1.891532 0.005836 0.012850 -223156.000000 0 0 1
-21.876277 18.812684 -8.736655 30.146604 -0.710247 1.864820 0.005394 0.015217 -262960.000000 0 0 1
-22.106577 18.377584 -7.400255 29.685015 -0.693547 1.822746 0.011582 0.009369 -245730.000000 0 0 1
-23.121077 19.076984 -6.730555 30.721587 -0.689854 1.791670 0.003896 -0.000142 -119982.000000 0 0 1
-23.586177 18.361384 -5.421455 30.378287 -0.661481 1.750222 -0.006260 0.003090 478013.000000 0 0 1
-22.479077 18.315984 -4.528655 29.347792 -0.683701 1.725725 0.009165 -0.011500 440386.000000 0 0 1
-22.909377 18.142984 -3.207055 29.398854 -0.669810 1.680102 -0.009742 -0.007061 -799946.000000 0 0 1
-21.803477 17.837284 -2.249655 28.259888 -0.685677 1.650487 0.004376 -0.018880 -1121670.000000 0 0 1
-20.981977 18.929384 -1.989855 28.328863 -0.734015 1.641095 0.016116 -0.029705 362537.000000 0 0 1
-20.050177 18.635684 -0.924555 27.388923 -0.748851 1.604559 0.040847 -0.032539 594074.000000 0 0 1
-19.205477 19.819684 -0.386155 27.601075 -0.801136 1.584787 0.049908 -0.041266 -101190.000000 0 0 1
-19.933677 20.576284 0.526945 28.653318 -0.801260 1.552405 0.038858 -0.032237 98549.800000 0 0 1
-19.370877 21.849084 0.739445 29.208905 -0.845447 1.545478 0.045371 -0.038361 -114172.000000 0 0 1
-20.199477 22.586284 1.786345 30.353750 -0.841125 1.511911 0.031107 -0.029058 -170725.000000 0 0 1
-20.113677 22.212384 3.140945 30.129977 -0.834942 1.466360 0.022332 -0.016884 84491.200000 0 0 1
-21.294277 22.418584 3.896445 31.164426 -0.811113 1.445440 0.012234 -0.020660 47315.700000 0 0 1
-21.044377 22.020884 5.353845 30.926506 -0.808069 1.396805 0.018052 -0.011463 6497.330000 0 0 1
-20.182877 22.906184 6.049145 31.122885 -0.848516 1.375188 0.016036 -0.006973 -164800.000000 0 0 1
-19.625577 22.275184 7.182545 30.544002 -0.848549 1.333419 0.004289 0.001856 -222353.000000 0 0 1
-20.438077 22.048184 8.519545 31.247721 -0.823277 1.294655 0.017862 -0.014339 -525251.000000 0 0 1
-21.539377 21.195984 8.436345 31.374933 -0.777363 1.298558 0.023130 -0.013327 25305.000000 0 0 1
-22.013277 20.771984 9.719645 31.788853 -0.756394 1.260064 0.035559 -0.017752 147402.000000 0 0 1
-22.794077 21.654584 10.718245 33.217040 -0.759768 1.242244 0.034809 -0.013795 752611.000000 0 0 1
-24.133277 22.077484 10.359145 34.309507 -0.740940 1.264078 0.047032 -0.016118 1247940.000000 0 0 1
-24.581677 22.973784 11.345645 35.507425 -0.751600 1.245564 0.055590 -0.009029 364317.000000 0 0 1
-26.012167 23.553684 11.077245 36.798291 -0.735838 1.265028 0.045911 -0.019637 426287.000000 0 0 1
-26.597707 24.266584 12.159645 38.002133 -0.739600 1.245096 0.041400 -0.020174 283729.000000 0 0 1
-26.417327 25.641884 12.092245 38.750533 -0.770504 1.253442 0.031840 -0.018882 -83205.800000 0 0 1
-26.888187 26.206784 13.455045 39.884939 -0.772565 1.226700 0.035422 -0.020097 -210708.000000 0 0 1
-26.130217 25.803984 14.552545 39.502030 -0.779117 1.193509 0.017941 -0.018557 -69739.200000 0 0 1
-26.585237 26.410484 15.767945 40.656077 -0.782101 1.172512 0.013594 -0.010520 459087.000000 0 0 1
-25.470577 26.521784 16.869545 40.456605 -0.805614 1.140678 0.013506 -0.016725 383730.000000 0 0 1
-25.280117 25.345084 17.610245 39.894590 -0.786681 1.113616 0.028489 -0.018747 -404010.000000 0 0 1
-24.170577 25.558784 18.410945 39.704296 -0.813306 1.088628 0.025741 -0.016708 -1163010.000000 0 0 1
-23.803677 24.264184 19.088345 38.983722 -0.794978 1.059109 0.025721 -0.011925 -891302.000000 0 0 1
-22.552377 24.218184 19.689745 38.507353 -0.821000 1.034071 0.031478 -0.013224 -231858.000000 0 0 1
-22.129177 22.878484 19.821245 37.496763 -0.802045 1.013832 0.039611 -0.018708 -281731.000000 0 0 1
-20.689277 22.727184 20.342345 36.856235 -0.832302 0.986110 0.040541 -0.016984 -314983.000000 0 0 1
-19.688977 22.866484 19.335245 35.838298 -0.859927 1.000937 0.031867 -0.021030 1095350.000000 0 0 1
-18.342577 22.511984 19.690145 35.084774 -0.887101 0.974942 0.028311 -0.018389 741792.000000 0 0 1
-18.074477 20.954584 19.879245 34.072947 -0.859059 0.947848 0.033925 -0.014164 -855465.000000 0 0 1
-18.723677 20.408384 21.015445 34.766753 -0.828423 0.921696 0.051264 -0.014909 -118760.000000 0 0 1
-18.145577 20.736184 22.250445 35.416572 -0.851928 0.891495 0.055724 -0.018135 -291034.000000 0 0 1
-19.089277 20.554384 23.461745 36.569614 -0.822338 0.874261 0.049015 -0.012349 -450176.000000 0 0 1
-20.005777 21.589184 23.613345 37.734786 -0.823447 0.894676 0.037599 -0.014251 -295830.000000 0 0 1
-20.567777 21.607584 24.918345 38.869590 -0.810048 0.874897 0.041102 -0.011250 115322.000000 0 0 1
-21.587977 22.767084 24.988945 40.110201 -0.811975 0.898215 0.039224 -0.002650 -1088660.000000 0 0 1
-20.971277 23.950684 25.262045 40.639890 -0.851625 0.900004 0.029359 -0.002782 -45657.100000 0 0 1
-21.820377 25.088784 25.226745 41.736849 -0.854961 0.921754 0.015447 0.008045 -69243.400000 0 0 1
-22.635277 25.370284 23.945045 41.585722 -0.842309 0.957214 0.000568 -0.006879 572713.000000 0 0 1
-23.814677 24.568084 23.766745 41.660386 -0.800969 0.963697 0.001038 -0.007299 108165.000000 0 0 1
-24.597977 25.052584 22.760745 41.841892 -0.794554 0.995635 -0.001957 -0.009835 -43033.000000 0 0 1
-25.690707 24.064984 22.266545 41.652550 -0.752736 1.006788 0.008093 -0.010360 488167.000000 0 0 1
-26.852137 23.838484 23.053045 42.670288 -0.726016 1.000050 0.012452 -0.011695 343484.000000 0 0 1
-27.657697 22.837484 22.454545 42.316728 -0.690228 1.011452 0.014470 -0.010368 87919.200000 0 0 1
-29.175037 22.941384 22.723745 43.518484 -0.666354 1.021411 0.026009 -0.004703 -883174.000000 0 0 1
-29.648787 24.010384 22.011245 44.045931 -0.680704 1.047505 0.016502 -0.007424 248274.000000 0 0 1
-31.075347 23.964584 21.985645 44.981630 -0.656917 1.060118 0.011944 0.000833 579458.000000 0 0 1
-31.812837 23.008084 21.011645 44.529965 -0.626149 1.079404 0.018771 -0.008776 -1250890.000000 0 0 1
-31.736527 21.605884 21.355445 43.932635 -0.597716 1.063180 0.012695 -0.006481 413920.000000 0 0 1
-32.359507 20.756484 20.393245 43.518430 -0.570330 1.083078 0.011866 -0.008370 -763129.000000 0 0 1
-33.872237 20.810784 20.335445 44.653639 -0.550934 1.097970 0.008923 -0.011279 -1198680.000000 0 0 1
-34.410650 20.087784 19.226545 44.241066 -0.528398 1.121218 0.016646 -0.017895 492239.000000 0 0 1
34.872489 20.186084 19.211045 44.638915 0.524726 1.125899 0.025120 -0.017498 682239.000000 0 0 1
34.239731 19.389984 18.005245 43.272618 0.515272 1.141657 0.035674 -0.012980 -208905.000000 0 0 1
34.351751 18.016184 18.171045 42.834712 0.483025 1.132704 0.045940 -0.024781 394847.000000 0 0 1
33.725181 17.179284 17.196045 41.571860 0.471132 1.144341 0.047345 -0.028263 4965.020000 0 0 1
33.931711 15.707684 17.473145 41.272304 0.433546 1.133643 0.046738 -0.027007 -165670.000000 0 0 1
33.094011 14.881784 16.693045 39.941692 0.422590 1.139625 0.046607 -0.028233 235770.000000 0 0 1
33.472231 13.495384 16.791845 39.805548 0.383246 1.135315 0.039263 -0.021460 218532.000000 0 0 1
32.634531 12.520784 15.882045 38.392994 0.366347 1.144314 0.036950 -0.027058 241369.000000 0 0 1
32.735481 12.892784 14.487045 38.048785 0.375191 1.180190 0.040410 -0.023778 329502.000000 0 0 1
31.924691 12.023484 13.735245 36.775087 0.360190 1.188024 0.040648 -0.016000 -310924.000000 0 0 1
31.952221 12.385184 12.221445 36.382701 0.369785 1.228221 0.039911 -0.019951 -89666.400000 0 0 1
33.209221 12.261684 11.574645 37.244780 0.353698 1.254791 0.047520 -0.014073 578252.000000 0 0 1
33.125391 12.724484 10.214845 36.926238 0.366752 1.290513 0.041998 0.002076 221289.000000 0 0 1
34.533551 12.597284 9.551845 37.980198 0.349784 1.316571 0.021398 0.012331 289006.000000 0 0 1
34.895218 11.242084 9.430845 37.855006 0.311667 1.319014 0.016775 0.014680 146482.000000 0 0 1
-34.447516 11.101384 9.099345 37.318497 -0.311760 1.324484 0.013933 0.021641 76530.200000 0 0 1
-34.141565 10.801384 7.631945 36.613699 -0.306407 1.360811 0.008693 0.019868 -120631.000000 0 0 1
-34.527016 11.872684 6.774645 37.134503 -0.331200 1.387334 -0.002219 0.017089 315674.000000 0 0 1
-34.024077 11.606984 5.450745 36.360288 -0.328760 1.420320 0.005897 0.003846 149006.000000 0 0 1
-34.707622 12.554584 4.478845 37.179251 -0.347081 1.450037 0.012411 0.015848 -582202.000000 0 0 1
34.644245 12.283784 4.206045 36.997376 0.340740 1.456865 0.020444 0.007384 530940.000000 0 0 1
33.834431 13.511084 4.195845 36.673195 0.379928 1.456133 0.028223 0.002249 590067.000000 0 0 1
33.587661 14.146184 5.578545 36.869576 0.398624 1.418908 0.034468 0.004689 -1404040.000000 0 0 1
33.524511 15.567384 5.613645 37.386485 0.434730 1.420075 0.033607 0.005338 422844.000000 0 0 1
32.922601 16.063584 6.839345 37.265440 0.453937 1.386220 -0.000686 0.007990 446627.000000 0 0 1
31.492821 15.644984 7.292845 35.913074 0.461068 1.366305 0.011551 0.009709 -221979.000000 0 0 1
31.366641 14.365084 7.828645 35.376680 0.429465 1.347655 0.035757 0.002491 -501034.000000 0 0 1
30.058511 13.966884 8.105045 34.121542 0.434975 1.330969 0.033982 -0.009257 -483380.000000 0 0 1
29.893111 12.515884 7.589845 33.284398 0.396512 1.340742 0.049172 -0.000133 -112535.000000 0 0 1
30.062391 12.433084 6.147545 33.107721 0.392155 1.384029 0.038981 0.002341 258634.000000 0 0 1
30.277761 11.147884 5.737845 32.771039 0.352784 1.394800 0.055583 -0.000040 -227567.000000 0 0 1
30.269581 11.103484 4.173445 32.510806 0.351580 1.442070 0.042349 -0.006798 76270.200000 0 0 1
28.933281 11.133584 3.723545 31.224289 0.367336 1.451260 0.049633 -0.005860 180185.000000 0 0 1
28.808531 11.528184 2.362945 31.119350 0.380649 1.494791 0.051890 -0.012977 -727924.000000 0 0 1
27.357011 11.418284 1.934245 29.707315 0.395399 1.505640 0.056475 -0.005205 -651864.000000 0 0 1
27.037821 10.097784 1.616545 28.907131 0.357428 1.514845 0.050321 -0.006413 230258.000000 0 0 1
25.630241 9.933184 1.678345 27.538958 0.369734 1.509814 0.048561 -0.005253 226547.000000 0 0 1
25.099541 8.480984 1.497545 26.535950 0.325850 1.514332 0.048058 -0.009516 -13870.300000 0 0 1
25.358041 7.638184 2.588745 26.609654 0.292570 1.473356 0.054937 -0.008713 358992.000000 0 0 1
26.703451 7.203884 2.692245 27.788818 0.263501 1.473762 0.079392 -0.016389 -79365.900000 0 0 1
26.949711 6.426384 3.985545 27.990532 0.234087 1.427922 0.083841 -0.027765 -505496.000000 0 0 1
28.322581 6.181284 4.117145 29.280159 0.214876 1.429717 0.095721 -0.026783 -58352.100000 0 0 1
28.585871 5.750184 5.461945 29.665628 0.198506 1.385623 0.076634 -0.015637 -601848.000000 0 0 1
30.078241 5.806784 5.747745 31.168187 0.190710 1.385324 0.077024 -0.011990 -489118.000000 0 0 1
30.614191 7.131084 5.915045 31.985446 0.228853 1.384796 0.071647 -0.014445 -591307.000000 0 0 1
31.916581 7.019784 6.387145 33.297764 0.216495 1.377781 0.041535 -0.002630 -621917.000000 0 0 1
32.347441 8.137884 7.339645 34.153367 0.246463 1.354204 0.036282 -0.005011 104113.000000 0 0 1
31.637051 8.153184 8.612645 33.786906 0.252222 1.313041 0.055220 -0.003147 584041.000000 0 0 1
32.124851 9.153184 9.543645 34.740005 0.277570 1.292502 0.057130 0.003240 -37915.200000 0 0 1
31.549841 8.986384 10.953545 34.585079 0.277483 1.248534 0.054766 -0.005480 127338.000000 0 0 1
30.205301 9.419884 11.072145 33.521438 0.302303 1.234174 0.049982 -0.008950 487705.000000 0 0 1
29.608331 9.164784 12.354245 33.365759 0.300180 1.191500 0.046362 -0.015712 496771.000000 0 0 1
28.144281 9.669084 12.564545 32.302624 0.330921 1.171290 0.037301 -0.017778 326073.000000 0 0 1
28.038541 11.123984 12.663245 32.714837 0.377692 1.173334 0.022548 -0.020393 173840.000000 0 0 1
28.185431 11.853684 11.469645 32.657022 0.398104 1.211928 0.036827 -0.023169 -415965.000000 0 0 1
27.007691 11.792784 10.455845 31.269950 0.411693 1.229856 0.017748 -0.015119 -81069.800000 0 0 1
27.006821 12.839984 9.544745 31.390057 0.443803 1.261835 0.011714 -0.000095 245571.000000 0 0 1
25.892941 12.883484 8.657245 30.189012 0.461700 1.279945 0.019570 0.001124 170213.000000 0 0 1
25.974221 14.033784 7.595145 30.484315 0.495363 1.318995 0.010233 -0.000221 -41037.500000 0 0 1
26.021601 15.256084 8.202645 31.259481 0.530274 1.305283 0.010259 0.003088 339956.000000 0 0 1
26.227021 16.319384 7.325445 31.746512 0.556609 1.337950 0.008886 0.006069 -666132.000000 0 0 1
25.948331 17.627784 8.086845 32.395242 0.596726 1.318498 0.013886 0.003410 419224.000000 0 0 1
24.606141 18.060284 8.279045 31.625600 0.633166 1.305927 0.014953 0.003975 455232.000000 0 0 1
23.690241 17.296184 9.014345 30.686217 0.630641 1.272640 0.026157 0.001851 -1592490.000000 0 0 1
22.426041 18.024484 9.280145 30.231282 0.677011 1.258787 0.038853 -0.003562 -1473080.000000 0 0 1
21.730741 18.414684 8.145445 29.625562 0.702984 1.292262 0.048782 -0.005865 -631964.000000 0 0 1
20.788741 19.386984 8.407445 29.643077 0.750522 1.283227 0.077819 -0.017589 -536343.000000 0 0 1
20.142141 19.755984 7.054045 29.082027 0.775720 1.325796 0.063075 -0.013548 -130622.000000 0 0 1
20.945741 20.571684 6.283045 30.023239 0.776389 1.359965 0.040666 0.000321 268818.000000 0 0 1
20.101041 21.033484 5.232145 29.560694 0.808062 1.392862 0.050634 -0.003634 483728.000000 0 0 1
17.876123 17.424884 32.945851 41.335353 0.772616 0.648422 0.005509 0.003562 -340852.000000 0 0 1
17.298523 18.220084 31.944211 40.640410 0.811338 0.666451 0.021821 -0.000007 685944.000000 0 0 1
16.437623 17.449584 31.046631 39.224695 0.815252 0.657525 0.038134 -0.009902 378721.000000 0 0 1
15.874123 18.290184 29.890281 38.470086 0.855999 0.680951 0.033703 -0.012052 399603.000000 0 0 1
16.831623 18.864884 28.977331 38.456119 0.842296 0.717401 0.028310 -0.003775 -196774.000000 0 0 1
16.341323 18.855984 27.681191 37.267080 0.856722 0.733585 0.053475 -0.018091 -771847.000000 0 0 1
17.334523 19.077984 26.572741 37.021152 0.833242 0.770199 0.041467 -0.009688 -957682.000000 0 0 1
17.826223 20.359784 26.697451 38.013799 0.851649 0.792160 0.039671 -0.003427 160449.000000 0 0 1
18.723923 20.668184 25.630181 37.876975 0.834715 0.827567 0.041290 -0.007888 -646927.000000 0 0 1
19.627723 21.841284 25.826731 39.106383 0.838726 0.849415 0.056416 -0.004212 -634817.000000 0 0 1
18.952323 23.074784 25.773551 39.445052 0.883176 0.858724 0.046994 -0.019601 242794.000000 0 0 1
19.750223 24.165684 26.254091 40.783929 0.885605 0.871426 0.064999 -0.022001 -242756.000000 0 0 1
19.182923 25.554284 26.141571 41.284230 0.926864 0.885103 0.062760 -0.025933 -350424.000000 0 0 1
18.957523 25.803084 24.783231 40.489447 0.937159 0.912094 0.064158 -0.030436 185490.000000 0 0 1
18.081523 26.907484 24.830941 40.835398 0.979118 0.917164 0.063617 -0.027427 -251935.000000 0 0 1
18.089423 27.660984 23.495441 40.551116 0.991636 0.952800 0.052022 -0.027629 -342243.000000 0 0 1
19.326123 28.279984 23.221641 41.382377 0.971308 0.975024 0.059284 -0.024761 -64479.900000 0 0 1
19.163523 29.503384 22.544941 41.784741 0.994747 1.000894 0.044159 -0.016929 306353.000000 0 0 1
20.493523 30.314984 22.401241 42.904525 0.976347 1.021463 0.050108 -0.009578 29955.700000 0 0 1
21.331523 29.662584 21.501041 42.393366 0.947341 1.038887 0.050303 -0.011166 -1145610.000000 0 0 1
22.490023 30.371384 21.264141 43.363415 0.933403 1.058281 0.046668 -0.014560 -767739.000000 0 0 1
22.525823 30.761184 19.754541 42.940715 0.938732 1.092754 0.040981 -0.010983 -225777.000000 0 0 1
21.536823 31.685384 19.380441 42.934832 0.973819 1.102472 0.030378 0.001074 -68652.400000 0 0 1
21.571123 31.953284 18.016941 42.555092 0.976990 1.133624 0.022682 0.000223 -190429.000000 0 0 1
20.753523 33.189484 17.565841 42.904654 1.011978 1.148983 0.037457 0.009309 -637390.000000 0 0 1
21.387723 34.417384 17.738741 44.234081 1.014774 1.158167 0.034372 0.010283 190920.000000 0 0 1
21.982023 -33.952633 16.672941 43.749029 -0.996228 1.179806 0.023117 0.007073 494048.000000 0 0 1
23.187123 -34.543733 15.833741 44.515385 -0.979634 1.207143 0.012983 0.002763 232480.000000 0 0 1
22.890523 33.470384 14.928441 43.209964 0.970955 1.218040 0.023557 -0.006508 117045.000000 0 0 1
22.187323 33.872584 13.767941 42.768977 0.990898 1.243046 0.010602 -0.005444 -46128.700000 0 0 1
21.563223 32.735084 12.957741 41.285122 0.988316 1.251541 0.013799 -0.004565 169537.000000 0 0 1
22.512723 32.172884 12.064241 41.078742 0.960243 1.272716 0.028361 -0.016603 385914.000000 0 0 1
21.925423 31.053084 11.418641 39.691353 0.956013 1.278987 0.034188 -0.022273 -811132.000000 0 0 1
22.948023 30.228784 10.608441 39.407234 0.921468 1.298234 0.029229 -0.017800 1170650.000000 0 0 1
24.001923 29.508984 11.308341 39.683132 0.887952 1.281825 0.022537 -0.011285 725634.000000 0 0 1
24.993323 30.317084 11.887341 41.049977 0.881355 1.277006 0.021984 -0.015619 287218.000000 0 0 1
26.362223 29.536084 12.147741 41.411528 0.842116 1.273076 0.014253 -0.012268 1148690.000000 0 0 1
26.371123 28.656784 13.226841 41.129025 0.826911 1.243384 0.020086 -0.005020 44284.300000 0 0 1
27.682623 28.190184 13.494341 41.750584 0.794482 1.241673 0.014842 -0.001993 188636.000000 0 0 1
27.740223 27.152184 14.680641 41.500389 0.774686 1.209222 0.001467 -0.011026 -410447.000000 0 0 1
29.004323 27.099184 15.282441 42.534333 0.751454 1.203282 -0.006364 -0.012227 -322431.000000 0 0 1
29.185423 26.125084 16.315241 42.432252 0.730124 1.176129 0.007426 -0.017842 62558.900000 0 0 1
30.505323 26.390484 17.070541 43.799951 0.713202 1.170448 0.019069 -0.008255 649565.000000 0 0 1
31.682823 26.278684 16.268641 44.261034 0.692430 1.194411 0.028611 -0.009442 713979.000000 0 0 1
32.879423 26.428784 17.051941 45.500612 0.677059 1.186655 0.024694 -0.008265 414606.000000 0 0 1
34.070323 26.860784 16.210441 46.314868 0.667623 1.213220 0.034656 -0.010750 -397703.000000 0 0 1
34.024223 28.141484 15.597441 46.828100 0.691049 1.231230 0.039086 -0.004162 -213504.000000 0 0 1
35.280023 28.423184 15.019641 47.729938 0.678174 1.250677 0.060292 -0.008729 327169.000000 0 0 1
35.207223 29.696384 14.162141 48.187031 0.700693 1.272492 0.046967 -0.009322 50425.100000 0 0 1
34.877323 30.865984 14.824741 48.876472 0.724459 1.262632 0.053344 -0.009461 14441.600000 0 0 1
34.889423 31.974784 13.970441 49.344015 0.741835 1.283747 0.031901 -0.000622 -96501.400000 0 0 1
34.263823 33.182784 14.607241 49.884649 0.769371 1.273621 0.021594 -0.001571 -538677.000000 0 0 1
34.080523 34.256384 13.675741 50.219595 0.787972 1.294994 0.004807 -0.008935 284401.000000 0 0 1
33.128023 -33.875133 14.122541 49.441245 -0.796548 1.281119 0.002675 -0.003823 764342.000000 0 0 1
31.662723 -34.192833 13.664441 48.563307 -0.823798 1.285571 0.021827 -0.002980 509747.000000 0 0 1
31.062223 33.793084 14.356741 48.093141 0.827480 1.267655 0.020230 -0.005559 49959.000000 0 0 1
29.988323 33.231084 13.628841 46.790488 0.836647 1.275238 0.015943 -0.004396 -448261.000000 0 0 1
29.459523 31.955484 14.344641 45.768823 0.826017 1.252009 0.019054 -0.011140 -278975.000000 0 0 1
28.785423 32.173084 15.555141 45.887583 0.840914 1.224960 0.026966 -0.004516 -25950.600000 0 0 1
28.680323 30.953484 16.216041 45.206626 0.823498 1.203911 0.023513 -0.010774 494209.000000 0 0 1
27.490523 31.002084 17.258641 44.885618 0.845360 1.176127 0.021610 -0.010542 484943.000000 0 0 1
27.465423 29.991384 18.205341 44.556335 0.829333 1.149886 0.017904 -0.009617 -240315.000000 0 0 1
28.265523 30.320884 19.327841 45.736869 0.820466 1.134498 0.016227 -0.004252 8799.670000 0 0 1
28.237723 29.199684 20.344141 45.429886 0.802145 1.106477 0.009018 -0.007396 292891.000000 0 0 1
26.967423 28.966584 20.946141 44.777736 0.821124 1.084019 0.017012 -0.009716 373106.000000 0 0 1
27.026623 27.952584 21.942341 44.645846 0.802239 1.057013 0.005027 -0.006624 -370050.000000 0 0 1
25.798423 28.010784 22.820541 44.395267 0.826490 1.030919 0.018639 -0.018862 -1815200.000000 0 0 1
24.610223 27.496984 22.400041 43.168380 0.840742 1.025234 0.041961 -0.019860 -1032920.000000 0 0 1
23.559823 27.833484 23.287541 43.267512 0.868363 1.002470 0.058628 -0.024437 65234.000000 0 0 1
23.309523 26.856584 24.450961 43.156221 0.855987 0.968461 0.053975 -0.031948 -752595.000000 0 0 1
24.338723 26.845384 25.391361 44.246686 0.834332 0.959586 0.037884 -0.022764 -247553.000000 0 0 1
23.977123 26.004684 26.472511 44.180763 0.825942 0.928312 0.066629 -0.019786 -684753.000000 0 0 1
25.022623 25.746284 27.565511 45.264337 0.799651 0.916010 0.060604 -0.001610 34152.400000 0 0 1
25.547123 26.856584 28.316451 46.644967 0.810381 0.918436 0.062647 -0.020905 540022.000000 0 0 1
26.308023 27.805584 27.560221 47.168086 0.813065 0.946781 0.039708 -0.003196 -738177.000000 0 0 1
26.733423 28.968284 28.431931 48.602593 0.825499 0.945931 0.011708 -0.001776 -275474.000000 0 0 1
27.556323 28.471684 29.484191 49.389323 0.801734 0.931071 0.005156 0.009626 74808.300000 0 0 1
27.803823 29.465584 30.475231 50.695294 0.814407 0.925863 0.007490 0.011244 348832.000000 0 0 1
29.334323 29.724484 30.540651 51.737595 0.792004 0.939367 -0.014210 0.008312 317587.000000 0 0 1
29.811823 30.147184 29.217951 51.490641 0.790991 0.967400 -0.022262 0.007066 -355879.000000 0 0 1
31.210423 30.287984 29.235511 52.403889 0.770400 0.978957 0.007477 -0.001898 -49290.000000 0 0 1
31.649823 30.744484 27.806951 52.155163 0.770889 1.008467 -0.001428 0.001057 -68988.600000 0 0 1
31.252523 32.055084 27.517631 52.549677 0.798075 1.019667 -0.003353 -0.000137 209484.000000 0 0 1
31.873023 32.353684 26.300201 52.481911 0.792882 1.045894 0.001635 -0.001760 -34661.300000 0 0 1
31.753623 33.833884 25.875971 53.128054 0.817105 1.062089 0.006760 -0.013737 96504.700000 0 0 1
32.637723 -34.468333 26.666951 54.446425 -0.812671 1.058955 0.017088 -0.009028 340183.000000 0 0 1
32.233523 -33.106233 26.564511 53.298179 -0.798754 1.049029 0.014519 -0.006240 -163336.000000 0 0 1
33.071223 -32.030033 27.303711 53.526829 -0.769406 1.035502 0.020594 -0.009970 -126747.000000 0 0 1
33.022123 -32.115733 28.742431 54.295563 -0.771484 1.012939 0.024067 -0.019194 185556.000000 0 0 1
34.117323 -31.456733 29.321611 54.893302 -0.744847 1.007287 0.023378 -0.023153 -388104.000000 0 0 1
33.771323 -30.821233 30.703821 55.074270 -0.739758 0.979427 0.025968 -0.018215 -156315.000000 0 0 1
33.763923 -31.754433 31.747721 56.180640 -0.754737 0.970241 0.025535 -0.010794 433642.000000 0 0 1
32.514123 -32.427033 31.864051 55.892740 -0.784057 0.964177 0.027746 -0.021199 -112006.000000 0 0 1
32.520523 -33.434033 33.039069 57.157668 -0.799248 0.954479 0.035782 -0.016555 -542576.000000 0 0 1
32.385323 -32.767633 34.304678 57.439863 -0.791266 0.930756 0.023550 -0.017244 117398.000000 0 0 1
32.534223 -33.493833 -33.516185 57.477362 -0.799931 2.193360 0.025920 -0.011905 -177839.000000 0 0 1
31.722023 34.297684 -33.384965 57.421022 0.824392 2.191253 0.014716 -0.009440 -186471.000000 0 0 1
32.037523 33.284384 -34.345622 57.566265 0.804484 2.210089 0.019560 -0.009263 239240.000000 0 0 1
31.093323 32.224484 -34.216317 56.355731 0.803261 2.223264 0.020386 -0.000072 220731.000000 0 0 1
31.217523 31.212084 33.674551 55.522097 0.785311 0.919136 0.015726 0.002037 -263243.000000 0 0 1
32.508923 30.686284 33.521215 55.876202 0.756565 0.927396 0.016622 -0.001699 -281253.000000 0 0 1
32.569923 29.776584 32.517891 54.816585 0.740625 0.935753 0.008220 -0.000913 385363.000000 0 0 1
33.944523 29.056184 32.287611 55.126965 0.707962 0.945059 0.020181 -0.001347 440102.000000 0 0 1
34.100523 27.878384 33.095709 55.094245 0.685342 0.926406 0.016813 0.003123 936671.000000 0 0 1
35.347823 27.275084 32.683461 55.331794 0.657195 0.938893 0.003502 -0.000788 808201.000000 0 0 1
-34.947895 26.037284 33.544236 54.995557 -0.640314 0.914806 0.003079 -0.000783 -335679.000000 0 0 1
35.188323 24.830084 33.227574 54.395062 0.614497 0.913654 -0.000655 0.000530 -87635.100000 0 0 1
-35.346395 23.839884 34.279572 54.706460 -0.593382 0.893602 0.005016 -0.005919 85434.600000 0 0 1
34.954123 22.475084 33.654526 53.474734 0.571430 0.890075 0.001235 -0.015927 60278.600000 0 0 1
-34.776395 22.034784 32.732321 52.595952 -0.564769 0.899074 0.006881 -0.008175 130496.000000 0 0 1
-35.173795 20.788284 32.191581 52.015829 -0.533788 0.903480 0.004716 -0.008242 3845.200000 0 0 1
-34.122595 20.078584 31.316371 50.479859 -0.531865 0.901577 -0.004034 -0.014412 -114228.000000 0 0 1
-33.882995 20.710984 30.065151 49.808790 -0.548651 0.922773 -0.004758 -0.008864 -70009.800000 0 0 1
-32.854895 19.914484 29.488771 48.431585 -0.544918 0.916155 0.010600 -0.009457 -167031.000000 0 0 1
-33.206395 18.899484 28.343621 47.573270 -0.517428 0.932549 0.014889 -0.006103 -372152.000000 0 0 1
-34.043495 17.888584 28.867321 48.086206 -0.483810 0.926890 0.009823 -0.009589 218297.000000 0 0 1
-34.588895 17.049784 27.867601 47.578251 -0.457973 0.945026 0.015573 -0.019716 -9598.200000 0 0 1
-35.201895 15.741184 28.388751 47.884021 -0.420497 0.936185 0.022312 -0.033036 184402.000000 0 0 1
-34.198195 14.941784 29.010101 47.269011 -0.411921 0.910028 0.028261 -0.025178 623953.000000 0 0 1
-34.801695 13.715684 29.384851 47.568345 -0.375418 0.904931 0.041439 -0.031943 -370367.000000 0 0 1
-33.819695 12.675784 29.873361 46.870726 -0.358600 0.879734 0.041668 -0.024447 -557758.000000 0 0 1
-33.234895 13.062084 31.131521 47.374549 -0.374477 0.853783 0.032186 -0.017972 250870.000000 0 0 1
-32.283395 12.117384 31.542351 46.732949 -0.359072 0.829901 0.042202 -0.021362 -55542.500000 0 0 1
-30.811995 12.518584 31.330781 45.691485 -0.385916 0.815227 0.040656 -0.016677 -1008440.000000 0 0 1
-30.295695 12.730284 30.012251 44.504208 -0.397799 0.830687 0.041326 -0.012488 930081.000000 0 0 1
-28.912795 13.063284 29.882061 43.583675 -0.424364 0.815334 0.039320 -0.011740 1087310.000000 0 0 1
-27.819795 12.096084 30.439631 42.974730 -0.410143 0.783689 0.039284 -0.005892 -356866.000000 0 0 1
-27.502595 10.997684 29.588341 41.866594 -0.380401 0.785932 0.031296 -0.001826 41628.600000 0 0 1
-26.374295 10.347284 30.141891 41.366693 -0.373872 0.754446 0.025726 0.005034 -209338.000000 0 0 1
-25.979995 9.036284 29.368581 40.238391 -0.334729 0.752672 0.007932 0.012135 -243482.000000 0 0 1
-26.897495 8.001484 29.461901 40.687868 -0.289144 0.761074 0.006175 0.009404 303343.000000 0 0 1
-28.128895 8.138184 28.735741 41.026913 -0.281628 0.794822 0.022430 0.001348 732012.000000 0 0 1
-29.074695 6.895484 28.630361 41.383368 -0.232862 0.806772 0.024675 0.003756 10578.100000 0 0 1
-29.774895 6.588884 29.798201 42.636728 -0.217780 0.796958 0.028619 0.000676 -108180.000000 0 0 1
-30.029095 5.201884 29.978101 42.749184 -0.171526 0.793639 0.024531 0.004683 -240582.000000 0 0 1
-30.791895 4.909084 31.270611 44.159835 -0.158097 0.783959 0.009691 0.003492 -458970.000000 0 0 1
-32.060495 5.465584 31.358971 45.178900 -0.168854 0.803618 0.022297 -0.001412 -255436.000000 0 0 1
-32.831695 4.990184 32.493671 46.461391 -0.150838 0.796282 0.030934 0.001765 38950.400000 0 0 1
-34.206095 5.619984 32.647151 47.618039 -0.162843 0.815362 0.030916 0.001342 -410811.000000 0 0 1
-34.198695 6.983284 32.904011 47.968646 -0.201428 0.814890 0.035999 -0.007473 970689.000000 0 0 1
35.154923 7.493184 32.822361 48.675700 0.210005 0.830771 0.042593 -0.007892 1175590.000000 0 0 1
34.950923 8.989584 33.071603 48.950082 0.251749 0.828992 0.043166 0.000229 -149966.000000 0 0 1
35.087623 9.270484 34.426839 50.022898 0.258307 0.811761 0.042430 -0.002573 154052.000000 0 0 1
34.659723 10.535484 -34.168605 49.797453 0.295094 2.326982 0.042480 -0.014940 -161285.000000 0 0 1
34.630923 10.682884 -32.569535 48.725757 0.299217 2.302886 0.040860 -0.015477 -303445.000000 0 0 1
33.600723 9.911184 -32.013645 47.456439 0.286835 2.311206 0.044468 -0.004040 -182659.000000 0 0 1
33.532423 10.083184 -30.580365 46.489275 0.292098 2.288682 0.023338 0.001339 -293151.000000 0 0 1
32.279023 9.564584 -29.888065 45.019029 0.288068 2.296816 0.016030 0.005379 -297497.000000 0 0 1
32.330823 8.127884 -29.843225 44.743297 0.246293 2.300955 0.016399 0.009155 924529.000000 0 0 1
31.034623 7.629484 -29.477375 43.477264 0.241057 2.315828 0.007560 0.012327 541068.000000 0 0 1
33.723111 6.784384 -19.984955 39.782842 0.198529 2.097112 0.001940 -0.002076 -353846.000000 0 0 1
33.407991 7.702484 -18.955155 39.175503 0.226598 2.075848 0.001240 0.006026 280787.000000 0 0 1
34.165141 8.900484 -19.072755 40.127864 0.254849 2.066101 -0.001019 -0.001122 -1084610.000000 0 0 1
-35.140431 8.864484 -18.471055 40.676883 -0.247103 2.042149 -0.000343 0.000967 -59350.900000 0 0 1
-34.076174 8.228784 -19.176555 39.957963 -0.236946 2.071358 0.002142 -0.006677 578060.000000 0 0 1
-33.649237 8.906984 -20.332755 40.311617 -0.258766 2.099471 -0.002929 -0.007250 -532411.000000 0 0 1
-32.750257 8.074084 -21.315255 39.901257 -0.241715 2.134358 -0.004504 -0.000450 186017.000000 0 0 1
-33.406177 6.999884 -21.957455 40.584491 -0.206550 2.142459 -0.006101 0.007084 271887.000000 0 0 1
-34.293485 7.263284 -23.017055 41.935465 -0.208713 2.151806 0.002280 0.009844 51465.800000 0 0 1
-34.254112 6.058684 -24.012655 42.268895 -0.175064 2.174983 0.004671 0.007920 548349.000000 0 0 1
-32.993207 5.897384 -24.676455 41.620407 -0.176877 2.205443 0.003652 0.001896 528716.000000 0 0 1
-32.867657 4.682384 -25.401295 41.802313 -0.141510 2.223898 0.009197 0.012449 533376.000000 0 0 1
-31.509627 4.679884 -26.174865 41.229619 -0.147444 2.258618 0.017400 0.007012 516657.000000 0 0 1
-30.319407 4.636584 -25.444165 39.851850 -0.151749 2.263304 0.011912 0.003713 -446811.000000 0 0 1
-29.230657 4.144384 -26.182695 39.460623 -0.140843 2.296303 0.011448 0.003807 391408.000000 0 0 1
-27.861937 4.352684 -25.459125 37.992110 -0.154971 2.305162 0.020581 -0.007751 335072.000000 0 0 1
-27.592917 5.757584 -25.398725 37.942247 -0.205710 2.304204 0.015635 0.003159 843094.000000 0 0 1
-26.341037 6.078484 -24.747655 36.650302 -0.226791 2.312083 0.020079 0.000838 684172.000000 0 0 1
-25.966347 7.548784 -24.963255 36.802166 -0.282916 2.316256 0.017066 -0.004915 -79032.800000 0 0 1
-26.681347 8.544884 -24.228755 37.039734 -0.309936 2.283827 0.027511 -0.010937 -186092.000000 0 0 1
-26.483137 9.884584 -24.662855 37.514237 -0.357227 2.288195 0.011828 -0.011560 642986.000000 0 0 1
-25.122997 10.536684 -24.188455 36.431690 -0.397121 2.296872 0.037476 -0.012752 910622.000000 0 0 1
-25.050377 10.660184 -22.813455 35.519215 -0.402336 2.268272 0.026833 -0.010001 -464233.000000 0 0 1
-23.737977 11.030284 -22.539655 34.542652 -0.434985 2.281697 0.049252 -0.010116 -719087.000000 0 0 1
-23.654477 11.586284 -21.091555 33.743591 -0.455465 2.245997 0.057382 -0.026068 -1036020.000000 0 0 1
-24.147177 12.866284 -20.777955 34.356235 -0.489564 2.220286 0.043650 -0.026576 63678.600000 0 0 1
-25.523597 13.123084 -20.683555 35.376246 -0.474907 2.195274 0.048053 -0.021655 -381600.000000 0 0 1
-26.305477 12.244884 -19.676055 35.057987 -0.435659 2.166683 0.024631 -0.007792 -975538.000000 0 0 1
-26.125167 12.576684 -18.328555 34.302088 -0.448658 2.134508 0.025786 -0.013025 464291.000000 0 0 1
-27.221147 12.037684 -17.603755 34.580181 -0.416364 2.104901 0.015626 -0.011486 -526808.000000 0 0 1
-26.888627 11.620684 -16.140755 33.444918 -0.407935 2.074425 0.032892 -0.010742 -176692.000000 0 0 1
-26.082797 10.470484 -16.138655 32.409868 -0.381741 2.092035 0.044887 -0.012918 256099.000000 0 0 1
-24.706777 10.779484 -15.990955 31.342188 -0.411400 2.106220 0.046382 -0.015171 -493941.000000 0 0 1
-23.881177 9.489884 -16.076355 30.312006 -0.378245 2.129825 0.051069 -0.015290 -962583.000000 0 0 1
-22.506677 9.677884 -16.001255 29.261786 -0.406099 2.149371 0.061198 -0.014555 -313509.000000 0 0 1
-21.874377 8.384784 -15.822055 28.268895 -0.366041 2.164818 0.053335 -0.012385 567724.000000 0 0 1
-20.332377 8.498084 -15.601555 27.000584 -0.395891 2.186855 0.072874 -0.013014 289957.000000 0 0 1
-19.685177 8.976684 -16.774755 27.376623 -0.427843 2.230320 0.077826 -0.020274 283638.000000 0 0 1
-18.288577 8.955484 -16.508855 26.214787 -0.455355 2.252032 0.087459 -0.018037 -83299.100000 0 0 1
-17.410777 9.506384 -17.647255 26.550558 -0.499771 2.297843 0.061009 -0.014211 -288244.000000 0 0 1
-17.219977 8.665484 -18.773355 26.908309 -0.466222 2.342949 0.083659 -0.022988 449081.000000 0 0 1
-16.281977 7.593284 -18.634955 25.884789 -0.436376 2.374482 0.083997 -0.021305 -226483.000000 0 0 1
-15.942877 6.793684 -19.968255 26.439756 -0.402824 2.426810 0.062400 -0.020195 969642.000000 0 0 1
-17.034477 5.960784 -20.427555 27.257831 -0.336608 2.417981 0.070650 -0.011837 1096410.000000 0 0 1
-18.019977 6.676684 -21.185655 28.602966 -0.354833 2.404879 0.064717 -0.019262 378339.000000 0 0 1
-19.082777 5.760384 -21.880455 29.598796 -0.293165 2.402729 0.058818 -0.006677 268088.000000 0 0 1
-19.900877 5.051984 -20.942355 29.328309 -0.248606 2.366086 0.053937 -0.010292 405428.000000 0 0 1
-20.166277 3.785084 -21.468655 29.696949 -0.185535 2.378822 0.044644 0.003609 -356056.000000 0 0 1
-21.201877 3.038784 -20.619455 29.730720 -0.142357 2.337188 0.056888 -0.001085 -80902.500000 0 0 1
-21.682577 1.791484 -21.126955 30.326421 -0.082436 2.341516 0.053091 0.002337 34797.900000 0 0 1
-22.593377 1.195784 -20.262455 30.371989 -0.052877 2.301163 0.058990 -0.002299 -485293.000000 0 0 1
-23.205077 -0.165016 -20.637055 31.054644 0.007111 2.297674 0.047788 0.016113 170140.000000 0 0 1
-22.212677 -1.204816 -20.692855 30.381719 0.054187 2.320054 0.043400 0.000727 364676.000000 0 0 1
-22.658277 -2.490816 -21.048255 31.026291 0.109490 2.316380 0.033341 -0.002714 -844717.000000 0 0 1
-23.127777 -2.664116 -22.475855 32.359785 0.114686 2.338606 0.047948 -0.011064 -72256.200000 0 0 1
-22.189277 -2.580316 -23.533255 32.447437 0.115767 2.382227 0.031655 -0.009730 -81120.400000 0 0 1
-21.181577 -3.583116 -23.497355 31.837457 0.167576 2.400959 0.019285 -0.020326 -256927.000000 0 0 1
-20.197477 -3.323516 -24.642855 32.035202 0.163090 2.448452 0.033614 -0.016171 -184238.000000 0 0 1
-20.765377 -3.646716 -25.910545 33.404428 0.173843 2.458560 0.022670 -0.007451 62633.000000 0 0 1
-19.883777 -3.421816 -26.978105 33.688152 0.170422 2.499457 0.019469 -0.014717 -389884.000000 0 0 1
-20.538177 -3.570416 -28.325645 35.169685 0.172123 2.507145 0.005548 -0.008925 -77694.800000 0 0 1
-21.021177 -4.888916 -28.545205 35.785753 0.228509 2.494217 0.005974 -0.005427 650962.000000 0 0 1
-22.029477 -5.034516 -29.546625 37.197410 0.224677 2.488683 -0.009401 -0.006604 -61293.900000 0 0 1
-21.720377 -6.251716 -30.396485 37.878821 0.280252 2.502214 0.003022 -0.001348 -632528.000000 0 0 1
-20.585677 -6.077416 -31.190065 37.861924 0.287071 2.538851 -0.011607 0.002702 -497320.000000 0 0 1
-20.024277 -7.338916 -31.442615 37.993018 0.351299 2.545596 -0.015240 -0.000121 -434302.000000 0 0 1
-18.659577 -7.310616 -32.142025 37.877892 0.373408 2.584072 -0.006211 -0.008981 -882215.000000 0 0 1
-18.554677 -6.781916 -33.419815 38.822088 0.350425 2.607725 -0.000022 -0.013163 125103.000000 0 0 1
-18.957977 -7.617416 -34.452447 40.054975 0.382062 2.606319 -0.002791 -0.011255 -526050.000000 0 0 1
-18.741777 -6.966116 33.171377 38.731399 0.355865 0.542450 -0.000114 -0.009278 -530015.000000 0 0 1
-17.479777 -6.807916 32.596311 37.608640 0.371399 0.522200 0.010149 -0.011325 -110204.000000 0 0 1
-16.758977 -5.641816 32.983562 37.424708 0.324728 0.492124 0.003314 -0.009308 325742.000000 0 0 1
-15.454177 -5.346016 32.194381 36.109412 0.333042 0.469977 0.002075 -0.007856 50679.400000 0 0 1
-15.710677 -5.031816 30.803981 34.943237 0.309957 0.491675 0.013785 -0.005661 -494665.000000 0 0 1
-14.556877 -4.716416 30.109751 33.774907 0.313326 0.470189 0.009645 -0.001890 -634621.000000 0 0 1
-14.714377 -4.782816 28.592101 32.509944 0.314271 0.496011 0.013172 -0.010461 21973.000000 0 0 1
-15.555277 -3.773416 28.097061 32.336514 0.237984 0.517829 0.002384 -0.014305 -98459.300000 0 0 1
-16.006077 -3.967016 26.768241 31.439950 0.242949 0.552131 0.007121 -0.013968 -29349.700000 0 0 1
-14.887677 -3.734416 25.675921 29.913905 0.245769 0.538796 0.016839 -0.010917 756103.000000 0 0 1
-14.653277 -2.338516 25.537521 29.535609 0.158255 0.526373 0.010884 -0.000676 40682.000000 0 0 1
-13.667577 -2.025816 24.563131 28.182512 0.147149 0.512394 0.010971 0.002958 -234626.000000 0 0 1
-13.532477 -0.463016 24.389321 27.895901 0.034202 0.506809 0.013204 -0.000616 -446812.000000 0 0 1
-14.593377 0.220884 23.790941 27.911007 -0.015135 0.550266 0.013907 -0.007163 -325615.000000 0 0 1
-15.040077 1.333384 24.549981 28.821579 -0.088424 0.551400 0.002378 0.001781 20357.000000 0 0 1
-16.044977 2.174884 23.745841 28.740849 -0.134728 0.598458 0.012020 0.000668 -125640.000000 0 0 1
-15.353877 3.042884 22.865841 27.710059 -0.195648 0.600272 0.006158 0.000299 165240.000000 0 0 1
-16.131277 3.629384 21.861141 27.409853 -0.221305 0.647548 -0.011788 0.004285 -402027.000000 0 0 1
-15.193577 4.242284 20.800841 26.105876 -0.272281 0.648836 -0.011562 -0.001345 107346.000000 0 0 1
-14.293577 5.209184 21.285641 26.163342 -0.349483 0.620535 0.004952 -0.002076 -127796.000000 0 0 1
-13.384877 5.457384 20.253741 24.882765 -0.387150 0.619848 0.014243 -0.010117 -457262.000000 0 1 0
-12.268177 6.478784 20.465441 24.724827 -0.485871 0.595749 0.008445 -0.010401 -252557.000000 0 1 0
-12.522577 7.861984 20.378841 25.177825 -0.560628 0.627673 0.013180 -0.008087 321583.000000 0 0 1
-11.336677 8.623684 20.594141 25.040104 -0.650307 0.605098 0.016256 -0.008704 309309.000000 0 0 1
-11.597677 10.131184 20.569841 25.695629 -0.718010 0.642636 0.010810 0.001412 -59890.600000 0 0 1
-12.098777 10.647284 19.342441 25.176876 -0.721672 0.694674 0.006997 0.000693 443066.000000 0 0 1
-12.477877 11.998284 19.470241 26.052764 -0.765806 0.726749 -0.004421 0.007545 -425170.000000 0 0 1
-13.092877 12.719884 18.240741 25.805881 -0.770949 0.785769 0.009133 0.004171 75109.300000 0 0 1
-12.160777 13.207984 17.269241 24.911082 -0.826654 0.804828 0.014643 0.000147 366660.000000 0 1 0
-11.543577 14.473684 17.572741 25.525339 -0.897547 0.811456 0.016803 -0.007273 -838375.000000 0 0 1
-12.308977 15.798584 17.324941 26.481309 -0.908918 0.857629 0.010575 0.001313 -130651.000000 0 0 1
-12.520477 16.253084 15.988841 26.010923 -0.914401 0.908794 0.015416 -0.010286 -114877.000000 0 0 1
-13.259477 15.425784 15.139041 25.356638 -0.860775 0.930985 0.028038 -0.012787 -396419.000000 0 0 1
-13.818277 16.141684 13.885941 25.383422 -0.862794 0.991963 0.026470 -0.016821 358116.000000 0 0 1
-14.921177 17.012584 14.183041 26.706332 -0.850797 1.010929 0.022299 -0.014673 367371.000000 0 0 1
-15.535777 17.350184 12.949141 26.647129 -0.840515 1.063348 0.017272 -0.014192 633434.000000 0 0 1
-16.710877 18.419584 12.996541 28.061443 -0.833999 1.089255 0.013989 -0.015053 201237.000000 0 0 1
-17.932877 17.844884 13.312141 28.587428 -0.782939 1.086411 0.023003 -0.013047 -1263480.000000 0 0 1
-18.963277 18.772584 13.378341 29.849553 -0.780345 1.106054 0.031843 -0.016629 -630657.000000 0 0 1
-20.333977 18.114484 13.359941 30.333038 -0.727736 1.114705 0.043187 -0.006981 -332429.000000 0 0 1
-20.781277 17.579284 12.096041 29.786019 -0.702120 1.152616 0.041038 -0.011618 -1172760.000000 0 0 1
-22.102277 17.214684 12.198841 30.555977 -0.661720 1.160120 0.044619 -0.006323 -916180.000000 0 0 1
-22.696977 16.473484 11.017941 30.131768 -0.627833 1.196456 0.054444 -0.006818 -174433.000000 0 0 1
-22.146177 15.198984 11.016741 29.031549 -0.601474 1.181568 0.048797 -0.006676 385477.000000 0 0 1
-22.671277 14.446184 9.859741 28.633783 -0.567326 1.219261 0.045125 -0.014937 119965.000000 0 0 1
-21.919177 13.108584 9.589441 27.280812 -0.538978 1.211614 0.058734 -0.016279 -1044360.000000 0 0 1
-22.190377 12.006584 10.461541 27.313270 -0.495963 1.177732 0.059606 -0.013694 386659.000000 0 0 1
-23.531477 11.581384 10.705141 28.327706 -0.457360 1.183265 0.053596 -0.009443 21230.000000 0 0 1
-24.332977 11.203284 9.455241 28.407903 -0.431482 1.231484 0.066806 -0.013902 -1117580.000000 0 0 1
-24.680677 12.303984 8.658941 28.905036 -0.462469 1.266560 0.071240 -0.017179 490039.000000 0 0 1
-25.767107 12.044284 7.741141 29.477684 -0.437253 1.305070 0.067412 -0.011085 214060.000000 0 0 1
-26.123477 13.190984 6.816241 30.048282 -0.467598 1.341961 0.050685 -0.004437 -146272.000000 0 0 1
-25.271507 13.341084 5.659341 29.131799 -0.485726 1.375286 0.044138 -0.006063 578820.000000 0 0 1
-23.935877 13.763084 5.742541 28.201515 -0.521833 1.365737 0.049980 -0.013096 -372558.000000 0 0 1
-23.769477 15.237784 6.294141 28.927397 -0.570068 1.351458 0.053141 -0.016302 -1639210.000000 0 0 1
-22.466077 15.668684 6.396441 28.127331 -0.609004 1.341379 0.038013 -0.014809 -891596.000000 0 0 1
-22.364777 17.009684 6.816741 28.913328 -0.650223 1.332791 0.043622 -0.017548 855602.000000 0 0 1
-20.936177 17.685284 6.751041 28.225331 -0.701423 1.329271 0.030855 -0.016118 829065.000000 0 0 1
-20.489977 17.967684 5.449541 27.791623 -0.719906 1.373432 0.023696 -0.022195 -394664.000000 0 0 1
-19.154177 18.351684 5.408241 27.072419 -0.764005 1.369674 0.013006 -0.014399 -738932.000000 0 0 1
-18.644877 18.996084 4.101941 26.931553 -0.794728 1.417891 0.019893 -0.017810 1304170.000000 0 0 1
-17.202277 19.213784 4.090641 26.111706 -0.840579 1.413489 0.004021 -0.021100 1588490.000000 0 0 1
-16.823477 20.381784 3.399841 26.645927 -0.880748 1.442854 0.011944 -0.012239 -177163.000000 0 0 1
-17.010777 21.758184 4.062141 27.915696 -0.907245 1.424763 0.018781 -0.012198 -287898.000000 0 0 1
-16.316477 21.975984 5.283341 27.876244 -0.932133 1.380114 0.016448 -0.010537 62252.000000 0 0 1
-16.412577 23.350184 5.632541 29.091739 -0.958134 1.375953 0.005141 -0.006978 -69070.600000 0 0 1
-15.714577 23.715284 6.994841 29.296594 -0.985590 1.329708 -0.001391 0.010700 -192503.000000 0 0 1
-16.357377 23.164084 8.089141 29.488519 -0.955953 1.292919 0.002906 0.004961 40239.500000 0 0 1
-15.525077 23.319784 9.213341 29.491117 -0.983431 1.253067 0.004659 0.001942 21445.400000 0 0 1
-16.170777 22.743984 10.472841 29.807100 -0.952732 1.211780 -0.005247 -0.000927 930744.000000 0 0 1
-17.383477 23.427884 10.871941 31.132782 -0.932435 1.214066 -0.007695 0.003644 867735.000000 0 0 1
-18.271677 22.624284 11.645841 31.326315 -0.891430 1.189893 -0.005074 -0.000922 370776.000000 0 0 1
-19.480177 23.463784 12.146141 32.826136 -0.877896 1.191772 0.006616 -0.008673 -79999.300000 0 0 1
-20.391677 23.966984 11.173041 33.392719 -0.865824 1.229621 0.019012 -0.003831 450988.000000 0 0 1
-19.959277 25.252984 10.666841 33.909695 -0.901953 1.250797 0.006519 -0.001870 18676.000000 0 0 1
-21.134677 26.093884 10.104441 35.066581 -0.890019 1.278502 0.016452 0.001098 443447.000000 0 0 1
-21.861677 26.785984 11.126341 36.321031 -0.886278 1.259458 0.030010 -0.012686 -18294.800000 0 0 1
-22.762177 27.749284 10.689141 37.448594 -0.883811 1.281336 0.027025 -0.006161 -116040.000000 0 0 1
-23.601577 28.376284 11.847241 38.763450 -0.877001 1.260197 0.020256 -0.011868 -273867.000000 0 0 1
-22.891977 29.280484 12.639241 39.257353 -0.907241 1.242999 0.022500 -0.008735 193722.000000 0 0 1
-23.699277 29.975984 13.574241 40.552131 -0.901808 1.229472 0.016663 -0.005829 -140958.000000 0 0 1
8.102323 -33.072133 27.975021 44.068304 -1.330539 0.883033 0.006628 -0.005139 227118.000000 0 0 1
9.516423 -33.113433 27.819911 44.283283 -1.290949 0.891525 0.010423 -0.014815 570519.000000 0 0 1
9.798623 -32.622033 26.541291 43.181595 -1.279002 0.908862 0.010537 -0.011697 152526.000000 0 0 1
11.319023 -32.582033 26.206921 43.318724 -1.236439 0.921057 0.005034 -0.004719 475010.000000 0 0 1
11.924323 -33.860233 26.081321 44.372741 -1.232196 0.942487 0.011496 -0.009179 33618.900000 0 0 1
13.320223 -33.855233 25.899961 44.658852 -1.195952 0.952127 0.026521 -0.006807 -228018.000000 0 0 1
13.895023 33.822784 25.925621 44.823991 1.180999 0.954046 0.040663 -0.001922 -325454.000000 0 0 1
13.788323 33.112484 24.696291 43.548378 1.176225 0.967816 0.038405 0.000890 171866.000000 0 0 1
14.493023 31.891284 24.750701 42.891711 1.144247 0.955683 0.047505 -0.005929 -191403.000000 0 0 1
15.089923 31.431284 23.408741 41.995244 1.123201 0.979528 0.043676 -0.005802 -501035.000000 0 0 1
14.248723 30.679184 22.595241 40.679028 1.135997 0.981890 0.035112 -0.007138 -314437.000000 0 0 1
14.633923 29.284784 22.498041 39.722942 1.107380 0.968697 0.038438 -0.005650 97399.800000 0 0 1
14.338023 28.290484 23.658641 39.568443 1.101712 0.929897 0.033495 -0.012856 60693.200000 0 0 1
15.200923 28.487084 24.783211 40.703680 1.080626 0.916162 0.046311 -0.008969 84352.600000 0 0 1
14.528023 28.317184 25.989691 41.090028 1.096766 0.886012 0.029215 -0.011827 -591839.000000 0 0 1
15.264823 28.747984 27.254571 42.453186 1.082667 0.873704 0.035676 -0.016758 -176738.000000 0 0 1
15.500223 30.132584 27.466291 43.619109 1.095695 0.889649 0.037478 -0.010421 214547.000000 0 0 1
16.341923 30.406584 28.554981 44.799617 1.077642 0.879686 0.044582 -0.015194 -91847.700000 0 0 1
16.104223 31.831484 29.032521 45.994311 1.102423 0.887671 0.042241 -0.016244 32328.200000 0 0 1
16.711323 32.865384 28.275461 46.464002 1.100389 0.916570 0.042841 -0.009771 104626.000000 0 0 1
16.386723 34.113984 28.856941 47.592138 1.122990 0.919348 0.043996 0.003637 -243714.000000 0 0 1
17.018923 -33.803333 28.195181 47.194038 -1.104378 0.930503 0.037881 0.003399 -436070.000000 0 0 1
16.548723 -33.679533 26.835131 46.133452 -1.114086 0.949998 0.047092 0.001229 -31927.200000 0 0 1
16.670323 -32.394133 26.242571 44.899354 -1.095530 0.946563 0.036078 -0.001078 16245.800000 0 0 1
18.068523 -31.727833 25.972771 44.807496 -1.053117 0.952494 0.037240 0.012012 227383.000000 0 0 1
18.625923 -31.256233 27.157081 45.402468 -1.033389 0.929617 0.016215 0.008433 -363743.000000 0 0 1
19.521023 -30.240833 26.779151 44.863139 -0.997578 0.931155 0.018430 0.012195 -314848.000000 0 0 1
19.902323 -29.219333 27.839171 44.998792 -0.972844 0.903754 0.009951 0.018496 -446390.000000 0 0 1
18.820823 -28.425233 28.209291 44.249083 -0.985950 0.879533 0.018445 0.010037 -153244.000000 0 0 1
19.201023 -27.632433 29.327021 44.635241 -0.963520 0.853914 0.034588 0.017945 497151.000000 0 0 1
17.923223 -26.998833 29.996311 44.158324 -0.984745 0.824001 0.034201 0.007025 617320.000000 0 0 1
17.322623 -26.054633 29.145871 42.759782 -0.984047 0.820824 0.040937 0.002932 -1076850.000000 0 0 1
16.191823 -25.554833 29.740881 42.423397 -1.006029 0.793929 0.027101 0.002312 -746397.000000 0 0 1
15.311323 -24.836933 28.639961 40.884682 -1.018352 0.794690 0.024110 -0.001396 -521898.000000 0 0 1
14.796123 -25.813533 27.711371 40.659363 -1.050322 0.820918 0.019610 -0.002514 528940.000000 0 0 1
14.037323 -25.156833 26.660101 39.251416 -1.061838 0.824106 0.030045 -0.011538 969744.000000 0 0 1
12.557123 -24.724733 27.067841 38.751281 -1.100867 0.797495 -0.001018 -0.006636 998036.000000 0 0 1
11.617723 -25.799333 27.238561 39.274881 -1.147684 0.804410 -0.013180 0.001488 537097.000000 0 0 1
11.403723 -26.747133 26.201381 39.140342 -1.167780 0.837367 -0.002376 -0.004532 -718821.000000 0 0 1
10.664723 -28.081633 26.553391 40.092356 -1.207845 0.846904 0.003711 -0.002225 228182.000000 0 0 1
9.289223 -27.855233 26.804821 39.758044 -1.248912 0.830917 -0.014775 -0.006112 38900.900000 0 0 1
8.635823 -29.116333 26.961171 40.610873 -1.282464 0.844787 -0.013875 -0.006364 -988145.000000 0 0 1
7.139923 -28.988833 27.213061 40.396554 -1.329304 0.831662 -0.015843 0.002943 -353259.000000 0 0 1
6.251523 -28.772933 26.099291 39.346362 -1.356851 0.845548 -0.009301 0.001298 376935.000000 0 0 1
6.568923 -27.710233 25.207541 38.031932 -1.338035 0.846245 -0.000929 -0.001984 -1069670.000000 0 0 1
5.418623 -27.318333 24.250381 36.928766 -1.374987 0.854388 0.003583 0.000499 -526973.000000 0 0 1
5.006023 -28.223733 23.216341 36.886825 -1.395253 0.890023 0.003258 -0.000105 115619.000000 0 0 1
4.113823 -29.264533 23.574741 37.803503 -1.431138 0.897441 0.010476 0.007236 -103605.000000 0 0 1
2.670723 -28.801733 23.900341 37.521978 -1.478333 0.880236 0.001527 -0.005694 -1449040.000000 0 0 1
2.060823 -28.270833 22.746941 36.344330 -1.498029 0.894546 0.007490 -0.004276 359691.000000 0 0 1
0.815223 -27.619933 23.041341 35.978169 -1.541289 0.875744 0.013605 -0.007617 604640.000000 0 0 1
0.870023 -26.405933 23.933341 35.648773 -1.537860 0.834747 0.027369 -0.007775 -805635.000000 0 0 1
1.008923 -26.677333 25.324861 36.797372 -1.532995 0.811757 0.024931 -0.011827 12109.800000 0 0 1
1.274423 -25.542733 26.134641 36.566034 -1.520944 0.774566 0.024548 -0.003703 -466414.000000 0 0 1
2.719323 -25.069533 26.342221 36.466269 -1.462748 0.763570 0.024736 0.005460 -605198.000000 0 0 1
3.268923 -24.493033 25.188901 35.285624 -1.438117 0.775805 0.027583 0.004779 -1291880.000000 0 0 1
4.440923 -23.864233 25.493631 35.201543 -1.386810 0.760895 0.023631 0.002208 -1064690.000000 0 0 1
4.328923 -22.368933 25.898221 34.493863 -1.379635 0.721514 0.025038 0.010042 -346104.000000 0 0 1
4.106823 -21.620333 24.756621 33.123935 -1.383081 0.726666 0.030498 0.002062 9430.520000 0 0 1
3.511423 -20.393433 25.049931 32.491864 -1.400284 0.690449 0.027401 0.000775 -10609.700000 0 0 1
3.520923 -19.472833 23.802941 30.954291 -1.391917 0.693567 0.026303 -0.000158 487518.000000 0 0 1
4.843623 -18.955533 23.685841 30.721197 -1.320624 0.690397 0.030451 0.002346 317590.000000 0 0 1
4.881823 -17.948533 22.649841 29.308656 -1.305231 0.687549 0.037427 -0.002915 -167008.000000 0 0 1
6.257123 -17.283433 22.474541 29.034008 -1.223445 0.685541 0.027296 -0.004900 -353087.000000 0 0 1
7.102823 -18.027133 21.600041 29.017053 -1.195467 0.731174 0.019187 -0.006561 83373.400000 0 0 1
8.372723 -17.478533 21.282741 28.784660 -1.124066 0.738650 0.011578 -0.002742 493786.000000 0 0 1
9.425223 -17.701933 22.390441 30.058694 -1.081535 0.730425 0.007137 0.003309 -732941.000000 0 0 1
9.317823 -16.821033 23.430841 30.311273 -1.064934 0.687228 -0.009588 0.014836 -70994.100000 0 0 1
10.248023 -17.134133 24.431581 31.551587 -1.031771 0.685129 -0.002127 0.013610 -170745.000000 0 0 1
10.147823 -16.141133 25.642951 31.954271 -1.009546 0.639341 0.006371 0.006458 -288715.000000 0 0 1
10.586523 -14.851933 25.405121 31.274183 -0.951528 0.622651 0.009971 0.010666 76601.800000 0 0 1
10.568723 -14.150133 26.612531 31.939802 -0.929283 0.585910 0.001183 0.007591 22413.600000 0 0 1
10.991823 -12.680333 26.435031 31.311689 -0.856607 0.565624 0.006030 0.001115 -535725.000000 0 0 1
9.911523 -12.018033 25.897541 30.221747 -0.881162 0.541537 0.014195 -0.002022 -377390.000000 0 0 1
10.271123 -10.689533 25.628831 29.607415 -0.805357 0.524405 0.015967 0.002743 -141810.000000 0 0 1
9.169323 -9.876733 24.971931 28.376463 -0.822523 0.494886 0.028001 -0.000615 55880.800000 0 0 1
7.960523 -9.638133 25.663811 28.546361 -0.880437 0.453265 -0.001575 0.004902 -66946.800000 0 0 1
6.916023 -9.322133 24.782561 27.366199 -0.932504 0.438027 0.005651 0.006680 910921.000000 0 0 1
5.452523 -9.552433 25.329381 27.614426 -1.052125 0.409671 0.000858 0.000422 121726.000000 0 0 1
5.011623 -8.583633 26.248071 28.066997 -1.042331 0.361992 -0.003533 0.005026 -502678.000000 0 0 1
3.674623 -8.598533 26.655651 28.248210 -1.166933 0.337388 -0.005187 0.006318 531168.000000 0 0 1
2.578623 -8.404333 25.539001 27.009677 -1.273094 0.331516 0.003674 0.004712 -145199.000000 0 0 1
2.811123 -7.241033 24.762081 25.951794 -1.200485 0.303966 -0.005320 0.005119 250735.000000 0 0 1
1.729923 -7.052833 23.855241 24.936070 -1.330264 0.295502 0.006958 -0.005639 411618.000000 0 1 0
1.968923 -5.678133 23.145041 23.912565 -1.237015 0.254048 0.004049 -0.011822 -215245.000000 0 1 0
1.813223 -4.636833 24.080781 24.590079 -1.198031 0.203880 0.009628 0.001754 -99926.700000 0 1 0
2.096123 -3.362433 23.563941 23.894748 -1.013352 0.166592 0.008435 -0.002431 -357104.000000 0 1 0
1.108023 -2.721433 22.513941 22.704877 -1.184144 0.129779 0.004536 -0.006657 1667470.000000 0 1 0
-0.070477 -1.960433 22.925141 23.008919 1.534862 0.085362 0.006485 -0.006891 1467560.000000 0 1 0
-1.044877 -2.723433 23.645241 23.824489 1.204453 0.122745 0.010744 -0.002668 176915.000000 0 1 0
-2.159277 -1.833433 24.288371 24.452994 0.703969 0.116102 0.007095 -0.008568 60551.500000 0 1 0
-1.681377 -1.016433 25.347081 25.423113 0.543739 0.077358 0.009786 -0.005610 224395.000000 0 0 1
-2.531077 0.075567 25.625641 25.750447 -0.029847 0.098496 0.009445 -0.009531 -75860.700000 0 0 1
-1.883677 1.030567 26.722011 26.808136 -0.500617 0.080180 0.031758 -0.012020 -59742.100000 0 0 1
-2.062077 0.649567 28.067951 28.151092 -0.305166 0.076874 0.046543 -0.006971 104403.000000 0 0 1
-1.282077 -0.457433 28.529231 28.561687 0.342711 0.047678 0.037517 -0.008492 -603510.000000 0 0 1
0.077723 -0.061433 29.165311 29.165479 -0.668866 0.003397 0.052594 -0.012825 22514.100000 0 0 1
1.012323 0.497567 28.239581 28.262100 0.456833 0.039922 0.032224 -0.001771 333076.000000 0 0 1
1.635223 -0.410433 27.296751 27.348766 -0.245915 0.061685 0.023240 0.001966 -480901.000000 0 0 1
2.808123 -1.192433 27.907111 28.073373 -0.401563 0.108888 0.016235 0.001250 -626367.000000 0 0 1
2.417323 -2.262433 28.744001 28.934057 -0.752312 0.114680 0.013344 0.001103 797422.000000 0 0 1
3.550923 -3.097433 29.105931 29.484884 -0.717293 0.160500 0.009475 0.013358 1087390.000000 0 0 1
4.020723 -4.218233 28.047111 28.646119 -0.809366 0.204860 0.008038 0.007609 -134443.000000 0 0 1
4.843623 -3.701433 27.009951 27.689325 -0.652519 0.221976 0.004676 0.007575 -24156.400000 0 0 1
5.313723 -4.689833 26.164011 27.106930 -0.723112 0.264533 0.005542 0.003061 262791.000000 0 0 1
6.500223 -4.283933 25.219321 26.393543 -0.582707 0.299409 0.008634 0.002329 -226297.000000 0 0 1
7.738223 -4.041433 25.826291 27.261889 -0.481304 0.325970 0.012960 0.003058 -276.298000 0 0 1
8.621423 -5.185033 25.878241 27.765029 -0.541458 0.370782 0.022286 -0.000525 250580.000000 0 0 1
9.458623 -5.284733 24.610151 26.889654 -0.509514 0.414724 0.030132 -0.005588 -1011360.000000 0 0 1
8.671923 -5.840733 23.545041 25.762091 -0.592734 0.417905 0.023620 -0.010301 229628.000000 0 0 1
9.322023 -5.855433 22.282241 24.853259 -0.560846 0.458873 0.036106 -0.010687 -11010.900000 0 1 0
9.361323 -4.516433 21.477941 23.860731 -0.449515 0.450711 0.035865 -0.010230 215128.000000 0 1 0
8.068123 -4.064433 21.124841 22.975490 -0.466655 0.404114 0.021271 -0.015309 -327132.000000 0 1 0
8.154823 -2.901433 20.295641 22.064281 -0.341827 0.403120 0.014172 -0.015682 305406.000000 0 1 0
6.752923 -2.279433 20.055441 21.284231 -0.325539 0.341458 0.012616 -0.010585 555130.000000 0 1 0
6.184823 -1.797433 21.305741 22.257974 -0.282829 0.293565 0.015504 -0.002764 802092.000000 0 1 0
4.999123 -0.999433 21.191441 21.796038 -0.197320 0.236085 0.001507 -0.000134 529303.000000 0 1 0
4.585823 -0.292433 22.512441 22.976625 -0.063683 0.201350 0.012289 -0.001618 -797517.000000 0 1 0
3.345323 0.309567 22.464541 22.714370 0.092275 0.148452 0.007515 0.000236 -563524.000000 0 1 0
2.812323 0.648567 23.743641 23.918409 0.226654 0.120961 0.017681 -0.000305 178299.000000 0 1 0
1.307323 0.992567 23.779641 23.836225 0.649386 0.068917 0.017814 -0.001580 28855.200000 0 1 0
1.004823 2.277567 23.231541 23.364535 1.155299 0.106748 0.026755 -0.002815 431327.000000 0 1 0
-0.398277 2.493567 23.310541 23.446915 -1.412412 0.107907 0.009530 0.004550 465640.000000 0 1 0
-0.897577 3.908567 22.802541 23.152503 -1.345066 0.174091 0.011346 0.002975 -67651.700000 0 1 0
-0.765477 4.986567 23.730941 24.261273 -1.418477 0.209472 0.016155 0.003741 -176582.000000 0 1 0
-1.511077 6.102567 23.302441 24.135626 -1.328065 0.263520 0.008092 0.004631 1245.480000 0 1 0
-1.558577 7.309567 24.291611 25.415375 -1.360718 0.298482 0.023309 0.008457 14639.100000 0 0 1
-0.391477 8.089567 24.162021 25.483281 -1.522441 0.323427 0.008572 0.012267 -170872.000000 0 0 1
-0.552377 9.405567 24.484511 26.234731 -1.512135 0.367339 0.011335 0.012200 -878323.000000 0 0 1
0.283123 10.440567 23.743741 25.939368 1.543685 0.414407 0.011917 0.011436 43863.900000 0 0 1
1.697423 10.406567 23.828941 26.057558 1.409109 0.416592 0.012541 0.014281 5025.120000 0 0 1
2.158223 10.950567 25.082561 27.453738 1.376203 0.418671 0.017715 0.008061 262228.000000 0 0 1
3.537523 11.696567 24.875011 27.714435 1.277102 0.456622 0.012329 0.005243 676886.000000 0 0 1
4.677723 10.998567 24.463701 27.227233 1.168669 0.454453 0.016710 0.005513 -207343.000000 0 0 1
4.626023 10.559567 23.116241 25.831476 1.157892 0.462619 0.010805 0.002906 -891806.000000 0 0 1
5.908123 10.148567 22.343641 25.241585 1.043595 0.483890 0.018166 0.003288 26927.000000 0 0 1
6.685723 11.247567 21.927541 25.534755 1.034494 0.538004 0.011227 -0.003848 730328.000000 0 0 1
7.881523 10.808567 21.262341 25.120324 0.940746 0.561570 0.014322 -0.004546 870676.000000 0 0 1
8.820723 11.921567 20.714641 25.475974 0.933793 0.621330 0.014034 -0.024367 -360583.000000 0 0 1
8.337023 12.488567 19.497841 24.609674 0.982167 0.656254 0.013408 -0.020511 38842.300000 0 1 0
9.083923 13.521567 18.882041 24.937560 0.979241 0.711822 0.025591 -0.017200 -1271260.000000 0 1 0
10.447423 13.158567 18.365641 24.891631 0.899747 0.740956 0.029631 -0.022053 -1750010.000000 0 1 0
11.369423 13.097567 19.361041 25.993460 0.855913 0.730497 0.026125 -0.024425 -463118.000000 0 0 1
12.651323 12.634567 18.929041 26.038373 0.784736 0.756902 0.027030 -0.025128 692582.000000 0 0 1
13.684323 12.500567 20.071041 27.319801 0.740221 0.745616 0.036001 -0.022195 -104818.000000 0 0 1
14.272223 13.690567 20.531341 28.507261 0.764600 0.766685 0.036392 -0.027640 -228674.000000 0 0 1
15.343823 13.370567 21.377441 29.516096 0.716786 0.760830 0.039698 -0.018139 -164739.000000 0 0 1
16.189123 14.515567 21.914441 30.871218 0.730947 0.781488 0.037451 -0.018457 -529311.000000 0 0 1
15.550923 15.339567 22.902241 31.648794 0.778556 0.761739 0.041914 -0.017546 312749.000000 0 0 1
16.400823 16.311567 23.520041 32.988582 0.782670 0.777064 0.041312 -0.017530 -105019.000000 0 0 1
-20.515877 13.027084 -24.875655 34.776491 -0.565741 2.367851 0.019593 -0.007192 223822.000000 0 0 1
-20.119977 13.029684 -26.241835 35.541807 -0.574686 2.401398 0.016164 -0.019170 -17527.100000 0 0 1
-20.965377 13.919584 -26.942145 36.867073 -0.586107 2.390277 0.025087 -0.020081 24857.300000 0 0 1
-20.808977 13.789484 -28.463935 37.859728 -0.585231 2.421624 0.011972 -0.012733 -773649.000000 0 0 1
-19.533877 14.107384 -28.881645 37.613030 -0.625471 2.446295 0.008171 -0.017526 -1150190.000000 0 0 1
-19.541577 14.683484 -30.159095 38.820728 -0.644395 2.460494 0.011384 -0.017685 -299951.000000 0 0 1
-18.168077 15.192284 -30.604985 38.698186 -0.696432 2.483015 -0.000337 -0.013974 -718597.000000 0 0 1
-17.301577 14.139984 -30.879225 38.115748 -0.685180 2.515193 -0.000719 -0.011000 44731.100000 0 0 1
-15.942977 14.574084 -31.092705 37.859461 -0.740572 2.534424 0.003381 -0.004327 976687.000000 0 0 1
-15.086777 14.102984 -29.899125 36.338171 -0.751708 2.537120 0.023662 0.002179 -593875.000000 0 0 1
-15.517477 14.607484 -28.646015 35.703849 -0.755200 2.501973 0.017463 -0.007429 -353682.000000 0 0 1
-16.302677 13.616084 -28.016455 35.158168 -0.695842 2.492891 0.022455 -0.007301 -532843.000000 0 0 1
-16.981377 13.981884 -26.739845 34.624840 -0.688827 2.453208 0.015368 -0.024847 -597487.000000 0 0 1
-16.168077 14.246684 -25.643045 33.495380 -0.722309 2.442723 0.031185 -0.014894 557439.000000 0 0 1
-17.045177 14.832584 -24.629055 33.423554 -0.716101 2.399236 0.025982 -0.013022 723453.000000 0 0 1
-16.271877 15.207784 -23.356355 32.273364 -0.751608 2.379951 0.024871 -0.013016 86911.100000 0 0 1
-15.367777 16.296184 -23.597655 32.535880 -0.814710 2.382239 0.002990 -0.020632 149494.000000 0 0 1
-14.848477 16.767784 -22.387255 31.667413 -0.846030 2.355972 0.008118 -0.012208 -464184.000000 0 0 1
-14.542677 18.262984 -22.420055 32.367961 -0.898320 2.335970 0.010166 -0.014139 309901.000000 0 0 1
-15.652977 19.172384 -22.486455 33.440046 -0.886115 2.308298 -0.015311 -0.015186 603391.000000 0 0 1
-16.417577 19.150984 -23.672455 34.593094 -0.862096 2.324456 -0.023974 -0.014304 -490132.000000 0 0 1
-17.582377 20.130484 -23.688755 35.714612 -0.852862 2.295988 -0.023740 -0.011171 -446778.000000 0 0 1
-17.281577 21.495484 -23.931555 36.516134 -0.893643 2.285468 -0.022165 -0.009545 -373147.000000 0 0 1
-18.488277 22.167884 -24.187855 37.660109 -0.875658 2.268249 0.010631 -0.014456 -140181.000000 0 0 1
-18.444077 23.616484 -24.560255 38.744399 -0.907759 2.257388 0.006052 -0.014430 -49543.800000 0 0 1
-17.981277 24.361684 -23.448655 38.296963 -0.934957 2.229744 0.002938 -0.009446 -795171.000000 0 0 1
-17.219977 25.458184 -23.837555 38.895704 -0.976084 2.230469 -0.013068 -0.002509 -663561.000000 0 0 1
-16.153177 25.706784 -22.746355 37.936269 -1.009783 2.213790 -0.009193 -0.013492 199088.000000 0 0 1
-15.075577 24.769684 -22.613655 36.772104 -1.024055 2.233141 -0.006602 -0.017044 528552.000000 0 0 1
-15.522777 23.477584 -22.182055 35.835696 -0.986606 2.238257 -0.013140 -0.011814 -1208630.000000 0 0 1
-14.382977 22.449384 -22.039455 34.591653 -1.000998 2.261568 0.014863 -0.011120 313391.000000 0 0 1
-13.483677 22.837384 -20.995855 33.825753 -1.037450 2.240439 0.023316 -0.014254 191726.000000 0 0 1
-12.608477 21.778084 -20.626655 32.537940 -1.045997 2.257416 0.020477 -0.013320 313664.000000 0 0 1
-11.716277 22.210384 -19.408355 31.737305 -1.085381 2.228791 0.026480 -0.013969 304995.000000 0 0 1
-12.414877 22.217284 -18.175055 31.274103 -1.061227 2.190942 0.037838 -0.009755 188190.000000 0 0 1
-13.132977 23.396284 -17.866655 32.234741 -1.059298 2.158278 0.033170 -0.013312 236685.000000 0 0 1
-14.000677 23.327384 -16.540055 31.839586 -1.030243 2.117040 0.032901 -0.013064 253256.000000 0 0 1
-13.328577 23.644284 -15.362155 31.188122 -1.057486 2.085830 0.056110 -0.026548 -9904.130000 0 0 1
-14.267477 23.822384 -14.291455 31.229995 -1.031178 2.046112 0.055374 -0.017013 398920.000000 0 0 1
-13.664277 24.042684 -12.874955 30.504550 -1.053986 2.006520 0.037071 -0.013112 -345753.000000 0 0 1
-12.843777 25.169784 -12.795455 31.019418 -1.098954 1.995991 0.039633 -0.018260 -52030.200000 0 0 1
-11.981977 25.079084 -11.679555 30.148636 -1.125092 1.968605 0.021645 -0.016122 -410535.000000 0 0 1
-11.248577 26.374984 -11.493955 30.891443 -1.167667 1.952041 0.017545 -0.017809 -52951.400000 0 0 1
-10.361277 26.938584 -12.447855 31.432347 -1.203613 1.977975 0.029441 -0.028855 316462.000000 0 0 1
-10.137977 28.341884 -12.293855 32.514302 -1.227276 1.958546 0.012928 -0.015676 -560514.000000 0 0 1
-9.833977 29.048084 -13.642655 33.565165 -1.244366 1.989365 0.039417 -0.023310 58029.200000 0 0 1
-8.495777 29.164184 -14.080755 33.481271 -1.287332 2.004855 0.027667 -0.015720 -109144.000000 0 0 1
-7.898577 27.933684 -14.452555 32.427682 -1.295228 2.032736 0.037152 -0.022863 110255.000000 0 0 1
-6.499677 28.166284 -15.101655 32.613576 -1.344005 2.052227 0.037056 -0.022422 808268.000000 0 0 1
-5.556277 28.775284 -14.249155 32.587231 -1.380052 2.023348 0.027116 -0.019088 -12115.900000 0 0 1
-4.217477 28.653984 -14.701155 32.480176 -1.424659 2.040497 0.034186 -0.022346 1060780.000000 0 0 1
-3.156577 29.721284 -14.193855 33.087523 -1.464987 2.014159 0.016109 -0.010471 479286.000000 0 0 1
-3.226177 31.080284 -14.557855 34.472067 -1.467365 2.006787 0.007263 -0.004943 -352321.000000 0 0 1
-4.216477 31.736184 -13.817055 34.869400 -1.438710 1.978227 -0.017965 -0.001440 7553.440000 0 0 1
-4.358777 33.261984 -14.180455 36.420376 -1.440495 1.970728 -0.016117 -0.000299 302735.000000 0 0 1
-3.401877 33.973484 -13.415255 36.684321 -1.470996 1.945175 -0.017773 -0.006118 7602.690000 0 0 1
-3.581077 -33.723733 -13.567955 36.526753 1.465004 1.951369 -0.015489 -0.006145 427640.000000 0 0 1
-2.725377 -32.824033 -12.617855 35.271165 1.487956 1.936641 -0.006845 -0.008096 369317.000000 0 0 1
-3.251277 -32.779833 -11.285755 34.820346 1.471934 1.900871 0.001051 -0.015482 597207.000000 0 0 1
-2.276077 -32.138633 -10.450155 33.871492 1.500094 1.884437 -0.003768 -0.011555 510071.000000 0 0 1
-2.722377 -32.112333 -8.960555 33.450034 1.486222 1.841987 -0.007390 -0.009823 -314002.000000 0 0 1
-1.685577 -31.706333 -8.115255 32.771788 1.517684 1.821029 -0.018038 -0.006462 -335881.000000 0 0 1
-2.041577 -31.726733 -6.757755 32.502629 1.506536 1.780238 -0.014552 -0.011188 601261.000000 0 0 1
-0.944777 -30.964533 -5.917655 31.539080 1.540294 1.759544 -0.005477 -0.006092 594434.000000 0 0 1
-1.143877 -30.967833 -4.517655 31.316518 1.533876 1.715559 0.001783 -0.004500 -900259.000000 0 0 1
-0.061477 -30.477433 -3.825655 30.716662 1.568779 1.695667 0.004759 0.004305 -684670.000000 0 0 1
-0.122377 -30.757433 -2.280855 30.842129 1.566818 1.644816 0.005762 0.011084 -462289.000000 0 0 1
-0.136277 -32.097533 -1.813355 32.149004 1.566551 1.627231 0.020359 0.006346 1232240.000000 0 0 1
0.977323 -32.996633 -2.213655 33.085241 -1.541186 1.637754 0.023650 0.000650 1830250.000000 0 0 1
2.395023 -32.583433 -1.701855 32.715631 -1.497424 1.622839 0.029505 0.004581 -561647.000000 0 0 1
2.639823 -32.870533 -0.321455 32.977931 -1.490659 1.580544 0.026389 0.000552 299885.000000 0 0 1
3.901123 -32.382233 0.124645 32.616611 -1.450903 1.566975 0.026268 0.002677 341349.000000 0 0 1
4.031023 -30.824733 0.314245 31.088777 -1.440762 1.560688 0.017856 0.004903 -396373.000000 0 0 1
4.073023 -30.054533 -0.922455 30.343292 -1.436096 1.601202 0.026611 -0.000817 255739.000000 0 0 1
3.892223 -28.684333 -0.683155 28.955259 -1.435928 1.594392 0.031537 0.002543 -690352.000000 0 0 1
3.493323 -27.867233 -1.935855 28.151972 -1.446091 1.639615 0.032686 0.000168 -949330.000000 0 0 1
2.177823 -28.114433 -2.306555 28.292834 -1.493488 1.652411 0.019200 0.003195 -674428.000000 0 0 1
1.699323 -27.116533 -3.183055 27.355546 -1.508211 1.687419 0.012507 0.008475 -2111.840000 0 0 1
2.253923 -27.065533 -4.642555 27.553159 -1.487712 1.740098 0.003512 0.004460 -66865.100000 0 0 1
1.805823 -28.143433 -5.475155 28.727881 -1.506719 1.762556 -0.001091 0.005415 -27745.000000 0 0 1
2.439623 -28.083033 -6.726355 28.980206 -1.484142 1.805034 -0.000211 0.005729 -396732.000000 0 0 1
1.969223 -29.187633 -7.752955 30.263907 -1.503431 1.829863 -0.010957 0.006190 -969657.000000 0 0 1
0.690823 -28.931633 -8.186055 30.075374 -1.546923 1.846459 -0.005766 0.007798 -1176190.000000 0 0 1
0.451923 -28.913333 -9.557855 30.455503 -1.555167 1.890021 -0.015651 0.015058 104340.000000 0 0 1
-0.882677 -28.220233 -9.929155 29.929062 1.539528 1.908961 0.003015 0.002343 -553382.000000 0 0 1
-1.010677 -26.826833 -9.562355 28.498054 1.533140 1.912979 -0.002433 0.005851 -858322.000000 0 0 1
-2.279277 -26.270433 -9.686055 28.091821 1.484251 1.922822 0.011383 -0.003673 -262918.000000 0 0 1
-3.340477 -26.799933 -8.710755 28.377323 1.446791 1.882795 0.017616 -0.009109 -964871.000000 0 0 1
-3.155977 -26.535233 -7.303455 27.702333 1.452417 1.837591 0.023092 -0.005637 -431326.000000 0 0 1
-2.296477 -27.484333 -6.706955 28.383897 1.487434 1.809347 0.015306 0.000606 190250.000000 0 0 1
-1.998577 -27.157733 -5.234355 27.729681 1.497337 1.760699 0.018751 0.008343 -103234.000000 0 0 1
-3.112877 -27.227733 -4.416155 27.758636 1.456963 1.730566 0.020099 -0.000918 -589843.000000 0 0 1
-2.641277 -26.849133 -3.161455 27.163341 1.472737 1.687448 0.019487 0.002603 3561.080000 0 0 1
-3.611977 -27.075533 -2.000455 27.388550 1.438176 1.643901 0.017276 0.002135 -414061.000000 0 0 1
-4.721477 -26.250133 -2.104355 26.754254 1.392834 1.649533 0.020058 0.004969 -532529.000000 0 0 1
-5.509777 -26.100333 -0.941555 26.692163 1.362751 1.606078 0.025984 0.000679 101333.000000 0 0 1
-6.614877 -25.039833 -0.903455 25.914592 1.312522 1.605666 0.013665 -0.004003 -169566.000000 0 0 1
-6.180177 -23.726233 -0.929155 24.535526 1.315980 1.608675 0.017963 -0.004440 -609726.000000 0 1 0
-6.999977 -22.855233 -0.208455 23.904075 1.273593 1.579517 0.022235 -0.015174 133115.000000 0 1 0
-6.240077 -21.503233 0.189845 22.391151 1.288361 1.562318 0.014895 -0.017447 920880.000000 0 1 0
-5.175777 -21.690233 1.132245 22.327939 1.336554 1.520065 0.018208 -0.016697 139573.000000 0 1 0
-4.558277 -20.452533 1.361245 20.998499 1.351509 1.505925 0.007904 -0.013047 179220.000000 0 1 0
-3.555377 -20.381633 2.555045 20.846580 1.398094 1.447923 0.010826 -0.006771 420843.000000 0 1 0
-4.220477 -20.140833 3.808245 20.927692 1.364237 1.387805 0.009112 -0.007212 488322.000000 0 1 0
-3.288177 -19.855733 4.877345 20.708711 1.406682 1.333041 0.021599 -0.014705 1048010.000000 0 1 0
-2.335077 -21.024333 5.404645 21.833125 1.460184 1.320652 0.008322 -0.014732 -129769.000000 0 1 0
-1.477377 -21.458333 4.472345 21.969173 1.502056 1.365790 0.013340 -0.019955 -1167460.000000 0 1 0
-0.815577 -22.618433 4.920645 23.161853 1.534754 1.356719 0.015208 -0.017120 -285901.000000 0 1 0
0.163523 -23.245733 3.886845 23.569013 -1.563762 1.405126 0.026009 -0.014815 298091.000000 0 1 0
1.362023 -22.579133 3.539245 22.895384 -1.510547 1.415591 0.013518 -0.018658 640846.000000 0 1 0
2.388223 -22.999633 4.482145 23.553691 -1.467330 1.379334 0.021093 -0.015713 26659.500000 0 1 0
3.580423 -22.047133 4.601745 22.805077 -1.409803 1.367615 0.023333 -0.014798 -545067.000000 0 1 0
4.336323 -21.859833 3.471645 22.554563 -1.374969 1.416260 0.017310 -0.007313 -247052.000000 0 1 0
5.465123 -21.007833 3.657845 22.013097 -1.316291 1.403855 0.025614 -0.005502 360800.000000 0 1 0
6.134923 -20.778133 2.344745 21.791418 -1.283695 1.462988 0.026605 0.003762 -372751.000000 0 1 0
6.821823 -21.856933 1.724945 22.961668 -1.268264 1.495603 0.028177 0.010782 -104262.000000 0 1 0
6.808623 -21.597133 0.335845 22.647434 -1.265403 1.555967 0.034075 -0.007082 -151749.000000 0 1 0
7.816823 -22.436833 -0.475855 23.764272 -1.235554 1.590822 0.025849 -0.000607 625194.000000 0 1 0
9.063823 -21.762433 -0.699755 23.584868 -1.176156 1.600470 0.025264 0.000604 -341210.000000 0 1 0
9.957723 -22.581933 -1.375455 24.718248 -1.155486 1.626470 0.024117 0.002358 -366608.000000 0 1 0
11.228423 -21.958233 -1.928455 24.737833 -1.098107 1.648831 0.023676 0.003824 -387072.000000 0 1 0
10.985323 -21.029433 -2.973355 23.911403 -1.089407 1.695468 0.026219 0.013215 537168.000000 0 1 0
12.180823 -20.846033 -3.754055 24.434043 -1.041984 1.725048 0.023247 0.014855 719323.000000 0 1 0
12.168223 -19.532933 -4.565555 23.461573 -1.013666 1.766643 0.018718 -0.010620 -269976.000000 0 1 0
12.552023 -18.407533 -3.836155 22.607667 -0.972324 1.741305 0.034791 -0.002691 114750.000000 0 1 0
12.690423 -17.244933 -4.637555 21.907566 -0.936385 1.784097 0.032124 -0.015991 -1540620.000000 0 1 0
13.069223 -15.987633 -3.826755 21.001263 -0.885500 1.754036 0.042125 -0.016405 1435670.000000 0 1 0
14.448623 -15.989033 -3.366755 21.811623 -0.835964 1.725772 0.035453 -0.012260 2098550.000000 0 1 0
15.470423 -16.098233 -4.389555 22.754236 -0.805283 1.764925 0.027876 -0.010156 -473268.000000 0 1 0
16.926423 -15.852833 -3.967355 23.527771 -0.752658 1.740230 0.015855 -0.004667 -141581.000000 0 1 0
17.556823 -16.744133 -3.090155 24.457250 -0.761710 1.697484 0.022244 -0.011671 -14470.900000 0 1 0
18.946623 -16.542133 -3.194255 25.353894 -0.717748 1.697119 -0.000285 0.000060 -292573.000000 0 0 1
19.726023 -17.573333 -2.324955 26.520622 -0.727748 1.658575 0.010757 -0.009905 -834388.000000 0 0 1
21.092623 -17.333233 -2.313355 27.398746 -0.687874 1.655330 -0.004677 -0.003897 -662429.000000 0 0 1
21.795323 -18.186433 -1.437255 28.422669 -0.695379 1.621385 -0.004413 -0.001648 -1377220.000000 0 0 1
23.271623 -18.002433 -1.496855 29.460085 -0.658422 1.621628 0.013544 -0.008573 -1554240.000000 0 0 1
23.706323 -16.766833 -1.034155 29.054877 -0.615590 1.606397 0.008746 -0.010378 795127.000000 0 0 1
25.070623 -16.820233 -0.584755 30.195998 -0.590937 1.590163 0.029896 -0.011195 1061120.000000 0 0 1
25.708423 -15.458933 -0.062955 29.998426 -0.541388 1.572895 0.027630 -0.011021 415558.000000 0 0 1
25.061523 -14.979633 1.132645 29.219038 -0.538737 1.532023 0.012621 -0.006671 116515.000000 0 0 1
25.790723 -13.967333 1.725545 29.380695 -0.496344 1.512032 0.015264 -0.013164 -228042.000000 0 0 1
25.018023 -13.049533 2.716845 28.347363 -0.480782 1.474808 0.019812 -0.017319 -332122.000000 0 0 1
24.520823 -13.761533 3.840245 28.379535 -0.511415 1.435063 0.023986 -0.010331 261771.000000 0 0 1
25.586123 -14.248933 4.666145 29.655601 -0.508126 1.412795 0.045676 -0.007541 385257.000000 0 0 1
25.147523 -14.927433 5.969545 29.847305 -0.535696 1.369436 0.040086 0.003670 -191993.000000 0 0 1
24.477323 -16.157233 5.825645 29.902067 -0.583436 1.374718 0.036194 0.001059 -297853.000000 0 0 1
23.615023 -16.306333 6.917945 29.519887 -0.604326 1.334248 0.025502 0.008184 -734731.000000 0 0 1
22.765623 -17.528333 6.759345 29.516178 -0.656146 1.339741 0.023852 0.005023 -339293.000000 0 0 1
23.518523 -18.743033 6.786645 30.829868 -0.672877 1.348846 0.041688 0.004746 276468.000000 0 0 1
22.642723 -19.852033 6.667245 30.842313 -0.719821 1.352904 0.018773 0.019957 410786.000000 0 0 1
1.540123 23.333484 -2.925155 23.566501 1.504887 1.695241 0.009918 -0.006637 -311425.000000 0 1 0
2.449823 24.275284 -2.454455 24.521733 1.470218 1.671057 0.018746 -0.012030 -281208.000000 0 1 0
3.025623 24.995084 -3.516055 25.421866 1.450334 1.709549 0.030459 -0.009192 -315242.000000 0 0 1
3.976423 26.119684 -3.090455 26.600766 1.419718 1.687238 0.018960 -0.008233 -681317.000000 0 0 1
5.183623 25.606284 -2.615455 26.256281 1.371060 1.670574 0.014239 -0.004139 -180486.000000 0 0 1
5.936223 26.638384 -1.933455 27.360199 1.351534 1.641522 0.013251 -0.009822 142281.000000 0 0 1
7.065623 26.138984 -1.020155 27.096314 1.306796 1.608454 0.003256 -0.021408 -60673.900000 0 0 1
8.143123 25.652484 -1.777955 26.972606 1.263417 1.636761 0.007056 -0.025831 231870.000000 0 0 1
9.040623 24.698084 -1.180655 26.327213 1.219899 1.615657 0.007731 -0.021559 1244770.000000 0 0 1
10.256423 24.222184 -2.071355 26.385581 1.170255 1.649380 0.025052 -0.022249 157984.000000 0 0 1
11.381723 25.068384 -1.908655 27.597290 1.144599 1.640013 0.039647 -0.020074 351836.000000 0 0 1
12.359323 25.116984 -2.953055 28.148468 1.113513 1.675900 0.054841 -0.018915 570321.000000 0 0 1
13.249823 23.841684 -3.086355 27.450123 1.063555 1.683470 0.072511 -0.023581 -1018090.000000 0 0 1
12.618523 22.653884 -3.387255 26.151464 1.062584 1.700686 0.058488 -0.030051 -567358.000000 0 0 1
12.191123 22.518984 -4.708655 26.036504 1.074602 1.752645 0.057136 -0.026799 -428124.000000 0 0 1
11.215723 21.365884 -4.908555 24.624933 1.087399 1.771473 0.043895 -0.021905 -1163170.000000 0 1 0
9.875423 21.624184 -4.866755 24.265502 1.142398 1.772729 0.021729 -0.018155 -1383470.000000 0 1 0
9.049323 20.502084 -4.757455 22.909803 1.155129 1.779979 -0.005434 -0.005659 416783.000000 0 1 0
7.536123 20.866384 -4.872355 22.714290 1.224213 1.786983 -0.008701 -0.001332 305163.000000 0 1 0
7.142023 21.552584 -3.742955 23.011564 1.250808 1.734178 -0.014479 0.007451 -569332.000000 0 1 0
5.748323 21.625084 -3.708355 22.681256 1.310987 1.735032 -0.012832 0.005732 -436464.000000 0 1 0
5.216423 22.357784 -2.454455 23.089086 1.341581 1.677301 -0.008380 0.000732 -178953.000000 0 1 0
5.436123 21.633084 -1.235055 22.339810 1.324606 1.626109 -0.008060 0.008755 -53613.200000 0 1 0
4.905723 22.360884 -0.171655 22.893333 1.354829 1.578294 0.002152 0.010560 64886.500000 0 1 0
4.352923 21.474484 0.951445 21.931863 1.370804 1.527401 -0.003400 0.009224 -365809.000000 0 1 0
3.717523 22.085884 2.027645 22.488165 1.404038 1.480509 0.010515 0.014479 95593.500000 0 1 0
3.347123 21.002484 2.945445 21.470519 1.412757 1.433177 0.009526 0.004050 242053.000000 0 1 0
2.285823 21.383884 4.033745 21.880735 1.464306 1.385384 0.014929 -0.003919 -528058.000000 0 1 0
1.031723 21.622884 3.495645 21.927907 1.523118 1.410698 0.015411 0.003412 -951047.000000 0 1 0
0.151623 21.894584 4.554345 22.363762 1.563871 1.365713 0.017936 -0.011919 -43023.600000 0 1 0
-1.271677 22.259584 4.114145 22.672283 -1.513729 1.388324 0.016109 -0.001780 277709.000000 0 1 0
-2.268277 22.542884 5.094045 23.222316 -1.470513 1.349638 0.024551 -0.008758 -251942.000000 0 1 0
-3.494677 22.687484 4.445045 23.381469 -1.417962 1.379522 0.020791 -0.003461 284657.000000 0 1 0
-4.704477 23.145184 5.342345 24.215125 -1.370269 1.348346 0.024153 -0.007388 430468.000000 0 1 0
-4.783677 24.462384 5.902345 25.615024 -1.377681 1.338282 0.033947 -0.003928 101103.000000 0 0 1
-6.056677 24.627284 6.512845 26.184033 -1.329648 1.319424 0.042797 -0.003568 375830.000000 0 0 1
-6.349477 26.046084 6.995145 27.706432 -1.331682 1.315560 0.047431 -0.006305 34055.800000 0 0 1
-5.516777 26.484784 8.053945 28.226665 -1.365433 1.281444 0.033998 -0.011476 -150357.000000 0 0 1
-5.917877 27.676584 8.619145 29.585541 -1.360146 1.275180 0.059738 -0.011663 -276773.000000 0 0 1
-5.959477 29.064484 7.842445 30.688166 -1.368556 1.312377 0.051466 -0.012226 174801.000000 0 0 1
-7.051277 29.168884 6.956045 30.804721 -1.333607 1.343021 0.046958 -0.019558 -463868.000000 0 0 1
-7.134577 30.388484 6.253345 31.834988 -1.340194 1.373081 0.055025 -0.026793 989831.000000 0 0 1
-8.604577 30.577484 5.685445 32.269886 -1.296488 1.393688 0.041126 -0.021194 1643480.000000 0 0 1
-9.610577 31.105784 6.533445 33.205706 -1.271136 1.372747 0.042490 -0.016006 162907.000000 0 0 1
-10.220877 30.117684 7.374845 32.648576 -1.243627 1.342944 0.027522 -0.007163 -94917.300000 0 0 1
-11.171477 30.586084 8.483945 33.649484 -1.220603 1.315919 0.008261 -0.008236 72616.500000 0 0 1
-10.382577 31.073484 9.515745 34.116106 -1.248329 1.288125 0.014130 -0.009272 323113.000000 0 0 1
-11.256277 31.601184 10.529445 35.159747 -1.228611 1.266655 0.011834 -0.001722 235339.000000 0 0 1
-10.515277 32.056784 11.769045 35.731203 -1.253835 1.235152 0.016627 -0.007334 -395177.000000 0 0 1
-10.109477 33.381484 11.766445 36.809974 -1.276730 1.245432 0.012415 -0.003442 98528.300000 0 0 1
-9.134277 33.654084 12.755445 37.131304 -1.305765 1.220131 0.008585 -0.008662 -46486.200000 0 0 1
-8.877777 -33.898733 12.834845 37.318524 1.314658 1.219701 0.013229 -0.005613 603685.000000 0 0 1
-9.973877 -33.096233 13.321345 37.044528 1.278092 1.202953 0.008729 0.001496 495529.000000 0 0 1
-9.582477 -31.747433 13.403845 35.768512 1.277657 1.186681 0.014538 0.002651 605444.000000 0 0 1
-10.623677 -30.842033 14.169245 35.564884 1.239070 1.161019 0.020894 0.003699 289064.000000 0 0 1
-10.815277 -31.036333 15.557345 36.362827 1.235484 1.128699 0.021725 -0.008986 -200980.000000 0 0 1
-9.726177 -30.674233 16.371645 36.104540 1.263745 1.100163 0.022911 -0.005138 -80236.800000 0 0 1
-9.886277 -31.159933 17.756945 37.202002 1.263567 1.073204 0.022870 -0.016641 -317440.000000 0 0 1
-10.757777 -30.423933 18.558745 37.225965 1.230922 1.048879 0.034573 -0.015056 32527.800000 0 0 1
-11.070177 -31.064433 19.808645 38.469861 1.228465 1.029890 0.030361 -0.013028 5900.130000 0 0 1
-11.328677 -30.105333 21.065545 38.450321 1.210885 0.990988 0.029527 -0.009503 61965.600000 0 0 1
-10.096577 -29.843233 21.707745 38.259451 1.244564 0.967473 0.011773 -0.005299 218105.000000 0 0 1
-10.147777 -29.112933 22.868045 38.386035 1.235400 0.932611 0.004518 -0.003988 708138.000000 0 0 1
-8.899877 -29.375933 23.813245 38.848731 1.276622 0.910978 0.006748 0.000147 734894.000000 0 0 1
-8.789777 -30.552433 24.609045 40.203438 1.290667 0.912066 0.006869 0.008830 264339.000000 0 0 1
-7.613577 -30.527833 25.423545 40.450856 1.326384 0.891167 0.012202 0.005947 366324.000000 0 0 1
-7.532877 -31.693733 26.461345 41.969509 1.337449 0.888612 0.020926 0.005884 -257284.000000 0 0 1
-7.300677 -32.953133 25.825045 42.498727 1.352771 0.917677 0.031385 0.006993 229850.000000 0 0 1
-7.505177 -33.969133 26.759445 43.889607 1.353349 0.915116 0.028394 0.008529 -151672.000000 0 0 1
-7.461077 33.725684 26.091545 43.288083 -1.353075 0.923863 0.026275 0.003287 410499.000000 0 0 1
-6.118077 33.387484 25.735345 42.596513 -1.389562 0.922078 0.023773 0.009138 652959.000000 0 0 1
-5.929477 32.053584 25.207045 41.206626 -1.387878 0.912559 0.019858 -0.000170 -154518.000000 0 0 1
-6.580577 31.722884 23.829045 40.217766 -1.366258 0.936637 0.026802 -0.003858 359900.000000 0 0 1
-7.919777 31.282684 24.036745 40.237971 -1.322838 0.930585 0.034481 -0.005258 491616.000000 0 0 1
-8.741377 31.488484 22.888345 39.897526 -1.300009 0.959807 0.033051 -0.003702 -37770.000000 0 0 1
-9.745077 30.328584 22.732445 39.135068 -1.259900 0.950997 0.035903 -0.010651 -203985.000000 0 0 1
-9.190277 29.054684 22.414645 37.829250 -1.264445 0.936611 0.028165 -0.010289 418108.000000 0 0 1
-10.002577 27.963184 22.876445 37.487637 -1.227274 0.914433 0.012613 -0.011850 -331655.000000 0 0 1
-9.253777 26.676584 22.451045 36.073840 -1.236897 0.899038 0.006849 -0.015094 -625373.000000 0 0 1
-8.081877 26.541884 23.172645 36.149133 -1.275221 0.874958 0.004235 -0.016749 -536673.000000 0 0 1
-7.523677 25.239784 22.981645 34.954376 -1.281095 0.853333 0.013420 -0.020535 -182693.000000 0 0 1
-6.205577 24.993984 23.741645 35.026763 -1.327434 0.826010 0.019539 -0.019849 -439119.000000 0 0 1
-5.188477 25.701084 23.076945 34.928661 -1.371596 0.849062 0.011375 -0.018365 101859.000000 0 0 1
-3.952677 25.329784 23.728445 34.932230 -1.415996 0.824028 0.019387 -0.015121 1036860.000000 0 0 1
-2.682177 25.914684 23.028245 34.771612 -1.467663 0.846950 0.016407 -0.010051 40409.900000 0 0 1
-2.221077 25.104284 22.024045 33.469640 -1.482552 0.852596 0.010949 -0.009009 98258.600000 0 0 1
-1.449777 25.804584 21.048745 33.332088 -1.514672 0.887328 0.013951 -0.002022 88794.500000 0 0 1
-1.195177 24.906984 19.849245 31.871285 -1.522847 0.898488 0.012667 -0.001139 -504863.000000 0 0 1
-0.193277 23.967684 20.105045 31.284182 -1.562732 0.872833 0.016440 -0.000203 -295197.000000 0 0 1
0.097123 23.148084 19.005345 29.950732 1.566601 0.883366 0.014534 0.000268 -186469.000000 0 0 1
1.177923 22.098684 19.377845 29.414966 1.517544 0.851607 0.001750 0.014292 548208.000000 0 0 1
2.505223 22.620084 19.308345 29.845544 1.460494 0.867229 0.002957 -0.000094 151012.000000 0 0 1
3.426923 21.559184 19.540045 29.297706 1.413161 0.840691 0.012855 0.009648 636561.000000 0 0 1
4.846523 21.960784 19.034145 29.462917 1.353588 0.868415 0.011207 0.003294 484394.000000 0 0 1
5.769823 20.901084 18.920945 28.777566 1.301451 0.853314 0.022735 0.003395 282194.000000 0 0 1
7.096623 21.371384 18.703845 29.273399 1.250190 0.877681 0.036187 -0.000361 759528.000000 0 0 1
8.158323 20.246784 18.477545 28.599128 1.187754 0.868349 0.039586 -0.002353 311809.000000 0 0 1
8.418023 19.466984 19.653245 28.914989 1.162653 0.823456 0.028581 -0.004059 -81318.000000 0 0 1
9.441323 18.516384 19.439245 28.458378 1.099268 0.818830 0.029639 -0.008607 -24511.400000 0 0 1
9.906323 17.798384 20.730645 29.063333 1.062911 0.776612 0.036575 -0.013423 -243742.000000 0 0 1
8.976523 16.947584 21.362345 28.707984 1.083700 0.731571 0.027865 -0.008527 -235125.000000 0 0 1
9.584923 16.133584 22.362345 29.193111 1.034728 0.698178 0.032091 -0.007044 -105410.000000 0 0 1
8.606923 15.123584 23.017545 28.854970 1.053403 0.647328 0.019897 -0.003217 -722364.000000 0 0 1
7.560623 15.807784 23.634745 29.421934 1.124671 0.637975 0.020222 0.008682 44384.500000 0 0 1
6.401323 15.032984 23.982445 29.019393 1.168233 0.598062 0.004738 0.005882 782437.000000 0 0 1
6.624223 13.843084 24.938745 29.282286 1.124478 0.551639 0.009706 0.004556 -859124.000000 0 0 1
6.799623 14.310784 26.259945 30.669498 1.127234 0.542882 0.012631 0.000031 -159851.000000 0 0 1
7.094923 13.235584 27.127845 31.007073 1.078727 0.505583 0.016378 -0.005060 -651350.000000 0 0 1
8.038823 13.798984 28.229945 32.434001 1.043294 0.514820 0.014124 -0.008367 302844.000000 0 0 1
9.399723 13.962184 27.859445 32.549133 0.978266 0.543469 0.047906 -0.008307 242441.000000 0 0 1
9.654723 15.100684 27.074645 32.469689 1.001940 0.584762 0.044783 -0.009264 199309.000000 0 0 1
11.005923 14.953684 26.256045 32.157781 0.936315 0.615516 0.057130 -0.015105 935307.000000 0 0 1
10.856123 14.085984 25.170045 30.818850 0.914176 0.615111 0.045154 -0.021892 555793.000000 0 0 1
12.141123 13.842884 24.589145 30.719022 0.850797 0.642745 0.061160 -0.023686 357575.000000 0 0 1
12.110223 12.653684 23.666445 29.442721 0.807340 0.637119 0.037917 -0.025246 36020.000000 0 0 1
11.865923 11.347184 24.200645 29.244314 0.763055 0.596097 0.030015 -0.014692 -185371.000000 0 0 1
10.522523 11.066884 24.487245 28.858700 0.810607 0.557610 0.028433 -0.008392 -431162.000000 0 0 1
10.348623 9.660584 25.140345 28.852345 0.751026 0.512860 0.010045 0.002418 -88679.300000 0 0 1
10.413323 8.713984 24.103745 27.665164 0.696787 0.513018 0.017979 0.006924 345606.000000 0 0 1
10.082623 7.431684 24.651045 27.650736 0.635180 0.470118 0.024707 0.008183 -53890.800000 0 0 1
10.391023 6.443684 23.561945 26.545426 0.555083 0.478670 0.028250 -0.006319 -261490.000000 0 0 1
11.780423 6.328984 23.360945 26.917803 0.492998 0.519913 0.029923 -0.005379 -130174.000000 0 0 1
12.135523 5.520984 22.264645 25.951235 0.426958 0.539547 0.035252 -0.017572 48617.100000 0 0 1
11.817123 3.963784 22.402045 25.636060 0.323634 0.507733 0.021600 -0.022277 -1028640.000000 0 0 1
12.648923 3.417284 23.361445 26.784887 0.263865 0.511140 0.034180 -0.014971 -535956.000000 0 0 1
12.233023 2.238784 23.971245 27.005177 0.181008 0.478571 0.027616 -0.009431 -508486.000000 0 0 1
13.194323 1.570684 25.014745 28.324806 0.118485 0.488284 0.017443 -0.002016 -155736.000000 0 0 1
14.255323 0.882684 24.429845 28.298598 0.061841 0.529048 0.040546 -0.006845 -480204.000000 0 0 1
15.476823 1.579584 24.543245 29.058527 0.101709 0.564952 0.029054 -0.007949 -171159.000000 0 0 1
16.643123 0.827684 23.835245 29.082598 0.049690 0.610135 0.029378 -0.015356 11938.500000 0 0 1
16.822623 -0.406016 24.430245 29.664834 -0.024130 0.603169 0.032800 -0.011791 -113870.000000 0 0 1
17.829123 -1.101216 23.735245 29.706096 -0.061687 0.645162 0.030725 0.003692 -157662.000000 0 0 1
18.094223 -2.620116 23.979945 30.154662 -0.143804 0.651407 0.023799 0.014670 -457528.000000 0 0 1
17.033223 -3.462916 23.643245 29.344940 -0.200570 0.633938 0.016558 0.015688 -183630.000000 0 0 1
17.255723 -4.824916 24.034945 29.978632 -0.272649 0.640602 0.020710 0.017762 -95378.900000 0 0 1
16.421023 -5.926916 23.340645 29.147282 -0.346383 0.642195 0.010316 0.011179 52944.900000 0 0 1
16.764123 -5.974816 21.923545 28.237848 -0.342369 0.681881 0.004792 0.009833 220596.000000 0 0 1
15.914823 -6.867516 21.254845 27.426498 -0.407378 0.684121 0.015011 0.005584 -424761.000000 0 0 1
16.067723 -8.421816 21.354545 28.019909 -0.482776 0.704214 0.015301 -0.002558 -450626.000000 0 0 1
15.893823 -9.046216 22.619045 29.087262 -0.517438 0.679913 0.007812 0.004899 36613.400000 0 0 1
16.334923 -10.363316 22.536645 29.700646 -0.565350 0.709338 0.016497 -0.000841 -358730.000000 0 0 1
15.858923 -11.172016 23.695645 30.623569 -0.613715 0.686023 0.024817 0.003198 274068.000000 0 0 1
14.689923 -11.919216 23.351345 30.052402 -0.681646 0.680877 0.034061 -0.005726 119184.000000 0 0 1
14.348623 -12.809116 24.387945 31.060075 -0.728771 0.667799 0.048265 0.000780 109252.000000 0 0 1
13.412523 -13.964116 23.928645 30.781039 -0.805544 0.680302 0.032079 -0.005272 159514.000000 0 0 1
14.032023 -14.874816 23.024745 30.794426 -0.814545 0.726217 0.041313 -0.007111 502636.000000 0 0 1
13.034123 -15.748216 22.485345 30.388903 -0.879417 0.737845 0.031530 0.003651 112881.000000 0 0 1
13.411323 -16.712716 21.320845 30.228412 -0.894556 0.787915 0.031082 -0.005974 -198076.000000 0 0 1
14.286023 -17.769016 21.678145 31.460616 -0.893630 0.810610 0.035808 -0.008767 154733.000000 0 0 1
14.609423 -18.520016 20.523145 31.267007 -0.902894 0.854781 0.025057 -0.003906 -439012.000000 0 0 1
-22.748777 -32.425833 26.514431 47.665045 0.959022 0.980911 0.030235 -0.025399 -293003.000000 0 0 1
-23.424077 -33.420533 27.277571 49.088545 0.959474 0.981615 0.028638 -0.026730 -36425.300000 0 0 1
-24.684377 -33.723933 26.719191 49.603803 0.938945 1.001960 0.032513 -0.033223 -105712.000000 0 0 1
-25.486127 34.393884 27.615991 50.942368 -0.933075 0.997859 0.028733 -0.031973 -617957.000000 0 0 1
-26.142487 -34.045233 28.694861 51.632379 0.915953 0.981528 0.040733 -0.031259 -138109.000000 0 0 1
-25.335857 -33.578033 29.713081 51.500069 0.924398 0.955804 0.032079 -0.028913 -569309.000000 0 0 1
-26.258367 -32.928733 30.739661 52.141443 0.897624 0.940302 0.025469 -0.028943 140916.000000 0 0 1
-26.824577 -31.661733 30.491681 51.495300 0.867916 0.937102 0.021600 -0.025254 503085.000000 0 0 1
-27.745977 -31.264833 31.533731 52.361295 0.844958 0.924500 0.016076 -0.006855 330932.000000 0 0 1
-28.213367 -29.799733 31.428871 51.689381 0.812736 0.917215 0.018285 -0.006228 -206834.000000 0 0 1
-29.029787 -29.583533 30.301611 51.342980 0.794845 0.939514 0.027457 0.005193 152649.000000 0 0 1
-29.268607 -28.162133 30.217801 50.624822 0.766134 0.931168 0.008391 0.009107 123018.000000 0 0 1
-30.033687 -27.776333 28.887351 50.080197 0.746370 0.955964 0.011135 -0.007592 153832.000000 0 0 1
-29.275117 -27.746433 27.652181 48.903376 0.758596 0.969823 0.021631 -0.008173 277137.000000 0 0 1
-28.632027 -26.475433 27.560551 47.752754 0.746284 0.955561 0.005687 0.006873 -22220.900000 0 0 1
-27.565717 -26.529333 26.443721 46.507469 0.766242 0.966004 0.019663 0.013242 267593.000000 0 0 1
-28.124787 -26.431733 25.127991 46.054925 0.754375 0.993680 0.007471 0.004425 670744.000000 0 0 1
-26.997957 -26.424433 24.250821 44.891454 0.774663 1.000109 0.026505 0.019569 516531.000000 0 0 1
-27.337527 -26.608633 22.755941 44.420632 0.771887 1.032955 0.018935 0.017582 -148014.000000 0 0 1
-28.100607 -25.671633 22.060241 43.992398 0.740257 1.045516 0.008605 0.007519 10195.500000 0 0 1
-28.695847 -26.275233 20.930141 44.180429 0.741392 1.077261 0.003664 0.017588 149029.000000 0 0 1
-29.402077 -25.235433 19.965041 43.587981 0.709286 1.095007 -0.007510 0.014056 333725.000000 0 0 1
-30.587527 -24.638233 20.472141 44.291623 0.678085 1.090308 -0.007475 0.004434 120116.000000 0 0 1
-30.987697 -23.570733 19.610941 43.593644 0.650281 1.104190 -0.009344 0.004802 536044.000000 0 0 1
-32.442007 -23.033633 19.925941 44.498036 0.617402 1.106500 -0.001870 0.007461 331302.000000 0 0 1
-33.353947 -24.021433 19.510241 45.499061 0.624153 1.127626 -0.009355 0.007799 -1241950.000000 0 0 1
-34.593448 -23.418533 19.627341 46.155897 0.595098 1.131569 -0.005924 0.001950 -858177.000000 0 0 1
34.940200 -24.212433 19.002441 46.563421 -0.605991 1.150427 -0.002050 0.001112 134319.000000 0 0 1
34.728024 -25.506733 19.537141 47.310981 -0.633488 1.145104 -0.001909 0.000323 -121631.000000 0 0 1
34.064721 -26.239333 18.531941 46.822437 -0.656354 1.163866 0.005831 0.012667 51433.500000 0 0 1
33.618521 -27.688933 18.955741 47.499495 -0.688979 1.160291 0.007495 0.019248 200073.000000 0 0 1
32.589381 -27.800433 19.944741 47.251714 -0.706263 1.135041 0.004095 0.012163 -93122.000000 0 0 1
32.738391 -27.263333 21.265641 47.616373 -0.694402 1.107831 0.008244 0.004675 -694887.000000 0 0 1
31.427511 -27.277033 22.062841 47.100891 -0.714814 1.083299 0.008790 0.000772 -251286.000000 0 0 1
30.443151 -26.474633 21.474341 45.703817 -0.715787 1.081666 0.009224 0.002995 -797909.000000 0 0 1
29.488431 -26.075233 22.410041 45.295643 -0.724047 1.053249 0.024208 -0.000961 -558842.000000 0 0 1
28.636491 -24.946133 21.792041 43.786427 -0.716634 1.049864 0.023239 0.008164 -103580.000000 0 0 1
29.280621 -23.694933 21.339341 43.291709 -0.680347 1.055354 0.021615 0.012959 307149.000000 0 0 1
30.008221 -23.084433 22.411041 43.995899 -0.655720 1.036321 0.033232 0.004013 341287.000000 0 0 1
30.871201 -21.856933 22.039241 43.777673 -0.616078 1.043226 0.020957 0.001418 55856.400000 0 0 1
30.070251 -20.725833 21.956041 42.612766 -0.603473 1.029502 0.014854 -0.004609 268146.000000 0 0 1
30.783191 -19.674333 21.305641 42.292015 -0.568693 1.042834 0.010313 0.004872 -308430.000000 0 0 1
29.870481 -18.463033 21.335541 41.089348 -0.553624 1.024826 -0.003564 0.012585 -65253.800000 0 0 1
29.601921 -17.934233 22.659041 41.368376 -0.544708 0.991138 0.009308 -0.005189 602891.000000 0 0 1
28.527881 -18.607133 23.338741 41.288766 -0.577951 0.970052 0.019399 -0.002407 -158626.000000 0 0 1
28.443751 -18.212833 24.821561 41.914963 -0.569533 0.937024 0.015566 0.001160 -323646.000000 0 0 1
28.042181 -16.914433 25.036111 41.222188 -0.542753 0.918081 0.007786 -0.006428 -238526.000000 0 0 1
28.489711 -16.371433 26.233861 42.046437 -0.521566 0.897040 0.005398 -0.001606 -346175.000000 0 0 1
28.400441 -14.830033 26.308751 41.456788 -0.481231 0.883297 0.003068 -0.004106 -108919.000000 0 0 1
27.103011 -14.270233 26.339601 40.397863 -0.484637 0.860571 0.006549 -0.007384 117426.000000 0 0 1
27.093931 -12.914433 26.754171 40.207578 -0.444797 0.842765 0.009638 -0.008553 -12934.700000 0 0 1
27.628191 -11.950233 25.666001 39.558420 -0.408238 0.864773 0.019174 -0.022882 -162489.000000 0 0 1
26.767081 -11.863733 24.555661 38.212632 -0.417202 0.872902 0.015274 -0.006574 149700.000000 0 0 1
27.294871 -11.035033 23.528641 37.687914 -0.384199 0.896559 0.015591 0.001744 468846.000000 0 0 1
28.482291 -11.627133 22.699741 38.232307 -0.387575 0.935108 0.018427 -0.015074 397983.000000 0 0 1
28.039701 -12.649933 21.771641 37.686204 -0.423805 0.954878 0.010395 -0.014550 190296.000000 0 0 1
28.185121 -13.925433 22.333541 38.563010 -0.458893 0.953118 0.006162 -0.015931 -157950.000000 0 0 1
27.797971 -15.096033 21.346141 38.161173 -0.497501 0.977173 0.000718 -0.007739 -137305.000000 0 0 1
28.580721 -15.059733 20.182841 38.091997 -0.484950 1.012379 -0.000547 0.000736 -130504.000000 0 0 1
28.121841 -16.114633 19.331741 37.739045 -0.520352 1.032996 -0.004648 -0.002553 12904.900000 0 0 1
28.668611 -15.964933 17.868641 37.363841 -0.508109 1.072154 0.002560 0.001820 44383.300000 0 0 1
28.163041 -16.852933 16.852041 36.894030 -0.539247 1.096437 -0.001068 0.001168 685631.000000 0 0 1
26.764181 -16.664933 16.589041 35.626361 -0.556913 1.086439 0.007685 -0.007993 486548.000000 0 0 1
26.377381 -15.627233 15.457141 34.335111 -0.534848 1.103824 0.009374 -0.010977 -242276.000000 0 0 1
26.501981 -16.063733 14.101041 34.047582 -0.544917 1.143780 0.018982 -0.010412 273920.000000 0 0 1
25.581641 -17.110233 13.789841 33.724474 -0.589511 1.149551 0.025256 -0.018477 -203925.000000 0 0 1
25.555141 -17.796133 12.424341 33.528075 -0.608293 1.191179 0.024894 -0.003924 -262920.000000 0 0 1
25.180841 -16.917933 11.350041 32.390039 -0.591588 1.212779 0.011457 -0.006926 -156365.000000 0 0 1
25.051541 -17.560833 10.042041 32.199458 -0.611389 1.253636 0.019156 -0.013001 -5578.830000 0 0 1
26.375491 -17.973133 9.371541 33.264482 -0.598156 1.285202 0.028051 -0.007181 12195.100000 0 0 1
27.154031 -18.943633 10.052741 34.601448 -0.609138 1.276016 0.034125 0.000995 -789441.000000 0 0 1
28.445071 -18.845033 9.532541 35.427767 -0.585117 1.298369 0.038552 0.003642 -227390.000000 0 0 1
29.548021 -19.450833 10.445941 36.885473 -0.582173 1.283668 0.048118 -0.008205 -40831.400000 0 0 1
29.400041 -18.844133 11.713641 36.833044 -0.569991 1.247156 0.047498 -0.020491 196019.000000 0 0 1
29.542231 -19.802733 12.713341 37.769308 -0.590527 1.227487 0.033226 -0.016571 -169281.000000 0 0 1
29.527721 -19.320033 14.212641 38.041413 -0.579393 1.187899 0.034042 -0.000992 100210.000000 0 0 1
29.493361 -20.420333 15.112141 38.925893 -0.605587 1.172088 0.032204 -0.001958 -51714.700000 0 0 1
29.571491 -20.101433 16.470741 39.367829 -0.597011 1.139135 0.033695 -0.005043 68831.100000 0 0 1
29.359431 -21.245733 17.437841 40.217355 -0.626418 1.122323 0.024157 0.002645 106914.000000 0 0 1
28.048431 -21.755133 17.348841 39.509272 -0.659702 1.116191 0.010251 0.003927 -126110.000000 0 0 1
27.773871 -22.513133 18.533541 40.270599 -0.681163 1.092548 0.013343 0.000831 1334270.000000 0 0 1
26.389561 -23.305133 18.464941 39.755404 -0.723410 1.087767 0.013700 0.004533 1232900.000000 0 0 1
25.220041 -22.544633 18.637741 38.622226 -0.729444 1.067215 0.022444 0.001479 -466055.000000 0 0 1
24.118041 -23.393333 18.634541 38.421010 -0.770146 1.064423 0.015171 -0.007544 -558730.000000 0 0 1
22.804341 -22.858533 19.213641 37.572789 -0.786585 1.034017 0.021771 -0.011030 -287708.000000 0 0 1
22.155641 -21.902433 18.349341 36.156428 -0.779651 1.038517 0.027960 -0.006468 1179340.000000 0 0 1
20.981741 -21.192733 18.857141 35.283950 -0.790401 1.006952 0.021275 -0.011706 1123420.000000 0 0 1
21.027541 -20.250633 20.052741 35.416917 -0.766579 0.968919 0.012211 -0.011154 -286410.000000 0 0 1
21.483141 -20.982433 21.187541 36.751867 -0.773608 0.956355 0.011861 -0.014253 26737.400000 0 0 1
21.411241 -20.216133 22.372541 36.981939 -0.756696 0.921082 0.004110 0.003789 -212900.000000 0 0 1
21.899141 -21.073633 23.560641 38.454833 -0.766191 0.911345 0.006888 0.003456 377387.000000 0 0 1
20.918241 -21.950733 24.131661 38.752349 -0.809478 0.898589 0.020141 0.002848 23101.300000 0 0 1
21.416541 -22.730033 25.173351 40.112594 -0.815142 0.892372 0.025016 -0.009363 -264369.000000 0 0 1
20.337541 -23.405033 26.064591 40.506469 -0.855410 0.871777 0.023648 -0.006263 246730.000000 0 0 1
19.690941 -24.560333 25.451761 40.481295 -0.894997 0.890879 0.031286 -0.003280 884819.000000 0 0 1
18.750641 -25.178433 26.354101 40.988762 -0.930689 0.872441 0.039666 0.009366 440212.000000 0 0 1
17.993841 -26.426933 25.834241 41.104368 -0.973011 0.891169 0.035125 0.012529 43426.100000 0 0 1
17.134641 -26.156433 24.736171 39.870202 -0.990856 0.901521 0.030674 -0.000305 250727.000000 0 0 1
16.766041 -27.369533 24.137641 40.159895 -1.021178 0.925997 0.036006 -0.013218 -418300.000000 0 0 1
15.793441 -27.160533 22.963141 38.915719 -1.044102 0.939646 0.031832 -0.021272 -63965.800000 0 0 1
14.510541 -26.706833 23.380241 38.346400 -1.073091 0.915100 0.015734 -0.013802 354068.000000 0 0 1
13.952041 -26.093433 22.190641 36.985825 -1.079779 0.927324 0.007857 -0.012989 414153.000000 0 0 1
12.504041 -25.523533 22.336841 36.148807 -1.115259 0.904710 0.004938 -0.015242 695371.000000 0 0 1
11.491341 -26.501733 22.049241 36.339535 -1.161658 0.918823 0.003162 -0.015503 301822.000000 0 0 1
10.272141 -25.768533 22.004741 35.408230 -1.191471 0.900194 0.008495 -0.003423 1120970.000000 0 0 1
8.965041 -26.675733 22.052641 35.753121 -1.246581 0.906121 0.016991 -0.011546 858991.000000 0 0 1
8.608041 -27.442433 20.911441 35.559441 -1.266840 0.942126 0.024679 -0.006578 -246342.000000 0 0 1
7.291041 -27.909033 20.943941 35.647188 -1.315264 0.942788 0.008892 -0.002704 -445900.000000 0 0 1
6.898241 -28.870433 19.801741 35.681880 -1.336256 0.982491 0.024646 -0.003974 -256430.000000 0 0 1
7.584641 -30.071833 19.881341 36.838969 -1.323732 1.000737 0.022427 -0.005213 -130550.000000 0 0 1
7.577541 -30.840333 18.642641 36.825172 -1.329867 1.039969 -0.002144 -0.002487 -131330.000000 0 0 1
8.203541 -32.253533 18.692241 38.170516 -1.321732 1.059047 -0.002287 -0.000954 -65098.800000 0 0 1
7.643041 -33.198733 19.606541 39.306340 -1.344518 1.048567 -0.003070 -0.001374 162356.000000 0 0 1
8.620641 -34.193133 19.920041 40.500541 -1.323827 1.056587 0.002034 0.001973 141504.000000 0 0 1
8.191041 33.785184 20.903341 40.564534 1.332941 1.029426 0.007154 0.002432 -578023.000000 0 0 1
7.313741 32.876884 20.343441 39.347629 1.351902 1.027433 0.004514 -0.000613 -500561.000000 0 0 1
7.136641 31.844084 21.319841 38.980930 1.350327 0.992104 0.011449 -0.005985 -196466.000000 0 0 1
6.158641 30.716284 20.896941 37.657683 1.372919 0.982531 0.013604 -0.009587 -289151.000000 0 0 1
4.831241 31.068584 21.153841 37.895683 1.416529 0.978567 0.021006 -0.012738 -608786.000000 0 0 1
3.981741 30.015784 20.707541 36.682472 1.438911 0.970960 0.027650 -0.005643 809655.000000 0 0 1
2.558941 29.986384 21.354941 36.902099 1.485666 0.953673 0.011534 -0.003369 320711.000000 0 0 1
2.556341 29.408084 22.657841 37.212203 1.484088 0.916146 0.007559 -0.012556 1215680.000000 0 0 1
1.177741 29.230384 23.050441 37.244130 1.530526 0.903453 -0.004300 -0.008064 894332.000000 0 0 1
1.165541 28.534984 24.420121 37.575871 1.529973 0.863359 0.007363 -0.006210 -151229.000000 0 0 1
1.250341 29.345384 25.563171 38.938292 1.528214 0.854621 0.002144 -0.008442 223059.000000 0 0 1
1.038541 28.605984 26.745611 39.175357 1.534507 0.819324 0.002442 -0.010590 51027.400000 0 0 1
2.323841 28.020784 27.429991 39.280644 1.488053 0.797765 0.002222 -0.008367 184804.000000 0 0 1
2.657741 26.768684 26.867101 38.019299 1.471835 0.786016 0.003037 -0.010521 -377318.000000 0 0 1
3.640341 26.217584 27.686911 38.303770 1.432827 0.762915 -0.000153 -0.002646 -341809.000000 0 0 1
4.202341 24.937284 27.038091 37.021428 1.403848 0.751982 -0.000252 0.008826 181072.000000 0 0 1
3.160841 23.963184 26.949581 36.200898 1.439649 0.731093 0.006403 0.009449 288879.000000 0 0 1
3.670741 22.696384 26.584411 35.147277 1.410452 0.713048 0.007062 0.020875 563291.000000 0 0 1
2.520541 21.649284 26.381581 34.220351 1.454892 0.690492 0.004056 0.025367 294408.000000 0 0 1
2.988241 20.294284 26.460461 33.480495 1.424601 0.659458 0.009734 0.032773 129729.000000 0 0 1
3.555741 19.725984 25.308111 32.284024 1.392455 0.669841 0.011324 0.027511 -690846.000000 0 0 1
3.975841 18.286284 25.589401 31.701939 1.356706 0.631425 0.001589 0.020753 145462.000000 0 0 1
5.033141 18.148184 26.543241 32.545856 1.300260 0.617092 -0.001696 0.017572 -373428.000000 0 0 1
6.262141 18.228084 25.917861 32.298807 1.239885 0.639423 0.006478 0.011197 -1353870.000000 0 0 1
7.539841 18.108384 26.798241 33.210066 1.176256 0.631858 0.007036 -0.000604 337421.000000 0 0 1
7.814141 19.183784 27.701511 34.589768 1.183987 0.642069 0.002941 0.004057 92720.000000 0 0 1
8.296641 20.337484 27.026641 34.826525 1.183457 0.682440 -0.003534 0.002407 -790038.000000 0 0 1
8.798041 21.420984 27.888651 36.249702 1.181082 0.692976 -0.010015 0.005155 -1919440.000000 0 0 1
9.952041 21.089484 28.487601 36.815117 1.129884 0.685975 0.009542 -0.007472 -1642190.000000 0 0 1
10.418141 22.236284 29.196171 38.149789 1.132648 0.699283 0.007448 -0.011428 131635.000000 0 0 1
11.669041 22.031684 30.084571 39.072279 1.083712 0.691999 0.023571 -0.014041 822848.000000 0 0 1
12.915041 21.942084 29.387051 38.882542 1.038804 0.713936 0.012280 -0.014558 61166.100000 0 0 1
13.988041 21.935884 30.298871 39.935822 1.003132 0.709498 0.006298 -0.004037 3323.630000 0 0 1
15.328041 22.209884 29.589811 40.047281 0.966715 0.739402 0.012410 -0.007469 -114468.000000 0 0 1
15.469941 23.575284 29.198081 40.591144 0.990080 0.767971 0.013829 -0.013518 275517.000000 0 0 1
16.586341 23.786184 28.336251 40.544202 0.961878 0.796941 0.049163 -0.015731 215406.000000 0 0 1
-8.531377 16.762584 4.456145 19.329404 -1.100012 1.338167 0.013886 -0.009937 -194191.000000 0 1 0
-8.320177 18.053384 5.008445 20.499623 -1.138944 1.323979 0.015761 -0.011851 -99581.500000 0 1 0
-6.975077 18.345884 5.297845 20.329543 -1.207476 1.307154 0.008898 -0.006437 -601167.000000 0 1 0
-6.722077 19.774784 5.926645 21.710677 -1.243119 1.294304 0.008188 -0.003530 -314436.000000 0 1 0
-6.921877 20.963984 5.128145 22.664926 -1.251887 1.342561 0.009321 -0.004322 466008.000000 0 1 0
-8.273477 21.136184 4.691645 23.177580 -1.197694 1.366966 0.005972 -0.011449 535309.000000 0 1 0
-8.489777 22.299384 3.751645 24.153958 -1.207022 1.414843 0.023582 -0.011793 175017.000000 0 1 0
-7.897077 22.137584 2.433745 23.629633 -1.228141 1.467618 0.004784 -0.011342 64210.400000 0 1 0
-8.350777 21.031284 1.632645 22.687351 -1.192823 1.498771 0.015946 -0.007532 -648724.000000 0 1 0
-7.915077 21.103484 0.144445 22.539440 -1.211973 1.564388 0.012241 0.005112 -88010.100000 0 1 0
-6.608277 20.708384 -0.152355 21.737748 -1.261900 1.577805 0.003715 0.008313 -293020.000000 0 1 0
-5.595577 21.658384 0.143045 22.369992 -1.317969 1.564402 0.006817 0.003095 299385.000000 0 1 0
-4.175877 21.340684 -0.407655 21.749228 -1.377561 1.589541 0.002368 0.008339 437395.000000 0 1 0
-4.085177 21.509084 -1.802255 21.967646 -1.383104 1.652930 0.000574 0.002742 -738048.000000 0 1 0
-2.784077 21.544284 -2.280555 21.842806 -1.442283 1.675395 0.012698 0.011899 -662107.000000 0 1 0
-2.742277 21.795484 -3.851855 22.302466 -1.445635 1.744377 0.016923 0.007050 158422.000000 0 1 0
-1.479377 22.268584 -4.286055 22.725507 -1.504460 1.760534 0.022487 0.014497 66562.800000 0 1 0
-1.472577 22.755684 -5.652255 23.493353 -1.506174 1.813770 0.030223 0.005033 -218855.000000 0 1 0
-0.102777 23.250684 -6.122455 24.043488 -1.566376 1.828273 0.039416 -0.006474 111738.000000 0 1 0
0.918323 22.260684 -6.149355 23.112679 1.529567 1.840100 0.005325 0.001245 170837.000000 0 1 0
2.162723 22.789684 -6.552055 23.811268 1.476180 1.849559 0.001768 -0.005925 7520.280000 0 1 0
3.250523 21.699084 -6.644055 22.925087 1.422102 1.864831 -0.000010 -0.001261 -173902.000000 0 1 0
3.091323 20.936384 -7.777155 22.547119 1.424202 1.922959 -0.001107 -0.002599 -232584.000000 0 1 0
3.900423 19.819684 -7.781955 21.646986 1.376484 1.938522 -0.007643 -0.003865 -212942.000000 0 1 0
3.526123 18.896484 -8.941155 21.200351 1.386316 2.006166 -0.012600 -0.002107 -176147.000000 0 1 0
4.109623 19.203384 -10.209355 22.133456 1.359971 2.050215 -0.013561 -0.008320 12337.800000 0 1 0
3.142323 19.101184 -11.247855 22.388471 1.407747 2.097163 -0.004064 -0.004099 -156526.000000 0 1 0
3.552323 19.453784 -12.736555 23.522086 1.390183 2.142984 -0.007907 -0.003278 -228340.000000 0 1 0
3.793223 20.821584 -12.943855 24.808673 1.390595 2.119694 0.015381 -0.008594 -114619.000000 0 1 0
3.959623 21.122684 -14.303255 25.815296 1.385489 2.158031 0.017155 -0.003494 -12334.800000 0 0 1
4.382123 22.558784 -14.658155 27.257352 1.378932 2.138585 0.015595 0.005896 456561.000000 0 0 1
3.308623 23.523484 -14.594855 27.880299 1.431061 2.121730 0.022957 0.000690 66300.300000 0 0 1
3.707423 24.827484 -14.939055 29.211715 1.422564 2.107617 0.014173 0.000432 -223576.000000 0 0 1
2.606823 25.878084 -15.208655 30.129287 1.470400 2.099923 0.022346 0.000342 586522.000000 0 0 1
1.666523 26.149184 -14.140755 29.774453 1.507151 2.065680 0.032312 -0.010297 352289.000000 0 0 1
1.208623 27.469384 -14.155255 30.925702 1.526826 2.046223 0.019100 -0.005450 -119126.000000 0 0 1
0.321523 27.819884 -12.894955 30.664787 1.559240 2.004807 0.022682 -0.012019 1403400.000000 0 0 1
-1.067577 27.423984 -12.854955 30.306179 -1.531887 2.008841 0.026747 -0.022084 1031600.000000 0 0 1
-1.540677 26.102484 -13.058155 29.227192 -1.511841 2.033960 0.029831 -0.017319 -95467.800000 0 0 1
-1.290777 25.158084 -11.811155 27.822629 -1.519535 2.009224 0.044913 -0.023155 -546268.000000 0 0 1
-2.194877 25.397484 -10.794355 27.683348 -1.484589 1.971344 0.045107 -0.014579 -440758.000000 0 0 1
-2.359677 24.188484 -10.099755 26.318356 -1.473550 1.964654 0.060869 -0.010968 -317918.000000 0 0 1
-3.316877 24.249784 -8.918555 26.049843 -1.434860 1.920229 0.042633 -0.015486 -295812.000000 0 0 1
-2.962877 24.925084 -7.702555 26.255815 -1.452480 1.868542 0.043439 -0.014586 -201023.000000 0 0 1
-2.557577 26.280084 -7.717255 27.508908 -1.473782 1.855149 0.045340 -0.018936 64516.600000 0 0 1
-2.258677 26.930884 -6.347955 27.760956 -1.487123 1.801502 0.034912 -0.009881 508209.000000 0 0 1
-1.183477 26.236384 -5.680455 26.870356 -1.525719 1.783806 0.051557 -0.013171 325840.000000 0 0 1
-1.006877 26.501484 -4.331455 26.871992 -1.532821 1.732691 0.051459 -0.015767 61950.300000 0 0 1
-1.931577 25.725784 -3.301055 26.008535 -1.495854 1.698062 0.041567 -0.013113 161863.000000 0 0 1
-3.296077 26.005584 -3.506955 26.447178 -1.444724 1.703790 0.023768 -0.008703 -525951.000000 0 0 1
-4.025377 25.354084 -2.509855 25.794042 -1.413344 1.668254 0.015315 -0.002820 -506767.000000 0 0 1
-5.288377 24.673084 -3.033355 25.415138 -1.359653 1.690434 0.002070 -0.000752 -46744.800000 0 0 1
-6.407977 25.537384 -3.172155 26.519478 -1.324947 1.690699 -0.012834 -0.000674 763332.000000 0 0 1
-7.565677 24.895384 -3.775955 26.292156 -1.275766 1.714910 -0.003768 0.005108 1399370.000000 0 0 1
-8.763677 25.900684 -3.795755 27.605348 -1.244531 1.708734 -0.014276 0.007169 -26287.000000 0 0 1
-9.312077 26.110184 -2.546755 27.837788 -1.228214 1.662410 -0.014332 -0.003362 -915895.000000 0 0 1
-10.542077 26.759584 -2.652355 28.883312 -1.195512 1.662756 -0.007975 0.001492 -607440.000000 0 0 1
-11.252177 26.848084 -1.318355 29.140507 -1.173929 1.616053 0.007689 -0.000305 -261233.000000 0 0 1
-11.710477 25.600684 -0.784055 28.162831 -1.141782 1.598640 0.020593 -0.006927 978441.000000 0 0 1
-10.636777 24.878884 -0.110555 27.057570 -1.166774 1.574882 0.019524 -0.010771 641576.000000 0 0 1
-10.952477 23.448484 0.143245 25.880662 -1.133824 1.565261 0.017223 -0.008919 488156.000000 0 0 1
-11.894277 23.238684 1.233245 26.134865 -1.097729 1.523591 0.028069 -0.010763 512792.000000 0 0 1
-12.294777 21.912484 1.425245 25.166442 -1.059482 1.514133 0.034803 -0.015840 203808.000000 0 0 1
-13.334777 21.687784 2.572145 25.588907 -1.019528 1.470108 0.036015 -0.017886 162960.000000 0 0 1
-12.810177 21.697584 3.901545 25.497212 -1.037468 1.417174 0.038280 -0.020187 30991.600000 0 0 1
-12.578977 23.006884 4.392145 26.586431 -1.070453 1.404833 0.029069 -0.014144 -44398.700000 0 0 1
-12.387577 23.101384 5.892745 26.867275 -1.078589 1.349671 0.029145 -0.013186 229582.000000 0 0 1
-11.061877 22.761284 6.305145 26.080568 -1.118415 1.326621 0.029192 -0.011556 390734.000000 0 0 1
-11.073677 22.471684 7.692245 26.206364 -1.112938 1.272883 0.026688 -0.011311 -181640.000000 0 0 1
-9.748877 22.162484 8.411145 25.631302 -1.156388 1.236442 0.023973 -0.011032 -525875.000000 0 0 1
-9.015177 23.339284 8.663845 26.477496 -1.202185 1.237441 0.026211 -0.007865 -19991.200000 0 0 1
-7.885877 23.079084 9.489345 26.170190 -1.241544 1.199739 0.032575 -0.005473 76469.700000 0 0 1
-8.114677 22.716884 11.016945 26.519387 -1.227714 1.142381 0.028964 -0.011222 -100230.000000 0 0 1
-8.899177 21.515284 11.185845 25.830717 -1.178603 1.122929 0.032806 -0.011472 247661.000000 0 0 1
-8.718377 20.995984 12.490745 25.939548 -1.177221 1.068393 0.021208 -0.005830 -84318.200000 0 0 1
-9.744277 19.863284 12.852745 25.586990 -1.114723 1.044522 0.023447 -0.011096 161007.000000 0 0 1
-9.705977 18.707384 12.033545 24.268877 -1.092197 1.051991 0.036143 -0.020318 12071.600000 0 1 0
-10.561877 17.716484 12.580745 24.159929 -1.033204 1.023093 0.038201 -0.018706 -135081.000000 0 1 0
-10.640877 16.501284 11.724045 22.868622 -0.998049 1.032505 0.033233 -0.021523 -241994.000000 0 1 0
-11.029477 15.283084 12.305945 22.509072 -0.945669 0.992366 0.030123 -0.019080 109673.000000 0 1 0
-11.382277 14.261284 11.358145 21.492973 -0.897200 1.014013 0.019908 -0.015996 155652.000000 0 1 0
-11.851477 12.927084 12.013545 21.257758 -0.828780 0.970197 0.012854 -0.014318 -236648.000000 0 1 0
-13.055477 13.011784 12.707145 22.388022 -0.783722 0.967225 0.034859 -0.015317 -508239.000000 0 1 0
-13.287377 11.800384 13.399345 22.256368 -0.726196 0.924736 0.021036 -0.004058 227143.000000 0 1 0
-14.031977 11.903884 14.769045 23.594989 -0.703529 0.894460 0.016816 -0.003211 -103735.000000 0 1 0
-15.308877 12.452984 14.673545 24.591695 -0.682888 0.931430 0.030293 -0.013014 -704620.000000 0 1 0
-16.011277 12.479284 15.877645 25.771945 -0.662057 0.907037 0.030081 -0.012289 -567215.000000 0 0 1
-16.999977 13.621284 15.943045 26.994801 -0.675505 0.938998 0.039102 -0.013367 -216333.000000 0 0 1
-18.076777 13.429484 15.020645 27.069183 -0.638950 0.982556 0.037192 -0.010029 -191849.000000 0 0 1
-18.902477 14.556484 15.020045 28.192138 -0.656231 1.008921 0.049727 -0.013812 997218.000000 0 0 1
-20.216477 14.242484 14.155945 28.494650 -0.613739 1.050897 0.042958 -0.006612 1276300.000000 0 0 1
-21.199277 13.484784 14.839745 29.179904 -0.566539 1.037284 0.036687 -0.003539 -234318.000000 0 0 1
-22.267877 13.145084 14.014245 29.411743 -0.533268 1.074144 0.035184 -0.000310 54635.100000 0 0 1
-23.274277 12.133984 14.686945 30.077099 -0.480579 1.060644 0.031349 0.002333 211849.000000 0 0 1
-23.868577 12.747184 15.799145 31.333890 -0.490521 1.042319 0.016259 -0.002716 244073.000000 0 0 1
-24.692277 11.846684 16.556845 32.002837 -0.447335 1.027038 0.016276 -0.000096 92504.900000 0 0 1
-25.430557 12.529984 17.717545 33.430901 -0.457802 1.012225 0.025110 -0.007275 -499383.000000 0 0 1
-26.460927 13.390084 17.293045 34.329644 -0.468462 1.042879 0.027041 0.001732 515211.000000 0 0 1
-27.296197 13.816084 18.401345 35.701205 -0.468559 1.029291 0.027075 0.002951 201324.000000 0 0 1
-28.308817 14.860784 17.887245 36.635851 -0.483410 1.060720 0.018539 0.001380 -188281.000000 0 0 1
-27.731237 16.057484 17.413745 36.470575 -0.524865 1.073019 0.014944 0.003034 -696756.000000 0 0 1
-28.714377 17.018884 17.384845 37.634967 -0.535031 1.090623 0.013485 0.001551 -747605.000000 0 0 1
-28.226847 18.517084 17.279845 37.924007 -0.580588 1.097701 0.026122 -0.004980 -417702.000000 0 0 1
-27.688267 19.035384 18.471145 38.342785 -0.602280 1.068160 0.016121 -0.008980 -583326.000000 0 0 1
-28.549997 19.223884 19.529145 39.573319 -0.592609 1.054695 0.008331 -0.007986 -979885.000000 0 0 1
-27.895057 19.258584 20.970545 39.859642 -0.604250 1.016777 0.012878 -0.012317 386338.000000 0 0 1
-27.374887 18.028384 21.487045 39.193114 -0.582379 0.990544 0.016857 -0.008745 569683.000000 0 0 1
-26.167737 17.568984 20.860145 37.796366 -0.591271 0.986145 0.023340 -0.008070 96172.900000 0 0 1
-25.668987 16.229484 21.426745 37.167169 -0.563803 0.956362 0.026486 -0.007660 -616677.000000 0 0 1
-26.615047 15.228484 21.381745 37.382435 -0.519709 0.961887 0.011764 -0.006545 -442096.000000 0 0 1
-26.184077 13.986884 21.845645 36.857442 -0.490612 0.936381 0.016053 -0.001342 -546700.000000 0 0 1
-27.358647 13.062984 22.189545 37.570108 -0.445463 0.938973 0.014796 -0.001170 -433446.000000 0 0 1
-28.106987 12.801584 21.039145 37.370161 -0.427384 0.972793 0.014271 -0.000323 211062.000000 0 0 1
-29.136097 11.852184 21.349445 38.015592 -0.386343 0.974482 0.036266 -0.000006 343753.000000 0 0 1
-30.210287 11.543784 20.280145 38.173350 -0.364993 1.010704 0.038267 -0.000597 -39632.500000 0 0 1
-29.714747 10.939784 19.081145 36.969382 -0.352761 1.028466 0.042619 -0.003028 194098.000000 0 0 1
-29.159087 9.654684 19.199645 36.222806 -0.319743 1.012145 0.040000 -0.005388 -447288.000000 0 0 1
-28.254377 9.308584 18.032345 34.786851 -0.318257 1.025856 0.035603 -0.009485 -305414.000000 0 0 1
-28.919827 8.887884 16.839645 34.625490 -0.298166 1.062904 0.027458 -0.001507 410773.000000 0 0 1
-29.575287 9.853284 16.010145 35.044394 -0.321594 1.096342 0.026818 0.002405 -241074.000000 0 0 1
-28.710167 10.923584 15.335245 34.333193 -0.363565 1.107768 0.025592 0.000726 -306113.000000 0 0 1
-28.223907 10.530784 14.058345 33.243397 -0.357118 1.134163 0.019680 0.002420 184885.000000 0 0 1
-27.138537 11.371584 13.751245 32.479376 -0.396794 1.133619 0.003762 0.016215 -327682.000000 0 0 1
-26.788097 11.324084 12.244945 31.555914 -0.399945 1.172293 0.025013 0.011981 -400114.000000 0 0 1
-26.222297 10.146284 11.689645 30.450021 -0.369192 1.176784 0.028858 0.013302 636982.000000 0 0 1
-27.233497 9.194884 11.413645 30.927020 -0.325614 1.192809 0.039337 0.014936 -201376.000000 0 0 1
-26.634137 7.908784 10.738645 29.786652 -0.288649 1.201972 0.044446 0.001085 -198023.000000 0 0 1
-26.214447 8.426384 9.536845 29.140223 -0.311009 1.237379 0.045422 -0.002805 153804.000000 0 0 1
-25.704577 7.439784 8.642645 28.120651 -0.281735 1.258398 0.051203 -0.006776 -266625.000000 0 0 1
-25.016477 8.049484 7.432145 27.310348 -0.311305 1.295184 0.048425 -0.003430 -629803.000000 0 0 1
-25.852657 8.721084 6.558945 28.061307 -0.325350 1.334878 0.038711 0.002130 -381862.000000 0 0 1
-25.224887 8.955484 5.360145 27.298842 -0.341145 1.373162 0.040613 -0.000586 -171829.000000 0 0 1
-26.275007 9.181784 4.232045 28.152999 -0.336184 1.419901 0.031708 0.003467 83824.900000 0 0 1
-27.008687 8.047784 3.808245 28.438332 -0.289594 1.436480 0.041885 -0.002355 204839.000000 0 0 1
-26.271867 6.894784 3.358145 27.368343 -0.256652 1.447785 0.049228 -0.004868 270040.000000 0 0 1
-25.291017 7.019384 2.127245 26.333106 -0.270730 1.489926 0.063989 -0.002790 -72883.500000 0 0 1
-24.159777 7.790384 2.365745 25.494738 -0.311926 1.477869 0.053685 -0.001582 -264531.000000 0 0 1
-23.282777 7.782284 1.260645 24.581312 -0.322576 1.519489 0.061702 0.004005 366070.000000 0 1 0
-22.012377 8.659684 1.633045 23.710793 -0.374804 1.501868 0.049339 0.004194 532191.000000 0 1 0
-22.330277 10.005884 1.941645 24.546466 -0.421261 1.491613 0.041891 0.002985 1817080.000000 0 1 0
-21.130377 10.730084 2.362845 23.816183 -0.469871 1.471421 0.037514 0.002588 905391.000000 0 1 0
-21.544777 12.127784 2.685845 24.869144 -0.512701 1.462586 0.035028 -0.001296 -154824.000000 0 1 0
-20.414777 12.870084 3.057845 24.325966 -0.562494 1.444760 0.029295 -0.002712 477842.000000 0 1 0
-20.757277 14.140084 3.662645 25.381519 -0.598004 1.425987 0.028149 -0.010685 62121.500000 0 0 1
-19.583277 14.590784 4.566145 24.844424 -0.640334 1.385956 0.003456 -0.005415 316019.000000 0 1 0
-19.259477 13.756284 5.674045 24.338398 -0.620233 1.335500 0.014803 -0.014837 49234.000000 0 1 0
-18.223377 14.278384 6.469345 24.037807 -0.664611 1.298305 0.008149 -0.019396 -505365.000000 0 1 0
-17.702877 13.308184 7.545445 23.397294 -0.644622 1.242435 -0.011205 -0.023862 127176.000000 0 1 0
-16.927577 12.217084 6.996545 22.017076 -0.625159 1.247411 0.010066 -0.020856 670016.000000 0 1 0
-16.195977 11.591084 8.062845 21.486563 -0.621170 1.186129 -0.005112 -0.017315 -443090.000000 0 1 0
10.537323 -32.888233 -14.284355 37.372635 -1.260732 1.962988 0.015577 -0.010964 -336918.000000 0 0 1
11.678523 -32.970433 -13.455055 37.476337 -1.230374 1.938023 0.004340 -0.004889 373657.000000 0 0 1
12.610223 -31.976433 -13.901855 37.077912 -1.195162 1.955124 -0.001945 -0.013620 1438690.000000 0 0 1
14.108923 -32.087033 -13.385355 37.520756 -1.156534 1.935578 0.036295 -0.006232 1200670.000000 0 0 1
14.945023 -32.851433 -14.216655 38.790252 -1.143852 1.946042 0.020577 -0.005086 -176845.000000 0 0 1
16.307123 -32.532933 -14.004055 38.992660 -1.106149 1.938149 0.042552 -0.005715 260073.000000 0 0 1
17.208523 -33.713533 -14.459855 40.519415 -1.098837 1.935703 0.031010 -0.012674 48409.400000 0 0 1
16.991523 34.315484 -13.526955 40.610870 1.111031 1.910372 0.030064 -0.010878 -14961.200000 0 0 1
17.449823 33.090484 -14.041855 39.958105 1.085519 1.929878 0.023058 -0.006872 -643939.000000 0 0 1
17.386023 31.927084 -13.013355 38.612949 1.072144 1.914547 0.020334 -0.009036 -331333.000000 0 0 1
18.345623 31.914384 -12.010355 38.721291 1.049083 1.886173 0.017015 -0.010255 -451885.000000 0 0 1
18.170623 30.821384 -11.130355 37.470175 1.038099 1.872394 0.020880 -0.008065 -214018.000000 0 0 1
19.229323 30.720084 -10.035655 37.605914 1.011512 1.840934 0.015869 -0.001131 -244867.000000 0 0 1
20.453723 30.185584 -10.484255 37.940003 0.975263 1.850778 0.016233 -0.003941 -8695.610000 0 0 1
21.309123 30.056184 -9.343455 38.009907 0.954071 1.819158 0.012665 -0.000780 143512.000000 0 0 1
22.642623 29.359684 -9.666055 38.315950 0.913855 1.825824 -0.004512 0.001981 261604.000000 0 0 1
23.589823 30.114384 -10.419255 39.647405 0.906296 1.836717 -0.003083 -0.006529 -134194.000000 0 0 1
24.826923 29.464184 -10.400155 39.908363 0.870606 1.834441 -0.011209 0.004255 -290197.000000 0 0 1
25.929823 30.032484 -11.312555 41.258692 0.858578 1.848539 -0.000629 0.001846 -180489.000000 0 0 1
26.428223 31.302784 -10.822755 42.372718 0.869634 1.829076 -0.004577 -0.011276 -282375.000000 0 0 1
27.408323 31.781984 -11.670955 43.560554 0.859156 1.842035 -0.005112 -0.002659 -489249.000000 0 0 1
27.670923 33.248284 -11.319455 44.713067 0.876697 1.826739 -0.002773 -0.012602 -24029.000000 0 0 1
26.770523 34.235184 -11.890455 45.056538 0.907153 1.837860 0.001714 -0.010826 241546.000000 0 0 1
27.103823 -33.563033 -11.569755 44.664903 -0.891469 1.832819 0.007820 -0.011705 -404452.000000 0 0 1
25.997023 -32.540333 -11.835355 43.298892 -0.896716 1.847661 0.008557 -0.013537 -380072.000000 0 0 1
24.864923 -32.681633 -11.028055 42.520248 -0.920405 1.833156 0.010238 -0.010053 -320074.000000 0 0 1
23.792623 -31.762533 -11.185255 41.231751 -0.927885 1.845517 0.012560 -0.004084 356585.000000 0 0 1
24.049423 -30.250533 -10.896255 40.152183 -0.899107 1.845617 0.025163 -0.016209 -176864.000000 0 0 1
24.934023 -29.660233 -11.891555 40.532012 -0.871753 1.868564 0.017378 -0.008740 333930.000000 0 0 1
25.311423 -28.415833 -11.401855 39.725684 -0.843115 1.861905 0.007554 -0.007728 -208289.000000 0 0 1
26.194223 -27.548533 -12.355055 39.971319 -0.810593 1.885041 0.007027 -0.003337 1465460.000000 0 0 1
27.482823 -28.156733 -12.679055 41.338427 -0.797510 1.882535 -0.004171 0.002637 1090690.000000 0 0 1
27.484723 -29.112833 -13.705155 42.317825 -0.814157 1.900605 0.005051 -0.003287 -105777.000000 0 0 1
28.828823 -29.822733 -14.027455 43.786595 -0.802343 1.896905 0.010833 0.000001 479965.000000 0 0 1
29.323923 -30.757533 -13.047355 44.453928 -0.809255 1.868685 0.013426 -0.003200 12062.300000 0 0 1
30.538123 -31.372633 -13.376555 45.779376 -0.798877 1.867319 0.018377 -0.013992 -269842.000000 0 0 1
30.951023 -32.624333 -12.600555 46.702108 -0.811712 1.843989 0.015911 -0.010239 590171.000000 0 0 1
31.994823 -33.374333 -13.272355 48.100625 -0.806498 1.850352 0.007042 -0.015717 909333.000000 0 0 1
32.819323 -34.211333 -12.405755 49.004347 -0.806162 1.826738 0.008139 -0.008365 449157.000000 0 0 1
32.215123 33.697184 -11.544155 48.026887 0.807880 1.813542 0.005677 -0.009117 -509742.000000 0 0 1
31.400923 34.203084 -10.552255 47.615323 0.828085 1.794266 0.000718 -0.010055 -367057.000000 0 0 1
30.880723 33.238084 -9.679655 46.390570 0.822147 1.780996 -0.002511 -0.006298 -277522.000000 0 0 1
30.186723 33.720484 -8.387155 46.028835 0.840637 1.754035 -0.008804 -0.005332 -49918.500000 0 0 1
29.051823 34.506484 -8.670955 45.933553 0.871010 1.760708 -0.006478 -0.013822 -430689.000000 0 0 1
28.375523 -34.233033 -7.478755 45.088830 -0.878684 1.737434 -0.006785 -0.010555 279323.000000 0 0 1
27.326923 -33.102533 -7.686755 43.607621 -0.880685 1.747993 -0.007783 -0.010825 31988.300000 0 0 1
27.893223 -31.836233 -7.998455 43.076129 -0.851317 1.757562 -0.006632 -0.012797 -35174.100000 0 0 1
26.982923 -30.813833 -8.287755 41.788243 -0.851584 1.770447 -0.008730 -0.007290 -166870.000000 0 0 1
26.064023 -30.171733 -7.236855 40.522078 -0.858313 1.750350 -0.000436 -0.008128 423818.000000 0 0 1
25.305723 -29.127833 -7.836255 39.372797 -0.855499 1.771161 0.007925 -0.012447 193357.000000 0 0 1
24.249123 -28.524333 -7.109655 38.107804 -0.866232 1.758463 0.011438 -0.011304 -230835.000000 0 0 1
23.388423 -27.777633 -8.098655 37.204884 -0.870972 1.790230 0.036535 -0.022561 -843849.000000 0 0 1
22.404123 -28.565633 -8.741855 37.341132 -0.905700 1.807097 0.046067 -0.024553 -261249.000000 0 0 1
21.645023 -27.748033 -9.551955 36.465054 -0.908335 1.835837 0.058605 -0.023411 567024.000000 0 0 1
20.391023 -28.472533 -10.227155 36.483882 -0.949304 1.854924 0.045177 -0.009777 976329.000000 0 0 1
20.802023 -29.350633 -11.265955 37.697553 -0.954227 1.874285 0.047138 -0.013218 278574.000000 0 0 1
19.771823 -30.201633 -11.757455 37.964475 -0.991152 1.885670 0.043275 -0.008770 209154.000000 0 0 1
19.385523 -31.449833 -10.974255 38.539911 -1.018409 1.859542 0.038371 -0.015419 222827.000000 0 0 1
20.294823 -32.528433 -11.149555 39.928578 -1.012981 1.853796 0.030583 -0.012843 227013.000000 0 0 1
19.849223 -33.669933 -10.449855 40.458071 -1.038116 1.832047 0.035831 -0.014690 102613.000000 0 0 1
20.910423 34.321284 -10.591055 41.561602 1.023599 1.828466 0.012704 -0.008579 213718.000000 0 0 1
22.096923 34.540284 -9.874755 42.176012 1.001665 1.807122 0.001098 -0.007680 -441468.000000 0 0 1
23.119223 33.626184 -10.145555 42.049387 0.968484 1.814478 0.007130 -0.010637 13160.800000 0 0 1
24.447423 33.903284 -9.407155 42.843946 0.946054 1.792168 0.004756 -0.012300 -275598.000000 0 0 1
24.516923 33.623584 -8.010755 42.376846 0.940768 1.760977 -0.006072 -0.011737 60605.300000 0 0 1
24.935923 32.331684 -7.679155 41.546449 0.913831 1.756698 -0.012949 -0.005629 -318977.000000 0 0 1
25.008823 32.135184 -6.177255 41.185795 0.909466 1.721350 -0.013861 -0.002939 -813226.000000 0 0 1
26.155323 32.665684 -5.528155 42.210287 0.895630 1.702141 -0.016363 -0.008962 526112.000000 0 0 1
27.146723 31.689384 -5.168255 42.046075 0.862454 1.694027 -0.012180 0.003443 231204.000000 0 0 1
26.728123 30.705184 -4.053455 40.910040 0.854534 1.670041 -0.007690 0.018508 -630482.000000 0 0 1
26.422023 31.308184 -2.782355 41.061748 0.869835 1.638609 -0.006505 0.018626 24787.300000 0 0 1
26.307323 30.364584 -1.702355 40.211705 0.856868 1.613144 -0.004771 0.026555 -128455.000000 0 0 1
25.106923 29.403684 -1.778155 38.705245 0.864060 1.616753 -0.004992 0.030677 686814.000000 0 0 1
23.864123 29.923084 -1.248155 38.294192 0.897572 1.603396 -0.012782 0.030004 523779.000000 0 0 1
22.863023 28.949684 -1.134955 36.906505 0.902336 1.601553 0.000993 0.026760 4158.340000 0 0 1
21.516623 29.500484 -0.637555 36.519174 0.940633 1.588255 0.018640 0.014031 -40048.200000 0 0 1
21.475923 29.620684 0.774845 36.595089 0.943468 1.549621 0.031851 0.007020 897581.000000 0 0 1
20.200123 30.120284 1.225045 36.287425 0.980042 1.537030 0.030091 0.004028 862151.000000 0 0 1
19.450523 29.300984 2.327245 35.246086 0.984768 1.504720 0.041425 -0.010570 -63699.100000 0 0 1
19.020323 28.068684 1.826145 33.955242 0.975239 1.516989 0.048467 -0.008585 179549.000000 0 0 1
18.436723 27.242184 2.830245 33.016051 0.975831 1.484968 0.070592 -0.019360 584.920000 0 0 1
18.014423 25.816284 2.292245 31.563497 0.961553 1.498109 0.061280 -0.015507 372075.000000 0 0 1
19.055323 24.943984 1.827745 31.442778 0.918443 1.512634 0.062264 -0.009465 213495.000000 0 0 1
19.734223 24.302884 2.898845 31.439990 0.888774 1.478463 0.057811 -0.004202 248526.000000 0 0 1
21.006823 23.551684 2.396645 31.649839 0.842449 1.495000 0.045252 0.004385 132853.000000 0 0 1
20.687423 22.424684 1.580345 30.550505 0.825673 1.519044 0.044806 0.001663 482561.000000 0 0 1
21.851023 21.700584 1.191445 30.818859 0.781944 1.532127 0.029488 0.000396 111695.000000 0 0 1
21.595923 20.806784 0.015145 29.988437 0.766790 1.570291 0.046717 -0.004956 -389232.000000 0 0 1
21.626723 21.494684 -1.256155 30.517446 0.782336 1.611970 0.022155 0.000975 382030.000000 0 0 1
21.868423 20.639484 -2.401955 30.165967 0.756495 1.650505 0.046813 -0.005853 -236031.000000 0 0 1
21.636823 21.375784 -3.758155 30.646369 0.779329 1.693735 0.030482 -0.006079 -365019.000000 0 0 1
22.474023 22.428484 -4.077755 32.011664 0.784384 1.698527 0.017346 0.005217 -55834.600000 0 0 1
22.030823 23.058384 -5.292255 32.327298 0.808184 1.735245 0.024787 0.000622 146731.000000 0 0 1
22.780923 24.414984 -5.636055 33.864834 0.820007 1.738002 0.016174 0.014894 93428.000000 0 0 1
22.685823 25.559984 -4.777455 34.507729 0.844901 1.709688 -0.001772 0.019095 -28266.700000 0 0 1
23.186723 25.483784 -3.435555 34.624419 0.832559 1.670183 0.009640 0.019519 -272677.000000 0 0 1
22.262423 24.936584 -2.308255 33.507860 0.841995 1.639738 0.005164 0.015390 -681673.000000 0 0 1
21.283323 25.942584 -1.993955 33.615076 0.883739 1.630148 0.019852 0.019124 656743.000000 0 0 1
20.222023 25.530284 -1.163855 32.589571 0.900903 1.606516 0.049831 0.008162 144160.000000 0 0 1
19.218823 24.503684 -1.767955 31.191655 0.905687 1.627507 0.074976 -0.009529 -1081500.000000 0 0 1
18.405923 25.014184 -2.797255 31.181918 0.936433 1.660625 0.062929 -0.007121 90727.400000 0 0 1
17.917823 23.919284 -3.506455 30.091124 0.927874 1.687590 0.080020 -0.018739 11734.000000 0 0 1
17.182523 24.197484 -4.836855 30.069128 0.953327 1.732356 0.071816 -0.014547 -210712.000000 0 0 1
16.351123 23.165984 -5.250455 28.837290 0.956172 1.753889 0.069625 -0.017152 -139943.000000 0 0 1
15.719523 23.512284 -6.466355 29.012836 0.981480 1.795563 0.067012 -0.016447 66957.100000 0 0 1
14.922623 22.293584 -6.998655 27.724893 0.980926 1.825989 0.057643 -0.014216 -511497.000000 0 0 1
15.758423 21.299184 -7.523555 27.542458 0.933816 1.847475 0.062154 -0.014684 396971.000000 0 0 1
15.027323 20.131884 -7.939255 26.346630 0.929575 1.876892 0.055925 -0.011042 171016.000000 0 0 1
15.929823 18.946484 -8.384255 26.134732 0.871679 1.897380 0.048372 -0.000512 -64915.300000 0 0 1
16.730823 19.230984 -9.510255 27.206545 0.854809 1.927895 0.048244 -0.004060 269165.000000 0 0 1
17.413223 18.007584 -9.850255 26.916926 0.802177 1.945450 0.036023 0.003033 -609246.000000 0 0 1
18.791823 18.277784 -10.430155 28.213438 0.771532 1.949469 0.031153 0.001601 -849521.000000 0 0 1
18.868023 18.912684 -11.728355 29.176124 0.786580 1.984480 0.033325 -0.002044 735354.000000 0 0 1
20.216423 18.913184 -12.224955 30.263208 0.752105 1.986632 0.032850 0.002233 782095.000000 0 0 1
20.295123 19.602384 -13.607855 31.326014 0.768037 2.020162 0.029963 -0.003411 -35592.400000 0 0 1
20.001723 18.596584 -14.638855 30.987060 0.749010 2.062829 0.035399 0.004398 411820.000000 0 0 1
20.411723 19.099584 -15.904655 32.161943 0.752201 2.088076 0.025763 -0.001943 11059.100000 0 0 1
20.405323 18.017684 -17.003955 32.095928 0.723337 2.129144 0.029235 0.003755 -395284.000000 0 0 1
21.453323 17.082884 -16.930555 32.229081 0.672469 2.123887 0.038707 0.000586 -84931.300000 0 0 1
21.528523 16.170384 -18.023955 32.400950 0.644214 2.160697 0.037679 -0.004452 -310975.000000 0 0 1
22.381723 16.637884 -19.216155 33.867703 0.639244 2.174128 0.024842 -0.007219 1225610.000000 0 0 1
23.815823 16.683684 -18.925455 34.694547 0.611081 2.147767 0.033428 -0.006572 1800310.000000 0 0 1
24.515723 17.452784 -19.847255 36.049048 0.618669 2.153834 0.046874 -0.011593 483517.000000 0 0 1
26.055623 17.579684 -19.582655 37.032704 0.593542 2.127975 0.041151 -0.015938 773069.000000 0 0 1
26.263723 18.713984 -18.766655 37.311977 0.619093 2.097823 0.038044 -0.013970 362473.000000 0 0 1
27.651323 18.985484 -18.624255 38.365442 0.601678 2.077667 0.049777 -0.020974 271995.000000 0 0 1
27.920623 20.125784 -17.601655 38.657814 0.624564 2.043527 0.052119 -0.017655 -127297.000000 0 0 1
27.421523 19.979484 -16.287155 37.634972 0.629668 2.018356 0.041325 -0.011671 79261.200000 0 0 1
26.115723 20.524484 -16.205655 36.958201 0.666087 2.024710 0.021938 -0.013219 136086.000000 0 0 1
25.258023 19.989884 -15.007755 35.535839 0.669492 2.006808 0.030037 -0.015767 265794.000000 0 0 1
25.723423 20.364884 -13.720355 35.562215 0.669651 1.966885 0.025507 -0.011643 1053690.000000 0 0 1
24.753723 19.794484 -12.779555 34.174338 0.674532 1.954063 0.034004 -0.011576 872177.000000 0 0 1
25.066723 20.128184 -11.325355 34.084425 0.676558 1.909509 0.030029 -0.005294 -128412.000000 0 0 1
24.702523 21.481184 -11.085955 34.562325 0.715760 1.897320 0.029539 -0.008934 103024.000000 0 0 1
25.183523 22.066284 -9.871055 34.907999 0.719520 1.857481 0.016572 -0.004261 -23701.200000 0 0 1
24.401023 21.689184 -8.616555 33.765006 0.726628 1.828842 0.017862 -0.001872 -561534.000000 0 0 1
24.786623 20.387984 -8.254955 33.138962 0.688334 1.822548 0.031951 -0.002831 886460.000000 0 0 1
23.958723 19.926184 -7.134055 31.968233 0.693767 1.795852 0.030634 -0.000893 1729530.000000 0 0 1
22.447523 19.559484 -7.451455 30.691837 0.716755 1.816030 0.026606 0.000370 1017570.000000 0 0 1
21.581723 20.666484 -7.589455 30.829760 0.763738 1.819526 0.020486 0.003002 -198502.000000 0 0 1
20.241523 20.319284 -7.859755 29.738330 0.787315 1.838271 0.029251 -0.005930 -223636.000000 0 0 1
19.451923 21.621484 -7.871755 30.130224 0.838171 1.835121 0.044126 -0.007890 -701946.000000 0 0 1
19.816323 22.438584 -9.007455 31.261973 0.847377 1.863068 0.033921 -0.005032 131306.000000 0 0 1
19.219923 22.230384 -10.278755 31.132751 0.857899 1.907268 0.037649 -0.001308 162925.000000 0 0 1
17.694123 22.488484 -10.410055 30.449682 0.904151 1.919710 0.036335 -0.000913 134999.000000 0 0 1
17.403423 23.901184 -10.185955 31.271383 0.941433 1.902578 0.033741 -0.005000 444651.000000 0 0 1
16.001923 24.152984 -10.215855 30.721195 0.985667 1.909786 0.028682 0.007274 552883.000000 0 0 1
15.658223 25.515784 -9.574355 31.430931 1.020387 1.880331 0.040585 -0.005514 -74798.500000 0 0 1
16.287023 26.580284 -10.231555 32.809500 1.021056 1.887933 0.040319 0.003434 -41731.800000 0 0 1
16.040323 27.835384 -9.618755 33.535369 1.048018 1.861706 0.047981 -0.018639 7837.600000 0 0 1
19.325223 29.507284 34.456969 49.309499 0.990963 0.797092 0.012896 -0.009859 606844.000000 0 0 1
17.992423 29.762484 34.038538 48.663690 1.027050 0.796148 0.020552 -0.011887 548646.000000 0 0 1
17.112723 28.616184 34.093578 47.687559 1.031842 0.774263 0.019082 -0.010706 1536710.000000 0 0 1
15.576323 28.979284 34.089814 47.376536 1.077602 0.767641 0.024142 -0.012089 1078130.000000 0 0 1
15.181023 29.369584 32.779711 46.556904 1.093723 0.789672 0.028659 -0.012063 27804.200000 0 0 1
13.901623 29.997684 32.758111 46.542561 1.136836 0.790020 0.025272 -0.009215 277320.000000 0 0 1
13.244623 29.975284 31.341871 45.345899 1.154739 0.807685 0.027653 -0.011194 -108608.000000 0 0 1
12.851623 28.661884 30.980931 44.118997 1.149284 0.792295 0.014028 -0.015975 96170.300000 0 0 1
11.454423 28.474384 31.098701 43.693518 1.188334 0.778815 0.012328 -0.009330 73206.700000 0 0 1
10.849723 27.010984 30.975691 42.506507 1.188844 0.754333 -0.006930 -0.006553 89091.000000 0 0 1
10.989323 26.303484 29.728561 41.187690 1.175049 0.764422 -0.006205 -0.002763 -300852.000000 0 0 1
12.324123 26.029084 29.405431 41.159161 1.128593 0.774984 -0.006927 -0.005448 -454420.000000 0 0 1
12.540323 25.206284 28.116741 39.789038 1.109144 0.786050 0.013633 -0.006276 -340725.000000 0 0 1
12.255323 25.961484 26.956731 39.380921 1.129751 0.816862 0.008534 -0.005566 48451.100000 0 0 1
12.425023 25.211484 25.785091 38.142771 1.112900 0.828455 0.013992 -0.006573 228804.000000 0 0 1
11.409423 24.046184 25.545631 36.891369 1.127773 0.805909 0.016376 -0.003730 -360124.000000 0 0 1
11.680223 23.426984 24.290091 35.710778 1.108285 0.822775 0.021550 -0.011937 257346.000000 0 0 1
10.733923 22.455584 23.851441 34.472621 1.124898 0.806686 0.021441 -0.008995 188206.000000 0 0 1
10.967023 22.015184 22.382841 33.255608 1.108624 0.832465 0.034095 -0.008569 57889.100000 0 0 1
10.547223 23.060484 21.491941 33.240538 1.141829 0.867732 0.030223 -0.005363 127399.000000 0 0 1
10.751023 22.753384 20.164941 32.247881 1.129388 0.895267 0.031440 -0.000710 -614982.000000 0 0 1
10.256023 23.771084 19.174841 32.216843 1.163476 0.933306 0.029181 -0.003000 87589.200000 0 0 1
8.900223 24.085584 18.941841 31.908034 1.216834 0.935223 0.039555 -0.003868 -79656.300000 0 0 1
8.244723 24.835884 19.920941 32.888303 1.250275 0.920132 0.038952 -0.003515 159919.000000 0 0 1
6.865323 25.474584 19.591541 32.862069 1.307553 0.932068 0.035449 -0.003744 542053.000000 0 0 1
7.025423 26.483684 18.609941 33.122077 1.311495 0.974165 0.031413 -0.011465 154430.000000 0 0 1
5.754023 27.048784 18.361341 33.194643 1.361193 0.984666 0.028044 -0.016898 65101.700000 0 0 1
5.758123 28.275384 17.335841 33.662809 1.369899 1.029806 0.028834 -0.011222 117247.000000 0 0 1
6.323123 27.775184 16.142341 32.741684 1.346958 1.055238 0.029810 -0.007397 85367.200000 0 0 1
6.765723 28.805284 15.267841 33.296041 1.340100 1.094435 0.022393 -0.001033 401291.000000 0 0 1
7.571723 28.302984 14.006241 32.474061 1.309394 1.124857 0.022479 -0.004428 211882.000000 0 0 1
6.710123 27.990384 12.946941 31.561220 1.335507 1.148105 0.024976 -0.012923 16218.100000 0 0 1
7.174923 26.832784 12.270941 30.365339 1.309515 1.154791 0.026852 -0.019511 306125.000000 0 0 1
6.521323 26.679984 10.862641 29.535507 1.331069 1.194173 0.014280 -0.018325 -6107.070000 0 0 1
7.081323 27.623784 9.994041 30.217535 1.319851 1.233712 0.005013 -0.009901 188463.000000 0 0 1
6.700823 29.009984 10.192641 31.470146 1.343794 1.240966 0.005859 -0.006742 -54717.900000 0 0 1
6.949923 29.957884 8.921541 32.021401 1.342839 1.288448 -0.006161 0.002171 -25408.500000 0 0 1
5.982823 29.924184 7.861041 31.512647 1.373465 1.318677 -0.001136 -0.000626 229525.000000 0 0 1
6.086223 28.855284 6.913541 30.289710 1.362921 1.340519 0.002782 0.000800 900157.000000 0 0 1
4.657923 28.332784 6.478041 29.434807 1.407853 1.348899 0.010901 0.001923 869671.000000 0 0 1
3.952923 29.235384 5.684041 30.043994 1.436401 1.380459 0.002957 -0.003652 -79685.900000 0 0 1
2.598423 28.814584 5.567641 29.462360 1.480862 1.380678 0.027375 -0.011712 342111.000000 0 0 1
1.720523 29.835384 4.818041 30.270841 1.513193 1.410952 0.035729 -0.011182 -771259.000000 0 0 1
2.100123 30.114584 3.462641 30.385664 1.501171 1.456592 0.023781 -0.018016 -393736.000000 0 0 1
1.296023 31.034084 2.795641 31.186690 1.529059 1.481034 0.021152 -0.023960 -49787.400000 0 0 1
-0.143577 30.563584 2.484841 30.664763 -1.566099 1.489675 0.034064 -0.012821 -241945.000000 0 0 1
-0.117077 29.526884 1.543441 29.567428 -1.566831 1.518572 0.038834 -0.008385 417805.000000 0 0 1
-1.406877 28.899384 1.503241 28.972632 -1.522153 1.518888 0.040569 -0.001158 513517.000000 0 0 1
-1.882177 28.393684 0.135241 28.456320 -1.504605 1.566044 0.043656 -0.010114 43163.800000 0 0 1
-2.295577 29.464484 -0.707759 29.562246 -1.493043 1.594740 0.042550 -0.018749 -47776.400000 0 0 1
-1.803577 29.320984 -1.996659 29.444178 -1.509362 1.638660 0.044537 -0.017370 -263262.000000 0 0 1
-2.464277 30.399784 -2.849159 30.632290 -1.489911 1.663943 0.033355 -0.018690 235954.000000 0 0 1
-3.776577 30.217384 -3.326959 30.633666 -1.446461 1.679616 0.015474 -0.015759 -279989.000000 0 0 1
-3.847677 29.322184 -4.409059 29.900416 -1.440321 1.718794 0.006932 -0.015461 -825624.000000 0 0 1
-5.239677 29.017384 -4.970859 29.902713 -1.392151 1.737806 0.008455 -0.008599 -407877.000000 0 0 1
-5.820077 30.184584 -5.477159 31.224696 -1.380318 1.747120 0.006610 -0.004868 -621365.000000 0 0 1
-6.641377 29.874684 -6.534959 31.293934 -1.352046 1.781170 -0.002781 0.000165 -535522.000000 0 0 1
-7.204877 31.108084 -7.254059 32.745145 -1.343201 1.794180 -0.000592 -0.006384 159836.000000 0 0 1
-8.088777 31.959984 -6.509259 33.604156 -1.322911 1.765733 -0.013743 0.007461 358230.000000 0 0 1
-8.176877 33.246584 -7.032859 34.952221 -1.329636 1.773393 -0.003047 -0.007889 -199407.000000 0 0 1
-9.262077 34.166984 -6.407559 35.975348 -1.306076 1.749861 -0.003474 -0.005583 760064.000000 0 0 1
-10.609777 33.851184 -6.759359 36.113141 -1.267070 1.759079 0.004249 0.004581 -134307.000000 0 0 1
-11.493377 -34.406033 -6.083459 36.781535 1.248400 1.736954 0.008856 0.002354 175798.000000 0 0 1
-12.971077 34.319784 -6.407259 37.244454 -1.209444 1.743689 0.029591 0.001890 339026.000000 0 0 1
-13.415677 34.471184 -7.752359 37.793412 -1.199648 1.777387 0.031589 -0.006649 357618.000000 0 0 1
-14.806977 34.184484 -7.847659 38.071134 -1.162044 1.778416 0.044735 -0.008004 -278891.000000 0 0 1
-15.343677 34.104084 -9.284159 38.531968 -1.148019 1.814138 0.046387 -0.015161 902385.000000 0 0 1
-16.757777 33.879884 -9.405559 38.950406 -1.111459 1.814682 0.049347 -0.015501 857007.000000 0 0 1
-17.590977 -34.076233 -9.088559 39.411090 1.094254 1.803500 0.050340 -0.014927 -593838.000000 0 0 1
-19.073077 -34.501433 -9.297159 40.503930 1.065791 1.802398 0.048247 -0.018017 -92434.000000 0 0 1
-19.570677 33.583284 -8.466259 39.780974 -1.043157 1.785258 0.040071 -0.017335 128343.000000 0 0 1
-19.399077 33.736784 -7.063159 39.552282 -1.048953 1.750337 0.035063 -0.019158 -662833.000000 0 0 1
-20.061277 32.520384 -6.341159 38.732938 -1.018055 1.735252 0.032394 -0.018614 -350357.000000 0 0 1
-19.949577 32.804584 -4.929659 38.709532 -1.024418 1.698493 0.037668 -0.019160 72640.200000 0 0 1
-21.175977 32.707284 -4.235559 39.193474 -0.996223 1.679076 0.041426 -0.023436 25788.700000 0 0 1
-21.885077 34.058884 -4.018459 40.683070 -0.999665 1.669732 0.030855 -0.017526 -173024.000000 0 0 1
-22.214577 -34.445933 -5.273559 41.325781 0.998007 1.698755 0.037783 -0.026614 21333.500000 0 0 1
-22.849277 -33.189833 -5.185859 40.626932 0.967870 1.698791 0.040122 -0.024525 -293769.000000 0 0 1
-23.410877 -32.765133 -6.537359 40.796571 0.950401 1.731733 0.039736 -0.013518 -570224.000000 0 0 1
-22.474077 -32.288033 -7.462559 40.041116 0.962726 1.758265 0.049560 -0.010413 -234335.000000 0 0 1
-22.728577 -32.565533 -8.845459 40.685923 0.961459 1.789955 0.037391 -0.005569 -74054.500000 0 0 1
-23.951977 -31.823033 -9.472859 40.940661 0.925594 1.804292 0.024706 -0.000440 160130.000000 0 0 1
-25.170087 -32.447233 -9.002659 42.040505 0.911034 1.786610 0.022147 0.000799 432037.000000 0 0 1
-26.361607 -32.155733 -9.678959 42.692010 0.884092 1.799501 0.017631 0.005109 -28062.400000 0 0 1
-26.829507 -30.688933 -9.609359 41.880459 0.852397 1.802306 0.017207 0.013870 -1125890.000000 0 0 1
-26.103687 -29.666433 -10.296759 40.835315 0.849194 1.825701 0.013521 0.012501 -190533.000000 0 0 1
-26.267857 -29.661233 -11.668559 41.303079 0.845997 1.857207 0.008004 0.012866 -340121.000000 0 0 1
-25.341727 -28.646033 -12.383959 40.201502 0.846527 1.883936 0.024081 0.012022 -1060920.000000 0 0 1
-24.046277 -29.109133 -12.375459 39.733073 0.880358 1.887531 0.012949 0.005034 -1292820.000000 0 0 1
-23.265877 -28.414033 -13.312159 39.062410 0.884687 1.918556 0.008123 0.001087 -35641.700000 0 0 1
-21.900477 -29.101133 -13.565759 38.865623 0.925656 1.927346 0.015661 -0.001735 -195709.000000 0 0 1
-21.955277 -30.318733 -14.269459 40.060919 0.944046 1.934988 0.015978 -0.003363 29930.400000 0 0 1
-22.471877 -31.453033 -13.586459 40.974021 0.950433 1.908782 0.011724 -0.004991 -260986.000000 0 0 1
-22.529877 -32.675433 -14.503959 42.256882 0.967149 1.921153 0.004883 -0.003758 -4707.960000 0 0 1
-22.997977 -33.836733 -13.825759 43.185450 0.973842 1.896683 0.004170 -0.005015 95686.700000 0 0 1
-22.899677 34.191184 -14.746759 43.713833 -0.980659 1.914894 0.015932 -0.007665 -184826.000000 0 0 1
-23.413277 32.935684 -14.019159 42.772393 -0.952806 1.904730 0.005704 -0.002011 49682.700000 0 0 1
-22.690077 32.412484 -12.899359 41.614927 -0.960043 1.885957 0.009167 -0.004876 67699.600000 0 0 1
-22.810077 33.228384 -11.789059 41.992940 -0.969213 1.855360 0.031066 -0.007408 -59918.300000 0 0 1
-22.247777 32.656084 -10.475659 40.879369 -0.972748 1.829945 0.036547 -0.011814 -163585.000000 0 0 1
-22.916977 31.568184 -9.902059 40.246600 -0.942865 1.819383 0.037705 -0.011851 68435.800000 0 0 1
-22.177377 31.183084 -8.726659 39.247616 -0.952594 1.795019 0.026673 -0.009496 275129.000000 0 0 1
-22.973977 30.184484 -7.799759 38.726515 -0.920217 1.773590 0.028818 -0.004481 75023.200000 0 0 1
-23.378677 28.994384 -8.448759 38.191863 -0.892215 1.793860 0.033479 -0.001489 47105.700000 0 0 1
-23.788877 27.950284 -7.586559 37.479127 -0.865656 1.774626 0.040773 0.001837 328352.000000 0 0 1
-22.650977 27.227984 -6.738359 36.053230 -0.876904 1.758802 0.037795 0.007799 387961.000000 0 0 1
-22.384977 28.001584 -5.579659 36.280966 -0.896410 1.725199 0.038824 0.005507 296380.000000 0 0 1
-21.385977 27.314584 -4.834959 35.026038 -0.906538 1.709278 0.029141 -0.004022 458450.000000 0 0 1
-19.963577 27.938584 -4.832559 34.676541 -0.950370 1.710612 0.031783 -0.008658 111872.000000 0 0 1
-19.311777 27.986984 -6.107659 34.547352 -0.966795 1.748521 0.037649 -0.001406 389673.000000 0 0 1
-18.088477 28.695684 -5.834759 34.419176 -1.008355 1.741140 0.034665 0.002457 212583.000000 0 0 1
-17.127177 28.435684 -7.010259 33.927453 -1.028678 1.778921 0.036375 0.008648 -480625.000000 0 0 1
-17.485277 29.064984 -8.260759 34.910576 -1.029207 1.809688 0.036521 0.004019 210157.000000 0 0 1
-17.322977 30.461484 -8.400059 36.035379 -1.053721 1.806067 0.032326 -0.000065 -218262.000000 0 0 1
-17.458177 31.043684 -9.847159 36.952196 -1.058502 1.840539 0.039756 -0.001589 -72304.600000 0 0 1
-16.314177 30.812784 -10.643559 36.453606 -1.083858 1.867088 0.035604 0.002360 -89432.400000 0 0 1
-16.259377 31.711484 -11.772259 37.530942 -1.097018 1.889850 0.049908 -0.007293 513097.000000 0 0 1
-14.925777 31.582784 -12.586159 37.130344 -1.129314 1.916621 0.046963 -0.006386 588372.000000 0 0 1
-14.777877 32.484484 -13.656059 38.211455 -1.143858 1.936259 0.048668 -0.013696 -149285.000000 0 0 1
-15.258377 31.956184 -14.904159 38.420694 -1.125328 1.969170 0.055317 -0.009219 -82910.400000 0 0 1
-14.587177 32.542284 -16.124459 39.138014 -1.149396 1.995433 0.072456 -0.021827 -709335.000000 0 0 1
-13.230377 32.287084 -16.229159 38.482259 -1.181893 2.006150 0.056416 -0.019474 -972564.000000 0 0 1
-12.749077 32.479984 -17.543959 39.054818 -1.196754 2.036681 0.044763 -0.029647 1311030.000000 0 0 1
-11.177277 32.330984 -17.693059 38.513223 -1.237945 2.048118 0.049600 -0.027058 586312.000000 0 0 1
-10.688277 31.041184 -17.562959 37.232404 -1.239185 2.062027 0.046080 -0.026693 312623.000000 0 0 1
-9.346477 30.735084 -17.928059 36.788820 -1.275584 2.079818 0.043520 -0.023697 471492.000000 0 0 1
-9.050077 31.003084 -19.449959 37.701406 -1.286779 2.112848 0.032659 -0.023571 -671624.000000 0 0 1
-9.920977 30.215384 -20.227759 37.690283 -1.253545 2.137298 0.035372 -0.030627 237581.000000 0 0 1
-9.605977 30.348784 -21.604459 38.471758 -1.264254 2.167074 0.020439 -0.030198 -783338.000000 0 0 1
-10.759577 30.051184 -22.558159 39.085965 -1.226975 2.186021 0.028543 -0.032715 381013.000000 0 0 1
-11.795977 31.022384 -22.724459 40.223555 -1.207439 2.171174 0.042396 -0.032171 1185230.000000 0 0 1
-12.783177 31.190984 -21.669359 40.073036 -1.181840 2.142121 0.043009 -0.030408 320637.000000 0 0 1
-13.662777 32.411884 -21.925659 41.447994 -1.171863 2.128209 0.061351 -0.032320 -210190.000000 0 0 1
-14.395277 32.415884 -23.134959 42.346663 -1.152876 2.148764 0.046247 -0.028254 -116813.000000 0 0 1
-14.957477 33.690584 -23.319559 43.618613 -1.152972 2.134859 0.048055 -0.025555 15384.400000 0 0 1
-15.342077 33.980084 -24.782459 44.768244 -1.146694 2.157444 0.035360 -0.016944 -148140.000000 0 0 1
-14.258877 34.010084 -25.673359 44.934650 -1.173802 2.178945 0.038270 -0.015337 -298801.000000 0 0 1
-14.626677 33.963084 -27.027459 45.802994 -1.164138 2.201955 0.034714 -0.008756 -10120.400000 0 0 1
-15.130877 -33.854333 -27.717159 46.295790 1.150489 2.212670 0.025155 -0.005437 41565.700000 0 0 1
-16.348477 -33.287233 -27.298159 46.048910 1.114267 2.205337 0.033727 -0.005120 -283857.000000 0 0 1
-16.776577 -32.386533 -28.292659 46.160758 1.092844 2.230542 0.030018 -0.002529 -357757.000000 0 0 1
-18.211077 -31.876033 -28.063059 46.208875 1.051740 2.223465 0.049957 -0.018798 525625.000000 0 0 1
-19.168177 -32.908833 -28.455059 47.540516 1.043371 2.212478 0.040522 -0.021164 -28941.200000 0 0 1
-20.442577 -32.573433 -27.949759 47.540683 1.010341 2.199272 0.051958 -0.027311 637770.000000 0 0 1
-21.613177 -33.562933 -28.231559 48.893975 0.998679 2.186341 0.031133 -0.018031 290753.000000 0 0 1
-21.433077 34.267284 -27.648359 48.969943 -1.011861 2.170743 0.046808 -0.018988 -558687.000000 0 0 1
-22.611077 33.503084 -27.576059 48.930118 -0.977119 2.169510 0.031666 -0.010795 -59378.800000 0 0 1
-22.450677 32.018784 -27.188059 47.627996 -0.959284 2.178327 0.040639 -0.008409 -145101.000000 0 0 1
-22.045677 31.753984 -25.861559 46.509651 -0.963930 2.160419 0.050201 -0.018333 -285089.000000 0 0 1
-22.340077 30.429584 -25.482959 45.545799 -0.937512 2.164581 0.045954 -0.016451 -32829.700000 0 0 1
30.003411 10.204084 -26.858555 41.541665 0.327826 2.273843 0.010105 0.007958 45957.400000 0 0 1
29.906271 8.784684 -26.581465 40.964985 0.285704 2.276911 -0.006498 0.011037 -737896.000000 0 0 1
28.576401 8.396984 -26.594095 39.929512 0.285799 2.299665 0.001027 0.006052 -658687.000000 0 0 1
28.295321 6.953284 -26.047575 39.082598 0.240965 2.300267 -0.007318 0.009224 65427.100000 0 0 1
28.562771 6.884684 -24.661455 38.359068 0.236525 2.269089 -0.014344 0.015088 130309.000000 0 0 1
28.013321 5.671284 -24.275555 37.499496 0.199750 2.274908 -0.014577 0.012635 -367763.000000 0 0 1
28.190591 5.444884 -22.769555 36.644356 0.190796 2.241281 -0.010977 0.013869 682132.000000 0 0 1
29.489171 5.076384 -22.262755 37.296261 0.170473 2.210449 -0.008328 0.013272 1016990.000000 0 0 1
29.333671 4.788284 -20.882555 36.324551 0.161808 2.183264 0.000632 0.007728 -243634.000000 0 0 1
30.676931 4.497184 -20.205655 37.007665 0.145561 2.148362 0.001089 0.006127 -485075.000000 0 0 1
31.170491 3.211684 -20.372255 37.375703 0.102674 2.147265 -0.001111 0.010829 291475.000000 0 0 1
32.266341 3.021984 -19.491255 37.817432 0.093385 2.112275 0.013007 0.002513 -109284.000000 0 0 1
32.613201 1.519084 -19.347555 37.950710 0.046545 2.105757 0.014104 0.004974 29880.900000 0 0 1
31.692821 0.699284 -18.636955 36.773088 0.022061 2.102276 0.031173 0.000416 62003.200000 0 0 1
32.119731 -0.652316 -18.842655 37.244439 -0.020306 2.101243 0.033863 0.005193 10978.500000 0 0 1
31.100881 -1.740016 -18.427855 36.192241 -0.055889 2.105012 0.023045 0.008705 49808.200000 0 0 1
30.977441 -1.926916 -17.017455 35.396449 -0.062124 2.072326 0.027861 -0.001744 227321.000000 0 0 1
29.791211 -1.358716 -16.474955 34.070317 -0.045576 2.075511 0.022566 -0.002289 30245.400000 0 0 1
29.337261 -1.786216 -15.021055 33.007537 -0.060811 2.043258 0.035501 -0.003053 -35572.900000 0 0 1
29.012241 -3.176616 -14.927855 32.781731 -0.109058 2.043585 0.024442 0.000899 628276.000000 0 0 1
28.403671 -3.492416 -13.651255 31.706817 -0.122342 2.015894 0.032000 -0.011751 -100883.000000 0 0 1
28.433661 -4.952216 -13.323855 31.788718 -0.172438 2.003292 0.030674 -0.005682 -297972.000000 0 0 1
27.618871 -5.598616 -14.240555 31.574356 -0.200000 2.038700 0.021136 -0.005504 240354.000000 0 0 1
27.177101 -6.868416 -13.815155 31.251055 -0.247545 2.028701 0.019121 -0.005762 -296600.000000 0 0 1
26.663091 -7.860416 -14.932755 31.554615 -0.286684 2.063756 0.003087 0.002149 -88550.600000 0 0 1
25.343841 -7.555516 -15.326055 30.566060 -0.289732 2.096021 0.007731 -0.003769 63776.800000 0 0 1
24.877541 -8.442916 -16.330155 30.932973 -0.327182 2.126947 -0.003789 0.001740 466925.000000 0 0 1
23.450641 -8.155716 -16.884655 30.025653 -0.334698 2.168010 -0.015229 -0.000899 132305.000000 0 0 1
23.296341 -6.889416 -17.559255 29.975173 -0.287534 2.196655 -0.015509 -0.002582 -493551.000000 0 0 1
21.982441 -6.684716 -17.980355 29.175440 -0.295208 2.234812 -0.004206 -0.005518 -460721.000000 0 0 1
21.743941 -7.204416 -19.440455 30.043866 -0.319946 2.274530 -0.000043 -0.001618 -342211.000000 0 0 1
22.432541 -6.503216 -20.465555 31.053980 -0.282166 2.290327 0.000165 -0.004094 375754.000000 0 0 1
22.058041 -6.885216 -21.788655 31.760177 -0.302558 2.326824 0.012528 -0.007419 998.903000 0 0 1
22.907741 -6.079316 -22.811455 32.895063 -0.259403 2.337078 0.014771 -0.013251 -15579.400000 0 0 1
22.536541 -6.365516 -24.151755 33.641087 -0.275282 2.371612 0.023781 -0.015424 108632.000000 0 0 1
22.859641 -5.354816 -25.042155 34.327056 -0.230099 2.388411 0.027067 -0.015045 -529643.000000 0 0 1
22.649741 -5.719016 -26.531815 35.350461 -0.247328 2.419670 0.034401 -0.016906 75959.200000 0 0 1
21.336441 -6.066716 -26.947245 34.902762 -0.277025 2.452882 0.035154 -0.014988 96457.100000 0 0 1
21.356141 -6.295016 -28.303085 36.010784 -0.286646 2.475046 0.044034 -0.015654 -874455.000000 0 0 1
20.107741 -6.885516 -28.865645 35.846297 -0.329916 2.506913 0.028126 -0.012383 -936730.000000 0 0 1
20.059241 -8.310816 -28.707625 35.994035 -0.392784 2.494046 0.023099 -0.006524 -454523.000000 0 0 1
18.986041 -8.909816 -29.320035 36.048842 -0.438773 2.520670 0.018138 -0.006429 -894626.000000 0 0 1
18.801541 -10.436416 -29.145415 36.219773 -0.506737 2.505937 0.035649 -0.009633 -157111.000000 0 0 1
18.078341 -10.816016 -27.982815 35.026426 -0.539158 2.496270 0.032297 -0.005230 361429.000000 0 0 1
18.255341 -12.169516 -27.531695 35.204386 -0.587976 2.468750 0.029703 -0.006965 -327625.000000 0 0 1
18.300841 -13.402316 -28.510245 36.433184 -0.632098 2.469524 0.028359 -0.005973 711585.000000 0 0 1
17.009741 -13.562816 -29.138035 36.363531 -0.673127 2.500259 0.023116 -0.003053 1080350.000000 0 0 1
17.035341 -14.543416 -30.119455 37.535255 -0.706650 2.502154 0.015587 -0.004128 284653.000000 0 0 1
15.780841 -14.678016 -31.063575 37.807735 -0.749207 2.535043 0.012245 -0.002018 -532468.000000 0 0 1
14.725741 -15.313516 -30.497415 37.167776 -0.804963 2.533141 0.003686 0.002108 -1218570.000000 0 0 1
13.842341 -15.773316 -31.461975 37.818828 -0.850507 2.553343 -0.000204 -0.001813 -966344.000000 0 0 1
12.629641 -16.426016 -30.833655 37.148837 -0.915321 2.549910 0.005993 -0.006247 -690849.000000 0 0 1
12.902441 -17.784016 -30.490545 37.582144 -0.943155 2.517176 0.002751 -0.004990 -31039.600000 0 0 1
12.047441 -18.313816 -29.521835 36.770578 -0.988934 2.502883 0.004836 -0.000812 -530403.000000 0 0 1
12.595741 -19.596216 -28.952675 37.160756 -0.999525 2.464057 0.002240 0.007175 -479817.000000 0 0 1
13.416841 -19.278016 -27.870735 36.447653 -0.962783 2.441339 -0.003579 0.008846 -388177.000000 0 0 1
13.416841 -20.357416 -26.942905 36.336705 -0.988076 2.406068 -0.007073 0.011907 -336151.000000 0 0 1
14.391641 -20.069416 -25.814125 35.724919 -0.948690 2.378324 -0.014343 0.014335 -446696.000000 0 0 1
15.739441 -20.203216 -26.215915 36.649340 -0.908957 2.367875 -0.004087 0.003125 47422.200000 0 0 1
16.448541 -20.145816 -24.967455 36.052493 -0.886091 2.335787 0.002742 -0.000666 1269010.000000 0 0 1
17.960541 -20.674316 -24.972355 37.062473 -0.855525 2.310123 -0.003723 0.011481 1311070.000000 0 0 1
18.155441 -22.004316 -25.281755 38.117937 -0.880945 2.295951 -0.001066 0.004869 279153.000000 0 0 1
17.719441 -22.927616 -24.289455 37.810472 -0.912835 2.268422 0.004486 -0.001620 -390996.000000 0 0 1
18.362341 -24.306716 -24.524455 39.108067 -0.923821 2.248614 0.003025 -0.006637 -425779.000000 0 0 1
19.744241 -24.302216 -24.253155 39.606165 -0.888512 2.229836 0.002101 -0.007644 -394124.000000 0 0 1
20.249941 -25.568336 -24.092355 40.549248 -0.900957 2.207005 0.011390 -0.018219 -315255.000000 0 0 1
20.286841 -26.132486 -22.640355 40.088008 -0.910670 2.170946 0.025270 -0.014727 -55219.700000 0 0 1
19.036541 -26.165446 -21.963255 39.107608 -0.941822 2.167128 0.015682 -0.011371 324074.000000 0 0 1
19.270641 -26.471756 -20.631255 38.700906 -0.941544 2.133051 0.020587 -0.004245 147090.000000 0 0 1
17.974441 -26.868006 -19.882855 37.951261 -0.981187 2.122225 0.019015 -0.006430 -562505.000000 0 0 1
17.661141 -28.259766 -20.127855 38.931489 -1.012228 2.114147 0.015765 -0.002112 -211236.000000 0 0 1
16.572541 -28.752566 -19.397255 38.439728 -1.047922 2.099732 0.008974 0.005540 -598039.000000 0 0 1
15.225941 -28.340536 -19.970755 37.866163 -1.077795 2.126338 0.014169 -0.000262 -1171850.000000 0 0 1
14.457541 -27.521816 -19.127455 36.501101 -1.087105 2.122365 0.024878 -0.002493 -609379.000000 0 0 1
13.216241 -27.186506 -19.664955 36.062246 -1.118304 2.147550 0.016709 0.000200 50548.800000 0 0 1
12.380941 -26.241096 -18.702755 34.520659 -1.129950 2.143355 0.014702 -0.010427 -612429.000000 0 0 1
11.864641 -26.837706 -17.582055 34.207614 -1.154541 2.110615 0.017580 -0.003320 -738520.000000 0 0 1
10.900541 -26.053946 -16.962655 32.944826 -1.174543 2.111665 0.017552 -0.012853 704317.000000 0 0 1
9.426941 -26.311696 -17.477355 32.964079 -1.226765 2.129626 0.019949 -0.010266 307278.000000 0 0 1
8.791741 -27.422656 -16.803455 33.341459 -1.260548 2.098998 0.020160 -0.005978 788604.000000 0 0 1
7.358541 -27.413476 -16.880055 33.023977 -1.308550 2.107313 0.007669 0.005384 1158210.000000 0 0 1
6.775041 -28.071466 -18.175455 34.121189 -1.333976 2.132553 0.012162 0.007739 -285714.000000 0 0 1
6.925941 -27.328996 -19.366155 34.203664 -1.322594 2.172686 0.013964 0.001604 155902.000000 0 0 1
6.239041 -28.049666 -20.398355 35.239215 -1.351931 2.188119 0.019107 0.006864 105763.000000 0 0 1
6.298541 -27.321306 -21.748755 35.484275 -1.344219 2.230538 0.015201 0.002089 -559166.000000 0 0 1
5.625141 -26.058186 -21.681555 34.362205 -1.358190 2.253601 0.027465 -0.004238 208827.000000 0 0 1
5.698741 -25.369926 -22.910655 34.655547 -1.349838 2.293075 0.029670 0.000279 -441999.000000 0 0 1
4.350641 -24.788216 -23.328255 34.316049 -1.397053 2.318294 0.017178 0.010142 186930.000000 0 0 1
3.344741 -25.728386 -23.747755 35.172333 -1.441519 2.312009 0.004394 0.020893 217180.000000 0 0 1
2.212841 -25.044626 -24.256255 34.935596 -1.482669 2.338262 0.019726 0.013435 103308.000000 0 0 1
1.228441 -26.104736 -24.795255 36.024589 -1.523773 2.329921 0.005274 0.008850 52593.500000 0 0 1
1.769841 -26.927666 -25.862795 37.378011 -1.505165 2.334949 -0.005327 0.014186 288726.000000 0 0 1
0.832141 -27.889076 -26.298575 38.341989 -1.540968 2.326629 -0.002585 0.007026 302901.000000 0 0 1
1.519541 -28.692886 -27.456695 39.742431 -1.517887 2.333483 -0.019470 0.009602 -292273.000000 0 0 1
1.648341 -28.084216 -28.723255 40.205293 -1.512171 2.366584 -0.014956 0.010625 41015.700000 0 0 1
2.140641 -28.931686 -29.740835 41.546866 -1.496941 2.368620 -0.010505 0.001213 -121276.000000 0 0 1
3.589141 -29.438116 -29.677785 41.955399 -1.449474 2.356560 -0.000291 0.006718 -806290.000000 0 0 1
3.941741 -30.388476 -28.685795 41.974655 -1.441805 2.323216 -0.016331 0.008951 -582664.000000 0 0 1
5.095541 -31.089346 -29.036705 42.844396 -1.408341 2.315460 0.008400 0.008104 -131394.000000 0 0 1
5.594841 -32.181976 -28.072585 43.070313 -1.398667 2.280732 0.032553 0.000733 260046.000000 0 0 1
4.564141 -33.118836 -27.799075 43.479619 -1.433848 2.264460 0.005181 -0.003174 129438.000000 0 0 1
5.087441 -34.293682 -27.293085 44.123137 -1.423521 2.237713 0.036521 -0.015269 171027.000000 0 0 1
3.944641 33.816282 -26.883175 43.379791 1.454672 2.239178 0.041099 -0.013793 49191.200000 0 0 1
3.185941 33.441297 -27.981985 43.720271 1.475813 2.265325 0.020305 -0.011321 -346741.000000 0 0 1
1.892741 33.048040 -27.581825 43.087266 1.513586 2.265475 -0.005612 -0.010006 -567688.000000 0 0 1
0.955941 33.079240 -28.777855 43.855614 1.541906 2.286562 -0.019254 0.000302 -681193.000000 0 0 1
1.058141 31.978240 -29.643215 43.617058 1.537719 2.318047 -0.001994 0.001896 398961.000000 0 0 1
0.142341 32.253910 -30.718735 44.541842 1.566383 2.331816 -0.007747 0.006680 491553.000000 0 0 1
-0.082159 31.182600 -31.814235 44.547804 -1.568162 2.366219 -0.001620 0.002363 -432084.000000 0 0 1
0.980241 31.025380 -32.705985 45.091203 1.539212 2.382309 -0.000816 0.003260 -303549.000000 0 0 1
0.737241 30.015570 -33.623345 45.077792 1.546239 2.412675 0.003811 0.000954 -971947.000000 0 0 1
1.900441 29.625130 -34.503614 45.516584 1.506734 2.431107 0.002370 0.005062 -553071.000000 0 0 1
2.256441 30.679210 33.605313 45.559000 1.497379 0.741255 0.001930 0.003876 110668.000000 0 0 1
3.132041 30.290850 32.529971 44.559447 1.467764 0.752423 0.007694 0.002190 -167753.000000 0 0 1
2.687041 29.309340 31.464211 43.084268 1.479373 0.752043 0.003944 0.004689 -99336.700000 0 0 1
2.286941 28.011350 31.918691 42.528445 1.489334 0.721939 0.003729 -0.000049 176953.000000 0 0 1
3.418141 27.149150 32.003531 42.106841 1.445553 0.707398 0.002018 0.001515 118009.000000 0 0 1
3.152741 25.697510 32.281331 41.380988 1.448720 0.675970 0.016292 -0.003574 -503893.000000 0 0 1
2.416441 25.080480 31.277521 40.164076 1.474745 0.678136 0.017093 0.003170 -86633.700000 0 0 1
2.748541 23.728400 31.194841 39.290069 1.455477 0.653497 0.019199 0.008119 -414600.000000 0 0 1
1.968541 22.944200 30.109851 37.906656 1.485209 0.652916 0.013928 0.018904 -238259.000000 0 0 1
0.612941 22.773600 30.419421 38.004654 1.543888 0.642812 0.001707 0.018480 -572991.000000 0 0 1
-0.037559 21.972200 29.479771 36.767321 -1.569087 0.640507 0.007117 0.020646 -188306.000000 0 0 1
-1.399059 21.486200 29.987961 36.917367 -1.505774 0.622712 0.007197 0.017611 189179.000000 0 0 1
-2.298859 22.541200 30.404141 37.918363 -1.469163 0.640442 0.016447 0.008231 -67290.600000 0 0 1
-3.596259 22.032600 30.492281 37.790842 -1.408999 0.631963 0.009289 0.005827 -269703.000000 0 0 1
-4.671959 23.122500 30.717041 38.730012 -1.371428 0.654903 -0.012179 -0.006994 -86272.500000 0 0 1
-4.890059 23.665900 32.006961 40.105275 -1.367035 0.646705 -0.008656 -0.006307 203008.000000 0 0 1
-4.482459 25.066010 32.131781 40.998154 -1.393841 0.670136 -0.002457 -0.010558 -174916.000000 0 0 1
-4.589759 25.610790 33.562166 42.466427 -1.393467 0.659461 0.004669 -0.006944 -829643.000000 0 0 1
-5.907459 25.711650 33.971665 43.012336 -1.344958 0.660294 -0.000035 -0.008209 -711977.000000 0 0 1
-5.898959 26.051490 -33.652035 42.964373 -1.348117 2.470680 0.010958 -0.005367 106601.000000 0 0 1
-7.301959 26.355420 -33.076125 42.918025 -1.300519 2.450706 0.009384 0.002412 18890.700000 0 0 1
-7.745159 27.664960 -33.359415 44.024858 -1.297822 2.430640 0.020464 0.003074 496308.000000 0 0 1
-9.098159 27.894370 -32.946955 44.117732 -1.255511 2.414028 0.017374 0.012341 745407.000000 0 0 1
-9.292859 28.415130 -31.503345 43.430837 -1.254721 2.382365 0.021212 0.008601 -386337.000000 0 0 1
-8.865659 29.774930 -31.326375 44.119023 -1.281400 2.360355 0.025319 0.007622 177647.000000 0 0 1
-8.886359 29.973600 -29.887345 43.250867 -1.282579 2.333700 0.024139 0.006739 -123000.000000 0 0 1
-8.520559 31.400530 -29.476045 43.902511 -1.305826 2.306890 0.019415 0.001390 -755520.000000 0 0 1
-7.152959 31.639650 -29.538485 43.872023 -1.348458 2.309442 0.012429 -0.001220 -904202.000000 0 0 1
-6.730759 32.866710 -29.016135 44.356058 -1.368800 2.283873 0.014873 0.000747 -1045910.000000 0 0 1
-5.240659 33.049040 -29.038745 44.305217 -1.413534 2.285541 0.002344 0.002040 -1623940.000000 0 0 1
-4.693359 34.219538 -28.511985 44.787696 -1.434492 2.260882 0.001497 -0.005233 -314758.000000 0 0 1
-4.436759 -33.815866 -29.423315 45.043636 1.440338 2.282623 0.005024 -0.014044 -159722.000000 0 0 1
-3.235359 -33.995765 -30.363825 45.696187 1.475913 2.297583 0.009465 -0.010657 -676616.000000 0 0 1
-3.327859 34.058447 -31.347135 46.407923 -1.473395 2.312398 0.006769 -0.007111 -265775.000000 0 0 1
-3.988859 34.291773 -32.582905 47.470859 -1.454996 2.327292 0.011312 -0.009952 -83879.700000 0 0 1
-3.376459 -33.882846 -33.679185 47.892956 1.471473 2.350710 0.010163 -0.009157 -350103.000000 0 0 1
-3.230359 -32.546586 -33.341665 46.705269 1.471867 2.365811 0.008318 -0.011861 306191.000000 0 0 1
-2.473459 -31.947856 -34.387859 47.003280 1.493529 2.391470 0.005200 -0.011247 208034.000000 0 0 1
31.941481 19.912584 12.795941 39.755569 0.557454 1.243097 0.019262 -0.012680 -117255.000000 0 0 1
32.732501 18.949784 13.418241 40.131784 0.524782 1.229876 0.026797 -0.015748 -77920.800000 0 0 1
32.179241 17.655184 13.197941 39.005060 0.501807 1.225618 0.033247 -0.009931 -173942.000000 0 0 1
32.973021 16.415884 13.684541 39.293358 0.461933 1.215076 0.044862 -0.020135 -281989.000000 0 0 1
34.106271 16.220484 12.861141 39.896751 0.443927 1.242574 0.036664 -0.003947 -197320.000000 0 0 1
34.830831 15.186984 13.466141 40.313375 0.411169 1.230213 0.035837 -0.001539 446046.000000 0 0 1
-34.533233 14.772084 12.717341 39.654627 -0.404210 1.244325 0.035998 -0.001600 1266190.000000 0 0 1
-33.692127 13.792984 13.313741 38.764179 -0.388569 1.220203 0.036775 0.002746 -14127.300000 0 0 1
-34.334592 12.601684 13.613641 39.025606 -0.351761 1.214465 0.040950 -0.000196 -187832.000000 0 0 1
-33.650457 11.904284 14.867341 38.666563 -0.340023 1.176129 0.036482 -0.002061 386792.000000 0 0 1
-33.894397 12.646884 16.061041 39.581951 -0.357127 1.152979 0.048870 -0.002368 57338.700000 0 0 1
-33.193787 12.199384 17.187441 39.319977 -0.352197 1.118405 0.040689 0.008169 -252750.000000 0 0 1
-33.373417 13.036984 18.510941 40.328685 -0.372411 1.093925 0.046589 0.000371 486255.000000 0 0 1
-34.639287 12.941284 19.171341 41.652099 -0.357544 1.092494 0.039266 -0.008501 660136.000000 0 0 1
-34.565320 13.821084 20.248041 42.376490 -0.380381 1.072633 0.061984 -0.014667 631185.000000 0 0 1
34.858451 13.733284 21.160341 43.028766 0.375300 1.056673 0.051106 -0.017415 664676.000000 0 0 1
34.640388 12.431484 21.657441 42.702962 0.344557 1.038904 0.049778 -0.010054 240783.000000 0 0 1
33.508371 12.292284 22.498641 42.191231 0.351599 1.008354 0.057753 -0.020581 236991.000000 0 0 1
33.638711 10.915584 23.263841 42.331066 0.313775 0.988948 0.050905 -0.021642 613524.000000 0 0 1
34.650620 10.735484 24.299221 43.661976 0.300442 0.980592 0.052643 -0.016019 1013380.000000 0 0 1
34.238371 11.431384 25.449901 44.166050 0.322239 0.956685 0.049990 -0.017168 25918.900000 0 0 1
-35.197326 11.749684 26.311241 45.488331 -0.322191 0.954009 0.046221 -0.021625 1008320.000000 0 0 1
-34.313129 12.748584 25.833361 44.802676 -0.355731 0.956231 0.044448 -0.023142 256229.000000 0 0 1
-33.363947 12.364084 24.849591 43.399605 -0.354892 0.961151 0.036073 -0.018524 -404732.000000 0 0 1
-32.441787 13.565684 24.560081 42.891665 -0.396058 0.961114 0.035132 -0.019749 53013.000000 0 0 1
-31.492537 13.978484 25.527091 42.881351 -0.417742 0.933163 0.038336 -0.024623 300023.000000 0 0 1
-32.076397 14.631584 26.642241 44.190355 -0.427955 0.923669 0.030759 -0.027245 -672910.000000 0 0 1
-31.028327 15.023984 27.713891 44.232759 -0.450930 0.893682 0.030419 -0.019496 -119033.000000 0 0 1
-30.259047 16.143284 27.310721 43.841659 -0.490089 0.898301 0.032610 -0.020906 -472171.000000 0 0 1
-29.786307 16.851884 28.395321 44.469139 -0.514862 0.878197 0.034615 -0.021544 149792.000000 0 0 1
-28.966067 18.128484 28.021151 44.191174 -0.559212 0.883966 0.034563 -0.014313 219022.000000 0 0 1
-29.833967 18.968484 27.296241 44.664905 -0.566329 0.913304 0.031462 -0.018507 51362.800000 0 0 1
-29.344467 20.252284 27.138081 44.807680 -0.604089 0.920205 0.023289 -0.013489 -279634.000000 0 0 1
-30.155197 21.187284 26.199491 45.217809 -0.612474 0.952796 0.024486 -0.004780 1129620.000000 0 0 1
-31.526437 21.306284 26.682261 46.473832 -0.594315 0.959249 0.021003 -0.007724 1537460.000000 0 0 1
-32.443217 22.026584 25.882981 46.985758 -0.596443 0.987392 0.024484 -0.000741 -347117.000000 0 0 1
-32.219537 23.546284 25.719711 47.476622 -0.631104 0.998297 0.021859 0.006581 -713991.000000 0 0 1
-33.201977 24.200784 24.954801 48.070691 -0.629857 1.024967 0.029141 0.005352 33039.300000 0 0 1
-33.159817 25.610684 25.018301 48.799549 -0.657647 1.032499 0.034758 0.010230 529293.000000 0 0 1
-34.148997 26.210884 23.964211 49.269137 -0.654636 1.062838 0.040481 0.014312 457691.000000 0 0 1
-33.611037 26.153684 22.690441 48.255291 -0.661261 1.081260 0.035530 0.005004 -50041.200000 0 0 1
-34.548499 26.645684 21.759741 48.755283 -0.656966 1.108164 0.040574 0.003141 47325.900000 0 0 1
-34.050657 26.579684 20.330841 47.741700 -0.662794 1.130894 0.046510 -0.011002 95673.100000 0 0 1
-34.358624 25.312484 19.760641 47.028925 -0.634944 1.137152 0.047812 -0.013378 259381.000000 0 0 1
-33.779707 25.206684 18.449141 46.008872 -0.641070 1.158198 0.058711 -0.017302 -44279.400000 0 0 1
-34.005127 23.903384 17.637341 45.153031 -0.612693 1.169499 0.052101 -0.021725 -642813.000000 0 0 1
-35.309958 23.811784 17.176641 45.922012 -0.593313 1.187436 0.048883 -0.032523 -925822.000000 0 0 1
35.199191 22.742684 16.271741 44.955336 0.573638 1.200434 0.035127 -0.029066 643123.000000 0 0 1
33.809991 22.659084 15.544541 43.568134 0.590437 1.205970 0.044387 -0.022322 971548.000000 0 0 1
32.818691 21.899684 16.227941 42.661560 0.588436 1.180581 0.038777 -0.031690 -682347.000000 0 0 1
31.654421 21.910984 15.488941 41.496998 0.605467 1.188282 0.041200 -0.025573 45910.800000 0 0 1
30.470411 20.941184 16.009241 40.289886 0.602126 1.162168 0.008044 -0.026300 1264840.000000 0 0 1
29.835921 21.378984 17.177941 40.525606 0.621748 1.133073 0.007328 -0.021116 255965.000000 0 0 1
28.837601 22.383584 16.971341 40.257402 0.660056 1.135620 0.009589 -0.012425 -87089.500000 0 0 1
28.123741 22.933184 18.205541 40.599476 0.684084 1.105802 0.004454 -0.015535 260656.000000 0 0 1
29.064341 23.655384 19.011641 42.020894 0.683158 1.101305 -0.010461 -0.011266 540272.000000 0 0 1
28.355281 24.389384 20.004441 42.415111 0.710349 1.079653 -0.015330 -0.005040 17330.100000 0 0 1
29.373951 24.950184 21.007041 43.893467 0.704145 1.071746 -0.013192 0.001534 85559.200000 0 0 1
29.916491 26.126084 20.471341 44.683828 0.717867 1.094897 -0.001327 0.000802 676046.000000 0 0 1
31.086101 26.424684 21.282241 46.016772 0.704522 1.089996 -0.003099 0.002670 701886.000000 0 0 1
32.091451 27.490684 20.828041 47.110574 0.708334 1.112847 0.011423 0.003094 1048430.000000 0 0 1
33.067371 28.026984 21.792341 48.516687 0.703083 1.104958 0.011827 0.007151 1193440.000000 0 0 1
32.467061 29.019984 22.588241 49.056071 0.729395 1.092286 0.001351 0.005007 -103172.000000 0 0 1
33.178481 29.242984 23.965151 50.302009 0.722434 1.074212 0.000208 0.005860 90442.200000 0 0 1
34.430321 29.852184 23.742341 51.383836 0.714299 1.090481 0.033265 -0.001605 -283523.000000 0 0 1
34.954286 30.381184 24.914911 52.588698 0.715518 1.077230 0.050174 0.005725 -156919.000000 0 0 1
-34.536394 31.295084 24.749331 52.770012 -0.736201 1.082634 0.051363 -0.002168 -321845.000000 0 0 1
-33.343927 30.712584 24.348401 51.457992 -0.744343 1.077910 0.041994 -0.004080 -295106.000000 0 0 1
-32.228517 31.583384 24.408581 51.302693 -0.775289 1.074950 0.046340 -0.005995 1008310.000000 0 0 1
-30.843827 30.891184 24.140161 49.883407 -0.786165 1.065654 0.044125 -0.002279 497512.000000 0 0 1
-30.569497 30.654684 22.725341 48.894222 -0.786790 1.087404 0.032934 0.001492 92537.400000 0 0 1
-30.991397 29.427984 22.121541 48.123129 -0.759528 1.093154 0.040480 0.000282 18633.500000 0 0 1
-30.417097 28.035484 22.649241 47.161173 -0.744676 1.069855 0.031700 0.009952 -153155.000000 0 0 1
-29.061467 27.750884 22.376141 45.993175 -0.762334 1.062706 0.005800 0.005373 108593.000000 0 0 1
-28.496067 26.735984 23.183841 45.434889 -0.753542 1.035303 0.007450 0.004443 -219263.000000 0 0 1
-28.190907 27.002484 24.683071 46.185662 -0.763869 1.006961 0.011634 0.012610 -946577.000000 0 0 1
-29.276627 27.270084 25.509711 47.450224 -0.749928 1.003196 0.013655 0.011148 -539946.000000 0 0 1
-28.907287 27.813484 26.775881 48.230374 -0.766117 0.982233 0.028648 -0.002293 -262863.000000 0 0 1
-30.131807 27.956584 27.709841 49.571480 -0.747969 0.977632 0.033310 -0.005794 157783.000000 0 0 1
-30.651067 26.725684 28.196541 49.485301 -0.717090 0.964538 0.019379 0.000211 -157138.000000 0 0 1
-31.664667 27.023084 29.119261 50.801866 -0.706473 0.960399 0.023268 0.004192 -41251.000000 0 0 1
-32.489727 25.806384 29.583561 50.958207 -0.671252 0.951398 0.013659 0.003217 335760.000000 0 0 1
-31.788477 25.139084 30.638861 50.805714 -0.669121 0.923466 0.012858 0.000213 952944.000000 0 0 1
-32.627537 24.090984 31.162851 51.147385 -0.636012 0.915650 0.003375 -0.012040 191744.000000 0 0 1
-31.768967 23.325884 32.172081 50.876389 -0.633335 0.886203 0.012013 -0.017045 -1022910.000000 0 0 1
-30.671857 22.691984 31.533511 49.497993 -0.636961 0.880110 0.018138 -0.011501 -178995.000000 0 0 1
-29.985957 21.800984 32.365871 49.213719 -0.628644 0.853089 0.025513 -0.013777 -310243.000000 0 0 1
-29.333407 22.391084 33.645311 49.938125 -0.651978 0.831538 0.021300 -0.017596 -1323850.000000 0 0 1
-30.171867 22.914684 -34.333365 51.129290 -0.649536 2.307029 0.049332 -0.021363 197022.000000 0 0 1
-29.764927 22.582084 -32.976245 49.833063 -0.649034 2.293926 0.036225 -0.012183 678027.000000 0 0 1
-28.408917 23.177284 -32.420685 48.942353 -0.684328 2.294849 0.059800 -0.013276 685731.000000 0 0 1
-28.482017 24.543684 -32.165745 49.479823 -0.711262 2.278483 0.044172 -0.012286 10695.500000 0 0 1
-27.486627 24.912484 -31.242105 48.499646 -0.736312 2.270736 0.071088 -0.004036 -481916.000000 0 0 1
-27.745867 26.267484 -30.534335 48.909707 -0.758034 2.245032 0.047328 0.006407 -362423.000000 0 0 1
-27.639727 27.485584 -31.294375 49.987496 -0.782602 2.247266 0.059916 0.000714 -124241.000000 0 0 1
-28.613487 27.730584 -32.293865 51.289479 -0.769730 2.251885 0.032776 -0.001688 -303410.000000 0 0 1
-28.579627 29.181484 -32.724205 52.337632 -0.795818 2.246251 0.048484 0.001993 245849.000000 0 0 1
-28.956377 30.176884 -31.764865 52.517833 -0.806035 2.220361 0.030849 -0.012409 -142491.000000 0 0 1
-28.010297 31.200284 -31.915895 52.694011 -0.839221 2.221421 0.048599 -0.027333 -103983.000000 0 0 1
-28.291677 32.556484 -31.294255 53.288592 -0.855373 2.198466 0.032109 -0.015711 -177137.000000 0 0 1
-28.105317 32.526184 -29.885065 52.354356 -0.858183 2.178304 0.044425 -0.013013 8445.830000 0 0 1
-28.358437 33.829184 -29.365395 53.018309 -0.873144 2.157805 0.028757 -0.012306 -518427.000000 0 0 1
-27.774347 34.016784 -27.947285 52.053883 -0.886081 2.137544 0.006192 -0.011446 -374919.000000 0 0 1
-26.374857 34.137084 -27.979605 51.418206 -0.912977 2.146181 0.042262 -0.009487 -444590.000000 0 0 1
-25.844237 -33.660233 -28.122085 50.909602 0.916002 2.156028 0.032706 0.007220 -514840.000000 0 0 1
-26.036577 -32.634933 -26.980875 49.708247 0.897390 2.144546 0.031416 0.014431 -637981.000000 0 0 1
-27.378117 -32.230433 -27.019785 50.183970 0.866622 2.139351 0.013487 0.004381 -538228.000000 0 0 1
-27.647467 -31.310033 -25.961655 49.180363 0.847441 2.126907 0.006016 0.010415 230256.000000 0 0 1
-29.158617 -31.064033 -25.712755 49.762887 0.817027 2.113795 -0.018686 0.014809 383235.000000 0 0 1
-29.772907 -30.375933 -26.809515 50.277961 0.795423 2.133206 -0.004496 0.016158 886204.000000 0 0 1
-31.130547 -30.026633 -26.497505 50.723046 0.767350 2.120454 -0.000321 0.011446 675184.000000 0 0 1
-31.763197 -29.050633 -27.537195 51.099287 0.740823 2.139922 0.011184 0.002522 1028940.000000 0 0 1
-33.202287 -29.006033 -27.491625 51.957014 0.718045 2.128362 0.013570 -0.007605 956016.000000 0 0 1
-33.720537 -28.108533 -28.454525 52.314666 0.694880 2.145887 0.023172 -0.012276 1206730.000000 0 0 1
-35.247601 -28.170433 -28.864075 53.563995 0.674262 2.139892 0.016524 -0.017257 925815.000000 0 0 1
34.638443 -27.793433 -27.820085 52.404711 -0.676195 2.130423 0.013210 -0.012010 -827216.000000 0 0 1
33.287131 -27.775433 -28.148965 51.690153 -0.695379 2.146674 0.011938 -0.015052 -336348.000000 0 0 1
32.219581 -27.259133 -27.169445 50.193032 -0.702192 2.142778 0.015056 -0.013685 -80272.900000 0 0 1
31.939281 -28.087133 -26.129635 49.917557 -0.721312 2.121698 -0.001146 -0.011149 24716.600000 0 0 1
31.186091 -27.496733 -25.104015 48.568036 -0.722611 2.114003 -0.004961 -0.002304 -158928.000000 0 0 1
31.169341 -28.289033 -23.791555 48.351166 -0.736994 2.085248 -0.024266 0.003412 -112399.000000 0 0 1
30.580181 -29.579633 -23.898055 48.797737 -0.768768 2.082584 -0.008526 -0.001102 6202.670000 0 0 1
30.117681 -30.116533 -22.648555 48.239375 -0.785379 2.059525 -0.007415 -0.000875 -327699.000000 0 0 1
31.137501 -30.354033 -21.501255 48.509950 -0.772658 2.029999 -0.009971 0.004133 240463.000000 0 0 1
32.240621 -31.263533 -21.761355 49.904135 -0.770013 2.022016 -0.016629 0.002574 1363850.000000 0 0 1
33.355501 -31.118233 -20.881855 50.169570 -0.750712 2.000087 -0.021136 0.006063 1091030.000000 0 0 1
34.298411 -29.879933 -21.032355 50.115380 -0.716660 2.003888 -0.016033 0.008895 -519280.000000 0 0 1
33.661591 -28.722033 -20.600355 48.810168 -0.706383 2.006502 -0.017082 0.013539 -415066.000000 0 0 1
34.257071 -27.541433 -20.975855 48.703839 -0.677153 2.016044 -0.014119 0.015355 105733.000000 0 0 1
33.316401 -26.392533 -20.507455 47.192203 -0.669953 2.020337 -0.015004 0.018348 1282770.000000 0 0 1
32.087001 -26.266633 -21.250655 46.595085 -0.685984 2.044371 -0.002936 0.013444 517643.000000 0 0 1
31.129811 -25.500333 -20.541055 45.180383 -0.686316 2.042770 -0.001142 0.013541 -523200.000000 0 0 1
29.942951 -25.267933 -21.465555 44.674588 -0.700924 2.072006 -0.001256 0.005208 -609111.000000 0 0 1
29.397661 -26.512133 -21.859355 45.221091 -0.733833 2.075318 0.000662 -0.001835 -255174.000000 0 0 1
28.194961 -26.234633 -22.558355 44.632848 -0.749398 2.100666 0.001177 -0.001048 -52263.900000 0 0 1
27.555071 -27.582533 -22.992555 45.262961 -0.785896 2.103631 0.006595 -0.000021 -558337.000000 0 0 1
27.053871 -28.264633 -21.894055 44.834708 -0.807282 2.080969 0.013104 -0.000532 822.348000 0 0 1
26.597931 -29.610833 -22.180955 45.565844 -0.838949 2.079206 0.008792 -0.005029 -478635.000000 0 0 1
26.088451 -30.307233 -20.888155 45.115969 -0.860066 2.052160 0.018777 0.001301 -65073.000000 0 0 1
26.952591 -30.950333 -19.950955 45.633385 -0.854331 2.023280 0.019447 0.000177 -170043.000000 0 0 1
27.641511 -32.101233 -20.394755 47.015830 -0.859909 2.019486 0.018353 0.004079 664288.000000 0 0 1
28.639911 -32.562533 -19.247155 47.444873 -0.849403 1.988513 0.016049 0.005910 187995.000000 0 0 1
27.956811 -33.097633 -18.099555 46.953492 -0.869401 1.966523 0.020181 -0.001152 68831.600000 0 0 1
27.368011 -32.121333 -17.270755 45.596787 -0.865131 1.959265 0.014650 -0.004324 104928.000000 0 0 1
26.799221 -32.817133 -15.974155 45.280637 -0.886001 1.931338 0.018720 -0.004376 -293579.000000 0 0 1
25.620441 -33.544033 -16.160855 45.197150 -0.918531 1.936454 0.037054 -0.008283 -404714.000000 0 0 1
25.169141 -34.069333 -14.942255 44.916323 -0.934526 1.909928 0.038677 -0.005193 335660.000000 0 0 1
23.620541 -34.206133 -15.023155 44.200505 -0.966451 1.917593 0.031492 -0.004951 815840.000000 0 0 1
22.822441 -33.048133 -14.738855 42.781734 -0.966419 1.922516 0.033741 0.000819 155277.000000 0 0 1
21.477741 -33.299433 -14.445055 42.175884 -0.997952 1.920368 0.029187 -0.000199 -169526.000000 0 0 1
-0.784777 -7.064916 -28.814165 29.678023 1.460169 2.899725 0.044403 -0.011156 220881.000000 0 0 1
-0.408977 -8.438016 -28.867115 30.077861 1.522366 2.856894 0.049839 -0.016422 -50551.700000 0 0 1
-0.482277 -9.057516 -30.170995 31.504922 1.517600 2.849557 0.032942 -0.009114 -106918.000000 0 0 1
-0.238577 -10.584316 -30.172575 31.976068 1.548259 2.804133 0.040019 -0.009011 -447071.000000 0 0 1
1.108923 -10.783316 -29.901155 31.805482 -1.468320 2.793796 0.023697 -0.012475 -756031.000000 0 0 1
1.267923 -12.157316 -29.701425 32.118260 -1.466879 2.751180 0.027303 -0.009513 215742.000000 0 0 1
2.635723 -12.547816 -29.081765 31.782759 -1.363752 2.726346 0.022077 -0.009143 -47787.200000 0 0 1
3.752423 -12.259716 -29.934785 32.564899 -1.273773 2.736929 0.018432 -0.000014 1029560.000000 0 0 1
5.021523 -12.659116 -29.378495 32.381552 -1.193162 2.707520 0.025177 -0.009081 947488.000000 0 0 1
5.326023 -14.118616 -28.919015 32.619186 -1.210068 2.660662 0.024415 -0.018940 -1391980.000000 0 0 1
4.813323 -14.515016 -27.700225 31.641053 -1.250598 2.637167 0.032862 -0.011338 -295041.000000 0 0 1
5.484823 -15.612416 -27.098115 31.751199 -1.232954 2.593369 0.041530 -0.020611 -240089.000000 0 0 1
5.164223 -17.022816 -27.579795 32.819058 -1.276250 2.568742 0.038675 -0.019712 -205594.000000 0 0 1
5.588323 -17.528116 -28.872145 34.235434 -1.262164 2.574267 0.031205 -0.022770 136204.000000 0 0 1
5.189723 -18.886416 -29.136045 35.107536 -1.302629 2.549740 0.030150 -0.021317 -330720.000000 0 0 1
5.520823 -19.404216 -30.559055 36.617741 -1.293604 2.558098 0.030094 -0.014400 273949.000000 0 0 1
6.877723 -19.721716 -30.887445 37.286505 -1.235246 2.547008 0.021222 -0.009550 523429.000000 0 0 1
6.976123 -20.281216 -32.140435 38.639379 -1.239504 2.553148 0.022292 -0.013490 673077.000000 0 0 1
8.424723 -20.166416 -32.734015 39.359574 -1.175074 2.552897 0.006575 -0.002328 643290.000000 0 0 1
8.765223 -18.919216 -33.243115 39.241185 -1.136940 2.581392 -0.000060 -0.002560 221837.000000 0 0 1
9.926223 -18.954916 -34.058796 40.222137 -1.088388 2.580675 -0.011291 -0.005703 -51272.800000 0 0 1
10.272423 -17.524416 34.386125 39.937869 -1.040602 0.533582 -0.012559 0.002625 -345680.000000 0 0 1
9.347223 -17.001116 33.472343 38.688581 -1.068106 0.525300 -0.000477 0.001297 -129907.000000 0 0 1
9.570723 -15.696416 33.114900 37.875755 -1.023246 0.506798 -0.007757 0.009983 -791530.000000 0 0 1
8.563923 -15.241016 32.119031 36.568586 -1.058863 0.498453 -0.004869 0.000839 -732012.000000 0 0 1
8.788423 -15.737116 30.805261 35.691138 -1.061487 0.529407 -0.009618 0.001140 63387.100000 0 0 1
7.807723 -15.299216 29.861621 34.449136 -1.098915 0.521983 -0.015793 0.001958 -110565.000000 0 0 1
7.658623 -16.048616 28.533461 33.620990 -1.125543 0.557312 -0.012546 0.013474 -425477.000000 0 0 1
7.194623 -17.385916 28.563981 34.204293 -1.178434 0.582483 -0.005545 0.010509 294405.000000 0 0 1
7.235923 -17.964416 27.287331 33.461579 -1.187885 0.617234 -0.006849 0.012400 -304001.000000 0 0 1
6.660023 -19.377716 27.356451 34.179339 -1.239750 0.642868 -0.007910 0.015215 -172902.000000 0 0 1
7.380523 -20.279016 28.202271 35.511670 -1.221749 0.653157 -0.011071 0.008587 294016.000000 0 0 1
6.720523 -21.487516 28.510741 36.328241 -1.267671 0.668408 -0.014369 0.005827 -459685.000000 0 0 1
7.166823 -22.021116 29.870041 37.795664 -1.256155 0.659492 -0.013294 0.000068 -74669.800000 0 0 1
6.702623 -21.280916 31.017621 38.208577 -1.265673 0.623573 -0.003564 0.000180 329303.000000 0 0 1
7.106323 -19.886916 31.141671 37.627024 -1.227601 0.595905 -0.000689 -0.006619 -602062.000000 0 0 1
6.696723 -19.271116 32.460871 38.339668 -1.236350 0.561109 0.003836 -0.013238 469518.000000 0 0 1
5.282323 -19.075416 32.515201 38.065900 -1.300648 0.546821 0.016535 -0.019077 383637.000000 0 0 1
4.969023 -18.115816 33.538002 38.440494 -1.303089 0.510571 0.024499 -0.012005 943493.000000 0 0 1
3.471723 -18.100416 34.028537 38.699086 -1.381294 0.496383 0.040939 -0.015069 641428.000000 0 0 1
3.134123 -19.281916 -34.241209 39.421763 -1.409663 2.623139 0.038091 -0.023335 93861.900000 0 0 1
2.634023 -18.890016 -32.979215 38.097236 -1.432250 2.617262 0.027103 -0.024187 -167754.000000 0 0 1
2.177923 -20.050516 -32.013035 37.836503 -1.462599 2.579400 0.025329 -0.006189 -101193.000000 0 0 1
0.935223 -20.642116 -32.422855 38.447537 -1.525521 2.574193 0.014292 -0.002245 472887.000000 0 0 1
0.355923 -21.350116 -31.358165 37.937958 -1.554127 2.543772 0.012331 -0.003256 245693.000000 0 0 1
-0.511677 -20.421616 -30.429365 36.650382 1.545746 2.550371 0.010189 -0.001992 -387846.000000 0 0 1
-1.715677 -19.953816 -31.027405 36.929638 1.485025 2.568404 0.013792 -0.005378 -806.224000 0 0 1
-2.369377 -18.989416 -30.215485 35.765730 1.446664 2.577019 0.024426 0.003200 32248.500000 0 0 1
-2.020777 -17.490316 -30.417255 35.145471 1.455769 2.616879 0.011319 0.000693 -424249.000000 0 0 1
-2.704977 -16.566516 -29.566085 33.998820 1.408945 2.625230 0.023230 -0.000811 -157507.000000 0 0 1
-2.375277 -15.230716 -29.924915 33.661806 1.416089 2.665925 0.036258 -0.007526 94185.800000 0 0 1
-3.402877 -14.188716 -29.428425 32.847092 1.335412 2.681298 0.039033 -0.003635 211389.000000 0 0 1
-3.309077 -14.027616 -28.068195 31.552299 1.339134 2.667214 0.031174 -0.006599 160528.000000 0 0 1
-4.232877 -13.031116 -27.626835 30.837789 1.256720 2.681195 0.034441 -0.007356 240395.000000 0 0 1
-4.023777 -12.651016 -26.152195 29.328762 1.262855 2.671864 0.025994 -0.010613 -331863.000000 0 0 1
-4.617777 -13.619616 -25.344355 29.140250 1.243907 2.625466 0.024781 -0.002769 120503.000000 0 0 1
-4.788877 -13.397516 -23.929455 27.839641 1.227504 2.605177 0.026655 -0.008888 -121245.000000 0 0 1
-5.742777 -12.278816 -23.430755 27.069339 1.133323 2.617109 0.028010 -0.016971 592722.000000 0 0 1
-7.125377 -12.600816 -23.607655 27.692471 1.056154 2.591534 0.023819 -0.019222 616114.000000 0 0 1
-8.044777 -11.708716 -23.012155 27.043886 0.968797 2.588529 0.023598 -0.019222 -31074.500000 0 0 1
-9.514577 -12.054216 -23.275655 27.885255 0.902604 2.558373 0.038805 -0.016731 -459760.000000 0 0 1
-9.873277 -13.242616 -22.590355 27.985222 0.930137 2.510231 0.032225 -0.014448 -39889.400000 0 0 1
-10.762977 -14.000716 -23.425255 29.336058 0.915406 2.495619 0.022014 -0.011632 782882.000000 0 0 1
-11.570877 -15.121516 -22.637755 29.580626 0.917642 2.442288 0.014852 -0.015987 380963.000000 0 0 1
-10.733877 -16.209116 -22.303255 29.586936 0.985884 2.424654 0.022432 -0.009970 -190553.000000 0 0 1
-11.389077 -17.451616 -21.970155 30.281310 0.992589 2.382608 0.012310 -0.002397 158351.000000 0 0 1
-11.947577 -18.240016 -23.186755 31.828736 0.990900 2.386904 0.002528 0.005474 915618.000000 0 0 1
-13.192777 -17.661716 -23.639355 32.323439 0.929237 2.391078 0.003943 0.003256 352366.000000 0 0 1
-13.590677 -18.423716 -24.755755 33.719241 0.935231 2.395244 0.000666 0.003154 99220.200000 0 0 1
-14.890577 -17.931616 -25.422615 34.490310 0.877786 2.399557 0.007732 -0.008080 -263210.000000 0 0 1
-16.074277 -18.065116 -24.703655 34.568792 0.843647 2.366881 0.010727 -0.001413 211751.000000 0 0 1
-17.253177 -17.656016 -25.439105 35.447921 0.796937 2.371214 -0.002504 -0.002883 1133180.000000 0 0 1
-17.773077 -16.240116 -24.861955 34.608387 0.740359 2.372266 0.005740 -0.000538 -207826.000000 0 0 1
-18.482077 -16.350416 -23.668855 34.192660 0.724277 2.335357 0.001165 -0.000226 3034.960000 0 0 1
-19.300377 -15.186316 -23.529855 34.011511 0.666665 2.334803 0.004290 -0.001794 278149.000000 0 0 1
-19.933277 -14.945316 -22.152755 33.338305 0.643352 2.297599 0.000039 -0.006095 420175.000000 0 0 1
-18.863677 -14.720716 -21.234455 31.991247 0.662659 2.296629 0.013103 -0.003644 471789.000000 0 0 1
-19.283077 -14.730916 -19.876755 31.367537 0.652357 2.257088 0.014547 -0.006421 -184299.000000 0 0 1
-19.846977 -13.384516 -19.358255 30.786195 0.593327 2.250801 0.023751 -0.009543 -350727.000000 0 0 1
-21.091777 -13.067916 -19.909355 31.812198 0.554688 2.247005 0.019416 -0.016964 -257807.000000 0 0 1
-21.680577 -11.982316 -19.217555 31.351838 0.504895 2.230603 0.028463 -0.016063 -51183.300000 0 0 1
-23.191977 -11.786116 -19.414755 32.460947 0.470184 2.211919 0.028296 -0.010419 -136499.000000 0 0 1
-23.513477 -11.362616 -20.720255 33.336491 0.450149 2.241515 0.026981 -0.023822 -433493.000000 0 0 1
-24.876077 -11.057416 -20.808955 34.265118 0.418271 2.223445 0.027735 -0.023343 -658846.000000 0 0 1
-25.181607 -9.921016 -21.845855 34.781911 0.375305 2.249881 0.037218 -0.010490 -271064.000000 0 0 1
-25.205187 -10.254816 -23.234055 35.781057 0.386400 2.277512 0.014048 -0.006652 -187275.000000 0 0 1
-26.010067 -9.418216 -23.970355 36.603338 0.347412 2.284804 0.018399 -0.005535 -850259.000000 0 0 1
-26.172287 -9.838216 -25.435435 37.798684 0.359561 2.308944 0.001289 0.003513 745573.000000 0 0 1
-25.050877 -9.554216 -26.309655 37.563645 0.364363 2.346757 -0.006273 -0.001627 923707.000000 0 0 1
-24.012977 -10.529816 -26.217685 37.079201 0.413254 2.356146 -0.014500 0.003625 329671.000000 0 0 1
-22.945477 -10.455616 -27.338895 37.191801 0.427561 2.396579 -0.012704 0.007030 197192.000000 0 0 1
-23.490877 -10.835716 -28.584285 38.552502 0.432189 2.406007 -0.005269 0.016681 580261.000000 0 0 1
-22.474377 -10.744716 -29.597725 38.685552 0.445964 2.441969 -0.012390 0.021018 621558.000000 0 0 1
-23.034077 -11.261816 -30.915655 40.164349 0.454744 2.449212 -0.010150 0.007589 219114.000000 0 0 1
-23.904577 -10.350916 -31.552365 40.916036 0.408635 2.451440 -0.012204 0.006258 -211971.000000 0 0 1
-23.237577 -9.546116 -32.457715 41.044081 0.389786 2.482913 -0.008969 0.004224 -618407.000000 0 0 1
-24.158277 -8.529516 -33.203325 41.938476 0.339405 2.484408 -0.013675 0.009576 -295892.000000 0 0 1
-25.079577 -9.180516 -34.060550 43.282654 0.350906 2.476619 0.002303 -0.008755 1906880.000000 0 0 1
-26.368867 -9.663916 -33.575165 43.772139 0.351289 2.445018 0.014544 -0.006665 1113790.000000 0 0 1
-27.329497 -8.643716 -32.883145 43.622431 0.306323 2.424642 0.003354 0.013255 556255.000000 0 0 1
-28.694737 -9.128416 -32.920605 44.614820 0.307998 2.400728 -0.001071 0.005606 1396350.000000 0 0 1
-29.520167 -8.655716 -31.846465 44.278201 0.285219 2.373498 0.004373 0.012623 496533.000000 0 0 1
-30.990887 -9.116516 -32.010795 45.477873 0.286097 2.351636 0.005253 0.009858 72133.500000 0 0 1
-31.125127 -10.541016 -31.877455 45.782734 0.326542 2.340994 0.008021 0.001872 -316898.000000 0 0 1
-32.427707 -10.897716 -31.519675 46.516732 0.324204 2.315289 -0.004566 0.005367 -635501.000000 0 0 1
-32.648317 -12.403516 -31.837965 47.259029 0.363071 2.309988 0.002821 0.005771 520240.000000 0 0 1
-33.935167 -12.956016 -31.543245 48.108526 0.364708 2.285864 -0.008006 0.004297 533146.000000 0 0 1
-33.776287 -14.365616 -31.624635 48.449211 0.402139 2.281989 0.002709 0.008232 172724.000000 0 0 1
-34.864376 -15.174316 -30.902985 48.997746 0.410511 2.253254 0.005597 0.001618 6900.880000 0 0 1
-34.822045 -15.009416 -29.479945 48.030455 0.406969 2.231631 0.015063 0.000695 -300396.000000 0 0 1
35.185796 -16.019516 -28.857475 48.243331 -0.427239 2.212006 0.014725 0.001238 -208926.000000 0 0 1
35.163012 -15.650516 -27.306275 47.191193 -0.418759 2.187845 0.023696 -0.004529 361889.000000 0 0 1
-34.248489 -15.815316 -26.744505 46.242316 0.432608 2.187508 0.018497 -0.006574 435754.000000 0 0 1
-34.294972 -15.956816 -25.365865 45.543301 0.435489 2.161519 0.031311 -0.006395 390006.000000 0 0 1
-32.919207 -15.639616 -24.704955 44.029611 0.443523 2.166509 0.040030 -0.002886 -40434.800000 0 0 1
-31.877197 -16.445516 -25.090805 43.773956 0.476288 2.181190 0.039329 -0.002636 -840826.000000 0 0 1
-30.614247 -15.969916 -24.668355 42.435812 0.480817 2.191134 0.030746 0.002288 404197.000000 0 0 1
-29.516737 -16.988016 -25.080735 42.295080 0.522239 2.205569 0.031788 -0.004079 -810.672000 0 0 1
-29.542937 -18.141216 -24.252255 42.309110 0.550696 2.181222 0.044995 -0.016157 27699.800000 0 0 1
-30.172667 -19.302316 -24.772055 43.550247 0.569121 2.175861 0.043760 -0.020519 -37476.000000 0 0 1
-29.902727 -20.527916 -23.838255 43.403120 0.601601 2.152238 0.039482 -0.022314 1002930.000000 0 0 1
-28.654007 -21.166216 -24.220755 43.077904 0.636219 2.167906 0.040482 -0.016757 895306.000000 0 0 1
-28.548747 -22.414316 -23.531455 43.256929 0.665604 2.145985 0.037054 -0.017057 -104380.000000 0 0 1
-27.200167 -23.122116 -23.914755 42.969720 0.704536 2.161023 0.033101 -0.011049 1391720.000000 0 0 1
-25.984797 -22.574116 -23.353455 41.595484 0.715275 2.166924 0.001454 -0.014885 601537.000000 0 0 1
-25.842297 -22.420716 -21.950355 40.648874 0.714622 2.141232 -0.004906 -0.020213 -740060.000000 0 0 1
-25.943857 -23.696816 -21.088055 40.979616 0.740163 2.111336 -0.000191 -0.011514 -112618.000000 0 0 1
-25.931987 -23.380716 -19.732155 40.105907 0.733708 2.085183 -0.004547 -0.016324 39823.100000 0 0 1
-26.230477 -24.473616 -18.849055 40.525087 0.750763 2.054567 -0.003279 0.009210 -125611.000000 0 0 1
-26.146217 -24.114516 -17.319055 39.561146 0.744997 2.023924 -0.006225 0.001729 70262.100000 0 0 1
-27.207807 -23.300316 -16.854355 39.588367 0.708188 2.010576 0.004801 -0.002536 -223017.000000 0 0 1
-26.806687 -22.259016 -15.991055 38.337660 0.692977 2.001060 -0.000019 -0.002295 -240319.000000 0 0 1
-27.965317 -21.515116 -15.302355 38.459346 0.655771 1.980005 0.012702 0.004519 442083.000000 0 0 1
-28.842877 -20.787416 -16.159855 39.053414 0.624492 1.997408 0.023215 0.004768 428785.000000 0 0 1
-30.040007 -20.340216 -15.523455 39.460158 0.595194 1.975118 0.036457 -0.004887 89764.000000 0 0 1
-30.940337 -19.749216 -16.590955 40.281457 0.568106 1.995308 0.061403 -0.031015 -668187.000000 0 0 1
-31.761337 -20.685716 -17.229255 41.635665 0.577279 1.997432 0.050292 -0.023505 -130818.000000 0 0 1
-32.451287 -20.084116 -18.336655 42.340178 0.554201 2.018703 0.046041 -0.019891 152182.000000 0 0 1
-33.329387 -21.128416 -19.119555 43.849919 0.564993 2.021971 0.048394 -0.021272 -592304.000000 0 0 1
-34.571381 -21.449416 -18.614955 44.741194 0.555312 1.999903 0.041825 -0.012433 -879343.000000 0 0 1
-34.652948 -22.200816 -17.426855 44.692263 0.569782 1.971352 0.048575 -0.012831 -289436.000000 0 0 1
35.164545 -23.473716 -17.596055 45.794997 -0.588607 1.965176 0.031784 0.013896 -144913.000000 0 0 1
33.782731 -23.239916 -17.539055 44.598039 -0.602575 1.974981 0.022496 -0.001538 -251657.000000 0 0 1
33.155681 -24.505516 -17.372755 44.739603 -0.636492 1.969591 0.011752 0.004112 -324015.000000 0 0 1
31.721531 -24.525716 -16.860555 43.497639 -0.658157 1.968845 0.010515 0.002547 17702.000000 0 0 1
30.687191 -24.113116 -17.775455 42.884879 -0.666005 1.998181 -0.005463 0.002609 544951.000000 0 0 1
29.444691 -24.417516 -17.147755 41.919571 -0.692334 1.992224 -0.012112 0.004176 -213679.000000 0 0 1
28.243611 -24.054816 -18.000055 41.235151 -0.705475 2.022526 0.001083 0.009460 -619303.000000 0 0 1
27.976061 -22.653416 -18.203255 40.338514 -0.680654 2.038976 0.004877 0.007689 1393340.000000 0 0 1
26.600201 -22.557416 -18.664255 39.557074 -0.703342 2.062163 0.007001 0.001400 1122690.000000 0 0 1
33.938171 29.781184 -18.311255 48.723920 0.720251 1.956074 -0.011266 0.004486 -704324.000000 0 0 1
33.056081 30.071284 -19.373255 48.706361 0.738151 1.979866 -0.005101 0.007479 -187743.000000 0 0 1
33.618521 29.836084 -20.625855 49.455260 0.725860 2.001005 -0.006550 0.017851 -382228.000000 0 0 1
32.724451 30.137884 -21.867255 49.571752 0.744275 2.027646 -0.009291 0.024825 321076.000000 0 0 1
31.702321 29.112884 -22.057055 48.364355 0.742845 2.044359 -0.010119 0.013876 1590710.000000 0 0 1
30.744821 29.335784 -23.140655 48.387210 0.761950 2.069445 -0.004049 0.026215 841592.000000 0 0 1
29.649101 30.369584 -22.888455 48.220972 0.797402 2.065371 -0.000756 0.022331 -1066240.000000 0 0 1
30.062631 31.771584 -22.994355 49.415945 0.813029 2.054795 0.000319 0.019287 149713.000000 0 0 1
28.939451 32.632584 -22.976855 49.298207 0.845307 2.055650 0.013483 0.019375 -398414.000000 0 0 1
29.313041 34.111084 -22.900455 50.470300 0.860904 2.041755 0.006594 0.018077 347364.000000 0 0 1
29.914741 34.488284 -21.640055 50.523513 0.856294 2.013425 -0.002142 0.009675 366038.000000 0 0 1
31.265761 34.123884 -21.419755 50.997972 0.829079 2.004255 -0.011818 0.007995 -250204.000000 0 0 1
31.442821 33.973684 -19.908155 50.390443 0.824067 1.976949 -0.012880 -0.005613 -328326.000000 0 0 1
31.462921 -33.902833 -19.229155 50.090696 -0.822708 1.964798 -0.000474 -0.003129 14526.200000 0 0 1
31.660741 -34.076133 -17.830555 49.814797 -0.822125 1.936854 -0.001930 -0.015335 -418029.000000 0 0 1
31.486121 -32.777633 -16.974155 48.516708 -0.805493 1.928220 0.003222 -0.002333 -480903.000000 0 0 1
32.554331 -31.907933 -17.082855 48.679817 -0.775371 1.929353 0.007183 0.003007 373665.000000 0 0 1
33.702351 -32.219433 -16.245155 49.374542 -0.762907 1.906061 0.011220 -0.000346 712528.000000 0 0 1
35.004582 -31.477833 -16.614555 49.922121 -0.732400 1.910078 0.007987 0.003423 -384876.000000 0 0 1
-34.943792 -32.210633 -17.517255 50.650249 0.744721 1.923938 0.008514 0.001582 -596574.000000 0 0 1
-33.799607 -31.411633 -17.785455 49.451254 0.748795 1.938696 0.007959 0.009104 -58593.300000 0 0 1
-32.808877 -32.064733 -18.748355 49.558756 0.773928 1.958761 0.005302 0.008191 -1243310.000000 0 0 1
-32.210067 -33.209333 -18.182155 49.708540 0.800672 1.945262 0.008349 -0.004677 -150226.000000 0 0 1
-31.346187 -33.956333 -18.996555 49.964839 0.825347 1.960807 0.012690 0.002706 28823.700000 0 0 1
-30.001557 -33.261533 -19.298855 48.773649 0.836883 1.977607 0.002016 0.001776 -1714330.000000 0 0 1
-30.135947 -32.220733 -20.249555 48.542718 0.818819 2.001103 0.001939 0.010792 -25837.000000 0 0 1
-28.955307 -31.553733 -20.708855 47.569996 0.828315 2.021206 0.012553 0.008244 983983.000000 0 0 1
-28.015567 -32.576933 -21.464655 48.029782 0.860536 2.034097 0.010860 0.011368 25332.400000 0 0 1
-28.794937 -33.032933 -22.588755 49.300861 0.853836 2.046745 0.004997 0.013100 56155.400000 0 0 1
-28.114397 -33.951833 -23.401055 49.907471 0.879174 2.058829 0.003289 0.003550 -523634.000000 0 0 1
-28.865227 34.479884 -24.556755 51.235710 -0.873803 2.070642 -0.003473 0.001837 -789749.000000 0 0 1
-29.745127 33.477384 -24.185555 50.896453 -0.844363 2.065978 -0.006921 -0.002110 -308825.000000 0 0 1
-30.422657 32.815484 -25.247605 51.379331 -0.823218 2.084488 -0.010411 0.001669 1107470.000000 0 0 1
-31.536947 33.545284 -26.106005 52.928146 -0.816247 2.086601 0.002968 -0.007363 118142.000000 0 0 1
-30.971987 34.286484 -27.163125 53.597223 -0.836145 2.102266 -0.005284 -0.007017 -211306.000000 0 0 1
-31.895187 -33.879433 -27.739225 54.171797 0.815556 2.108378 -0.004359 -0.005731 386921.000000 0 0 1
-31.337037 -32.913633 -28.903725 53.858541 0.809931 2.137270 0.000865 -0.001075 27005.300000 0 0 1
-31.046577 -33.524133 -30.168885 54.753256 0.823749 2.154355 0.007471 0.000662 -255842.000000 0 0 1
-32.105447 -33.863633 -31.032445 56.040325 0.812044 2.157660 0.014065 0.000305 -399210.000000 0 0 1
-31.753007 34.124984 -32.059315 56.573560 -0.821388 2.173272 0.023122 -0.005620 257973.000000 0 0 1
-30.815117 34.446584 -33.080695 56.837232 -0.840986 2.192013 0.016416 -0.005729 266238.000000 0 0 1
-31.027327 33.533784 -34.141117 57.033548 -0.824202 2.212567 0.019400 -0.015221 -28618.200000 0 0 1
-30.233987 34.003584 33.624267 56.576753 -0.844013 0.934386 0.025027 -0.023283 423513.000000 0 0 1
-28.835067 33.875584 33.757545 55.844320 -0.865603 0.921666 0.026125 -0.019056 -182172.000000 0 0 1
-28.338157 32.710684 33.076494 54.471042 -0.856899 0.918226 0.036546 -0.027310 -290783.000000 0 0 1
-26.820257 32.544684 33.190941 53.666761 -0.881529 0.904010 0.042619 -0.034460 -499360.000000 0 0 1
-26.426427 32.121984 34.484563 54.031130 -0.882372 0.878593 0.051336 -0.035544 -624826.000000 0 0 1
-25.107847 31.674584 -34.434785 53.098377 -0.900534 2.276421 0.057779 -0.036354 -483497.000000 0 0 1
-24.986377 30.145284 34.346043 52.083662 -0.878701 0.850723 0.060246 -0.028164 -290314.000000 0 0 1
-25.301047 29.273884 -33.652215 51.279380 -0.858066 2.286638 0.068326 -0.023645 -93160.900000 0 0 1
-24.971977 27.957384 -33.922235 50.556236 -0.841742 2.306326 0.057666 -0.013073 -300909.000000 0 0 1
-24.904177 26.990584 -32.679095 49.159261 -0.825581 2.297968 0.072596 -0.014797 -343515.000000 0 0 1
-23.782777 27.169884 -31.807605 48.120129 -0.851776 2.292952 0.065944 -0.014292 157633.000000 0 0 1
-23.849577 28.299384 -30.953515 48.247047 -0.870521 2.267330 0.051847 -0.007059 24620.800000 0 0 1
-22.672977 28.444984 -29.964675 47.128152 -0.897837 2.259857 0.058050 -0.011138 -39047.500000 0 0 1
-21.444477 28.683584 -30.594155 47.102186 -0.928819 2.277759 0.049678 -0.008100 121690.000000 0 0 1
-20.232077 28.629084 -29.843145 46.038839 -0.955590 2.276036 0.016818 -0.005327 782975.000000 0 0 1
-19.925177 29.690484 -28.768785 45.893142 -0.979733 2.248319 0.019933 0.000182 -766555.000000 0 0 1
-19.432377 30.808484 -29.414765 46.818889 -1.008075 2.250120 0.016620 0.003119 -148669.000000 0 0 1
-19.039477 31.783284 -28.525845 46.758985 -1.031083 2.226934 0.027679 -0.000981 -341021.000000 0 0 1
-18.723877 33.030184 -29.340745 47.983913 -1.055092 2.228714 0.021043 -0.000571 -49095.400000 0 0 1
-17.586077 32.915884 -30.163445 47.984987 -1.080107 2.250550 0.009978 -0.000751 -360696.000000 0 0 1
-17.444277 34.038384 -31.049655 49.264546 -1.097208 2.252689 0.006009 0.004303 324177.000000 0 0 1
-15.980477 34.090884 -31.585795 49.144954 -1.132451 2.268823 -0.008131 0.008280 -668803.000000 0 0 1
-15.118477 -34.452233 -30.626935 48.513234 1.157275 2.254039 -0.000469 0.000482 -666117.000000 0 0 1
-13.765477 -34.406833 -31.009505 48.320885 1.190221 2.267563 0.007438 0.010155 136878.000000 0 0 1
-13.066977 33.331284 -31.103965 47.425489 -1.197176 2.286103 0.009076 0.003551 -1485480.000000 0 0 1
-12.808977 32.852584 -29.745835 46.132167 -1.199034 2.271553 0.019468 -0.004892 -89684.000000 0 0 1
-12.727577 31.440384 -29.592075 45.013108 -1.186145 2.288173 0.015591 0.003444 -218230.000000 0 0 1
-12.435577 31.050684 -28.149035 43.716778 -1.189865 2.270375 0.021413 -0.007292 -34984.900000 0 0 1
-11.149877 31.340184 -27.641245 43.250032 -1.228991 2.264128 0.025972 -0.002908 -171335.000000 0 0 1
-11.167277 31.168684 -26.264625 42.261394 -1.226760 2.241427 0.019929 -0.008683 -376901.000000 0 0 1
-9.791077 31.372484 -25.654875 41.692572 -1.268284 2.233606 0.017633 -0.009689 -281988.000000 0 0 1
-8.791577 30.518784 -26.222815 41.186454 -1.290319 2.260989 0.022190 0.000121 24431.100000 0 0 1
-7.566277 30.952384 -25.629825 40.892378 -1.331049 2.248188 0.020757 -0.005305 386497.000000 0 0 1
-6.332777 30.201984 -26.208195 40.486212 -1.364110 2.274881 0.004433 -0.003956 42655.800000 0 0 1
-6.215977 28.887384 -25.744635 39.190631 -1.358848 2.287507 0.002688 -0.011305 914995.000000 0 0 1
-4.988577 28.184284 -26.108685 38.741492 -1.395612 2.310299 0.013019 -0.014902 1338670.000000 0 0 1
-4.647177 27.064084 -25.039855 37.162551 -1.400745 2.310126 0.020515 -0.015967 170764.000000 0 0 1
-5.443477 25.889884 -25.253235 36.573808 -1.363560 2.332939 0.022665 -0.007776 324440.000000 0 0 1
-5.236777 24.900184 -24.265255 35.160284 -1.363506 2.332468 0.025994 -0.015341 -664743.000000 0 0 1
-6.131577 23.701784 -24.462055 34.608712 -1.317649 2.355786 0.027000 -0.014490 -499082.000000 0 0 1
-6.157077 23.064984 -25.660635 35.048128 -1.309934 2.392276 0.023432 -0.010741 -50794.700000 0 0 1
-6.927777 21.896184 -25.582735 34.378966 -1.264370 2.410042 0.016317 -0.012967 -624615.000000 0 0 1
-6.891977 21.056084 -26.881805 34.835176 -1.254472 2.452284 0.008862 -0.006978 874998.000000 0 0 1
-5.800577 20.106184 -27.148265 34.277305 -1.289926 2.484905 0.024453 -0.016435 748155.000000 0 0 1
-5.602577 19.092984 -26.166465 32.872706 -1.285372 2.491444 0.024096 -0.013794 -392202.000000 0 0 1
-4.351577 18.266784 -26.530905 32.503854 -1.336932 2.525666 0.026830 -0.021793 -104996.000000 0 0 1
-4.455677 17.659684 -27.809035 33.242442 -1.323647 2.561756 0.014249 -0.019630 243102.000000 0 0 1
-3.458277 16.639484 -28.044355 32.792041 -1.365878 2.596768 0.020664 -0.017199 205740.000000 0 0 1
-3.011877 16.499084 -29.510945 33.943881 -1.390236 2.624791 0.014060 -0.011897 -1002.870000 0 0 1
-2.365777 17.699784 -29.975495 34.891397 -1.437922 2.604322 0.021064 -0.017436 310703.000000 0 0 1
-2.212677 17.615684 -31.381105 36.055263 -1.445842 2.626732 0.017898 -0.020757 5895.560000 0 0 1
-1.400477 18.815484 -31.954475 37.108924 -1.496501 2.608225 0.027759 -0.010399 283597.000000 0 0 1
-0.024177 18.790584 -31.575695 36.743859 -1.569510 2.604786 0.046959 -0.016336 463741.000000 0 0 1
0.658023 19.958184 -32.024305 37.740141 1.537838 2.584031 0.050429 0.001333 205195.000000 0 0 1
0.433623 21.217984 -31.156605 37.697810 1.550363 2.543628 0.046072 -0.000148 -563466.000000 0 0 1
1.338923 21.338384 -30.111925 36.930304 1.508131 2.524167 0.062731 -0.028719 -506828.000000 0 0 1
0.865323 22.202584 -29.136395 36.641957 1.531842 2.490076 0.057839 -0.023609 214332.000000 0 0 1
1.904223 22.405384 -27.997405 35.909358 1.486011 2.464933 0.066595 -0.013905 899918.000000 0 0 1
2.918523 23.350384 -28.354965 36.847825 1.446453 2.448878 0.057524 -0.013538 679239.000000 0 0 1
4.138123 23.159684 -27.608845 36.273177 1.393984 2.435860 0.051965 -0.016128 1078090.000000 0 0 1
4.908623 24.513084 -27.377065 37.074109 1.373165 2.401553 0.065771 -0.012765 70673.400000 0 0 1
5.478123 25.056484 -28.518445 38.355429 1.355552 2.409131 0.055561 -0.016238 -146777.000000 0 0 1
5.887923 26.402284 -28.303525 39.151472 1.351379 2.378821 0.050759 -0.017990 107288.000000 0 0 1
6.600023 27.030084 -29.556625 40.592854 1.331309 2.386377 0.048483 -0.012523 -38788.100000 0 0 1
7.954523 26.653784 -29.610115 40.625823 1.280772 2.387437 0.044076 -0.009373 -493433.000000 0 0 1
8.654323 27.507084 -30.488205 41.965076 1.265980 2.384031 0.054002 -0.013072 -24426.700000 0 0 1
10.169323 27.460084 -30.221155 42.080750 1.216125 2.371966 0.041610 -0.012240 186747.000000 0 0 1
10.918823 28.399384 -30.994465 43.432736 1.203746 2.365448 0.046018 -0.017410 389674.000000 0 0 1
12.265823 28.541384 -30.553595 43.572734 1.164904 2.347888 0.030396 -0.024590 863690.000000 0 0 1
13.117223 29.585784 -31.354655 45.061009 1.153476 2.340367 0.044473 -0.019861 28203.200000 0 0 1
12.633623 30.898384 -31.170735 45.672018 1.182661 2.321962 0.032901 -0.011506 -118769.000000 0 0 1
13.406523 31.860484 -31.826895 46.986982 1.172498 2.314958 0.064604 -0.016488 -365885.000000 0 0 1
12.909723 33.277584 -31.661015 47.712455 1.200729 2.296390 0.066822 -0.018128 -173332.000000 0 0 1
11.866023 33.530884 -32.579035 48.233973 1.230666 2.312354 0.060110 -0.012100 -124186.000000 0 0 1
11.289923 -34.292633 -32.250295 48.410005 -1.252750 2.299886 0.058233 -0.007929 269867.000000 0 0 1
9.969623 -34.003633 -33.011155 48.429090 -1.285596 2.320797 0.037988 -0.003226 142224.000000 0 0 1
10.222123 -33.714433 -34.387511 49.230638 -1.276409 2.344093 0.033388 0.002384 13122.100000 0 0 1
9.031023 -33.733233 33.867182 48.646443 -1.309212 0.800720 0.034995 -0.002150 145692.000000 0 0 1
9.156723 -33.192533 32.458331 47.319479 -1.301624 0.814901 0.038633 0.003561 -12798.700000 0 0 1
9.363823 -31.768733 32.495211 46.399055 -1.284163 0.794920 0.017840 -0.011634 166798.000000 0 0 1
9.479423 -31.323933 31.150281 45.181724 -1.276933 0.810075 0.024014 0.002117 -409570.000000 0 0 1
9.238423 -29.826733 30.846581 43.891844 -1.270431 0.791490 0.001217 -0.021211 25401.300000 0 0 1
7.884223 -29.463533 31.016281 43.500235 -1.309330 0.777009 -0.007149 -0.006311 70037.500000 0 0 1
7.478723 -29.127233 32.372471 44.184883 -1.319465 0.748575 -0.006720 -0.000258 -325170.000000 0 0 1
5.964623 -28.834233 32.551251 43.892752 -1.366814 0.735331 -0.024250 -0.007958 893924.000000 0 0 1
5.065423 -29.975033 32.441041 44.458770 -1.403390 0.752930 0.012919 -0.013681 546648.000000 0 0 1
4.978923 -30.709533 31.217671 44.072759 -1.410065 0.783679 0.000652 -0.010775 -948785.000000 0 0 1
4.542723 -30.083333 29.899191 42.656827 -1.420924 0.794104 -0.005958 -0.009150 -40564.300000 0 0 1
3.161123 -29.860433 29.678071 42.218788 -1.465326 0.791247 0.015287 -0.017948 185079.000000 0 0 1
3.046523 -29.105233 28.497631 40.847409 -1.466503 0.798669 0.028386 -0.024298 -1006410.000000 0 0 1
1.615923 -28.894333 28.028301 40.287459 -1.514929 0.801391 0.027079 -0.030819 -642251.000000 0 0 1
0.938623 -29.982633 27.477791 40.680072 -1.539501 0.829207 0.019758 -0.029158 177732.000000 0 0 1
0.652823 -31.137533 28.289631 42.074640 -1.549834 0.833393 0.032485 -0.028265 -922620.000000 0 0 1
0.822923 -32.501633 27.547031 42.613053 -1.545482 0.867880 0.017780 -0.016112 1285450.000000 0 0 1
2.172723 -32.958933 27.243161 42.815906 -1.504969 0.881122 0.011470 -0.016086 1225090.000000 0 0 1
2.802423 -32.323933 26.162301 41.679206 -1.484315 0.892193 0.008102 -0.014656 -743176.000000 0 0 1
4.323023 -32.453133 26.203341 41.934585 -1.438368 0.895841 0.004656 0.004692 -559218.000000 0 0 1
4.892423 -32.142233 24.960641 40.988932 -1.419744 0.916047 -0.000380 -0.006729 758889.000000 0 0 1
6.301023 -32.441833 24.998541 41.437935 -1.378960 0.923193 0.003960 -0.014499 337627.000000 0 0 1
6.955623 -31.933533 23.728141 40.387571 -1.356330 0.942817 -0.001614 -0.006485 -872698.000000 0 0 1
8.226523 -31.389333 23.858041 40.276196 -1.314481 0.936810 0.008139 -0.003663 -556290.000000 0 0 1
8.700923 -31.035933 22.582641 39.356205 -1.297463 0.959657 0.006834 -0.001268 104676.000000 0 0 1
9.967623 -30.149333 22.608941 38.980764 -1.251500 0.952065 0.003623 0.000679 1019460.000000 0 0 1
11.167023 -30.762933 23.172141 40.099982 -1.222585 0.954693 0.012806 -0.000184 1044440.000000 0 0 1
12.176223 -29.765533 23.100741 39.596611 -1.182494 0.947885 0.014595 0.004538 120954.000000 0 0 1
13.497023 -30.044333 23.849841 40.665052 -1.148577 0.944072 0.039611 0.001926 -13129.400000 0 0 1
13.357423 -30.080633 25.271961 41.496231 -1.152898 0.915974 0.023321 0.002463 -44921.200000 0 0 1
14.454223 -29.501133 25.913311 41.841858 -1.115217 0.902926 0.034472 -0.000172 -576115.000000 0 0 1
-10.358877 -13.768416 25.427771 30.715585 0.925783 0.595540 0.027969 -0.012194 -782376.000000 0 0 1
-8.986177 -13.731516 25.609751 30.416529 0.991320 0.569875 0.024000 -0.020703 -1071690.000000 0 0 1
-8.589477 -14.605516 26.615391 31.551216 1.039174 0.566915 0.015082 -0.023509 802930.000000 0 0 1
-7.021177 -14.656616 26.840601 31.377240 1.124053 0.544442 0.021515 -0.018549 1180240.000000 0 0 1
-6.260877 -15.355216 25.883661 30.739960 1.183639 0.569779 0.021749 -0.017624 26820.900000 0 0 1
-6.268677 -14.837516 24.509841 29.328834 1.171055 0.581407 0.022353 -0.013512 -632958.000000 0 0 1
-5.505677 -15.797516 23.491541 28.839669 1.235445 0.618832 0.018813 -0.018495 316672.000000 0 0 1
-6.115677 -17.055416 23.273441 29.494776 1.226501 0.661503 0.014958 -0.014289 -183431.000000 0 0 1
-6.143877 -17.947316 24.429201 30.929585 1.240972 0.660260 0.005721 -0.008350 60665.900000 0 0 1
-6.958977 -19.272116 24.231181 31.733137 1.224276 0.701938 0.008747 -0.004973 982348.000000 0 0 1
-8.386577 -19.175616 24.387201 32.136809 1.158506 0.709242 0.009615 0.000535 755554.000000 0 0 1
-8.949877 -20.460816 24.070211 32.834743 1.158457 0.747970 0.004780 0.006715 1409480.000000 0 0 1
-10.527277 -20.595716 24.144931 33.436280 1.098277 0.763938 0.023766 -0.001501 1269290.000000 0 0 1
-11.016777 -20.767716 25.459591 34.653401 1.083066 0.745583 0.027940 -0.005382 -444867.000000 0 0 1
-12.391977 -20.561816 25.540461 35.052311 1.028416 0.754464 0.037657 -0.009004 -547186.000000 0 0 1
-13.041477 -20.711816 26.910331 36.376165 1.008850 0.738054 0.040107 -0.005239 -589869.000000 0 0 1
-12.823877 -21.981716 27.541081 37.498784 1.042681 0.745937 0.035366 -0.004421 536220.000000 0 0 1
-11.834477 -21.836016 28.569661 37.856201 1.074139 0.715616 0.036892 -0.002945 570091.000000 0 0 1
-11.348277 -23.195416 29.184221 38.968314 1.115788 0.724363 0.025073 -0.003496 1021560.000000 0 0 1
-12.465277 -23.745816 29.933621 40.190404 1.087391 0.730568 0.025741 -0.003434 906023.000000 0 0 1
-12.107377 -25.054156 30.440291 41.242098 1.120640 0.740564 0.015836 -0.005488 -112470.000000 0 0 1
-13.192377 -25.626796 31.350941 42.587005 1.095388 0.743414 0.019996 -0.014586 130605.000000 0 0 1
-13.208177 -24.949516 32.595561 43.120818 1.083909 0.713750 0.032028 -0.013763 15341.900000 0 0 1
-14.337677 -25.363356 33.348299 44.282930 1.056289 0.718075 0.038231 -0.017315 115503.000000 0 0 1
-14.310877 -24.810516 -34.177713 44.592365 1.047605 2.444088 0.035266 -0.020066 86760.000000 0 0 1
-14.402077 -23.370516 -34.040745 43.730689 1.018514 2.462938 0.045690 -0.023069 -326091.000000 0 0 1
-15.668677 -22.875616 -34.373828 44.162895 0.970242 2.462817 0.031167 -0.023893 -863688.000000 0 0 1
-15.790677 -21.371616 -34.156940 43.275721 0.934462 2.480442 0.029977 -0.011555 -184697.000000 0 0 1
-15.850977 -21.112316 -32.777815 42.087629 0.926788 2.463546 0.028665 -0.011252 164354.000000 0 0 1
-15.766477 -19.737216 -32.521425 41.179881 0.896775 2.481182 0.015417 -0.017263 -304605.000000 0 0 1
-15.673977 -19.442416 -31.067385 39.860551 0.892302 2.464507 0.020323 -0.005048 181309.000000 0 0 1
-16.934777 -19.491416 -30.408255 39.891904 0.855470 2.437604 0.011141 -0.006399 243728.000000 0 0 1
-16.940777 -19.305416 -28.985335 38.727751 0.850544 2.416501 0.005215 -0.002980 -308218.000000 0 0 1
-16.140377 -20.300816 -28.142235 38.270358 0.899075 2.396984 0.010354 -0.005504 -750353.000000 0 0 1
-14.775777 -20.044416 -28.232315 37.645263 0.935569 2.418793 0.007468 -0.005233 -775815.000000 0 0 1
-14.019077 -21.085216 -27.652545 37.493788 0.984034 2.400192 -0.004255 -0.000590 -400080.000000 0 0 1
-12.509977 -20.936116 -27.797795 36.980237 1.032194 2.421422 0.032633 -0.008672 -1154460.000000 0 0 1
-11.959777 -20.010316 -26.911915 35.604778 1.032084 2.427750 0.031240 -0.009279 423658.000000 0 0 1
-10.545077 -19.947616 -27.089435 35.255404 1.084501 2.447097 0.017492 -0.017418 760587.000000 0 0 1
-9.622077 -20.973616 -26.369795 35.040591 1.140673 2.422722 0.024981 -0.012017 -447046.000000 0 0 1
-9.763077 -22.333916 -26.712275 36.161680 1.158687 2.401921 0.020852 -0.015079 74153.000000 0 0 1
-9.389077 -23.215516 -25.674795 35.865165 1.186476 2.368666 0.027649 -0.011886 -107597.000000 0 0 1
-9.576977 -24.718416 -26.065415 37.176935 1.201162 2.347760 0.029237 -0.011214 394897.000000 0 0 1
-8.660777 -25.219846 -27.084405 38.008087 1.240003 2.363988 0.023438 -0.012808 535017.000000 0 0 1
-9.065177 -26.407716 -27.743115 39.360200 1.240123 2.353011 0.024777 -0.016054 -96491.300000 0 0 1
-8.723277 -27.722276 -26.973555 39.650887 1.265939 2.318936 0.032876 -0.010538 373909.000000 0 0 1
-9.770077 -27.948496 -26.027065 39.420565 1.234501 2.291936 0.025129 -0.012618 219051.000000 0 0 1
-9.527577 -29.073666 -25.165575 39.615136 1.254120 2.259130 0.042349 -0.015573 -333189.000000 0 0 1
-10.535777 -29.225526 -23.982955 39.246861 1.224799 2.228220 0.035948 -0.015802 241212.000000 0 0 1
-10.566977 -28.202736 -22.950455 37.865271 1.212307 2.221955 0.038612 -0.020375 -44079.900000 0 0 1
-11.502777 -27.191306 -23.305955 37.614473 1.170594 2.239030 0.015839 -0.008245 -14488.900000 0 0 1
-11.436677 -26.025716 -22.313355 36.138917 1.156761 2.236271 0.016210 -0.014340 839.248000 0 0 1
-11.983777 -26.353856 -21.047955 35.793199 1.144019 2.199434 0.015702 -0.011364 143588.000000 0 0 1
-11.815677 -25.316616 -20.078755 34.404908 1.134128 2.193953 0.012853 -0.003145 -164155.000000 0 0 1
-12.355677 -25.775796 -18.704455 34.160080 1.123803 2.150233 0.028894 -0.007605 -812566.000000 0 0 1
-13.730877 -25.881896 -18.652855 34.732385 1.083031 2.137727 0.042171 -0.012431 -882648.000000 0 0 1
-14.205077 -26.267246 -17.348855 34.535999 1.075051 2.097101 0.037640 -0.009593 -180999.000000 0 0 1
-15.730277 -26.421576 -17.285655 35.275136 1.033798 2.082913 0.049244 -0.013087 -1269330.000000 0 0 1
-16.368277 -25.154786 -17.220155 34.600831 0.993928 2.091719 0.041745 -0.007797 -27246.600000 0 0 1
-17.730477 -25.328866 -16.895055 35.232998 0.960063 2.070908 0.046615 -0.005505 543822.000000 0 0 1
-18.815577 -25.975116 -17.838855 36.700918 0.943902 2.078372 0.033365 -0.000642 -814196.000000 0 0 1
-18.750577 -27.402446 -18.140655 37.835983 0.970708 2.070830 0.027847 0.000595 -40174.900000 0 0 1
-18.845777 -28.264446 -17.014455 37.993867 0.982725 2.035123 0.035257 -0.005127 -584820.000000 0 0 1
-20.188377 -29.000946 -16.961255 39.195786 0.962674 2.018317 0.022758 0.003703 -65283.100000 0 0 1
-20.531377 -29.881596 -18.041655 40.496278 0.968787 2.032545 0.022067 0.001027 -514513.000000 0 0 1
-21.715777 -30.539016 -17.723355 41.452670 0.952671 2.012584 0.014766 0.007489 -312888.000000 0 0 1
-22.316277 -31.329726 -18.910955 42.862480 0.951861 2.027732 0.012391 -0.000322 -122022.000000 0 0 1
-21.636477 -32.529776 -19.078755 43.477838 0.983859 2.025077 0.016109 -0.006091 -22300.700000 0 0 1
-22.134877 -33.113216 -20.245455 44.680156 0.981553 2.041058 0.019239 -0.003082 62262.500000 0 0 1
-21.627577 34.528528 -20.363355 45.548190 -1.011214 2.034286 0.011780 -0.004659 248175.000000 0 0 1
-22.318677 33.657962 -19.493555 44.843957 -0.985265 2.020499 0.018190 -0.011190 -144488.000000 0 0 1
-21.488277 32.575940 -19.117855 43.456074 -0.987677 2.026323 0.024837 -0.015308 145798.000000 0 0 1
-22.276577 31.310990 -18.644455 42.711119 -0.952419 2.022529 0.028792 -0.018255 -11341.100000 0 0 1
-22.758577 31.398540 -17.295555 42.461246 -0.943600 1.990320 0.024670 -0.016459 294046.000000 0 0 1
-23.534077 30.197510 -16.977755 41.880623 -0.908782 1.988196 0.029386 -0.017953 275447.000000 0 0 1
-22.751777 28.879860 -16.729455 40.392628 -0.903534 1.997828 0.033715 -0.018471 -8407.980000 0 0 1
-22.376277 28.162380 -17.918355 40.185630 -0.899390 2.032964 0.027910 -0.020478 -84226.800000 0 0 1
-21.609577 27.036440 -17.584155 38.821971 -0.896497 2.040860 0.023190 -0.007872 -216652.000000 0 0 1
-20.913877 26.392780 -18.760355 38.547633 -0.900701 2.079081 0.035620 -0.006292 -1500980.000000 0 0 1
-20.561777 25.096940 -18.470755 37.333790 -0.884401 2.088339 0.032565 -0.004978 -207967.000000 0 0 1
-19.855977 24.563840 -19.579555 37.161823 -0.890990 2.125713 0.018726 -0.000016 -27400.200000 0 0 1
-18.394677 25.020810 -19.663955 36.756989 -0.936851 2.135271 0.017072 -0.005126 -1731460.000000 0 0 1
-17.493677 24.570430 -18.706555 35.491830 -0.952075 2.125941 0.013128 -0.001365 -506132.000000 0 0 1
-16.310177 25.299840 -18.622655 35.396428 -0.998174 2.124824 0.023812 -0.009872 -534193.000000 0 0 1
-16.222577 26.478940 -17.662255 35.724803 -1.021120 2.087938 0.025586 -0.020159 -256904.000000 0 0 1
-17.085377 27.534690 -18.051255 37.093356 -1.015437 2.079040 0.027803 -0.023212 115319.000000 0 0 1
-16.768577 28.714770 -17.332955 37.498727 -1.042247 2.051302 0.035132 -0.028187 160075.000000 0 0 1
-17.711277 29.944280 -17.686255 39.027591 -1.036669 2.041118 0.049945 -0.024840 498353.000000 0 0 1
-17.760577 30.365980 -19.072655 40.016210 -1.041566 2.067606 0.029499 -0.027352 119745.000000 0 0 1
-18.680777 29.590660 -19.819955 40.217027 -1.007675 2.086130 0.037930 -0.021784 -167016.000000 0 0 1
-18.815077 30.029310 -21.334355 41.363285 -1.011078 2.112714 0.036007 -0.019730 -194004.000000 0 0 1
-19.434677 31.262010 -21.549355 42.654363 -1.014595 2.100420 0.039984 -0.019161 -97240.100000 0 0 1
-19.539777 31.435030 -22.945055 43.548129 -1.014651 2.125733 0.037619 -0.015231 191385.000000 0 0 1
-20.169277 32.734880 -23.472255 45.047962 -1.018593 2.118877 0.039485 -0.017432 68673.900000 0 0 1
-19.237377 33.786425 -23.463855 45.410921 -1.053194 2.113789 0.033202 -0.016022 -44147.300000 0 0 1
-19.697477 -34.306425 -24.355655 46.455563 1.049591 2.122664 0.028846 -0.012044 230662.000000 0 0 1
-18.819377 -33.004686 -24.400355 45.153689 1.052574 2.141690 0.039751 -0.010949 146601.000000 0 0 1
-18.905777 -32.197526 -23.209155 43.963326 1.039856 2.126947 0.031449 -0.011387 260020.000000 0 0 1
-18.167477 -32.772536 -22.113355 43.509733 1.064619 2.103935 0.025585 -0.016150 19546.200000 0 0 1
-18.060777 -31.803376 -20.842555 42.095825 1.054323 2.088771 0.039121 -0.015759 -192932.000000 0 0 1
-17.145677 -30.781066 -21.086655 41.062091 1.062579 2.110091 0.039829 -0.014095 -227014.000000 0 0 1
-16.920377 -30.070156 -19.862055 39.812243 1.058257 2.093117 0.043966 -0.011117 188117.000000 0 0 1
-15.658677 -29.170366 -19.877655 38.616391 1.078143 2.111508 0.048282 -0.008503 99442.900000 0 0 1
-14.465677 -29.854276 -20.151955 38.815395 1.119591 2.116681 0.057041 -0.019938 -872050.000000 0 0 1
-13.428277 -28.947786 -20.352055 37.848370 1.136461 2.138534 0.042944 -0.017806 -247266.000000 0 0 1
-12.029877 -29.659736 -20.441755 37.977405 1.185475 2.139169 0.050899 -0.018832 663314.000000 0 0 1
-11.465777 -30.236446 -19.242055 37.629289 1.208345 2.107561 0.045891 -0.013733 142712.000000 0 0 1
-10.958777 -29.277826 -18.370455 36.259613 1.212637 2.102076 0.026283 -0.015102 -632083.000000 0 0 1
-10.034077 -29.808266 -17.267155 35.879940 1.246090 2.072874 0.019549 -0.002861 -13820.100000 0 0 1
-10.710677 -30.657746 -16.330055 36.349508 1.234689 2.036723 0.036284 -0.014754 188095.000000 0 0 1
-10.753677 -32.059896 -16.714855 37.720882 1.247165 2.029872 0.045211 -0.013857 -77734.400000 0 0 1
-11.832477 -32.883856 -15.980655 38.428334 1.225394 1.999680 0.071086 -0.018440 -13510.900000 0 0 1
-11.562477 -33.048496 -14.613455 37.940046 1.234243 1.966191 0.063102 -0.020773 492876.000000 0 0 1
-12.751877 -33.499046 -13.955955 38.465116 1.207069 1.942090 0.063646 -0.013753 470656.000000 0 0 1
-12.346877 -34.157239 -12.610455 38.447184 1.223938 1.904976 0.047782 -0.019020 -227573.000000 0 0 1
-11.863177 -33.226916 -11.742755 37.184072 1.227868 1.892097 0.031402 -0.011319 -28289.300000 0 0 1
-11.611277 -33.705946 -10.435555 37.145839 1.239041 1.855564 0.030822 -0.011018 130476.000000 0 0 1
-10.545277 -32.974026 -9.529455 35.906821 1.261270 1.839409 0.019492 -0.014136 638570.000000 0 0 1
-9.270077 -33.072066 -10.158355 35.817427 1.297510 1.858358 0.011356 -0.018344 -610265.000000 0 0 1
-8.325277 -32.462066 -9.348955 34.792225 1.319745 1.842848 0.004128 -0.017415 -409129.000000 0 0 1
-6.896777 -32.833366 -9.808855 34.954386 1.363752 1.855235 -0.002168 -0.016944 -106489.000000 0 0 1
-6.539277 -34.111002 -9.348355 35.968241 1.381389 1.833721 -0.007985 -0.015661 -453771.000000 0 0 1
-5.411877 34.488226 -10.013955 36.318115 -1.415146 1.850144 -0.008984 -0.015105 -366617.000000 0 0 1
-4.779977 33.210878 -9.425455 34.851827 -1.427850 1.844650 -0.002093 -0.014001 -11132.600000 0 0 1
-4.228077 33.516165 -8.155055 34.752193 -1.445309 1.807668 0.003997 -0.014612 -469020.000000 0 0 1
-3.498977 32.475030 -7.597655 33.534979 -1.463467 1.799340 0.010248 -0.015225 -190082.000000 0 0 1
-3.046177 32.773930 -6.163355 33.487261 -1.478117 1.755902 0.010267 -0.013661 -156583.000000 0 0 1
-2.124177 33.867110 -6.121055 34.481308 -1.508157 1.749260 0.010730 -0.010664 91180.100000 0 0 1
-1.714377 34.230146 -4.797155 34.607148 -1.520754 1.709862 0.007242 -0.009546 -190527.000000 0 0 1
-0.701777 33.384545 -4.037055 33.635073 -1.549778 1.691112 0.021565 -0.018493 397146.000000 0 0 1
0.639023 33.556475 -4.540555 33.868304 1.551755 1.705266 0.029814 -0.011562 450578.000000 0 0 1
1.602223 32.767380 -3.926955 33.040722 1.521938 1.689930 0.036089 -0.017607 -1526020.000000 0 0 1
3.013123 33.021310 -4.293555 33.435317 1.479800 1.699566 0.035856 -0.009750 -1210270.000000 0 0 1
3.475323 34.331258 -3.886055 34.724841 1.469911 1.682941 0.033808 -0.005963 -257780.000000 0 0 1
4.864923 34.428896 -4.078655 35.009310 1.430422 1.687564 0.039204 -0.003651 349858.000000 0 0 1
5.479723 -33.248256 -3.637255 33.892529 -1.407452 1.678321 0.037063 -0.000516 5385.990000 0 0 1
4.909123 -32.196466 -4.329755 32.855117 -1.419488 1.702964 0.026234 0.001255 -120312.000000 0 0 1
5.399023 -30.917836 -3.947255 31.632940 -1.397915 1.695906 0.032852 -0.000928 222560.000000 0 0 1
5.040623 -29.822086 -5.032955 30.660974 -1.403356 1.735691 0.012859 0.003948 100598.000000 0 0 1
6.036423 -29.804726 -6.067555 31.009278 -1.370967 1.767736 0.018152 0.004662 363857.000000 0 0 1
6.021223 -28.731646 -6.962055 30.170065 -1.364218 1.803655 0.012874 0.009052 -97215.900000 0 0 1
6.627523 -27.430016 -6.313155 28.916877 -1.333724 1.790890 0.022511 0.005652 -72657.600000 0 0 1
5.830523 -26.836726 -5.311955 27.971803 -1.356862 1.761861 0.023773 0.005003 -212086.000000 0 0 1
6.466023 -25.670226 -4.803455 26.904333 -1.324041 1.750297 0.024991 -0.003401 258973.000000 0 0 1
5.595923 -24.970116 -3.695755 25.854974 -1.350334 1.714229 0.027134 -0.002654 677484.000000 0 0 1
4.446923 -24.265216 -4.139955 25.014297 -1.389544 1.737065 0.022719 -0.012238 -131641.000000 0 0 1
3.690723 -23.831516 -3.051255 24.307874 -1.417150 1.696654 0.025020 -0.010541 -90209.000000 0 1 0
2.390323 -23.072716 -3.437555 23.449534 -1.467565 1.717920 0.025568 -0.010629 157226.000000 0 1 0
1.456223 -24.008416 -3.887955 24.364746 -1.510216 1.731054 0.008980 -0.004324 -438481.000000 0 1 0
0.191723 -23.398916 -4.128055 23.761037 -1.562603 1.745414 0.006951 -0.002981 428845.000000 0 1 0
-15.119777 23.482884 18.341041 33.413280 -0.998747 0.989731 -0.008329 -0.007671 -276052.000000 0 0 1
-15.029477 22.785584 19.569341 33.586115 -0.987699 0.948796 0.000600 -0.006987 69944.800000 0 0 1
-14.626477 23.706584 20.484841 34.576938 -1.017985 0.936709 0.001099 -0.004174 -967392.000000 0 0 1
-14.624277 23.129984 21.896341 35.047331 -1.006990 0.895966 0.017451 -0.008451 -137602.000000 0 0 1
-13.586777 22.184984 22.211441 34.207048 -1.021286 0.864102 0.015736 -0.004383 1587640.000000 0 0 1
-12.248277 22.699884 22.461341 34.202586 -1.075993 0.854342 -0.009167 -0.010341 1010090.000000 0 0 1
-12.091677 23.699384 23.584741 35.554317 -1.099014 0.845518 0.009489 -0.003444 -949814.000000 0 0 1
-12.060377 23.150984 24.885291 36.065197 -1.090534 0.809296 -0.002322 0.005592 77863.300000 0 0 1
-11.701177 24.123184 25.803591 37.211166 -1.119172 0.804548 0.010601 0.006552 -134943.000000 0 0 1
-11.259377 23.606884 27.210381 37.742064 -1.125756 0.765615 0.004652 0.007281 -126308.000000 0 0 1
-9.946477 23.104984 27.171061 37.027547 -1.164284 0.746888 -0.023713 0.004632 -544669.000000 0 0 1
-9.653977 22.531584 28.417731 37.529175 -1.165995 0.711755 -0.024451 0.000415 -718783.000000 0 0 1
-8.150377 22.216584 28.491231 37.037218 -1.219181 0.693115 -0.019276 -0.003900 110655.000000 0 0 1
-7.194977 23.242084 28.649741 37.586830 -1.270586 0.704048 -0.010247 -0.003192 110657.000000 0 0 1
-7.130977 24.280984 27.624191 37.463488 -1.285142 0.741638 -0.006708 -0.002362 -406411.000000 0 0 1
-6.055777 25.354484 28.028981 38.277226 -1.336344 0.749158 -0.002865 -0.010588 1520280.000000 0 0 1
-4.686777 24.999684 27.727921 37.626954 -1.385474 0.742299 -0.002507 -0.010592 1098680.000000 0 0 1
-3.744377 25.940784 28.253791 38.538569 -1.427443 0.747883 -0.000771 -0.006799 1661970.000000 0 0 1
-2.240077 25.445684 28.090211 37.967891 -1.482989 0.737962 0.001812 -0.003654 1059190.000000 0 0 1
-1.647677 25.720984 26.839951 37.211111 -1.506824 0.765135 -0.003495 -0.010255 -17708.300000 0 0 1
-0.330377 25.201184 26.967641 36.911549 -1.557687 0.751594 0.002812 -0.001836 228930.000000 0 0 1
0.420223 24.954784 25.646101 35.786035 1.553959 0.771808 0.003062 -0.006034 -436183.000000 0 0 1
-0.064277 23.863284 24.930121 34.510453 -1.568103 0.763539 0.004121 -0.002346 -195421.000000 0 0 1
0.653323 23.692984 23.751741 33.554873 1.543229 0.784350 0.014711 0.001898 -71960.600000 0 0 1
0.083723 22.493884 22.912841 32.108879 1.567074 0.776175 -0.005407 0.002657 253654.000000 0 0 1
0.455923 21.209484 23.396141 31.582107 1.549303 0.736530 0.007858 0.007996 -166719.000000 0 0 1
-0.107377 20.210084 22.580741 30.304272 -1.565483 0.730061 0.006873 0.011410 341170.000000 0 0 1
0.669723 18.791084 22.534641 29.348993 1.535171 0.695370 0.003754 0.024453 -392732.000000 0 0 1
1.980323 18.916384 22.133541 29.182955 1.466488 0.709879 0.004632 0.018524 -1161720.000000 0 0 1
2.643123 17.660984 22.203141 28.493436 1.422240 0.677349 -0.005620 0.018825 -627021.000000 0 0 1
4.067223 17.703584 21.705441 28.303451 1.344975 0.696826 0.005535 0.018255 -821180.000000 0 0 1
4.983223 18.369084 22.540841 29.501614 1.305889 0.701222 -0.001537 0.019519 251960.000000 0 0 1
6.225323 18.711284 21.891041 29.463273 1.249612 0.733263 0.012939 0.010086 886288.000000 0 0 1
7.193623 19.484384 22.839141 30.870954 1.217121 0.737984 0.018644 -0.001722 -111653.000000 0 0 1
6.690223 20.676884 23.429341 31.956636 1.257867 0.747839 0.000005 0.005379 -21845.100000 0 0 1
6.695523 21.765084 22.553841 32.050345 1.272357 0.790204 0.007806 0.001801 78950.600000 0 0 1
5.764623 22.854084 23.135641 33.027230 1.323714 0.794696 0.002879 0.007096 111458.000000 0 0 1
5.618523 24.104384 22.469241 33.428370 1.341794 0.833673 0.003855 -0.000468 611678.000000 0 0 1
4.493423 24.724084 23.102241 34.134802 1.391016 0.827397 -0.011093 0.008794 121665.000000 0 0 1
4.096023 26.174184 22.574241 34.806058 1.415564 0.865089 -0.001577 0.009634 63112.400000 0 0 1
3.817823 26.246184 21.170941 33.935920 1.426347 0.897136 -0.000740 0.002297 -64826.600000 0 0 1
2.676223 25.556684 20.726641 33.013632 1.466459 0.892046 0.011647 -0.004207 -705528.000000 0 0 1
2.362623 25.856484 19.259441 32.327477 1.479675 0.932584 0.013211 -0.005017 -786885.000000 0 0 1
1.783723 27.128884 19.128441 33.242371 1.505141 0.957674 0.015549 -0.009865 153420.000000 0 0 1
1.439823 27.424684 17.804441 32.728955 1.518344 0.995603 0.015215 -0.002194 -614544.000000 0 0 1
0.483923 28.571884 17.751641 33.640860 1.553861 1.014928 0.003955 0.006938 -514966.000000 0 0 1
1.039123 29.818484 18.248841 34.974876 1.535962 1.021872 0.002168 0.006122 32068.600000 0 0 1
0.038623 30.745584 18.532041 35.898871 1.569540 1.028354 0.002811 0.007638 -349195.000000 0 0 1
0.534723 32.163784 19.033341 37.377306 1.554173 1.036516 -0.002250 0.008604 -323686.000000 0 0 1
0.743123 32.203984 20.397141 38.127315 1.547725 1.006319 -0.004044 0.006028 -228347.000000 0 0 1
1.087223 33.513384 20.756241 39.435396 1.538366 1.016512 -0.005862 0.006812 -167422.000000 0 0 1
1.642823 33.584184 22.203141 40.293619 1.521919 0.987194 -0.003956 -0.004059 -32967.300000 0 0 1
0.691723 33.170184 23.163241 40.463259 1.549946 0.961304 -0.002782 -0.000417 324261.000000 0 0 1
1.230523 33.280684 24.455681 41.318258 1.533839 0.937400 0.000576 -0.010879 -445828.000000 0 0 1
0.134523 32.984284 25.448111 41.660382 1.566718 0.913667 0.001693 -0.002278 91766.100000 0 0 1
-0.805977 34.058184 25.720221 42.686523 -1.547136 0.924120 0.002529 0.006152 293299.000000 0 0 1
-1.832977 33.718484 26.601981 42.987921 -1.516489 0.903551 0.001532 0.003308 -335884.000000 0 0 1
-1.570877 33.665284 28.162661 43.919864 -1.524169 0.874698 0.010380 -0.007836 -976553.000000 0 0 1
-0.674777 32.721984 28.617211 43.475606 -1.550178 0.852323 0.011448 -0.010141 -510321.000000 0 0 1
-0.198777 33.259884 29.815391 44.667851 -1.564820 0.839962 0.014921 -0.012405 -564351.000000 0 0 1
0.790523 32.259784 30.494851 44.398812 1.546296 0.813665 0.007629 -0.011021 530700.000000 0 0 1
2.107523 32.148484 29.948191 43.987053 1.505334 0.821886 0.005195 -0.009799 513046.000000 0 0 1
2.192423 31.586284 28.616271 42.677758 1.501497 0.835887 0.001620 -0.014601 -1130750.000000 0 0 1
3.636323 31.486884 28.120761 42.372443 1.455819 0.845100 0.001284 -0.012747 -347567.000000 0 0 1
4.355723 30.440184 28.734741 42.086369 1.428670 0.819268 0.002318 -0.015928 -314319.000000 0 0 1
5.711223 30.582684 28.382831 42.112987 1.386176 0.831229 0.005553 -0.016681 -109543.000000 0 0 1
6.606923 29.577884 29.161701 42.058381 1.351030 0.804651 0.001248 -0.015065 -49126.900000 0 0 1
6.563823 29.648984 30.605011 43.113950 1.352926 0.781492 0.014621 -0.019044 34569.300000 0 0 1
7.254523 28.646684 31.317381 43.058552 1.322769 0.756386 0.010463 -0.014269 -219251.000000 0 0 1
7.287223 28.864584 32.815041 44.306825 1.323501 0.736786 0.029602 -0.012094 -868621.000000 0 0 1
6.025123 29.039884 33.383410 44.655000 1.366221 0.726378 0.026189 -0.009826 -677748.000000 0 0 1
6.048723 28.919384 -34.252198 45.234178 1.364611 2.429842 0.041253 -0.009822 -37089.600000 0 0 1
6.049423 27.508884 -33.699145 43.920002 1.354334 2.445393 0.035935 -0.006112 -689983.000000 0 0 1
7.249423 26.889484 -33.951995 43.912828 1.307457 2.454618 0.025963 -0.012918 -659128.000000 0 0 1
6.925623 25.519284 -34.028105 43.094199 1.305791 2.480988 0.028994 -0.005571 655429.000000 0 0 1
8.121623 24.508084 -34.174106 42.830789 1.250800 2.494577 0.029777 -0.008941 283494.000000 0 0 1
8.684723 24.430284 33.521672 42.378835 1.229239 0.658354 0.010121 -0.006031 784561.000000 0 0 1
9.957323 23.768984 33.465440 42.237999 1.174086 0.656216 0.016228 -0.016189 542083.000000 0 0 1
10.137023 22.268884 33.844927 41.762920 1.143618 0.625951 0.025126 -0.018511 -930866.000000 0 0 1
9.605523 21.414384 32.834621 40.360305 1.149145 0.620587 0.027359 -0.015754 237575.000000 0 0 1
9.188123 20.130884 33.259409 39.948246 1.142617 0.587079 0.024121 -0.017573 -500350.000000 0 0 1
7.902423 20.025884 34.050592 40.285569 1.194945 0.563800 0.047669 -0.022576 -1084940.000000 0 0 1
7.982523 20.489784 -33.655945 40.202917 1.199300 2.562851 0.042851 -0.012644 -1270560.000000 0 0 1
6.770623 20.657484 -33.052845 39.560884 1.254073 2.559826 0.045510 -0.008813 -1216290.000000 0 0 1
6.808823 21.289984 -31.667035 38.761122 1.261263 2.526950 0.052499 -0.020481 44721.800000 0 0 1
7.277623 22.652284 -31.713445 39.646341 1.259937 2.497939 0.051029 -0.017334 134247.000000 0 0 1
7.423523 23.189884 -30.387385 38.939345 1.260985 2.466065 0.031609 -0.018215 -122033.000000 0 0 1
8.872723 23.411484 -29.915045 39.009392 1.208532 2.444743 0.034739 -0.013028 79425.900000 0 0 1
9.530623 22.160184 -29.818935 38.354601 1.164632 2.461404 0.036432 -0.017805 518274.000000 0 0 1
10.897123 22.276484 -29.370745 38.439949 1.115845 2.440392 0.037874 -0.009476 1100790.000000 0 0 1
11.611923 20.915384 -29.299525 37.825285 1.063980 2.456881 0.044025 -0.017951 18504.100000 0 0 1
11.767923 20.292684 -30.587195 38.546771 1.045280 2.487349 0.037942 -0.019258 -211223.000000 0 0 1
10.577823 19.625784 -30.915995 38.116407 1.076456 2.516817 0.054550 -0.024099 -278299.000000 0 0 1
10.682423 18.676384 -32.119535 38.659876 1.051238 2.551382 0.057556 -0.027113 -378970.000000 0 0 1
11.216623 17.416784 -31.859495 38.002426 0.998642 2.565053 0.050607 -0.021362 -20542.100000 0 0 1
11.119023 16.510384 -32.956095 38.501034 0.978108 2.598239 0.041730 -0.011923 -171483.000000 0 0 1
12.375823 16.344184 -33.832295 39.559038 0.922703 2.596801 0.028996 -0.002604 -192879.000000 0 0 1
12.631723 17.577684 -34.465662 40.699106 0.947681 2.580813 0.037462 -0.011224 -51508.200000 0 0 1
13.176523 17.472884 33.236753 39.794524 0.924668 0.582283 0.043005 -0.012823 -233646.000000 0 0 1
12.176523 17.094884 32.138701 38.384878 0.951869 0.578516 0.052423 -0.022604 -910963.000000 0 0 1
12.499523 17.504784 30.836631 37.597252 0.950694 0.609065 0.042955 -0.019876 384819.000000 0 0 1
11.526923 17.246184 29.802511 36.311024 0.981612 0.608062 0.039587 -0.016505 1332500.000000 0 0 1
10.058823 17.790584 29.954661 36.262467 1.056205 0.598731 0.024771 -0.016918 285267.000000 0 0 1
9.240023 17.050584 30.802061 36.398728 1.074179 0.561908 0.038680 -0.015688 -753128.000000 0 0 1
7.977123 17.659284 30.869661 36.447507 1.146510 0.560551 0.031708 -0.017668 -452542.000000 0 0 1
7.082623 16.864584 31.797441 36.683170 1.173194 0.522022 0.033840 -0.011557 -543348.000000 0 0 1
7.546623 16.956984 33.106457 37.954292 1.152071 0.510968 0.055565 -0.009826 19815.200000 0 0 1
7.075323 15.846084 33.783242 37.979810 1.150854 0.474535 0.068498 -0.013900 -138391.000000 0 0 1
7.062823 15.938884 -33.685235 37.929231 1.153679 2.664008 0.073654 -0.019812 90842.300000 0 0 1
6.201323 16.970084 -33.195115 37.793595 1.220445 2.643147 0.069417 -0.022811 156647.000000 0 0 1
6.225523 17.051284 -31.812695 36.627189 1.220728 2.623074 0.074601 -0.025208 216708.000000 0 0 1
5.092023 17.896284 -31.121275 36.259336 1.293592 2.602738 0.065710 -0.024756 -547546.000000 0 0 1
5.315223 18.069184 -29.716115 35.182304 1.284706 2.576675 0.065244 -0.030792 141483.000000 0 0 1
4.450523 18.972984 -29.038275 34.971455 1.340390 2.550518 0.061006 -0.031398 1003900.000000 0 0 1
2.919423 18.614884 -29.072815 34.644848 1.415231 2.566546 0.063967 -0.024773 -974448.000000 0 0 1
2.573823 17.588484 -28.180555 33.318508 1.425492 2.578846 0.074696 -0.029032 1109720.000000 0 0 1
1.153123 17.372284 -28.345465 33.265467 1.504516 2.590779 0.066415 -0.025016 2051580.000000 0 0 1
0.073023 18.493484 -27.962495 33.524848 1.566848 2.557264 0.064433 -0.026370 -329920.000000 0 0 1
-0.216177 18.772984 -26.595405 32.554373 -1.559281 2.526905 0.068919 -0.033789 76249.800000 0 0 1
-0.837577 20.027884 -26.390615 33.140341 -1.529000 2.491998 0.067293 -0.029322 -103742.000000 0 0 1
-1.173277 20.358384 -24.894255 32.180185 -1.513229 2.455283 0.059950 -0.034480 -111409.000000 0 0 1
-2.329177 19.653784 -24.497055 31.492888 -1.452836 2.462050 0.052168 -0.021253 -40887.200000 0 0 1
-2.772477 20.255384 -23.270755 30.975720 -1.434766 2.420762 0.053849 -0.014886 287601.000000 0 0 1
-3.837977 19.422884 -22.478955 29.954664 -1.375709 2.419513 0.038119 -0.015481 655541.000000 0 0 1
-5.165577 19.652584 -22.942755 30.647630 -1.313766 2.416741 0.035035 -0.012730 286274.000000 0 0 1
-6.053077 18.706784 -22.316255 29.742205 -1.257852 2.419347 0.028961 -0.016083 -296892.000000 0 0 1
-7.455877 19.283784 -22.225855 30.355281 -1.201860 2.392329 0.031277 -0.007175 -785635.000000 0 0 1
-7.684177 20.209384 -21.153055 30.247603 -1.207450 2.345256 0.019097 -0.011319 195465.000000 0 0 1
-7.333477 21.575984 -21.408755 31.267199 -1.243156 2.324993 0.022782 -0.014989 -49216.200000 0 0 1
-7.674477 22.593684 -20.280355 31.315570 -1.243350 2.275243 0.037947 -0.016409 -105716.000000 0 0 1
-6.786577 22.420784 -19.207655 30.293286 -1.276872 2.257584 0.049876 -0.022940 -91143.100000 0 0 1
-7.018177 23.342284 -18.140855 30.384332 -1.278731 2.210610 0.052470 -0.019001 -164388.000000 0 0 1
-5.993077 23.427984 -16.968555 29.541822 -1.320358 2.182656 0.060638 -0.024089 57046.400000 0 0 1
-4.815177 24.067384 -17.395255 30.083547 -1.373333 2.187356 0.054469 -0.024271 -682431.000000 0 0 1
-3.816277 23.908784 -16.405655 29.246187 -1.412513 2.166330 0.042717 -0.023975 611791.000000 0 0 1
-2.469277 24.611684 -16.790155 29.895512 -1.470801 2.167148 0.037824 -0.009678 440002.000000 0 0 1
-2.519977 26.016884 -16.875555 31.112905 -1.474238 2.144084 0.026671 -0.008639 -254243.000000 0 0 1
-1.291477 26.566884 -17.282755 31.720039 -1.522222 2.147010 0.023992 -0.013173 -18810.700000 0 0 1
-1.289177 28.096284 -17.036755 32.883342 -1.524944 2.115421 0.018406 -0.022566 -153098.000000 0 0 1
-2.346077 28.800284 -17.656855 33.863328 -1.489516 2.119305 0.009137 -0.023483 3053.070000 0 0 1
-2.166077 29.070284 -19.042155 34.819204 -1.496422 2.149437 0.010081 -0.020999 -632484.000000 0 0 1
-3.504077 29.404784 -19.722655 35.579530 -1.452189 2.158349 0.013177 -0.022656 -230352.000000 0 0 1
-4.059977 30.625084 -19.426855 36.493587 -1.438995 2.132154 0.011484 -0.012616 -476873.000000 0 0 1
-5.025277 30.473984 -18.411655 35.957004 -1.407363 2.108362 0.003480 -0.013269 -471799.000000 0 0 1
-5.176477 31.887484 -17.767655 36.868647 -1.409864 2.073638 0.004602 -0.004591 -182426.000000 0 0 1
-5.712177 32.794284 -18.676155 38.169265 -1.398344 2.082081 0.026430 -0.007865 -92036.600000 0 0 1
-5.756577 34.089584 -18.089655 39.018887 -1.403508 2.052865 0.015547 -0.023212 -70608.700000 0 0 1
-6.727677 -34.045733 -18.797055 39.467744 1.375703 2.067197 0.012553 -0.013107 1261290.000000 0 0 1
-8.094277 -34.519333 -18.852855 40.156342 1.340472 2.059505 0.031633 -0.017129 1208130.000000 0 0 1
-9.049777 -33.671033 -19.458255 39.928193 1.308231 2.079827 0.058241 -0.021631 279704.000000 0 0 1
28.020923 -20.620216 -26.703875 43.857295 -0.634407 2.225446 0.021880 0.005983 4672.080000 0 0 1
27.663723 -21.856416 -26.222035 43.938361 -0.668660 2.210293 0.017095 -0.000694 -244098.000000 0 0 1
26.307023 -22.192616 -26.429435 43.394547 -0.700767 2.225658 -0.003027 -0.000901 39733.500000 0 0 1
26.018123 -23.552516 -25.782645 43.547773 -0.735700 2.204402 0.000602 0.006838 118467.000000 0 0 1
26.454223 -24.798816 -26.421325 44.865283 -0.753111 2.200498 -0.004143 0.018193 -948131.000000 0 0 1
27.810523 -25.057786 -26.440365 45.830238 -0.733377 2.185749 -0.000221 0.015644 -1185440.000000 0 0 1
28.072223 -26.449316 -27.018495 47.091561 -0.755641 2.181866 -0.001342 0.006151 -342638.000000 0 0 1
27.552923 -27.544276 -26.278195 46.993555 -0.785241 2.164201 -0.000892 -0.002929 -202750.000000 0 0 1
27.829523 -28.771456 -26.963465 48.262900 -0.802038 2.163588 -0.007312 0.003887 688145.000000 0 0 1
26.662523 -29.278416 -27.892245 48.436485 -0.832126 2.184442 0.005195 -0.003231 54750.000000 0 0 1
26.467623 -28.541726 -29.130795 48.618601 -0.823085 2.213260 -0.005238 -0.004759 838923.000000 0 0 1
27.458523 -28.625176 -30.223965 49.868419 -0.806197 2.221912 0.003674 -0.007819 213853.000000 0 0 1
27.734023 -30.088136 -30.776385 51.202127 -0.826089 2.215643 0.012684 -0.005453 -363193.000000 0 0 1
28.427923 -31.014216 -29.951295 51.644056 -0.828880 2.189471 0.012656 -0.006139 1093230.000000 0 0 1
29.767023 -30.704266 -29.491505 51.947825 -0.800896 2.174523 0.007570 -0.005512 687183.000000 0 0 1
30.902923 -30.537856 -30.483585 53.073536 -0.779456 2.182625 0.004647 -0.010179 -726309.000000 0 0 1
30.819223 -29.220346 -31.011895 52.586983 -0.758774 2.201515 0.009013 -0.015049 -259510.000000 0 0 1
32.069123 -28.861446 -31.531175 53.438064 -0.732802 2.201918 0.020104 -0.015433 -318309.000000 0 0 1
32.071123 -27.382466 -32.068945 52.978992 -0.706699 2.220957 0.013081 -0.005795 -6527.350000 0 0 1
31.900023 -26.395236 -31.046135 51.751159 -0.691248 2.214187 0.000526 -0.004359 620284.000000 0 0 1
30.519223 -26.239026 -30.677895 50.606746 -0.710130 2.222072 0.004929 -0.001961 476440.000000 0 0 1
30.307323 -24.922216 -29.984365 49.383325 -0.688201 2.223298 0.007318 -0.002200 -420025.000000 0 0 1
31.011323 -24.859516 -28.743405 49.049781 -0.675732 2.196916 0.009402 -0.003371 348252.000000 0 0 1
30.644423 -23.681016 -28.079795 47.836660 -0.657914 2.198136 0.003642 -0.003488 21763.700000 0 0 1
31.786223 -23.094816 -27.193565 47.783098 -0.628334 2.176212 0.003522 -0.001753 63781.100000 0 0 1
31.980823 -23.702416 -25.925585 47.504879 -0.637810 2.148075 0.011868 -0.005468 -712990.000000 0 0 1
31.045623 -23.388616 -24.970255 46.199261 -0.645650 2.141816 0.016765 0.002512 -680391.000000 0 0 1
31.348923 -22.146816 -24.056355 45.298396 -0.615050 2.130652 0.012225 0.001532 -126237.000000 0 0 1
31.520023 -20.962916 -24.808755 45.259585 -0.586894 2.150939 0.013549 0.001681 75175.700000 0 0 1
31.736923 -19.909616 -23.844455 44.409268 -0.560275 2.137584 0.003941 0.001326 78263.100000 0 0 1
31.966923 -18.529216 -24.532155 44.351354 -0.525312 2.156915 0.006505 -0.006161 547453.000000 0 0 1
30.784023 -18.214216 -25.275105 43.797770 -0.534278 2.185953 0.022142 -0.008009 721311.000000 0 0 1
31.027723 -17.113316 -26.130615 44.027199 -0.504032 2.206210 0.021315 -0.004941 163349.000000 0 0 1
30.112023 -17.274516 -27.386475 44.217212 -0.520838 2.238727 0.009064 0.016778 -350234.000000 0 0 1
28.781523 -17.006116 -27.083685 43.024528 -0.533679 2.251698 0.008890 0.009753 -707915.000000 0 0 1
27.930623 -16.788016 -28.162145 43.070449 -0.541200 2.283474 -0.004223 0.009754 -66585.600000 0 0 1
26.521023 -16.325216 -27.746855 41.710494 -0.551780 2.298591 -0.013141 0.012646 465412.000000 0 0 1
25.666923 -17.264516 -27.043835 41.087996 -0.592124 2.289212 -0.006681 0.020537 651111.000000 0 0 1
25.675923 -16.971616 -25.709635 40.103293 -0.584065 2.266708 -0.000556 0.018522 -95270.200000 0 0 1
25.000023 -18.040716 -24.829855 39.585228 -0.625094 2.248814 0.004504 0.014985 -108660.000000 0 0 1
25.079523 -17.669216 -23.489055 38.638315 -0.613758 2.224236 0.001675 0.018620 -117105.000000 0 0 1
24.424923 -18.568516 -22.637755 38.129183 -0.650015 2.206460 0.009066 0.014409 -337195.000000 0 0 1
24.346723 -18.098516 -21.163155 36.989165 -0.639242 2.179915 0.000653 0.018852 -39970.100000 0 0 1
23.457523 -17.038416 -20.858955 35.716369 -0.628194 2.194464 0.000418 0.009950 21905.700000 0 0 1
23.812423 -15.740716 -21.334555 35.636566 -0.584090 2.212636 0.003611 0.014160 567615.000000 0 0 1
25.167523 -15.106216 -20.857355 36.008766 -0.540586 2.188580 0.003073 0.004605 692104.000000 0 0 1
25.012323 -14.484716 -19.587855 34.915718 -0.524912 2.166394 -0.000086 -0.004715 1025730.000000 0 0 1
26.267523 -13.864016 -19.283455 35.412502 -0.485640 2.146635 -0.000259 0.002830 438669.000000 0 0 1
26.077223 -12.834916 -18.127055 34.254149 -0.457379 2.128445 0.004227 0.000496 -357236.000000 0 0 1
26.138323 -13.354816 -16.819555 33.829875 -0.472352 2.091142 -0.000836 0.008590 276113.000000 0 0 1
25.866123 -12.339216 -15.905855 32.776650 -0.445113 2.077480 -0.007665 0.008328 -57140.900000 0 0 1
26.523823 -12.579616 -14.535855 32.757457 -0.442858 2.030566 0.002335 0.001123 -224149.000000 0 0 1
26.039723 -13.774516 -13.881955 32.565521 -0.486563 2.011170 0.020188 -0.013675 755816.000000 0 0 1
26.656123 -13.918916 -12.562755 32.589997 -0.481223 1.966523 0.034923 -0.015056 172246.000000 0 0 1
26.195723 -15.246516 -12.008155 32.601655 -0.527096 1.948008 0.038290 -0.028990 -692331.000000 0 0 1
24.865023 -15.275416 -11.623755 31.412090 -0.550892 1.949849 0.027962 -0.025533 -503660.000000 0 0 1
24.330623 -16.542816 -11.278855 31.509626 -0.597120 1.936867 0.016362 -0.026289 -10261.700000 0 0 1
22.876823 -16.424816 -10.762055 30.148722 -0.622683 1.935814 0.018856 -0.028190 -127350.000000 0 0 1
22.711223 -15.909916 -9.503855 29.312938 -0.611082 1.900984 0.014543 -0.024052 447153.000000 0 0 1
21.338723 -15.923616 -9.149355 28.153389 -0.641085 1.901789 0.001767 -0.017903 -153214.000000 0 0 1
20.940223 -15.612616 -7.702255 27.231809 -0.640666 1.857550 0.002302 -0.019414 -339072.000000 0 0 1
21.168723 -14.262416 -7.360455 26.565158 -0.592890 1.851542 0.009214 -0.007107 372946.000000 0 0 1
20.932623 -14.024516 -5.961455 25.892097 -0.590296 1.803123 -0.006982 -0.006658 -519126.000000 0 0 1
21.763023 -14.751816 -4.874455 26.739588 -0.595697 1.754115 0.002839 -0.007121 219156.000000 0 0 1
23.154423 -14.423616 -4.812755 27.700733 -0.557110 1.745424 0.025346 -0.005995 634382.000000 0 0 1
23.781123 -15.168216 -3.839255 28.466761 -0.567769 1.706077 0.012758 -0.011875 -1343320.000000 0 0 1
25.279923 -15.166816 -4.017355 29.753083 -0.540386 1.706233 0.038586 -0.009913 -1214330.000000 0 0 1
25.901723 -14.031316 -3.550155 29.671209 -0.496459 1.690733 0.036550 -0.010246 -126802.000000 0 0 1
27.188523 -13.760316 -4.050555 30.740349 -0.468522 1.702947 0.051560 -0.018913 -98283.100000 0 0 1
27.806723 -12.489716 -3.396555 30.671541 -0.422157 1.681764 0.070036 -0.015557 -789566.000000 0 0 1
28.322123 -12.696016 -2.108255 31.109102 -0.421416 1.638618 0.074648 -0.018309 381237.000000 0 0 1
28.925623 -11.617816 -1.418555 31.203807 -0.381923 1.616273 0.061848 -0.019057 -233206.000000 0 0 1
30.361523 -11.295416 -1.846255 32.447144 -0.356165 1.627727 0.060794 -0.011926 -828046.000000 0 0 1
30.454123 -10.721016 -3.094355 32.434069 -0.338489 1.666346 0.059856 -0.008396 154593.000000 0 0 1
31.607023 -11.109016 -3.814055 33.718854 -0.337986 1.684152 0.081583 -0.007757 -244507.000000 0 0 1
31.611623 -10.696016 -5.317055 33.793054 -0.326265 1.728795 0.075614 -0.009541 -135735.000000 0 0 1
30.598923 -11.368116 -6.043855 33.197234 -0.355716 1.753876 0.060513 -0.016528 339239.000000 0 0 1
30.851223 -11.248816 -7.418255 33.665477 -0.349635 1.792972 0.046242 -0.013872 566419.000000 0 0 1
29.636723 -11.786316 -8.256955 32.945863 -0.378516 1.824119 0.066904 -0.020668 591188.000000 0 0 1
29.444323 -13.213216 -8.183255 33.294487 -0.421816 1.819125 0.057973 -0.015441 1119120.000000 0 0 1
28.105823 -13.575416 -8.589455 32.372951 -0.449964 1.839341 0.059119 -0.020183 921067.000000 0 0 1
27.856923 -15.054816 -8.368955 32.752023 -0.495469 1.829187 0.062022 -0.016440 165512.000000 0 0 1
28.625623 -15.721716 -9.372955 33.977212 -0.502243 1.850281 0.060649 -0.024952 541788.000000 0 0 1
28.759923 -17.100516 -9.188855 34.698644 -0.536436 1.838812 0.050879 -0.025427 -86023.400000 0 0 1
28.814223 -17.792516 -10.601655 35.485605 -0.553181 1.874189 0.036161 -0.031322 602990.000000 0 0 1
30.054223 -17.422416 -11.237755 36.511423 -0.525359 1.883663 0.047448 -0.024324 967269.000000 0 0 1
30.213523 -17.847216 -12.620455 37.291500 -0.533555 1.916041 0.035783 -0.016294 -123301.000000 0 0 1
29.475523 -16.951816 -13.637955 36.635561 -0.521921 1.952239 0.028289 -0.022636 -285040.000000 0 0 1
30.195723 -15.814016 -13.918655 36.818389 -0.482441 1.958470 0.022233 -0.022350 -39665.600000 0 0 1
29.573523 -15.126116 -14.978855 36.438424 -0.472785 1.994427 0.003449 -0.017887 -643201.000000 0 0 1
30.535323 -14.298716 -15.850455 37.257162 -0.437941 2.010237 0.010595 -0.006522 -328486.000000 0 0 1
31.474123 -15.003916 -16.585455 38.611076 -0.444840 2.014793 -0.004182 -0.012595 335327.000000 0 0 1
32.709123 -15.190516 -15.886055 39.408187 -0.434774 1.985715 0.009837 -0.014908 -298353.000000 0 0 1
33.752023 -15.905216 -16.748955 40.898685 -0.440374 1.992728 0.026844 -0.009397 7253.450000 0 0 1
35.085523 -15.839316 -16.252955 41.785600 -0.424058 1.970299 0.035446 -0.014690 523741.000000 0 0 1
-34.704295 -16.333516 -17.220055 42.044050 0.439892 1.992781 0.048452 -0.015053 1126800.000000 0 0 1
-33.195695 -16.173516 -16.759555 40.551443 0.453369 1.996862 0.049144 -0.020090 792927.000000 0 0 1
-32.697995 -16.969716 -15.720355 40.053211 0.478719 1.974130 0.059038 -0.025049 24605.200000 0 0 1
-33.273795 -16.826016 -14.448555 39.987761 0.468184 1.940484 0.049361 -0.023863 -574607.000000 0 0 1
-32.617795 -17.835916 -13.473355 39.542026 0.500395 1.918495 0.054560 -0.027321 506916.000000 0 0 1
-31.210195 -17.608816 -13.460555 38.279672 0.513681 1.930116 0.050593 -0.018292 163360.000000 0 0 1
-30.633095 -18.177516 -12.333855 37.695260 0.535549 1.904134 0.051813 -0.007124 354027.000000 0 0 1
-29.179195 -17.697916 -12.031455 36.185599 0.545204 1.909742 0.073315 -0.013546 389666.000000 0 0 1
-29.037895 -16.427216 -11.535855 35.300549 0.514829 1.903701 0.069190 -0.019523 -165941.000000 0 0 1
-27.789395 -16.214416 -10.934755 33.981269 0.528180 1.898413 0.054035 -0.019074 -102414.000000 0 0 1
-27.865495 -16.193916 -9.385955 33.568213 0.526441 1.854183 0.057824 -0.014580 -161727.000000 0 0 1
-28.211695 -17.445616 -8.903355 34.344126 0.553826 1.833031 0.055145 -0.010543 -27401.400000 0 0 1
-28.672495 -17.385116 -7.557955 34.372619 0.545064 1.792491 0.059873 -0.012024 -124235.000000 0 0 1
-29.120995 -18.829716 -7.136955 35.405179 0.573983 1.773766 0.046575 -0.014682 -276325.000000 0 0 1
-30.292595 -19.406816 -7.633955 36.776937 0.569771 1.779891 0.042563 -0.017271 -407821.000000 0 0 1
-30.221795 -19.853416 -8.966455 37.254696 0.581227 1.813863 0.044723 -0.016796 -157948.000000 0 0 1
-31.533095 -20.486116 -9.471955 38.778022 0.576143 1.817554 0.036107 -0.019227 -160739.000000 0 0 1
-32.604195 -19.611416 -9.700555 39.265022 0.541522 1.820434 0.039048 -0.020516 -14628.000000 0 0 1
-33.752695 -20.415216 -9.925355 40.676015 0.543976 1.817295 0.042864 -0.028144 1651080.000000 0 0 1
-35.094895 -19.676116 -10.440655 41.566916 0.510987 1.824692 0.038532 -0.038916 1460170.000000 0 0 1
-35.152695 -19.366816 -11.794355 41.831715 0.503560 1.856620 0.037266 -0.032901 770848.000000 0 0 1
34.182023 -19.095016 -12.113155 40.984861 -0.509443 1.870830 0.036798 -0.034781 626136.000000 0 0 1
33.925823 -18.811316 -13.602055 41.107700 -0.506279 1.908041 0.032996 -0.033678 -330942.000000 0 0 1
34.158023 -19.915116 -14.453655 42.098581 -0.527847 1.921255 0.038422 -0.033457 316866.000000 0 0 1
33.317823 -19.917416 -15.607455 41.837464 -0.538801 1.953090 0.028149 -0.028587 259237.000000 0 0 1
32.036423 -20.774416 -15.450255 41.190037 -0.575294 1.955298 0.033979 -0.027065 -1191940.000000 0 0 1
31.263623 -20.335116 -14.338555 39.956542 -0.576685 1.937836 0.035101 -0.026506 694673.000000 0 0 1
29.973823 -20.973216 -14.352755 39.297677 -0.610537 1.944678 0.031047 -0.019095 1031440.000000 0 0 1
28.984123 -20.679316 -15.538155 38.847751 -0.619709 1.982287 0.023887 -0.013427 -1224790.000000 0 0 1
28.618123 -19.310016 -15.718555 37.933450 -0.593576 1.998049 0.004055 -0.007663 513045.000000 0 0 1
27.993523 -19.122616 -17.013355 37.931069 -0.599299 2.035920 -0.005328 -0.004841 414745.000000 0 0 1
27.162923 -17.769816 -17.036055 36.658122 -0.579318 2.054124 -0.000375 0.003593 558009.000000 0 0 1
25.983223 -17.798616 -16.239255 35.434898 -0.600591 2.046860 0.004826 -0.003698 506858.000000 0 0 1
25.499123 -16.479516 -15.951455 34.296190 -0.573754 2.054554 0.000174 -0.002873 -1316130.000000 0 0 1
24.116023 -16.494716 -15.323255 32.991823 -0.599889 2.053817 0.001767 -0.006718 -200664.000000 0 0 1
22.995423 -16.921416 -16.084855 32.769595 -0.634390 2.083858 0.008139 -0.002306 646298.000000 0 0 1
22.681323 -16.041216 -17.163755 32.655130 -0.615571 2.124224 0.011720 0.002617 -1323180.000000 0 0 1
21.750723 -16.668516 -18.209755 32.901802 -0.653879 2.157306 0.004994 0.000302 539860.000000 0 0 1
20.439223 -16.885016 -17.674655 31.863130 -0.690459 2.158805 0.010622 0.001338 342821.000000 0 0 1
19.653323 -17.709116 -18.500055 32.281851 -0.733409 2.181055 0.016570 -0.000210 552713.000000 0 0 1
18.173823 -17.940216 -18.100555 31.301266 -0.778930 2.187402 0.009541 0.004836 750517.000000 0 0 1
17.348423 -16.775016 -17.986355 30.097806 -0.768596 2.211297 0.006080 0.003619 599065.000000 0 0 1
15.987323 -17.121516 -17.776055 29.406274 -0.819641 2.219933 0.012191 0.003530 970379.000000 0 0 1
14.956923 -15.926316 -17.636455 28.078491 -0.816777 2.249922 0.016352 0.007164 568329.000000 0 0 1
14.491723 -15.321916 -18.873155 28.301363 -0.813237 2.300789 0.016431 0.004576 395423.000000 0 0 1
13.268823 -14.657416 -18.583855 27.134133 -0.835081 2.325247 0.019795 0.003217 208609.000000 0 0 1
12.610523 -14.097016 -19.850055 27.418531 -0.840999 2.380329 0.027100 -0.000354 -259359.000000 0 0 1
13.115323 -12.881016 -20.235855 27.339022 -0.776385 2.404138 0.023091 -0.000896 563070.000000 0 0 1
12.238623 -12.204816 -21.201455 27.354033 -0.784015 2.457632 0.024632 -0.004053 394088.000000 0 0 1
12.768023 -10.758216 -21.487555 27.211700 -0.700177 2.481025 0.023514 0.001567 -900941.000000 0 0 1
13.813623 -10.723816 -22.381055 28.402958 -0.660135 2.478323 0.013229 0.007587 -660468.000000 0 0 1
14.370123 -9.426116 -22.538355 28.343069 -0.580548 2.490131 0.014574 0.009395 -823425.000000 0 0 1
15.604823 -9.296716 -23.359355 29.590520 -0.537295 2.480660 -0.008212 0.008636 -915205.000000 0 0 1
15.286923 -9.276216 -24.695855 30.489727 -0.545410 2.514902 -0.000118 0.009539 329909.000000 0 0 1
16.473423 -9.426216 -25.456835 31.753388 -0.519733 2.500938 -0.000229 0.002332 -114770.000000 0 0 1
22.129923 5.045584 -7.312855 23.846787 0.224166 1.882478 0.046263 0.021512 -427129.000000 0 1 0
22.235523 6.429984 -7.427955 24.309210 0.281497 1.881324 0.027546 0.015006 505749.000000 0 1 0
21.795323 6.986784 -6.245855 23.724712 0.310214 1.837200 0.019290 0.006350 -514556.000000 0 1 0
21.732023 8.531984 -6.113255 24.133948 0.374111 1.826892 0.033579 0.004818 -243689.000000 0 1 0
20.775623 9.027484 -7.065855 23.728638 0.409909 1.873160 0.055839 0.005813 959740.000000 0 1 0
20.601623 10.395584 -7.151355 24.158578 0.467321 1.871317 0.059303 0.011072 -10170.100000 0 1 0
19.795723 11.031184 -5.971955 23.435484 0.508393 1.828463 0.056261 0.007839 169116.000000 0 1 0
20.682723 11.172184 -4.864055 24.005244 0.495265 1.774834 0.050840 0.007928 1223840.000000 0 1 0
20.023423 11.992984 -3.860255 23.657360 0.539645 1.734703 0.064716 -0.000256 1020900.000000 0 1 0
21.032623 12.391784 -2.716555 24.562312 0.532418 1.681622 0.057888 -0.006622 941204.000000 0 1 0
22.197923 13.179984 -3.064455 25.997127 0.535810 1.688948 0.057827 -0.013407 1474920.000000 0 0 1
23.128323 13.409284 -2.015655 26.810279 0.525417 1.646050 0.056659 -0.014773 185051.000000 0 0 1
23.950123 12.250184 -1.453855 26.940473 0.472795 1.624788 0.043324 -0.018973 -1130230.000000 0 0 1
24.967423 11.809784 -2.321155 27.716979 0.441822 1.654639 0.020985 -0.009016 71162.000000 0 0 1
25.762523 10.876784 -1.614755 28.011059 0.399492 1.628475 0.032715 -0.017006 -130133.000000 0 0 1
27.147223 10.669084 -2.268455 29.256571 0.374465 1.648411 0.025748 -0.014777 -752642.000000 0 0 1
28.015423 11.730084 -2.181955 30.450282 0.396523 1.642514 0.030607 -0.020625 -1162410.000000 0 0 1
29.286423 11.181484 -2.052955 31.415518 0.364717 1.636191 0.041659 -0.019233 -1259340.000000 0 0 1
30.337123 12.229984 -1.810455 32.759598 0.383207 1.626089 0.026075 -0.012444 -970013.000000 0 0 1
30.125823 12.850684 -0.514255 32.756216 0.403197 1.586496 0.038719 -0.011871 496122.000000 0 0 1
31.020023 13.897084 -0.250055 33.991665 0.421193 1.578153 0.027562 -0.009951 -663524.000000 0 0 1
32.479823 13.628884 0.157545 35.223716 0.397297 1.566324 0.025297 -0.009571 150849.000000 0 0 1
33.292123 14.822184 0.017045 36.442597 0.418868 1.570329 0.017978 -0.006100 442399.000000 0 0 1
33.997723 14.944684 -1.200555 37.156830 0.414154 1.603112 0.020929 -0.010773 -352527.000000 0 0 1
33.407523 15.967884 -2.268755 37.096942 0.445871 1.631992 0.004725 -0.000312 -77260.900000 0 0 1
32.159523 15.603284 -2.777155 35.852614 0.451725 1.648334 0.017084 -0.004659 -471642.000000 0 0 1
31.678323 16.522884 -3.746455 35.924333 0.480765 1.675274 0.018061 0.005464 213471.000000 0 0 1
30.354723 16.013184 -4.376555 34.597478 0.485432 1.697635 0.024560 0.003222 -519666.000000 0 0 1
30.421123 14.832484 -5.097455 34.226179 0.453656 1.720287 0.019568 0.000759 251609.000000 0 0 1
29.229223 14.437084 -5.746655 33.102883 0.458777 1.745280 0.006021 0.003589 361366.000000 0 0 1
28.033923 13.909984 -4.872755 31.672262 0.460590 1.725259 0.006074 -0.011525 27920.400000 0 0 1
26.944123 13.688484 -5.723355 30.759017 0.470053 1.757958 0.005006 -0.006187 361974.000000 0 0 1
25.727423 13.257084 -5.105155 29.388997 0.475805 1.745392 0.014450 -0.002310 863306.000000 0 0 1
24.631323 12.944584 -6.178155 28.503226 0.483865 1.789283 0.021275 0.000694 -33381.200000 0 0 1
24.900523 11.877684 -7.030155 28.469957 0.445083 1.820310 0.009294 0.006202 469809.000000 0 0 1
23.932123 11.688884 -8.065355 27.828519 0.454339 1.864839 0.017272 0.006876 -138472.000000 0 0 1
24.029023 12.696984 -9.291755 28.721839 0.486110 1.900231 0.023443 0.014620 -193101.000000 0 0 1
23.397923 13.913084 -8.985255 28.666557 0.536461 1.889610 0.035179 0.004060 343739.000000 0 0 1
23.107523 14.634984 -10.153155 29.175793 0.564576 1.926232 0.026007 0.008322 -362168.000000 0 0 1
22.377923 16.002084 -9.955855 29.256745 0.620778 1.918024 0.023638 -0.003366 1193190.000000 0 0 1
21.001423 15.964784 -9.521955 28.046420 0.649982 1.917189 0.045726 0.004465 1087110.000000 0 0 1
20.786823 15.741684 -8.141755 27.316310 0.648151 1.873450 0.059332 -0.005155 456874.000000 0 0 1
19.497523 14.844484 -7.890455 25.744346 0.650727 1.882303 0.084639 0.002727 847986.000000 0 0 1
18.286723 15.577884 -7.954555 25.305131 0.705578 1.890564 0.075377 -0.006715 -64703.300000 0 0 1
17.192123 14.709784 -7.811655 23.936766 0.707743 1.903231 0.077381 -0.024667 -55094.400000 0 1 0
16.284223 15.083184 -6.622055 23.163116 0.747127 1.860729 0.076008 -0.007868 -178732.000000 0 1 0
16.940623 14.817684 -5.408755 23.147421 0.718651 1.806642 0.097017 -0.000841 281023.000000 0 1 0
16.114423 15.089084 -4.289855 22.489062 0.752550 1.762725 0.073328 0.004409 -56052.000000 0 1 0
15.702423 13.852084 -3.445655 21.220717 0.722872 1.733891 0.053649 0.015861 -737228.000000 0 1 0
16.785123 13.232084 -2.830155 21.560106 0.667580 1.702444 0.049536 0.013910 132997.000000 0 1 0
16.385223 12.422884 -1.679655 20.630676 0.648713 1.652302 0.030119 0.007886 79366.300000 0 1 0
16.334123 13.139384 -0.302055 20.965166 0.677426 1.585204 0.020262 0.000979 -344919.000000 0 1 0
15.395823 14.175484 -0.228255 20.929114 0.744154 1.581703 0.034000 -0.002485 189927.000000 0 1 0
15.532623 14.793284 1.052945 21.475854 0.761023 1.521747 0.027587 -0.002008 -700925.000000 0 1 0
14.438523 15.788784 1.422545 21.442487 0.830039 1.504405 0.038064 0.002421 -534080.000000 0 1 0
14.378723 16.927884 0.551145 22.217216 0.866645 1.545987 0.050693 -0.002762 551574.000000 0 1 0
13.482323 17.896684 1.127245 22.435129 0.925160 1.520531 0.042874 -0.012183 334896.000000 0 1 0
13.390023 19.239784 0.334745 23.442995 0.962790 1.556517 0.040108 -0.016029 -136002.000000 0 1 0
12.525123 19.203984 -0.765355 22.940302 0.992866 1.604165 0.037982 -0.020628 6531.710000 0 1 0
11.992723 20.506284 -1.077555 23.780122 1.041605 1.616125 0.041922 -0.029834 113979.000000 0 1 0
10.461623 20.655884 -1.033455 23.177125 1.101985 1.615401 0.033125 -0.025187 308956.000000 0 1 0
9.905323 20.514584 0.302645 22.782782 1.120968 1.557512 0.019199 -0.036302 53817.300000 0 1 0
8.502223 20.537784 0.378945 22.231328 1.178297 1.553750 0.012677 -0.022175 -72056.300000 0 1 0
7.861523 20.762684 1.729945 22.268482 1.208841 1.493032 0.006609 -0.018464 -335635.000000 0 1 0
7.945823 22.092584 2.152545 23.576510 1.225542 1.479369 0.003054 -0.010723 250026.000000 0 1 0
7.124123 22.153384 3.307545 23.504582 1.259659 1.429609 0.002327 -0.003238 80190.400000 0 1 0
6.818323 23.578784 3.833445 24.842380 1.289303 1.415867 0.003245 -0.002683 156190.000000 0 1 0
7.577023 23.954284 4.984545 25.613759 1.264443 1.374942 0.004873 -0.012072 191185.000000 0 0 1
7.138923 25.080684 5.632745 26.678319 1.293492 1.358060 0.000761 -0.004821 -548010.000000 0 0 1
7.881423 25.176084 6.927845 27.275393 1.267409 1.313987 -0.002730 -0.007655 -254674.000000 0 0 1
7.392023 24.159384 7.863645 26.460437 1.273872 1.269053 0.014676 -0.020897 333809.000000 0 0 1
8.097323 24.099084 9.087845 26.998544 1.246647 1.227487 0.014940 -0.028393 -470075.000000 0 0 1
7.489623 23.132484 10.137845 26.343541 1.257677 1.175770 0.016841 -0.024625 41529.300000 0 0 1
6.185523 23.517584 10.531245 26.499897 1.313604 1.162107 0.016269 -0.025302 48688.300000 0 0 1
5.569523 22.547484 11.354145 25.851987 1.328631 1.116090 0.020061 -0.017783 220559.000000 0 0 1
4.190523 22.999684 11.890945 26.228620 1.390574 1.100268 0.031543 -0.023765 43008.800000 0 0 1
3.212823 23.150884 10.895845 25.787692 1.432900 1.134571 0.029707 -0.021903 -463075.000000 0 0 1
1.960223 23.261584 11.539445 26.040402 1.486726 1.111702 0.031503 -0.022264 121567.000000 0 0 1
0.836923 23.795684 10.611045 26.067782 1.535640 1.151568 0.036549 -0.008378 -74752.100000 0 0 1
1.005223 25.129284 10.195545 27.137437 1.530816 1.185644 0.036839 -0.004122 -498975.000000 0 0 1
0.079123 25.516484 9.243345 27.139208 1.567695 1.223252 0.035862 -0.003823 708420.000000 0 0 1
-1.213877 26.236484 9.833445 28.045021 -1.524563 1.212552 0.029775 -0.010130 1344400.000000 0 0 1
-2.209077 25.335384 10.335145 27.451355 -1.483823 1.184792 0.024615 -0.005129 665030.000000 0 0 1
-3.463577 25.985484 10.537745 28.253952 -1.438288 1.188593 0.038045 -0.012118 186488.000000 0 0 1
-4.659777 25.070784 10.893945 27.729691 -1.387028 1.167054 0.039030 -0.006983 78169.300000 0 0 1
-4.845877 24.828584 12.269445 28.115483 -1.378046 1.119209 0.028965 -0.007611 373862.000000 0 0 1
-5.456677 25.958484 12.974045 29.528699 -1.363605 1.115898 0.033755 -0.005076 -15141.200000 0 0 1
-5.803077 25.682184 14.472145 30.044854 -1.348571 1.068220 0.021340 -0.014812 -439251.000000 0 0 1
-6.892977 24.849884 14.700845 29.684082 -1.300214 1.052681 0.024560 -0.006963 -360627.000000 0 0 1
-7.427177 24.959684 16.008345 30.568217 -1.281573 1.019617 0.014380 -0.001077 329830.000000 0 0 1
-8.686177 24.064184 16.222945 30.293870 -1.224392 1.005674 0.003980 -0.005483 227739.000000 0 0 1
-9.876277 24.601984 15.722445 30.821968 -1.189047 1.035489 -0.002965 -0.001270 -665526.000000 0 0 1
-10.978577 23.750384 15.922845 30.629183 -1.137803 1.024111 -0.006057 -0.002921 363237.000000 0 0 1
-12.289977 24.511684 15.554445 31.524704 -1.106035 1.054796 -0.004444 -0.002115 136200.000000 0 0 1
-12.721477 25.434784 16.524145 32.890904 -1.107020 1.044433 -0.005260 -0.008924 584512.000000 0 0 1
-13.786577 26.275184 16.025845 33.723622 -1.087585 1.075592 -0.001173 0.000534 377390.000000 0 0 1
-14.417677 27.232084 17.073745 35.227384 -1.083877 1.064808 0.008470 -0.003732 156550.000000 0 0 1
-15.435577 26.571484 17.824545 35.524853 -1.044534 1.045177 0.002412 -0.009433 231380.000000 0 0 1
-15.907077 27.345284 18.924345 36.863674 -1.043932 1.031701 0.019582 -0.007898 -40315.700000 0 0 1
-17.271577 26.775084 19.379645 37.293205 -0.997901 1.024348 0.011723 -0.021763 976207.000000 0 0 1
-18.390377 27.020584 18.481245 37.548293 -0.973205 1.056182 0.016430 -0.014798 709823.000000 0 0 1
-19.519977 26.305584 18.925945 37.831265 -0.932405 1.046883 0.019592 -0.014640 -103853.000000 0 0 1
-20.812177 26.591884 18.137545 38.330739 -0.906724 1.077893 0.010971 -0.015237 -379409.000000 0 0 1
-21.338877 27.935584 18.361545 39.659688 -0.918484 1.089445 0.012542 -0.015986 399356.000000 0 0 1
-21.548677 28.517184 17.102945 39.624311 -0.923696 1.124500 0.013698 -0.016475 -401200.000000 0 0 1
-22.464277 29.737484 17.052645 40.984807 -0.923836 1.141675 0.001389 -0.012706 -520814.000000 0 0 1
-23.802977 29.467184 17.338845 41.659719 -0.891330 1.141532 -0.003847 -0.012375 219800.000000 0 0 1
-24.659177 30.649384 17.324145 42.983552 -0.893283 1.155959 -0.004813 -0.004268 1130910.000000 0 0 1
-26.009387 30.336184 18.064945 43.853330 -0.862038 1.146214 -0.000962 -0.007438 319857.000000 0 0 1
-26.914367 29.522084 17.305545 43.536404 -0.831572 1.162010 0.011698 -0.004756 -200266.000000 0 0 1
-28.151677 29.478784 17.960245 44.543081 -0.808422 1.155774 0.033346 -0.010001 -425998.000000 0 0 1
-28.344977 28.351584 19.005645 44.367382 -0.785515 1.128108 0.023109 -0.007643 -762588.000000 0 0 1
-28.592987 27.113584 18.478845 43.522099 -0.758847 1.132292 0.019198 -0.008036 196575.000000 0 0 1
-28.825797 26.155384 19.428845 43.502997 -0.736867 1.107824 0.026795 -0.006602 -138109.000000 0 0 1
-28.828257 24.735984 18.770845 42.370767 -0.709147 1.111838 0.025337 -0.013634 711520.000000 0 0 1
-30.091277 24.425084 18.144045 42.793411 -0.681834 1.132948 0.028160 -0.014613 963296.000000 0 0 1
-29.903907 23.597084 17.013345 41.719539 -0.668057 1.150750 0.030588 -0.016030 -230762.000000 0 0 1
-30.257207 22.086884 17.164745 41.206280 -0.630559 1.141142 0.023129 -0.017210 -828999.000000 0 0 1
-31.580267 21.745984 16.940945 41.918930 -0.603030 1.154762 0.032130 -0.015686 -851052.000000 0 0 1
-31.721347 20.365384 16.944845 41.329415 -0.570737 1.148348 0.022391 -0.014828 -342935.000000 0 0 1
-33.041657 19.979284 16.269545 41.900131 -0.543846 1.172017 0.028208 -0.025194 -386883.000000 0 0 1
-33.127147 20.319784 14.912145 41.625396 -0.550205 1.204407 0.024310 -0.026387 455873.000000 0 0 1
-34.325189 19.824084 14.298745 42.138664 -0.523739 1.224596 0.039564 -0.026092 532287.000000 0 0 1
-34.635246 20.135884 12.815745 42.063017 -0.526608 1.261194 0.044196 -0.022334 -66182.000000 0 0 1
-34.760640 21.530684 12.625645 42.793450 -0.554561 1.271302 0.041192 -0.027807 -86937.700000 0 0 1
-34.918629 21.931884 11.294445 42.753745 -0.560815 1.303449 0.030761 -0.017875 18293.100000 0 0 1
-33.814767 21.656984 10.232445 41.438706 -0.569639 1.321286 0.026434 -0.018245 -188304.000000 0 0 1
-33.828807 20.333884 9.730645 40.651451 -0.541215 1.329082 0.011401 -0.011586 -372208.000000 0 0 1
-32.662977 19.937084 9.060445 39.324917 -0.548023 1.338308 0.016926 -0.009546 -423209.000000 0 0 1
-31.847097 18.979984 9.912445 38.376216 -0.537453 1.309538 0.007628 -0.006956 -424344.000000 0 0 1
-31.495877 19.494484 11.177745 38.690660 -0.554239 1.277718 0.008173 -0.010327 113362.000000 0 0 1
-30.941067 18.444484 11.925645 37.944297 -0.537559 1.251084 0.011196 -0.006058 -149541.000000 0 0 1
-30.367857 18.867984 13.264545 38.133394 -0.555945 1.215524 0.004028 -0.000942 518861.000000 0 0 1
-29.182957 19.673284 13.327145 37.633707 -0.593156 1.208815 0.017471 -0.003794 516014.000000 0 0 1
-29.500487 21.022784 13.429145 38.633899 -0.619149 1.215786 0.017981 -0.007239 -254445.000000 0 0 1
-28.273787 21.908184 13.619245 38.273482 -0.659222 1.206983 0.024832 -0.012967 -455425.000000 0 0 1
-27.800797 21.786384 14.944445 38.351888 -0.664698 1.170527 0.019968 -0.008818 -270419.000000 0 0 1
-26.622947 22.505584 15.187445 38.025532 -0.701786 1.159933 0.039236 -0.011369 -500092.000000 0 0 1
-26.060587 22.261184 16.571345 38.069988 -0.706932 1.120440 0.035207 -0.013122 -379287.000000 0 0 1
-25.455167 21.008484 16.821945 37.044565 -0.689986 1.099434 0.057924 -0.013285 62092.600000 0 0 1
-24.938177 21.000384 18.129545 37.304279 -0.699888 1.063300 0.040333 -0.002147 -400214.000000 0 0 1
-23.967477 19.832684 18.333845 36.109627 -0.691276 1.038252 0.048879 -0.003391 -272411.000000 0 0 1
-23.439577 19.894184 19.626245 36.474400 -0.703764 1.002635 0.049803 -0.005724 222060.000000 0 0 1
-22.484477 18.838484 19.803845 35.392548 -0.697394 0.976955 0.047718 -0.006396 307140.000000 0 0 1
-21.910777 18.868284 21.234145 35.874548 -0.710927 0.937382 0.047637 -0.018180 148816.000000 0 0 1
-22.705677 18.062684 22.109745 36.478064 -0.672000 0.919635 0.055379 -0.013594 408976.000000 0 0 1
-22.627677 18.551884 23.441045 37.492223 -0.686743 0.895378 0.061269 -0.021675 259816.000000 0 0 1
-23.510377 17.688284 24.419345 38.235031 -0.645010 0.878035 0.036010 -0.007961 299011.000000 0 0 1
-22.970677 16.443284 24.783145 37.579753 -0.621277 0.850668 0.048833 -0.024336 -132105.000000 0 0 1
-23.870077 15.695384 25.574945 38.343232 -0.581653 0.840621 0.041882 -0.023236 139113.000000 0 0 1
20.488323 25.579684 33.959004 47.194338 0.895470 0.767633 0.041644 -0.014790 112986.000000 0 0 1
20.824023 24.483184 33.121100 46.152719 0.865987 0.770387 0.047631 -0.019275 121750.000000 0 0 1
20.131023 23.367684 33.599169 45.609329 0.859670 0.742659 0.036144 -0.017887 3220.440000 0 0 1
19.093023 22.728784 32.622291 44.106179 0.872115 0.738275 0.041947 -0.016128 -15735.700000 0 0 1
19.694223 22.084084 31.498671 43.217305 0.842539 0.754164 0.043748 -0.005647 54349.900000 0 0 1
18.919823 21.021384 31.041341 41.993132 0.837966 0.738914 0.028551 -0.003568 -536715.000000 0 0 1
19.392423 20.429484 29.691491 40.926941 0.811435 0.759071 0.035702 0.003837 127392.000000 0 0 1
20.635723 19.730384 29.783901 41.257749 0.762974 0.764255 0.028682 0.000744 303176.000000 0 0 1
20.961123 18.961584 28.627541 40.229919 0.735355 0.779026 0.034301 -0.000308 -346759.000000 0 0 1
22.122423 18.001284 28.788431 40.524333 0.683046 0.780732 0.030147 0.008394 226939.000000 0 0 1
23.425023 18.600284 28.859741 41.564250 0.671093 0.803293 0.043129 -0.000666 584704.000000 0 0 1
24.284323 17.631084 29.476231 42.064613 0.627981 0.794366 0.033752 0.006507 466432.000000 0 0 1
25.747323 18.131184 29.671461 43.267309 0.613537 0.815134 0.041303 -0.006860 522144.000000 0 0 1
26.501823 18.047984 28.459581 42.872183 0.597866 0.844876 0.032600 0.006147 181260.000000 0 0 1
27.889523 18.093984 28.764521 43.961522 0.575513 0.857525 0.041903 -0.002855 121510.000000 0 0 1
28.795323 17.704484 27.607531 43.643958 0.551259 0.885939 0.043162 0.010359 -506065.000000 0 0 1
28.919923 18.744784 26.686511 43.587827 0.575082 0.911897 0.038411 0.014851 393897.000000 0 0 1
29.858823 18.307584 25.697241 43.440363 0.550024 0.937814 0.037105 0.017989 40644.800000 0 0 1
30.299523 19.462784 24.732851 43.687240 0.570976 0.968988 0.033179 0.010467 -486535.000000 0 0 1
29.274823 19.916084 23.911141 42.724797 0.597392 0.976827 0.037570 0.004613 -312845.000000 0 0 1
29.622223 21.013184 23.084841 43.034171 0.616988 1.004594 0.009505 -0.002008 -100197.000000 0 0 1
30.307323 20.749784 21.727741 42.675310 0.600347 1.036610 0.015154 0.003355 2833.630000 0 0 1
29.451623 19.908084 20.972341 41.274314 0.594408 1.037795 0.033404 -0.003928 360348.000000 0 0 1
30.005723 19.603584 19.693241 40.895814 0.578711 1.068378 0.027279 -0.006945 453871.000000 0 0 1
31.117623 18.504784 19.772941 41.251699 0.536493 1.070912 0.025423 -0.016354 551102.000000 0 0 1
30.511423 17.236284 20.041941 40.369738 0.514220 1.051281 0.023143 -0.014163 331024.000000 0 0 1
31.563823 16.337084 20.128941 40.845434 0.477620 1.055483 0.018227 -0.007266 -562003.000000 0 0 1
31.026023 14.895284 20.360141 39.987734 0.447593 1.036588 0.015646 -0.014852 173005.000000 0 0 1
30.421223 14.533084 21.572341 40.025332 0.445672 1.001586 0.014175 -0.020051 1122320.000000 0 0 1
29.055523 14.965084 21.732941 39.249176 0.475616 0.983975 0.015657 -0.012649 738847.000000 0 0 1
28.313523 14.525984 23.035041 39.284512 0.474025 0.944233 0.008762 -0.018749 131229.000000 0 0 1
27.961923 13.169084 23.134041 38.606706 0.440151 0.928266 0.013640 -0.017104 -297038.000000 0 0 1
27.142023 12.932184 24.217001 38.605620 0.444642 0.892725 0.015509 -0.004935 -229172.000000 0 0 1
26.676623 11.429984 24.236671 37.811413 0.404801 0.875011 0.021966 -0.001744 290195.000000 0 0 1
25.822523 11.074284 23.130941 36.393445 0.405137 0.882037 0.044712 0.005296 387259.000000 0 0 1
25.377023 9.741584 23.277041 35.787042 0.366528 0.862643 0.031476 0.006402 -323930.000000 0 0 1
24.260823 9.361884 22.309441 34.262859 0.368279 0.861729 0.025234 -0.008836 19572.800000 0 0 1
22.973423 9.901584 22.612541 33.721603 0.406943 0.835826 0.023847 0.000061 556846.000000 0 0 1
22.068023 9.389884 21.643541 32.304959 0.402292 0.836620 0.030234 0.007143 1060040.000000 0 0 1
20.549323 9.583684 22.055541 31.631765 0.436387 0.799229 0.018170 0.004242 1053210.000000 0 0 1
20.109023 8.781984 23.128141 31.881138 0.411754 0.759110 0.027138 -0.000516 251420.000000 0 0 1
18.709423 8.891284 23.294341 31.172484 0.443636 0.726848 0.034565 -0.003177 143493.000000 0 0 1
18.250423 8.300284 24.709191 31.820068 0.426838 0.681659 0.025018 -0.000096 -276046.000000 0 0 1
18.319023 6.897884 24.681031 31.501122 0.360122 0.670523 0.023884 0.000327 288670.000000 0 0 1
17.921623 6.432384 25.967981 32.200872 0.344597 0.632694 0.011471 0.000163 -314627.000000 0 0 1
18.029423 4.912884 26.149601 32.140288 0.266034 0.620465 0.016588 -0.010013 290843.000000 0 0 1
19.409023 4.543784 26.145061 32.877353 0.229965 0.651409 0.027735 -0.012590 504270.000000 0 0 1
19.650723 3.160384 25.983771 32.730647 0.159462 0.653655 0.029288 -0.010539 607876.000000 0 0 1
21.127523 2.697784 25.754301 33.420566 0.127003 0.690995 0.045225 -0.016857 1074420.000000 0 0 1
22.072223 2.935584 26.822031 34.860035 0.132223 0.692863 0.049779 -0.026395 1508100.000000 0 0 1
23.419723 2.865984 26.301011 35.333277 0.121769 0.731206 0.057305 -0.027790 1201950.000000 0 0 1
24.474023 3.259684 27.381261 36.869185 0.132410 0.733763 0.047290 -0.031653 -572225.000000 0 0 1
24.559123 2.330484 28.503391 37.696485 0.094609 0.713419 0.048789 -0.031758 779441.000000 0 0 1
25.563123 2.704084 29.470291 39.106053 0.105389 0.717276 0.042348 -0.025632 867798.000000 0 0 1
27.057323 2.791084 29.098871 39.832564 0.102791 0.751699 0.047184 -0.030030 -752446.000000 0 0 1
27.488823 4.038684 28.425391 39.748575 0.145877 0.773987 0.040527 -0.024854 773097.000000 0 0 1
28.850423 4.038684 27.992361 40.400868 0.139083 0.805341 0.045219 -0.021694 579275.000000 0 0 1
29.260623 3.001984 26.928821 39.879285 0.102237 0.829481 0.034664 -0.009822 -624903.000000 0 0 1
28.769023 3.353884 25.654001 38.691510 0.116056 0.845924 0.025010 -0.007513 -109408.000000 0 0 1
28.788223 2.244484 24.792401 38.058673 0.077808 0.861334 0.021728 0.004448 -582977.000000 0 0 1
28.400823 2.419984 23.307641 36.819956 0.085003 0.885353 0.030188 0.000987 -80813.400000 0 0 1
29.077323 3.498884 22.661941 37.031020 0.119755 0.912245 0.022993 0.006148 1313990.000000 0 0 1
30.535023 3.414484 22.625241 38.156884 0.111359 0.936075 0.011971 0.012090 1314850.000000 0 0 1
31.139623 4.701784 22.042641 38.440355 0.149858 0.960117 0.021980 0.009522 -674447.000000 0 0 1
30.995823 4.762984 20.653441 37.549856 0.152473 0.988400 0.019878 0.001597 407435.000000 0 0 1
31.615823 5.988984 20.124541 37.952935 0.187212 1.011901 0.025113 0.007910 2035960.000000 0 0 1
33.221423 6.074284 20.085141 39.293418 0.180845 1.034265 0.027866 0.002171 1199980.000000 0 0 1
33.819823 6.107084 21.323441 40.444604 0.178652 1.015464 0.033005 -0.001581 -305733.000000 0 0 1
33.710423 7.324784 22.073341 40.954578 0.213960 1.001581 0.035259 -0.002296 -403039.000000 0 0 1
34.450123 7.344284 23.447041 42.314456 0.210042 0.983498 0.041867 -0.001371 233066.000000 0 0 1
33.776623 6.465784 24.347071 42.136047 0.189140 0.954741 0.036967 0.004587 299615.000000 0 0 1
34.537223 6.263984 25.499311 43.385160 0.179419 0.942530 0.038018 0.000706 -59378.800000 0 0 1
33.870223 5.239084 26.413461 43.270208 0.153465 0.914192 0.029475 0.001280 24892.500000 0 0 1
33.754523 3.974884 25.826541 42.686974 0.117219 0.921003 0.027253 0.001926 -43517.400000 0 0 1
33.169223 3.047584 26.684751 42.679750 0.091623 0.895367 0.021049 0.006666 -274362.000000 0 0 1
33.278823 1.605484 26.237941 42.408574 0.048206 0.903717 0.013507 0.012892 317784.000000 0 0 1
32.274223 1.236284 25.282421 41.016517 0.038287 0.906639 0.012310 0.010008 314346.000000 0 0 1
32.453123 -0.110616 24.911081 40.911849 -0.003408 0.916128 0.013318 0.012092 -304908.000000 0 0 1
31.464223 -0.728316 23.934241 39.539545 -0.023143 0.920623 0.011018 0.023624 -353343.000000 0 0 1
30.201923 -1.095816 24.445211 38.870622 -0.036267 0.890676 0.019182 0.017023 -253603.000000 0 0 1
29.516223 -1.692016 23.347841 37.672165 -0.057262 0.902355 0.023433 0.012486 730866.000000 0 0 1
27.963723 -1.797716 23.521641 36.585095 -0.064199 0.872479 0.031314 0.023487 585960.000000 0 0 1
27.317823 -0.559516 23.444741 36.003227 -0.020479 0.861652 0.025106 0.014282 -495558.000000 0 0 1
25.927123 -0.680916 23.603641 35.068664 -0.026257 0.832445 0.034131 0.011625 -189349.000000 0 0 1
25.259823 0.693184 23.726341 34.662348 0.027435 0.816880 0.036058 0.008748 -423147.000000 0 0 1
25.326423 1.513384 22.580641 33.964737 0.059684 0.843535 0.032367 -0.001071 319492.000000 0 0 1
24.328523 2.535884 22.622641 33.318037 0.103860 0.824409 0.039709 -0.006913 178849.000000 0 0 1
24.213223 3.374784 21.295041 32.421414 0.138486 0.854202 0.026092 -0.008727 -243069.000000 0 0 1
23.511623 2.846884 20.205341 31.131286 0.120498 0.864479 0.019396 -0.001947 210785.000000 0 0 1
23.031523 3.843884 19.327941 30.311644 0.165372 0.879365 0.029836 0.002408 20295.000000 0 0 1
22.822823 3.308284 17.890541 29.187282 0.143952 0.910999 0.028966 -0.001138 911807.000000 0 0 1
24.067023 3.324684 17.139841 29.732966 0.137274 0.956408 0.036778 -0.011683 1169160.000000 0 0 1
23.897523 3.567284 15.756841 28.846059 0.148180 0.992929 0.027223 -0.004517 -411353.000000 0 0 1
23.559923 2.356284 14.885741 27.967969 0.099681 1.009549 0.031575 0.001994 -122341.000000 0 0 1
22.174223 2.109584 14.945841 26.823957 0.094851 0.979807 0.029913 0.006254 119106.000000 0 0 1
21.800123 1.097684 14.065641 25.967143 0.050310 0.998373 0.024532 0.002250 369679.000000 0 0 1
20.279023 0.716884 14.037241 24.673808 0.035336 0.965613 0.033696 -0.006885 542667.000000 0 1 0
19.431823 1.357184 13.080841 23.463718 0.069730 0.979434 0.050919 -0.009398 716346.000000 0 1 0
19.512223 0.999884 11.703141 22.774769 0.051199 1.031113 0.055910 -0.013968 -886892.000000 0 1 0
19.076623 -0.453116 11.247541 22.150170 -0.023748 1.038184 0.044793 -0.010360 771311.000000 0 1 0
20.149223 -1.401916 11.455041 23.220131 -0.069465 1.054890 0.056749 -0.021848 1845050.000000 0 1 0
21.351723 -1.210616 10.669541 23.899807 -0.056638 1.108027 0.054972 -0.018665 285486.000000 0 1 0
22.448323 -2.169616 11.163441 25.164595 -0.096350 1.111166 0.057614 -0.020313 -238684.000000 0 0 1
22.969323 -1.878016 12.464141 26.200602 -0.081580 1.075014 0.056902 -0.018466 274357.000000 0 0 1
23.856823 -2.886716 12.922341 27.284941 -0.120416 1.077415 0.032003 -0.004989 -234953.000000 0 0 1
24.352923 -2.500616 14.328541 28.365913 -0.102324 1.041261 0.037378 -0.006033 -77560.700000 0 0 1
25.454423 -1.626216 14.428641 29.304571 -0.063801 1.055988 0.027519 -0.003427 -16070.200000 0 0 1
25.534023 -1.075116 15.714941 30.001693 -0.042080 1.019488 0.029831 -0.003396 -138715.000000 0 0 1
26.758323 -0.179616 15.971541 31.162962 -0.006712 1.032683 0.035097 -0.000538 -323862.000000 0 0 1
27.954423 -0.913816 15.983241 32.214109 -0.032678 1.051630 0.039771 -0.005290 -360249.000000 0 0 1
29.041123 -0.007716 16.064041 33.187954 -0.000266 1.065539 0.040886 -0.000280 -613572.000000 0 0 1
30.349523 -0.740416 16.288241 34.452119 -0.024391 1.078354 0.033257 -0.001488 -684657.000000 0 0 1
30.754523 -1.560116 15.248741 34.362752 -0.050685 1.111009 0.037904 0.005332 252388.000000 0 0 1
32.138323 -1.867116 15.220341 35.609222 -0.058031 1.129152 0.021571 -0.001858 220024.000000 0 0 1
32.669023 -2.395916 13.870241 35.572307 -0.073208 1.170255 0.026759 -0.000357 -95652.200000 0 0 1
32.728223 -1.385116 12.878041 35.197998 -0.042297 1.196224 0.024598 0.003400 197907.000000 0 0 1
33.138123 -1.925016 11.672141 35.186357 -0.058025 1.232666 0.026024 -0.000865 -277752.000000 0 0 1
32.420723 -1.171516 10.528541 34.107563 -0.036119 1.256985 0.036890 0.005064 -83835.100000 0 0 1
32.940223 0.088084 10.195341 34.482039 0.002674 1.270638 0.034147 0.006498 645595.000000 0 0 1
31.877023 0.736884 9.530241 33.279319 0.023112 1.280359 0.034711 -0.000179 77067.800000 0 0 1
32.299123 2.016284 8.790941 33.534749 0.062344 1.305553 0.032430 0.002792 192994.000000 0 0 1
33.078923 1.789484 7.593941 33.986546 0.054045 1.345454 0.033505 -0.001323 579411.000000 0 0 1
33.527923 3.061384 7.212941 34.431384 0.091056 1.359746 0.024787 -0.001503 -222806.000000 0 0 1
34.184823 3.078584 5.835341 34.815671 0.089815 1.402395 0.007581 -0.000964 -331618.000000 0 0 1
34.721523 4.307384 5.431341 35.406739 0.123425 1.416790 0.013522 0.003337 95612.000000 0 0 1
35.174723 4.184684 4.144141 35.664360 0.118412 1.454335 0.006820 -0.018935 -247028.000000 0 0 1
-34.933795 5.518584 3.549941 35.544717 -0.156678 1.470757 0.007351 -0.016925 749729.000000 0 0 1
34.797723 6.595184 3.415541 35.581510 0.187307 1.474656 0.024240 -0.017912 674798.000000 0 0 1
-35.295395 7.758484 2.988241 36.261393 -0.216375 1.488294 0.012794 -0.011686 -416955.000000 0 0 1
34.343923 8.894384 2.904141 35.595633 0.253412 1.489119 0.054616 0.008294 1061210.000000 0 0 1
33.224923 8.801884 2.021441 34.430435 0.258969 1.512052 0.065896 -0.014733 965873.000000 0 0 1
32.300023 7.756284 2.305641 33.298159 0.235670 1.501499 0.057243 -0.020797 -604105.000000 0 0 1
30.907623 7.787784 1.650241 31.916360 0.246832 1.519068 0.094104 -0.025018 100149.000000 0 0 1
30.994123 7.522084 0.274641 31.895028 0.238091 1.562185 0.091391 -0.028840 908350.000000 0 0 1
29.709923 7.427784 -0.363259 30.626515 0.244988 1.582658 0.097548 -0.033451 350716.000000 0 0 1
29.866123 7.267284 -1.920959 30.797545 0.238690 1.633211 0.078549 -0.024773 -203739.000000 0 0 1
28.744323 6.736484 -2.644859 29.641383 0.230204 1.660144 0.056736 -0.019816 1055200.000000 0 0 1
29.041623 6.683684 -4.047859 30.074452 0.226203 1.705801 0.068702 -0.018652 -558314.000000 0 0 1
28.010123 5.941984 -4.889259 29.047874 0.209038 1.739919 0.042431 -0.004251 -679527.000000 0 0 1
27.894623 4.597484 -4.614059 28.645006 0.163348 1.732578 0.047005 -0.007647 270006.000000 0 0 1
26.806423 4.065184 -5.299759 27.626029 0.150503 1.763832 0.025194 -0.009043 -668469.000000 0 0 1
26.709923 2.523184 -5.280659 27.343588 0.094187 1.765140 0.029756 -0.001185 -343471.000000 0 0 1
26.400823 1.954884 -3.986759 26.771613 0.073911 1.720270 0.011697 -0.006033 570119.000000 0 0 1
26.326423 0.530184 -4.110559 26.650672 0.020136 1.725653 0.007550 -0.003236 -196060.000000 0 0 1
26.374323 -0.044616 -2.701559 26.512361 -0.001692 1.672872 -0.003873 0.004546 -720413.000000 0 0 1
27.576823 0.185084 -2.041159 27.652879 0.006711 1.644677 0.032673 -0.010012 -255175.000000 0 0 1
27.619423 0.042984 -0.658359 27.627302 0.001556 1.594629 0.031880 -0.007405 -833917.000000 0 0 1
28.931123 0.523984 -0.036359 28.935890 0.018109 1.572053 0.060498 -0.015456 -487464.000000 0 0 1
29.942523 -0.393616 -0.397459 29.947747 -0.013145 1.584068 0.061826 -0.018232 40748.600000 0 0 1
31.190423 0.107784 0.052641 31.190653 0.003456 1.569109 0.050839 -0.026150 -258099.000000 0 0 1
-3.080277 -21.462316 -8.729955 23.373730 1.428249 1.953569 -0.005309 0.024723 204056.000000 0 1 0
-3.520077 -21.979516 -7.498655 23.488719 1.411992 1.895729 -0.000315 0.015451 -524693.000000 0 1 0
-2.690377 -22.980016 -7.018955 24.178193 1.454252 1.865338 0.003614 0.006860 -253706.000000 0 1 0
-3.347477 -23.657916 -5.797555 24.586872 1.430234 1.808837 0.002977 0.007028 -392440.000000 0 1 0
-3.235677 -22.808916 -4.693955 23.510625 1.429876 1.771800 0.002775 0.004747 -108163.000000 0 1 0
-3.753777 -23.401216 -3.507855 23.958565 1.411742 1.717738 0.003990 0.002400 -217920.000000 0 1 0
-3.413577 -22.700416 -2.195255 23.060368 1.421540 1.666137 0.001806 -0.008601 125989.000000 0 1 0
-2.019077 -22.802816 -1.961855 22.975943 1.482482 1.656288 0.014806 -0.007621 -671423.000000 0 1 0
-1.741077 -22.554616 -0.573555 22.628987 1.493755 1.596145 0.022125 -0.014319 610808.000000 0 1 0
-0.236177 -22.721516 -0.185855 22.723504 1.560402 1.578975 0.027123 -0.014093 441822.000000 0 1 0
0.452423 -21.574116 -0.661855 21.589007 -1.549829 1.601458 0.015766 -0.015845 505764.000000 0 1 0
1.716423 -21.420816 0.019845 21.489483 -1.490838 1.569873 0.018207 -0.014042 980781.000000 0 1 0
2.625823 -20.217816 -0.326655 20.390236 -1.441643 1.586817 0.023650 -0.017198 444503.000000 0 1 0
3.275823 -20.408116 -1.578555 20.729546 -1.411638 1.647020 0.021967 -0.015945 -635615.000000 0 1 0
4.228923 -19.437516 -1.865255 19.979490 -1.356570 1.664291 0.020322 -0.020041 -509649.000000 0 1 0
5.015823 -19.841016 -3.129955 20.703165 -1.323183 1.722561 0.020687 -0.011197 -701536.000000 0 1 0
5.989123 -20.830716 -2.803355 21.855140 -1.290834 1.699421 0.024447 -0.013530 22850.900000 0 1 0
6.597223 -21.537916 -3.867355 22.855232 -1.273563 1.740825 0.021044 -0.007315 -479987.000000 0 1 0
7.779123 -21.034816 -4.649255 22.904013 -1.216574 1.775205 0.024054 0.002605 -773933.000000 0 1 0
7.625523 -19.807116 -5.359055 21.890407 -1.203297 1.818123 0.014680 -0.002216 595688.000000 0 1 0
8.843723 -19.482316 -6.058655 22.236892 -1.144674 1.846745 0.017417 0.003567 377691.000000 0 1 0
8.643623 -18.144616 -6.778255 21.210470 -1.126228 1.896073 0.010177 0.001312 95362.500000 0 1 0
9.696323 -17.864916 -7.712455 21.740650 -1.073530 1.933441 0.018056 0.004387 630151.000000 0 1 0
9.571623 -16.647516 -8.384955 20.953836 -1.048994 1.982491 0.016488 0.001908 -99035.600000 0 1 0
10.093223 -16.633116 -9.813055 21.790589 -1.025381 2.037936 0.010094 0.004731 -280162.000000 0 1 0
9.262823 -17.285316 -10.752255 22.364996 -1.078860 2.072321 0.005418 0.002808 82003.900000 0 1 0
9.097623 -16.486216 -11.935855 22.294096 -1.066548 2.135756 0.002225 0.005423 -37325.300000 0 1 0
8.567123 -17.378316 -13.045255 23.357657 -1.112782 2.163373 0.002091 0.008187 -544181.000000 0 1 0
7.248923 -17.799616 -12.926155 23.161578 -1.184054 2.162874 0.002274 0.009728 -281215.000000 0 1 0
6.739523 -18.250916 -14.195055 24.083536 -1.217058 2.201124 -0.002542 0.014034 339567.000000 0 1 0
5.444823 -19.106116 -14.101455 24.362693 -1.293178 2.188069 -0.001013 0.017037 -37779.500000 0 1 0
5.562023 -20.352816 -13.483355 25.039451 -1.304030 2.139434 0.000619 0.012481 -539206.000000 0 0 1
4.356123 -21.030816 -13.295855 25.259667 -1.366554 2.125118 0.006590 0.004870 -548775.000000 0 0 1
4.558823 -22.497716 -12.883355 26.323202 -1.370868 2.082232 -0.000002 0.009326 117258.000000 0 0 1
5.103823 -23.357816 -13.946955 27.679490 -1.355672 2.098873 0.005476 0.007384 73663.700000 0 0 1
4.826023 -24.743616 -13.904855 28.790311 -1.378173 2.074840 -0.003487 0.010843 179201.000000 0 0 1
3.398923 -25.155826 -14.381355 29.175189 -1.436495 2.086252 0.003562 0.003676 640680.000000 0 0 1
2.385223 -24.577316 -13.533955 28.158510 -1.474050 2.072175 0.008492 0.005940 1230910.000000 0 0 1
1.027523 -24.981936 -13.856055 28.585717 -1.529689 2.076839 0.010639 0.000987 1235040.000000 0 0 1
0.541423 -26.363686 -13.271855 29.520827 -1.550263 2.037087 0.005954 0.005710 -654858.000000 0 0 1
1.027123 -27.513956 -13.977855 30.878038 -1.533483 2.040564 0.004386 0.008749 256608.000000 0 0 1
0.516523 -28.739476 -13.433655 31.728337 -1.552826 2.007987 -0.002577 0.015100 170110.000000 0 0 1
-0.952277 -29.151206 -13.653255 32.204208 1.538141 2.008608 0.001377 0.006168 358328.000000 0 0 1
-2.015577 -28.504656 -12.974255 31.383264 1.500203 1.996996 0.000297 0.002466 -10524.300000 0 0 1
-3.229877 -29.191586 -13.171455 32.188011 1.460600 1.992378 0.003857 -0.009988 176305.000000 0 0 1
-4.477977 -28.385726 -12.660455 31.402052 1.414331 1.985778 -0.002628 -0.006857 317381.000000 0 0 1
-4.711877 -28.285986 -11.253155 30.804745 1.405732 1.944758 0.003956 -0.018292 -45830.700000 0 0 1
-5.152377 -29.521986 -10.716655 31.826740 1.398010 1.914226 -0.003781 -0.014168 -755283.000000 0 0 1
-5.641077 -29.372866 -9.241155 31.304728 1.381056 1.870461 0.006930 -0.018132 479066.000000 0 0 1
-7.001077 -29.025146 -8.962455 31.173704 1.334110 1.862412 0.014283 -0.019440 413967.000000 0 0 1
-7.359377 -27.667126 -9.276955 30.094721 1.310819 1.884158 0.009726 -0.014928 -455922.000000 0 0 1
-8.836577 -27.370976 -8.871755 30.099227 1.258515 1.869990 0.010812 -0.006480 1047550.000000 0 0 1
-9.827477 -27.804816 -9.840155 31.088837 1.231056 1.892852 0.003122 -0.010056 371557.000000 0 0 1
-9.893077 -29.202296 -10.174555 32.467964 1.244154 1.889538 0.014777 -0.025222 -767763.000000 0 0 1
-11.062877 -29.585106 -11.124755 33.487698 1.212961 1.909436 0.014629 -0.017769 -72964.400000 0 0 1
-11.020277 -28.766356 -12.268255 33.158104 1.204947 1.949797 0.017778 -0.015834 31083.100000 0 0 1
-11.931177 -29.186346 -13.246755 34.200473 1.182733 1.968526 0.023141 -0.017377 -337809.000000 0 0 1
-12.028777 -28.251926 -14.463955 33.942139 1.168275 2.011013 0.024767 -0.015223 -210060.000000 0 0 1
-13.030077 -27.234406 -14.497255 33.491286 1.124544 2.018467 0.024053 -0.019614 268514.000000 0 0 1
-12.929977 -26.211526 -13.491155 32.190677 1.112528 2.003252 0.028278 -0.007214 187186.000000 0 0 1
-13.882077 -24.988606 -13.806555 31.745291 1.063713 2.020742 0.044923 -0.003416 42113.900000 0 0 1
-13.439277 -24.175916 -14.889955 31.413371 1.063438 2.064625 0.041726 -0.006068 -679068.000000 0 0 1
-14.297777 -23.164816 -15.235255 31.195323 1.017812 2.081032 0.054739 -0.005577 -909091.000000 0 0 1
-14.124677 -22.558416 -16.640855 31.389596 1.011379 2.129561 0.042456 -0.005389 -547066.000000 0 0 1
-13.029777 -21.705516 -16.679355 30.316751 1.030158 2.153364 0.039527 -0.001165 -276873.000000 0 0 1
-12.941377 -20.887116 -17.796055 30.338926 1.016099 2.197620 0.025424 0.003449 -367938.000000 0 0 1
-13.044377 -19.358716 -17.544455 29.201431 0.977855 2.215308 0.023394 0.001285 -989277.000000 0 0 1
-11.963777 -18.604116 -17.160855 27.995358 0.999307 2.230635 0.028307 0.002677 -943529.000000 0 0 1
-12.115377 -17.264616 -17.541455 27.432681 0.958899 2.264561 0.029999 0.005323 624161.000000 0 0 1
-10.857377 -16.311316 -17.604755 26.341395 0.983509 2.302758 0.034871 -0.007152 474993.000000 0 0 1
-10.152377 -15.988816 -16.445655 25.083313 1.005062 2.285828 0.039681 -0.007861 -341913.000000 0 0 1
-9.023777 -15.260316 -16.807755 24.429622 1.036781 2.329536 0.038303 -0.008394 -1347540.000000 0 1 0
-8.263477 -14.515716 -15.706155 22.927590 1.053273 2.325445 0.036413 -0.010560 2601.530000 0 1 0
-7.735877 -15.346716 -14.652255 22.584377 1.103895 2.276774 0.031040 -0.008404 722407.000000 0 1 0
-6.759677 -16.338116 -15.046455 23.216871 1.178504 2.275861 0.029799 -0.003398 -343512.000000 0 1 0
-6.267377 -17.073416 -13.789355 22.823844 1.218984 2.219513 0.021237 -0.005250 -1070760.000000 0 1 0
-5.548877 -16.303716 -12.906055 21.521326 1.242749 2.213906 0.013964 -0.007787 -118453.000000 0 1 0
-5.451277 -17.085416 -11.705955 21.416285 1.261946 2.149085 0.009249 -0.006824 5179.730000 0 1 0
-4.425077 -18.270516 -11.634655 22.107878 1.333174 2.125001 0.014318 -0.003512 637436.000000 0 1 0
-3.089477 -17.745416 -11.793655 21.529862 1.398424 2.150506 0.007261 -0.003349 135967.000000 0 1 0
-2.181177 -18.814816 -11.663955 22.244161 1.455383 2.122760 -0.003510 0.005196 928221.000000 0 1 0
-0.735177 -18.504616 -12.197755 22.175359 1.531088 2.153231 -0.000762 0.012696 112716.000000 0 1 0
-0.749577 -18.279116 -13.618255 22.806684 1.529812 2.210698 0.006628 0.007086 125109.000000 0 1 0
0.460823 -17.655116 -14.057555 22.572779 -1.544701 2.243069 0.004609 0.001736 930248.000000 0 1 0
1.730423 -18.564716 -14.139055 23.399913 -1.477855 2.219602 0.011965 -0.000376 -448584.000000 0 1 0
1.747223 -19.577216 -15.132755 24.805654 -1.481784 2.226923 0.029155 -0.000817 -299.431000 0 1 0
0.991923 -20.743416 -14.884855 25.550580 -1.523014 2.192676 0.024439 0.000625 -704650.000000 0 0 1
0.957123 -21.652616 -16.113155 27.007141 -1.526622 2.210086 0.033189 -0.001400 363046.000000 0 0 1
2.156823 -22.388416 -16.385755 27.827793 -1.474756 2.200403 0.020872 0.001100 592012.000000 0 0 1
3.113923 -21.597916 -17.097155 27.721458 -1.427606 2.235401 0.018794 0.005088 540342.000000 0 0 1
4.563923 -22.191416 -17.172155 28.428353 -1.367963 2.219370 0.019941 0.000162 498499.000000 0 0 1
4.677623 -23.477316 -17.748955 29.800838 -1.374132 2.208791 0.025217 -0.003322 247142.000000 0 0 1
6.018423 -23.793416 -18.108055 30.499996 -1.323048 2.206454 0.017697 -0.009056 357746.000000 0 0 1
6.334723 -23.548216 -19.601755 31.286994 -1.308007 2.247869 0.028431 -0.004366 -668867.000000 0 0 1
6.441423 -22.170316 -19.975955 30.529553 -1.288038 2.284073 0.030800 -0.020844 137931.000000 0 0 1
6.785623 -22.122416 -21.348055 31.483098 -1.273176 2.315943 0.031017 -0.015659 -296611.000000 0 0 1
7.050323 -20.659616 -21.727655 30.799639 -1.241928 2.353856 0.030268 -0.019001 -62352.500000 0 0 1
5.858423 -19.994816 -22.056455 30.341407 -1.285777 2.384655 0.044287 -0.028217 23464.800000 0 0 1
6.145423 -18.693716 -22.607755 29.972184 -1.253183 2.425370 0.049329 -0.030577 233285.000000 0 0 1
4.840023 -17.925216 -22.928955 29.503833 -1.307073 2.460923 0.047834 -0.030393 -866467.000000 0 0 1
4.121423 -18.453316 -24.010155 30.561390 -1.351059 2.474521 0.051623 -0.029999 127087.000000 0 0 1
3.111223 -17.584916 -24.528755 30.340877 -1.395683 2.512292 0.041714 -0.020688 -111596.000000 0 0 1
1.834723 -17.580916 -23.723955 29.585146 -1.466814 2.501244 0.033589 -0.009357 -1479670.000000 0 0 1
1.976923 -16.687816 -22.590955 28.155687 -1.452881 2.502033 0.035492 -0.013588 -305309.000000 0 0 1
0.795623 -16.023516 -22.206755 27.395731 -1.521184 2.515958 0.026627 -0.010242 -118827.000000 0 0 1
1.080023 -15.236416 -20.936255 25.916049 -1.500030 2.511290 0.015058 -0.007739 -291224.000000 0 0 1
2.129123 -14.317616 -21.029755 25.529941 -1.423172 2.538753 0.010627 -0.005013 -413694.000000 0 0 1
2.128923 -13.448116 -19.897155 24.109768 -1.413793 2.541483 0.004199 -0.005597 -231989.000000 0 1 0
3.391923 -12.593816 -19.971255 23.852890 -1.307707 2.563063 0.007759 -0.004767 -1335040.000000 0 1 0
4.534223 -13.267116 -19.530255 24.041764 -1.241477 2.518962 0.013874 -0.006356 349242.000000 0 1 0
5.676623 -12.345416 -19.561355 23.817640 -1.139809 2.534477 0.020523 -0.010319 1068930.000000 0 1 0
5.701123 -11.354216 -18.379955 22.343764 -1.105458 2.536763 0.028538 -0.007740 -760000.000000 0 1 0
4.763823 -10.273916 -18.344655 21.558612 -1.136623 2.588531 0.007932 0.005136 -54152.100000 0 1 0
5.043423 -9.075016 -19.104355 21.743238 -1.063551 2.643791 0.017543 -0.004746 -372111.000000 0 1 0
4.656723 -9.115416 -20.626855 23.027007 -1.098497 2.680952 0.023046 -0.006357 -181457.000000 0 1 0
3.260323 -9.129816 -20.816155 22.962917 -1.227804 2.705743 0.005388 -0.006073 -377924.000000 0 1 0
2.932723 -8.682416 -22.105255 23.929637 -1.245052 2.748583 0.019129 -0.019780 -141846.000000 0 1 0
1.414223 -8.724216 -22.330255 24.015667 -1.410091 2.764721 0.025464 -0.018784 -329562.000000 0 1 0
0.773823 -7.769716 -21.535055 22.906896 -1.471529 2.793756 0.018046 -0.018273 -803509.000000 0 1 0
-0.559577 -7.504116 -21.856255 23.115380 1.496365 2.810011 0.022503 -0.016930 -220663.000000 0 1 0
-0.892477 -6.513216 -22.992855 23.914219 1.434619 2.863104 0.036369 -0.017615 -269241.000000 0 1 0
-0.584877 -6.892116 -24.330355 25.294456 1.486137 2.864610 0.040443 -0.015683 -137080.000000 0 0 1
-1.296577 -6.141616 -25.312975 26.079633 1.362738 2.898521 0.050860 -0.019394 103321.000000 0 0 1
-0.638277 -4.815816 -25.694595 26.149794 1.439027 2.954734 0.047194 -0.016599 182415.000000 0 0 1
-1.289277 -4.247916 -26.850945 27.215442 1.276124 2.977745 0.042802 -0.016927 24431.300000 0 0 1
-0.848977 -2.957316 -27.275415 27.448402 1.291237 3.029264 0.036250 -0.008808 -576383.000000 0 0 1
-1.255377 -1.657316 -26.444935 26.526539 0.922528 3.063134 0.040412 -0.009949 1269520.000000 0 0 1
-2.680077 -1.437316 -26.346865 26.521802 0.492261 3.026673 0.027232 -0.009513 778983.000000 0 0 1
-3.339577 -1.007116 -27.502375 27.722693 0.292897 3.015436 0.035162 -0.005143 -787908.000000 0 0 1
-4.846877 -1.125316 -27.267325 27.717604 0.228132 2.961097 0.031080 -0.010930 -367863.000000 0 0 1
-5.350977 -0.148616 -26.352875 26.891059 0.027767 2.941190 0.035334 -0.011129 -518457.000000 0 0 1
-6.714377 -0.351816 -26.146675 26.997319 0.052350 2.889897 0.032097 -0.013412 -392323.000000 0 0 1
-7.609677 0.778484 -25.490215 26.613235 -0.101947 2.850052 0.026948 -0.012823 -262422.000000 0 0 1
-7.931677 1.979584 -26.215115 27.460199 -0.244583 2.839307 0.038586 -0.014463 185569.000000 0 0 1
-8.724477 1.769084 -27.378675 28.789547 -0.200060 2.827230 0.025280 -0.010777 -348441.000000 0 0 1
-10.218377 1.581984 -27.061905 28.970064 -0.153598 2.776620 0.010665 -0.010624 -1082820.000000 0 0 1
-11.062677 1.948184 -28.127695 30.287712 -0.174317 2.761643 0.018137 -0.018315 440958.000000 0 0 1
-12.403777 1.720084 -27.703165 30.401936 -0.137795 2.717057 -0.006566 -0.010440 272925.000000 0 0 1
-13.552177 2.272784 -28.561195 31.694935 -0.166160 2.693161 -0.013679 -0.004883 -197658.000000 0 0 1
-14.816577 1.733484 -28.163945 31.870735 -0.116467 2.654491 -0.000740 -0.003632 574373.000000 0 0 1
-15.864277 2.490084 -28.761515 32.940865 -0.155691 2.632374 0.008671 -0.002731 181745.000000 0 0 1
-16.253977 3.930084 -28.241875 32.821347 -0.237239 2.606993 -0.003130 0.004752 -702599.000000 0 0 1
-15.423677 5.026284 -28.603905 32.883685 -0.315029 2.625696 0.006970 0.000453 27184.100000 0 0 1
-15.330377 5.485184 -29.947055 34.087150 -0.343605 2.643601 -0.002551 -0.002847 -457528.000000 0 0 1
-16.667077 5.804784 -30.642755 35.361920 -0.335140 2.619037 -0.018568 0.003386 -62209.300000 0 0 1
-17.354077 6.820084 -29.920175 35.254708 -0.374454 2.584292 -0.020965 0.013059 -571494.000000 0 0 1
-18.348077 7.438584 -30.626955 36.469094 -0.385166 2.567722 -0.035564 0.013886 -780426.000000 0 0 1
-18.864077 8.729984 -29.853665 36.377292 -0.433434 2.533375 -0.010614 0.000570 -343633.000000 0 0 1
-17.867977 9.690284 -29.666785 35.962263 -0.496933 2.540896 -0.014538 -0.000530 36685.300000 0 0 1
-18.483277 10.873184 -29.284885 36.296862 -0.531751 2.509539 0.007178 -0.007768 -95890.600000 0 0 1
-8.620677 24.874884 31.511701 41.061700 -1.237188 0.695984 -0.007662 -0.000871 -802217.000000 0 0 1
-9.300177 26.075184 31.354271 41.827011 -1.228194 0.723312 -0.000435 0.001439 -272815.000000 0 0 1
-9.107477 27.046284 32.336961 43.129186 -1.245986 0.723082 0.009048 -0.000585 -103805.000000 0 0 1
-7.766777 27.768384 32.075991 43.130907 -1.298067 0.732224 0.007418 -0.002492 -26281.100000 0 0 1
-7.752277 28.593984 30.926231 42.826925 -1.306045 0.763933 0.014100 0.011704 1293900.000000 0 0 1
-6.338877 28.709684 30.620971 42.450809 -1.353490 0.765078 0.011078 0.008269 1230580.000000 0 0 1
-5.996277 29.882484 29.706861 42.560730 -1.372764 0.798213 0.019034 -0.001961 -366223.000000 0 0 1
-6.296077 31.194984 30.250471 43.907387 -1.371642 0.810742 0.020631 0.002763 379945.000000 0 0 1
-5.747677 32.248884 29.484681 44.072358 -1.394420 0.837925 0.030793 0.011967 -74163.300000 0 0 1
-5.995577 33.670684 30.145971 45.589927 -1.394578 0.848323 0.030473 0.004214 -489683.000000 0 0 1
-5.295877 33.836484 31.338051 46.422272 -1.415542 0.829744 0.026139 -0.004007 -397790.000000 0 0 1
-5.867077 -34.411533 32.278841 47.544713 1.401923 0.824512 0.029736 -0.007806 -150273.000000 0 0 1
-7.179377 34.241984 32.969104 48.073056 -1.364124 0.815077 0.010527 -0.006035 -220265.000000 0 0 1
-7.157377 33.222184 33.986635 48.062802 -1.358600 0.785366 0.013676 -0.002608 -64086.600000 0 0 1
-6.978477 31.890884 33.561878 46.820159 -1.355368 0.771558 0.023886 0.004390 -195070.000000 0 0 1
-6.775677 31.033384 -34.187458 46.666508 -1.355835 2.392917 0.026028 -0.001873 -690458.000000 0 0 1
-5.486877 31.065084 -33.673625 46.141719 -1.395974 2.388807 0.019263 0.001466 -748183.000000 0 0 1
-5.460877 30.621984 -32.359815 44.885239 -1.394320 2.375962 0.021348 0.001366 -214357.000000 0 0 1
-4.051277 30.317884 -31.792585 44.117518 -1.437957 2.375513 0.009722 0.002062 434506.000000 0 0 1
-3.464177 29.072484 -32.184895 43.509508 -1.452199 2.403452 0.008246 0.004113 -62725.100000 0 0 1
-2.903377 29.068084 -33.451935 44.411880 -1.471245 2.423741 0.009976 0.001988 -794595.000000 0 0 1
-2.285177 27.700284 -33.825775 43.780256 -1.488486 2.453764 0.013653 -0.004309 -28271.500000 0 0 1
-1.040077 27.402284 -33.186895 43.050400 -1.532859 2.451025 0.020776 0.007369 709173.000000 0 0 1
-0.487977 26.073584 -33.388215 42.365585 -1.552083 2.478509 0.028247 0.008011 408058.000000 0 0 1
-0.059177 25.577384 34.217558 42.720573 -1.568483 0.641896 0.016825 0.009373 -232807.000000 0 0 1
-1.167877 25.344684 33.341919 41.897500 -1.524749 0.650473 0.021574 0.008308 350114.000000 0 0 1
-0.936677 25.298784 31.923181 40.743040 -1.533789 0.670478 0.028909 0.004999 -568117.000000 0 0 1
-0.546977 26.590284 31.140751 40.952274 -1.550229 0.706843 0.015516 0.001324 324623.000000 0 0 1
-1.695677 27.434084 30.993561 41.425899 -1.509066 0.725499 -0.001508 -0.004505 523197.000000 0 0 1
-1.435677 28.590584 30.274071 41.665358 -1.520623 0.757435 -0.003023 -0.003044 9133.030000 0 0 1
-2.465477 29.695284 30.537071 42.666159 -1.487960 0.773140 0.004663 -0.005301 -298703.000000 0 0 1
-2.181377 30.270784 31.815211 43.969153 -1.498859 0.761821 0.013563 -0.004930 327645.000000 0 0 1
-3.061177 31.358684 32.122341 44.995362 -1.473486 0.775740 0.018340 -0.000215 215431.000000 0 0 1
-2.500777 32.271684 33.239944 46.396221 -1.493459 0.772115 0.030450 0.005822 255149.000000 0 0 1
-1.299677 32.939684 32.909241 46.580361 -1.531361 0.786249 -0.006267 -0.001716 135604.000000 0 0 1
-0.572577 33.234884 34.128656 47.640849 -1.553570 0.772205 -0.008260 0.003623 -433937.000000 0 0 1
0.696423 34.030584 33.897824 48.037778 1.550335 0.787457 0.008875 -0.003061 -544603.000000 0 0 1
0.500623 -33.743533 33.376488 47.464372 -1.555961 0.790922 0.013846 -0.012613 1287770.000000 0 0 1
1.804223 -33.189233 33.081267 46.895102 -1.516488 0.787765 0.012549 -0.015000 1026800.000000 0 0 1
1.696523 -31.758633 32.547721 45.506517 -1.517428 0.773840 0.016405 -0.011210 -315585.000000 0 0 1
1.293823 -30.868233 33.518662 45.585332 -1.528906 0.744695 0.008708 -0.001438 103350.000000 0 0 1
1.667723 -29.562433 33.169458 44.462700 -1.514442 0.728752 0.019851 -0.013598 -140757.000000 0 0 1
1.257223 -28.636733 34.288204 44.691431 -1.526922 0.696299 0.021731 -0.015077 -84459.800000 0 0 1
-0.133277 -28.536533 34.480351 44.757637 1.566126 0.691361 0.016301 -0.008088 -197003.000000 0 0 1
-0.449377 -28.365133 -33.194485 43.665278 1.554955 2.434422 0.012932 0.003353 845747.000000 0 0 1
-1.999877 -28.157633 -32.989295 43.418261 1.499891 2.433805 -0.007163 0.013762 934590.000000 0 0 1
-2.290677 -27.920133 -31.622585 42.246525 1.488936 2.416631 -0.004255 -0.001844 -441731.000000 0 0 1
-3.468977 -27.188533 -31.562855 41.802679 1.443892 2.426517 0.012067 0.000851 -737025.000000 0 0 1
-3.625077 -26.343133 -30.267055 40.288912 1.434045 2.420751 0.012190 -0.008302 -188148.000000 0 0 1
-4.311177 -27.037533 -29.236905 40.055100 1.412676 2.388997 0.011402 -0.004086 73883.000000 0 0 1
-4.647177 -26.363033 -28.021315 38.753063 1.396313 2.379038 0.013265 -0.001874 -71389.400000 0 0 1
-3.446877 -25.821833 -27.224925 37.680825 1.438094 2.378228 0.018076 -0.002208 -195144.000000 0 0 1
-2.816877 -24.764433 -27.929025 37.433172 1.457536 2.412987 0.018076 0.000826 -225685.000000 0 0 1
-1.772177 -24.306733 -27.114015 36.457203 1.498016 2.409417 0.024507 -0.003237 -1054930.000000 0 0 1
-0.814977 -23.272133 -27.774855 36.244985 1.535791 2.443873 0.019991 0.009161 189760.000000 0 0 1
-0.141377 -23.680933 -28.943785 37.397183 1.564826 2.455862 0.009120 -0.001369 350010.000000 0 0 1
0.842623 -24.679733 -28.670165 37.838837 -1.536667 2.430565 0.020338 0.005375 -256904.000000 0 0 1
1.793423 -25.054133 -29.854815 39.015842 -1.499336 2.442144 -0.004829 -0.001748 103049.000000 0 0 1
2.629723 -24.024633 -30.295935 38.754898 -1.461771 2.468234 0.017406 -0.003824 -433058.000000 0 0 1
3.589923 -24.596033 -31.156265 39.856809 -1.425864 2.468191 0.029995 -0.010078 -1443050.000000 0 0 1
4.433623 -23.458333 -31.652655 39.646450 -1.384000 2.495385 0.035004 -0.009226 -905030.000000 0 0 1
5.573423 -23.138533 -30.852985 38.966157 -1.334427 2.484529 0.024689 -0.009299 1216820.000000 0 0 1
6.701023 -24.040533 -30.930415 39.743446 -1.298958 2.462674 0.012832 -0.004313 397715.000000 0 0 1
7.472123 -24.131733 -32.284135 40.993152 -1.270520 2.477619 0.005899 0.002343 -486848.000000 0 0 1
6.753223 -24.950033 -33.229355 42.098696 -1.306460 2.480497 -0.003939 -0.002246 57640.500000 0 0 1
7.071923 -24.739033 34.454254 43.001482 -1.292361 0.641441 -0.000982 -0.003883 55313.100000 0 0 1
6.347623 -23.494233 33.846312 41.687458 -1.306919 0.623386 -0.010149 -0.000847 -210476.000000 0 0 1
4.949623 -23.451633 33.830466 41.460563 -1.362792 0.616396 0.003331 -0.002840 -395648.000000 0 0 1
4.461623 -22.285433 33.170007 40.209401 -1.373205 0.600715 0.017574 -0.006458 -485127.000000 0 0 1
3.061723 -21.948133 33.671578 40.309674 -1.432193 0.582077 0.018846 -0.011850 -949165.000000 0 0 1
2.022423 -22.744633 33.260007 40.343978 -1.482111 0.601636 0.030887 -0.001735 -901462.000000 0 0 1
1.439923 -23.506033 34.277436 41.587854 -1.509615 0.601977 0.033651 -0.004315 -325473.000000 0 0 1
0.136823 -24.066933 33.699619 41.411355 -1.565111 0.620174 0.033177 -0.010088 -308258.000000 0 0 1
0.373623 -25.012733 32.719401 41.186595 -1.555860 0.652746 0.043949 -0.010155 342321.000000 0 0 1
-0.866877 -25.440933 32.150381 41.007798 1.536735 0.669702 0.042878 -0.024290 516665.000000 0 0 1
-0.731477 -26.741433 31.266561 41.148963 1.543449 0.707732 0.044229 -0.029943 -555558.000000 0 0 1
-1.877177 -26.992533 30.528561 40.793549 1.501364 0.725199 0.041539 -0.035134 -344384.000000 0 0 1
-1.812477 -28.235833 29.824811 41.110421 1.506694 0.759064 0.036079 -0.030802 -242029.000000 0 0 1
-3.137577 -28.461833 29.098551 40.824576 1.461002 0.777356 0.029116 -0.016427 -225770.000000 0 0 1
-4.251977 -28.786933 29.872981 41.703259 1.424152 0.772279 0.028522 -0.012663 -108751.000000 0 0 1
-5.447177 -28.988333 29.143701 41.465051 1.385053 0.791401 0.019402 -0.003035 131031.000000 0 0 1
-6.487777 -29.652933 30.046591 42.710482 1.355400 0.790494 0.017527 -0.004076 -517657.000000 0 0 1
-7.741777 -29.982033 29.499221 42.767528 1.318102 0.809642 0.014586 0.001825 342526.000000 0 0 1
-8.768977 -30.294033 30.451471 43.839656 1.289035 0.802918 0.009171 0.003871 -25537.900000 0 0 1
-8.665177 -31.425633 31.481811 45.318430 1.301746 0.802821 -0.000941 0.007558 -669801.000000 0 0 1
-8.790477 -32.775233 30.975201 45.945092 1.308758 0.830944 0.009795 0.009041 693467.000000 0 0 1
-10.055777 -33.021233 30.353471 45.965788 1.275194 0.849513 0.003235 0.012104 85086.300000 0 0 1
-10.045977 -34.414833 29.678291 46.541415 1.286779 0.879320 0.013745 0.015826 -186951.000000 0 0 1
-10.272477 33.704784 30.694061 46.729665 -1.274962 0.854172 0.008119 0.015386 348645.000000 0 0 1
-9.760077 32.442884 30.244031 45.414769 -1.278570 0.842028 0.011348 0.010234 -138903.000000 0 0 1
-10.179077 31.200184 31.022081 45.160099 -1.255434 0.813532 0.016297 0.019352 -795582.000000 0 0 1
-11.534477 30.916384 30.926731 45.225321 -1.213705 0.817788 0.001630 0.033135 -698504.000000 0 0 1
-11.958477 29.705584 31.572441 44.969389 -1.188079 0.792472 0.004800 0.026556 35196.800000 0 0 1
-12.050677 29.630284 33.122584 46.046478 -1.184526 0.767960 0.004566 0.010846 51801.100000 0 0 1
-13.212377 30.264684 33.647655 47.145336 -1.159174 0.776029 0.001575 0.018513 392684.000000 0 0 1
-13.363777 29.951884 -33.994085 47.236678 -1.151128 2.374101 -0.003484 0.017794 153274.000000 0 0 1
-14.640577 30.488684 -33.309815 47.470518 -1.123116 2.348570 -0.005973 0.016256 51268.800000 0 0 1
-14.708777 29.998484 -31.971595 46.243270 -1.114925 2.334191 -0.009704 0.018402 1531.930000 0 0 1
-16.009477 30.204084 -31.443635 46.446660 -1.083404 2.314453 -0.002504 0.011150 307737.000000 0 0 1
-16.127377 29.832184 -29.987205 45.269018 -1.075196 2.294844 0.007072 0.004000 -243485.000000 0 0 1
-16.093477 28.448584 -29.716805 44.174771 -1.055976 2.308662 0.001281 0.003132 35027.200000 0 0 1
-16.173477 28.227484 -28.340385 43.145679 -1.050490 2.287434 0.001965 -0.004420 -101132.000000 0 0 1
-16.589277 26.802084 -27.964055 42.137207 -1.016556 2.296474 -0.012490 -0.005652 226265.000000 0 0 1
-17.948877 26.546984 -28.260405 42.726514 -0.976279 2.293514 -0.012171 -0.004702 -19133.200000 0 0 1
-18.351577 25.229084 -27.898675 41.852397 -0.941918 2.300430 -0.012133 -0.000557 -137532.000000 0 0 1
-19.778577 24.835784 -28.322255 42.545956 -0.898270 2.299209 0.003443 0.002251 310940.000000 0 0 1
-20.726777 25.362484 -27.354335 42.674518 -0.885642 2.266596 0.008023 -0.004721 732865.000000 0 0 1
-22.057077 25.020584 -27.712505 43.365046 -0.848265 2.264061 0.029244 -0.009253 395131.000000 0 0 1
-23.144077 25.184484 -26.641265 43.355087 -0.827593 2.232536 0.052984 -0.011474 26725.600000 0 0 1
-23.375977 26.610684 -26.396345 44.173882 -0.850019 2.211245 0.032711 0.004329 -178868.000000 0 0 1
-24.570577 26.843984 -25.680065 44.539628 -0.829587 2.185317 0.020623 0.014253 143255.000000 0 0 1
-24.657177 26.537184 -24.194555 43.561164 -0.822105 2.159659 0.022344 0.012193 -1054170.000000 0 0 1
-24.599277 25.202284 -23.794855 42.502643 -0.797506 2.164994 0.022921 0.002323 1480750.000000 0 0 1
-25.892637 24.479884 -23.779255 42.838608 -0.757359 2.159267 0.014853 0.010857 2184240.000000 0 0 1
-26.830987 24.679984 -22.507455 42.843775 -0.743664 2.123908 0.020900 0.003861 122538.000000 0 0 1
-26.389697 24.121884 -21.294055 41.613918 -0.740531 2.107965 0.007783 0.002322 1182270.000000 0 0 1
-25.235967 24.875084 -20.776955 41.076827 -0.778197 2.101114 0.015770 0.004173 854038.000000 0 0 1
-24.333877 24.094584 -19.822155 39.567719 -0.780457 2.095513 0.021556 0.007699 -110766.000000 0 0 1
-24.790577 24.039384 -18.498455 39.174705 -0.770016 2.062586 0.009199 0.004836 580819.000000 0 0 1
-23.654077 23.806684 -17.658255 37.922125 -0.788614 2.055160 0.024499 -0.000499 374939.000000 0 0 1
-23.920577 23.962184 -16.137655 37.507388 -0.786267 2.015569 0.019864 -0.001186 -124534.000000 0 0 1
-24.162677 25.347384 -15.763055 38.403109 -0.809322 1.993758 0.025112 -0.006666 71608.600000 0 0 1
-24.717577 25.444784 -14.459255 38.307515 -0.799894 1.957840 -0.008598 -0.000069 113777.000000 0 0 1
-24.811777 26.850184 -13.879055 39.104793 -0.824834 1.933624 -0.005589 0.002295 -399541.000000 0 0 1
-23.595277 27.489684 -13.654755 38.715270 -0.861485 1.931248 0.030846 -0.001447 -620585.000000 0 0 1
-23.494877 28.140584 -12.422555 38.706867 -0.875128 1.897517 0.027265 -0.006787 673032.000000 0 0 1
-22.006277 28.494584 -12.056055 37.967960 -0.913177 1.893922 0.029592 -0.008688 528761.000000 0 0 1
-21.232577 27.448684 -11.559355 36.576923 -0.912401 1.892337 0.026960 -0.002424 -185868.000000 0 0 1
-20.180877 27.969884 -10.776955 36.134817 -0.945772 1.873648 0.027310 0.007159 -23440.400000 0 0 1
-19.201977 26.909884 -10.216455 34.601065 -0.951024 1.870528 0.023360 0.016197 -107547.000000 0 0 1
-18.544777 26.181784 -11.193955 33.980865 -0.954516 1.906485 0.023752 0.007346 -66358.000000 0 0 1
-17.926277 25.012284 -10.643855 32.561594 -0.948951 1.903801 0.020101 0.019791 -69941.400000 0 0 1
-17.323377 24.033384 -11.689455 31.848804 -0.946243 1.946610 0.010809 0.011412 -12684.500000 0 0 1
-17.063177 22.800684 -11.045755 30.545571 -0.928344 1.940797 0.006138 0.015321 -84126.900000 0 0 1
-16.654077 21.758284 -11.841455 29.849644 -0.917504 1.978719 0.019994 0.020307 -194664.000000 0 0 1
-16.356877 20.460084 -11.157955 28.472134 -0.896389 1.973482 0.026462 0.021040 -680726.000000 0 0 1
-17.479377 19.783984 -10.664355 28.472146 -0.847166 1.954712 0.007465 0.024969 -352091.000000 0 0 1
-17.279377 18.433684 -10.367955 27.310659 -0.817709 1.960193 0.026325 0.017328 -453959.000000 0 0 1
-18.609877 17.638284 -10.472555 27.696769 -0.758601 1.958555 0.015855 0.020612 243751.000000 0 0 1
-19.063377 17.378684 -11.779755 28.358308 -0.739202 1.999168 -0.001067 0.025024 163730.000000 0 0 1
-19.671177 18.415384 -12.532355 29.717697 -0.752438 2.006131 -0.006100 0.032015 -750497.000000 0 0 1
-20.361077 17.871484 -13.777955 30.394004 -0.720373 2.041273 0.002586 0.022483 -1196960.000000 0 0 1
-19.518877 17.468584 -14.816955 30.094520 -0.730023 2.085581 0.002132 0.020901 -448482.000000 0 0 1
-20.200977 16.911184 -15.926455 30.785055 -0.696985 2.114540 0.019075 0.014461 -257677.000000 0 0 1
-19.410477 16.529884 -17.197355 30.753093 -0.705420 2.164226 0.021225 0.006521 -504699.000000 0 0 1
-19.008777 17.691684 -17.926655 31.554623 -0.749526 2.175010 0.000335 0.005344 -402935.000000 0 0 1
-18.171977 17.363784 -18.949755 31.477213 -0.762659 2.216819 -0.001464 0.007787 -919180.000000 0 0 1
-17.252877 18.471184 -19.505455 31.926622 -0.819488 2.228052 -0.006729 0.002730 -1299040.000000 0 0 1
-16.176377 18.710784 -18.709255 31.012979 -0.857917 2.218393 0.005100 0.009535 -839055.000000 0 0 1
-15.547377 19.900284 -19.150555 31.693627 -0.907585 2.219608 0.007407 0.002847 -110465.000000 0 0 1
32.197261 31.651584 1.858645 45.187840 0.776852 1.529653 0.038036 -0.003489 -480830.000000 0 0 1
33.472161 31.454584 1.335445 45.951712 0.754333 1.541730 0.040264 -0.004362 -494819.000000 0 0 1
33.637891 32.286384 0.207545 46.625758 0.764900 1.566345 0.024889 0.001364 -116633.000000 0 0 1
34.928712 32.036084 -0.589655 47.399085 0.742229 1.583237 0.005149 -0.001538 -304656.000000 0 0 1
-34.639158 32.467184 0.100845 47.476304 -0.753043 1.568672 -0.011887 0.004607 83128.100000 0 0 1
-33.457927 32.235384 -0.673655 46.465113 -0.766790 1.585295 0.001120 0.004822 124314.000000 0 0 1
-32.348537 33.215284 -0.331155 46.365856 -0.798617 1.577939 -0.001323 0.010456 -385851.000000 0 0 1
-31.719877 33.054784 0.921945 45.821603 -0.806004 1.550675 0.010710 0.007783 58298.800000 0 0 1
-31.275587 34.278284 1.419645 46.423900 -0.831171 1.540212 0.002784 0.005708 -272325.000000 0 0 1
-30.675107 34.229584 2.806845 46.048941 -0.840108 1.509805 0.011711 0.004109 -143724.000000 0 0 1
-30.461047 -33.621033 3.448745 45.498825 0.834670 1.494925 0.004489 0.009398 258234.000000 0 0 1
-29.672897 -33.870933 4.625245 45.267138 0.851367 1.468441 0.011853 0.009778 -13244.200000 0 0 1
-29.423237 -32.721733 5.625445 44.363096 0.838426 1.443649 0.008621 0.011064 1084980.000000 0 0 1
-30.627577 -32.161033 6.244945 44.848410 0.809816 1.431097 0.010343 0.008737 1016260.000000 0 0 1
-31.057897 -32.937633 7.327745 45.860402 0.814763 1.410325 0.009337 0.002659 -451593.000000 0 0 1
-32.234617 -32.275333 8.124745 46.333348 0.786029 1.394531 0.011640 0.002815 531822.000000 0 0 1
-33.484367 -32.095633 7.523545 46.988682 0.764225 1.409990 0.013187 0.005750 -510658.000000 0 0 1
-34.241659 -33.232133 7.311345 48.273405 0.770438 1.418754 0.013309 0.002500 530316.000000 0 0 1
34.904428 -32.927633 7.336945 48.542547 -0.756264 1.419070 0.008605 0.009517 1422870.000000 0 0 1
34.306431 -32.956433 8.641845 48.350172 -0.765330 1.391096 0.003697 0.006680 -392909.000000 0 0 1
32.982831 -32.546933 8.506645 47.111920 -0.778746 1.389238 0.007540 0.007005 -370519.000000 0 0 1
32.082951 -32.865533 9.772245 46.956956 -0.797447 1.361153 0.020297 -0.004245 230655.000000 0 0 1
30.737941 -32.593733 9.419145 45.780921 -0.814693 1.363573 0.020849 -0.014906 4456.360000 0 0 1
29.780981 -32.823133 10.415345 45.527401 -0.833953 1.339981 0.028868 -0.012729 -111549.000000 0 0 1
29.545721 -31.601333 11.369545 44.730978 -0.819003 1.313801 0.035638 -0.006250 -464222.000000 0 0 1
29.082481 -30.326033 10.819845 43.388109 -0.806327 1.318763 0.041827 -0.011920 616793.000000 0 0 1
29.865401 -29.781433 9.723545 43.283059 -0.783990 1.344212 0.041965 -0.013321 249130.000000 0 0 1
29.317111 -28.368533 9.305945 41.843366 -0.768956 1.346521 0.039935 -0.014620 198910.000000 0 0 1
29.728111 -27.908533 8.029745 41.558676 -0.753839 1.376359 0.038659 -0.012086 -47094.300000 0 0 1
29.153171 -26.618933 7.833345 40.247189 -0.739990 1.374915 0.038388 -0.010963 126648.000000 0 0 1
29.283701 -26.047633 6.450745 39.719346 -0.726979 1.407666 0.023310 -0.000472 1121610.000000 0 0 1
30.631221 -25.792533 5.991345 40.489784 -0.699851 1.422279 0.028598 -0.003153 649806.000000 0 0 1
30.599591 -25.151233 4.688145 39.886065 -0.687981 1.452986 0.021641 -0.003730 288405.000000 0 0 1
32.011791 -24.768433 4.184645 40.690801 -0.658515 1.467774 0.030398 -0.004206 260227.000000 0 0 1
32.829451 -25.844933 3.842445 41.958286 -0.666917 1.479090 0.025654 0.002875 -509725.000000 0 0 1
34.172151 -25.473233 3.610345 42.774479 -0.640575 1.486292 0.025031 -0.006051 89176.000000 0 0 1
35.065460 -26.705333 3.639845 44.226799 -0.650874 1.488404 0.023712 -0.005408 -431486.000000 0 0 1
35.063722 -27.239933 4.917545 44.672819 -0.660477 1.460494 0.011516 0.001608 -96127.100000 0 0 1
-35.049956 -28.569533 4.879645 45.481079 0.683886 1.463300 0.012783 -0.000458 -605511.000000 0 0 1
35.101079 -29.440333 6.031645 46.208221 -0.697915 1.439891 0.011556 0.003603 1535990.000000 0 0 1
33.719001 -29.878333 5.946545 45.442790 -0.725081 1.439562 0.008063 0.006242 1414030.000000 0 0 1
32.726631 -28.828033 5.966745 44.019199 -0.722147 1.434829 0.013095 0.004928 -1166390.000000 0 0 1
31.367321 -29.428433 5.701245 43.387160 -0.753517 1.439011 0.017111 0.004475 -1500570.000000 0 0 1
31.143321 -29.760333 4.326345 43.293199 -0.762694 1.470698 0.008356 0.000085 432845.000000 0 0 1
29.919921 -29.170433 3.871145 41.965481 -0.772715 1.478419 0.010652 0.000418 642045.000000 0 0 1
28.602961 -29.885333 4.225545 41.582661 -0.807320 1.469003 0.014139 -0.006995 -403877.000000 0 0 1
28.565561 -31.169333 3.672845 42.438289 -0.828959 1.484142 0.018195 -0.010397 175067.000000 0 0 1
27.317431 -31.871433 3.757345 42.144370 -0.862187 1.481524 0.023387 -0.007596 154140.000000 0 0 1
27.282291 -33.248333 3.049245 43.116968 -0.883643 1.500017 0.020987 -0.005852 -368249.000000 0 0 1
27.367211 -33.216533 1.638545 43.069561 -0.881649 1.532743 0.014665 -0.001741 190666.000000 0 0 1
27.258521 -34.530433 1.132645 44.007506 -0.902549 1.545056 0.012425 0.005023 842.982000 0 0 1
26.862511 34.445084 -0.367755 43.682874 0.908454 1.579215 0.002165 -0.001330 -115611.000000 0 0 1
27.958481 -34.427833 -1.213755 44.366942 -0.888727 1.598157 0.003970 -0.001331 159445.000000 0 0 1
27.533321 -34.472133 -2.568555 44.192863 -0.896841 1.628951 0.001555 0.003170 -687452.000000 0 0 1
28.655731 -34.050233 -3.506355 44.641503 -0.871215 1.649422 0.003834 0.000917 -240802.000000 0 0 1
28.937771 -32.638333 -3.364455 43.748999 -0.845423 1.647776 -0.008980 -0.003428 290721.000000 0 0 1
29.789591 -32.199233 -4.425955 44.088540 -0.824251 1.671354 0.011894 -0.012066 -136608.000000 0 0 1
29.825181 -30.645133 -4.409755 42.989667 -0.798957 1.673554 0.012334 -0.000379 -264241.000000 0 0 1
28.736381 -29.875033 -4.884755 41.739166 -0.804823 1.688096 0.004579 -0.013966 80857.000000 0 0 1
28.936321 -28.473233 -4.795655 40.878282 -0.777332 1.688383 0.014339 -0.014321 29472.100000 0 0 1
29.929031 -27.919133 -5.847155 41.345061 -0.750668 1.712695 0.030588 -0.018319 446034.000000 0 0 1
31.275261 -28.378333 -5.713655 42.615931 -0.736874 1.705275 0.029806 -0.014323 520941.000000 0 0 1
32.167861 -27.606933 -6.531055 42.890193 -0.709244 1.723665 0.025956 -0.016596 313374.000000 0 0 1
32.453381 -28.227033 -7.961355 43.742090 -0.715861 1.753823 0.030018 -0.009100 -574578.000000 0 0 1
31.386061 -28.090533 -8.879755 43.046636 -0.730046 1.778570 0.031687 -0.010684 41476.700000 0 0 1
31.364551 -29.143333 -9.841855 43.930980 -0.748705 1.796744 0.024174 -0.001444 189119.000000 0 0 1
31.045141 -30.579633 -9.329255 44.563996 -0.777844 1.781702 0.023565 -0.001550 434760.000000 0 0 1
32.193981 -31.174833 -8.697055 45.650426 -0.769317 1.762482 0.024341 0.000567 161036.000000 0 0 1
31.905901 -32.289433 -7.917455 46.079063 -0.791373 1.743476 0.023232 -0.001758 244591.000000 0 0 1
33.193941 -33.044733 -7.471955 47.430182 -0.783146 1.728991 0.016437 -0.000747 369257.000000 0 0 1
33.016731 -34.301333 -6.894855 48.106392 -0.804478 1.714617 0.010650 -0.000863 -214378.000000 0 0 1
32.604671 -34.266733 -5.548555 47.624153 -0.810248 1.687569 0.018490 -0.002122 -275928.000000 0 0 1
32.572881 33.435284 -4.968755 46.942510 0.798463 1.676843 0.001059 0.000842 -123054.000000 0 0 1
31.641171 32.651684 -5.672255 45.819980 0.801114 1.694909 0.010723 -0.004951 138122.000000 0 0 1
31.841951 31.244484 -5.335255 44.928750 0.775928 1.689826 0.005336 0.005923 -303327.000000 0 0 1
30.605301 30.444584 -5.709055 43.544809 0.782766 1.702282 0.011934 -0.001091 -501623.000000 0 0 1
30.467701 30.176284 -7.099255 43.465944 0.780593 1.734860 -0.004447 0.003344 -274657.000000 0 0 1
29.229991 29.584884 -7.383455 42.239473 0.791432 1.746499 -0.011026 0.001800 -248840.000000 0 0 1
29.021771 29.254384 -8.944755 42.167414 0.789390 1.784545 -0.012493 0.007513 83829.300000 0 0 1
29.754621 28.082184 -9.421055 41.984554 0.756490 1.797117 0.002772 0.008910 449336.000000 0 0 1
30.088911 28.066884 -10.823955 42.547039 0.750643 1.828023 -0.006590 0.009827 360635.000000 0 0 1
31.287171 28.991684 -11.178355 44.094902 0.747335 1.827100 0.007089 0.004239 -14442.300000 0 0 1
32.568801 28.502084 -10.750155 44.594410 0.718906 1.814259 0.008328 0.001200 177291.000000 0 0 1
33.629951 29.260684 -11.221455 45.968274 0.716036 1.817401 0.011224 0.000302 -390177.000000 0 0 1
33.870151 30.654984 -10.590555 46.894296 0.735611 1.798600 0.014507 -0.004551 -1107500.000000 0 0 1
34.495461 30.598184 -9.327855 47.044602 0.725598 1.770396 0.011963 0.004207 52127.300000 0 0 1
34.372751 31.770984 -8.569355 47.584822 0.746083 1.751870 0.010971 0.001069 -797005.000000 0 0 1
35.197828 31.588484 -7.253455 47.846964 0.731408 1.722980 0.011148 0.009623 606034.000000 0 0 1
-34.113191 31.795184 -7.402755 47.216992 -0.750243 1.728227 0.010579 0.007123 162046.000000 0 0 1
-33.457397 30.677284 -7.963255 46.085861 -0.742077 1.744460 0.012412 0.007604 -271120.000000 0 0 1
-32.032297 31.020584 -8.546055 45.402420 -0.769354 1.760155 0.027973 0.000531 892833.000000 0 0 1
-31.086697 31.338984 -7.489555 44.772850 -0.789440 1.738865 0.026428 0.000480 2148990.000000 0 0 1
-29.760507 31.720084 -8.011355 44.227065 -0.817260 1.752943 0.020882 -0.011215 1633380.000000 0 0 1
-29.587527 33.046384 -8.845755 45.229776 -0.840566 1.767639 0.018552 -0.006748 -520828.000000 0 0 1
-29.864827 34.286484 -8.181955 46.199732 -0.854215 1.748835 0.021399 -0.000544 543196.000000 0 0 1
-28.755407 -34.361333 -7.387155 45.410843 0.873984 1.734196 0.031284 -0.010285 469811.000000 0 0 1
-28.918447 -32.930633 -6.785455 44.348005 0.850178 1.724404 0.033013 -0.006529 127839.000000 0 0 1
-29.940017 -32.719033 -5.825455 44.731149 0.829720 1.701400 0.027376 -0.010442 -9202.680000 0 0 1
-29.645117 -33.313033 -4.575555 44.827746 0.843592 1.673044 0.024178 -0.009647 -393034.000000 0 0 1
-30.822257 -33.438433 -3.616355 45.620372 0.826088 1.650150 0.018229 -0.004384 -641475.000000 0 0 1
-31.060177 -32.230833 -2.929855 44.856942 0.803892 1.636158 0.018174 0.006342 -441849.000000 0 0 1
-32.099727 -32.397233 -2.015555 45.651239 0.790011 1.614962 0.013352 0.005911 -460642.000000 0 0 1
-32.797957 -31.051733 -1.665655 45.196134 0.758056 1.607659 0.026485 0.003562 -158031.000000 0 0 1
-33.763187 -31.041533 -0.658755 45.868982 0.743425 1.585158 0.015808 0.005577 -620603.000000 0 0 1
-34.299167 -29.770133 -0.592655 45.420754 0.714826 1.583845 0.030398 -0.000304 -410578.000000 0 0 1
-35.191623 -29.444433 0.618145 45.889074 0.696715 1.557326 0.027462 0.002773 203212.000000 0 0 1
34.334101 -30.248633 0.495945 45.760859 -0.722223 1.559958 0.012584 -0.000075 380302.000000 0 0 1
33.250771 -30.029933 1.367645 44.825005 -0.734544 1.540281 0.014643 -0.000833 464951.000000 0 0 1
32.399011 -28.751733 1.163045 43.332559 -0.725825 1.543953 0.003080 0.005085 -104236.000000 0 0 1
31.333391 -28.819633 0.190245 42.572160 -0.743633 1.566328 0.006517 0.005663 642085.000000 0 0 1
30.748571 -27.505533 0.090945 41.255754 -0.729785 1.568592 0.011749 0.004760 28917.400000 0 0 1
29.392871 -27.659433 -0.647255 40.365877 -0.755024 1.586832 0.004723 -0.001187 495824.000000 0 0 1
28.289361 -28.178333 0.112945 39.928926 -0.783432 1.567968 0.006650 0.006503 629566.000000 0 0 1
28.166961 -29.595633 0.244745 40.857546 -0.810127 1.564806 0.009833 0.004621 -684733.000000 0 0 1
27.695281 -30.475233 -0.946755 41.190590 -0.833152 1.593783 -0.001967 0.005600 293935.000000 0 0 1
26.360341 -30.233633 -1.388055 40.135605 -0.853732 1.605387 -0.001307 0.003455 340193.000000 0 0 1
26.098071 -30.752633 -2.659555 40.421615 -0.867089 1.636639 -0.004409 0.002315 156706.000000 0 0 1
24.586341 -30.984933 -2.918755 39.661989 -0.900035 1.644454 -0.019572 0.001865 184639.000000 0 0 1
23.890141 -29.773333 -2.903955 38.283458 -0.894593 1.646723 -0.000516 0.001258 -447581.000000 0 0 1
22.540341 -29.996833 -3.221155 37.659697 -0.926384 1.656434 -0.001898 0.006349 27950.200000 0 0 1
21.647441 -28.747933 -3.458655 36.152699 -0.925372 1.666611 0.000619 0.002850 14476.500000 0 0 1
21.617041 -28.164833 -4.784055 35.825151 -0.916177 1.704735 0.007525 -0.004387 -28922.500000 0 0 1
21.166941 -26.863333 -4.817455 34.538180 -0.903447 1.710735 0.023855 -0.012333 -470593.000000 0 0 1
20.577441 -26.483333 -6.149855 34.097195 -0.910241 1.752151 0.027959 -0.026039 -1236150.000000 0 0 1
19.300541 -26.920433 -6.417555 33.740267 -0.948786 1.762167 0.033584 -0.020233 -999174.000000 0 0 1
18.700641 -26.178033 -7.454155 33.023746 -0.950495 1.798479 0.049419 -0.019542 -57633.700000 0 0 1
17.169841 -26.223933 -7.563955 32.244558 -0.991097 1.807584 0.044200 -0.012276 -57522.800000 0 0 1
16.528841 -25.358133 -6.648455 30.990957 -0.993145 1.787006 0.032363 -0.010376 585948.000000 0 0 1
15.113941 -25.565333 -6.625355 30.428815 -1.036881 1.790287 0.034478 -0.006388 747533.000000 0 0 1
14.350141 -24.578033 -5.706255 29.027015 -1.042329 1.768669 0.020598 0.001779 -56944.400000 0 0 1
14.638541 -24.990533 -4.385255 29.292389 -1.040911 1.721068 0.015658 0.006543 300357.000000 0 0 1
13.972041 -24.157933 -3.440855 28.118733 -1.046439 1.693473 0.013649 0.007303 7275.790000 0 0 1
13.950741 -24.730533 -2.019755 28.465801 -1.057185 1.641810 0.030246 -0.000441 100926.000000 0 0 1
13.272341 -26.000033 -1.994955 29.259812 -1.098805 1.639030 0.022154 0.004823 225000.000000 0 0 1
14.141241 -27.055733 -1.671255 30.574180 -1.089177 1.625486 0.028864 -0.000185 -546723.000000 0 0 1
13.598341 -28.424233 -1.950055 31.569837 -1.124572 1.632605 0.024547 0.005700 -481116.000000 0 0 1
12.624941 -28.802333 -1.027555 31.464573 -1.157689 1.603460 0.045645 -0.000439 -382201.000000 0 0 1
11.902241 -29.944933 -1.434955 32.255564 -1.192472 1.615298 0.049933 -0.001158 -125728.000000 0 0 1
12.540741 -31.348433 -1.161555 33.783778 -1.190252 1.605185 0.044593 -0.002990 -175824.000000 0 0 1
13.545441 -31.638633 -2.118355 34.481437 -1.166278 1.632270 0.042452 -0.000008 -165489.000000 0 0 1
14.165541 -32.879433 -1.838155 35.848270 -1.163996 1.622095 0.033999 -0.000511 -465576.000000 0 0 1
15.637241 -32.868333 -2.272355 36.469360 -1.126733 1.633145 0.022531 0.003850 -623313.000000 0 0 1
16.357541 -31.846633 -1.675955 35.841121 -1.096300 1.617574 0.023921 0.012784 29295.600000 0 0 1
17.727241 -31.966933 -2.057455 36.611105 -1.064467 1.627024 0.015849 0.014326 175538.000000 0 0 1
18.648541 -30.960933 -1.346055 36.168485 -1.028669 1.608021 0.016305 0.006847 -352883.000000 0 0 1
18.390041 -29.629233 -1.693755 34.913519 -1.015315 1.619328 0.019992 -0.000861 26151.500000 0 0 1
18.873641 -28.736733 -0.767055 34.388988 -0.989671 1.593103 0.019511 0.001029 -330015.000000 0 0 1
18.134541 -27.365233 -0.864555 32.839991 -0.985555 1.597126 0.022994 -0.003105 -94143.900000 0 0 1
18.454041 -26.532633 -1.970355 32.379230 -0.963082 1.631686 0.017005 -0.007262 341716.000000 0 0 1
17.637041 -26.724833 -3.122255 32.171888 -0.987458 1.667998 0.020323 -0.005290 -92685.000000 0 0 1
32.097951 -29.756933 13.955445 45.940265 -0.747569 1.262145 0.026446 -0.005843 -47882.000000 0 0 1
32.654501 -30.374333 15.073245 47.075675 -0.749237 1.244864 0.021407 -0.002992 562507.000000 0 0 1
31.695791 -30.825833 16.060245 47.040266 -0.771485 1.222375 0.027789 -0.003722 248935.000000 0 0 1
32.452671 -31.310633 17.273145 48.289679 -0.767489 1.204994 0.013208 0.003970 -945355.000000 0 0 1
31.753001 -31.272633 18.474945 48.244732 -0.777777 1.177817 -0.000724 0.004242 -446250.000000 0 0 1
32.451241 -31.483833 19.654645 49.301317 -0.770268 1.160737 -0.003166 0.003056 -722814.000000 0 0 1
33.104531 -32.864933 19.951945 50.735529 -0.781766 1.166628 -0.000119 -0.000238 -143211.000000 0 0 1
34.153491 -33.088733 19.035445 51.221805 -0.769565 1.190035 0.007870 0.000627 62554.200000 0 0 1
34.691100 -34.436933 19.008445 52.447075 -0.781721 1.199921 0.012883 -0.006958 498130.000000 0 0 1
-34.891352 34.436884 17.919945 52.196071 -0.778843 1.220347 0.017667 -0.000652 746686.000000 0 0 1
-33.721237 -33.928733 18.283845 51.211129 0.788465 1.205711 0.018512 -0.001175 440980.000000 0 0 1
-32.734577 -33.910533 17.249645 50.189910 0.803041 1.219956 0.027354 -0.000762 486643.000000 0 0 1
-31.548317 -32.978433 17.752845 48.969755 0.807558 1.199819 0.012285 -0.003037 819672.000000 0 0 1
-30.445497 -32.914833 16.851745 47.898808 0.824351 1.211282 0.021034 -0.004607 130083.000000 0 0 1
-30.653737 -32.106033 15.745945 47.099721 0.808535 1.229922 0.019869 -0.003039 -741079.000000 0 0 1
-29.520267 -32.060533 14.705945 45.995530 0.826626 1.245357 0.009673 -0.000486 741713.000000 0 0 1
-28.254657 -31.601333 15.198545 45.032940 0.841252 1.226538 -0.000890 0.000901 299611.000000 0 0 1
-27.313327 -31.325133 14.182545 43.913852 0.853708 1.241938 -0.008461 0.006166 -567614.000000 0 0 1
-26.098187 -30.731233 14.870845 42.972853 0.866744 1.217436 0.011982 -0.003522 -786538.000000 0 0 1
-25.020077 -30.642233 13.989345 41.960130 0.886061 1.230893 0.012349 0.000828 -694214.000000 0 0 1
-23.955477 -29.939633 14.617745 41.035655 0.895979 1.206576 0.010876 -0.004680 -416704.000000 0 0 1
-22.739677 -29.811433 13.715445 39.924026 0.919164 1.220114 0.022419 -0.008953 -511000.000000 0 0 1
-22.264377 -31.101333 13.433345 40.539489 0.949501 1.233047 0.025051 0.009156 -376103.000000 0 0 1
-21.017177 -31.078433 12.769945 39.631581 0.976180 1.242727 0.022856 -0.006058 71038.600000 0 0 1
-20.623977 -32.560833 12.695045 40.579803 1.006181 1.252613 0.020697 -0.004522 -24700.700000 0 0 1
-21.348577 -33.342233 11.743245 41.296126 1.001280 1.282450 0.016920 -0.002825 -135186.000000 0 0 1
-20.740577 -34.545133 11.464545 41.892404 1.030090 1.293593 0.026271 -0.000320 -307879.000000 0 0 1
-21.481277 33.610684 10.510445 41.250367 -1.002107 1.313159 0.007400 0.010906 -181522.000000 0 0 1
-21.397277 34.075984 9.160045 41.266482 -1.010094 1.346959 0.004771 0.013684 30368.500000 0 0 1
-22.556477 33.655184 8.457745 41.388398 -0.980336 1.364996 0.003999 0.011893 -209875.000000 0 0 1
-22.638277 33.897584 6.908745 41.343301 -0.981980 1.402902 0.009815 0.014805 -303629.000000 0 0 1
-21.954777 32.896984 6.094945 40.017148 -0.982300 1.417893 0.010313 0.002974 1799540.000000 0 0 1
-20.495577 32.898484 6.142945 39.244295 -1.013640 1.413619 0.006847 0.004585 1630050.000000 0 0 1
-19.687177 34.121684 5.582945 39.787480 -1.047483 1.430013 0.004808 0.004012 -234710.000000 0 0 1
-19.735577 -33.793733 6.402745 39.654817 1.042224 1.408624 0.003251 0.006141 260704.000000 0 0 1
-18.944477 -33.914233 7.610745 39.585248 1.061375 1.377330 0.008296 0.003191 -172355.000000 0 0 1
-18.904577 -32.703233 8.576945 38.735623 1.046662 1.347523 0.008567 -0.006919 -137250.000000 0 0 1
-18.179077 -31.566533 8.126345 37.322411 1.048288 1.351305 0.014534 -0.018673 -182535.000000 0 0 1
-18.264577 -30.440833 8.962645 36.613769 1.030375 1.323494 0.021995 -0.018733 98469.200000 0 0 1
-17.701077 -30.487433 10.422745 36.762009 1.044762 1.283334 0.014699 -0.014369 445896.000000 0 0 1
-16.282777 -30.477733 10.402045 36.086335 1.080124 1.278393 0.019469 -0.018910 -229050.000000 0 0 1
-15.707477 -30.676933 11.683345 36.390927 1.097572 1.243957 0.034990 -0.018045 -491035.000000 0 0 1
-14.388177 -31.409933 11.574245 36.435788 1.141246 1.247534 0.041203 -0.015506 -50351.100000 0 0 1
-13.396977 -30.648133 10.833245 35.158871 1.158703 1.257577 0.026930 -0.012633 262149.000000 0 0 1
-12.334677 -31.525733 10.487745 35.440216 1.197849 1.270370 0.027438 0.002314 533531.000000 0 0 1
-11.226377 -30.780233 9.648245 34.154691 1.221063 1.284411 0.031248 0.007208 858666.000000 0 0 1
-10.406077 -29.919433 10.461245 33.360104 1.236080 1.251830 0.032731 0.006005 -401346.000000 0 0 1
-9.409677 -29.281333 9.715745 32.254212 1.259866 1.264820 0.037588 0.008135 541709.000000 0 0 1
-8.338377 -28.684233 10.703845 31.731468 1.287897 1.226722 0.027734 0.014297 577619.000000 0 0 1
-8.973177 -27.697033 11.527745 31.313455 1.257491 1.193788 0.036620 -0.001786 391942.000000 0 0 1
-8.168477 -27.263933 12.686445 31.160744 1.279700 1.151488 0.037945 0.001250 244202.000000 0 0 1
-8.822277 -26.170833 13.584045 30.777774 1.245657 1.113684 0.034500 -0.002722 163907.000000 0 0 1
-8.809877 -24.829533 13.021445 29.388393 1.229839 1.111764 0.022160 0.001858 209859.000000 0 0 1
-9.654577 -24.629433 11.882145 29.000090 1.197211 1.148641 0.024397 -0.002152 176302.000000 0 0 1
-9.264377 -23.286033 11.148245 27.429024 1.192144 1.152242 0.009459 0.004031 -744145.000000 0 0 1
-8.007877 -23.281633 10.584445 26.799086 1.239515 1.164777 0.005983 0.005562 -939983.000000 0 0 1
-7.604477 -21.959033 10.262945 25.403843 1.237419 1.154920 -0.000060 0.010914 112463.000000 0 0 1
-6.371477 -21.898033 9.337545 24.643646 1.287653 1.182186 -0.004577 0.008519 -144051.000000 0 1 0
-5.187677 -22.444033 9.819345 25.041289 1.343647 1.167855 -0.008651 0.003750 -817191.000000 0 0 1
-4.217177 -22.509633 8.786845 24.529101 1.385593 1.204434 -0.005542 -0.000479 88569.000000 0 1 0
-2.979877 -23.307433 9.214445 25.239296 1.443635 1.197074 -0.000479 -0.002471 62123.900000 0 0 1
-2.173877 -22.683333 10.223845 24.975715 1.475252 1.149053 0.002322 -0.000442 -558807.000000 0 1 0
-1.311177 -23.617033 10.767545 25.988910 1.515335 1.143608 0.001318 -0.005476 -405044.000000 0 0 1
-0.376077 -23.037433 11.807645 25.889867 1.554473 1.097220 0.000830 -0.006198 -225544.000000 0 0 1
-1.025177 -22.901833 13.087245 26.397366 1.526062 1.052065 -0.004544 -0.001431 16442.600000 0 0 1
-0.219877 -22.403633 14.151845 26.499921 1.560982 1.007432 0.004860 -0.005877 -216024.000000 0 0 1
0.277623 -20.966033 14.063145 25.247250 -1.557556 0.980007 0.009052 -0.012146 -1127920.000000 0 0 1
1.502923 -20.915133 13.446245 24.909899 -1.499061 1.000602 0.020666 -0.013770 -1321230.000000 0 1 0
1.917523 -19.596133 13.327145 23.775999 -1.473255 0.975771 0.023087 -0.012224 871395.000000 0 1 0
3.427023 -19.470633 12.874045 23.592182 -1.396571 0.993583 0.022958 -0.013192 1192020.000000 0 1 0
3.703323 -19.963433 11.532045 23.350403 -1.387376 1.054262 0.040714 -0.013056 -176908.000000 0 1 0
5.095923 -19.890733 11.275945 23.425555 -1.319995 1.068599 0.050929 -0.015112 193276.000000 0 1 0
5.591823 -20.761733 10.139045 23.772216 -1.307706 1.130168 0.048691 -0.016684 -695320.000000 0 1 0
5.429323 -20.191933 8.841845 22.701760 -1.308123 1.170731 0.044458 -0.019015 -475457.000000 0 1 0
5.558723 -21.126733 7.785645 23.191690 -1.313514 1.228439 0.037653 -0.018951 60455.400000 0 1 0
7.007323 -21.686233 7.521145 23.999227 -1.258263 1.252034 0.041411 -0.010220 668597.000000 0 1 0
7.977423 -20.821233 6.965345 23.359774 -1.204909 1.268014 0.035315 -0.013169 -98189.000000 0 1 0
8.451223 -19.660333 7.646545 22.724909 -1.164815 1.227617 0.044103 -0.015196 145731.000000 0 1 0
9.346523 -19.874633 8.921345 23.705462 -1.131211 1.184952 0.045356 -0.013225 499288.000000 0 1 0
8.599423 -20.177533 10.085945 24.141441 -1.167920 1.139790 0.053233 -0.015440 -455179.000000 0 1 0
9.475123 -20.039933 11.174645 24.824374 -1.129135 1.103865 0.053779 -0.009776 122058.000000 0 1 0
8.706623 -20.150333 12.485145 25.253119 -1.162941 1.053652 0.064580 -0.007788 -201097.000000 0 0 1
8.546123 -21.483233 12.958545 26.504516 -1.192184 1.059947 0.067824 -0.012548 -40201.400000 0 0 1
7.960423 -21.609333 14.250945 27.081747 -1.217843 1.016648 0.075449 -0.008285 95750.000000 0 0 1
8.250123 -23.003533 14.853945 28.598369 -1.226440 1.024650 0.058413 -0.013404 127599.000000 0 0 1
7.641623 -23.962133 14.033945 28.801559 -1.262088 1.061843 0.061250 -0.008553 -296549.000000 0 0 1
7.683623 -25.267233 14.574045 30.164116 -1.275587 1.066538 0.057021 -0.012068 232173.000000 0 0 1
7.515423 -26.401533 13.563045 30.618274 -1.293473 1.111885 0.058771 -0.015391 -309172.000000 0 0 1
8.674023 -26.653733 12.838045 30.829783 -1.256172 1.141296 0.056952 -0.015970 -903819.000000 0 0 1
8.561523 -27.787233 11.993945 31.452896 -1.271916 1.179561 0.048786 -0.008800 319455.000000 0 0 1
9.913023 -28.309733 11.430545 32.099320 -1.233976 1.206706 0.046147 -0.016603 386463.000000 0 0 1
10.788523 -28.998933 12.282345 33.289433 -1.214631 1.192911 0.041255 -0.017775 662399.000000 0 0 1
11.972823 -29.454333 11.604945 33.846432 -1.184710 1.220825 0.046445 -0.017320 1149770.000000 0 0 1
12.957423 -30.353033 12.478045 35.283183 -1.167325 1.209321 0.029487 -0.015976 -610214.000000 0 0 1
13.540723 -29.586933 13.470045 35.216188 -1.141592 1.178300 0.032436 -0.011672 -458169.000000 0 0 1
14.417823 -30.297233 14.276545 36.463895 -1.126631 1.168507 0.040552 -0.009112 -62502.500000 0 0 1
15.838423 -30.427433 13.672845 36.927374 -1.090859 1.191504 0.033737 -0.004693 -839761.000000 0 0 1
16.484323 -29.174033 13.659345 36.186113 -1.056484 1.183729 0.026011 -0.017504 -179981.000000 0 0 1
17.830623 -29.394933 13.288545 36.858901 -1.025547 1.201966 0.016924 -0.011290 -149446.000000 0 0 1
18.640623 -28.093333 13.251445 36.225805 -0.984972 1.196303 0.006293 -0.011016 -73459.100000 0 0 1
19.916723 -28.230233 12.656745 36.794226 -0.956382 1.219636 -0.004341 -0.011017 -1806.260000 0 0 1
20.510623 -26.980533 12.465845 36.111384 -0.920799 1.218339 -0.008620 -0.009735 60188.900000 0 0 1
21.927323 -27.056433 11.822245 36.778030 -0.889728 1.243537 -0.007286 -0.007423 591374.000000 0 0 1
22.917823 -27.578133 12.699745 38.040288 -0.877428 1.230412 -0.003351 -0.005576 229983.000000 0 0 1
24.028923 -28.037133 11.961845 38.814375 -0.862230 1.257516 -0.001437 -0.015844 -711023.000000 0 0 1
25.110923 -28.829733 12.703345 40.287553 -0.854232 1.250006 0.016641 -0.013588 -287568.000000 0 0 1
26.068423 -27.998033 13.332945 40.511973 -0.821073 1.235434 0.012681 -0.010016 486644.000000 0 0 1
27.280123 -28.081633 12.546945 41.112152 -0.799875 1.260660 0.007655 -0.005538 -31747.600000 0 0 1
28.504023 -27.372533 13.130945 41.643206 -0.765151 1.250002 0.022797 -0.011751 -289940.000000 0 0 1
28.369023 -25.996633 13.319845 40.719094 -0.741788 1.237547 0.034801 -0.005462 -145721.000000 0 0 1
27.519323 -25.500733 14.333345 40.162735 -0.747344 1.205869 0.028529 -0.003663 -761326.000000 0 0 1
28.253823 -25.355633 15.668145 41.069178 -0.731390 1.179371 0.011211 0.007838 -271548.000000 0 0 1
28.772623 -26.610433 16.145645 42.387036 -0.746377 1.180016 0.016828 0.000341 252186.000000 0 0 1
29.191923 -26.380233 17.483645 43.055347 -0.734846 1.152643 0.016884 0.021648 -68277.300000 0 0 1
29.676423 -27.623033 18.278145 44.472605 -0.749577 1.147248 0.005979 0.032555 333766.000000 0 0 1
28.604323 -28.392733 18.822445 44.481895 -0.781686 1.133879 0.002817 0.020978 142971.000000 0 0 1
29.097423 -29.416833 19.590645 45.779946 -0.790857 1.128594 0.000611 0.015625 -45934.300000 0 0 1
27.984123 -30.189433 20.337145 45.914186 -0.823289 1.111923 0.011605 0.024950 -512208.000000 0 0 1
27.263223 -29.386933 21.288945 45.388262 -0.822869 1.082592 0.007982 0.022888 543098.000000 0 0 1
26.176723 -30.016833 21.949245 45.475273 -0.853629 1.067103 0.005991 0.019279 598760.000000 0 0 1
24.937223 -30.481133 21.152245 44.703266 -0.885104 1.077911 0.029698 0.008730 -662045.000000 0 0 1
25.185823 -31.602433 20.358145 45.249237 -0.897913 1.104130 0.019554 0.017495 30412.000000 0 0 1
24.318023 -31.764233 19.247545 44.393701 -0.917399 1.122351 0.023176 0.011657 -124944.000000 0 0 1
24.817823 -30.985433 17.992345 43.586074 -0.895476 1.145270 0.016255 0.010096 171411.000000 0 0 1
25.889723 -31.571633 17.252545 44.324892 -0.883960 1.171002 0.011903 0.000455 434133.000000 0 0 1
26.498023 -30.543233 16.460145 43.657424 -0.856197 1.184209 0.012364 -0.014594 401477.000000 0 0 1
27.628323 -31.080733 15.539145 44.393707 -0.844136 1.213193 0.013178 -0.012002 199773.000000 0 0 1
27.075823 -32.044433 14.635745 44.431418 -0.869244 1.235127 0.019235 -0.008339 493576.000000 0 0 1
27.355223 -33.343033 15.010945 45.666120 -0.883729 1.235858 -0.005524 -0.006262 -233856.000000 0 0 1
26.630223 -34.274033 14.042745 45.618820 -0.910251 1.257887 0.025086 -0.009437 -254568.000000 0 0 1
27.168123 -34.316833 12.722445 45.580835 -0.901146 1.287921 0.039706 -0.011257 156846.000000 0 0 1
26.582223 33.779984 11.978145 44.622616 0.904081 1.299031 0.039262 -0.008570 -655232.000000 0 0 1
27.328623 33.604784 10.638145 44.601628 0.888037 1.329960 0.037164 -0.013031 -819777.000000 0 0 1
28.625423 33.136184 10.797345 45.099935 0.858304 1.329039 0.023687 -0.014408 -637246.000000 0 0 1
29.083223 32.526784 9.613645 44.679387 0.841233 1.353931 0.022108 -0.013724 239681.000000 0 0 1
30.463523 31.869284 9.928745 45.191342 0.807947 1.349285 -0.000118 -0.011727 249144.000000 0 0 1
30.392023 30.803184 10.830745 44.607356 0.792117 1.325543 -0.004722 0.001166 -74640.300000 0 0 1
31.694823 30.364084 11.113945 45.277579 0.763958 1.322800 0.003123 -0.001561 -173901.000000 0 0 1
31.836823 29.344384 12.255745 44.998660 0.744682 1.294954 0.000050 0.010390 -252999.000000 0 0 1
31.437623 28.041484 12.037645 43.812713 0.728362 1.292464 -0.000624 0.014197 136499.000000 0 0 1
31.699023 27.264384 13.165145 43.834868 0.710329 1.265752 0.010564 0.002208 -50679.300000 0 0 1
31.404323 25.790484 12.976345 42.658716 0.687559 1.261709 0.004314 0.001436 214253.000000 0 0 1
32.415223 25.317884 12.101745 42.874166 0.663078 1.284645 0.008063 0.005108 156159.000000 0 0 1
32.537423 23.908884 11.958445 42.110842 0.633710 1.282859 0.006980 -0.002902 -133175.000000 0 0 1
31.399623 23.257984 11.122345 40.627290 0.637528 1.293491 0.002192 0.002416 1035000.000000 0 0 1
30.277323 22.913584 11.976645 39.814427 0.647833 1.265253 0.008204 -0.009907 -65743.600000 0 0 1
29.116123 22.760684 11.237945 38.627564 0.663495 1.275597 -0.005569 0.007091 -718386.000000 0 0 1
27.911023 22.368584 12.116345 37.764858 0.675609 1.244184 -0.014410 0.011528 -106404.000000 0 0 1
27.509323 23.516784 12.864545 38.409614 0.707312 1.229265 -0.005779 0.006238 50877.500000 0 0 1
26.614423 23.163584 13.912445 37.926709 0.716184 1.195203 0.012909 -0.008270 -404185.000000 0 0 1
23.195223 9.364484 26.265151 36.270788 0.383713 0.761009 0.010377 -0.007731 -134045.000000 0 0 1
22.812323 8.077484 26.604761 35.964720 0.340309 0.738103 0.020942 -0.017017 132560.000000 0 0 1
21.456623 7.944784 26.970851 35.368532 0.354619 0.703525 0.022625 -0.016371 -421190.000000 0 0 1
21.127923 6.636084 27.790751 35.535230 0.304333 0.672829 0.036796 -0.016364 -588666.000000 0 0 1
21.569323 6.618684 29.075511 36.802554 0.297735 0.659921 0.033997 -0.016018 -148024.000000 0 0 1
22.932923 6.514984 29.380561 37.836243 0.276796 0.681674 0.036634 -0.022080 -544089.000000 0 0 1
23.203023 6.486884 30.897201 39.180313 0.272611 0.662284 0.039981 -0.027165 -354890.000000 0 0 1
22.913423 7.739984 31.486141 39.702763 0.325758 0.655002 0.032157 -0.017144 390104.000000 0 0 1
22.707223 7.609084 32.895851 40.689718 0.323335 0.629272 0.033374 -0.012458 -178281.000000 0 0 1
22.910623 8.903184 33.652304 41.673023 0.370645 0.630840 0.025085 -0.006272 -916708.000000 0 0 1
24.193423 9.398684 33.683052 42.522993 0.370537 0.656532 0.016202 -0.010919 -939678.000000 0 0 1
24.245723 10.114084 -34.087020 43.035737 0.395202 2.484978 0.020692 -0.000611 175618.000000 0 0 1
25.305523 11.223684 -34.080937 43.907298 0.417458 2.459416 0.005829 -0.003009 -264212.000000 0 0 1
24.758423 12.384884 34.400264 44.155894 0.463831 0.677625 0.006042 -0.010077 424305.000000 0 0 1
25.308323 13.554184 -33.970625 44.477303 0.491691 2.439937 0.014069 -0.006978 -816301.000000 0 0 1
24.720823 14.889284 -34.407077 44.907202 0.542107 2.443675 0.006377 -0.007551 -754351.000000 0 0 1
25.413523 15.507484 33.561243 44.862971 0.547890 0.725627 0.010694 -0.009214 355209.000000 0 0 1
25.084723 16.916984 33.546603 45.175239 0.593333 0.733870 0.008484 -0.010155 -244926.000000 0 0 1
25.844723 17.858984 34.499555 46.659536 0.604667 0.738634 0.015117 -0.017882 -184155.000000 0 0 1
25.460123 17.720384 -33.141645 45.393815 0.608040 2.389252 0.016430 -0.025513 475406.000000 0 0 1
26.577923 17.256184 -32.433455 45.344138 0.575860 2.367812 0.011787 -0.026565 -346182.000000 0 0 1
26.024523 16.833384 -31.074685 43.889345 0.574142 2.357492 -0.000818 -0.020548 165627.000000 0 0 1
25.126223 15.763984 -31.268495 43.099293 0.560317 2.382556 -0.000004 -0.013219 140718.000000 0 0 1
24.513323 15.323684 -30.048695 41.697030 0.558683 2.375526 0.001411 -0.013178 54533.700000 0 0 1
23.788623 13.999584 -30.342625 41.019042 0.531920 2.403451 0.011032 -0.007949 -1109270.000000 0 0 1
22.826623 14.111184 -31.329535 41.251909 0.553687 2.433292 0.004832 -0.009728 -143194.000000 0 0 1
22.251623 12.878684 -31.777725 40.875653 0.524667 2.461357 0.015622 0.000799 -110605.000000 0 0 1
21.504523 11.927284 -30.854765 39.455305 0.506399 2.468694 0.021042 -0.003015 -442054.000000 0 0 1
20.223623 12.371884 -30.454645 38.594609 0.549017 2.480124 0.016089 0.000542 543118.000000 0 0 1
19.501523 11.506084 -29.515635 37.200431 0.533041 2.487207 0.013701 0.001849 671561.000000 0 0 1
18.234023 12.273484 -29.060055 36.436311 0.592449 2.494032 0.024434 0.001881 236379.000000 0 0 1
17.303123 12.582684 -30.099255 36.928135 0.628743 2.523658 0.012807 0.011325 1659440.000000 0 0 1
16.025123 12.978184 -29.519225 36.008644 0.680727 2.531826 0.013859 0.002704 1025490.000000 0 0 1
14.963523 13.643184 -30.424745 36.547347 0.739276 2.554356 0.005757 0.004606 131185.000000 0 0 1
14.339623 12.674484 -31.227355 36.625333 0.723836 2.591768 -0.001671 0.010144 1283020.000000 0 0 1
12.939623 12.475484 -30.846555 35.701281 0.767138 2.613993 0.011551 0.003110 1698030.000000 0 0 1
12.047323 11.835184 -31.963905 36.151083 0.776516 2.655523 0.018466 0.004566 200033.000000 0 0 1
11.593823 12.728284 -33.002235 37.223292 0.832008 2.660742 0.028649 0.003079 -120839.000000 0 0 1
10.643523 11.981384 -33.715305 37.330416 0.844462 2.697868 0.038101 0.003357 -164769.000000 0 0 1
9.840623 12.745284 34.263928 37.858907 0.913301 0.439316 0.046257 -0.002464 -307422.000000 0 0 1
10.687323 13.064784 33.200792 37.245134 0.885161 0.470343 0.032477 0.007695 254904.000000 0 0 1
10.019223 13.705984 32.135551 36.344634 0.939559 0.486040 0.038007 -0.004608 120782.000000 0 0 1
10.818523 13.461984 30.775861 35.290495 0.893843 0.511375 0.043449 -0.007392 324708.000000 0 0 1
10.981523 12.147384 30.277001 34.421644 0.835763 0.495793 0.035386 -0.003196 13258.000000 0 0 1
11.566923 12.045684 29.007621 33.471395 0.805671 0.522370 0.030708 -0.005521 -430078.000000 0 0 1
12.196523 10.679684 28.701701 32.963593 0.719189 0.514154 0.020111 0.000050 -337876.000000 0 0 1
11.356523 9.553484 28.710981 32.319655 0.699382 0.477070 0.018830 0.008184 548943.000000 0 0 1
12.162823 8.346884 28.538981 32.125973 0.601446 0.477066 -0.015839 0.002455 463574.000000 0 0 1
11.381123 7.033684 28.860811 31.811147 0.553559 0.434086 0.004981 0.004357 126470.000000 0 0 1
10.386023 6.846084 27.865811 30.516254 0.582790 0.419859 0.022543 0.001822 237934.000000 0 0 1
9.508423 5.736284 28.172811 30.282377 0.542831 0.375466 0.008227 0.002762 264136.000000 0 0 1
9.936523 4.440084 27.485651 29.561966 0.420227 0.377025 -0.003840 0.005479 -272829.000000 0 0 1
10.802923 3.598184 28.186981 30.399933 0.321518 0.383915 -0.010711 0.007300 -24877.000000 0 0 1
10.863923 2.294284 27.647741 29.794062 0.208126 0.381891 -0.013973 0.013616 -95016.700000 0 0 1
11.267923 1.240784 28.707601 30.864737 0.109675 0.376084 -0.027188 0.014638 509219.000000 0 0 1
10.198623 1.058184 29.640771 31.364103 0.103388 0.333037 -0.021924 0.012685 99710.500000 0 0 1
10.468423 0.068584 30.578561 32.320906 0.006551 0.329846 -0.014474 0.002581 180958.000000 0 0 1
9.397923 -0.062016 31.684391 33.048834 -0.006599 0.288350 0.003206 -0.004786 -59391.400000 0 0 1
9.557423 0.909084 32.691871 34.072411 0.094833 0.285638 -0.000695 -0.010299 -566178.000000 0 0 1
8.428823 1.200984 33.446339 34.512969 0.141533 0.249262 0.008714 -0.015753 -707765.000000 0 0 1
8.654623 2.477984 34.365309 35.524884 0.278859 0.256204 0.014465 -0.016840 -89428.400000 0 0 1
8.740923 3.770084 33.807683 35.122310 0.407207 0.274466 0.009663 -0.011706 794029.000000 0 0 1
9.781123 3.948884 32.813121 34.466867 0.383713 0.311029 -0.009188 -0.003952 318453.000000 0 0 1
9.741623 5.319984 32.100571 33.965396 0.499851 0.332907 -0.007962 0.000833 8771.910000 0 0 1
9.924623 6.392384 32.960421 35.010713 0.572212 0.343926 -0.009629 0.005631 120922.000000 0 0 1
9.960523 7.561484 32.182241 34.526579 0.649328 0.370627 -0.005872 0.002898 -216233.000000 0 0 1
10.060323 8.902584 32.943501 35.577245 0.724421 0.387197 0.024562 -0.006383 298201.000000 0 0 1
8.869023 9.306484 33.612716 35.987288 0.809462 0.365301 0.032287 -0.009693 385550.000000 0 0 1
8.428023 8.551084 -34.262159 36.304933 0.792646 2.804538 0.032472 -0.011069 -263114.000000 0 0 1
7.035523 9.003684 -33.791975 35.671592 0.907497 2.815520 0.038008 -0.012476 -86429.600000 0 0 1
6.531723 8.152884 -32.763845 34.388987 0.895352 2.832936 0.048030 -0.016936 30793.200000 0 0 1
5.199523 8.511184 -32.441775 33.940301 1.022397 2.843329 0.049134 -0.020807 211108.000000 0 0 1
4.750423 7.714484 -31.160365 32.450703 1.018855 2.858646 0.053469 -0.023952 -85688.200000 0 0 1
5.329423 8.157384 -29.903575 31.451064 0.992087 2.826594 0.051782 -0.020089 822757.000000 0 0 1
4.662323 7.612784 -28.715505 30.071115 1.021285 2.840186 0.046049 -0.021048 1933500.000000 0 0 1
3.151323 8.024684 -28.380545 29.661115 1.196596 2.846677 0.048637 -0.023794 1742470.000000 0 0 1
2.182323 7.391984 -29.210275 30.210000 1.283723 2.883613 0.048263 -0.025225 811375.000000 0 0 1
0.838323 7.675584 -28.801305 29.818326 1.462008 2.879666 0.047264 -0.013506 398926.000000 0 0 1
-0.222977 7.023484 -29.677295 30.497883 -1.539060 2.909093 0.045592 -0.015457 -372566.000000 0 0 1
-0.151177 7.557884 -31.000415 31.908779 -1.550796 2.902412 0.052884 -0.017073 97650.400000 0 0 1
-0.620277 6.728384 -32.031875 32.736782 -1.478868 2.933697 0.048904 -0.015445 -446590.000000 0 0 1
-0.295777 7.395384 -33.369965 34.180897 -1.530823 2.923331 0.054412 -0.022968 -200910.000000 0 0 1
1.068423 7.607284 -33.662825 34.528222 1.431262 2.917232 0.052081 -0.022774 -259177.000000 0 0 1
1.751123 6.576384 -34.252248 34.921795 1.310560 2.945458 0.055862 -0.024745 -594482.000000 0 0 1
1.386123 6.345884 33.283623 33.911519 1.355745 0.192734 0.063171 -0.028590 407482.000000 0 0 1
0.196023 5.549184 33.066223 33.529196 1.535486 0.166373 0.068237 -0.026873 456426.000000 0 0 1
-0.081177 5.355884 31.684121 32.133714 -1.555641 0.167476 0.070247 -0.022099 276683.000000 0 0 1
0.913823 4.512784 30.782211 31.124665 1.371002 0.148478 0.077502 -0.022235 489001.000000 0 0 1
0.531123 4.562584 29.411061 29.767596 1.454910 0.154928 0.065870 -0.020815 256412.000000 0 0 1
1.502023 3.845584 28.677111 28.972768 1.198434 0.142983 0.057489 -0.012586 98559.600000 0 0 1
1.431923 3.997484 27.130341 27.460620 1.226830 0.155252 0.062498 -0.007316 102234.000000 0 0 1
1.947923 5.257184 26.695281 27.277654 1.215954 0.207008 0.060219 -0.004806 152875.000000 0 0 1
1.834123 5.432984 25.298181 25.939917 1.245219 0.222899 0.040652 0.003336 -459878.000000 0 0 1
2.468523 6.816784 24.815801 25.853165 1.223361 0.284241 0.039884 0.010211 -448328.000000 0 0 1
3.841923 6.774484 25.039981 26.223170 1.054907 0.301541 0.035385 0.019201 -651234.000000 0 0 1
4.552323 6.656984 23.801641 25.130802 0.970997 0.326688 0.028842 0.006930 790799.000000 0 0 1
6.130723 6.693084 23.920241 25.584391 0.829223 0.362666 0.030390 0.007165 1039620.000000 0 0 1
6.820223 5.686184 24.583801 26.138313 0.694969 0.346617 0.026296 0.005492 -130297.000000 0 0 1
6.526823 4.312784 24.278091 25.507356 0.583915 0.311720 0.034663 0.003217 -902900.000000 0 0 1
6.793723 3.761084 22.806941 24.092675 0.505612 0.328170 0.028912 -0.002886 -323949.000000 0 1 0
5.837323 4.097484 21.853241 22.987559 0.612031 0.315456 0.018956 -0.009168 -873019.000000 0 1 0
4.745423 3.218984 21.960841 22.697124 0.596037 0.255407 0.019625 -0.009705 -364987.000000 0 1 0
3.557023 3.605984 21.035741 21.636957 0.792233 0.236289 0.006439 -0.007928 31889.800000 0 1 0
3.086523 4.904384 21.414541 22.184728 1.009083 0.264272 0.000602 0.001632 -82786.200000 0 1 0
1.958323 5.252684 20.643441 21.391058 1.213935 0.265162 -0.002626 -0.000536 166099.000000 0 1 0
1.507423 6.779384 20.855841 21.981776 1.352002 0.321449 -0.002044 0.007259 162763.000000 0 1 0
2.384623 7.570084 20.112141 21.621536 1.265630 0.375866 -0.006536 -0.000120 -176958.000000 0 1 0
1.998223 8.905084 20.294441 22.252140 1.350061 0.422609 -0.001174 0.005089 -188327.000000 0 1 0
2.959723 9.982084 19.838241 22.404414 1.282550 0.483311 0.005901 -0.000241 -874090.000000 0 1 0
2.805423 10.276984 18.477241 21.328273 1.304308 0.522997 -0.016481 0.003641 173052.000000 0 1 0
3.549823 11.399184 18.005141 21.603882 1.268905 0.585526 -0.014409 0.002498 64943.400000 0 1 0
5.088223 11.327884 17.954541 21.830632 1.148627 0.605097 -0.002693 0.000060 -118120.000000 0 1 0
5.525123 10.272784 17.027141 20.639297 1.077336 0.600618 -0.000075 -0.007052 1106210.000000 0 1 0
6.869223 9.809184 17.326241 21.061931 0.959879 0.604770 0.000799 -0.001954 1057700.000000 0 1 0
6.939723 8.323184 17.772041 20.815393 0.875793 0.547568 0.008427 -0.004690 -97176.200000 0 1 0
6.583423 8.169784 19.168041 21.851787 0.892513 0.500830 0.012576 -0.007917 72752.200000 0 1 0
6.584123 6.800184 19.690041 21.846988 0.801540 0.448104 0.006852 -0.012760 464451.000000 0 1 0
7.992623 6.198984 19.984741 22.398645 0.659677 0.468537 0.029198 -0.011450 73181.800000 0 1 0
8.747623 5.904684 18.867841 21.619010 0.593753 0.510003 0.029198 -0.016717 629210.000000 0 1 0
10.026123 5.284184 19.180241 22.278406 0.485046 0.533693 0.033356 -0.010311 1047860.000000 0 1 0
10.021123 3.746184 19.094041 21.886964 0.357743 0.510719 0.025847 -0.010344 -489444.000000 0 1 0
9.368023 3.146184 20.183941 22.473313 0.324007 0.455300 0.033996 -0.012948 46896.400000 0 1 0
9.725223 1.774484 20.336041 22.611575 0.180477 0.452483 0.037844 -0.016949 50587.200000 0 1 0
8.806223 0.876984 21.221041 22.992417 0.099260 0.395100 0.039564 -0.016595 57917.000000 0 1 0
9.058223 1.049584 22.574641 24.346816 0.115356 0.383899 0.035430 -0.012845 257472.000000 0 1 0
8.361523 0.060884 23.304341 24.759060 0.007281 0.344498 0.032206 -0.014708 -663324.000000 0 1 0
8.613823 0.144484 24.830211 26.282279 0.016772 0.333962 0.022255 0.003817 -81974.200000 0 0 1
9.930423 -0.239716 25.167071 27.056463 -0.024135 0.375925 0.021945 -0.000461 169915.000000 0 0 1
10.068523 -1.643716 25.157521 27.147335 -0.161825 0.385254 0.027147 -0.005686 -818510.000000 0 0 1
11.530023 -2.025716 25.372371 27.942837 -0.173916 0.432287 0.026752 -0.005775 -328285.000000 0 0 1
11.713523 -3.430616 25.419931 28.198380 -0.284909 0.447648 0.025513 -0.003399 -825044.000000 0 0 1
13.078323 -3.708516 25.360951 28.774528 -0.276309 0.492046 0.023051 -0.000446 -541205.000000 0 0 1
13.330123 -5.213316 25.290701 29.060117 -0.372804 0.515007 0.019011 -0.000948 -339785.000000 0 0 1
12.829223 -5.894216 24.149291 27.973541 -0.430674 0.529043 0.021531 -0.003278 223369.000000 0 0 1
12.740923 -7.293516 24.412631 28.486892 -0.519914 0.541420 0.025935 -0.003592 26667.700000 0 0 1
12.545523 -8.081916 23.076841 27.481778 -0.572292 0.574039 0.032964 -0.004271 -11369.200000 0 0 1
12.087723 -9.379716 23.295141 27.870337 -0.659916 0.581135 0.029782 -0.003337 -294891.000000 0 0 1
12.208323 -10.106516 22.045241 27.151012 -0.691486 0.623313 0.030282 -0.006663 -277741.000000 0 0 1
11.685023 -11.515516 22.009541 27.451170 -0.778092 0.640544 0.040552 -0.008958 -783866.000000 0 0 1
10.310323 -11.518416 22.203641 27.055098 -0.840686 0.608192 0.036078 -0.008200 -1055110.000000 0 0 1
9.705023 -12.765416 22.245041 27.422348 -0.920762 0.624593 0.031970 -0.005944 -543840.000000 0 0 1
8.230023 -12.822716 22.605041 27.260653 -1.000185 0.593088 0.019824 -0.007405 -253684.000000 0 0 1
7.361323 -12.322116 21.576841 25.914932 -1.032285 0.587006 0.026653 -0.018092 1030050.000000 0 0 1
6.022623 -12.215016 22.116841 25.973703 -1.112724 0.551940 0.012380 -0.012201 790336.000000 0 0 1
5.198123 -11.117816 21.505441 24.761064 -1.133445 0.518591 0.006949 -0.005677 -222094.000000 0 1 0
5.576823 -9.819816 21.941541 24.677134 -1.054303 0.475324 0.010101 -0.002249 -568835.000000 0 1 0
4.837023 -8.830316 21.352141 23.606889 -1.069663 0.440619 0.006154 0.000940 -304277.000000 0 1 0
5.363823 -7.439716 21.777841 23.630369 -0.946134 0.398603 0.009869 -0.008117 282062.000000 0 1 0
4.647123 -6.369616 21.143541 22.565839 -0.940495 0.356938 0.001422 -0.006968 88936.100000 0 1 0
5.124423 -5.123616 21.615041 22.797393 -0.785319 0.323475 0.012169 -0.013618 -266165.000000 0 1 0
-8.056777 -15.114916 -20.356455 26.603714 1.081071 2.442107 0.030209 -0.003494 17385.100000 0 0 1
-7.577377 -14.456316 -19.224755 25.218900 1.088011 2.437679 0.035227 -0.017122 -553326.000000 0 0 1
-6.777277 -13.374016 -19.622255 24.694710 1.101764 2.489134 0.026612 -0.022002 326319.000000 0 1 0
-5.771677 -12.956516 -18.482655 23.297899 1.151720 2.487037 0.017608 -0.022968 667168.000000 0 1 0
-4.795277 -13.938216 -18.123755 23.361059 1.239443 2.458795 0.014903 -0.014072 310775.000000 0 1 0
-4.075177 -13.464216 -16.978255 22.048885 1.276894 2.449681 0.015054 -0.020612 -299071.000000 0 1 0
-3.195177 -14.519316 -16.377455 22.118787 1.354185 2.404509 0.015208 -0.011618 -378883.000000 0 1 0
-1.999177 -14.678116 -17.115055 22.635568 1.435428 2.428150 0.010363 -0.016161 -650776.000000 0 1 0
-1.051777 -15.379616 -16.394155 22.503492 1.502515 2.386950 0.018811 -0.011253 507072.000000 0 1 0
0.311123 -15.683616 -17.152755 23.244131 -1.550962 2.400808 0.009947 -0.008794 1043340.000000 0 1 0
0.290623 -16.583516 -18.281155 24.683965 -1.553273 2.404772 0.020212 -0.005370 -285797.000000 0 1 0
0.081323 -17.963216 -17.950155 25.394720 -1.566269 2.355826 0.024390 -0.002822 -69752.200000 0 0 1
-0.373077 -18.610316 -19.310355 26.821127 1.550752 2.374553 0.032340 -0.004613 -21417.000000 0 0 1
-1.679677 -18.197016 -19.623655 26.814932 1.478752 2.391782 0.036580 -0.012120 -398028.000000 0 0 1
-2.124777 -18.586416 -20.908855 28.056189 1.456972 2.411705 0.037197 -0.007049 308639.000000 0 0 1
-3.041677 -17.424816 -21.479655 27.825377 1.397978 2.452691 0.035939 -0.001127 151341.000000 0 0 1
-2.452377 -16.177116 -21.561455 27.066762 1.420346 2.492451 0.032522 0.008351 -662939.000000 0 0 1
-3.010577 -15.293116 -20.665255 25.884276 1.376423 2.495381 0.029753 -0.001241 -372169.000000 0 0 1
-2.213077 -14.024616 -20.446155 24.892425 1.414287 2.534624 0.026791 -0.016494 -522250.000000 0 1 0
-2.251377 -13.336916 -21.668855 25.543714 1.403565 2.583572 0.032069 -0.019799 15833.200000 0 0 1
-1.430477 -12.197416 -21.642555 24.884200 1.454053 2.625453 0.010036 -0.006044 59714.100000 0 1 0
-1.630677 -11.456716 -22.978755 25.728168 1.429412 2.675066 0.026227 0.000894 804797.000000 0 0 1
-2.726777 -10.507116 -22.945455 25.383631 1.316881 2.699707 0.028289 -0.010632 720313.000000 0 0 1
-2.782577 -9.909816 -24.231255 26.326810 1.297055 2.739904 0.034234 -0.013821 48237.500000 0 0 1
-3.758777 -8.700316 -24.259055 26.044686 1.162988 2.769146 0.036103 -0.014422 774562.000000 0 0 1
-5.139277 -9.070416 -24.066455 26.227445 1.055299 2.732811 0.035069 -0.019106 825170.000000 0 0 1
-5.886877 -7.879916 -24.026055 25.961505 0.929171 2.753016 0.035593 -0.027454 -390656.000000 0 0 1
-7.405977 -8.157916 -23.888755 26.307275 0.833674 2.709441 0.019058 -0.032149 175693.000000 0 0 1
-8.167577 -8.654316 -24.962155 27.653493 0.814325 2.696745 0.016590 -0.021317 240848.000000 0 0 1
-8.557577 -7.639716 -25.910305 28.336219 0.728791 2.724791 0.013985 -0.020858 -68637.500000 0 0 1
-9.274977 -8.239216 -27.140565 29.841584 0.726329 2.712847 0.014027 -0.017046 60163.200000 0 0 1
-9.863777 -7.225316 -27.912535 30.473085 0.632213 2.728724 0.019342 -0.018143 -49871.700000 0 0 1
-10.626877 -7.791816 -28.950595 31.808488 0.632674 2.714450 0.026806 -0.016022 518984.000000 0 0 1
-11.581077 -6.829816 -29.769975 32.665259 0.532841 2.717385 0.029629 -0.013278 826960.000000 0 0 1
-10.818777 -5.905016 -30.569845 32.961047 0.499622 2.758341 0.007788 -0.001285 152500.000000 0 0 1
-11.641677 -5.014616 -31.255065 33.727646 0.406728 2.756303 0.004886 -0.006932 -259917.000000 0 0 1
-10.822777 -3.906816 -31.959225 33.967452 0.346424 2.796009 0.004747 -0.008225 -273946.000000 0 0 1
-9.902677 -4.403716 -32.882995 34.622927 0.418437 2.823221 0.021293 -0.008333 -170728.000000 0 0 1
-9.199577 -3.300716 -33.405615 34.806064 0.344484 2.856958 0.013605 -0.003053 -418035.000000 0 0 1
-8.062177 -3.639016 -34.376622 35.496384 0.423992 2.889747 0.013520 -0.010123 -411127.000000 0 0 1
-6.834777 -3.881116 -33.745405 34.648660 0.516443 2.912756 0.019122 -0.012253 -85718.700000 0 0 1
-5.855977 -4.188916 34.271937 35.020068 0.620936 0.207072 0.018013 -0.010148 572008.000000 0 0 1
-4.381377 -3.835816 -34.449029 34.937738 0.719103 2.974137 0.026448 -0.009906 239664.000000 0 0 1
-4.282677 -2.450616 34.464107 34.815535 0.519739 0.142204 0.033090 -0.016555 -455631.000000 0 0 1
-2.944977 -2.069616 -34.442124 34.629700 0.612577 3.037463 0.029938 -0.017230 -480133.000000 0 0 1
-2.791477 -0.667116 -33.930205 34.051376 0.234583 3.057206 0.037905 -0.019826 -150045.000000 0 0 1
-3.039177 -0.580416 -32.533345 32.680147 0.188706 3.046772 0.040090 -0.016247 273554.000000 0 0 1
-3.434477 0.692484 -32.070825 32.261633 -0.198960 3.032779 0.049918 -0.020933 -552539.000000 0 0 1
-4.065577 0.695184 -30.653885 30.930129 -0.169355 3.007843 0.055408 -0.022641 1093790.000000 0 0 1
-5.232277 -0.118016 -30.381205 30.828692 0.022552 2.971002 0.031568 -0.019959 927082.000000 0 0 1
-6.434377 0.457784 -30.881055 31.547589 -0.071027 2.935667 0.029711 -0.016361 -299557.000000 0 0 1
-7.613977 -0.525416 -30.833115 31.763654 0.068898 2.898941 0.020853 -0.021068 -209169.000000 0 0 1
-7.956077 -0.829616 -29.493405 30.558933 0.103899 2.876744 0.020842 -0.016214 -17980.400000 0 0 1
-8.926677 -1.850316 -29.423085 30.803038 0.204385 2.841134 0.009087 -0.012454 -301683.000000 0 0 1
-8.992077 -2.680316 -28.111515 29.636107 0.289690 2.819441 0.011794 -0.015760 33189.600000 0 0 1
-9.668677 -1.873216 -27.131215 28.863387 0.191370 2.793389 0.002555 -0.013525 348879.000000 0 0 1
-9.914377 -2.618316 -25.914245 27.869312 0.258198 2.764798 -0.007649 -0.013790 735835.000000 0 0 1
-10.985777 -1.896716 -24.980455 27.355218 0.170967 2.721835 -0.001917 -0.008936 786961.000000 0 0 1
-10.480077 -0.665416 -24.484355 26.641292 0.063408 2.736429 0.005910 -0.010177 -179830.000000 0 0 1
-11.462777 0.099584 -23.844655 26.456998 -0.008687 2.693467 0.015534 -0.013803 -377835.000000 0 0 1
-11.071877 1.476884 -23.323755 25.860495 -0.132608 2.694960 0.022599 -0.015670 -144974.000000 0 0 1
-10.642677 2.443684 -24.263955 26.607850 -0.225700 2.718710 -0.003537 -0.009695 74355.300000 0 0 1
-9.795777 3.415884 -23.696055 25.867519 -0.335525 2.728926 0.000868 -0.004727 -389268.000000 0 0 1
-9.652377 4.665184 -24.617455 26.850539 -0.450215 2.730871 0.011977 -0.005027 -130953.000000 0 0 1
-10.852377 5.409784 -24.765355 27.574674 -0.462438 2.686271 0.018158 -0.002129 195021.000000 0 0 1
-11.414977 5.076584 -26.061045 28.900718 -0.418463 2.694583 0.009993 -0.004647 399106.000000 0 0 1
-12.811677 5.693784 -26.365575 29.861376 -0.418205 2.652868 0.006610 0.000325 496321.000000 0 0 1
-12.740977 7.088884 -26.718415 30.437780 -0.507732 2.642055 0.006710 0.002874 -127792.000000 0 0 1
-14.077277 7.503884 -26.816925 31.202972 -0.489736 2.604960 0.011726 0.000941 -263675.000000 0 0 1
-14.199377 9.031284 -27.038655 31.847689 -0.566494 2.584884 0.019722 0.005584 -277423.000000 0 0 1
-14.129377 9.685784 -25.794025 30.964261 -0.600933 2.555351 0.035553 -0.000097 101254.000000 0 0 1
-14.368777 11.075684 -25.943945 31.657871 -0.656691 2.531352 0.028435 -0.001303 -119509.000000 0 0 1
-13.895577 11.933884 -24.701555 30.751772 -0.709596 2.503539 0.025059 0.003818 203891.000000 0 0 1
-14.547377 11.671884 -23.451255 29.963652 -0.676164 2.469719 0.035624 -0.000739 147582.000000 0 0 1
-14.077877 12.624484 -22.558155 29.435261 -0.731022 2.443960 0.029618 -0.000891 -285376.000000 0 0 1
-14.828577 12.498284 -21.218255 28.745576 -0.700329 2.401105 0.039210 -0.005288 864812.000000 0 0 1
-16.211377 12.883184 -21.318555 29.719791 -0.671501 2.370742 0.027552 -0.011009 784441.000000 0 0 1
-16.788577 13.204284 -20.055355 29.298920 -0.666457 2.324725 0.029909 -0.003906 -217922.000000 0 0 1
-18.292677 13.480684 -20.104055 30.340137 -0.635093 2.295111 0.035429 -0.008177 -351309.000000 0 0 1
-18.617677 14.617984 -20.869155 31.556695 -0.665631 2.293377 0.031617 -0.011897 420338.000000 0 0 1
-20.030977 14.793184 -20.906655 32.514098 -0.636110 2.269209 0.021300 -0.015837 522468.000000 0 0 1
-20.536477 16.123084 -21.533055 33.843363 -0.665586 2.260432 0.021907 -0.021685 -179205.000000 0 0 1
-20.323277 16.161884 -22.896355 34.619144 -0.671832 2.293451 0.030782 -0.026307 243095.000000 0 0 1
-20.640977 17.499284 -23.348955 35.741413 -0.703212 2.282698 0.015715 -0.018719 -196895.000000 0 0 1
-20.635177 17.545784 -24.899355 36.791887 -0.704660 2.314152 0.008012 -0.018449 955815.000000 0 0 1
-19.352277 17.601284 -25.570415 36.580896 -0.738050 2.344809 0.005071 -0.024583 971032.000000 0 0 1
-19.457577 17.083184 -26.864335 37.311191 -0.720510 2.374609 -0.005268 -0.026595 -33268.800000 0 0 1
-18.540477 17.787084 -27.909125 37.934798 -0.764662 2.397515 -0.026207 -0.015300 91362.300000 0 0 1
-18.968877 19.098684 -28.238965 39.013039 -0.788808 2.380139 -0.020317 -0.024665 268252.000000 0 0 1
-18.214877 20.066084 -27.569505 38.658855 -0.833719 2.364776 -0.031813 -0.026169 -1518200.000000 0 0 1
-18.862777 21.435584 -27.808495 39.857258 -0.849156 2.342981 0.002132 -0.014200 900328.000000 0 0 1
-20.045877 21.829184 -27.101665 40.160313 -0.827959 2.311540 0.021360 -0.001932 488017.000000 0 0 1
-21.170077 21.017784 -27.244735 40.400433 -0.781788 2.310904 0.051995 -0.023734 -866209.000000 0 0 1
-22.290677 21.288784 -26.208055 40.459223 -0.762412 2.275443 0.051747 -0.008826 191257.000000 0 0 1
-21.873077 20.774684 -24.972555 39.161812 -0.759649 2.262274 0.021603 0.000411 -114204.000000 0 0 1
-22.755677 21.067284 -23.920055 39.164018 -0.746890 2.227824 0.020172 -0.010513 -157736.000000 0 0 1
-22.262477 20.768584 -22.485455 37.849011 -0.750695 2.206922 0.003423 0.002431 477196.000000 0 0 1
-21.133477 21.565784 -22.067555 37.398982 -0.795522 2.201927 0.009295 0.000649 726161.000000 0 0 1
-20.152977 20.876084 -21.284055 35.985613 -0.803021 2.203665 -0.004168 0.007144 18248.900000 0 0 1
-20.490777 20.188184 -19.900655 34.978147 -0.777960 2.176019 -0.000533 0.002107 -960341.000000 0 0 1
-21.329177 19.038984 -20.139455 34.971622 -0.728726 2.184476 0.013315 -0.003502 602171.000000 0 0 1
-22.036677 18.623584 -18.979155 34.534929 -0.701653 2.152639 0.013740 -0.000538 282298.000000 0 0 1
-23.099177 19.519084 -18.261555 35.327766 -0.701591 2.114043 0.015029 0.002272 -473126.000000 0 0 1
-24.201477 19.761384 -19.078755 36.609052 -0.684743 2.118992 0.009452 -0.004014 -25831.500000 0 0 1
-25.114047 20.737084 -18.587355 37.499757 -0.690226 2.089398 0.019996 -0.009233 82186.900000 0 0 1
-26.560877 20.712684 -19.192755 38.766704 -0.662314 2.088727 0.018425 0.004029 1010810.000000 0 0 1
-27.409217 19.594984 -18.824955 38.595434 -0.620659 2.080308 0.009793 -0.002733 664510.000000 0 0 1
-27.802627 19.621684 -17.485755 38.258962 -0.614574 2.045457 -0.002393 0.006303 -1028550.000000 0 0 1
-28.823037 18.552584 -17.082055 38.298335 -0.571914 2.033117 -0.013302 0.004179 -370162.000000 0 0 1
-28.223567 17.298684 -16.987155 37.207226 -0.549863 2.044916 0.006543 -0.002571 -152136.000000 0 0 1
-29.113067 16.307284 -16.593955 37.267379 -0.510592 2.032269 0.002027 -0.000347 -156973.000000 0 0 1
-28.343387 15.169784 -15.896855 35.863351 -0.491421 2.030031 0.019125 -0.003141 -294346.000000 0 0 1
-27.873727 15.526184 -14.563255 35.072717 -0.508216 1.998992 0.018854 -0.005028 104300.000000 0 0 1
-28.840817 15.681184 -13.564655 35.520306 -0.498005 1.962631 0.000469 -0.004197 15950.900000 0 0 1
-28.134687 16.195484 -12.277055 34.707066 -0.522316 1.932356 -0.002435 -0.008011 346935.000000 0 0 1
-27.500797 17.463784 -12.290755 34.818677 -0.565778 1.931565 -0.000909 -0.003473 308834.000000 0 0 1
-28.370407 18.599984 -12.528255 36.163470 -0.580310 1.924563 -0.006864 -0.004423 -80365.200000 0 0 1
-27.721097 19.966984 -12.822655 36.490549 -0.624208 1.929859 0.007363 -0.004519 -115152.000000 0 0 1
-27.127677 20.611884 -11.719255 36.029177 -0.649750 1.902095 -0.011822 -0.017539 -313943.000000 0 0 1
-26.135027 21.483884 -12.174055 35.955591 -0.688033 1.916210 -0.012061 -0.011356 -325520.000000 0 0 1
-25.315897 22.211084 -11.121555 35.467110 -0.720163 1.889751 -0.005828 0.001546 -471696.000000 0 0 1
-25.977227 23.121184 -10.286855 36.266029 -0.727294 1.858395 0.003604 -0.005528 -271568.000000 0 0 1
-25.470927 24.450784 -10.292255 36.776888 -0.764966 1.854441 0.015674 -0.008541 -246293.000000 0 0 1
-26.251177 25.273284 -9.263755 37.598941 -0.766421 1.819743 0.027111 0.004243 -66407.500000 0 0 1
-25.863807 25.030884 -7.908855 36.851481 -0.769034 1.787093 0.017515 0.005075 -48752.600000 0 0 1
-26.750407 25.553084 -6.954755 37.641905 -0.762510 1.756625 0.026018 -0.002182 -98967.600000 0 0 1
-26.735117 24.777284 -5.556555 36.872152 -0.747409 1.722071 0.023408 -0.000579 -67156.200000 0 0 1
-27.177047 23.439984 -5.610155 36.324903 -0.711702 1.725861 0.021978 -0.004183 -103083.000000 0 0 1
-26.940977 22.704184 -4.454755 35.512548 -0.700263 1.696569 0.028627 -0.005920 -188330.000000 0 0 1
-26.984177 21.183784 -4.745555 34.632626 -0.665555 1.708254 0.012553 -0.007005 215878.000000 0 0 1
-26.091107 20.599484 -5.709755 33.729600 -0.668319 1.740896 0.004603 -0.014995 185871.000000 0 0 1
-26.223677 20.979384 -7.083755 34.321937 -0.674751 1.778682 -0.003506 -0.007042 -617088.000000 0 0 1
-27.143107 20.038184 -7.887955 34.648188 -0.635933 1.800469 -0.000284 -0.013835 -149310.000000 0 0 1
-26.719567 18.658684 -7.836455 33.518529 -0.609594 1.806775 -0.017058 -0.007794 338360.000000 0 0 1
-27.038077 17.994184 -9.037255 33.712316 -0.587203 1.842185 -0.020994 -0.005319 -323275.000000 0 0 1
-26.629027 16.538884 -8.929955 32.594231 -0.555779 1.848319 -0.005964 -0.003664 36372.700000 0 0 1
-27.501487 15.661684 -8.241855 32.703950 -0.517680 1.825557 -0.029360 -0.005505 -15027.100000 0 0 1
-27.052737 14.339284 -8.399855 31.749381 -0.487397 1.838552 -0.015329 -0.007828 -24280.300000 0 0 1
-27.683697 13.291384 -7.423555 31.593625 -0.447614 1.807984 -0.018004 -0.012761 -653572.000000 0 0 1
-29.011257 13.095784 -7.797555 32.771245 -0.424020 1.811040 -0.012706 -0.009578 -1035570.000000 0 0 1
-29.623947 12.164884 -7.004355 32.781453 -0.389648 1.786125 -0.011587 -0.011597 -493866.000000 0 0 1
-30.229617 11.013484 -7.768255 33.097921 -0.349381 1.807712 0.001711 -0.012615 -639884.000000 0 0 1
-29.266997 10.188384 -8.316355 32.086166 -0.334998 1.832978 0.009675 -0.007837 -414323.000000 0 0 1
-29.817727 8.932984 -8.468255 32.258432 -0.291077 1.836422 -0.004496 0.000322 -908511.000000 0 0 1
-28.793767 7.892284 -8.915555 31.158567 -0.267526 1.860987 0.028101 -0.002219 -565834.000000 0 0 1
-28.580777 8.039384 -10.297255 31.424926 -0.274201 1.904641 0.022197 -0.008937 -372837.000000 0 0 1
-27.623997 7.156684 -10.736455 30.488929 -0.253501 1.930656 0.044810 -0.015733 -969281.000000 0 0 1
-27.065207 7.494284 -12.113555 30.584767 -0.270129 1.978024 0.042251 -0.009965 -357163.000000 0 0 1
-26.445767 8.764984 -12.082255 30.367490 -0.320039 1.979988 0.050574 -0.023581 875827.000000 0 0 1
-25.185817 8.862784 -12.750855 29.588150 -0.338363 2.016336 0.050979 -0.011397 220179.000000 0 0 1
-31.232787 26.054984 -34.360161 53.244435 -0.695261 2.272250 0.014149 0.003868 -97624.500000 0 0 1
-31.704307 27.380384 34.467995 54.248421 -0.712347 0.882305 0.010794 -0.007619 325399.000000 0 0 1
-31.311487 27.820384 33.192495 53.442724 -0.726427 0.900670 0.005024 -0.013108 -20772.100000 0 0 1
-31.700187 29.338284 32.956111 54.329937 -0.746722 0.919029 0.015637 -0.017823 44520.800000 0 0 1
-31.426097 29.779184 31.679281 53.646773 -0.758497 0.939098 0.025463 -0.015840 133082.000000 0 0 1
-31.856217 31.153484 31.500451 54.567724 -0.774246 0.955412 0.044713 -0.020496 -92390.200000 0 0 1
-31.417057 31.803884 30.188191 53.942983 -0.791517 0.976855 0.050698 -0.015126 -205036.000000 0 0 1
-30.041817 31.722884 29.910031 52.947730 -0.812609 0.970488 0.041695 -0.014204 -214885.000000 0 0 1
-29.772437 32.620184 28.826471 52.739358 -0.831009 0.992517 0.024755 -0.003643 697.852000 0 0 1
-28.396657 32.422784 28.163501 51.485822 -0.851500 0.992002 0.032416 -0.010425 -555522.000000 0 0 1
-28.326607 31.197384 27.500891 50.318709 -0.833590 0.992576 0.042065 -0.008680 453407.000000 0 0 1
-27.150027 31.230884 26.691491 49.243556 -0.855185 0.997945 0.018512 -0.007453 -61054.600000 0 0 1
-27.275137 31.912784 25.303531 49.016605 -0.863593 1.028361 0.021024 -0.018062 -327553.000000 0 0 1
-27.150547 33.344984 25.322591 49.902643 -0.887437 1.038585 0.021037 -0.023024 384104.000000 0 0 1
-28.204127 33.947184 24.569521 50.512825 -0.877541 1.062830 0.032836 -0.016258 194595.000000 0 0 1
-28.473237 -33.755233 25.140981 50.815450 0.870076 1.053248 0.041011 -0.017624 -394796.000000 0 0 1
-28.920237 -33.796933 26.469281 51.761333 0.862999 1.034016 0.039251 -0.026647 167457.000000 0 0 1
-28.946197 -32.528733 27.125601 51.301063 0.843609 1.013665 0.044209 -0.028590 -169098.000000 0 0 1
-29.446167 -32.751233 28.581001 52.503273 0.838487 0.995163 0.043282 -0.029401 535970.000000 0 0 1
-30.822097 -33.081233 28.786791 53.600830 0.820736 1.003850 0.040735 -0.025944 482394.000000 0 0 1
-31.063627 -33.340533 30.166171 54.649226 0.820737 0.986040 0.030652 -0.023219 -293093.000000 0 0 1
-32.526057 -33.585133 30.530821 55.839382 0.801416 0.992305 0.041952 -0.021741 -251341.000000 0 0 1
-32.819977 -33.528433 31.934861 56.755106 0.796076 0.973174 0.039799 -0.025024 53885.900000 0 0 1
-34.221059 -33.653233 32.132081 57.758909 0.777033 0.980853 0.032632 -0.020005 257901.000000 0 0 1
-34.686872 -34.345533 33.412599 59.154007 0.780454 0.970556 0.029242 -0.010017 -240976.000000 0 0 1
-34.313303 33.384384 33.548464 58.458697 -0.771677 0.959557 0.026535 -0.006135 -58330.800000 0 0 1
-34.959462 32.789884 -34.340150 58.962585 -0.753385 2.192481 0.029256 -0.002535 263283.000000 0 0 1
-34.585196 31.321984 -34.039535 57.757185 -0.735926 2.201058 0.014276 0.001804 500214.000000 0 0 1
-33.413937 31.187084 -33.243745 56.517891 -0.750941 2.199626 0.020883 0.009431 -213342.000000 0 0 1
-33.354417 29.916084 -32.631395 55.428307 -0.731108 2.200263 0.010612 -0.000816 232870.000000 0 0 1
-32.527797 29.920384 -31.326145 54.172081 -0.743669 2.187404 0.007437 0.001464 69462.000000 0 0 1
-33.217447 30.226284 -30.150465 54.093230 -0.738286 2.162023 0.004733 0.004182 -398775.000000 0 0 1
-33.746957 31.569684 -29.980605 55.084832 -0.752076 2.146306 -0.001051 0.011952 768408.000000 0 0 1
-34.633920 31.637784 -28.667835 54.975472 -0.740219 2.119364 -0.013816 0.018302 729991.000000 0 0 1
-33.897947 31.465484 -27.477985 53.797650 -0.748201 2.106871 -0.022932 0.012059 343601.000000 0 0 1
-34.858831 31.248584 -26.425545 53.757991 -0.730841 2.084682 -0.009521 0.015692 441062.000000 0 0 1
-34.283552 31.189984 -25.006755 52.664170 -0.738184 2.065572 0.003736 0.012017 -167875.000000 0 0 1
-33.946207 32.461284 -24.416355 52.936172 -0.763041 2.050190 0.001711 0.003729 -182740.000000 0 0 1
-33.660977 32.408684 -23.008555 52.084333 -0.766446 2.028351 -0.002408 -0.007971 -381745.000000 0 0 1
-34.827336 32.072684 -22.038355 52.223457 -0.744246 2.006448 -0.011152 -0.002600 -358488.000000 0 0 1
35.073359 33.248684 -21.872955 53.047541 0.758698 1.995804 -0.013584 -0.007002 -299248.000000 0 0 1
-35.284080 34.209084 -20.940355 53.420279 -0.769930 1.973593 -0.000249 -0.010303 -416632.000000 0 0 1
-35.193691 33.893984 -19.442255 52.587064 -0.766588 1.949499 -0.001061 -0.015380 -649669.000000 0 0 1
-34.115561 33.087084 -19.168155 51.244949 -0.770095 1.954168 -0.002528 -0.016668 -757971.000000 0 0 1
-34.099424 32.692984 -17.830455 50.492842 -0.764344 1.931709 0.003802 -0.015229 558800.000000 0 0 1
-32.773187 31.913584 -17.533955 48.989777 -0.772110 1.936826 -0.000680 -0.005072 580711.000000 0 0 1
-32.700897 31.606184 -16.135855 48.256247 -0.768377 1.911742 0.001725 -0.001389 -219007.000000 0 0 1
-31.544857 30.841184 -15.851255 46.877702 -0.774119 1.915737 0.000628 -0.003095 -438886.000000 0 0 1
-31.278397 30.735584 -14.345555 46.139020 -0.776645 1.886957 0.014391 -0.003284 12565.900000 0 0 1
-32.071817 29.764484 -13.642955 45.832916 -0.748102 1.873044 0.014635 0.002582 162981.000000 0 0 1
-31.634747 29.489384 -12.329155 44.970980 -0.750314 1.848510 0.029561 0.000479 -234093.000000 0 0 1
-32.485677 28.406684 -11.660055 44.701407 -0.718511 1.834692 0.024530 -0.001345 -336634.000000 0 0 1
-31.954607 27.888884 -10.457355 43.683441 -0.717563 1.812533 0.039296 0.003957 274845.000000 0 0 1
-32.681827 26.789684 -9.890755 43.400646 -0.686645 1.800711 0.031796 0.007050 187606.000000 0 0 1
-31.878607 26.160584 -8.707755 42.147915 -0.687195 1.778895 0.031463 -0.000114 159272.000000 0 0 1
-31.676307 26.930684 -7.505755 42.249101 -0.704601 1.749399 0.025363 -0.001755 11887.400000 0 0 1
-30.587417 27.813484 -7.527155 42.021876 -0.737936 1.750893 0.037676 -0.004101 -663841.000000 0 0 1
-30.230527 28.334484 -6.104355 41.880675 -0.753034 1.717073 0.031566 -0.001677 -272610.000000 0 0 1
-29.680707 27.299384 -5.311955 40.674533 -0.743630 1.701767 0.037854 -0.011486 281874.000000 0 0 1
-29.669007 27.662484 -3.884255 40.749852 -0.750414 1.666261 0.037484 -0.008579 -20709.700000 0 0 1
-28.906397 26.576784 -3.070555 39.386972 -0.743435 1.648834 0.037170 -0.011479 100317.000000 0 0 1
-29.576147 25.332484 -2.966155 39.054850 -0.708266 1.646818 0.030315 -0.005255 578877.000000 0 0 1
-28.815027 24.494084 -2.066455 37.875271 -0.704520 1.625383 0.012547 -0.004205 364447.000000 0 0 1
-29.687227 23.343684 -1.534955 37.797025 -0.666344 1.611418 0.018094 -0.011347 -128251.000000 0 0 1
-29.916807 22.427584 -2.573855 37.478482 -0.643287 1.639526 0.008437 -0.006289 320820.000000 0 0 1
-31.015567 21.559184 -2.331055 37.844387 -0.607436 1.632431 0.020434 -0.003897 120504.000000 0 0 1
-31.295157 20.666984 -3.599555 37.675826 -0.583644 1.666482 0.009104 -0.001127 -198426.000000 0 0 1
-30.283747 19.719984 -3.831755 36.340961 -0.577200 1.676432 -0.005467 -0.008809 -59283.000000 0 0 1
-30.369447 19.057684 -5.068855 36.210384 -0.560415 1.711241 0.004218 -0.005535 545440.000000 0 0 1
-29.172097 18.039484 -5.289555 34.704663 -0.553826 1.723809 0.002597 -0.000168 609166.000000 0 0 1
-29.097517 17.006584 -4.340555 33.981316 -0.528921 1.698880 -0.017803 -0.011295 359324.000000 0 0 1
-28.351237 15.920484 -4.898155 32.882311 -0.511663 1.720313 -0.025185 -0.010138 -116365.000000 0 0 1
-28.015387 14.700784 -4.016755 31.892151 -0.483243 1.697080 -0.030739 -0.015629 -542267.000000 0 0 1
-29.108767 13.922284 -3.645555 32.472148 -0.446125 1.683301 -0.012573 -0.014214 -75351.300000 0 0 1
-28.748427 12.670284 -3.043755 31.563786 -0.415118 1.667378 -0.012913 -0.012490 1037350.000000 0 0 1
-30.052867 11.790984 -2.769855 32.401763 -0.373887 1.656385 -0.004230 -0.015269 454792.000000 0 0 1
-30.768187 11.353484 -3.874355 33.024136 -0.353501 1.688386 -0.010195 -0.013785 -31826.100000 0 0 1
-31.655447 10.385884 -3.355755 33.484250 -0.317026 1.671184 0.008212 -0.012139 -390196.000000 0 0 1
-32.832677 9.968984 -4.254055 34.575458 -0.294784 1.694146 -0.000062 -0.005673 -26884.500000 0 0 1
-32.367347 9.184484 -5.332255 34.065127 -0.276490 1.727974 -0.004062 -0.004622 846795.000000 0 0 1
-33.452187 8.884784 -6.192655 35.161587 -0.259603 1.747840 0.005914 0.005375 46.535300 0 0 1
-32.912987 7.945684 -7.216555 34.619031 -0.236882 1.780793 0.009124 0.002565 -674280.000000 0 0 1
-32.524587 6.745484 -6.649655 33.875777 -0.204497 1.768375 -0.000793 0.009006 501975.000000 0 0 1
-32.016807 5.876484 -7.676455 33.444536 -0.181523 1.802389 0.003609 0.009227 -426377.000000 0 0 1
-31.080307 4.744384 -7.249355 32.265273 -0.151480 1.797411 0.005227 0.004570 -603266.000000 0 0 1
-29.807137 5.206984 -6.912755 31.038110 -0.172944 1.795398 0.007814 0.003326 -395068.000000 0 0 1
-29.024797 4.161184 -6.342655 29.999726 -0.142396 1.783828 0.007171 0.005801 37659.300000 0 0 1
-27.562607 4.623284 -6.164555 28.619466 -0.166190 1.787895 0.037433 0.004349 219797.000000 0 0 1
-26.854777 4.887584 -7.378255 28.275541 -0.180030 1.834793 0.045935 -0.000309 555292.000000 0 0 1
-25.474767 5.195784 -7.237955 26.987922 -0.201198 1.842313 0.068667 -0.009241 387624.000000 0 0 1
-24.906677 5.842984 -8.492955 26.955766 -0.230428 1.891327 0.074269 -0.010948 -148100.000000 0 0 1
-25.096417 4.997184 -9.596255 27.329291 -0.196549 1.929579 0.073887 -0.017292 -64871.600000 0 0 1
-24.215277 5.275384 -10.628755 26.966271 -0.214502 1.975939 0.072054 -0.024076 -460192.000000 0 0 1
-24.389577 4.348984 -11.826355 27.452283 -0.176459 2.016172 0.069408 -0.027337 -670501.000000 0 0 1
-25.604267 4.519984 -12.471255 28.836452 -0.174732 2.018040 0.057770 -0.009708 -366231.000000 0 0 1
-25.666747 3.833184 -13.695455 29.343495 -0.148249 2.056385 0.061417 -0.008635 -599764.000000 0 0 1
-26.615817 4.462084 -14.654255 30.709268 -0.166103 2.068254 0.046046 -0.000576 -976480.000000 0 0 1
-26.043917 5.629284 -15.216255 30.684017 -0.212871 2.089669 0.032354 0.000601 102971.000000 0 0 1
-26.874607 6.465584 -15.954055 31.915203 -0.236097 2.094267 0.072751 -0.004311 -956824.000000 0 0 1
-27.569607 6.090084 -17.230755 33.076749 -0.217407 2.118739 0.013164 0.010412 605500.000000 0 0 1
-28.779397 5.394784 -16.809255 33.762530 -0.185303 2.091934 0.012253 0.000303 674278.000000 0 0 1
-29.423437 4.858084 -17.957755 34.811214 -0.163633 2.112809 0.017763 0.013590 -445281.000000 0 0 1
-30.761137 4.213284 -17.611955 35.695662 -0.136121 2.086782 0.019468 0.008128 -700287.000000 0 0 1
-30.718247 3.120584 -16.676155 35.091921 -0.101240 2.066003 0.022651 -0.001195 315192.000000 0 0 1
-30.138217 1.942084 -17.252255 34.781089 -0.064350 2.089810 0.041030 -0.004014 -73324.800000 0 0 1
-30.186617 0.757684 -16.282055 34.306140 -0.025095 2.065318 0.040215 -0.008969 -566518.000000 0 0 1
-29.887017 -0.517516 -16.848255 34.312758 0.017314 2.084057 0.044028 0.000158 285926.000000 0 0 1
-30.271507 -1.551916 -16.018955 34.283808 0.051222 2.056969 0.055963 -0.016038 -491605.000000 0 0 1
-29.895487 -2.920416 -16.613155 34.325878 0.097379 2.075997 0.052215 -0.007841 46669.700000 0 0 1
-30.642207 -3.145216 -17.797055 35.574885 0.102285 2.094707 0.049417 -0.009968 343320.000000 0 0 1
-30.481767 -4.448316 -18.329455 35.845426 0.144911 2.107548 0.042640 -0.007606 225976.000000 0 0 1
-31.431537 -4.593816 -19.561355 37.305379 0.145126 2.122757 0.045956 0.002046 260407.000000 0 0 1
-31.501097 -5.889116 -20.098955 37.828149 0.184816 2.130957 0.043509 0.002368 22042.200000 0 0 1
-32.216107 -5.912416 -21.311155 39.076842 0.181504 2.147621 0.036066 0.003902 -261394.000000 0 0 1
-32.316057 -7.358216 -21.889155 39.719089 0.223878 2.154477 0.040692 -0.002061 264869.000000 0 0 1
-31.074937 -7.763616 -22.447255 39.112718 0.244824 2.182071 0.033865 0.001337 10872.600000 0 0 1
-31.180397 -8.308416 -23.742155 40.061664 0.260412 2.205129 0.022887 0.008150 -375993.000000 0 0 1
-29.874257 -8.452816 -24.541955 39.575610 0.275739 2.239703 0.018094 0.009388 -420116.000000 0 0 1
-29.347697 -7.229816 -24.972055 39.206646 0.241541 2.261311 0.019461 0.010019 -195957.000000 0 0 1
-29.418897 -7.029416 -26.438685 40.173228 0.234545 2.289111 0.026392 0.015795 39030.700000 0 0 1
-30.783507 -6.955916 -27.179275 41.649995 0.222230 2.281759 0.015423 0.010061 -157467.000000 0 0 1
-31.523657 -8.131516 -27.145925 42.388250 0.252447 2.265830 0.014404 0.003769 -114439.000000 0 0 1
-32.611097 -8.128216 -28.072465 43.790580 0.244270 2.266677 0.009092 0.008085 801475.000000 0 0 1
-33.676197 -9.233116 -27.786705 44.625527 0.267598 2.242939 0.019263 0.004883 -504876.000000 0 0 1
-33.231657 -10.476016 -28.224235 44.840801 0.305381 2.251618 0.010991 0.007243 -56800.300000 0 0 1
-34.089327 -11.594716 -28.025835 45.628578 0.327853 2.232189 0.000929 0.008771 -499348.000000 0 0 1
35.286851 -11.579216 -28.771135 46.978913 -0.317074 2.229923 0.005947 0.008334 -267260.000000 0 0 1
34.335241 -10.605316 -28.319175 45.753220 -0.299579 2.238208 -0.002794 0.003876 232951.000000 0 0 1
33.491521 -10.252716 -29.426185 45.746044 -0.297070 2.269533 0.004491 -0.002671 200678.000000 0 0 1
32.511191 -9.076616 -29.078895 44.552717 -0.272252 2.281919 0.005261 -0.002892 745085.000000 0 0 1
31.469991 -9.611316 -28.222085 43.350015 -0.296415 2.279735 -0.001297 -0.001390 304989.000000 0 0 1
30.686271 -8.576316 -27.680855 42.206992 -0.272530 2.286086 0.001162 0.001124 -353513.000000 0 0 1
29.628231 -9.065116 -26.714665 40.910655 -0.296918 2.282335 0.005847 -0.000659 -377043.000000 0 0 1
30.171571 -9.579716 -25.519165 40.661068 -0.307441 2.249272 -0.010679 0.012747 462365.000000 0 0 1
29.100491 -9.952916 -24.661555 39.421966 -0.329547 2.246670 -0.008391 0.011914 257613.000000 0 0 1
29.549991 -10.111216 -23.189255 38.899617 -0.329685 2.209470 -0.012396 0.013176 220653.000000 0 0 1
30.396211 -11.214216 -22.885855 39.666745 -0.353443 2.185790 -0.021420 0.017023 335419.000000 0 0 1
30.590671 -11.361816 -21.483755 39.069576 -0.355623 2.153022 -0.016806 0.023417 -61768.800000 0 0 1
31.533861 -12.476316 -20.951455 39.862342 -0.376749 2.124211 -0.005981 0.015576 -95957.800000 0 0 1
32.878671 -12.294216 -21.361755 41.091110 -0.357829 2.117487 -0.001581 0.014043 87034.600000 0 0 1
33.627671 -13.292316 -20.668255 41.649522 -0.376430 2.090062 0.014523 0.010434 -297468.000000 0 0 1
35.039547 -13.441516 -21.287155 43.146114 -0.366298 2.086760 0.019257 -0.001268 -290401.000000 0 0 1
-34.696811 -12.452216 -20.923755 42.387851 0.344569 2.087051 0.026990 -0.004020 704258.000000 0 0 1
-34.864778 -11.235816 -21.671255 42.561011 0.311759 2.105029 0.019558 0.010887 -724361.000000 0 0 1
-34.235459 -11.326516 -23.105655 42.827887 0.319506 2.140640 0.012955 0.008765 68306.900000 0 0 1
-34.878556 -12.076616 -24.141655 44.104171 0.333328 2.150024 0.008635 0.009545 1169770.000000 0 0 1
34.490191 -11.704116 -24.554355 43.925800 -0.327152 2.163971 -0.001179 0.014749 842501.000000 0 0 1
33.826951 -12.708016 -25.532615 44.245573 -0.359364 2.185928 0.009464 -0.002324 -56614.900000 0 0 1
33.569601 -14.044516 -25.073115 44.190809 -0.396242 2.174121 0.025138 -0.004556 105194.000000 0 0 1
32.491811 -14.068516 -24.167155 42.868313 -0.408616 2.169719 0.011225 -0.001402 -740270.000000 0 0 1
-28.823267 9.286784 -19.371955 35.948543 -0.311695 2.139903 0.001344 0.010801 -500380.000000 0 0 1
-27.888717 8.330384 -19.640555 35.113064 -0.290264 2.164400 0.003846 0.013963 -594176.000000 0 0 1
-27.153767 8.570284 -20.839255 35.285286 -0.305725 2.202590 0.013647 -0.002718 740755.000000 0 0 1
-25.862887 7.688384 -20.987555 34.183002 -0.288955 2.231885 0.019946 0.000807 59583.400000 0 0 1
-24.746877 8.051984 -20.245755 32.971700 -0.314570 2.231958 0.027175 -0.004455 -540552.000000 0 0 1
-23.712477 7.132884 -20.499555 32.146405 -0.292197 2.262297 0.041334 -0.012655 -1299020.000000 0 0 1
-22.416977 7.449184 -19.844455 30.851477 -0.320821 2.269500 0.053029 -0.020851 -1232190.000000 0 0 1
-21.846077 8.542284 -20.527155 31.170271 -0.372742 2.289685 0.058358 -0.016941 -36632.300000 0 0 1
-20.725477 8.996784 -19.750955 30.009794 -0.409547 2.289156 0.052120 -0.007454 621202.000000 0 0 1
-19.908277 10.070084 -20.584455 30.355657 -0.468296 2.315983 0.049082 -0.004874 172522.000000 0 0 1
-19.242977 9.580184 -21.730055 30.565788 -0.461929 2.361612 0.051234 -0.007684 -137066.000000 0 0 1
-18.485077 10.582484 -22.362155 30.882892 -0.519944 2.380518 0.050762 -0.005561 -13480.800000 0 0 1
-17.519177 10.130584 -23.444755 30.971065 -0.524278 2.429489 0.044694 -0.004132 -215946.000000 0 0 1
-18.231977 9.354384 -24.378155 31.846569 -0.474053 2.442595 0.043032 -0.009004 16151.200000 0 0 1
-17.387877 8.633184 -25.269495 31.865617 -0.460848 2.486517 0.033955 -0.000225 -466937.000000 0 0 1
-18.090577 7.600284 -26.154255 32.696764 -0.397733 2.497931 0.014674 0.006421 -444173.000000 0 0 1
-18.665177 6.539384 -25.402595 32.193854 -0.336988 2.480059 0.026897 0.009372 303822.000000 0 0 1
-19.322677 5.613684 -26.258065 33.081192 -0.282740 2.487740 0.013261 0.004622 -702428.000000 0 0 1
-19.661077 4.285684 -25.549385 32.522240 -0.214621 2.474457 0.019413 0.017180 -398819.000000 0 0 1
-18.686577 3.299784 -25.406415 31.710608 -0.174784 2.500088 0.023279 0.012933 -243333.000000 0 0 1
-17.519977 3.679184 -24.717355 30.519398 -0.206992 2.514761 0.019546 0.006558 -734984.000000 0 0 1
-16.747977 2.443884 -24.204955 29.535524 -0.144898 2.531369 0.023005 0.003425 -187128.000000 0 0 1
-17.261577 1.728084 -23.057155 28.854475 -0.099779 2.496567 0.027539 0.000466 1481080.000000 0 0 1
-18.536077 1.053384 -23.310055 29.800242 -0.056768 2.469002 0.027252 0.002360 1170150.000000 0 0 1
-19.071677 0.078584 -22.227255 29.287983 -0.004120 2.432450 0.053262 -0.003600 104413.000000 0 0 1
-18.212677 -1.006416 -22.025455 28.597817 0.055203 2.449919 0.052599 -0.007588 212512.000000 0 0 1
-18.780177 -1.684916 -20.909955 28.155998 0.089478 2.407810 0.051638 -0.009939 67151.500000 0 0 1
-18.221377 -3.067516 -20.612255 27.682003 0.166783 2.410744 0.030110 -0.029778 -153577.000000 0 0 1
-18.340477 -3.965016 -21.696655 28.685176 0.212913 2.428545 0.033823 -0.032796 128853.000000 0 0 1
-18.517977 -5.285716 -21.275155 28.696455 0.278043 2.405930 0.034134 -0.026597 -264470.000000 0 0 1
-18.622477 -6.338216 -22.384055 29.799590 0.328055 2.420603 0.008844 -0.024558 -744826.000000 0 0 1
-17.438677 -6.465716 -23.088255 29.647605 0.355056 2.463477 0.017701 -0.014500 -674770.000000 0 0 1
-17.574077 -7.393516 -24.120955 30.746264 0.398228 2.472713 0.026012 -0.020916 -392423.000000 0 0 1
-16.213477 -7.756416 -24.687555 30.537096 0.446213 2.512301 0.037801 -0.022861 -1540540.000000 0 0 1
-16.264877 -8.630416 -25.858075 31.743824 0.487840 2.522811 0.032929 -0.034681 207076.000000 0 0 1
-15.037577 -8.839316 -26.566025 31.780748 0.531412 2.560595 0.044568 -0.037543 758336.000000 0 0 1
-13.960777 -9.575916 -25.697145 30.772467 0.601211 2.559055 0.050645 -0.038119 -601431.000000 0 0 1
-13.403977 -8.953216 -24.589555 29.401920 0.588892 2.561341 0.043215 -0.033919 -159528.000000 0 0 1
-12.461277 -9.786116 -23.944855 28.712499 0.665727 2.557028 0.022707 -0.030262 544217.000000 0 0 1
-11.519277 -9.018916 -22.936755 27.205318 0.664252 2.573815 0.033925 -0.029579 76162.800000 0 0 1
-12.244177 -8.676916 -21.792155 26.459531 0.616512 2.538531 0.025477 -0.022178 266548.000000 0 0 1
-11.495677 -8.086216 -20.710455 25.029192 0.613013 2.545351 0.026965 -0.023070 -343495.000000 0 0 1
-12.341777 -7.724416 -19.454955 24.299822 0.559229 2.499128 0.016641 -0.012311 382655.000000 0 1 0
-13.300077 -6.685716 -19.685455 24.680113 0.465791 2.494142 0.013063 -0.003746 656020.000000 0 1 0
-14.648077 -7.159216 -19.671855 25.549999 0.454605 2.449537 0.022122 -0.020798 501950.000000 0 0 1
-15.562277 -5.957216 -19.248355 25.459224 0.365590 2.428048 0.025453 -0.019049 -364348.000000 0 0 1
-15.222477 -5.500516 -17.933455 24.157572 0.346743 2.407372 0.024858 -0.012206 287562.000000 0 1 0
-15.240077 -4.083516 -17.868755 23.837522 0.261796 2.418263 0.027230 -0.015951 -97836.400000 0 1 0
-14.931977 -3.434716 -16.477455 22.500394 0.226091 2.392517 0.040322 -0.016406 238554.000000 0 1 0
-16.091077 -3.481116 -15.675655 22.732512 0.213055 2.331691 0.046884 -0.010738 45644.100000 0 1 0
-16.693377 -2.210516 -15.525155 22.903835 0.131653 2.315618 0.021158 -0.011007 157984.000000 0 1 0
-17.967777 -2.211516 -14.644155 23.284826 0.122466 2.250952 0.021581 -0.011118 123876.000000 0 1 0
-17.632077 -2.369916 -13.283455 22.202631 0.133609 2.212153 0.025624 -0.028976 628321.000000 0 1 0
-18.571677 -1.688816 -12.479355 22.438663 0.090686 2.160547 0.018217 -0.022911 -377803.000000 0 1 0
-18.057677 -0.414416 -11.903855 21.632226 0.022946 2.153500 0.018051 -0.013129 -226572.000000 0 1 0
-17.566577 0.433784 -12.935355 21.819629 -0.024689 2.205366 0.029753 -0.017579 707538.000000 0 1 0
-16.558977 1.302784 -12.441055 20.752755 -0.078514 2.213659 0.029316 -0.010097 -445582.000000 0 1 0
-16.103877 2.275284 -13.594955 21.197514 -0.140359 2.267049 0.041119 -0.009067 144993.000000 0 1 0
-15.476277 1.715384 -14.708855 21.419807 -0.110389 2.327728 0.050656 -0.016353 -233693.000000 0 1 0
-14.211677 1.158484 -14.493455 20.331603 -0.081336 2.364355 0.047751 -0.012636 -855378.000000 0 1 0
-13.651277 0.262284 -15.568855 20.707859 -0.019211 2.421634 0.045243 -0.009105 -181881.000000 0 1 0
-13.204477 0.907984 -16.717355 21.322585 -0.068655 2.471914 0.040833 -0.016257 109816.000000 0 1 0
-12.647177 -0.094216 -17.559855 21.640436 0.007449 2.517403 0.019367 -0.011569 18222.500000 0 1 0
-12.026377 0.539084 -18.857755 22.372735 -0.044795 2.573428 0.027255 -0.014193 -165009.000000 0 1 0
-10.797977 1.197484 -18.640155 21.575117 -0.110448 2.613889 0.001846 -0.003645 -132779.000000 0 1 0
-10.327277 1.883684 -19.782155 22.394968 -0.180416 2.653716 -0.010467 0.002822 1057610.000000 0 1 0
-8.933877 2.600284 -19.564055 21.663977 -0.283234 2.697657 -0.020260 0.003139 788318.000000 0 1 0
-7.806177 1.683584 -19.571655 21.138130 -0.212420 2.754190 -0.025620 0.000532 1250710.000000 0 1 0
-6.516977 2.296484 -19.439555 20.631072 -0.338798 2.800072 -0.007618 0.005364 901642.000000 0 1 0
-6.166377 3.420684 -20.449655 21.631312 -0.506469 2.809533 -0.000152 0.013088 -1466840.000000 0 1 0
-6.009077 2.900584 -21.746455 22.747103 -0.449712 2.843880 -0.003202 0.011013 223456.000000 0 1 0
-5.923477 3.936484 -22.726655 23.813533 -0.586540 2.838302 -0.003393 0.012206 -449675.000000 0 1 0
-5.488377 3.497884 -24.119055 24.981719 -0.567414 2.878031 0.012374 0.002464 312717.000000 0 1 0
-4.173977 2.938384 -24.075455 24.610642 -0.613390 2.932665 0.032717 -0.003117 231386.000000 0 1 0
-3.853277 2.307484 -25.279355 25.675241 -0.539564 2.965759 0.037124 -0.009839 -60266.600000 0 0 1
-2.449077 1.678284 -25.154955 25.329555 -0.600773 3.024110 0.049401 -0.014111 193215.000000 0 0 1
-1.395077 2.642184 -25.164605 25.341364 -1.084999 3.023413 0.053646 -0.015175 1419740.000000 0 0 1
-0.026377 2.175284 -25.090485 25.184618 -1.558671 3.055105 0.054101 -0.013436 1527900.000000 0 0 1
0.491523 1.413884 -23.841755 23.888699 1.236225 3.078891 0.047632 -0.008981 -714216.000000 0 1 0
0.338923 0.003784 -23.882755 23.885160 0.011164 3.127402 0.049127 -0.011018 -99626.800000 0 1 0
0.973923 -0.607216 -22.822655 22.851495 -0.557502 3.091347 0.039765 -0.011104 -659671.000000 0 1 0
0.613223 -2.090416 -22.809755 22.913551 -1.285452 3.046374 0.040345 -0.016018 241356.000000 0 1 0
-0.571277 -2.373616 -22.082255 22.216804 1.334610 3.031481 0.039996 -0.018231 -130055.000000 0 1 0
-1.751977 -2.555416 -22.810155 23.019617 0.969805 3.006588 0.040316 -0.020877 -34452.200000 0 1 0
-2.741377 -1.366116 -22.862855 23.067110 0.462312 3.008417 0.038943 -0.017688 -689803.000000 0 1 0
-3.355177 -1.165216 -21.604055 21.894066 0.334258 2.978648 0.030455 -0.017925 1043400.000000 0 1 0
-4.367777 -0.106716 -21.583855 22.021618 0.024428 2.941868 0.018380 -0.017198 1726700.000000 0 1 0
-5.778577 -0.307716 -22.231255 22.972056 0.053201 2.886945 0.023743 -0.013158 670491.000000 0 1 0
-6.460877 -1.448616 -21.630755 22.621472 0.220566 2.844544 0.023602 -0.008312 1621810.000000 0 1 0
-7.893877 -1.347716 -21.858655 23.279399 0.169099 2.790420 0.003718 0.000875 1864710.000000 0 1 0
-8.728577 -2.632116 -21.444755 23.302223 0.292880 2.739612 0.011824 -0.015514 -22314.200000 0 1 0
-8.498177 -3.670416 -22.265955 24.113559 0.407706 2.747588 0.030149 -0.019979 -300636.000000 0 1 0
-9.029277 -4.909016 -21.876055 24.169983 0.497976 2.702392 0.020274 -0.012108 -640908.000000 0 1 0
-10.080977 -5.351316 -22.908155 25.593872 0.488009 2.679371 0.020064 -0.022003 -1213880.000000 0 0 1
-11.328777 -4.845216 -22.645255 25.780320 0.404148 2.643286 0.013047 -0.023470 -1096750.000000 0 0 1
-12.211277 -5.445216 -23.600855 27.125008 0.419453 2.626156 0.008684 -0.026401 961833.000000 0 0 1
-13.750877 -5.172816 -23.472855 27.691507 0.359806 2.582347 0.004835 -0.022579 743089.000000 0 0 1
-14.159277 -3.865716 -23.810855 27.971159 0.266521 2.589187 0.007962 -0.021483 -219043.000000 0 0 1
-15.550277 -3.666316 -23.866455 28.720388 0.231543 2.551688 0.024280 -0.017521 -37867.500000 0 0 1
-15.898677 -2.251416 -24.289755 29.117504 0.140675 2.557473 0.013588 -0.016466 -227083.000000 0 0 1
-15.435377 -2.014216 -25.606905 29.967007 0.129760 2.595390 0.009103 -0.009971 145140.000000 0 0 1
-15.794577 -0.757816 -26.075425 30.495422 0.047943 2.596463 0.003827 -0.009488 1480800.000000 0 0 1
-17.248577 -0.685216 -26.766185 31.849829 0.039705 2.568793 0.027066 -0.008357 1214080.000000 0 0 1
-17.482877 -1.456416 -27.932015 32.984384 0.083113 2.580784 0.024543 -0.014502 -109421.000000 0 0 1
-16.908177 -1.016916 -29.135305 33.701433 0.060071 2.614976 0.010323 -0.004537 -250385.000000 0 0 1
-17.117777 -2.032516 -30.257195 34.823085 0.118184 2.623738 0.001450 0.002755 349778.000000 0 0 1
-18.492277 -2.228116 -30.552295 35.782280 0.119911 2.594112 0.004096 0.001019 169407.000000 0 0 1
-18.624277 -2.884416 -31.795535 36.961326 0.153653 2.606532 0.002948 -0.005428 -739593.000000 0 0 1
-20.055077 -3.250416 -32.190465 38.065698 0.160677 2.578588 -0.013312 0.002537 85920.900000 0 0 1
-20.972377 -2.159016 -32.396175 38.652479 0.102584 2.564660 -0.015144 -0.004324 660661.000000 0 0 1
-21.542477 -1.485116 -31.289305 38.017161 0.068830 2.537523 -0.018042 0.011244 -305964.000000 0 0 1
-22.584177 -0.449316 -31.783425 38.992731 0.019893 2.523718 -0.012630 0.010947 82881.900000 0 0 1
-22.011477 0.650984 -32.453495 39.219361 -0.029566 2.545413 -0.015376 0.008257 73487.400000 0 0 1
-23.072877 1.441884 -32.907015 40.215772 -0.062411 2.529176 -0.011065 0.006841 -187444.000000 0 0 1
-22.652577 2.789984 -33.541345 40.570249 -0.122547 2.544097 -0.009443 0.004832 -536704.000000 0 0 1
-22.096177 3.768184 -32.679185 39.627887 -0.168911 2.540382 -0.016995 0.000078 35265.400000 0 0 1
-22.988477 4.619584 -31.954555 39.634634 -0.198311 2.508545 -0.016203 -0.003886 -53085.600000 0 0 1
-24.047677 5.520684 -32.715095 40.976166 -0.225662 2.495418 -0.017570 -0.006761 606634.000000 0 0 1
-25.211347 4.763284 -33.043735 41.835264 -0.186733 2.481367 -0.006637 -0.017237 99790.700000 0 0 1
-25.889717 5.324784 -34.112713 43.154467 -0.202843 2.482387 0.000544 -0.021669 -762966.000000 0 0 1
-27.199937 4.636884 -34.461262 44.146527 -0.168851 2.466439 0.005408 -0.013927 -534062.000000 0 0 1
-27.030637 3.297684 34.123404 43.657036 -0.121398 0.673531 0.008090 -0.011062 954443.000000 0 0 1
-28.256837 2.810584 33.532263 43.940424 -0.099140 0.702653 0.000955 -0.006445 747894.000000 0 0 1
-28.269447 1.312184 33.097822 43.547093 -0.046384 0.707411 0.011689 0.012596 -248711.000000 0 0 1
-28.301987 0.484384 34.225973 44.414574 -0.017113 0.691011 -0.002574 0.018855 248508.000000 0 0 1
-28.274497 -0.878416 33.967711 44.204346 0.031057 0.694420 -0.004819 0.016017 -551359.000000 0 0 1
-28.197347 -1.778216 -33.786305 44.042784 0.062980 2.445143 -0.038263 0.029324 859519.000000 0 0 1
-26.984737 -1.835216 -32.986425 42.657336 0.067905 2.454808 -0.031618 0.022928 1265300.000000 0 0 1
-26.445577 -0.609616 -32.460925 41.874239 0.023048 2.457829 -0.031862 0.024730 -494773.000000 0 0 1
-26.828707 -0.173016 -31.052775 41.037596 0.006449 2.429033 -0.004603 0.021852 -375620.000000 0 0 1
-26.219937 -0.950616 -30.029845 39.877066 0.036240 2.423498 -0.006212 0.014114 408477.000000 0 0 1
-26.459187 -0.483716 -28.706855 39.043644 0.018280 2.396832 0.004638 0.012859 -171510.000000 0 0 1
-25.478827 -1.104716 -27.668695 37.629081 0.043331 2.396907 0.015791 0.007924 51157.400000 0 0 1
-25.601257 -2.478816 -27.304705 37.511543 0.096523 2.386053 0.011028 0.011104 -370289.000000 0 0 1
-24.419977 -2.904516 -26.719835 36.314200 0.118384 2.397637 0.033735 0.002534 -354267.000000 0 0 1
-24.648277 -4.351216 -26.238575 36.262012 0.174732 2.379776 0.026974 -0.002590 -48989.300000 0 0 1
-25.468847 -4.335716 -25.121315 36.035276 0.168620 2.342185 0.031411 -0.001169 -252535.000000 0 0 1
-25.879887 -5.604716 -24.701855 36.212747 0.213273 2.321470 0.023106 -0.003929 -125417.000000 0 0 1
-26.753457 -5.526016 -23.462455 36.010709 0.203689 2.280410 0.032456 -0.008036 -147774.000000 0 0 1
-26.795977 -6.652116 -22.694355 35.739457 0.243331 2.258798 0.030554 -0.011262 556300.000000 0 0 1
-27.901027 -6.520116 -21.767355 35.983288 0.229568 2.220474 0.035199 -0.005212 742975.000000 0 0 1
-28.224937 -7.845216 -21.031255 36.062560 0.271110 2.193444 0.033669 -0.005949 -32364.600000 0 0 1
-27.249497 -8.135716 -20.048955 34.794907 0.290139 2.184872 0.028159 -0.008444 183716.000000 0 0 1
-27.802207 -9.026016 -19.101855 34.918657 0.313916 2.149619 0.030253 -0.013060 558492.000000 0 0 1
-28.634327 -8.369916 -17.943255 34.812937 0.284381 2.112293 0.036418 -0.020254 571347.000000 0 0 1
-27.753567 -7.667616 -17.076755 33.476386 0.269551 2.106113 0.028990 -0.024557 64922.000000 0 0 1
-28.443117 -6.887316 -16.189555 33.444697 0.237571 2.076096 0.034521 -0.023166 -86962.500000 0 0 1
-27.515077 -6.373316 -15.035455 31.996305 0.227616 2.059988 0.030854 -0.022309 437540.000000 0 0 1
-26.795437 -5.183316 -15.349055 31.312230 0.191080 2.083108 0.034516 -0.013362 304313.000000 0 0 1
-25.990697 -4.804116 -14.246855 30.026135 0.182777 2.065172 0.029565 -0.025867 -410622.000000 0 0 1
-13.759777 21.449884 -4.786055 25.929429 -1.000430 1.756441 0.023423 0.002954 -67703.700000 0 0 1
-13.877277 21.012384 -6.109455 25.911861 -0.987122 1.808816 0.046756 0.000426 116786.000000 0 0 1
-14.764677 19.910384 -6.164355 25.542481 -0.932721 1.814540 0.051543 -0.010547 -14421.700000 0 0 1
-14.915377 19.239284 -7.583155 25.497505 -0.911326 1.872773 0.064254 -0.014971 149739.000000 0 0 1
-13.751177 18.595584 -8.155555 24.523533 -0.934058 1.909813 0.061421 -0.013303 533327.000000 0 1 0
-14.000577 17.436884 -8.919555 24.075289 -0.894272 1.950328 0.056067 -0.019982 -282382.000000 0 1 0
-14.650077 16.169584 -8.213255 23.313896 -0.834661 1.930813 0.053585 -0.021162 1512200.000000 0 1 0
-16.028677 16.472884 -7.837355 24.283709 -0.799065 1.899421 0.061902 -0.003408 1219600.000000 0 1 0
-16.401877 15.438484 -6.968655 23.578179 -0.755150 1.870833 0.070892 -0.008577 728010.000000 0 1 0
-17.928077 15.434384 -6.577355 24.553976 -0.710791 1.841981 0.072020 -0.019988 1015990.000000 0 1 0
-18.812077 14.979184 -7.574155 25.211863 -0.672452 1.875930 0.067835 -0.020147 -1059370.000000 0 0 1
-20.087677 15.482484 -7.421955 26.425509 -0.656646 1.855490 0.035362 -0.015684 -1056090.000000 0 0 1
-21.009577 14.767484 -8.399555 27.019131 -0.612665 1.886909 0.038566 -0.008063 -463345.000000 0 0 1
-21.373577 13.485784 -7.980155 26.502435 -0.562871 1.876653 0.056195 -0.011188 -789721.000000 0 0 1
-22.242777 12.916584 -8.845755 27.199755 -0.526114 1.902035 0.064058 -0.011905 -800062.000000 0 0 1
-22.525777 11.488084 -8.394055 26.642952 -0.471613 1.891313 0.045631 -0.017432 -708143.000000 0 0 1
-21.568477 10.489684 -8.374655 25.404085 -0.452663 1.906737 0.054751 -0.016891 -794160.000000 0 0 1
-22.067077 9.369884 -7.733555 25.190445 -0.401540 1.882839 0.058305 -0.022690 187590.000000 0 0 1
-20.976977 8.375384 -7.190255 23.704017 -0.379873 1.878987 0.056560 -0.004431 260342.000000 0 1 0
-20.471377 7.510284 -8.192055 23.293592 -0.351622 1.930169 0.037637 -0.006437 289942.000000 0 1 0
-19.536377 6.577484 -7.709155 22.008280 -0.324758 1.928671 0.036651 0.002932 -101016.000000 0 1 0
-19.236277 5.400784 -8.685155 21.786114 -0.273714 1.980847 0.019574 -0.006402 -1159280.000000 0 1 0
-20.268077 4.474884 -8.697155 22.504667 -0.217299 1.967587 0.030126 -0.001274 -64077.800000 0 1 0
-20.033477 3.454184 -9.672055 22.512669 -0.170742 2.014876 0.016419 -0.001864 -343609.000000 0 1 0
-20.895177 2.192784 -9.551855 23.079313 -0.104559 1.997498 0.010225 -0.001966 -77702.300000 0 1 0
-20.418277 1.261984 -8.591255 22.188022 -0.061728 1.968392 0.006775 -0.008328 722278.000000 0 1 0
-21.404177 0.316084 -8.124855 22.896550 -0.014766 1.933551 0.020953 -0.007435 313965.000000 0 1 0
-21.480177 -1.011016 -8.883755 23.266742 0.047033 1.962563 0.020773 -0.012229 565912.000000 0 1 0
-20.219877 -1.703416 -8.884155 22.151146 0.084046 1.983481 -0.002187 -0.003550 656732.000000 0 1 0
-20.288977 -3.023716 -9.376055 22.554287 0.147944 1.999520 -0.009052 -0.006938 -270627.000000 0 1 0
-21.220777 -4.134616 -8.757155 23.326041 0.192427 1.955650 -0.012059 -0.005617 222022.000000 0 1 0
-20.983277 -4.417216 -7.385755 22.679486 0.207482 1.902504 -0.006383 -0.004735 657324.000000 0 1 0
-22.081677 -5.084816 -6.741355 23.641102 0.226328 1.859963 0.011697 -0.002923 -33898.600000 0 1 0
-22.104777 -6.639216 -6.932455 24.098948 0.291780 1.862586 0.003846 -0.004184 -546703.000000 0 1 0
-21.178577 -7.341716 -6.132755 23.238839 0.333694 1.837861 0.004424 -0.004813 529896.000000 0 1 0
-21.267477 -8.778116 -6.346155 23.867019 0.391448 1.839930 -0.000670 0.000064 -1000100.000000 0 1 0
-20.225077 -9.651516 -5.701355 23.123818 0.445246 1.819923 -0.000520 -0.004095 -1811640.000000 0 1 0
-19.014377 -9.568516 -6.327755 22.206835 0.466225 1.859747 0.002589 -0.001727 -556768.000000 0 1 0
-17.944877 -10.182916 -5.600755 21.379403 0.516146 1.835859 -0.000305 -0.001477 263680.000000 0 1 0
-17.512777 -11.584716 -6.171555 21.885866 0.584418 1.856662 0.001313 0.002089 -747403.000000 0 1 0
-16.552777 -11.662416 -7.179755 21.483838 0.613779 1.911546 0.005102 0.005138 67527.900000 0 1 0
-16.933577 -11.028216 -8.442855 21.900900 0.577263 1.966549 0.017671 0.002369 -324970.000000 0 1 0
-16.061677 -11.259216 -9.712755 21.888011 0.611396 2.030573 0.033872 0.005307 53434.600000 0 1 0
-16.107077 -12.584816 -10.215355 22.851018 0.663248 2.034252 0.034800 0.006316 -263082.000000 0 1 0
-15.207277 -12.786016 -11.239155 22.826785 0.699119 2.085603 0.032612 0.016775 -584538.000000 0 1 0
-15.205077 -14.105516 -12.048855 23.986139 0.747902 2.097083 0.046835 0.006771 -1197680.000000 0 1 0
-16.199877 -14.307916 -12.938255 25.190295 0.723462 2.110196 0.033809 0.004848 -979590.000000 0 0 1
-16.242877 -15.581116 -13.552555 26.273066 0.764607 2.112778 0.027387 0.008038 -226984.000000 0 0 1
-16.413077 -15.499516 -15.084655 27.150892 0.756779 2.159864 0.033245 0.013243 -48655.400000 0 0 1
-16.227977 -16.740616 -15.758055 28.140927 0.800946 2.165145 0.026146 0.017458 195779.000000 0 0 1
-16.501277 -16.660216 -17.107455 29.026195 0.790191 2.201087 0.027927 0.015007 -453156.000000 0 0 1
-16.889277 -17.918416 -17.847355 30.411271 0.814956 2.197980 0.029460 0.004956 -235570.000000 0 0 1
-18.198477 -18.335316 -17.558355 31.235624 0.789144 2.167750 0.004698 0.004506 -379519.000000 0 0 1
-19.089377 -18.193616 -18.642855 32.295016 0.761377 2.186174 0.007545 0.003308 639003.000000 0 0 1
-20.600077 -18.113216 -18.234855 32.938757 0.721248 2.157476 0.002066 -0.001376 563816.000000 0 0 1
-20.955777 -16.856016 -17.668155 32.178154 0.677395 2.152051 -0.003676 0.010162 277650.000000 0 0 1
-20.748177 -16.825516 -16.230955 31.257459 0.681376 2.116789 -0.015691 0.006754 -252803.000000 0 0 1
-20.583577 -15.341816 -15.768755 30.128203 0.640514 2.121619 -0.007583 0.004395 -121443.000000 0 0 1
-21.784777 -14.619516 -15.661655 30.554774 0.591058 2.108979 -0.001245 0.007971 529594.000000 0 0 1
-21.471877 -13.344016 -15.123655 29.458941 0.556053 2.109916 0.000319 0.003886 -1007780.000000 0 0 1
-22.729877 -12.630116 -14.741355 29.891047 0.507179 2.086526 0.007352 -0.008967 -694659.000000 0 0 1
-23.402277 -13.270216 -13.636655 30.161624 0.515838 2.039936 0.019701 -0.001628 627455.000000 0 0 1
-24.643277 -12.669316 -13.339255 30.752860 0.474871 2.019454 0.041684 -0.008893 -187484.000000 0 0 1
-25.108637 -12.967016 -11.879355 30.654629 0.476710 1.968739 0.039390 -0.012322 201678.000000 0 0 1
-26.286937 -12.232416 -11.551755 31.210225 0.435539 1.949942 0.038741 -0.021174 393822.000000 0 0 1
-26.856967 -12.711116 -10.380955 31.474329 0.442052 1.906912 0.032025 -0.016273 -203558.000000 0 0 1
-27.667247 -11.657216 -9.644455 31.533836 0.398763 1.881622 0.036626 -0.016843 339530.000000 0 0 1
-26.819867 -10.684116 -8.998655 30.239567 0.379097 1.872952 0.038317 -0.021612 747737.000000 0 0 1
-27.648847 -9.624416 -8.497955 30.484478 0.334976 1.853302 0.064360 -0.019680 194858.000000 0 0 1
-26.919227 -8.496116 -7.786455 29.282378 0.305720 1.839943 0.037612 -0.012901 -67937.000000 0 0 1
-26.271377 -8.796216 -6.547655 28.468061 0.323089 1.802874 0.013252 -0.014504 46802.400000 0 0 1
-25.436797 -7.805916 -6.027255 27.281693 0.297752 1.793561 0.010745 -0.010846 -40278.900000 0 0 1
-26.206257 -6.513816 -5.438455 27.545862 0.243623 1.769535 0.017355 -0.011001 220046.000000 0 0 1
-27.040717 -6.781616 -4.305655 28.208676 0.245725 1.724031 0.022088 -0.013703 404290.000000 0 0 1
-26.469627 -7.304816 -3.060755 27.629147 0.269268 1.681804 0.032718 -0.007029 -223394.000000 0 0 1
-25.853507 -6.242316 -2.141655 26.682523 0.236915 1.651147 0.029181 -0.009607 117199.000000 0 0 1
-26.857127 -5.386016 -1.636955 27.440738 0.197918 1.630486 0.024711 -0.014983 289321.000000 0 0 1
-26.314017 -4.352416 -0.825955 26.684326 0.163919 1.601754 0.006375 -0.009653 -708271.000000 0 0 1
-27.417457 -3.399816 -0.370855 27.629934 0.123372 1.584219 0.012733 -0.006814 -396716.000000 0 0 1
-28.240877 -3.825916 0.692045 28.507257 0.134655 1.546518 0.005781 -0.008962 -201089.000000 0 0 1
-27.763907 -3.759516 1.991245 28.087961 0.134592 1.499844 -0.001340 -0.002651 14417.400000 0 0 1
-28.955257 -3.864516 3.005345 29.366197 0.132681 1.468277 -0.019061 -0.002776 241133.000000 0 0 1
-29.473827 -5.165216 3.035545 30.076577 0.173486 1.469697 -0.001984 -0.009281 -240120.000000 0 0 1
-30.279077 -5.351216 4.167445 31.029432 0.174924 1.436083 0.013664 -0.010999 -380874.000000 0 0 1
-31.069007 -6.686016 4.137145 32.048432 0.211966 1.441345 0.021740 -0.010938 -266801.000000 0 0 1
-30.319647 -7.791216 4.531645 31.630995 0.251527 1.427036 0.022857 -0.009161 182796.000000 0 0 1
-30.997717 -8.950016 4.103245 32.523805 0.281087 1.444298 0.034763 -0.011457 3079.300000 0 0 1
-30.209917 -10.234816 4.456045 32.206318 0.326653 1.431992 0.021487 -0.008170 5583.790000 0 0 1
-30.061417 -10.511816 5.839445 32.377248 0.336388 1.389448 0.022598 -0.006027 348382.000000 0 0 1
-29.074777 -11.526416 6.041145 31.854299 0.377434 1.379991 0.019007 -0.001074 -132796.000000 0 0 1
-28.975937 -11.983416 7.535245 32.248831 0.392145 1.334957 0.021428 -0.010356 -134657.000000 0 0 1
-28.510107 -10.942516 8.364045 31.662630 0.366474 1.303462 0.022195 -0.013474 271717.000000 0 0 1
-28.388197 -11.410316 9.686145 32.092156 0.382177 1.264192 0.026240 -0.012755 -186570.000000 0 0 1
-28.545717 -10.205116 10.674745 32.139579 0.343341 1.232228 0.029840 -0.012468 -304424.000000 0 0 1
-27.546627 -9.236716 10.505945 30.895121 0.323530 1.223824 0.015542 -0.008377 53660.000000 0 0 1
-27.526617 -8.361616 11.626745 31.029220 0.294907 1.186720 0.020868 -0.008330 116826.000000 0 0 1
-26.616227 -7.100716 11.517045 29.857764 0.260710 1.174797 0.020101 0.001412 190949.000000 0 0 1
-27.098937 -6.147316 10.573645 29.731194 0.223072 1.207196 0.022011 0.002192 46207.800000 0 0 1
-26.229487 -5.061016 10.531845 28.714450 0.190609 1.195252 0.020015 0.003519 -439836.000000 0 0 1
-26.561137 -4.139716 9.323845 28.452862 0.154612 1.236934 0.018506 -0.001242 -188163.000000 0 0 1
-26.177627 -4.785216 8.094045 27.815104 0.180802 1.275530 0.013895 0.002721 676448.000000 0 0 1
-26.777487 -4.013816 7.034845 27.975589 0.148787 1.316604 0.001578 -0.006535 45244.200000 0 0 1
-26.153857 -4.356716 5.646845 27.108893 0.165065 1.360957 0.004438 -0.001798 112645.000000 0 0 1
-24.881777 -3.743516 5.533945 25.763177 0.149332 1.354309 0.045828 -0.008901 324370.000000 0 0 1
-24.125677 -4.264216 4.460545 24.902376 0.174943 1.390703 0.065520 -0.012500 -1057490.000000 0 1 0
-22.676477 -3.869916 4.580345 23.455883 0.169029 1.374259 0.079611 -0.010071 -1005410.000000 0 1 0
-22.418777 -2.465016 4.339445 22.967557 0.109513 1.380716 0.056868 -0.009778 1494660.000000 0 1 0
-20.990877 -2.267316 4.535445 21.594627 0.107597 1.359194 0.046362 -0.003346 1226790.000000 0 1 0
-20.553477 -0.801616 4.864245 21.136435 0.038982 1.338579 0.030507 -0.006212 -325891.000000 0 1 0
-20.585477 0.107184 3.743245 20.923318 -0.005207 1.390925 0.028607 -0.003800 440251.000000 0 1 0
-21.877077 0.670084 3.636645 22.187400 -0.030620 1.406148 0.024433 -0.011506 -53790.700000 0 1 0
-21.962177 1.851584 2.670745 22.201317 -0.084109 1.450208 0.045213 -0.004906 -398826.000000 0 1 0
-21.330677 2.974984 3.174245 21.769799 -0.138576 1.424465 0.017297 -0.000095 5897.090000 0 1 0
-21.346777 4.090684 2.287845 21.855270 -0.189335 1.465923 0.029024 0.001731 157949.000000 0 1 0
-20.342677 4.193184 1.084545 20.798643 -0.203280 1.518628 0.022631 0.003288 -622189.000000 0 1 0
-20.674277 4.997284 -0.048655 21.269719 -0.237166 1.573084 0.040027 0.010300 589003.000000 0 1 0
-21.807577 4.515184 -0.778255 22.283694 -0.204162 1.605728 0.066467 -0.000755 112360.000000 0 1 0
-21.499377 3.298384 -1.754655 21.821581 -0.152231 1.651292 0.074586 0.005197 -249218.000000 0 1 0
-21.201277 2.164184 -1.008355 21.335291 -0.101726 1.618076 0.041673 0.002876 339152.000000 0 1 0
-20.771477 1.093184 -1.774655 20.875793 -0.052581 1.655909 0.038511 0.004336 3142.080000 0 1 0
-19.854477 0.046184 -1.031555 19.881311 -0.002326 1.622705 0.028639 0.000393 -195506.000000 0 1 0
-20.489977 -0.700916 -0.026255 20.501979 0.034194 1.572077 0.028864 -0.002706 81911.100000 0 1 0
-19.704277 -1.414216 0.899245 19.775419 0.071649 1.525308 0.022665 -0.009565 -586471.000000 0 1 0
-18.963677 -2.660816 0.374245 19.153095 0.139401 1.551255 0.011486 -0.012133 -174727.000000 0 1 0
-18.182477 -3.332116 1.337145 18.533576 0.181249 1.498586 0.013325 -0.009802 334782.000000 0 1 0
-17.596977 -4.510816 0.861745 18.186360 0.250937 1.523394 0.008681 -0.007599 -194911.000000 0 1 0
-18.603277 -5.648616 0.593645 19.450995 0.294789 1.540272 0.012532 -0.009651 -62637.000000 0 1 0
-19.120077 -6.210416 1.779645 20.182016 0.314061 1.482502 0.024979 -0.009808 280912.000000 0 1 0
-20.209077 -7.078116 1.596645 21.472210 0.336893 1.496369 0.012736 -0.013784 -241232.000000 0 1 0
-20.927277 -7.390716 2.957345 22.390166 0.339489 1.438327 0.019881 -0.006580 125713.000000 0 1 0
-20.057677 -8.087216 3.837045 21.964435 0.383260 1.395202 0.012626 -0.001948 1130840.000000 0 1 0
-20.849777 -8.685216 4.871445 23.105782 0.394702 1.358370 0.019526 0.001728 409900.000000 0 1 0
-19.916877 -9.414716 5.842945 22.791641 0.441570 1.311538 0.007940 0.006140 122680.000000 0 1 0
-19.254377 -10.519516 5.197945 22.547947 0.500032 1.338176 -0.006343 0.004947 399820.000000 0 1 0
-18.522677 -11.290316 6.118245 22.538716 0.547405 1.295892 0.007209 0.005804 -417423.000000 0 1 0
-17.949577 -12.533516 5.530345 22.580103 0.609559 1.323358 0.002426 0.004876 -269976.000000 0 1 0
-18.805177 -13.670216 5.433645 23.875385 0.628578 1.341201 0.008899 0.009634 514606.000000 0 1 0
-18.038777 -14.831216 5.055845 23.894017 0.688123 1.357590 -0.004716 0.010259 -31708.000000 0 1 0
-18.908077 -16.144316 5.082245 25.376831 0.706714 1.369162 0.005172 0.009271 -36369.000000 0 0 1
-18.086077 -17.284816 4.907545 25.494216 0.762749 1.377091 0.000455 0.001026 378238.000000 0 0 1
-18.817877 -18.472216 5.304845 26.897522 0.776129 1.372271 0.002695 -0.002984 158619.000000 0 0 1
-18.114377 -19.873316 5.253045 27.398428 0.831668 1.377874 0.000956 -0.010649 -492008.000000 0 0 1
-17.868677 -20.336516 3.909345 27.352267 0.849903 1.427379 0.000702 -0.011738 -15298.300000 0 0 1
-17.112477 -21.522016 3.851245 27.764476 0.899041 1.431636 -0.010512 -0.011272 171019.000000 0 0 1
-15.587277 -21.270116 3.993345 26.670731 0.938378 1.420504 0.004501 -0.010632 -255973.000000 0 0 1
-14.856077 -22.483116 3.921545 27.231821 0.986890 1.426288 0.001201 -0.008933 795887.000000 0 0 1
-13.454977 -22.162716 4.175545 26.261332 1.025173 1.411119 -0.003146 -0.002440 1191300.000000 0 0 1
-12.738877 -23.537816 4.293645 27.106147 1.074728 1.411725 0.009492 0.006251 -414981.000000 0 0 1
-12.826777 -24.367116 3.205345 27.722857 1.086255 1.454916 0.011120 0.005436 -55669.900000 0 0 1
-12.152277 -25.579956 3.426745 28.526384 1.127291 1.450380 0.011461 -0.000648 -46390.200000 0 0 1
18.001623 20.009984 -24.974155 36.717384 0.838185 2.318794 0.021025 0.016801 -468182.000000 0 0 1
17.156023 20.209484 -26.033545 37.155051 0.866936 2.347137 0.016137 0.008872 -387636.000000 0 0 1
17.725323 19.811184 -27.255055 38.072406 0.840910 2.368672 0.020946 0.008194 310277.000000 0 0 1
16.676723 19.973684 -28.405915 38.522164 0.875114 2.399997 0.016629 0.004202 361845.000000 0 0 1
16.450323 21.322784 -28.827385 39.449871 0.913683 2.390194 0.014699 0.013632 -708214.000000 0 0 1
15.501523 21.286184 -29.806775 39.772386 0.941365 2.418003 0.008012 0.015029 -950529.000000 0 0 1
15.152323 22.751284 -30.108495 40.666144 0.983256 2.404435 0.004379 0.004068 -573439.000000 0 0 1
14.530123 23.328584 -28.949355 39.917571 1.013747 2.382162 0.009232 0.001530 275294.000000 0 0 1
14.378223 24.714084 -29.148095 40.830511 1.043880 2.365820 0.005652 0.005619 -226344.000000 0 0 1
13.532223 25.413884 -28.055695 40.200853 1.081509 2.343241 0.004514 0.002662 -1297600.000000 0 0 1
12.190223 25.142784 -28.124405 39.645217 1.119350 2.359446 0.018621 -0.005842 -1529280.000000 0 0 1
11.650623 25.901084 -27.024575 39.203709 1.148099 2.331370 0.015985 -0.001935 -205874.000000 0 0 1
10.137623 25.616984 -26.818825 38.448025 1.193969 2.342747 0.033308 0.000763 451840.000000 0 0 1
9.510423 26.489984 -25.884955 38.238701 1.226109 2.314381 0.033402 -0.007678 -169622.000000 0 0 1
9.195123 27.767084 -26.356265 39.372756 1.251010 2.304202 0.042915 -0.016452 -669849.000000 0 0 1
8.810423 28.760684 -25.241295 39.267333 1.273537 2.268953 0.055341 -0.017668 -1151680.000000 0 0 1
9.801223 29.097584 -24.369855 39.199785 1.245893 2.241686 0.042205 -0.014377 -726237.000000 0 0 1
9.236923 29.831984 -23.256555 38.937583 1.270527 2.210899 0.059973 -0.019529 -373526.000000 0 0 1
10.286623 30.315084 -22.302155 39.015446 1.243664 2.179280 0.026292 -0.014422 -286588.000000 0 0 1
11.239123 31.225184 -22.847555 40.290703 1.225296 2.173738 0.015388 -0.021093 388896.000000 0 0 1
12.015323 31.896284 -21.850255 40.486721 1.210536 2.140864 -0.001395 -0.007289 356160.000000 0 0 1
13.323923 32.474384 -22.441555 41.662164 1.181451 2.139637 -0.008954 0.006361 439513.000000 0 0 1
14.419323 31.585384 -22.642255 41.451478 1.142535 2.148659 -0.012996 -0.002071 -10224.200000 0 0 1
15.466223 32.308984 -23.217755 42.686516 1.124336 2.145890 -0.015526 0.006416 -254935.000000 0 0 1
16.759223 31.585584 -23.626055 42.856868 1.082972 2.154692 -0.025309 0.013240 123062.000000 0 0 1
17.443723 31.074284 -22.482855 42.135179 1.059277 2.133634 -0.006671 0.010618 181067.000000 0 0 1
18.677423 30.522384 -22.909655 42.488991 1.021654 2.140272 0.000402 0.005541 68802.900000 0 0 1
19.570523 29.928484 -21.810255 41.885639 0.991678 2.118478 0.020052 0.011259 270143.000000 0 0 1
20.306623 30.873484 -20.989255 42.497997 0.989002 2.087352 0.022782 0.015370 545861.000000 0 0 1
21.090023 30.191484 -20.025655 41.920658 0.961049 2.068835 0.028448 -0.000039 219170.000000 0 0 1
21.780223 31.127684 -18.971055 42.464241 0.960268 2.033930 0.033086 -0.006971 -412950.000000 0 0 1
22.884423 31.836184 -19.414155 43.750986 0.947552 2.030566 0.027373 -0.001674 -447669.000000 0 0 1
23.337223 32.818984 -18.497555 44.315586 0.952667 2.001384 0.040988 0.000721 67142.300000 0 0 1
24.700723 33.441084 -18.865555 45.654583 0.934609 1.996788 0.033866 -0.001467 -53898.700000 0 0 1
25.712423 32.493884 -19.059055 45.609525 0.901383 2.001901 0.041063 -0.002347 -795245.000000 0 0 1
26.963223 33.101484 -18.862855 46.674735 0.887239 1.986828 0.037465 -0.004857 -526404.000000 0 0 1
28.078823 32.231084 -19.417055 46.949814 0.854138 1.997168 0.010044 0.000602 -495376.000000 0 0 1
28.356423 31.060684 -18.654355 46.009105 0.830880 1.988267 0.023811 0.003385 -307580.000000 0 0 1
29.563623 30.521284 -19.134855 46.601494 0.801335 1.993915 0.004630 0.009630 -75350.600000 0 0 1
30.077823 29.394084 -18.235455 45.839060 0.773902 1.979930 -0.002166 0.008814 -283712.000000 0 0 1
30.428223 29.802184 -16.948155 45.839795 0.775004 1.949510 -0.002448 0.010279 -94747.700000 0 0 1
30.669423 28.720184 -16.082355 44.990050 0.752589 1.936348 0.000561 0.009393 -218878.000000 0 0 1
30.996423 29.333984 -14.676155 45.129263 0.757850 1.902022 0.001779 0.003087 -328676.000000 0 0 1
32.160123 30.092784 -14.542355 46.382424 0.752202 1.889706 -0.006135 0.007371 -377595.000000 0 0 1
32.024223 31.449084 -15.009455 47.327365 0.776337 1.893510 0.001156 0.003339 -194441.000000 0 0 1
33.412923 32.106584 -15.195755 48.766455 0.765463 1.887675 0.005786 0.000423 604165.000000 0 0 1
34.132023 32.180684 -13.952655 48.941475 0.755980 1.859895 0.000948 -0.001144 732700.000000 0 0 1
-35.152395 32.185584 -14.176255 49.724933 -0.741368 1.859900 0.011042 -0.012186 798403.000000 0 0 1
-34.419595 32.381084 -12.851455 48.973493 -0.754891 1.836322 0.016088 -0.002889 -522082.000000 0 0 1
-34.652495 33.614784 -12.178055 49.790101 -0.770199 1.817891 0.031592 -0.010134 156570.000000 0 0 1
-33.970595 33.750784 -10.953555 49.123285 -0.782152 1.795668 0.024957 -0.002227 -5553.960000 0 0 1
-34.627595 -34.169333 -10.189455 49.703508 0.778737 1.777265 0.024484 0.000826 130227.000000 0 0 1
-33.802895 -33.525733 -9.233755 48.496110 0.781282 1.762368 0.023116 0.002243 -187370.000000 0 0 1
-33.647295 -34.093733 -7.987555 48.562580 0.791988 1.736027 0.007633 0.002016 348050.000000 0 0 1
-33.062295 -33.145433 -6.931255 47.326286 0.786654 1.717782 0.020446 0.001361 -21690.200000 0 0 1
-34.005195 -32.139833 -6.770255 47.277463 0.757205 1.714493 0.010517 0.004074 -193871.000000 0 0 1
-33.520695 -31.238533 -5.800455 46.185801 0.750172 1.696718 0.024887 0.003136 -88318.000000 0 0 1
-34.631295 -30.335433 -5.258355 46.338056 0.719370 1.684519 0.007309 0.004196 271163.000000 0 0 1
35.135023 -31.130933 -4.475955 47.155476 -0.725047 1.665859 0.007717 -0.001507 654452.000000 0 0 1
33.884323 -30.474633 -4.342255 45.778879 -0.732468 1.665792 0.012210 0.005397 196897.000000 0 0 1
33.706523 -29.646733 -3.100955 44.996382 -0.721404 1.639767 0.010786 0.002265 -502808.000000 0 0 1
34.426923 -28.454233 -3.256255 44.782358 -0.690698 1.643573 0.008405 -0.001246 196634.000000 0 0 1
33.969723 -27.445333 -2.384555 43.736420 -0.679561 1.625344 0.001404 -0.003762 -281031.000000 0 0 1
34.393523 -26.074833 -2.818155 43.252206 -0.648685 1.635999 0.003159 -0.010320 -501287.000000 0 0 1
34.037623 -25.781733 -4.147355 42.900560 -0.648251 1.667621 0.022700 -0.019250 222919.000000 0 0 1
33.449923 -24.487533 -4.183755 41.665818 -0.631924 1.671378 0.035362 -0.026210 -203338.000000 0 0 1
32.809623 -24.079833 -5.514055 41.069630 -0.633134 1.705464 0.037449 -0.035019 -557227.000000 0 0 1
33.781223 -23.971133 -6.519855 41.932025 -0.617139 1.726916 0.035317 -0.029597 -254532.000000 0 0 1
33.326823 -23.508933 -7.721255 41.508611 -0.614345 1.757902 0.020629 -0.029894 -673850.000000 0 0 1
34.449323 -23.236733 -8.749155 42.464683 -0.593419 1.778316 0.022361 -0.036827 -167854.000000 0 0 1
34.959223 -24.486133 -9.186855 43.659091 -0.611008 1.782803 0.021531 -0.014774 -679226.000000 0 0 1
-34.608295 -24.247233 -9.932555 43.408733 0.611141 1.801656 0.031217 -0.013233 -641497.000000 0 0 1
-34.046495 -25.465133 -10.649855 43.829856 0.642189 1.816235 0.038633 -0.014416 -516134.000000 0 0 1
-33.488095 -26.483333 -9.810755 43.807195 0.669123 1.796665 0.031116 -0.006327 33108.900000 0 0 1
-34.357895 -27.483633 -9.305555 44.971195 0.674693 1.779225 0.025886 -0.005557 15545.000000 0 0 1
-33.529195 -28.685133 -8.770255 44.988456 0.707694 1.766997 0.023927 -0.001028 240553.000000 0 0 1
-32.756995 -29.350233 -9.759755 45.052300 0.730600 1.789159 0.031302 0.000724 28479.400000 0 0 1
-32.315595 -30.585033 -9.287955 45.453361 0.757892 1.776586 0.032983 0.002997 -105509.000000 0 0 1
-31.556595 -31.457033 -10.314255 45.735626 0.783818 1.798272 0.030428 0.007944 -512497.000000 0 0 1
-30.250495 -31.030833 -10.598655 44.613188 0.798131 1.810657 0.009797 0.020576 -49735.200000 0 0 1
-29.667495 -31.719433 -11.698655 44.979342 0.818812 1.833911 -0.001317 0.018288 -265220.000000 0 0 1
-29.862995 -31.032333 -13.035155 44.996883 0.804598 1.864699 -0.003717 0.017365 -474229.000000 0 0 1
-28.934295 -30.021833 -13.338855 43.777037 0.803843 1.880420 -0.013499 0.020018 -90902.100000 0 0 1
-29.329195 -29.444633 -14.582855 44.043703 0.787362 1.908265 -0.010893 0.027852 628176.000000 0 0 1
-28.267495 -28.441433 -15.196955 42.882559 0.788465 1.933053 -0.007293 0.010630 383027.000000 0 0 1
-27.223995 -29.108233 -15.860255 42.895021 0.818834 1.949532 -0.005068 0.010587 -768189.000000 0 0 1
-26.305595 -28.196433 -16.347955 41.884112 0.820077 1.971769 0.000826 0.018818 -433356.000000 0 0 1
-25.066295 -28.859533 -16.983655 41.828655 0.855624 1.988901 0.002941 0.019397 -443822.000000 0 0 1
-25.229995 -29.498233 -18.230755 42.884249 0.863230 2.009886 -0.003435 0.022455 -194842.000000 0 0 1
-25.461095 -28.633433 -19.365555 42.932104 0.843975 2.038765 0.002312 0.020923 -262107.000000 0 0 1
-24.261995 -27.776033 -19.768855 41.844475 0.852824 2.062849 0.006417 0.015819 -115929.000000 0 0 1
-24.002295 -26.758933 -18.801455 40.566555 0.839651 2.052706 0.002719 0.013589 464667.000000 0 0 1
-22.682295 -26.221233 -18.968655 39.520241 0.857638 2.071420 0.011344 0.004688 731113.000000 0 0 1
-22.245295 -25.203933 -17.882555 38.077253 0.847671 2.059678 0.009587 -0.003452 -457039.000000 0 0 1
-22.288795 -25.539633 -16.531655 37.714173 0.853263 2.024548 0.016765 -0.002200 142649.000000 0 0 1
-21.750195 -24.525833 -15.756255 36.370964 0.845306 2.018847 0.015412 -0.000962 -191491.000000 0 0 1
-22.225895 -24.656933 -14.266355 36.131477 0.837205 1.976696 0.014550 0.005647 -102612.000000 0 0 1
-23.574795 -24.254533 -14.213355 36.688865 0.799609 1.968609 -0.009196 0.014729 -313321.000000 0 0 1
-23.963495 -24.226333 -12.893655 36.433647 0.790852 1.932528 -0.005350 0.017359 -303936.000000 0 0 1
-25.497295 -24.120133 -12.817255 37.365424 0.757650 1.920931 0.005605 0.019391 -893529.000000 0 0 1
-26.132395 -25.382933 -13.031455 38.691268 0.770851 1.914319 0.009865 0.017249 761627.000000 0 0 1
-27.520995 -25.481133 -12.707855 39.600289 0.746931 1.897479 0.009862 0.014531 617420.000000 0 0 1
-28.525595 -24.505033 -13.391355 39.919101 0.709727 1.912892 0.011150 0.012733 -1129960.000000 0 0 1
-28.828295 -23.267133 -12.702555 39.163567 0.679051 1.901117 0.016916 0.013997 400514.000000 0 0 1
-29.459495 -23.379433 -11.409355 39.301821 0.670834 1.865338 0.032886 0.006267 -571212.000000 0 0 1
-30.925695 -23.835633 -11.342355 40.659378 0.656642 1.853508 0.030185 0.003156 -577744.000000 0 0 1
-31.916095 -22.899433 -11.730055 40.995309 0.622367 1.860984 0.045224 -0.011519 97836.200000 0 0 1
-32.129895 -22.765533 -13.101055 41.499847 0.616439 1.891979 0.050298 -0.010682 -715328.000000 0 0 1
-33.531595 -22.203933 -13.426055 42.398602 0.584890 1.893005 0.035581 -0.019084 155791.000000 0 0 1
-34.485995 -23.194933 -13.106055 43.578177 0.592092 1.876273 0.039589 -0.017059 -373379.000000 0 0 1
34.898723 -22.926733 -13.483655 43.878980 -0.581246 1.883142 0.041321 -0.024854 -332052.000000 0 0 1
34.004823 -24.120833 -13.138755 43.712349 -0.616964 1.876090 0.027517 -0.008143 -503409.000000 0 0 1
34.090623 -25.255933 -13.958755 44.664074 -0.637617 1.888649 0.021191 0.003565 133015.000000 0 0 1
33.291523 -26.331933 -13.485455 44.537104 -0.669198 1.878417 0.020129 -0.006667 236692.000000 0 0 1
33.354723 -27.558633 -14.347455 45.583607 -0.690531 1.890990 0.016569 -0.003402 157504.000000 0 0 1
32.496623 -27.484633 -15.468155 45.284648 -0.702033 1.919390 0.015614 -0.003744 -30179.900000 0 0 1
32.493023 -28.728133 -16.127255 46.273000 -0.723979 1.926792 0.009952 0.016472 -121069.000000 0 0 1
31.665323 -28.760533 -17.437555 46.194472 -0.737363 1.957871 0.005090 0.011584 -388475.000000 0 0 1
30.296423 -28.636933 -17.172655 45.087107 -0.757247 1.961541 0.016366 0.006653 -504731.000000 0 0 1
29.608823 -28.416033 -18.397955 44.973748 -0.764845 1.992244 0.008767 0.001343 303221.000000 0 0 1
28.075923 -28.448633 -18.158955 43.901364 -0.791992 1.997235 0.010276 -0.005922 149292.000000 0 0 1
27.608123 -27.358633 -17.414455 42.590685 -0.780859 1.992022 0.002770 -0.001938 1234890.000000 0 0 1
26.153223 -27.363233 -17.332955 41.631345 -0.808004 2.000217 0.022807 0.000347 1523920.000000 0 0 1
25.665523 -26.427433 -16.185655 40.238087 -0.800023 1.984766 0.020053 -0.003484 -225539.000000 0 0 1
25.563723 -25.037033 -16.432355 39.374855 -0.774990 2.001303 0.017111 -0.005079 137149.000000 0 0 1
25.182523 -24.379733 -15.213655 38.209765 -0.769202 1.980308 0.013994 -0.002110 -238738.000000 0 0 1
25.020723 -22.891333 -15.396155 37.243674 -0.740984 1.996970 0.004345 -0.000649 -790920.000000 0 0 1
23.800523 -22.463433 -15.876855 36.375063 -0.756505 2.022475 0.005299 0.004654 -750792.000000 0 0 1
23.853623 -21.050333 -15.985355 35.603980 -0.723051 2.036416 0.000796 -0.001783 -259995.000000 0 0 1
22.507123 -20.317933 -16.113155 34.336900 -0.734323 2.059256 0.013116 0.001465 522476.000000 0 0 1
21.625423 -20.506833 -14.942255 33.338567 -0.758855 2.035544 0.017937 -0.007906 519736.000000 0 0 1
20.430323 -19.796733 -15.079355 32.197759 -0.769649 2.058202 0.023287 -0.014968 -273303.000000 0 0 1
20.321323 -18.594833 -14.144255 30.964236 -0.741063 2.045183 0.012026 -0.005106 -207211.000000 0 0 1
20.013323 -18.951033 -12.818955 30.397374 -0.758142 2.006130 0.007090 -0.018523 334152.000000 0 0 1
19.520823 -17.818833 -12.072355 29.057100 -0.739848 1.999256 0.006302 -0.030329 -253830.000000 0 0 1
18.685323 -18.118833 -10.814655 28.184928 -0.770007 1.964600 0.005845 -0.018963 5119.200000 0 0 1
19.435323 -18.510433 -9.678755 28.531495 -0.761029 1.916895 0.012044 -0.031963 645407.000000 0 0 1
18.480623 -18.796233 -8.662255 27.746467 -0.793865 1.888297 0.011229 -0.036517 147881.000000 0 0 1
19.109123 -19.513233 -7.497155 28.321938 -0.795861 1.838702 0.016149 -0.033484 -631583.000000 0 0 1
19.946223 -18.690933 -6.740755 28.153873 -0.752920 1.812570 0.007642 -0.027856 -21136.100000 0 0 1
20.558323 -19.463633 -5.669455 28.872484 -0.758053 1.768442 0.007073 -0.019797 3886.350000 0 0 1
21.936023 -18.895033 -5.266055 29.426904 -0.711058 1.750719 0.006865 -0.021995 -275436.000000 0 0 1
22.775523 -18.832333 -6.400455 30.238171 -0.690910 1.784078 0.001908 -0.031670 219763.000000 0 0 1
23.850323 -17.942333 -6.175255 30.477844 -0.644964 1.774823 0.009806 -0.030139 120495.000000 0 0 1
24.865823 -17.726933 -7.339655 31.407385 -0.619334 1.806669 0.029299 -0.039561 1172370.000000 0 0 1
25.941723 -18.647633 -7.615355 32.843581 -0.623251 1.804793 0.037631 -0.044500 1236650.000000 0 0 1
25.446223 -19.719133 -8.415055 33.274128 -0.659269 1.826474 0.041580 -0.047566 -70626.200000 0 0 1
26.335923 -20.966033 -8.230955 34.654061 -0.672358 1.810606 0.042679 -0.051349 98401.800000 0 0 1
27.671223 -20.779333 -8.639455 35.666755 -0.644100 1.815457 0.048965 -0.043094 -343529.000000 0 0 1
28.347323 -21.965733 -8.468755 36.848120 -0.659234 1.802698 0.051823 -0.041777 -355313.000000 0 0 1
-29.422647 30.572984 4.210345 42.639495 -0.804569 1.471892 -0.003334 0.006305 -16579.400000 0 0 1
-28.527327 31.139984 3.295545 42.359977 -0.829157 1.492919 -0.016212 0.008856 -795079.000000 0 0 1
-27.528967 31.764084 4.049645 42.227961 -0.856704 1.474749 -0.010854 0.012829 -183636.000000 0 0 1
-26.858437 32.913684 3.175645 42.600129 -0.886359 1.496182 -0.005762 0.013100 -334109.000000 0 0 1
-25.977737 32.321884 2.234645 41.527589 -0.893791 1.516959 -0.010024 0.002222 -171948.000000 0 0 1
-25.462207 33.329384 1.403045 41.965943 -0.918423 1.537357 0.003372 -0.003057 392914.000000 0 0 1
-24.251377 34.220284 1.883945 41.984597 -0.954266 1.525909 0.015566 -0.001637 794090.000000 0 0 1
-22.994777 33.560784 1.698445 40.718186 -0.970094 1.529072 0.014132 -0.004453 387748.000000 0 0 1
-21.922877 34.210384 2.389345 40.702234 -1.000898 1.512060 0.006397 0.002055 915006.000000 0 0 1
-20.519877 33.700484 1.939445 39.503790 -1.023866 1.521681 0.009619 -0.000617 433040.000000 0 0 1
-20.183077 34.097784 0.587045 39.627769 -1.036341 1.555982 0.018685 -0.002608 -168154.000000 0 0 1
-18.902877 33.707884 0.156145 38.646663 -1.059711 1.566756 0.024207 -0.007128 -244787.000000 0 0 1
-18.359977 -34.513433 -1.043455 39.106964 1.081904 1.597482 0.027574 -0.006613 31560.700000 0 0 1
-18.304977 -33.108033 -0.817955 37.840231 1.065740 1.592414 0.022665 -0.005338 620535.000000 0 0 1
-17.397477 -32.653833 0.238045 37.000023 1.081266 1.564363 0.026634 -0.006251 315173.000000 0 0 1
-17.310977 -31.137233 0.499745 35.629299 1.063391 1.556770 0.023039 -0.001435 -185506.000000 0 0 1
-16.618377 -30.467933 -0.504755 34.709079 1.071462 1.585339 0.024605 0.005673 -61539.300000 0 0 1
-17.037877 -29.106933 -0.502255 33.730625 1.041215 1.585687 0.008651 0.003626 -369485.000000 0 0 1
-16.013277 -28.187533 -1.099855 32.437197 1.054165 1.604710 0.000073 0.010968 -579699.000000 0 0 1
-16.036277 -28.297433 -2.509655 32.622159 1.055219 1.647803 0.014755 0.010921 549948.000000 0 0 1
-15.063677 -27.451833 -3.181855 31.474461 1.068928 1.672063 0.009073 0.024280 435463.000000 0 0 1
-15.207277 -27.532833 -4.718755 31.805421 1.066164 1.719709 0.017005 0.007223 -347893.000000 0 0 1
-16.400677 -26.971233 -5.159455 31.985146 1.024457 1.732812 0.031811 0.012321 -748930.000000 0 0 1
-16.757977 -27.074533 -6.492455 32.496340 1.016554 1.771940 0.026568 0.014543 30648.800000 0 0 1
-17.691177 -25.897233 -6.799855 32.091782 0.971482 1.784302 0.018376 0.016837 -109425.000000 0 0 1
-16.996877 -24.677933 -6.798655 30.726469 0.967662 1.793907 0.002496 0.025705 -463783.000000 0 0 1
-17.765577 -23.541333 -6.997255 30.311247 0.924323 1.803744 -0.005250 0.024142 -84196.200000 0 0 1
-16.922877 -22.235133 -6.872955 28.775379 0.920237 1.811976 -0.006861 0.015443 979144.000000 0 0 1
-15.865177 -22.155733 -7.834455 28.354171 0.949363 1.850746 0.014407 0.011372 407669.000000 0 0 1
-14.785177 -21.298933 -7.460055 26.979593 0.963991 1.850954 0.045954 -0.007166 726005.000000 0 0 1
-13.729377 -21.120133 -8.585755 26.613361 0.994378 1.899283 0.044665 -0.003877 -23556.800000 0 0 1
-14.113277 -20.236833 -9.592655 26.471362 0.961814 1.941615 0.056464 -0.002352 -235875.000000 0 0 1
-13.058577 -20.086833 -10.515155 26.164399 0.994346 1.984374 0.060842 -0.000864 160159.000000 0 0 1
-13.474677 -19.232333 -11.683155 26.228718 0.959650 2.032455 0.067905 -0.001894 687329.000000 0 0 1
-14.508677 -19.877433 -12.476255 27.591140 0.940279 2.040008 0.044585 0.011665 487795.000000 0 0 1
-14.800877 -19.152733 -13.621055 27.774562 0.912874 2.083362 0.048710 0.004049 611708.000000 0 0 1
-15.922377 -19.650933 -14.622755 29.214829 0.889830 2.095002 0.052042 -0.000125 179538.000000 0 0 1
-17.189377 -19.653933 -14.060655 29.655586 0.852192 2.064774 0.044376 0.003344 -748961.000000 0 0 1
-18.215577 -19.945233 -14.977555 30.886028 0.830693 2.077079 0.021257 0.003943 -438175.000000 0 0 1
-19.596077 -20.035733 -14.307855 31.466674 0.796491 2.042830 -0.003265 0.008660 -295679.000000 0 0 1
-20.480177 -20.693633 -15.244255 32.864136 0.790582 2.053140 0.004066 -0.001702 -9682.600000 0 0 1
-21.761577 -20.296733 -14.782155 33.227033 0.750583 2.031840 -0.010387 0.005033 246694.000000 0 0 1
-23.002177 -20.862833 -15.563955 34.736071 0.736666 2.035394 -0.008088 -0.002672 291797.000000 0 0 1
-23.124977 -20.210633 -16.849555 35.030583 0.718249 2.072586 -0.005516 -0.016490 278478.000000 0 0 1
-23.900877 -20.997033 -17.731255 36.421487 0.720812 2.079259 -0.005377 -0.018004 -239327.000000 0 0 1
-24.127677 -20.176033 -19.042455 36.767271 0.696439 2.115212 -0.007794 -0.015132 14966.400000 0 0 1
-22.960677 -19.960633 -19.810355 36.305230 0.715615 2.147974 -0.003113 -0.017384 70876.100000 0 0 1
-23.264677 -19.650833 -21.125755 37.063432 0.701388 2.177289 0.000159 -0.019839 -457046.000000 0 0 1
-22.113977 -18.976233 -21.891255 36.446570 0.709184 2.215097 -0.011422 -0.008434 -117095.000000 0 0 1
-21.039777 -19.834933 -22.164755 36.433133 0.755930 2.224799 -0.011109 -0.006697 -254375.000000 0 0 1
-19.995077 -19.243633 -22.894755 35.976247 0.766250 2.260599 -0.015806 -0.006878 -257744.000000 0 0 1
-18.650477 -19.952433 -22.823055 35.592580 0.819112 2.266897 0.001026 -0.002478 -535156.000000 0 0 1
-18.610777 -21.032933 -23.789655 36.806154 0.846420 2.273587 -0.006842 -0.000337 746174.000000 0 0 1
-17.302477 -21.631933 -23.788555 36.513170 0.896142 2.280364 -0.001755 0.004749 688486.000000 0 0 1
-17.204477 -23.016533 -24.570055 37.807968 0.928908 2.278202 0.002944 0.006586 -228724.000000 0 0 1
-17.079277 -22.909933 -25.985495 38.623991 0.930184 2.308758 -0.001687 0.001655 237435.000000 0 0 1
-17.132077 -24.220833 -26.511905 39.787409 0.955169 2.300085 0.004142 -0.000370 -138871.000000 0 0 1
-17.174677 -24.173633 -28.008065 40.789530 0.953077 2.327665 0.025028 0.000655 1001210.000000 0 0 1
-15.832577 -24.097133 -28.538695 40.568454 0.989494 2.351065 0.002214 0.001981 982816.000000 0 0 1
-15.910677 -23.778333 -29.923005 41.399819 0.981094 2.378614 0.037885 -0.004313 1150120.000000 0 0 1
-14.456777 -23.636833 -30.551865 41.244572 1.021876 2.404981 0.005984 -0.008849 1104350.000000 0 0 1
-13.732777 -24.847833 -30.424855 41.613409 1.065902 2.390775 0.015435 -0.014999 -159641.000000 0 0 1
-12.469277 -24.620133 -31.028305 41.525769 1.101989 2.414644 0.039795 -0.017406 510308.000000 0 0 1
-11.412777 -25.725133 -30.665145 41.621930 1.153241 2.399054 0.024830 -0.012141 -332790.000000 0 0 1
-11.728077 -26.942933 -31.233845 42.883826 1.160240 2.386687 0.018406 -0.006776 58509.700000 0 0 1
-11.016577 -27.975533 -30.628925 42.920001 1.195652 2.365460 0.003501 -0.006439 1139760.000000 0 0 1
-9.511077 -28.253133 -31.070485 43.058973 1.246075 2.376878 0.016573 -0.011858 1907940.000000 0 0 1
-8.582477 -27.210433 -30.621525 41.853845 1.265261 2.391506 0.011947 -0.020618 590620.000000 0 0 1
-7.690877 -26.859633 -31.666895 42.230104 1.291922 2.418655 0.021360 -0.018444 83203.000000 0 0 1
-6.985577 -25.475733 -31.435705 41.061111 1.303169 2.442744 0.033812 -0.014485 -488155.000000 0 0 1
-7.829677 -24.383633 -31.483805 40.584423 1.260092 2.458716 0.038199 -0.016047 -125927.000000 0 0 1
-8.239777 -23.825633 -30.226495 39.359824 1.237835 2.446435 0.033009 -0.009287 -76627.500000 0 0 1
-8.629877 -22.331433 -30.160535 38.507474 1.202029 2.470654 0.040269 -0.021382 664121.000000 0 0 1
-9.691777 -22.058933 -31.120505 39.357501 1.156827 2.482770 0.032353 -0.023405 794904.000000 0 0 1
-10.210377 -20.743733 -30.887045 38.581910 1.113396 2.499022 0.046705 -0.027549 -129510.000000 0 0 1
-11.037477 -20.305133 -32.079505 39.537564 1.072895 2.517285 0.042920 -0.020379 -328102.000000 0 0 1
-11.502677 -18.999333 -31.981815 38.937421 1.026397 2.534595 0.045201 -0.019851 68704.500000 0 0 1
-12.091577 -18.640633 -33.224645 39.969444 0.995358 2.552151 0.042674 -0.015345 140808.000000 0 0 1
-13.004677 -17.340233 -33.127495 39.588335 0.927314 2.562207 0.047191 -0.015903 78163.400000 0 0 1
-12.366777 -16.134333 -33.355085 39.061689 0.916826 2.594245 0.052032 -0.015707 -230208.000000 0 0 1
-11.782377 -15.612533 -32.150375 37.632728 0.924310 2.595037 0.050271 -0.012098 84049.400000 0 0 1
-11.340677 -14.138733 -32.233625 36.980012 0.894776 2.629355 0.038837 -0.013743 -192424.000000 0 0 1
-10.334677 -13.780033 -33.151235 37.359058 0.927311 2.662401 0.031824 -0.015829 -76765.000000 0 0 1
-10.732177 -13.874733 34.492700 38.696695 0.912421 0.470459 0.034892 -0.017088 -348245.000000 0 0 1
-11.346477 -12.623133 33.832752 37.851567 0.838609 0.464988 0.034374 -0.014508 -282730.000000 0 0 1
-12.631077 -12.313733 34.291466 38.562634 0.772677 0.475114 0.031550 -0.010368 -823212.000000 0 0 1
-13.162477 -11.333633 33.427874 37.671273 0.710878 0.479215 0.033970 -0.007279 307275.000000 0 0 1
-14.349577 -10.662533 34.182372 38.575051 0.639042 0.481877 0.044362 -0.010377 254627.000000 0 0 1
-13.992377 -9.794733 -33.750015 37.825744 0.610729 2.673100 0.042111 -0.016314 547834.000000 0 0 1
-15.154377 -9.336633 -33.029115 37.519999 0.552175 2.647305 0.043080 -0.019457 983651.000000 0 0 1
-14.693977 -8.338433 -31.922815 36.117981 0.516159 2.654822 0.040827 -0.028488 110535.000000 0 0 1
-14.301777 -7.004533 -32.345225 36.052987 0.455427 2.684089 0.024617 -0.024402 193766.000000 0 0 1
-15.312977 -5.997633 -32.382105 36.318860 0.373305 2.671675 0.020671 -0.021115 -179619.000000 0 0 1
-15.596477 -5.323533 -31.074895 35.174411 0.328929 2.653975 0.026439 -0.020914 -386462.000000 0 0 1
-16.251477 -6.106433 -30.114365 34.760236 0.359425 2.618634 0.040890 -0.025969 -172474.000000 0 0 1
-16.472977 -5.486833 -28.861855 33.681909 0.321523 2.600012 0.042581 -0.026836 205229.000000 0 0 1
-15.213677 -4.977633 -28.095665 32.335726 0.316204 2.623719 0.030894 -0.030472 260433.000000 0 0 1
-14.640677 -3.858433 -28.681075 32.432098 0.257683 2.655880 0.022419 -0.022458 28784.400000 0 0 1
-13.377577 -3.488433 -28.149715 31.361365 0.255087 2.685073 0.009742 -0.014118 393864.000000 0 0 1
-12.871777 -2.142433 -28.732695 31.556940 0.164932 2.715296 -0.013605 0.008157 -91748.700000 0 0 1
-12.827077 -2.132433 -30.110055 32.797814 0.164738 2.733932 -0.004773 -0.000781 189686.000000 0 0 1
-12.740277 -0.791433 -30.595215 33.151293 0.062041 2.746333 -0.009294 -0.006901 -91163.300000 0 0 1
-12.949577 -0.677433 -32.129215 34.647322 0.052265 2.757988 -0.015279 -0.008824 -107836.000000 0 0 1
-14.241077 -1.093433 -32.551735 35.547424 0.076630 2.728110 -0.009770 -0.011728 429782.000000 0 0 1
-14.312477 -1.162433 -33.950995 36.862831 0.081040 2.741459 -0.017187 -0.002606 -13179.200000 0 0 1
-15.696477 -1.524433 34.486585 37.921337 0.096816 0.428899 -0.023805 -0.005944 141178.000000 0 0 1
-15.523777 -1.706433 33.127845 36.624496 0.109484 0.440527 -0.015714 -0.006864 862011.000000 0 0 1
-16.779977 -1.567433 32.452731 36.567803 0.093141 0.478976 -0.006589 -0.001645 629705.000000 0 0 1
-16.622077 -1.747433 30.914661 35.143467 0.104742 0.495628 -0.000577 -0.000479 -505730.000000 0 0 1
-15.984377 -0.711433 30.360451 34.318558 0.044479 0.485020 -0.001483 0.010398 -345140.000000 0 0 1
-16.192277 -0.613433 28.978861 33.201514 0.037866 0.509851 -0.001477 0.001409 -178598.000000 0 0 1
-15.605977 0.736567 28.453491 32.460595 -0.047163 0.502139 -0.000009 0.001977 140190.000000 0 0 1
-16.259777 1.973567 28.803651 33.134961 -0.120786 0.517047 -0.000509 0.004864 345725.000000 0 0 1
-17.560777 2.163567 28.249981 33.333517 -0.122587 0.559549 0.003913 0.006496 284682.000000 0 0 1
-17.755577 2.719567 26.887441 32.335600 -0.151986 0.588972 0.012617 0.003279 -594551.000000 0 0 1
-17.532177 4.130567 26.851611 32.333386 -0.231380 0.590862 0.002601 0.010793 -28973.200000 0 0 1
-18.100977 4.768567 25.728341 31.817167 -0.257590 0.628975 0.005165 0.011664 -341771.000000 0 0 1
-17.975277 6.334567 25.725061 32.015873 -0.338815 0.637629 0.001974 0.011096 317050.000000 0 0 1
-16.681177 6.859567 25.497551 31.232042 -0.390138 0.615663 -0.006909 0.009548 -167408.000000 0 0 1
-16.267477 6.766567 24.172191 29.911738 -0.394186 0.629848 0.002580 0.000257 -223200.000000 0 0 1
-15.067277 7.691567 23.897341 29.279104 -0.471998 0.616009 0.002405 0.001720 -183484.000000 0 0 1
-13.860477 7.322567 24.513701 29.097326 -0.486035 0.568940 -0.009044 0.003085 -457125.000000 0 0 1
-12.851377 8.141567 23.968371 28.388833 -0.564701 0.565560 0.007950 -0.004779 -799793.000000 0 0 1
-11.456177 7.908567 24.520831 28.196819 -0.604208 0.516342 0.003542 0.001620 -1017010.000000 0 0 1
-10.542377 8.761567 23.884241 27.538405 -0.693407 0.521031 0.001416 -0.002852 -700473.000000 0 0 1
-9.343877 8.700567 24.598881 27.714849 -0.749762 0.478752 -0.004912 -0.006222 -623813.000000 0 0 1
-9.019677 10.035567 25.354931 28.721764 -0.838661 0.489054 -0.004701 -0.006192 -339973.000000 0 0 1
-9.947777 10.296567 26.418331 30.048391 -0.802625 0.496631 -0.011898 -0.009814 483489.000000 0 0 1
-9.926877 11.663567 26.834301 30.897595 -0.865663 0.518645 -0.011633 -0.011690 -509041.000000 0 0 1
-10.710777 12.692567 26.011681 30.861458 -0.869876 0.568233 -0.020302 -0.011339 1312900.000000 0 0 1
-12.156077 12.532567 25.938181 31.266990 -0.800646 0.592458 -0.017271 -0.010817 1269610.000000 0 0 1
-12.492177 11.745567 24.846551 30.188805 -0.754604 0.604056 -0.010417 -0.009729 -376867.000000 0 0 1
-14.008077 11.677567 24.554321 30.586050 -0.694914 0.638829 -0.023496 -0.004620 -159643.000000 0 0 1
-14.526577 12.959567 24.266471 31.110022 -0.728449 0.676097 -0.003442 -0.007178 832117.000000 0 0 1
-15.788177 12.918567 23.538741 31.148487 -0.685766 0.714082 0.003327 -0.005838 1019500.000000 0 0 1
-15.793177 12.399567 22.080241 29.844778 -0.665603 0.737970 0.008989 -0.003702 -429673.000000 0 0 1
-15.644777 10.986567 22.041541 29.176930 -0.612235 0.714465 -0.000625 -0.002367 -62985.200000 0 0 1
-15.575577 10.501567 20.704941 27.956683 -0.593223 0.736822 -0.003170 0.001104 -262465.000000 0 0 1
-15.984677 9.014567 20.525541 27.533074 -0.513491 0.729532 -0.000907 -0.004665 1347370.000000 0 0 1
-17.404877 8.878567 20.761641 28.509725 -0.471710 0.755060 0.004054 0.004149 839313.000000 0 0 1
-17.837877 7.508567 20.706141 28.342772 -0.398422 0.751652 -0.000658 0.006055 658358.000000 0 0 1
-19.358077 7.427567 21.040341 29.539801 -0.366370 0.778068 -0.001367 0.014444 548914.000000 0 0 1
-19.795477 7.883567 22.323741 30.860346 -0.378998 0.762112 -0.002216 0.011243 301453.000000 0 0 1
-21.191177 8.108567 22.461041 31.926685 -0.365451 0.790459 -0.006843 0.014355 288575.000000 0 0 1
-21.520477 8.966567 23.776141 33.299176 -0.394779 0.775579 0.005430 0.008519 -1163570.000000 0 0 1
-21.314677 10.370567 23.715541 33.530449 -0.452826 0.785148 0.005830 0.013604 312710.000000 0 0 1
-19.988477 10.841567 23.509741 32.707594 -0.496982 0.768743 0.007262 0.016093 427217.000000 0 0 1
-18.905377 10.325567 24.500451 32.623653 -0.499899 0.721217 0.001237 0.007584 -992327.000000 0 0 1
-19.119677 10.740567 25.840261 33.891606 -0.511823 0.703723 0.005724 0.007625 365731.000000 0 0 1
-18.152877 10.151567 26.701581 33.846059 -0.509899 0.661759 -0.003124 0.017460 285016.000000 0 0 1
-29.879497 -13.880216 20.928941 39.031594 0.434879 1.004861 0.015841 -0.008143 79636.300000 0 0 1
-29.452467 -15.174916 21.245841 39.358756 0.475761 1.000597 0.019703 -0.016196 371116.000000 0 0 1
-30.483107 -16.141316 21.006741 40.386199 0.486981 1.023774 0.006907 -0.004845 174988.000000 0 0 1
-30.674437 -16.778316 19.617341 40.090810 0.500522 1.059483 0.003292 -0.009778 41084.600000 0 0 1
-30.869617 -15.802016 18.653741 39.377647 0.473119 1.077293 0.003819 -0.019937 -147339.000000 0 0 1
-30.018917 -16.013116 17.558541 38.286521 0.490036 1.094367 0.009688 -0.018565 -779637.000000 0 0 1
-30.046797 -14.803716 16.586441 37.377401 0.457781 1.111011 0.008703 -0.018498 -175332.000000 0 0 1
-31.221637 -14.690616 15.824241 37.960657 0.439792 1.140809 0.038797 -0.015179 1416690.000000 0 0 1
-32.499797 -14.389216 16.485341 39.179750 0.416807 1.136511 0.029654 -0.011026 913334.000000 0 0 1
-32.747617 -13.132316 17.239541 39.269148 0.381382 1.116300 0.031323 -0.015559 478818.000000 0 0 1
-34.122131 -13.101316 17.694541 40.608634 0.366597 1.119943 0.028809 -0.012047 1316610.000000 0 0 1
-34.558572 -11.860216 18.233941 40.834253 0.330597 1.107907 0.029600 -0.012251 98533.500000 0 0 1
34.924187 -11.891516 19.162541 41.572947 -0.328182 1.091745 0.017909 0.000298 122736.000000 0 0 1
35.322071 -12.368916 20.403941 42.625809 -0.336831 1.071651 0.009850 -0.003625 -205341.000000 0 0 1
34.448121 -11.936516 21.387641 42.268009 -0.333560 1.040255 0.016082 -0.009476 -1045940.000000 0 0 1
34.830055 -12.508716 22.841741 43.489606 -0.344790 1.017819 0.012921 -0.012252 356992.000000 0 0 1
-34.677165 -11.990116 23.404941 43.520799 0.332896 1.002986 0.009857 -0.012907 -79909.600000 0 0 1
-33.528987 -12.630216 22.933741 42.540238 0.360256 1.001420 0.008469 -0.018724 -1045520.000000 0 0 1
-32.244557 -11.845516 23.161341 41.430369 0.352060 0.977566 0.015830 -0.012127 -452263.000000 0 0 1
-32.069057 -10.692116 22.332641 40.515338 0.321819 0.986977 0.023797 -0.012652 -299992.000000 0 0 1
-30.770137 -10.159616 22.409041 39.397770 0.318908 0.965763 0.028204 -0.022448 -450502.000000 0 0 1
-30.599767 -8.840916 21.614841 38.492972 0.281262 0.974566 0.033049 -0.002587 81691.900000 0 0 1
-30.648317 -8.949916 20.158541 37.759597 0.284120 1.007631 0.030559 0.000374 -46749.100000 0 0 1
-31.949157 -9.200316 19.679641 38.635253 0.280381 1.036344 0.033546 -0.007951 -333258.000000 0 0 1
-32.152847 -9.087216 18.130841 38.014609 0.275442 1.073622 0.042662 -0.013034 572138.000000 0 0 1
-33.551597 -9.035016 17.789741 39.036087 0.263047 1.097609 0.055355 -0.011548 912911.000000 0 0 1
-33.817577 -8.815616 16.412941 38.609950 0.255006 1.131728 0.066858 -0.015598 -387183.000000 0 0 1
-35.268914 -8.455516 16.084041 39.674784 0.235303 1.153383 0.050457 -0.010966 -419963.000000 0 0 1
34.615941 -9.576416 16.288641 39.437177 -0.269897 1.145020 0.044541 -0.001247 -176602.000000 0 0 1
33.265201 -9.177416 16.084641 38.072486 -0.269190 1.134623 0.035367 0.000290 426135.000000 0 0 1
32.302681 -10.402216 16.132341 37.575547 -0.311537 1.127045 0.029116 -0.001051 -5220.470000 0 0 1
31.959031 -11.007216 17.378041 38.007036 -0.331692 1.095916 0.019294 -0.003769 6886.100000 0 0 1
31.089251 -12.100116 17.298941 37.579352 -0.371167 1.092428 0.019839 -0.003327 -23957.400000 0 0 1
30.704211 -12.727116 18.716641 38.144996 -0.392950 1.057937 0.015704 0.001038 -230827.000000 0 0 1
31.641621 -13.607716 19.233141 39.449662 -0.406147 1.061531 0.018176 0.005021 -540171.000000 0 0 1
31.392971 -13.834716 20.585941 40.008736 -0.415089 1.030330 0.003076 0.006017 -632921.000000 0 0 1
32.257541 -14.942916 21.194441 41.388936 -0.433808 1.033192 -0.009278 0.006338 -193939.000000 0 0 1
32.149271 -15.112416 22.586941 42.096682 -0.439418 1.004454 -0.012382 0.000666 -191440.000000 0 0 1
32.589691 -16.397816 23.041441 43.149558 -0.466172 1.007483 -0.009869 0.013641 513.552000 0 0 1
32.918191 -16.319016 24.514671 44.168843 -0.460238 0.982407 -0.001615 0.004541 581855.000000 0 0 1
34.065091 -15.484616 24.740221 44.858469 -0.426639 0.986614 0.006566 0.001370 628481.000000 0 0 1
34.507041 -15.563116 26.109961 45.985612 -0.423696 0.966983 0.008968 0.002758 159521.000000 0 0 1
-35.102366 -14.523916 26.440351 46.284040 0.392311 0.962753 0.015213 -0.006901 794394.000000 0 0 1
-33.757237 -14.780716 25.996411 45.098049 0.412707 0.956429 0.002234 -0.006010 379392.000000 0 0 1
-32.962647 -13.729016 26.403521 44.409097 0.394651 0.934088 0.005974 -0.013302 -1404670.000000 0 0 1
-31.494357 -13.941516 26.199041 43.274128 0.416739 0.920502 0.016809 -0.010980 -1792470.000000 0 0 1
-31.111307 -14.035816 24.857021 42.223087 0.423809 0.941338 0.010960 -0.007856 520303.000000 0 0 1
-29.755717 -14.445816 24.611841 41.228959 0.451965 0.931096 0.029857 -0.021461 751787.000000 0 0 1
-29.534437 -15.970216 24.867881 41.782081 0.495700 0.933306 0.028689 -0.019485 -547615.000000 0 0 1
-29.699877 -16.264916 26.220591 42.826973 0.501031 0.911900 0.029985 -0.017065 -70670.900000 0 0 1
-29.468007 -17.614716 26.560101 43.405998 0.538769 0.912337 0.028572 -0.016760 -133822.000000 0 0 1
-29.079027 -17.856316 28.028101 44.158944 0.550695 0.883164 0.027706 -0.008823 -721430.000000 0 0 1
-27.847367 -17.322616 28.368651 43.362764 0.556479 0.857650 0.033254 -0.008072 -687859.000000 0 0 1
-27.383797 -17.833416 29.598571 44.090572 0.577246 0.834818 0.043482 -0.009045 -266886.000000 0 0 1
-26.074067 -17.134516 29.949651 43.248471 0.581384 0.805845 0.031327 -0.008050 -508441.000000 0 0 1
-26.271837 -15.866116 30.470031 43.247727 0.543298 0.789013 0.045704 -0.024931 -1168750.000000 0 0 1
-25.038477 -15.293316 30.476381 42.303908 0.548317 0.766395 0.036933 -0.023074 -1312600.000000 0 0 1
-24.809277 -13.871916 31.168821 42.183240 0.509835 0.739373 0.037580 -0.021102 -258115.000000 0 0 1
-24.417177 -13.982216 32.545171 43.021960 0.520058 0.712885 0.034888 -0.024278 160388.000000 0 0 1
-24.260877 -12.718716 33.136847 42.993099 0.482857 0.690782 0.028776 -0.014167 -134200.000000 0 0 1
-23.616577 -12.767016 -34.438300 43.666188 0.495594 2.479442 0.024661 -0.009413 -196358.000000 0 0 1
-22.254577 -13.060316 -34.302066 42.924000 0.530702 2.496651 0.003697 -0.002804 -420387.000000 0 0 1
-21.806777 -14.393016 -34.493689 43.272498 0.583390 2.493319 0.001283 -0.007092 -246244.000000 0 0 1
-21.789277 -15.213716 -33.176205 42.507533 0.609531 2.466227 0.002465 -0.006192 -577024.000000 0 0 1
-20.822677 -14.835916 -32.240835 41.148022 0.619058 2.471128 -0.018794 0.001818 -221374.000000 0 0 1
-20.875277 -15.677416 -31.146405 40.640585 0.644143 2.443994 -0.013335 -0.001778 -241515.000000 0 0 1
-19.715377 -15.480116 -30.168005 39.222935 0.665639 2.448294 -0.018218 0.005344 -182572.000000 0 0 1
-19.780177 -14.288516 -29.322485 38.147415 0.625579 2.447544 -0.000074 0.002582 219020.000000 0 0 1
-20.429377 -14.487216 -28.067415 37.616734 0.616832 2.413044 -0.003086 0.007758 130699.000000 0 0 1
-20.275377 -13.228016 -27.215095 36.424343 0.578073 2.414587 -0.005314 0.007725 -242536.000000 0 0 1
-18.993977 -13.127716 -26.659945 35.268411 0.604763 2.427848 0.015621 -0.002783 -342704.000000 0 0 1
-18.843477 -11.898416 -26.035105 34.270624 0.563213 2.433635 0.006497 -0.008232 465964.000000 0 0 1
-17.401177 -11.682316 -25.489395 32.999799 0.591239 2.453424 0.023811 -0.006795 -200838.000000 0 0 1
-17.251377 -12.545816 -24.367855 32.385180 0.628772 2.422553 0.035134 -0.009864 109729.000000 0 0 1
-15.985977 -12.624616 -23.713155 31.260936 0.668448 2.431890 0.028120 -0.013284 663358.000000 0 0 1
-14.872777 -13.326016 -24.539655 31.638219 0.730601 2.458514 0.028138 -0.010733 -551550.000000 0 0 1
-14.076877 -12.521316 -25.358035 31.590691 0.726981 2.502615 0.042292 -0.022321 -342757.000000 0 0 1
-13.287877 -13.380416 -26.124765 32.219661 0.788868 2.516370 0.044620 -0.017913 -475417.000000 0 0 1
-12.283577 -12.648716 -27.014955 32.259636 0.800042 2.563347 0.053776 -0.011314 59550.800000 0 0 1
-12.900077 -12.045616 -28.154665 33.229415 0.751159 2.581642 0.069931 -0.023998 710733.000000 0 0 1
-11.872677 -11.347016 -28.891665 33.233170 0.762763 2.624707 0.073666 -0.029931 697603.000000 0 0 1
-12.136877 -11.221216 -30.385915 34.590798 0.746217 2.643383 0.054052 -0.023236 7361.610000 0 0 1
-11.136277 -10.348516 -30.855715 34.397436 0.748749 2.683811 0.055276 -0.024917 97446.000000 0 0 1
-11.120977 -10.280716 -32.295185 35.669991 0.746157 2.703089 0.051321 -0.014040 -136221.000000 0 0 1
-10.564777 -8.923816 -32.725525 35.527581 0.701395 2.741770 0.033982 -0.010364 -396838.000000 0 0 1
-9.208077 -8.818016 -32.411975 34.829330 0.763763 2.766829 0.014664 -0.009838 -660551.000000 0 0 1
-8.739077 -7.521916 -32.762465 34.732259 0.710686 2.803191 0.008728 -0.006503 489500.000000 0 0 1
-7.242477 -7.335916 -32.339295 33.942586 0.791807 2.833009 0.018464 -0.001499 211064.000000 0 0 1
-6.927377 -7.288316 -30.958805 32.550818 0.810783 2.827547 0.012121 -0.001339 -224415.000000 0 0 1
-7.329077 -6.127516 -30.261595 31.733672 0.696343 2.835810 0.001347 -0.001922 -371517.000000 0 0 1
-6.645077 -4.807516 -30.697185 31.773990 0.626305 2.880508 0.002277 -0.008777 562113.000000 0 0 1
-5.276877 -4.676816 -30.295225 31.104963 0.725186 2.912917 0.018515 -0.009768 534970.000000 0 0 1
-4.773777 -3.497916 -30.850695 31.413210 0.632360 2.952063 0.028100 -0.012368 365642.000000 0 0 1
-3.265377 -3.188916 -30.604565 30.943033 0.773552 2.993549 0.028426 -0.007747 -76277.900000 0 0 1
-2.389377 -4.121916 -31.206065 31.567670 1.045455 2.990088 0.021629 -0.009616 1244920.000000 0 0 1
-0.974977 -3.932716 -30.989245 31.253002 1.327781 3.011583 0.028460 -0.005242 1245910.000000 0 0 1
-0.304777 -2.650116 -31.490525 31.603310 1.456294 3.057084 0.025464 -0.005186 -1166160.000000 0 0 1
-0.066677 -1.752616 -30.431355 30.481855 1.532770 3.084022 0.023374 -0.009049 -166540.000000 0 0 1
0.657623 -0.638216 -30.795105 30.808737 -0.770423 3.111843 0.021795 -0.003601 -229834.000000 0 0 1
0.904423 0.469584 -29.739305 29.756760 0.478896 3.107340 0.027240 -0.010198 189645.000000 0 0 1
-0.260577 1.187384 -29.359365 29.384521 -1.354766 3.100211 0.040972 -0.009826 -146847.000000 0 0 1
-0.058677 2.555484 -29.081105 29.193229 -1.547839 3.053920 0.056974 -0.014088 -147289.000000 0 0 1
-1.293577 3.306284 -28.517775 28.737925 -1.197857 3.017735 0.050086 -0.013204 310574.000000 0 0 1
-2.211477 3.571984 -29.581885 29.878715 -1.016438 3.000518 0.032756 -0.013524 73466.200000 0 0 1
-3.331277 4.304484 -29.120995 29.625299 -0.912168 2.956816 0.047983 -0.018666 533446.000000 0 0 1
-4.453377 4.370784 -30.230345 30.867622 -0.776038 2.938040 0.044792 -0.021751 283168.000000 0 0 1
-4.155777 5.286484 -31.282275 31.996846 -0.904580 2.929856 0.044169 -0.017850 -635506.000000 0 0 1
-5.204377 5.461084 -32.147055 33.020329 -0.809462 2.911098 0.048403 -0.021646 -1298140.000000 0 0 1
-4.759277 6.006884 -33.516525 34.381548 -0.900766 2.916801 0.046970 -0.021135 28762.800000 0 0 1
-4.217177 5.133884 -34.482430 35.116653 -0.883118 2.951250 0.053673 -0.021566 -439004.000000 0 0 1
-3.196077 4.281384 -34.130625 34.546269 -0.929535 2.986314 0.043892 -0.018895 -783135.000000 0 0 1
-2.496477 3.532884 33.667520 33.944301 -0.955628 0.127790 0.047385 -0.022144 272536.000000 0 0 1
-3.371877 2.566184 33.054150 33.324641 -0.650539 0.127498 0.044380 -0.022268 50407.800000 0 0 1
-3.022777 1.987684 31.828651 32.033593 -0.581678 0.113177 0.051547 -0.019154 -327338.000000 0 0 1
-2.804777 2.940284 30.645681 30.913910 -0.808980 0.131827 0.052505 -0.020550 521494.000000 0 0 1
-3.975177 3.728084 30.337981 30.823590 -0.753333 0.177741 0.027064 -0.016867 644465.000000 0 0 1
-3.673277 4.735784 29.385911 29.990872 -0.911085 0.201195 0.031214 -0.017796 144941.000000 0 0 1
-4.946977 5.537584 29.066811 30.000282 -0.841670 0.250112 0.026910 -0.013045 167247.000000 0 0 1
-4.820477 6.272484 27.883851 28.984309 -0.915553 0.276442 0.021625 -0.004476 57124.400000 0 0 1
-6.057777 6.914084 27.605221 29.095523 -0.851315 0.321448 0.017434 -0.000017 11526.200000 0 0 1
-6.016977 7.754184 26.273271 28.046678 -0.910883 0.357515 0.018820 -0.000028 -318625.000000 0 0 1
-5.337777 8.944884 26.437051 28.415145 -1.032777 0.375332 0.024648 -0.000403 -309797.000000 0 0 1
-5.182277 9.711984 25.234391 27.530948 -1.080634 0.411348 0.015194 -0.003003 -1847.560000 0 0 1
-4.616177 11.146284 25.464801 28.178091 -1.178156 0.442441 0.018882 -0.003190 -708945.000000 0 0 1
-4.547377 11.825284 24.226221 27.339088 -1.203682 0.481851 0.022508 0.003567 -51692.300000 0 0 1
-4.078377 13.118884 24.242541 27.864656 -1.269389 0.515573 0.010279 0.007017 -413445.000000 0 0 1
-2.518977 13.192984 24.247711 27.719155 -1.382134 0.505848 0.006989 0.012937 -130554.000000 0 0 1
-1.929677 12.597584 25.398791 28.416920 -1.418799 0.465068 0.012965 0.013147 -251533.000000 0 0 1
-2.092077 13.326884 26.635151 29.856555 -1.415085 0.468816 0.024542 0.005517 -1090310.000000 0 0 1
-1.362077 12.793284 27.876311 30.701988 -1.464728 0.432396 0.018825 0.005027 -8331.340000 0 0 1
0.035623 12.972884 27.723501 30.608650 1.568050 0.437672 0.018072 0.009971 -396434.000000 0 0 1
0.663723 12.482284 28.897711 31.485324 1.517673 0.408254 0.020399 0.003832 35330.100000 0 0 1
2.181823 12.754084 28.819331 31.590835 1.401368 0.422007 0.014839 0.011966 125611.000000 0 0 1
2.540123 14.120884 28.744981 32.126710 1.392816 0.462953 0.008762 0.011524 -246664.000000 0 0 1
3.925123 14.337584 28.629031 32.258244 1.303579 0.478916 0.015253 0.005465 -281871.000000 0 0 1
4.418523 15.773484 28.812841 33.143716 1.297673 0.516950 0.012142 0.004232 -372847.000000 0 0 1
4.443123 16.281284 30.117171 34.523405 1.304386 0.510767 0.021990 0.008849 855469.000000 0 0 1
3.262123 17.030584 30.499391 35.084114 1.381544 0.516968 0.004900 0.013225 806463.000000 0 0 1
3.316323 18.426684 29.829351 35.218331 1.392729 0.560511 0.009035 0.020195 -99511.300000 0 0 1
4.285323 19.311884 30.353151 36.230189 1.352434 0.577580 0.032726 0.017752 -22678.600000 0 0 1
4.547623 20.302584 29.408581 36.024164 1.350441 0.615721 0.016975 0.016544 -189696.000000 0 0 1
5.687723 21.219984 29.872201 37.080808 1.308916 0.634113 0.024394 0.014256 -519150.000000 0 0 1
5.343023 22.086884 30.942811 38.390570 1.333447 0.633433 0.011573 0.002269 -196322.000000 0 0 1
6.420023 22.800084 31.507691 39.418208 1.296324 0.644637 0.008306 -0.002168 -71031.000000 0 0 1
6.907823 24.119484 30.816391 39.738111 1.291863 0.683310 0.000147 0.000485 -44860.100000 0 0 1
7.498823 23.986084 29.552701 38.793385 1.267791 0.704713 -0.009945 0.005890 167711.000000 0 0 1
7.850123 25.291484 29.111731 39.354497 1.269839 0.738126 -0.008756 0.004451 -262078.000000 0 0 1
8.415123 25.294384 27.700521 38.443972 1.249627 0.766212 -0.003160 -0.002865 272692.000000 0 0 1
7.428023 24.884884 26.750201 37.282787 1.280720 0.770597 -0.006874 0.001018 687335.000000 0 0 1
7.979723 25.175584 25.522111 36.726886 1.263851 0.802493 0.003116 0.001469 -362846.000000 0 0 1
29.098471 2.265484 6.722845 29.950794 0.077699 1.344404 0.044042 -0.011921 -252461.000000 0 0 1
28.857061 3.117784 7.823745 30.060963 0.107625 1.307502 0.049724 -0.011055 224128.000000 0 0 1
27.503301 3.005484 8.229245 28.864943 0.108845 1.281691 0.045488 -0.008196 89792.300000 0 0 1
27.141981 3.728884 9.521945 29.004467 0.136530 1.236301 0.038006 -0.001666 -286130.000000 0 0 1
27.093041 5.146284 9.642145 29.214518 0.187712 1.234444 0.046470 -0.011127 -681434.000000 0 0 1
28.307371 5.752084 9.398145 30.376287 0.200471 1.256244 0.068129 -0.019095 -820453.000000 0 0 1
28.257881 7.276284 9.162945 30.584501 0.252021 1.266529 0.075478 -0.015507 -20249.500000 0 0 1
27.513121 7.688484 8.053145 29.680595 0.272497 1.296025 0.061417 -0.015477 -133505.000000 0 0 1
27.815671 9.012184 7.814345 30.265409 0.313324 1.309644 0.065508 -0.016769 -101957.000000 0 0 1
27.023021 9.534384 6.605345 29.407120 0.339189 1.344246 0.055431 -0.012796 -1219670.000000 0 0 1
25.671241 9.346584 6.780645 28.148683 0.349170 1.327517 0.047819 -0.008955 -1293740.000000 0 0 1
25.039141 9.456784 5.529345 27.330623 0.361118 1.367077 0.061008 -0.011468 698441.000000 0 0 1
23.529441 9.879184 5.627645 26.132417 0.397513 1.353745 0.017579 -0.011434 580671.000000 0 0 1
23.371141 11.216584 6.162845 26.645874 0.447466 1.337396 0.011445 -0.000075 888802.000000 0 0 1
21.979641 11.575384 6.231045 25.610936 0.484733 1.325034 0.009854 -0.002578 765559.000000 0 0 1
21.660341 12.997584 6.863845 26.176705 0.540466 1.305483 0.008816 0.007043 -392819.000000 0 0 1
21.907041 14.001584 5.924145 26.665676 0.568700 1.346763 0.020424 0.016052 407822.000000 0 0 1
21.692841 15.263084 6.527245 27.315673 0.613138 1.329506 0.019855 0.004724 -354255.000000 0 0 1
21.652341 16.362084 5.470645 27.685187 0.647122 1.371885 0.037427 0.004164 -152754.000000 0 0 1
20.374341 16.512784 4.887945 26.677290 0.681092 1.386530 0.047936 -0.000662 436733.000000 0 0 1
20.432441 17.577684 3.939845 27.239346 0.710434 1.425649 0.056253 -0.002654 -157061.000000 0 0 1
19.081141 17.769784 3.219145 26.272001 0.749828 1.447956 0.064223 -0.002921 561736.000000 0 0 1
18.034841 18.187984 4.123545 25.943436 0.789626 1.411176 0.058554 -0.009689 141679.000000 0 0 1
16.895441 18.577784 3.426945 25.344307 0.832788 1.435165 0.060683 -0.010755 -112011.000000 0 0 1
15.832741 19.179284 4.445545 25.264273 0.880691 1.393914 0.049746 -0.021767 518233.000000 0 0 1
14.526641 19.166184 3.912245 24.365376 0.922239 1.409533 0.048829 -0.019917 -261880.000000 0 1 0
13.794141 20.327284 4.086345 24.903313 0.974576 1.405963 0.038474 -0.018790 -1118360.000000 0 1 0
12.333441 20.129184 3.770145 23.906313 1.021080 1.412430 0.030182 -0.019882 -858933.000000 0 1 0
11.663741 19.369984 4.800645 23.114612 1.028793 1.361585 0.021775 -0.017101 532836.000000 0 1 0
10.274741 19.336484 4.486945 22.351791 1.082372 1.368681 0.018793 -0.009470 859961.000000 0 1 0
9.329041 18.632584 5.543845 21.562430 1.106601 1.310769 0.012361 -0.015716 -222533.000000 0 1 0
9.223941 19.562284 6.663145 22.630986 1.130194 1.271942 0.021654 -0.016828 -346280.000000 0 1 0
8.783141 18.817384 7.727245 22.157342 1.134095 1.214565 0.029679 -0.019353 -698026.000000 0 1 0
7.953241 19.661884 8.727045 22.934799 1.186416 1.180443 0.016259 -0.020637 -358233.000000 0 1 0
6.675341 19.896984 8.216045 22.537824 1.247101 1.197652 0.021568 -0.022868 -573023.000000 0 1 0
6.527641 21.125284 7.511845 23.351992 1.271106 1.243294 0.017994 -0.016044 -852344.000000 0 1 0
5.256141 21.275084 6.660845 22.904651 1.328590 1.275726 0.011412 -0.005715 -462135.000000 0 1 0
4.034241 21.495184 7.290445 23.053603 1.385273 1.249034 0.016472 -0.004748 -442969.000000 0 1 0
3.795441 22.692284 8.025245 24.366979 1.405073 1.235182 0.017916 -0.012398 -567088.000000 0 1 0
3.850241 23.999184 7.223145 25.356636 1.411720 1.281934 0.015003 -0.011417 188785.000000 0 0 1
2.805041 24.040784 6.234745 24.993991 1.454643 1.318684 0.033525 -0.008938 398986.000000 0 1 0
2.902241 25.078284 5.274045 25.790674 1.455582 1.364849 0.028000 -0.002874 -515417.000000 0 0 1
1.655641 25.304484 4.428445 25.742361 1.505461 1.397907 0.036255 -0.006244 -154660.000000 0 0 1
0.537941 25.780284 5.165145 26.298120 1.549933 1.373104 0.052500 -0.012909 460499.000000 0 0 1
-0.538059 26.212784 4.338145 26.574782 -1.550273 1.406820 0.055274 -0.008296 978418.000000 0 0 1
-1.901259 26.587184 5.016545 27.123032 -1.499407 1.384770 0.049456 -0.011111 579384.000000 0 0 1
-2.828559 27.047384 4.083045 27.499690 -1.466597 1.421769 0.051978 -0.011118 -396887.000000 0 0 1
-3.795459 27.913184 4.634245 28.548688 -1.435651 1.407747 0.034928 -0.009303 -104837.000000 0 0 1
-4.864559 28.430784 3.663645 29.075689 -1.401335 1.444457 0.027157 -0.012254 -2471.600000 0 0 1
-4.356759 29.364984 2.669845 29.806236 -1.423505 1.481103 0.026529 -0.012075 -409060.000000 0 0 1
-5.366759 29.971484 1.923545 30.508883 -1.393612 1.507706 0.026924 -0.016592 -784338.000000 0 0 1
-4.893759 30.962784 0.819245 31.357838 -1.414040 1.544668 0.031381 -0.012865 -487230.000000 0 0 1
-4.630359 32.320084 1.115345 32.669130 -1.428499 1.536649 0.026777 -0.006003 300920.000000 0 0 1
-3.447759 32.394584 1.926445 32.634449 -1.464765 1.511731 0.020285 -0.011497 -180668.000000 0 0 1
-2.831259 33.797284 1.825545 33.964762 -1.487220 1.517022 0.018785 -0.008114 -677619.000000 0 0 1
-2.072459 34.015984 0.649445 34.085246 -1.509946 1.551742 0.015848 -0.006321 -90155.300000 0 0 1
-1.230459 -33.949333 0.769145 33.980330 1.534568 1.548159 0.023168 -0.006905 324156.000000 0 0 1
0.166941 -34.242033 1.377045 34.270117 -1.565921 1.530603 0.033836 -0.007399 -411455.000000 0 0 1
0.145741 -34.396433 2.801045 34.510602 -1.566559 1.489542 0.019577 -0.008078 708875.000000 0 0 1
1.436141 34.493984 3.410245 34.691889 1.529186 1.472336 0.022229 -0.009971 850510.000000 0 0 1
1.308141 -34.511633 4.917945 34.884813 -1.532910 1.429348 0.017038 -0.008669 838609.000000 0 0 1
0.334241 33.629284 5.464545 34.072007 1.560858 1.409718 0.025911 -0.017244 694721.000000 0 0 1
-0.080859 33.997684 6.767945 34.664883 -1.568418 1.374295 0.028319 -0.014803 307750.000000 0 0 1
0.960841 33.849884 7.943345 34.782676 1.542419 1.340392 0.018157 -0.010988 406168.000000 0 0 1
1.432141 32.488884 8.039145 33.499350 1.526744 1.328452 0.020226 -0.011272 -172477.000000 0 0 1
2.398541 32.357284 9.036845 33.681024 1.496805 1.299161 0.020459 -0.002902 -521205.000000 0 0 1
2.922541 30.973484 9.249845 32.457011 1.476719 1.281803 0.019833 -0.006269 124112.000000 0 0 1
1.987441 30.039584 9.802345 31.660898 1.504732 1.256020 0.032097 -0.007680 253903.000000 0 0 1
2.550441 28.776484 9.821945 30.513298 1.482398 1.243071 0.030157 -0.006043 -77163.600000 0 0 1
2.271241 27.919084 11.085445 30.125087 1.489624 1.193960 0.029577 -0.014040 -268803.000000 0 0 1
2.773141 28.510984 12.299245 31.174315 1.473836 1.165239 0.027315 -0.010712 -130076.000000 0 0 1
2.852641 27.645884 13.455945 30.878713 1.467975 1.119905 0.022332 -0.008904 -14604.700000 0 0 1
1.396141 27.182584 13.868445 30.547927 1.519480 1.099558 0.023910 -0.009859 931602.000000 0 0 1
0.711341 28.217884 14.584645 31.772108 1.545593 1.093883 0.025164 -0.009402 131220.000000 0 0 1
0.295441 29.293384 13.757745 32.364566 1.560711 1.131739 0.027170 -0.011962 -1682700.000000 0 0 1
-0.482859 30.323584 14.514645 33.621835 -1.554874 1.124416 0.016132 -0.008984 88210.000000 0 0 1
-1.766659 29.936384 14.985945 33.524419 -1.511851 1.107370 0.009763 -0.009132 344003.000000 0 0 1
-2.417959 30.996384 15.637645 34.801699 -1.492946 1.104775 0.012006 -0.004923 -64921.700000 0 0 1
-3.733059 30.689584 16.392945 34.993070 -1.449752 1.083246 0.022127 0.001952 -531549.000000 0 0 1
-4.703859 30.266484 15.514645 34.334975 -1.416615 1.101946 0.029809 -0.005589 -569841.000000 0 0 1
-5.852059 29.905984 16.281045 34.549774 -1.377556 1.080106 0.029333 -0.006600 -182000.000000 0 0 1
-7.013459 29.465584 15.347545 33.955211 -1.337122 1.101797 0.018927 -0.011335 -764213.000000 0 0 1
-8.127859 29.165884 16.090445 34.287218 -1.299015 1.082316 0.016241 -0.010995 -729402.000000 0 0 1
-9.173659 28.591484 15.326945 33.712671 -1.260320 1.098834 0.011059 -0.007469 586723.000000 0 0 1
-10.474559 28.326284 16.153445 34.249504 -1.216608 1.079646 0.013325 -0.009652 107368.000000 0 0 1
-11.169859 29.433284 16.602445 35.591082 -1.208088 1.085492 0.007261 -0.015147 73073.400000 0 0 1
-11.119259 29.453184 18.061145 36.295081 -1.209815 1.049944 0.016828 -0.018250 -157577.000000 0 0 1
-11.962859 30.556484 18.736145 37.786927 -1.197639 1.051998 0.023476 -0.013947 -912784.000000 0 0 1
-13.338059 30.492484 18.534745 38.095041 -1.158452 1.062672 0.035691 -0.009791 -353844.000000 0 0 1
-14.031759 31.541184 19.177045 39.490449 -1.152216 1.063733 0.043872 -0.016714 83437.400000 0 0 1
-14.744459 31.091484 20.478045 40.042849 -1.127978 1.033979 0.040438 -0.018547 -160238.000000 0 0 1
-13.881759 30.967584 21.594645 40.224659 -1.149384 1.004096 0.039389 -0.015537 351287.000000 0 0 1
-14.675159 30.782484 22.733045 40.984301 -1.125931 0.982822 0.033968 -0.005062 -133356.000000 0 0 1
-13.830059 30.931584 23.997645 41.520120 -1.150342 0.954550 0.016710 0.004900 -550137.000000 0 0 1
-12.818959 29.933984 24.098345 40.510484 -1.166184 0.933696 0.024451 0.002472 541396.000000 0 0 1
-12.414959 29.563284 25.478845 40.954737 -1.173215 0.899346 0.019356 0.005853 27239.800000 0 0 1
-11.956959 30.672784 26.398445 42.197943 -1.199094 0.894914 0.016135 0.010681 -64211.900000 0 0 1
-13.062159 31.503684 26.792545 43.369835 -1.177748 0.904894 0.014611 0.016872 614275.000000 0 0 1
-12.618159 32.731084 27.310745 44.456929 -1.202843 0.909273 0.013407 0.015020 -347277.000000 0 0 1
-13.748659 33.691584 27.724345 45.746997 -1.183349 0.919728 0.015240 0.014240 58639.100000 0 0 1
-14.530959 33.265784 28.807145 46.342343 -1.158962 0.899992 -0.004531 0.010953 382434.000000 0 0 1
-13.854659 33.633684 30.024145 47.165936 -1.180050 0.880761 0.003686 0.019245 -388.931000 0 0 1
-14.383259 32.916084 31.261945 47.619911 -1.158833 0.854642 -0.010524 0.014059 -956843.000000 0 0 1
-15.685059 33.175484 31.623445 48.442503 -1.129152 0.859517 -0.009472 0.015149 -1252530.000000 0 0 1
-15.969659 32.534384 32.838545 48.906913 -1.114492 0.834633 -0.007057 0.018024 1464160.000000 0 0 1
-17.430259 32.800084 33.415445 49.962500 -1.082338 0.838189 -0.008341 0.011147 1176710.000000 0 0 1
-17.691359 34.161384 33.639345 51.103717 -1.092950 0.852296 0.004250 0.008824 536559.000000 0 0 1
-19.107259 34.330984 33.836445 51.851797 -1.062930 0.859837 0.013632 -0.000080 854806.000000 0 0 1
-19.532459 -33.278833 33.836845 51.321825 1.040040 0.850899 0.017342 0.001986 -113463.000000 0 0 1
-19.179459 -32.633033 -33.943951 50.842485 1.039447 2.301817 0.037739 -0.004548 204020.000000 0 0 1
-20.058559 -32.945333 -32.872751 50.678975 1.023899 2.276601 0.033774 -0.004935 230443.000000 0 0 1
-19.658359 -32.101833 -31.646351 49.177945 1.021327 2.269867 0.053742 -0.015929 199124.000000 0 0 1
-19.966459 -30.703933 -31.852051 48.538069 0.994217 2.286606 0.062269 -0.017347 180676.000000 0 0 1
-19.489359 -29.871833 -30.785251 47.115743 0.992713 2.282859 0.054015 -0.015051 95289.800000 0 0 1
-19.767159 -28.393733 -30.992051 46.448379 0.962638 2.301289 0.063326 -0.018464 -52288.700000 0 0 1
-21.107559 -28.041833 -30.772451 46.677802 0.925559 2.290620 0.069204 -0.015167 -349480.000000 0 0 1
-21.396259 -26.658933 -30.974251 46.129197 0.894477 2.306984 0.070342 -0.014543 348128.000000 0 0 1
-22.633259 -26.245433 -30.120951 45.916869 0.859165 2.286288 0.066025 -0.014726 256230.000000 0 0 1
-22.506059 -26.467733 -28.701751 45.064999 0.866116 2.261263 0.056135 -0.010945 255353.000000 0 0 1
-21.776959 -25.474533 -27.960051 43.645758 0.863492 2.266093 0.058184 -0.015528 116291.000000 0 0 1
-21.502859 -25.881333 -26.499951 42.830640 0.877540 2.237902 0.046380 -0.013443 465189.000000 0 0 1
-22.680859 -25.818533 -25.687351 42.905221 0.850003 2.212673 0.029983 -0.006962 577914.000000 0 0 1
-22.449359 -26.185933 -24.370551 42.232696 0.862076 2.185913 0.024685 0.000464 -331922.000000 0 0 1
-23.644259 -25.739633 -23.462051 42.095695 0.827803 2.161987 0.013992 0.003980 444360.000000 0 0 1
-24.868159 -26.403933 -23.655751 43.303436 0.815343 2.148711 0.015944 0.007681 -382386.000000 0 0 1
-24.946459 -27.794433 -23.436851 44.092429 0.839345 2.131213 0.017532 0.013250 -1490770.000000 0 0 1
-26.371159 -28.334033 -23.445051 45.254015 0.821264 2.115397 0.010386 0.009554 -353150.000000 0 0 1
-26.990059 -28.119233 -22.198951 44.854743 0.805885 2.088525 0.014331 0.020166 -291109.000000 0 0 1
-28.168359 -27.351433 -22.325451 45.166172 0.770685 2.087821 0.017724 0.020942 -60172.900000 0 0 1
-28.672659 -26.878633 -20.956251 44.539272 0.753114 2.060667 0.024618 0.024806 -50671.800000 0 0 1
-29.214459 -27.984633 -20.210151 45.222500 0.763901 2.034099 0.025692 0.023022 220858.000000 0 0 1
-29.722259 -27.501533 -18.981451 44.721835 0.746610 2.009133 0.018494 0.022057 -1445410.000000 0 0 1
-30.546359 -28.511633 -18.139351 45.552490 0.750959 1.980358 0.011024 0.018950 343078.000000 0 0 1
-31.860359 -28.807133 -18.630651 46.819169 0.735113 1.980053 0.009980 0.019090 1081610.000000 0 0 1
-32.756159 -27.701133 -18.793351 46.834910 0.701979 1.983697 0.012704 0.022384 -958946.000000 0 0 1
-33.330359 -26.955833 -17.608351 46.342031 0.680052 1.960555 0.015176 0.016543 -918269.000000 0 0 1
-32.356659 -26.159333 -16.985651 44.941923 0.679883 1.958374 0.016241 0.020718 22217.400000 0 0 1
-32.732659 -25.589833 -15.725351 44.424691 0.663534 1.932617 0.018910 0.015885 -107908.000000 0 0 1
-32.413259 -26.396433 -14.437351 44.224746 0.683443 1.903346 0.013885 0.008833 28883.400000 0 0 1
-33.183859 -27.578833 -14.252851 45.441218 0.693414 1.889836 0.023185 0.022044 196050.000000 0 0 1
-32.793859 -28.303133 -13.130751 45.265010 0.712029 1.865113 0.020696 0.012048 -120974.000000 0 0 1
-33.668859 -29.550533 -12.767951 46.581613 0.720347 1.848449 0.027179 0.007559 38167.100000 0 0 1
-33.427159 -30.508433 -13.748151 47.298532 0.739779 1.865721 0.022535 0.004559 272077.000000 0 0 1
-33.711559 -31.781133 -13.194251 48.172584 0.755931 1.848237 0.015347 -0.001237 -281364.000000 0 0 1
-33.331959 -32.994033 -14.136051 48.984218 0.780303 1.863544 0.012480 0.005068 -305208.000000 0 0 1
-31.953459 -33.209233 -14.279951 48.247215 0.804667 1.871272 0.010018 0.007002 -378979.000000 0 0 1
-31.765259 -34.217133 -15.163951 49.089605 0.822541 1.884836 0.021246 -0.007773 452019.000000 0 0 1
-30.261859 34.517684 -15.350351 48.403346 -0.851001 1.893502 0.014101 -0.004967 479875.000000 0 0 1
-29.989559 33.482484 -16.247651 47.795780 -0.840374 1.917648 0.015894 -0.009441 -2112140.000000 0 0 1
-28.651659 33.262784 -16.330051 46.840164 -0.859737 1.926909 0.008325 -0.008685 -1736340.000000 0 0 1
9.268623 20.296284 -8.656255 23.932765 1.142413 1.940877 -0.000906 -0.000467 -365832.000000 0 1 0
7.851623 20.332484 -8.679855 23.460557 1.202276 1.949780 -0.002207 -0.005711 373199.000000 0 1 0
7.248823 20.562684 -9.950855 23.966412 1.231875 1.998959 -0.002353 -0.004023 60703.500000 0 1 0
7.252223 19.428484 -11.035955 23.491552 1.213536 2.059842 -0.008772 0.005905 -1100770.000000 0 1 0
8.479223 18.944584 -11.445255 23.702074 1.149956 2.074737 0.004896 0.010457 -946938.000000 0 1 0
8.295023 17.740784 -12.176755 23.061140 1.133429 2.127064 0.002413 -0.001720 30778.200000 0 1 0
9.602623 17.286684 -12.871155 23.594627 1.063746 2.147796 0.011608 0.001892 274589.000000 0 1 0
9.446123 16.129584 -13.625355 23.130997 1.041003 2.200681 0.015550 -0.014849 -229575.000000 0 1 0
10.587823 15.916284 -14.409655 23.938844 0.983796 2.216720 0.029331 -0.009715 -326665.000000 0 1 0
10.454523 14.863984 -15.545155 23.914157 0.957828 2.278433 0.029699 -0.010695 -393274.000000 0 1 0
10.260523 13.514784 -15.152055 22.748901 0.921429 2.299706 0.027821 -0.005367 873199.000000 0 1 0
11.415223 12.816484 -14.657155 22.569930 0.843161 2.277606 0.024856 -0.004724 203579.000000 0 1 0
12.283123 12.078084 -15.721955 23.322416 0.776982 2.310560 0.030271 -0.006174 8968.400000 0 1 0
13.165623 12.867784 -16.486455 24.712683 0.773958 2.301139 0.038428 -0.013810 828182.000000 0 1 0
14.057923 12.189384 -17.407655 25.480046 0.714328 2.322915 0.037575 -0.015785 631148.000000 0 0 1
14.680723 13.107184 -18.492755 27.005627 0.728832 2.325090 0.031469 -0.017852 260278.000000 0 0 1
15.706623 13.945184 -17.977855 27.647232 0.726064 2.278721 0.020497 -0.010627 -289805.000000 0 0 1
16.392823 14.522384 -19.010055 29.000111 0.724970 2.285663 0.025635 -0.010618 -408018.000000 0 0 1
17.572523 15.429784 -18.578155 29.866698 0.720562 2.242136 0.019676 -0.001391 -297009.000000 0 0 1
17.320223 16.684984 -17.970855 30.022166 0.766720 2.212531 0.014060 -0.000417 229919.000000 0 0 1
16.810223 17.757584 -18.813355 30.852191 0.812797 2.226592 0.014940 0.003600 -78063.000000 0 0 1
16.751823 19.114184 -18.084455 31.193318 0.851169 2.189223 0.006309 0.012225 -615336.000000 0 0 1
17.878523 19.902984 -18.184055 32.348573 0.838930 2.167753 0.003924 0.013503 -556152.000000 0 0 1
17.520923 21.181684 -17.873355 32.788768 0.879705 2.147312 -0.005959 0.016484 -22956.000000 0 0 1
18.660823 22.189684 -18.218455 34.242086 0.871569 2.131815 0.005437 0.010124 469182.000000 0 0 1
19.775823 22.222184 -17.363655 34.444232 0.843582 2.099147 0.008347 0.009277 -326906.000000 0 0 1
19.409623 23.030584 -16.262555 34.228817 0.870511 2.065889 0.011118 0.001782 -73402.800000 0 0 1
20.525523 23.524984 -15.265855 34.752961 0.853385 2.025580 0.017702 0.000678 -582661.000000 0 0 1
20.820423 22.625384 -14.305555 33.912341 0.826919 2.006269 0.021088 -0.002282 -10324.800000 0 0 1
21.720823 23.089184 -13.285255 34.371537 0.815926 1.967651 0.021592 -0.002904 452954.000000 0 0 1
23.208523 23.066884 -13.686155 35.468683 0.782337 1.966943 0.017400 -0.007111 -668636.000000 0 0 1
23.523523 23.838384 -14.793755 36.612564 0.792046 1.986750 0.009483 -0.002004 -461907.000000 0 0 1
24.892323 24.108884 -14.961555 37.745386 0.769411 1.978368 0.021108 -0.001783 -132879.000000 0 0 1
25.326223 24.661084 -16.338255 38.942588 0.772093 2.003743 0.008848 0.003799 1736.630000 0 0 1
25.824823 23.661784 -17.260555 39.047769 0.741716 2.028665 0.014803 -0.002686 341380.000000 0 0 1
26.087823 24.189584 -18.530055 40.113257 0.747661 2.050982 0.009151 0.009130 -794002.000000 0 0 1
26.440423 23.231484 -19.692855 40.331208 0.720885 2.080912 0.005295 0.001605 560052.000000 0 0 1
27.809923 22.807484 -19.688555 41.002589 0.686890 2.071654 0.000595 0.009143 476430.000000 0 0 1
28.042023 22.063384 -20.880655 41.341864 0.666638 2.100263 0.006405 -0.000155 769114.000000 0 0 1
29.538123 21.946084 -21.333055 42.535050 0.638990 2.096175 0.033340 -0.006001 723361.000000 0 0 1
30.071623 23.168984 -21.881555 43.816740 0.656467 2.093689 0.018136 0.013145 -17767.900000 0 0 1
31.474023 23.255984 -21.836655 44.813998 0.636356 2.079761 0.035732 -0.001091 -27965.000000 0 0 1
32.008623 24.606084 -22.452455 46.196580 0.655383 2.078326 0.022096 0.005360 -159114.000000 0 0 1
31.963923 24.647884 -23.883455 46.900213 0.656879 2.105098 0.020757 0.008560 844063.000000 0 0 1
30.654623 24.887684 -24.424355 46.428998 0.681939 2.124755 0.011430 0.007812 463737.000000 0 0 1
30.780123 25.225084 -25.958885 47.514045 0.686534 2.148786 0.005773 0.003624 -105766.000000 0 0 1
31.104223 26.601084 -26.248865 48.621942 0.707519 2.141063 0.002229 0.007608 -602188.000000 0 0 1
29.994223 27.390884 -26.578605 48.542107 0.740063 2.150214 0.002522 0.010548 -50770.300000 0 0 1
29.533223 27.283584 -28.064275 49.032731 0.745824 2.180175 -0.003786 0.007802 10864.500000 0 0 1
28.963123 26.019884 -28.320915 48.145312 0.731919 2.199675 -0.003161 -0.002187 -53428.300000 0 0 1
28.659023 25.803084 -29.755605 48.708672 0.733007 2.227980 -0.002939 -0.007793 -138058.000000 0 0 1
27.806623 24.495984 -30.007825 47.683656 0.722185 2.251462 0.007283 -0.019546 -201843.000000 0 0 1
26.472223 24.674784 -29.593265 46.748100 0.750270 2.256266 0.016040 -0.018986 -510160.000000 0 0 1
25.889223 23.421784 -29.937615 45.990136 0.735402 2.279641 0.024978 -0.027300 667886.000000 0 0 1
24.403823 23.381484 -29.408505 44.800675 0.764007 2.286873 0.020817 -0.009654 685348.000000 0 0 1
24.300323 23.244884 -28.031535 43.778959 0.763203 2.265681 0.011896 0.002452 303884.000000 0 0 1
22.980023 23.233684 -27.518355 42.721720 0.790887 2.270682 0.014698 -0.001087 79737.100000 0 0 1
23.060623 23.498184 -25.985075 41.942593 0.794796 2.238952 0.014710 0.004643 -120758.000000 0 0 1
23.311323 22.328184 -25.257955 40.986947 0.763860 2.234761 -0.001969 0.006679 189662.000000 0 0 1
23.627623 22.722084 -23.931755 40.586778 0.765864 2.201414 0.001244 0.010554 -223372.000000 0 0 1
24.118523 21.549584 -23.067955 39.726795 0.729205 2.190341 -0.000173 0.015095 274231.000000 0 0 1
25.240123 20.845384 -23.600255 40.355493 0.690325 2.195441 -0.007762 0.009558 334571.000000 0 0 1
25.475423 19.698684 -22.864755 39.494713 0.658211 2.188215 0.013071 0.005178 40645.300000 0 0 1
26.647523 18.848784 -23.434355 40.181291 0.615633 2.193478 0.018254 -0.006038 -117484.000000 0 0 1
27.891223 19.107784 -22.858455 40.810987 0.600644 2.165309 0.046993 -0.027013 -1171690.000000 0 0 1
28.868823 18.361484 -23.461455 41.484851 0.566493 2.171887 0.042142 -0.023477 -309230.000000 0 0 1
30.159823 18.173384 -22.622655 41.852972 0.542307 2.141860 0.045098 -0.024218 -202678.000000 0 0 1
30.881923 19.351584 -22.470455 42.814697 0.559772 2.123312 0.042844 -0.019490 -536297.000000 0 0 1
32.151823 18.931284 -22.021355 43.325204 0.532150 2.103983 0.047719 -0.015381 -267.202000 0 0 1
32.755623 19.880684 -20.930155 43.660552 0.545507 2.070749 0.034934 -0.024784 -4171.980000 0 0 1
32.041523 19.792084 -19.715055 42.509636 0.553333 2.053052 0.038155 -0.023464 98682.800000 0 0 1
32.426523 20.785284 -18.779655 42.850704 0.570020 2.024456 0.023246 -0.017718 -135836.000000 0 0 1
31.746823 20.805284 -17.412055 41.760032 0.580127 2.000889 0.027625 -0.024294 -189496.000000 0 0 1
32.104823 19.601284 -16.725955 41.166583 0.548134 1.989197 0.027826 -0.029546 361465.000000 0 0 1
31.875623 19.752684 -15.308655 40.504058 0.554764 1.958381 0.027225 -0.026345 -235395.000000 0 0 1
32.385223 18.521884 -14.585555 40.057474 0.519519 1.943479 0.018325 -0.012371 -372137.000000 0 0 1
33.795023 18.362884 -14.606355 41.141763 0.497731 1.933737 0.027087 -0.016251 102840.000000 0 0 1
34.263423 17.329484 -13.789255 40.797508 0.468255 1.915579 0.018706 -0.002826 -148018.000000 0 0 1
34.252223 17.557884 -12.250155 40.392578 0.473681 1.878926 0.033621 -0.018153 -85524.500000 0 0 1
35.237923 18.529384 -11.852255 41.539442 0.484102 1.860142 0.033421 -0.026332 528714.000000 0 0 1
34.972223 19.085484 -10.561855 41.217288 0.499561 1.829935 0.026053 -0.026184 -81985.600000 0 0 1
33.847523 20.139084 -10.384055 40.731635 0.536731 1.828580 0.029925 -0.026126 224163.000000 0 0 1
32.538423 19.597284 -10.449555 39.395376 0.542095 1.839258 0.037666 -0.027370 -358052.000000 0 0 1
31.577423 20.567084 -10.133355 39.023370 0.577304 1.833481 0.017873 -0.013545 -553487.000000 0 0 1
30.184423 20.053984 -10.494655 37.727966 0.586419 1.852681 0.005778 -0.008682 -527869.000000 0 0 1
30.004523 19.817084 -11.877255 37.868950 0.583700 1.889821 0.011790 -0.014638 208694.000000 0 0 1
28.812523 19.054384 -12.053955 36.585910 0.584294 1.906538 0.013418 -0.012806 133862.000000 0 0 1
28.548323 18.552884 -13.453955 36.609085 0.576288 1.947119 0.055517 -0.014726 -427102.000000 0 0 1
29.421123 17.573184 -13.973655 37.009219 0.538431 1.957969 0.037392 -0.006473 44575.200000 0 0 1
28.828923 16.886984 -15.063355 36.649443 0.529887 1.994360 0.039727 -0.002350 -160753.000000 0 0 1
29.849623 15.990884 -15.768155 37.354291 0.491810 2.006584 0.038163 -0.015968 -152763.000000 0 0 1
30.433823 15.017584 -14.949655 37.084196 0.458394 1.985728 0.027128 -0.012827 288130.000000 0 0 1
31.682523 14.593784 -15.453055 38.151772 0.431655 1.987821 0.027854 -0.012320 -174122.000000 0 0 1
32.403023 13.567884 -14.606555 38.044642 0.396542 1.964847 0.017545 -0.019019 -706573.000000 0 0 1
32.950323 14.233984 -13.505555 38.350099 0.407771 1.930679 0.013954 -0.003060 453183.000000 0 0 1
33.739223 13.326484 -12.679355 38.427807 0.376176 1.907050 0.021423 0.003727 473515.000000 0 0 1
34.697123 13.999684 -11.675355 39.194328 0.383505 1.873271 0.029867 0.007558 286018.000000 0 0 1
-34.810195 14.534384 -12.186155 39.642154 -0.395529 1.883260 0.007927 0.000853 193412.000000 0 0 1
-33.975395 15.072084 -11.168055 38.810059 -0.417534 1.862685 0.009670 -0.001990 -104850.000000 0 0 1
-32.526095 15.447784 -11.613055 37.834428 -0.443395 1.882777 0.013369 -0.014597 1197920.000000 0 0 1
-31.652695 14.336984 -12.027655 36.771004 -0.425302 1.904025 0.008025 -0.005877 850357.000000 0 0 1
-31.417295 13.342784 -11.028755 35.870737 -0.401613 1.883317 0.014339 -0.004543 -1026560.000000 0 0 1
-30.269395 12.366384 -11.325155 34.603799 -0.387850 1.904221 0.018460 -0.010937 -348887.000000 0 0 1
-30.375995 11.577384 -12.513055 34.832649 -0.364139 1.938243 0.011723 -0.004066 527815.000000 0 0 1
-29.560595 10.369384 -12.565155 33.752571 -0.337373 1.952253 0.024203 -0.010392 208292.000000 0 0 1
-29.400795 9.628184 -13.924055 33.926214 -0.316474 1.993713 0.026253 -0.011899 141442.000000 0 0 1
-30.629495 8.983584 -14.233055 34.949258 -0.285297 1.990236 0.012465 -0.008169 576546.000000 0 0 1
-30.488295 8.066584 -15.267755 35.038697 -0.258653 2.021656 0.016691 -0.007416 205860.000000 0 0 1
-31.836095 7.817884 -16.010555 36.482793 -0.240802 2.025117 0.017027 -0.006141 741407.000000 0 0 1
-32.853395 7.173984 -15.250255 36.924002 -0.214989 1.996561 0.025974 -0.011691 402048.000000 0 0 1
-33.549295 6.163584 -15.891855 37.631052 -0.181691 2.006785 0.012891 -0.014029 -351621.000000 0 0 1
-34.528095 5.467384 -14.938055 38.016143 -0.157042 1.974623 0.017704 -0.012995 933109.000000 0 0 1
35.236523 4.548884 -15.605855 38.805252 0.128386 1.984669 0.018732 -0.012329 1750270.000000 0 0 1
34.149723 4.073884 -14.771055 37.429723 0.118734 1.976466 0.025703 -0.014350 886454.000000 0 0 1
33.174223 3.100484 -15.432555 36.719284 0.093190 2.004555 0.036649 -0.015573 -423296.000000 0 0 1
33.716723 1.783084 -15.442255 37.127618 0.052835 1.999755 0.035566 -0.019590 -139122.000000 0 0 1
32.841423 0.687184 -15.460755 36.305182 0.020921 2.010703 0.027180 -0.014294 -357833.000000 0 0 1
32.241023 0.454084 -14.066555 35.178938 0.014083 1.982157 0.051332 -0.030002 -485760.000000 0 0 1
33.249023 -0.061416 -13.234455 35.786200 -0.001847 1.949612 0.059894 -0.033859 254218.000000 0 0 1
32.978623 0.077184 -11.831155 35.036720 0.002340 1.915246 0.067889 -0.021091 -345646.000000 0 0 1
33.143923 1.446684 -11.159855 35.002212 0.043621 1.895294 0.068512 -0.033056 -400155.000000 0 0 1
32.187223 2.351084 -11.614255 34.299210 0.072915 1.916242 0.062805 -0.024073 134872.000000 0 0 1
32.329423 3.600984 -10.990055 34.335695 0.110927 1.896607 0.063004 -0.020463 -151086.000000 0 0 1
31.281523 4.538084 -11.616855 33.676092 0.144067 1.922991 0.056486 -0.012168 -60414.500000 0 0 1
31.448023 4.760684 -12.987355 34.355693 0.150242 1.958460 0.052288 -0.015614 479148.000000 0 0 1
30.514223 5.773284 -13.325655 33.793811 0.186989 1.976127 0.053332 -0.013857 30584.900000 0 0 1
30.804623 6.428784 -14.713455 34.738160 0.205742 2.008160 0.027800 -0.006300 -254715.000000 0 0 1
30.748223 5.506984 -15.772155 34.993441 0.177220 2.038365 0.024872 -0.002259 77180.000000 0 0 1
31.158023 6.080584 -16.971655 35.997680 0.192731 2.061748 0.020824 0.001178 -893733.000000 0 0 1
30.238823 7.116184 -17.705355 35.756203 0.231127 2.088825 0.020422 0.002636 820769.000000 0 0 1
28.947623 6.668584 -18.118955 34.795566 0.226417 2.118497 0.006680 0.004396 353175.000000 0 0 1
27.994923 6.361084 -17.143055 33.437455 0.223429 2.109112 0.000719 0.008955 -271419.000000 0 0 1
26.538523 6.303084 -17.737855 32.536957 0.233186 2.147377 -0.006821 0.012296 571292.000000 0 0 1
26.384023 5.254784 -18.679855 32.751586 0.196593 2.177728 -0.004018 0.008036 871858.000000 0 0 1
25.343523 5.605284 -19.628055 32.541879 0.217668 2.218257 -0.007799 0.001074 577708.000000 0 0 1
25.159823 4.512284 -20.752055 32.924537 0.177458 2.252725 -0.009256 0.024829 -118420.000000 0 0 1
24.686223 3.276284 -20.200755 32.065778 0.131946 2.252322 -0.002035 0.012916 401233.000000 0 0 1
24.358023 2.272484 -21.119955 32.319189 0.093026 2.282970 -0.006476 0.006812 -541401.000000 0 0 1
23.594423 1.154684 -20.390355 31.205715 0.048900 2.282886 -0.007031 0.001641 440946.000000 0 0 1
22.310023 1.639584 -19.985555 29.997462 0.073359 2.299954 -0.000907 0.001822 966631.000000 0 0 1
21.493923 0.802284 -19.152455 28.800155 0.037309 2.298307 -0.003588 0.002071 860568.000000 0 0 1
20.217923 1.557684 -18.616455 27.527498 0.076893 2.313505 -0.008905 -0.001584 88227.600000 0 0 1
19.459623 1.895784 -19.765355 27.801802 0.097115 2.361627 -0.004192 -0.005576 1151120.000000 0 0 1
18.257823 2.711284 -19.674755 26.977678 0.147422 2.388091 -0.013561 -0.000327 1229060.000000 0 0 1
17.032623 2.106984 -18.974855 25.585049 0.123078 2.406306 0.012287 -0.005734 -876937.000000 0 0 1
17.207023 2.025584 -17.574655 24.679002 0.117179 2.363324 0.011739 -0.011737 605790.000000 0 1 0
16.023623 2.106984 -16.762855 23.284956 0.130742 2.374456 -0.001663 -0.006523 747949.000000 0 1 0
15.420823 3.594884 -16.618855 22.954549 0.229028 2.380365 0.022969 -0.003441 185527.000000 0 1 0
14.807123 4.196984 -17.736855 23.483219 0.276199 2.426907 0.018988 0.007797 870337.000000 0 1 0
13.519423 4.746584 -17.426955 22.561108 0.337649 2.453460 0.026949 -0.013598 479994.000000 0 1 0
-19.330277 -21.773316 -18.052455 34.258255 0.844764 2.125807 0.024324 -0.008454 106357.000000 0 0 1
-19.337377 -22.592316 -19.193155 35.393843 0.862871 2.143937 0.025899 -0.009106 -246770.000000 0 0 1
-20.575877 -22.454016 -19.818455 36.336218 0.829018 2.147685 0.027370 -0.006237 -334557.000000 0 0 1
-20.508977 -23.198116 -21.153355 37.499802 0.846847 2.170130 0.020045 -0.001238 89697.500000 0 0 1
-20.421777 -24.573216 -20.941055 38.202353 0.877402 2.150961 0.006139 0.003162 434025.000000 0 0 1
-19.553277 -25.199736 -21.901355 38.691430 0.910904 2.172505 0.010028 0.004961 159157.000000 0 0 1
-19.373577 -26.714906 -21.718355 39.505805 0.943359 2.152862 0.009442 0.018600 196366.000000 0 0 1
-20.509977 -27.469226 -22.146855 40.812997 0.929441 2.144376 0.016451 0.023623 220463.000000 0 0 1
-20.427977 -28.866506 -21.839855 41.563887 0.954941 2.124043 0.042100 0.004984 -117875.000000 0 0 1
-21.710677 -29.629026 -22.221955 42.930735 0.938427 2.114867 0.029651 0.006371 -143536.000000 0 0 1
-22.084877 -29.516626 -23.584355 43.762939 0.928437 2.139941 0.015344 0.005490 121161.000000 0 0 1
-21.236277 -30.123826 -24.557755 44.288912 0.956745 2.158546 0.026589 -0.004151 -842073.000000 0 0 1
-21.762077 -29.879016 -25.964185 45.171701 0.941302 2.183142 0.034762 -0.000600 -233144.000000 0 0 1
-23.008877 -30.511996 -26.177475 46.321167 0.924681 2.171387 0.038138 -0.001894 755862.000000 0 0 1
-23.949777 -29.693146 -26.911845 46.685353 0.892059 2.185176 0.031648 -0.001076 361558.000000 0 0 1
-23.729077 -29.700356 -28.435275 47.473626 0.896696 2.213010 0.052098 -0.012464 -590630.000000 0 0 1
-24.088877 -30.891556 -29.095015 48.796334 0.908502 2.209623 0.032653 -0.005616 27107.400000 0 0 1
-23.836277 -30.849836 -30.494105 49.495161 0.912953 2.234582 0.076915 -0.010568 28539.800000 0 0 1
-24.230477 -32.168466 -31.143535 50.910176 0.925227 2.229048 0.030851 -0.008661 191823.000000 0 0 1
-23.544077 -33.340766 -30.644655 51.039447 0.955945 2.214812 0.044387 -0.019194 -245625.000000 0 0 1
-24.229777 -34.391177 -31.207365 52.380672 0.957033 2.209033 0.044196 -0.016748 -105349.000000 0 0 1
-23.540677 33.301822 -31.198905 51.347313 -0.955462 2.223838 0.057766 -0.022664 349191.000000 0 0 1
-22.335977 33.259702 -31.944895 51.240414 -0.979412 2.243920 0.055450 -0.023709 -290725.000000 0 0 1
-21.714177 32.039780 -31.704445 50.032238 -0.975177 2.257098 0.051946 -0.016018 380549.000000 0 0 1
-20.391677 31.812280 -32.510895 49.847768 -1.000774 2.281284 0.050680 -0.013102 434733.000000 0 0 1
-20.568177 31.594510 -33.874315 50.682662 -0.993715 2.302799 0.036466 -0.010498 -80873.500000 0 0 1
-19.966177 30.391970 -34.293762 49.983819 -0.989547 2.326907 0.010899 0.004504 -96509.100000 0 0 1
-20.229977 29.965460 33.289894 49.146697 -0.976971 0.826631 0.009369 0.011062 110921.000000 0 0 1
-19.583977 30.833970 32.360191 48.800080 -1.004936 0.845820 0.009657 0.004818 95265.200000 0 0 1
-19.742977 30.441740 31.005581 47.726625 -0.995441 0.863673 0.021179 0.002722 -94818.100000 0 0 1
-19.353977 31.586330 30.078291 47.717673 -1.021067 0.888807 0.012588 -0.004751 -41118.000000 0 0 1
-20.128677 32.780190 30.162121 48.882083 -1.020110 0.905823 0.020441 -0.009683 -381637.000000 0 0 1
-19.537277 33.862733 29.538761 48.999268 -1.047494 0.923739 0.008423 -0.011891 -843326.000000 0 0 1
-20.410677 -34.034356 29.418541 49.400240 1.030592 0.932891 0.011530 -0.017901 -658474.000000 0 0 1
-20.546877 -33.444936 30.694301 49.828486 1.019893 0.907143 0.007339 -0.007445 896297.000000 0 0 1
-21.664777 -32.516296 30.809901 49.758638 0.983065 0.903089 0.034630 -0.016810 819880.000000 0 0 1
-21.226277 -31.017676 30.536221 48.426355 0.970666 0.888509 0.023686 -0.007612 -195531.000000 0 0 1
-20.764077 -30.836956 29.214511 47.281629 0.978181 0.904749 0.036856 -0.007104 -64156.800000 0 0 1
-20.777377 -29.542206 28.712591 46.139508 0.957851 0.899119 0.031408 -0.009899 -698970.000000 0 0 1
-22.078177 -29.076786 28.062971 46.048189 0.921366 0.915460 0.034437 -0.008009 -651960.000000 0 0 1
-23.157177 -28.800366 28.930711 46.932952 0.893586 0.906600 0.033380 -0.011904 366272.000000 0 0 1
-24.165777 -29.807706 29.038561 48.121951 0.889551 0.922992 0.028723 -0.016267 -485020.000000 0 0 1
-25.268437 -29.743256 28.013811 48.040908 0.866563 0.948227 0.017520 -0.005410 -1041010.000000 0 0 1
-24.869877 -30.116636 26.697241 47.310308 0.880529 0.971210 0.030042 -0.008585 712180.000000 0 0 1
-25.991667 -30.239026 25.783121 47.484048 0.860790 0.996809 0.039088 -0.008340 616017.000000 0 0 1
-25.581617 -30.487946 24.344031 46.653680 0.872680 1.021833 0.035221 -0.019717 -714282.000000 0 0 1
-25.024477 -29.337226 23.800341 45.313944 0.864567 1.017808 0.018387 -0.015540 179748.000000 0 0 1
-24.428677 -29.443546 22.520541 44.394340 0.878219 1.038766 0.034189 -0.016085 234597.000000 0 0 1
-23.167277 -30.318396 22.328841 44.209784 0.918311 1.041338 0.025394 -0.019104 -547506.000000 0 0 1
-23.428877 -31.716566 22.406241 45.352977 0.934570 1.054065 0.027071 -0.023932 744078.000000 0 0 1
-22.337877 -32.484066 21.874741 45.085470 0.968403 1.064223 0.023147 -0.010761 461912.000000 0 0 1
-21.264977 -33.005446 22.847841 45.426673 0.998448 1.043775 0.022594 -0.010644 -233922.000000 0 0 1
-20.647377 -32.086946 23.693441 44.913978 0.999017 1.015107 0.023536 -0.012959 105799.000000 0 0 1
-19.707577 -32.799636 24.476941 45.423842 1.029754 1.001717 0.017363 -0.014277 -288086.000000 0 0 1
-19.100677 -31.951886 25.583651 45.169482 1.032000 0.968675 0.009502 -0.004088 -1120390.000000 0 0 1
-18.109077 -31.036036 25.192621 43.884421 1.042608 0.959331 0.013502 -0.001917 -9300.650000 0 0 1
-17.481277 -30.415426 26.292751 43.840643 1.049150 0.927627 0.022386 0.000547 70913.400000 0 0 1
-16.648377 -31.213356 27.339371 44.708873 1.080808 0.912844 0.004033 0.002416 -778789.000000 0 0 1
-17.405877 -32.228016 28.004741 46.107213 1.075597 0.918034 0.000783 0.003028 -51342.100000 0 0 1
-16.841377 -32.747466 29.197621 46.994996 1.095790 0.900406 0.009188 0.003126 -407326.000000 0 0 1
-17.093377 -31.888916 30.506991 47.326135 1.078743 0.870281 0.015620 0.000781 435790.000000 0 0 1
-16.370277 -30.632776 30.643171 46.317997 1.080006 0.847869 0.017319 0.003024 542920.000000 0 0 1
-16.689077 -30.043656 31.931991 46.912670 1.063745 0.822121 0.027178 0.002379 107974.000000 0 0 1
-16.446377 -28.515206 31.923281 45.855165 1.047642 0.800739 0.030185 -0.002750 -592015.000000 0 0 1
-17.428677 -27.832476 31.227581 45.316303 1.011335 0.810546 0.027216 -0.000119 -260686.000000 0 0 1
-17.603677 -27.858776 29.802331 44.431743 1.007258 0.835585 0.023999 0.000137 -134711.000000 0 0 1
-16.349277 -27.446966 28.975071 43.129915 1.033568 0.834148 0.026280 -0.002546 220496.000000 0 0 1
-16.316477 -26.067756 28.746641 42.096612 1.011532 0.819108 0.024917 -0.002629 168038.000000 0 0 1
-15.210077 -25.684526 27.954441 40.896114 1.036140 0.818184 0.018753 0.003342 -232366.000000 0 0 1
-15.309677 -24.260116 27.444491 39.700624 1.007849 0.807529 0.023333 -0.002351 577809.000000 0 0 1
-16.361977 -23.981016 26.490091 39.300488 0.972056 0.831132 0.024287 0.000077 629653.000000 0 0 1
-15.947277 -22.926316 25.666311 37.930082 0.963037 0.827560 0.040949 -0.008183 -13970.300000 0 0 1
-16.423477 -21.509116 26.043841 37.558679 0.918674 0.804575 0.044573 -0.006568 -647944.000000 0 0 1
-16.057777 -20.505416 25.128481 36.190674 0.906446 0.803300 0.045237 -0.007785 -16917.700000 0 0 1
-16.622877 -19.276716 25.521801 36.045446 0.859188 0.784070 0.051417 -0.001957 -266334.000000 0 0 1
-16.273577 -18.129516 24.658291 34.663237 0.839293 0.779355 0.044769 -0.010672 -606737.000000 0 0 1
-14.931677 -17.747116 24.798801 33.954317 0.871341 0.751951 0.049321 -0.010710 -476937.000000 0 0 1
-14.593277 -16.786016 23.807741 32.581323 0.855163 0.751424 0.049112 -0.004941 269598.000000 0 0 1
-13.123377 -16.301416 23.879141 31.751733 0.892987 0.719618 0.037517 -0.012840 -32083.900000 0 0 1
-12.147977 -17.302316 23.686141 31.748650 0.958662 0.728683 0.018459 -0.005622 331016.000000 0 0 1
-10.791477 -16.890616 23.682441 31.025907 1.002261 0.702372 0.016649 -0.009670 244084.000000 0 0 1
-10.297777 -16.109716 22.395541 29.447028 1.002031 0.706657 0.013423 -0.010233 -540841.000000 0 0 1
-9.961977 -16.884516 21.301341 28.949525 1.037757 0.743935 0.022965 -0.006055 -1244770.000000 0 0 1
-8.653577 -17.287816 21.402841 28.841543 1.106701 0.734623 0.017446 -0.004086 -1795120.000000 0 0 1
-8.326877 -18.510016 20.626741 28.938211 1.148061 0.777334 0.014734 -0.000204 -304583.000000 0 0 1
-8.293277 -18.311616 19.217741 27.810345 1.145536 0.807885 0.014323 0.003295 -28576.100000 0 0 1
-7.835877 -19.462616 18.512541 27.980504 1.188040 0.847815 0.010827 0.006270 17748.800000 0 0 1
-7.599477 -19.171516 17.089641 26.783482 1.193402 0.878812 0.003169 -0.002552 -487108.000000 0 0 1
-6.493977 -18.355116 16.879641 25.768281 1.230743 0.856541 -0.004493 0.003792 -550731.000000 0 0 1
-6.440077 -17.934616 15.507141 24.568201 1.226050 0.887713 0.009796 -0.004230 198094.000000 0 1 0
-5.489677 -16.739916 15.351341 23.367178 1.253908 0.854015 -0.005050 0.001946 38224.300000 0 1 0
-6.045977 -15.634316 16.009141 23.179264 1.201797 0.808386 0.003198 -0.001995 -203977.000000 0 1 0
-5.251977 -14.487016 15.921941 22.157733 1.223003 0.769049 0.001335 0.001738 -342860.000000 0 1 0
-5.649577 -13.477216 16.975441 22.399078 1.173853 0.710764 -0.003017 0.010500 99025.200000 0 1 0
-5.230377 -13.811616 18.325941 23.536306 1.208791 0.678326 0.002546 0.011554 358576.000000 0 1 0
-5.923577 -14.906316 19.013341 24.875574 1.192545 0.700783 0.011107 0.001552 556562.000000 0 1 0
-7.195377 -14.549916 19.822141 25.620125 1.111534 0.686145 0.024693 -0.007751 125925.000000 0 0 1
-6.862977 -13.657916 20.842341 25.846514 1.105158 0.632776 0.017922 -0.002404 -64143.400000 0 0 1
-8.013977 -13.103816 21.444241 26.377818 1.021909 0.621571 0.026362 -0.003081 133908.000000 0 0 1
-7.722677 -12.029416 22.538941 26.689894 1.000078 0.565213 0.027719 0.006556 -657274.000000 0 0 1
-7.422777 -10.807616 21.979541 25.593015 0.968978 0.537854 0.022753 0.006152 132003.000000 0 0 1
-6.904577 -9.857616 22.884541 25.856295 0.959781 0.484159 0.017242 -0.003309 315511.000000 0 0 1
-5.504477 -9.962416 23.560441 26.165691 1.066017 0.450033 0.026909 0.001222 237831.000000 0 0 1
-5.425977 -11.058316 24.442541 27.370886 1.114641 0.466801 0.020644 0.001862 54392.300000 0 0 1
-4.103377 -11.276416 24.910561 27.650159 1.221801 0.448913 0.024252 -0.005015 68137.200000 0 0 1
-4.044677 -12.456516 25.893931 29.017579 1.256832 0.468264 0.017047 -0.002215 1763570.000000 0 0 1
-2.679677 -12.754716 26.414371 29.454753 1.363715 0.458363 0.014849 -0.005205 2244810.000000 0 0 1
-2.612977 -14.007816 27.124531 30.639627 1.386379 0.483709 0.015317 -0.004031 -74978.300000 0 0 1
-2.682177 -15.299116 26.276701 30.524122 1.397244 0.533858 0.020220 -0.019205 -948039.000000 0 0 1
-1.508577 -15.624216 25.630841 30.055481 1.474541 0.549503 0.025161 -0.012364 -626530.000000 0 0 1
-1.634177 -16.798816 24.867021 30.053943 1.473822 0.596311 0.022226 -0.011215 221000.000000 0 0 1
-0.285077 -17.581316 24.874531 30.461882 1.554583 0.615337 0.020789 -0.010677 555483.000000 0 0 1
0.189223 -18.096216 26.097501 31.758281 -1.560340 0.606314 0.020196 -0.012646 64186.500000 0 0 1
0.947123 -17.308216 26.969701 32.059884 -1.516130 0.571244 0.034858 -0.016952 -93372.600000 0 0 1
1.354323 -17.967516 28.379401 33.616309 -1.495562 0.565697 0.032275 -0.010175 -1467610.000000 0 0 1
2.403723 -18.891116 28.252991 34.071743 -1.444236 0.593085 0.028841 -0.004986 -116070.000000 0 0 1
3.046823 -19.067116 29.514541 35.269621 -1.412341 0.579336 0.016920 -0.015616 113334.000000 0 0 1
3.987023 -17.894716 29.854621 35.034492 -1.351573 0.550717 0.022669 -0.006964 -1553620.000000 0 0 1
3.315423 -16.680316 30.140011 34.607011 -1.374591 0.513721 0.023469 -0.015806 10648.100000 0 0 1
4.218123 -15.664716 30.561251 34.600086 -1.307760 0.488003 0.022674 -0.019989 -55159.300000 0 0 1
3.494323 -14.611316 31.432891 34.838592 -1.336054 0.445852 0.034019 -0.023195 105570.000000 0 0 1
3.133423 -15.188416 32.692951 36.184739 -1.367347 0.442927 0.024615 -0.022881 -396635.000000 0 0 1
1.857523 -14.728716 33.017848 36.201709 -1.445343 0.422535 0.030423 -0.015973 -549462.000000 0 0 1
1.134723 -15.461516 34.204862 37.554210 -1.497538 0.425547 0.021424 -0.017305 330541.000000 0 0 1
1.695023 -15.242116 -33.511805 36.854257 -1.460045 2.712410 0.035451 -0.012722 220121.000000 0 0 1
0.788623 -15.750516 -32.542455 36.162302 -1.520768 2.690336 0.029404 -0.013001 344683.000000 0 0 1
1.515123 -15.736616 -31.199405 34.976271 -1.474812 2.672583 0.038757 -0.008589 4912.300000 0 0 1
0.886223 -16.511616 -30.228105 34.455148 -1.517175 2.641040 0.039980 -0.014244 -585328.000000 0 0 1
1.542023 -16.398816 -28.997125 33.348647 -1.477039 2.625014 0.033234 -0.017560 49233.500000 0 0 1
1.096323 -17.460216 -27.952905 32.976143 -1.508089 2.582375 0.038815 -0.014791 8994.200000 0 0 1
1.635823 -18.709716 -28.324825 33.985660 -1.483586 2.556090 0.049977 -0.016960 35990.300000 0 0 1
1.326823 -19.758016 -27.432245 33.832939 -1.503743 2.516339 0.048858 -0.015551 -477958.000000 0 0 1
2.332523 -20.944416 -27.564925 34.697757 -1.459886 2.488864 0.051197 -0.021890 -1221880.000000 0 0 1
3.608523 -20.709216 -27.166595 34.349919 -1.398281 2.483039 0.045406 -0.019387 -1500710.000000 0 0 1
3.781423 -20.940416 -25.783765 33.430566 -1.392142 2.451620 0.043203 -0.016380 -1495580.000000 0 0 1
5.173323 -21.363616 -25.315985 33.527100 -1.333214 2.426588 0.041837 -0.018468 -472235.000000 0 0 1
5.610023 -22.654716 -25.642535 34.673450 -1.328048 2.403189 0.034672 -0.010331 65209.200000 0 0 1
5.848023 -22.836716 -27.000195 35.843068 -1.320104 2.423845 0.021184 -0.006528 -897955.000000 0 0 1
5.160523 -24.145216 -27.431415 36.906707 -1.360236 2.408732 0.007522 -0.006553 186595.000000 0 0 1
5.619623 -25.274816 -26.692335 37.187058 -1.352014 2.371413 0.017092 0.006157 50756.200000 0 0 1
4.933123 -26.391386 -27.192715 38.213672 -1.386007 2.362564 0.015347 0.006233 83194.600000 0 0 1
4.984323 -27.595886 -26.258685 38.417378 -1.392105 2.323358 0.019469 -0.000278 -233834.000000 0 0 1
6.303923 -28.064796 -26.161025 38.881505 -1.349843 2.308837 0.026183 -0.001991 -380783.000000 0 0 1
6.333223 -29.397856 -25.785365 39.613492 -1.358608 2.279597 0.025271 -0.001557 -588277.000000 0 0 1
7.711423 -30.029896 -25.585465 40.197969 -1.319436 2.260731 0.015584 -0.005441 -275890.000000 0 0 1
8.271223 -30.007096 -26.916925 41.150453 -1.301833 2.283802 0.023175 -0.007429 -692594.000000 0 0 1
9.629023 -30.341326 -26.926185 41.693328 -1.263493 2.272887 0.065773 -0.011189 -351359.000000 0 0 1
10.078423 -30.299856 -28.376495 42.718630 -1.249685 2.297307 0.063773 -0.026517 -305545.000000 0 0 1
9.548523 -31.304306 -29.182035 43.848889 -1.274738 2.298978 0.064763 -0.020609 45856.400000 0 0 1
9.962523 -31.082406 -30.553055 44.708579 -1.260622 2.323182 0.068591 -0.003682 119718.000000 0 0 1
-33.895897 -5.095616 -6.165755 34.826911 0.149214 1.748774 0.082508 -0.021891 -76909.900000 0 0 1
-33.862867 -4.460116 -4.893155 34.504049 0.130957 1.713090 0.074913 -0.025243 96863.400000 0 0 1
-33.057607 -3.315016 -4.877455 33.579522 0.099946 1.716563 0.061061 -0.027247 -306681.000000 0 0 1
-33.719627 -2.003116 -5.417855 34.210801 0.059335 1.729833 0.070367 -0.021968 33670.200000 0 0 1
-34.625057 -1.363716 -4.549555 34.949289 0.039365 1.701343 0.052234 -0.020051 470999.000000 0 0 1
-35.124931 -0.109316 -5.049155 35.486148 0.003112 1.713566 0.062052 -0.022509 -50421.600000 0 0 1
34.995537 0.805784 -3.969755 35.229190 0.023021 1.683720 0.070981 -0.016132 91817.700000 0 0 1
-34.806265 1.438984 -3.076755 34.971606 -0.041319 1.658889 0.051297 -0.005794 334226.000000 0 0 1
35.145486 2.283284 -2.271455 35.292748 0.064875 1.635201 0.059143 -0.017306 -149095.000000 0 0 1
-34.902253 3.678984 -2.025955 35.154043 -0.105020 1.628459 0.036661 -0.020216 -310607.000000 0 0 1
-34.845053 4.455384 -3.220255 35.276029 -0.127173 1.662211 0.049826 -0.022625 914799.000000 0 0 1
-33.494037 4.641084 -3.646955 34.010153 -0.137688 1.678234 0.019543 0.001656 307593.000000 0 0 1
-32.799067 5.945784 -3.111755 33.478563 -0.179332 1.663878 -0.010961 0.005710 -352003.000000 0 0 1
-32.504067 5.910384 -1.712555 33.081413 -0.179870 1.622587 -0.008978 -0.001070 429150.000000 0 0 1
-32.336437 7.222584 -1.215355 33.155512 -0.219750 1.607461 -0.005318 -0.016980 -474208.000000 0 0 1
-31.707527 7.365984 0.153745 32.552245 -0.228261 1.566073 -0.004594 -0.018092 -699929.000000 0 0 1
-30.336807 7.020684 0.058945 31.138647 -0.227421 1.568903 -0.003108 -0.009598 224484.000000 0 0 1
-29.547427 7.485384 1.109445 30.501021 -0.248115 1.534414 0.003727 -0.016599 -124216.000000 0 0 1
-29.201697 9.014884 1.153245 30.583284 -0.299429 1.533079 0.003181 -0.016346 -142022.000000 0 0 1
-30.410407 9.793184 1.304545 31.975008 -0.311547 1.529986 0.005877 -0.021493 1008720.000000 0 0 1
-30.178247 11.201684 1.587045 32.229227 -0.355421 1.521534 0.008741 -0.006971 -724399.000000 0 0 1
-31.452387 12.008984 1.481745 33.699613 -0.364732 1.526813 0.007569 -0.018410 -1791050.000000 0 0 1
-31.780807 12.243884 0.113045 34.057968 -0.367736 1.567477 0.002198 -0.019577 837087.000000 0 0 1
-32.805727 13.261384 -0.097455 35.384877 -0.384156 1.573550 0.009833 -0.020074 324386.000000 0 0 1
-34.175677 12.684384 0.299545 36.454907 -0.355393 1.562579 0.029722 -0.022466 -1485550.000000 0 0 1
-34.561713 11.644384 -0.644755 36.476286 -0.324971 1.588473 0.027863 -0.023821 -163067.000000 0 0 1
34.973733 10.997984 -0.246355 36.663037 0.304673 1.577516 0.044841 -0.024971 -356088.000000 0 0 1
34.792488 9.592584 -0.843955 36.100514 0.269025 1.594176 0.049582 -0.022227 45948.400000 0 0 1
34.201461 9.584884 -2.131355 35.583038 0.273238 1.630730 0.044392 -0.016599 339593.000000 0 0 1
33.494891 8.365984 -2.288055 34.599604 0.244761 1.636974 0.036737 -0.022892 -208052.000000 0 0 1
32.922081 8.203084 -3.698155 34.129611 0.244194 1.679366 0.040049 -0.001522 203304.000000 0 0 1
31.783041 9.040384 -3.946455 33.278593 0.277122 1.689664 0.058335 -0.020368 660112.000000 0 0 1
31.588711 9.125584 -5.358955 33.314281 0.281231 1.732359 0.049507 -0.011128 -157404.000000 0 0 1
30.388741 10.022984 -5.796455 32.519758 0.318590 1.749998 0.041883 -0.012182 362191.000000 0 0 1
29.221241 9.186384 -5.800655 31.175602 0.304591 1.757951 0.031986 -0.011964 289598.000000 0 0 1
28.094981 9.942884 -6.173855 30.435265 0.340147 1.775066 0.018791 -0.002965 219892.000000 0 0 1
26.765981 9.124884 -6.071355 28.923046 0.328557 1.782283 0.020947 0.003193 215121.000000 0 0 1
26.752461 8.186784 -7.119555 28.868766 0.296970 1.819985 0.010959 -0.001283 448717.000000 0 0 1
25.546941 7.440984 -7.075055 27.533086 0.283426 1.830677 0.018401 -0.006868 -165865.000000 0 0 1
25.384641 6.502184 -8.302655 27.488042 0.250755 1.877635 0.005058 -0.010493 -609985.000000 0 0 1
26.237541 5.411084 -8.160955 28.005170 0.203383 1.866496 0.026826 -0.010022 350772.000000 0 0 1
26.155281 4.675184 -9.373255 28.174704 0.176879 1.909944 0.025332 -0.006623 -194858.000000 0 0 1
27.073851 3.413584 -9.494655 28.892809 0.125422 1.905635 0.043175 -0.001705 -82224.300000 0 0 1
28.459871 3.699084 -9.531855 30.240763 0.129251 1.891463 0.077413 -0.001908 871536.000000 0 0 1
29.321241 3.019984 -8.594155 30.703664 0.102635 1.854493 0.059664 -0.012440 314519.000000 0 0 1
29.383681 1.474184 -8.527155 30.631459 0.050128 1.852902 0.065289 -0.011675 -316875.000000 0 0 1
28.333491 0.875384 -7.759755 29.389910 0.030886 1.837992 0.066064 -0.012229 688060.000000 0 0 1
28.716521 -0.359316 -7.167055 29.599567 -0.012512 1.815361 0.055864 -0.006514 -158447.000000 0 0 1
28.816021 -1.576716 -8.106355 29.976025 -0.054662 1.844634 0.042756 -0.005614 -856363.000000 0 0 1
29.834181 -1.591616 -9.040555 31.214471 -0.053298 1.864633 0.054334 -0.013117 -272659.000000 0 0 1
29.770761 -2.823516 -9.726755 31.446466 -0.094559 1.885265 0.034756 -0.014300 -185335.000000 0 0 1
30.695601 -2.959316 -10.960255 32.727735 -0.096111 1.912287 0.040776 -0.015271 -195141.000000 0 0 1
32.004781 -3.313116 -10.556055 33.863151 -0.103152 1.887806 0.054743 -0.018619 113063.000000 0 0 1
32.827571 -3.564416 -11.663455 35.019861 -0.108156 1.910335 0.043478 -0.028579 5263.650000 0 0 1
34.248621 -4.068616 -11.305255 36.295047 -0.118242 1.887549 0.047752 -0.024943 -183234.000000 0 0 1
34.260811 -5.297316 -10.666455 36.271724 -0.153403 1.869280 0.043114 -0.016973 447091.000000 0 0 1
-35.168502 -5.575016 -10.116355 37.016820 0.157215 1.847609 0.042090 -0.017397 168854.000000 0 0 1
-35.126557 -6.956116 -9.495355 37.046246 0.195501 1.830000 0.052780 -0.021430 -66254.200000 0 0 1
34.836620 -6.956716 -8.290255 36.478957 -0.197103 1.800061 0.046509 -0.013225 523472.000000 0 0 1
34.669288 -8.238616 -7.738955 36.465405 -0.233307 1.784650 0.050749 -0.009652 -285933.000000 0 0 1
34.108971 -8.316616 -6.296455 35.668380 -0.239158 1.748254 0.055113 -0.005002 -777774.000000 0 0 1
35.099566 -7.927216 -5.386855 36.384591 -0.222123 1.719396 0.061088 -0.007329 279828.000000 0 0 1
35.109315 -8.620116 -4.131455 36.387351 -0.240760 1.684583 0.064264 -0.002466 -154388.000000 0 0 1
-34.835308 -9.943616 -4.256455 36.475905 0.278052 1.687755 0.073820 -0.005829 -361829.000000 0 0 1
35.117928 -10.797716 -5.074055 37.089157 -0.298296 1.708034 0.062332 -0.000062 324542.000000 0 0 1
-34.786583 -11.792116 -5.640055 37.161413 0.326828 1.723157 0.056709 -0.001243 -84090.200000 0 0 1
35.267840 -12.416316 -6.912955 38.023340 -0.338507 1.753621 0.058880 -0.002084 109053.000000 0 0 1
35.261964 -11.497916 -7.984255 37.938852 -0.315201 1.782832 0.059825 -0.009118 291082.000000 0 0 1
34.966250 -12.175016 -9.199255 38.150962 -0.335064 1.814324 0.063765 -0.008535 -44579.700000 0 0 1
35.143279 -11.326816 -10.516955 38.392097 -0.311791 1.848279 0.043058 -0.012793 -476904.000000 0 0 1
34.164291 -10.339016 -10.681355 37.258360 -0.293865 1.861560 0.032315 -0.009895 174777.000000 0 0 1
34.358191 -9.750816 -11.962255 37.665093 -0.276528 1.893989 0.028758 -0.016707 579464.000000 0 0 1
33.330551 -8.549216 -12.229355 36.518103 -0.251085 1.912279 0.028557 -0.008303 593388.000000 0 0 1
33.641171 -7.791016 -13.384355 37.034703 -0.227580 1.940566 0.033504 -0.006493 245130.000000 0 0 1
32.730741 -6.740616 -13.539155 36.056151 -0.203102 1.955735 0.030158 -0.012650 -344585.000000 0 0 1
32.851911 -5.884416 -14.819855 36.517153 -0.177240 1.988686 0.025241 -0.011069 -1181.570000 0 0 1
33.801231 -4.850216 -14.717355 37.183980 -0.142519 1.977733 0.026145 0.007669 188621.000000 0 0 1
33.405401 -3.852716 -15.595555 37.067311 -0.114825 2.005053 0.039265 -0.005104 329369.000000 0 0 1
34.466831 -2.713816 -15.785255 38.006598 -0.078575 1.999101 0.035993 -0.021457 35417.900000 0 0 1
-35.347506 -2.900516 -16.882155 39.279338 0.081874 2.015065 0.034183 -0.011129 641553.000000 0 0 1
-34.038327 -2.386916 -16.667555 37.975156 0.070010 2.025178 0.034927 -0.010751 202392.000000 0 0 1
-33.863467 -0.875916 -16.486255 37.673575 0.025860 2.023733 0.030373 -0.013287 -1167550.000000 0 0 1
-34.211735 -0.014616 -17.549655 38.450402 0.000427 2.044767 0.018066 -0.001625 247605.000000 0 0 1
-34.080747 1.356184 -17.158855 38.180661 -0.039772 2.036904 0.025420 -0.008160 -156954.000000 0 0 1
-34.436168 2.356284 -18.272355 39.054843 -0.068318 2.057669 0.013284 -0.005663 -317911.000000 0 0 1
-33.506797 2.424984 -19.317155 38.752271 -0.072247 2.092639 0.011150 0.005815 54489.800000 0 0 1
-33.729817 3.540684 -20.164755 39.456994 -0.104589 2.107210 0.007499 0.004620 -545150.000000 0 0 1
-32.795577 3.709884 -21.371955 39.320142 -0.112643 2.145442 0.004391 0.013792 -361647.000000 0 0 1
-31.529237 4.226384 -20.983555 38.108591 -0.133252 2.153909 0.009789 0.010562 335644.000000 0 0 1
-30.795047 4.588684 -22.159355 38.215546 -0.147919 2.189343 0.008241 0.010393 327876.000000 0 0 1
-29.356217 5.140784 -21.876555 36.970242 -0.173360 2.204005 0.022017 0.008943 221116.000000 0 0 1
-28.607527 4.057284 -21.442455 35.980982 -0.140886 2.209230 0.024877 0.018399 -1009480.000000 0 0 1
-27.247087 4.337284 -21.358955 34.891557 -0.157859 2.229576 0.020920 0.021606 -565982.000000 0 0 1
-26.469017 3.149684 -20.762755 33.787888 -0.118438 2.232552 0.030826 0.013065 -130153.000000 0 0 1
-26.466697 3.205384 -19.361555 32.948905 -0.120523 2.198915 0.023630 0.014780 -149626.000000 0 0 1
-25.796227 2.173884 -18.717155 31.945313 -0.084073 2.196802 0.030263 0.013665 -577139.000000 0 0 1
-25.160857 2.642484 -17.388155 30.698524 -0.104640 2.172948 0.036060 0.009988 -117668.000000 0 0 1
-24.026577 3.413784 -17.724855 30.051636 -0.141139 2.201624 0.029600 0.002461 5957.020000 0 0 1
-23.459677 3.988684 -16.545355 28.983009 -0.168412 2.178354 0.031511 -0.003970 -109598.000000 0 0 1
-22.197077 4.877584 -16.685955 28.194364 -0.216302 2.204110 0.053369 -0.011562 482915.000000 0 0 1
-21.095177 4.191884 -17.280355 27.589655 -0.196158 2.247639 0.069912 -0.016144 -545939.000000 0 0 1
-19.993177 4.995684 -17.245255 26.871599 -0.244856 2.267594 0.068427 -0.018156 -1231300.000000 0 0 1
-18.715577 4.519084 -17.930355 26.309553 -0.236926 2.320627 0.087362 -0.020056 -310160.000000 0 0 1
-18.249377 3.315584 -17.355055 25.401394 -0.179722 2.322977 0.103715 -0.027527 54511.400000 0 0 1
-17.353677 2.603484 -18.187755 25.272963 -0.148914 2.374098 0.081022 -0.023889 -353799.000000 0 0 1
-17.286377 1.101884 -17.737655 24.792285 -0.063657 2.368065 0.079981 -0.023038 649306.000000 0 1 0
-18.314177 0.137484 -18.036655 25.705037 -0.007507 2.348546 0.066991 -0.026520 349104.000000 0 0 1
-19.600277 0.359484 -17.515755 26.288815 -0.018339 2.300008 0.061966 -0.028543 3930.090000 0 0 1
-20.602177 -0.822116 -17.761055 27.213612 0.039883 2.281878 0.051306 -0.028118 -176671.000000 0 0 1
-20.365377 -2.050316 -17.090355 26.665195 0.100338 2.266497 0.040032 -0.023548 404441.000000 0 0 1
-21.339577 -2.997516 -17.489255 27.753139 0.139554 2.252571 0.027111 -0.009283 -5278.440000 0 0 1
-21.406677 -4.174816 -16.497955 27.346982 0.192606 2.218407 0.029843 -0.010471 -55391.300000 0 0 1
-21.916377 -3.763116 -15.244055 26.960524 0.170045 2.171740 0.028290 -0.019115 349317.000000 0 0 1
-22.163077 -4.836116 -14.347455 26.841004 0.214838 2.134754 0.024595 -0.023445 -189059.000000 0 0 1
-22.402677 -4.257816 -12.930955 26.214854 0.187818 2.086639 0.027350 -0.025841 -227773.000000 0 0 1
-23.532977 -3.420716 -12.825655 27.018508 0.144347 2.065418 0.029754 -0.022620 316769.000000 0 0 1
-23.413177 -2.656916 -11.699255 26.307958 0.112996 2.031640 0.018377 -0.021237 -54277.400000 0 0 1
-24.529977 -1.564116 -11.617055 27.186802 0.063677 2.012306 0.050622 -0.018722 139802.000000 0 0 1
-24.626677 -1.138416 -10.249655 26.698776 0.046194 1.964812 0.042584 -0.017716 288338.000000 0 0 1
-25.414197 0.007384 -10.187555 27.380061 -0.000291 1.952045 0.060590 -0.018200 -396664.000000 0 0 1
-25.884997 0.318884 -8.750055 27.325780 -0.012319 1.896750 0.066937 -0.012520 -937270.000000 0 0 1
-24.895277 0.885784 -8.006455 26.166061 -0.035565 1.881771 0.049799 -0.007141 -129649.000000 0 0 1
-25.375667 1.153184 -6.672455 26.263587 -0.045413 1.827669 0.044646 -0.007365 -433887.000000 0 0 1
-24.269177 1.406784 -5.679555 24.964562 -0.057901 1.800311 0.027117 -0.000298 -553650.000000 0 1 0
-23.843977 2.747084 -5.695755 24.668266 -0.114705 1.803793 0.043993 -0.008945 341035.000000 0 1 0
-22.495977 2.938684 -5.309055 23.300020 -0.129896 1.800672 0.031744 0.002955 27412.100000 0 1 0
-22.053477 4.450684 -5.379755 23.132363 -0.199138 1.805509 0.049073 -0.004828 106508.000000 0 1 0
-22.650777 5.235584 -4.346055 23.650735 -0.227154 1.755606 0.054611 -0.002854 569749.000000 0 1 0
-22.153077 6.519084 -4.570155 23.540255 -0.286196 1.766179 0.046347 -0.007132 -189143.000000 0 1 0
-22.719777 7.676684 -3.663155 24.259812 -0.325842 1.722373 0.045915 -0.002806 -488567.000000 0 1 0
-22.346077 7.703084 -2.282255 23.746439 -0.331961 1.667054 0.051492 -0.002679 1389470.000000 0 1 0
-20.953177 7.937584 -1.986655 22.494170 -0.362120 1.659230 0.055251 -0.003076 715447.000000 0 1 0
-20.403877 9.346584 -2.245155 22.554768 -0.429552 1.670504 0.040273 -0.003862 -684758.000000 0 1 0
-20.324677 9.731184 -3.594655 22.819071 -0.446533 1.728984 0.035003 -0.007011 502967.000000 0 1 0
-19.634677 10.962984 -3.682555 22.787470 -0.509230 1.733113 0.034029 -0.004492 -475456.000000 0 1 0
-19.524577 11.462084 -5.146755 23.218044 -0.530850 1.794324 0.038924 -0.011392 396937.000000 0 1 0
-18.394377 10.999484 -5.911855 22.232674 -0.538933 1.839942 0.021635 -0.012280 671564.000000 0 1 0
-18.425377 11.758184 -7.089755 22.978556 -0.568001 1.884452 0.033483 -0.007555 203958.000000 0 1 0
-17.167177 11.486384 -7.946955 22.131495 -0.589678 1.938077 0.035174 -0.008175 -178480.000000 0 1 0
-16.962577 10.148884 -8.437155 21.492195 -0.539176 1.974219 0.028158 0.001112 631718.000000 0 1 0
-17.952777 9.593884 -9.327755 22.390887 -0.490784 2.000484 0.041680 -0.002426 259231.000000 0 1 0
-18.008277 10.150984 -10.791255 23.319342 -0.513289 2.051902 0.047714 -0.000164 -291559.000000 0 1 0
-16.884577 9.760184 -11.526455 22.654123 -0.524126 2.104589 0.041646 -0.002487 -191672.000000 0 1 0
-16.818277 10.584284 -12.644555 23.553477 -0.561709 2.137489 0.029558 -0.001520 464626.000000 0 1 0
-15.586577 10.268484 -13.559055 23.070135 -0.582539 2.199049 0.018529 0.002055 92141.200000 0 1 0
-15.656777 9.058284 -14.322855 23.072307 -0.524501 2.240535 0.024792 -0.003497 164702.000000 0 1 0
-15.575577 7.824284 -13.623755 22.122946 -0.465520 2.234223 0.022481 -0.005608 -499370.000000 0 1 0
-15.551277 6.529284 -14.514655 22.251943 -0.397505 2.281394 0.037074 -0.011198 -645592.000000 0 1 0
-14.519277 6.364684 -15.447155 22.134435 -0.413133 2.343228 0.047703 -0.008822 151390.000000 0 1 0
-14.564177 5.057084 -16.003155 22.221394 -0.334203 2.374842 0.050856 -0.019451 135821.000000 0 1 0
31.577551 -15.922816 28.703761 45.547598 -0.467038 0.888995 0.015397 0.006973 -90260.200000 0 0 1
30.623721 -14.896016 28.843971 44.628222 -0.452725 0.868049 0.014779 0.009083 910748.000000 0 0 1
29.579691 -15.040916 29.880161 44.654353 -0.470415 0.837741 0.024758 0.009406 1323430.000000 0 0 1
30.033921 -14.967016 31.379631 45.942673 -0.462316 0.818911 0.023256 0.002228 -90324.200000 0 0 1
30.518061 -13.706516 31.737731 46.114035 -0.422129 0.811730 0.019165 0.003159 -84104.100000 0 0 1
30.760951 -13.621416 33.123606 47.211782 -0.416863 0.793161 0.006273 0.006672 -163657.000000 0 0 1
31.067281 -12.216216 33.579217 47.349506 -0.374646 0.782465 0.020283 -0.000771 24498.800000 0 0 1
30.769411 -11.990616 -34.078386 47.453850 -0.371589 2.371918 0.008109 -0.005652 128287.000000 0 0 1
30.852031 -10.581416 -33.764775 46.945439 -0.330401 2.373496 0.018374 -0.006073 -69601.400000 0 0 1
30.558441 -10.328516 -32.271255 45.628176 -0.325938 2.356420 0.015672 -0.005496 1339500.000000 0 0 1
29.150061 -10.364616 -31.907775 44.443868 -0.341620 2.371627 0.046083 -0.017458 1372090.000000 0 0 1
28.859031 -10.184716 -30.548865 43.241245 -0.339267 2.355302 0.036078 -0.013062 -452351.000000 0 0 1
27.384981 -9.881616 -30.233925 41.972297 -0.346300 2.375075 0.028024 0.001137 -108869.000000 0 0 1
27.061761 -9.846516 -28.869275 40.776560 -0.348963 2.357440 0.029047 -0.005940 -24520.900000 0 0 1
26.272061 -10.951916 -28.550165 40.314731 -0.394961 2.357716 0.039943 0.000049 -945098.000000 0 0 1
25.754051 -10.867216 -27.092915 38.928056 -0.399294 2.340572 0.038627 0.000333 -330331.000000 0 0 1
24.855141 -9.770716 -26.743335 37.794853 -0.374550 2.356881 0.029086 -0.004733 1764730.000000 0 0 1
23.571841 -9.630916 -27.392685 37.399805 -0.387879 2.392678 0.025003 -0.005225 1295820.000000 0 0 1
22.605741 -10.877816 -27.372685 37.129642 -0.448492 2.399742 0.030411 0.002473 -697787.000000 0 0 1
23.108341 -11.935116 -28.132935 38.313241 -0.476749 2.395413 0.034015 -0.003470 57178.700000 0 0 1
22.333341 -13.120116 -27.966405 38.118701 -0.531154 2.394498 0.032520 -0.007803 84684.100000 0 0 1
23.101741 -14.297116 -28.559245 39.417362 -0.554184 2.381155 0.028244 0.002533 5648.160000 0 0 1
23.199141 -14.285016 -29.987285 40.515418 -0.551925 2.404082 0.030524 -0.001936 654897.000000 0 0 1
24.325241 -15.065216 -30.432045 41.770653 -0.554508 2.387000 0.021559 0.005046 335159.000000 0 0 1
24.514941 -15.065616 -31.980735 43.020025 -0.551048 2.408924 0.038674 -0.003296 1036600.000000 0 0 1
23.396741 -15.783316 -32.644025 43.152670 -0.593471 2.428707 0.041667 -0.002140 1464640.000000 0 0 1
23.463441 -15.760916 -34.063350 44.263431 -0.591494 2.448948 0.041957 -0.002634 -315421.000000 0 0 1
23.413241 -14.448116 34.106675 43.820009 -0.552892 0.678786 0.026455 -0.013578 135882.000000 0 0 1
22.279941 -13.565116 34.129689 42.956301 -0.546901 0.652578 0.033334 -0.013458 148617.000000 0 0 1
22.375741 -12.482616 33.221271 41.954050 -0.508861 0.656966 0.027492 -0.009756 -710698.000000 0 0 1
21.276741 -11.422216 33.299832 41.134481 -0.492684 0.627435 0.038833 -0.015364 150671.000000 0 0 1
19.981341 -11.758816 32.804331 40.170236 -0.531913 0.615244 0.037067 -0.012576 596627.000000 0 0 1
19.834341 -11.907416 31.425301 39.022265 -0.540672 0.634586 0.025390 -0.003779 -1368560.000000 0 0 1
18.474941 -12.451616 30.946371 38.131930 -0.593044 0.623978 0.035500 -0.000355 835339.000000 0 0 1
17.304641 -11.621316 31.026411 37.378386 -0.591391 0.591576 0.038342 -0.000231 533556.000000 0 0 1
16.783941 -11.570116 32.302441 38.197067 -0.603547 0.562961 0.020942 0.003045 -526312.000000 0 0 1
15.947541 -10.243616 32.552801 37.668828 -0.570966 0.527270 0.022849 -0.000094 -371982.000000 0 0 1
14.860741 -10.153916 31.657401 36.416132 -0.599410 0.516964 0.020973 0.004464 42515.700000 0 0 1
14.074041 -8.985216 31.976681 36.073825 -0.568195 0.481236 0.024312 0.006245 647636.000000 0 0 1
12.988041 -9.118516 33.091031 36.699494 -0.612114 0.447168 0.032838 0.004799 -704878.000000 0 0 1
11.930041 -9.992716 32.749301 36.258750 -0.697257 0.443603 0.027580 0.006865 37638.700000 0 0 1
10.732541 -9.761316 33.429130 36.441425 -0.738043 0.409453 0.023971 0.005284 -159568.000000 0 0 1
9.810141 -8.651016 32.888001 35.393496 -0.722693 0.378526 0.005310 0.003026 -845320.000000 0 0 1
10.222241 -7.325216 33.235301 35.535028 -0.621778 0.361739 0.032210 -0.002088 86360.800000 0 0 1
9.403141 -6.350416 32.620541 34.537610 -0.593990 0.334748 0.027079 0.003653 -376392.000000 0 0 1
9.921641 -4.980116 32.584081 34.423289 -0.465202 0.328365 0.036296 -0.005729 -361924.000000 0 0 1
9.857441 -4.341916 33.836253 35.509342 -0.414901 0.308193 0.033631 -0.010299 386724.000000 0 0 1
10.621041 -3.144816 33.821561 35.589245 -0.287869 0.316499 0.029386 -0.010376 -386633.000000 0 0 1
10.365041 -2.394316 -33.877905 35.508862 -0.227017 2.837333 0.024021 -0.017277 -402545.000000 0 0 1
8.996541 -2.064316 -33.834095 35.070574 -0.225552 2.875262 0.019068 -0.012427 -260751.000000 0 0 1
8.689041 -1.388216 -32.648695 33.813664 -0.158427 2.878335 0.013943 -0.014219 -179245.000000 0 0 1
7.158541 -1.288216 -32.533315 33.336478 -0.178049 2.921638 0.011693 -0.010983 -136655.000000 0 0 1
6.484641 -0.342916 -33.343905 33.970342 -0.052832 2.949251 0.022820 -0.010588 45677.400000 0 0 1
5.160541 -0.155116 -32.896845 33.299514 -0.030049 2.985921 0.025820 -0.006354 -119635.000000 0 0 1
4.436241 0.992384 -33.595525 33.901687 0.220076 3.007097 0.037356 -0.008237 -146140.000000 0 0 1
5.147941 2.223684 -33.453675 33.920413 0.407748 2.975511 0.025189 -0.013173 -704.505000 0 0 1
4.526741 3.127384 -34.269078 34.707948 0.604571 2.982399 0.037149 -0.012288 -59838.400000 0 0 1
5.387241 4.410884 -34.506768 35.202206 0.686079 2.942490 0.032781 -0.014495 184940.000000 0 0 1
4.998241 5.116784 33.337563 34.096290 0.797117 0.211355 0.054183 -0.022490 -38863.000000 0 0 1
5.904541 6.170384 33.152684 34.235036 0.807411 0.252124 0.051071 -0.021949 -274570.000000 0 0 1
5.441141 7.335884 32.244391 33.513012 0.932618 0.276028 0.059153 -0.021997 -113010.000000 0 0 1
4.321741 7.977184 32.855801 34.085430 1.074299 0.269421 0.067201 -0.024855 308150.000000 0 0 1
4.066041 9.243884 32.284981 33.827534 1.156404 0.303155 0.054829 -0.018112 76011.200000 0 0 1
3.547541 9.336584 30.763231 32.343983 1.207683 0.313932 0.053058 -0.015196 -87931.500000 0 0 1
2.328941 8.669184 30.541861 31.833693 1.308347 0.285861 0.057810 -0.018547 -175862.000000 0 0 1
2.185441 8.591484 29.100241 30.420614 1.321706 0.295708 0.045469 -0.003764 786548.000000 0 0 1
0.816741 7.982084 28.593081 29.697559 1.468829 0.273583 0.037342 -0.003384 517625.000000 0 0 1
-0.270859 8.850384 28.849061 30.177325 -1.540202 0.297799 0.041015 -0.008822 -796795.000000 0 0 1
-1.260359 8.516884 27.922371 29.219593 -1.423879 0.299092 0.041453 -0.001444 -622986.000000 0 0 1
-2.678459 8.763884 28.429031 29.869543 -1.274187 0.311832 0.023669 -0.004484 -515557.000000 0 0 1
-2.904759 10.092184 28.772301 30.628991 -1.290548 0.349975 0.025565 -0.003944 -496921.000000 0 0 1
-4.197759 10.221584 29.301661 31.315959 -1.181120 0.360620 0.016524 -0.005924 -266091.000000 0 0 1
-4.394859 11.651584 29.969711 32.453933 -1.210107 0.393810 0.006430 -0.001956 -236648.000000 0 0 1
-4.413059 12.859084 29.174091 32.186312 -1.240205 0.436083 0.004648 -0.002528 807088.000000 0 0 1
-5.664359 13.016184 28.470161 31.812829 -1.160336 0.462529 -0.003764 -0.004217 765760.000000 0 0 1
-5.859559 14.490784 27.942211 32.016939 -1.186533 0.510025 -0.009867 0.000884 219450.000000 0 0 1
-4.960259 14.926984 26.913601 31.173080 -1.249975 0.528905 -0.005240 0.009642 -83495.200000 0 0 1
-5.281659 16.152484 26.392981 31.390892 -1.254768 0.572065 -0.012939 0.013412 332636.000000 0 0 1
-4.164759 16.855484 25.518891 30.865294 -1.328562 0.597432 0.013740 0.014156 449028.000000 0 0 1
-4.033459 16.309384 24.201601 29.461539 -1.328352 0.606822 0.006962 0.019963 -315848.000000 0 0 1
-3.245059 17.174984 23.436041 29.236253 -1.384057 0.640815 0.023205 0.023625 -124105.000000 0 0 1
-2.958259 16.606384 21.984841 27.710224 -1.394506 0.654449 0.016053 0.019840 60329.000000 0 0 1
-2.084559 15.513684 21.743741 26.791977 -1.437227 0.623951 -0.003300 0.022877 109775.000000 0 0 1
-1.975859 15.226884 20.340541 25.485282 -1.441756 0.646613 -0.009930 0.020555 568729.000000 0 0 1
-1.126559 13.944584 19.840041 24.276486 -1.490183 0.614168 -0.012108 0.015266 312395.000000 0 1 0
-1.701459 12.695484 20.025341 23.771507 -1.437569 0.569057 -0.007602 0.017359 -220852.000000 0 1 0
-1.228759 11.805184 19.088041 22.477222 -1.467083 0.556295 -0.011378 0.009407 -305206.000000 0 1 0
-1.968259 10.460684 19.161441 21.919415 -1.384813 0.507059 -0.014910 0.009710 -668519.000000 0 1 0
-1.872859 9.673284 20.338541 22.599475 -1.379551 0.451127 -0.011739 0.003363 560829.000000 0 1 0
-2.668459 10.068284 21.511641 23.900663 -1.311717 0.450927 0.006013 0.005651 288116.000000 0 1 0
-4.196759 10.076884 21.329441 23.960414 -1.176169 0.473023 0.002206 0.009535 -242795.000000 0 1 0
-4.900759 8.813584 21.240541 23.512917 -1.063323 0.443265 0.007225 0.003814 494422.000000 0 1 0
-6.283959 9.035384 21.462441 24.119757 -0.963108 0.473828 0.010054 0.011303 332136.000000 0 1 0
-7.187759 7.792084 21.398141 23.880136 -0.825719 0.459973 0.013093 0.001197 44525.800000 0 1 0
-6.855959 7.006584 22.504441 24.546818 -0.796263 0.410812 0.013701 -0.008565 -43914.000000 0 1 0
-7.501959 5.808584 22.349141 24.279686 -0.658857 0.401471 0.011384 -0.007794 -231160.000000 0 1 0
-7.556559 4.946584 23.660341 25.325521 -0.579608 0.364649 0.000435 -0.004051 -183884.000000 0 0 1
-8.377459 5.574184 24.612761 26.590249 -0.587110 0.388096 -0.004458 -0.004041 -68192.900000 0 0 1
-8.410559 4.817484 25.792831 27.553871 -0.520172 0.359459 -0.001893 0.005225 321686.000000 0 0 1
-9.569959 5.309984 26.720131 28.874651 -0.506567 0.388750 -0.009969 0.007051 161674.000000 0 0 1
-9.242759 6.563384 27.312391 29.571495 -0.617480 0.393415 -0.004063 0.007068 -193598.000000 0 0 1
-10.084759 6.801984 28.409941 30.904597 -0.593393 0.404552 -0.005181 0.009280 -14404.800000 0 0 1
-9.712159 8.053284 29.293461 31.894957 -0.692292 0.406689 0.006951 0.006452 572866.000000 0 0 1
-8.478559 7.865884 29.989621 32.142425 -0.747930 0.368072 -0.003761 0.003275 409502.000000 0 0 1
-8.115459 8.975384 30.794461 33.086508 -0.835671 0.374404 0.001973 -0.002032 -480471.000000 0 0 1
-7.084859 8.628684 31.818031 33.719972 -0.883332 0.337468 0.013553 -0.009359 333980.000000 0 0 1
-5.743259 8.363884 31.352971 32.953731 -0.969070 0.312968 0.017093 -0.012778 992522.000000 0 0 1
-4.979559 7.682184 32.384491 33.653636 -0.995690 0.275505 0.035276 -0.020525 57139.100000 0 0 1
-3.476159 7.621884 32.162841 33.235901 -1.142901 0.254800 0.027281 -0.016074 -285161.000000 0 0 1
-2.787459 8.833784 32.332701 33.633454 -1.265139 0.279021 0.020253 -0.015606 950310.000000 0 0 1
-1.349259 8.793084 32.159991 33.367707 -1.418538 0.269869 0.036363 -0.017062 1391660.000000 0 0 1
-0.945259 10.205784 31.705581 33.321095 -1.478440 0.312666 0.026212 -0.012406 -219324.000000 0 0 1
-1.231559 11.197984 32.662261 34.550468 -1.461256 0.332132 0.023481 -0.019490 43508.700000 0 0 1
-1.517659 12.424384 32.001151 34.361930 -1.449247 0.372840 0.014911 -0.009410 -334131.000000 0 0 1
-1.841159 13.474584 33.040262 35.729724 -1.434998 0.390477 0.012293 -0.020303 -685248.000000 0 0 1
-0.690959 14.012584 33.621760 36.431479 -1.521526 0.395312 0.042002 -0.015630 -495004.000000 0 0 1
-0.954959 14.848584 -34.274550 37.364919 -1.506572 2.732023 0.041443 -0.015202 234879.000000 0 0 1
0.333341 15.331584 -33.556205 36.894274 1.549058 2.712932 0.031471 -0.015661 272060.000000 0 0 1
1.050341 16.375384 -34.249847 37.977736 1.506743 2.694806 0.036841 -0.014645 -485388.000000 0 0 1
2.029341 16.842384 -33.406685 37.467195 1.450884 2.671718 0.053452 -0.015771 -1118960.000000 0 0 1
3.156641 17.502984 -34.179678 38.530108 1.392366 2.661799 0.065075 -0.006848 -766616.000000 0 0 1
2.747341 18.759484 34.364926 39.248111 1.425379 0.504158 0.044968 0.001373 -462205.000000 0 0 1
3.674241 19.449584 33.595864 38.993184 1.384086 0.532416 0.032421 0.015616 -289409.000000 0 0 1
3.323541 20.964484 33.674435 39.806068 1.413573 0.562429 0.032698 0.004881 151485.000000 0 0 1
3.628341 21.491984 -34.117237 40.485258 1.403550 2.573089 0.043818 -0.007198 50211.500000 0 0 1
3.284541 22.848284 -34.123286 41.197463 1.428020 2.546838 0.038964 -0.003271 114094.000000 0 0 1
3.410741 23.402184 -32.684235 40.342962 1.426071 2.515221 0.041350 -0.004983 -101714.000000 0 0 1
2.838741 24.604284 -32.396165 40.779170 1.455928 2.488864 0.040709 -0.011160 -127844.000000 0 0 1
3.287441 24.939984 -31.122505 40.017751 1.439738 2.461823 0.059060 -0.007163 227989.000000 0 0 1
2.601841 26.233284 -30.548605 40.350614 1.471939 2.429627 0.048041 -0.014468 620004.000000 0 0 1
3.376641 27.425784 -30.816845 41.391464 1.448294 2.410615 0.038676 -0.006752 494648.000000 0 0 1
2.751241 28.558684 -30.216625 41.667879 1.474756 2.382089 0.032986 -0.010351 422027.000000 0 0 1
3.654741 29.861984 -30.168555 42.605597 1.449014 2.357585 0.035089 -0.015755 855231.000000 0 0 1
4.722541 29.782684 -29.212385 41.984212 1.413539 2.340322 0.059329 -0.025700 385436.000000 0 0 1
5.413741 31.027284 -29.072455 42.862671 1.398052 2.316202 0.073787 -0.025793 546037.000000 0 0 1
6.697241 30.979484 -28.141505 42.385443 1.357890 2.296875 0.074639 -0.035995 1125310.000000 0 0 1
7.840441 30.405384 -28.784395 42.596963 1.318430 2.312762 0.068759 -0.028236 1164360.000000 0 0 1
8.914141 31.306184 -29.201905 43.729742 1.293397 2.302020 0.074222 -0.029106 964672.000000 0 0 1
8.503041 32.469784 -30.144125 45.113821 1.314672 2.302555 0.081709 -0.022925 -758977.000000 0 0 1
7.817241 33.568884 -29.453985 45.337804 1.342002 2.277928 0.070186 -0.023715 399410.000000 0 0 1
7.444241 -34.456833 -30.327315 46.502001 -1.358021 2.281243 0.070501 -0.019623 216651.000000 0 0 1
6.205941 34.364084 -31.239865 46.854382 1.392128 2.300627 0.041348 -0.008404 -86862.800000 0 0 1
6.425541 33.527284 -32.388695 47.057347 1.381441 2.329914 0.045787 -0.007450 -44418.700000 0 0 1
5.243541 33.456784 -33.157345 47.394732 1.415335 2.345634 0.050121 -0.008938 12890.700000 0 0 1
5.336141 32.690084 -34.450469 47.790698 1.408989 2.375841 0.047488 -0.003570 -35228.900000 0 0 1
6.183241 33.319184 33.627147 47.740816 1.387308 0.789263 0.046704 -0.006736 149878.000000 0 0 1
6.154141 32.702984 32.352611 46.411744 1.384789 0.799482 0.046394 -0.011451 -71503.000000 0 0 1
5.016241 33.166284 31.414391 45.956817 1.420689 0.818163 0.030291 -0.017472 139150.000000 0 0 1
5.247141 34.459784 30.828021 46.533601 1.419689 0.846659 0.025930 -0.016993 382255.000000 0 0 1
4.165841 -34.360633 29.941701 45.765847 -1.450146 0.857623 0.018434 -0.024631 371942.000000 0 0 1
16.985523 -21.592516 29.905411 40.608846 -0.904255 0.743024 0.049889 0.006085 426933.000000 0 0 1
15.850023 -20.702716 30.026801 39.767254 -0.917385 0.715045 0.054336 0.006052 914670.000000 0 0 1
14.558323 -21.246116 30.184381 39.679202 -0.970057 0.706389 0.067514 0.004388 120156.000000 0 0 1
14.206823 -21.981016 31.449581 40.915462 -0.997011 0.694072 0.065553 0.005991 -891859.000000 0 0 1
14.965023 -23.154116 31.691251 42.004766 -0.997011 0.715953 0.064978 -0.003199 168897.000000 0 0 1
14.853223 -23.412916 33.042382 43.134463 -1.005464 0.698151 0.028497 -0.002905 -492439.000000 0 0 1
15.934623 -24.319116 33.597618 44.431200 -0.990753 0.713353 0.022013 -0.001567 -612349.000000 0 0 1
15.732423 -25.676756 33.377273 44.953835 -1.021083 0.734033 0.031206 -0.006157 -169037.000000 0 0 1
16.449723 -26.466096 34.273518 46.321935 -1.014689 0.737877 0.025448 -0.004990 -201319.000000 0 0 1
16.111323 -27.986116 34.170831 47.015350 -1.048444 0.757143 0.016181 0.007487 268616.000000 0 0 1
16.808823 -28.673866 33.114009 46.917638 -1.040580 0.787258 0.011371 0.004026 -382670.000000 0 0 1
16.079623 -29.695036 32.612361 46.945879 -1.074509 0.802821 0.010025 0.006469 -709304.000000 0 0 1
16.746623 -30.330436 31.390751 46.752155 -1.066312 0.834661 0.018445 -0.000058 -467843.000000 0 0 1
17.806423 -31.182326 31.679681 47.885367 -1.051942 0.847881 0.017733 -0.006512 -392395.000000 0 0 1
18.528723 -31.433036 30.471671 47.538112 -1.038158 0.875003 0.010247 -0.002730 -149557.000000 0 0 1
19.736823 -32.367656 30.639511 48.744097 -1.023224 0.891072 -0.001785 -0.002034 -234493.000000 0 0 1
20.836023 -31.729086 31.245471 49.164563 -0.989736 0.882104 0.000469 -0.003038 199020.000000 0 0 1
21.908023 -32.629126 31.566071 50.408711 -0.979506 0.894123 0.016770 -0.009381 170040.000000 0 0 1
23.089723 -31.724916 31.995631 50.629300 -0.941648 0.886718 0.023603 -0.019546 -402101.000000 0 0 1
23.892023 -31.316616 30.914501 50.072603 -0.919079 0.905371 0.024048 -0.011524 -325656.000000 0 0 1
24.710623 -30.210906 31.181811 49.956171 -0.885213 0.896710 0.033500 -0.006403 -113441.000000 0 0 1
25.792923 -30.086086 30.097721 49.762639 -0.862077 0.921249 0.033856 -0.005295 -246304.000000 0 0 1
26.898223 -30.958906 30.261781 50.968065 -0.855468 0.935097 0.033515 -0.001841 -107934.000000 0 0 1
27.797623 -30.643806 29.202181 50.641071 -0.834061 0.956174 0.023576 -0.018233 91182.000000 0 0 1
29.122223 -31.424386 29.297281 51.903050 -0.823403 0.971015 0.015044 -0.011568 93892.300000 0 0 1
28.752723 -32.786346 29.047271 52.396636 -0.850850 0.983187 0.005217 -0.013064 568612.000000 0 0 1
29.758923 -33.719766 29.468491 53.768095 -0.847714 0.990745 0.012205 -0.015827 -153245.000000 0 0 1
29.185923 34.079018 30.155691 54.060737 0.862587 0.979050 0.000762 -0.007983 -672068.000000 0 0 1
28.580323 34.274135 31.396861 54.564769 0.875739 0.957697 -0.000573 -0.001226 1160930.000000 0 0 1
27.296423 -34.152318 31.525881 53.901361 -0.896510 0.946063 -0.006107 0.000864 1399370.000000 0 0 1
26.101323 34.409208 30.658171 52.964102 0.921842 0.953481 0.001364 -0.004474 -261349.000000 0 0 1
25.690323 33.127043 31.089111 52.191249 0.911168 0.932688 -0.007857 -0.003902 -209656.000000 0 0 1
24.287823 33.000710 30.984291 51.370921 0.936329 0.923354 0.001583 -0.005922 213844.000000 0 0 1
23.829023 31.523920 31.058211 50.261241 0.923528 0.904682 0.024880 -0.005481 -79598.500000 0 0 1
23.943323 30.909140 29.787051 49.152071 0.911714 0.919751 0.017878 -0.005175 64202.300000 0 0 1
23.233523 29.699770 29.736261 48.022059 0.906954 0.903046 0.047059 -0.020739 -265902.000000 0 0 1
22.807323 29.354480 28.303321 46.721916 0.910262 0.920047 0.044386 -0.019411 -381784.000000 0 0 1
21.589023 29.978160 27.981131 46.343497 0.946669 0.922566 0.062759 -0.023867 -75049.400000 0 0 1
21.100823 29.550230 26.727301 45.086688 0.950692 0.936268 0.060184 -0.021295 860456.000000 0 0 1
19.686223 30.145480 26.355001 44.619317 0.992287 0.938915 0.071095 -0.020554 921428.000000 0 0 1
19.805623 31.510150 25.996871 45.398123 1.009650 0.961071 0.065117 -0.019019 666921.000000 0 0 1
18.552023 31.994380 25.482411 44.912929 1.045323 0.967483 0.055702 -0.014828 379994.000000 0 0 1
18.575523 33.425377 24.974881 45.673302 1.063564 0.992240 0.058618 -0.003750 325066.000000 0 0 1
19.314423 33.557109 23.745441 45.419957 1.048535 1.020667 0.060938 -0.001847 1081050.000000 0 0 1
20.672423 34.014193 23.882141 46.418434 1.024691 1.030375 0.066312 0.006440 621799.000000 0 0 1
21.215023 34.529127 22.561141 46.382571 1.019849 1.062815 0.072102 0.001373 -345701.000000 0 0 1
20.632523 -33.390666 22.051141 45.021000 -1.017310 1.058940 0.068127 -0.000573 99129.100000 0 0 1
21.020523 -33.115306 20.729141 44.364210 -1.005204 1.084619 0.069902 0.001537 -135487.000000 0 0 1
20.437823 -31.831056 20.059841 42.817262 -1.000015 1.083205 0.063222 -0.007611 -69320.500000 0 0 1
21.006823 -30.608216 20.588041 42.450170 -0.969315 1.064441 0.060209 0.004536 297720.000000 0 0 1
20.595923 -29.405396 19.976741 41.084541 -0.959793 1.063020 0.057474 -0.011868 -83600.200000 0 0 1
21.417523 -28.893846 18.719741 40.546188 -0.932920 1.090898 0.036028 -0.011099 -366135.000000 0 0 1
21.412323 -29.684316 17.549941 40.591214 -0.945895 1.123690 0.022138 -0.017405 -49260.800000 0 0 1
22.171623 -29.134606 16.532341 40.171189 -0.920288 1.146645 0.012507 -0.015826 -969565.000000 0 0 1
21.948923 -29.648816 15.090041 39.856202 -0.933534 1.182500 -0.018039 -0.008942 -212475.000000 0 0 1
22.535623 -30.912216 14.754241 41.001305 -0.940858 1.202691 0.025758 -0.003196 -43812.200000 0 0 1
22.460923 -31.364446 13.397541 40.837674 -0.949329 1.236538 0.011977 -0.004853 152683.000000 0 0 1
21.106923 -31.597656 12.646341 40.048021 -0.981878 1.249518 -0.002528 -0.002353 68192.000000 0 0 1
20.336923 -32.622336 13.193841 40.643384 -1.013345 1.240182 -0.002247 -0.000354 426998.000000 0 0 1
19.179823 -32.975726 12.423941 40.120050 -1.043990 1.255951 0.010070 0.012967 675943.000000 0 0 1
18.179223 -33.913236 13.153141 40.664442 -1.078726 1.241417 0.026221 0.005237 90855.100000 0 0 1
17.743423 -33.326106 14.437141 40.421398 -1.081552 1.205565 0.026036 0.003131 427284.000000 0 0 1
18.474323 -33.698046 15.619541 41.482876 -1.069312 1.184749 0.033736 -0.002697 -1279440.000000 0 0 1
18.135223 -32.849156 16.817841 41.119255 -1.066361 1.149437 0.031986 0.001394 52954.900000 0 0 1
16.771923 -32.589116 17.108441 40.448073 -1.095499 1.134073 0.034703 -0.002474 196315.000000 0 0 1
15.847423 -33.632716 17.314641 41.013378 -1.130461 1.134958 0.037771 0.003593 -689361.000000 0 0 1
16.074623 -34.417198 18.628041 42.307694 -1.133853 1.114865 0.038773 -0.005065 -2122.670000 0 0 1
17.111823 33.697535 18.489441 42.073718 1.100923 1.115806 0.025170 0.002301 275188.000000 0 0 1
17.453823 33.017490 19.698241 42.223350 1.084513 1.085439 0.026297 0.002373 224204.000000 0 0 1
18.251523 31.720660 19.635741 41.531683 1.048674 1.078343 0.032688 -0.003940 -421253.000000 0 0 1
17.475423 30.669800 19.185441 40.175965 1.052884 1.072949 0.012460 -0.001594 -229443.000000 0 0 1
18.337623 29.571660 18.978341 39.634946 1.015723 1.071477 0.014958 -0.007663 266567.000000 0 0 1
17.618123 28.235130 18.654241 38.152346 1.012932 1.059921 0.017270 -0.002693 -9418.980000 0 0 1
17.178023 27.520830 19.801541 38.007652 1.012785 1.022788 0.030712 -0.009689 -31752.300000 0 0 1
16.942023 26.182920 19.460941 36.760110 0.996488 1.012899 0.016756 -0.012402 -688933.000000 0 0 1
16.848123 25.253880 20.685741 36.735781 0.982459 0.972670 0.028108 -0.017079 -51379.400000 0 0 1
15.702623 25.504290 21.481441 36.857747 1.018923 0.948601 0.025057 -0.017527 550253.000000 0 0 1
14.600123 24.627990 21.150441 35.595542 1.035668 0.934541 0.018292 -0.006585 244734.000000 0 0 1
13.354023 25.004450 21.970241 35.864243 1.080269 0.911457 0.022201 -0.015771 -396170.000000 0 0 1
12.643523 26.080360 21.412041 36.034974 1.119390 0.934524 0.022515 -0.011200 131823.000000 0 0 1
11.388023 26.199540 22.094241 36.114519 1.160768 0.912484 0.012271 -0.007393 683074.000000 0 0 1
10.489823 27.307780 21.448341 36.273717 1.204043 0.938137 0.007196 -0.005454 106725.000000 0 0 1
11.011923 28.620650 21.643541 37.534610 1.203501 0.956200 0.006970 -0.005924 83886.600000 0 0 1
10.581023 29.467420 20.585941 37.470893 1.226060 0.989168 0.005395 -0.005872 181651.000000 0 0 1
11.249523 30.891540 20.625341 38.810356 1.221561 1.010498 0.002871 -0.002915 325947.000000 0 0 1
10.690523 31.812230 21.629641 39.926766 1.246602 0.998299 0.001927 0.002210 65745.900000 0 0 1
11.077323 31.549720 22.968641 40.566617 1.233136 0.968913 0.010557 0.001706 -247348.000000 0 0 1
10.529123 32.577170 24.011891 41.817524 1.258188 0.959162 0.002493 -0.000441 2221840.000000 0 0 1
9.092223 32.403590 24.323421 41.524571 1.297238 0.944979 0.000485 -0.002125 1898400.000000 0 0 1
8.770623 33.276760 25.364491 42.750719 1.313091 0.935630 0.009620 -0.004712 794269.000000 0 0 1
7.341523 33.034480 26.026161 42.691169 1.352112 0.915192 0.030525 -0.013145 1213080.000000 0 0 1
6.179523 33.566660 25.390591 42.539268 1.388738 0.931197 0.014665 -0.012422 513930.000000 0 0 1
5.712123 32.972530 24.227711 41.313413 1.399260 0.944143 0.011510 -0.016334 -476957.000000 0 0 1
4.984823 31.625320 24.439681 40.277877 1.414461 0.918797 0.003539 -0.018993 -57966.600000 0 0 1
5.862923 30.606270 24.981681 39.939980 1.381530 0.895049 0.009448 -0.015264 46335.900000 0 0 1
5.297723 29.381280 24.660991 38.723248 1.392404 0.880388 0.000785 -0.010159 -1116770.000000 0 0 1
6.260223 28.237550 24.960241 38.204231 1.352627 0.858812 -0.007711 -0.006858 -930663.000000 0 0 1
7.395823 28.128600 24.188891 37.828809 1.313687 0.877039 -0.010226 -0.008477 -109733.000000 0 0 1
8.383823 29.158230 24.260511 38.846663 1.290820 0.896280 0.003534 -0.005168 -1602430.000000 0 0 1
9.520523 28.837010 25.180371 39.449520 1.251914 0.878517 0.007336 -0.009835 -1597540.000000 0 0 1
9.191823 28.822490 26.535201 40.241054 1.262081 0.850768 0.004066 -0.006927 421881.000000 0 0 1
10.312023 28.676840 27.407081 40.985937 1.225600 0.838344 0.004493 -0.007806 522965.000000 0 0 1
11.256323 29.882840 27.586531 42.198408 1.210552 0.858288 0.008231 -0.010060 290572.000000 0 0 1
10.542923 30.873150 28.348451 43.219663 1.241721 0.855401 0.016239 -0.012265 793924.000000 0 0 1
11.240823 32.122030 28.243411 44.225232 1.234174 0.878084 0.020436 -0.000081 171818.000000 0 0 1
10.566623 33.268695 29.081351 45.433298 1.263259 0.876182 0.025275 -0.000487 -55075.100000 0 0 1
10.629123 33.190744 30.487881 46.304585 1.260872 0.852078 0.038397 -0.017619 220363.000000 0 0 1
10.023623 32.066580 31.117671 45.793537 1.267831 0.823687 0.037820 -0.011870 -272924.000000 0 0 1
10.385623 32.019690 32.601871 46.861538 1.257151 0.801394 0.051215 -0.018357 -190425.000000 0 0 1
10.144623 30.767390 33.149292 46.351065 1.252301 0.773917 0.053379 -0.020557 -9492.360000 0 0 1
10.259323 30.754860 -34.437282 47.297373 1.248820 2.386344 0.067972 -0.018940 -41875.400000 0 0 1
10.282323 29.273500 -33.964395 46.002653 1.233008 2.401363 0.055930 -0.011910 -454122.000000 0 0 1
11.376623 28.598590 -34.505349 46.237712 1.192185 2.413222 0.043365 -0.003496 -323484.000000 0 0 1
11.259123 27.226980 -34.146154 45.100290 1.178682 2.429684 0.032236 -0.010601 -539852.000000 0 0 1
12.551423 26.490750 -34.431462 45.219726 1.128324 2.436306 0.015907 -0.012879 -646051.000000 0 0 1
12.673423 25.137040 -34.070097 44.195678 1.103816 2.451037 0.011316 -0.012115 -146196.000000 0 0 1
12.691523 24.769050 -32.677615 42.923270 1.097282 2.436117 0.015504 -0.005568 -313428.000000 0 0 1
12.504023 23.230200 -32.493675 41.854889 1.077007 2.459636 0.014098 -0.016236 -40827.700000 0 0 1
13.543923 22.545800 -33.187505 42.345737 1.029841 2.471441 0.005357 -0.007540 136222.000000 0 0 1
13.445723 21.150600 -33.236925 41.627257 1.004530 2.495498 0.009166 -0.004610 -1000030.000000 0 0 1
14.657123 20.454200 -33.798315 42.137058 0.949028 2.501607 0.013795 -0.007023 -669303.000000 0 0 1
15.818823 20.741000 -33.069605 42.119153 0.919227 2.473725 0.007430 -0.013405 72596.700000 0 0 1
17.007823 20.326100 -33.761955 42.921859 0.874046 2.476065 0.000775 -0.010122 799267.000000 0 0 1
18.290423 20.356700 -32.884655 42.782419 0.838813 2.447522 -0.006574 -0.008746 78854.600000 0 0 1
18.889923 21.658400 -32.973755 43.739959 0.853568 2.424712 0.000166 -0.005971 107177.000000 0 0 1
19.837723 21.919000 -31.935475 43.518414 0.835200 2.394751 0.010652 -0.005841 123555.000000 0 0 1
19.310623 22.294500 -30.548395 42.463506 0.856995 2.373739 -0.007166 0.001234 -315586.000000 0 0 1
18.742423 23.561300 -30.489475 42.848820 0.898821 2.362511 -0.000687 0.002427 -76503.100000 0 0 1
18.320823 24.048300 -29.227845 42.050448 0.919764 2.339308 0.000100 0.009810 -84131.700000 0 0 1
19.474323 24.533610 -28.267215 42.192212 0.899859 2.304955 -0.002082 0.014210 401199.000000 0 0 1
20.233823 25.631160 -28.704745 43.477883 0.902538 2.291901 0.007510 0.003743 -37852.100000 0 0 1
19.549223 26.875910 -28.643385 43.874026 0.941924 2.282144 0.006863 0.005864 -509583.000000 0 0 1
20.448223 27.995120 -29.230785 45.346393 0.939944 2.271311 0.008649 0.000668 -178227.000000 0 0 1
20.595323 28.018130 -30.646955 46.351039 0.936918 2.293203 0.015244 -0.005389 -79792.200000 0 0 1
21.140623 26.884800 -31.313285 46.370683 0.904440 2.312143 0.020193 -0.005521 723663.000000 0 0 1
22.642123 26.559860 -30.981245 46.668292 0.864856 2.296766 0.031776 -0.013433 792296.000000 0 0 1
23.636823 27.561330 -31.274045 47.920687 0.861902 2.281835 0.031489 -0.011211 -910301.000000 0 0 1
24.845523 27.028950 -30.911715 47.993732 0.827464 2.270614 0.041175 -0.016732 -967698.000000 0 0 1
26.026223 27.966970 -31.312295 49.396108 0.821327 2.257384 0.004818 -0.006395 -64126.400000 0 0 1
26.164823 29.069290 -30.410445 49.542070 0.837934 2.231700 -0.002212 0.000683 387861.000000 0 0 1
27.160523 30.051290 -30.746845 50.854130 0.835883 2.220071 -0.008542 0.003425 442984.000000 0 0 1
27.086823 31.160280 -29.705335 50.863208 0.855219 2.194474 -0.005272 0.006175 -469138.000000 0 0 1
27.637623 30.915650 -28.442155 50.284906 0.841323 2.171981 0.003957 0.007748 -111735.000000 0 0 1
27.203123 31.746780 -27.407075 49.990156 0.862323 2.151066 0.004407 0.016695 -570409.000000 0 0 1
27.943623 31.508300 -26.104825 49.548773 0.845285 2.125688 0.011422 0.013391 -567812.000000 0 0 1
27.912823 30.177630 -25.577205 48.414961 0.824366 2.127383 0.019248 0.017035 748673.000000 0 0 1
26.617923 29.677480 -25.191085 47.157793 0.839693 2.134342 0.030951 0.011139 487305.000000 0 0 1
26.228323 29.823570 -23.696455 46.248159 0.849452 2.108746 0.037178 0.015197 -357030.000000 0 0 1
25.776123 31.147170 -23.345955 46.686061 0.879476 2.094467 0.024856 0.016150 -77559.700000 0 0 1
24.889523 31.085460 -22.289055 45.635470 0.895641 2.081069 0.034234 0.014171 -206278.000000 0 0 1
2.845423 -26.391816 -20.169655 33.338257 -1.463397 2.220563 0.023272 0.002869 -59368.500000 0 0 1
2.346723 -27.387826 -19.251255 33.559067 -1.485320 2.181755 0.017304 0.012673 287943.000000 0 0 1
2.701223 -26.976716 -17.944355 32.512147 -1.470997 2.155471 0.036226 0.002597 -39248.800000 0 0 1
2.550223 -27.997686 -16.835655 32.769091 -1.479960 2.110365 0.025298 -0.003806 -307329.000000 0 0 1
3.729523 -28.662686 -16.486455 33.275548 -1.441406 2.089152 0.028838 -0.012213 -296862.000000 0 0 1
3.548523 -29.508466 -15.368155 33.459256 -1.451117 2.048014 0.022382 -0.018901 280483.000000 0 0 1
4.885923 -30.208536 -14.978655 34.070339 -1.410445 2.025993 0.057099 -0.016848 428175.000000 0 0 1
5.944823 -29.394246 -14.542655 33.329438 -1.371244 2.022313 0.024343 -0.010393 -363549.000000 0 0 1
7.197323 -30.000706 -14.347055 34.024724 -1.335341 2.006078 0.035249 -0.009416 119455.000000 0 0 1
7.449223 -31.027236 -13.196255 34.530008 -1.335169 1.962937 0.028551 -0.009443 -766761.000000 0 0 1
7.504323 -30.330906 -11.920555 33.442165 -1.328252 1.935265 0.017198 -0.003636 6342.870000 0 0 1
7.590523 -31.043896 -10.679055 33.695426 -1.330992 1.893286 0.018860 -0.004456 -103962.000000 0 0 1
8.877523 -31.890916 -10.474255 34.721045 -1.299298 1.877239 0.038900 -0.007478 -268385.000000 0 0 1
10.025523 -31.106806 -10.530255 34.337018 -1.259014 1.882493 0.036974 -0.006734 -1097280.000000 0 0 1
11.149923 -31.903566 -10.602555 35.419945 -1.234577 1.874796 0.042809 -0.009548 -232911.000000 0 0 1
12.362523 -31.569156 -9.680055 35.258291 -1.197551 1.848915 0.036619 0.002099 182286.000000 0 0 1
13.310223 -30.614906 -10.059455 34.865845 -1.160686 1.863476 0.042014 -0.008387 -429.066000 0 0 1
14.287623 -30.411206 -9.072855 34.803654 -1.131587 1.834530 0.034200 -0.006139 -600633.000000 0 0 1
15.534623 -29.696896 -9.558355 34.851001 -1.088835 1.848620 0.039945 -0.009271 -627861.000000 0 0 1
15.498923 -28.291556 -9.790555 33.711774 -1.069622 1.865461 0.038741 -0.008643 70434.500000 0 0 1
14.712523 -27.860026 -10.892555 33.335974 -1.084932 1.903660 0.033111 -0.008022 -85481.400000 0 0 1
14.452623 -26.363066 -11.008855 32.016940 -1.069325 1.921805 0.036773 -0.005863 -887701.000000 0 0 1
13.462823 -25.946896 -10.091255 30.924464 -1.092174 1.903204 0.028537 -0.003664 329479.000000 0 0 1
12.795123 -24.718416 -10.417255 29.719261 -1.093140 1.928925 0.027410 -0.000192 202961.000000 0 0 1
12.306123 -24.414616 -11.833955 29.791889 -1.103916 1.979283 0.012324 0.001182 -1136070.000000 0 0 1
13.280523 -24.152016 -12.798055 30.388853 -1.068051 2.005502 0.017058 0.000737 -597850.000000 0 0 1
12.744923 -24.170816 -14.095155 30.746297 -1.085559 2.047029 0.013437 -0.000350 51966.700000 0 0 1
13.644823 -23.585616 -15.217955 31.209752 -1.046318 2.080138 0.022712 0.001562 -241963.000000 0 0 1
14.774023 -24.315116 -15.583355 32.439753 -1.024803 2.071882 0.030656 -0.004843 -207659.000000 0 0 1
15.255823 -23.804116 -16.829955 32.903244 -1.000852 2.107724 0.039868 -0.009660 -291376.000000 0 0 1
16.250423 -24.724516 -17.582155 34.416713 -0.989335 2.106982 0.042092 -0.009161 2115180.000000 0 0 1
17.603423 -24.805716 -17.011855 34.851216 -0.953622 2.080740 0.051666 -0.008003 1823100.000000 0 0 1
18.560723 -23.775016 -17.297055 34.769814 -0.907946 2.091480 0.042872 -0.005023 -799602.000000 0 0 1
19.906523 -24.210416 -16.798455 35.561243 -0.882647 2.062787 0.031553 -0.000438 -950818.000000 0 0 1
20.481923 -25.192116 -17.647255 36.953721 -0.888161 2.068661 0.040061 0.004040 478479.000000 0 0 1
21.809823 -25.530226 -17.224555 37.737860 -0.863826 2.044771 0.039640 0.010214 677591.000000 0 0 1
22.478923 -26.578666 -18.147455 39.256306 -0.868774 2.051362 0.038490 0.003865 -325072.000000 0 0 1
22.838223 -25.970626 -19.432055 39.669417 -0.849487 2.082714 0.036757 0.006051 -66839.200000 0 0 1
23.282223 -26.997256 -20.312555 41.030643 -0.859152 2.088698 0.030008 -0.000107 -217464.000000 0 0 1
24.353023 -26.455766 -21.285655 41.785840 -0.826760 2.105282 0.011156 -0.005496 -302818.000000 0 0 1
23.997423 -25.289436 -21.929255 41.186455 -0.811606 2.132275 0.011604 -0.005646 -259622.000000 0 0 1
24.532423 -24.226416 -21.214755 40.482402 -0.779122 2.122394 0.020164 0.002753 -195545.000000 0 0 1
23.719623 -22.877516 -21.415155 39.301528 -0.767328 2.147059 0.027402 0.007341 25581.100000 0 0 1
23.703723 -22.238016 -22.693855 39.640975 -0.753505 2.180330 0.021961 0.008647 294578.000000 0 0 1
22.909623 -22.908016 -23.688655 40.134529 -0.785363 2.202142 -0.001864 0.004431 -221996.000000 0 0 1
22.162923 -22.008216 -24.657155 39.793618 -0.781896 2.239062 -0.005441 0.004451 -43721.000000 0 0 1
22.968323 -21.361416 -25.591985 40.482140 -0.749165 2.255159 -0.006315 0.011549 -260224.000000 0 0 1
22.082623 -20.626616 -26.368215 40.104642 -0.751320 2.288273 -0.006683 0.014961 -230729.000000 0 0 1
22.748623 -20.017616 -27.624485 41.003865 -0.721626 2.310006 -0.009569 0.015703 -16946.000000 0 0 1
21.988423 -19.022016 -28.303625 40.576139 -0.713191 2.342760 -0.004194 0.015542 316781.000000 0 0 1
22.547723 -18.742616 -29.606865 41.668356 -0.693503 2.361056 -0.001313 0.007905 106672.000000 0 0 1
21.792223 -17.564116 -30.257935 41.218221 -0.678377 2.395124 0.027466 0.003868 -105828.000000 0 0 1
20.625623 -18.010916 -30.935405 41.313541 -0.717827 2.417040 0.025037 0.007041 220877.000000 0 0 1
20.013523 -16.926716 -31.604085 41.059384 -0.702030 2.449193 0.036989 -0.001266 -4505.240000 0 0 1
18.743923 -17.300216 -32.401295 41.236829 -0.745366 2.474683 0.024732 -0.000788 8312.670000 0 0 1
18.934623 -18.125616 -33.519645 42.551434 -0.763572 2.477935 0.027939 0.004765 693713.000000 0 0 1
17.722823 -18.854516 -33.730705 42.512959 -0.816328 2.487207 0.025176 0.000847 348958.000000 0 0 1
17.919423 -19.979416 34.238003 43.503145 -0.839700 0.664827 0.034180 0.008181 -60056.700000 0 0 1
18.869423 -20.908716 -34.320618 44.397459 -0.836620 2.454402 0.020756 0.013485 48745.900000 0 0 1
19.176723 -21.734916 33.591451 44.368219 -0.847847 0.711924 0.021243 0.006822 -201032.000000 0 0 1
19.959023 -22.988716 33.986245 45.627936 -0.855825 0.730477 0.013705 0.006752 -357692.000000 0 0 1
19.226223 -23.946416 -34.315252 46.050136 -0.894299 2.411588 0.012886 0.005150 -152928.000000 0 0 1
19.324123 -23.787016 -32.879735 44.947979 -0.888551 2.391325 0.011213 0.007943 -304539.000000 0 0 1
18.350523 -24.558816 -31.972115 44.295522 -0.929085 2.377183 0.015135 0.005041 -356480.000000 0 0 1
18.357123 -25.960806 -31.897575 45.037792 -0.955315 2.357799 0.022387 -0.005956 425661.000000 0 0 1
19.461023 -26.517706 -31.161955 45.309906 -0.937687 2.329183 0.015600 -0.014548 451979.000000 0 0 1
19.483123 -28.033736 -31.357295 46.354745 -0.963442 2.313746 0.012422 -0.019365 66608.100000 0 0 1
18.424223 -28.722806 -30.740285 45.928387 -1.000456 2.304075 0.014022 -0.025308 -92680.200000 0 0 1
18.680523 -30.085356 -30.974225 47.047776 -1.015138 2.289430 0.010449 -0.016249 -139594.000000 0 0 1
17.521623 -31.021436 -30.559145 46.938237 -1.056644 2.279763 0.041441 -0.022724 -266561.000000 0 0 1
16.361323 -30.984306 -31.348685 47.015531 -1.084960 2.300667 0.037670 -0.027417 -203095.000000 0 0 1
16.478423 -31.572956 -32.631975 48.303579 -1.089770 2.312521 0.032670 -0.021416 -1314040.000000 0 0 1
15.108523 -31.913826 -33.154085 48.435040 -1.128641 2.324722 0.038142 -0.021934 -438316.000000 0 0 1
14.301523 -30.817696 -33.586175 47.773372 -1.136305 2.350447 0.044698 -0.018254 -304589.000000 0 0 1
13.235223 -31.267586 -34.376191 48.317239 -1.170376 2.362382 0.029052 -0.006915 -299765.000000 0 0 1
12.298323 -30.143686 34.168499 47.195094 -1.183421 0.761236 0.031046 0.008062 -102447.000000 0 0 1
11.559223 -29.635496 -33.755405 46.382169 -1.198900 2.385856 0.039309 -0.007981 447301.000000 0 0 1
10.606123 -28.691706 -34.324732 45.977071 -1.216717 2.413676 0.015933 -0.001626 817440.000000 0 0 1
9.787023 -27.857186 -33.272585 44.484532 -1.232939 2.415777 0.025014 -0.003771 411108.000000 0 0 1
8.805423 -28.597546 -32.584875 44.239453 -1.272100 2.398762 0.031579 -0.008824 -338527.000000 0 0 1
7.965423 -27.777466 -31.820065 42.983161 -1.291532 2.404300 0.005394 -0.009073 -296417.000000 0 0 1
6.799123 -28.505286 -31.159845 42.775172 -1.336650 2.386862 0.010917 -0.002759 -458465.000000 0 0 1
5.758423 -29.069766 -31.933035 43.565232 -1.375238 2.393509 0.008216 0.002623 54935.100000 0 0 1
6.072823 -30.234056 -32.729875 44.969123 -1.372574 2.385948 0.014961 -0.002533 157488.000000 0 0 1
4.774023 -30.974276 -33.188745 45.647452 -1.417871 2.384836 0.028123 -0.006549 805182.000000 0 0 1
3.948823 -31.555926 -32.209685 45.264042 -1.446306 2.362563 0.015657 -0.007727 121875.000000 0 0 1
2.867423 -32.318696 -32.705405 46.069119 -1.482305 2.360181 0.021384 -0.013724 -115170.000000 0 0 1
2.002423 -32.901556 -31.554615 45.631303 -1.510010 2.334377 0.001644 -0.013207 439427.000000 0 0 1
1.126623 -31.970366 -30.875705 44.459901 -1.535571 2.338468 -0.016398 -0.014893 723652.000000 0 0 1
-0.216977 -32.087536 -31.340425 44.853978 1.564034 2.344405 -0.016573 0.008635 234823.000000 0 0 1
-1.118477 -30.901146 -30.875015 43.696663 1.534617 2.355444 -0.024519 0.008965 115627.000000 0 0 1
-1.636177 -31.019256 -29.544185 42.868756 1.518098 2.331150 -0.010051 -0.000168 3007.830000 0 0 1
-2.051577 -29.764936 -29.039425 41.634704 1.501979 2.342673 -0.004657 0.005834 107293.000000 0 0 1
-2.675877 -29.761766 -27.626125 40.695526 1.481128 2.316991 0.004624 0.005813 118853.000000 0 0 1
-1.680877 -30.051136 -26.655635 40.204714 1.514921 2.295612 -0.003289 0.010732 -90552.500000 0 0 1
-2.227877 -30.288926 -25.345635 39.557347 1.497374 2.266247 0.005815 0.005076 678748.000000 0 0 1
-1.233377 -30.877146 -24.262455 39.288498 1.530873 2.236415 -0.001077 0.013275 528727.000000 0 0 1
-1.780677 -30.737676 -22.944655 38.398343 1.512930 2.211230 0.019401 -0.000234 79010.800000 0 0 1
-0.893377 -31.244686 -21.946855 38.192840 1.542211 2.182952 0.018121 -0.001069 152061.000000 0 0 1
-1.469477 -31.213436 -20.544355 37.396637 1.523753 2.152399 -0.007125 0.011046 6086.810000 0 0 1
-1.789077 -29.925306 -19.971155 36.021824 1.511083 2.158460 -0.002086 0.011563 -69636.500000 0 0 1
-0.664477 -29.119846 -19.699755 35.163722 1.547982 2.165459 0.023529 0.008028 -239486.000000 0 0 1
-0.963777 -27.702276 -19.197055 33.717531 1.536020 2.176511 0.023620 0.003885 -279518.000000 0 0 1
-1.592977 -27.633176 -17.951655 32.990785 1.513213 2.146162 0.018630 0.003449 -28649.400000 0 0 1
-1.683777 -26.318996 -17.506555 31.654449 1.506908 2.156819 0.017676 0.005926 149080.000000 0 0 1
-2.255177 -26.343686 -16.061255 30.936056 1.485399 2.116683 0.010333 0.007886 -100341.000000 0 0 1
-2.271677 -25.030706 -15.526955 29.542903 1.480289 2.124185 0.006604 0.009133 490962.000000 0 0 1
-3.068877 -25.015896 -14.312255 28.983680 1.448729 2.087255 0.001480 0.014310 313869.000000 0 0 1
-2.865277 -23.729216 -13.485555 27.443500 1.450629 2.084485 0.003792 0.014936 654327.000000 0 0 1
-1.602377 -23.742916 -12.794755 27.018502 1.503410 2.064119 0.002816 0.011033 292806.000000 0 0 1
-1.393277 -22.537516 -12.270755 25.699266 1.509055 2.068575 0.002617 0.012802 -86540.700000 0 0 1
-0.242877 -22.514116 -11.264355 25.175983 1.560009 2.034680 -0.003037 0.014018 13501.100000 0 0 1
0.066123 -21.182716 -10.804455 23.779152 -1.567675 2.042457 -0.007919 0.010693 11714.600000 0 1 0
1.222323 -21.212916 -9.973555 23.472403 -1.513238 2.009654 -0.007897 0.007150 645047.000000 0 1 0
1.879323 -19.820516 -9.671755 22.134307 -1.476262 2.023010 -0.002673 0.005342 -857888.000000 0 1 0
2.430023 -19.247516 -10.865055 22.235587 -1.445210 2.081319 -0.001077 0.012958 440810.000000 0 1 0
3.366823 -18.165816 -10.791255 21.395877 -1.387537 2.099439 0.001095 0.016188 559371.000000 0 1 0
4.680223 -18.379716 -10.012255 21.446764 -1.321455 2.056513 0.005073 -0.000341 -483093.000000 0 1 0
4.394823 -18.738416 -8.670955 21.109907 -1.340425 1.994076 0.005866 -0.005455 -580071.000000 0 1 0
5.391623 -19.548316 -8.057555 21.820414 -1.301677 1.949016 0.011143 -0.009239 -342211.000000 0 1 0
4.911723 -20.664016 -7.101055 22.395347 -1.337432 1.893442 0.025756 -0.010609 -93397.800000 0 1 0
4.119723 -21.635616 -7.798055 23.364111 -1.382635 1.911088 0.007551 -0.002046 296422.000000 0 1 0
3.924623 -22.722316 -6.977755 24.091397 -1.399763 1.864644 0.016721 0.000379 -65486.000000 0 1 0
2.954523 -23.751316 -7.588555 25.108572 -1.447038 1.877827 0.008150 -0.001460 11856.900000 0 0 1
3.524923 -24.489916 -8.655755 26.212653 -1.427844 1.907325 0.002291 0.008512 217895.000000 0 0 1
2.545723 -25.148546 -9.474455 26.994358 -1.469913 1.929413 -0.005369 0.013495 383158.000000 0 0 1
3.101923 -26.026976 -10.643055 28.289575 -1.452175 1.956508 -0.012492 0.015295 25257.600000 0 0 1
3.770523 -27.172306 -10.104255 29.234347 -1.432913 1.923706 -0.012412 0.018168 40123.100000 0 0 1
4.372023 -27.936016 -11.115055 30.382232 -1.415554 1.945332 -0.000367 0.018539 54490.600000 0 0 1
4.340923 -29.494446 -10.948755 31.759112 -1.424668 1.922762 0.005585 0.007611 -661742.000000 0 0 1
3.133223 -30.075486 -11.318655 32.287210 -1.466992 1.928967 0.009909 0.010005 -342493.000000 0 0 1
3.284723 -31.469166 -11.313455 33.601966 -1.466794 1.914196 0.013186 0.005379 405914.000000 0 0 1
1.991023 -32.135796 -11.870955 34.316077 -1.508919 1.924026 0.004528 -0.004717 217470.000000 0 0 1
1.839623 -32.081956 -13.307155 34.780979 -1.513518 1.963404 0.016600 -0.010103 122127.000000 0 0 1
1.024323 -33.144546 -13.700755 35.879254 -1.539901 1.962601 0.017061 -0.010519 -516516.000000 0 0 1
0.461423 -32.992056 -15.108055 36.289696 -1.556811 2.000188 0.027385 -0.010583 -237476.000000 0 0 1
-0.595077 -32.072576 -15.226555 35.508481 1.552244 2.013977 0.023579 -0.004679 22399.000000 0 0 1
-1.156477 -32.181366 -16.553355 36.207614 1.534876 2.045617 -0.002410 -0.002390 -469182.000000 0 0 1
-2.357377 -31.292286 -16.783555 35.587247 1.495604 2.061920 0.003114 0.003628 -658962.000000 0 0 1
-3.498877 -31.756126 -16.120555 35.784997 1.461059 2.038103 -0.004206 0.004924 -526222.000000 0 0 1
-4.677477 -31.265396 -16.725155 35.764991 1.422292 2.057416 0.003274 0.010685 575079.000000 0 0 1
-5.955777 -31.367326 -15.848655 35.644920 1.383158 2.031553 -0.001054 0.001339 -9072.740000 0 0 1
-5.940877 -30.475286 -14.741555 34.370780 1.378270 2.014069 -0.013120 -0.004967 -326553.000000 0 0 1
-7.204277 -30.298676 -14.152955 34.208442 1.337356 1.997340 -0.002532 -0.000624 -137565.000000 0 0 1
-7.813777 -31.386436 -13.280155 34.964640 1.326802 1.960394 -0.005613 -0.005889 -114569.000000 0 0 1
-8.137477 -32.500926 -14.076155 36.340981 1.325463 1.968536 -0.009126 0.001385 -386765.000000 0 0 1
-8.585077 -33.584536 -13.265955 37.116172 1.320530 1.936297 0.004947 -0.009224 -66590.900000 0 0 1
-8.880277 34.243865 -14.122755 38.091388 -1.317061 1.950623 0.024007 0.000655 -1486.520000 0 0 1
-7.741277 33.469471 -14.433655 37.262089 -1.343500 1.968557 0.009739 0.001846 220862.000000 0 0 1
-8.212977 32.227500 -14.913355 36.448223 -1.321264 1.992336 0.020251 -0.009075 199048.000000 0 0 1
-8.302777 -22.102116 -3.649255 23.890515 1.211451 1.724146 0.045196 -0.005127 154710.000000 0 1 0
-7.848477 -21.084016 -4.531955 22.949356 1.214441 1.769579 0.027498 -0.006991 -10421.500000 0 1 0
-6.599977 -21.512716 -5.072855 23.067087 1.273118 1.792526 0.020236 0.008956 176982.000000 0 1 0
-6.150877 -20.460816 -6.122055 22.225163 1.278773 1.849860 0.018278 0.008341 -82735.200000 0 1 0
-6.804977 -20.479016 -7.368155 22.803235 1.249985 1.899820 0.008798 0.001060 -396542.000000 0 1 0
-6.708377 -19.299816 -8.093755 21.977127 1.236272 1.947956 0.006649 -0.002232 -452230.000000 0 1 0
-7.629677 -19.395916 -9.316955 22.830226 1.196023 1.991165 0.006039 -0.008255 291389.000000 0 1 0
-7.047177 -20.217416 -10.277255 23.749286 1.235396 2.018326 0.003456 0.004389 2230.380000 0 1 0
-8.044977 -20.573516 -11.211455 24.772726 1.198042 2.040444 0.025738 0.010347 463149.000000 0 1 0
-7.409477 -21.283116 -12.447855 25.745300 1.235781 2.075445 0.018800 0.010375 124322.000000 0 0 1
-6.555977 -20.478516 -13.222255 25.242395 1.260967 2.122116 0.017857 0.013225 -529163.000000 0 0 1
-6.119977 -21.300316 -14.240455 26.342896 1.291014 2.141923 0.004602 0.011679 -567693.000000 0 0 1
-5.127877 -20.693816 -15.194655 26.180273 1.327892 2.189999 0.005186 0.012580 -589974.000000 0 0 1
-3.810077 -20.582616 -14.677755 25.565549 1.387757 2.182328 0.004325 0.011308 -16299.000000 0 0 1
-2.958777 -19.853816 -15.542055 25.386687 1.422857 2.229652 0.014226 0.011068 -157008.000000 0 0 1
-3.186277 -18.326316 -15.629655 24.295933 1.398654 2.269601 0.021232 0.007443 -99339.600000 0 1 0
-4.362877 -17.905116 -16.368755 24.648814 1.331787 2.297057 0.021046 0.006913 582991.000000 0 1 0
-4.341977 -18.066916 -17.799455 25.731048 1.334942 2.334706 0.029789 -0.000837 -702106.000000 0 0 1
-5.693677 -17.841416 -18.476155 26.307839 1.261886 2.349428 0.026128 0.008990 -12049.800000 0 0 1
-6.587477 -18.940816 -18.229855 27.101236 1.236089 2.308591 0.023289 0.018519 -813190.000000 0 0 1
-7.826277 -18.615416 -18.744455 27.552476 1.172812 2.318993 0.025798 0.012831 -820968.000000 0 0 1
-8.902777 -19.637716 -18.306055 28.284466 1.145159 2.274718 0.025969 0.014556 -266741.000000 0 0 1
-8.586877 -20.923316 -18.757555 29.383082 1.181359 2.263187 0.018242 0.023749 143624.000000 0 0 1
-9.125977 -21.933916 -17.931155 29.764181 1.176516 2.217352 0.031294 0.014494 -94593.000000 0 0 1
-8.582577 -23.355016 -18.228755 30.844853 1.218632 2.203072 0.030393 0.000161 -789108.000000 0 0 1
-8.814777 -23.645916 -19.610355 31.959282 1.213971 2.231414 0.011271 0.000687 11994.200000 0 0 1
-8.069377 -24.711616 -20.087755 32.852652 1.255170 2.228688 0.013019 -0.007929 1510330.000000 0 0 1
-6.460077 -24.627816 -20.108255 32.443857 1.314267 2.239267 0.028714 -0.000171 1376340.000000 0 0 1
-5.905977 -23.617016 -20.898055 32.083839 1.325749 2.280169 0.024958 0.000671 -201156.000000 0 0 1
-5.904577 -22.343116 -20.273455 30.742346 1.312434 2.290901 0.025941 0.003270 161008.000000 0 0 1
-4.747977 -22.101716 -19.173655 29.642169 1.359188 2.274226 0.039186 0.010867 1396350.000000 0 0 1
-3.436477 -22.334316 -19.716755 29.989690 1.418128 2.288227 0.038337 0.000106 543766.000000 0 0 1
-2.524577 -21.961316 -18.671255 28.935941 1.456343 2.272162 0.020384 0.002635 -588023.000000 0 0 1
-1.169477 -22.618116 -18.790155 29.428163 1.519137 2.263356 0.036487 -0.003155 -938683.000000 0 0 1
-0.480277 -22.181716 -19.917255 29.815369 1.549148 2.302341 0.048533 -0.007143 -1019520.000000 0 0 1
0.841623 -22.624716 -19.916355 30.153728 -1.533614 2.292273 0.034629 -0.011914 -228494.000000 0 0 1
1.675523 -21.818316 -20.968455 30.307135 -1.494152 2.334866 0.046975 -0.017680 204087.000000 0 0 1
1.340423 -22.163016 -22.346255 31.501605 -1.510390 2.359399 0.045811 -0.021292 -569852.000000 0 0 1
0.599623 -21.150516 -22.867755 31.155066 -1.542454 2.394986 0.052094 -0.015973 -1037130.000000 0 0 1
0.157023 -21.535516 -24.292155 32.464010 -1.563505 2.416261 0.052927 -0.013041 180181.000000 0 0 1
-0.509477 -20.540316 -25.092595 32.431505 1.545998 2.455473 0.046012 -0.015646 469944.000000 0 0 1
-1.796377 -20.122016 -24.646355 31.867936 1.481758 2.454968 0.039506 -0.009760 -68351.000000 0 0 1
-2.231577 -18.807016 -25.325675 31.623941 1.452692 2.499491 0.017458 -0.002611 -106210.000000 0 0 1
-1.363077 -17.722616 -25.156445 30.802530 1.494036 2.526466 0.031935 -0.007410 -175500.000000 0 0 1
-1.934977 -16.551316 -25.669915 30.604489 1.454417 2.565804 0.027402 -0.002624 118681.000000 0 0 1
-1.177677 -15.217216 -25.276205 29.526888 1.493559 2.598356 0.029565 -0.004059 701598.000000 0 0 1
0.174823 -15.202716 -25.738045 29.893145 -1.559297 2.608032 0.032234 -0.015693 276460.000000 0 0 1
0.938823 -14.035016 -25.437735 29.067876 -1.504004 2.636470 0.033107 -0.017288 491526.000000 0 0 1
0.401623 -12.668116 -25.979835 28.906648 -1.539104 2.687705 0.032894 -0.015174 84940.900000 0 0 1
1.325723 -11.591316 -25.748085 28.268004 -1.456919 2.716150 0.021222 -0.016342 453828.000000 0 0 1
0.904523 -10.442616 -26.449005 28.450242 -1.484394 2.764281 0.029748 -0.016964 -258665.000000 0 0 1
1.800823 -9.200516 -26.188115 27.815640 -1.377509 2.797817 0.042725 -0.016231 454763.000000 0 0 1
3.176123 -9.199616 -26.508425 28.238578 -1.238364 2.789726 0.036351 -0.011420 -106659.000000 0 0 1
3.471223 -9.363516 -27.932765 29.664190 -1.215785 2.798243 0.035083 -0.006909 -989643.000000 0 0 1
4.860623 -8.950516 -28.374475 30.147110 -1.073301 2.796963 0.014972 0.000940 -1380660.000000 0 0 1
5.082623 -7.510416 -28.583525 29.987619 -0.975850 2.834371 0.016995 -0.003929 597236.000000 0 0 1
6.381023 -7.094716 -29.015905 30.544643 -0.838310 2.823874 0.022427 -0.002174 566779.000000 0 0 1
7.577223 -7.327416 -28.017705 29.934881 -0.768639 2.781758 0.026473 -0.005034 -177016.000000 0 0 1
7.993623 -8.648816 -27.672515 30.074376 -0.824747 2.739224 0.021764 -0.004132 263909.000000 0 0 1
8.541823 -9.372116 -28.776645 31.446695 -0.831714 2.726534 0.018601 -0.004723 -719050.000000 0 0 1
8.950123 -10.770916 -28.263345 31.542575 -0.877465 2.681560 0.015068 -0.009323 138828.000000 0 0 1
7.880323 -11.570416 -27.760915 31.090874 -0.972885 2.674533 0.014517 -0.012148 190687.000000 0 0 1
8.270323 -12.533016 -26.787355 30.708910 -0.987505 2.630681 0.012267 -0.006391 -85599.700000 0 0 1
9.056723 -13.774316 -27.334475 31.920676 -0.989161 2.598908 0.017406 -0.009321 -190609.000000 0 0 1
8.365023 -14.475316 -28.319595 32.886287 -1.046799 2.608298 0.031516 -0.016398 -633277.000000 0 0 1
9.173523 -15.351416 -29.063655 34.124999 -1.032167 2.589983 0.024732 -0.015077 8725.820000 0 0 1
8.362323 -16.123316 -30.155665 35.203038 -1.092342 2.599481 0.022838 -0.007676 10416.400000 0 0 1
8.038823 -15.273616 -31.238825 35.689918 -1.086314 2.636820 0.021827 -0.002538 388476.000000 0 0 1
7.284623 -15.917916 -32.276925 36.718465 -1.141610 2.644637 0.018438 -0.004789 -83302.700000 0 0 1
6.245423 -15.133216 -33.070435 36.900857 -1.179393 2.681918 0.013521 0.000939 34801.400000 0 0 1
6.779223 -14.054816 -33.855395 37.278459 -1.121375 2.709702 0.012688 0.009636 -257873.000000 0 0 1
5.809423 -13.620516 34.259297 37.322477 -1.167639 0.407974 0.002245 0.000744 -241606.000000 0 0 1
6.200523 -12.291016 33.590254 36.301801 -1.103574 0.388956 0.017382 0.007807 -95429.700000 0 0 1
6.923823 -12.469516 32.361011 35.364717 -1.063924 0.415128 -0.005215 0.008765 234951.000000 0 0 1
7.195923 -11.171116 31.773461 34.440208 -0.998542 0.396110 0.000619 0.003634 -387518.000000 0 0 1
7.739823 -11.348616 30.393551 33.353619 -0.972249 0.424483 -0.010680 -0.004332 211779.000000 0 0 1
6.755323 -11.828516 29.466291 32.462447 -1.051894 0.433017 -0.000170 0.002826 382796.000000 0 0 1
7.255423 -11.755716 28.143941 31.351546 -1.017838 0.456300 -0.010992 -0.004973 71917.700000 0 0 1
6.468023 -12.420416 26.959371 30.379430 -1.090681 0.479075 0.000225 -0.012388 82585.000000 0 0 1
6.679423 -13.837816 26.905001 30.983527 -1.121090 0.518901 -0.000490 -0.012827 -60698.500000 0 0 1
6.378023 -14.393616 25.604101 30.057035 -1.153683 0.551288 0.000549 -0.012306 -100370.000000 0 0 1
4.999123 -15.073116 25.411121 29.965232 -1.250554 0.558558 0.002199 -0.015622 74866.500000 0 0 1
4.003623 -14.058516 25.390641 29.297705 -1.293358 0.522363 -0.005332 -0.021333 -918881.000000 0 0 1
2.791923 -14.632216 25.052241 29.146378 -1.382256 0.536443 -0.005098 -0.014418 -971079.000000 0 0 1
1.588723 -13.707816 24.993461 28.549980 -1.455412 0.504475 0.006472 -0.009099 -851285.000000 0 0 1
1.737723 -12.758116 23.955441 27.196551 -1.435424 0.493191 0.002598 -0.002689 -138038.000000 0 0 1
0.795723 -11.700916 23.868241 26.593938 -1.502896 0.456713 0.002050 0.010194 1763160.000000 0 0 1
-0.709377 -12.144816 23.532541 26.491136 1.512453 0.477128 0.006401 0.017148 874001.000000 0 0 1
-0.845077 -12.565316 22.211041 25.532953 1.503643 0.515803 0.009723 0.005978 17537.500000 0 0 1
-2.092777 -13.169716 21.918341 25.656087 1.413206 0.546568 0.014894 0.002475 193467.000000 0 0 1
-2.320777 -13.856016 20.524641 24.872396 1.404844 0.600244 0.011423 0.000688 -104084.000000 0 1 0
-1.548177 -15.006916 20.380341 25.356709 1.467996 0.637232 0.013217 -0.003063 -248115.000000 0 0 1
-1.738877 -15.641016 19.129241 24.770808 1.460077 0.688422 0.010684 -0.005293 147880.000000 0 1 0
-2.452277 -17.004216 19.141841 25.720947 1.427568 0.731442 -0.006162 -0.003090 63655.200000 0 0 1
-2.429777 -17.597016 17.836141 25.173135 1.433585 0.783371 -0.009999 -0.007628 -238382.000000 0 0 1
-3.210577 -18.784416 17.753341 26.045023 1.401515 0.820794 -0.008728 0.000579 160579.000000 0 0 1
-2.584077 -19.873816 16.798341 26.150149 1.441498 0.873196 -0.004018 -0.003161 823926.000000 0 0 1
-1.414077 -20.465916 17.374741 26.883731 1.501812 0.868081 -0.005668 -0.008877 -208947.000000 0 0 1
-1.677177 -21.795116 17.752541 28.160127 1.493996 0.888710 0.001178 -0.015696 92728.800000 0 0 1
-0.469277 -22.643516 18.279141 29.104571 1.550075 0.891751 0.016699 -0.011970 111698.000000 0 0 1
0.394823 -23.012216 17.283741 28.782732 -1.553641 0.926683 0.028047 -0.017784 -1520490.000000 0 0 1
1.427523 -23.834816 17.663941 29.701029 -1.510975 0.933873 0.031638 -0.003211 -260782.000000 0 0 1
2.694123 -23.614816 16.785441 29.097575 -1.457201 0.955908 0.031962 -0.016051 227677.000000 0 0 1
3.333823 -22.375416 17.034541 28.318708 -1.422890 0.925382 0.038202 -0.011987 -1221550.000000 0 0 1
4.414323 -22.198916 16.229841 27.851138 -1.374504 0.948706 0.041277 -0.013791 -926189.000000 0 0 1
5.176323 -20.908016 16.547541 27.161748 -1.328100 0.915717 0.053194 -0.013555 -428086.000000 0 0 1
5.809123 -20.973516 17.834941 28.137509 -1.300596 0.884276 0.055175 -0.009795 -65609.100000 0 0 1
6.152423 -19.687516 18.373541 27.623135 -1.267908 0.843101 0.059742 -0.008022 853510.000000 0 0 1
7.282723 -18.787616 17.700541 26.820174 -1.200995 0.850016 0.056256 -0.009805 498939.000000 0 0 1
6.842223 -18.329916 16.484341 25.583888 -1.213533 0.870656 0.055493 -0.009879 73646.600000 0 0 1
7.798123 -17.465616 15.900741 24.873521 -1.150870 0.877256 0.064708 -0.008346 255760.000000 0 1 0
7.147223 -16.689616 14.714641 23.369783 -1.166181 0.889702 0.056831 -0.008191 121534.000000 0 1 0
6.948223 -17.336016 13.464741 23.024216 -1.189603 0.946153 0.063058 -0.019768 215135.000000 0 1 0
6.290223 -16.475616 12.547341 21.643673 -1.206086 0.952407 0.054607 -0.020333 -113249.000000 0 1 0
6.704623 -16.763116 11.116341 21.202053 -1.190322 1.018898 0.059651 -0.012579 -25314.900000 0 1 0
8.036523 -16.302816 11.015741 21.253566 -1.112802 1.025933 0.052379 -0.009316 -243453.000000 0 1 0
8.609623 -16.580416 9.780441 21.087741 -1.091856 1.088520 0.048343 -0.009619 -442592.000000 0 1 0
10.065923 -16.171216 9.627841 21.343063 -1.014026 1.102800 0.047435 -0.008777 -229476.000000 0 1 0
10.546923 -16.539816 8.322241 21.308749 -1.003139 1.169562 0.047054 -0.013850 194480.000000 0 1 0
11.922923 -16.204716 8.163541 21.711571 -0.936466 1.185321 0.058693 -0.019810 132426.000000 0 1 0
12.733323 -17.307816 7.544741 22.773255 -0.936512 1.233117 0.054682 -0.017373 -358870.000000 0 1 0
12.901223 -18.468816 8.369841 24.033164 -0.961050 1.215080 0.045143 -0.017567 -15382.400000 0 1 0
13.685723 -19.481516 7.788741 25.049810 -0.958396 1.254625 0.045538 -0.013204 -66414.200000 0 0 1
13.892123 -20.644316 8.759241 26.379977 -0.978472 1.232330 0.034930 -0.011577 553742.000000 0 0 1
12.826423 -21.566216 9.050041 26.674371 -1.034249 1.224647 0.041364 -0.009835 110580.000000 0 0 1
13.369723 -22.719116 9.665941 28.077360 -1.038891 1.219345 0.036801 -0.006257 442455.000000 0 0 1
12.325223 -23.729516 10.256241 28.638986 -1.091746 1.204541 0.059228 -0.013747 444432.000000 0 0 1
11.945123 -23.171116 11.547041 28.511765 -1.094812 1.153826 0.050894 -0.015146 -828383.000000 0 0 1
11.005023 -23.877816 12.283741 29.019837 -1.138924 1.133725 0.063814 -0.006531 -367137.000000 0 0 1
11.413323 -25.240026 12.954741 30.580192 -1.146122 1.133345 0.067248 -0.010034 -916071.000000 0 0 1
12.546223 -25.283486 13.746641 31.394785 -1.110176 1.117575 0.036682 -0.017318 -555426.000000 0 0 1
12.704423 -26.599876 14.251341 32.742274 -1.125219 1.120471 0.035989 -0.022874 222137.000000 0 0 1
13.928823 -26.790326 15.188441 33.799740 -1.091340 1.104741 0.036115 -0.019132 367557.000000 0 0 1
13.715523 -26.106336 16.383941 33.735588 -1.087058 1.063681 0.028191 -0.013477 -144116.000000 0 0 1
14.760423 -26.491606 17.200741 34.864606 -1.062462 1.054850 0.030093 -0.014750 -796206.000000 0 0 1
14.675823 -25.948756 18.690441 35.185939 -1.056078 1.010791 0.034047 -0.012689 -77634.600000 0 0 1
14.789723 -24.542416 18.897441 34.324617 -1.028453 0.987773 -0.003491 -0.011816 1070760.000000 0 0 1
16.131123 -24.284416 19.384841 35.010256 -0.984463 0.984007 0.002951 -0.017641 1107740.000000 0 0 1
16.570623 -22.757216 19.447941 34.215477 -0.941428 0.966241 -0.007046 -0.018246 -25725.300000 0 0 1
16.575523 -21.903916 18.361741 33.040627 -0.922997 0.981553 -0.017187 -0.017084 672644.000000 0 0 1
15.318423 -21.288816 18.053641 31.840253 -0.947068 0.967929 -0.006928 -0.010483 11818.200000 0 0 1
15.491423 -20.276616 16.917841 30.615987 -0.918393 0.985337 -0.005106 -0.005272 247418.000000 0 0 1
16.397623 -19.233216 17.249441 30.599703 -0.864813 0.971922 -0.011933 -0.011791 78431.200000 0 0 1
17.716123 -19.434016 16.802141 31.206633 -0.831607 1.002240 -0.007409 -0.010661 79349.200000 0 0 1
18.719023 -18.255416 17.059341 31.219916 -0.772860 0.992707 0.004788 -0.017670 53394.800000 0 0 1
19.054823 -18.022816 18.412941 32.045976 -0.757572 0.958707 0.000233 -0.021694 130815.000000 0 0 1
19.474923 -16.704816 18.580541 31.679015 -0.708982 0.944034 0.012901 -0.019158 -835937.000000 0 0 1
19.812323 -16.323816 20.050141 32.573045 -0.689159 0.907720 0.016053 -0.023225 331656.000000 0 0 1
21.033123 -16.936716 20.509441 33.909907 -0.677928 0.921255 0.021266 -0.022854 494775.000000 0 0 1
21.388523 -16.528316 21.793641 34.721995 -0.657913 0.892251 0.033661 -0.014613 -229534.000000 0 0 1
32.891341 -0.887116 -8.036955 33.870635 -0.026965 1.810365 0.078110 -0.017969 -1009590.000000 0 0 1
34.150861 -0.647916 -8.551155 35.211125 -0.018970 1.816103 0.064479 -0.018679 -594829.000000 0 0 1
34.875242 -1.870816 -8.497955 35.944369 -0.053592 1.809476 0.055009 -0.018080 4291.250000 0 0 1
-34.383137 -1.776416 -9.011655 35.588843 0.051619 1.826799 0.051878 -0.018647 -388755.000000 0 0 1
-33.608047 -2.901216 -8.791255 34.859777 0.086112 1.825738 0.055004 -0.015379 -138060.000000 0 0 1
-32.278507 -2.580516 -9.186555 33.659381 0.079776 1.847231 0.090116 -0.023989 -262931.000000 0 0 1
-31.298247 -3.733816 -8.982255 32.775030 0.118737 1.848406 0.089441 -0.016410 -611343.000000 0 0 1
-31.002527 -3.831116 -7.613355 32.152719 0.122951 1.809854 0.075402 -0.016222 646061.000000 0 0 1
-29.931237 -4.736516 -7.307955 31.172420 0.156945 1.807435 0.067731 -0.016534 422021.000000 0 0 1
-29.672377 -4.725016 -5.785755 30.598214 0.157914 1.761030 0.050841 -0.021580 -224462.000000 0 0 1
-29.364087 -3.446916 -5.344755 30.044921 0.116851 1.749640 0.036615 -0.014066 357411.000000 0 0 1
-29.184057 -3.403716 -3.959855 29.647512 0.116105 1.704761 0.037571 -0.017542 -220905.000000 0 0 1
-28.924377 -2.041216 -3.263555 29.179393 0.070454 1.682875 0.037379 -0.015175 -387817.000000 0 0 1
-27.691637 -1.390416 -3.444255 27.939630 0.050169 1.694386 0.034388 -0.004212 179392.000000 0 0 1
-27.667257 -0.163116 -2.815255 27.810599 0.005896 1.672200 0.040430 -0.013439 101887.000000 0 0 1
-26.232177 0.313484 -2.439055 26.347189 -0.011950 1.663503 0.060284 -0.003290 219895.000000 0 0 1
-25.796667 -0.327616 -1.291055 25.831032 0.012699 1.620798 0.038633 -0.007528 703216.000000 0 0 1
-24.395477 -0.205916 -1.050655 24.418960 0.008441 1.613836 0.041107 -0.006785 526582.000000 0 1 0
-23.865177 -1.021116 0.168245 23.887605 0.042761 1.563753 0.028495 -0.005408 -85050.000000 0 1 0
-23.777577 -2.391416 -0.154955 23.898035 0.100237 1.577280 0.023904 -0.007606 56455.700000 0 1 0
-23.016477 -3.072716 0.788945 23.234075 0.132716 1.536833 0.016853 -0.009148 -552504.000000 0 1 0
-23.034577 -4.631616 0.681745 23.505497 0.198426 1.541789 0.011640 -0.010397 310063.000000 0 1 0
-24.173377 -5.121016 1.426045 24.750971 0.208759 1.513149 0.009409 -0.006565 889536.000000 0 1 0
-24.126177 -6.517316 1.385945 25.029357 0.263837 1.515395 -0.001486 -0.003545 -730302.000000 0 0 1
-25.370457 -7.185516 1.943845 26.439937 0.275996 1.497211 0.000083 0.001812 -530520.000000 0 0 1
-25.447677 -7.260916 3.348845 26.674331 0.277942 1.444919 0.000327 0.000559 -165142.000000 0 0 1
-26.511477 -8.052816 3.789945 27.965514 0.294892 1.434856 0.011835 -0.000969 -260635.000000 0 0 1
-26.548367 -8.275016 5.321045 28.312634 0.302152 1.381733 0.002410 -0.008128 -140969.000000 0 0 1
-25.649527 -9.248316 5.821745 27.880501 0.346055 1.360438 0.008083 0.002977 -123234.000000 0 0 1
-25.712147 -9.366116 7.258845 28.311296 0.349329 1.311507 0.010340 0.001488 -136086.000000 0 0 1
-25.186547 -8.149416 8.032345 27.663943 0.312931 1.276199 0.008342 0.007636 -99675.300000 0 0 1
-23.794077 -7.990416 7.822145 26.290508 0.323983 1.268695 0.009666 0.002587 74858.400000 0 0 1
-23.374877 -6.695416 8.197845 25.659660 0.278967 1.245612 0.009725 0.006560 796155.000000 0 0 1
-21.898477 -6.324816 7.806545 24.093334 0.281173 1.240828 -0.001722 0.004896 1308230.000000 0 1 0
-20.884877 -6.883216 8.661945 23.634425 0.318368 1.195555 0.004350 0.000938 1011360.000000 0 1 0
-19.578777 -6.599216 8.126645 22.201814 0.325101 1.196051 0.009837 -0.003530 207975.000000 0 1 0
-18.514677 -6.796816 9.170045 21.750396 0.351830 1.135583 0.015407 -0.001498 -713447.000000 0 1 0
-18.554377 -5.735616 10.133945 21.905685 0.299807 1.089851 0.024084 0.002115 34607.300000 0 1 0
-17.505977 -5.896716 11.047645 21.523963 0.324903 1.031803 0.009201 0.000382 -327335.000000 0 1 0
-17.386177 -4.761916 12.035445 21.675030 0.267335 0.982111 0.005885 0.001075 -164852.000000 0 1 0
-18.478677 -4.599216 12.904345 23.002966 0.243937 0.975220 0.014419 0.000133 71149.200000 0 1 0
-18.457277 -3.228716 13.381645 23.025293 0.173177 0.950629 0.011721 -0.000897 1050420.000000 0 1 0
-19.761377 -3.089516 14.266545 24.568098 0.155086 0.951216 0.017441 -0.002320 693443.000000 0 1 0
-19.640377 -3.766516 15.525845 25.317641 0.189474 0.910638 0.024775 0.004631 -424687.000000 0 0 1
-20.864377 -3.855216 16.170845 26.677353 0.182714 0.919568 0.027181 0.000730 -640229.000000 0 0 1
-20.760177 -4.898516 17.372145 27.509486 0.231719 0.887315 0.022518 0.007055 -187704.000000 0 0 1
-21.577977 -4.646716 18.476245 28.784939 0.212106 0.873859 0.027942 0.001605 5356.280000 0 0 1
-21.182477 -5.469516 19.556545 29.344018 0.252690 0.841349 0.026370 0.004119 -356101.000000 0 0 1
-21.814177 -5.117816 20.856745 30.611341 0.230442 0.821204 0.012524 0.004605 -285315.000000 0 0 1
-21.600377 -3.756616 21.214245 30.507911 0.172192 0.801864 0.009796 0.005627 621475.000000 0 0 1
-22.510277 -3.470516 22.291045 31.869229 0.152970 0.796164 0.020903 0.004057 401788.000000 0 0 1
-22.510277 -2.012916 22.872645 32.154662 0.089185 0.779405 0.021616 0.004513 63966.300000 0 0 1
-23.242977 -1.197516 21.973245 32.007711 0.051476 0.814134 0.035735 -0.001138 -9244.730000 0 0 1
-23.144177 0.140684 22.372945 32.190393 -0.006079 0.802350 0.028687 -0.003053 -444966.000000 0 0 1
-24.412577 0.933784 22.095445 32.940167 -0.038231 0.835543 0.030400 -0.007842 135877.000000 0 0 1
-25.445227 0.641384 23.042145 34.333823 -0.025201 0.835077 0.031767 -0.002423 -446111.000000 0 0 1
-26.664187 1.209784 22.750845 35.071975 -0.045340 0.864934 0.036711 -0.006072 -598055.000000 0 0 1
-27.677067 1.400984 23.871645 36.576471 -0.050576 0.859719 0.025774 -0.001010 -184385.000000 0 0 1
-27.218657 2.276084 24.888145 36.952072 -0.083428 0.831829 0.019504 0.005317 147881.000000 0 0 1
-28.174467 2.345784 25.934445 38.365333 -0.083068 0.828494 0.021236 0.004999 -61723.800000 0 0 1
-27.734817 3.136584 27.151945 38.939522 -0.112613 0.799194 0.021760 0.007269 186143.000000 0 0 1
-26.763617 2.429984 27.941245 38.767373 -0.090546 0.765925 0.009459 0.004184 428161.000000 0 0 1
-26.222927 3.367184 28.829145 39.116486 -0.127707 0.742164 0.003493 0.006684 -337020.000000 0 0 1
-25.103067 2.794384 29.703145 38.990376 -0.110860 0.704698 0.014905 0.005146 -147814.000000 0 0 1
-25.578447 2.127284 30.823045 40.110378 -0.082976 0.694372 0.026899 0.006672 399042.000000 0 0 1
-24.431877 1.735584 31.568145 39.955934 -0.070919 0.659867 0.013117 0.003167 393285.000000 0 0 1
-24.629977 0.477184 32.491845 40.774790 -0.019372 0.648714 -0.001329 -0.003601 -141490.000000 0 0 1
-24.575077 -0.721216 31.667645 40.091075 0.029339 0.660162 0.005754 -0.004701 -118240.000000 0 0 1
-24.816977 -1.914516 32.370945 40.834126 0.076993 0.655501 0.007771 0.000636 -338580.000000 0 0 1
-25.571327 -2.993216 31.501145 40.683833 0.116523 0.685202 -0.002192 0.002480 96017.500000 0 0 1
-26.874487 -2.721516 31.050345 41.155421 0.100924 0.715957 0.007129 0.003492 -46340.200000 0 0 1
-26.917847 -1.779416 30.004645 40.348675 0.066009 0.732307 0.014026 -0.001138 103047.000000 0 0 1
-28.363067 -1.416916 29.485845 40.937590 0.049915 0.766614 0.029373 -0.011054 1581730.000000 0 0 1
-29.189887 -0.756616 30.512345 42.232987 0.025915 0.763419 0.028956 -0.003092 -610558.000000 0 0 1
-30.473627 -0.575816 30.034045 42.790389 0.018893 0.792752 0.017121 -0.002553 -743525.000000 0 0 1
-31.460137 -0.195616 31.148245 44.271793 0.006218 0.790389 0.010098 0.001592 -630767.000000 0 0 1
-31.612347 -1.310616 32.002645 45.002528 0.041435 0.779692 0.013699 0.008092 45809.400000 0 0 1
-32.282507 -1.016816 33.225745 46.337289 0.031487 0.771248 0.020695 0.008654 81110.600000 0 0 1
-32.309347 -2.268316 34.103745 47.033016 0.070091 0.759613 0.025666 0.011954 -63422.800000 0 0 1
-32.996857 -3.348616 33.516545 47.152567 0.101137 0.780146 0.050706 -0.005693 -31517.500000 0 0 1
-33.100627 -4.410816 34.418345 47.955493 0.132474 0.770282 0.014665 0.004169 253474.000000 0 0 1
-34.276930 -5.351016 33.989545 48.567793 0.154861 0.795627 0.018184 0.006814 490875.000000 0 0 1
35.165253 -4.805616 34.304545 49.360822 -0.135817 0.802411 0.035211 -0.003607 -190482.000000 0 0 1
34.131861 -5.705016 33.935745 48.468195 -0.165615 0.795167 0.036296 -0.012766 387561.000000 0 0 1
32.705801 -5.201516 34.323445 47.695115 -0.157719 0.767509 0.046227 -0.008329 -330552.000000 0 0 1
32.268341 -5.214016 -33.308751 46.668026 -0.160198 2.365617 0.046771 -0.015714 262183.000000 0 0 1
31.800431 -6.462116 -32.812551 46.148563 -0.200479 2.361744 0.055211 -0.020005 -766341.000000 0 0 1
30.533751 -6.956316 -33.544251 45.890272 -0.224001 2.390533 0.057541 -0.015675 -227480.000000 0 0 1
29.344641 -6.459616 -32.934851 44.581824 -0.216674 2.402011 0.051025 -0.020959 922701.000000 0 0 1
28.123151 -7.068116 -33.362051 44.202899 -0.246228 2.426066 0.036360 -0.017570 73301.100000 0 0 1
26.880661 -6.655016 -32.624651 42.792838 -0.242696 2.437788 0.046678 -0.022568 -469804.000000 0 0 1
25.651581 -7.217116 -33.022451 42.433155 -0.274262 2.462627 0.053410 -0.021822 -41679.300000 0 0 1
24.543441 -6.640316 -32.389251 41.176909 -0.264228 2.476060 0.058550 -0.018557 185355.000000 0 0 1
23.192941 -7.223116 -32.926651 40.917603 -0.301915 2.505977 0.053129 -0.017498 284704.000000 0 0 1
23.086941 -8.622016 -32.833951 41.053798 -0.357419 2.497723 0.047239 -0.023046 240421.000000 0 0 1
22.784941 -9.166616 -31.531451 39.967647 -0.382496 2.479853 0.052843 -0.022150 -195443.000000 0 0 1
22.525741 -10.709416 -31.481651 40.164598 -0.443799 2.471583 0.050284 -0.021003 579674.000000 0 0 1
21.339241 -11.075416 -32.203851 40.188507 -0.478745 2.500295 0.058249 -0.027146 658057.000000 0 0 1
21.147841 -12.498516 -32.025851 40.362101 -0.533781 2.487275 0.046941 -0.017033 -855911.000000 0 0 1
19.981341 -13.135016 -32.775951 40.571487 -0.581535 2.511303 0.042148 -0.015554 -594133.000000 0 0 1
18.712741 -12.670516 -32.418051 39.517574 -0.595195 2.532811 0.032589 -0.012722 -410571.000000 0 0 1
18.276541 -11.480416 -33.012451 39.441778 -0.560862 2.562559 0.029649 -0.016593 -389752.000000 0 0 1
16.831341 -11.133916 -32.569451 38.314844 -0.584417 2.586872 0.029127 -0.017819 108660.000000 0 0 1
15.771141 -11.774716 -33.247551 38.636414 -0.641321 2.607093 0.020038 -0.006653 699340.000000 0 0 1
14.571941 -11.421416 -32.488451 37.393711 -0.664782 2.623613 0.013459 -0.002963 1407010.000000 0 0 1
13.239241 -11.856916 -33.197751 37.655738 -0.730373 2.650063 0.006125 0.004630 -71685.600000 0 0 1
13.038741 -13.276216 -33.255651 38.107808 -0.794422 2.631446 0.014848 0.006485 575555.000000 0 0 1
11.799641 -13.697216 -33.844751 38.370724 -0.859685 2.650984 0.001339 0.005990 690250.000000 0 0 1
10.568241 -13.541216 -32.910651 37.123621 -0.908090 2.660555 -0.008336 0.015250 -305171.000000 0 0 1
9.987941 -12.261816 -32.957351 36.555411 -0.887242 2.694187 0.006955 0.009263 144221.000000 0 0 1
8.849541 -12.129916 -32.117551 35.454003 -0.940504 2.704281 0.004652 0.002613 840674.000000 0 0 1
7.824341 -10.978816 -32.497851 35.183306 -0.951613 2.748353 0.004148 -0.000213 656436.000000 0 0 1
8.452241 -9.690416 -32.389651 34.848731 -0.853539 2.763677 0.011424 -0.001978 604468.000000 0 0 1
7.581541 -8.668616 -32.835551 34.796524 -0.852195 2.804271 0.016823 0.002248 -178376.000000 0 0 1
8.265841 -7.314216 -32.892151 34.694603 -0.724394 2.817839 0.018882 0.011211 -236679.000000 0 0 1
8.464641 -6.727716 -31.593951 33.392964 -0.671564 2.811851 0.022068 0.001293 215695.000000 0 0 1
8.927141 -5.412216 -31.773551 33.444648 -0.545014 2.824141 0.026450 -0.011477 -152992.000000 0 0 1
9.029741 -4.546916 -30.519551 32.150485 -0.466483 2.821709 0.023051 -0.006532 72631.100000 0 0 1
7.752241 -4.120816 -30.082051 31.337009 -0.488579 2.857630 0.027896 -0.004944 251309.000000 0 0 1
7.937041 -3.133316 -29.084051 30.310003 -0.375991 2.856206 0.030007 -0.006714 1083070.000000 0 0 1
6.546441 -2.548116 -28.624151 29.473561 -0.371194 2.900932 0.031934 -0.004521 -59070.000000 0 0 1
5.827341 -1.798516 -29.642951 30.263792 -0.299359 2.938690 0.026852 -0.006396 401594.000000 0 0 1
4.552941 -1.461216 -29.151551 29.541113 -0.310555 2.979012 0.038764 -0.008396 175131.000000 0 0 1
3.458741 -2.566516 -29.103551 29.420513 -0.638386 2.994672 0.033022 -0.008239 -762950.000000 0 0 1
3.741041 -3.568416 -28.139851 28.610841 -0.761786 2.959894 0.040913 -0.007697 -384851.000000 0 0 1
2.801941 -4.603916 -28.188751 28.699348 -1.024078 2.952679 0.047562 -0.006941 -32147.900000 0 0 1
3.123641 -5.644416 -27.153351 27.909157 -1.065344 2.908337 0.043268 -0.016800 -22962.700000 0 0 1
2.849441 -5.160316 -25.855251 26.518714 -1.066278 2.917433 0.048996 -0.014406 117080.000000 0 0 1
3.261441 -6.140216 -24.898651 25.851152 -1.082532 2.869291 0.046315 -0.018844 65828.500000 0 0 1
3.074541 -5.550816 -23.468751 24.311451 -1.064972 2.877529 0.040209 -0.014717 95548.600000 0 1 0
4.054941 -4.584616 -23.164351 23.959307 -0.846630 2.883273 0.035853 -0.011576 96694.200000 0 1 0
3.769341 -4.032516 -21.877051 22.562679 -0.819118 2.894437 0.034457 -0.012531 212247.000000 0 1 0
4.764341 -2.899816 -21.541451 22.251786 -0.546756 2.888239 0.048037 -0.015581 -518484.000000 0 1 0
5.977441 -3.211216 -20.957451 22.028537 -0.492980 2.828473 0.029968 -0.021975 -770741.000000 0 1 0
6.676141 -2.007816 -20.692251 21.835096 -0.292140 2.816622 0.032831 -0.008508 276610.000000 0 1 0
8.181641 -2.114916 -20.358051 22.042286 -0.252958 2.748140 0.029677 -0.007937 -354305.000000 0 1 0
8.999641 -2.511916 -21.435051 23.383000 -0.272186 2.730523 0.036292 -0.011762 1197300.000000 0 1 0
10.359741 -2.945816 -21.231451 23.807070 -0.277040 2.672133 0.030262 -0.010299 1932310.000000 0 1 0
11.378141 -2.050416 -20.431851 23.476091 -0.178293 2.626660 0.012360 -0.009710 -405595.000000 0 1 0
11.030441 -1.856816 -19.091651 22.127122 -0.166772 2.611612 0.015342 -0.013441 -434288.000000 0 1 0
12.065541 -1.356216 -18.302451 21.963522 -0.111934 2.555867 0.007465 -0.019274 -500353.000000 0 1 0
12.463341 0.153384 -18.407451 22.230444 0.012306 2.546379 0.005544 -0.014106 -596205.000000 0 1 0
13.055641 0.468084 -19.602851 23.557178 0.035838 2.553750 0.009077 -0.010642 -100163.000000 0 1 0
13.045941 1.883884 -19.689451 23.694305 0.143412 2.551660 0.019909 -0.017675 2777.300000 0 1 0
13.312441 2.475184 -21.111551 25.080773 0.183831 2.571299 0.002025 -0.007894 -607353.000000 0 0 1
14.669741 2.526584 -21.401751 26.069520 0.170558 2.533868 -0.000881 -0.002458 -724411.000000 0 0 1
14.810341 3.634284 -22.263951 26.985880 0.240634 2.541038 0.005719 -0.009728 204270.000000 0 0 1
16.272041 3.824384 -22.804151 28.274273 0.230838 2.509061 -0.003315 -0.010268 835783.000000 0 0 1
16.734341 2.813684 -23.717051 29.162536 0.166580 2.520548 -0.003574 -0.012785 146425.000000 0 0 1
17.100441 1.631284 -23.058851 28.754074 0.095106 2.501321 -0.009585 -0.008552 -1080220.000000 0 0 1
8.630023 26.944984 3.010845 28.453025 1.260837 1.464780 -0.008769 -0.007145 -104719.000000 0 0 1
8.871723 27.373484 4.348845 29.102019 1.257379 1.420800 -0.004550 -0.008113 651889.000000 0 0 1
10.194823 27.838084 4.638745 30.006854 1.219747 1.415584 0.003480 -0.014460 496761.000000 0 0 1
10.357823 28.431284 6.087445 30.865505 1.221430 1.372270 -0.003108 -0.010957 -126673.000000 0 0 1
10.363623 27.442184 7.078845 30.175953 1.209702 1.334004 -0.005439 -0.005419 179564.000000 0 0 1
10.323823 28.015784 8.346345 31.002047 1.217736 1.298214 0.003978 -0.001986 -670335.000000 0 0 1
10.473723 27.038184 9.514245 30.516931 1.201227 1.253742 0.010427 -0.001193 -449310.000000 0 0 1
11.732723 26.538984 9.824445 30.634852 1.154537 1.244333 -0.015376 0.000712 -537384.000000 0 0 1
12.404323 25.786584 8.857845 29.954575 1.122433 1.270598 -0.018318 0.000649 -267065.000000 0 0 1
13.729123 25.123084 9.341345 30.115094 1.070664 1.255405 -0.005726 0.002219 507324.000000 0 0 1
14.801823 26.049684 9.521745 31.437933 1.054076 1.263089 -0.005075 0.002119 -596178.000000 0 0 1
15.923423 25.308384 9.863945 31.485982 1.009200 1.252151 -0.010138 0.015555 -853877.000000 0 0 1
16.988223 26.256984 10.407345 32.959699 0.996534 1.249539 0.000936 0.010839 -1109140.000000 0 0 1
17.783923 26.975884 9.468245 33.669183 0.987944 1.285737 0.006955 0.004271 802431.000000 0 0 1
19.158723 27.049184 9.860445 34.582414 0.954527 1.281655 0.008474 -0.005971 546061.000000 0 0 1
19.501323 27.878684 11.131145 35.796997 0.960402 1.254602 0.012114 0.003236 -1082070.000000 0 0 1
19.411223 29.313684 11.111545 36.872131 0.985899 1.264685 0.018292 -0.006972 -80846.300000 0 0 1
18.093523 29.816284 11.244945 36.644715 1.025367 1.258900 0.002818 0.004322 17898.600000 0 0 1
18.011423 31.282484 11.490245 37.881801 1.048386 1.262623 0.006065 0.009527 -617749.000000 0 0 1
18.414823 32.144284 10.396545 38.476601 1.050557 1.297191 0.022685 -0.007135 731226.000000 0 0 1
17.570123 32.168584 9.176545 37.785394 1.070884 1.325484 0.018303 -0.013153 -337839.000000 0 0 1
16.263923 32.862084 9.348445 37.839465 1.111225 1.321156 0.016251 -0.006381 -1261340.000000 0 0 1
16.413423 34.263184 9.396845 39.136516 1.124057 1.328323 0.023306 -0.008101 343783.000000 0 0 1
15.173123 -34.155633 9.600645 38.587605 -1.152747 1.319354 0.019685 -0.002454 463792.000000 0 0 1
15.375523 -32.651833 9.878245 37.418292 -1.130704 1.303634 0.027001 0.002656 -61239.600000 0 0 1
15.882823 -31.971933 8.713645 36.747737 -1.109733 1.331395 0.023385 -0.001368 2598.560000 0 0 1
15.969123 -30.583733 8.891045 35.629037 -1.089591 1.318586 0.023824 -0.006958 19549.700000 0 0 1
16.557923 -29.913233 7.588445 35.022147 -1.065246 1.352388 0.028355 -0.009953 213930.000000 0 0 1
15.670823 -30.118233 6.513245 34.570291 -1.091033 1.381258 0.023474 0.000083 -7573.740000 0 0 1
16.262023 -29.760833 5.253245 34.318466 -1.070703 1.417119 0.021361 0.001106 145816.000000 0 0 1
15.519823 -30.190033 3.932145 34.172573 -1.095955 1.455474 0.022408 -0.005712 27223.100000 0 0 1
15.744823 -31.534333 3.453645 35.415269 -1.107716 1.473123 0.027525 -0.005504 -132815.000000 0 0 1
16.038523 -31.493333 2.110745 35.405077 -1.099762 1.511144 0.023944 -0.000044 -263873.000000 0 0 1
16.504023 -32.831333 1.561745 36.779318 -1.104998 1.528321 0.026516 0.001401 219074.000000 0 0 1
17.840723 -33.216433 1.864645 37.750493 -1.077907 1.521382 0.024477 0.011365 327011.000000 0 0 1
17.999223 -34.519133 1.385645 38.954622 -1.090154 1.535218 0.042444 0.006417 58146.900000 0 0 1
19.411923 34.045184 1.720045 39.228253 1.052591 1.526935 0.049477 0.002702 56736.100000 0 0 1
19.548723 33.746384 3.086745 39.121592 1.045749 1.491813 0.040760 -0.015556 28592.500000 0 0 1
20.834223 33.255384 3.406145 39.390192 1.011125 1.484216 0.033655 -0.003049 -172067.000000 0 0 1
21.132723 33.240384 4.909645 39.694076 1.004501 1.446792 0.033901 0.008542 -38027.100000 0 0 1
20.690723 32.008784 5.626545 38.526955 0.996951 1.424230 0.032683 -0.003210 614209.000000 0 0 1
21.611623 30.935084 5.494145 38.134332 0.961002 1.426220 0.017880 -0.010321 214694.000000 0 0 1
20.886323 29.751884 6.168645 36.870927 0.958718 1.402702 0.030127 -0.021400 236020.000000 0 0 1
19.604023 29.499584 5.642445 35.866145 0.984259 1.412821 0.031604 -0.017528 -527514.000000 0 0 1
18.815623 29.045884 6.739145 35.257724 0.995977 1.378473 0.034596 -0.025562 -205915.000000 0 0 1
17.312823 29.082184 6.378445 34.441135 1.033835 1.384523 0.040032 -0.020085 -518555.000000 0 0 1
16.701623 30.327084 6.183645 35.169783 1.067403 1.394055 0.027317 -0.026773 -472467.000000 0 0 1
17.075023 31.001984 4.994445 35.743865 1.067361 1.430609 0.048145 -0.027081 -735288.000000 0 0 1
17.130123 32.502884 5.113445 37.094823 1.085756 1.432508 0.043148 -0.019422 -60148.300000 0 0 1
15.872323 33.132984 5.196145 37.104247 1.124050 1.430293 0.026923 -0.016348 -430441.000000 0 0 1
15.925023 34.525984 5.305245 38.390045 1.138628 1.432159 0.027176 -0.016567 -389003.000000 0 0 1
14.584723 -33.806233 5.341545 37.203597 -1.163500 1.426722 0.019741 -0.015527 -376050.000000 0 0 1
13.847523 -33.901533 4.157445 36.855829 -1.183016 1.457753 0.019816 -0.011799 -758459.000000 0 0 1
12.751723 -33.041933 4.340545 35.682154 -1.202482 1.448850 0.016864 -0.006848 -474660.000000 0 0 1
11.933723 -33.017333 2.999345 35.235693 -1.223968 1.485571 0.024766 -0.003521 -230786.000000 0 0 1
10.895623 -32.082933 3.146245 34.028342 -1.243409 1.478205 0.029701 -0.005948 -352884.000000 0 0 1
10.414923 -31.877833 1.801445 33.584402 -1.255015 1.517131 0.029533 -0.000744 -507960.000000 0 0 1
9.435423 -30.663633 1.773245 32.131448 -1.272284 1.515581 0.039225 -0.002166 147441.000000 0 0 1
8.928423 -30.327533 0.474845 31.618056 -1.284485 1.555778 0.046680 0.004820 108057.000000 0 0 1
7.989223 -31.251133 -0.108855 32.256361 -1.320511 1.574171 0.037499 0.001174 -309076.000000 0 0 1
8.333223 -31.990133 -1.426755 33.088470 -1.315966 1.613929 0.043260 -0.000300 -504696.000000 0 0 1
9.476823 -32.777333 -1.241455 34.142421 -1.289344 1.607165 0.045661 -0.008502 -258132.000000 0 0 1
9.681323 -33.595133 -2.383655 35.043441 -1.290222 1.638869 0.050596 0.001972 -254732.000000 0 0 1
10.877323 34.538784 -2.258155 36.281441 1.265699 1.633077 0.040353 -0.006761 -249546.000000 0 0 1
10.737823 33.516084 -1.328755 35.219232 1.260750 1.608533 0.032964 -0.007049 -991687.000000 0 0 1
11.934023 32.876984 -1.172555 34.995597 1.222596 1.604308 0.039485 -0.004174 -1230110.000000 0 0 1
12.081823 32.041984 0.143745 34.244413 1.210219 1.566599 0.029412 -0.007064 -683904.000000 0 0 1
12.511723 32.660684 1.306845 34.999590 1.204959 1.533449 0.027362 -0.007119 743946.000000 0 0 1
13.844723 33.188084 1.460445 35.989695 1.175585 1.530206 0.035889 -0.007275 749007.000000 0 0 1
14.992923 32.158984 1.454745 35.512030 1.134542 1.529820 0.043446 -0.012939 -662822.000000 0 0 1
15.524823 31.804584 0.200045 35.391972 1.116688 1.565144 0.048932 -0.011839 25896.200000 0 0 1
16.426123 30.733684 0.135345 34.848173 1.079957 1.566912 0.055468 -0.010699 -21826.800000 0 0 1
17.042323 30.441284 -1.243955 34.909310 1.060428 1.606438 0.059415 -0.007889 316862.000000 0 0 1
18.045523 31.286684 -1.787755 36.162045 1.047626 1.620254 0.052151 -0.001618 184615.000000 0 0 1
17.568123 32.548284 -2.213555 37.053064 1.075852 1.630572 0.044152 0.001417 26614.500000 0 0 1
18.714823 33.428684 -2.753855 38.409702 1.060427 1.642555 0.033540 0.011401 261718.000000 0 0 1
19.560323 33.993984 -1.761455 39.259392 1.048657 1.615678 0.023899 0.008725 192704.000000 0 0 1
20.528223 -34.239533 -2.328555 39.989695 -1.030710 1.629058 0.009891 0.011140 -450683.000000 0 0 1
21.780423 -33.894033 -1.441555 40.314642 -0.999638 1.606562 0.001666 0.014108 314207.000000 0 0 1
22.737323 34.190284 -1.112355 41.075524 0.983933 1.597880 0.000437 0.015435 612362.000000 0 0 1
23.350123 33.488484 -2.157355 40.882282 0.961913 1.623591 0.001551 0.018944 -325922.000000 0 0 1
24.092423 34.318084 -3.281555 42.058820 0.958707 1.648899 -0.011940 0.019042 -1170390.000000 0 0 1
23.178423 -34.225633 -4.199655 41.548409 -0.975520 1.672048 -0.012490 0.007051 -314052.000000 0 0 1
23.796523 -33.531433 -5.225455 41.448002 -0.953605 1.697205 -0.013688 -0.000372 -709201.000000 0 0 1
22.934123 -33.155533 -6.434355 40.824800 -0.965654 1.729065 -0.006997 -0.011955 -518639.000000 0 0 1
21.928723 -32.237533 -6.096855 39.462628 -0.973467 1.725915 0.003987 -0.007853 -76529.100000 0 0 1
21.415423 -31.568233 -7.244455 38.828543 -0.974725 1.758472 0.013816 -0.011008 -171022.000000 0 0 1
20.382023 -30.474533 -6.943055 37.313939 -0.981303 1.757958 0.027924 -0.014009 -257057.000000 0 0 1
19.156423 -30.990933 -6.471255 37.003832 -1.017153 1.746581 0.032315 -0.007675 -435001.000000 0 0 1
18.457323 -29.824033 -6.062655 35.593559 -1.016614 1.741961 0.046891 -0.017439 159831.000000 0 0 1
17.199123 -30.005133 -5.167655 34.968879 -1.050311 1.719118 0.041654 -0.005357 384475.000000 0 0 1
16.183323 -30.758333 -5.822555 35.240277 -1.086453 1.736782 0.037375 -0.004287 -491954.000000 0 0 1
15.095223 -30.671133 -4.947455 34.540722 -1.113437 1.714526 0.022591 -0.001893 -120063.000000 0 0 1
13.816623 -31.486333 -5.256455 34.783883 -1.157284 1.722495 0.028164 0.001849 198351.000000 0 0 1
14.013423 -32.887733 -5.087455 36.109018 -1.167995 1.712158 0.031747 0.005694 172178.000000 0 0 1
12.987023 -33.621133 -5.734555 36.495595 -1.202177 1.728580 0.036441 0.008925 41264.800000 0 0 1
13.239023 33.979084 -5.631455 36.899365 1.199268 1.724012 0.030273 0.007719 -60950.500000 0 0 1
13.334823 33.392684 -4.312555 36.214458 1.190865 1.690163 0.037442 -0.003227 85861.100000 0 0 1
13.893923 32.054884 -4.266255 35.195988 1.161797 1.692309 0.042527 -0.004577 276130.000000 0 0 1
13.050523 30.824484 -4.788355 33.814099 1.170297 1.712882 0.035294 -0.008296 102386.000000 0 0 1
12.057023 30.284084 -3.968155 32.836622 1.191902 1.691938 0.033053 -0.010153 -102508.000000 0 0 1
12.612823 29.567884 -2.868555 32.273389 1.167595 1.659797 0.045153 -0.016153 -267010.000000 0 0 1
11.623923 28.757484 -1.998855 31.082211 1.186670 1.635149 0.037388 -0.014543 -211140.000000 0 0 1
10.786923 29.564484 -1.225255 31.494724 1.220944 1.609710 0.030444 -0.014749 -239216.000000 0 0 1
9.797523 28.753184 -0.592255 30.382360 1.242390 1.590291 0.017425 -0.013614 -28334.600000 0 0 1
8.561823 29.556584 -0.163755 30.772118 1.288838 1.576118 0.009902 -0.004738 -292401.000000 0 0 1
7.706223 28.791084 0.639245 29.811424 1.309267 1.549352 0.003093 -0.010830 -819517.000000 0 0 1
6.452723 29.398484 0.724445 30.107031 1.354731 1.546732 0.015203 -0.002431 -997703.000000 0 0 1
5.516423 28.671584 1.638745 29.243394 1.380719 1.514729 0.015949 -0.005444 -642723.000000 0 0 1
4.920323 27.564084 1.032745 28.018830 1.394152 1.533929 0.014804 -0.012554 -325425.000000 0 0 1
3.764123 27.172184 1.724745 27.485831 1.433144 1.508005 0.013018 -0.011768 -107299.000000 0 0 1
3.111623 25.996184 0.957645 26.199253 1.451668 1.534236 0.013449 -0.014571 -205722.000000 0 0 1
1.815123 25.701984 1.407345 25.804404 1.500291 1.516230 0.026313 -0.009412 -204602.000000 0 0 1
1.169323 24.899084 0.456845 24.930712 1.523868 1.552471 0.016496 -0.002208 597401.000000 0 1 0
-0.214877 24.266784 0.827145 24.281827 -1.561942 1.536725 0.026084 0.001633 531860.000000 0 1 0
-1.278277 25.177284 0.811645 25.222775 -1.520069 1.538612 0.034437 -0.005197 -482990.000000 0 0 1
-2.455277 24.501184 1.186245 24.652456 -1.470919 1.522659 0.026512 0.003613 -153015.000000 0 1 0
-3.748077 25.343184 1.306945 25.652157 -1.423968 1.519826 0.034639 -0.006036 -320602.000000 0 0 1
-4.791877 24.423684 1.527145 24.936130 -1.377059 1.509516 0.017909 -0.006563 797642.000000 0 1 0
-6.014477 24.864784 2.171045 25.673816 -1.333468 1.486133 0.011981 -0.003528 930892.000000 0 0 1
-7.067077 25.530284 1.307545 26.522606 -1.300747 1.521477 0.012115 0.000989 -874102.000000 0 0 1
-6.637577 26.760684 0.794945 27.583030 -1.327668 1.541972 0.018750 -0.008257 -124674.000000 0 0 1
-7.236077 26.971984 -0.446855 27.929347 -1.308687 1.586796 0.000736 -0.003975 -392920.000000 0 0 1
-6.677977 28.187284 -1.240855 28.994104 -1.338171 1.613606 -0.000675 -0.001812 14260.900000 0 0 1
-7.215277 29.426184 -0.875955 30.310523 -1.330341 1.599700 0.008587 -0.010958 -189517.000000 0 0 1
-7.045477 30.345384 -1.895155 31.210137 -1.342662 1.631556 -0.000940 -0.009341 -254688.000000 0 0 1
-7.283577 31.820984 -1.526855 32.679608 -1.345780 1.617535 -0.006920 -0.008956 -858429.000000 0 0 1
-7.371177 32.704484 -2.630655 33.627933 -1.349113 1.649105 -0.005135 -0.004785 284038.000000 0 0 1
-6.216077 32.864084 -3.463055 33.625591 -1.383860 1.673968 -0.003576 -0.004752 199983.000000 0 0 1
-5.015977 33.544884 -2.793855 34.032703 -1.422366 1.652982 0.002764 -0.007951 -758759.000000 0 0 1
-5.164077 -34.173033 -2.586755 34.657686 1.420816 1.645503 0.000660 -0.001837 234266.000000 0 0 1
-4.277577 -33.814733 -1.515255 34.117881 1.444964 1.615223 0.008679 -0.000197 331160.000000 0 0 1
-4.157877 -32.311633 -1.352755 32.606127 1.442819 1.612296 0.014436 0.002506 529344.000000 0 0 1
-5.412277 -31.761433 -0.957955 32.233508 1.402013 1.600520 0.004303 0.004354 83893.200000 0 0 1
-5.520877 -30.484233 -1.542255 31.018496 1.391632 1.620537 0.009668 0.008549 -355152.000000 0 0 1
-6.783277 -29.699433 -1.202655 30.487957 1.346250 1.610253 0.018314 0.001265 -258051.000000 0 0 1
-6.940577 -29.375633 0.183245 30.184980 1.338781 1.564726 0.007428 0.002559 -1292950.000000 0 0 1
-8.150477 -28.751933 0.247945 29.885873 1.294567 1.562500 0.002187 0.006933 -1146440.000000 0 0 1
-8.288877 -28.036833 1.627245 29.281691 1.283342 1.515196 0.012001 0.004970 204974.000000 0 0 1
-7.518977 -26.854533 1.496945 27.927438 1.297798 1.517169 0.011024 0.006020 -84209.100000 0 0 1
-7.108277 -26.144733 2.683345 27.226366 1.305331 1.472079 0.017234 0.005805 224874.000000 0 0 1
-8.181477 -25.189433 3.279545 26.687066 1.256747 1.447596 0.012297 0.006736 290630.000000 0 0 1
-8.348277 -24.027633 2.507145 25.559864 1.236400 1.472549 0.018961 -0.004489 -984794.000000 0 0 1
-9.193377 -23.126433 3.133145 25.083195 1.192424 1.445559 0.020665 -0.008453 -745167.000000 0 0 1
-8.628777 -21.792933 3.625445 23.717748 1.193792 1.417337 0.023532 0.002279 147024.000000 0 1 0
-7.792477 -22.078033 4.751145 23.890074 1.231494 1.370586 0.015297 0.006816 -44370.400000 0 1 0
-6.919477 -21.035033 5.145445 22.733838 1.252996 1.342484 0.006127 0.009888 -223088.000000 0 1 0
-7.572177 -19.753533 5.670545 21.901941 1.204740 1.308907 0.006354 -0.003328 35259.800000 0 1 0
-8.340277 -19.989633 6.856945 22.719228 1.175525 1.264203 0.010869 -0.002124 245676.000000 0 1 0
-9.103977 -18.846833 7.171445 22.124989 1.120800 1.240701 0.005233 -0.011151 -454853.000000 0 1 0
-26.804067 29.968984 -6.042555 40.658461 -0.841087 1.719966 0.035030 0.006712 122385.000000 0 0 1
-25.928037 30.508084 -5.050555 40.354856 -0.866375 1.696279 0.029273 -0.001831 153122.000000 0 0 1
-25.113947 29.531484 -4.435055 39.019080 -0.866063 1.684706 0.017378 -0.006458 542099.000000 0 0 1
-24.151477 30.143684 -3.338155 38.769560 -0.895317 1.657006 0.011867 -0.012526 158709.000000 0 0 1
-24.880677 30.785684 -2.293855 39.649315 -0.891081 1.628682 0.013927 -0.011844 276143.000000 0 0 1
-24.134077 31.671484 -1.476455 39.846160 -0.919651 1.607859 0.013873 -0.013697 245660.000000 0 0 1
-23.002677 31.167284 -0.513055 38.739979 -0.934994 1.584040 0.009010 -0.011663 66986.300000 0 0 1
-21.943077 30.705584 -1.277855 37.761944 -0.950320 1.604643 0.021536 -0.018229 -1440850.000000 0 0 1
-20.718077 30.838384 -0.643955 37.157224 -0.979229 1.588128 0.023438 -0.014611 -820287.000000 0 0 1
-19.626977 30.015184 -1.353755 35.888190 -0.991683 1.608527 0.021653 -0.015751 -983069.000000 0 0 1
-18.375877 30.247284 -0.817255 35.401115 -1.024865 1.593884 0.027891 -0.010178 -703530.000000 0 0 1
-17.369077 29.525084 -1.537255 34.289628 -1.039038 1.615643 0.025042 -0.010328 321653.000000 0 0 1
-15.953077 29.854184 -1.025055 33.864786 -1.080035 1.601070 0.022895 -0.006935 -130415.000000 0 0 1
-15.781777 29.391184 0.290645 33.361515 -1.078023 1.562084 0.023566 -0.017519 243384.000000 0 0 1
-14.492677 29.816884 0.727445 33.160420 -1.118366 1.548857 0.024895 -0.021837 611865.000000 0 0 1
-13.971077 29.153484 2.073845 32.394713 -1.123906 1.506735 0.029027 -0.019291 -207251.000000 0 0 1
-14.692377 29.491684 3.203445 33.104190 -1.108600 1.473876 0.016414 -0.010747 -365990.000000 0 0 1
-14.258777 28.792684 4.419745 32.432476 -1.110978 1.434096 0.016288 -0.013230 923554.000000 0 0 1
-13.028277 29.396984 5.204245 32.573038 -1.153625 1.410337 0.024869 -0.008226 449563.000000 0 0 1
-13.226977 30.596784 5.897145 33.851033 -1.162759 1.395694 0.017820 -0.015453 -392972.000000 0 0 1
-13.256577 31.779984 5.061945 34.804130 -1.175605 1.424838 0.023690 -0.017409 -64746.000000 0 0 1
-12.970177 33.029084 5.895545 35.970868 -1.196608 1.406156 0.024520 -0.013320 291709.000000 0 0 1
-14.058677 33.391284 6.748145 36.853245 -1.172294 1.386649 0.022024 -0.009539 348992.000000 0 0 1
-13.721377 34.502684 7.537245 37.888276 -1.192283 1.370527 0.035840 -0.016017 151479.000000 0 0 1
-14.854577 -34.120833 8.476045 38.167172 1.160190 1.346852 0.026101 -0.012126 63333.600000 0 0 1
-14.908277 34.117984 9.609445 38.453023 -1.158837 1.318218 0.006125 -0.007129 533924.000000 0 0 1
-16.060077 34.439484 10.400745 39.397711 -1.134448 1.303636 0.022661 -0.009334 4467.860000 0 0 1
-16.132477 33.578784 11.691145 39.044518 -1.122922 1.266700 0.026230 -0.003925 897768.000000 0 0 1
-15.228177 34.072384 12.729645 39.431822 -1.150493 1.242082 0.024791 -0.010019 665722.000000 0 0 1
-13.877177 33.680284 12.562445 38.532487 -1.179965 1.238704 0.024146 -0.001628 12052.700000 0 0 1
-13.046977 33.871184 13.909945 38.871162 -1.203119 1.204835 0.045199 -0.005938 -56039.600000 0 0 1
-13.384677 33.020684 15.003045 38.660141 -1.185693 1.172254 0.033992 -0.002845 136649.000000 0 0 1
-12.810677 31.707384 15.069645 37.370655 -1.186822 1.155733 0.008191 0.001713 -342392.000000 0 0 1
-13.557677 30.536684 14.353345 36.363693 -1.152960 1.165037 0.005391 -0.005065 15616.400000 0 0 1
-13.607877 30.548484 12.949245 35.861778 -1.151731 1.201362 0.002132 0.000647 -208660.000000 0 0 1
-14.726577 29.849584 12.520445 35.561655 -1.112475 1.211007 -0.006897 0.000019 -417410.000000 0 0 1
-14.827777 29.909184 11.001245 35.148964 -1.110546 1.252458 -0.004266 0.006886 -54536.200000 0 0 1
-14.071977 28.902184 10.346445 33.769893 -1.117697 1.259408 -0.010547 0.008398 127325.000000 0 0 1
-14.486877 28.622084 9.032945 33.326977 -1.102246 1.296323 -0.001728 0.009325 -583490.000000 0 0 1
-13.858077 27.307484 8.526345 31.787474 -1.101180 1.299241 0.000538 0.006911 314126.000000 0 0 1
-12.519777 27.598884 8.144445 31.381128 -1.144925 1.308258 0.011807 0.006484 329844.000000 0 0 1
-11.752377 26.402584 7.996745 29.986042 -1.152006 1.300847 0.018105 0.003781 356367.000000 0 0 1
-10.555077 26.602984 7.024645 29.469884 -1.193084 1.330112 0.028123 -0.000388 136963.000000 0 0 1
-10.966977 26.898084 5.728645 29.607412 -1.183650 1.376081 0.033356 -0.010911 -228538.000000 0 0 1
-9.930477 26.645084 4.826745 28.842197 -1.214048 1.402655 0.045230 -0.005712 -278265.000000 0 0 1
-10.136377 27.076084 3.360145 29.105859 -1.212581 1.455093 0.029169 -0.010773 -18812.700000 0 0 1
-9.850177 28.480584 3.187745 30.303983 -1.237818 1.465409 0.035144 -0.008430 44524.200000 0 0 1
-9.962577 28.869884 1.816445 30.594487 -1.238506 1.511390 0.024752 -0.010627 121785.000000 0 0 1
-9.500277 30.291584 1.526345 31.783094 -1.266884 1.522754 0.032810 -0.023684 383167.000000 0 0 1
-10.486877 31.235084 1.918645 33.004337 -1.246881 1.512630 0.032953 -0.024494 225608.000000 0 0 1
-9.972877 32.561684 1.808745 34.102684 -1.273591 1.517733 0.026575 -0.018669 -217970.000000 0 0 1
-10.701077 33.533584 2.745145 35.306517 -1.261896 1.492966 0.022219 -0.013343 744254.000000 0 0 1
-12.045877 33.930884 2.444345 36.088542 -1.229663 1.503013 0.039811 -0.013616 323555.000000 0 0 1
-12.139277 -34.260833 1.366545 36.373537 1.230279 1.533218 0.031245 -0.007904 144019.000000 0 0 1
-13.563077 -34.087833 0.760845 36.694908 1.192114 1.550060 0.032068 -0.010003 471058.000000 0 0 1
-14.176377 33.885184 0.149945 36.731428 -1.174559 1.566714 0.030613 -0.008022 -216468.000000 0 0 1
-14.271777 33.989384 -1.289755 36.886655 -1.173262 1.605769 0.034391 -0.005560 264132.000000 0 0 1
-12.988577 33.888584 -2.181455 36.357915 -1.204792 1.630832 0.033185 -0.006560 211824.000000 0 0 1
-12.669477 32.476284 -2.282955 34.934747 -1.198841 1.636192 0.030052 -0.007033 26124.700000 0 0 1
-11.289677 32.127984 -2.293555 34.130991 -1.232877 1.638046 0.008269 0.000800 400238.000000 0 0 1
-11.121777 30.594284 -2.371055 32.639333 -1.222124 1.643504 -0.001632 0.001028 137785.000000 0 0 1
-11.461577 30.026584 -3.661655 32.347661 -1.206152 1.684236 -0.002668 0.005225 535382.000000 0 0 1
-10.363177 30.146084 -4.615655 32.210031 -1.239687 1.714590 -0.011190 0.008700 931863.000000 0 0 1
-10.652377 29.452784 -5.946455 31.879460 -1.223757 1.758425 -0.008598 0.008520 -190577.000000 0 0 1
-10.641177 28.022384 -5.806655 30.532047 -1.207878 1.762144 -0.010456 0.014421 51133.600000 0 0 1
-10.581477 27.415084 -7.087355 30.228878 -1.202441 1.807456 -0.014360 0.013924 -548958.000000 0 0 1
-11.099977 25.952584 -7.007355 29.083485 -1.166639 1.814130 -0.004325 0.010963 -180676.000000 0 0 1
-10.280477 24.982784 -6.397455 27.762477 -1.180414 1.803321 -0.012802 0.013161 2896.120000 0 0 1
-10.842977 23.686084 -6.601555 26.873430 -1.141493 1.818990 0.014993 0.007021 -21479.700000 0 0 1
-10.205277 22.614384 -5.699555 25.456688 -1.146884 1.796603 0.008523 0.008729 334296.000000 0 0 1
-8.826077 22.363784 -5.987455 24.776765 -1.194902 1.814868 0.010292 0.006181 501792.000000 0 1 0
-8.288977 21.160084 -5.434555 23.366443 -1.197442 1.805525 0.013331 0.009731 -21778.800000 0 1 0
-8.006677 20.996384 -3.885655 22.804678 -1.206482 1.742020 0.002104 -0.001527 317291.000000 0 1 0
-9.230377 20.994584 -3.150255 23.149439 -1.156578 1.707303 0.003755 -0.002040 335024.000000 0 1 0
-9.838777 19.720784 -3.127455 22.259646 -1.108026 1.711762 0.011457 -0.004449 520444.000000 0 1 0
-11.173377 19.738284 -2.267955 22.794469 -1.055694 1.670457 0.024566 -0.004203 754274.000000 0 1 0
-11.146777 19.621684 -0.806755 22.581231 -1.054175 1.606531 0.027822 -0.009934 9231.160000 0 1 0
-11.066577 18.330484 -0.274555 21.413807 -1.027642 1.583618 0.039107 -0.010748 -209435.000000 0 1 0
-10.943977 18.281884 1.258745 21.344375 -1.031389 1.511789 0.034403 -0.012490 327149.000000 0 1 0
-12.154477 18.551184 1.963845 22.265094 -0.990784 1.482479 0.049990 -0.007817 468559.000000 0 1 0
-11.882977 18.564084 3.369045 22.297552 -1.001408 1.419121 0.049457 -0.008734 246314.000000 0 1 0
-13.165577 18.449984 4.234445 23.057859 -0.951013 1.386104 0.039695 -0.014061 233910.000000 0 1 0
-13.591877 17.113984 4.441345 22.301415 -0.899604 1.370305 0.028651 -0.014572 -395898.000000 0 1 0
-14.623177 17.140284 5.359745 23.159307 -0.864478 1.337250 0.020317 -0.013530 -717611.000000 0 1 0
-15.234277 15.800884 5.754345 22.690606 -0.803653 1.314396 0.010589 -0.013351 -690102.000000 0 1 0
-14.683177 15.121684 6.888145 22.174480 -0.800110 1.254936 0.026975 -0.015471 124196.000000 0 1 0
-15.056777 15.801284 8.128445 23.290743 -0.809520 1.214294 0.016651 -0.011989 -962833.000000 0 1 0
-13.948277 15.924484 9.174245 23.071853 -0.851456 1.161855 0.006580 -0.001486 982707.000000 0 1 0
-12.804077 16.745384 8.810945 22.846992 -0.917996 1.174884 0.013347 -0.014796 686728.000000 0 1 0
-11.853177 16.130584 7.981145 21.549761 -0.937077 1.191401 0.013946 -0.009845 -682435.000000 0 1 0
-10.687677 17.093984 7.668845 21.569467 -1.012031 1.207303 0.030759 -0.020406 -252704.000000 0 1 0
-9.673577 17.150284 8.612645 21.491579 -1.057232 1.158466 0.037063 -0.017358 -384487.000000 0 1 0
-8.971177 18.372384 8.530845 22.154048 -1.116555 1.175513 0.033366 -0.021804 380087.000000 0 1 0
-7.699277 18.476584 9.426145 22.124991 -1.175973 1.130685 0.027248 -0.014725 -408929.000000 0 1 0
-6.613177 17.672984 9.075445 20.938772 -1.212730 1.122503 0.017558 -0.009585 -424322.000000 0 1 0
-5.452477 18.000384 9.815045 21.215052 -1.276673 1.089820 0.009114 -0.004342 613916.000000 0 1 0
-4.554577 19.090384 9.109045 21.637043 -1.336595 1.136256 0.003315 -0.005017 -1037460.000000 0 1 0
-4.862477 20.425084 9.390145 23.000056 -1.337083 1.150242 0.005304 -0.007588 -41746.700000 0 1 0
-4.274677 21.420284 8.558345 23.459469 -1.373822 1.197363 0.010067 -0.006952 -1493290.000000 0 1 0
-2.851077 21.745684 8.801645 23.632020 -1.440430 1.189153 0.016959 -0.007718 -1757870.000000 0 1 0
-1.922477 20.858584 8.242845 22.510463 -1.478889 1.195897 0.010995 -0.001421 550865.000000 0 1 0
-0.656277 21.574684 8.066745 23.042787 -1.540387 1.213143 0.013656 -0.001901 1067530.000000 0 1 0
0.525223 20.602784 8.153745 22.163802 1.545309 1.194062 0.015817 0.004393 -230992.000000 0 1 0
1.157123 20.510084 9.417745 22.598593 1.514439 1.140940 0.015281 0.014495 70037.400000 0 1 0
2.026523 19.346484 9.344145 21.580229 1.466428 1.122983 0.005902 -0.013161 720665.000000 0 1 0
2.802723 19.152684 10.703045 22.118674 1.425492 1.065700 0.004784 -0.018448 -31341.500000 0 1 0
3.537023 17.938784 10.915445 21.294540 1.376122 1.032594 0.010590 -0.021930 397878.000000 0 1 0
4.450723 17.902284 11.992245 22.002605 1.327124 0.994362 0.009567 -0.018271 1099020.000000 0 1 0
5.878623 18.563584 11.699045 22.716349 1.264112 1.029782 0.019215 -0.016036 1270210.000000 0 1 0
6.850123 17.709784 11.087645 21.988554 1.201722 1.042287 0.019224 -0.013831 190954.000000 0 1 0
7.504523 16.879084 12.037345 22.048106 1.152438 0.993264 0.015840 -0.007762 -947600.000000 0 1 0
8.749323 16.285684 11.366845 21.702058 1.077802 1.019528 0.024421 -0.009292 -880024.000000 0 1 0
9.734923 17.208584 11.098545 22.673371 1.055978 1.059284 0.025614 -0.015173 -940981.000000 0 1 0
10.787323 16.621584 10.407145 22.381958 0.995128 1.087185 0.026050 -0.016044 293602.000000 0 1 0
11.903523 17.560484 9.834445 23.383343 0.975086 1.136718 0.030797 -0.008836 941515.000000 0 1 0
12.946423 16.986584 9.046945 23.194851 0.919561 1.170120 0.030891 -0.006119 340257.000000 0 1 0
13.718723 17.974684 8.393945 24.119513 0.918885 1.215344 0.031422 -0.003837 -183441.000000 0 1 0
14.722823 17.372284 7.405345 23.945707 0.867762 1.256386 0.035531 -0.012035 -987862.000000 0 1 0
15.741923 16.740984 8.079345 24.358663 0.816145 1.232710 0.046135 -0.012489 -1013590.000000 0 1 0
16.735223 16.333784 7.189045 24.465129 0.773259 1.272546 0.056446 -0.008992 -458185.000000 0 1 0
18.140523 16.325684 7.822045 25.627932 0.732791 1.260631 0.040795 -0.005392 -323406.000000 0 0 1
18.441423 15.173484 8.592145 25.380024 0.688486 1.225432 0.042031 -0.002668 541827.000000 0 0 1
19.506523 15.479084 9.492145 26.649714 0.670786 1.206618 0.039060 -0.005410 -72559.500000 0 0 1
19.816223 14.327084 10.460345 26.596369 0.625995 1.166578 0.026575 -0.006689 123529.000000 0 0 1
20.550323 13.261484 9.833845 26.360714 0.573076 1.188503 0.024770 -0.005102 605331.000000 0 0 1
20.700323 12.187184 10.738145 26.312327 0.532102 1.150421 0.029688 -0.009255 -322661.000000 0 0 1
21.376523 10.888484 10.228845 26.079572 0.471113 1.167756 0.017178 -0.001559 -1209880.000000 0 0 1
22.756923 11.105084 10.285845 27.331283 0.453991 1.184954 0.001295 -0.002919 465418.000000 0 0 1
23.518223 10.140884 9.462945 27.303693 0.407104 1.216872 0.016983 -0.005310 388101.000000 0 0 1
23.650723 8.771384 10.096445 27.170426 0.355146 1.190068 0.026014 -0.015492 -874445.000000 0 0 1
22.443923 8.046084 10.056745 25.876770 0.344225 1.171641 0.017332 -0.011934 205963.000000 0 0 1
22.509323 6.664684 10.485645 25.710627 0.287862 1.150717 0.025679 -0.017583 -5796.400000 0 0 1
23.381523 5.577984 9.718145 25.927820 0.234187 1.186599 0.035378 -0.025739 386204.000000 0 0 1
23.003923 5.459684 8.400545 25.090990 0.233026 1.229400 0.029002 -0.027057 421176.000000 0 0 1
24.130823 5.189384 7.569445 25.817103 0.211826 1.273229 0.038307 -0.027142 34535.700000 0 0 1
23.810323 5.040684 6.077545 25.085384 0.208621 1.326087 0.040407 -0.029345 -196042.000000 0 0 1
23.019323 3.896284 5.797245 24.055733 0.167672 1.327408 0.040865 -0.028828 545849.000000 0 1 0
22.892223 3.683684 4.410945 23.602538 0.159547 1.382807 0.045950 -0.024700 -360977.000000 0 1 0
22.122823 2.399384 4.095645 22.626326 0.108035 1.388781 0.057309 -0.017554 -480827.000000 0 1 0
22.727923 1.212884 4.562645 23.213084 0.053315 1.372953 0.060926 -0.020996 566604.000000 0 1 0
21.996223 0.104984 4.071245 22.370066 0.004773 1.387781 0.051480 -0.020325 -134718.000000 0 1 0
22.675323 -1.205916 4.398745 23.129493 -0.053132 1.379452 0.056865 -0.017354 -652384.000000 0 1 0
22.549923 -1.577216 5.789745 23.334690 -0.069830 1.320060 0.063446 -0.021572 600876.000000 0 1 0
22.534823 -2.976116 5.986145 23.505519 -0.131308 1.313290 0.045708 -0.020075 -524454.000000 0 1 0
22.111623 -3.311316 7.433045 23.561384 -0.148650 1.249838 0.048440 -0.019782 -122578.000000 0 1 0
22.056323 -4.712816 7.590745 23.797298 -0.210506 1.246148 0.039290 -0.023878 530580.000000 0 1 0
22.007223 -5.088116 8.976145 24.305924 -0.227210 1.192542 0.054333 -0.019702 -48039.900000 0 1 0
21.911623 -6.632416 9.156545 24.656652 -0.293922 1.190321 0.062832 -0.023773 266115.000000 0 1 0
20.607723 -7.076916 8.829845 23.510150 -0.330793 1.185778 0.053469 -0.023072 427293.000000 0 1 0
20.430523 -8.424316 9.293745 23.973924 -0.391099 1.172704 0.059347 -0.023153 -150676.000000 0 1 0
-25.511327 -33.164733 5.083145 42.149326 0.915101 1.449904 0.005187 0.004850 16725.700000 0 0 1
-26.052377 -34.260533 5.818145 43.432261 0.920660 1.436433 -0.000781 0.010368 167564.000000 0 0 1
-26.250917 -34.040433 7.202045 43.585906 0.913884 1.404797 -0.006399 0.013914 -184315.000000 0 0 1
-26.993637 33.813884 7.802745 43.964964 -0.897093 1.392375 0.008359 0.009331 184270.000000 0 0 1
-28.377727 33.752684 7.531345 44.735447 -0.871694 1.401638 0.010461 0.002501 -423981.000000 0 0 1
-28.895757 32.506984 7.789045 44.185269 -0.844143 1.393589 0.016974 -0.001477 -813311.000000 0 0 1
-30.413577 32.516584 7.788445 45.199267 -0.818804 1.397618 0.018659 -0.003883 -638145.000000 0 0 1
-31.050077 32.618684 6.548345 45.507875 -0.810030 1.426400 -0.000622 0.002494 -607178.000000 0 0 1
-32.433547 32.593784 6.711345 46.468612 -0.787862 1.425862 0.001407 0.007539 -11288.000000 0 0 1
-33.330007 32.660084 5.409245 46.976913 -0.775247 1.455393 0.007314 0.004528 280845.000000 0 0 1
-33.084327 31.541484 4.614645 45.942713 -0.761529 1.470183 0.009507 -0.000202 114503.000000 0 0 1
-33.873527 31.481384 3.465145 46.373490 -0.748812 1.496004 0.018489 0.001954 -256337.000000 0 0 1
-33.549697 30.296384 2.589545 45.278679 -0.734487 1.513574 0.012606 0.000762 -124411.000000 0 0 1
-33.790837 29.186684 3.351245 44.776266 -0.712420 1.495882 0.017116 -0.002087 164336.000000 0 0 1
-33.342807 28.024184 2.685345 43.638386 -0.698945 1.509221 0.010036 -0.005501 -460726.000000 0 0 1
-33.682357 26.718284 3.321645 43.120775 -0.670607 1.493689 0.027513 -0.006644 327495.000000 0 0 1
-35.098182 26.548284 3.413445 44.140065 -0.647585 1.493387 0.021605 -0.000962 357413.000000 0 0 1
35.314917 25.407584 4.174345 43.704849 0.623666 1.475138 0.026915 -0.005042 -165370.000000 0 0 1
33.878981 24.935284 3.922345 42.248532 0.634488 1.477823 0.024495 -0.001087 -581444.000000 0 0 1
33.678811 24.107784 2.804845 41.512825 0.621261 1.503179 0.003134 -0.000315 153892.000000 0 0 1
33.993071 22.740284 2.916145 41.001869 0.589594 1.499614 -0.000971 0.000386 -1092060.000000 0 0 1
33.292281 21.984384 1.784345 39.935861 0.583613 1.526101 -0.000888 -0.003319 -473317.000000 0 0 1
31.935201 21.689084 1.942545 38.652903 0.596601 1.520519 -0.000964 -0.001612 -69920.400000 0 0 1
31.673931 20.771384 3.011645 37.996819 0.580433 1.491453 -0.012351 0.001377 -1026820.000000 0 0 1
32.121351 19.313884 2.915245 37.593961 0.541359 1.493173 -0.007477 -0.000464 -519975.000000 0 0 1
31.426751 18.537184 1.940145 36.538090 0.532926 1.517672 -0.007304 -0.008144 517383.000000 0 0 1
31.753021 17.130484 1.918345 36.130151 0.494739 1.517676 -0.005347 -0.009343 -232058.000000 0 0 1
31.173591 16.273284 3.124045 35.303997 0.481109 1.482191 -0.000247 -0.005160 1484750.000000 0 0 1
29.721441 16.171184 3.044645 33.972652 0.498296 1.481055 0.002419 0.000483 1661810.000000 0 0 1
29.220381 15.300384 4.065645 33.233445 0.482365 1.448153 0.024821 -0.001942 -1098080.000000 0 0 1
27.716121 15.250784 4.055445 31.893830 0.503035 1.443297 0.016219 -0.003204 -1267990.000000 0 0 1
27.145531 14.682384 2.897045 30.997501 0.495812 1.477199 0.023924 -0.009853 9595.430000 0 0 1
25.856631 15.240684 2.744645 30.139291 0.532611 1.479605 0.010096 -0.001995 -268040.000000 0 0 1
25.061141 14.599184 1.560545 29.045348 0.527484 1.517043 0.026860 -0.014068 -354449.000000 0 0 1
25.488941 14.881084 0.218745 29.515769 0.528441 1.563385 0.036235 -0.014882 726217.000000 0 0 1
26.788701 14.431784 -0.181955 30.429328 0.494147 1.576776 0.042272 -0.007587 -34558.500000 0 0 1
27.271701 15.205384 -1.440655 31.257397 0.508623 1.616903 0.048669 -0.011021 -33005.200000 0 0 1
27.574301 16.612084 -1.329155 32.219094 0.542218 1.612062 0.026280 -0.020185 159485.000000 0 0 1
28.575201 16.931684 -0.411055 33.217360 0.534909 1.583171 0.024642 -0.018378 -754659.000000 0 0 1
29.191491 18.341284 -0.519955 34.479214 0.560975 1.585877 0.026719 -0.013519 -227258.000000 0 0 1
30.165351 18.402384 -1.536555 35.368872 0.547777 1.614254 0.013865 -0.005928 147339.000000 0 0 1
30.969621 19.550384 -1.501455 36.655003 0.563100 1.611770 0.004230 0.003518 -17688.300000 0 0 1
30.537471 20.452484 -2.648455 36.849091 0.590134 1.642731 -0.006646 0.000258 -168977.000000 0 0 1
31.177231 21.685084 -2.515855 38.060374 0.607728 1.636946 -0.037332 0.010454 100703.000000 0 0 1
30.673371 22.618184 -3.484555 38.269832 0.635381 1.661975 -0.008557 0.007007 -247442.000000 0 0 1
31.595301 23.813884 -3.746055 39.741628 0.645875 1.665197 -0.021992 0.018203 -534231.000000 0 0 1
31.762441 24.737984 -2.630655 40.345270 0.661707 1.636046 -0.014168 0.021525 434816.000000 0 0 1
32.610221 24.377084 -1.521455 40.742895 0.641918 1.608148 -0.008605 0.023811 -30353.800000 0 0 1
32.540291 25.201984 -0.239755 41.159057 0.658989 1.576621 -0.019558 0.010386 -19896.900000 0 0 1
32.879401 26.596884 -0.343655 42.291457 0.680158 1.578922 -0.006439 0.015163 360983.000000 0 0 1
33.952521 26.963984 0.534045 43.360296 0.671174 1.558480 0.006069 0.009757 465826.000000 0 0 1
34.663447 28.296084 0.181945 44.746575 0.684607 1.566730 0.004839 0.002334 -173438.000000 0 0 1
-35.310686 28.202884 -1.026455 45.202885 -0.673952 1.593506 -0.007077 0.005871 -22784.400000 0 0 1
34.636621 28.448584 -2.203755 44.876207 0.687621 1.619924 -0.018658 0.009102 -266968.000000 0 0 1
35.044570 27.612384 -3.452255 44.749119 0.667333 1.648020 -0.016378 0.012064 1086190.000000 0 0 1
-34.552589 28.203684 -4.210755 44.800220 -0.684574 1.664925 -0.014246 0.011096 1007210.000000 0 0 1
-34.246285 27.506484 -5.422755 44.258570 -0.676687 1.693629 -0.007782 0.007274 -650825.000000 0 0 1
-35.121518 27.604984 -6.639755 45.162401 -0.666137 1.718351 -0.007659 0.012276 -190238.000000 0 0 1
34.296211 27.066284 -6.396455 44.155729 0.668116 1.716169 -0.012323 0.015534 211382.000000 0 0 1
33.401721 27.225884 -7.504455 43.740605 0.683883 1.743217 -0.015999 0.017222 324326.000000 0 0 1
32.125941 26.385384 -7.297055 42.207956 0.687601 1.744553 -0.016262 0.021468 -374206.000000 0 0 1
32.046691 25.039784 -7.666155 41.385397 0.663267 1.757111 -0.013442 0.017738 -189090.000000 0 0 1
33.038521 24.199984 -7.058955 41.557333 0.632192 1.741485 -0.013061 0.016604 84587.300000 0 0 1
33.018861 22.701184 -7.287655 40.727126 0.602302 1.750704 -0.013282 0.014252 -334303.000000 0 0 1
32.106991 21.917784 -6.566555 39.425471 0.598985 1.738132 -0.017583 0.015182 -142729.000000 0 0 1
32.336621 20.516884 -6.667355 38.872267 0.565386 1.743168 0.006472 0.003763 -83099.300000 0 0 1
31.190321 19.702584 -6.046055 37.384257 0.563395 1.733237 0.009602 0.002852 374425.000000 0 0 1
29.965081 19.749984 -6.760155 36.519414 0.582746 1.756981 0.006044 -0.000979 402527.000000 0 0 1
28.961371 18.953684 -6.156355 35.155424 0.579495 1.746822 0.022666 -0.008076 434336.000000 0 0 1
27.650031 18.674084 -6.919855 34.075358 0.594006 1.775294 0.012847 -0.007708 179040.000000 0 0 1
27.862681 17.770084 -7.964955 33.993313 0.567732 1.807305 0.019745 -0.006637 1738940.000000 0 0 1
26.604761 17.561584 -8.708755 33.046406 0.583437 1.837477 0.026022 -0.000297 1503780.000000 0 0 1
26.869211 16.651384 -9.959255 33.142266 0.554793 1.876013 0.017011 0.002683 -234637.000000 0 0 1
25.961561 16.761184 -11.040355 32.815078 0.573287 1.913932 0.035578 0.001593 111154.000000 0 0 1
26.151651 15.720084 -11.988655 32.783498 0.541237 1.945172 0.032466 -0.000102 -192810.000000 0 0 1
25.486741 16.020384 -13.349155 32.930633 0.561168 1.988182 0.041965 0.010072 101859.000000 0 0 1
24.083841 16.234284 -13.237255 31.918776 0.593113 1.998428 0.027552 0.008852 819305.000000 0 0 1
23.257441 16.156384 -14.411755 31.774769 0.607144 2.041552 0.033050 0.003645 162566.000000 0 0 1
23.020041 14.731884 -14.960655 31.157212 0.569284 2.071641 0.036432 0.000711 -48031.600000 0 0 1
24.159841 14.031184 -15.499255 31.949944 0.526156 2.077286 0.036935 0.001412 1036410.000000 0 0 1
24.753641 14.553084 -16.698655 33.217165 0.531487 2.097529 0.035183 -0.002811 -312224.000000 0 0 1
26.138411 13.991384 -17.039055 34.195098 0.491472 2.092421 0.043506 0.003668 4952.660000 0 0 1
25.987711 12.651184 -17.463055 33.769392 0.453043 2.114287 0.038579 -0.004021 647339.000000 0 0 1
27.296741 12.113984 -17.641855 34.685670 0.417677 2.104379 0.038827 -0.002887 590534.000000 0 0 1
27.325941 10.628584 -18.120455 34.467734 0.370949 2.124360 0.028244 0.002128 -92809.800000 0 0 1
26.650131 10.492384 -19.351555 34.565912 0.375071 2.164995 0.020169 -0.004920 111000.000000 0 0 1
26.896081 9.261684 -20.013555 34.781034 0.331633 2.183909 0.006628 -0.003305 637958.000000 0 0 1
28.272111 9.164984 -20.796755 36.274153 0.313481 2.181350 0.004225 0.002112 22589.500000 0 0 1
28.298431 9.901584 -21.979255 37.174322 0.336585 2.203402 0.012795 -0.002225 606629.000000 0 0 1
29.219021 9.396484 -22.949655 38.324036 0.311143 2.212838 -0.004010 0.004674 530911.000000 0 0 1
30.710671 9.101084 -22.676755 39.245512 0.288104 2.186849 0.000189 0.003705 -650783.000000 0 0 1
31.636651 10.143784 -22.740655 40.260544 0.310278 2.171032 0.009701 0.004993 -598160.000000 0 0 1
32.910731 9.580784 -22.621555 41.068752 0.283285 2.154145 -0.010428 0.004009 -89262.200000 0 0 1
34.042681 10.660584 -22.591055 42.224494 0.303480 2.135331 0.003259 0.002982 80574.400000 0 0 1
34.018311 11.345284 -21.338855 41.728979 0.321905 2.107572 0.003582 -0.001155 107475.000000 0 0 1
34.961161 12.369184 -21.158555 42.696181 0.340054 2.089277 -0.011476 -0.001807 -300994.000000 0 0 1
34.787267 13.072484 -19.851655 42.132315 0.359457 2.061418 -0.012787 -0.002433 -212500.000000 0 0 1
35.188189 12.171284 -18.828055 41.723428 0.333010 2.038972 -0.012731 0.001039 365750.000000 0 0 1
35.068187 12.783084 -17.559555 41.249520 0.349552 2.010522 -0.011965 0.002899 -338134.000000 0 0 1
-35.192197 11.998384 -16.330955 40.609753 -0.328580 1.984653 -0.021242 0.004533 -456010.000000 0 0 1
34.696497 10.918784 -16.042255 39.754505 0.304883 1.986171 -0.017345 0.006169 77492.900000 0 0 1
-35.321937 10.109384 -15.127655 39.732667 -0.278755 1.961388 -0.005134 0.000483 40986.900000 0 0 1
34.556381 8.871184 -14.716755 38.593059 0.251290 1.962033 0.029253 -0.000931 -23181.900000 0 0 1
33.362751 9.153084 -14.031655 37.332820 0.267762 1.956114 0.039399 -0.007722 48321.100000 0 0 1
33.532711 8.789084 -12.652055 36.902103 0.256339 1.920750 0.039357 -0.009203 -205573.000000 0 0 1
32.442411 9.249884 -11.651155 35.690612 0.277747 1.903340 0.042067 -0.003441 -199311.000000 0 0 1
32.340651 10.656184 -11.494955 35.938919 0.318295 1.896364 0.033013 0.000546 454588.000000 0 0 1
31.303651 11.050384 -10.589255 34.844825 0.339350 1.879577 0.019350 0.009276 -288403.000000 0 0 1
31.419581 10.583184 -9.093655 34.378604 0.324898 1.838497 0.025780 0.000990 -16171.200000 0 0 1
32.584171 10.982784 -8.346455 35.383796 0.325100 1.808924 0.026204 0.005862 690740.000000 0 0 1
32.731291 12.368684 -8.039555 35.902036 0.361298 1.796642 0.031495 0.001881 -628239.000000 0 0 1
32.726701 12.716284 -6.533455 35.713119 0.370605 1.754775 0.034380 -0.004925 486096.000000 0 0 1
34.004311 12.387184 -5.955155 36.676959 0.349342 1.733886 0.037367 -0.004075 842185.000000 0 0 1
33.971131 12.701884 -4.628355 36.562238 0.357808 1.697725 0.040001 -0.007392 -219246.000000 0 0 1
35.306569 12.616984 -3.870355 37.692462 0.343212 1.673660 0.033687 -0.001329 -225855.000000 0 0 1
-34.548830 13.698584 -4.218255 37.404098 -0.377485 1.683812 0.029764 -0.000289 180460.000000 0 0 1
-33.326617 13.647684 -3.502555 36.182739 -0.388680 1.667750 0.023602 -0.015974 114126.000000 0 0 1
-32.505227 14.940584 -3.544755 35.949633 -0.430839 1.669560 0.020128 -0.015518 -94548.800000 0 0 1
-32.967587 15.871584 -2.590555 36.680785 -0.448682 1.641479 0.036225 -0.014188 -8245.930000 0 0 1
-32.206247 17.027784 -2.475155 36.514575 -0.486351 1.638634 0.023263 -0.008588 -78710.100000 0 0 1
-32.779277 18.015084 -1.339355 37.427505 -0.502527 1.606589 0.020703 -0.006323 479160.000000 0 0 1
-33.942777 18.736784 -1.713655 38.808708 -0.504386 1.614967 0.001746 -0.006860 213763.000000 0 0 1
-34.431704 19.451984 -0.622155 39.551347 -0.514244 1.586527 -0.015605 0.008280 166136.000000 0 0 1
35.005999 20.299684 -0.909455 40.476218 0.525503 1.593267 -0.022744 0.011742 227788.000000 0 0 1
35.232780 21.505584 -1.626255 41.309607 0.548021 1.610174 -0.007467 0.010118 6614.440000 0 0 1
34.749195 21.399684 -2.956355 40.916904 0.551980 1.643112 -0.017881 0.019054 -76838.500000 0 0 1
35.101099 22.665284 -3.653655 41.942239 0.573357 1.658018 -0.000894 -0.006953 133302.000000 0 0 1
-34.204144 22.787684 -3.852755 41.280089 -0.587697 1.664264 0.015578 0.001002 260234.000000 0 0 1
-33.967287 23.919784 -4.686255 41.807818 -0.613540 1.683123 0.020078 -0.006383 484015.000000 0 0 1
-32.486347 24.199684 -5.081855 40.826618 -0.640241 1.695594 0.024362 -0.011120 387209.000000 0 0 1
-31.939647 23.213484 -5.904555 39.923310 -0.628482 1.719238 0.012817 -0.010816 -496156.000000 0 0 1
-30.586417 23.489584 -6.149455 39.052596 -0.654906 1.728920 0.015139 -0.000170 -364612.000000 0 0 1
-29.979367 22.506984 -7.192055 38.171356 -0.643980 1.760344 0.012033 -0.018884 -293532.000000 0 0 1
-30.483767 22.596584 -8.512055 38.888568 -0.637888 1.791466 0.022283 -0.030686 413439.000000 0 0 1
-29.426137 22.742384 -9.453355 38.372901 -0.657974 1.819714 0.008532 -0.034787 414640.000000 0 0 1
-30.036377 22.612284 -10.854755 39.132149 -0.645310 1.851870 0.002169 -0.019095 460204.000000 0 0 1
-30.897927 23.707484 -11.173155 40.516245 -0.654471 1.850187 0.003816 -0.016216 476135.000000 0 0 1
-31.566937 23.517784 -12.420055 41.277300 -0.640302 1.876425 -0.016862 -0.008884 137988.000000 0 0 1
-32.458027 24.675784 -12.950655 42.780104 -0.650020 1.878348 0.024797 -0.003275 471198.000000 0 0 1
-31.722467 25.858084 -13.333955 43.043580 -0.683902 1.885756 0.018090 -0.009932 -129982.000000 0 0 1
-31.030337 25.890784 -14.547955 42.951805 -0.695350 1.916336 -0.001631 -0.011783 1021520.000000 0 0 1
-29.692527 26.782684 -14.491655 42.531946 -0.733919 1.918483 -0.011079 -0.003149 1712910.000000 0 0 1
-28.519797 26.296784 -13.828455 41.184048 -0.744867 1.913221 0.015115 -0.006236 766737.000000 0 0 1
-28.659687 25.879484 -12.496555 40.586811 -0.734466 1.883778 0.022305 -0.004761 -1051460.000000 0 0 1
-28.720717 27.094084 -11.525755 41.131642 -0.756263 1.854816 0.022152 0.002054 -55998.300000 0 0 1
-27.498277 27.751584 -11.244255 40.653892 -0.789983 1.851035 0.010111 0.003130 39803.400000 0 0 1
-27.757417 28.832384 -10.354755 41.340072 -0.804392 1.823970 0.015387 -0.000380 -482028.000000 0 0 1
-26.571177 29.719484 -10.112155 41.128225 -0.841269 1.819212 0.025417 -0.003668 -556930.000000 0 0 1
-26.953037 30.844784 -9.408855 42.028484 -0.852630 1.796578 0.027827 -0.006447 -281773.000000 0 0 1
-25.904667 31.777784 -9.369155 42.055444 -0.886867 1.795463 0.033084 -0.003209 -828945.000000 0 0 1
33.508651 -25.032086 34.297036 54.089941 -0.641600 0.883986 0.010654 -0.000622 -410371.000000 0 0 1
33.168131 -23.747316 -34.484803 53.415930 -0.621362 2.272592 0.010038 -0.006069 504190.000000 0 0 1
32.107921 -23.736716 -33.507945 52.126123 -0.636604 2.268976 0.000927 -0.003037 560857.000000 0 0 1
31.693151 -22.328116 -33.104185 50.979286 -0.613746 2.277546 -0.000519 0.002814 59197.800000 0 0 1
31.070421 -21.618916 -34.152406 50.981717 -0.607904 2.304864 -0.001792 0.002692 -42300.300000 0 0 1
31.068321 -20.223816 -33.911785 50.241939 -0.577040 2.311720 -0.002048 0.006780 -49770.300000 0 0 1
30.821671 -19.373216 33.834405 49.699737 -0.561154 0.821974 0.001547 0.004740 -651869.000000 0 0 1
31.862731 -19.339616 32.925551 49.732748 -0.545526 0.847246 0.006112 -0.004217 -656504.000000 0 0 1
31.567831 -18.844516 31.614391 48.488281 -0.538176 0.860576 0.009124 0.000168 -574334.000000 0 0 1
32.733241 -18.873116 30.603541 48.623413 -0.523016 0.890016 0.011615 0.001551 -429456.000000 0 0 1
33.726441 -17.959516 30.992991 49.199416 -0.489313 0.889312 0.006926 -0.002619 87566.100000 0 0 1
34.715576 -17.832116 29.970651 49.207677 -0.474518 0.915916 0.002172 -0.005854 315211.000000 0 0 1
-34.875658 -16.820016 30.460331 49.265163 0.449376 0.904227 -0.005093 -0.012607 -93051.400000 0 0 1
-33.984147 -16.562216 29.403651 47.893674 0.453477 0.909759 0.012076 -0.012303 323389.000000 0 0 1
-32.961177 -15.616516 29.669171 47.016747 0.442457 0.887911 0.016370 -0.013059 367746.000000 0 0 1
-31.645007 -16.099016 30.320811 46.689789 0.470614 0.863988 0.028808 -0.015035 -486391.000000 0 0 1
-30.994867 -15.043916 31.016391 46.357499 0.451874 0.837840 0.029665 -0.014360 -42659.100000 0 0 1
-29.967017 -15.611016 31.793081 46.395323 0.480259 0.815829 0.032481 -0.020426 79140.600000 0 0 1
-28.926597 -14.635016 32.399531 45.832972 0.468385 0.785684 0.038063 -0.025614 179119.000000 0 0 1
-29.455637 -13.993016 33.501925 46.752733 0.443492 0.771914 0.031236 -0.018202 660285.000000 0 0 1
-28.491897 -13.045016 33.994429 46.233990 0.429363 0.744733 0.033814 -0.020741 338610.000000 0 0 1
-28.763877 -12.418816 -33.610145 45.948117 0.407574 2.391287 0.025518 -0.009916 -302503.000000 0 0 1
-28.452647 -13.283616 -32.567235 45.239722 0.436792 2.374428 0.031819 -0.005801 223347.000000 0 0 1
-28.823087 -12.737116 -31.316755 44.426835 0.416103 2.353087 0.038062 0.003271 -235084.000000 0 0 1
-28.794207 -13.832516 -30.256725 43.999026 0.447839 2.329069 0.035920 0.003694 236786.000000 0 0 1
-29.971177 -14.631716 -30.264725 45.036787 0.454157 2.307703 0.029224 0.005940 156184.000000 0 0 1
-30.088117 -15.305916 -29.012595 44.511757 0.470586 2.280747 0.031196 0.005024 -320147.000000 0 0 1
-31.224627 -16.292716 -28.959085 45.596695 0.480928 2.258952 0.023422 -0.001187 -676928.000000 0 0 1
-31.174277 -17.410016 -29.776815 46.493042 0.509326 2.265890 0.030570 -0.007108 -250959.000000 0 0 1
-32.240087 -18.335216 -29.725885 47.531375 0.517093 2.246434 0.026459 -0.002459 -190203.000000 0 0 1
-31.995607 -19.719416 -30.439255 48.364476 0.552331 2.251541 0.015880 -0.000903 -464332.000000 0 0 1
-33.203197 -20.404016 -30.434045 49.447015 0.551027 2.233801 0.017906 -0.003221 -269503.000000 0 0 1
-33.038327 -21.626716 -31.158885 50.300319 0.579599 2.238847 0.014333 -0.006138 970087.000000 0 0 1
-34.403148 -22.429416 -31.298055 51.635488 0.577751 2.221988 0.012394 -0.008165 870615.000000 0 0 1
-35.073975 -22.779916 -30.129645 51.545163 0.576011 2.195096 0.010278 -0.012469 705299.000000 0 0 1
34.579771 -23.796616 -30.235825 51.732433 -0.602739 2.195018 0.017290 -0.011386 968491.000000 0 0 1
34.943701 -25.242116 -30.668505 52.903533 -0.625579 2.189164 0.013410 -0.007296 -302865.000000 0 0 1
35.328855 -25.464886 -31.979065 54.030075 -0.624547 2.204180 0.017955 -0.003809 -164771.000000 0 0 1
-34.509330 -26.582726 -32.102505 54.111977 0.656370 2.205900 0.004880 0.002981 110214.000000 0 0 1
-34.535817 -27.413166 -33.375555 55.300380 0.670925 2.218720 0.006815 0.000145 388748.000000 0 0 1
34.921536 -28.100616 -33.463255 55.936998 -0.677587 2.212088 0.021405 -0.001630 181015.000000 0 0 1
34.861584 -29.192996 -34.387783 57.009479 -0.697132 2.218296 0.014464 0.000546 156273.000000 0 0 1
-35.164352 -30.494706 -33.891145 57.576631 0.714398 2.200155 0.001704 0.001004 -35094.800000 0 0 1
34.902731 -30.945906 -32.758755 56.999875 -0.725381 2.183054 0.020307 -0.007032 -263012.000000 0 0 1
-34.962201 -31.700416 -31.912005 56.970589 0.736507 2.165362 0.011285 -0.005795 14349.500000 0 0 1
35.061615 -32.030816 -30.547855 56.466463 -0.740255 2.142411 0.010035 -0.004320 187291.000000 0 0 1
34.117071 -33.078716 -30.630135 56.536547 -0.769947 2.143345 0.020640 -0.000994 99246.700000 0 0 1
33.702021 -33.630396 -29.386575 55.949983 -0.784334 2.123781 0.012253 -0.001108 -262811.000000 0 0 1
32.535151 34.503344 -29.532475 55.867557 0.814749 2.127765 0.006837 -0.001287 -964913.000000 0 0 1
31.375331 -34.106788 -30.082725 55.250835 -0.827087 2.146560 0.014971 -0.007570 -975276.000000 0 0 1
30.231971 34.239064 -29.712015 54.489351 0.847472 2.147521 0.013514 -0.000829 510180.000000 0 0 1
29.009211 -34.301053 -30.508875 54.303665 -0.868790 2.167380 0.000124 0.001875 11575.700000 0 0 1
28.922241 34.083411 -31.747635 54.827797 0.867132 2.188350 0.005923 -0.000101 424114.000000 0 0 1
27.813381 -34.443529 -32.465835 54.899648 -0.891495 2.203549 -0.001967 0.013990 535957.000000 0 0 1
27.540871 33.951933 -33.826795 55.276445 0.889280 2.229329 0.000777 -0.000484 58944.200000 0 0 1
27.355381 32.564570 -33.735535 54.284937 0.872116 2.241392 -0.011132 0.003922 29284.700000 0 0 1
27.268361 32.077250 33.941770 54.079176 0.866253 0.892290 -0.007414 0.002357 -21913.900000 0 0 1
27.111041 30.555330 33.772832 53.002273 0.845055 0.879942 -0.009209 0.000585 735810.000000 0 0 1
28.296491 29.865770 34.225748 53.516889 0.812373 0.876907 -0.007597 0.001218 632678.000000 0 0 1
28.020821 28.483870 34.411189 52.731653 0.793593 0.859823 -0.012440 0.001954 419125.000000 0 0 1
29.293461 27.796680 -34.054075 52.824637 0.759186 2.271378 0.002720 -0.003523 369253.000000 0 0 1
29.700301 27.907870 -32.691595 52.246507 0.754294 2.246848 0.001255 -0.004106 -301024.000000 0 0 1
30.878871 27.129500 -32.605715 52.465675 0.720853 2.241411 0.001614 -0.004207 -174033.000000 0 0 1
31.747811 27.490080 -31.410735 52.442943 0.713646 2.212986 0.014314 -0.001961 -843333.000000 0 0 1
32.477491 28.687610 -31.542735 53.597673 0.723516 2.200010 -0.004722 0.007233 -361047.000000 0 0 1
31.881561 29.958830 -31.538795 53.932004 0.754316 2.195415 0.009028 0.010114 -24274.600000 0 0 1
30.998861 30.392130 -30.312515 52.947705 0.775515 2.180347 0.007460 0.017068 612091.000000 0 0 1
31.784631 30.638050 -29.151315 52.903233 0.767032 2.154395 -0.003784 0.017929 -32141.400000 0 0 1
30.931921 30.759320 -28.068325 51.872443 0.782600 2.142544 0.002243 0.014608 -334386.000000 0 0 1
31.654161 31.298760 -26.802495 51.961255 0.779753 2.112757 0.002643 0.017257 27789.300000 0 0 1
31.889541 32.686780 -26.693535 52.895304 0.797743 2.099771 -0.005132 0.013552 66232.700000 0 0 1
32.492841 33.106530 -25.492295 52.930938 0.794753 2.073292 -0.024088 0.016247 131614.000000 0 0 1
32.734341 -34.472913 -25.472805 53.933131 -0.811261 2.062699 -0.019921 0.010072 -197303.000000 0 0 1
31.468981 -33.842026 -25.445375 52.754588 -0.821717 2.074114 -0.012428 0.011169 288836.000000 0 0 1
31.499711 -32.440036 -25.298465 51.813126 -0.800104 2.080895 -0.006583 -0.001156 -1434760.000000 0 0 1
32.043791 -31.561346 -26.518105 52.212384 -0.777813 2.103529 -0.001252 -0.007850 849321.000000 0 0 1
33.455611 -31.634416 -26.727675 53.238922 -0.757426 2.096744 0.004667 -0.014664 301838.000000 0 0 1
34.251031 -31.165526 -25.661115 52.942572 -0.738266 2.076813 0.008095 -0.009993 -880271.000000 0 0 1
-34.965772 -31.504416 -25.997455 53.768031 0.733371 2.075458 0.011010 -0.006594 116261.000000 0 0 1
-34.494694 -32.809336 -25.840415 54.166997 0.760362 2.068092 0.010492 -0.006313 -118763.000000 0 0 1
-34.657491 -33.358676 -24.517255 53.991099 0.766305 2.042156 0.012288 -0.001873 -786923.000000 0 0 1
-33.703447 -32.763276 -23.475255 52.539911 0.771254 2.033991 -0.004259 0.005797 -230897.000000 0 0 1
-33.947077 -31.405526 -23.078955 51.685098 0.746528 2.033680 -0.050434 0.011822 45567.500000 0 0 1
-32.854477 -30.846606 -22.338955 50.298695 0.753888 2.030995 0.004918 0.004980 361548.000000 0 0 1
-32.364977 -29.488036 -22.849955 49.387817 0.738919 2.051794 0.019891 0.003232 -240882.000000 0 0 1
-33.371237 -28.522796 -23.022355 49.570336 0.707223 2.053796 0.005340 0.012601 -389102.000000 0 0 1
-33.576527 -28.257906 -24.412755 50.218274 0.699595 2.078455 0.007600 0.017882 3854.560000 0 0 1
-34.897520 -27.480116 -24.649755 50.799647 0.667043 2.077428 0.008752 0.010263 105465.000000 0 0 1
-34.942186 -26.223946 -23.934255 49.814660 0.643818 2.071982 0.010074 0.006040 65166.800000 0 0 1
34.725387 -25.328836 -24.323955 49.386812 -0.630189 2.085778 0.010793 -0.002042 149522.000000 0 0 1
34.907851 -24.588116 -25.671415 49.821231 -0.613654 2.112120 0.016683 -0.001057 -222437.000000 0 0 1
-34.565949 -23.896816 -25.554365 49.182195 0.604890 2.117162 0.022190 -0.008539 -104939.000000 0 0 1
-34.419605 -23.246816 -26.783535 49.421468 0.594021 2.143542 0.031034 -0.010008 186214.000000 0 0 1
-33.151277 -22.388216 -27.027095 48.277358 0.593980 2.164976 0.028354 -0.020135 -28226.600000 0 0 1
-32.998327 -21.121416 -26.339145 47.209685 0.569367 2.162672 0.039139 -0.014276 -118583.000000 0 0 1
-33.732077 -19.999216 -26.848955 47.525657 0.535171 2.171152 0.040244 -0.007470 468469.000000 0 0 1
-34.971222 -19.775716 -25.898265 47.799429 0.514654 2.143387 0.045281 -0.011074 355658.000000 0 0 1
-34.769742 -19.120616 -24.654055 46.715687 0.502783 2.126742 0.044551 -0.022821 -21990.500000 0 0 1
-34.105327 -19.910616 -23.611655 46.012132 0.528421 2.109661 0.035533 -0.017822 236864.000000 0 0 1
-34.771796 -21.230716 -23.096555 46.832382 0.548157 2.086532 0.048223 -0.012977 657383.000000 0 0 1
34.881911 -21.067516 -22.136355 46.374628 -0.543331 2.068419 0.041154 -0.008244 594001.000000 0 0 1
34.270121 -22.322316 -21.753355 46.324242 -0.577333 2.059622 0.032432 0.009602 285485.000000 0 0 1
33.307011 -22.091916 -20.522755 44.928757 -0.585655 2.045173 0.018645 0.005452 494766.000000 0 0 1
32.027931 -21.700516 -20.984155 44.011766 -0.595499 2.067790 0.018898 0.005677 -675225.000000 0 0 1
31.029621 -21.797616 -20.034355 42.887630 -0.612387 2.056845 0.011657 0.006362 -112085.000000 0 0 1
29.702131 -21.180216 -20.537755 41.864275 -0.619456 2.083551 0.000472 0.015186 -167702.000000 0 0 1
29.028821 -21.973816 -21.496855 42.280442 -0.647944 2.104163 -0.000995 0.021218 724588.000000 0 0 1
27.766681 -21.516916 -22.000855 41.448810 -0.659259 2.130336 0.006185 0.018674 677057.000000 0 0 1
27.730511 -20.282216 -22.939355 41.310574 -0.631493 2.159508 0.020201 0.012677 -638069.000000 0 0 1
28.000591 -19.098416 -22.193055 40.513137 -0.598592 2.150527 0.008388 0.019980 46795.100000 0 0 1
28.395901 -18.056516 -23.058855 40.793085 -0.566388 2.171549 0.011319 0.013852 81593.100000 0 0 1
29.322471 -17.000516 -22.325355 40.586282 -0.525417 2.153246 0.012268 0.014395 133149.000000 0 0 1
28.584731 -16.229716 -21.419155 39.233541 -0.516388 2.148307 -0.002443 0.008835 481580.000000 0 0 1
29.432691 -15.406916 -20.602155 39.090985 -0.482241 2.125899 -0.011850 0.000375 93153.100000 0 0 1
30.212031 -16.093216 -19.443955 39.367827 -0.489445 2.087371 0.008457 -0.006135 864317.000000 0 0 1
31.304631 -16.854316 -20.028855 40.806898 -0.493891 2.083827 0.014445 -0.005115 534162.000000 0 0 1
31.943161 -17.753816 -19.152455 41.259908 -0.507281 2.053517 0.024316 -0.007175 -1031690.000000 0 0 1
33.199841 -18.375016 -19.681555 42.746161 -0.505501 2.049274 0.038076 -0.014025 -965973.000000 0 0 1
34.189971 -17.420516 -19.952355 43.249566 -0.471236 2.050291 0.033654 -0.019327 -273181.000000 0 0 1
35.192303 -17.999616 -20.746455 44.641906 -0.472777 2.054127 0.034549 -0.022066 479390.000000 0 0 1
-34.454300 -17.000616 -21.390555 43.973579 0.458374 2.078808 0.030587 -0.023126 670414.000000 0 0 1
-33.563437 -16.461916 -20.441455 42.606949 0.455996 2.071187 0.036913 -0.032816 44147.600000 0 0 1
-32.810287 -15.363516 -20.947855 41.849316 0.437929 2.095035 0.034289 -0.022829 28137.100000 0 0 1
-31.459577 -15.020016 -20.215155 40.298367 0.445436 2.096286 0.035644 -0.021712 816289.000000 0 0 1
-30.302767 -15.782016 -20.448555 39.818000 0.480158 2.110114 0.024307 -0.022986 42617.900000 0 0 1
-30.430147 -17.133416 -20.041655 40.264324 0.512800 2.091801 0.034671 -0.026063 -286467.000000 0 0 1
-29.192217 -18.087816 -20.215355 39.849909 0.554715 2.102830 0.021356 -0.030301 288039.000000 0 0 1
-29.430927 -19.304516 -19.497055 40.236538 0.580530 2.076658 0.027725 -0.034331 -87999.300000 0 0 1
-28.479767 -20.303016 -19.706755 40.145558 0.619326 2.083899 0.016539 -0.035674 -317083.000000 0 0 1
-29.040517 -21.660316 -19.220655 41.011639 0.640850 2.058573 0.016107 -0.018014 200460.000000 0 0 1
-30.134307 -22.117616 -20.004455 42.396269 0.633161 2.062178 0.027618 -0.014284 446418.000000 0 0 1
-30.634047 -23.430716 -19.662055 43.290181 0.652943 2.042261 0.029479 -0.002392 298993.000000 0 0 1
-31.643777 -24.088016 -20.647155 44.809220 0.650646 2.049669 0.027360 -0.003172 231876.000000 0 0 1
-31.054017 -24.291716 -21.920555 45.110422 0.663818 2.078224 0.022945 -0.005738 -248844.000000 0 0 1
-31.934907 -24.861816 -22.822755 46.463172 0.661503 2.084264 0.027654 0.002581 -509330.000000 0 0 1
-31.542897 -24.864416 -24.280355 46.933242 0.667549 2.114534 0.023985 0.010294 253736.000000 0 0 1
-30.289967 -25.503066 -24.518255 46.572882 0.699810 2.125215 0.031269 0.007389 171311.000000 0 0 1
-30.116607 -26.040476 -25.835485 47.461445 0.712941 2.146407 0.026539 0.013802 -676566.000000 0 0 1
-28.708977 -26.543246 -26.088335 47.003729 0.746221 2.159192 0.029227 0.002097 -372123.000000 0 0 1
-27.825697 -25.460276 -26.350155 46.008975 0.741036 2.180614 0.026773 0.000471 280416.000000 0 0 1
-26.444867 -25.830116 -26.405305 45.428692 0.773639 2.191057 0.027937 -0.000489 784877.000000 0 0 1
-25.554207 -24.607616 -26.665155 44.379982 0.766530 2.215345 0.030279 -0.003591 -179643.000000 0 0 1
-25.802497 -24.036616 -27.966125 45.007021 0.749981 2.241290 0.033633 -0.007565 -135041.000000 0 0 1
-24.798877 -23.092716 -28.206695 44.089404 0.749788 2.264984 0.039967 -0.009048 -69878.300000 0 0 1
-24.920677 -22.514316 -29.607315 44.771952 0.734712 2.293336 0.033415 -0.013731 -68321.600000 0 0 1
-24.134177 -23.164716 -30.573035 45.318573 0.764905 2.311253 0.040929 -0.004718 138337.000000 0 0 1
-24.297977 -22.578616 -31.836375 45.975433 0.748736 2.335696 0.034674 -0.005975 -529760.000000 0 0 1
-23.602377 -23.368616 -32.919255 46.763680 0.780421 2.351739 0.023189 -0.011716 68663.200000 0 0 1
-24.190177 -24.661916 -33.182935 47.900751 0.795054 2.336083 0.020873 -0.005815 242598.000000 0 0 1
-23.336777 -25.379726 -34.036885 48.448377 0.827309 2.349756 0.042714 0.001280 92190.200000 0 0 1
-19.544677 -14.788216 -12.180755 27.368897 0.647735 2.032036 -0.034067 0.025101 -111269.000000 0 0 1
-20.019577 -14.284816 -10.956155 26.923536 0.619757 1.989894 -0.034283 0.025325 146706.000000 0 0 1
-19.097177 -14.686216 -9.975655 26.074908 0.655567 1.963380 -0.042509 0.018815 -77210.100000 0 0 1
-19.478777 -14.213616 -8.575555 25.592769 0.630380 1.912484 -0.022880 0.004505 -13077.800000 0 0 1
-20.564377 -14.824516 -7.907355 26.555342 0.624605 1.873151 -0.011702 0.001585 164459.000000 0 0 1
-20.572277 -14.341616 -6.591655 25.929722 0.608799 1.827830 -0.011022 -0.008270 -156577.000000 0 0 1
-21.824277 -14.748316 -5.800855 26.971500 0.594282 1.787563 0.006785 -0.014236 -542685.000000 0 0 1
-21.764677 -16.060916 -5.244955 27.552927 0.635735 1.762324 0.001720 -0.014847 370631.000000 0 0 1
-20.895977 -16.118316 -4.130455 26.711470 0.657032 1.726052 0.010064 -0.012437 -373733.000000 0 0 1
-20.837177 -17.511816 -3.496055 27.442195 0.698901 1.698541 -0.006541 -0.001885 31739.400000 0 0 1
-21.994577 -18.135916 -2.948855 28.659530 0.689540 1.673871 0.008060 -0.003593 272793.000000 0 0 1
-21.681577 -19.337916 -2.220955 29.137235 0.728325 1.647094 -0.011091 0.002314 -61095.900000 0 0 1
-22.909777 -20.236116 -1.958055 30.629925 0.723509 1.634766 -0.010236 -0.008924 -136444.000000 0 0 1
-23.338977 -21.068416 -3.000755 31.584657 0.734312 1.665947 -0.017963 -0.006526 -318732.000000 0 0 1
-24.335177 -21.890416 -2.474355 32.825503 0.732560 1.646247 0.001186 -0.001898 -446413.000000 0 0 1
-24.599877 -23.086116 -3.448455 33.911865 0.753664 1.672661 0.008723 -0.005304 -422947.000000 0 0 1
-23.501177 -23.948016 -3.579955 33.743576 0.794815 1.677089 0.005417 -0.003027 -537756.000000 0 0 1
-23.490877 -24.751716 -4.763455 34.455178 0.811528 1.709491 0.005392 0.002343 -1284710.000000 0 0 1
-22.231477 -24.700916 -5.563655 33.694630 0.837967 1.736676 0.007340 0.008770 -735890.000000 0 0 1
-21.878977 -23.482916 -6.246755 32.697996 0.820742 1.763022 -0.007506 0.014657 138406.000000 0 0 1
-21.410577 -22.482516 -5.338255 31.501958 0.809815 1.741076 -0.017479 0.007496 -718182.000000 0 0 1
-21.387977 -21.043716 -5.840555 30.567886 0.777285 1.763047 -0.003920 0.019516 802809.000000 0 0 1
-20.134677 -20.644716 -6.430255 29.545858 0.797905 1.790189 -0.024722 0.029891 669687.000000 0 0 1
-20.321777 -19.411916 -7.122455 28.991835 0.762503 1.819008 -0.032800 0.027979 726199.000000 0 0 1
-19.049977 -18.977216 -7.926055 28.033172 0.783485 1.857444 -0.024971 0.023235 355199.000000 0 0 1
-18.952677 -19.793416 -9.103755 28.876663 0.807093 1.891531 -0.036505 0.019085 -143197.000000 0 0 1
-17.738577 -19.659816 -9.822555 28.242664 0.836725 1.926011 0.012469 0.017453 137084.000000 0 0 1
-17.477477 -18.265216 -10.459455 27.358372 0.807434 1.963094 0.010176 0.019270 -74534.300000 0 0 1
-16.978077 -17.218316 -9.611055 26.021105 0.792423 1.949112 0.001318 0.007015 -342391.000000 0 0 1
-15.623777 -17.226616 -9.267055 25.034717 0.834152 1.949986 0.033632 -0.000646 -568600.000000 0 0 1
-15.367277 -16.041416 -8.317055 23.720322 0.806858 1.929040 0.020839 -0.002960 29892.700000 0 1 0
-15.805377 -16.341116 -6.997155 23.786597 0.802062 1.869377 -0.018174 -0.002176 127916.000000 0 1 0
-16.136277 -15.125216 -6.366255 23.014796 0.753067 1.851067 -0.002601 -0.004929 -25094.100000 0 1 0
-16.599077 -15.359716 -4.929655 23.146312 0.746638 1.785418 -0.017493 -0.002478 82091.800000 0 1 0
-17.278777 -14.253016 -4.319755 22.811508 0.689732 1.761314 -0.000935 0.001229 393796.000000 0 1 0
-17.540177 -14.462616 -2.995155 22.930243 0.689528 1.701791 -0.009735 -0.004695 -181181.000000 0 1 0
-18.291877 -13.246216 -2.376855 22.709127 0.626756 1.675654 -0.007808 0.001928 189040.000000 0 1 0
-19.583277 -13.066416 -2.951955 23.726568 0.588388 1.695535 0.004631 -0.009546 486099.000000 0 1 0
-20.363077 -12.293116 -2.048855 23.874116 0.543133 1.656721 0.008435 -0.007150 -784216.000000 0 1 0
-21.846677 -12.446516 -2.353755 25.253381 0.517858 1.664137 0.006495 -0.006111 -738021.000000 0 0 1
-22.224177 -11.735416 -3.494155 25.374065 0.485833 1.708941 0.006373 -0.008629 634818.000000 0 0 1
-23.560477 -12.036716 -3.917655 26.745591 0.472318 1.717804 0.002495 -0.005769 552331.000000 0 0 1
-24.012077 -11.276416 -5.185755 27.030159 0.439045 1.763844 0.005243 -0.009799 -153766.000000 0 0 1
-23.504177 -11.806416 -6.380355 27.065601 0.465495 1.808773 0.010479 -0.018740 113648.000000 0 0 1
-23.984377 -11.098316 -7.502655 27.472037 0.433390 1.847412 0.013512 -0.022089 -576444.000000 0 0 1
-23.344277 -11.469016 -8.837055 27.469750 0.456662 1.898322 0.018823 -0.020751 -98404.300000 0 0 1
-22.098977 -10.792416 -8.928055 26.163930 0.454298 1.919027 0.005975 -0.015216 327016.000000 0 0 1
-21.409077 -11.279716 -10.092555 26.219082 0.484909 1.965930 -0.003807 -0.004328 153672.000000 0 0 1
-20.039977 -10.548916 -10.244755 24.856294 0.484539 1.995619 -0.010145 0.001633 -300189.000000 0 1 0
-20.104777 -9.191016 -10.645855 24.535914 0.428789 2.019601 -0.004103 -0.004818 501734.000000 0 1 0
-19.003677 -8.409216 -10.217255 23.157007 0.416603 2.027750 -0.005082 -0.000915 -42695.700000 0 1 0
-18.840977 -7.126816 -11.003355 22.953165 0.361627 2.070748 -0.024597 0.000566 -173304.000000 0 1 0
-18.493977 -7.284716 -12.341555 23.396758 0.375234 2.126440 0.000641 -0.003968 448412.000000 0 1 0
-18.476777 -6.021716 -13.059655 23.413820 0.315052 2.162500 0.018349 -0.006995 -155585.000000 0 1 0
-17.986377 -6.089216 -14.564455 23.931395 0.326435 2.225081 0.031129 -0.004290 -302053.000000 0 1 0
-18.904277 -6.546716 -15.505655 25.311194 0.333383 2.230143 0.033933 -0.016855 131531.000000 0 0 1
-18.370377 -6.494516 -16.838455 25.752341 0.339818 2.283473 0.044523 -0.021654 -336161.000000 0 0 1
-19.014377 -7.514816 -17.760155 27.082137 0.376377 2.286023 0.034451 -0.020123 61311.600000 0 0 1
-20.366877 -7.160316 -18.018755 28.120373 0.338070 2.266300 0.031058 -0.029900 598286.000000 0 0 1
-21.032377 -8.008016 -18.922955 29.403528 0.363800 2.269938 0.018687 -0.029189 -1272640.000000 0 0 1
-22.480777 -7.797216 -19.187155 30.566793 0.333856 2.249407 0.028561 -0.027212 -1721340.000000 0 0 1
-22.711977 -6.659816 -20.015355 30.996798 0.285234 2.272766 0.026487 -0.025646 487016.000000 0 0 1
-24.078877 -6.381616 -20.298255 32.133106 0.259073 2.254531 0.033731 -0.029754 1170080.000000 0 0 1
-24.990577 -5.789116 -19.135155 32.003078 0.227637 2.211695 0.034963 -0.020081 191290.000000 0 0 1
-24.617577 -4.449916 -18.914055 31.361893 0.178831 2.218166 0.032973 -0.016030 562877.000000 0 0 1
-25.560587 -3.782116 -18.083555 31.538278 0.146901 2.181427 0.053503 -0.008159 -108183.000000 0 0 1
-25.478267 -2.250716 -18.217555 31.402025 0.088110 2.189696 0.020166 -0.004658 19166.700000 0 0 1
-25.980787 -1.641216 -19.407755 32.470846 0.063087 2.211423 0.043071 -0.001954 1347970.000000 0 0 1
-27.422287 -1.636216 -19.557055 33.721469 0.059597 2.189474 0.042547 0.004729 1134140.000000 0 0 1
-27.913187 -0.506316 -20.510455 34.642187 0.018137 2.204416 0.034447 0.010196 -134410.000000 0 0 1
-27.254677 -0.404616 -21.745555 34.869045 0.014845 2.244180 0.041774 0.008020 362176.000000 0 0 1
-27.753157 -1.473116 -22.615055 35.830832 0.053029 2.253847 0.042510 0.012674 46698.300000 0 0 1
-26.981147 -1.540816 -23.937455 36.102052 0.057045 2.295682 0.046980 0.010687 -588024.000000 0 0 1
-27.095987 -0.530216 -24.898855 36.802536 0.019566 2.313868 0.037471 0.014568 82544.400000 0 0 1
-26.671187 0.770284 -24.482755 36.212579 -0.028873 2.313232 0.043244 0.013285 24690.300000 0 0 1
-25.193327 1.031584 -24.102255 34.881035 -0.040924 2.333646 0.045796 0.010077 -346492.000000 0 0 1
-24.237877 0.802784 -25.071255 34.881041 -0.033109 2.372820 0.045430 0.009564 -459793.000000 0 0 1
-22.926077 1.096484 -24.665555 33.692683 -0.047791 2.392159 0.045106 0.004008 264293.000000 0 0 1
-21.835377 0.520984 -25.627095 33.671993 -0.023855 2.435773 0.029320 0.003848 170027.000000 0 0 1
-21.730377 1.176584 -26.878695 34.584070 -0.054092 2.460998 0.009553 0.013290 242277.000000 0 0 1
-20.648277 0.721884 -27.670015 34.532625 -0.034947 2.500214 -0.005990 0.012394 54973.100000 0 0 1
-20.702177 1.417084 -29.002255 35.661170 -0.068344 2.520551 -0.007742 0.013084 -106170.000000 0 0 1
-20.013677 2.669984 -29.090565 35.410974 -0.132625 2.534855 -0.003875 0.014969 400149.000000 0 0 1
-20.203677 3.282984 -30.349265 36.606618 -0.161086 2.548230 -0.018686 0.010384 -502108.000000 0 0 1
-19.485577 2.588284 -31.540105 37.164031 -0.132058 2.584267 -0.019037 0.008689 1183710.000000 0 0 1
-18.030877 2.743484 -31.548015 36.440589 -0.150997 2.617420 -0.032491 0.010550 1295440.000000 0 0 1
-17.479277 2.029084 -32.590915 37.037954 -0.115568 2.646517 -0.030491 0.013364 -1337150.000000 0 0 1
-15.991577 1.892284 -32.601855 36.361961 -0.117782 2.682810 -0.025105 0.000707 -1424290.000000 0 0 1
-15.325877 3.120984 -32.694555 36.243027 -0.200894 2.695390 -0.016670 0.004934 971466.000000 0 0 1
-14.004877 2.837184 -33.249925 36.190382 -0.199880 2.735700 -0.008059 0.003845 1152840.000000 0 0 1
-13.176777 4.087384 -33.571965 36.296157 -0.300784 2.751688 0.006283 0.005500 -323376.000000 0 0 1
-13.032577 5.002684 -32.505375 35.376183 -0.366516 2.735950 0.022905 -0.012566 8427.740000 0 0 1
-12.441177 6.127484 -33.039815 35.832364 -0.457643 2.744182 0.023270 -0.007111 -270403.000000 0 0 1
-12.115077 7.225984 -31.956425 34.931405 -0.537802 2.725892 0.027295 -0.007031 600865.000000 0 0 1
-10.932477 6.982884 -31.185655 33.776098 -0.568411 2.747396 0.040156 -0.018092 703432.000000 0 0 1
-11.267677 6.117584 -30.109465 32.725606 -0.497401 2.739026 0.039044 -0.022498 869683.000000 0 0 1
-10.045277 5.250884 -29.537715 31.637889 -0.481659 2.775180 0.045692 -0.022579 775403.000000 0 0 1
-9.328677 4.501784 -30.493675 32.204883 -0.449610 2.814141 0.035180 -0.024153 428077.000000 0 0 1
-10.090077 3.389584 -31.012275 32.788110 -0.324088 2.810966 0.035061 -0.021108 -44911.300000 0 0 1
-9.534177 2.613984 -32.230725 33.712803 -0.267594 2.843976 0.028642 -0.018173 61321.900000 0 0 1
-10.384777 1.480084 -32.533705 34.182981 -0.141571 2.829690 0.024711 -0.010230 636956.000000 0 0 1
-10.048077 0.725384 -33.683935 35.158179 -0.072066 2.850979 0.017156 -0.003769 -731825.000000 0 0 1
-10.360877 1.378084 33.923794 35.497475 -0.132232 0.298877 0.013125 -0.002699 948833.000000 0 0 1
-11.772677 1.284284 33.613709 35.638838 -0.108661 0.338733 -0.011491 0.002686 970276.000000 0 0 1
-11.937677 1.451084 32.222361 34.393231 -0.120962 0.357196 -0.018827 0.009514 751003.000000 0 0 1
-13.476477 1.318884 31.922171 34.675350 -0.097555 0.401179 -0.009349 0.012726 493652.000000 0 0 1
-14.189177 2.415984 32.390971 35.444954 -0.168652 0.418157 -0.016525 0.019277 288722.000000 0 0 1
-15.479277 2.277584 31.766871 35.410867 -0.146089 0.457649 -0.016559 0.014827 709723.000000 0 0 1
-16.327277 3.586784 31.574481 35.726641 -0.216245 0.486917 -0.011872 0.011333 -28625.300000 0 0 1
-16.893077 4.023684 32.789061 37.103755 -0.233828 0.487060 -0.016696 0.010338 310178.000000 0 0 1
-16.106377 5.054884 33.378342 37.404291 -0.304108 0.468234 -0.010340 0.013067 -170726.000000 0 0 1
-16.746477 5.572384 -34.357008 38.625121 -0.321225 2.667044 -0.011088 0.013317 -141366.000000 0 0 1
-18.013777 6.155584 -34.496735 39.400661 -0.329275 2.637342 -0.020904 0.013975 -686933.000000 0 0 1
-18.907577 5.770384 -33.497505 38.895715 -0.296210 2.608448 -0.031249 0.016278 415752.000000 0 0 1
-20.314577 6.442684 -33.716815 39.887515 -0.307112 2.577918 -0.034314 0.009103 296538.000000 0 0 1
-20.479177 7.808084 -33.397075 39.946558 -0.364256 2.560829 -0.030635 0.007749 -130746.000000 0 0 1
-19.773477 8.604784 -34.294078 40.510696 -0.410451 2.580255 -0.030920 0.009619 -393594.000000 0 0 1
-19.889177 10.123784 -34.064572 40.724261 -0.470829 2.561604 -0.022104 0.010638 -600697.000000 0 0 1
-19.116277 10.520084 -32.952265 39.521589 -0.503089 2.556714 -0.021829 0.006299 144652.000000 0 0 1
-18.767077 11.928084 -32.900485 39.710506 -0.566175 2.547235 -0.009772 0.002455 804788.000000 0 0 1
-17.718977 12.415084 -34.009445 40.308049 -0.611173 2.575007 -0.012614 -0.000357 28318.600000 0 0 1
-18.332377 12.433484 33.744580 40.365384 -0.595962 0.580883 -0.000285 0.005442 -141047.000000 0 0 1
-17.483777 12.498784 32.614031 39.058636 -0.620642 0.582660 0.002988 0.005847 -229158.000000 0 0 1
-18.094277 11.982984 31.298891 38.086945 -0.584941 0.606278 0.011543 0.010327 -146824.000000 0 0 1
-18.385977 10.555684 31.177011 37.702422 -0.521170 0.597182 -0.001081 0.014437 717534.000000 0 0 1
-17.233877 9.779984 30.795841 36.620192 -0.516169 0.571755 -0.012508 0.010326 682144.000000 0 0 1
-17.372477 8.264784 30.984871 36.471521 -0.444052 0.555639 -0.013614 0.018763 -19264.300000 0 0 1
-18.281677 7.633784 30.120811 36.052152 -0.395556 0.581793 -0.007657 0.025815 -6242.340000 0 0 1
-18.451977 6.243384 30.425101 36.126750 -0.326266 0.569489 -0.006625 0.018489 -311476.000000 0 0 1
-19.112477 5.514084 29.229151 35.355837 -0.280880 0.597555 0.002322 0.014595 69791.200000 0 0 1
-20.491977 5.739884 29.050371 36.010991 -0.273105 0.632235 0.020386 0.010530 -270527.000000 0 0 1
-21.131477 4.776984 28.304781 35.644348 -0.222323 0.653289 0.015324 0.012157 559303.000000 0 0 1
-22.600777 5.166684 27.902991 36.277633 -0.224744 0.693284 0.008307 0.018920 663331.000000 0 0 1
-22.721277 5.906784 26.700891 35.553961 -0.254337 0.721227 0.005745 0.013968 632240.000000 0 0 1
-24.059077 6.398884 26.613361 36.442501 -0.259948 0.752059 0.000010 0.020648 146215.000000 0 0 1
-24.461477 7.063084 25.264241 35.868271 -0.281098 0.789273 -0.002484 0.012851 -172102.000000 0 0 1
-24.555477 6.237684 24.107291 34.972012 -0.248762 0.810231 -0.000848 0.016194 266022.000000 0 0 1
-25.627017 5.314184 24.131291 35.599210 -0.204469 0.825948 -0.007370 0.021390 -486195.000000 0 0 1
-25.795227 4.585584 22.746041 34.695875 -0.175931 0.855841 -0.001746 0.022061 -424004.000000 0 0 1
-26.369807 5.276084 21.679641 34.542881 -0.197473 0.892310 0.001597 0.012769 -184605.000000 0 0 1
-26.496827 4.398884 20.581941 33.838563 -0.164515 0.916956 0.016736 -0.005880 -223636.000000 0 0 1
-27.343267 4.965584 19.445941 33.918371 -0.179644 0.960249 0.018537 -0.006517 674893.000000 0 0 1
-28.746767 4.875084 19.727141 35.203738 -0.167989 0.975963 0.025517 -0.004456 360280.000000 0 0 1
-29.526637 5.481284 18.742141 35.399642 -0.183549 1.012851 0.029171 0.000065 366005.000000 0 0 1
-31.021857 5.674984 19.138241 36.889475 -0.180934 1.025350 0.027995 0.001935 397792.000000 0 0 1
-31.285217 6.691484 20.043741 37.753044 -0.210712 1.011114 0.038008 -0.003037 -735563.000000 0 0 1
-32.449267 6.470284 20.747341 39.054727 -0.196816 1.010736 0.045171 0.000480 -782635.000000 0 0 1
-32.955757 7.610684 21.632741 40.149470 -0.226958 1.001778 0.053854 -0.001159 35913.800000 0 0 1
-32.179177 7.814584 22.811641 40.211169 -0.238234 0.967578 0.044316 0.001002 339247.000000 0 0 1
-32.483377 9.105384 23.297641 40.998267 -0.273295 0.966408 0.061127 0.006885 118664.000000 0 0 1
0.176923 33.196184 12.073945 35.324185 1.565467 1.221961 0.020897 -0.012045 -224514.000000 0 0 1
-0.252777 33.243784 13.391745 35.840646 -1.563193 1.187859 0.015813 -0.005384 11002.400000 0 0 1
0.188923 34.387584 14.086045 37.161247 1.565302 1.182025 0.005743 -0.002625 -780668.000000 0 0 1
0.188723 34.253184 15.684145 37.673713 1.565287 1.141407 0.010450 0.004574 -369811.000000 0 0 1
-1.078477 34.448684 16.255245 38.106534 -1.539500 1.130095 0.010542 0.004610 -376914.000000 0 0 1
-1.048277 -34.378133 17.652645 38.659679 1.540313 1.096608 -0.001989 0.000343 -614017.000000 0 0 1
-2.417277 -34.128433 18.285245 38.793599 1.500086 1.079979 0.009514 0.004353 -337274.000000 0 0 1
-3.090377 33.741884 18.559845 38.633315 -1.479462 1.069674 0.009966 0.001060 419849.000000 0 0 1
-4.063077 33.883384 19.612245 39.360290 -1.451453 1.049188 0.013010 -0.001935 174002.000000 0 0 1
-5.078477 32.783984 19.863445 38.667001 -1.417111 1.031298 0.017955 -0.005451 -184741.000000 0 0 1
-5.997877 32.680784 18.791845 38.172524 -1.389287 1.056081 0.018251 -0.005476 -359695.000000 0 0 1
-7.136977 31.971084 19.176645 37.958271 -1.351165 1.041179 0.017638 -0.019491 197072.000000 0 0 1
-8.227277 31.952484 18.019445 37.594544 -1.318786 1.070928 0.000538 -0.020358 -60576.800000 0 0 1
-8.915677 33.152284 17.943545 38.736727 -1.308081 1.089174 0.005441 -0.019132 -375235.000000 0 0 1
-9.713477 33.121884 16.763445 38.372176 -1.285530 1.118686 0.006823 -0.007307 381627.000000 0 0 1
-10.740177 34.310184 16.690945 39.637454 -1.267427 1.136149 0.029558 -0.019494 601211.000000 0 0 1
-11.834777 34.285284 17.609845 40.319341 -1.238417 1.118803 0.025737 -0.016462 822482.000000 0 0 1
-12.720277 -33.681133 17.376345 39.977012 1.209689 1.121137 0.019440 -0.014925 767317.000000 0 0 1
-14.090577 -33.832333 18.090545 40.871004 1.176162 1.112272 0.038192 -0.014909 414274.000000 0 0 1
-13.899477 -33.601933 19.477345 41.251089 1.178577 1.079050 0.028737 -0.010866 -108323.000000 0 0 1
-15.064177 -33.942533 20.169545 42.259147 1.153098 1.073237 0.027536 -0.010947 -258293.000000 0 0 1
-14.982077 -33.420633 21.619545 42.530061 1.149367 1.037545 0.023655 -0.015023 21374.700000 0 0 1
-14.920877 -31.999833 21.613645 41.397724 1.134487 1.021488 0.034934 -0.007731 122159.000000 0 0 1
-14.768377 -31.621933 22.938845 41.764126 1.133871 0.989333 0.026022 -0.000108 109958.000000 0 0 1
-14.599177 -30.100433 23.157945 40.687375 1.119208 0.965303 0.027987 -0.001880 -66184.000000 0 0 1
-14.489777 -29.824433 24.539345 41.250817 1.118544 0.933678 0.021331 -0.005154 -227295.000000 0 0 1
-14.308977 -28.417433 24.817445 40.350996 1.104330 0.908361 0.016921 0.012326 155424.000000 0 0 1
-15.426477 -27.396433 24.423745 39.812813 1.057964 0.910356 0.029373 0.006652 121249.000000 0 0 1
-16.521477 -27.407533 25.311845 40.802225 1.028315 0.901602 0.037291 0.000241 -405875.000000 0 0 1
-17.465177 -26.486233 24.837445 40.292079 0.987837 0.906589 0.038438 0.001811 -571664.000000 0 0 1
-18.643577 -26.275633 25.844645 41.302997 0.953697 0.894726 0.036613 0.001394 -242346.000000 0 0 1
-19.338277 -27.477933 26.232445 42.628006 0.957541 0.907928 0.047016 -0.000586 97581.400000 0 0 1
-20.201077 -28.051733 25.282245 42.827271 0.946683 0.939328 0.037635 -0.005991 -914146.000000 0 0 1
-21.541377 -27.325433 25.132745 42.922780 0.903214 0.945258 0.023240 -0.003266 -971339.000000 0 0 1
-21.513577 -26.050833 24.485345 41.725436 0.880502 0.943670 0.038028 -0.004223 855871.000000 0 0 1
-22.664377 -25.916933 23.603045 41.742845 0.852249 0.969831 0.046189 -0.008286 740046.000000 0 0 1
-23.124877 -24.457633 23.360145 40.971113 0.813400 0.964094 0.044112 0.011963 -337055.000000 0 0 1
-24.005077 -24.085333 24.366445 41.833846 0.787067 0.949047 0.036943 0.017526 -327071.000000 0 0 1
-24.462577 -22.795033 24.152045 41.247454 0.750127 0.945250 0.032794 0.019373 19247.400000 0 0 1
-24.910677 -22.159933 25.521345 41.987421 0.727026 0.917467 0.028403 0.022261 -896369.000000 0 0 1
-26.098807 -22.558833 26.059045 43.233349 0.712773 0.923849 0.022821 0.024742 -784834.000000 0 0 1
-26.488517 -21.745133 27.194045 43.749382 0.687372 0.900029 0.015061 0.024253 61031.100000 0 0 1
-27.848817 -22.096633 27.885645 45.182154 0.670734 0.905639 0.010348 0.022253 161184.000000 0 0 1
-29.021447 -21.643533 27.286145 45.334541 0.640793 0.924938 0.010136 0.020457 -10654.900000 0 0 1
-29.487357 -22.263033 26.106045 45.240164 0.646695 0.955679 0.007125 0.024689 -203808.000000 0 0 1
-30.899637 -22.899233 26.296245 46.590288 0.637771 0.971072 -0.007053 0.015719 164735.000000 0 0 1
-31.521037 -23.489233 25.197245 46.692837 0.640417 1.000789 -0.013330 0.006230 267079.000000 0 0 1
-30.884467 -24.718333 24.813345 46.696342 0.674953 1.010572 -0.011485 0.002329 -443761.000000 0 0 1
-31.272147 -25.146033 23.408645 46.456806 0.677238 1.042712 -0.012256 0.000310 470238.000000 0 0 1
-32.602547 -25.668733 23.364645 47.620548 0.666963 1.057970 -0.010904 -0.001512 367780.000000 0 0 1
-32.857457 -26.186133 22.087645 47.467780 0.672886 1.086802 -0.007227 0.000689 -117844.000000 0 0 1
-34.219316 -26.901833 21.989245 48.766762 0.666244 1.103016 0.001851 0.001170 -405851.000000 0 0 1
-34.469030 -28.018433 22.798545 49.929153 0.682532 1.096606 0.003531 0.003445 -109042.000000 0 0 1
-33.636657 -29.139433 22.670345 49.944727 0.713881 1.099649 -0.001505 -0.001792 -618967.000000 0 0 1
-34.078509 -30.173633 21.622545 50.391739 0.724699 1.127312 0.010869 -0.004511 -244249.000000 0 0 1
-34.325245 -29.631733 20.314945 49.688621 0.712144 1.149608 0.007933 -0.000258 411268.000000 0 0 1
-34.525212 -30.758533 19.495545 50.181211 0.727765 1.171790 -0.003377 0.000865 -387335.000000 0 0 1
-34.830316 -30.418733 17.995545 49.621466 0.717889 1.199679 -0.003149 0.006501 -754788.000000 0 0 1
-33.648517 -30.058833 17.346245 48.338891 0.729111 1.203764 0.007185 0.004179 -164049.000000 0 0 1
-33.851087 -29.520633 16.070545 47.703525 0.717170 1.227191 -0.004233 0.015928 108137.000000 0 0 1
-34.378259 -30.420533 14.831845 48.241654 0.724397 1.258285 -0.005121 0.013976 595637.000000 0 0 1
-33.536227 -31.579233 14.611145 48.326101 0.755353 1.263645 0.002060 0.009846 300232.000000 0 0 1
-33.961847 -32.466133 13.558345 48.900773 0.762886 1.289853 0.020028 0.002291 -29762.500000 0 0 1
-33.970277 -31.909333 12.096845 48.151001 0.754125 1.316848 0.013748 0.007328 749176.000000 0 0 1
-34.993777 -30.904633 11.878545 48.174273 0.723425 1.321652 0.007538 0.008238 866416.000000 0 0 1
-34.816291 -30.202633 10.676445 47.311306 0.714558 1.343172 0.011289 0.014926 -162764.000000 0 0 1
34.708306 -29.231533 10.575145 46.593805 -0.699952 1.341837 0.027285 0.019774 -168220.000000 0 0 1
34.686469 -28.188033 9.596145 45.714355 -0.682408 1.359308 0.035508 -0.011814 648332.000000 0 0 1
33.500621 -27.376633 9.685945 44.334965 -0.685140 1.350548 0.048571 -0.009972 532866.000000 0 0 1
33.411151 -26.353333 8.565845 43.407106 -0.667849 1.372155 0.043949 -0.013728 162342.000000 0 0 1
34.205301 -25.166233 8.623745 43.332561 -0.634313 1.370446 0.041795 -0.017951 10736.600000 0 0 1
33.965121 -24.456533 7.493345 42.519427 -0.624055 1.393638 0.042901 -0.021796 55312.000000 0 0 1
34.635311 -23.074833 7.389545 42.268878 -0.587695 1.395071 0.048398 -0.034869 844.496000 0 0 1
33.973661 -22.133133 8.254945 41.379093 -0.577414 1.369953 0.036173 -0.024661 -258113.000000 0 0 1
34.546691 -20.867933 8.137645 41.172390 -0.543392 1.371838 0.048261 -0.026256 -175493.000000 0 0 1
33.822411 -19.774733 8.949545 40.188181 -0.529066 1.346222 0.051005 -0.017979 102863.000000 0 0 1
33.991361 -19.964633 10.340145 40.754359 -0.531062 1.314273 0.044381 -0.029506 -130903.000000 0 0 1
33.173061 -18.997033 10.965945 39.769224 -0.520077 1.291437 0.051557 -0.016479 -288542.000000 0 0 1
33.435821 -18.787533 12.497545 40.337503 -0.511932 1.255788 0.038587 -0.025801 217764.000000 0 0 1
34.672660 -18.169533 12.826045 41.192629 -0.482687 1.254165 0.010027 -0.009929 319470.000000 0 0 1
34.956579 -18.193833 14.221345 41.895401 -0.479889 1.224465 0.011446 -0.001858 859649.000000 0 0 1
-34.388279 -17.466833 14.555045 41.224912 0.469971 1.209952 0.005539 -0.000455 1122130.000000 0 0 1
-33.196197 -18.046133 14.058545 40.314924 0.497932 1.214593 0.000007 -0.002070 785462.000000 0 0 1
-32.027947 -17.508633 14.687745 39.345540 0.500281 1.188231 -0.004914 -0.002642 928137.000000 0 0 1
-30.693237 -17.579233 13.889145 38.000166 0.520134 1.196624 0.024118 -0.004019 245320.000000 0 0 1
-30.163437 -18.879033 13.652645 38.113587 0.559240 1.204447 0.011439 -0.002787 264968.000000 0 0 1
-29.090507 -18.717933 12.715645 36.855207 0.571748 1.218540 -0.020709 0.008514 -2046.490000 0 0 1
-28.420747 -20.089433 12.449445 36.963670 0.615314 1.227278 -0.023649 0.001180 -137012.000000 0 0 1
-29.168087 -21.033833 11.731745 37.826357 0.624763 1.255448 -0.017793 0.002160 -188507.000000 0 0 1
-28.239357 -21.877533 11.073245 37.399258 0.659134 1.270208 -0.014411 0.005669 -118383.000000 0 0 1
-28.876877 -22.629633 9.844945 37.985488 0.664697 1.308627 -0.005759 0.001825 246451.000000 0 0 1
-29.547277 -23.832833 10.116545 39.286003 0.678752 1.310352 -0.007443 -0.000079 -1276350.000000 0 0 1
-30.836877 -23.573633 10.537645 40.220283 0.652693 1.305704 -0.008160 -0.006472 -1586430.000000 0 0 1
-31.610597 -24.894133 10.701445 41.634945 0.667088 1.310848 -0.003519 -0.002984 -221461.000000 0 0 1
-31.848957 -25.563233 9.493945 41.928152 0.676348 1.342382 -0.004219 -0.004225 76616.700000 0 0 1
-32.517197 -26.845833 9.543645 43.233645 0.690150 1.348217 0.001141 0.000699 414547.000000 0 0 1
-32.539407 -27.519833 8.194345 43.397022 0.702015 1.380833 0.002830 -0.001831 865810.000000 0 0 1
-31.262337 -27.905933 7.671245 42.601911 0.728732 1.389741 -0.006411 -0.001470 390067.000000 0 0 1
-31.481617 -28.796133 6.611345 43.174291 0.740876 1.417060 -0.000834 -0.001031 -140843.000000 0 0 1
-30.251727 -29.037433 5.744645 42.324230 0.764920 1.434647 0.020807 0.003895 -181239.000000 0 0 1
-29.752087 -27.936233 5.019945 41.119577 0.753932 1.448409 0.025892 -0.000301 466992.000000 0 0 1
-28.480507 -28.281333 4.419645 40.379529 0.781889 1.461124 0.023995 -0.005894 786802.000000 0 0 1
-27.754997 -27.101733 3.749045 38.973057 0.773490 1.474452 0.027784 -0.007604 -7670.430000 0 0 1
-28.377077 -26.641133 2.573845 39.008117 0.753856 1.504766 0.038345 -0.008980 -244843.000000 0 0 1
-27.638657 -25.577733 2.018445 37.711933 0.746690 1.517248 0.032297 -0.016669 -136386.000000 0 0 1
-28.156197 -24.903733 0.740145 37.596744 0.724177 1.551109 0.030549 -0.011711 -224081.000000 0 0 1
-27.649217 -25.618133 -0.423755 37.695458 0.747287 1.582038 0.037872 -0.010731 244947.000000 0 0 1
-27.995317 -25.009433 -1.677855 37.576917 0.729125 1.615462 0.037152 -0.011275 496822.000000 0 0 1
-29.503457 -24.994033 -2.056355 38.721884 0.702841 1.623927 0.041297 -0.013711 416047.000000 0 0 1
-30.321697 -23.974233 -1.495755 38.683413 0.669021 1.609473 0.024341 -0.012732 690040.000000 0 0 1
-31.651717 -24.102533 -2.037055 39.836075 0.650816 1.621955 0.022889 -0.008104 672317.000000 0 0 1
-32.445887 -22.787733 -1.854155 39.691992 0.612288 1.617527 0.024604 -0.015888 -141889.000000 0 0 1
-32.562137 -22.498933 -0.488255 39.581980 0.604629 1.583132 0.031143 -0.021808 657484.000000 0 0 1
-33.459387 -21.385633 -0.265255 39.710783 0.568711 1.577476 0.032169 -0.014060 222495.000000 0 0 1
-33.436217 -20.905933 1.183145 39.451724 0.558778 1.540802 0.038974 -0.013245 -323070.000000 0 0 1
-33.974457 -21.856233 2.066845 40.450346 0.571660 1.519678 0.041721 -0.022674 107158.000000 0 0 1
-34.043357 -21.298333 3.339145 40.295397 0.559048 1.487835 0.040074 -0.024229 -1396750.000000 0 0 1
-35.004655 -22.039833 4.257945 41.583773 0.561919 1.468222 0.051587 -0.013970 1510490.000000 0 0 1
34.331801 -21.990433 3.754245 40.943205 -0.569687 1.478973 0.046581 -0.010831 1320920.000000 0 0 1
33.626121 -20.769533 3.839545 39.709339 -0.553304 1.473954 0.044636 -0.019039 -837787.000000 0 0 1
32.543421 -20.521033 2.791045 38.574304 -0.562597 1.498378 0.037691 -0.012700 -110345.000000 0 0 1
31.495541 -21.434633 2.872645 38.205558 -0.597560 1.495536 0.036269 -0.006068 520311.000000 0 0 1
30.202021 -20.876333 2.481645 36.798667 -0.604811 1.503307 0.030747 -0.008815 1520750.000000 0 0 1
29.054221 -21.825433 2.883345 36.452859 -0.644267 1.491616 0.023787 0.010827 -133560.000000 0 0 1
28.967311 -22.963533 2.094945 37.024556 -0.670298 1.514184 0.018916 -0.000624 -205816.000000 0 0 1
27.851151 -23.658033 2.592145 36.634797 -0.704172 1.499981 0.014072 0.006818 -158761.000000 0 0 1
27.378971 -24.777833 1.671345 36.964069 -0.735568 1.525566 0.010476 0.006343 -136450.000000 0 0 1
26.827351 -24.288933 0.463645 36.192181 -0.735779 1.557985 0.007456 -0.004921 -70751.800000 0 0 1
26.368831 -25.397433 -0.293355 36.611895 -0.766635 1.578809 0.009075 -0.003247 -185520.000000 0 0 1
25.594741 -25.003733 -1.622355 35.817725 -0.773718 1.616107 -0.000865 -0.009684 -258193.000000 0 0 1
26.281321 -24.401433 -2.684055 35.963063 -0.748324 1.645499 0.007476 -0.021468 -245666.000000 0 0 1
26.676601 -25.324133 -3.669155 36.965057 -0.759395 1.670220 0.008394 -0.017913 -286514.000000 0 0 1
25.613241 -25.731133 -4.760855 36.616868 -0.787694 1.701184 0.006320 -0.021498 263442.000000 0 0 1
25.217041 -24.588033 -5.519855 35.650236 -0.772769 1.726255 0.006021 -0.033439 -70802.000000 0 0 1
23.912641 -24.202233 -5.203255 34.418546 -0.791417 1.722554 0.013318 -0.037604 -1061160.000000 0 0 1
23.126641 -23.193233 -5.975755 33.293801 -0.786836 1.751260 0.013992 -0.046444 -445139.000000 0 0 1
22.542541 -23.768733 -7.124255 33.524227 -0.811869 1.784940 0.018646 -0.038759 517548.000000 0 0 1
21.453441 -23.023533 -7.692355 32.396072 -0.820685 1.810533 0.025504 -0.039432 301235.000000 0 0 1
21.745641 -21.596533 -8.383655 31.773712 -0.781958 1.837813 0.019371 -0.038929 -936594.000000 0 0 1
22.331441 -21.684433 -9.619955 32.579923 -0.770700 1.870537 0.022891 -0.036862 -23070.700000 0 0 1
22.328141 -20.425333 -10.287755 31.962134 -0.740921 1.898504 0.020448 -0.031081 -233986.000000 0 0 1
23.019141 -20.440033 -11.683755 32.926978 -0.726122 1.933537 0.010573 -0.023781 -397322.000000 0 0 1
24.409941 -20.509233 -11.611355 33.930774 -0.698777 1.920061 0.020680 -0.028275 -672771.000000 0 0 1
24.973141 -20.176233 -12.850255 34.581313 -0.679550 1.951523 0.012417 -0.028575 839033.000000 0 0 1
26.533481 -20.401633 -12.877955 35.862152 -0.655489 1.938095 0.006360 -0.020700 662348.000000 0 0 1
26.889421 -21.764233 -13.090655 36.987674 -0.680445 1.932555 -0.001392 -0.019514 187768.000000 0 0 1
27.431991 -22.462833 -11.992855 37.428886 -0.686133 1.896966 0.010556 -0.024638 -173575.000000 0 0 1
27.765981 -23.951533 -12.421955 38.716025 -0.711776 1.897421 0.005665 -0.023699 -401785.000000 0 0 1
28.761911 -24.037833 -13.406255 39.809453 -0.696164 1.914271 0.001431 -0.024938 153974.000000 0 0 1
28.850841 -25.324233 -13.986155 40.857072 -0.720393 1.920180 0.003658 -0.016560 -113511.000000 0 0 1
-4.380777 -8.893916 -27.699345 29.420175 1.113119 2.797875 0.050124 -0.009570 181573.000000 0 0 1
-3.981177 -7.659016 -27.150485 28.489632 1.091432 2.833769 0.032775 -0.006514 138562.000000 0 0 1
-4.636577 -6.624716 -27.850905 29.000994 0.960144 2.859027 0.024045 -0.006564 -175154.000000 0 0 1
-4.539677 -5.226916 -27.161105 28.029537 0.855649 2.892017 0.018446 -0.011262 -173026.000000 0 0 1
-5.236777 -5.144216 -25.934235 26.953132 0.776482 2.865755 0.014080 -0.009242 217050.000000 0 0 1
-4.813777 -4.075116 -25.108805 25.888822 0.702489 2.895495 0.020649 -0.019565 -250803.000000 0 0 1
-5.442977 -3.990916 -23.733855 24.674872 0.632677 2.864531 0.015851 -0.023035 -256502.000000 0 1 0
-4.959077 -5.022916 -22.907355 23.970170 0.791793 2.842692 0.018230 -0.030673 365167.000000 0 1 0
-5.453777 -4.824216 -21.630455 22.823088 0.724221 2.816886 0.016652 -0.022941 -286473.000000 0 1 0
-4.851677 -5.954316 -20.686555 22.066405 0.887086 2.786080 0.019818 -0.028069 -154141.000000 0 1 0
-5.229277 -7.254816 -21.060755 22.880846 0.946246 2.740036 0.016254 -0.022246 210171.000000 0 1 0
-4.419777 -8.205816 -20.428055 22.453848 1.076736 2.713549 0.016266 -0.026257 -992824.000000 0 1 0
-5.073177 -9.625216 -20.403455 23.123211 1.085727 2.651692 0.021824 -0.021675 459138.000000 0 1 0
-6.169277 -9.820016 -19.508455 22.695209 1.009874 2.605253 0.025021 -0.020214 -302999.000000 0 1 0
-7.345777 -9.213116 -19.936055 23.157898 0.897693 2.607783 0.018168 -0.019760 -1156890.000000 0 1 0
-8.483877 -9.406416 -18.876555 22.732822 0.836919 2.550560 0.015853 -0.012873 -188001.000000 0 1 0
-8.959577 -10.736816 -18.927755 23.533235 0.875386 2.505291 0.022017 -0.005052 -302756.000000 0 1 0
-9.611677 -10.949616 -17.700955 22.926017 0.850377 2.452920 0.011105 -0.001382 -432456.000000 0 1 0
-10.547977 -12.187116 -17.708155 23.945028 0.857371 2.403174 0.029112 0.003078 130240.000000 0 1 0
-11.703277 -12.073516 -18.525755 25.018795 0.800968 2.404571 0.033648 -0.001845 181910.000000 0 0 1
-11.424177 -12.131516 -19.894355 25.951317 0.815418 2.444330 0.033378 -0.009430 -1013630.000000 0 0 1
-12.734877 -11.965716 -20.736555 27.117525 0.754269 2.441360 0.023026 -0.007343 813063.000000 0 0 1
-13.639077 -13.053816 -20.826055 28.109627 0.763476 2.405186 0.020488 0.002760 -66815.000000 0 0 1
-14.257077 -13.404116 -19.600955 27.697148 0.754572 2.357018 0.014181 0.008085 -1175830.000000 0 0 1
-15.429277 -14.336216 -19.939355 29.002889 0.748692 2.328831 0.009556 0.009281 -328062.000000 0 0 1
-15.070177 -15.664116 -20.271655 29.722294 0.804721 2.321338 0.018637 0.016339 -122722.000000 0 0 1
-16.013877 -16.273816 -21.145455 31.119313 0.793449 2.317872 0.017020 0.007816 106276.000000 0 0 1
-15.606677 -17.689616 -21.549055 31.950785 0.847874 2.311009 0.011546 0.004294 -119018.000000 0 0 1
-15.685977 -18.668116 -20.546855 31.886074 0.871987 2.271013 0.018208 0.006274 65091.100000 0 0 1
-15.320277 -19.948716 -21.061255 32.806076 0.915885 2.267891 0.011885 0.002458 -89775.200000 0 0 1
-15.993577 -21.133416 -20.314155 33.392824 0.922963 2.224762 0.014715 -0.002593 16295.600000 0 0 1
-15.652677 -22.344116 -20.956855 34.401390 0.959716 2.225830 0.013946 -0.001900 19658.600000 0 0 1
-16.208377 -23.429916 -20.280055 34.970746 0.965608 2.189420 0.019253 0.005218 12258.200000 0 0 1
-15.732677 -24.792316 -20.858455 36.017374 1.005339 2.188448 0.019680 0.008024 76875.700000 0 0 1
-16.140377 -25.125826 -22.198155 37.209905 0.999795 2.210012 0.007027 0.004465 -8176.370000 0 0 1
-15.480377 -26.298446 -22.554455 37.946723 1.038770 2.207280 0.009577 0.006572 -282958.000000 0 0 1
-15.741077 -26.751706 -24.040955 39.260703 1.038940 2.229815 0.018385 -0.000365 1045320.000000 0 0 1
-17.060277 -27.300006 -24.275355 40.319180 1.012256 2.216899 0.026594 0.002092 776939.000000 0 0 1
-17.030877 -28.663386 -24.127955 41.155786 1.034676 2.197230 0.034317 0.004442 -25831.200000 0 0 1
-17.925477 -29.435106 -25.132465 42.654297 1.023798 2.200881 0.046331 -0.002735 -509486.000000 0 0 1
-17.502777 -29.419936 -26.556415 43.325778 1.034114 2.230582 0.047423 -0.011328 164876.000000 0 0 1
-17.846677 -28.188226 -27.226875 43.062544 1.006375 2.255268 0.059194 -0.018464 353039.000000 0 0 1
-16.763277 -27.612266 -28.203245 42.882021 1.025176 2.288550 0.054328 -0.022953 255614.000000 0 0 1
-16.588777 -28.272076 -29.436125 44.056592 1.040173 2.302507 0.069026 -0.021833 -1592.440000 0 0 1
-15.261777 -28.123676 -29.889445 43.786321 1.073601 2.322139 0.037066 -0.012237 -250238.000000 0 0 1
-15.082877 -28.470886 -31.411915 44.997700 1.083621 2.343506 0.056549 -0.016246 -52495.600000 0 0 1
-15.240477 -29.854216 -31.671555 46.115440 1.098787 2.327858 0.031008 -0.007971 203900.000000 0 0 1
-16.061477 -30.013946 -32.818945 47.285211 1.079438 2.337915 0.029396 -0.003579 -6317.610000 0 0 1
-16.080877 -31.484776 -33.225945 48.516484 1.098585 2.325178 0.018324 0.001365 -39719.900000 0 0 1
-14.879877 -31.949336 -33.796265 48.829892 1.134936 2.335222 0.010852 0.001606 -476635.000000 0 0 1
-15.075677 -32.938266 34.263716 49.861886 1.141562 0.813206 -0.001879 0.003805 -881433.000000 0 0 1
-13.838177 -33.244776 33.472159 49.163968 1.176359 0.821905 -0.016331 0.008246 -339819.000000 0 0 1
-12.896277 -33.986609 34.236126 49.935117 1.208129 0.815352 -0.008962 0.013666 -325596.000000 0 0 1
-11.752077 -34.339365 33.503217 49.394017 1.241057 0.825370 -0.004383 0.017005 308032.000000 0 0 1
-10.851977 33.731811 34.343914 49.346782 -1.259540 0.801026 0.006528 0.009306 419895.000000 0 0 1
-10.335977 34.344069 -33.518755 49.090269 -1.278465 2.322382 0.010080 0.007872 -287808.000000 0 0 1
-9.643077 33.540593 -32.601075 47.757622 -1.290842 2.322160 0.019430 -0.001457 75088.500000 0 0 1
-8.817777 34.445238 -31.648225 47.600817 -1.320184 2.298112 0.013806 -0.001568 -397226.000000 0 0 1
-9.644477 -34.005163 -30.764865 46.859834 1.294436 2.287005 0.012164 -0.008317 -592713.000000 0 0 1
-8.963977 -33.018516 -30.026365 45.520961 1.305702 2.291104 0.003181 -0.008707 -118857.000000 0 0 1
-9.905577 -32.095906 -29.169695 44.487513 1.271446 2.285883 0.003062 -0.003701 419012.000000 0 0 1
-10.068877 -32.500386 -27.803285 43.939505 1.270366 2.255912 0.021423 -0.007578 -166487.000000 0 0 1
-10.736877 -33.723186 -27.607385 44.885427 1.262561 2.233263 0.029637 -0.006496 -400245.000000 0 0 1
-10.903877 -34.081625 -26.105035 44.293618 1.261153 2.201067 0.032627 -0.009152 1349820.000000 0 0 1
-9.618877 -34.139553 -25.415005 43.634326 1.296164 2.192541 0.024129 -0.014692 872897.000000 0 0 1
-9.815077 -34.156862 -24.021855 42.896113 1.290982 2.165183 0.025675 -0.017629 60201.300000 0 0 1
-8.518677 -34.201342 -23.196055 42.194273 1.326689 2.152854 0.025548 -0.021321 -60580.000000 0 0 1
-7.863177 33.630803 -23.159655 41.584013 -1.341114 2.161489 0.021749 -0.018131 -253774.000000 0 0 1
-7.041577 33.570895 -22.025655 40.764179 -1.364041 2.141612 0.025316 -0.011810 -322575.000000 0 0 1
-6.276277 32.201300 -21.924455 39.458803 -1.378302 2.159916 0.027808 -0.019239 195497.000000 0 0 1
-5.257977 32.079900 -22.909955 39.769742 -1.408338 2.184703 0.013031 -0.026019 -23292.000000 0 0 1
-4.640777 30.800880 -22.899955 38.660561 -1.421251 2.204749 0.002800 -0.017760 -505632.000000 0 0 1
-3.181177 30.884110 -23.346855 38.846155 -1.468155 2.215558 0.004635 -0.023034 -588069.000000 0 0 1
-2.868577 31.082010 -24.693555 39.800650 -1.478766 2.240088 0.007721 -0.022892 -270145.000000 0 0 1
-3.252877 32.321720 -25.223165 41.127641 -1.470493 2.231015 0.006560 -0.018568 -775833.000000 0 0 1
-2.732477 32.621640 -26.611585 42.187845 -1.487229 2.253365 -0.011014 -0.002792 -335370.000000 0 0 1
-1.511177 33.326479 -26.741075 42.755385 -1.525483 2.246496 -0.002254 -0.009065 -235718.000000 0 0 1
-1.566077 -34.354582 -26.452425 43.386873 1.525242 2.226462 -0.010490 -0.008666 -251361.000000 0 0 1
-0.414577 -33.388086 -26.867155 42.857674 1.558380 2.248355 -0.020651 0.001333 -33028.500000 0 0 1
0.611723 -33.277946 -25.892795 42.169097 -1.552416 2.231944 -0.019044 0.005686 -549359.000000 0 0 1
1.464223 -32.299606 -26.410265 41.748181 -1.525495 2.255713 -0.020524 0.009656 -710649.000000 0 0 1
2.604123 -31.938576 -25.471325 40.934613 -1.489441 2.242403 -0.022082 0.023617 -513021.000000 0 0 1
2.115823 -31.213136 -24.345855 39.641610 -1.503114 2.232104 -0.008945 0.019917 448253.000000 0 0 1
3.148123 -30.439696 -23.766255 38.746879 -1.467741 2.231119 -0.013195 0.024244 -85750.400000 0 0 1
2.876923 -29.901996 -22.328455 37.429480 -1.474880 2.209989 -0.001840 0.018321 -188542.000000 0 0 1
2.764723 -30.919456 -21.375855 37.690631 -1.481617 2.173825 0.006099 0.019645 413575.000000 0 0 1
2.852423 -30.393776 -20.038755 36.516704 -1.477222 2.151672 0.020432 0.008561 -247391.000000 0 0 1
2.926823 -31.580946 -19.048655 36.996942 -1.478383 2.111654 0.024950 0.009774 -499728.000000 0 0 1
1.646823 -32.116126 -18.824855 37.263021 -1.519564 2.100397 0.031696 0.005962 -61750.400000 0 0 1
1.501323 -33.490796 -19.023555 38.545856 -1.525998 2.086941 0.036125 0.016744 -438708.000000 0 0 1
2.344923 -34.526572 -18.242355 39.119897 -1.502984 2.055921 0.018572 -0.011551 -66393.600000 0 0 1
3.650823 34.405548 -18.750955 39.353127 1.465080 2.067442 0.022989 0.000581 -614085.000000 0 0 1
4.351223 33.540668 -17.925955 38.278577 1.441787 2.058165 0.028229 -0.018691 -161574.000000 0 0 1
5.484023 32.925480 -18.778655 38.298820 1.405753 2.083253 0.036458 -0.019375 278403.000000 0 0 1
6.592723 33.783305 -19.045155 39.338196 1.378071 2.076175 0.075869 -0.015725 832737.000000 0 0 1
7.559723 33.044070 -19.893255 39.303964 1.345890 2.101498 0.049647 -0.007709 524654.000000 0 0 1
8.914823 33.734727 -19.993155 40.214825 1.312440 2.091117 0.028581 -0.016206 -588822.000000 0 0 1
9.523023 33.772166 -18.724355 39.772461 1.295954 2.060979 0.025564 -0.017372 -64740.200000 0 0 1
10.713823 -34.536647 -18.786255 40.749103 -1.269994 2.049943 0.024871 -0.005778 400539.000000 0 0 1
11.386423 34.514675 -17.381155 40.286697 1.252138 2.016881 0.006913 0.000193 -256649.000000 0 0 1
12.030223 33.335282 -17.005455 39.308432 1.224457 2.018189 0.002679 -0.001658 -463154.000000 0 0 1
12.493123 33.459123 -15.715255 39.019998 1.213443 1.985314 0.001407 -0.008070 -222044.000000 0 0 1
13.664423 32.478610 -15.497455 38.493476 1.172556 1.985151 -0.000300 -0.000228 47408.000000 0 0 1
13.349623 31.149030 -15.246655 37.160934 1.165904 1.993565 0.009376 -0.007675 -438942.000000 0 0 1
14.509623 30.423910 -15.548255 37.119964 1.125787 2.002991 0.012518 -0.006441 33387.300000 0 0 1
14.512823 29.037750 -14.812555 35.682275 1.107315 1.998875 0.023446 -0.004418 -427039.000000 0 0 1
14.835223 29.055570 -13.427255 35.278905 1.098720 1.961245 0.034694 -0.010554 -232859.000000 0 0 1
13.768823 29.123530 -12.497255 34.553464 1.129166 1.940864 0.029311 -0.011006 103503.000000 0 0 1
13.228323 27.732220 -12.086855 33.017520 1.125716 1.945583 0.016988 -0.010307 -877150.000000 0 0 1
12.381723 27.193510 -13.100855 32.625549 1.143528 1.984007 0.018681 -0.004838 29092.200000 0 0 1
11.679523 26.039410 -12.722555 31.246208 1.149163 1.990151 0.027161 -0.002770 48746.800000 0 0 1
10.890223 26.030110 -11.411955 30.436759 1.174555 1.955128 0.025800 -0.000276 -1000670.000000 0 0 1
9.787523 26.930630 -11.406455 30.840909 1.222204 1.949642 0.013295 0.001161 214905.000000 0 0 1
9.260723 27.046550 -10.096055 30.318430 1.240909 1.910280 -0.000492 0.013211 -494819.000000 0 0 1
8.016123 27.912280 -10.078655 30.739761 1.291133 1.904845 0.000033 0.010896 -498991.000000 0 0 1
8.339823 29.191630 -10.520255 32.130666 1.292517 1.904369 0.006262 0.000387 -47058.600000 0 0 1
7.208723 30.022200 -10.483755 32.606860 1.335144 1.898131 0.012651 -0.010515 -88525.200000 0 0 1
7.607723 31.393240 -11.080255 34.149451 1.333043 1.901241 0.032592 -0.016904 -4763.170000 0 0 1
8.399523 32.171620 -10.200355 34.779482 1.315412 1.868459 0.031586 -0.010355 -307149.000000 0 0 1
8.877123 33.362543 -10.795155 36.171784 1.310741 1.873855 0.037394 -0.015155 -128694.000000 0 0 1
10.020923 33.326419 -11.837755 36.758694 1.278707 1.898679 0.033364 -0.024510 -1091940.000000 0 0 1
11.219323 33.187281 -11.146455 36.762920 1.244797 1.878843 0.029383 -0.011672 -1342730.000000 0 0 1
12.260223 33.358029 -12.058255 37.529624 1.218587 1.897898 0.031011 -0.015284 -1054360.000000 0 0 1
13.633823 33.058460 -11.502355 37.563907 1.179633 1.882003 0.029565 -0.017443 -506778.000000 0 0 1
14.005223 33.963770 -10.462155 38.198699 1.179682 1.848229 0.032689 -0.008756 -1130310.000000 0 0 1
15.352123 34.245304 -10.426655 38.950528 1.149358 1.841791 0.025400 -0.011177 -788805.000000 0 0 1
15.904023 -33.775356 -9.476755 38.516510 -1.130718 1.819393 0.031214 -0.009353 -2235.050000 0 0 1
16.040923 -34.289997 -8.200355 38.734493 -1.133237 1.784117 0.033962 -0.010177 358550.000000 0 0 1
16.899423 -33.488586 -7.370655 38.228294 -1.103450 1.764818 0.035597 -0.007867 -637954.000000 0 0 1
17.151923 -34.294011 -6.092155 38.825018 -1.107034 1.728361 0.032627 -0.002816 841608.000000 0 0 1
18.132123 33.729192 -6.240355 38.799153 1.077539 1.732335 0.029840 -0.008801 700612.000000 0 0 1
19.458323 34.214706 -6.432655 39.882972 1.053700 1.732792 0.029547 -0.008535 -923549.000000 0 0 1
20.338123 33.153882 -7.149955 39.546694 1.020549 1.752594 0.024837 -0.010366 40483.200000 0 0 1
20.552723 31.990110 -6.307255 38.543002 0.999732 1.735178 0.034009 -0.002250 -327358.000000 0 0 1
21.524223 32.249240 -5.329355 39.137037 0.982263 1.707392 0.014236 0.008767 -1203830.000000 0 0 1
21.992923 30.946910 -4.649255 38.249385 0.952948 1.692649 0.002013 0.013761 -189065.000000 0 0 1
22.694523 30.128810 -5.565655 38.128245 0.925219 1.717292 -0.006495 0.008781 -161563.000000 0 0 1
23.093123 28.918640 -5.034355 37.348692 0.896937 1.706001 -0.011469 0.014351 -169245.000000 0 0 1
23.730023 28.062050 -6.184155 37.267096 0.868847 1.737509 -0.013800 0.018624 253718.000000 0 0 1
24.980623 28.613830 -6.640655 38.560097 0.853085 1.743875 -0.008962 0.012556 913921.000000 0 0 1
25.866923 27.615480 -7.162855 38.509985 0.818081 1.757886 -0.016914 0.015194 351875.000000 0 0 1
26.536323 26.635520 -6.146055 38.097262 0.787264 1.732830 -0.015592 0.018548 -1399520.000000 0 0 1
27.531123 27.314060 -5.485955 39.167797 0.781440 1.711321 -0.012074 0.017110 -235965.000000 0 0 1
28.318123 26.421360 -4.656355 39.008794 0.750761 1.690448 -0.008579 0.027456 750466.000000 0 0 1
29.688723 26.928850 -4.131455 40.294567 0.736691 1.673508 -0.003427 0.026164 123532.000000 0 0 1
29.568623 27.968930 -3.143555 40.822132 0.757603 1.647879 0.015976 0.011549 2421.620000 0 0 1
30.794323 28.397370 -2.594455 41.969419 0.744926 1.632654 0.033867 -0.002077 -95432.800000 0 0 1
30.584223 29.534330 -1.519655 42.543868 0.767936 1.606524 0.029674 0.009386 136884.000000 0 0 1
30.109323 30.718850 -2.119855 43.066377 0.795418 1.620039 0.020203 0.009855 127081.000000 0 0 1
29.817423 31.747090 -1.190555 43.570332 0.816732 1.598125 0.032698 0.000981 -185712.000000 0 0 1
32.492201 23.162584 19.267341 44.311159 0.619309 1.120959 0.022782 -0.005553 187369.000000 0 0 1
32.634441 22.862984 20.669941 44.888408 0.611114 1.092267 0.012055 -0.001592 -299734.000000 0 0 1
33.664941 23.561484 21.309841 46.288023 0.610647 1.092379 0.018246 0.006971 -248430.000000 0 0 1
33.612461 23.635284 22.837441 47.010348 0.612851 1.063523 0.015297 0.011313 99852.800000 0 0 1
32.547951 24.504784 23.194241 46.880980 0.645343 1.053252 0.000122 0.018887 239637.000000 0 0 1
32.208851 24.429384 24.557681 47.299942 0.648899 1.024893 -0.002444 0.023138 409798.000000 0 0 1
30.876441 25.220284 24.790151 46.946447 0.684909 1.014492 -0.000535 0.017198 356559.000000 0 0 1
31.006921 26.601784 24.996301 47.894667 0.709080 1.021718 -0.008728 0.016576 -170352.000000 0 0 1
29.815291 27.146084 25.497611 47.707333 0.738572 1.006929 -0.009474 0.007500 -206251.000000 0 0 1
29.714071 28.688784 25.505151 48.543640 0.767845 1.017603 -0.016284 0.011827 -319433.000000 0 0 1
29.446541 29.321684 24.270411 48.123931 0.783274 1.042189 -0.012665 -0.002896 317533.000000 0 0 1
28.867201 30.620384 24.498751 48.694065 0.814861 1.043596 -0.011497 0.005164 49079.900000 0 0 1
29.031491 31.637184 23.324041 48.864606 0.828321 1.073194 -0.012422 0.005785 -585673.000000 0 0 1
30.386411 31.961284 23.234641 49.846827 0.810652 1.085895 -0.015572 -0.000332 -685918.000000 0 0 1
30.681041 32.620184 22.071341 49.925412 0.816022 1.112873 -0.023570 0.007941 138001.000000 0 0 1
32.215941 32.741284 21.922541 50.896525 0.793486 1.125497 -0.026018 -0.011688 33302.700000 0 0 1
32.734941 33.700184 22.796941 52.220487 0.799926 1.119034 -0.017826 0.005365 -756552.000000 0 0 1
34.099451 33.935584 22.669241 53.181678 0.782990 1.130442 -0.008432 -0.002948 -561338.000000 0 0 1
34.464561 -33.987233 23.584841 53.844059 -0.778425 1.117400 0.003540 0.000517 -239489.000000 0 0 1
33.717281 -32.796333 23.317641 52.499208 -0.771553 1.110568 -0.011178 0.003482 425393.000000 0 0 1
34.248951 -31.622033 23.968501 52.415958 -0.745540 1.095868 -0.000042 0.005281 -499061.000000 0 0 1
33.402581 -30.333233 23.758241 50.993053 -0.737278 1.086132 -0.001645 0.002982 686064.000000 0 0 1
32.022351 -30.392033 24.126011 50.310744 -0.759283 1.070666 -0.000958 0.007931 1029110.000000 0 0 1
31.136751 -30.752133 23.059541 49.466487 -0.779184 1.085845 0.001007 0.014067 209353.000000 0 0 1
30.331271 -32.102733 23.163241 49.870905 -0.813764 1.087767 -0.004709 0.015570 -107984.000000 0 0 1
29.322261 -31.998633 24.118631 49.652954 -0.829016 1.063582 0.004056 0.011171 -324021.000000 0 0 1
28.673961 -33.222233 24.305551 50.166449 -0.858749 1.065007 -0.000533 0.014598 -177425.000000 0 0 1
27.957281 -33.395133 25.629751 50.534430 -0.873800 1.038894 -0.002955 0.018790 -80889.100000 0 0 1
27.649291 34.289684 25.805491 51.050848 0.892199 1.040851 -0.008833 0.012026 133590.000000 0 0 1
26.989651 33.976984 27.020551 51.117383 0.899509 1.013848 -0.005673 0.012210 -163499.000000 0 0 1
26.648231 32.465284 27.135691 50.004685 0.883487 0.997192 -0.010554 0.009547 131281.000000 0 0 1
25.947181 31.891484 26.097151 48.696860 0.887812 1.005211 -0.011092 0.010530 -191279.000000 0 0 1
24.531941 31.959684 26.159531 48.037054 0.916132 0.994920 -0.002323 0.013272 206232.000000 0 0 1
23.941841 31.362784 24.836131 46.622627 0.918784 1.009002 0.023307 -0.002473 -107791.000000 0 0 1
24.096541 32.214884 23.649241 46.666140 0.928580 1.039356 0.033897 -0.001739 -142240.000000 0 0 1
25.336241 32.227384 22.982341 46.996993 0.904545 1.059834 0.009896 0.001058 -543508.000000 0 0 1
25.527941 33.232884 21.780441 47.228042 0.915778 1.091476 0.015270 0.010840 18925.500000 0 0 1
26.865641 33.527084 21.410641 48.002537 0.895256 1.108470 0.016594 0.007187 251981.000000 0 0 1
26.905641 34.437184 20.367541 48.214830 0.907565 1.134668 0.008402 0.004057 320656.000000 0 0 1
28.315711 -34.225833 19.868141 48.661382 -0.879618 1.150212 0.024664 -0.008908 400300.000000 0 0 1
29.109751 33.929784 19.183641 48.647918 0.861710 1.165451 0.029485 -0.011420 -163384.000000 0 0 1
30.135441 -34.535033 18.455441 49.410693 -0.853324 1.188005 0.021063 -0.006881 -267152.000000 0 0 1
30.990321 33.555984 17.636941 48.963922 0.825126 1.202311 0.002407 0.001698 55610.000000 0 0 1
31.785141 32.799784 18.556941 49.299909 0.801107 1.184879 -0.001088 -0.002474 -241636.000000 0 0 1
32.541671 31.852784 17.888441 48.923987 0.774701 1.196479 0.017685 -0.010557 165545.000000 0 0 1
33.493561 30.958284 18.767041 49.319730 0.746082 1.180440 0.016683 -0.008026 725819.000000 0 0 1
34.404151 31.708584 19.567941 50.714733 0.744648 1.174675 0.016308 -0.010292 194845.000000 0 0 1
-35.336667 30.917884 20.212141 51.118746 -0.718803 1.164298 0.025482 -0.003717 -83054.500000 0 0 1
-34.189527 31.705884 20.863841 51.083135 -0.747725 1.150064 0.047204 -0.003256 -418227.000000 0 0 1
-33.346527 32.315184 19.889841 50.516015 -0.769693 1.166107 0.050869 -0.006324 408829.000000 0 0 1
-32.117627 32.716784 20.490241 50.217327 -0.794639 1.150500 0.043566 -0.001975 305409.000000 0 0 1
-32.120077 34.090984 21.222741 51.422751 -0.815156 1.145368 0.031950 -0.002689 -444060.000000 0 0 1
-32.455477 34.087084 22.559541 52.194063 -0.809913 1.123838 0.037644 -0.004503 176648.000000 0 0 1
-32.177757 -33.754933 23.162441 52.070166 0.809315 1.109810 0.033313 -0.002737 -61376.900000 0 0 1
-32.152707 -33.867133 24.676901 52.817883 0.811361 1.084667 0.036468 -0.016932 -1427140.000000 0 0 1
-33.388147 -34.174633 25.161841 53.998075 0.797038 1.086058 0.035781 -0.010208 -1361410.000000 0 0 1
-33.364537 -34.422233 26.532131 54.790843 0.801000 1.065298 0.041952 -0.009180 843839.000000 0 0 1
-34.758462 34.359984 27.191861 55.929925 -0.779633 1.063086 0.025717 -0.010961 820774.000000 0 0 1
-34.633046 33.608284 28.341441 55.966078 -0.770383 1.039787 0.042595 -0.013832 -122384.000000 0 0 1
34.783484 33.366384 28.874411 56.186635 0.764607 1.031069 0.044880 -0.020663 113377.000000 0 0 1
34.701951 32.337784 30.022771 56.136658 0.750148 1.006507 0.044010 -0.014284 -132066.000000 0 0 1
34.697149 30.970084 29.739081 55.203724 0.728702 1.001885 0.032735 -0.010177 364182.000000 0 0 1
-34.923291 30.470684 28.961131 54.652044 -0.717414 1.012292 0.032225 -0.006700 43908.200000 0 0 1
-35.129272 28.932684 28.681921 53.794224 -0.688970 1.008443 0.032920 0.005258 -999754.000000 0 0 1
34.424821 28.759084 27.949401 52.851889 0.695967 1.013581 0.021312 0.009248 -535937.000000 0 0 1
34.270021 27.481084 27.396611 51.770827 0.675898 1.013151 0.028025 0.003638 -35094.300000 0 0 1
33.862241 26.319784 28.379931 51.427647 0.660721 0.986225 0.019204 0.000859 -351930.000000 0 0 1
34.874478 25.830384 29.247141 52.333863 0.637501 0.977790 0.014419 0.000894 -177369.000000 0 0 1
34.507411 24.707784 29.951761 51.945586 0.621393 0.956237 0.011265 0.004309 -270910.000000 0 0 1
34.967475 23.396884 29.275441 51.256121 0.589688 0.962878 0.008942 0.014696 -219638.000000 0 0 1
34.363211 23.249884 28.010911 50.059949 0.594843 0.976957 0.003706 0.009195 -446940.000000 0 0 1
34.881889 22.324484 27.160531 49.525985 0.569315 0.990335 0.001081 0.013656 -625281.000000 0 0 1
34.519541 20.841384 27.422491 48.764280 0.543177 0.973574 0.001455 0.001922 487852.000000 0 0 1
33.146631 20.450484 27.187231 47.498073 0.552804 0.961384 0.013809 0.005229 888049.000000 0 0 1
32.891101 19.187084 27.711961 47.094814 0.528088 0.941682 0.021688 0.004077 -168762.000000 0 0 1
32.553171 19.193484 29.250321 47.787865 0.532740 0.912100 0.011582 -0.007619 -113645.000000 0 0 1
31.424471 19.882784 29.757641 47.627089 0.564129 0.895915 0.023543 -0.008133 297388.000000 0 0 1
31.603791 21.266184 29.776331 48.349561 0.592305 0.907325 0.014779 -0.000561 -174867.000000 0 0 1
30.254191 21.885584 30.246531 48.053589 0.626252 0.889973 0.023235 -0.009798 922160.000000 0 0 1
29.098571 21.668484 29.415071 46.706492 0.640073 0.889519 0.047202 -0.017054 612401.000000 0 0 1
29.027891 22.277384 28.111711 46.142914 0.654574 0.915705 0.041921 0.001655 -535771.000000 0 0 1
28.915051 23.830784 28.150911 46.866408 0.689303 0.926466 0.044045 0.005492 321356.000000 0 0 1
30.136251 24.477684 28.519051 48.173508 0.682156 0.937250 0.029163 -0.001785 245659.000000 0 0 1
29.964051 25.790684 29.029171 49.047900 0.710685 0.937440 0.002629 0.008359 19093.700000 0 0 1
30.056441 25.901284 30.571091 50.088499 0.711279 0.914305 0.007329 -0.006936 634139.000000 0 0 1
31.421811 25.872084 31.018641 51.174710 0.688835 0.919608 0.005828 -0.000478 636871.000000 0 0 1
31.631601 25.800184 32.408921 52.120493 0.684209 0.899748 0.014938 -0.004679 -73106.900000 0 0 1
31.449271 24.379884 33.052616 51.729206 0.659443 0.877658 0.021296 -0.008248 -145549.000000 0 0 1
31.568851 24.373384 34.434281 52.691307 0.657477 0.858584 0.004722 -0.009402 361032.000000 0 0 1
31.260621 23.113284 -34.030125 51.667201 0.636666 2.289807 0.006081 -0.012975 -275116.000000 0 0 1
31.852761 23.277584 -32.596805 51.176127 0.631091 2.261336 0.003249 -0.019816 -54835.200000 0 0 1
31.070221 23.913584 -31.566155 50.335278 0.655967 2.248644 -0.012741 -0.015220 149079.000000 0 0 1
31.365041 23.497184 -30.221905 49.489867 0.642958 2.227701 0.013721 -0.027109 59877.400000 0 0 1
32.584051 24.252984 -29.571375 50.243346 0.639856 2.200077 0.010047 -0.002791 456161.000000 0 0 1
33.372631 23.450784 -28.741245 49.897203 0.612532 2.184634 0.012593 -0.000752 -430878.000000 0 0 1
34.193171 24.334684 -27.975305 50.437758 0.618524 2.158739 0.020450 0.004985 68275.500000 0 0 1
34.786683 23.505084 -26.829315 49.823834 0.594225 2.139433 0.020342 0.003680 333290.000000 0 0 1
-34.894830 22.563284 -27.171245 49.649043 -0.573987 2.149891 0.014534 -0.006937 578840.000000 0 0 1
-35.121387 21.371884 -26.455015 48.889028 -0.546657 2.142569 0.012879 -0.005808 -192146.000000 0 0 1
-34.133658 20.238684 -26.814785 47.893044 -0.535201 2.165048 0.021200 -0.002246 -455175.000000 0 0 1
-32.933597 20.443684 -26.130535 46.747951 -0.555541 2.163935 0.021362 0.002773 -590549.000000 0 0 1
-32.013387 19.354184 -26.237725 45.693103 -0.543770 2.182443 0.006137 -0.007348 -542656.000000 0 0 1
-30.694427 19.838284 -25.695865 44.676424 -0.573781 2.183590 0.002555 -0.001898 -1092940.000000 0 0 1
-30.762817 20.254784 -24.359755 44.158859 -0.582270 2.155124 0.002616 0.001106 10139.900000 0 0 1
-29.473627 20.145784 -23.779255 42.895225 -0.599579 2.158386 0.004419 -0.001570 136101.000000 0 0 1
-29.500327 20.448784 -22.200955 42.205503 -0.606128 2.124711 -0.012508 -0.002974 -35661.200000 0 0 1
-30.303057 19.554884 -21.474455 41.974051 -0.573072 2.107857 -0.023524 -0.000394 -112567.000000 0 0 1
-30.648437 20.079184 -20.198155 41.838568 -0.579984 2.074604 -0.017595 0.005871 -239019.000000 0 0 1
-31.801177 19.279484 -19.543655 42.011520 -0.545003 2.054654 -0.021399 0.000612 321653.000000 0 0 1
-32.414867 19.738484 -18.307355 42.136571 -0.546962 2.020253 -0.013781 -0.003516 579666.000000 0 0 1
-33.236717 20.891784 -18.464755 43.383098 -0.561166 2.010444 -0.017307 -0.004148 -821091.000000 0 0 1
-34.418324 21.046484 -17.535855 43.989564 -0.548826 1.980826 0.003861 -0.010969 -662961.000000 0 0 1
-34.030657 21.203884 -16.164855 43.231850 -0.557219 1.954018 0.002612 -0.021382 -163687.000000 0 0 1
-35.015995 20.766084 -15.277255 43.482694 -0.535290 1.929799 0.009936 -0.012138 -973594.000000 0 0 1
-35.115653 21.618784 -13.974355 43.540366 -0.551844 1.897531 0.018293 -0.014656 -120821.000000 0 0 1
-35.260702 23.026684 -14.050855 44.395628 -0.578510 1.892825 0.019587 -0.014584 -89972.300000 0 0 1
34.301921 23.402784 -14.749255 44.066456 0.598720 1.912088 0.027193 -0.006640 -444049.000000 0 0 1
34.407111 24.943284 -15.056155 45.085524 0.627273 1.911284 0.007350 -0.004947 52864.700000 0 0 1
34.409161 25.746184 -13.897455 45.166310 0.642371 1.883566 0.019868 -0.003224 -84329.600000 0 0 1
34.169121 27.098384 -14.223455 45.871101 0.670499 1.886068 0.008892 0.006925 -585653.000000 0 0 1
35.344455 27.896084 -14.759055 47.384087 0.668160 1.887543 0.010852 0.009189 -358122.000000 0 0 1
-35.172248 27.651984 -16.102355 47.550027 -0.666262 1.916268 0.006918 0.008534 165073.000000 0 0 1
-33.970927 28.256084 -16.556455 47.186294 -0.693816 1.929301 0.013208 0.001273 -477657.000000 0 0 1
-33.695727 28.167084 -18.047055 47.481395 -0.696266 1.960687 -0.005160 0.007960 -494072.000000 0 0 1
-33.402347 26.937584 -18.654155 46.790253 -0.678666 1.980869 -0.002823 0.004951 426338.000000 0 0 1
-32.171617 26.351084 -18.242455 45.411229 -0.686266 1.984187 -0.010708 0.002076 100573.000000 0 0 1
-31.810227 25.103584 -19.088055 44.793240 -0.668100 2.011015 -0.015666 0.008477 -621861.000000 0 0 1
-31.387227 25.233784 -20.380655 45.136161 -0.677145 2.039284 -0.014430 0.006085 51261.300000 0 0 1
-30.947357 23.980384 -20.814255 44.339948 -0.659233 2.059435 -0.010803 0.007544 -208701.000000 0 0 1
-30.693847 23.995084 -22.337255 44.909122 -0.663517 2.091382 -0.013598 0.011879 640874.000000 0 0 1
-31.858797 24.311684 -23.132255 46.272477 -0.651837 2.094296 0.001475 0.009217 993444.000000 0 0 1
-31.630817 23.957784 -24.517855 46.643426 -0.648232 2.124269 0.010149 0.009465 -73648.100000 0 0 1
-32.587637 24.741084 -25.412545 48.165058 -0.649374 2.126585 -0.000420 0.015084 -135504.000000 0 0 1
-32.214027 26.125684 -25.546755 48.712746 -0.681414 2.122850 -0.009752 0.024995 8771.960000 0 0 1
-32.843507 26.693584 -26.679745 50.030513 -0.682468 2.133257 0.001372 0.019094 74827.400000 0 0 1
-32.402317 28.199684 -26.830405 50.645858 -0.716161 2.129120 -0.010156 0.025386 676276.000000 0 0 1
-31.171917 28.279684 -27.560745 50.309280 -0.736788 2.150560 -0.018704 0.019983 174781.000000 0 0 1
-30.676137 29.637084 -27.560145 50.783302 -0.768172 2.144446 -0.009600 0.013885 184532.000000 0 0 1
-29.306307 29.662984 -28.264285 50.374816 -0.791447 2.166486 0.011099 0.005162 -139098.000000 0 0 1
-28.288667 28.966684 -27.539505 48.966742 -0.797240 2.168097 0.002870 0.006757 84967.800000 0 0 1
-26.972957 29.157984 -27.993955 48.594135 -0.824306 2.184717 0.014036 0.008668 447829.000000 0 0 1
-26.285327 30.556984 -27.744905 48.932887 -0.860406 2.173655 0.019710 -0.005153 -589983.000000 0 0 1
-25.724307 30.798384 -26.477655 48.076467 -0.874929 2.154047 0.022818 -0.006745 694550.000000 0 0 1
-26.680667 31.044884 -25.412865 48.181496 -0.860857 2.126381 -0.003498 0.002100 371999.000000 0 0 1
-25.892957 31.424284 -24.196055 47.364332 -0.881604 2.106969 -0.015550 -0.004514 14795.400000 0 0 1
-25.634977 32.810084 -24.286555 48.202598 -0.907554 2.098839 0.008984 -0.005757 -616155.000000 0 0 1
-24.546677 33.204984 -23.507455 47.515374 -0.934213 2.088325 0.017965 -0.005470 -207605.000000 0 0 1
-24.153577 -34.435633 -23.762355 48.310016 0.959123 2.085035 0.018244 0.002609 -91495.200000 0 0 1
-24.933377 -33.541133 -23.017355 47.712467 0.931554 2.074209 -0.000271 -0.005246 -141739.000000 0 0 1
-24.580177 -32.224333 -23.337955 46.768076 0.919164 2.093258 0.012532 -0.003551 -34829.700000 0 0 1
16.457623 9.213684 -25.607645 31.804037 0.510369 2.506758 0.021210 -0.016679 -1273230.000000 0 0 1
15.330423 8.504884 -25.293865 30.775551 0.506499 2.535503 0.020015 -0.017854 -863274.000000 0 0 1
15.277623 7.143184 -25.728575 30.763459 0.437359 2.561361 0.012123 -0.016982 988339.000000 0 0 1
13.807323 6.608784 -25.504415 29.745476 0.446417 2.601035 0.010289 -0.010520 1205700.000000 0 0 1
13.426923 6.402884 -24.107255 28.327353 0.444972 2.588728 0.040543 -0.021515 -568.808000 0 0 1
12.035223 6.186384 -24.057755 27.602418 0.474803 2.629215 0.034481 -0.011497 159305.000000 0 0 1
11.277623 6.365684 -22.723955 26.155015 0.513872 2.623607 0.036046 -0.026497 42634.500000 0 0 1
11.715523 5.406084 -21.779455 25.314499 0.432332 2.606762 0.037731 -0.014883 39571.600000 0 0 1
11.118923 5.501584 -20.471655 23.937137 0.459475 2.596783 0.045473 -0.015784 142266.000000 0 1 0
11.214023 6.890884 -19.706355 23.697658 0.551004 2.552732 0.036967 -0.027415 -95358.000000 0 1 0
10.866723 7.000984 -18.356355 22.451174 0.572329 2.528048 0.021839 -0.018324 -384501.000000 0 1 0
11.165323 8.248684 -17.812455 22.582931 0.636280 2.479581 0.025096 -0.018489 97954.700000 0 1 0
12.644723 8.666484 -17.601855 23.341428 0.600849 2.425085 0.019322 -0.012822 9539.680000 0 1 0
13.152023 8.025584 -16.453755 22.541334 0.547898 2.389026 0.026272 -0.011064 -241757.000000 0 1 0
14.512623 8.270384 -16.229355 23.289642 0.517974 2.341791 0.018937 -0.006152 -472155.000000 0 1 0
15.003023 7.605884 -14.855255 22.441452 0.469198 2.294222 0.016412 -0.007952 428749.000000 0 1 0
16.439423 7.537184 -14.780655 23.356616 0.429885 2.255993 0.018641 -0.009224 1115840.000000 0 1 0
16.870823 8.102784 -13.577955 23.122297 0.447751 2.198421 0.012719 -0.004331 -191109.000000 0 1 0
17.023623 9.656684 -13.638455 23.855036 0.515992 2.179400 0.013086 -0.004160 -585653.000000 0 1 0
15.852523 10.362084 -13.265055 23.122217 0.578940 2.181804 0.011792 -0.003058 229793.000000 0 1 0
15.940923 11.790084 -13.466855 23.968214 0.636819 2.167433 0.016023 0.004656 391340.000000 0 1 0
14.663523 12.584484 -13.018755 23.299702 0.709245 2.163677 0.016234 -0.005385 244193.000000 0 1 0
14.489423 12.849084 -11.598455 22.573579 0.725469 2.110412 0.039093 -0.001011 252724.000000 0 1 0
15.236723 13.985184 -11.081055 23.463437 0.742596 2.062660 0.061534 0.010280 55213.900000 0 1 0
14.596223 15.399584 -11.088655 23.940659 0.812174 2.052368 0.035269 0.006840 -286900.000000 0 1 0
13.517223 15.540284 -10.204855 22.985969 0.854909 2.030810 0.049446 0.001495 -256361.000000 0 1 0
12.989523 16.817384 -10.349655 23.636147 0.913121 2.024029 0.042342 -0.005767 -114964.000000 0 1 0
11.803323 17.074684 -9.402455 22.787484 0.965949 1.996119 0.032849 -0.005255 -100683.000000 0 1 0
12.182123 16.804584 -8.110555 22.284058 0.943535 1.943315 0.038761 -0.010820 -172156.000000 0 1 0
11.293923 17.412984 -7.241055 21.981755 0.995412 1.906477 0.039110 -0.004349 -368347.000000 0 1 0
11.728923 17.226984 -5.804855 21.634069 0.973041 1.842445 0.041976 -0.005948 1030440.000000 0 1 0
12.921223 17.980384 -5.469355 22.807149 0.947677 1.812965 0.061441 -0.008494 956722.000000 0 1 0
13.223923 17.798684 -4.140555 22.556805 0.931808 1.755404 0.053465 -0.005654 -328625.000000 0 1 0
14.269623 18.783884 -3.601855 23.862728 0.921133 1.722316 0.061942 -0.016337 39794.300000 0 1 0
15.511623 18.671084 -4.291255 24.650247 0.877565 1.745774 0.071505 -0.024570 547088.000000 0 1 0
16.348023 19.794384 -3.936455 25.972508 0.880466 1.722945 0.064314 -0.024448 -47130.800000 0 0 1
17.590223 20.006384 -4.855055 27.078458 0.849575 1.751067 0.061383 -0.020739 1018700.000000 0 0 1
18.743623 19.232284 -4.454855 27.222231 0.798265 1.735183 0.046979 -0.024983 818158.000000 0 0 1
18.582323 17.860484 -4.789855 26.215307 0.765593 1.754541 0.043775 -0.019524 -648092.000000 0 0 1
19.758023 17.060484 -4.193155 26.439026 0.712263 1.730066 0.059310 -0.019845 785892.000000 0 0 1
21.065323 17.277384 -4.752355 27.655753 0.686926 1.743493 0.043081 -0.022758 217152.000000 0 0 1
21.936823 16.490984 -4.038255 27.739579 0.644620 1.716893 0.047593 -0.020766 -165357.000000 0 0 1
23.440523 16.682484 -4.415355 29.107709 0.618531 1.723074 0.036102 -0.013294 453853.000000 0 0 1
23.921323 17.963184 -4.135855 30.199519 0.644095 1.708179 0.046552 -0.016763 -1120430.000000 0 0 1
25.270223 17.970484 -3.878755 31.250075 0.618159 1.695237 0.029630 -0.007592 -1166350.000000 0 0 1
25.752623 19.268184 -3.213655 32.323181 0.642350 1.670383 0.029384 -0.007690 -157387.000000 0 0 1
25.805823 20.395684 -4.084255 33.145219 0.668830 1.694333 0.037754 -0.007148 192341.000000 0 0 1
26.147623 21.498984 -3.284255 34.010157 0.688141 1.667514 0.035032 0.012037 -113099.000000 0 0 1
26.081923 22.883184 -3.994255 34.926507 0.720164 1.685409 0.011341 0.016964 139003.000000 0 0 1
27.068323 23.252384 -4.971155 36.028875 0.709711 1.709215 0.005088 0.020181 452662.000000 0 0 1
27.083823 22.455184 -6.189855 35.722304 0.692234 1.744952 0.010294 0.009330 -269356.000000 0 0 1
28.079023 22.953284 -7.255355 36.985469 0.685293 1.768244 -0.004807 0.015064 -356192.000000 0 0 1
27.744023 24.147984 -7.981355 37.637188 0.716210 1.784479 -0.002565 0.006759 138048.000000 0 0 1
28.853123 24.894284 -8.473455 39.038795 0.711875 1.789590 -0.006052 0.011223 202452.000000 0 0 1
29.759223 24.264184 -9.569455 39.571914 0.684031 1.815042 -0.002071 0.004208 -212735.000000 0 0 1
29.088123 24.053384 -10.779155 39.253972 0.690938 1.848970 -0.004587 0.002456 -114497.000000 0 0 1
29.960623 23.413984 -11.704455 39.785020 0.663353 1.869407 -0.007999 -0.003850 173319.000000 0 0 1
29.381023 22.794484 -13.042155 39.407243 0.659824 1.908115 0.002885 -0.002613 50371.200000 0 0 1
29.390423 23.703884 -14.089455 40.301164 0.678702 1.927945 -0.001460 0.001028 75765.900000 0 0 1
29.080523 23.179684 -15.375055 40.241357 0.672962 1.962833 0.007308 -0.001558 -28235.100000 0 0 1
29.164923 24.198084 -16.500055 41.332696 0.692589 1.981442 0.009569 0.004683 701205.000000 0 0 1
30.518923 24.548384 -16.836955 42.632275 0.677397 1.976793 0.004150 0.010864 878263.000000 0 0 1
30.417023 25.295884 -18.027855 43.475057 0.693736 1.998378 0.004880 0.009511 788264.000000 0 0 1
31.843523 25.846184 -18.390055 44.946961 0.681812 1.992319 0.000586 0.010537 804495.000000 0 0 1
32.734223 24.748484 -18.641555 45.072435 0.647357 1.997191 0.007682 0.009931 -174341.000000 0 0 1
34.037223 25.291384 -18.689355 46.340896 0.639039 1.985918 0.013295 0.005726 -651590.000000 0 0 1
35.124423 24.237984 -18.571655 46.541501 0.604024 1.981260 0.011873 -0.005906 -669899.000000 0 0 1
35.209923 23.250884 -19.611155 46.528912 0.583617 2.005877 0.005043 -0.004354 21285.800000 0 0 1
-34.952695 23.686084 -20.802155 47.068579 -0.595576 2.028572 0.001651 0.004801 -497878.000000 0 0 1
-35.036995 22.601484 -21.883555 47.088301 -0.572905 2.054131 0.012566 0.000618 143996.000000 0 0 1
-34.347395 21.390284 -21.543355 45.841073 -0.556989 2.060039 0.013156 -0.006132 310975.000000 0 0 1
-33.906995 20.879384 -22.763655 45.867385 -0.551945 2.090120 0.009638 -0.004197 -224480.000000 0 0 1
-33.680695 19.364984 -22.856955 45.075850 -0.521803 2.102587 -0.008379 -0.002648 110487.000000 0 0 1
-34.807295 18.505684 -22.688655 45.483879 -0.488654 2.093043 0.001639 -0.008268 575248.000000 0 0 1
-34.449495 17.142484 -22.860255 44.757388 -0.461735 2.106864 -0.015191 -0.004406 587351.000000 0 0 1
34.936323 16.317284 -22.656155 44.722497 0.436948 2.102026 -0.008161 -0.012100 147625.000000 0 0 1
33.979823 16.360684 -23.659055 44.520234 0.448724 2.131075 0.024016 -0.015769 177706.000000 0 0 1
32.869723 15.508384 -23.360455 43.204623 0.440845 2.142058 0.043632 -0.009343 129207.000000 0 0 1
33.061023 14.059984 -23.773855 43.080280 0.402102 2.155377 0.013762 -0.011469 -1006490.000000 0 0 1
33.201223 14.060884 -25.194315 43.986170 0.400604 2.180687 0.015252 -0.003202 341617.000000 0 0 1
33.484023 12.707384 -25.673995 44.065989 0.362715 2.192752 0.008451 -0.000406 -115217.000000 0 0 1
33.413823 12.523384 -27.232725 44.888083 0.358592 2.222674 0.023336 -0.001427 601813.000000 0 0 1
32.091523 12.548984 -27.790005 44.267677 0.372756 2.249484 0.024668 -0.002907 652548.000000 0 0 1
31.795623 13.770684 -28.461675 44.840387 0.408711 2.258459 0.018048 -0.007975 -115252.000000 0 0 1
32.106223 13.908884 -29.961055 46.064427 0.408808 2.278929 0.020609 -0.015690 -443350.000000 0 0 1
33.479623 13.958484 -30.224505 47.214882 0.395011 2.265487 0.026363 -0.015512 -854553.000000 0 0 1
33.744623 14.138084 -31.639785 48.370042 0.396755 2.283814 0.031870 -0.017974 -446783.000000 0 0 1
35.253523 14.444084 -31.816755 49.636159 0.388858 2.266596 0.044545 -0.020111 196594.000000 0 0 1
-34.583295 13.401584 -31.420755 48.609368 -0.369698 2.273644 0.041022 -0.015537 45768.800000 0 0 1
-34.362495 13.376584 -30.021795 47.550208 -0.371230 2.254115 0.025466 -0.014975 -1459510.000000 0 0 1
-33.267195 12.449084 -29.536685 46.196339 -0.358082 2.264479 0.021520 -0.009239 -47800.100000 0 0 1
-33.651995 11.091684 -29.802815 46.300000 -0.318386 2.270106 0.030352 -0.014339 671198.000000 0 0 1
-32.486795 10.291184 -29.685785 45.194537 -0.306780 2.287423 0.031224 -0.014748 334458.000000 0 0 1
-32.720195 8.843084 -30.254515 45.432885 -0.263958 2.299518 0.036185 -0.004065 -608460.000000 0 0 1
-32.842595 8.962884 -31.696125 46.514661 -0.266417 2.320500 0.033411 -0.008658 292690.000000 0 0 1
-33.397195 7.804084 -32.371035 47.161004 -0.229556 2.327315 0.027415 -0.002294 175629.000000 0 0 1
-34.717195 7.161684 -31.897285 47.686583 -0.203433 2.303517 0.023307 0.016409 -393104.000000 0 0 1
-34.538795 6.367884 -30.762075 46.688153 -0.182322 2.290131 0.021202 0.010030 -112155.000000 0 0 1
34.956523 5.819284 -30.344905 46.654430 0.164959 2.278932 0.022381 0.015096 -397331.000000 0 0 1
35.106723 5.010884 -29.002655 45.812061 0.141775 2.256321 0.016987 0.006890 -17283.600000 0 0 1
-34.742795 3.894684 -29.012635 45.430864 -0.111634 2.263488 0.012134 0.017128 122000.000000 0 0 1
-35.000095 3.036584 -27.950195 44.893662 -0.086543 2.242840 0.002982 0.020915 -160818.000000 0 0 1
-34.117195 1.758584 -27.875555 44.092201 -0.051500 2.255199 0.008976 0.022887 -534.136000 0 0 1
-32.806095 2.028184 -27.431325 42.811576 -0.061745 2.266265 0.011786 0.015666 -133623.000000 0 0 1
-32.069395 0.805984 -27.495525 42.250439 -0.025127 2.279401 0.013340 0.016939 430925.000000 0 0 1
-31.077195 0.591384 -26.299885 40.716407 -0.019027 2.273035 0.014637 0.009318 513133.000000 0 0 1
-31.731195 0.409284 -25.057565 40.434117 -0.012898 2.239174 0.020486 0.009590 339552.000000 0 0 1
-30.756395 0.631584 -24.078955 39.065981 -0.020532 2.234916 0.044528 0.008593 168442.000000 0 0 1
-31.400095 0.504784 -22.660755 38.726356 -0.016074 2.195862 0.044800 0.020051 -145737.000000 0 0 1
-31.445695 -0.813916 -22.089755 38.437631 0.025877 2.183023 0.049618 0.008427 301074.000000 0 0 1
-31.898095 -0.902716 -20.738655 38.057788 0.028292 2.147096 0.034498 0.010219 -116317.000000 0 0 1
-33.402995 -0.866216 -20.401055 39.149885 0.025926 2.118937 0.026433 0.009214 -269204.000000 0 0 1
-34.047295 -2.080616 -20.710055 39.905559 0.061034 2.116450 0.015686 0.012294 576729.000000 0 0 1
-35.329995 -2.116016 -20.067255 40.686372 0.059821 2.086582 0.007674 0.016729 557273.000000 0 0 1
34.746823 -3.548816 -20.086755 40.291606 -0.101781 2.092704 0.011979 0.017506 -104373.000000 0 0 1
34.220023 -4.134616 -21.254055 40.494936 -0.120242 2.123344 0.003151 0.023488 321847.000000 0 0 1
35.228823 -4.612816 -22.138255 41.862278 -0.130198 2.128024 0.003223 0.015363 -430103.000000 0 0 1
34.772923 -5.494516 -23.309055 42.221534 -0.156716 2.155636 0.001275 0.009293 -953419.000000 0 0 1
34.597223 -6.868916 -22.932755 42.072094 -0.195991 2.147284 0.011690 0.013054 374952.000000 0 0 1
34.186123 -7.646616 -24.091355 42.515351 -0.220054 2.173232 0.009624 0.010108 127699.000000 0 0 1
32.737023 -7.540116 -24.609555 41.643681 -0.226376 2.203039 -0.006968 0.019418 -408697.000000 0 0 1
32.446523 -6.274216 -25.201135 41.560075 -0.191013 2.222295 0.003376 0.010176 -852949.000000 0 0 1
31.085523 -6.037916 -25.281545 40.520645 -0.191847 2.244542 0.012101 0.005936 -817022.000000 0 0 1
30.682023 -4.884016 -26.227115 40.658353 -0.157857 2.271899 0.023373 -0.011203 -15191.000000 0 0 1
30.780523 -5.217316 -27.608815 41.676224 -0.167905 2.294894 0.027181 -0.018644 365624.000000 0 0 1
30.395323 -4.081416 -28.412765 41.806923 -0.133479 2.318039 0.037666 -0.020191 4777.650000 0 0 1
30.299723 -4.393716 -29.889785 42.787582 -0.144005 2.344182 0.048344 -0.018810 -34094.000000 0 0 1
29.993123 -3.196916 -30.623385 42.983711 -0.106187 2.363768 0.036274 -0.020266 99310.800000 0 0 1
29.728023 -3.451216 -31.980465 43.799730 -0.115576 2.389341 0.043965 -0.022751 -838751.000000 0 0 1
29.402023 -2.125216 -32.763295 44.072996 -0.072156 2.408916 0.054666 -0.021791 -101001.000000 0 0 1
28.335423 -1.312316 -32.268665 42.963765 -0.046281 2.420473 0.055677 -0.017763 1109850.000000 0 0 1
27.031723 -1.864016 -32.012335 41.940174 -0.068848 2.439180 0.060397 -0.021304 362140.000000 0 0 1
26.288723 -2.292116 -33.285935 42.477102 -0.086970 2.471269 0.052244 -0.019526 -1184940.000000 0 0 1
26.612623 -3.547716 -33.849325 43.204106 -0.132528 2.471034 0.061204 -0.024293 280660.000000 0 0 1
25.900623 -3.657016 33.928531 42.841116 -0.140267 0.656781 0.045908 -0.022100 -227459.000000 0 0 1
26.075023 -5.021916 33.197740 42.511368 -0.190265 0.674668 0.041546 -0.022502 -670667.000000 0 0 1
27.312823 -5.271916 32.620511 42.870516 -0.190675 0.706085 0.049894 -0.023998 -556007.000000 0 0 1
27.649223 -4.574416 31.410761 42.095614 -0.163959 0.728496 0.054279 -0.023115 -354741.000000 0 0 1
28.140523 -3.101116 31.425411 42.297309 -0.109758 0.733307 0.044398 -0.017447 -833956.000000 0 0 1
29.423723 -2.993616 31.972981 43.554434 -0.101393 0.746467 0.052880 -0.022676 -269280.000000 0 0 1
29.772923 -1.631016 32.226711 43.904989 -0.054727 0.746588 0.047608 -0.018741 684532.000000 0 0 1
31.167123 -1.532416 32.950381 45.381334 -0.049128 0.758196 0.040461 -0.015524 295704.000000 0 0 1
32.269423 -1.732116 32.128741 45.569418 -0.053625 0.788302 0.040191 -0.011249 -867119.000000 0 0 1
33.456223 -1.595016 32.868291 46.927470 -0.047639 0.794830 0.042541 -0.012082 -181398.000000 0 0 1
34.641823 -2.266716 32.158951 47.322215 -0.065340 0.823614 0.041332 -0.001728 -179599.000000 0 0 1
34.828023 -1.788716 30.825811 46.544831 -0.051313 0.846936 0.026591 0.002458 108642.000000 0 0 1
-34.940295 -2.589216 30.106881 46.194724 0.073969 0.860922 0.033799 -0.001919 175511.000000 0 0 1
-34.542695 -2.010616 28.750431 44.986972 0.058141 0.877490 0.033301 -0.003133 506617.000000 0 0 1
35.192023 -2.169916 27.693871 44.834557 -0.061581 0.904994 0.023181 -0.013041 -77724.100000 0 0 1
-34.996395 -1.579716 26.562381 43.963659 0.045109 0.922048 0.036129 -0.000256 -43590.100000 0 0 1
-25.979927 14.946284 12.393945 32.433900 -0.522061 1.178697 0.033503 0.001102 188518.000000 0 0 1
-27.169107 14.471784 13.007045 33.418201 -0.489430 1.171011 0.005709 0.011379 408814.000000 0 0 1
-27.909817 15.545584 13.591245 34.718079 -0.508197 1.168563 0.012598 0.003908 -275848.000000 0 0 1
-29.114647 14.914284 14.289145 35.697034 -0.473408 1.158964 0.015488 0.004691 -36796.400000 0 0 1
-30.107737 15.886084 14.630445 37.052577 -0.485515 1.164885 0.020537 -0.003906 484812.000000 0 0 1
-31.286747 15.228084 15.096545 37.929682 -0.452972 1.161445 0.021902 0.002256 538349.000000 0 0 1
-32.282667 16.092884 15.899745 39.420216 -0.462446 1.155632 0.026938 -0.004063 -83054.000000 0 0 1
-31.804107 16.427084 17.158845 39.696049 -0.476767 1.123804 0.027842 -0.000257 -110429.000000 0 0 1
-32.809557 16.835084 18.068945 41.065483 -0.474085 1.115194 0.028083 -0.014077 151759.000000 0 0 1
-32.238567 16.995984 19.551645 41.357654 -0.485165 1.078392 0.022043 -0.007373 -71419.200000 0 0 1
-31.759857 15.805884 20.047545 40.748234 -0.461781 1.056427 0.017928 -0.009077 283826.000000 0 0 1
-30.506667 15.838484 20.722545 40.136494 -0.478874 1.028269 0.021177 -0.003378 506160.000000 0 0 1
-30.559827 16.408984 22.170545 41.166623 -0.492766 1.002074 0.031164 -0.018450 -674160.000000 0 0 1
-31.078707 17.693184 22.146245 42.064129 -0.517542 1.016332 0.023829 -0.010075 -40644.700000 0 0 1
-31.226637 18.272884 23.452845 43.116552 -0.529444 0.995670 0.021839 -0.014213 -750242.000000 0 0 1
-32.046357 17.511784 24.546045 44.001590 -0.500115 0.979010 0.006948 -0.011257 1043740.000000 0 0 1
-33.393707 17.154584 24.173845 44.651923 -0.474553 0.998714 0.020269 -0.005194 898351.000000 0 0 1
-34.386400 18.136684 24.030445 45.703677 -0.485356 1.017155 0.008381 -0.006365 -1032970.000000 0 0 1
34.981228 17.464284 23.746045 45.744531 0.463045 1.024997 -0.013771 -0.010300 -414723.000000 0 0 1
34.441171 16.772984 24.878545 45.677885 0.453197 0.994822 -0.003751 -0.002887 816646.000000 0 0 1
33.294551 16.017684 24.377645 44.264691 0.448406 0.987564 0.005200 -0.001998 1060450.000000 0 0 1
32.632091 15.189284 25.517345 44.121453 0.435645 0.954100 0.008391 -0.011432 -449287.000000 0 0 1
32.106541 16.034384 26.551545 44.642087 0.463177 0.933823 0.012539 -0.016247 194445.000000 0 0 1
31.758771 15.362084 27.731745 44.873854 0.450532 0.904609 0.018982 -0.014092 -108967.000000 0 0 1
30.747671 14.189384 27.743345 43.777289 0.432358 0.884420 0.017050 -0.013909 -468202.000000 0 0 1
31.313211 12.971784 27.243645 43.485636 0.392738 0.893745 0.015432 -0.015326 402684.000000 0 0 1
30.430551 11.847584 27.271945 42.545771 0.371276 0.874993 0.020568 -0.018353 164153.000000 0 0 1
31.189191 10.513184 27.020945 42.584318 0.325117 0.883399 0.028185 -0.019268 -356724.000000 0 0 1
31.941521 10.045584 28.097345 43.710814 0.304705 0.872647 0.047791 -0.019622 49501.500000 0 0 1
32.565001 8.783184 27.785545 43.699658 0.263444 0.881713 0.041269 -0.016153 -184064.000000 0 0 1
33.671891 8.296384 28.707345 45.019305 0.241577 0.879330 0.041289 -0.018528 72001.000000 0 0 1
34.927856 8.954084 28.538445 45.984493 0.250955 0.901276 0.047444 -0.017163 463352.000000 0 0 1
-34.786583 8.314284 29.335745 46.258184 -0.234607 0.883856 0.045170 -0.012712 720404.000000 0 0 1
-33.431627 9.083584 29.340645 45.398884 -0.265302 0.868090 0.048332 -0.016881 544044.000000 0 0 1
-32.770557 9.260084 28.080145 44.137888 -0.275393 0.881245 0.047235 -0.016935 1149880.000000 0 0 1
-31.527847 9.966684 28.313545 43.531561 -0.306182 0.862667 0.046227 -0.010181 1160140.000000 0 0 1
-30.769507 10.566084 27.059845 42.315953 -0.330778 0.876986 0.042707 -0.004653 244241.000000 0 0 1
-30.116457 9.641484 26.244345 41.094098 -0.309830 0.878066 0.026960 0.003307 -213469.000000 0 0 1
-29.326877 10.227284 25.258745 40.033327 -0.335547 0.888028 0.027762 0.008360 -296485.000000 0 0 1
-28.413757 9.144984 24.618345 38.691540 -0.311381 0.881140 0.008026 0.009087 -273031.000000 0 0 1
-27.642167 9.679884 23.599245 37.612683 -0.336840 0.892551 0.013412 0.004824 -524419.000000 0 0 1
-27.054597 8.682384 22.820145 36.443025 -0.310538 0.894143 -0.017710 0.013083 -340663.000000 0 0 1
-26.190327 9.261684 21.710545 35.257053 -0.339905 0.907422 -0.008824 0.011693 -1335750.000000 0 0 1
-24.919677 9.681484 22.134945 34.708461 -0.370560 0.879237 -0.002664 0.006297 -54358.400000 0 0 1
-24.164777 10.370384 21.160345 33.752652 -0.405383 0.893198 0.004550 -0.002849 -59294.900000 0 0 1
-23.714477 9.634384 19.899545 32.422055 -0.385896 0.909975 0.006860 -0.009772 -1303540.000000 0 0 1
-24.734477 9.129784 19.091745 32.552144 -0.353598 0.944069 0.003020 -0.005038 -270715.000000 0 0 1
-24.291877 8.260884 18.091745 31.395043 -0.327799 0.956650 0.006479 -0.003853 -357384.000000 0 0 1
-23.943677 6.845384 18.575045 31.067527 -0.278467 0.929927 0.011214 -0.006212 39474.200000 0 0 1
-22.627077 6.691084 19.107845 30.362229 -0.287518 0.890106 0.007344 -0.001598 788977.000000 0 0 1
-22.428277 5.435584 19.751945 30.376184 -0.237770 0.862890 0.005518 0.000258 -112894.000000 0 0 1
-22.457777 4.133584 18.918445 29.653766 -0.182023 0.878927 0.022562 -0.006433 265691.000000 0 0 1
-23.843077 3.816784 18.682345 30.530152 -0.158733 0.912297 0.031560 -0.015065 1171140.000000 0 0 1
-24.051177 2.741484 17.697345 29.986178 -0.113496 0.939510 0.038846 -0.011608 -89029.300000 0 0 1
-23.881977 1.306684 18.200045 30.054915 -0.054660 0.920327 0.038625 -0.009400 1436180.000000 0 0 1
-22.479277 0.903784 18.314145 29.009354 -0.040184 0.887544 0.026129 -0.008660 1855000.000000 0 0 1
-22.309077 -0.469416 18.761545 29.153231 0.021038 0.871670 0.027003 -0.009271 -270778.000000 0 0 1
-20.829777 -0.901116 18.815945 28.084363 0.043234 0.836615 0.033632 -0.001510 -18059.700000 0 0 1
-20.141177 -0.366116 19.956445 28.355965 0.018175 0.790088 0.007922 -0.001433 -271184.000000 0 0 1
-19.156277 -1.314716 20.273745 27.923398 0.068524 0.758238 -0.003143 0.003906 -12933.100000 0 0 1
-18.205377 -0.915316 21.433045 28.136257 0.050235 0.704773 0.002642 0.003815 239669.000000 0 0 1
-18.914077 -0.876816 22.602045 29.484972 0.046325 0.697327 -0.000523 0.004050 -62107.400000 0 0 1
-17.989877 -0.943616 23.673645 29.748404 0.052405 0.650476 0.001790 0.005284 58568.700000 0 0 1
-18.749177 -0.969716 24.989045 31.255789 0.051674 0.644332 0.005144 0.000828 -428.600000 0 0 1
-19.167377 0.312984 25.383245 31.808732 -0.016328 0.646834 0.007780 -0.005132 -135508.000000 0 0 1
-20.580577 0.253284 25.432645 32.717637 -0.012306 0.680374 0.013765 0.000062 -53068.300000 0 0 1
-21.254577 1.539784 26.024445 33.636286 -0.072318 0.686133 0.015678 -0.003203 -354815.000000 0 0 1
-21.034477 2.702484 25.193045 32.930870 -0.127779 0.699711 0.015962 0.003869 640218.000000 0 0 1
-22.225277 3.304284 24.672745 33.371029 -0.147591 0.738697 0.007056 0.004288 -158083.000000 0 0 1
-21.808077 4.447084 23.637745 32.467088 -0.201161 0.755320 0.004041 0.010896 178977.000000 0 0 1
-21.292377 4.014184 22.377345 31.148428 -0.186340 0.769282 0.004226 0.002176 984781.000000 0 0 1
-20.046777 3.297784 22.502745 30.317028 -0.163044 0.734378 0.002997 0.005419 12212.700000 0 0 1
-19.532877 2.634584 21.188045 28.937995 -0.134070 0.749268 0.006369 -0.002571 -361423.000000 0 0 1
-19.101877 3.487784 20.147945 27.981888 -0.180599 0.766943 0.003522 0.004331 222837.000000 0 0 1
-18.947677 2.581084 19.029045 26.977417 -0.135388 0.787852 0.000083 -0.005915 -146780.000000 0 0 1
-18.449977 3.301684 17.776145 25.832036 -0.177079 0.811869 -0.006102 -0.002432 213879.000000 0 0 1
-17.119177 3.801184 17.687645 24.907188 -0.218498 0.781096 -0.009177 -0.007320 277456.000000 0 1 0
-16.921477 4.668484 16.651245 24.194939 -0.269194 0.811775 -0.004670 -0.002729 21294.200000 0 1 0
-15.479177 5.197984 16.386445 23.133083 -0.323973 0.783631 0.010754 -0.009032 7725.180000 0 1 0
-14.979777 6.046584 17.354645 23.709462 -0.383649 0.749586 0.006148 -0.010733 -60904.800000 0 1 0
-15.483277 7.411684 17.400245 24.442452 -0.446454 0.778616 -0.001966 -0.015379 -296507.000000 0 1 0
-14.910977 8.370984 16.361845 23.666867 -0.511551 0.807455 0.004441 -0.008696 -146012.000000 0 1 0
-15.139377 8.028884 14.931645 22.729227 -0.487617 0.854049 -0.020985 -0.004013 91795.800000 0 1 0
-16.459077 8.394284 14.595845 23.545783 -0.471623 0.902191 -0.006195 -0.005293 80461.600000 0 1 0
-17.049877 7.653684 13.353045 22.969132 -0.421938 0.950413 -0.006522 -0.004829 -203124.000000 0 1 0
-17.096377 6.231184 13.463245 22.635652 -0.349511 0.933804 0.000889 -0.004774 181444.000000 0 1 0
-17.494177 5.581284 12.302845 22.103325 -0.308829 0.980501 -0.006062 -0.005008 -108556.000000 0 1 0
-17.230877 4.051684 12.323145 21.568013 -0.230945 0.962632 -0.003968 -0.005221 -111455.000000 0 1 0
-17.904277 3.404584 13.382445 22.610709 -0.187911 0.937428 -0.007501 -0.000261 131173.000000 0 1 0
-17.543177 2.093384 13.509945 22.241042 -0.118766 0.917971 -0.007482 -0.007929 -619556.000000 0 1 0
-18.425077 1.341884 14.515745 23.494488 -0.072701 0.904808 -0.000205 -0.006568 -97777.300000 0 1 0
-19.750277 1.123884 14.099245 24.292494 -0.056843 0.951583 0.013047 -0.003231 -242024.000000 0 1 0
-20.535777 0.737384 15.174745 25.544760 -0.035892 0.934718 0.016443 -0.003760 -1469810.000000 0 0 1
-21.943277 0.366884 14.845045 26.495611 -0.016718 0.976069 0.026019 -0.009352 -1397200.000000 0 0 1
-21.986577 -0.851916 14.189545 26.181645 0.038728 0.998022 0.030876 -0.001244 750015.000000 0 0 1
-23.348077 -1.240216 14.002345 27.253193 0.053069 1.031203 0.044415 -0.010271 416687.000000 0 0 1
-23.525477 -2.364916 12.911745 26.939823 0.100189 1.070961 0.034480 -0.004397 -102864.000000 0 0 1
-22.931477 -3.591516 13.281045 26.742060 0.155357 1.051079 0.042440 -0.005727 150698.000000 0 0 1
-22.946377 -4.504116 12.187745 26.369763 0.193825 1.090337 0.040052 0.001044 104111.000000 0 0 1
-22.449677 -5.918616 12.676445 26.452038 0.257774 1.071026 0.034621 -0.001951 27211.200000 0 0 1
-23.487677 -6.510616 13.401845 27.814898 0.270404 1.068063 0.023419 -0.005292 29267.800000 0 0 1
-23.479877 -7.900916 13.619945 28.270692 0.324595 1.068124 0.024056 -0.006553 -468147.000000 0 0 1
-24.313277 -8.354616 14.815745 29.672232 0.330983 1.047990 0.025461 -0.004107 -857026.000000 0 0 1
-25.674537 -8.192716 14.661945 30.680207 0.308885 1.072539 0.016881 -0.007607 -1109320.000000 0 0 1
-26.430797 -8.674516 15.719445 31.952077 0.317121 1.056446 0.022127 -0.003201 -949574.000000 0 0 1
-27.829847 -8.027016 15.795045 32.991163 0.280810 1.071548 0.018373 -0.008044 602393.000000 0 0 1
-28.850457 -8.490816 14.855445 33.542914 0.286223 1.111989 0.017632 -0.010830 1253500.000000 0 0 1
-29.103117 -9.909016 14.649345 34.055592 0.328168 1.126127 0.020921 -0.014970 -1003240.000000 0 0 1
-29.602827 -10.670616 15.851945 35.234551 0.345962 1.104145 0.027669 -0.015188 -120808.000000 0 0 1
-28.519537 -10.814616 16.778945 34.811678 0.362448 1.067870 0.028795 -0.020842 748254.000000 0 0 1
-28.993657 -11.110516 18.095545 35.937786 0.365945 1.043123 0.034978 -0.013970 -256266.000000 0 0 1
-27.864637 -11.147116 19.139045 35.594933 0.380545 1.003101 0.035222 -0.010838 185848.000000 0 0 1
-26.888507 -12.120216 18.847145 35.001519 0.423484 1.002180 0.033207 -0.010269 289031.000000 0 0 1
-25.695477 -12.055816 19.639145 34.515160 0.438689 0.965506 0.032893 -0.009810 400658.000000 0 0 1
-24.735677 -13.147116 19.192945 33.956878 0.488532 0.970102 0.047762 -0.005689 -453729.000000 0 0 1
-24.231277 -12.898316 17.923945 32.783977 0.489153 0.992344 0.040515 -0.006924 51063.100000 0 0 1
-23.051377 -13.613216 17.594045 32.034920 0.533449 0.989372 0.038219 -0.012776 -9805.920000 0 0 1
-22.716577 -13.423016 16.108545 30.914486 0.533695 1.022695 0.026227 -0.016362 -183246.000000 0 0 1
-21.976577 -12.223016 15.818345 29.708452 0.507578 1.009301 0.022196 -0.018358 83165.500000 0 0 1
-21.895277 -12.020216 14.400745 28.831757 0.502065 1.047804 0.011856 -0.010008 -97926.000000 0 0 1
-20.652677 -11.240516 13.964045 27.347337 0.498429 1.034893 0.010371 -0.006233 -321155.000000 0 0 1
-20.864177 -9.861016 14.023245 27.003795 0.441512 1.024757 0.009077 -0.005538 654956.000000 0 0 1
-19.647877 -9.110516 13.892145 25.729988 0.434180 1.000454 0.015412 0.000366 835181.000000 0 0 1
-18.953977 -9.027116 12.444445 24.405047 0.444480 1.035713 0.010958 0.009983 125372.000000 0 1 0
-18.178477 -10.110916 11.991745 24.010198 0.507593 1.047840 -0.011554 -0.001788 170371.000000 0 1 0
-18.340977 -10.430716 10.632745 23.627242 0.517095 1.104008 0.009831 0.009723 -1243260.000000 0 1 0
-17.805977 -11.798816 10.093045 23.624869 0.585204 1.129379 0.010654 0.007900 542467.000000 0 1 0
-16.401977 -12.007216 9.980545 22.645295 0.631920 1.114380 0.014914 -0.004045 701616.000000 0 1 0
-15.646377 -11.768116 11.134745 22.522882 0.644863 1.053681 0.010709 -0.008000 -1316760.000000 0 1 0
-14.159777 -12.143416 11.087745 21.700229 0.708889 1.034506 0.019602 -0.008697 -81575.400000 0 1 0
-14.065877 -13.545316 10.946945 22.386605 0.766547 1.059859 0.022252 -0.005580 51597.400000 0 1 0
-12.738277 -14.018416 11.004645 21.906207 0.833205 1.044479 0.033873 -0.000515 -160462.000000 0 1 0
-12.561677 -15.538216 10.914245 22.767359 0.890932 1.070847 0.052120 -0.002543 -392263.000000 0 1 0
-12.720677 -16.104816 9.611145 22.661749 0.902264 1.132814 0.024830 -0.005384 133058.000000 0 1 0
-12.430877 -17.490816 9.561245 23.491972 0.952919 1.151628 0.018175 -0.002043 41154.000000 0 1 0
-12.954977 -18.158216 8.260245 23.786212 0.951101 1.216138 -0.001631 -0.002231 -873872.000000 0 1 0
-12.268277 -17.842116 7.110745 22.790666 0.968440 1.253496 0.018366 -0.013662 -635272.000000 0 1 0
-12.603277 -18.616016 5.977545 23.262195 0.975665 1.310917 0.011687 -0.004542 -657039.000000 0 1 0
-11.860477 -18.256516 4.747945 22.282601 0.994662 1.356072 0.014062 -0.006578 -389289.000000 0 1 0
-12.241877 -19.156116 3.706745 23.033895 1.002151 1.409168 0.017724 -0.004150 123076.000000 0 1 0
-11.410577 -18.919016 2.612545 22.247603 1.028080 1.453094 0.020446 -0.015730 14056.000000 0 1 0
-11.567577 -19.818416 1.369545 22.988130 1.042465 1.511185 0.028284 -0.019752 -136059.000000 0 1 0
-11.456677 -21.201916 1.690245 24.158511 1.075384 1.500774 0.021084 -0.017347 -262365.000000 0 1 0
-11.803077 -22.110616 0.621945 25.071474 1.080461 1.545987 0.026682 -0.019298 -455175.000000 0 0 1
-10.967977 -22.218816 -0.661555 24.787295 1.112254 1.597489 0.040524 -0.015494 -328629.000000 0 1 0
-11.021077 -21.120216 -1.544555 23.872858 1.089841 1.635541 0.043569 -0.032791 -23602.300000 0 1 0
-12.107477 -20.982516 -2.454655 24.349175 1.047440 1.671778 0.058533 -0.028309 57909.000000 0 1 0
-13.206377 -20.008016 -1.989655 24.055932 0.987385 1.653600 0.063480 -0.028488 -496919.000000 0 1 0
-13.965477 -20.473216 -0.922955 24.799980 0.972162 1.608021 0.046327 -0.017670 -1015370.000000 0 1 0
-14.836277 -19.459816 -0.614355 24.478092 0.919403 1.595897 0.042874 -0.010703 -698687.000000 0 1 0
25.663923 -20.413516 -4.509955 33.101182 -0.671940 1.707469 0.034618 -0.017933 53143.500000 0 0 1
24.606523 -20.394416 -3.544055 32.155458 -0.692070 1.681237 0.029875 -0.022783 384609.000000 0 0 1
24.556323 -21.628916 -2.848455 32.847172 -0.722099 1.657624 0.017888 -0.021434 -1313080.000000 0 0 1
23.364423 -21.980216 -2.008655 32.141264 -0.754881 1.633332 0.013378 -0.018800 -726427.000000 0 0 1
22.288223 -22.249516 -2.910255 31.627131 -0.784529 1.662944 0.014183 -0.024995 149007.000000 0 0 1
21.230123 -22.950516 -2.270155 31.346418 -0.824318 1.643281 0.018500 -0.023015 960299.000000 0 0 1
20.146923 -23.516916 -3.294455 31.141568 -0.862426 1.676784 0.022449 -0.022760 862528.000000 0 0 1
19.517623 -22.604416 -4.203755 30.159058 -0.858550 1.710638 0.026500 -0.022611 148781.000000 0 0 1
18.454723 -23.287216 -4.854455 30.107092 -0.900656 1.732743 0.036248 -0.022502 -60403.300000 0 0 1
17.337423 -22.386516 -5.358555 28.817641 -0.911825 1.757832 0.023242 -0.006339 -323977.000000 0 0 1
16.440223 -21.759316 -4.444555 27.631555 -0.923754 1.732349 0.022066 -0.004311 531767.000000 0 0 1
17.013023 -20.791816 -3.595355 27.104781 -0.885023 1.703835 0.014634 -0.014935 -533882.000000 0 0 1
15.991023 -20.242016 -2.597555 25.926807 -0.902188 1.671153 0.035662 -0.004213 124151.000000 0 0 1
15.451423 -21.254116 -1.675255 26.330408 -0.942188 1.634464 0.032348 -0.006447 155293.000000 0 0 1
14.651623 -20.582016 -0.754855 25.275665 -0.952151 1.600666 0.034670 0.005122 -367167.000000 0 0 1
14.348223 -21.387116 0.560745 25.760331 -0.979881 1.549027 0.030415 0.004896 400501.000000 0 0 1
13.361623 -22.427816 0.434945 26.109942 -1.033499 1.554137 0.031301 0.003495 334839.000000 0 0 1
12.830823 -22.729916 1.721945 26.158062 -1.056896 1.504920 0.030743 0.002198 -352487.000000 0 0 1
11.879123 -23.897416 1.735845 26.743471 -1.109481 1.505843 0.032221 -0.000033 -304836.000000 0 0 1
12.453523 -25.182086 1.784845 28.149838 -1.111527 1.507349 0.026803 0.002190 -76117.400000 0 0 1
11.470623 -26.119086 1.413045 28.561837 -1.156988 1.521303 0.027454 0.003849 58012.500000 0 0 1
11.654023 -27.564966 1.882645 29.986463 -1.170804 1.507972 0.030656 0.003479 59454.000000 0 0 1
11.213823 -27.657986 3.247845 30.021035 -1.185604 1.462399 0.036522 0.001108 444464.000000 0 0 1
11.802023 -28.802596 3.898945 31.370034 -1.181908 1.446185 0.035748 -0.002916 135987.000000 0 0 1
11.329823 -28.927786 5.350145 31.524685 -1.197501 1.400258 0.036150 -0.009796 -190625.000000 0 0 1
12.030323 -29.978696 6.005645 32.856029 -1.189173 1.386976 0.025245 -0.008262 33401.800000 0 0 1
11.704723 -30.181536 7.383345 33.203004 -1.200842 1.346552 0.023310 -0.008498 -372342.000000 0 0 1
12.584723 -31.323666 7.944245 34.679365 -1.188770 1.339667 0.020931 -0.001377 -279616.000000 0 0 1
12.232723 -31.852416 9.189845 35.336513 -1.204121 1.307705 0.019838 -0.002383 -213577.000000 0 0 1
11.230023 -32.851636 9.266645 35.933468 -1.241409 1.309965 0.010130 -0.001972 -25778.700000 0 0 1
10.875323 -33.211206 10.675345 36.540660 -1.254342 1.274322 0.013445 -0.000741 197211.000000 0 0 1
11.924823 -33.866046 11.421245 37.676987 -1.232236 1.262815 0.011267 0.000402 539204.000000 0 0 1
11.652023 -34.112290 12.769845 38.242475 -1.241644 1.230339 0.014948 0.004786 470687.000000 0 0 1
10.591223 33.921998 13.274045 37.935158 1.268164 1.213317 0.013305 0.004461 487660.000000 0 0 1
11.031023 32.639200 12.865945 36.776805 1.244880 1.213398 0.007360 0.003454 221475.000000 0 0 1
10.004323 31.682310 13.021945 35.685099 1.264935 1.197257 0.003080 0.008416 -136618.000000 0 0 1
10.115923 30.500310 11.993045 34.299183 1.250547 1.213588 0.017401 0.007939 -397318.000000 0 0 1
9.796423 30.700820 10.645245 33.938643 1.261916 1.251750 0.015330 0.004457 421.851000 0 0 1
10.626323 31.624780 9.968545 34.819784 1.246636 1.280444 -0.002464 0.001290 -171626.000000 0 0 1
10.192823 31.888840 8.484245 34.536563 1.261424 1.322596 -0.001541 -0.002884 509640.000000 0 0 1
8.968323 32.650030 8.410645 34.888311 1.302727 1.327325 0.001850 0.001812 595987.000000 0 0 1
8.580223 32.780940 7.052245 34.611334 1.314795 1.365604 0.000289 0.002975 17372.600000 0 0 1
9.101223 34.107658 6.401445 35.876777 1.310034 1.391407 0.008971 0.004209 342919.000000 0 0 1
8.440723 -33.784426 6.857845 35.491736 -1.325968 1.376350 0.004547 0.006333 579996.000000 0 0 1
9.033523 -32.674606 6.139545 34.451828 -1.301065 1.391633 0.015281 -0.004177 359975.000000 0 0 1
8.291523 -31.332706 6.418045 33.040568 -1.312098 1.375306 0.016676 -0.002406 35735.300000 0 0 1
8.498423 -30.746136 7.710045 32.817570 -1.301123 1.333643 0.022464 -0.004170 -50261.800000 0 0 1
7.654323 -29.644436 7.901845 31.619937 -1.318111 1.318219 0.031731 0.000077 -125885.000000 0 0 1
8.288123 -28.296506 7.493645 30.422688 -1.285863 1.321917 0.037959 -0.002500 -204566.000000 0 0 1
8.805823 -27.580936 8.596045 30.201698 -1.261754 1.282185 0.043968 -0.008938 396950.000000 0 0 1
9.557823 -26.361016 8.270045 29.234377 -1.222964 1.283993 0.050645 -0.014594 304578.000000 0 0 1
8.868123 -25.261426 7.458645 27.792349 -1.233183 1.299095 0.041911 -0.010679 -462107.000000 0 0 1
8.836723 -25.719596 6.119045 27.875222 -1.239853 1.349478 0.037937 -0.003113 -101956.000000 0 0 1
8.117523 -24.731016 5.366445 26.576608 -1.253644 1.367475 0.039112 -0.000593 204676.000000 0 0 1
7.884023 -25.111066 3.884245 26.604714 -1.266576 1.424274 0.042357 0.001598 375626.000000 0 0 1
6.988723 -26.193496 3.670245 27.357123 -1.310059 1.436230 0.021243 0.001801 6923.920000 0 0 1
7.613723 -27.481666 3.888745 28.780776 -1.300528 1.435266 0.030119 0.001803 431850.000000 0 0 1
6.759023 -28.717196 3.449945 29.702927 -1.339639 1.454385 0.028245 0.002773 815263.000000 0 0 1
5.539923 -28.856146 4.198345 29.681543 -1.381120 1.428874 0.019731 0.001821 574498.000000 0 0 1
4.562123 -29.735286 3.662345 30.305329 -1.418559 1.449652 0.019500 0.008107 478525.000000 0 0 1
4.828023 -31.288596 3.981645 31.908299 -1.417698 1.445686 0.019355 0.004968 -63957.100000 0 0 1
5.834123 -31.917206 3.202845 32.603731 -1.390003 1.472402 0.024670 0.001805 114319.000000 0 0 1
5.886223 -33.298596 3.458145 33.991218 -1.395833 1.468884 0.019405 0.001448 68691.500000 0 0 1
6.949123 -34.121123 2.685945 34.925000 -1.369884 1.493814 0.020413 0.003038 52113.100000 0 0 1
6.624323 -34.427830 1.318345 35.084116 -1.380708 1.533211 0.027851 0.001265 -20683.500000 0 0 1
7.623823 33.903593 0.654745 34.756366 1.349608 1.551957 0.020656 -0.002203 -259271.000000 0 0 1
7.151923 33.329913 -0.730255 34.096428 1.359422 1.592215 0.035480 -0.002914 339558.000000 0 0 1
6.126923 32.362480 -0.721255 32.945250 1.383689 1.592691 0.025443 -0.003255 -677044.000000 0 0 1
4.838923 32.889750 -0.625855 33.249700 1.424719 1.589620 0.031196 -0.005749 -783096.000000 0 0 1
3.774423 31.871060 -0.208955 32.094461 1.452917 1.577307 0.040788 -0.007693 -242251.000000 0 0 1
3.562423 30.912320 -1.194455 31.139832 1.456060 1.609164 0.047273 -0.008957 -176551.000000 0 0 1
2.422923 30.167700 -0.839255 30.276477 1.490653 1.598520 0.040941 -0.017304 135769.000000 0 0 1
2.273723 29.027660 -1.851455 29.175379 1.492626 1.634299 0.044742 -0.009113 29666.800000 0 0 1
2.129823 29.615250 -3.130055 29.856263 1.499004 1.675827 0.053304 -0.017133 -52614.900000 0 0 1
1.956523 28.673120 -4.177855 29.041871 1.502667 1.715153 0.048946 -0.028554 -294399.000000 0 0 1
1.676123 29.314920 -5.558255 29.884246 1.513682 1.757879 0.051704 -0.028597 -258123.000000 0 0 1
0.409823 29.927050 -5.537755 30.437855 1.557103 1.753752 0.054765 -0.025168 -171344.000000 0 0 1
0.130123 30.812760 -6.622555 31.516684 1.566573 1.782503 0.045272 -0.024956 -53704.400000 0 0 1
-0.131077 30.234280 -8.087155 31.297459 -1.566461 1.832158 0.041388 -0.022024 179304.000000 0 0 1
-1.390577 29.597860 -8.355755 30.786128 -1.523848 1.845657 0.037819 -0.021624 537996.000000 0 0 1
-1.560777 29.101500 -9.728555 30.724227 -1.517215 1.892983 0.038470 -0.018268 103576.000000 0 0 1
-1.663977 30.221430 -10.818855 32.142671 -1.515792 1.914088 0.029754 -0.016965 354560.000000 0 0 1
-0.393277 30.840170 -11.052555 32.763238 -1.558045 1.914893 0.023608 -0.019451 381266.000000 0 0 1
-0.511377 32.198420 -11.554655 34.212714 -1.554916 1.915300 0.012643 -0.018361 184907.000000 0 0 1
-0.895877 33.318275 -10.522055 34.951734 -1.543914 1.876585 0.008734 -0.010285 61391.700000 0 0 1
0.147023 33.420691 -9.599255 34.772258 1.566397 1.850489 0.005186 -0.017784 -185828.000000 0 0 1
-0.207977 34.423680 -8.631155 35.489856 -1.564755 1.816461 0.005415 -0.003322 -52079.100000 0 0 1
0.908123 -34.297038 -7.614255 35.143825 -1.544324 1.789188 0.015360 -0.006014 -110067.000000 0 0 1
2.016223 -33.685916 -8.230555 34.735402 -1.511014 1.810022 0.004366 -0.000237 -697221.000000 0 0 1
2.849123 -33.194636 -7.228255 34.091774 -1.485175 1.784441 0.012522 -0.005821 -1125870.000000 0 0 1
4.118323 -32.544936 -7.792155 33.717223 -1.444923 1.804008 -0.006805 0.007864 120503.000000 0 0 1
5.071923 -33.371056 -8.443055 34.794209 -1.419965 1.815900 0.008456 -0.002604 397222.000000 0 0 1
5.846223 -34.152597 -7.527455 35.457592 -1.401260 1.784719 0.026119 0.000587 -1195320.000000 0 0 1
6.215323 33.636375 -8.277255 35.193024 1.388077 1.808216 0.024776 -0.005060 327646.000000 0 0 1
5.214323 32.616960 -8.457155 34.096609 1.412272 1.821448 0.016832 -0.001690 891579.000000 0 0 1
4.036023 32.992450 -9.229555 34.496028 1.449069 1.841650 0.019014 -0.017569 1119220.000000 0 0 1
3.098623 31.822730 -9.545555 33.367728 1.473731 1.860921 0.031249 -0.022474 -205664.000000 0 0 1
3.815623 30.932510 -10.348255 32.839999 1.448063 1.891370 0.032954 -0.022676 -292.992000 0 0 1
3.115723 29.729060 -10.713355 31.753751 1.466374 1.914938 0.010958 -0.019560 233682.000000 0 0 1
3.903823 28.837480 -11.708555 31.367664 1.436241 1.953326 0.008552 -0.015559 -117778.000000 0 0 1
3.827723 29.385010 -13.011755 32.364117 1.441265 1.984543 0.010497 -0.009790 -51874.300000 0 0 1
5.020623 29.287070 -13.750655 32.741711 1.401019 2.004213 0.011692 -0.009717 -191875.000000 0 0 1
4.821523 29.781830 -15.179755 33.773206 1.410294 2.036959 0.021702 -0.009249 -79663.300000 0 0 1
4.057523 28.834990 -15.912955 33.183464 1.430999 2.070932 0.020346 -0.002606 143378.000000 0 0 1
3.897023 29.250430 -17.257355 34.184657 1.438347 2.099978 0.042000 -0.001204 444709.000000 0 0 1
2.767623 28.445380 -18.000455 33.775964 1.473806 2.132864 0.041086 -0.007084 276718.000000 0 0 1
3.153423 27.154410 -18.487055 33.001171 1.455185 2.165416 0.047058 0.008623 -206728.000000 0 0 1
2.217323 26.477480 -19.277755 32.826899 1.487248 2.198459 0.038817 -0.004728 -271478.000000 0 0 1
2.894223 25.311290 -19.968055 32.369139 1.456946 2.235576 0.045381 -0.007036 120917.000000 0 0 1
3.004823 24.247350 -19.064455 30.990586 1.447501 2.233397 0.038175 -0.005671 609109.000000 0 0 1
4.028823 23.355000 -19.566455 30.733266 1.399974 2.260948 0.034086 -0.004329 635272.000000 0 0 1
4.436223 22.144200 -18.739055 29.346173 1.373080 2.263411 0.026642 0.007067 -82182.300000 0 0 1
3.572623 21.037200 -18.782755 28.427439 1.402577 2.292582 0.044451 -0.000125 -333300.000000 0 0 1
4.210623 19.935700 -18.216355 27.331247 1.362645 2.300304 0.029549 0.002717 88956.000000 0 0 1
3.217823 18.800200 -17.900455 26.157756 1.401280 2.324476 0.031572 -0.010879 345712.000000 0 0 1
2.372023 18.996200 -16.756955 25.441652 1.446571 2.289810 0.021115 -0.012431 -32417.800000 0 0 1
1.501923 17.899600 -16.580155 24.444897 1.487084 2.316197 0.016521 -0.008912 -86992.600000 0 1 0
2.039323 16.694400 -15.713155 23.016626 1.449242 2.322230 0.011891 -0.008939 -496314.000000 0 1 0
3.062623 15.864700 -16.124655 22.827021 1.380096 2.355174 0.009314 -0.010768 -647183.000000 0 1 0
2.780923 14.980300 -17.207755 22.983685 1.387247 2.416887 0.013033 -0.005405 -460003.000000 0 1 0
2.682823 15.515500 -18.604555 24.373300 1.399577 2.439229 0.013150 -0.007173 491387.000000 0 1 0
3.931723 15.958800 -19.219955 25.289295 1.329240 2.434115 0.023259 -0.005994 909038.000000 0 0 1
3.704523 16.514400 -20.537755 26.612935 1.350129 2.452339 0.023985 -0.007014 -151781.000000 0 0 1
4.135323 15.510800 -21.685855 26.980773 1.310248 2.504371 0.029216 -0.007658 339361.000000 0 0 1
3.362223 14.332400 -21.955555 26.434232 1.340374 2.550932 0.024590 -0.003211 -925588.000000 0 0 1
2.147823 14.575400 -22.537655 26.925849 1.424490 2.562623 0.038641 -0.012527 -702169.000000 0 0 1
1.291623 13.332200 -22.947555 26.570776 1.474218 2.613240 0.041092 -0.011045 207158.000000 0 0 1
0.586023 12.692100 -21.905955 25.323975 1.524657 2.616003 0.031676 0.000316 -105508.000000 0 0 1
-0.256477 11.781100 -22.554655 25.447447 -1.549030 2.660139 0.022676 0.008860 -64029.900000 0 0 1
-0.918677 10.668100 -21.602055 24.110187 -1.484894 2.681412 0.021446 0.003871 -180844.000000 0 1 0
-1.877977 11.196500 -20.691255 23.601196 -1.404614 2.639762 0.019928 -0.000867 250880.000000 0 1 0
-2.284677 10.268500 -19.671955 22.308018 -1.351869 2.650532 0.015594 -0.000440 11633.500000 0 1 0
-3.210877 9.079400 -19.988055 22.187104 -1.230879 2.692603 0.012512 -0.004087 -677198.000000 0 1 0
-2.656377 8.080200 -20.765455 22.439922 -1.253175 2.752833 0.013569 -0.003034 -493334.000000 0 1 0
-3.602277 7.152200 -21.268755 22.726423 -1.104225 2.781489 0.005368 0.004753 -63921.100000 0 1 0
-2.976177 5.969700 -21.992855 22.982181 -1.108312 2.847110 0.010043 -0.006095 -329136.000000 0 1 0
-2.448177 5.061500 -21.089855 21.826460 -1.120285 2.881056 0.022057 -0.005083 -62858.000000 0 1 0
-1.984877 3.897500 -21.761655 22.196844 -1.099761 2.943248 0.033498 -0.014239 23663.400000 0 1 0
-1.052577 2.985000 -20.924055 21.162094 -1.231787 2.991463 0.039129 -0.014393 -317349.000000 0 1 0
0.282623 3.367300 -20.828355 21.100686 1.487061 2.980757 0.028179 -0.012693 -501801.000000 0 1 0
1.079923 2.412600 -20.138155 20.310888 1.149925 3.011082 0.022938 -0.002651 95570.500000 0 1 0
2.590023 2.550400 -20.372255 20.693998 0.777690 2.965025 0.017734 -0.001032 20657.400000 0 1 0
3.128123 1.843100 -21.489155 21.793714 0.532443 2.974217 0.038261 -0.001926 883566.000000 0 1 0
4.560623 1.768700 -21.377755 21.930253 0.369962 2.916649 0.057672 -0.001732 1146220.000000 0 1 0
5.302123 1.036800 -22.591255 23.228264 0.193108 2.906858 0.052245 0.002075 -72543.600000 0 1 0
6.688823 1.024300 -22.385855 23.386236 0.151956 2.848045 0.037380 -0.002516 -245762.000000 0 1 0
7.323423 0.536500 -23.573955 24.691126 0.073127 2.839628 0.032907 -0.001001 58514.600000 0 1 0
8.843123 0.781000 -23.619755 25.232987 0.088089 2.782075 0.038388 -0.005030 -9248.050000 0 0 1
9.169623 2.139000 -23.794855 25.590085 0.229172 2.764792 0.031888 -0.010517 739242.000000 0 0 1
10.557923 2.474500 -23.975255 26.313604 0.230218 2.716827 0.007287 -0.005085 462249.000000 0 0 1
13.631323 -21.418216 22.468041 33.902298 -1.004016 0.846339 0.019782 0.004224 -283863.000000 0 0 1
12.497123 -22.204516 22.864941 34.234838 -1.058165 0.839433 0.013594 0.011045 551136.000000 0 0 1
11.255223 -21.680516 22.443441 33.172773 -1.091954 0.827712 0.010713 0.002124 44615.000000 0 0 1
10.908923 -21.391916 20.935241 31.857542 -1.099216 0.853762 0.017058 -0.001050 -941424.000000 0 0 1
11.455123 -20.175816 20.461441 30.934672 -1.054416 0.848059 0.015280 -0.003128 46687.400000 0 0 1
11.205723 -20.081616 19.053041 29.863990 -1.061825 0.878906 0.036992 -0.007621 40352.400000 0 0 1
11.484623 -18.683216 18.414041 28.636271 -1.019636 0.872345 0.048700 -0.015686 244235.000000 0 0 1
10.674723 -17.597116 18.904041 27.945858 -1.025525 0.827861 0.061201 -0.021774 106681.000000 0 0 1
10.931023 -16.366816 18.237241 26.832012 -0.981956 0.823467 0.064846 -0.018388 644451.000000 0 0 1
9.940423 -15.230016 18.730241 26.107227 -0.992535 0.770683 0.067850 -0.014581 1262020.000000 0 0 1
8.561423 -15.467816 18.471641 25.568590 -1.065271 0.763479 0.062358 -0.014590 443251.000000 0 0 1
7.687623 -14.436016 18.936141 25.021502 -1.081464 0.712401 0.044935 -0.012184 1901500.000000 0 0 1
6.145623 -14.716316 18.621441 24.517274 -1.175205 0.708216 0.024127 0.001004 1328550.000000 0 1 0
5.959423 -14.835216 17.179041 23.467378 -1.188819 0.749486 0.030272 -0.001914 722602.000000 0 1 0
4.579523 -14.955916 16.808741 22.960515 -1.273660 0.749438 0.014846 -0.000991 762300.000000 0 1 0
3.796223 -16.258616 17.099841 23.898922 -1.341416 0.773447 -0.005875 0.008053 -73058.100000 0 1 0
2.490223 -16.254816 16.562141 23.339340 -1.418779 0.781833 -0.004738 0.009685 -262934.000000 0 1 0
1.797123 -17.452316 16.709141 24.228256 -1.468185 0.809784 -0.003123 -0.002119 -161600.000000 0 1 0
0.343823 -17.344116 16.254741 23.772951 -1.550975 0.817908 0.007090 0.000823 -511712.000000 0 1 0
0.107323 -17.544716 14.872641 23.000523 -1.564679 0.867649 0.009187 0.002510 203456.000000 0 1 0
-1.290277 -17.419416 14.622341 22.779678 1.496860 0.873819 0.001985 0.002497 330679.000000 0 1 0
-1.681177 -18.193416 13.346841 22.626642 1.478652 0.939895 -0.003193 0.004128 -840332.000000 0 1 0
-3.047077 -18.354316 13.141941 22.778855 1.406283 0.955824 -0.015855 0.001998 -747796.000000 0 1 0
-3.450177 -19.418516 12.273341 23.229666 1.394957 1.014143 0.000338 -0.007911 -580387.000000 0 1 0
-4.934577 -19.705116 12.290741 23.742451 1.325421 1.026672 0.004780 -0.010396 -667382.000000 0 1 0
-5.535577 -20.166916 13.486241 24.884248 1.302906 0.998030 -0.001820 -0.008898 -94410.000000 0 1 0
-5.716777 -21.587716 13.389041 26.038000 1.311922 1.030708 -0.023044 0.002577 -190535.000000 0 0 1
-6.412477 -22.289716 14.539441 27.374197 1.290673 1.010855 -0.017386 0.006227 -120941.000000 0 0 1
-7.728577 -21.880116 14.810441 27.528523 1.231252 1.002730 0.000949 0.006685 -518047.000000 0 0 1
-8.417277 -22.790216 15.599041 28.871692 1.216999 1.000016 0.012732 -0.001879 78607.100000 0 0 1
-9.922177 -22.435316 15.705241 29.128124 1.154400 1.001336 0.017624 -0.000834 160804.000000 0 0 1
-10.021277 -21.184016 16.365541 28.583553 1.128933 0.961182 0.003948 0.002840 -1009380.000000 0 0 1
-11.200877 -20.522016 16.074941 28.372813 1.071185 0.968469 0.022545 -0.003424 -602866.000000 0 0 1
-11.396377 -19.328716 16.983341 28.140905 1.038053 0.922899 0.012983 0.007035 -398458.000000 0 0 1
-11.708677 -19.758416 18.259741 29.341204 1.035842 0.899088 0.016030 0.008233 -196180.000000 0 0 1
-11.859577 -18.696216 19.155241 29.276635 1.005516 0.857561 0.018073 -0.001285 -184010.000000 0 0 1
-12.261777 -19.179116 20.557641 30.672566 1.001959 0.836279 0.030810 -0.005825 836120.000000 0 0 1
-13.605977 -19.709916 20.531541 31.545960 0.966603 0.862099 0.045795 -0.003102 870089.000000 0 0 1
-13.995477 -20.154416 21.794841 32.819034 0.963830 0.844518 0.038792 0.004132 427861.000000 0 0 1
-15.354177 -20.929716 21.731341 33.853434 0.937870 0.873791 0.049322 -0.009291 -304189.000000 0 0 1
-15.326277 -22.198516 21.056041 34.220254 0.966530 0.908018 0.038632 -0.003644 -413783.000000 0 0 1
-16.542377 -22.539016 20.454841 34.641854 0.937650 0.939160 0.042866 -0.000751 101392.000000 0 0 1
-17.600877 -23.029516 21.507441 36.093206 0.918222 0.932428 0.047062 -0.014096 -270513.000000 0 0 1
-18.358377 -22.059916 22.207741 36.288479 0.876724 0.912237 0.055131 -0.014106 181242.000000 0 0 1
-19.135877 -22.638016 23.241341 37.667247 0.869038 0.905850 0.053837 -0.019037 333726.000000 0 0 1
-19.846977 -21.575116 24.191261 38.007963 0.827094 0.880872 0.045096 -0.008366 65264.800000 0 0 1
-20.897077 -20.884916 23.569141 37.793809 0.785107 0.897426 0.047772 0.000958 20387.400000 0 0 1
-21.304977 -19.760216 24.357821 37.916641 0.747799 0.873165 0.040002 0.002621 384045.000000 0 0 1
-22.338377 -18.844216 23.653441 37.597777 0.700755 0.890378 0.054400 0.001630 -42361.000000 0 0 1
-21.747377 -18.268816 22.507541 36.239308 0.698687 0.900675 0.057811 0.001507 -160490.000000 0 0 1
-22.609177 -17.466416 21.730941 35.895465 0.657769 0.920534 0.047565 -0.000602 -581023.000000 0 0 1
-22.023077 -16.951116 20.417941 34.485484 0.655989 0.937167 0.056210 0.002834 -256107.000000 0 0 1
-21.210877 -15.787716 20.527141 33.474122 0.639857 0.910660 0.048739 0.005314 -11629.400000 0 0 1
-20.408377 -15.606416 19.366741 32.173479 0.652847 0.924859 0.044015 -0.000085 111256.000000 0 0 1
-19.482577 -14.373516 19.376141 31.009734 0.635623 0.895869 0.039148 -0.011716 80784.500000 0 0 1
-19.037977 -14.208616 18.029941 29.822946 0.641148 0.921575 0.041443 -0.010619 -95176.900000 0 0 1
-18.519377 -12.947316 17.688841 28.696610 0.610137 0.906623 0.037399 -0.014988 -333543.000000 0 0 1
-18.104377 -12.997716 16.190641 27.547159 0.622660 0.942530 0.019352 -0.016317 85580.400000 0 0 1
-17.529477 -11.857216 15.590341 26.285640 0.594722 0.935877 0.015058 -0.006279 595625.000000 0 0 1
-16.166577 -11.661316 15.978641 25.547240 0.624893 0.895082 -0.002912 -0.013211 143298.000000 0 0 1
-15.670977 -10.281516 15.440541 24.283727 0.580642 0.881701 0.005122 -0.008120 -238427.000000 0 1 0
-16.350277 -9.180716 15.931541 24.605510 0.511631 0.866525 -0.005592 0.001361 -83470.400000 0 1 0
-15.951477 -8.038216 15.224641 23.470242 0.466776 0.864950 -0.018178 0.011189 -666098.000000 0 1 0
-16.346877 -6.746616 15.892741 23.776384 0.391420 0.838706 -0.003955 0.016987 483534.000000 0 1 0
-15.566777 -6.446416 17.065141 23.981240 0.392614 0.779018 -0.010810 0.014702 506093.000000 0 1 0
-14.192477 -6.170816 16.826241 22.861054 0.410138 0.743621 -0.002342 0.006624 -704731.000000 0 1 0
-13.355277 -6.154616 18.054341 23.285231 0.431830 0.683518 0.002470 0.015030 -535619.000000 0 1 0
-13.250077 -7.282916 18.893041 24.198190 0.502575 0.674911 0.000165 -0.003653 86533.400000 0 1 0
-12.742277 -8.522316 18.342941 23.905208 0.589493 0.696145 -0.006483 -0.001410 -409420.000000 0 1 0
-12.834377 -9.704616 19.311441 25.136280 0.647421 0.694663 -0.000147 -0.002921 374792.000000 0 0 1
-14.107877 -10.256916 19.620441 26.252585 0.628641 0.726699 -0.004522 -0.004356 349305.000000 0 0 1
-15.004077 -9.502516 20.434541 27.073799 0.564566 0.715490 -0.005544 -0.004853 -223841.000000 0 0 1
-16.377277 -10.170716 20.662141 28.259206 0.555737 0.750768 -0.005260 -0.003181 134087.000000 0 0 1
-17.357677 -10.243216 19.668641 28.161461 0.533128 0.797603 0.011767 -0.005538 144400.000000 0 0 1
-17.811977 -9.057516 18.983441 27.562224 0.470430 0.811035 0.005563 -0.003228 -266957.000000 0 0 1
-18.925877 -9.373516 17.968341 27.729279 0.459861 0.865852 0.026983 0.004474 16741.000000 0 0 1
-20.215377 -9.586216 18.484741 29.021417 0.442799 0.880281 0.029078 -0.000588 -852573.000000 0 0 1
-21.160177 -9.500616 17.482241 29.045543 0.422010 0.924930 0.029586 -0.003592 -133398.000000 0 0 1
-22.602877 -9.585216 18.056441 30.476245 0.401083 0.936668 0.031141 -0.004185 -87356.800000 0 0 1
-23.116277 -8.450816 18.610341 30.856496 0.350485 0.923383 0.033144 -0.000012 -326528.000000 0 0 1
-24.463877 -8.657516 18.922541 32.116918 0.340136 0.940757 0.025263 0.002454 -445604.000000 0 0 1
-25.128287 -7.465416 19.640241 32.755188 0.288787 0.927786 0.034864 0.002743 -100971.000000 0 0 1
-25.068377 -7.496916 21.054941 33.584786 0.290593 0.893204 0.032399 0.003341 140487.000000 0 0 1
-25.692137 -6.395716 21.679841 34.219974 0.243978 0.884672 0.032956 0.002696 -541239.000000 0 0 1
-25.555777 -6.422216 23.269941 35.154413 0.246204 0.847399 0.032047 0.000036 461048.000000 0 0 1
-24.306677 -6.032516 23.829141 34.569261 0.243268 0.810252 0.015794 -0.005372 132572.000000 0 0 1
-23.247677 -6.949216 23.668241 33.895896 0.290466 0.797829 0.011621 -0.001065 -72923.800000 0 0 1
-22.160377 -6.798616 24.773391 33.926751 0.297676 0.752178 0.006287 -0.001813 155643.000000 0 0 1
-21.397277 -5.620516 24.745481 33.192959 0.256871 0.729506 0.009158 -0.005442 318249.000000 0 0 1
-20.629777 -5.467516 25.955901 33.603426 0.259074 0.688156 0.003044 -0.010051 707296.000000 0 0 1
-20.007977 -4.011116 26.101661 33.131630 0.197853 0.663540 0.002206 -0.009778 218144.000000 0 0 1
-18.965077 -3.746116 26.999431 33.206578 0.195017 0.621382 0.002768 -0.011709 -683174.000000 0 0 1
-19.372777 -3.566416 28.378211 34.544850 0.182056 0.606779 0.000594 -0.009579 161410.000000 0 0 1
-20.194577 -2.308816 28.771791 35.227369 0.113834 0.615049 0.008902 -0.012397 723281.000000 0 0 1
-21.567277 -2.395816 28.405781 35.745990 0.110632 0.652355 0.005076 -0.014022 -268526.000000 0 0 1
-22.332877 -1.439916 29.060481 36.678908 0.064386 0.656237 0.011214 -0.006610 678029.000000 0 0 1
-23.657977 -1.070916 28.297111 36.899502 0.045236 0.696847 0.011654 -0.006790 175942.000000 0 0 1
-23.437777 -0.383316 27.061781 35.802463 0.016353 0.713824 0.008370 -0.008263 -235576.000000 0 0 1
-24.615577 -0.100716 26.339421 36.051378 0.004092 0.751585 0.020691 -0.002099 -234752.000000 0 0 1
-25.332437 -1.264616 25.636871 36.063566 0.049879 0.780048 0.013616 -0.003876 -280895.000000 0 0 1
-26.181637 -1.992016 26.503201 37.307719 0.075938 0.780738 0.019679 -0.006320 -113289.000000 0 0 1
-26.395277 -3.369316 26.162551 37.316779 0.126962 0.793866 0.007063 -0.002245 81424.400000 0 0 1
-25.304947 -4.442916 26.439781 36.866542 0.173804 0.771055 0.014649 -0.014669 133979.000000 0 0 1
-25.025377 -4.582216 27.794781 37.680447 0.181097 0.741221 0.009909 -0.015519 3478.900000 0 0 1
-24.199077 -5.695816 28.139381 37.548135 0.231166 0.723608 0.015872 -0.019824 303622.000000 0 0 1
-24.049877 -5.780216 29.681471 38.636734 0.235869 0.694742 -0.001427 -0.019028 457786.000000 0 0 1
-25.235437 -6.381916 30.215661 39.881604 0.247702 0.711116 0.004353 -0.019212 571574.000000 0 0 1
-24.916577 -7.217316 31.341391 40.684251 0.281943 0.691396 0.005523 -0.012869 888871.000000 0 0 1
-26.201827 -7.747516 32.120311 42.169588 0.287494 0.704873 -0.001196 -0.013999 844521.000000 0 0 1
-26.953837 -8.644516 31.350901 42.238797 0.310352 0.734404 0.001105 -0.022113 -1179950.000000 0 0 1
-28.203747 -8.804416 31.894211 43.476543 0.302586 0.747198 0.010519 -0.015508 -625116.000000 0 0 1
-29.159677 -9.555816 30.879131 43.532989 0.316678 0.782253 0.011095 -0.022799 -280532.000000 0 0 1
-28.815857 -10.916416 30.678871 43.482352 0.362127 0.787601 0.024221 -0.025897 192963.000000 0 0 1
-29.661987 -11.555316 29.733891 43.559879 0.371480 0.819484 0.016790 -0.024185 -282203.000000 0 0 1
-28.986467 -12.702816 28.974191 42.907815 0.413025 0.829471 0.025712 -0.023416 -181649.000000 0 0 1
-27.927657 -12.322316 28.140131 41.516990 0.415531 0.826033 0.029951 -0.028151 -332232.000000 0 0 1
-27.142677 -13.435016 27.715201 41.053099 0.459622 0.829688 0.043425 -0.027498 28776.500000 0 0 1
-25.747497 -12.942016 27.228901 39.646468 0.465766 0.813729 0.038225 -0.023120 -229755.000000 0 0 1
-24.903577 -12.500916 28.268501 39.693441 0.465225 0.778211 0.038455 -0.021371 -622367.000000 0 0 1
-25.172717 -11.257716 28.841541 39.902836 0.420539 0.762959 0.038219 -0.025140 -1025940.000000 0 0 1
-25.247457 -9.970116 27.989981 38.990721 0.376099 0.770069 0.037963 -0.024552 167509.000000 0 0 1
-24.034977 -9.542316 27.381791 37.662958 0.377933 0.756822 0.018125 -0.016822 95100.800000 0 0 1
-23.477177 -10.167916 26.233181 36.643474 0.408710 0.772879 0.010899 -0.010103 93183.200000 0 0 1
-24.264777 -9.953816 24.889891 36.157496 0.389283 0.811551 0.022327 -0.002218 506902.000000 0 0 1
-25.560807 -10.542716 24.833851 37.164821 0.391198 0.838998 0.037615 -0.010809 34014.700000 0 0 1
-26.023087 -10.639916 23.501841 36.643491 0.388125 0.874521 0.041759 -0.007717 -373761.000000 0 0 1
-27.237597 -11.576916 23.500841 37.791550 0.401900 0.899688 0.052482 -0.018551 -55869.200000 0 0 1
-28.432517 -11.079616 24.082701 38.873415 0.371579 0.902670 0.052565 -0.019743 -268235.000000 0 0 1
-28.553127 -10.736216 25.492791 39.754620 0.359654 0.874666 0.052888 -0.021044 -1730410.000000 0 0 1
-29.949417 -10.585616 26.035401 41.071462 0.339745 0.884205 0.022780 -0.021854 -1294510.000000 0 0 1
-30.616037 -9.325616 25.613911 40.992454 0.295671 0.895864 0.030634 -0.024475 272119.000000 0 0 1
-31.988307 -9.272516 25.958261 42.226327 0.282139 0.908739 0.027415 -0.014518 -36850.000000 0 0 1
-32.417527 -9.411816 27.432021 43.497059 0.282563 0.888388 0.015732 -0.010393 -1106360.000000 0 0 1
-32.549707 -10.739116 27.933041 44.216138 0.318684 0.887002 0.009820 -0.018513 111831.000000 0 0 1
-33.125677 -10.655016 29.195711 45.422785 0.311203 0.872708 0.013719 -0.012999 -868456.000000 0 0 1
-33.796147 -11.909516 29.860021 46.643724 0.338805 0.876074 0.013772 -0.007216 679472.000000 0 0 1
-34.977878 -12.503616 29.316151 47.320493 0.343316 0.902661 0.006047 -0.001289 1144850.000000 0 0 1
34.558401 -11.691116 29.399721 46.854123 -0.326214 0.892492 0.009809 -0.002619 1066390.000000 0 0 1
33.230471 -12.261316 28.747171 45.618022 -0.353481 0.889022 0.014754 -0.002329 1072040.000000 0 0 1
33.308571 -12.248416 27.327021 44.791189 -0.352378 0.914612 0.010030 0.001391 80622.000000 0 0 1
32.118771 -12.796116 26.783331 43.734458 -0.379126 0.911693 0.015325 0.009951 115616.000000 0 0 1
31.896681 -12.292716 25.346511 42.555314 -0.367850 0.932767 0.019651 0.001579 41869.100000 0 0 1
31.670431 -10.865516 25.345761 41.993847 -0.330497 0.922839 0.023500 -0.009346 99791.200000 0 0 1
31.925631 -10.330116 24.054291 41.286391 -0.312936 0.948847 0.017323 -0.007515 -384464.000000 0 0 1
31.519611 -8.865416 23.892441 40.533075 -0.274183 0.940412 0.026362 0.012830 -914215.000000 0 0 1
30.154671 -8.779216 23.675841 39.330958 -0.283308 0.924837 0.033626 0.000195 -1006380.000000 0 0 1
29.790141 -7.390116 23.632541 38.737105 -0.243164 0.914641 0.036960 0.018421 -108465.000000 0 0 1
28.266601 -7.184616 23.645241 37.546196 -0.248903 0.889547 0.034737 0.029454 -244052.000000 0 0 1
27.684371 -7.817016 22.528441 36.538483 -0.275198 0.906421 0.021050 0.029084 127069.000000 0 0 1
26.282191 -7.589116 22.466341 35.398937 -0.281109 0.883226 0.028430 0.005278 305137.000000 0 0 1
13.875923 -17.453316 26.327551 34.500716 -0.899093 0.702698 0.011933 0.009668 -37017.200000 0 0 1
13.296123 -18.705316 26.013191 34.689506 -0.952845 0.722906 -0.010317 0.008334 223427.000000 0 0 1
14.218423 -19.772216 26.199701 35.770496 -0.947359 0.748899 0.021872 0.002858 -809576.000000 0 0 1
13.616123 -21.241116 26.170551 36.352188 -1.000755 0.767114 0.002377 -0.006080 66615.000000 0 0 1
12.815423 -21.666116 27.264381 37.107979 -1.036653 0.745526 0.005535 -0.006847 984687.000000 0 0 1
11.602823 -20.887916 27.350161 36.317514 -1.063755 0.718058 -0.008883 0.005993 -785972.000000 0 0 1
10.753223 -21.161916 28.563201 37.139130 -1.100658 0.693386 -0.022043 0.005917 -878726.000000 0 0 1
11.215823 -20.808516 29.812001 38.046609 -1.076436 0.670413 -0.021341 -0.001752 -512602.000000 0 0 1
10.667223 -19.692316 30.527251 37.861458 -1.074352 0.632946 -0.020377 0.003868 -333604.000000 0 0 1
10.607023 -18.278516 29.905171 36.618743 -1.044988 0.615191 -0.026693 0.012515 537456.000000 0 0 1
11.842123 -17.560816 29.933591 36.669306 -0.977494 0.615800 -0.023149 0.022409 285555.000000 0 0 1
11.612923 -16.279916 29.335921 35.503407 -0.951181 0.598317 -0.017951 0.021696 -165751.000000 0 0 1
12.646023 -15.229816 29.733481 35.720429 -0.877823 0.587382 -0.014051 0.017370 -60123.600000 0 0 1
12.337023 -13.976116 29.236511 34.674306 -0.847610 0.567635 -0.001706 0.015064 -205521.000000 0 0 1
13.095423 -13.002416 29.939741 35.170172 -0.781834 0.552372 0.004069 0.011262 4041.040000 0 0 1
12.664023 -11.498216 29.829301 34.385660 -0.737186 0.520657 0.002586 0.011985 -71128.500000 0 0 1
12.911323 -10.785716 28.604811 33.185375 -0.695938 0.531653 0.020361 0.013256 -205934.000000 0 0 1
14.258823 -10.436516 28.402151 33.450218 -0.631838 0.556541 0.023943 0.011960 -517514.000000 0 0 1
14.359823 -9.445816 27.308141 32.267050 -0.581835 0.561764 0.029778 0.006088 1193.070000 0 0 1
14.546123 -8.118616 27.629091 32.262490 -0.509063 0.542570 0.032282 0.003946 646667.000000 0 0 1
15.778623 -7.681116 28.226721 33.237212 -0.453036 0.556232 0.031000 0.005677 179368.000000 0 0 1
16.070723 -6.206716 28.098701 32.959497 -0.368565 0.550005 0.028543 0.003131 1037010.000000 0 0 1
17.474323 -5.985416 28.386741 33.867155 -0.330001 0.576860 0.025278 -0.000416 1099490.000000 0 0 1
17.915023 -4.929616 27.547181 33.227945 -0.268521 0.593414 0.025666 0.002016 -31137.300000 0 0 1
19.434623 -4.877116 27.306331 33.869256 -0.245872 0.633049 0.026443 0.005108 -1098460.000000 0 0 1
19.986123 -5.887016 26.585871 33.777368 -0.286454 0.664717 0.025868 0.010521 1489360.000000 0 0 1
21.426923 -5.834016 26.401281 34.498933 -0.265831 0.699323 0.032047 0.008218 2060870.000000 0 0 1
22.412823 -5.812516 27.638101 36.055299 -0.253749 0.697349 0.037602 0.006712 -421968.000000 0 0 1
22.614323 -4.491016 28.152111 36.388434 -0.196041 0.686206 0.042820 -0.004250 117731.000000 0 0 1
23.441623 -4.611316 29.286181 37.794898 -0.194235 0.684285 0.047720 -0.009016 -257907.000000 0 0 1
24.124923 -3.319716 29.723621 38.425591 -0.136746 0.686393 0.052430 -0.010699 -119372.000000 0 0 1
25.074323 -2.812616 28.792251 38.283497 -0.111704 0.719584 0.045717 -0.007803 273641.000000 0 0 1
25.418123 -1.485316 29.113721 38.676813 -0.058369 0.718577 0.036608 -0.016209 -18753.600000 0 0 1
26.503423 -0.911316 28.158661 38.680384 -0.034371 0.755421 0.039165 -0.016348 1337390.000000 0 0 1
27.858423 -1.295816 28.487681 39.866262 -0.046481 0.774771 0.046380 -0.015827 875206.000000 0 0 1
28.789623 -0.780816 27.541661 39.849657 -0.027115 0.807732 0.034181 -0.000735 65343.100000 0 0 1
30.210423 -0.728216 28.117741 41.277201 -0.024100 0.821405 0.023609 -0.004812 -259698.000000 0 0 1
30.350323 0.298384 29.086341 42.038629 0.009831 0.806685 0.018026 -0.003844 260854.000000 0 0 1
31.660223 0.166984 29.620821 43.356552 0.005274 0.818672 0.025423 0.000029 275496.000000 0 0 1
32.100723 1.361284 30.483441 44.289385 0.042381 0.811683 0.021987 -0.006751 -131481.000000 0 0 1
32.020723 2.558484 29.692041 43.743454 0.079731 0.824701 0.013444 -0.003078 97509.900000 0 0 1
32.155623 3.662284 30.523161 44.486624 0.113404 0.814654 0.027837 -0.006302 -49687.600000 0 0 1
32.387123 5.013384 29.801871 44.296854 0.153577 0.832841 0.022283 -0.004746 -62765.500000 0 0 1
32.248423 6.200484 30.507411 44.823084 0.189954 0.822190 0.029973 -0.007605 184320.000000 0 0 1
30.938223 6.517584 30.943931 44.240020 0.207628 0.796161 0.039211 -0.011630 -192287.000000 0 0 1
30.994823 7.532484 32.151001 45.289118 0.238402 0.781432 0.039202 -0.011324 -177550.000000 0 0 1
31.265023 6.925784 33.360167 46.242501 0.217998 0.764949 0.036633 -0.000669 45710.500000 0 0 1
31.294823 7.843984 34.388460 47.153581 0.245588 0.753518 0.039424 0.002170 -57566.400000 0 0 1
31.625223 7.138484 -33.296835 46.473561 0.222001 2.369523 0.035186 0.010838 70573.100000 0 0 1
30.611123 6.229384 -32.874215 45.349312 0.200759 2.381702 0.034379 0.013445 236038.000000 0 0 1
30.801423 4.858684 -33.229415 45.568942 0.156453 2.387966 0.040566 0.006169 314303.000000 0 0 1
31.770123 4.043684 -32.289875 45.478875 0.126599 2.360291 0.034609 0.004926 399108.000000 0 0 1
31.537223 2.671984 -32.424925 45.311275 0.084523 2.368285 0.043036 0.005912 10394.400000 0 0 1
32.138123 2.046384 -31.322355 44.923675 0.063589 2.342329 0.045530 0.008726 -172831.000000 0 0 1
32.327623 0.572584 -31.508115 45.146034 0.017710 2.343279 0.052323 0.002532 -232189.000000 0 0 1
33.241023 0.343384 -32.620365 46.574368 0.010330 2.346744 0.050861 -0.003928 671814.000000 0 0 1
33.866623 -0.945716 -32.605715 47.021008 -0.027917 2.337033 0.043792 -0.002572 654772.000000 0 0 1
34.841523 -1.251716 -31.429265 46.939293 -0.035911 2.304430 0.044147 0.005283 -539439.000000 0 0 1
34.129223 -1.488116 -30.231305 45.617432 -0.043575 2.295233 0.036564 0.003464 -43814.500000 0 0 1
34.929123 -1.571116 -29.067185 45.468816 -0.044950 2.264354 0.019173 0.008438 -230760.000000 0 0 1
34.051623 -1.397316 -27.832845 44.001509 -0.041012 2.255628 0.026778 0.006375 74788.600000 0 0 1
33.544423 -0.061416 -27.793385 43.562648 -0.001831 2.262707 0.009967 0.012435 357483.000000 0 0 1
32.625223 0.133884 -26.728115 42.176003 0.004104 2.257159 0.025071 0.010606 10913.500000 0 0 1
32.176523 1.589484 -26.582895 41.767276 0.049359 2.260687 0.020864 0.009592 -88430.600000 0 0 1
31.481423 1.996784 -27.736705 42.004665 0.063343 2.292047 0.030966 0.001066 -102273.000000 0 0 1
30.945123 3.264284 -27.628635 41.612470 0.105098 2.296886 0.007876 0.004836 -224853.000000 0 0 1
30.003923 3.401884 -28.831945 41.750320 0.112899 2.333087 0.016218 0.004585 -373303.000000 0 0 1
28.963723 4.330584 -28.672175 40.984690 0.148418 2.345609 0.006193 0.007581 448972.000000 0 0 1
28.194923 4.617584 -29.843505 41.314774 0.162332 2.377983 0.013826 0.001571 674892.000000 0 0 1
26.993523 5.604584 -29.648325 40.485612 0.204718 2.392515 0.020914 -0.000855 478210.000000 0 0 1
26.025623 5.173084 -28.681045 39.072960 0.196212 2.395046 0.020349 0.000488 -151590.000000 0 0 1
25.101323 6.198684 -28.662925 38.601339 0.242103 2.407647 0.019174 -0.006120 -1774080.000000 0 0 1
23.784823 5.800084 -28.050485 37.231552 0.239188 2.424023 0.018351 -0.003324 -626326.000000 0 0 1
22.933323 5.155184 -29.011835 37.338985 0.221115 2.460659 0.037299 -0.008181 405883.000000 0 0 1
21.642623 4.855784 -28.542705 36.147860 0.220707 2.480969 0.035004 -0.008354 -35804.200000 0 0 1
20.655123 4.317284 -29.611675 36.361028 0.206051 2.522455 0.027948 -0.008328 -107058.000000 0 0 1
21.015323 3.070084 -30.259475 36.968974 0.145062 2.529609 0.034551 -0.016373 497624.000000 0 0 1
20.136823 2.642484 -31.337635 37.343295 0.130481 2.566565 0.021490 -0.017849 298123.000000 0 0 1
20.173823 3.487084 -32.609305 38.503372 0.171161 2.580964 0.028664 -0.015662 -508106.000000 0 0 1
21.408623 3.378084 -33.246335 39.687018 0.156500 2.563878 0.034535 -0.018172 -566036.000000 0 0 1
21.423423 3.791384 34.422131 40.721256 0.175160 0.563649 0.038901 -0.023083 -728322.000000 0 0 1
22.718623 3.622684 33.632175 40.747796 0.158128 0.599932 0.051505 -0.022010 -525960.000000 0 0 1
23.082023 2.280584 33.640658 40.861653 0.098484 0.603628 0.053301 -0.022808 -49076.300000 0 0 1
24.370023 2.187584 33.059481 41.129221 0.089525 0.637148 0.047623 -0.024834 -217014.000000 0 0 1
24.808823 0.741284 32.824971 41.152228 0.029871 0.647412 0.043204 -0.029252 -591868.000000 0 0 1
24.301823 -0.044516 31.770431 39.999261 -0.001832 0.652982 0.048936 -0.025564 901764.000000 0 0 1
22.885523 -0.281316 31.696471 39.095940 -0.012292 0.625389 0.051873 -0.024131 569506.000000 0 0 1
22.203423 -1.199016 32.708801 39.551173 -0.053949 0.597047 0.046072 -0.026500 -530766.000000 0 0 1
22.479723 -2.534216 32.273511 39.412431 -0.112259 0.611363 0.053152 -0.034698 53786.300000 0 0 1
21.619423 -3.375616 32.971112 39.571308 -0.154888 0.585913 0.047294 -0.023751 -452355.000000 0 0 1
21.512123 -4.860916 32.522851 39.295493 -0.222230 0.595892 0.047638 -0.026882 78390.600000 0 0 1
22.645923 -5.683716 32.764841 40.232788 -0.245903 0.619134 0.056447 -0.017075 264411.000000 0 0 1
22.342323 -6.995516 32.365431 39.945435 -0.303437 0.626233 0.047633 -0.019891 -187780.000000 0 0 1
23.642623 -7.847916 32.201771 40.712620 -0.320495 0.658431 0.050644 -0.021405 408386.000000 0 0 1
24.413023 -7.366316 31.106371 40.222688 -0.293050 0.686682 0.055939 -0.018534 -384307.000000 0 0 1
25.558523 -8.171716 31.011311 41.008736 -0.309454 0.713291 0.045696 -0.017498 -344732.000000 0 0 1
26.120223 -8.076416 29.542411 40.252311 -0.299877 0.746705 0.046857 -0.012092 -18018.100000 0 0 1
25.231723 -8.478316 28.525091 39.015413 -0.324165 0.750829 0.041051 -0.006612 21107.500000 0 0 1
25.713323 -8.039316 27.218891 38.297175 -0.303023 0.780263 0.049303 -0.000536 257361.000000 0 0 1
25.156323 -8.918916 26.079361 37.316494 -0.340713 0.796981 0.029650 0.003482 1250370.000000 0 0 1
23.755923 -8.709716 25.798821 36.135608 -0.351416 0.775681 0.028921 0.000706 758517.000000 0 0 1
23.250823 -9.561916 24.786731 35.304575 -0.390167 0.792478 0.029325 -0.001553 -280661.000000 0 0 1
21.878623 -9.183016 24.241471 33.921244 -0.397395 0.774687 0.021675 0.010909 -1072330.000000 0 0 1
20.876923 -9.393316 25.173401 34.026172 -0.422802 0.737987 0.018306 0.007441 -476098.000000 0 0 1
19.648223 -9.115416 24.503881 32.704490 -0.434378 0.723865 0.011926 0.016042 302793.000000 0 0 1
18.435223 -8.875916 25.426031 32.636213 -0.448710 0.677609 0.010853 0.015446 11871.500000 0 0 1
17.789823 -10.000016 26.073981 33.110883 -0.512101 0.664095 0.013260 0.008823 187618.000000 0 0 1
18.508323 -10.754816 27.052731 34.497454 -0.526392 0.669399 0.012196 0.005482 -355445.000000 0 0 1
17.695823 -11.885816 27.638881 34.904477 -0.591461 0.656975 0.031978 0.000079 -85822.600000 0 0 1
17.171223 -12.857716 26.686191 34.239225 -0.642729 0.677082 0.025225 0.004909 406290.000000 0 0 1
16.306223 -13.759416 27.341051 34.680650 -0.700892 0.662648 0.023129 0.010748 15077.900000 0 0 1
17.060023 -14.909916 28.013341 36.029117 -0.718245 0.680085 0.029501 0.015235 -195668.000000 0 0 1
16.131923 -15.652916 28.759171 36.501269 -0.770329 0.663413 0.021434 0.013654 217065.000000 0 0 1
16.676623 -16.753016 29.462131 37.772880 -0.787683 0.676161 0.030304 0.016307 -140821.000000 0 0 1
17.142123 -17.986716 28.697941 37.959796 -0.809436 0.713602 0.035362 0.017808 -242600.000000 0 0 1
18.116823 -17.718016 27.738621 37.570979 -0.774270 0.740251 0.052251 0.007477 -224576.000000 0 0 1
18.462823 -18.755016 26.913791 37.642776 -0.793249 0.774202 0.045208 0.010563 -677419.000000 0 0 1
19.525423 -18.277016 25.965641 37.276078 -0.752386 0.800181 0.038521 0.004061 -810731.000000 0 0 1
20.760223 -18.005416 26.574381 38.227995 -0.714454 0.802161 0.041729 0.008860 -770534.000000 0 0 1
21.665323 -17.566016 25.631111 37.880140 -0.681285 0.827610 0.019970 0.003269 488333.000000 0 0 1
23.139123 -17.451216 26.171681 39.050235 -0.646175 0.836311 0.014904 0.002426 863636.000000 0 0 1
23.824823 -18.677516 26.526221 40.250617 -0.664879 0.851273 0.008097 0.002960 966552.000000 0 0 1
25.159823 -18.373716 26.959751 41.199979 -0.630760 0.857456 0.002279 -0.004739 547648.000000 0 0 1
25.896623 -19.691016 27.308121 42.474753 -0.650105 0.872484 0.010200 -0.005818 -204151.000000 0 0 1
25.600823 -20.203416 28.591101 43.370857 -0.668103 0.851010 0.017923 -0.000046 -25261.000000 0 0 1
26.294623 -21.421916 28.722161 44.443990 -0.683633 0.868129 0.036529 -0.000680 -185547.000000 0 0 1
25.563623 -22.613816 29.329141 45.000911 -0.724247 0.860913 0.040117 0.004544 -181259.000000 0 0 1
25.620723 -22.559316 30.735191 45.934694 -0.721943 0.837791 0.036503 0.004582 -265800.000000 0 0 1
24.833223 -23.516316 31.362301 46.403664 -0.758168 0.828668 0.039377 0.011546 -422989.000000 0 0 1
24.618223 -23.334316 32.914981 47.264608 -0.758630 0.800430 0.033672 0.005062 -111771.000000 0 0 1
23.965923 -24.442616 33.462646 47.870195 -0.795245 0.796758 0.034183 -0.002035 2140.560000 0 0 1
23.748123 -24.420016 -34.182463 48.257137 -0.799346 2.357940 0.019015 0.003028 -684581.000000 0 0 1
23.332823 -25.786516 -33.548575 48.320512 -0.835310 2.338233 0.009560 0.003215 1311150.000000 0 0 1
22.026523 -26.354606 -33.806215 48.193289 -0.874619 2.348256 0.008721 -0.000676 695595.000000 0 0 1
21.599923 -26.399756 33.847267 48.053525 -0.885064 0.789267 0.021002 -0.004401 -101451.000000 0 0 1
20.476423 -27.500816 33.735562 48.100592 -0.930776 0.793501 0.029881 0.000567 639777.000000 0 0 1
20.880923 -28.816616 33.987936 49.209655 -0.943741 0.808373 0.021985 -0.006487 904848.000000 0 0 1
19.666323 -29.601676 34.020282 49.197592 -0.984389 0.807229 0.027616 -0.010169 662060.000000 0 0 1
19.890123 -31.048786 34.388006 50.420026 -1.001051 0.820261 0.012755 -0.009366 -161746.000000 0 0 1
20.381523 -31.297786 -33.321425 50.052725 -0.993569 2.299263 0.011398 -0.017394 -57907.300000 0 0 1
21.053723 -32.498416 -33.423945 51.152384 -0.995942 2.282889 -0.005373 -0.012861 -368148.000000 0 0 1
21.542323 -32.983886 -32.050365 50.786163 -0.992233 2.253747 -0.002456 -0.011514 329373.000000 0 0 1
22.569923 -34.022896 -32.216595 52.008344 -0.985076 2.238839 -0.007261 -0.009085 1189220.000000 0 0 1
23.253723 -34.334424 -31.045465 51.801633 -0.975488 2.213441 -0.002106 -0.000511 521438.000000 0 0 1
24.547423 -33.520566 -30.674365 51.644177 -0.938714 2.206764 -0.003275 0.004167 121596.000000 0 0 1
24.875423 -33.674946 -29.313045 51.108153 -0.934572 2.181628 -0.001741 0.008410 114148.000000 0 0 1
25.830923 -32.710636 -28.873625 50.704127 -0.902380 2.176637 -0.000785 0.013006 115470.000000 0 0 1
26.457023 -32.971396 -27.459205 50.409275 -0.894579 2.146858 -0.005549 0.010565 606277.000000 0 0 1
27.436223 -34.000818 -27.334825 51.536343 -0.891845 2.129867 -0.002442 0.017470 -265414.000000 0 0 1
28.289623 -33.762706 -26.280785 51.292326 -0.873372 2.108742 -0.007716 0.014413 -358493.000000 0 0 1
-26.166297 -30.749233 9.267245 41.425503 0.865747 1.345178 -0.004833 0.009872 -262878.000000 0 0 1
-26.299587 -31.745733 10.251645 42.480067 0.878950 1.327062 -0.009397 0.007806 -657108.000000 0 0 1
-25.060577 -32.120433 10.757145 42.136337 0.908242 1.312645 -0.006208 0.006708 -501498.000000 0 0 1
-24.983177 -33.422133 11.610645 43.312876 0.928895 1.299413 -0.004036 0.005111 50546.200000 0 0 1
-25.130257 34.482284 10.865545 44.029738 -0.941010 1.321443 -0.002269 0.007385 29502.500000 0 0 1
-25.408297 33.353384 11.693445 43.528915 -0.919792 1.298819 -0.005053 0.000550 48934.300000 0 0 1
-25.253697 32.013584 10.938845 42.217024 -0.902895 1.308696 -0.001567 0.001864 1195960.000000 0 0 1
-26.420457 31.698484 10.102745 42.484113 -0.875964 1.330696 0.004945 -0.002270 1116560.000000 0 0 1
-26.489447 30.397384 9.601045 41.447217 -0.853987 1.337028 0.012434 -0.003951 -451199.000000 0 0 1
-25.921077 30.036684 8.239845 40.521595 -0.858814 1.366024 0.016863 0.005511 -7900.100000 0 0 1
-24.502677 30.063684 8.294645 39.661157 -0.886960 1.360103 0.014298 0.003453 384577.000000 0 0 1
-23.884477 30.060384 6.980445 39.023346 -0.899387 1.390950 0.016365 0.007172 320657.000000 0 0 1
-22.480777 29.411584 6.972145 37.670113 -0.918174 1.384639 0.011783 0.010427 22.107800 0 0 1
-22.289077 28.031984 7.155045 36.521086 -0.899032 1.373605 0.031968 0.008084 -22810.100000 0 0 1
-22.773377 27.208784 6.109545 36.003766 -0.873906 1.400279 0.021348 0.005384 -534969.000000 0 0 1
-22.976877 25.751184 6.614945 35.139975 -0.842271 1.381421 0.028135 0.001618 -1099360.000000 0 0 1
-23.988577 25.435184 7.479645 35.753958 -0.814659 1.360042 0.024761 -0.004791 -571796.000000 0 0 1
-24.078477 24.076784 7.857945 34.945842 -0.785363 1.343996 0.033582 -0.014834 -147808.000000 0 0 1
-24.475677 23.011484 6.804345 34.276614 -0.754574 1.370956 0.025295 -0.018654 -285909.000000 0 0 1
-25.789957 23.191584 6.313845 35.253881 -0.732400 1.390728 0.024507 -0.020569 157225.000000 0 0 1
-26.064367 22.574684 5.053145 34.849704 -0.713774 1.425285 0.020251 -0.020519 32952.800000 0 0 1
-26.043867 23.557884 3.865945 35.329909 -0.735321 1.461153 0.011444 -0.021966 -1427320.000000 0 0 1
-24.800477 24.087284 3.736845 34.773912 -0.770811 1.463127 0.011595 -0.019862 -1120250.000000 0 0 1
-24.632877 24.668284 2.437045 34.946274 -0.786116 1.501003 0.007490 -0.015904 -501697.000000 0 0 1
-23.271377 25.338284 2.493145 34.493498 -0.827893 1.498455 0.027690 -0.011938 -557160.000000 0 0 1
-22.974477 25.960084 1.282345 34.690012 -0.846335 1.533822 0.014071 -0.016707 562468.000000 0 0 1
-21.753177 26.733684 1.266045 34.489034 -0.887758 1.534079 0.021143 -0.018429 237272.000000 0 0 1
-21.301977 27.199884 -0.134555 34.548893 -0.906406 1.574691 0.032284 -0.022490 -109470.000000 0 0 1
-20.917277 26.264184 -1.102155 33.593967 -0.898243 1.603610 0.030025 -0.027495 -19218.200000 0 0 1
-19.754077 25.551684 -0.726155 32.305408 -0.912673 1.593276 0.029485 -0.031114 -98199.400000 0 0 1
-19.195477 24.659984 -1.855055 31.305309 -0.909362 1.630088 0.037526 -0.033880 194648.000000 0 0 1
-20.171377 23.638384 -1.960055 31.136786 -0.864371 1.633788 0.031199 -0.025377 399933.000000 0 0 1
-19.880077 22.789984 -3.048455 30.395623 -0.853488 1.671258 0.036125 -0.022000 -196333.000000 0 0 1
-21.181077 22.227984 -3.653655 30.920390 -0.809511 1.689236 0.030343 -0.006369 -35858.100000 0 0 1
-21.796477 23.162184 -4.517155 32.124412 -0.815766 1.711878 0.030021 -0.000436 -103211.000000 0 0 1
-22.944677 22.676484 -5.165255 32.670491 -0.779520 1.729564 0.031766 -0.005330 -26295.800000 0 0 1
-23.192977 23.410184 -6.526455 33.593832 -0.790059 1.766315 0.021779 0.010975 54791.900000 0 0 1
-22.184277 23.116784 -7.480755 32.901209 -0.805980 1.800173 0.021056 0.014539 162821.000000 0 0 1
-22.323977 23.847484 -8.663055 33.795132 -0.818383 1.830030 0.027005 0.013783 -58156.000000 0 0 1
-21.400477 23.420784 -9.856255 33.221368 -0.830442 1.872015 0.013618 0.011716 -9550.610000 0 0 1
-21.992577 22.680384 -10.871355 33.410472 -0.800793 1.902218 0.001596 0.018546 -486370.000000 0 0 1
-21.015077 22.069884 -11.663155 32.630391 -0.809875 1.936313 -0.006892 0.019746 -305413.000000 0 0 1
-21.414077 21.678384 -13.056555 33.150998 -0.791532 1.975614 -0.002139 0.014186 -79260.600000 0 0 1
-22.532177 20.812184 -13.059655 33.337675 -0.745737 1.973317 -0.007481 0.012422 37165.500000 0 0 1
-22.664877 20.238884 -14.351555 33.604705 -0.728913 2.012046 0.007789 0.011038 -129042.000000 0 0 1
-23.770677 19.140784 -14.348955 33.723986 -0.677920 2.010291 -0.004715 0.003857 36462.600000 0 0 1
-23.774977 18.310084 -15.453655 33.753876 -0.656267 2.046353 -0.001982 0.000479 71085.900000 0 0 1
-24.784677 17.309984 -15.474255 33.961277 -0.609661 2.043892 0.029330 -0.005118 127150.000000 0 0 1
-24.595977 16.299084 -16.628355 33.869225 -0.585232 2.083985 0.036266 -0.004591 17914.600000 0 0 1
-23.472377 15.462384 -16.502955 32.594253 -0.582500 2.101702 0.043810 -0.006719 -61086.400000 0 0 1
-23.096777 14.785384 -17.694555 32.636881 -0.569419 2.143807 0.049242 -0.012737 557.161000 0 0 1
-22.508077 13.412084 -17.296055 31.395080 -0.537384 2.154258 0.049181 -0.008621 -417357.000000 0 0 1
-21.344777 13.557684 -16.556455 30.224601 -0.565883 2.150506 0.047052 -0.012298 -382898.000000 0 0 1
-20.496077 12.415884 -16.596355 29.149311 -0.544650 2.176519 0.051155 -0.015361 1407890.000000 0 0 1
-19.112877 12.650484 -15.816655 27.847862 -0.584683 2.174829 0.037222 -0.008535 1316390.000000 0 0 1
-18.222477 13.509484 -16.536655 28.071797 -0.637951 2.200722 0.029230 0.002411 196948.000000 0 0 1
-17.142177 13.779584 -15.652355 26.994951 -0.677079 2.189311 0.033173 0.012186 132465.000000 0 0 1
-16.368277 15.079484 -16.071855 27.452065 -0.744439 2.196233 0.009811 0.023953 -316532.000000 0 0 1
-15.484777 14.870784 -17.128455 27.464568 -0.765174 2.244208 0.015899 0.012760 -131465.000000 0 0 1
-14.674677 15.992184 -17.441955 27.844531 -0.828334 2.247729 0.016504 0.015091 -83598.700000 0 0 1
-13.823577 15.659584 -18.661655 28.010199 -0.847591 2.299958 0.006926 0.011840 184934.000000 0 0 1
-12.899277 14.618984 -18.371155 26.788157 -0.847810 2.326490 0.005810 0.009504 -2443.820000 0 0 1
-11.838377 14.499584 -19.290955 26.879845 -0.886097 2.371252 0.006150 0.003686 180091.000000 0 0 1
-11.122277 13.162784 -19.307155 25.879145 -0.869224 2.412908 0.001731 -0.004657 -457824.000000 0 0 1
-11.754877 12.173684 -20.032755 26.223787 -0.802899 2.440155 0.006906 -0.001687 -208977.000000 0 0 1
-11.118377 10.875084 -19.969655 25.311517 -0.774337 2.479903 -0.005329 0.015216 312.428000 0 0 1
-11.809777 9.787684 -20.836255 25.873135 -0.692044 2.507018 0.000190 0.011886 -49415.100000 0 0 1
-11.438477 9.942284 -22.161755 26.848299 -0.715534 2.541784 -0.003623 0.010533 -178749.000000 0 0 1
-11.602877 8.854584 -22.984155 27.226858 -0.651856 2.575815 -0.000845 0.021452 -119630.000000 0 0 1
-11.189177 9.108884 -24.418855 28.362827 -0.683267 2.607922 -0.000313 0.008969 617957.000000 0 0 1
-9.786377 9.074084 -24.731055 28.102264 -0.747650 2.646738 -0.012896 0.009624 531762.000000 0 0 1
-9.663577 8.562284 -26.049935 29.073984 -0.725047 2.681447 -0.020081 0.001854 -269923.000000 0 0 1
-9.404777 9.551984 -27.234275 30.354505 -0.793163 2.684200 0.002295 -0.000607 -591710.000000 0 0 1
-8.142277 10.122484 -27.273905 30.209721 -0.893393 2.697076 -0.001687 -0.001787 -618788.000000 0 0 1
-7.875577 11.221384 -26.400695 29.747956 -0.958839 2.662643 -0.009597 0.003726 660686.000000 0 0 1
-6.394177 11.732984 -26.554795 29.727185 -1.071820 2.675393 -0.007418 0.005101 731834.000000 0 0 1
-6.071877 12.273884 -27.860865 31.044222 -1.111399 2.684767 -0.011762 0.004651 -463227.000000 0 0 1
-4.725177 12.628384 -27.890785 30.979013 -1.212752 2.691283 0.001038 -0.001747 -606299.000000 0 0 1
-4.311677 12.954084 -29.348035 32.368287 -1.249487 2.706168 -0.001048 -0.003560 452432.000000 0 0 1
-2.892877 13.137184 -29.441845 32.369377 -1.354050 2.713017 0.016507 -0.017935 547357.000000 0 0 1
-2.455377 12.811684 -30.733545 33.387406 -1.381441 2.740188 0.016546 -0.017091 1060730.000000 0 0 1
-0.888677 12.641484 -30.799355 33.304611 -1.500613 2.751247 0.042257 -0.026999 394031.000000 0 0 1
-0.373077 11.716384 -29.846805 32.066253 -1.538965 2.767352 0.033871 -0.015419 122267.000000 0 0 1
1.004023 11.417584 -30.011425 32.125612 1.483085 2.776778 0.058374 -0.021859 299541.000000 0 0 1
1.461623 10.638584 -31.260855 33.053848 1.434262 2.810708 0.062409 -0.021418 -680484.000000 0 0 1
1.485423 11.528384 -32.370495 34.394172 1.442653 2.796849 0.061339 -0.025600 136840.000000 0 0 1
1.620523 10.832684 -33.618565 35.357899 1.422302 2.826629 0.060298 -0.022521 -69911.100000 0 0 1
1.623523 11.710684 34.119790 36.110054 1.433038 0.333558 0.052900 -0.021151 -409063.000000 0 0 1
2.856623 12.363284 33.957556 36.250885 1.343724 0.357607 0.056233 -0.024706 -233753.000000 0 0 1
2.895523 13.108684 32.784721 35.426820 1.353401 0.388651 0.053144 -0.015927 602601.000000 0 0 1
4.340923 13.544584 32.353741 35.342098 1.260648 0.414184 0.054858 -0.013926 795271.000000 0 0 1
5.069023 12.378384 31.952671 34.639465 1.182122 0.396456 0.046716 -0.015284 65942.700000 0 0 1
6.417523 12.625984 31.611931 34.639778 1.100547 0.421221 0.056745 -0.010787 -90370.500000 0 0 1
7.111123 11.362084 31.096031 33.861898 1.011576 0.406983 0.033805 -0.003308 11153.900000 0 0 1
6.700123 10.906784 29.818361 32.449718 1.019923 0.405489 0.028011 -0.003477 652886.000000 0 0 1
7.800423 10.114484 29.345431 32.004745 0.913856 0.410532 0.028575 -0.002827 876611.000000 0 0 1
7.326123 9.053184 28.274841 30.579386 0.890452 0.390714 0.020590 0.006746 10607.400000 0 0 1
6.670623 7.981284 28.848641 30.666630 0.874614 0.346056 0.033716 0.004807 -233234.000000 0 0 1
6.133323 7.149984 27.823191 29.374647 0.861786 0.326459 0.048943 0.004588 -137535.000000 0 0 1
5.319923 5.991484 28.401951 29.510511 0.844699 0.274964 0.062197 -0.011335 221954.000000 0 0 1
6.126923 4.956684 28.983831 30.036151 0.680205 0.265487 0.039334 -0.007005 445598.000000 0 0 1
5.305023 4.191684 29.849641 30.605793 0.668697 0.222749 0.042861 -0.011567 -391104.000000 0 0 1
5.993723 3.091484 30.603521 31.337796 0.476197 0.216901 0.053471 -0.009646 -304322.000000 0 0 1
6.041623 1.807684 29.976371 30.632527 0.290727 0.207351 0.051470 -0.002807 -122528.000000 0 0 1
7.047723 1.655284 29.003341 29.893212 0.230687 0.244611 0.043119 0.003408 -409776.000000 0 0 1
7.057223 0.244784 28.331831 29.198578 0.034672 0.244265 0.031133 0.003655 -16250.000000 0 0 1
7.402723 -0.860916 29.139951 30.077869 -0.115777 0.250385 0.008976 -0.004868 137582.000000 0 0 1
7.654023 -2.059616 28.439561 29.523460 -0.262863 0.271809 0.009407 0.001103 -558734.000000 0 0 1
8.131523 -3.241616 29.356031 30.633418 -0.379340 0.289801 0.011875 0.002577 1043660.000000 0 0 1
9.492623 -3.209316 29.826281 31.464530 -0.326021 0.324113 0.013517 -0.004010 391657.000000 0 0 1
10.450623 -3.561216 28.893841 30.931405 -0.328425 0.364993 0.019794 0.009003 -1593070.000000 0 0 1
11.859423 -3.659716 29.436421 31.945928 -0.299320 0.399012 0.017407 0.002467 -574814.000000 0 0 1
12.539623 -4.792816 28.892671 31.859059 -0.365080 0.434952 0.027361 0.000534 97940.900000 0 0 1
12.496523 -5.999716 29.616171 32.699805 -0.447610 0.437771 0.031441 0.002142 -126849.000000 0 0 1
11.523023 -7.007216 28.953251 31.940129 -0.546358 0.435913 0.028294 0.006887 574615.000000 0 0 1
10.123123 -6.768716 28.973661 31.428747 -0.589367 0.397881 0.021139 0.004980 338838.000000 0 0 1
9.453623 -8.016416 28.739891 31.298806 -0.703316 0.407177 0.012866 0.000732 50518.100000 0 0 1
7.934223 -7.907616 28.507521 30.629415 -0.783719 0.374410 0.011940 0.000322 -11831.800000 0 0 1
7.313723 -7.626316 29.743131 31.564301 -0.806318 0.341352 0.012505 0.007143 593039.000000 0 0 1
5.894323 -7.447016 29.619751 31.105156 -0.901259 0.310288 -0.000671 0.014101 862721.000000 0 0 1
5.277723 -6.797616 30.883361 32.060005 -0.910607 0.271765 -0.003225 0.008087 1633.190000 0 0 1
5.204423 -7.543016 32.087261 33.370278 -0.966837 0.278197 -0.008614 0.007497 39752.800000 0 0 1
4.753623 -6.884616 33.267366 34.303243 -0.966495 0.246377 -0.004779 0.002996 163792.000000 0 0 1
5.678323 -5.766216 33.857629 34.811372 -0.793078 0.234621 0.010747 0.001422 111402.000000 0 0 1
5.752823 -4.555116 33.087322 33.891222 -0.669724 0.218240 0.011850 0.005193 -115899.000000 0 0 1
6.398423 -3.470916 33.738229 34.514564 -0.497039 0.212499 0.013439 -0.001318 -130383.000000 0 0 1
6.412723 -2.226116 32.844201 33.538338 -0.334125 0.203807 0.018337 -0.003605 804699.000000 0 0 1
5.126423 -1.567816 32.758501 33.194241 -0.296797 0.162209 0.020036 -0.003395 625047.000000 0 0 1
5.082023 -0.352616 31.991321 32.394381 -0.069274 0.157912 0.024924 -0.003845 517376.000000 0 0 1
3.617223 0.138184 31.735081 31.940863 0.038183 0.113574 0.033486 -0.008714 800415.000000 0 0 1
2.869323 0.463384 32.879261 33.007477 0.160113 0.088170 0.030726 -0.010092 -1169450.000000 0 0 1
1.642923 1.034084 32.615061 32.672783 0.561769 0.059450 0.044681 -0.005601 -723478.000000 0 0 1
0.763623 1.087584 33.867755 33.893816 0.958644 0.039218 0.042619 -0.014843 -150294.000000 0 0 1
1.243223 2.172184 -34.361685 34.452712 1.050965 3.068884 0.038345 -0.013996 -65891.500000 0 0 1
0.591223 2.318784 -33.162935 33.249159 1.321145 3.069560 0.027411 -0.007438 -346084.000000 0 0 1
1.140523 3.504884 -32.328125 32.537558 1.256194 3.028071 0.027889 -0.003436 647416.000000 0 0 1
2.300923 3.193384 -31.536105 31.780778 0.946426 3.017426 0.027528 0.000821 725807.000000 0 0 1
2.833323 4.268984 -30.755105 31.178974 0.984851 2.976513 0.030049 -0.000399 -48504.400000 0 0 1
3.976323 3.841784 -29.811465 30.319860 0.768191 2.958209 0.034645 -0.006345 -294231.000000 0 0 1
3.648623 3.246384 -28.579695 28.993972 0.727126 2.972344 0.042569 -0.018313 -337051.000000 0 0 1
4.729723 2.746884 -27.837875 28.370106 0.526160 2.947586 0.044047 -0.018068 -498096.000000 0 0 1
4.390023 1.979384 -26.540055 26.973409 0.423587 2.962098 0.051304 -0.017295 -53134.400000 0 0 1
3.690123 0.789384 -26.867865 27.131574 0.210742 3.002055 0.048097 -0.015345 121833.000000 0 0 1
3.294423 0.069984 -25.706725 25.917057 0.021240 3.014105 0.050269 -0.012028 -361437.000000 0 0 1
3.891223 -1.332716 -25.504675 25.834206 -0.329971 2.981700 0.052281 -0.010301 -312419.000000 0 0 1
5.209423 -1.420216 -25.046255 25.621670 -0.266156 2.929259 0.041020 -0.011697 -348560.000000 0 0 1
5.663723 -2.764716 -25.110065 25.888932 -0.454118 2.895678 0.039078 -0.010797 -174450.000000 0 0 1
7.132023 -3.071616 -24.763755 25.952729 -0.406671 2.837727 0.034131 -0.007008 693423.000000 0 0 1
8.097923 -2.494216 -25.661005 27.023779 -0.298786 2.822662 0.013711 -0.004241 934225.000000 0 0 1
9.445523 -2.819216 -25.287215 27.140544 -0.290054 2.769899 0.007940 0.003481 593834.000000 0 0 1
-28.812537 -4.579316 18.231041 34.402083 0.157617 1.012266 0.045365 -0.002307 -125717.000000 0 0 1
-30.213837 -4.624016 18.151841 35.549217 0.151865 1.034900 0.034873 -0.001627 -205893.000000 0 0 1
-30.754237 -5.581316 19.081041 36.620491 0.179527 1.022718 0.026585 -0.005326 1093510.000000 0 0 1
-32.256127 -5.289816 19.471841 38.047240 0.162547 1.033540 0.034296 -0.000528 367389.000000 0 0 1
-33.090317 -5.438116 18.398841 38.249962 0.162886 1.068983 0.030938 0.004871 -1008470.000000 0 0 1
-34.410383 -5.227016 18.821841 39.568395 0.150750 1.075061 0.025488 0.004678 -565237.000000 0 0 1
35.337862 -5.182116 17.606841 39.819840 -0.145607 1.112788 0.027429 0.001498 392433.000000 0 0 1
34.003981 -5.119116 18.110241 38.864597 -0.149423 1.086051 0.012279 0.007556 423973.000000 0 0 1
33.022151 -5.240916 17.081341 37.545996 -0.157396 1.098487 0.017747 0.003944 438055.000000 0 0 1
31.575521 -5.355116 17.591341 36.539650 -0.167999 1.068509 0.025230 0.006129 -39415.100000 0 0 1
30.991551 -4.315716 18.384341 36.291674 -0.138365 1.039592 0.025125 0.006377 474928.000000 0 0 1
29.753401 -4.779116 18.889241 35.565548 -0.159264 1.010886 0.020414 0.001805 29211.400000 0 0 1
29.310161 -4.182016 20.249741 35.869580 -0.141725 0.970923 0.015624 0.010775 -285681.000000 0 0 1
28.619891 -2.937116 20.181041 35.142555 -0.102267 0.959094 0.023831 0.011345 100295.000000 0 0 1
29.263701 -1.777016 19.721641 35.333625 -0.060650 0.978636 0.017484 0.013368 -526876.000000 0 0 1
28.258571 -0.627016 19.853241 34.541151 -0.022185 0.958472 0.027343 0.008843 -34467.200000 0 0 1
28.722861 0.584584 19.303441 34.611664 0.020350 0.979166 0.031549 -0.000619 749344.000000 0 0 1
27.745171 1.576584 19.662741 34.042672 0.056763 0.955022 0.039271 -0.003053 685880.000000 0 0 1
28.068071 2.956984 19.043141 34.047049 0.104963 0.977233 0.040741 -0.000114 82743.400000 0 0 1
28.244061 2.899584 17.644741 33.428602 0.102303 1.014748 0.044560 -0.001661 213247.000000 0 0 1
28.191001 4.103784 16.970841 33.159961 0.144555 1.033533 0.046547 -0.000374 -74792.200000 0 0 1
27.889261 3.918184 15.512341 32.152694 0.139577 1.067337 0.050965 0.002036 -128802.000000 0 0 1
27.398031 5.083484 14.901741 31.599933 0.183456 1.079720 0.053547 -0.007234 340249.000000 0 0 1
26.865671 4.788984 13.580441 30.481585 0.176404 1.109031 0.046853 -0.002107 329929.000000 0 0 1
26.096061 6.054484 13.023441 29.787097 0.227974 1.118294 0.046511 -0.003797 945564.000000 0 0 1
24.999841 6.467984 13.885541 29.319534 0.253170 1.077430 0.022277 -0.008277 760642.000000 0 0 1
24.610341 7.801584 13.618441 29.188962 0.306983 1.085397 0.031615 -0.013585 115066.000000 0 0 1
23.313541 8.191184 14.430341 28.615580 0.337876 1.042245 0.021755 -0.008721 986719.000000 0 0 1
22.140741 7.526184 13.924141 27.216494 0.327671 1.033743 0.033332 -0.008758 945166.000000 0 0 1
21.874541 6.218284 14.476641 26.958036 0.276964 1.003912 0.036353 -0.008356 -567573.000000 0 0 1
20.503141 5.606184 14.085741 25.499337 0.266906 0.985560 0.040587 -0.012135 -19677.500000 0 0 1
20.435341 5.359184 12.709341 24.654641 0.256475 1.029211 0.027050 -0.018875 28205.900000 0 1 0
19.281241 4.661384 12.384641 23.385339 0.237206 1.012679 0.026195 -0.016371 -963013.000000 0 1 0
19.059941 4.456884 10.860641 22.385233 0.229708 1.064239 0.029330 -0.016135 -304824.000000 0 1 0
20.119641 3.805384 10.204741 22.878322 0.186930 1.108456 0.025041 -0.017976 457615.000000 0 1 0
19.799841 3.567284 8.844041 21.976721 0.178255 1.156629 0.030715 -0.021919 495359.000000 0 1 0
21.021741 2.858684 8.143041 22.724321 0.135158 1.204307 0.049819 -0.023696 -1017260.000000 0 1 0
21.191041 1.551184 8.535041 22.897889 0.073070 1.188832 0.052101 -0.025036 936469.000000 0 1 0
22.132441 0.877084 7.669241 23.439954 0.039608 1.237471 0.050041 -0.020926 109169.000000 0 1 0
23.602141 1.346684 7.636341 24.843275 0.056996 1.258357 0.048257 -0.027472 -696429.000000 0 1 0
24.437741 0.997284 8.773641 25.984121 0.040787 1.226373 0.055485 -0.012447 880329.000000 0 0 1
24.088841 1.614684 10.032541 26.144432 0.066930 1.176958 0.050091 -0.014349 -893458.000000 0 0 1
24.701741 1.068384 11.326041 27.195526 0.043224 1.141240 0.045592 -0.011542 -284587.000000 0 0 1
26.083281 1.312084 11.428741 28.507459 0.050261 1.158293 0.053376 -0.013961 -188810.000000 0 0 1
26.710121 0.539684 12.402941 29.454282 0.020202 1.136148 0.041728 -0.010618 -103100.000000 0 0 1
28.245861 0.639084 12.328941 30.825961 0.022622 1.159331 0.056266 -0.000833 -103662.000000 0 0 1
28.876261 1.755484 12.879241 31.666939 0.060719 1.151947 0.049570 0.000981 -342828.000000 0 0 1
30.265991 1.632584 12.813841 32.907295 0.053889 1.170825 0.039468 0.005480 -266249.000000 0 0 1
31.120971 2.809584 13.330341 33.972144 0.090035 1.167567 0.044808 0.003493 -177463.000000 0 0 1
31.142751 3.842884 12.359941 33.725462 0.122775 1.195566 0.043746 -0.000389 158039.000000 0 0 1
31.821211 5.043484 12.696141 34.629730 0.157187 1.195417 0.037744 -0.005168 316199.000000 0 0 1
33.300551 5.096284 12.230041 35.839541 0.151861 1.222556 0.040673 0.000397 -144681.000000 0 0 1
34.097241 4.140884 12.873941 36.681154 0.120852 1.212191 0.040681 0.004392 985684.000000 0 0 1
-35.215601 4.364884 12.549041 37.638667 -0.123318 1.230880 0.039913 0.007206 1464630.000000 0 0 1
-34.269014 3.307984 13.246641 36.888773 -0.096232 1.203496 0.033780 0.008658 -352356.000000 0 0 1
-34.272575 1.948484 12.753741 36.620540 -0.056791 1.215074 0.029429 0.006471 492815.000000 0 0 1
35.307113 1.114284 13.054941 37.659863 0.031549 1.216795 0.036030 0.010739 387407.000000 0 0 1
34.884273 0.961984 14.581241 37.821297 0.027569 1.175014 0.034572 0.008849 -371417.000000 0 0 1
-35.147488 -0.052716 15.294441 38.331040 0.001500 1.160360 0.020165 0.008365 216160.000000 0 0 1
35.164409 -0.210216 16.667841 38.915251 -0.005978 1.128173 0.023661 0.002202 -480528.000000 0 0 1
-34.687387 -1.209716 17.454141 38.850036 0.034861 1.104849 0.018585 0.003910 -235593.000000 0 0 1
-33.356487 -0.731916 17.582441 37.713833 0.021939 1.085798 0.022666 -0.001309 272054.000000 0 0 1
-32.529737 -1.677316 18.295841 37.359537 0.051517 1.059024 0.013238 0.004890 398911.000000 0 0 1
-32.497457 -1.543816 19.833741 38.103089 0.047470 1.023327 0.018823 0.005716 294695.000000 0 0 1
-33.803477 -1.839316 20.337941 39.492911 0.054358 1.029816 0.023081 -0.000598 519088.000000 0 0 1
-33.831637 -1.507316 21.715141 40.229331 0.044524 1.000616 0.031611 0.001499 26490.000000 0 0 1
-34.094589 -2.739416 22.615041 41.004701 0.080175 0.986607 0.025816 0.006421 281487.000000 0 0 1
-33.026977 -3.709316 22.719641 40.258196 0.111843 0.971153 0.037794 -0.003066 386950.000000 0 0 1
-33.350517 -4.934616 23.372841 41.023129 0.146896 0.964597 0.041390 -0.000202 -279659.000000 0 0 1
-33.415247 -4.802516 24.928211 41.964969 0.142745 0.934744 0.040163 -0.000297 -724005.000000 0 0 1
-32.188757 -4.473316 25.460631 41.284021 0.138087 0.906229 0.045951 -0.009334 -1253780.000000 0 0 1
-32.115707 -4.427716 26.815251 42.072331 0.137004 0.879728 0.043980 -0.016908 206248.000000 0 0 1
-30.976927 -3.512016 27.361721 41.479731 0.112893 0.850456 0.036346 -0.016371 201338.000000 0 0 1
-31.152007 -2.094916 27.201551 41.409668 0.067147 0.854111 0.038846 -0.012863 -77970.000000 0 0 1
-31.016147 -1.689516 25.875171 40.427470 0.054418 0.876247 0.036562 -0.012744 -187623.000000 0 0 1
-31.070267 -0.201116 25.700001 40.322351 0.006473 0.879724 0.036612 -0.002811 828788.000000 0 0 1
-32.412327 0.310784 25.760621 41.403685 -0.009588 0.899270 0.034095 -0.006535 764559.000000 0 0 1
-32.392087 1.641684 25.265801 41.113296 -0.050638 0.908992 0.028716 -0.002292 -459915.000000 0 0 1
-33.788777 2.118384 24.902911 42.027658 -0.062613 0.936593 0.019636 -0.003720 -485892.000000 0 0 1
-34.309231 1.418784 23.752241 41.752907 -0.041329 0.965657 0.017435 -0.000999 444736.000000 0 0 1
35.235962 2.062184 23.202341 42.239487 0.058458 0.989265 0.022793 0.006892 562769.000000 0 0 1
-35.216674 3.405584 22.397841 41.874520 -0.096404 1.006431 0.025084 0.002070 -130486.000000 0 0 1
-34.344285 3.259684 21.296141 40.542337 -0.094629 1.017750 0.028195 -0.007682 345761.000000 0 0 1
-35.037239 3.002284 20.034341 40.472172 -0.085480 1.052944 0.026189 0.002538 784413.000000 0 0 1
-34.088387 2.270984 18.996641 39.090253 -0.066522 1.063325 0.013437 0.004793 1159260.000000 0 0 1
-32.970347 2.983884 18.441941 37.895284 -0.090256 1.062539 0.018901 0.001189 542571.000000 0 0 1
-32.566807 2.386184 17.216841 36.914908 -0.073140 1.085588 0.028861 0.000125 202893.000000 0 0 1
-31.609507 3.244284 16.334841 35.728327 -0.102278 1.095957 0.028018 -0.001139 526645.000000 0 0 1
-32.284447 4.439884 15.962641 36.287794 -0.136667 1.115320 0.022657 -0.007062 776666.000000 0 0 1
-31.411877 5.136784 15.068941 35.215985 -0.162095 1.128628 0.030301 -0.000149 -118120.000000 0 0 1
-32.016547 6.460884 14.626541 35.787400 -0.199124 1.149760 0.037107 -0.003086 -337004.000000 0 0 1
-31.301427 7.104184 13.612741 34.864817 -0.223180 1.169683 0.044354 0.000230 -232554.000000 0 0 1
-31.812577 8.327284 13.212941 35.439604 -0.256017 1.188739 0.042486 0.003664 -6428.450000 0 0 1
-30.947397 9.046984 12.101541 34.438882 -0.284409 1.211739 0.050116 0.003474 178371.000000 0 0 1
-31.484947 10.299784 11.881541 35.193159 -0.316160 1.226420 0.038687 0.018312 262491.000000 0 0 1
-30.756837 10.948184 10.853841 34.404239 -0.341974 1.249834 0.034656 0.012560 34708.300000 0 0 1
-30.891967 12.464884 11.048541 35.096399 -0.383519 1.250545 0.027407 0.016781 41197.000000 0 0 1
-30.334267 13.221584 10.021141 34.574576 -0.411036 1.276735 0.028488 0.009184 88092.300000 0 0 1
-30.572477 14.581684 10.297241 35.402472 -0.445042 1.275668 0.013913 0.011409 -243472.000000 0 0 1
-30.083957 15.576484 9.240741 35.114992 -0.477760 1.304504 0.020499 0.004589 -713759.000000 0 0 1
-28.696477 15.663384 9.385641 34.013522 -0.499636 1.291230 0.017740 0.009085 -396206.000000 0 0 1
-28.076237 16.677984 8.637041 33.779117 -0.536014 1.312233 0.025749 -0.011148 1204310.000000 0 0 1
-26.526117 16.830184 8.970741 32.670540 -0.565384 1.292641 0.039790 -0.012147 1414570.000000 0 0 1
-26.080377 17.397084 10.205041 32.969493 -0.588272 1.256098 0.027163 -0.008557 239373.000000 0 0 1
-26.393627 18.793184 10.368441 34.019287 -0.618757 1.261088 0.037248 -0.017300 -119659.000000 0 0 1
-26.201027 19.215284 11.864441 34.590258 -0.632779 1.220688 0.048964 -0.007992 1401710.000000 0 0 1
-24.823277 19.239484 12.348641 33.746730 -0.659346 1.196174 0.040662 -0.001339 1506030.000000 0 0 1
-24.803377 19.595884 13.760441 34.475439 -0.668644 1.160220 0.045902 -0.006078 183007.000000 0 0 1
-25.423967 18.603084 14.773541 34.795263 -0.631695 1.132293 0.037761 -0.005987 -146004.000000 0 0 1
-24.493977 17.610484 15.086741 33.729717 -0.623346 1.107071 0.041513 -0.004875 124081.000000 0 0 1
-24.901377 16.893784 16.297041 34.220930 -0.596101 1.074434 0.037551 0.004866 -398271.000000 0 0 1
-23.932277 15.827484 16.775341 33.236655 -0.584309 1.041734 0.041273 -0.002977 -240833.000000 0 0 1
-22.784777 16.215484 17.489141 32.984209 -0.618522 1.011927 0.040547 -0.009260 -208788.000000 0 0 1
-21.942577 15.135184 17.830041 32.069625 -0.603823 0.981256 0.018368 -0.000540 -79573.100000 0 0 1
-22.321377 14.194784 18.997941 32.567738 -0.566419 0.947966 0.030000 -0.009638 -546648.000000 0 0 1
-21.938777 14.663484 20.270941 33.275197 -0.589189 0.915757 0.036677 -0.018837 115911.000000 0 0 1
-22.033477 13.628084 21.243641 33.503598 -0.553924 0.883991 0.028685 -0.018877 -734047.000000 0 0 1
-21.827177 14.125884 22.710841 34.521711 -0.574383 0.852808 0.036235 -0.012312 1151340.000000 0 0 1
-20.439977 14.472384 22.938741 33.962161 -0.616104 0.829262 0.044752 -0.020112 1026160.000000 0 0 1
-19.975477 15.674884 22.327841 33.812042 -0.665346 0.849509 0.037156 -0.010343 -308306.000000 0 0 1
-18.418577 15.863684 22.492641 33.118263 -0.711010 0.824177 0.045593 -0.019015 823667.000000 0 0 1
-17.784877 15.032884 21.573941 31.744675 -0.701737 0.823568 0.038291 -0.015273 -484887.000000 0 0 1
-17.547377 15.747184 20.394041 31.173725 -0.731382 0.857664 0.042056 -0.015631 -1458350.000000 0 0 1
-16.494677 15.003884 19.469441 29.601521 -0.738105 0.853012 0.034129 -0.008521 1573930.000000 0 0 1
-15.209877 14.722684 20.053741 29.159052 -0.769123 0.812430 0.029414 -0.004479 856447.000000 0 0 1
-14.498677 15.855984 20.486941 29.687348 -0.830083 0.809183 0.013492 -0.009717 -964440.000000 0 0 1
-13.350677 15.625384 21.512141 29.751730 -0.863740 0.762582 -0.014546 0.008086 420578.000000 0 0 1
-12.209177 14.919784 21.059841 28.551372 -0.884983 0.741269 0.002430 0.005376 126868.000000 0 0 1
-11.447377 14.485384 22.194441 28.869742 -0.902016 0.693867 0.010370 0.018770 1119400.000000 0 0 1
-10.146577 13.665084 21.820241 27.673281 -0.932101 0.662438 0.008510 0.017934 219471.000000 0 0 1
-9.605877 12.809484 22.831441 27.886026 -0.927357 0.611581 0.007858 0.011015 191817.000000 0 0 1
-8.560877 11.941984 22.435641 26.818978 -0.948836 0.579825 0.013529 0.022410 2554840.000000 0 0 1
-7.069077 12.622784 22.399241 26.665193 -1.060289 0.573480 0.003927 0.021939 1673620.000000 0 0 1
-7.074177 13.546984 21.349541 26.255812 -1.089550 0.621277 -0.002164 0.020708 21966.100000 0 0 1
-6.247777 14.701284 21.602741 26.867097 -1.168941 0.636705 -0.014690 0.033126 156381.000000 0 0 1
-6.944677 15.803784 22.442141 28.313209 -1.156766 0.655672 -0.006836 0.012379 -409464.000000 0 0 1
-7.778477 16.612884 21.680641 28.399697 -1.132895 0.702219 -0.027325 0.014443 -853900.000000 0 0 1
-7.210977 17.680684 20.973941 28.363903 -1.183545 0.738530 -0.022065 0.029058 -825403.000000 0 0 1
-8.149477 18.266384 19.865441 28.190610 -1.151152 0.788820 -0.021235 0.038797 1881380.000000 0 0 1
-9.402377 18.936084 20.197641 29.239095 -1.109927 0.808236 -0.010772 0.026313 609679.000000 0 0 1
-10.350077 18.090584 20.766141 29.421522 -1.051125 0.787224 -0.004351 0.019441 -1605180.000000 0 0 1
-11.688677 18.801684 20.915741 30.456472 -1.014586 0.813799 -0.006587 0.011264 -605102.000000 0 0 1
-12.391077 18.987484 19.709441 30.042060 -0.992601 0.855208 -0.004342 0.012312 -192362.000000 0 0 1
-13.607777 19.635084 20.014041 31.165204 -0.964761 0.873442 -0.006939 0.004137 50535.500000 0 0 1
-14.586977 19.761784 18.835541 30.952958 -0.934928 0.916600 0.007806 0.002818 -29384.900000 0 0 1
-15.274677 18.637184 18.315041 30.267162 -0.884229 0.920889 0.025781 0.000666 497969.000000 0 0 1
-16.214377 18.897184 17.280341 30.308741 -0.861658 0.964115 0.033703 -0.004492 -32810.000000 0 0 1
-17.021877 17.673084 16.748441 29.708458 -0.804165 0.971865 0.032994 -0.011284 1304590.000000 0 0 1
-18.121077 17.189684 17.575841 30.541265 -0.759027 0.957607 0.044128 -0.014469 1032780.000000 0 0 1
-19.337877 17.908484 17.361541 31.560900 -0.747040 0.988317 0.050894 -0.011621 185937.000000 0 0 1
33.311561 -9.734416 12.380945 36.847072 -0.284307 1.228120 0.055897 -0.013265 19527.100000 0 0 1
31.971471 -9.919516 11.963945 35.548667 -0.300844 1.227544 0.031031 -0.004590 370273.000000 0 0 1
31.298221 -11.032816 12.541645 35.476676 -0.338906 1.209467 0.058491 -0.003090 -143628.000000 0 0 1
29.847491 -11.230116 12.124645 34.117374 -0.359866 1.207475 0.012815 0.002582 -1166280.000000 0 0 1
28.957541 -10.232516 12.546045 33.175997 -0.339667 1.182982 0.015015 -0.007235 1942320.000000 0 0 1
27.545591 -10.659316 12.542645 32.088916 -0.369223 1.169218 0.002507 -0.001484 2147850.000000 0 0 1
27.169321 -11.727116 13.649045 32.588244 -0.407474 1.138636 -0.017408 0.004785 -923949.000000 0 0 1
27.461591 -11.160516 14.905845 33.179516 -0.386015 1.104872 -0.010825 -0.001734 51052.600000 0 0 1
27.166961 -11.903816 16.076145 33.737028 -0.412975 1.074112 -0.006900 -0.005898 -184933.000000 0 0 1
25.754971 -11.803516 16.704245 32.888802 -0.429735 1.038050 -0.002253 -0.015652 134321.000000 0 0 1
25.408541 -10.481016 17.079645 32.359850 -0.391235 1.014784 -0.002615 -0.015752 -115343.000000 0 0 1
24.738041 -9.703616 16.116545 31.078511 -0.373812 1.025613 0.010813 -0.015473 -293293.000000 0 0 1
24.474141 -8.235816 16.499745 30.643985 -0.324608 1.002219 0.010560 -0.010585 -133324.000000 0 0 1
25.640611 -7.459716 16.315745 31.293639 -0.283118 1.022334 0.009555 -0.006949 197384.000000 0 0 1
25.334341 -6.053416 16.480345 30.823277 -0.234544 1.006677 0.008378 -0.002607 -349145.000000 0 0 1
26.637211 -5.281116 16.348045 31.696841 -0.195723 1.028899 0.020514 -0.004473 -552313.000000 0 0 1
26.988401 -4.957216 15.058345 31.300184 -0.181655 1.068894 0.026191 -0.005143 -351555.000000 0 0 1
28.101281 -4.124416 15.113845 32.173298 -0.145729 1.081773 0.027814 -0.002520 -519566.000000 0 0 1
28.490631 -3.394516 13.807245 31.841463 -0.118586 1.122285 0.029839 -0.004729 -108754.000000 0 0 1
29.059761 -4.251416 12.829345 32.048968 -0.145269 1.158947 0.015712 -0.005835 317779.000000 0 0 1
29.152681 -3.445916 11.651045 31.583223 -0.117656 1.192971 0.030026 -0.007156 -49507.500000 0 0 1
29.659101 -4.318616 10.477445 31.750426 -0.144592 1.234499 0.040382 -0.008509 -85553.300000 0 0 1
30.993371 -4.770216 10.491145 33.066722 -0.152713 1.247945 0.037307 -0.010823 154154.000000 0 0 1
31.325201 -5.415816 9.271745 33.114416 -0.171198 1.287011 0.040305 -0.014548 329397.000000 0 0 1
32.706541 -6.146716 9.153345 34.514977 -0.185769 1.302386 0.037708 -0.014959 -46856.100000 0 0 1
33.741021 -5.233216 8.980445 35.305685 -0.153873 1.313608 0.041443 -0.012852 -528835.000000 0 0 1
34.929918 -5.991616 8.835045 36.524740 -0.169879 1.326481 0.040227 -0.019651 0.463305 0 0 1
-34.543801 -5.218616 8.368845 35.924166 0.149939 1.335677 0.030003 -0.016107 -109493.000000 0 0 1
-34.692878 -4.845716 7.007745 35.723735 0.138777 1.373351 0.033337 -0.017464 136207.000000 0 0 1
-33.506767 -4.264216 6.522445 34.401007 0.126584 1.380041 0.015010 0.000417 -261015.000000 0 0 1
-33.709857 -3.441216 5.213445 34.283764 0.101731 1.418137 0.032269 -0.019145 -327244.000000 0 0 1
-33.518687 -4.275316 4.044145 34.031395 0.126865 1.451679 0.024125 -0.024687 91178.200000 0 0 1
-33.302557 -3.331416 2.988745 33.601953 0.099703 1.481733 0.027111 -0.017390 -112608.000000 0 0 1
-32.556497 -3.990816 1.804345 32.849776 0.121973 1.515842 0.032590 -0.022790 -245876.000000 0 0 1
-33.226437 -5.083516 1.246645 33.636177 0.151819 1.533725 0.047527 -0.010353 261317.000000 0 0 1
-34.279784 -4.841816 0.302445 34.621356 0.140316 1.562060 0.039205 -0.014331 85248.500000 0 0 1
-33.905757 -5.159116 -1.165955 34.315832 0.151002 1.604780 0.059913 -0.015179 -834261.000000 0 0 1
-33.518767 -6.513716 -1.467755 34.177340 0.191938 1.613755 0.057410 -0.021256 495469.000000 0 0 1
-32.670337 -6.627216 -2.612455 33.437940 0.200136 1.649004 0.055440 -0.016578 -830567.000000 0 0 1
-31.215637 -6.304616 -2.398555 31.936144 0.199289 1.645972 0.055490 -0.019356 -1511180.000000 0 0 1
-30.782017 -7.184116 -1.380855 31.639388 0.229283 1.614454 0.056496 -0.017408 249079.000000 0 0 1
-29.595317 -6.727816 -0.719455 30.358919 0.223528 1.594497 0.034615 -0.023482 258321.000000 0 0 1
-29.102247 -7.677216 0.381945 30.100271 0.257926 1.558107 0.019138 -0.015549 -100269.000000 0 0 1
-28.604817 -8.880016 -0.139655 29.951791 0.301005 1.575459 0.025821 -0.010480 128929.000000 0 0 1
-28.124187 -9.729716 0.828045 29.771177 0.333067 1.542979 0.034857 -0.009637 -226723.000000 0 0 1
-27.793337 -11.082716 0.126845 29.921770 0.379432 1.566557 0.019169 -0.007801 -139054.000000 0 0 1
-26.732697 -11.015316 -0.815355 28.924714 0.390854 1.598989 0.015603 -0.006933 290374.000000 0 0 1
-26.208787 -12.295416 -1.152455 28.972503 0.438651 1.610584 0.016030 -0.000860 -260864.000000 0 0 1
-26.924627 -13.214316 -2.170355 30.070985 0.456252 1.643034 0.007515 0.001394 -614745.000000 0 0 1
-28.106657 -13.827816 -1.738155 31.372183 0.457208 1.626229 0.014541 -0.003522 -46612.000000 0 0 1
-28.332017 -14.940916 -2.562855 32.132576 0.485288 1.650640 0.015477 -0.007617 580242.000000 0 0 1
-29.324347 -16.036716 -1.927755 33.478498 0.500440 1.628410 0.028144 -0.007557 848916.000000 0 0 1
-28.687927 -16.654216 -0.807055 33.181492 0.525981 1.595121 0.007479 -0.001061 272219.000000 0 0 1
-29.594737 -17.286516 0.050145 34.273527 0.528652 1.569333 0.011392 0.005724 -236912.000000 0 0 1
-29.819287 -18.828916 -0.232655 35.267154 0.563213 1.577393 0.008519 0.004779 210249.000000 0 0 1
-28.671837 -19.606916 0.112645 34.734970 0.599797 1.567553 0.020622 -0.008514 557155.000000 0 0 1
-28.874287 -21.019016 0.072845 35.714546 0.629239 1.568757 0.034897 -0.009519 420527.000000 0 0 1
-29.781847 -21.687416 1.179345 36.860457 0.629409 1.538796 0.037283 -0.011369 447313.000000 0 0 1
-29.064447 -21.852516 2.420845 36.443587 0.644693 1.504320 0.037037 -0.019176 33136.200000 0 0 1
-29.926337 -22.346816 3.387245 37.502524 0.641403 1.480353 0.036077 -0.016609 -172917.000000 0 0 1
-29.227817 -22.551416 4.752745 37.221234 0.657166 1.442758 0.024058 -0.014846 32501.300000 0 0 1
-28.808357 -21.288016 5.277145 36.207035 0.636393 1.424526 0.010479 -0.009880 72215.500000 0 0 1
-28.017057 -21.462816 6.425445 35.873309 0.653702 1.390710 0.004288 -0.006255 76942.100000 0 0 1
-27.541357 -20.227216 7.184345 34.918211 0.633462 1.363569 0.002129 0.004108 284530.000000 0 0 1
-26.525717 -20.369316 8.159345 34.425247 0.654864 1.331503 0.006710 0.004702 113150.000000 0 0 1
-26.032157 -19.097516 8.629445 33.419391 0.632930 1.309620 0.005635 0.001204 -462800.000000 0 0 1
-24.933177 -19.282616 9.603945 32.950241 0.658292 1.275035 0.014134 0.003912 -745171.000000 0 0 1
-25.467507 -19.938516 10.766145 34.088829 0.664227 1.249469 0.007862 -0.001366 595815.000000 0 0 1
-24.452477 -20.144816 11.756445 33.792769 0.689107 1.215468 0.017261 0.002088 382221.000000 0 0 1
-24.077377 -18.974916 12.674445 33.172415 0.667431 1.178753 0.009971 0.002592 -170753.000000 0 0 1
-23.392677 -17.870616 12.118045 31.834310 0.652364 1.180287 0.003640 0.001249 -223676.000000 0 0 1
-23.313777 -16.733616 13.003545 31.506163 0.622544 1.145347 0.010124 0.003432 299797.000000 0 0 1
-22.548477 -16.831916 14.400845 31.609043 0.641242 1.097759 0.024385 -0.004674 46466.800000 0 0 1
-23.244877 -17.582616 15.367845 32.949103 0.647590 1.085567 0.022160 -0.010152 -563355.000000 0 0 1
-22.477277 -17.986116 16.447045 33.154693 0.674857 1.051730 0.039206 -0.008511 -395871.000000 0 0 1
-23.360577 -18.523216 17.592645 34.616864 0.670413 1.037691 0.045423 0.003727 14283.700000 0 0 1
-24.135977 -17.466316 18.094945 34.857490 0.626431 1.024985 0.047506 -0.010342 -209981.000000 0 0 1
-25.149857 -17.967216 18.941845 36.250927 0.620329 1.020992 0.038083 0.007164 -76170.300000 0 0 1
-26.008087 -16.946516 19.761945 36.798634 0.577490 1.003885 0.034297 0.003251 242054.000000 0 0 1
-25.340657 -16.331916 20.849445 36.654874 0.572495 0.965745 0.045076 -0.000934 -177453.000000 0 0 1
-26.252137 -15.535216 21.588545 37.370884 0.534346 0.954908 0.048172 -0.008169 -130626.000000 0 0 1
-25.655437 -14.751816 22.779745 37.346142 0.521833 0.914783 0.049873 -0.004754 147634.000000 0 0 1
-24.707977 -13.786516 22.347145 36.054779 0.508948 0.902295 0.047906 -0.002762 444456.000000 0 0 1
-23.466177 -13.888116 23.040845 35.699045 0.534395 0.869225 0.037733 -0.002665 1520670.000000 0 0 1
-22.220877 -13.278316 22.225445 34.118199 0.538624 0.861335 0.030679 0.001529 1072600.000000 0 0 1
-22.371577 -11.882116 22.036845 33.575210 0.488237 0.854835 0.031136 -0.001864 1605090.000000 0 0 1
-21.104477 -11.269416 21.610645 32.240017 0.490462 0.836177 0.015229 0.002335 1292740.000000 0 0 1
-20.988677 -9.723916 21.838045 31.811623 0.433854 0.814159 0.018319 0.005807 -5892.290000 0 0 1
-20.578277 -9.337016 23.116045 32.326412 0.425953 0.774054 0.019502 0.007737 427753.000000 0 0 1
-19.193777 -9.431116 23.439745 31.729618 0.456714 0.739606 0.025494 0.011043 293646.000000 0 0 1
-18.766777 -9.392216 24.905945 32.568570 0.464024 0.700184 0.006352 0.004185 60578.100000 0 0 1
-18.942777 -10.687216 25.494945 33.511754 0.513668 0.706288 0.012020 0.011281 419367.000000 0 0 1
-18.176977 -10.842516 26.729545 34.094446 0.537840 0.669736 0.006510 0.006139 -122386.000000 0 0 1
-18.358377 -12.227916 27.435345 35.202984 0.587588 0.677173 0.012383 0.000478 798667.000000 0 0 1
-19.624077 -12.453316 28.063545 36.438332 0.565468 0.691696 0.015224 0.009471 295022.000000 0 0 1
-20.700577 -12.870416 27.241645 36.555010 0.556253 0.729927 0.008534 0.006884 850434.000000 0 0 1
-22.008477 -13.209316 28.046345 38.019161 0.540561 0.741154 0.013426 0.003106 66929.200000 0 0 1
-21.920677 -14.449316 28.844545 39.003931 0.582790 0.738426 0.014379 0.001671 -156570.000000 0 0 1
-21.058777 -14.391416 29.972245 39.356326 0.599493 0.705078 0.004358 0.006282 125311.000000 0 0 1
-21.379977 -15.444916 31.097645 40.776371 0.625602 0.703413 0.001511 -0.004646 -570208.000000 0 0 1
-21.277677 -16.778116 30.610645 40.881002 0.667709 0.724585 0.008988 -0.002941 -72453.700000 0 0 1
-21.300677 -17.748116 31.685345 42.103154 0.694670 0.718848 0.007950 -0.002989 -579117.000000 0 0 1
-22.626677 -18.119016 32.364745 43.448153 0.675217 0.730404 0.029790 -0.003018 21109.200000 0 0 1
-23.233077 -17.072816 33.149145 43.933162 0.633734 0.715850 0.030280 -0.011974 687349.000000 0 0 1
-24.568877 -17.426116 33.542845 45.082388 0.616924 0.731708 0.037276 -0.014703 363946.000000 0 0 1
-25.323427 -16.392516 34.352245 45.717254 0.574493 0.720605 0.027795 -0.018533 -162925.000000 0 0 1
-24.984777 -16.335116 -33.278051 44.704628 0.579044 2.410430 0.028295 -0.018765 272963.000000 0 0 1
-25.750767 -15.223216 -32.766151 44.367432 0.533905 2.401666 0.033748 -0.011553 196279.000000 0 0 1
-25.249077 -14.783316 -31.397751 42.917143 0.529689 2.391448 0.022202 -0.003441 -42549.300000 0 0 1
-25.743927 -15.526616 -30.296951 42.681739 0.542709 2.360059 0.018903 0.002168 67782.700000 0 0 1
-24.989977 -15.214816 -29.132851 41.288166 0.546892 2.354063 0.021387 0.009101 39230.500000 0 0 1
-25.456647 -15.870716 -27.805951 40.903441 0.557477 2.318279 0.011475 0.009758 216935.000000 0 0 1
-26.677987 -15.469416 -27.200251 41.120208 0.525477 2.293589 0.022805 0.006394 300243.000000 0 0 1
-26.621927 -14.290916 -26.447851 40.155275 0.492660 2.289806 0.027480 0.006473 -599306.000000 0 0 1
-25.798917 -14.344816 -25.172951 38.794785 0.507456 2.276901 0.013167 -0.002705 -195358.000000 0 0 1
-24.415677 -14.228916 -25.489351 38.056463 0.527660 2.304705 -0.003201 -0.002890 334376.000000 0 0 1
-23.577877 -14.632616 -24.422451 36.966010 0.555435 2.292511 0.002539 0.000972 -138017.000000 0 0 1
-23.138977 -16.106216 -24.496251 37.348210 0.608080 2.286155 -0.002369 0.009166 -962562.000000 0 0 1
-22.087977 -16.271116 -25.403351 37.389279 0.634902 2.317780 -0.014576 0.013616 -226604.000000 0 0 1
-21.904377 -17.628016 -25.623151 38.040696 0.677644 2.309827 -0.001489 0.008024 -263394.000000 0 0 1
-20.985377 -17.998616 -26.808151 38.509911 0.708932 2.340798 0.000135 0.009471 -88288.500000 0 0 1
-21.477377 -17.923616 -28.152851 39.687741 0.695447 2.359385 0.004549 0.002793 344141.000000 0 0 1
-22.492177 -18.879016 -28.462151 40.895102 0.698284 2.340579 0.019683 -0.002045 379310.000000 0 0 1
-23.282077 -18.699916 -29.787051 42.178317 0.676683 2.354937 0.016587 -0.004123 170429.000000 0 0 1
-22.471577 -19.101216 -30.869951 42.694053 0.704504 2.379004 0.023451 -0.013264 106343.000000 0 0 1
-23.032777 -18.739116 -32.082951 43.714747 0.682970 2.394866 0.017787 -0.008728 -411029.000000 0 0 1
-22.163977 -19.119116 -33.308451 44.342253 0.711776 2.420625 0.018752 -0.013740 -27849.800000 0 0 1
-21.011277 -18.277416 -33.508851 43.570412 0.715926 2.448187 0.008664 -0.004776 908682.000000 0 0 1
-19.775577 -18.914116 -33.168951 42.999960 0.763136 2.451790 0.008353 -0.010953 383263.000000 0 0 1
-19.266477 -19.943916 -34.205651 44.033890 0.802673 2.460369 0.009394 -0.008532 -1227000.000000 0 0 1
-18.760977 -19.383716 33.609645 43.096531 0.801722 0.676340 0.009559 -0.006705 85671.700000 0 0 1
-18.587577 -20.289116 32.508045 42.590131 0.829138 0.702427 0.015180 -0.014469 362773.000000 0 0 1
-19.884777 -21.043216 31.987545 43.144227 0.813695 0.735628 0.009721 -0.005903 835731.000000 0 0 1
-20.381477 -22.012316 32.934745 44.549345 0.823848 0.738786 0.016183 -0.007025 148637.000000 0 0 1
-21.711677 -22.436916 32.658445 45.181702 0.801824 0.762915 0.029380 0.002507 138812.000000 0 0 1
-21.971277 -23.638516 31.744745 45.268591 0.821936 0.793642 0.026867 0.004258 -528914.000000 0 0 1
-21.530577 -24.848516 32.355445 46.129051 0.856816 0.793420 0.022159 0.005608 -342220.000000 0 0 1
-21.640277 -25.988866 31.540445 46.244161 0.876447 0.820246 0.028506 0.010809 -143875.000000 0 0 1
-21.105877 -27.261726 32.255245 47.212928 0.911990 0.818679 0.037260 0.008807 305225.000000 0 0 1
-22.012177 -27.680676 33.247645 48.540310 0.898978 0.816262 0.028472 0.003206 -25448.700000 0 0 1
-21.391377 -28.776246 33.880945 49.331347 0.931552 0.813714 0.032382 -0.005175 -997827.000000 0 0 1
-22.314377 -29.715276 -34.371751 50.619624 0.926694 2.317224 0.043769 -0.012195 -55798.100000 0 0 1
-23.309277 -30.339506 33.818945 51.063971 0.915697 0.846931 0.031130 -0.008194 633607.000000 0 0 1
-24.388977 -29.588616 33.291045 50.779938 0.881431 0.855827 0.028880 -0.004089 -501004.000000 0 0 1
-25.557997 -29.437466 34.317845 51.937367 0.855823 0.848973 0.004378 0.000251 -98616.000000 0 0 1
-26.576977 -28.560676 33.817545 51.630169 0.821360 0.856619 0.011993 0.009820 -500938.000000 0 0 1
-27.384637 -28.240476 -34.161951 52.100689 0.800783 2.285894 0.000901 0.018849 -1364940.000000 0 0 1
-28.463297 -27.218866 -34.373451 52.273895 0.763053 2.288378 -0.003153 0.012456 -1090000.000000 0 0 1
-29.476037 -27.784436 33.880245 52.807979 0.755865 0.874247 0.006830 0.008804 -591658.000000 0 0 1
-30.523777 -26.826046 33.736945 52.815899 0.721011 0.877904 0.001662 0.006948 -38226.900000 0 0 1
