# x y z rho theta phi s1 s2 stress_xx np intf bulk
-0.775773 -10.766433 -14.270976 17.893537 1.498866 2.494018 -0.002863 -0.000822 -972593.000000 1 0 0
2.066327 -13.454633 -12.950476 18.788605 -1.418410 2.331281 0.004518 -0.003899 285225.000000 1 0 0
2.099927 -11.181733 -14.608976 18.516561 -1.385159 2.479924 -0.004290 0.001680 -1497670.000000 1 0 0
-5.500673 -6.194233 -16.409776 18.382238 0.844633 2.674092 0.013189 -0.008832 -362023.000000 1 0 0
4.545627 -14.059733 -11.437876 18.685926 -1.258095 2.229525 0.006025 -0.001598 -457389.000000 1 0 0
14.103827 -10.683633 -7.887476 19.371893 -0.648283 1.990140 0.056741 -0.017724 82579.100000 1 0 0
7.149127 10.761967 -10.802976 16.841444 0.984437 2.267186 0.040789 -0.021268 1494980.000000 1 0 0
5.710527 -4.237233 -12.643976 14.506357 -0.638364 2.629286 0.005402 0.000013 2482920.000000 1 0 0
13.772827 0.506067 -10.115076 17.095661 0.036727 2.203931 0.027737 0.000766 1452650.000000 1 0 0
14.222327 5.037867 -10.365276 18.305563 0.340431 2.172729 0.026473 -0.005458 -698981.000000 1 0 0
4.153027 4.263167 -13.443076 14.701650 0.798484 2.724801 0.006635 0.003277 897292.000000 1 0 0
10.363127 -5.069733 -13.745876 17.945632 -0.454977 2.443350 0.037061 -0.001046 -556150.000000 1 0 0
2.535327 -7.543433 -11.987676 14.388733 -1.246560 2.555538 -0.005181 0.001996 667423.000000 1 0 0
-5.547373 -2.094133 -15.122776 16.243679 0.360961 2.767924 0.018310 -0.012817 -197772.000000 1 0 0
10.773327 0.031967 -9.682476 14.485024 0.002967 2.302916 0.015068 0.001985 1630140.000000 1 0 0
-1.769873 -9.586833 -16.814676 19.436387 1.388237 2.616172 0.005196 -0.007677 -137595.000000 1 0 0
8.698627 1.529367 -18.143876 20.179329 0.174038 2.688578 0.045039 -0.005673 -922462.000000 1 0 0
16.392227 -5.996633 -8.826776 19.559568 -0.350700 2.038992 0.087326 -0.019031 -1008090.000000 1 0 0
10.145127 7.578867 -10.004176 16.138351 0.641607 2.239413 0.035198 -0.007859 287563.000000 1 0 0
13.826827 -2.387033 -10.711676 17.652735 -0.170953 2.222825 0.045004 -0.006810 536090.000000 1 0 0
7.194927 -1.869433 -13.691076 15.579066 -0.254206 2.644164 0.013390 -0.005939 964852.000000 1 0 0
-2.857373 6.659467 -13.797776 15.584983 -1.165484 2.657989 0.008483 -0.001963 2020630.000000 1 0 0
11.250727 1.861667 -13.930676 18.003011 0.163985 2.455610 0.025470 -0.004840 121597.000000 1 0 0
-2.314473 10.692667 -12.953576 16.955384 -1.357631 2.440256 0.016604 -0.005749 -931402.000000 1 0 0
2.910527 -1.091533 -15.240176 15.553957 -0.358796 2.940387 0.010049 -0.005397 422991.000000 1 0 0
-9.000573 0.386667 -15.291576 17.748017 -0.042934 2.609197 0.022452 -0.008863 -1445630.000000 1 0 0
2.347127 -1.701133 -18.020076 18.251739 -0.627159 2.982096 0.023528 -0.018344 1043440.000000 1 0 0
1.133227 7.827467 -13.153676 15.348376 1.427020 2.600231 0.012059 -0.003748 -70951.000000 1 0 0
9.344727 -9.111233 -9.780776 16.309570 -0.772747 2.213917 0.029297 -0.003024 -471454.000000 1 0 0
4.025927 7.197167 -13.349276 15.691095 1.060783 2.588216 0.007376 -0.000348 866126.000000 1 0 0
-2.741473 9.064767 -15.477176 18.144659 -1.277110 2.592480 0.009085 -0.002683 420172.000000 1 0 0
5.443427 -7.665333 -15.292576 17.951354 -0.953300 2.590380 0.013106 -0.003008 -16943.500000 1 0 0
4.245527 7.222067 -16.322176 18.346558 1.039355 2.667394 0.018538 -0.001756 1025840.000000 1 0 0
-0.247773 5.100867 -13.428776 14.367055 -1.522260 2.778189 0.014465 -0.003957 3448970.000000 1 0 0
8.763327 4.112067 -16.770176 19.363465 0.438735 2.618089 0.036554 -0.006184 -1011540.000000 1 0 0
5.274027 0.309867 -14.371376 15.311689 0.058686 2.789313 0.008156 -0.000743 -278913.000000 1 0 0
6.466227 7.845167 -11.581176 15.410463 0.881454 2.421150 0.009311 -0.006495 -628932.000000 1 0 0
2.744527 -8.350233 -15.011876 17.395840 -1.253243 2.611891 -0.003355 -0.002217 677084.000000 1 0 0
4.096327 11.297867 -13.798576 18.298153 1.222963 2.425074 0.034839 -0.022528 -1642220.000000 1 0 0
0.623127 -4.486133 -13.730476 14.458203 -1.432779 2.822967 -0.002068 -0.002055 1027470.000000 1 0 0
8.542427 -0.025533 -11.656176 14.451303 -0.002989 2.509145 0.004018 0.000495 1717720.000000 1 0 0
-0.962673 -5.064333 -16.180276 16.981623 1.382949 2.833161 -0.003183 -0.008526 162735.000000 1 0 0
4.532227 0.909667 -11.712176 12.591411 0.198079 2.765677 0.006354 -0.003522 1106020.000000 1 0 0
-2.878773 -7.223833 -15.514376 17.354163 1.191575 2.676959 -0.002496 -0.004464 1704980.000000 1 0 0
11.396027 -3.812633 -11.339676 16.522525 -0.322852 2.327208 0.030866 -0.006322 84255.600000 1 0 0
6.428627 -7.070633 -12.570076 15.790120 -0.832921 2.491573 0.013381 0.000369 -1100010.000000 1 0 0
3.452627 -4.034433 -14.733376 15.661087 -0.862951 2.795671 0.009025 -0.005085 3185720.000000 1 0 0
-0.598973 -1.405533 -18.224876 18.288805 1.167949 3.057956 0.017450 -0.020900 -188064.000000 1 0 0
15.020727 2.895667 -8.492276 17.496453 0.190442 2.077584 0.025184 0.003714 -139050.000000 1 0 0
6.947227 4.289567 -14.445376 16.593168 0.553152 2.627139 0.011732 0.005546 3232680.000000 1 0 0
10.009527 -9.684633 -13.961676 19.720830 -0.768903 2.357410 0.060612 -0.009107 25652.400000 1 0 0
9.129327 -3.098333 -15.522276 18.272529 -0.327185 2.585809 0.044055 -0.014361 -352063.000000 1 0 0
-5.310873 -2.021233 -18.054476 18.927621 0.363657 2.836667 0.011591 -0.005535 -637203.000000 1 0 0
4.984027 -9.095833 -11.071976 15.171135 -1.069531 2.388834 -0.003818 0.003727 1669660.000000 1 0 0
-2.603973 3.903567 -17.186476 17.815540 -0.982511 2.875061 0.009194 -0.005655 2319450.000000 1 0 0
9.490127 9.442167 -14.557176 19.776966 0.782865 2.398038 0.078294 -0.013588 1310050.000000 1 0 0
9.881527 9.980567 -11.611776 18.223327 0.790385 2.261647 0.052335 -0.022355 -222691.000000 1 0 0
12.005627 -5.988133 -9.600876 16.497564 -0.462669 2.191930 0.040234 -0.009727 -791378.000000 1 0 0
8.167627 6.948967 -13.868576 17.530992 0.704955 2.483384 0.021887 0.000192 1011860.000000 1 0 0
3.897527 -4.196533 -17.612576 18.520379 -0.822323 2.827197 0.024091 -0.013464 -215968.000000 1 0 0
9.294727 -7.483233 -12.334176 17.161661 -0.677846 2.372735 0.034791 -0.004901 966052.000000 1 0 0
11.988927 -8.720233 -8.721476 17.200028 -0.628852 2.102569 0.043165 -0.013556 1082470.000000 1 0 0
-2.945273 -2.555033 -13.770576 14.311939 0.714568 2.865669 0.004537 -0.008362 -2432430.000000 1 0 0
-0.426473 6.043967 -17.503576 18.522597 -1.500351 2.808345 0.018655 -0.008603 2100850.000000 1 0 0
0.925627 -8.532433 -17.439576 19.437027 -1.462736 2.684263 -0.001140 -0.006918 629915.000000 1 0 0
0.080227 8.530267 -15.960276 18.097025 1.561392 2.650733 0.013409 0.001838 1170900.000000 1 0 0
1.773827 3.337967 -14.937576 15.408428 1.082338 2.893742 0.020889 -0.004863 2857850.000000 1 0 0
-1.943973 -0.453433 -15.662076 15.788770 0.229154 3.014825 0.013816 -0.013361 580362.000000 1 0 0
14.100727 -4.305633 -8.431876 16.984272 -0.296356 2.090303 0.047479 -0.009145 -351048.000000 1 0 0
0.566327 0.527267 -14.519776 14.540379 0.749696 3.088352 0.009922 -0.006017 1092710.000000 1 0 0
8.857827 2.757667 -12.568776 15.621778 0.301814 2.505743 0.011479 0.000842 777833.000000 1 0 0
5.956227 0.890267 -17.120976 18.149298 0.148370 2.803355 0.029698 -0.006218 712325.000000 1 0 0
15.315727 1.496067 -12.499976 19.825718 0.097373 2.252984 0.053588 -0.009393 -624059.000000 1 0 0
8.778127 -11.271733 -11.840676 18.555567 -0.909133 2.262850 0.044321 -0.005775 -658306.000000 1 0 0
-4.636573 0.711667 -15.022176 15.737536 -0.152301 2.838924 0.018149 -0.013175 537416.000000 1 0 0
2.346727 5.073167 -17.192976 18.078788 1.137533 2.827259 0.019999 -0.006683 1127110.000000 1 0 0
5.881927 -11.683033 -12.251076 17.921473 -1.104385 2.323477 0.008808 -0.004590 432551.000000 1 0 0
12.844727 7.213067 -8.753076 17.135684 0.511674 2.106923 0.027551 -0.008964 1822580.000000 1 0 0
-5.182073 3.547067 -15.630176 16.844523 -0.600239 2.759559 0.011086 -0.007588 1322510.000000 1 0 0
-0.522373 -4.379233 -18.912476 19.419894 1.452073 2.912493 0.010012 -0.020772 -2702800.000000 1 0 0
9.789427 4.377067 -10.240176 14.827434 0.420458 2.333147 0.005635 0.000513 749983.000000 1 0 0
13.336527 3.666967 -12.875776 18.896963 0.268326 2.320426 0.040855 -0.008529 -190824.000000 1 0 0
-6.340573 5.758467 -17.071676 19.099867 -0.737323 2.676570 0.010152 -0.001526 -914404.000000 1 0 0
-10.312473 3.025467 -15.470476 18.837096 -0.285372 2.534442 0.032967 -0.007820 296168.000000 1 0 0
10.680127 13.329667 -8.294976 18.988201 0.895306 2.022889 0.070679 -0.026160 1922060.000000 1 0 0
7.542727 13.283667 -12.339776 19.637174 1.054375 2.250276 0.083137 -0.030988 -690088.000000 1 0 0
5.403327 15.019067 -11.198376 19.497998 1.225449 2.182587 0.047282 -0.026491 -1147170.000000 1 0 0
14.346627 9.571467 -9.823276 19.847807 0.588343 2.088551 0.080481 -0.022945 -1298630.000000 1 0 0
8.472927 -17.244333 -1.919276 19.309094 -1.114096 1.670358 0.026299 -0.003841 628319.000000 1 0 0
0.703327 -16.060233 0.049124 16.075701 -1.527031 1.567741 0.020277 -0.002037 1688200.000000 1 0 0
-9.272073 -11.625433 7.562124 16.682558 0.897540 1.100338 0.031593 -0.007138 781070.000000 1 0 0
2.065327 -15.982133 -2.526176 16.311827 -1.442281 1.726290 0.022139 -0.005984 3048670.000000 1 0 0
-1.281173 -11.045033 -9.415176 14.569821 1.455317 2.273405 0.001988 0.001966 16998.400000 1 0 0
-4.831573 -12.709233 -13.064476 18.856013 1.207507 2.336237 0.025707 -0.000888 -479604.000000 1 0 0
-8.290673 -17.925033 -1.559976 19.810997 1.137580 1.649621 0.031182 -0.017008 -650988.000000 1 0 0
-11.428273 -7.129533 -8.809776 16.094963 0.557772 2.150006 0.026805 -0.011121 1649550.000000 1 0 0
-13.534773 -11.530433 -4.728676 18.398406 0.705603 1.830729 0.033151 -0.009068 -36119.800000 1 0 0
-5.806573 -13.438533 9.771524 17.600942 1.162941 0.982228 0.030001 -0.009508 -305104.000000 1 0 0
0.172227 -14.010533 -3.586976 14.463440 -1.558504 1.821415 0.015087 -0.002843 744091.000000 1 0 0
-14.837473 -11.579333 1.890824 18.915781 0.662682 1.470669 0.023171 -0.002471 321114.000000 1 0 0
-3.985973 -16.503333 -7.429876 18.532432 1.333810 1.983309 0.020203 -0.007889 818748.000000 1 0 0
0.529327 -15.360233 -9.222476 17.924034 -1.536349 2.111257 0.006067 0.006648 549826.000000 1 0 0
4.538927 -14.242533 -2.495976 15.155247 -1.262284 1.736244 0.015625 -0.002065 -654750.000000 1 0 0
-3.481873 -18.016433 -2.490476 18.518039 1.379889 1.705694 0.033841 -0.022754 792895.000000 1 0 0
-0.994473 -13.551833 0.704024 13.606499 1.497545 1.519031 0.013975 -0.001456 4048850.000000 1 0 0
-8.464873 -11.356633 -10.537676 17.654172 0.930266 2.210421 0.025672 -0.009238 1108960.000000 1 0 0
-3.860973 -14.071933 -0.373576 14.596779 1.303012 1.596392 0.010778 0.002410 4382870.000000 1 0 0
-1.582073 -14.921433 -7.264276 16.670987 1.465164 2.021661 0.013201 0.003708 384547.000000 1 0 0
-14.255173 -7.958133 -1.868976 16.432739 0.509165 1.684778 0.024881 -0.004053 1884460.000000 1 0 0
-10.835473 -7.243533 -11.597876 17.446689 0.589272 2.297970 0.033255 -0.012885 -403204.000000 1 0 0
-9.685773 -14.682033 6.906624 18.896501 0.987631 1.196629 0.026770 -0.006911 1401730.000000 1 0 0
-2.487773 -14.343033 -12.375176 19.106454 1.399057 2.275353 0.022292 -0.000267 -550725.000000 1 0 0
2.413327 -17.827933 -4.775076 18.613455 -1.436246 1.830236 0.035880 -0.011680 -1091670.000000 1 0 0
-6.571673 -9.714233 -9.246976 14.935186 0.976017 2.238444 0.014285 -0.005509 442699.000000 1 0 0
-11.059573 -15.348533 0.462024 18.923665 0.946403 1.546379 0.025937 -0.009889 276114.000000 1 0 0
-12.777673 -11.076733 4.108424 17.402359 0.714214 1.332462 0.029319 -0.004410 2837260.000000 1 0 0
-17.140273 -8.937733 -1.642576 19.400260 0.480657 1.655566 0.041591 -0.009476 1555630.000000 1 0 0
-1.308673 -19.257133 -4.006476 19.712982 1.502943 1.775463 0.045236 -0.019187 650356.000000 1 0 0
3.236227 -14.273733 -8.741776 17.047911 -1.347840 2.109213 0.010390 0.001085 1236000.000000 1 0 0
-4.275373 -7.957533 -13.017076 15.844413 1.077776 2.534932 0.009223 -0.004225 191682.000000 1 0 0
5.609927 -16.592133 1.356724 17.567324 -1.244755 1.493489 0.028020 -0.005401 2651590.000000 1 0 0
-2.772673 -13.786033 -3.164176 14.413689 1.372322 1.792125 0.007946 -0.001910 96997.500000 1 0 0
-0.429073 -14.025433 3.682924 14.507267 1.540213 1.314120 0.012305 0.000535 -2068240.000000 1 0 0
1.109427 -16.220533 7.087824 17.736228 -1.502506 1.159690 0.018656 -0.006921 1684560.000000 1 0 0
-5.533573 -10.360633 -14.541076 18.692406 1.080245 2.462135 0.028103 -0.007819 -1048000.000000 1 0 0
-0.223073 -17.275533 -5.920176 18.263140 1.557884 1.900920 0.033427 -0.007051 1543800.000000 1 0 0
-6.698173 -13.418533 -1.259376 15.050202 1.107810 1.654573 0.007867 -0.001222 4322030.000000 1 0 0
-1.809773 -17.693933 -0.183576 17.787193 1.468869 1.581117 0.028639 -0.012526 2308240.000000 1 0 0
-9.474373 -9.882133 -4.884776 14.535520 0.806461 1.913525 0.012781 -0.003682 376163.000000 1 0 0
-0.860773 -16.710733 4.920924 17.441474 1.519332 1.284773 0.030158 -0.004762 2799330.000000 1 0 0
-6.835273 -9.960233 -6.327976 13.637099 0.969354 2.053332 0.012564 -0.005319 2527390.000000 1 0 0
-6.008373 -14.583133 -8.536476 17.934317 1.179981 2.066881 0.020117 -0.008078 -40920.200000 1 0 0
-5.727173 -12.287033 -10.272376 17.008627 1.134622 2.219245 0.024089 -0.002454 1296290.000000 1 0 0
-10.755773 -12.273933 -8.834576 18.557635 0.851225 2.066967 0.037802 -0.015660 -281167.000000 1 0 0
3.921627 -17.220433 6.708524 18.892506 -1.346884 1.207787 0.029642 -0.006054 1356280.000000 1 0 0
-6.750373 -14.430833 -4.088676 16.447910 1.133260 1.822014 0.017096 -0.009315 -224372.000000 1 0 0
-2.859773 -12.176433 -7.083376 14.374214 1.340116 2.086082 0.008060 -0.000331 3101420.000000 1 0 0
-7.236073 -12.849833 4.438324 15.400574 1.057932 1.278458 0.011433 -0.000749 825768.000000 1 0 0
2.641327 -16.509333 2.414524 16.892738 -1.412151 1.427372 0.021694 -0.004233 3164560.000000 1 0 0
-6.283673 -12.044233 7.246124 15.396571 1.089927 1.080789 0.017332 -0.003628 1379560.000000 1 0 0
-11.237073 -12.838533 -1.045676 17.093659 0.851818 1.632008 0.027928 -0.001089 427278.000000 1 0 0
-14.393373 -8.777233 4.711324 17.504445 0.547602 1.298286 0.024299 -0.003758 -1531990.000000 1 0 0
-8.120173 -15.592633 4.435624 18.131249 1.090671 1.323648 0.023397 0.001404 -487317.000000 1 0 0
-16.601273 -9.195033 1.214624 19.016472 0.505814 1.506881 0.026642 -0.002231 -729891.000000 1 0 0
-6.748073 -17.043833 2.431224 18.491608 1.193808 1.438937 0.025654 -0.004033 823246.000000 1 0 0
-11.564773 -14.983433 -4.732776 19.510162 0.913465 1.815821 0.049093 -0.009164 -265522.000000 1 0 0
-10.162973 -9.938233 -12.574376 18.978130 0.774218 2.295044 0.030624 -0.008628 -211830.000000 1 0 0
-4.367473 -15.967033 -4.515376 17.158368 1.303797 1.837091 0.012575 -0.010986 -109675.000000 1 0 0
-11.891173 -8.254033 0.048124 14.475199 0.606776 1.567472 0.001359 -0.000131 347461.000000 1 0 0
-9.718673 -11.146433 3.462624 15.188329 0.853720 1.340795 0.007370 0.001372 2743750.000000 1 0 0
-14.127973 -12.850133 -0.711176 19.111026 0.738068 1.608018 0.021270 -0.004688 545783.000000 1 0 0
5.637727 -14.917033 -7.134076 17.469885 -1.209452 1.991458 0.014326 -0.010789 677293.000000 1 0 0
-7.562073 -10.573033 -1.210776 13.055265 0.949927 1.663672 0.000830 -0.000330 1268980.000000 1 0 0
-11.629573 -8.256133 -6.014776 15.478638 0.617356 1.969892 0.019144 -0.007526 242121.000000 1 0 0
-14.443373 -6.658833 -9.235076 18.391240 0.431989 2.096874 0.046999 -0.015477 560208.000000 1 0 0
-4.036573 -16.484333 1.422824 17.030901 1.330649 1.487155 0.021166 -0.007542 887933.000000 1 0 0
-8.034773 -15.589633 0.219624 17.539740 1.094911 1.558274 0.024521 -0.008382 2484800.000000 1 0 0
0.997327 -18.662333 3.717424 19.055093 -1.517406 1.374449 0.021763 -0.003717 1240090.000000 1 0 0
-14.108873 -8.749033 -4.644576 17.238850 0.555074 1.843592 0.031665 -0.008965 -93868.700000 1 0 0
-3.365173 -14.456133 11.191624 18.589153 1.342084 0.924729 0.017112 -0.015111 159368.000000 1 0 0
-10.822473 -12.235733 -3.873776 16.788247 0.846613 1.803638 0.033269 -0.010293 21459.700000 1 0 0
-10.066173 -10.658133 0.548924 14.670547 0.813954 1.533371 0.004340 0.001033 690379.000000 1 0 0
-0.176173 -13.296633 -11.123276 17.336630 1.557548 2.267386 0.004091 0.001647 751699.000000 1 0 0
-5.892573 -12.656233 -6.315876 15.322955 1.135056 1.995646 0.007615 -0.006453 2483040.000000 1 0 0
1.519027 -15.804133 9.986024 18.756299 -1.474975 1.009352 0.016865 -0.015134 482805.000000 1 0 0
-8.953173 -15.808733 -5.466976 18.972695 1.055492 1.863090 0.042311 -0.012539 760267.000000 1 0 0
-3.355573 -15.509233 5.950624 16.947156 1.357721 1.212021 0.015979 -0.002570 -409640.000000 1 0 0
-17.626673 -5.476433 -6.564676 19.590454 0.301235 1.912503 0.056506 -0.009834 853175.000000 1 0 0
18.878827 5.750367 -2.865776 19.942154 0.295666 1.715000 0.033258 -0.007845 -381760.000000 1 0 0
12.916927 -12.450533 -5.822576 18.861738 -0.767015 1.884620 0.044507 -0.007941 -1972140.000000 1 0 0
11.035627 -13.472733 -1.606876 17.489472 -0.884512 1.662803 0.027486 -0.007021 1729120.000000 1 0 0
18.776127 -2.816433 4.768824 19.575927 -0.148891 1.324714 0.069880 -0.011629 -694711.000000 1 0 0
8.498827 -16.894633 5.154924 19.601835 -1.104713 1.304685 0.039368 -0.015824 -527878.000000 1 0 0
18.014527 -0.972633 6.747124 19.261175 -0.053939 1.212909 0.081450 -0.018467 -2181760.000000 1 0 0
18.149127 -4.220333 -4.934276 19.275609 -0.228476 1.829663 0.108817 -0.026434 -78197.500000 1 0 0
5.349627 -11.685133 14.913024 19.686521 -1.141463 0.711284 0.011827 -0.001624 -19573.300000 1 0 0
16.047727 -8.743833 -0.659076 18.287114 -0.498892 1.606845 0.062166 -0.011324 317095.000000 1 0 0
13.952727 -12.521133 -1.477976 18.805365 -0.731375 1.649471 0.048568 -0.004391 1946630.000000 1 0 0
11.340927 -2.036233 13.919224 18.069523 -0.177654 0.691461 0.037446 -0.003791 -1350360.000000 1 0 0
17.055027 -5.983133 -1.372876 18.126131 -0.337399 1.646609 0.076249 -0.015310 -1527760.000000 1 0 0
17.859927 3.705767 -0.993376 18.267361 0.204588 1.625203 0.034318 -0.002268 1360400.000000 1 0 0
9.718727 -10.992033 9.438624 17.446090 -0.846801 0.999151 0.031616 -0.008179 -278071.000000 1 0 0
9.123327 -11.091433 4.267924 14.982328 -0.882452 1.281932 0.015421 -0.006167 -816402.000000 1 0 0
14.063227 -10.101633 6.826624 18.612365 -0.622903 1.195252 0.053711 -0.016543 -554310.000000 1 0 0
16.317627 -0.579533 -4.824476 17.025756 -0.035501 1.858096 0.047191 -0.002779 -280781.000000 1 0 0
15.939127 -0.488033 -1.759976 16.043424 -0.030609 1.680718 0.044967 0.000464 2366080.000000 1 0 0
12.980727 -5.096333 -0.256876 13.947683 -0.374117 1.589214 0.020948 -0.007606 1109860.000000 1 0 0
14.322827 -7.495033 1.093024 16.202271 -0.482108 1.503284 0.049455 -0.009882 2095570.000000 1 0 0
15.486027 2.440667 3.634624 16.092992 0.156319 1.342979 0.025905 -0.006868 1613260.000000 1 0 0
15.967627 -7.012833 5.098924 18.169864 -0.413829 1.286351 0.063654 -0.021456 -1724130.000000 1 0 0
13.689927 -12.013433 3.256024 18.502388 -0.720266 1.393897 0.041916 -0.007787 603590.000000 1 0 0
13.982527 -0.936133 9.243224 16.787632 -0.066850 0.987717 0.055374 -0.012718 1827100.000000 1 0 0
14.278427 -2.793333 -1.597276 14.636512 -0.193193 1.680144 0.021398 -0.001529 1088870.000000 1 0 0
15.109027 1.845867 9.089024 17.728516 0.121567 1.032495 0.065771 -0.011690 -744175.000000 1 0 0
14.403327 -9.976333 -2.897776 17.758946 -0.605770 1.734702 0.054108 -0.014589 348379.000000 1 0 0
7.299227 -12.569333 6.127824 15.773936 -1.044676 1.171817 0.010164 -0.007489 49604.300000 1 0 0
12.456827 -4.644033 6.977324 15.014081 -0.356850 1.087479 0.026396 -0.012417 2492180.000000 1 0 0
14.985627 -8.943133 -5.646176 18.341972 -0.538049 1.883706 0.071075 -0.017211 -1305240.000000 1 0 0
14.372427 -4.474333 4.759024 15.787166 -0.301804 1.264584 0.037382 -0.014597 1234670.000000 1 0 0
17.245127 -4.139633 1.096624 17.768893 -0.235589 1.509041 0.056825 -0.014325 -1131890.000000 1 0 0
10.233727 -14.427133 1.200924 17.728890 -0.953830 1.503006 0.032163 -0.008392 264705.000000 1 0 0
16.410827 -2.502233 8.582424 18.687815 -0.151309 1.093643 0.086725 -0.022217 168617.000000 1 0 0
16.154727 -2.540233 3.354224 16.693676 -0.155967 1.368491 0.038480 -0.007149 2541900.000000 1 0 0
7.812827 -15.235633 2.807724 17.350737 -1.096962 1.408260 0.016889 -0.004259 3641240.000000 1 0 0
16.758427 -6.954833 7.847224 19.768498 -0.393375 1.162598 0.083515 -0.020450 -1594410.000000 1 0 0
10.301727 -8.524633 5.100724 14.311266 -0.691283 1.206370 0.016685 -0.010366 1229380.000000 1 0 0
10.997827 -11.840233 2.168924 16.304832 -0.822268 1.437377 0.027598 -0.009224 -617201.000000 1 0 0
12.342227 -7.266733 12.017624 18.696504 -0.532121 0.872683 0.058446 -0.014725 -501217.000000 1 0 0
15.197427 -9.751333 4.309424 18.563982 -0.570478 1.336520 0.049486 -0.018500 -85936.600000 1 0 0
7.298727 -10.173433 7.824324 14.764491 -0.948468 1.012264 0.010083 -0.002674 884332.000000 1 0 0
15.280327 -3.374133 -4.429076 16.263145 -0.217328 1.846619 0.053088 -0.005644 2496160.000000 1 0 0
11.787227 -8.945333 9.726224 17.707545 -0.649173 0.989306 0.045575 -0.013170 -1271110.000000 1 0 0
17.020227 -6.660033 2.485424 18.445094 -0.372985 1.435638 0.061641 -0.014291 2190780.000000 1 0 0
17.489927 3.899867 1.900924 18.019989 0.219389 1.465110 0.028716 -0.005601 616381.000000 1 0 0
14.787627 -4.921333 8.833024 17.914121 -0.321271 1.055174 0.068785 -0.019552 740965.000000 1 0 0
12.874627 -12.629433 6.044824 19.021001 -0.775785 1.247391 0.049636 -0.011822 -223962.000000 1 0 0
18.430627 0.885067 -1.251676 18.494271 0.047985 1.638527 0.069539 0.000209 -1091670.000000 1 0 0
11.659527 -2.103933 10.978424 16.152303 -0.178526 0.823468 0.026491 -0.006653 1923550.000000 1 0 0
5.870927 -12.447133 10.641924 17.396823 -1.130069 0.912568 0.010871 -0.001737 -2366760.000000 1 0 0
10.796127 -4.979433 11.016224 16.208279 -0.432149 0.823488 0.032644 -0.006985 1051180.000000 1 0 0
17.971827 1.375067 4.962124 18.694920 0.076364 1.302150 0.057473 -0.008820 177877.000000 1 0 0
12.329427 -7.686233 7.108824 16.174929 -0.557452 1.115758 0.037481 -0.017393 -164312.000000 1 0 0
10.715627 -7.868733 14.322624 19.541729 -0.633392 0.748185 0.068327 -0.009450 676845.000000 1 0 0
14.163327 -0.305233 3.811124 14.670299 -0.021548 1.307997 0.014559 -0.003536 2058770.000000 1 0 0
11.745127 -7.623833 2.535424 14.230222 -0.575747 1.391668 0.022282 -0.008102 791092.000000 1 0 0
9.303527 6.049867 3.539924 11.648501 0.576570 1.262018 0.006888 -0.001948 1691190.000000 1 0 0
-3.894573 14.824867 -9.937176 18.267234 -1.313896 2.145980 0.017890 -0.008153 2438210.000000 1 0 0
8.828027 -6.355333 9.268724 14.291031 -0.623960 0.865093 0.014636 -0.005704 594281.000000 1 0 0
5.858227 -10.542533 -8.421876 14.710262 -1.063606 2.180369 0.002815 -0.001391 -90295.000000 1 0 0
5.383027 0.984467 0.560824 5.500971 0.180885 1.468669 0.010323 0.000249 3434320.000000 1 0 0
-0.538573 9.943667 10.934524 14.789537 -1.516687 0.738704 0.010492 -0.000550 1539080.000000 1 0 0
-6.372773 -5.232333 1.081624 8.316216 0.687442 1.440365 0.008088 -0.003515 2828620.000000 1 0 0
-1.022173 4.019367 -10.843976 11.609994 -1.321763 2.776304 0.012580 -0.004786 764887.000000 1 0 0
10.988227 5.770267 1.255624 12.474522 0.483550 1.469970 0.002294 0.000369 271661.000000 1 0 0
-10.124773 -1.885333 -13.675776 17.119940 0.184101 2.496130 0.027954 -0.012788 1070500.000000 1 0 0
7.460227 10.883067 -6.096176 14.534768 0.969876 2.003603 0.005583 -0.005285 286348.000000 1 0 0
-12.423173 -2.951933 -9.587276 15.967623 0.233289 2.214822 0.024592 -0.008485 402545.000000 1 0 0
-3.968173 -8.757933 2.507724 9.936623 1.145372 1.315666 0.011413 -0.001107 -1078490.000000 1 0 0
8.043327 -6.622533 -5.874176 11.960727 -0.688822 2.084174 0.003615 -0.006937 1430970.000000 1 0 0
14.408427 3.069867 -4.232976 15.327914 0.209922 1.850594 0.019024 0.002352 1568200.000000 1 0 0
-2.645573 -4.900933 9.824524 11.293338 1.075810 0.515716 0.002345 -0.004181 2384220.000000 1 0 0
3.514527 -1.900933 -4.573676 6.073216 -0.495813 2.423542 0.004825 -0.003153 -2707680.000000 1 0 0
-3.915273 8.459367 -3.502676 9.957861 -1.137322 1.930236 -0.001382 -0.002606 -160039.000000 1 0 0
5.827827 0.095967 11.634224 13.012607 0.016466 0.464438 0.002881 -0.003265 2136910.000000 1 0 0
7.242027 4.726167 12.265324 15.007391 0.578203 0.614112 0.006539 -0.000386 743133.000000 1 0 0
1.034927 -14.513733 12.536924 19.206613 -1.499610 0.859601 -0.001555 -0.001636 728523.000000 1 0 0
2.977127 8.639167 -9.152876 12.933431 1.238933 2.357021 0.008861 -0.004151 1476890.000000 1 0 0
-4.481973 -8.935033 -4.555576 10.985271 1.105855 1.998408 0.012714 -0.004916 1214390.000000 1 0 0
5.724927 -6.593733 -4.047776 9.624790 -0.855809 2.004856 0.004019 -0.005347 2022840.000000 1 0 0
-3.109273 3.467767 8.619624 9.797495 -0.839851 0.495401 0.000957 -0.002230 3386310.000000 1 0 0
-3.801073 3.110767 -11.043376 12.086405 -0.685855 2.723099 0.005043 -0.003845 1030320.000000 1 0 0
2.974527 -6.108833 8.533824 10.908336 -1.117666 0.672412 0.004317 -0.002600 97377.900000 1 0 0
-5.207273 -8.664333 10.473524 14.556135 1.029641 0.767676 0.008600 -0.004761 1042750.000000 1 0 0
-13.236073 -2.461033 6.475724 14.939388 0.183834 1.122460 0.011132 -0.000718 -169267.000000 1 0 0
3.935527 -5.906933 -8.357776 10.965065 -0.983078 2.437530 -0.000933 -0.001905 2887320.000000 1 0 0
2.948927 -0.536833 12.326624 12.685820 -0.180072 0.238535 0.006538 -0.002142 2149330.000000 1 0 0
1.466727 -1.424133 -7.530376 7.802948 -0.770665 2.876499 0.005754 -0.005793 74404.700000 1 0 0
3.550027 -3.532233 3.466524 6.090661 -0.782886 0.965320 0.008365 -0.003187 1854280.000000 1 0 0
1.532527 0.414167 -11.761476 11.868129 0.263946 3.007428 0.007812 -0.006842 1264220.000000 1 0 0
4.050527 3.564467 -10.561576 11.859978 0.721655 2.669288 0.003619 -0.001117 1132990.000000 1 0 0
2.798827 3.192167 3.388524 5.431893 0.850959 0.897175 0.001274 0.001744 1048390.000000 1 0 0
-5.395873 0.900467 2.642524 6.075296 -0.165357 1.120800 0.004277 -0.003497 1718930.000000 1 0 0
-9.552373 -9.219433 5.660524 14.432162 0.767664 1.167757 0.014578 -0.001694 -161255.000000 1 0 0
-3.138773 3.869967 -0.606476 5.019597 -0.889348 1.691914 0.003910 -0.003366 636247.000000 1 0 0
-15.987373 -6.514133 5.011924 17.976357 0.386916 1.288245 0.034864 -0.007371 1396100.000000 1 0 0
0.970027 6.613367 -8.020976 10.440959 1.425158 2.446856 0.007664 -0.002886 84809.400000 1 0 0
-1.598873 6.545967 -9.412376 11.575789 -1.331234 2.520269 0.005283 -0.002010 -76675.300000 1 0 0
2.034027 -0.410033 5.215324 5.612931 -0.198921 0.378656 0.005256 -0.002278 2624770.000000 1 0 0
-3.387473 -0.674533 -6.257076 7.147095 0.196555 2.637206 0.011080 -0.010668 460609.000000 1 0 0
1.923927 -1.169033 -2.487376 3.354873 -0.546010 2.405983 0.009783 -0.001879 68758.000000 1 0 0
2.490927 -8.542833 -7.612876 11.710704 -1.287081 2.278484 -0.001369 0.000371 3012690.000000 1 0 0
-2.414773 13.969867 -5.521376 15.214267 -1.399632 1.942183 0.003866 -0.001750 2753350.000000 1 0 0
6.875827 -5.064133 -8.169176 11.817693 -0.634813 2.334037 0.001585 -0.003002 3678470.000000 1 0 0
-14.197873 -5.030133 -2.210176 15.223886 0.340490 1.716489 0.011137 -0.000531 -332985.000000 1 0 0
-2.687973 6.971467 -6.793076 10.098140 -1.202793 2.308656 0.001594 -0.001843 -2547080.000000 1 0 0
-5.678673 -1.216133 -8.041176 9.919013 0.210971 2.516114 0.014137 -0.011608 910119.000000 1 0 0
-5.826373 -10.664833 3.479524 12.640901 1.070786 1.291937 0.007425 -0.000903 -2755680.000000 1 0 0
8.094127 -7.474633 6.654524 12.871197 -0.745628 1.027443 0.011506 -0.007518 773101.000000 1 0 0
8.824827 -5.946333 13.099224 16.876792 -0.592938 0.682231 0.031061 -0.002636 314086.000000 1 0 0
-4.805473 9.532067 -0.800676 10.704857 -1.103844 1.645662 0.001053 -0.002188 2144560.000000 1 0 0
2.773727 6.643867 12.117924 14.095340 1.175307 0.536092 0.010801 -0.003232 2365710.000000 1 0 0
5.995927 -2.850833 10.920224 12.780050 -0.443825 0.546258 0.009580 -0.001243 228937.000000 1 0 0
-9.772973 -6.505533 -1.104276 11.792048 0.587309 1.664580 0.005525 -0.003222 -494168.000000 1 0 0
0.872027 -13.420733 6.281524 14.843654 -1.505911 1.133845 0.010817 -0.002441 628001.000000 1 0 0
-0.612973 -3.169633 8.650724 9.233490 1.379765 0.357183 0.002710 -0.004738 1883690.000000 1 0 0
4.256827 0.729167 3.469924 5.540093 0.169647 0.893960 0.002771 0.001299 1017990.000000 1 0 0
-10.229173 5.584467 8.295324 14.305057 -0.499717 0.952206 0.003916 -0.009297 -86516.600000 1 0 0
9.423527 7.958767 -0.010676 12.334705 0.701329 1.571662 0.002547 -0.000915 315592.000000 1 0 0
4.312327 2.856567 8.110524 9.619602 0.585056 0.567728 0.000759 -0.002674 2035860.000000 1 0 0
1.315327 2.616167 -9.741676 10.172250 1.104936 2.849598 0.010737 -0.006472 1484500.000000 1 0 0
-1.464673 -10.241233 3.107224 10.801989 1.428742 1.279021 0.012196 -0.002220 -1677080.000000 1 0 0
-9.961673 9.528167 9.006924 16.466499 -0.763159 0.992038 0.010879 -0.011525 935813.000000 1 0 0
9.851027 -2.009333 -7.649276 12.632956 -0.201212 2.221192 0.016332 -0.000594 1922870.000000 1 0 0
-5.246373 -1.810633 6.659224 8.668800 0.332322 0.694798 0.000706 -0.003493 -598589.000000 1 0 0
3.152427 -7.881033 -4.851476 9.776773 -1.190288 2.090041 -0.001518 -0.004410 1314400.000000 1 0 0
-5.132373 4.858067 -13.036776 14.829012 -0.757948 2.644851 0.002344 -0.005503 2543420.000000 1 0 0
-5.657973 9.647767 5.450524 12.441876 -1.040397 1.117336 0.003381 -0.001383 2069990.000000 1 0 0
-0.529473 -1.781733 -9.319776 9.503322 1.281940 2.944735 0.009633 -0.008713 680542.000000 1 0 0
-16.678973 0.136867 6.391524 17.862208 -0.008206 1.204860 0.029430 -0.011418 -1226820.000000 1 0 0
-6.027073 -2.857933 4.078324 7.818319 0.442781 1.022028 -0.001876 0.000176 2249030.000000 1 0 0
1.071227 -5.687833 -5.042976 7.676625 -1.384640 2.287531 0.007323 -0.006810 515289.000000 1 0 0
-6.996973 1.320767 -8.418776 11.026234 -0.186567 2.439546 0.007753 -0.004805 -755747.000000 1 0 0
8.080227 1.955567 4.711824 9.555919 0.237453 1.055171 0.004077 -0.002489 509283.000000 1 0 0
0.436227 -8.067233 -0.457476 8.091961 -1.516775 1.627361 0.005070 -0.000336 -580417.000000 1 0 0
5.462027 5.444867 -3.374976 8.418478 0.783825 1.983296 0.005423 0.001248 1210490.000000 1 0 0
-0.753673 -0.382433 -1.302076 1.552314 0.469570 2.565865 0.008465 -0.003764 1549600.000000 1 0 0
9.067827 6.361167 -6.375976 12.780571 0.611738 2.093103 0.005139 -0.002972 711371.000000 1 0 0
-15.068073 -7.163933 2.453624 16.863838 0.443806 1.424782 0.007009 -0.004328 1585280.000000 1 0 0
-6.375173 6.880867 8.961024 12.972630 -0.823528 0.808251 0.003606 -0.003658 1293120.000000 1 0 0
-9.457773 -3.241733 -9.640276 13.888601 0.330209 2.337985 0.016221 -0.009130 619856.000000 1 0 0
14.943127 3.430167 -1.234376 15.381377 0.225639 1.651134 0.012106 0.002090 1693340.000000 1 0 0
12.113027 1.714467 -5.747976 13.516806 0.140605 2.010031 0.014468 0.003923 -447699.000000 1 0 0
1.637527 -9.401133 12.745824 15.922275 -1.398343 0.642663 -0.001913 -0.004429 546231.000000 1 0 0
-3.583673 6.358067 7.825424 10.700701 -1.057540 0.750570 0.002202 -0.000110 1372590.000000 1 0 0
-4.044773 13.096267 -12.323576 18.432117 -1.271241 2.303111 0.014745 -0.011169 1265840.000000 1 0 0
-10.265373 7.801067 6.477624 14.428934 -0.649832 1.105225 0.004460 -0.005568 583891.000000 1 0 0
8.093927 -9.292033 -6.975576 14.160233 -0.854202 2.085891 0.008414 -0.005691 915879.000000 1 0 0
5.842427 -3.859033 -0.286376 7.007717 -0.583734 1.611673 0.010738 -0.003901 -1049410.000000 1 0 0
-1.641973 -4.481833 4.160924 6.332155 1.219620 0.853818 0.002844 -0.000490 896396.000000 1 0 0
9.966927 -1.970033 -2.502376 10.463391 -0.195142 1.812292 0.010993 -0.002555 -2512210.000000 1 0 0
13.481727 7.154767 1.327724 15.320264 0.487906 1.484023 0.001847 -0.003347 -273562.000000 1 0 0
5.453527 -3.744433 -3.236976 7.364764 -0.601681 2.025863 0.006980 -0.004753 -1009800.000000 1 0 0
-12.283073 -5.981233 1.957624 13.801497 0.453153 1.428475 0.004058 0.000755 908467.000000 1 0 0
3.719327 -5.820333 -0.296276 6.913570 -1.002177 1.613664 0.008933 -0.001724 304617.000000 1 0 0
-5.166573 3.615367 -8.589276 10.655516 -0.610566 2.508307 0.003278 -0.002158 530599.000000 1 0 0
-1.807873 -9.246933 7.211424 11.865025 1.377721 0.917524 0.004502 -0.000569 1748580.000000 1 0 0
-7.440573 -7.525933 2.506624 10.875889 0.791101 1.338230 0.011313 -0.001445 -3211330.000000 1 0 0
-5.757173 13.074867 -8.560776 16.654851 -1.156018 2.110651 0.008298 -0.011186 916052.000000 1 0 0
9.208127 -13.943233 -4.078176 17.199851 -0.987144 1.810181 0.021123 -0.004074 -641999.000000 1 0 0
-6.638173 -5.207433 -6.705076 10.776861 0.665198 2.242312 0.013046 -0.009045 737846.000000 1 0 0
3.494527 0.396067 -6.270976 7.189835 0.112858 2.630479 0.004778 -0.004090 1909950.000000 1 0 0
-3.617073 5.786967 4.955024 8.433532 -1.012170 0.942783 0.003273 0.000029 1954080.000000 1 0 0
-2.699273 -10.734933 -2.801976 11.418228 1.324456 1.818723 0.014606 -0.000607 2463360.000000 1 0 0
-12.621073 -0.479733 1.738824 12.749319 0.037992 1.433984 0.002903 0.000446 303475.000000 1 0 0
8.427627 -11.977733 -5.875676 15.780195 -0.957653 1.952331 0.017519 -0.010276 299500.000000 1 0 0
6.103827 3.899667 1.005324 7.312645 0.568525 1.432882 0.006665 -0.000006 -1071220.000000 1 0 0
3.351227 -4.763233 -10.958676 12.410145 -0.957684 2.653101 -0.000649 -0.000625 -183553.000000 1 0 0
-7.671273 4.263967 8.586924 12.278645 -0.507313 0.796325 0.001604 -0.004408 1226840.000000 1 0 0
8.315327 8.774467 4.068424 12.754921 0.812258 1.246155 0.010714 -0.001973 1306140.000000 1 0 0
0.242627 10.522167 -6.381976 12.308716 1.547742 2.115883 0.000882 -0.000975 1656460.000000 1 0 0
5.481827 8.099967 3.273924 10.313994 0.975831 1.247783 0.006983 -0.001136 3508250.000000 1 0 0
8.093827 6.642967 -3.771776 11.129481 0.687263 1.916543 0.002763 -0.000316 -693252.000000 1 0 0
10.525827 2.547367 -8.195176 13.580980 0.237446 2.218592 0.006587 0.002753 1079160.000000 1 0 0
3.320327 -12.465133 -0.234676 12.901906 -1.310472 1.588987 0.008851 -0.004341 -1293910.000000 1 0 0
0.524527 2.093667 5.263024 5.688409 1.325319 0.389184 0.005624 -0.001102 719045.000000 1 0 0
-4.802773 13.347067 1.433824 14.257162 -1.225385 1.470057 0.002663 -0.003099 -4864.690000 1 0 0
8.198427 4.057967 -8.014676 12.162086 0.459615 2.290270 0.003428 0.001686 1898760.000000 1 0 0
-13.926473 -0.498733 -3.631376 14.400774 0.035797 1.825714 0.007293 -0.002624 281638.000000 1 0 0
-8.628473 -0.026333 -0.508576 8.643488 0.003052 1.629670 0.001300 -0.002691 568543.000000 1 0 0
1.768227 -3.858733 -1.114076 4.388350 -1.141111 1.827477 0.008793 -0.002609 -2155150.000000 1 0 0
8.100227 -5.636633 -0.262676 9.871895 -0.607943 1.597408 0.012341 -0.005094 2252140.000000 1 0 0
-2.341573 -1.168833 7.306424 7.760990 0.462980 0.343952 0.003091 -0.004627 1103930.000000 1 0 0
-5.875573 8.824667 -11.677976 15.772515 -0.983385 2.404462 -0.001101 -0.000579 -924274.000000 1 0 0
-6.175473 9.157567 -8.811976 14.129700 -0.977488 2.244199 -0.001328 -0.000850 461698.000000 1 0 0
-1.561173 13.918567 -8.343276 16.302577 -1.459098 2.108048 0.017670 -0.007268 -75703.000000 1 0 0
-1.442673 7.168967 9.711724 12.157014 -1.372210 0.645403 0.004726 -0.003749 52363.400000 1 0 0
10.065727 2.321367 -3.922176 11.049483 0.226658 1.933673 0.008948 0.002024 -1289120.000000 1 0 0
-2.995373 -7.502533 -6.921276 10.637872 1.190938 2.279205 0.011389 -0.005468 2911940.000000 1 0 0
-5.553473 -5.055333 -1.632576 7.685230 0.738477 1.784858 0.012289 -0.004843 282152.000000 1 0 0
5.703127 7.389767 -8.795776 12.825755 0.913514 2.326485 -0.000653 0.000271 1871900.000000 1 0 0
-9.500573 5.145367 -7.473176 13.137125 -0.496360 2.175915 0.006765 0.001316 -291728.000000 1 0 0
-0.426973 6.175967 -5.270876 8.130622 -1.501772 2.276113 0.004622 -0.001356 -1877580.000000 1 0 0
-8.278273 2.661167 -6.312076 10.744948 -0.311030 2.198695 0.005921 -0.001059 1393820.000000 1 0 0
3.699627 1.439167 -2.057176 4.471064 0.370991 2.048914 0.006637 -0.001277 3540710.000000 1 0 0
-6.657973 12.396467 -3.499776 14.499980 -1.077922 1.814568 0.009960 -0.003810 997787.000000 1 0 0
-6.606273 3.045467 -2.279576 7.623266 -0.431961 1.874471 0.005786 -0.001781 -1790480.000000 1 0 0
12.164927 4.041067 -0.723276 12.838956 0.320721 1.627161 0.003312 -0.000298 16471.900000 1 0 0
2.315627 12.301467 -5.628076 13.724557 1.384734 1.993331 0.007374 -0.002214 691771.000000 1 0 0
-9.239673 -1.462133 -4.319676 10.303834 0.156944 2.003393 0.007183 -0.002865 -750611.000000 1 0 0
-1.122473 5.778367 3.414424 6.804981 -1.378931 1.045171 0.003153 -0.000073 -493786.000000 1 0 0
11.647927 2.646967 11.971224 16.911264 0.223453 0.784297 0.038805 -0.003000 -412173.000000 1 0 0
-7.045973 -2.391233 -5.732076 9.392573 0.327179 2.227207 0.014676 -0.008028 181313.000000 1 0 0
7.443827 -7.333033 10.844024 15.059110 -0.777901 0.766854 0.010929 0.000039 192127.000000 1 0 0
-5.464973 -2.039133 -10.894676 12.357911 0.357128 2.650028 0.011813 -0.008431 -305314.000000 1 0 0
0.727727 -6.231833 4.467224 7.702040 -1.454547 0.952061 0.002743 -0.000551 255875.000000 1 0 0
-4.914773 -9.423633 7.406824 12.954570 1.090068 0.962154 0.005585 -0.002653 2264530.000000 1 0 0
-8.740173 9.393967 1.624124 12.933485 -0.821436 1.444889 0.002484 -0.004042 1015990.000000 1 0 0
-8.063473 7.146767 -9.023776 14.054338 -0.725202 2.267983 0.001917 -0.000401 1125960.000000 1 0 0
-1.248173 -10.664633 -0.089676 10.737801 1.454288 1.579148 0.011358 -0.001907 -672977.000000 1 0 0
-3.936973 10.297167 7.731324 13.464946 -1.205610 0.959192 0.005106 -0.001636 1696420.000000 1 0 0
-7.427773 12.100567 2.001624 14.338830 -1.020265 1.430744 0.004110 -0.006837 1751920.000000 1 0 0
-8.223373 -8.244233 -2.844976 11.986873 0.786665 1.810424 0.009090 -0.004577 -463921.000000 1 0 0
5.414627 4.614767 -7.963576 10.678614 0.705815 2.412456 0.003967 0.000753 1346800.000000 1 0 0
-8.930073 -0.198033 -10.187776 13.549030 0.022172 2.421765 0.016406 -0.009699 -331243.000000 1 0 0
-15.231773 -2.217133 -1.637876 15.479187 0.144545 1.676806 0.011728 -0.003509 -690172.000000 1 0 0
-7.283373 -5.753933 8.842224 12.819524 0.668619 0.809657 0.004267 -0.000084 -129391.000000 1 0 0
8.168727 3.386867 -0.909676 8.889684 0.393041 1.673305 0.004204 0.001628 2443420.000000 1 0 0
11.896427 7.145567 -5.931076 15.091778 0.540896 1.974689 0.007687 -0.005753 -585123.000000 1 0 0
3.798527 13.287367 -9.490176 16.764438 1.292348 2.172551 0.009455 -0.011350 1459710.000000 1 0 0
-9.778473 5.391867 -0.506676 11.177991 -0.503919 1.616140 0.002200 -0.002150 602109.000000 1 0 0
11.293727 -1.254533 -5.119476 12.463192 -0.110629 1.994092 0.018658 -0.001392 700217.000000 1 0 0
10.672527 1.727267 -1.095776 10.866785 0.160451 1.671805 0.008094 -0.000380 -777547.000000 1 0 0
14.590327 5.109167 4.747924 16.171704 0.336831 1.272811 0.017400 -0.010198 2760680.000000 1 0 0
0.824527 -0.764033 10.213824 10.275495 -0.747336 0.109615 0.006050 -0.003923 2537330.000000 1 0 0
-7.970473 1.273867 -12.603776 14.966842 -0.158483 2.571986 0.010335 -0.008692 833087.000000 1 0 0
3.185027 -11.527333 -7.847476 14.304079 -1.301220 2.151507 0.000814 0.003603 208463.000000 1 0 0
2.865927 4.985267 -6.724576 8.847957 1.049053 2.434132 0.006124 -0.000425 -2224880.000000 1 0 0
6.526127 8.003767 0.584624 10.343713 0.886746 1.514246 0.006801 -0.002486 787324.000000 1 0 0
-9.169273 -5.430233 6.745524 12.612101 0.534680 1.006472 0.002469 0.000763 -927333.000000 1 0 0
-0.294273 -6.860133 -11.817976 13.667940 1.527926 2.615248 -0.005080 0.000800 2712180.000000 1 0 0
6.428727 -13.430033 -4.541176 15.566522 -1.124347 1.866828 0.012076 -0.004901 3073780.000000 1 0 0
-3.310873 -0.317333 9.923024 10.465610 0.095554 0.323416 0.002062 -0.002769 -1846880.000000 1 0 0
8.768127 8.547167 6.931724 14.070640 0.772638 1.055678 0.008265 0.000295 -470576.000000 1 0 0
-7.914073 5.658667 -2.633976 10.079231 -0.620731 1.835193 0.003855 -0.004813 1367740.000000 1 0 0
-5.285273 5.749867 -6.328776 10.052288 -0.827475 2.251816 -0.000075 -0.001415 -692459.000000 1 0 0
3.299027 -13.722133 2.640924 14.358098 -1.334858 1.385810 0.016439 -0.004331 -2366520.000000 1 0 0
-11.415573 -6.945633 6.473424 14.847974 0.546599 1.119669 0.019593 -0.002201 -750082.000000 1 0 0
-12.918873 -3.742833 -6.756276 15.051689 0.281997 2.036299 0.014400 -0.006723 1333620.000000 1 0 0
6.118627 0.308867 -7.332676 9.555162 0.050437 2.445580 0.003962 0.000013 -350603.000000 1 0 0
-1.537573 2.203367 -2.453476 3.638475 -0.961529 2.310832 0.006002 -0.004312 2675720.000000 1 0 0
7.651827 0.863067 -4.955876 9.157295 0.112318 2.142653 0.007646 0.001505 965326.000000 1 0 0
3.591127 -4.477833 10.902324 12.321033 -0.894850 0.484614 0.005369 -0.001076 12009.700000 1 0 0
6.000927 -2.586633 2.177724 6.887981 -0.406975 1.249114 0.012384 -0.003750 -506633.000000 1 0 0
-6.341473 7.719667 1.070924 10.047608 -0.883100 1.464008 -0.000542 -0.003086 1315790.000000 1 0 0
6.000427 -3.452433 7.963124 10.551576 -0.522108 0.715621 0.008796 -0.006351 -330527.000000 1 0 0
6.762727 -2.274633 -7.833576 10.595912 -0.324462 2.402829 0.004360 -0.001896 2139240.000000 1 0 0
12.158927 -8.060233 -5.800176 15.698691 -0.585395 1.949234 0.035243 -0.013935 178918.000000 1 0 0
5.517727 -9.614133 10.023324 14.944694 -1.049775 0.835652 0.002592 0.002076 1868690.000000 1 0 0
-6.537573 7.480367 -4.386776 10.859998 -0.852553 1.986615 -0.001601 -0.003184 2814120.000000 1 0 0
-1.415273 -7.494033 9.726124 12.359653 1.384141 0.664986 0.001901 -0.004141 -81375.500000 1 0 0
10.060727 -9.231333 0.817324 13.678587 -0.742433 1.511009 0.014632 -0.006255 1836400.000000 1 0 0
11.140927 6.121267 9.774324 16.035198 0.502413 0.915298 0.012528 -0.005728 2390510.000000 1 0 0
-15.401573 -4.256333 -4.985176 16.738483 0.269627 1.873212 0.034361 -0.006360 2936960.000000 1 0 0
-4.837473 -4.595133 7.831724 10.288454 0.759712 0.705612 0.001001 -0.003171 -1109060.000000 1 0 0
2.977227 10.887667 -11.085676 15.820790 1.303872 2.347179 0.009307 -0.007629 -262832.000000 1 0 0
9.953927 -1.421933 1.612024 10.183377 -0.141891 1.411828 0.010147 -0.003224 -497437.000000 1 0 0
-1.663373 -2.629133 0.658024 3.179960 1.006701 1.362362 0.006702 -0.003495 1382390.000000 1 0 0
1.591127 2.995367 0.822224 3.489980 1.082505 1.332965 0.001163 0.000212 94203.700000 1 0 0
-8.970073 -2.372633 4.285724 10.220520 0.258584 1.138094 0.000334 -0.001472 1775860.000000 1 0 0
9.973027 4.919067 -2.631076 11.427206 0.458223 1.803127 0.004951 0.001519 1508310.000000 1 0 0
2.602827 8.504167 2.528724 9.246081 1.273785 1.293775 0.003588 -0.001996 2405520.000000 1 0 0
-8.211973 -0.067833 2.471524 8.576103 0.008260 1.278463 0.000137 -0.003827 2110450.000000 1 0 0
6.939627 2.015267 13.646324 15.441564 0.282626 0.487002 0.007305 -0.003520 -653006.000000 1 0 0
6.806527 4.355167 3.787224 8.924088 0.569208 1.132517 0.001520 -0.000572 22901.300000 1 0 0
-0.315173 3.391967 7.783124 8.495987 -1.478145 0.412568 0.002316 -0.001384 -968671.000000 1 0 0
2.652227 -10.239333 9.354524 14.120388 -1.317343 0.846667 0.002360 -0.004955 1291290.000000 1 0 0
1.252627 -4.507933 6.852924 8.297777 -1.299762 0.599045 0.002887 -0.003251 -652609.000000 1 0 0
-0.112373 10.866567 -2.052276 11.059238 -1.560456 1.757449 0.003951 -0.004868 1955550.000000 1 0 0
8.920827 5.587867 7.950624 13.191582 0.559594 0.923910 0.003666 -0.002005 -264913.000000 1 0 0
2.685027 11.450867 -2.952076 12.126272 1.340475 1.816712 0.006441 -0.002898 2189580.000000 1 0 0
1.506527 2.382867 -6.654176 7.226738 1.007013 2.740851 0.006885 -0.005130 2322090.000000 1 0 0
-13.653873 -2.194633 3.590424 14.287610 0.159370 1.316777 0.004953 0.001116 580091.000000 1 0 0
-0.961073 -10.560433 -5.223476 11.820791 1.480039 2.028499 0.008410 0.001293 524125.000000 1 0 0
-5.695173 2.870467 0.490824 6.396521 -0.466856 1.493988 0.005871 -0.002602 2109010.000000 1 0 0
3.734027 7.220867 -4.986876 9.536918 1.093550 2.121049 0.005470 -0.001985 -279460.000000 1 0 0
2.989627 9.666167 -6.550076 12.053056 1.270841 2.145322 0.007105 -0.002517 787961.000000 1 0 0
-12.313273 1.691667 -2.510976 12.680041 -0.136531 1.770140 0.008042 -0.000568 1278260.000000 1 0 0
-2.479873 9.722567 -5.793176 11.586154 -1.321058 2.094405 -0.001961 -0.000049 892444.000000 1 0 0
-1.360073 3.355967 1.683424 3.993273 -1.185755 1.135626 0.003600 -0.000630 1613190.000000 1 0 0
12.952627 3.777667 9.632224 16.577728 0.283781 0.950798 0.036860 -0.005865 865901.000000 1 0 0
-2.596273 -9.551433 11.570324 15.226388 1.305389 0.707658 -0.001153 -0.010654 1028810.000000 1 0 0
-0.434773 -8.901733 -7.504276 11.650924 1.521994 2.270633 0.004851 -0.000535 3685900.000000 1 0 0
2.388627 7.734967 -0.431476 8.106875 1.271278 1.624045 0.003920 0.000177 1627410.000000 1 0 0
-11.900073 -1.269733 -5.635176 13.227969 0.106297 2.010868 0.009844 0.000105 119889.000000 1 0 0
-6.272773 -7.204833 -10.952676 14.533355 0.854444 2.424354 0.012998 -0.006540 1560620.000000 1 0 0
-4.769573 -2.299133 -1.384076 5.472706 0.449178 1.826478 0.009752 -0.006033 -3324590.000000 1 0 0
-10.511173 3.721067 4.520724 12.031959 -0.340243 1.185616 0.000780 -0.004869 2278890.000000 1 0 0
6.788427 9.331267 -3.612876 12.091656 0.941856 1.874222 0.003110 -0.001442 1468490.000000 1 0 0
1.212027 -2.623933 -11.482876 11.841050 -1.138080 2.895007 0.002910 -0.006112 -378748.000000 1 0 0
1.344727 8.810467 7.551024 11.681206 1.419337 0.867907 0.004231 0.000994 500976.000000 1 0 0
10.304427 0.458567 10.450424 14.683421 0.044473 0.778858 0.010588 -0.002798 1856450.000000 1 0 0
-5.308973 -0.880833 -3.883876 6.636682 0.164416 2.195940 0.010913 -0.008677 -426224.000000 1 0 0
11.778527 5.648967 5.309424 14.100869 0.447194 1.184747 0.003374 -0.002098 1953530.000000 1 0 0
10.004327 -3.503533 3.718524 11.233375 -0.336855 1.233407 0.017746 -0.010834 -1306810.000000 1 0 0
7.429927 -1.718333 -3.406976 8.352483 -0.227276 1.990949 0.007318 -0.000533 -3369730.000000 1 0 0
2.335827 9.273367 10.482924 14.189543 1.324044 0.739541 0.008844 0.000171 1815740.000000 1 0 0
2.362427 -10.896333 6.433724 12.872604 -1.357291 1.047429 0.000521 0.000458 1551830.000000 1 0 0
5.908827 -7.569233 -1.288976 9.688601 -0.907974 1.704232 0.006911 -0.005155 778057.000000 1 0 0
-0.304173 -5.563933 -2.261176 6.013550 1.516182 1.956287 0.008691 -0.002967 762659.000000 1 0 0
7.711027 -5.108533 2.750524 9.649996 -0.585110 1.281760 0.012283 -0.007585 2621890.000000 1 0 0
-2.719273 -12.548733 4.756224 13.692582 1.357399 1.216044 0.012560 -0.001077 -5085.760000 1 0 0
4.850227 -10.308033 -1.134576 11.448472 -1.131002 1.670062 0.005911 -0.004192 801498.000000 1 0 0
0.965927 0.154267 1.052324 1.436732 0.158371 0.748893 0.003123 -0.000448 -1773440.000000 1 0 0
-1.598873 8.570867 2.448724 9.056070 -1.386369 1.296992 0.001158 -0.001026 45919.100000 1 0 0
-7.606873 0.614967 -3.063376 8.223562 -0.080668 1.952511 0.006367 -0.002780 -721226.000000 1 0 0
4.417627 -6.320033 12.931324 15.055809 -0.960750 0.537693 0.008526 0.000457 -123668.000000 1 0 0
-5.110373 13.035667 8.381224 16.318378 -1.197179 1.031414 0.013872 -0.006889 1759480.000000 1 0 0
0.656027 6.075967 8.198224 10.225391 1.463242 0.640576 0.003111 0.001684 1146460.000000 1 0 0
7.997427 -0.591333 -0.676576 8.047749 -0.073806 1.654966 0.010450 -0.001143 4161050.000000 1 0 0
2.372127 -9.196333 -2.290376 9.769613 -1.318356 1.807438 0.002711 -0.001892 2098000.000000 1 0 0
-7.156373 12.206767 4.910724 14.977785 -1.040539 1.236751 0.004337 -0.004832 1480970.000000 1 0 0
-15.051273 0.272667 0.171724 15.054722 -0.018114 1.559389 0.011878 -0.001348 1746440.000000 1 0 0
6.859427 -0.513133 3.941924 7.928039 -0.074668 1.050413 0.007002 -0.002610 1573640.000000 1 0 0
-4.207873 -5.023833 5.077524 8.290135 0.873556 0.911605 0.004124 -0.001223 -562842.000000 1 0 0
2.941227 5.080167 6.839824 9.013440 1.045989 0.709255 0.000376 -0.000353 256090.000000 1 0 0
2.078027 -7.210133 1.830124 7.723572 -1.290192 1.331568 0.003154 -0.001446 3359210.000000 1 0 0
-2.468773 6.452567 -1.770676 7.132023 -1.205377 1.821691 0.001729 -0.002276 1149320.000000 1 0 0
2.660227 -3.823533 -6.561276 8.046524 -0.962928 2.524246 0.003422 -0.005581 -2202090.000000 1 0 0
-5.132173 0.868167 -12.116276 13.187003 -0.167575 2.735837 0.005394 -0.004227 793735.000000 1 0 0
-7.430173 6.358267 -11.881476 15.388454 -0.707815 2.452941 -0.002853 -0.002176 1379470.000000 1 0 0
-1.051073 11.174367 -9.129676 14.467972 -1.477011 2.253672 0.006593 -0.003153 2776020.000000 1 0 0
4.613627 5.911367 -0.552276 7.518964 0.908080 1.644314 0.005236 0.000164 1101860.000000 1 0 0
-2.630673 13.338067 3.536124 14.047372 -1.376065 1.316330 0.006076 -0.001672 1414570.000000 1 0 0
1.367227 -7.871133 10.243224 12.990292 -1.398811 0.662383 0.001641 -0.005777 -665131.000000 1 0 0
13.118927 -0.221433 -1.001176 13.158937 -0.016877 1.646953 0.014288 -0.001812 -220611.000000 1 0 0
-1.054973 3.132367 -5.373276 6.308469 -1.245931 2.590124 0.006689 -0.006717 848274.000000 1 0 0
6.630327 1.060767 7.258024 9.887637 0.158643 0.746529 0.004172 -0.002337 1319090.000000 1 0 0
5.425027 -6.166433 6.901324 10.727725 -0.849273 0.871974 0.006548 -0.004092 1444170.000000 1 0 0
12.332427 -4.819533 2.682624 13.509742 -0.372552 1.370898 0.020026 -0.009464 -1051960.000000 1 0 0
4.353127 -9.129333 13.892224 17.183955 -1.125857 0.629297 0.004068 -0.001801 267411.000000 1 0 0
-2.802873 -4.261333 -1.499476 5.316341 0.988995 1.856727 0.012344 -0.006119 -52872.300000 1 0 0
-9.409673 -5.168133 -7.512276 13.102894 0.502257 2.181360 0.013445 -0.005980 244446.000000 1 0 0
-10.595873 -3.085233 7.825124 13.528627 0.283339 0.954015 0.004035 0.000607 220076.000000 1 0 0
12.098327 -0.616633 1.749624 12.239728 -0.050924 1.427359 0.015143 -0.004256 47477.000000 1 0 0
-7.611573 4.701267 4.386624 9.963956 -0.553294 1.114920 0.001290 -0.004486 3496710.000000 1 0 0
-1.044073 10.594967 6.895724 12.684417 -1.472569 0.996031 0.003936 0.000944 4296690.000000 1 0 0
7.379027 -10.056433 1.917124 12.619717 -0.937769 1.418291 0.012210 -0.006552 2375320.000000 1 0 0
-4.358673 -1.729433 1.705624 4.989802 0.377727 1.221941 0.003281 -0.001390 1370070.000000 1 0 0
6.711527 -14.959533 -0.890776 16.420283 -1.149069 1.625071 0.021795 -0.005477 -1128150.000000 1 0 0
-10.568673 1.696267 2.379224 10.965167 -0.159142 1.352076 -0.000687 -0.000830 538983.000000 1 0 0
-3.015573 8.281967 -11.355576 14.374761 -1.221604 2.481550 0.005393 -0.001280 145467.000000 1 0 0
-1.225473 -5.210933 -6.812076 8.663717 1.339820 2.475556 0.005145 -0.007376 -912071.000000 1 0 0
12.785427 -0.464133 6.454524 14.329810 -0.036286 1.103553 0.021780 -0.011573 2072470.000000 1 0 0
5.915427 -13.276433 3.855924 15.037423 -1.151642 1.311478 0.009787 -0.001633 886986.000000 1 0 0
-5.609173 3.409767 -4.890476 8.185725 -0.546202 2.211101 0.006304 -0.003554 2296920.000000 1 0 0
-4.422473 8.060767 3.326124 9.777389 -1.068997 1.223682 0.003541 -0.001029 91645.500000 1 0 0
14.086327 6.054367 -4.040676 15.855820 0.405933 1.828477 0.029672 -0.004861 39671.200000 1 0 0
-6.746973 -8.543233 5.242724 12.082824 0.902340 1.121981 0.012764 -0.001089 518910.000000 1 0 0
1.701927 11.308367 2.707924 11.751960 1.421416 1.338284 0.004448 -0.005173 1780930.000000 1 0 0
-7.411673 7.271267 6.048824 12.016343 -0.775836 1.043287 0.001981 -0.004240 -1375210.000000 1 0 0
-17.473673 -4.031233 5.238024 18.681996 0.226736 1.286608 0.039251 -0.011251 -616755.000000 1 0 0
7.553327 -13.032733 -8.427876 17.260764 -1.045537 2.080900 0.019880 -0.006691 -1104330.000000 1 0 0
-2.255773 12.817267 -2.735976 13.298737 -1.396586 1.778008 -0.000929 -0.000417 822810.000000 1 0 0
-5.456973 13.801367 -5.772576 15.924162 -1.194267 1.941750 0.012907 -0.004474 2337590.000000 1 0 0
-5.675373 2.487967 7.450524 9.690725 -0.413148 0.693786 0.002517 -0.004033 240692.000000 1 0 0
-7.498873 5.073767 1.421224 9.164938 -0.594851 1.415096 0.003469 -0.001966 1177770.000000 1 0 0
10.723727 -5.637933 -4.999076 13.106310 -0.484030 1.962134 0.016496 -0.006621 2141260.000000 1 0 0
-9.487473 -0.720133 6.788724 11.688349 0.075758 0.951071 -0.003751 -0.002234 1148130.000000 1 0 0
-11.331073 -4.638033 -2.570676 12.510513 0.388515 1.777752 0.004323 -0.000879 588931.000000 1 0 0
6.553127 -4.316533 13.485024 15.601981 -0.582466 0.527010 0.016921 -0.002456 -876324.000000 1 0 0
0.249227 10.209367 -11.768276 15.581579 1.546390 2.426860 0.010126 -0.003739 -716768.000000 1 0 0
-11.862273 -3.214933 1.448224 12.375244 0.264664 1.453502 0.002832 0.000949 3306410.000000 1 0 0
5.278327 6.038567 5.440624 9.691513 0.852475 0.974744 0.002596 0.000179 -3852360.000000 1 0 0
-7.140873 0.045067 8.058424 10.767186 -0.006311 0.725113 -0.002172 -0.003765 -639335.000000 1 0 0
1.837527 2.109267 9.559024 9.959942 0.854141 0.284697 0.003074 -0.003264 2940480.000000 1 0 0
10.517627 -4.891033 -1.976876 11.766508 -0.435284 1.739606 0.010839 -0.004676 1183320.000000 1 0 0
-9.749673 -2.411933 -1.636976 10.176111 0.242517 1.732363 0.004639 -0.001675 1086560.000000 1 0 0
-1.975273 -5.288033 -9.817476 11.324656 1.213309 2.619769 0.010274 -0.007128 790504.000000 1 0 0
7.702327 -1.642533 6.550324 10.243559 -0.210104 0.877003 0.009535 -0.007467 1430820.000000 1 0 0
1.536527 -11.780033 -2.553476 12.151145 -1.441094 1.782517 0.007316 -0.000410 -4752700.000000 1 0 0
-0.785473 -1.534733 4.767524 5.069680 1.097755 0.346994 0.006276 -0.002337 2197150.000000 1 0 0
7.579127 1.526867 9.786624 12.472069 0.198796 0.668611 0.001176 0.000451 445615.000000 1 0 0
-3.876973 10.766267 -8.074076 14.004789 -1.225149 2.185263 0.003647 -0.001685 2083440.000000 1 0 0
-9.556373 12.685167 6.396124 17.121569 -0.925155 1.187940 0.012956 -0.007371 2049860.000000 1 0 0
-2.532173 -2.468033 -10.951576 11.508262 0.772571 2.829286 0.011889 -0.010361 -2876890.000000 1 0 0
1.144027 -11.918233 11.191424 16.389053 -1.475100 0.819126 -0.005098 -0.001598 2195210.000000 1 0 0
1.329427 3.504967 -1.986876 4.242622 1.208263 2.058177 0.005683 -0.000143 4145580.000000 1 0 0
-1.962673 -9.390533 -11.997876 15.361745 1.364757 2.467099 -0.000383 -0.000407 1010530.000000 1 0 0
1.288227 -2.669833 1.577424 3.357946 -1.121237 1.081779 0.009882 -0.002807 3279870.000000 1 0 0
-1.079873 -2.295533 -6.532576 7.007863 1.131088 2.771180 0.009723 -0.011703 803021.000000 1 0 0
1.801527 5.820167 4.029524 7.304581 1.270618 0.986463 0.000501 0.001082 14791.900000 1 0 0
-10.954573 8.579767 3.562124 14.363280 -0.664421 1.320179 0.001626 -0.005097 1884270.000000 1 0 0
-16.466473 -1.482433 3.977724 17.004841 0.089785 1.334692 0.030423 -0.005915 -133661.000000 1 0 0
-12.208173 0.303567 6.838524 13.996323 -0.024861 1.060318 -0.000143 -0.000836 -516084.000000 1 0 0
-5.102173 3.065767 4.683124 7.573820 -0.541062 0.904180 0.000728 -0.001636 944754.000000 1 0 0
5.166327 -6.073933 3.974824 8.909704 -0.865969 1.108368 0.007489 -0.004837 1304430.000000 1 0 0
9.952427 3.498467 6.247324 12.260470 0.338027 1.036134 0.001186 -0.000419 -981422.000000 1 0 0
-12.155273 5.858267 3.152024 13.856595 -0.449106 1.341313 0.003780 -0.002957 756077.000000 1 0 0
-4.873973 12.263367 -1.309876 13.261280 -1.192497 1.669732 -0.002912 0.000090 1487360.000000 1 0 0
-1.730373 -12.199433 10.352524 16.093325 1.429896 0.872021 0.011633 -0.008347 562391.000000 1 0 0
5.338827 6.398967 13.812024 16.131394 0.875472 0.542888 0.008755 -0.003593 1485620.000000 1 0 0
12.947727 -3.701933 -5.915176 14.708407 -0.278484 1.984674 0.015275 -0.004502 726691.000000 1 0 0
3.511927 -2.525433 6.352224 7.685193 -0.623431 0.597839 0.003994 -0.002475 1852100.000000 1 0 0
7.252027 -11.811433 -0.699076 13.877700 -1.020158 1.621192 0.012248 -0.004995 -1435130.000000 1 0 0
-6.185073 -6.583833 -4.119376 9.928305 0.816617 1.998643 0.012529 -0.006405 -104141.000000 1 0 0
0.264427 -8.947133 5.089324 10.296715 -1.541251 1.053805 0.007877 -0.001975 1699460.000000 1 0 0
-10.336873 2.482567 -0.385576 10.637798 -0.235702 1.607050 0.002703 0.000417 -1001340.000000 1 0 0
-1.830973 8.990967 -0.358276 9.182500 -1.369898 1.609823 0.002701 -0.004036 2135060.000000 1 0 0
-3.504273 2.190667 -6.590576 7.779116 -0.558701 2.581515 0.008801 -0.006894 942951.000000 1 0 0
-12.674373 3.059067 6.442124 14.542991 -0.236829 1.111886 0.002804 -0.008533 -190758.000000 1 0 0
11.350227 1.640067 7.943624 13.950578 0.143503 0.965006 0.011571 -0.005686 -1518750.000000 1 0 0
6.081427 2.626467 -3.177876 7.347175 0.407686 2.018094 0.005448 0.001434 1115980.000000 1 0 0
10.499827 -2.423333 6.468824 12.568397 -0.226826 1.030151 0.018392 -0.011004 1431150.000000 1 0 0
-0.959973 11.004067 4.053624 11.766176 -1.483779 1.219074 0.004942 -0.001981 1241120.000000 1 0 0
-1.611873 -12.211733 7.475324 14.408505 1.439561 1.025334 0.006914 -0.000998 -1395000.000000 1 0 0
8.140127 8.666067 -7.844376 14.244178 0.816682 2.154008 0.006658 -0.003834 3218980.000000 1 0 0
-4.751073 -5.952433 -8.724776 11.581272 0.897170 2.423941 0.013935 -0.008216 1028120.000000 1 0 0
-8.595073 -5.328433 -11.581976 15.375619 0.554953 2.423815 0.018532 -0.008493 149116.000000 1 0 0
6.114327 -0.664333 -9.953976 11.700768 -0.108227 2.588133 0.004184 0.000558 1738930.000000 1 0 0
-11.172373 -5.510833 -5.337276 13.552775 0.458237 1.975574 0.008915 -0.005568 -178816.000000 1 0 0
3.912627 8.933067 -2.764176 10.136518 1.157972 1.846989 0.006531 -0.003508 2068610.000000 1 0 0
11.725727 -10.352933 -4.004776 16.146644 -0.723301 1.821438 0.021514 -0.009168 -187307.000000 1 0 0
3.941527 -11.276833 4.000324 12.597825 -1.234545 1.247661 0.004973 -0.000145 1704000.000000 1 0 0
-1.056773 0.825467 3.129524 3.404715 -0.663123 0.404819 0.005582 -0.002167 -859103.000000 1 0 0
-10.634873 -5.066433 4.497824 12.609508 0.444588 1.206062 0.008009 -0.000088 4340290.000000 1 0 0
4.559527 -8.698833 2.767724 10.203885 -1.088013 1.296113 0.005293 -0.001982 4873420.000000 1 0 0
-3.748673 -5.711933 2.618224 7.316681 0.990013 1.204839 0.005536 -0.001353 2637270.000000 1 0 0
10.126327 5.085767 12.256524 16.692211 0.465432 0.746211 0.015526 -0.000248 -333259.000000 1 0 0
1.608327 -12.326933 -5.229976 13.486758 -1.441057 1.969025 0.005765 -0.000317 2383490.000000 1 0 0
9.850927 -10.714133 -1.721176 14.655915 -0.827348 1.688507 0.014049 -0.006248 1279370.000000 1 0 0
9.599127 -4.521633 -9.166376 14.021799 -0.440218 2.283291 0.019265 -0.007076 2827450.000000 1 0 0
-7.410173 -3.101333 -13.056276 15.329556 0.396372 2.590029 0.016925 -0.007726 1711320.000000 1 0 0
0.487727 6.315367 -2.453076 6.792593 1.493721 1.940286 0.002309 -0.002332 3064760.000000 1 0 0
-5.951373 -9.588933 0.949124 11.325516 1.015331 1.486894 0.011257 -0.001885 852770.000000 1 0 0
-9.056973 -4.102833 0.608224 9.961523 0.425348 1.509701 0.001319 -0.001372 3441090.000000 1 0 0
1.881027 3.848367 12.036724 12.776186 1.116160 0.341892 0.003354 -0.004420 861330.000000 1 0 0
6.673327 4.303667 9.470424 12.358955 0.572786 0.697765 -0.001075 -0.000651 2243750.000000 1 0 0
-8.247573 9.880367 -3.611176 13.367300 -0.875226 1.844345 0.002532 -0.001592 1800200.000000 1 0 0
16.578127 2.137867 -6.089276 17.789999 0.128249 1.920146 0.055764 0.002661 1957050.000000 1 0 0
-11.056573 2.589967 -5.149476 12.468875 -0.230098 1.996527 0.007454 0.000892 1565160.000000 1 0 0
-13.792573 4.040067 1.548624 14.455291 -0.284945 1.463458 0.009054 0.000185 -206424.000000 1 0 0
-17.454373 10.437267 3.352224 20.611383 -0.538929 1.407431 0.053406 -0.018158 -674203.000000 1 0 0
-14.526873 2.848767 -1.146776 14.847916 -0.193646 1.648108 0.011878 0.001307 846406.000000 1 0 0
-14.358173 5.195067 5.095624 16.096933 -0.347165 1.248697 0.006465 -0.007446 1671140.000000 1 0 0
-17.477873 7.522867 3.186224 19.293045 -0.406454 1.404887 0.038315 -0.007721 -1877340.000000 1 0 0
-15.022873 12.496267 -3.425976 19.838869 -0.693842 1.744356 0.063913 -0.013831 -112896.000000 1 0 0
-8.504373 12.506167 -9.549276 17.886231 -0.973610 2.133991 0.015643 -0.018932 820386.000000 1 0 0
-12.412673 8.698267 -9.932176 18.121325 -0.611234 2.150879 0.027632 -0.007823 -477878.000000 1 0 0
-13.953073 -3.459733 -12.237576 18.878990 0.243053 2.276029 0.038987 -0.008217 -799942.000000 1 0 0
-14.787073 5.736867 -7.728976 17.643873 -0.370089 2.024230 0.037599 -0.001850 -585424.000000 1 0 0
-10.991573 13.441067 -8.441376 19.306315 -0.885319 2.023317 0.035458 -0.018602 970781.000000 1 0 0
-10.898473 13.481067 3.924024 17.773966 -0.890937 1.348189 0.017916 -0.009846 -407944.000000 1 0 0
-15.257373 3.279667 3.117524 15.914227 -0.211734 1.373626 0.011980 -0.002572 462916.000000 1 0 0
-11.065473 9.347567 -12.425776 19.084591 -0.701439 2.279815 0.024604 -0.013296 518749.000000 1 0 0
-13.111773 11.457867 -9.124376 19.658473 -0.718185 2.053465 0.044711 -0.023198 -1159930.000000 1 0 0
-8.731073 14.578967 -3.464376 17.343005 -1.031200 1.771906 0.019207 -0.010886 1639640.000000 1 0 0
-16.648273 8.275267 -4.156376 19.050473 -0.461297 1.790742 0.046679 -0.007372 -301327.000000 1 0 0
-16.938973 6.727767 0.403524 18.230592 -0.378070 1.548660 0.038401 -0.000286 362886.000000 1 0 0
-10.552273 2.682367 -12.603376 16.655049 -0.248926 2.429093 0.019543 -0.010635 204615.000000 1 0 0
-16.998973 0.903867 2.325024 17.181030 -0.053122 1.435055 0.041504 -0.006792 517489.000000 1 0 0
-12.808973 1.167367 -7.101976 14.692536 -0.090886 2.075300 0.017695 -0.002331 1463420.000000 1 0 0
-12.224073 8.976667 -5.433776 16.110072 -0.633405 1.914834 0.029157 -0.001141 -1561140.000000 1 0 0
-9.594873 13.906067 1.226224 16.939419 -0.966829 1.498344 0.026138 -0.010276 -384575.000000 1 0 0
-12.229673 11.081967 2.684124 16.720629 -0.736205 1.409571 0.012256 -0.008917 351264.000000 1 0 0
-12.601273 6.772167 -3.673976 14.769984 -0.493133 1.822182 0.012751 0.001106 1275190.000000 1 0 0
-15.996273 3.621567 -9.430776 18.919198 -0.222647 2.092637 0.050007 -0.009293 -1266970.000000 1 0 0
-15.121673 5.795367 -4.759876 16.879209 -0.365983 1.856671 0.029802 0.001947 1563870.000000 1 0 0
-17.921473 5.180167 7.532324 20.118381 -0.281379 1.187047 0.030409 -0.019072 -1344930.000000 1 0 0
-15.826273 10.084767 -2.034876 18.876286 -0.567336 1.678807 0.048304 -0.003453 -1711100.000000 1 0 0
-8.786373 9.888867 -8.288676 15.610644 -0.844365 2.130533 0.006117 -0.008294 612582.000000 1 0 0
-17.116173 4.270567 -1.176176 17.680060 -0.244513 1.637371 0.035619 0.000154 1078950.000000 1 0 0
-10.159873 5.345567 -4.620176 12.375142 -0.484344 1.953407 0.006556 0.000269 1506770.000000 1 0 0
-18.130473 2.682567 6.176124 19.340495 -0.146893 1.245767 0.041270 -0.016468 -973650.000000 1 0 0
-10.321373 10.047167 -5.685576 15.485544 -0.771937 1.946744 0.009558 -0.007490 -431336.000000 1 0 0
-15.498373 0.423667 -5.949576 16.606520 -0.027329 1.937208 0.024875 -0.002702 -419856.000000 1 0 0
-16.442573 -4.170033 -8.855876 19.135671 0.248375 2.051941 0.043884 -0.015129 -954930.000000 1 0 0
-9.911773 9.646767 -1.111576 13.875841 -0.771850 1.650991 0.003339 -0.002427 997564.000000 1 0 0
-17.435673 -3.014433 -3.293976 17.998327 0.171196 1.754849 0.052197 -0.007529 1287950.000000 1 0 0
-11.941773 4.980667 -11.506776 17.315279 -0.395143 2.297681 0.027039 -0.009776 1575190.000000 1 0 0
-16.329673 7.121167 5.927224 18.775016 -0.411224 1.249605 0.022792 -0.010028 720494.000000 1 0 0
-12.092873 5.936167 -8.782376 16.081225 -0.456326 2.148529 0.021845 -0.002691 1439720.000000 1 0 0
-14.510273 8.363867 -0.074576 16.748369 -0.522893 1.575249 0.032826 -0.002825 1521260.000000 1 0 0
-14.917273 11.825967 3.876924 19.427019 -0.670317 1.369884 0.022560 -0.015908 1394710.000000 1 0 0
-17.342173 4.146667 -4.009976 18.276371 -0.234702 1.792004 0.035027 -0.003268 -60882.600000 1 0 0
-13.804773 13.446167 -0.803276 19.287727 -0.772240 1.612455 0.044651 -0.008276 -354410.000000 1 0 0
-10.038673 6.767167 -13.117476 17.850425 -0.593138 2.396249 0.003535 -0.010095 2191370.000000 1 0 0
-15.893373 -1.143133 -8.443776 18.033397 0.071801 2.058083 0.027308 -0.007854 -522471.000000 1 0 0
-11.411073 11.927767 -0.095676 16.507373 -0.807533 1.576592 0.023994 -0.009438 212924.000000 1 0 0
-11.929673 7.356467 -0.970576 14.049083 -0.552574 1.639936 0.005809 0.002281 2028380.000000 1 0 0
-11.460573 0.061167 -11.788776 16.441524 -0.005337 2.370303 0.023908 -0.010807 441789.000000 1 0 0
-19.224873 -1.171633 -4.720476 19.830566 0.060868 1.811144 0.065492 -0.015427 -1265120.000000 1 0 0
-18.055873 1.489567 -5.117576 18.826124 -0.082311 1.846094 0.039012 -0.004160 -454049.000000 1 0 0
-13.327573 -0.126633 -9.529676 16.384595 0.009501 2.191520 0.023947 -0.008036 -274192.000000 1 0 0
-6.112073 11.244867 -13.165676 18.361359 -1.072924 2.370331 0.000999 -0.008706 -1372520.000000 1 0 0
16.497727 5.835067 6.906724 18.812917 0.339958 1.194878 0.052552 -0.018700 189154.000000 1 0 0
14.771227 10.003067 -5.584376 18.693201 0.595259 1.874167 0.059674 -0.025636 -409347.000000 1 0 0
2.513427 16.885267 4.331224 17.612185 1.423028 1.322326 0.017213 -0.008071 1201660.000000 1 0 0
-3.878973 18.133567 -5.938176 19.471379 -1.360061 1.880703 0.022720 -0.005870 206365.000000 1 0 0
5.531627 14.489167 5.454924 16.440531 1.206098 1.232588 0.019318 -0.006685 829081.000000 1 0 0
9.941927 5.941767 15.047424 18.988720 0.538688 0.655997 0.027816 -0.004610 -649598.000000 1 0 0
4.709627 12.757167 -1.165376 13.648590 1.217142 1.656285 0.008070 -0.005211 1513500.000000 1 0 0
3.632627 13.858967 13.010824 19.353255 1.314449 0.833511 0.033895 -0.008752 91344.600000 1 0 0
-0.704173 12.380667 9.105624 15.384706 -1.513981 0.937429 0.012853 0.001342 1553140.000000 1 0 0
-7.768473 13.979767 8.365624 18.049009 -1.063592 1.088861 0.017705 -0.012979 1921620.000000 1 0 0
11.464527 12.702067 -4.156176 17.608284 0.836562 1.809080 0.048358 -0.020256 -1032360.000000 1 0 0
-5.700773 16.114467 0.849224 17.114206 -1.230769 1.521155 0.016744 -0.003677 1479310.000000 1 0 0
3.365827 10.575367 6.810824 13.021310 1.262663 1.020368 0.004296 0.002583 1639790.000000 1 0 0
-1.073373 15.470167 2.429624 15.696537 -1.501524 1.415384 0.001845 -0.005733 -1889280.000000 1 0 0
9.966027 8.845767 9.513824 16.373214 0.725917 0.950765 0.017629 -0.002445 2454850.000000 1 0 0
7.383127 12.294567 6.093524 15.581976 1.029995 1.169011 0.015925 -0.003927 210491.000000 1 0 0
11.887727 13.930467 -1.645776 18.387075 0.864354 1.660423 0.034049 -0.014438 458064.000000 1 0 0
9.739727 15.953167 -1.337276 18.739107 1.022677 1.642220 0.035087 -0.010200 1048150.000000 1 0 0
10.253027 13.859767 2.841124 17.472541 0.933875 1.407466 0.027748 -0.006147 3795130.000000 1 0 0
-6.006473 14.633267 6.286024 17.021290 -1.181299 1.192537 0.006270 -0.003484 145808.000000 1 0 0
-0.927373 18.261367 -6.337776 19.352130 -1.520057 1.904450 0.025773 0.003547 1840450.000000 1 0 0
-3.483473 15.691267 5.311524 16.928164 -1.352338 1.251637 0.005415 -0.006002 2011270.000000 1 0 0
7.026527 12.318667 10.488724 17.639018 1.052428 0.933989 0.013519 -0.003790 3700080.000000 1 0 0
1.518127 14.561667 6.139024 15.875594 1.466917 1.173750 0.009498 -0.001604 263554.000000 1 0 0
17.341127 7.775067 -1.471076 19.061228 0.421489 1.648049 0.031855 -0.011249 387594.000000 1 0 0
2.172627 16.240667 -3.284776 16.711353 1.437809 1.768644 -0.001183 -0.004402 3434430.000000 1 0 0
6.799227 11.149267 0.515524 13.069101 1.023176 1.531340 0.012401 -0.003111 2393470.000000 1 0 0
12.795627 9.404867 3.139024 16.187435 0.633836 1.375643 0.011751 -0.001518 -1127160.000000 1 0 0
6.143427 14.311067 -3.404876 15.941817 1.165308 1.786036 0.006431 -0.002831 67055.100000 1 0 0
3.261427 16.567667 1.470124 16.949506 1.376427 1.483952 0.015404 -0.013747 -1480990.000000 1 0 0
2.769127 18.990867 -2.602076 19.367289 1.426003 1.705558 0.007930 -0.013386 -1099010.000000 1 0 0
3.911427 11.965467 10.725824 16.538288 1.254853 0.865125 0.019877 -0.007204 3091040.000000 1 0 0
8.157427 11.609567 3.271224 14.561132 0.958296 1.344208 0.012857 -0.001401 17150.600000 1 0 0
0.888527 12.429167 0.221224 12.462849 1.499430 1.553045 0.005363 -0.004810 -979219.000000 1 0 0
12.008627 9.797167 -4.659576 16.183425 0.684328 1.862853 0.034183 -0.010203 -158513.000000 1 0 0
-1.232973 16.452767 9.784324 19.181938 -1.495996 1.035518 0.017401 -0.004902 -317182.000000 1 0 0
8.190027 14.783067 -8.011176 18.702795 1.064877 2.013452 0.045294 -0.010738 924640.000000 1 0 0
14.444827 7.615767 -1.443776 16.393213 0.485195 1.658982 0.014844 -0.005018 122110.000000 1 0 0
12.716827 8.295267 5.913124 16.293992 0.577995 1.199416 0.011880 -0.003259 -1246540.000000 1 0 0
-2.999073 14.209867 10.100224 17.689807 -1.362793 0.963118 0.014652 -0.010254 872042.000000 1 0 0
-4.518273 17.166467 -3.172176 18.032334 -1.313430 1.747633 0.021731 -0.005541 121524.000000 1 0 0
-7.052273 16.509267 -1.809976 18.043461 -1.167089 1.671277 0.022815 -0.005853 216391.000000 1 0 0
8.374727 11.154767 -1.929476 14.081469 0.926799 1.708251 0.008393 -0.005030 -1093210.000000 1 0 0
8.628727 12.843167 -4.197176 16.031786 0.979211 1.835687 0.022607 -0.005956 2994490.000000 1 0 0
2.550227 14.812867 -7.334476 16.724809 1.400305 2.024768 0.007027 -0.003981 -4185.250000 1 0 0
11.436727 11.388967 9.716124 18.839065 0.783306 1.028921 0.023407 -0.007059 1046040.000000 1 0 0
8.663727 15.886267 1.359224 18.146105 1.071523 1.495822 0.027355 -0.005769 179105.000000 1 0 0
6.169527 10.000267 7.635224 14.013031 1.018017 0.994567 0.009637 0.005720 2881780.000000 1 0 0
14.628327 11.512667 2.516024 18.784564 0.666771 1.436452 0.026473 -0.004103 1794850.000000 1 0 0
12.281327 12.661267 0.988824 17.666818 0.800630 1.514796 0.024159 -0.005585 2630590.000000 1 0 0
5.331127 15.724667 8.060424 18.456882 1.243928 1.118851 0.025740 -0.004233 -511691.000000 1 0 0
11.866927 15.124667 4.851924 19.827271 0.905512 1.323576 0.032215 -0.007314 1293040.000000 1 0 0
6.095427 16.994767 1.812924 18.145606 1.226423 1.470720 0.019863 -0.014715 963792.000000 1 0 0
-0.632973 16.177067 -4.189476 16.722735 -1.531688 1.824020 0.004223 -0.001251 275000.000000 1 0 0
15.997427 6.441167 2.438824 17.417065 0.382778 1.430310 0.003045 -0.009026 212331.000000 1 0 0
7.717627 16.754367 -3.224976 18.726213 1.139135 1.743876 0.025917 -0.011128 75785.700000 1 0 0
15.028627 8.227867 7.390124 18.659350 0.500906 1.163580 0.040522 -0.017042 -391998.000000 1 0 0
2.165027 12.980167 8.574524 15.706513 1.405523 0.993308 0.013637 0.000406 1231240.000000 1 0 0
16.005227 7.364067 -5.927876 18.588612 0.431224 1.895363 0.036824 -0.006629 -41215.700000 1 0 0
-2.898673 16.993367 0.707824 17.253343 -1.401846 1.529759 0.004593 -0.004612 1088560.000000 1 0 0
-2.822273 18.525867 4.475224 19.266567 -1.419616 1.336376 0.009886 -0.007236 46589.800000 1 0 0
-0.783773 19.034267 0.778724 19.066306 -1.529643 1.529942 0.003469 -0.011114 906529.000000 1 0 0
7.033927 16.747467 -6.038976 19.142179 1.173169 1.891759 0.026844 -0.008386 139405.000000 1 0 0
11.077627 10.068767 0.786224 14.990398 0.737726 1.518324 0.011222 -0.002429 -1046810.000000 1 0 0
9.412327 8.711167 14.125124 19.078665 0.746730 0.737187 0.031229 -0.009777 757096.000000 1 0 0
6.457427 12.412367 -8.397576 16.318226 1.091087 2.111353 0.024847 -0.013207 1158520.000000 1 0 0
6.493727 9.038567 13.284524 17.330400 0.947797 0.697353 0.024227 -0.010603 1405650.000000 1 0 0
16.716127 9.437867 2.824324 19.403068 0.513981 1.424717 0.020115 -0.006250 -1657490.000000 1 0 0
2.638327 14.702667 -0.719476 14.954826 1.393241 1.618925 0.004911 -0.004751 502224.000000 1 0 0
9.165127 12.877567 8.251224 17.830143 0.952253 1.089681 0.020525 -0.009185 1432220.000000 1 0 0
7.280927 9.422667 10.431924 15.831096 0.912923 0.851372 0.011198 -0.004624 1255740.000000 1 0 0
4.415627 15.737367 -5.310576 17.186178 1.297248 1.884941 0.015486 -0.005410 2026300.000000 1 0 0
0.300127 16.309867 -8.128276 18.225551 1.552397 2.033068 0.013696 -0.004190 -664428.000000 1 0 0
-2.357773 15.730667 -2.001276 16.031784 -1.422020 1.695955 -0.002724 -0.001095 -895585.000000 1 0 0
13.370227 10.422867 7.674824 18.609193 0.662151 1.145686 0.030035 -0.012009 2469820.000000 1 0 0
-0.986773 15.886367 6.923124 17.357420 -1.508762 1.160527 0.011302 -0.004658 1489360.000000 1 0 0
13.529827 13.291567 6.528524 20.058504 0.776515 1.239283 0.037115 -0.016571 -1575440.000000 1 0 0
5.452827 17.427667 4.508424 18.809114 1.267562 1.328746 0.024753 -0.011757 899602.000000 1 0 0
10.841427 9.436067 -1.923476 14.500885 0.716202 1.703834 0.011501 -0.003937 1138500.000000 1 0 0
3.256427 12.660667 4.708724 13.894923 1.319045 1.225069 0.005044 -0.003200 808395.000000 1 0 0
-0.112973 18.003967 3.509624 18.343202 -1.564522 1.378278 0.005729 -0.007359 2470590.000000 1 0 0
-7.645173 15.845767 -5.830076 18.534476 -1.121267 1.890782 0.035216 -0.016346 2271720.000000 1 0 0
-12.580873 -9.030433 8.220124 17.532756 0.622566 1.082815 0.032387 -0.004779 -72206.500000 1 0 0
-13.339873 -11.722333 6.914724 19.057248 0.720947 1.199483 0.041011 -0.004132 -1021490.000000 1 0 0
-6.637873 -12.235533 12.315224 18.585865 1.073723 0.846495 0.038968 -0.009425 -530295.000000 1 0 0
-1.833473 -10.557033 14.317124 17.882746 1.398838 0.642482 -0.002753 -0.005990 544835.000000 1 0 0
-8.862773 2.885067 11.007924 14.423826 -0.314708 0.702582 0.003356 -0.004904 1353230.000000 1 0 0
0.555627 10.177067 14.995824 18.131634 1.516255 0.596951 0.019131 -0.013396 263083.000000 1 0 0
0.951327 -6.626133 16.571124 17.872124 -1.428199 0.383916 0.003219 -0.017401 2527020.000000 1 0 0
6.048327 2.455967 17.708924 18.873792 0.385717 0.353169 0.024311 -0.012348 662236.000000 1 0 0
-5.074073 -2.911333 17.576324 18.524288 0.520907 0.321299 0.021405 -0.009898 -601619.000000 1 0 0
-4.287773 8.236567 13.002524 15.977849 -1.090822 0.620162 0.003265 0.002047 146944.000000 1 0 0
0.033227 -4.761133 18.520724 19.122937 -1.563818 0.251628 0.019402 -0.022645 179531.000000 1 0 0
-11.648273 2.133867 11.215624 16.310300 -0.181183 0.812562 0.014598 -0.010425 1181530.000000 1 0 0
-3.443473 -6.158333 14.255624 15.906143 1.060950 0.459591 0.011174 -0.009850 2198860.000000 1 0 0
-7.447573 -2.247833 14.615824 16.557216 0.293126 0.489120 0.004926 -0.002243 970271.000000 1 0 0
-6.140873 -1.088333 10.512324 12.223083 0.175406 0.535451 0.002293 -0.003977 1056080.000000 1 0 0
-4.050973 2.460867 11.107924 12.076930 -0.545898 0.403318 0.002370 -0.001891 2170.360000 1 0 0
-6.459973 6.321767 13.477924 16.228075 -0.774586 0.590735 0.000356 -0.002219 421068.000000 1 0 0
-9.005573 5.484067 12.518424 16.367232 -0.546984 0.699993 0.006399 -0.011165 -249386.000000 1 0 0
-12.226673 -2.120233 15.861524 20.138890 0.171703 0.663881 0.032739 -0.001236 624016.000000 1 0 0
-3.562773 -7.611233 16.896824 18.871324 1.132998 0.461534 0.015878 -0.011129 -1351600.000000 1 0 0
-0.601573 -5.368133 14.349524 15.332566 1.459198 0.360033 0.007702 -0.005576 2494220.000000 1 0 0
-14.264773 -2.204633 13.680824 19.887411 0.153338 0.812186 0.048635 -0.008082 -659020.000000 1 0 0
-6.518173 1.456467 12.124224 13.842134 -0.219836 0.503514 0.005108 -0.003379 1669230.000000 1 0 0
2.209027 -2.220033 14.528124 14.861855 -0.787883 0.212321 0.007798 -0.001447 1732650.000000 1 0 0
-12.589273 4.016367 9.138624 16.066594 -0.308824 0.965754 0.006434 -0.011720 -862575.000000 1 0 0
-9.074673 -3.008533 12.534124 15.764049 0.320127 0.651610 0.001026 -0.000146 1102580.000000 1 0 0
-7.186473 -7.154633 15.269424 18.330016 0.783178 0.586237 0.021290 -0.010387 -529005.000000 1 0 0
-3.419273 5.943367 19.426324 20.600901 -1.048730 0.339311 0.042214 -0.016133 526376.000000 1 0 0
0.812027 5.483067 16.090824 17.018755 1.423768 0.331743 0.014857 -0.005236 -8864.430000 1 0 0
3.456427 1.528867 16.745424 17.166641 0.416454 0.221982 0.010606 -0.004501 1872590.000000 1 0 0
-11.710473 11.427667 7.825024 18.137193 -0.773176 1.124713 0.006554 -0.014916 -184832.000000 1 0 0
0.532627 -9.326533 15.435324 18.042094 -1.513750 0.544247 -0.011696 -0.002497 14219.000000 1 0 0
-2.629473 -3.660033 18.935024 19.463944 0.947809 0.233659 0.025088 -0.015911 973277.000000 1 0 0
-12.887973 2.434667 13.810824 19.046425 -0.186710 0.759597 0.027302 -0.018630 504798.000000 1 0 0
-5.374673 -0.552333 15.737224 16.638882 0.102406 0.330716 0.012147 0.000244 1470710.000000 1 0 0
-4.537973 -5.971133 11.614324 13.825345 0.920935 0.573375 0.004857 -0.003612 -665803.000000 1 0 0
2.420127 1.844767 13.940024 14.268302 0.651302 0.214925 0.002493 -0.001289 251285.000000 1 0 0
0.103327 3.374867 14.240224 14.635040 1.540189 0.232807 0.008682 -0.002499 809586.000000 1 0 0
-13.057573 7.063867 12.183624 19.205185 -0.495891 0.883574 0.021146 -0.017828 307776.000000 1 0 0
0.826327 1.633367 18.181124 18.273040 1.102437 0.100343 0.012546 -0.005049 2249100.000000 1 0 0
-2.022973 6.475667 12.462924 14.189826 -1.268006 0.498501 0.004237 -0.002486 1494960.000000 1 0 0
-13.537273 -2.551133 10.898024 17.565107 0.186268 0.901498 0.034416 -0.006866 -755011.000000 1 0 0
-2.555773 3.685267 13.406124 14.136383 -0.964439 0.322829 0.007378 -0.002182 -713872.000000 1 0 0
3.574527 6.254467 16.211524 17.740043 1.051584 0.418159 0.014655 -0.005233 -310824.000000 1 0 0
-3.737073 12.410367 12.253924 17.836524 -1.278308 0.813426 0.015322 -0.006452 361100.000000 1 0 0
3.614427 -1.430533 17.073224 17.510154 -0.376867 0.223863 0.012494 -0.002101 44178.000000 1 0 0
-15.871073 0.570667 9.237424 18.372442 -0.035941 1.043976 0.044876 -0.014031 394336.000000 1 0 0
-4.684973 4.688367 15.138324 16.525696 -0.785760 0.412684 0.008517 -0.004084 -81415.900000 1 0 0
-8.165073 -8.165233 10.549424 15.640646 0.785408 0.830526 0.022129 -0.009427 3969770.000000 1 0 0
-2.690573 -0.467433 14.616124 14.869054 0.172013 0.184710 0.011500 0.000767 1904270.000000 1 0 0
-1.862073 1.028267 17.115424 17.247098 -0.504543 0.123647 0.012961 -0.006369 880332.000000 1 0 0
-0.745573 -2.485833 14.209224 14.444282 1.279405 0.180653 0.009535 -0.003273 130154.000000 1 0 0
4.959227 -8.209733 16.565424 19.141759 -1.027392 0.524833 0.010843 -0.005982 1367500.000000 1 0 0
-4.530473 10.104767 10.609024 15.335674 -1.149315 0.806835 0.006473 -0.003131 -1048400.000000 1 0 0
-6.231573 2.195067 15.112524 16.493611 -0.338677 0.412141 0.011096 -0.002083 -192628.000000 1 0 0
-4.939073 6.885967 17.181924 19.158014 -0.948576 0.458193 0.015299 -0.002238 24940.800000 1 0 0
-4.082573 9.180867 15.695224 18.635874 -1.152373 0.569437 0.014044 -0.002775 271998.000000 1 0 0
-4.625073 -9.947633 18.305824 21.341272 1.135586 0.539888 0.029581 -0.010316 -279974.000000 1 0 0
-6.836873 -4.039733 11.070424 13.624117 0.533682 0.622264 0.006897 -0.001935 826818.000000 1 0 0
-2.474873 -0.805933 19.422124 19.595750 0.314816 0.133218 0.026874 -0.016517 -778157.000000 1 0 0
-5.697073 -4.512833 15.188724 16.838042 0.669925 0.446305 0.008787 -0.006295 967332.000000 1 0 0
-12.987073 0.076767 9.711224 16.216591 -0.005911 0.928738 0.019883 -0.006893 1937580.000000 1 0 0
-14.467973 8.816567 10.396824 19.878331 -0.547292 1.020402 0.008978 -0.020206 -984811.000000 1 0 0
-8.336173 10.525567 12.903824 18.622245 -0.900957 0.805258 0.012337 -0.009719 495039.000000 1 0 0
-10.475473 7.190667 10.777424 16.661155 -0.601560 0.867337 0.017035 -0.011996 -839006.000000 1 0 0
-9.907073 -6.461533 14.803224 18.948270 0.577930 0.674140 0.022898 -0.012359 -108395.000000 1 0 0
-0.840173 -13.372333 14.559624 19.786557 1.508050 0.743899 -0.000122 -0.008399 746973.000000 1 0 0
3.787127 -5.564533 16.979224 18.264731 -0.973221 0.377421 0.020687 -0.011535 2550180.000000 1 0 0
-7.339973 9.395567 10.353324 15.790605 -0.907614 0.855735 0.008635 -0.002570 1790970.000000 1 0 0
-10.513173 -6.639333 11.809024 17.148195 0.563278 0.811177 0.028897 -0.016021 1428710.000000 1 0 0
-10.969873 -3.859433 10.713224 15.811594 0.338296 0.826363 0.017146 -0.000518 -1033310.000000 1 0 0
-10.202873 -10.120733 9.805524 17.397591 0.781357 0.972042 0.039303 -0.013869 2088720.000000 1 0 0
-9.876373 -3.646433 15.252624 18.533261 0.353683 0.604148 0.015597 -0.010915 1062220.000000 1 0 0
5.597427 -3.248133 16.092924 17.345425 -0.525801 0.382349 0.018831 -0.003212 1752120.000000 1 0 0
-11.247173 0.600267 15.285524 18.987008 -0.053320 0.635034 0.019419 -0.010919 -188111.000000 1 0 0
-3.147873 3.099767 18.769524 19.282445 -0.777698 0.231167 0.022672 -0.012641 -1395890.000000 1 0 0
0.493827 7.399267 13.909424 15.762776 1.504155 0.489810 0.012276 -0.004654 643875.000000 1 0 0
-13.352873 -7.281633 12.245324 19.526120 0.499246 0.892939 0.050643 -0.017904 -451421.000000 1 0 0
-1.579173 -0.998333 11.970424 12.115342 0.563751 0.154825 0.003850 0.000359 -124255.000000 1 0 0
1.997727 -4.882433 13.136924 14.156548 -1.182413 0.381855 0.007609 -0.003245 773167.000000 1 0 0
-14.634473 -4.041933 8.651524 17.474378 0.269475 1.052849 0.027777 -0.009853 -2077940.000000 1 0 0
8.091627 1.004567 16.045824 17.998668 0.123517 0.470149 0.028003 -0.011109 926365.000000 1 0 0
-1.315373 11.397067 13.307324 17.570094 -1.455891 0.711498 0.017598 -0.004309 152471.000000 1 0 0
2.706227 -12.176133 -13.580976 18.439761 -1.352095 2.398685 -0.001523 -0.003640 -314305.000000 1 0 0
0.772527 -10.586833 -14.047476 17.607084 -1.497955 2.494485 -0.005749 0.003652 -3546580.000000 1 0 0
3.320127 -14.291833 -12.398376 19.209359 -1.342536 2.272388 0.012158 -0.004587 -477160.000000 1 0 0
-5.319873 -10.124333 -16.124976 19.769118 1.086993 2.524674 0.029404 -0.011384 47381.400000 1 0 0
-0.995173 -12.231133 -14.998976 19.379377 1.489611 2.455877 0.008570 -0.002458 -373763.000000 1 0 0
5.735827 -14.956133 -11.953176 19.986596 -1.204586 2.211874 0.018099 -0.002690 -482781.000000 1 0 0
1.994327 -11.886533 -16.050876 20.072310 -1.404564 2.497513 0.005024 0.000153 -463194.000000 1 0 0
1.443127 -14.369033 -14.094676 20.179485 -1.470699 2.344047 0.021829 0.004523 -663153.000000 1 0 0
-1.272773 -10.758533 -15.804676 19.161257 1.453040 2.540688 0.002050 -0.005621 19207.300000 1 0 0
-5.756173 -5.490433 -15.021576 16.997827 0.761774 2.654580 0.018616 -0.008455 -141086.000000 1 0 0
-6.425273 -7.509733 -16.448176 19.189130 0.863064 2.600529 0.024332 -0.009481 528591.000000 1 0 0
4.919627 -12.503933 -11.280776 17.544429 -1.195952 2.269184 -0.001527 0.000842 529.442000 1 0 0
-1.750973 -15.438933 -13.270376 20.433537 1.457866 2.277645 0.018853 -0.000521 -151453.000000 1 0 0
15.663527 -7.426833 -8.907476 19.489665 -0.442753 2.045456 0.062605 -0.011923 256875.000000 1 0 0
19.323527 -3.559733 -4.055276 20.062793 -0.182175 1.774328 0.106939 -0.032454 851124.000000 1 0 0
14.992127 -11.599833 -8.877676 20.931630 -0.658515 2.008794 0.067787 -0.022510 536241.000000 1 0 0
18.137327 -3.654533 -6.430576 19.587510 -0.198830 1.905299 0.116998 -0.020065 712987.000000 1 0 0
9.334827 -9.059333 -15.336376 20.110070 -0.770422 2.438153 0.078555 -0.017264 305075.000000 1 0 0
1.303027 1.811367 -15.176276 15.339435 0.947194 2.995610 0.015668 -0.006622 42573.100000 1 0 0
4.857427 -4.422633 -14.032676 15.494201 -0.738580 2.703760 0.006896 -0.002526 608094.000000 1 0 0
13.122627 -5.539533 -8.572476 16.624593 -0.399442 2.112563 0.041920 -0.009738 -1216270.000000 1 0 0
2.996027 0.928567 -12.166176 12.564006 0.300544 2.889272 0.009308 -0.006465 -1196360.000000 1 0 0
0.737527 6.264467 -12.977376 14.429130 1.453604 2.689162 0.018746 -0.004019 35153.200000 1 0 0
3.153827 -1.052433 -16.818276 17.143764 -0.322081 2.946420 0.019481 -0.008266 -755206.000000 1 0 0
13.290727 4.394967 -11.440076 18.078564 0.319360 2.255957 0.025958 -0.006596 482554.000000 1 0 0
-3.902873 9.410967 -16.523776 19.412210 -1.177669 2.589074 0.006694 0.001027 -61560.400000 1 0 0
-0.253973 -5.107333 -17.586376 18.314747 1.521110 2.858622 -0.000733 -0.011918 94194.000000 1 0 0
-0.636273 -8.715533 -17.447376 19.513490 1.497921 2.677256 0.000629 -0.008524 -3017300.000000 1 0 0
5.491227 -10.190433 -12.101476 16.746469 -1.076545 2.378394 0.001889 0.002531 466176.000000 1 0 0
1.718927 -9.808633 -17.982576 20.555705 -1.397312 2.635864 0.013395 -0.008112 -412927.000000 1 0 0
11.033627 8.915467 -14.704776 20.431762 0.679616 2.374169 0.087640 -0.026623 1086840.000000 1 0 0
10.957827 -3.866233 -12.828876 17.309009 -0.339192 2.405604 0.028675 -0.005488 265156.000000 1 0 0
5.127427 7.278967 -12.201276 15.104470 0.957112 2.511194 0.003884 -0.003056 -919418.000000 1 0 0
9.526727 -5.965533 -12.766176 17.009449 -0.559454 2.419667 0.023646 -0.000567 -1143140.000000 1 0 0
-3.305473 0.343267 -15.809376 16.154886 -0.103477 2.934402 0.017860 -0.012628 -2037010.000000 1 0 0
-0.734773 10.756067 -12.884976 16.800461 -1.502590 2.444858 0.012941 -0.006039 -1695770.000000 1 0 0
6.613827 -5.520033 -12.371076 15.075045 -0.695497 2.533314 0.011944 -0.001848 -207338.000000 1 0 0
17.801227 -6.195433 -8.110876 20.519585 -0.334922 1.977163 0.088513 -0.024210 52567.100000 1 0 0
13.195627 4.794567 -13.976076 19.810178 0.348514 2.353924 0.051228 -0.017422 375099.000000 1 0 0
14.244227 0.790067 -11.605876 18.390719 0.055409 2.253731 0.034507 -0.000893 -400056.000000 1 0 0
15.150427 6.117067 -11.080276 19.741491 0.383740 2.166714 0.050160 -0.018459 -139853.000000 1 0 0
8.246427 1.536167 -11.751676 14.438326 0.184172 2.521668 0.000370 0.004465 435918.000000 1 0 0
9.976927 1.206467 -8.932176 13.445386 0.120341 2.297394 0.004581 0.002022 845841.000000 1 0 0
-0.147173 -5.742033 -12.959576 14.175444 1.545171 2.724393 -0.005061 -0.002294 487878.000000 1 0 0
10.588827 -5.744733 -8.957476 15.012048 -0.497088 2.210161 0.023405 -0.009498 -1457850.000000 1 0 0
10.388027 8.502867 -11.303776 17.549507 0.685935 2.270653 0.053245 -0.023186 1006420.000000 1 0 0
8.405427 8.261767 -14.733576 18.867598 0.776779 2.466890 0.048643 -0.006956 851229.000000 1 0 0
8.733027 10.456967 -10.616676 17.272166 0.874993 2.232763 0.061440 -0.024504 -127323.000000 1 0 0
7.140427 1.441567 -18.052276 19.466599 0.199210 2.758054 0.034533 -0.003153 -2297560.000000 1 0 0
12.080327 2.707967 -12.919476 17.893581 0.220518 2.377510 0.024233 -0.005693 -1869030.000000 1 0 0
2.779427 -0.828633 -19.299776 19.516485 -0.289741 2.992432 0.030934 -0.024510 -156224.000000 1 0 0
10.327627 -2.089533 -15.219476 18.511036 -0.199630 2.536033 0.048919 -0.020531 -65146.500000 1 0 0
8.241627 -0.805133 -13.049076 15.454806 -0.097382 2.576124 0.008582 -0.003569 741543.000000 1 0 0
0.488427 4.262167 -14.595476 15.212907 1.456698 2.855713 0.017260 -0.006412 827978.000000 1 0 0
3.951227 -7.649633 -15.794276 17.988558 -1.094016 2.642501 0.007227 -0.007467 -1829800.000000 1 0 0
11.488327 -5.895233 -14.540676 19.446508 -0.474112 2.415428 0.071063 -0.004766 -520981.000000 1 0 0
-6.057573 4.228267 -16.751076 18.307675 -0.609391 2.726244 0.019122 -0.009322 -441453.000000 1 0 0
11.442227 7.898967 -9.138576 16.638263 0.604210 2.152264 0.040487 -0.013738 -441367.000000 1 0 0
9.631727 6.273267 -13.729476 17.905936 0.577298 2.444568 0.032523 0.004778 150735.000000 1 0 0
12.174527 0.560767 -10.201576 15.893575 0.046028 2.267728 0.018459 0.005173 -1140130.000000 1 0 0
5.470427 -7.212333 -13.796476 16.501093 -0.921889 2.560922 0.010370 -0.001808 -1203300.000000 1 0 0
8.626427 -10.214433 -10.644776 17.089796 -0.869485 2.243206 0.027837 -0.002262 -139655.000000 1 0 0
10.095527 4.578967 -16.030376 19.489986 0.425814 2.536577 0.058373 -0.010161 -488597.000000 1 0 0
9.987227 -0.362233 -11.005176 14.865726 -0.036254 2.404321 0.008577 0.001202 80809.200000 1 0 0
-1.720473 5.517667 -14.031076 15.174840 -1.268539 2.750853 0.009371 -0.004135 2118130.000000 1 0 0
1.355327 -0.832133 -14.876076 14.960849 -0.550630 3.035088 0.009009 -0.007672 288611.000000 1 0 0
11.411027 -10.467433 -14.248376 21.042692 -0.742296 2.314635 0.100339 -0.016656 1178150.000000 1 0 0
9.474127 -7.817033 -10.789076 16.348371 -0.689855 2.291546 0.028007 -0.003398 -396280.000000 1 0 0
14.229227 -1.039233 -9.894576 17.362417 -0.072906 2.177162 0.035989 -0.001324 1301950.000000 1 0 0
4.071827 11.122867 -12.232876 17.027660 1.219871 2.372313 0.023917 -0.014869 -694583.000000 1 0 0
-1.529873 2.718167 -16.918176 17.203303 -1.058154 2.959275 0.015695 -0.013922 452550.000000 1 0 0
5.876227 -0.662133 -17.587176 18.554709 -0.112207 2.817233 0.015951 -0.007376 -163070.000000 1 0 0
6.337727 -6.625033 -16.146776 18.568151 -0.807558 2.625178 0.024414 -0.001799 446904.000000 1 0 0
-1.676273 -5.103333 -19.706176 20.425163 1.253432 2.875474 0.006563 -0.021559 -1462720.000000 1 0 0
-0.030873 -4.323233 -15.146776 15.751702 1.563655 2.863556 -0.003318 -0.007138 -604340.000000 1 0 0
0.504227 0.642167 -12.949376 12.975090 0.905148 3.078625 0.009160 -0.008973 560980.000000 1 0 0
15.662227 0.563367 -13.781276 20.869746 0.035954 2.292077 0.076225 -0.017389 688409.000000 1 0 0
-0.189373 6.972367 -16.213976 17.650574 -1.543642 2.735342 0.016876 -0.000441 -246167.000000 1 0 0
-4.920773 -0.430433 -18.218776 18.876522 0.087251 2.876833 0.016643 -0.013336 -25475.200000 1 0 0
10.398327 -8.445933 -12.984476 18.656248 -0.682160 2.340588 0.041390 -0.012531 891633.000000 1 0 0
4.226627 8.641367 -17.160576 19.672899 1.115894 2.630673 0.037583 -0.014930 -83667.400000 1 0 0
9.362027 0.385267 -17.191476 19.579143 0.041129 2.642570 0.042173 -0.005043 358270.000000 1 0 0
3.183927 4.851767 -18.523376 19.411143 0.990046 2.837988 0.027023 -0.009695 -686296.000000 1 0 0
1.417827 -8.228733 -15.934076 17.989359 -1.400170 2.658904 -0.007457 -0.004917 802470.000000 1 0 0
4.514527 7.623367 -14.810776 17.258498 1.036135 2.602496 0.016520 -0.007073 499027.000000 1 0 0
-5.662673 -0.490133 -15.143376 16.174917 0.086340 2.782528 0.015544 -0.011061 -664292.000000 1 0 0
2.943827 3.333367 -13.858076 14.554165 0.847375 2.831065 0.012884 -0.002152 -445810.000000 1 0 0
-2.485673 -10.319633 -18.024276 20.917646 1.334430 2.609364 0.020861 -0.010722 -297241.000000 1 0 0
6.137827 -9.098733 -15.462176 18.961507 -0.977335 2.524304 0.014855 -0.003939 213372.000000 1 0 0
-1.834273 5.269267 -17.362676 18.237112 -1.235808 2.830670 0.013533 -0.005149 509592.000000 1 0 0
10.083827 -12.135233 -11.534476 19.544605 -0.877464 2.202055 0.066139 -0.014448 -135426.000000 1 0 0
10.910127 3.598067 -9.342476 14.807390 0.318560 2.253552 0.009883 0.000562 -287569.000000 1 0 0
4.877527 -0.451233 -10.982776 12.025608 -0.092250 2.722067 0.005773 -0.003164 909363.000000 1 0 0
6.373527 9.459567 -11.385676 16.116416 0.977895 2.355287 0.022712 -0.012797 383180.000000 1 0 0
10.798627 -9.579233 -9.308576 17.176194 -0.725630 2.143548 0.043927 -0.007240 -1320360.000000 1 0 0
3.357027 -2.472633 -14.620776 15.203639 -0.634840 2.863799 0.007353 -0.004518 -372812.000000 1 0 0
9.358027 -4.472833 -14.799076 18.071844 -0.445867 2.530292 0.041812 -0.005823 -5143.690000 1 0 0
-3.976773 -6.626233 -16.545776 18.261555 1.030262 2.704637 0.001697 -0.007206 -449469.000000 1 0 0
5.825527 -7.758933 -11.248376 14.854756 -0.926774 2.429849 0.003515 0.001316 -167042.000000 1 0 0
5.444927 6.301767 -16.925476 18.863489 0.858212 2.684323 0.023854 -0.004716 -573318.000000 1 0 0
9.126727 1.213567 -19.654976 21.704561 0.132193 2.703515 0.070867 -0.017471 460951.000000 1 0 0
13.183027 5.801467 -9.380776 17.188606 0.414566 2.148087 0.016859 -0.005999 1222540.000000 1 0 0
-1.624773 -0.804233 -17.223676 17.318825 0.459625 3.036721 0.012467 -0.013282 -291412.000000 1 0 0
-0.614073 -0.441833 -19.508776 19.523438 0.623702 3.102834 0.021835 -0.024184 -20407.400000 1 0 0
2.838827 6.427867 -16.474276 17.910281 1.154913 2.738424 0.017053 -0.000661 154496.000000 1 0 0
7.646627 3.665667 -15.767076 17.902757 0.447019 2.648148 0.023838 0.001240 -459413.000000 1 0 0
3.008327 -9.917133 -14.749576 18.026357 -1.276272 2.529109 -0.001661 -0.003272 -298108.000000 1 0 0
8.983027 -10.603733 -13.200576 19.167398 -0.867955 2.330490 0.052520 -0.009218 -269091.000000 1 0 0
3.745627 0.127467 -14.749476 15.218180 0.034018 2.892762 0.009848 -0.004507 -2904230.000000 1 0 0
-1.006273 -2.891033 -18.695176 18.944135 1.235845 2.979293 0.013185 -0.017192 320504.000000 1 0 0
9.319627 10.093867 -13.082976 18.971185 0.825259 2.331765 0.077421 -0.025396 -75219.100000 1 0 0
4.675027 2.122267 -10.703876 11.871514 0.426141 2.694352 0.001786 -0.001275 258885.000000 1 0 0
-0.463273 6.903567 -18.874476 20.102729 -1.503790 2.790220 0.018143 -0.006915 19702.800000 1 0 0
0.839327 -1.454533 -17.587276 17.667269 -1.047429 3.046396 0.017801 -0.015666 -2790490.000000 1 0 0
-4.462173 -2.372533 -14.040076 14.921918 0.488684 2.796083 0.014290 -0.011094 -4659250.000000 1 0 0
10.076327 5.964767 -10.371076 15.641932 0.534486 2.295656 0.015891 -0.001155 6798.870000 1 0 0
8.203527 5.319667 -17.596876 20.130741 0.575293 2.634437 0.059341 -0.013181 -382263.000000 1 0 0
11.558327 0.279367 -13.675976 17.908246 0.024165 2.439774 0.028188 0.003781 592753.000000 1 0 0
6.894827 11.927167 -11.887676 18.196505 1.046652 2.282724 0.058667 -0.027718 -544394.000000 1 0 0
-0.923973 0.518767 -15.014376 15.051722 -0.511593 3.071134 0.012119 -0.008521 -2024530.000000 1 0 0
-4.278173 -2.855933 -18.942676 19.628655 0.588620 2.876439 0.006388 -0.012151 -109827.000000 1 0 0
5.689827 -12.057133 -13.821376 19.203620 -1.129876 2.374206 0.012451 -0.005755 117518.000000 1 0 0
2.182827 -4.721633 -14.011776 14.946184 -1.137758 2.786119 -0.000237 -0.002541 -183406.000000 1 0 0
11.767427 2.146467 -15.415376 19.511880 0.180424 2.481688 0.056766 -0.013971 266308.000000 1 0 0
9.688027 2.179667 -13.803476 17.004257 0.221301 2.517966 0.017942 -0.004485 -599560.000000 1 0 0
-2.277673 -4.151233 -16.288576 16.962849 1.068972 2.858693 -0.001344 -0.010669 -817742.000000 1 0 0
-2.901573 10.133467 -14.335076 17.793276 -1.291922 2.507561 0.015035 -0.004974 215889.000000 1 0 0
3.638327 5.729767 -13.558576 15.162540 1.005048 2.677472 0.006539 0.002296 -295550.000000 1 0 0
-5.143673 -2.577933 -16.576676 17.546774 0.464595 2.807516 0.015050 -0.009434 358781.000000 1 0 0
-4.340073 6.082167 -13.619376 15.534362 -0.951019 2.639809 0.003198 0.000636 -181031.000000 1 0 0
5.882027 -1.139933 -14.189976 15.403023 -0.191426 2.742069 0.011000 -0.001469 -1937500.000000 1 0 0
6.697527 -2.988033 -12.670776 14.640142 -0.419639 2.616908 0.007740 -0.004248 686972.000000 1 0 0
2.748327 -3.230833 -18.192276 18.680216 -0.865922 2.912528 0.025383 -0.020851 30010.000000 1 0 0
7.413027 -11.982233 -11.915776 18.452983 -1.016763 2.272785 0.029350 -0.004480 -2200520.000000 1 0 0
-6.103273 -5.302033 -17.572876 19.343409 0.715262 2.710401 0.027406 -0.010474 352095.000000 1 0 0
0.583827 8.650667 -11.933076 14.750363 1.503409 2.513249 0.009102 -0.004127 -249954.000000 1 0 0
0.625327 8.633167 -14.459776 16.852529 1.498490 2.602195 0.016360 0.000864 606190.000000 1 0 0
7.727627 -2.552133 -15.013976 17.077736 -0.318983 2.644882 0.017467 -0.012260 -383360.000000 1 0 0
14.405527 1.481267 -8.996576 17.048511 0.102466 2.126692 0.025665 0.003531 751765.000000 1 0 0
2.898127 10.680967 -14.593076 18.315023 1.305840 2.492747 0.021500 -0.008601 -1199780.000000 1 0 0
5.977627 1.007067 -15.558876 16.698049 0.166905 2.770077 0.012815 -0.001482 -110397.000000 1 0 0
16.662827 -5.429633 -10.324676 20.340345 -0.315003 2.103189 0.111062 -0.021791 217480.000000 1 0 0
4.819327 -4.228333 -11.278076 12.973038 -0.720171 2.624676 0.001209 0.001471 -928542.000000 1 0 0
9.098427 -3.182133 -17.118276 19.645425 -0.336448 2.628768 0.056696 -0.010460 403441.000000 1 0 0
13.341427 -9.612333 -8.802976 18.651622 -0.624344 2.062318 0.065012 -0.016564 664733.000000 1 0 0
2.369927 -7.661733 -13.590176 15.780101 -1.270811 2.608466 -0.007094 0.000075 138725.000000 1 0 0
-6.810973 -2.278833 -18.550676 19.892461 0.322874 2.772203 0.020279 -0.009746 -289923.000000 1 0 0
-1.475473 -6.491733 -15.638876 16.996884 1.347308 2.739139 -0.008820 -0.006414 -232022.000000 1 0 0
1.321727 -7.290533 -18.361376 19.799974 -1.391451 2.758046 0.011835 -0.009655 -303759.000000 1 0 0
5.498427 10.829767 -14.477576 18.897533 1.100996 2.443562 0.052289 -0.027027 459035.000000 1 0 0
5.337327 -3.534533 -17.503576 18.637466 -0.584924 2.790975 0.024153 -0.010143 -665061.000000 1 0 0
3.990327 12.838667 -14.097576 19.480650 1.269456 2.379903 0.044173 -0.023232 -89567.300000 1 0 0
9.189627 10.654167 -15.545476 20.967173 0.859068 2.405980 0.098882 -0.024531 235848.000000 1 0 0
2.559527 3.859867 -16.229276 16.877178 0.985258 2.863609 0.018879 -0.004386 505175.000000 1 0 0
16.655027 1.619967 -11.598476 20.360227 0.096961 2.176893 0.069735 -0.010305 416888.000000 1 0 0
10.049327 -3.751033 -10.497576 15.008608 -0.357246 2.345406 0.025223 -0.003780 -512296.000000 1 0 0
14.691427 -2.277933 -12.050176 19.137234 -0.153827 2.251927 0.072645 -0.012267 327882.000000 1 0 0
-2.737173 -8.709433 -15.941476 18.370547 1.266294 2.621501 0.001532 -0.001889 -922842.000000 1 0 0
14.115127 8.197567 -9.000676 18.639986 0.526156 2.074725 0.057603 -0.011548 1324240.000000 1 0 0
-8.190173 0.008367 -16.619576 18.528068 -0.001022 2.683719 0.015047 -0.013364 -437157.000000 1 0 0
-3.674473 4.014167 -15.963276 16.865393 -0.829551 2.813041 0.011710 -0.006551 237313.000000 1 0 0
15.166427 3.955567 -9.650876 18.406695 0.255127 2.122705 0.025352 -0.001682 636633.000000 1 0 0
5.459727 1.114867 -12.987376 14.132356 0.201429 2.736286 0.004622 -0.001228 49557.200000 1 0 0
7.816827 -7.784933 -12.835776 16.925280 -0.783354 2.431619 0.026504 -0.001004 -2342600.000000 1 0 0
3.167227 -6.090933 -11.835176 13.682185 -1.091285 2.615959 -0.000232 -0.000002 -878991.000000 1 0 0
-3.419873 3.586067 -18.560376 19.210491 -0.809116 2.880693 0.015723 -0.007856 328226.000000 1 0 0
0.821427 5.065367 -17.645276 18.376301 1.410031 2.858582 0.022438 -0.015531 -1142980.000000 1 0 0
6.491427 7.097367 -10.190076 14.012455 0.829960 2.385053 -0.001892 -0.001212 420449.000000 1 0 0
9.722027 3.755767 -11.699976 15.668855 0.368654 2.413887 0.016573 0.002642 -569525.000000 1 0 0
4.578527 1.601267 -17.600776 18.256897 0.336438 2.872685 0.025412 -0.005499 234557.000000 1 0 0
2.702627 7.997967 -13.013976 15.512422 1.244929 2.566127 0.009684 -0.006267 -1601940.000000 1 0 0
14.299927 -3.590433 -9.817376 17.713271 -0.245995 2.158244 0.053646 -0.008040 -343881.000000 1 0 0
-1.349373 9.236967 -16.213376 18.708713 -1.425738 2.619188 0.011635 -0.001709 -877107.000000 1 0 0
-5.369073 1.968767 -15.722576 16.730283 -0.351462 2.792746 0.016911 -0.012321 758585.000000 1 0 0
4.541227 4.167467 -11.946276 13.442620 0.742506 2.665269 0.003369 0.001670 524218.000000 1 0 0
9.223927 2.987567 -17.800076 20.269413 0.313230 2.642828 0.047590 -0.010553 793254.000000 1 0 0
-4.376173 14.224167 -13.453076 20.061482 -1.272329 2.305803 0.035480 -0.016717 -196629.000000 1 0 0
15.467627 -4.974233 -8.002476 18.111601 -0.311145 2.028448 0.060399 -0.008861 -314592.000000 1 0 0
1.132327 9.180867 -17.010176 19.362762 1.448081 2.643508 0.011771 0.003277 142803.000000 1 0 0
0.550727 -3.122533 -12.885976 13.270339 -1.396220 2.900325 -0.001067 -0.004385 320863.000000 1 0 0
7.621127 3.597267 -13.138676 15.609187 0.441008 2.571271 0.008730 0.004396 189341.000000 1 0 0
-2.960273 7.545367 -15.070976 17.112279 -1.196920 2.648158 0.007349 -0.000962 410210.000000 1 0 0
12.159427 -5.188533 -10.948576 17.165193 -0.403317 2.262481 0.046249 -0.011100 -888479.000000 1 0 0
0.720027 -4.557633 -19.895576 20.423623 -1.414109 2.913703 0.025932 -0.020071 -1062970.000000 1 0 0
3.432427 -4.675833 -16.178576 17.186951 -0.937563 2.797343 0.015342 -0.014970 581824.000000 1 0 0
-5.812473 4.084567 -14.245176 15.918341 -0.612552 2.678983 0.004949 -0.004261 753455.000000 1 0 0
12.225227 -7.574133 -9.828276 17.418917 -0.554670 2.170297 0.040841 -0.010580 -73753.200000 1 0 0
-2.014973 -1.817033 -14.843276 15.089220 0.733790 2.960795 0.007689 -0.007206 455887.000000 1 0 0
7.116327 5.866667 -14.436276 17.130848 0.689440 2.573087 0.015855 0.006596 176311.000000 1 0 0
4.069027 -5.472933 -18.622776 19.832240 -0.931480 2.790552 0.033861 -0.010406 264119.000000 1 0 0
7.738627 7.338867 -12.378876 16.339580 0.758891 2.430426 0.017308 -0.008675 -680328.000000 1 0 0
12.243627 -2.530233 -11.074876 16.702136 -0.203788 2.295724 0.023609 -0.002798 54707.500000 1 0 0
7.562627 -0.790533 -10.652176 13.087670 -0.104153 2.521646 0.004351 0.001128 -110097.000000 1 0 0
5.371027 3.974667 -14.424276 15.896718 0.637083 2.707791 0.003141 0.004706 -497669.000000 1 0 0
14.706127 2.864867 -13.044876 19.865710 0.192398 2.287168 0.046796 -0.015526 264268.000000 1 0 0
-6.617573 6.696567 -15.832776 18.420453 -0.791331 2.605129 0.003907 0.002234 252327.000000 1 0 0
-11.412873 3.697067 -16.457876 20.366238 -0.313271 2.511709 0.058651 -0.023223 367178.000000 1 0 0
-5.119273 6.385567 -17.914876 19.695817 -0.895023 2.713063 0.008931 0.005994 52572.200000 1 0 0
-10.100273 1.441567 -15.602476 18.642180 -0.141768 2.562473 0.041250 -0.022257 -507400.000000 1 0 0
-7.669573 5.818067 -17.966776 20.383260 -0.648977 2.649715 0.013102 -0.003550 -293617.000000 1 0 0
-8.883173 3.709267 -15.735976 18.446961 -0.395553 2.592578 0.015247 0.002030 -763963.000000 1 0 0
9.117727 13.224867 -12.208376 20.176087 0.967194 2.220677 0.118470 -0.039271 -1568890.000000 1 0 0
14.142527 9.235267 -11.399876 20.377890 0.578491 2.164487 0.075541 -0.019219 340109.000000 1 0 0
8.584727 15.938367 -9.060076 20.243865 1.076732 2.034816 0.069997 -0.020915 -54731.500000 1 0 0
7.184927 13.358967 -13.890676 20.567840 1.077340 2.312248 0.097969 -0.034806 -38580.400000 1 0 0
4.865827 15.931367 -12.417976 20.777171 1.274371 2.211393 0.064862 -0.033707 53191.100000 1 0 0
11.156027 10.928167 -11.419676 19.346596 0.775081 2.202187 0.096285 -0.031519 5845.180000 1 0 0
15.800527 10.071467 -9.463376 20.991584 0.567476 2.038477 0.084486 -0.014020 -1024860.000000 1 0 0
13.258727 10.635767 -9.335876 19.392575 0.676063 2.073065 0.092093 -0.028111 -500512.000000 1 0 0
10.274927 11.791067 -8.357676 17.732855 0.854000 2.061572 0.046311 -0.013987 -7107.330000 1 0 0
5.576127 16.042067 -9.937076 19.677057 1.236267 2.100188 0.046914 -0.023575 -374545.000000 1 0 0
6.814627 14.528267 -11.648376 19.829129 1.132206 2.198685 0.058997 -0.016734 -1438290.000000 1 0 0
10.869127 13.889367 -9.778676 20.166183 0.906786 2.077050 0.095464 -0.024707 -64696.100000 1 0 0
8.323427 -18.626133 -1.084676 20.430095 -1.150550 1.623913 0.043758 -0.004993 -598940.000000 1 0 0
7.625727 -17.296033 -3.259476 19.181466 -1.155540 1.741553 0.043183 -0.011918 -131815.000000 1 0 0
4.430527 -18.562133 5.967124 19.994722 -1.336494 1.267744 0.031272 0.010714 264544.000000 1 0 0
10.026527 -17.139333 -2.397576 20.000909 -1.041479 1.690959 0.045922 -0.007212 322382.000000 1 0 0
-9.711373 -12.163533 -10.058276 18.531897 0.897031 2.144510 0.034759 -0.014391 -474807.000000 1 0 0
-5.266273 -7.071233 -12.196876 15.049909 0.930666 2.515680 0.010704 -0.003943 112169.000000 1 0 0
-10.834273 -9.515433 -5.583876 15.463008 0.720680 1.940256 0.017211 -0.006567 -1672190.000000 1 0 0
-4.571173 -11.534933 -14.078076 18.765461 1.193493 2.419179 0.021059 -0.004540 244322.000000 1 0 0
-2.893373 -15.384333 7.473524 17.346552 1.384895 1.125377 0.014732 -0.006387 106597.000000 1 0 0
-4.795673 -12.142233 -11.570576 17.444499 1.194644 2.295989 0.023430 -0.000496 599624.000000 1 0 0
-14.284473 -12.916833 -4.340376 19.741571 0.735162 1.792467 0.052237 -0.011808 -233137.000000 1 0 0
-3.128573 -12.182333 -3.286776 13.000004 1.319416 1.826399 0.012388 -0.000274 593391.000000 1 0 0
-2.467673 -17.255433 -1.568976 17.501459 1.428751 1.660565 0.024097 -0.017146 -1170050.000000 1 0 0
-5.985973 -12.203033 3.754424 14.101120 1.114752 1.301296 0.005752 -0.001148 -144092.000000 1 0 0
-8.896073 -10.717933 -11.936476 18.343764 0.878018 2.279316 0.029009 -0.006565 873391.000000 1 0 0
-9.886473 -12.132633 -7.524776 17.365638 0.887056 2.018963 0.032778 -0.009278 -52796.600000 1 0 0
-11.091973 -15.014833 6.156624 19.656579 0.934544 1.252226 0.048367 -0.016467 38168.700000 1 0 0
-9.558973 -15.766233 0.779424 18.454148 1.025762 1.528548 0.024878 -0.001396 45036.700000 1 0 0
-14.851873 -7.627633 -8.026076 18.525032 0.474453 2.018898 0.037168 -0.014320 179010.000000 1 0 0
-2.449673 -16.646433 5.215824 17.615602 1.424686 1.270199 0.021301 -0.003347 1112300.000000 1 0 0
4.410727 -15.991533 5.817124 17.579038 -1.301671 1.233526 0.025828 -0.002314 82534.000000 1 0 0
4.117927 -14.630433 -10.020676 18.204967 -1.296431 2.153683 0.005993 0.000820 152750.000000 1 0 0
-7.771073 -14.053533 -0.215276 16.060439 1.065682 1.584201 0.005807 0.001432 1328990.000000 1 0 0
2.743127 -14.784433 9.737524 17.914340 -1.387341 0.996123 0.011680 -0.015518 -120619.000000 1 0 0
2.230527 -17.150433 10.482124 20.223440 -1.441466 1.025916 0.036164 -0.019682 -262615.000000 1 0 0
-8.247073 -17.297433 -5.454576 19.924051 1.125897 1.848105 0.048157 -0.011710 327505.000000 1 0 0
-6.523273 -9.182933 -7.690876 13.639242 0.953145 2.169871 0.013383 -0.005928 407974.000000 1 0 0
-6.150573 -13.106833 -4.789576 15.249874 1.132038 1.890277 0.005827 -0.005633 426430.000000 1 0 0
2.255827 -19.425233 -4.899176 20.160118 -1.455185 1.816267 0.039582 -0.015245 92453.700000 1 0 0
-5.533073 -12.922933 8.286024 16.317944 1.166253 1.038183 0.021888 -0.004708 743116.000000 1 0 0
2.230527 -17.631433 3.533324 18.119797 -1.444956 1.374541 0.020734 -0.000029 696889.000000 1 0 0
-17.701073 -10.202533 -2.539476 20.588070 0.522870 1.694458 0.065978 -0.017744 740984.000000 1 0 0
-3.553473 -15.468333 2.579224 16.079456 1.344989 1.409695 0.014495 -0.001369 170668.000000 1 0 0
-10.301873 -10.334533 -14.114776 20.301676 0.786981 2.339566 0.037801 -0.014846 1638.360000 1 0 0
6.044627 -14.585133 -5.605376 16.753622 -1.177906 1.911953 0.006029 -0.009309 479958.000000 1 0 0
-7.272573 -12.386233 -10.690176 17.904998 1.039879 2.210615 0.025342 -0.008645 -1107090.000000 1 0 0
-7.315373 -14.316233 3.951324 16.555427 1.098400 1.329798 0.014106 -0.000573 707338.000000 1 0 0
3.257527 -14.990833 -3.026676 15.636410 -1.356822 1.765592 0.017359 -0.005208 -543546.000000 1 0 0
-7.682273 -11.512133 7.801324 15.887328 0.982342 1.057512 0.023680 -0.007169 -425423.000000 1 0 0
-12.713573 -12.223033 -1.022576 17.665875 0.765729 1.628713 0.022576 0.000028 -1700650.000000 1 0 0
-1.952773 -13.717633 4.030924 14.430354 1.429391 1.287693 0.005460 0.001326 -1771460.000000 1 0 0
-3.161073 -14.023233 5.311024 15.324830 1.349085 1.216891 0.009030 -0.001889 225356.000000 1 0 0
-14.497073 -10.288333 -4.546176 18.348914 0.617195 1.821167 0.038534 -0.010489 443483.000000 1 0 0
-6.171973 -8.713033 -10.428376 14.925187 0.954481 2.344389 0.015682 -0.005178 278181.000000 1 0 0
0.639827 -19.427233 2.350224 19.579334 -1.537874 1.450470 0.028864 -0.011411 191203.000000 1 0 0
6.435027 -14.113833 -8.231576 17.560430 -1.143016 2.058679 0.016166 -0.003002 -2037970.000000 1 0 0
-3.928273 -16.692833 -5.849976 18.119167 1.339675 1.899547 0.014949 -0.011877 -343687.000000 1 0 0
-3.686673 -13.802833 -13.256076 19.489313 1.309794 2.318793 0.035518 0.000587 -641491.000000 1 0 0
-8.256773 -14.679333 -4.539576 17.443190 1.058425 1.834077 0.019238 -0.010063 -1143030.000000 1 0 0
-4.539573 -14.289633 10.144724 18.102949 1.263197 0.975939 0.028476 -0.008311 -1552260.000000 1 0 0
-0.323873 -12.176933 -9.987276 15.752088 1.544205 2.257548 0.002277 0.002088 594825.000000 1 0 0
2.327927 -17.255433 6.913024 18.733903 -1.436696 1.192851 0.022577 -0.008598 -363988.000000 1 0 0
-2.826973 -19.017333 -3.555776 19.552347 1.423225 1.753673 0.038239 -0.026053 -554226.000000 1 0 0
0.679327 -15.358933 -3.055776 15.674695 -1.526595 1.767002 0.016749 -0.006215 -5035.000000 1 0 0
6.041727 -18.014433 0.669724 19.012385 -1.247203 1.535563 0.030310 -0.005453 -135517.000000 1 0 0
-7.152273 -16.782333 3.961824 18.668095 1.167928 1.356946 0.022262 0.000552 721488.000000 1 0 0
-5.218273 -13.578133 -9.469376 17.356991 1.203885 2.147860 0.022690 -0.004175 -87794.600000 1 0 0
5.675827 -15.208833 -2.071576 16.365055 -1.213611 1.697722 0.021052 -0.003382 -1168620.000000 1 0 0
-8.929073 -10.193933 -0.418576 13.558017 0.851445 1.601674 0.001484 0.001356 -330767.000000 1 0 0
-7.268073 -18.436233 -2.648276 19.993322 1.195276 1.703645 0.030459 -0.025280 -307921.000000 1 0 0
7.892627 -16.034533 -1.027176 17.901254 -1.113387 1.628208 0.021052 -0.002808 -95656.700000 1 0 0
-8.068073 -10.204333 -9.483476 16.098401 0.901782 2.200734 0.023260 -0.008546 -582920.000000 1 0 0
-9.073973 -15.341733 -7.003376 19.150797 1.036682 1.945177 0.044611 -0.010516 -148510.000000 1 0 0
-11.473973 -10.502433 -11.862576 19.562052 0.741219 2.222331 0.034284 -0.006281 -782169.000000 1 0 0
6.640227 -16.347333 2.552924 17.828217 -1.184960 1.427107 0.026091 -0.005273 250056.000000 1 0 0
-2.215073 -11.166433 -6.018676 12.877121 1.374970 2.057136 0.010560 -0.000469 -213955.000000 1 0 0
-12.361873 -15.173533 -3.338876 19.854473 0.887156 1.739767 0.040857 -0.017827 -379495.000000 1 0 0
-0.331273 -19.679333 -2.751376 19.873499 1.553964 1.709687 0.056958 -0.027607 458876.000000 1 0 0
-5.885673 -15.606133 -4.703876 17.329714 1.210152 1.845679 0.015293 -0.009768 -2915000.000000 1 0 0
1.897027 -16.081633 -0.954076 16.221217 -1.453377 1.629647 0.021815 -0.005297 -159248.000000 1 0 0
-13.209973 -12.033633 5.313224 18.642480 0.738832 1.281783 0.030663 -0.003877 347056.000000 1 0 0
2.011927 -15.279833 -8.673776 17.684896 -1.439877 2.083417 0.012961 0.004881 -1790030.000000 1 0 0
-11.964173 -16.618633 0.125324 20.477698 0.946823 1.564676 0.061444 -0.022244 174066.000000 1 0 0
-7.596673 -16.628433 -0.912276 18.304275 1.142262 1.620656 0.029311 -0.009688 739213.000000 1 0 0
-3.137373 -14.404133 -1.724576 14.842383 1.356335 1.687252 0.010293 -0.001489 287666.000000 1 0 0
-1.797573 -10.524833 -13.119876 16.915511 1.401635 2.458481 0.001899 -0.001295 -545343.000000 1 0 0
1.361127 -19.668133 4.917124 20.319110 -1.501702 1.326375 0.037996 -0.011640 93721.000000 1 0 0
-17.645073 -9.317133 2.443724 20.102969 0.485820 1.448935 0.047944 -0.008778 353403.000000 1 0 0
-2.677273 -15.760433 -8.007876 17.879740 1.402530 2.035183 0.007586 0.000432 -653712.000000 1 0 0
-10.450673 -12.162933 0.180824 16.037026 0.860972 1.559521 0.006387 0.005451 347605.000000 1 0 0
-6.970373 -11.510733 -6.533576 14.958967 1.026303 2.022797 0.012828 -0.001777 272893.000000 1 0 0
-2.214173 -13.597633 -6.727876 15.331748 1.409378 2.025081 0.005107 0.003689 480750.000000 1 0 0
-14.168973 -14.380733 -1.126276 20.219638 0.792815 1.626527 0.046328 -0.010197 -474273.000000 1 0 0
-9.580373 -11.400133 -4.394676 15.526099 0.871917 1.857770 0.014250 -0.005682 458438.000000 1 0 0
9.628827 -15.178533 -4.981176 18.652461 -1.005486 1.841129 0.028571 -0.009550 175743.000000 1 0 0
-5.532473 -10.927833 -9.412176 15.447163 1.102142 2.225992 0.017980 -0.003346 -175993.000000 1 0 0
-10.439973 -16.084133 -4.888376 19.788597 0.995064 1.820410 0.049567 -0.011083 -611970.000000 1 0 0
2.224727 -17.377833 -3.253676 17.819228 -1.443468 1.754420 0.028939 -0.010202 545583.000000 1 0 0
-0.317173 -14.568733 -8.144476 16.693743 1.549029 2.080451 0.007241 0.003928 -739222.000000 1 0 0
-0.627273 -18.221033 -7.114476 19.570776 1.536384 1.942846 0.029112 -0.008184 82158.100000 1 0 0
-1.714573 -9.980033 -10.522176 14.603322 1.400657 2.375367 0.001778 0.001173 323547.000000 1 0 0
-5.207673 -17.362533 2.150724 18.253850 1.279397 1.452699 0.027903 -0.003673 -448700.000000 1 0 0
0.339027 -12.778933 -2.577176 13.040625 -1.544272 1.769733 0.009814 -0.002701 -2075270.000000 1 0 0
2.588627 -15.061733 3.112024 15.596201 -1.400591 1.369911 0.021977 -0.000238 -811430.000000 1 0 0
-9.582373 -13.062133 6.914624 17.614006 0.937874 1.167379 0.027218 -0.006760 -292604.000000 1 0 0
-0.845673 -17.854733 -4.595476 18.456030 1.523468 1.822440 0.032992 -0.011452 -417565.000000 1 0 0
-9.675773 -17.404633 -2.192576 20.033702 1.063411 1.680460 0.044748 -0.028575 -143759.000000 1 0 0
1.434027 -16.298733 1.405624 16.421964 -1.483038 1.485097 0.015092 -0.005570 -51483.200000 1 0 0
-0.400073 -18.020833 4.168124 18.500912 1.548599 1.343553 0.027675 -0.007141 310585.000000 1 0 0
-17.489773 -9.162733 -0.113476 19.744891 0.482577 1.576543 0.037234 -0.007966 723586.000000 1 0 0
-14.843173 -7.439733 -10.565376 19.679852 0.464625 2.137510 0.055424 -0.015219 570188.000000 1 0 0
2.794527 -12.735033 -8.858676 15.762823 -1.354784 2.167596 0.001305 0.004388 644167.000000 1 0 0
-11.652873 -14.622933 1.784824 18.783110 0.897954 1.475630 0.032644 -0.008365 88401.400000 1 0 0
-2.357973 -15.619833 10.767724 19.117612 1.420967 0.972500 0.026008 -0.005680 -310424.000000 1 0 0
-7.109473 -15.874933 1.458124 17.455206 1.149738 1.487164 0.024796 -0.004430 -1879970.000000 1 0 0
-12.630073 -15.248633 -5.922176 20.666681 0.879050 1.861427 0.057170 -0.009215 548027.000000 1 0 0
0.939027 -13.764533 -4.960676 14.661257 -1.502681 1.915962 0.012780 -0.000988 507696.000000 1 0 0
5.920627 -16.488833 -7.336076 18.993511 -1.226065 1.967349 0.038663 -0.017098 121449.000000 1 0 0
-6.752873 -12.911733 5.966624 15.745309 1.088916 1.182139 0.019394 -0.002802 271820.000000 1 0 0
-2.643773 -13.608333 0.609824 13.876172 1.378911 1.526835 0.012647 0.000091 3230570.000000 1 0 0
-4.374073 -15.546433 0.169924 16.150943 1.296531 1.560275 0.015603 -0.003580 83169.500000 1 0 0
-17.817573 -7.567733 -2.179976 19.480472 0.401646 1.682937 0.045947 -0.009914 727755.000000 1 0 0
1.103727 -12.790533 -11.896676 17.502767 -1.484717 2.318153 0.002521 0.001561 -1079790.000000 1 0 0
1.378327 -17.118933 -5.755076 18.112939 -1.490455 1.894134 0.035107 -0.008099 -74741.600000 1 0 0
-12.873573 -6.481733 -9.078676 17.034204 0.466437 2.132900 0.032292 -0.008951 -589898.000000 1 0 0
-11.431373 -13.733933 -8.920176 19.971649 0.876641 2.033805 0.045350 -0.013910 463968.000000 1 0 0
-4.359173 -10.007133 3.494624 11.461130 1.159976 1.260951 0.012431 -0.001761 -4075120.000000 1 0 0
-7.062973 -14.429133 9.717324 18.775299 1.115589 1.026801 0.032702 -0.006731 -724468.000000 1 0 0
-5.345073 -15.957633 -8.058076 18.658736 1.247588 2.017357 0.022391 -0.009198 -610834.000000 1 0 0
-0.335273 -13.454733 2.176724 13.633795 1.545883 1.410454 0.011565 -0.001677 865718.000000 1 0 0
-10.958373 -13.518633 -4.775076 18.045518 0.889618 1.838599 0.048103 -0.009031 -929360.000000 1 0 0
-9.832373 -10.494533 6.562224 15.807390 0.817962 1.142704 0.029688 -0.005764 -53502.500000 1 0 0
-15.493073 -7.978033 -4.963376 18.119587 0.475530 1.848266 0.045978 -0.007365 61323.900000 1 0 0
-14.681773 -7.379833 5.475024 17.320285 0.465768 1.249175 0.030839 -0.005438 -107470.000000 1 0 0
-1.854973 -19.272233 -0.090876 19.361512 1.474841 1.575490 0.045445 -0.019507 -838624.000000 1 0 0
-15.276073 -12.072633 -1.597076 19.536057 0.668796 1.652638 0.040839 -0.002967 1152520.000000 1 0 0
-4.422773 -12.088033 -6.699076 14.510654 1.220045 2.050669 0.009373 -0.001040 266490.000000 1 0 0
-7.539673 -18.332433 2.071124 19.930236 1.180608 1.466690 0.038994 -0.005450 -426053.000000 1 0 0
-2.522773 -11.645233 -8.613376 14.702587 1.357457 2.196713 0.007590 0.000624 -58352.600000 1 0 0
-1.296473 -20.433833 -5.117776 21.104834 1.507434 1.815731 0.051211 -0.018510 -42118.500000 1 0 0
-5.285273 -8.944333 -13.805776 17.278155 1.037089 2.496478 0.017611 -0.006392 982886.000000 1 0 0
-8.547373 -19.152133 -0.526876 20.979499 1.151033 1.595913 0.042089 -0.012487 -174539.000000 1 0 0
-17.256973 -7.401233 5.548624 19.579801 0.405155 1.283474 0.042972 -0.010836 224307.000000 1 0 0
-3.622873 -14.552433 -4.282476 15.596093 1.326803 1.848956 0.007306 -0.005761 -2035940.000000 1 0 0
-3.067973 -15.025133 -11.067376 18.911739 1.369376 2.195938 0.018692 0.001882 -99173.800000 1 0 0
-0.152573 -16.799833 6.346824 17.959394 1.561715 1.209595 0.031062 -0.007017 -1198050.000000 1 0 0
-11.247173 -11.567233 3.816924 16.579164 0.799426 1.338488 0.022054 -0.003402 1434170.000000 1 0 0
-0.181273 -14.715033 -0.064576 14.716291 1.558478 1.575184 0.015122 -0.001286 1268770.000000 1 0 0
-7.444073 -9.569333 -2.456376 12.370131 0.909671 1.770698 0.005904 -0.001158 -383362.000000 1 0 0
-11.137473 -14.420033 -0.794876 18.237667 0.913137 1.614394 0.030494 -0.009079 -111016.000000 1 0 0
0.292327 -14.757633 -10.664676 18.210121 -1.550990 2.196473 0.006395 0.007775 84538.800000 1 0 0
-1.391973 -14.204233 -3.776276 14.763403 1.473111 1.829457 0.011525 -0.000092 -2580520.000000 1 0 0
-11.426673 -8.146733 -7.624576 15.970982 0.619369 2.068492 0.020634 -0.007683 595105.000000 1 0 0
-0.257873 -17.312933 -0.176876 17.315757 1.555903 1.581011 0.025372 -0.008935 -39300.400000 1 0 0
-13.015373 -9.558033 4.655624 16.805677 0.633419 1.290098 0.024048 -0.002479 -788002.000000 1 0 0
4.089827 -16.887933 1.785024 17.467549 -1.333196 1.468427 0.022119 -0.006692 951334.000000 1 0 0
-3.917973 -18.035333 -7.956276 20.097912 1.356881 1.977818 0.041645 -0.010146 -6169.110000 1 0 0
-13.478673 -11.341433 2.659024 17.814970 0.699501 1.420979 0.019068 -0.002513 -438715.000000 1 0 0
-8.667373 -12.117333 4.216324 15.483233 0.949884 1.294998 0.016263 -0.004412 314069.000000 1 0 0
-8.271473 -9.477933 -5.818976 13.860338 0.853266 2.004054 0.012925 -0.006920 -787971.000000 1 0 0
3.872027 -17.400933 -5.230776 18.578107 -1.351845 1.856212 0.018576 -0.006889 -1186280.000000 1 0 0
-2.650273 -13.061833 11.326524 17.490728 1.370612 0.866401 0.009166 -0.010121 -8792.510000 1 0 0
0.162327 -16.873233 -9.514676 19.371665 -1.561176 2.084223 0.019807 0.005862 -257022.000000 1 0 0
-7.078573 -10.733433 -14.386276 19.294500 0.987780 2.412254 0.032001 -0.007677 -1091700.000000 1 0 0
-4.417173 -18.990733 -1.590476 19.562438 1.342264 1.652189 0.038862 -0.019709 -924628.000000 1 0 0
-2.718273 -17.307133 1.106524 17.554209 1.415008 1.507720 0.031894 -0.012138 242247.000000 1 0 0
4.101527 -14.577633 -7.407976 16.858470 -1.296529 2.025751 0.014302 -0.005547 -423345.000000 1 0 0
-0.955573 -15.858133 -6.139276 17.031859 1.510611 1.939556 0.017400 -0.000059 207830.000000 1 0 0
-9.738273 -15.274333 8.402724 19.968600 1.003217 1.136473 0.039101 -0.009586 -227532.000000 1 0 0
-7.448473 -12.081733 -1.679076 14.292212 1.018328 1.688550 0.001508 -0.002729 726243.000000 1 0 0
-7.313073 -15.120933 -9.363576 19.230190 1.120323 2.079357 0.036723 -0.010243 460769.000000 1 0 0
-5.181273 -13.166533 -0.615576 14.162702 1.195890 1.614275 0.008405 -0.000420 3374100.000000 1 0 0
-6.458373 -13.744233 -7.295576 16.847550 1.131520 2.018653 0.014378 -0.007996 431620.000000 1 0 0
5.692927 -15.422533 0.244224 16.441520 -1.217181 1.555942 0.018345 -0.001312 522591.000000 1 0 0
-14.476073 -12.727433 0.859924 19.294655 0.721207 1.526214 0.019946 -0.005867 912474.000000 1 0 0
0.595027 -15.282333 11.183024 18.946340 -1.531880 0.939431 0.011022 -0.009571 40509.200000 1 0 0
-9.343373 -10.728633 1.972624 14.362919 0.854303 1.433019 0.006242 0.001718 310080.000000 1 0 0
-9.472273 -8.910633 -3.599076 13.493579 0.754855 1.840790 0.009508 -0.003095 -408422.000000 1 0 0
-12.278273 -7.050133 -12.265676 18.732516 0.521230 2.284688 0.045390 -0.012276 -627506.000000 1 0 0
-13.324373 -8.356133 -0.589276 15.738841 0.560131 1.608246 0.010888 -0.003967 -696728.000000 1 0 0
-11.312373 -9.649833 0.507824 14.877733 0.706253 1.536657 0.001376 0.001994 439714.000000 1 0 0
-15.896473 -12.220833 2.937624 20.265149 0.655410 1.425324 0.046323 -0.003352 290681.000000 1 0 0
-10.459573 -12.554133 -2.382976 16.513252 0.876162 1.715609 0.027603 -0.005565 396083.000000 1 0 0
-3.420473 -8.807933 -11.996676 15.270873 1.200382 2.474449 0.007747 -0.001680 -1862950.000000 1 0 0
-0.298673 -15.591133 3.890924 16.072085 1.551642 1.326275 0.022502 -0.003388 -399859.000000 1 0 0
-15.900073 -7.798233 1.289424 17.756333 0.455981 1.498115 0.021342 -0.004512 -223263.000000 1 0 0
-6.197673 -13.443533 -13.373876 19.949945 1.138820 2.305506 0.035229 -0.006701 -1134150.000000 1 0 0
-15.484173 -10.342933 1.108824 18.653830 0.588903 1.511319 0.025837 -0.003549 451148.000000 1 0 0
-10.055673 -8.370333 -12.457476 18.065651 0.694187 2.331687 0.031329 -0.009183 461999.000000 1 0 0
-13.099073 -11.576633 -6.321076 18.589248 0.723778 1.917755 0.035364 -0.013086 -113735.000000 1 0 0
-12.198873 -11.469533 -3.879076 17.187493 0.754593 1.798449 0.029130 -0.003482 -2015560.000000 1 0 0
-11.880373 -11.146033 -9.019676 18.620738 0.753518 2.076461 0.043493 -0.014923 480451.000000 1 0 0
-13.184973 -8.489833 -5.850476 16.737648 0.572077 1.927876 0.022669 -0.008864 -2490760.000000 1 0 0
-13.545873 -8.266233 -3.250176 16.198300 0.547915 1.772817 0.021501 -0.003684 -168646.000000 1 0 0
-4.415173 -16.933433 -3.239876 17.796958 1.315738 1.753864 0.019453 -0.018347 396438.000000 1 0 0
-15.532573 -8.911033 -1.847276 18.002216 0.520857 1.673591 0.033677 -0.006133 -310150.000000 1 0 0
-9.475973 -15.585133 3.656624 18.602724 1.024505 1.372944 0.023821 -0.008435 -1941250.000000 1 0 0
4.655227 -17.177033 8.148624 19.573494 -1.306139 1.141414 0.041442 -0.021195 232250.000000 1 0 0
-8.576073 -15.498033 5.972324 18.692424 1.065373 1.245589 0.027710 0.000147 1142120.000000 1 0 0
0.708027 -16.007333 8.606224 18.187993 -1.526594 1.077898 0.016601 -0.012889 498374.000000 1 0 0
-10.934273 -7.861733 -10.165976 16.873418 0.623364 2.217407 0.030129 -0.010269 857684.000000 1 0 0
-4.927873 -15.810933 5.971824 17.604892 1.268663 1.224715 0.022421 -0.007865 -385075.000000 1 0 0
-1.461773 -13.208133 -12.039876 17.931820 1.460573 2.306927 0.007928 -0.001912 -1142170.000000 1 0 0
-6.521373 -14.381733 -2.509376 15.989356 1.145078 1.728388 0.013637 -0.006781 394143.000000 1 0 0
-17.867273 -6.963833 -7.085176 20.443437 0.371642 1.924713 0.070392 -0.017609 62091.500000 1 0 0
-17.312973 -3.994633 -10.185076 20.480037 0.226762 2.091300 0.053008 -0.018197 660392.000000 1 0 0
-15.323573 -5.328433 -9.050476 18.577277 0.334649 2.079654 0.042422 -0.017406 767284.000000 1 0 0
-16.278173 -5.418333 -5.688276 18.074671 0.321323 1.890947 0.045761 -0.006371 627218.000000 1 0 0
-15.228473 -4.470533 -12.213476 20.026509 0.285542 2.226687 0.054866 -0.020019 -204584.000000 1 0 0
-18.868273 -5.045833 -5.639076 20.329076 0.261310 1.851872 0.069222 -0.016005 -137262.000000 1 0 0
-17.516373 -4.414433 -7.724476 19.646325 0.246877 1.974880 0.051294 -0.011520 627134.000000 1 0 0
12.167727 -7.806233 8.684024 16.864256 -0.570414 1.029863 0.046920 -0.014801 229936.000000 1 0 0
16.094827 -3.286833 1.879724 16.534210 -0.201447 1.456863 0.039653 -0.012040 1059000.000000 1 0 0
12.048327 -2.192833 12.512624 17.508183 -0.180033 0.774640 0.051584 -0.007956 156467.000000 1 0 0
9.691527 -9.999033 5.215624 14.869737 -0.801014 1.212420 0.014259 -0.007055 261183.000000 1 0 0
16.800627 -1.782033 7.210124 18.369066 -0.105674 1.167432 0.068000 -0.021508 -1401430.000000 1 0 0
5.359627 -12.984533 9.237024 16.812088 -1.179330 0.989117 0.009390 0.003313 -125014.000000 1 0 0
15.175327 -8.899533 -2.011276 17.706989 -0.530395 1.684629 0.050178 -0.015203 769214.000000 1 0 0
11.178027 -8.544533 6.408224 15.460358 -0.652656 1.143410 0.027124 -0.013242 -1640450.000000 1 0 0
20.116727 -3.006833 3.928824 20.716163 -0.148371 1.379990 0.107644 -0.020274 -111047.000000 1 0 0
13.667627 -8.557233 6.906024 17.542047 -0.559386 1.166160 0.048630 -0.015848 -964637.000000 1 0 0
8.242327 -10.933333 8.873524 16.316040 -0.924822 0.995775 0.013471 -0.003863 -1760850.000000 1 0 0
17.120527 0.132267 -0.853976 17.142322 0.007725 1.620634 0.049693 0.000098 -1305660.000000 1 0 0
12.477227 -12.335133 2.289124 17.693976 -0.779671 1.441060 0.032981 -0.009828 -2250480.000000 1 0 0
10.351027 -11.726133 3.608924 16.052112 -0.847604 1.344032 0.020212 -0.006422 -1277650.000000 1 0 0
16.219527 3.005067 2.359824 16.663501 0.183197 1.428702 0.020051 -0.004640 217305.000000 1 0 0
18.462927 -3.218333 0.650524 18.752614 -0.172579 1.536100 0.076396 -0.016089 -92727.700000 1 0 0
13.515127 -11.650233 -0.250576 17.845150 -0.711428 1.584838 0.045187 -0.005585 -266368.000000 1 0 0
17.021727 -7.470533 -0.771276 18.604916 -0.413570 1.612264 0.070622 -0.016900 786332.000000 1 0 0
10.230327 -5.706233 9.753024 15.242774 -0.508794 0.876499 0.026047 -0.010460 633112.000000 1 0 0
11.375627 -13.275633 6.042424 18.497519 -0.862321 1.238027 0.044747 -0.014192 404343.000000 1 0 0
13.039627 -1.707033 10.233224 16.663274 -0.130171 0.909528 0.047179 -0.011246 124545.000000 1 0 0
15.723227 -2.077033 -1.524376 15.932911 -0.131339 1.666618 0.041928 -0.002554 541175.000000 1 0 0
10.444427 -12.222233 8.753124 18.305360 -0.863671 1.072223 0.052286 -0.023731 -28900.600000 1 0 0
14.492927 1.207067 3.375524 14.929705 0.083095 1.342730 0.017195 -0.004742 1037750.000000 1 0 0
15.064627 -5.791233 5.381524 17.013000 -0.367009 1.248950 0.055700 -0.018281 -995763.000000 1 0 0
14.363127 -3.276233 -3.102376 15.055160 -0.224263 1.778351 0.025009 -0.004088 1185880.000000 1 0 0
14.102327 0.666267 9.474824 17.002701 0.047210 0.979721 0.054120 -0.009001 -61419.400000 1 0 0
15.473827 -3.352033 4.550324 16.473642 -0.213330 1.290939 0.046562 -0.010969 -318241.000000 1 0 0
18.598727 4.845867 -4.158276 19.664342 0.254882 1.783868 0.037268 -0.009808 413872.000000 1 0 0
18.423627 -5.792333 -5.025076 19.955764 -0.304612 1.825347 0.119917 -0.022730 732802.000000 1 0 0
17.452527 0.088567 5.720024 18.366198 0.005075 1.254085 0.070151 -0.010735 647404.000000 1 0 0
17.077627 -6.610733 4.032824 18.751288 -0.369336 1.354034 0.069329 -0.023292 468789.000000 1 0 0
9.772327 -6.598633 14.191024 18.450623 -0.593912 0.693309 0.048688 -0.004956 -672930.000000 1 0 0
8.578827 -12.274733 5.226524 15.861333 -0.960808 1.235008 0.016916 -0.008532 -898769.000000 1 0 0
17.036427 -10.022233 -0.478376 19.771541 -0.531759 1.594994 0.073637 -0.011155 800141.000000 1 0 0
15.004527 -8.793733 0.511624 17.399061 -0.530115 1.541387 0.057384 -0.014705 -276065.000000 1 0 0
10.006127 -12.844933 1.500324 16.351326 -0.908996 1.478912 0.022349 -0.011749 239676.000000 1 0 0
17.014227 -8.172933 8.837524 20.841847 -0.447812 1.132908 0.084624 -0.022430 413755.000000 1 0 0
19.184327 0.036067 -2.374376 19.330736 0.001880 1.693936 0.084989 0.000921 164007.000000 1 0 0
13.454027 -1.137633 7.739424 15.562896 -0.084356 1.050313 0.034180 -0.013985 170242.000000 1 0 0
12.829727 -9.753233 -3.034976 16.399345 -0.650001 1.756936 0.030076 -0.009081 -1461100.000000 1 0 0
8.844927 -15.098933 1.568724 17.569047 -1.040885 1.481388 0.026702 -0.004761 -340983.000000 1 0 0
11.526027 -8.232233 11.106224 17.999088 -0.620213 0.905816 0.061021 -0.013199 -392609.000000 1 0 0
14.086727 -4.013833 -0.602776 14.659811 -0.277581 1.611925 0.024371 -0.007672 -848945.000000 1 0 0
7.221727 -13.141733 11.058124 18.631709 -1.068317 0.935382 0.029601 0.002090 -1305230.000000 1 0 0
15.470027 -6.684833 1.923624 16.961988 -0.407882 1.457144 0.046302 -0.016296 2043140.000000 1 0 0
15.869627 -5.976133 -2.445876 17.133054 -0.360152 1.714043 0.075525 -0.012128 160032.000000 1 0 0
11.272327 -8.473133 3.805224 14.606131 -0.644573 1.307233 0.024692 -0.014163 974397.000000 1 0 0
10.737727 -14.506233 -0.342676 18.051233 -0.933587 1.589781 0.039241 -0.012156 924043.000000 1 0 0
13.538927 -12.850433 4.624724 19.230815 -0.759314 1.327931 0.045351 -0.008683 294851.000000 1 0 0
12.858127 -11.054933 6.458124 18.145257 -0.710134 1.206906 0.042507 -0.013419 -553319.000000 1 0 0
10.944627 -10.461933 1.421624 15.207167 -0.762853 1.477176 0.020568 -0.007806 942419.000000 1 0 0
13.940527 -7.467433 11.891324 19.786471 -0.491770 0.926066 0.076395 -0.020334 229558.000000 1 0 0
15.509027 -1.908833 -5.126376 16.445464 -0.122463 1.887799 0.045675 -0.005263 -382773.000000 1 0 0
13.004827 -11.468733 -7.068976 18.725057 -0.722715 1.957907 0.054694 -0.011047 211976.000000 1 0 0
17.771627 -5.309033 2.060824 18.661821 -0.290297 1.460141 0.083986 -0.016913 1111360.000000 1 0 0
10.546427 -9.718733 9.060624 16.963956 -0.744578 1.007341 0.031189 -0.010949 -936201.000000 1 0 0
16.550627 1.642767 9.771324 19.289912 0.098933 1.039616 0.093926 -0.016104 224256.000000 1 0 0
18.132527 3.434067 0.545824 18.462916 0.187170 1.541229 0.024490 -0.002264 145025.000000 1 0 0
13.213827 -3.980833 5.759224 14.953960 -0.292615 1.175447 0.030218 -0.016913 -1414770.000000 1 0 0
12.188027 -6.171833 6.585524 15.166036 -0.468742 1.121615 0.027992 -0.017936 -289602.000000 1 0 0
16.546227 -10.034133 3.464324 19.658662 -0.545134 1.393647 0.045477 -0.017282 179706.000000 1 0 0
16.271227 -8.016233 -5.455376 18.941329 -0.457761 1.862949 0.083281 -0.020230 173530.000000 1 0 0
13.984127 -0.384433 5.400124 14.995497 -0.027484 1.202404 0.025492 -0.007930 638190.000000 1 0 0
18.418727 -4.238933 5.336624 19.639186 -0.226204 1.295603 0.093906 -0.014860 332556.000000 1 0 0
13.645127 -13.502833 7.119424 20.474428 -0.780157 1.215655 0.071955 -0.015382 -253597.000000 1 0 0
15.090127 -13.575533 -1.103276 20.327918 -0.732611 1.625097 0.059440 -0.005982 391237.000000 1 0 0
17.912927 -5.892633 8.001324 20.484562 -0.317809 1.169510 0.100945 -0.023255 -952918.000000 1 0 0
14.472427 3.342867 9.347724 17.550095 0.227001 1.009090 0.048603 -0.011911 565507.000000 1 0 0
18.629627 3.885667 3.040724 19.271933 0.205627 1.412354 0.049179 -0.009585 17564.000000 1 0 0
14.837627 -10.573033 8.121124 19.947352 -0.619121 1.151489 0.053732 -0.020167 -306650.000000 1 0 0
14.852527 -4.768833 10.416624 18.757542 -0.310681 0.982037 0.078937 -0.020035 179300.000000 1 0 0
17.940627 -7.884433 1.988824 19.697355 -0.414066 1.469655 0.095039 -0.020118 496666.000000 1 0 0
18.542727 -5.713233 -1.893576 19.495112 -0.298882 1.668081 0.090499 -0.016243 -29531.400000 1 0 0
14.364927 -12.864233 -5.418376 20.029938 -0.730340 1.844723 0.063254 -0.015688 -2075700.000000 1 0 0
15.486527 -1.533833 9.374624 18.167794 -0.098721 1.028619 0.093217 -0.020143 36795.900000 1 0 0
12.948027 -9.987833 10.019024 19.177827 -0.657044 1.021101 0.050366 -0.028600 -1839100.000000 1 0 0
16.647327 2.208567 4.714624 17.442447 0.131898 1.297096 0.041336 -0.010015 -461386.000000 1 0 0
15.125327 2.437567 0.015824 15.320493 0.159784 1.569763 0.012323 0.003261 -1341780.000000 1 0 0
15.100027 -9.781233 -6.985476 19.299746 -0.574801 1.941151 0.070562 -0.016578 1183070.000000 1 0 0
16.022527 -0.108733 -3.320576 16.363356 -0.006786 1.775143 0.032787 0.001984 287323.000000 1 0 0
11.956527 2.581367 13.584324 18.279930 0.212632 0.733064 0.055745 -0.008575 -233027.000000 1 0 0
17.696027 -2.950033 9.422424 20.264110 -0.165187 1.087183 0.088794 -0.023799 -144200.000000 1 0 0
7.584427 -18.069633 4.534924 20.114689 -1.173395 1.343388 0.048508 -0.019227 -308867.000000 1 0 0
6.843827 -11.178933 6.652924 14.699249 -1.021449 1.101114 0.010610 -0.005898 87585.900000 1 0 0
18.138427 2.338467 -1.797176 18.376637 0.128216 1.668750 0.054010 0.002700 451418.000000 1 0 0
17.682527 -2.199033 3.756924 18.210491 -0.123727 1.362999 0.048209 -0.007943 261879.000000 1 0 0
12.594427 -13.343833 -1.963176 18.453496 -0.814282 1.677383 0.034130 -0.003160 1733910.000000 1 0 0
15.047827 -8.160433 4.426624 17.681198 -0.496912 1.317747 0.053201 -0.017573 -51425.200000 1 0 0
12.033827 -3.018833 14.993224 19.460810 -0.245790 0.691278 0.060987 -0.012454 -105771.000000 1 0 0
12.157627 -13.759133 -6.377476 19.436919 -0.847114 1.905100 0.032024 -0.017757 -92525.700000 1 0 0
10.648227 -11.970533 -1.227876 16.068170 -0.843792 1.647288 0.020656 -0.008006 -887113.000000 1 0 0
13.200827 -8.017033 2.079124 15.583883 -0.545779 1.436982 0.041575 -0.010556 -1739870.000000 1 0 0
8.663027 -7.824733 9.938424 15.331235 -0.734598 0.865517 0.014777 -0.001654 -1024040.000000 1 0 0
15.629027 -3.814033 8.074324 18.000223 -0.239357 1.105634 0.078725 -0.027614 -412170.000000 1 0 0
9.903727 -17.472733 5.661824 20.867114 -1.055139 1.296024 0.046278 -0.011969 -596066.000000 1 0 0
15.388227 -6.340433 8.372024 18.630336 -0.390835 1.104730 0.071979 -0.014734 -309548.000000 1 0 0
16.791927 -4.772933 -0.306476 17.459772 -0.276936 1.588350 0.066141 -0.011331 -421314.000000 1 0 0
13.985827 -10.448333 3.514424 17.807925 -0.641621 1.372141 0.044199 -0.015567 342682.000000 1 0 0
14.934927 -9.922633 -4.387476 18.459703 -0.586426 1.810772 0.065450 -0.020729 -8425.600000 1 0 0
13.677527 -6.542733 -0.023776 15.161882 -0.446183 1.572364 0.034991 -0.010284 412645.000000 1 0 0
17.888027 -0.935633 -5.030576 18.605473 -0.052257 1.844586 0.082802 -0.008061 560138.000000 1 0 0
14.561027 0.224967 -1.382876 14.628276 0.015449 1.665472 0.017607 0.002149 -2210470.000000 1 0 0
4.885527 -12.928033 11.820024 18.185582 -1.209484 0.863256 0.006535 0.000811 -782992.000000 1 0 0
12.077027 -7.537033 13.556324 19.657959 -0.557938 0.809846 0.070915 -0.011711 36302.700000 1 0 0
12.038927 -5.742033 11.705024 17.745825 -0.445043 0.850519 0.048324 -0.007163 368019.000000 1 0 0
13.284927 -4.668033 8.400024 16.396348 -0.337902 1.032923 0.042716 -0.017941 -1101370.000000 1 0 0
15.423227 -1.126833 3.293624 15.811187 -0.072931 1.360950 0.035424 -0.003714 145030.000000 1 0 0
15.248727 -10.362533 5.790224 19.324401 -0.596881 1.266489 0.055565 -0.018501 401235.000000 1 0 0
13.744527 -7.983733 -5.705676 16.888065 -0.526232 1.915431 0.054524 -0.015578 -2105030.000000 1 0 0
9.840327 -2.542733 13.873624 17.198109 -0.252868 0.632259 0.031513 0.003520 -1344200.000000 1 0 0
9.893727 -9.127233 13.649424 19.170263 -0.745123 0.778439 0.070801 -0.006640 262324.000000 1 0 0
20.358927 6.425167 -3.057576 21.566582 0.305702 1.713049 0.102639 -0.013992 960045.000000 1 0 0
11.148327 -3.515633 10.444524 15.675872 -0.305480 0.841587 0.024339 -0.004870 609523.000000 1 0 0
10.143927 -14.012033 -2.805676 17.524501 -0.944181 1.731588 0.021153 -0.005063 217634.000000 1 0 0
14.998127 -12.610333 2.538424 19.758742 -0.699125 1.441969 0.053567 -0.004423 166837.000000 1 0 0
11.314527 -0.488233 14.348124 18.279102 -0.043124 0.668186 0.047839 -0.011325 281572.000000 1 0 0
19.063927 -1.862233 5.968824 20.063102 -0.097375 1.268721 0.103343 -0.011149 672012.000000 1 0 0
18.825727 -0.247233 7.927024 20.428089 -0.013132 1.172287 0.091876 -0.016700 299019.000000 1 0 0
19.446727 0.903067 -0.025976 19.467701 0.046405 1.572131 0.100614 -0.008348 -178647.000000 1 0 0
18.629627 0.915567 3.577824 18.992159 0.049106 1.381280 0.059666 -0.009980 442109.000000 1 0 0
16.741727 -4.004233 -4.210576 17.721407 -0.234766 1.810689 0.078419 -0.014436 -86033.800000 1 0 0
10.894827 -8.235033 15.874224 20.940487 -0.647245 0.710457 0.094847 -0.012868 176166.000000 1 0 0
16.679227 -7.562933 6.396324 19.398648 -0.425706 1.234778 0.071084 -0.018328 423372.000000 1 0 0
19.067627 2.172567 5.856624 20.064757 0.113451 1.274598 0.080827 -0.014297 758376.000000 1 0 0
15.315427 1.839567 7.508124 17.155706 0.119539 1.117817 0.054111 -0.012144 402466.000000 1 0 0
8.727827 -15.791233 4.015324 18.484070 -1.065882 1.351819 0.027647 -0.008916 761503.000000 1 0 0
11.374127 -14.983233 2.231224 18.943241 -0.921482 1.452738 0.038677 -0.006387 579829.000000 1 0 0
7.810227 -16.154033 6.376924 19.042520 -1.120448 1.229320 0.034458 -0.013090 -336569.000000 1 0 0
14.658027 -11.514633 -2.510676 18.808190 -0.665868 1.704684 0.053637 -0.008582 995857.000000 1 0 0
13.762327 -4.859833 3.348224 14.974319 -0.339457 1.345292 0.030383 -0.011719 -1555310.000000 1 0 0
-1.036273 10.260467 -5.504476 11.689752 -1.470141 2.061085 -0.000897 0.000253 -2383010.000000 1 0 0
8.317327 -1.803833 -8.021976 11.695462 -0.213569 2.326643 0.004736 -0.001935 -1159830.000000 1 0 0
2.880227 -10.283433 7.769024 13.206151 -1.297710 0.941856 0.003744 -0.003300 319689.000000 1 0 0
-6.335473 1.363067 8.324624 10.549670 -0.211918 0.661472 -0.001249 -0.004007 -499834.000000 1 0 0
7.299127 -6.253933 -7.224776 12.024405 -0.708432 2.215351 0.002470 -0.004923 142436.000000 1 0 0
-11.440673 -4.506133 -4.168076 12.983339 0.375210 1.897616 0.006347 -0.002489 -98990.200000 1 0 0
2.063627 -3.159333 2.952324 4.791259 -0.992186 0.906901 0.007806 -0.002428 935005.000000 1 0 0
-3.773473 -4.203833 8.914624 10.553759 0.839294 0.564816 -0.000906 -0.003669 -1775420.000000 1 0 0
-4.968973 -1.025533 -2.339776 5.587214 0.203530 2.002890 0.008054 -0.006567 -1028490.000000 1 0 0
4.960327 -5.252933 -3.616576 8.079466 -0.814040 2.034905 0.008010 -0.004830 433337.000000 1 0 0
2.715127 14.247967 -8.816176 16.973551 1.382492 2.116953 0.017310 -0.008281 -89580.300000 1 0 0
5.484727 -5.480133 13.745924 15.781778 -0.784979 0.513563 0.015462 -0.002934 -954139.000000 1 0 0
-4.749673 -0.864133 9.786024 10.912030 0.179967 0.458289 0.002974 -0.003097 -4236190.000000 1 0 0
-0.840073 12.135267 -2.688676 12.457905 -1.501681 1.788329 0.000334 -0.002606 -730678.000000 1 0 0
2.994827 9.398167 -10.567676 14.455805 1.262309 2.390631 0.007857 -0.004938 -951632.000000 1 0 0
-10.724273 2.650067 1.155024 11.107068 -0.242256 1.466618 0.000401 -0.000599 266188.000000 1 0 0
5.702227 -9.035633 -0.691876 10.706855 -1.007835 1.635461 0.006123 -0.004677 758709.000000 1 0 0
-6.983373 5.438367 9.432724 12.935209 -0.661654 0.753602 0.004593 -0.005491 798701.000000 1 0 0
-5.600473 -1.766333 5.116924 7.788976 0.305516 0.854038 0.000115 -0.003325 530345.000000 1 0 0
6.636527 -3.777033 -7.245576 10.526530 -0.517410 2.329961 0.002955 -0.003046 469238.000000 1 0 0
6.343327 4.852967 10.953324 13.555973 0.653064 0.630034 0.001693 -0.001321 427943.000000 1 0 0
3.667827 -9.945233 3.203224 11.073448 -1.217470 1.277331 0.001813 -0.000709 1439270.000000 1 0 0
-6.533373 6.538567 -5.696776 10.857766 -0.785795 2.123127 -0.002843 -0.002473 -171216.000000 1 0 0
-11.026873 8.419467 5.203924 14.817563 -0.652111 1.211944 0.003980 -0.007820 70682.800000 1 0 0
-9.209473 -5.560533 5.149724 11.927011 0.543197 1.124342 0.003558 -0.001078 -405968.000000 1 0 0
3.272227 9.684867 -8.073176 13.026139 1.244968 2.239243 0.008036 -0.003870 597244.000000 1 0 0
-8.127273 -8.557833 6.024924 13.250992 0.811197 1.098787 0.008136 -0.000224 -1070860.000000 1 0 0
-7.940273 -5.782033 -7.482676 12.347886 0.629396 2.221804 0.011050 -0.005915 -152865.000000 1 0 0
9.239927 -1.633333 7.004424 11.709226 -0.174962 0.929547 0.010918 -0.009866 -211221.000000 1 0 0
-4.147473 -0.476133 -4.873276 6.416935 0.114300 2.433248 0.012608 -0.009916 -841717.000000 1 0 0
9.132227 1.148867 -4.432576 10.215928 0.125146 2.019601 0.007245 0.001685 -2466350.000000 1 0 0
-1.947873 -10.636433 10.609824 15.149135 1.389671 0.794897 0.000809 -0.007110 346002.000000 1 0 0
-12.994173 0.282967 -2.598876 13.254537 -0.021773 1.768149 0.008039 -0.000898 -835349.000000 1 0 0
-9.801773 -5.099133 -5.969376 12.558239 0.479697 2.066142 0.011670 -0.005423 -2084140.000000 1 0 0
-5.648773 8.316467 -0.209276 10.055648 -0.974148 1.591610 -0.001176 -0.001354 247553.000000 1 0 0
6.290527 9.600267 0.436224 11.485911 0.990743 1.532808 0.010177 -0.003724 702281.000000 1 0 0
-0.572273 -12.121333 -0.009076 12.134838 1.523619 1.571544 0.014246 0.000169 -227449.000000 1 0 0
6.163727 4.659767 2.388924 8.087763 0.647329 1.270948 0.005903 -0.001596 168501.000000 1 0 0
3.611327 -7.514333 -8.217776 11.706354 -1.122795 2.348988 -0.000160 -0.002366 878296.000000 1 0 0
-6.624773 -9.943433 4.581224 12.796370 0.983085 1.204661 0.010667 -0.000540 -2649890.000000 1 0 0
-0.059673 6.581067 -9.217876 11.326219 -1.561729 2.521549 0.008344 -0.003036 -3131610.000000 1 0 0
-17.399173 -2.714033 4.329924 18.134096 0.154739 1.329695 0.051489 -0.009029 394936.000000 1 0 0
-8.305273 0.907567 -9.182176 12.414250 -0.108844 2.403344 0.011343 -0.006005 173320.000000 1 0 0
-10.076073 -5.779933 -11.741276 16.516429 0.520804 2.361552 0.020537 -0.010978 -1635830.000000 1 0 0
2.306927 9.434167 6.407624 11.635423 1.330973 0.987594 0.002046 0.000582 248588.000000 1 0 0
-11.452273 1.681267 -1.173976 11.634407 -0.145765 1.671874 0.005293 -0.000643 -1451100.000000 1 0 0
-6.095573 -5.324533 -3.149476 8.684806 0.717984 1.941898 0.016217 -0.007316 693667.000000 1 0 0
-6.906373 -8.348133 1.237224 10.905046 0.879632 1.457097 0.009056 -0.000361 -177976.000000 1 0 0
-0.054073 10.941467 -7.874776 13.480754 -1.565854 2.194628 0.008252 -0.002267 948821.000000 1 0 0
-2.910173 9.385867 -4.295476 10.724492 -1.270137 1.982891 0.000623 -0.001647 -309970.000000 1 0 0
3.377627 -4.813033 9.361124 11.054605 -0.958886 0.560842 0.008997 -0.005268 -828302.000000 1 0 0
-9.048973 1.534267 -0.422576 9.187843 -0.167954 1.616805 -0.000121 -0.000614 -1152390.000000 1 0 0
2.458027 3.458567 -10.458076 11.286050 0.952921 2.756164 0.007631 -0.003535 -936171.000000 1 0 0
-13.769473 0.453867 1.149024 13.824784 -0.032950 1.487587 0.003892 -0.000203 384476.000000 1 0 0
9.449427 -12.604033 -4.833976 16.477883 -0.927478 1.868537 0.025404 -0.009655 -1867140.000000 1 0 0
-4.727873 9.439867 -8.215376 13.377454 -1.106476 2.232068 -0.000923 -0.002652 -1193980.000000 1 0 0
-2.334073 7.185667 8.352124 11.262313 -1.256724 0.735345 0.004410 -0.000745 -880934.000000 1 0 0
-10.745673 -1.181533 -4.596876 11.747203 0.109514 1.972858 0.005504 -0.001501 -3630490.000000 1 0 0
2.608727 -7.132133 9.626924 12.261747 -1.220141 0.667909 0.001476 -0.001958 -1202160.000000 1 0 0
-16.179073 -6.482833 3.405624 17.759161 0.381103 1.377834 0.024399 -0.007102 394575.000000 1 0 0
-10.786873 0.014367 6.202524 12.442996 -0.001332 1.048957 -0.000976 -0.002368 -1178690.000000 1 0 0
-8.450173 9.890467 9.304524 15.993778 -0.863768 0.949907 0.009310 -0.005942 -794396.000000 1 0 0
0.302527 -6.018933 -3.679476 7.060993 -1.520576 2.118934 0.006092 -0.004474 540117.000000 1 0 0
4.944527 1.485267 -3.058576 6.000771 0.291811 2.105629 0.004841 0.000705 597057.000000 1 0 0
0.286427 5.381567 3.878624 6.639806 1.517623 0.946967 0.001887 0.001095 -3453150.000000 1 0 0
5.975827 -11.333233 -1.557876 12.906574 -1.085561 1.691795 0.005322 -0.005712 -1668040.000000 1 0 0
6.197927 -13.501133 5.383424 15.801144 -1.140428 1.223137 0.012041 -0.004846 565729.000000 1 0 0
8.287327 -8.173933 -5.862176 13.032961 -0.778510 2.037333 0.008212 -0.007323 557230.000000 1 0 0
-13.216473 -1.320833 -4.760276 14.109571 0.099608 1.914928 0.009835 -0.001692 -2574470.000000 1 0 0
-6.857173 -1.494033 -7.007476 9.917544 0.214526 2.355441 0.010049 -0.008874 -60317.000000 1 0 0
-5.594973 12.665567 -4.664276 14.610810 -1.154827 1.895718 0.005863 -0.002547 415222.000000 1 0 0
-4.226173 6.870967 -6.611476 10.429877 -1.019365 2.257379 0.000105 -0.000788 -3662440.000000 1 0 0
-9.291973 -3.720433 -8.141776 12.902360 0.380844 2.253677 0.014759 -0.005337 616372.000000 1 0 0
-2.366273 -6.339733 9.190824 11.413269 1.213565 0.634657 0.001588 -0.003587 -570599.000000 1 0 0
7.475527 -5.933833 10.051024 13.860626 -0.670929 0.759545 0.013457 -0.002890 279138.000000 1 0 0
9.613527 -4.992233 12.085924 16.229968 -0.478962 0.730760 0.026141 -0.002783 -812415.000000 1 0 0
-6.491173 2.769567 -8.886276 11.347763 -0.403281 2.470409 0.002935 -0.002146 -718886.000000 1 0 0
7.498727 5.477567 8.755224 12.762782 0.630882 0.814824 0.001040 -0.000467 927705.000000 1 0 0
12.737927 3.335967 11.124024 17.237383 0.256140 0.869324 0.039952 -0.005505 -1512050.000000 1 0 0
-7.552873 -7.336333 -3.894176 11.226410 0.770856 1.925035 0.012736 -0.008172 -1650720.000000 1 0 0
2.360327 1.398267 -5.772176 6.390955 0.534815 2.697915 0.005361 -0.002672 -86484.500000 1 0 0
12.778827 6.871867 -7.163876 16.181535 0.493393 2.029425 0.015898 -0.004279 -254498.000000 1 0 0
0.756527 -7.730933 1.060724 7.839949 -1.473250 1.435083 0.003969 -0.001301 1426540.000000 1 0 0
-10.354973 -6.051633 -8.500876 14.700769 0.528883 2.187391 0.016324 -0.007940 -835391.000000 1 0 0
-6.786573 0.291467 3.173924 7.497754 -0.042921 1.133693 0.002297 -0.003078 372258.000000 1 0 0
10.764927 -7.895333 1.277824 13.410920 -0.632812 1.475369 0.015066 -0.008069 353754.000000 1 0 0
6.239927 1.036867 10.457224 12.221510 0.164662 0.544008 0.002864 -0.000606 -1171990.000000 1 0 0
-12.862273 5.286767 1.830024 14.026295 -0.389978 1.439952 0.007573 -0.001125 -18091.500000 1 0 0
2.046127 7.360967 3.565724 8.431184 1.299671 1.134130 0.001371 0.000376 279856.000000 1 0 0
10.181427 -9.425933 -0.773276 13.896317 -0.746886 1.626471 0.011618 -0.007684 959433.000000 1 0 0
6.871427 -11.668433 -8.889376 16.198452 -1.038586 2.151700 0.004589 -0.004171 -557382.000000 1 0 0
10.352727 3.586667 11.782724 16.089615 0.333506 0.749076 0.011117 -0.001195 -711819.000000 1 0 0
-11.168173 -3.196133 -1.833976 11.760392 0.278732 1.727381 0.004401 -0.001052 879793.000000 1 0 0
12.221027 1.004467 6.770424 14.007180 0.082007 1.066315 0.014714 -0.006858 -243948.000000 1 0 0
-9.566373 9.179167 2.994024 13.591791 -0.764745 1.348693 0.002857 -0.004021 218237.000000 1 0 0
-6.541873 7.629167 -8.791776 13.352738 -0.861975 2.289520 -0.003490 -0.002028 -62607.700000 1 0 0
8.625527 5.471667 12.068524 15.811013 0.565300 0.702393 0.010098 0.000354 -3164750.000000 1 0 0
1.356627 4.944367 -2.703876 5.796391 1.303008 2.056099 0.002791 -0.000758 843646.000000 1 0 0
1.474827 0.519667 9.498124 9.625982 0.338774 0.163169 0.005381 -0.005090 867775.000000 1 0 0
2.691327 12.552567 -4.115276 13.481308 1.359589 1.881006 0.007668 -0.001906 450618.000000 1 0 0
2.095927 0.653667 12.987424 13.171688 0.302315 0.167464 0.005597 -0.003317 312842.000000 1 0 0
-12.331973 -1.815233 0.833624 12.492700 0.146148 1.504018 0.001272 0.001587 -186167.000000 1 0 0
3.336227 8.735967 -1.273976 9.437719 1.205994 1.706197 0.006197 -0.002174 61792.900000 1 0 0
3.665627 -2.883333 -5.833376 7.468514 -0.666508 2.467162 0.003821 -0.003873 -1257750.000000 1 0 0
-7.916873 -7.142633 9.328624 14.167474 0.734031 0.852034 0.009777 -0.001479 121076.000000 1 0 0
-6.960573 10.830667 -3.579576 13.362870 -0.999589 1.841983 0.007722 -0.000671 163171.000000 1 0 0
0.334127 0.494467 2.486124 2.556746 0.976544 0.235584 0.004776 -0.000311 -2309550.000000 1 0 0
-7.063073 4.525167 -1.931376 8.607808 -0.569795 1.797098 0.004387 -0.002850 -558935.000000 1 0 0
-6.950273 -3.939233 -5.851076 9.902471 0.515630 2.202933 0.011405 -0.008304 -115750.000000 1 0 0
2.980527 -6.053333 13.537224 15.125568 -1.113265 0.462389 0.002492 -0.004198 -1820030.000000 1 0 0
-5.392773 -0.645633 -11.688076 12.888365 0.119155 2.706593 0.010173 -0.009572 -681261.000000 1 0 0
11.921827 2.455067 -0.513876 12.182831 0.203091 1.612989 0.004730 -0.000741 -1857960.000000 1 0 0
6.050327 -10.854733 10.826124 16.481403 -1.062297 0.854137 0.008786 -0.002874 232079.000000 1 0 0
-8.153473 6.439067 -10.456176 14.740160 -0.668449 2.359395 -0.001933 -0.000916 390149.000000 1 0 0
2.829427 7.930767 11.150424 13.972640 1.228107 0.646797 0.010164 -0.000420 680721.000000 1 0 0
-6.242173 -10.198533 -0.446176 11.965529 1.021552 1.608093 0.012731 -0.001053 -362022.000000 1 0 0
11.322027 4.280567 6.029724 13.522911 0.361463 1.108629 0.004320 -0.003361 -196525.000000 1 0 0
-7.773673 10.675567 1.488524 13.289599 -0.941411 1.458554 -0.002249 -0.002837 989703.000000 1 0 0
4.363427 -2.623733 -3.546976 6.205200 -0.541376 2.179267 0.008424 -0.003853 -4052440.000000 1 0 0
6.427027 6.486867 6.356024 11.125878 0.790032 0.962728 0.004857 -0.001400 -4473870.000000 1 0 0
-0.345573 10.322767 -10.287476 14.577760 -1.537332 2.354202 0.006962 -0.002987 -217322.000000 1 0 0
14.005027 6.503067 -2.518976 15.645316 0.434713 1.732505 0.014903 -0.003713 809553.000000 1 0 0
1.420927 9.420567 -6.290176 11.416323 1.421092 2.154336 0.005868 -0.002332 184711.000000 1 0 0
0.696827 7.393067 7.239924 10.371090 1.476820 0.798074 0.000982 0.001654 156945.000000 1 0 0
12.129527 6.594267 1.905424 13.937016 0.497958 1.433650 0.000819 -0.002962 -2670490.000000 1 0 0
-6.734573 6.657967 -3.015576 9.938647 -0.779678 1.879075 -0.001377 -0.003272 727397.000000 1 0 0
1.065227 9.925667 11.197924 15.001569 1.463885 0.728085 0.011305 -0.001300 27252.300000 1 0 0
-3.439073 13.739767 -11.005276 17.936681 -1.325535 2.231361 0.018022 -0.005888 -57349.500000 1 0 0
-10.049673 -5.542833 -2.302576 11.705588 0.504028 1.768795 0.004493 -0.002074 -163611.000000 1 0 0
-4.026273 3.826067 -12.464376 13.645891 -0.759907 2.722396 0.004504 -0.005246 125781.000000 1 0 0
-3.173673 8.512967 2.479924 9.417687 -1.213952 1.304328 0.002221 0.000413 -2843630.000000 1 0 0
7.208027 8.934267 7.014424 13.452841 0.891932 1.022296 0.009897 0.002186 -164238.000000 1 0 0
-1.366473 -2.339833 -8.071976 8.514626 1.042221 2.817729 0.009651 -0.011054 -1507920.000000 1 0 0
0.821227 -1.349833 4.767824 5.022809 -1.024229 0.320003 0.006733 -0.003392 -143617.000000 1 0 0
2.680627 -8.808133 -6.058876 11.021749 -1.275367 2.152825 -0.002836 -0.002013 272792.000000 1 0 0
5.349327 3.940367 8.625524 10.887675 0.634876 0.656344 0.003770 -0.002697 -304471.000000 1 0 0
6.157227 -7.516733 -2.850176 10.126017 -0.884495 1.856123 0.004672 -0.006696 902323.000000 1 0 0
1.712827 2.171667 -8.247276 8.698705 0.902974 2.818015 0.007649 -0.005447 -17282.200000 1 0 0
-5.502873 10.916967 -0.702476 12.245622 -1.103901 1.628193 0.001167 -0.002981 513766.000000 1 0 0
-5.471973 3.177367 -3.335976 7.153103 -0.526079 2.055976 0.004908 -0.001563 -771455.000000 1 0 0
1.999727 13.645767 -6.419876 15.212517 1.425286 2.006461 0.002465 -0.000865 651181.000000 1 0 0
-5.404973 -2.570933 2.627024 6.536412 0.443987 1.157199 -0.001584 -0.001697 884631.000000 1 0 0
10.504927 -3.282833 -1.815276 11.154627 -0.302889 1.734261 0.010203 -0.003105 33658.300000 1 0 0
2.297027 -3.300633 7.011224 8.082560 -0.962804 0.520741 0.004515 -0.004161 -990596.000000 1 0 0
-2.852173 9.832667 -11.707076 15.552230 -1.288473 2.423039 0.007808 -0.003198 -2470720.000000 1 0 0
0.390227 -1.967533 9.140724 9.358221 -1.375004 0.216018 0.005255 -0.006081 635232.000000 1 0 0
9.478627 2.681167 4.982724 11.039047 0.275663 1.102493 0.004236 -0.004189 -599842.000000 1 0 0
13.517927 1.965867 -5.021776 14.553942 0.144414 1.923084 0.013978 0.002945 -783192.000000 1 0 0
-6.518273 3.805267 7.625224 10.729025 -0.528411 0.780290 0.001387 -0.003466 -594963.000000 1 0 0
10.619927 -0.011333 1.953824 10.798167 -0.001067 1.388854 0.008155 -0.000144 1195590.000000 1 0 0
15.439027 6.606767 -4.646476 17.424198 0.404347 1.840731 0.038303 -0.007338 -527216.000000 1 0 0
8.039027 -4.974433 -9.263776 13.235879 -0.554118 2.346052 0.007269 -0.003450 964460.000000 1 0 0
4.481627 5.647267 -2.121176 7.515051 0.899975 1.856942 0.006156 -0.000512 344033.000000 1 0 0
-1.625973 -10.623233 1.514324 10.853112 1.418917 1.430811 0.012010 -0.002351 -451313.000000 1 0 0
-2.849373 12.214367 -12.926176 18.010989 -1.341615 2.371265 0.021576 -0.009892 76791.200000 1 0 0
8.353427 4.235967 -9.577976 13.396297 0.469306 2.367380 0.004991 0.000841 -1411410.000000 1 0 0
4.149427 7.544167 -9.201976 12.601927 1.067939 2.389417 0.004959 -0.003290 -77039.400000 1 0 0
-1.730473 -4.872333 -2.459376 5.725617 1.229529 2.014779 0.011371 -0.005201 -967332.000000 1 0 0
-3.388673 -9.189733 7.044324 12.064692 1.217520 0.947297 0.005736 -0.000496 -1446350.000000 1 0 0
1.090627 7.308767 -1.346976 7.511450 1.422668 1.751095 0.004328 -0.001338 962586.000000 1 0 0
0.383127 -0.957233 -2.242476 2.468153 -1.190080 2.710631 0.009700 -0.000933 -1929200.000000 1 0 0
4.134527 -6.732133 7.654624 11.000418 -1.020039 0.801196 0.007053 -0.002719 -668122.000000 1 0 0
-13.821573 3.972167 5.902224 15.545104 -0.279847 1.181342 -0.000172 -0.006445 -1201780.000000 1 0 0
4.317127 6.472567 12.575124 14.787341 0.982571 0.554055 0.009859 -0.002304 222249.000000 1 0 0
8.365127 10.091567 -7.183276 14.947057 0.878667 2.072114 0.021965 -0.007595 114427.000000 1 0 0
12.560227 5.343867 9.452524 16.603205 0.402260 0.965119 0.024493 -0.004280 1845630.000000 1 0 0
7.523427 4.067967 0.378924 8.561185 0.495680 1.526521 0.007448 0.000739 -1652380.000000 1 0 0
-10.960673 -7.539033 -1.001176 13.340754 0.602508 1.645913 0.004868 -0.002374 -1599870.000000 1 0 0
10.418827 6.728167 0.117424 12.402982 0.573396 1.561329 0.001393 -0.001828 -964108.000000 1 0 0
14.603827 3.601467 4.235024 15.626188 0.241787 1.296343 0.018897 -0.006536 354100.000000 1 0 0
2.183627 5.576567 8.182824 10.140263 1.197577 0.631803 0.000278 0.001046 56569.400000 1 0 0
4.225527 0.155167 11.676224 12.418267 0.036705 0.347445 0.004835 -0.001175 -900085.000000 1 0 0
-1.559173 -1.522633 -0.504476 2.236946 0.773542 1.798273 0.011462 -0.006787 -823279.000000 1 0 0
3.060927 -5.198033 -9.463876 11.222913 -1.038606 2.574123 -0.002619 -0.002138 112017.000000 1 0 0
-3.972673 -5.311533 -1.466776 6.793081 0.928619 1.788432 0.012069 -0.007105 -931816.000000 1 0 0
-1.221173 -8.503133 8.480124 12.070917 1.428157 0.791857 0.003660 -0.000048 -58274.300000 1 0 0
3.926827 8.496767 -5.967276 11.100604 1.137880 2.138341 0.006607 -0.002610 298237.000000 1 0 0
-14.283673 -1.747233 -2.774276 14.655127 0.121719 1.761250 0.006995 -0.001279 -914553.000000 1 0 0
8.894127 -10.557833 -6.447776 15.236376 -0.870719 2.007752 0.005408 -0.008325 277711.000000 1 0 0
14.677027 6.100867 1.602224 15.975069 0.393945 1.470332 0.002282 -0.004315 -322109.000000 1 0 0
-5.785073 0.314867 -8.469376 10.261410 -0.054374 2.541639 0.010113 -0.008540 -553885.000000 1 0 0
-8.069773 -4.570633 -12.879276 15.870969 0.515339 2.517509 0.017274 -0.009156 716789.000000 1 0 0
0.812627 -10.623833 12.111824 16.131413 -1.494454 0.721490 -0.002148 -0.005188 -449736.000000 1 0 0
0.241827 11.672467 3.261724 12.122038 1.550082 1.298365 0.005416 -0.002838 -827778.000000 1 0 0
5.145927 -13.233733 -3.584476 14.644477 -1.199939 1.818075 0.010283 -0.004789 872378.000000 1 0 0
-7.549573 1.410867 -6.943176 10.353468 -0.184749 2.305832 0.005782 -0.002646 721115.000000 1 0 0
1.396227 2.731567 4.055124 5.084775 1.098273 0.647651 0.001510 0.000666 -214683.000000 1 0 0
17.045727 5.452767 1.818124 17.988748 0.309604 1.469553 0.006861 -0.013521 -235235.000000 1 0 0
2.432127 -8.229933 -3.497776 9.267226 -1.283453 1.957821 0.000029 -0.003048 562294.000000 1 0 0
-0.420273 -9.435733 -0.558176 9.461567 1.526285 1.629825 0.011377 -0.000409 -1420710.000000 1 0 0
0.819327 11.754167 -5.634676 13.060678 1.501204 2.016866 0.004279 -0.002012 -1069630.000000 1 0 0
5.964827 -4.990033 7.853824 11.052698 -0.696649 0.780474 0.007762 -0.003855 -980179.000000 1 0 0
-6.037273 -1.953133 -9.411376 11.350656 0.312886 2.548379 0.014502 -0.009850 -542559.000000 1 0 0
2.026727 -1.223633 11.180324 11.428235 -0.543171 0.208671 0.006114 -0.003135 506621.000000 1 0 0
18.186727 2.215967 -5.745576 19.201020 0.121248 1.874685 0.070431 -0.003720 1564670.000000 1 0 0
-8.959473 4.773467 7.778124 12.788955 -0.489530 0.917017 0.000815 -0.007596 -766677.000000 1 0 0
11.545027 -6.977933 -4.812576 14.322712 -0.543656 1.913474 0.016597 -0.011279 315888.000000 1 0 0
10.824927 0.534567 8.939224 14.049005 0.049343 0.881118 0.008335 -0.002592 -156828.000000 1 0 0
-8.494973 -7.340833 -1.554576 11.334421 0.712645 1.708385 0.007771 -0.004583 -643361.000000 1 0 0
10.303227 -10.400133 -3.250876 14.996248 -0.790079 1.789310 0.017242 -0.007941 804447.000000 1 0 0
7.692327 -14.040133 -3.717576 16.435255 -1.069581 1.798966 0.019250 -0.006065 -2247440.000000 1 0 0
1.823727 -1.125833 -11.495876 11.693958 -0.553061 2.957273 0.003240 -0.007751 545150.000000 1 0 0
-11.821873 -2.606833 -6.430776 13.707923 0.217036 2.059100 0.013435 -0.003216 582592.000000 1 0 0
2.677127 -12.149433 -6.419676 13.999570 -1.353912 2.047173 0.003709 0.000291 1043310.000000 1 0 0
-5.447273 1.484267 1.193624 5.770665 -0.266021 1.362449 0.002649 -0.003539 589273.000000 1 0 0
0.122927 6.915767 -3.902476 7.941805 1.553023 2.084474 0.005114 -0.002761 1090570.000000 1 0 0
5.459327 -11.748733 3.666724 13.464095 -1.135807 1.294979 0.003597 -0.004146 -1532530.000000 1 0 0
-4.366673 -9.318033 1.068124 10.345746 1.132561 1.467369 0.014011 -0.001238 254064.000000 1 0 0
7.117727 -6.192433 -4.667176 10.525721 -0.715992 2.030192 0.005847 -0.005393 -736174.000000 1 0 0
-7.027473 -6.098333 2.191124 9.559083 0.714729 1.339521 0.006836 -0.000976 166137.000000 1 0 0
-6.216173 -0.651933 7.015824 9.396149 0.104495 0.727754 -0.000374 -0.003195 -1517530.000000 1 0 0
4.185127 -5.015533 3.232624 7.288396 -0.875409 1.111263 0.005220 -0.003349 -308340.000000 1 0 0
-2.564773 10.613867 -8.959876 14.124858 -1.333698 2.257943 0.002148 -0.002528 206176.000000 1 0 0
-2.329973 -4.900933 2.760924 6.088565 1.127010 1.100152 0.003212 0.000789 718809.000000 1 0 0
15.157627 5.132667 6.292424 17.195712 0.326500 1.196165 0.025729 -0.014033 1166120.000000 1 0 0
6.806627 0.172567 0.163624 6.810780 0.025347 1.546770 0.009168 -0.001642 4447020.000000 1 0 0
-9.672773 9.210167 0.394524 13.362087 -0.760904 1.541266 0.002205 -0.003465 -1929850.000000 1 0 0
7.188227 10.465267 -2.643976 12.968540 0.968940 1.776112 0.003668 0.000798 -1370090.000000 1 0 0
1.598227 -4.260533 -5.435276 7.088631 -1.211917 2.444574 0.006772 -0.006117 -1004040.000000 1 0 0
0.952527 -8.083433 -7.925576 11.360632 -1.453500 2.342888 -0.000883 -0.000790 3174240.000000 1 0 0
-10.432873 0.173567 -10.533976 14.826989 -0.016635 2.360947 0.018309 -0.009376 -2663260.000000 1 0 0
5.841927 -2.561633 0.610224 6.407999 -0.413242 1.475423 0.010255 -0.003025 355914.000000 1 0 0
-3.410873 5.273967 -1.302876 6.414536 -0.996718 1.775333 0.002952 -0.002194 811697.000000 1 0 0
-0.364873 4.570167 -5.136176 6.884756 -1.491127 2.412864 0.005029 -0.003126 -1018780.000000 1 0 0
3.922027 -9.697833 10.143224 14.571042 -1.186483 0.800815 0.002310 -0.002568 -1678670.000000 1 0 0
7.282727 -13.437833 -0.817976 15.306291 -1.074149 1.624262 0.015768 -0.006273 427627.000000 1 0 0
13.082527 -0.081133 0.594724 13.096289 -0.006202 1.525369 0.008974 -0.002357 906978.000000 1 0 0
9.397327 2.420167 -0.479176 9.715790 0.252060 1.620136 0.006118 0.000250 -88909.700000 1 0 0
-0.803973 -5.824433 4.511124 7.410846 1.433629 0.916351 0.002222 0.000821 -895975.000000 1 0 0
11.530327 -3.707733 3.415324 12.584123 -0.311121 1.295950 0.018971 -0.010350 -2442350.000000 1 0 0
1.607927 -8.122133 11.821124 14.432375 -1.375355 0.611008 -0.000442 -0.003251 248369.000000 1 0 0
9.422227 -5.849833 -5.886276 12.555762 -0.555613 2.058740 0.004823 -0.008051 -1276850.000000 1 0 0
3.149127 6.377167 -0.095876 7.112978 1.112111 1.584276 0.002139 0.000674 -338176.000000 1 0 0
6.428227 -1.370633 11.375324 13.137684 -0.210075 0.523940 0.005778 -0.002057 678474.000000 1 0 0
-4.984873 -7.598833 -3.899376 9.889204 0.990211 1.976109 0.014853 -0.005978 -448161.000000 1 0 0
-3.481373 -8.499733 -5.738076 10.830094 1.182053 2.129193 0.014261 -0.003057 -280490.000000 1 0 0
9.864627 5.302267 2.257424 11.424573 0.493198 1.371894 0.002703 -0.001769 -287372.000000 1 0 0
8.872027 -1.467233 0.372724 9.000253 -0.163894 1.529372 0.009938 -0.001426 977893.000000 1 0 0
-3.903273 9.707567 9.196424 13.930062 -1.188493 0.849731 0.004846 -0.003819 371955.000000 1 0 0
-14.417273 -3.619033 -6.104976 16.069409 0.245939 1.960498 0.026546 -0.005741 1607240.000000 1 0 0
10.614227 6.239567 -6.033476 13.711194 0.531437 2.026440 0.003549 -0.002779 -1748820.000000 1 0 0
-1.765973 4.540667 2.667424 5.554410 -1.199875 1.069873 0.003962 -0.000066 296254.000000 1 0 0
6.866427 -3.758633 2.761324 8.300605 -0.500839 1.231668 0.012302 -0.006053 -1405110.000000 1 0 0
8.329527 -11.200733 -1.632776 14.053590 -0.931366 1.687241 0.015082 -0.006263 -2024350.000000 1 0 0
4.513527 0.505067 1.864724 4.909604 0.111437 1.181204 0.008141 -0.000006 238898.000000 1 0 0
-10.928873 2.379867 3.755224 11.798548 -0.214412 1.246883 -0.001262 -0.002658 55107.000000 1 0 0
-0.852173 -3.092933 4.309824 5.372803 1.301944 0.639900 0.003611 -0.002252 144855.000000 1 0 0
8.611727 -8.728333 -8.410276 14.868705 -0.792123 2.172001 0.012621 -0.004296 -680677.000000 1 0 0
12.173127 -4.666333 1.066724 13.080427 -0.366054 1.489154 0.015956 -0.006439 620829.000000 1 0 0
2.886527 4.783767 3.457624 6.570512 1.027880 1.016631 0.001098 -0.000800 222951.000000 1 0 0
6.149227 7.394567 1.997924 9.822643 0.877089 1.365967 0.004319 -0.003546 365314.000000 1 0 0
-1.688973 -1.294733 -10.280676 10.498631 0.654028 2.937472 0.011490 -0.009038 295440.000000 1 0 0
-1.077573 -8.660233 5.910824 10.540334 1.447005 0.975467 0.001721 -0.001191 -381727.000000 1 0 0
-4.340873 -0.282533 2.375424 4.956374 0.064995 1.070978 0.003582 -0.003434 809217.000000 1 0 0
-8.330973 6.014567 -8.017976 13.033344 -0.625308 2.233423 0.003611 -0.000556 -996662.000000 1 0 0
6.529527 11.163767 -9.396376 15.986128 1.041564 2.199112 0.016271 -0.011972 -28900.500000 1 0 0
-11.180873 -5.733833 3.139824 12.951728 0.473855 1.325932 0.004731 0.000842 1106050.000000 1 0 0
1.580527 -6.325733 3.097724 7.218647 -1.325953 1.127269 0.001324 -0.001895 710244.000000 1 0 0
10.096127 2.300567 7.273224 12.654018 0.224041 0.958466 0.006629 -0.003099 -1730600.000000 1 0 0
-4.031873 -2.637533 -10.552976 11.600771 0.579302 2.713306 0.009946 -0.010495 -2621180.000000 1 0 0
-8.322673 11.764367 5.930724 15.583347 -0.955089 1.180372 0.009591 -0.006601 341187.000000 1 0 0
6.918827 5.962767 -2.953376 9.599333 0.711315 1.883534 0.005185 0.000588 -2335560.000000 1 0 0
3.829527 -9.916533 -2.283776 10.872835 -1.202264 1.782416 -0.000933 -0.004294 -1392900.000000 1 0 0
8.477727 -12.861733 -7.143376 16.980102 -0.988020 2.005003 0.017158 -0.010168 671853.000000 1 0 0
-1.123973 9.456867 3.677824 10.208920 -1.452499 1.202254 0.003223 -0.000964 -120316.000000 1 0 0
0.483527 -13.242933 4.769724 14.084010 -1.534300 1.225301 0.012709 -0.003071 -855711.000000 1 0 0
-11.131773 -7.053633 -5.111076 14.134823 0.564794 1.940774 0.014399 -0.007971 4316.810000 1 0 0
3.623827 10.322167 -3.448976 11.470601 1.233167 1.876201 0.006973 -0.004700 -644336.000000 1 0 0
11.650427 -8.050433 -7.317176 15.939981 -0.604659 2.047717 0.040163 -0.012453 289210.000000 1 0 0
11.685827 -4.665333 -5.798776 13.854591 -0.379842 2.002639 0.017444 -0.008948 -309040.000000 1 0 0
1.212927 -10.250133 -2.641376 10.654261 -1.453011 1.821326 0.003227 0.001135 -810847.000000 1 0 0
2.403627 -11.988733 -3.912676 12.838075 -1.372929 1.880495 0.005401 0.000147 -968784.000000 1 0 0
-7.725473 -5.649333 7.309124 12.042475 0.631400 0.918585 0.003312 0.000978 -2355970.000000 1 0 0
-7.280273 -0.774133 9.421024 11.931360 0.105935 0.660636 -0.001675 -0.003278 368981.000000 1 0 0
16.362927 2.562867 -7.640776 18.239932 0.155364 2.003034 0.052557 0.003066 542016.000000 1 0 0
-1.969273 6.380367 -5.497976 8.649558 -1.271427 2.259629 0.002409 -0.001183 -1618410.000000 1 0 0
7.713027 1.097867 8.334624 11.408859 0.141390 0.751684 0.006031 -0.003636 -1377280.000000 1 0 0
7.981927 8.260267 -3.784076 12.093899 0.802533 1.889032 0.002674 -0.000265 146331.000000 1 0 0
8.012827 0.612067 3.870524 8.919696 0.076238 1.121946 0.005123 -0.005396 690901.000000 1 0 0
-7.046873 5.826767 5.435724 10.637515 -0.690905 1.034454 0.001327 -0.006510 482400.000000 1 0 0
-6.095073 -2.114333 -4.452176 7.838507 0.333903 2.174855 0.011566 -0.007493 -711153.000000 1 0 0
-15.194473 -2.098433 3.235124 15.676143 0.137237 1.362930 0.012256 -0.001542 -1184760.000000 1 0 0
1.051027 1.270967 -10.534276 10.662597 0.879837 2.986293 0.008719 -0.007975 344885.000000 1 0 0
1.406627 -9.262933 9.453024 13.309402 -1.420092 0.780941 0.002423 -0.004911 -765869.000000 1 0 0
-0.216473 -6.811833 -1.188176 6.918070 1.539028 1.743402 0.006541 -0.001489 377736.000000 1 0 0
-0.390973 -10.292133 -8.357476 13.263795 1.532827 2.252474 0.002556 0.001722 -420167.000000 1 0 0
-4.370473 6.523067 3.758024 8.704837 -0.980488 1.124401 0.003454 -0.000292 -191284.000000 1 0 0
10.889627 -1.180133 -8.616276 13.936172 -0.107951 2.237332 0.016717 -0.000827 1255400.000000 1 0 0
3.074827 -0.988733 6.295624 7.075806 -0.311115 0.474022 0.004700 -0.003229 941753.000000 1 0 0
1.940327 -12.404333 6.816524 14.286264 -1.415630 1.073401 0.004315 -0.002213 -199483.000000 1 0 0
2.863427 -5.014833 -1.350076 5.930469 -1.051980 1.800461 0.010421 -0.003414 -911305.000000 1 0 0
-1.045273 9.605267 -1.655776 9.802823 -1.462400 1.740518 0.001741 -0.003955 573373.000000 1 0 0
4.493327 -2.527733 2.653424 5.798282 -0.512429 1.095477 0.010293 -0.003117 -1037660.000000 1 0 0
17.836327 6.896767 -2.700476 19.313014 0.368962 1.711083 0.034108 -0.002838 -568344.000000 1 0 0
-7.135473 3.400767 -5.464276 9.609293 -0.444753 2.175654 0.004853 -0.002567 409586.000000 1 0 0
-13.846973 -6.130233 2.217324 15.304736 0.416777 1.425406 0.003662 -0.001669 450975.000000 1 0 0
6.721427 -6.103433 3.524324 9.739114 -0.737248 1.200520 0.010071 -0.006538 1014940.000000 1 0 0
-4.646473 1.934467 3.676124 6.232637 -0.394504 0.939962 0.002996 -0.003598 829103.000000 1 0 0
6.910727 -12.130233 -5.307576 14.935564 -1.052946 1.934101 0.014051 -0.008627 294300.000000 1 0 0
2.893527 -12.353833 3.402124 13.136367 -1.340723 1.308825 0.007649 -0.002772 -221394.000000 1 0 0
3.321127 11.156567 -6.175876 13.177265 1.281466 2.058588 0.006026 -0.003098 -298494.000000 1 0 0
-5.658573 -8.349633 6.422324 11.957511 0.975192 1.003806 0.008896 0.000157 195888.000000 1 0 0
-3.935973 6.610867 6.305524 9.947617 -1.033781 0.884246 0.004666 -0.001967 384786.000000 1 0 0
4.243427 4.298467 -6.955976 9.212442 0.791842 2.426547 0.005868 -0.000244 -2480040.000000 1 0 0
-0.324173 -2.817333 1.562724 3.237987 1.456236 1.067150 0.005869 -0.001252 492012.000000 1 0 0
-13.161773 -0.888333 6.547724 14.727325 0.067391 1.110072 0.008816 -0.002481 -660759.000000 1 0 0
-0.456773 -9.198733 -5.905976 10.941018 1.521181 2.140997 0.004589 -0.000578 315331.000000 1 0 0
2.067427 -1.596433 -4.021376 4.795239 -0.657548 2.565538 0.008228 -0.002855 -1270620.000000 1 0 0
11.400527 -1.929433 1.146324 11.619328 -0.167652 1.471979 0.013017 -0.006115 250569.000000 1 0 0
0.492327 -4.294733 -1.844376 4.699877 -1.456660 1.974069 0.008951 -0.004807 -3374710.000000 1 0 0
1.131027 -7.399433 -11.243676 13.507445 -1.419117 2.554231 -0.007289 0.000321 -188981.000000 1 0 0
-4.550673 4.068767 -9.958276 11.680357 -0.729547 2.591672 0.002105 -0.001402 231157.000000 1 0 0
-1.028473 5.880367 -2.071276 6.318754 -1.397648 1.904768 0.004304 -0.003097 -686838.000000 1 0 0
-11.465173 1.761167 -3.868876 12.227841 -0.152419 1.892727 0.007836 -0.000521 -9067.230000 1 0 0
-1.749373 -11.351833 4.273424 12.255063 1.417894 1.214605 0.016565 -0.002415 -263134.000000 1 0 0
-3.528973 -5.379333 -9.543876 11.509841 0.990198 2.548458 0.009500 -0.003181 -1610090.000000 1 0 0
-12.858973 -3.888833 -8.332376 15.808374 0.293677 2.125964 0.026969 -0.005074 258448.000000 1 0 0
11.651727 4.507867 0.672524 12.511431 0.369149 1.517018 0.005869 0.000459 -240709.000000 1 0 0
-9.029273 -2.382233 -3.053576 9.824822 0.257956 1.886833 0.005071 -0.003764 -63337.300000 1 0 0
-2.378073 -6.178033 -6.371376 9.187913 1.203354 2.337065 0.006616 -0.007148 -940966.000000 1 0 0
-0.098173 2.760667 -1.917976 3.362968 -1.535250 2.177695 0.005345 -0.002121 920464.000000 1 0 0
8.111327 5.968267 -5.191576 11.329885 0.634347 2.046787 0.004454 -0.001222 -447500.000000 1 0 0
-9.872573 -0.976733 -0.931276 9.964386 0.098613 1.664393 0.002389 -0.001342 284844.000000 1 0 0
6.189527 0.542567 -8.909376 10.861934 0.087435 2.532624 0.004660 -0.000213 474579.000000 1 0 0
-4.169173 2.547167 7.862224 9.256599 -0.548434 0.556017 0.000821 -0.002350 -1590990.000000 1 0 0
-10.235873 -3.432733 1.487324 10.898114 0.323576 1.433894 0.002574 -0.000603 1440390.000000 1 0 0
-1.825073 -8.190633 -7.812276 11.465122 1.351554 2.320463 0.006257 -0.002604 149501.000000 1 0 0
-9.517373 -9.745033 4.171224 14.245883 0.797216 1.273640 0.007231 -0.001024 -78373.100000 1 0 0
-1.233273 -10.700733 7.466724 13.106434 1.456051 0.964657 0.009415 -0.003272 -148084.000000 1 0 0
9.492527 3.786067 -3.650876 10.852247 0.379512 1.913905 0.006076 0.001385 -490084.000000 1 0 0
12.823727 -0.847533 3.081224 13.215908 -0.065995 1.335486 0.014857 -0.004237 -282754.000000 1 0 0
6.582627 11.962767 -6.872176 15.286124 1.067754 2.037080 0.007670 -0.002785 45447.400000 1 0 0
-11.963573 -0.105233 -6.683476 13.704270 0.008796 2.080242 0.011386 -0.001661 438957.000000 1 0 0
-7.721773 -6.684033 -11.388576 15.297115 0.713486 2.410570 0.018707 -0.010010 -1107390.000000 1 0 0
4.125627 6.056867 6.533224 9.817813 0.972835 0.842705 0.000526 0.000267 -2552470.000000 1 0 0
-4.286173 -1.522633 -7.275776 8.580595 0.341338 2.582872 0.011899 -0.011728 -130776.000000 1 0 0
9.674527 9.311167 0.824124 13.452638 0.766262 1.509497 0.011352 -0.003042 -1678920.000000 1 0 0
-8.959273 3.860267 4.879624 10.907840 -0.406831 1.106996 0.002167 -0.005739 1454720.000000 1 0 0
-6.984973 7.863567 -12.228176 16.129285 -0.844500 2.431245 -0.002139 -0.001393 -1089530.000000 1 0 0
11.197127 -3.643033 7.293924 13.850945 -0.314552 1.016199 0.021972 -0.011451 617988.000000 1 0 0
11.970727 6.900167 6.318724 15.193317 0.522901 1.141877 0.010262 -0.003223 551370.000000 1 0 0
-9.896573 -0.871233 -14.906876 17.914133 0.087807 2.553733 0.023309 -0.006595 557266.000000 1 0 0
1.677527 -13.092733 12.141924 17.934884 -1.443364 0.827117 -0.001652 -0.000938 165891.000000 1 0 0
2.960027 3.033467 12.936624 13.613226 0.797651 0.316604 -0.000078 -0.003061 -89617.900000 1 0 0
-2.630673 -1.334833 10.893024 11.285397 0.469559 0.264468 0.004311 -0.002413 -1690740.000000 1 0 0
2.611627 -10.067333 -8.216176 13.254333 -1.316975 2.239394 -0.005702 0.003325 -921721.000000 1 0 0
14.006227 3.582467 -7.475676 16.275570 0.250408 2.048025 0.022449 0.003045 -2751070.000000 1 0 0
7.462827 -1.509633 5.017024 9.118295 -0.199594 0.988174 0.006969 -0.006351 322463.000000 1 0 0
-1.046873 8.674667 10.066224 13.329466 -1.450695 0.714859 0.008192 -0.001638 263091.000000 1 0 0
-12.347773 -4.690233 0.970724 13.244172 0.363011 1.497436 0.004391 -0.000687 283428.000000 1 0 0
-4.900873 4.797667 -5.143376 8.572659 -0.774757 2.214265 0.003396 -0.002642 -59524.500000 1 0 0
-11.282373 0.279567 2.068824 11.473889 -0.024774 1.389498 -0.001215 0.001732 -2593050.000000 1 0 0
-1.493173 2.410767 -4.037876 4.934147 -1.016251 2.529336 0.006505 -0.006279 793454.000000 1 0 0
3.110227 -9.805633 13.216824 16.748385 -1.263646 0.661388 -0.001694 -0.003827 -2232070.000000 1 0 0
8.895027 4.612067 -1.534376 10.136418 0.478337 1.722753 0.004836 -0.001772 -1143600.000000 1 0 0
4.054827 2.277267 3.837724 6.029568 0.511720 0.880865 0.000158 0.002677 626368.000000 1 0 0
-5.533173 -3.211133 7.382224 9.768552 0.525840 0.714054 0.000203 -0.002676 -277893.000000 1 0 0
1.691227 -5.785733 7.681324 9.764102 -1.286410 0.665367 0.002369 -0.003868 -666725.000000 1 0 0
-5.852473 -6.232733 -9.781276 12.991219 0.816853 2.423276 0.015468 -0.007672 -928223.000000 1 0 0
-11.823173 -5.700333 5.469224 14.219481 0.449251 1.175990 0.010982 -0.000042 -455119.000000 1 0 0
10.506227 6.229367 4.557824 13.036855 0.535198 1.213641 0.003035 -0.001676 -965484.000000 1 0 0
1.497527 -3.729633 0.453024 4.044500 -1.188979 1.458551 0.011078 -0.003201 -461271.000000 1 0 0
8.887727 4.433767 6.880924 12.082926 0.462738 0.964929 0.003448 0.000276 -1059010.000000 1 0 0
-7.889773 12.064667 3.495724 14.833233 -0.991644 1.332890 0.004555 -0.006277 -195642.000000 1 0 0
-6.209973 13.198367 -7.039876 16.196312 -1.131017 2.020456 0.015902 -0.010749 300185.000000 1 0 0
4.447427 -7.027733 -0.973676 8.373570 -1.006579 1.687340 0.007557 -0.004841 -725325.000000 1 0 0
-2.055673 -8.173733 11.013724 13.868591 1.324409 0.653191 0.001912 -0.007416 -963056.000000 1 0 0
11.606427 8.733067 -5.758276 15.624767 0.645057 1.948229 0.022748 -0.011265 203245.000000 1 0 0
-3.441473 -2.911933 -1.924976 4.901900 0.702243 1.974362 0.012591 -0.006713 -3796330.000000 1 0 0
-2.024073 6.037067 4.685124 7.905279 -1.247300 0.936442 0.003695 0.000773 631891.000000 1 0 0
0.309727 -11.446833 -5.588876 12.742113 -1.543745 2.024853 0.001803 -0.001135 353972.000000 1 0 0
-8.920973 6.263667 -1.553076 11.010419 -0.612153 1.712323 0.004626 -0.003131 -636471.000000 1 0 0
2.898527 -0.037533 3.909324 4.866794 -0.012948 0.638040 0.002819 -0.000183 484582.000000 1 0 0
-9.991873 3.898567 -1.048476 10.776625 -0.372007 1.668242 0.010361 -0.001300 -217490.000000 1 0 0
6.553127 5.430867 13.525724 15.980707 0.692024 0.561648 0.010625 0.000443 -410150.000000 1 0 0
-8.712473 -1.548033 5.661724 10.505176 0.175845 1.001611 -0.001800 -0.002555 -313916.000000 1 0 0
13.042727 -1.767533 -1.409776 13.237234 -0.134698 1.677499 0.015666 -0.002366 -789376.000000 1 0 0
5.029027 -5.585333 5.475324 9.298722 -0.837761 0.941191 0.009283 -0.007361 339894.000000 1 0 0
-9.101373 -1.255233 3.133424 9.707160 0.137052 1.242115 -0.002069 -0.001193 443788.000000 1 0 0
1.969527 5.432567 5.560324 8.019291 1.222993 0.804643 0.002627 -0.000508 -350670.000000 1 0 0
9.216527 3.024267 -7.381376 12.189146 0.317065 2.221278 0.006176 0.001951 -595371.000000 1 0 0
2.292827 -2.458333 -1.631376 3.736555 -0.820219 2.022611 0.009739 -0.001144 -325850.000000 1 0 0
-6.318073 0.321467 -3.906376 7.435130 -0.050837 2.123975 0.005120 -0.003382 -2421680.000000 1 0 0
-4.009773 4.200567 5.003624 7.665461 -0.808632 0.859589 0.004111 -0.001709 248128.000000 1 0 0
-6.470973 1.775667 -12.299076 14.010487 -0.267813 2.642146 0.005740 -0.005373 -405193.000000 1 0 0
-0.128073 3.108167 6.260124 6.990441 -1.529614 0.461184 0.002420 -0.002684 942743.000000 1 0 0
-8.714373 9.483567 -2.114976 13.051876 -0.827641 1.733558 0.000343 -0.000246 -675418.000000 1 0 0
-1.327273 -3.796333 -6.061076 7.273956 1.234460 2.555769 0.006661 -0.007915 218881.000000 1 0 0
-3.183473 7.109767 -3.055076 8.367603 -1.149806 1.944545 0.000694 -0.002430 635267.000000 1 0 0
7.103427 -0.510233 -4.340276 8.340084 -0.071706 2.118129 0.006868 0.001247 -194834.000000 1 0 0
-5.289773 -10.872033 6.858224 13.900289 1.117968 1.054817 0.009223 -0.002151 158535.000000 1 0 0
9.758427 8.318667 -1.514276 12.912016 0.705920 1.688343 0.003850 -0.000138 447825.000000 1 0 0
13.769127 4.496067 -4.372476 15.130169 0.315617 1.863969 0.008352 -0.003296 674603.000000 1 0 0
4.785227 1.056467 -6.950676 8.504494 0.217291 2.527496 0.001852 -0.000808 -793051.000000 1 0 0
9.079827 -4.772033 3.519024 10.844311 -0.483889 1.240309 0.012138 -0.008392 43925.700000 1 0 0
-8.765573 -3.300433 -0.736676 9.395255 0.360105 1.649286 0.002401 -0.001640 776446.000000 1 0 0
-8.518473 -4.297233 -10.406776 14.118484 0.467210 2.399570 0.015817 -0.011055 240465.000000 1 0 0
10.433527 -1.082133 10.821724 15.071138 -0.103347 0.769810 0.016504 -0.005852 901770.000000 1 0 0
2.183027 -11.601033 9.982424 15.459572 -1.384796 0.868842 0.001488 -0.003950 475823.000000 1 0 0
-6.457473 -10.582533 2.013324 12.559556 1.022910 1.409800 0.010255 0.000537 -1147110.000000 1 0 0
-3.776173 -1.301733 6.654824 7.761487 0.331966 0.540569 0.003856 -0.002854 -2693880.000000 1 0 0
4.654427 -7.592433 3.939224 9.737875 -1.020847 1.154336 0.003865 -0.001942 261263.000000 1 0 0
11.610827 -9.438333 -5.295976 15.872643 -0.682552 1.910974 0.024008 -0.011538 380725.000000 1 0 0
11.325127 1.184567 11.443524 16.143604 0.104217 0.782918 0.029276 -0.003052 120381.000000 1 0 0
-10.202373 -3.461133 4.355324 11.620530 0.327064 1.186620 0.006634 -0.000969 920948.000000 1 0 0
2.050527 8.806467 8.972324 12.738176 1.342029 0.789268 0.008177 0.000466 -744604.000000 1 0 0
6.707427 8.828867 4.069824 11.811094 0.921106 1.219009 0.007653 -0.000532 684772.000000 1 0 0
-4.344473 3.746267 0.447724 5.754079 -0.711595 1.492908 0.005289 -0.003759 -178257.000000 1 0 0
4.953727 7.048967 4.271224 9.616169 0.958221 1.110547 0.004501 -0.000389 -670896.000000 1 0 0
-8.275273 13.062967 1.031324 15.497899 -1.006114 1.504201 0.009598 -0.005800 -407147.000000 1 0 0
8.945627 8.227767 -9.164176 15.221778 0.743622 2.216855 0.014484 -0.011288 -1042140.000000 1 0 0
7.244127 1.885867 6.077524 9.642104 0.254678 0.888843 0.004787 -0.001776 -915163.000000 1 0 0
11.656527 -6.173833 3.073024 13.543792 -0.487082 1.341908 0.019675 -0.009774 -259820.000000 1 0 0
11.430627 4.753967 -1.953276 12.532945 0.394135 1.727286 0.002223 -0.000323 350500.000000 1 0 0
-3.931673 14.207867 -6.001176 15.916521 -1.300827 1.957395 0.009662 -0.004094 -755372.000000 1 0 0
7.063627 -3.044233 6.935224 10.356617 -0.406919 0.837070 0.009685 -0.007353 -1540820.000000 1 0 0
-7.989373 -0.495333 0.938724 8.059568 0.061920 1.454058 0.002671 -0.001531 743097.000000 1 0 0
-3.379473 1.072267 10.688324 11.261033 -0.307241 0.320296 0.002271 -0.001386 -606401.000000 1 0 0
7.144427 -1.255633 -1.883476 7.494460 -0.173973 1.824836 0.011761 -0.001401 -1481620.000000 1 0 0
-7.728973 5.344967 2.961724 9.852792 -0.605032 1.265477 0.004354 -0.003651 754466.000000 1 0 0
9.486527 -2.248833 2.934924 10.181612 -0.232759 1.278390 0.011099 -0.007173 -1108710.000000 1 0 0
0.243127 3.404867 1.582324 3.762443 1.499512 1.136737 0.003274 0.000363 -1840740.000000 1 0 0
-7.617373 -3.096533 3.971024 9.131370 0.386105 1.120894 -0.000318 -0.000616 -953415.000000 1 0 0
-2.242573 8.470867 -6.734576 11.051662 -1.311994 2.226065 -0.000929 -0.000465 -735488.000000 1 0 0
4.617327 9.767067 7.349924 13.066625 1.129190 0.973395 0.005697 0.003272 -752409.000000 1 0 0
-11.818173 -3.096933 6.819524 13.991645 0.256286 1.061687 0.010543 -0.001031 -1511920.000000 1 0 0
-4.819173 2.263367 -5.655176 7.767128 -0.439081 2.386329 0.006980 -0.005573 248668.000000 1 0 0
-2.842573 2.749767 -1.751776 4.325524 -0.768804 1.987760 0.004203 -0.002212 163235.000000 1 0 0
2.345127 5.242267 11.402724 12.767267 1.150149 0.466558 0.006685 -0.004571 228684.000000 1 0 0
-0.749373 1.600867 4.507424 4.841612 -1.132989 0.373719 0.006942 -0.002751 -752207.000000 1 0 0
5.131827 1.578567 7.617624 9.319642 0.298418 0.613960 0.003021 -0.002371 1005280.000000 1 0 0
3.425227 -8.159033 1.830424 9.036175 -1.173332 1.366819 0.004105 -0.001855 2113390.000000 1 0 0
5.093727 6.406467 -4.627776 9.402403 0.899056 2.085401 0.007196 -0.001254 -1196910.000000 1 0 0
-4.018873 2.694867 -7.987376 9.338727 -0.590688 2.596918 0.009314 -0.004375 -166206.000000 1 0 0
-8.721273 -2.194833 -12.958576 15.773477 0.246544 2.534907 0.020636 -0.011037 32223.400000 1 0 0
-7.839873 8.175267 1.193624 11.389615 -0.806337 1.465804 0.001936 -0.002602 -2080430.000000 1 0 0
7.439827 0.803167 -6.578976 9.963886 0.107539 2.291991 0.005100 0.001313 333539.000000 1 0 0
9.101627 9.030467 5.444024 13.929334 0.781474 1.169261 0.009215 0.000089 545209.000000 1 0 0
9.484427 -1.050033 -1.287576 9.628851 -0.110262 1.704919 0.010627 0.000011 1051160.000000 1 0 0
5.405827 0.095667 4.304724 6.911061 0.017695 0.898385 0.001588 -0.000616 -1370010.000000 1 0 0
-4.246073 -7.209933 -7.924176 11.524098 1.038564 2.328999 0.013935 -0.009006 390387.000000 1 0 0
-2.198573 7.428767 -0.526476 7.765145 -1.283056 1.638648 0.001867 -0.002930 547347.000000 1 0 0
13.272327 -3.365633 -7.457876 15.591730 -0.248348 2.069540 0.023890 -0.004620 898861.000000 1 0 0
-4.822473 -5.058433 1.543524 7.157266 0.809274 1.353430 0.009005 -0.002362 2002820.000000 1 0 0
-9.018373 1.343367 2.528124 9.461876 -0.147872 1.300320 -0.000549 -0.002282 -627680.000000 1 0 0
-1.050773 11.207767 10.089424 15.116701 -1.477316 0.840037 0.006733 -0.002873 522582.000000 1 0 0
-8.567473 0.383567 7.468924 11.372491 -0.044740 0.854291 -0.002971 -0.003475 -952171.000000 1 0 0
-6.101473 12.905267 -2.089476 14.427051 -1.129153 1.716138 0.004809 -0.001838 82035.200000 1 0 0
-12.991173 -0.806733 3.253824 13.416735 0.062019 1.325834 0.002688 0.000505 332971.000000 1 0 0
-6.676973 12.808667 8.699524 16.861958 -1.090266 1.028708 0.014557 -0.008505 819514.000000 1 0 0
-8.039573 0.813767 -14.114476 16.263929 -0.100877 2.621633 0.012560 -0.006380 -537957.000000 1 0 0
7.193827 2.835167 3.771824 8.603254 0.375419 1.116958 0.003433 -0.000134 -795258.000000 1 0 0
-1.682073 0.676667 -2.123876 2.792507 -0.382472 2.434975 0.008977 -0.005730 1224830.000000 1 0 0
-6.276473 9.619367 -10.346576 15.458912 -0.992678 2.304056 0.000405 -0.004275 -418293.000000 1 0 0
-10.070273 13.696767 5.273524 17.799491 -0.936815 1.270007 0.009471 -0.005829 361902.000000 1 0 0
-5.667673 8.318167 2.415424 10.351265 -0.972690 1.335279 0.000218 -0.002126 -1412590.000000 1 0 0
-2.490073 -10.756433 -1.161976 11.101869 1.343307 1.675653 0.012160 -0.000601 736785.000000 1 0 0
-2.272073 -12.461533 8.899324 15.480636 1.390450 0.958353 0.008687 -0.003898 473802.000000 1 0 0
-14.815673 -6.453233 -1.772376 16.256989 0.410788 1.680036 0.020121 -0.002966 578837.000000 1 0 0
-2.792573 -9.453833 3.341224 10.408516 1.283574 1.244002 0.010144 -0.001596 -1194440.000000 1 0 0
4.642927 -2.699233 7.523424 9.243622 -0.526604 0.619955 0.003854 -0.003119 -180222.000000 1 0 0
-15.026673 -1.254433 -0.399776 15.084241 0.083287 1.597302 0.004665 -0.003910 135546.000000 1 0 0
5.514527 8.693167 -2.879076 10.689726 1.005500 1.843495 0.005223 -0.002139 -292657.000000 1 0 0
-5.714273 -5.713833 8.567924 11.777526 0.785360 0.756153 0.003546 -0.001347 -2309930.000000 1 0 0
3.449327 3.542267 6.924224 8.508254 0.798691 0.620093 0.000906 -0.000213 198692.000000 1 0 0
3.419227 2.384067 9.312424 10.202751 0.608880 0.420863 0.005552 -0.004690 342859.000000 1 0 0
9.947427 -3.301933 5.256824 11.725539 -0.320495 1.105908 0.016903 -0.010650 -440117.000000 1 0 0
6.603527 9.977367 -5.090276 13.002512 0.986135 1.973040 0.004014 -0.003476 -30509.200000 1 0 0
-4.570973 12.044967 -8.678176 15.533376 -1.208093 2.163589 0.007746 -0.004827 -1240760.000000 1 0 0
-3.485373 -7.241933 2.232824 8.341398 1.122239 1.299812 0.008487 -0.004301 941050.000000 1 0 0
-7.519473 -4.107833 1.171024 8.648009 0.499992 1.434969 0.003339 -0.002686 2742100.000000 1 0 0
-1.950473 -3.984533 -10.825076 11.698851 1.115575 2.752651 0.009972 -0.007957 -1336810.000000 1 0 0
-5.194073 8.351267 -4.363376 10.759234 -1.014393 1.988374 -0.000388 -0.003419 -1901560.000000 1 0 0
-10.964873 -3.287233 -10.134676 15.288754 0.291270 2.295461 0.024715 -0.008280 -1310890.000000 1 0 0
4.748627 -11.388333 -7.681976 14.534660 -1.175744 2.127662 0.003978 -0.002063 -2397310.000000 1 0 0
-9.409173 -3.985733 7.273824 12.543011 0.400685 0.952177 0.000315 0.000318 -678836.000000 1 0 0
-5.705873 -9.772833 -5.187676 12.448985 1.042336 2.000625 0.011753 -0.006409 408870.000000 1 0 0
4.810527 4.403767 -9.462076 11.491963 0.741282 2.538111 0.003531 0.002061 604649.000000 1 0 0
-3.379973 -7.147833 -13.990276 16.069958 1.129090 2.627188 0.003018 -0.003397 -815995.000000 1 0 0
0.506527 -0.757033 -8.670576 8.718289 -0.981115 3.036925 0.008660 -0.010362 532249.000000 1 0 0
-7.813073 2.164067 -2.837676 8.589511 -0.270206 1.907487 0.006962 -0.002946 -416801.000000 1 0 0
-2.349573 7.537467 -12.557176 14.832956 -1.268623 2.580309 0.006919 -0.002603 116899.000000 1 0 0
-9.889673 8.943667 7.536124 15.316265 -0.735210 1.056372 0.010742 -0.009218 -500932.000000 1 0 0
-10.513073 -3.311133 -14.343376 18.089244 0.305119 2.486387 0.030754 -0.006407 -632516.000000 1 0 0
-3.191873 4.818167 7.903124 9.790922 -0.985707 0.631422 0.002627 -0.002531 -490024.000000 1 0 0
8.808627 -2.367933 -3.435276 9.746801 -0.262611 1.930986 0.008017 -0.000785 -6470960.000000 1 0 0
1.840127 -8.446733 -1.018076 8.704587 -1.356297 1.688023 0.004390 0.000343 -1815680.000000 1 0 0
-13.570773 -2.833433 5.026324 14.746463 0.205832 1.222976 0.015460 -0.004167 382982.000000 1 0 0
7.036427 2.736967 -1.891276 7.783265 0.370963 1.816246 0.006708 0.000922 921583.000000 1 0 0
-11.121073 4.466467 8.853524 14.900083 -0.381904 0.934534 0.005454 -0.009424 -3330610.000000 1 0 0
-1.894973 -2.526033 7.957424 8.561096 0.927182 0.377778 0.001837 -0.005103 -671880.000000 1 0 0
3.074427 11.930567 -9.844876 15.770609 1.318590 2.244973 0.007884 -0.011136 579865.000000 1 0 0
3.592127 -4.992833 -7.073076 9.373375 -0.947131 2.425829 -0.000136 -0.005139 -23333.800000 1 0 0
8.463827 -13.686833 -9.520476 18.697733 -1.016963 2.105026 0.026740 -0.005278 -311572.000000 1 0 0
-6.232273 -5.797433 -0.430376 8.522716 0.749267 1.621315 0.013315 -0.004535 -117603.000000 1 0 0
-1.266573 -4.056633 9.810924 10.691806 1.268164 0.408767 0.001462 -0.004731 1225560.000000 1 0 0
2.785827 3.226367 1.816824 4.633695 0.858542 1.167894 0.001427 0.001546 -596972.000000 1 0 0
-9.144973 13.406467 7.801624 18.006366 -0.972164 1.122678 0.014779 -0.014650 -68903.700000 1 0 0
4.074127 -11.089133 0.070624 11.814075 -1.218707 1.564818 0.005719 -0.002831 48166.100000 1 0 0
-12.548773 -1.465933 -9.080376 15.558724 0.116292 2.193975 0.023838 -0.006533 347328.000000 1 0 0
-4.339373 0.932267 -13.483476 14.195189 -0.211622 2.823592 0.008469 -0.009065 21210.000000 1 0 0
3.887227 -3.103233 4.962724 7.026323 -0.673713 0.786532 0.004520 -0.001598 -138237.000000 1 0 0
1.683427 -1.209433 0.995724 2.299591 -0.622992 1.122978 0.008835 -0.000858 -156812.000000 1 0 0
8.066927 -8.914733 7.284424 14.057404 -0.835282 1.026062 0.016745 -0.005858 -822119.000000 1 0 0
-0.047773 2.210567 -6.198176 6.580750 -1.549188 2.798934 0.007135 -0.006397 538117.000000 1 0 0
-3.827573 -9.665933 -3.290776 10.904576 1.193755 1.877355 0.013817 -0.001749 603757.000000 1 0 0
-9.522073 2.254767 -5.432676 11.192311 -0.232511 2.077610 0.005793 -0.000677 -849087.000000 1 0 0
9.020627 -7.591333 5.338424 12.942133 -0.699569 1.145617 0.013762 -0.008703 1011210.000000 1 0 0
-5.535673 -4.289733 4.667624 8.416187 0.659263 0.982913 0.001406 -0.000726 -972490.000000 1 0 0
-0.174673 -12.441133 10.434824 16.238776 1.556757 0.872927 0.004175 -0.005630 -1652390.000000 1 0 0
-14.401873 -8.391833 3.172224 16.967611 0.527595 1.382732 0.013758 -0.004043 -1198670.000000 1 0 0
11.002827 -1.241233 -3.529476 11.621534 -0.112335 1.879371 0.017365 0.000629 281534.000000 1 0 0
-13.684473 3.030567 2.824524 14.297800 -0.217943 1.371939 0.004826 -0.002235 -632638.000000 1 0 0
-6.364973 6.111367 1.007324 8.881238 -0.765074 1.457130 0.000928 -0.001811 321930.000000 1 0 0
7.076327 -6.841833 -0.495976 9.855510 -0.768552 1.621142 0.008774 -0.007109 -245788.000000 1 0 0
-6.815573 7.925267 10.068924 14.513619 -0.860537 0.804104 0.002986 -0.005145 89648.100000 1 0 0
-12.653673 -5.206133 -1.971176 13.824066 0.390323 1.713874 0.004998 -0.001940 -3630810.000000 1 0 0
-9.444973 -5.621033 0.182224 10.992576 0.536835 1.554219 0.004580 -0.001453 -748942.000000 1 0 0
-1.893273 1.893067 2.168924 3.445637 -0.785344 0.889926 0.005548 -0.001695 708391.000000 1 0 0
-7.104673 7.352967 7.639024 12.763118 -0.802570 0.929140 0.004175 -0.004959 636.559000 1 0 0
5.577227 7.161767 -0.353476 9.084124 0.909148 1.609718 0.005205 -0.001260 -1968900.000000 1 0 0
-0.112673 -4.120933 7.465224 8.527858 1.543461 0.504549 0.003787 -0.003406 -2024110.000000 1 0 0
6.491627 0.573467 13.011024 14.551867 0.088111 0.464348 0.006482 -0.002922 554724.000000 1 0 0
5.691127 6.179867 -7.794576 11.460152 0.826546 2.318758 -0.002685 0.000710 -76327.800000 1 0 0
9.947727 5.390467 9.064124 14.497336 0.496587 0.895374 0.004323 -0.002849 -3163650.000000 1 0 0
-1.180473 -5.109133 -8.416176 9.916087 1.343729 2.584394 0.011995 -0.008276 715339.000000 1 0 0
9.992427 -3.560133 -7.966776 13.266223 -0.342261 2.214961 0.017187 -0.007811 521220.000000 1 0 0
8.257327 -5.561433 1.304524 10.040656 -0.592729 1.440504 0.011361 -0.006537 1254590.000000 1 0 0
15.826127 3.087767 -5.021376 16.888304 0.192685 1.872690 0.034866 0.001640 268172.000000 1 0 0
-6.985973 3.591667 1.181624 7.943559 -0.474884 1.421490 0.002862 -0.003250 1120310.000000 1 0 0
-1.807373 3.843967 0.260724 4.255662 -1.131284 1.509493 0.005520 -0.002586 -585855.000000 1 0 0
-2.571173 10.003467 6.932424 12.439405 -1.319214 0.979671 0.003820 0.000681 1449560.000000 1 0 0
5.475527 -5.621733 -8.772476 11.770370 -0.798572 2.411783 -0.000339 -0.003926 465082.000000 1 0 0
-1.247673 -1.017233 6.198024 6.403667 0.684003 0.254113 0.004082 -0.003250 -500300.000000 1 0 0
-5.531073 4.927067 -7.695576 10.681322 -0.727708 2.375277 0.000151 -0.000769 -77818.900000 1 0 0
6.779627 -1.252733 2.570824 7.358112 -0.182718 1.213880 0.006590 -0.002188 -985299.000000 1 0 0
8.895527 7.532867 3.248224 12.100638 0.702642 1.299029 0.006415 -0.002333 -21560.400000 1 0 0
-5.360273 -4.910633 -7.609676 10.523973 0.741648 2.379047 0.013404 -0.011453 804360.000000 1 0 0
-2.265373 7.877467 -9.991176 12.923235 -1.290776 2.454538 0.004514 -0.001958 435913.000000 1 0 0
-2.859073 -2.243133 1.693424 4.009193 0.665259 1.134721 0.002998 -0.000685 -162503.000000 1 0 0
6.026627 -2.102733 -9.252876 11.240882 -0.335701 2.537724 0.000806 -0.001670 949565.000000 1 0 0
1.021227 -7.565133 5.273024 9.277873 -1.436616 0.966304 0.003449 -0.000149 471985.000000 1 0 0
1.825527 11.648367 1.188024 11.850249 1.415341 1.470375 0.006132 -0.002510 -304429.000000 1 0 0
-1.032073 7.073767 2.507724 7.575753 -1.425917 1.233412 0.003346 -0.000100 507182.000000 1 0 0
8.794227 7.866167 -6.656976 13.547337 0.729751 2.084477 0.008280 -0.004816 -312725.000000 1 0 0
3.641227 -10.954733 5.517324 12.794748 -1.249896 1.124954 0.006582 0.001776 51458.400000 1 0 0
7.976027 -7.136033 12.363924 16.352571 -0.729871 0.713487 0.024095 -0.001860 581428.000000 1 0 0
-8.762573 0.001667 -3.994476 9.630085 -0.000190 1.998510 0.006370 -0.003314 -592192.000000 1 0 0
-3.363373 -5.017833 11.233324 12.754548 0.980294 0.493393 0.002946 -0.005124 -834497.000000 1 0 0
-8.198373 0.066167 -11.598176 14.203358 -0.008071 2.526257 0.013815 -0.009461 -1307580.000000 1 0 0
1.327627 -5.016733 5.349824 7.453242 -1.312087 0.770181 0.003509 -0.001175 -512164.000000 1 0 0
6.672527 3.692767 -7.623576 10.783230 0.505472 2.356021 0.002749 0.000436 140447.000000 1 0 0
16.349527 4.186167 -1.362776 16.931869 0.250657 1.651369 0.027287 0.002648 283096.000000 1 0 0
7.933427 7.477967 0.053924 10.902392 0.755853 1.565850 0.007421 -0.004087 -2235570.000000 1 0 0
5.450027 -10.301833 14.009824 18.223768 -1.084192 0.693886 0.007618 -0.003009 278583.000000 1 0 0
-5.425573 -9.213233 8.922524 13.925945 1.038587 0.875371 0.008132 -0.006941 651983.000000 1 0 0
-12.671773 -3.218933 2.857424 13.382834 0.248762 1.355626 0.004502 0.001344 334197.000000 1 0 0
-2.107673 -1.429133 -5.748576 6.287355 0.595850 2.724591 0.011875 -0.011465 -1530160.000000 1 0 0
-2.395073 12.874067 -4.335176 13.793902 -1.386861 1.890497 0.000864 0.002107 490465.000000 1 0 0
4.004627 -0.489633 -5.003676 6.427562 -0.121663 2.463024 0.004902 -0.002107 -377755.000000 1 0 0
-8.877273 3.699267 -7.387176 12.126868 -0.394830 2.225794 0.006394 -0.000846 288884.000000 1 0 0
-4.588473 7.967567 -11.315376 14.579916 -1.048291 2.459243 -0.002333 0.000403 -1422270.000000 1 0 0
-10.243573 -6.399233 7.441824 14.186674 0.558389 1.018593 0.007040 0.003001 -662968.000000 1 0 0
8.010427 5.353867 4.094224 10.468692 0.589176 1.168978 0.001871 -0.000841 -2384270.000000 1 0 0
-6.731373 -7.645533 3.923624 10.916061 0.848898 1.203133 0.011763 0.000709 -753020.000000 1 0 0
-4.181873 11.872667 7.884324 14.852975 -1.232139 1.011223 0.007766 -0.002473 -114884.000000 1 0 0
-7.247573 9.927167 -7.876376 14.598399 -0.940170 2.140683 0.000376 -0.006495 -946342.000000 1 0 0
13.083827 5.555967 4.439224 14.891676 0.401569 1.268094 0.003520 -0.007854 -998521.000000 1 0 0
5.401427 3.929467 -3.741076 7.655833 0.628936 2.081346 0.005905 0.001356 463380.000000 1 0 0
-2.899773 -4.138833 5.097624 7.178049 0.959650 0.781059 0.002798 -0.000806 -1172950.000000 1 0 0
12.477827 -2.318933 -5.309076 13.757176 -0.183748 1.966994 0.015719 -0.005334 -998210.000000 1 0 0
-5.243673 9.779867 7.000024 13.120299 -1.078633 1.008032 0.003098 -0.000449 -416442.000000 1 0 0
1.752227 3.853567 -0.498476 4.262482 1.144039 1.688010 0.002626 0.001355 647677.000000 1 0 0
0.036027 9.671167 7.706624 12.366278 1.567071 0.897973 0.003403 0.000985 -339869.000000 1 0 0
-5.687773 2.237967 5.892124 8.489781 -0.374864 0.803731 0.002515 -0.003443 700688.000000 1 0 0
8.794527 0.978267 10.678224 13.868135 0.110780 0.691982 0.011043 -0.000637 -319322.000000 1 0 0
0.389927 -2.907233 -10.110076 10.526998 -1.437469 2.859213 0.005826 -0.006800 -2313480.000000 1 0 0
1.223227 10.717467 -2.858776 11.159435 1.457154 1.829860 0.006797 -0.004322 -128757.000000 1 0 0
2.220727 -4.326133 11.648924 12.623173 -1.096543 0.395457 0.005755 -0.001253 -1068080.000000 1 0 0
6.509127 -3.109833 9.455524 11.893138 -0.445702 0.651722 0.008502 -0.003844 247751.000000 1 0 0
-10.718873 -8.152633 5.669824 14.611864 0.650242 1.172304 0.013833 -0.000850 -959806.000000 1 0 0
-2.914073 0.744867 -6.878976 7.507793 -0.250252 2.729400 0.010428 -0.009036 859893.000000 1 0 0
11.124227 2.635967 -5.009976 12.481851 0.232666 1.983820 0.009424 0.000515 -2674220.000000 1 0 0
-2.070973 -4.012433 -0.101976 4.516519 1.094321 1.593377 0.006338 -0.004103 695295.000000 1 0 0
-1.274173 -6.474733 -10.587076 12.475250 1.376488 2.584217 0.004297 -0.002812 944435.000000 1 0 0
0.361427 6.887267 -6.532476 9.499385 1.518367 2.329076 0.007042 -0.001859 -2692530.000000 1 0 0
1.989227 3.806267 -6.168476 7.516301 1.089218 2.533396 0.005023 -0.002480 -1970130.000000 1 0 0
1.555327 -14.811133 6.474524 16.239094 -1.466169 1.160698 0.010293 -0.005924 164974.000000 1 0 0
-1.738273 5.402767 -10.490276 11.927170 -1.259518 2.645665 0.009659 -0.002577 189293.000000 1 0 0
13.718727 4.352767 -0.784476 14.414071 0.307240 1.625248 0.005645 -0.002697 -954178.000000 1 0 0
-2.385973 3.245767 -6.229776 7.418759 -0.936898 2.567588 0.006465 -0.005696 -901206.000000 1 0 0
5.904427 7.832567 14.147024 17.214809 0.924848 0.606244 0.022366 -0.008774 474894.000000 1 0 0
16.035627 0.621367 -5.884676 17.092596 0.038730 1.922270 0.041680 -0.000340 340915.000000 1 0 0
6.112927 -8.241633 10.552724 14.719116 -0.932620 0.771393 0.005302 0.002845 1050360.000000 1 0 0
0.098727 -5.914033 -6.263776 8.615127 -1.554104 2.384837 0.005569 -0.006425 -1115590.000000 1 0 0
8.642427 5.477967 -7.569876 12.728028 0.564935 2.207739 0.002804 -0.000008 -485310.000000 1 0 0
-15.964473 -0.762633 5.303824 16.839732 0.047734 1.250383 0.022123 -0.009993 -342205.000000 1 0 0
-0.391873 4.008267 -12.285976 12.929229 -1.473340 2.824828 0.011647 -0.004671 485858.000000 1 0 0
-11.264973 3.616967 5.933224 13.235755 -0.310683 1.105965 0.002885 -0.006357 -482671.000000 1 0 0
5.201927 -9.684733 -9.599576 14.594723 -1.077890 2.288615 -0.003691 0.002499 -72433.300000 1 0 0
1.560927 11.131567 -11.746976 16.258528 1.431479 2.378225 0.009093 -0.006087 -1693670.000000 1 0 0
5.907127 2.296767 1.224724 6.455171 0.370825 1.379912 0.007804 0.000102 -356230.000000 1 0 0
5.724327 4.607767 4.922324 8.844700 0.677749 0.980595 0.001192 -0.000194 -287581.000000 1 0 0
0.418127 -1.658233 -6.349476 6.575744 -1.323793 2.878501 0.008135 -0.008911 300785.000000 1 0 0
12.812727 6.740167 -4.675976 15.213828 0.484272 1.883204 0.014461 -0.009447 -5302.980000 1 0 0
7.441027 3.143867 12.615424 14.980044 0.399755 0.569541 0.005643 -0.001370 205494.000000 1 0 0
-2.475373 -0.218633 8.581524 8.934082 0.088095 0.281867 0.001045 -0.004172 518216.000000 1 0 0
2.128627 -15.321733 13.422724 20.480627 -1.432751 0.856102 0.000600 -0.001081 512524.000000 1 0 0
18.878127 4.792567 -1.564976 19.539742 0.248617 1.650974 0.025821 -0.009027 561342.000000 1 0 0
-0.404273 -13.180433 7.252324 15.049367 1.540134 1.067972 0.006410 -0.002350 -1303670.000000 1 0 0
4.451727 1.501767 -0.611176 4.737796 0.325357 1.700157 0.009828 0.000239 410322.000000 1 0 0
2.747427 -0.516833 -7.383576 7.895104 -0.185942 2.779647 0.002752 -0.003258 155552.000000 1 0 0
7.230627 -11.269233 0.861924 13.417171 -1.000331 1.506512 0.009073 -0.004512 269702.000000 1 0 0
-11.883773 -7.364933 1.302724 14.041488 0.554813 1.477886 0.004184 0.000634 196004.000000 1 0 0
0.064727 -7.003133 10.083124 12.276704 -1.561554 0.607072 0.002776 -0.004314 -1329210.000000 1 0 0
-4.708373 -7.155033 10.578424 13.611258 0.988782 0.680621 0.005786 -0.002005 -1768670.000000 1 0 0
11.970727 0.807267 -1.471676 12.087837 0.067335 1.692848 0.006553 -0.000847 937201.000000 1 0 0
6.549527 -9.643333 -7.286776 13.747264 -0.974183 2.129459 0.001467 -0.005923 268537.000000 1 0 0
-10.963473 4.939167 3.581424 12.546701 -0.423279 1.281323 0.000653 -0.004212 -249089.000000 1 0 0
6.006327 -9.139033 2.046524 11.125922 -0.989364 1.385801 0.007519 -0.003946 4183350.000000 1 0 0
11.577727 -1.407433 5.967424 13.100946 -0.120970 1.097867 0.020210 -0.013333 -631421.000000 1 0 0
-6.424873 3.698767 4.100924 8.472157 -0.522356 1.065522 0.000339 -0.003236 -1367830.000000 1 0 0
9.508327 6.292467 -3.218276 11.847393 0.584615 1.845897 0.003828 -0.000976 -1247190.000000 1 0 0
-2.302373 6.594167 10.892124 12.939178 -1.234876 0.570198 0.002219 -0.004048 32040.200000 1 0 0
1.956227 9.786067 3.120924 10.456295 1.373498 1.267704 0.002550 -0.004368 -520619.000000 1 0 0
2.781927 6.033267 -5.540276 8.650670 1.138752 2.265874 0.003943 -0.000498 -1831420.000000 1 0 0
11.759427 0.144467 -5.730576 13.082220 0.012285 2.024217 0.012942 -0.000282 213011.000000 1 0 0
-2.681773 -12.520733 6.354824 14.294910 1.359798 1.110123 0.010021 -0.000456 -241398.000000 1 0 0
10.900327 1.817767 -2.654076 11.365101 0.165242 1.806501 0.007273 0.000701 792683.000000 1 0 0
-8.943773 5.364367 0.824624 10.461717 -0.540264 1.491891 0.003042 -0.003448 -600508.000000 1 0 0
1.042127 -10.090933 5.912024 11.741592 -1.467888 1.043138 0.003457 -0.002560 141567.000000 1 0 0
9.502527 -5.765233 -1.031676 11.162450 -0.545335 1.663352 0.013625 -0.005835 922603.000000 1 0 0
-7.795673 8.537567 -4.359676 12.355944 -0.830789 1.931401 0.001021 -0.002414 877646.000000 1 0 0
-7.559473 -0.143033 -1.665076 7.742000 0.018919 1.787560 0.003971 -0.003031 -2136390.000000 1 0 0
4.192327 8.893567 2.776124 10.216555 1.130299 1.295608 0.006171 -0.002501 1535950.000000 1 0 0
-1.367773 -10.416433 -3.704176 11.139740 1.440234 1.909770 0.012307 0.000181 -140645.000000 1 0 0
3.178527 7.850267 -3.644776 9.220310 1.186078 1.977189 0.008030 -0.003397 -454255.000000 1 0 0
-4.320173 1.584967 -10.944176 11.872279 -0.351629 2.743562 0.005943 -0.004900 -99350.900000 1 0 0
1.320527 2.823267 10.909624 11.346124 1.133296 0.278282 0.003940 -0.002688 808695.000000 1 0 0
2.091327 5.479367 -8.040676 9.952366 1.206188 2.511403 0.006490 0.000009 278248.000000 1 0 0
15.568727 6.096867 3.894124 17.167447 0.373253 1.341973 0.011531 -0.010478 556596.000000 1 0 0
-4.441573 9.068767 4.583324 11.089498 -1.115369 1.144718 0.004867 -0.001054 90428.500000 1 0 0
-0.939973 -8.166533 -12.380676 14.861257 1.456200 2.555456 -0.004392 -0.000736 206870.000000 1 0 0
14.271127 -4.312633 -5.282176 15.816613 -0.293467 1.911302 0.032205 -0.005088 719610.000000 1 0 0
-6.175473 -6.292533 -5.664576 10.479497 0.794787 2.141874 0.013927 -0.008194 607697.000000 1 0 0
-9.002273 2.464567 -12.251476 15.401743 -0.267224 2.490563 0.013883 -0.008233 -115416.000000 1 0 0
10.645027 5.362067 13.728824 18.181006 0.466616 0.714961 0.023214 -0.002400 776722.000000 1 0 0
-0.432973 10.991567 5.513824 12.304644 -1.531425 1.106147 0.006059 0.000686 371125.000000 1 0 0
0.498027 11.144367 -0.632976 11.173433 1.526137 1.627477 0.005756 -0.005194 -194919.000000 1 0 0
-1.512873 -0.624933 3.642324 3.993226 0.391729 0.422356 0.005470 -0.002649 110953.000000 1 0 0
-4.780273 6.823167 8.799724 12.117828 -0.959671 0.758047 0.002827 -0.003615 -278169.000000 1 0 0
3.430127 -8.664733 -11.270876 14.624500 -1.193853 2.450711 -0.006363 0.003102 707813.000000 1 0 0
6.707627 -3.788033 11.974424 14.238268 -0.514086 0.571662 0.014834 -0.000077 -506105.000000 1 0 0
-2.555773 -1.904833 -12.408476 12.811348 0.640490 2.890146 0.005960 -0.010082 693028.000000 1 0 0
-16.201873 -4.962633 5.397324 17.783687 0.297226 1.262434 0.030686 -0.007482 -234857.000000 1 0 0
-8.921473 7.382367 5.770724 12.938056 -0.691276 1.108475 0.003971 -0.005603 -4822650.000000 1 0 0
-12.849273 1.550067 6.087224 14.302476 -0.120054 1.131165 0.000079 -0.004998 446593.000000 1 0 0
-3.560373 3.626267 10.164024 11.363690 -0.794567 0.463642 0.003443 -0.002323 470295.000000 1 0 0
2.033927 -12.219033 -1.161076 12.441452 -1.405853 1.664256 0.012518 -0.001000 -2213880.000000 1 0 0
10.249327 -5.072433 -3.556576 11.976122 -0.459563 1.872317 0.016169 -0.005580 746436.000000 1 0 0
3.082127 -13.441833 1.049024 13.830504 -1.345399 1.494875 0.012188 -0.000834 464518.000000 1 0 0
10.027227 -1.701033 -6.074176 11.846282 -0.168042 2.109181 0.016614 -0.000025 1079030.000000 1 0 0
11.970227 -5.262233 -1.497876 13.161347 -0.414180 1.684852 0.019983 -0.007259 -1249420.000000 1 0 0
1.376627 0.870667 5.859124 6.081324 0.563949 0.271156 0.004046 -0.004018 406287.000000 1 0 0
-10.797773 11.699567 6.571024 17.223534 -0.825461 1.179362 0.006623 -0.009765 -597900.000000 1 0 0
4.738127 -14.097433 3.132824 15.198752 -1.246559 1.363184 0.013003 -0.001335 -3184960.000000 1 0 0
5.209527 -3.460033 -1.705476 6.482256 -0.586275 1.837029 0.010179 -0.002741 -749646.000000 1 0 0
2.085627 -2.941833 -7.734976 8.534288 -0.954086 2.705339 0.001536 -0.005377 97896.500000 1 0 0
-2.752373 14.879567 -8.794576 17.502047 -1.387887 2.097271 0.021604 -0.008283 -1026950.000000 1 0 0
-2.345473 6.081067 -8.073176 10.375779 -1.202677 2.462398 0.004393 -0.002555 -141179.000000 1 0 0
2.541027 -3.477733 -11.345376 12.135444 -0.939791 2.778762 -0.002464 -0.001313 -1722150.000000 1 0 0
14.718227 2.698867 -2.680376 15.201793 0.181354 1.748043 0.019415 0.004546 821357.000000 1 0 0
-3.467873 13.113167 2.196424 13.740654 -1.312258 1.410259 0.001481 -0.003460 -1786120.000000 1 0 0
7.916027 -4.939433 13.870324 16.716679 -0.557865 0.592173 0.023438 -0.003993 -2775470.000000 1 0 0
-11.393373 7.230667 2.818424 13.785319 -0.565500 1.364893 0.003593 -0.003529 1140960.000000 1 0 0
-2.304373 11.873167 4.047224 12.753911 -1.379097 1.247882 0.007064 -0.004230 9054.460000 1 0 0
1.809527 1.443267 0.613424 2.394514 0.673272 1.311729 0.003017 -0.000007 -812000.000000 1 0 0
-6.872673 8.610767 5.305424 12.228102 -0.897185 1.122011 0.000299 -0.002541 -778696.000000 1 0 0
-1.143873 9.200667 1.056824 9.331538 -1.447106 1.457300 0.002492 -0.001973 155590.000000 1 0 0
4.943527 12.893267 -8.425776 16.176171 1.204665 2.118673 0.019517 -0.017067 -1195950.000000 1 0 0
9.102327 6.963767 7.124224 13.494479 0.653066 1.014628 0.006691 -0.001816 -1189220.000000 1 0 0
7.198927 -13.741833 3.043924 15.809111 -1.088236 1.377044 0.016532 -0.003762 -384051.000000 1 0 0
4.157027 -13.373433 -1.199276 14.055883 -1.269423 1.656222 0.007105 -0.000025 -3046690.000000 1 0 0
12.131027 -11.773633 -4.587376 17.516400 -0.770448 1.835777 0.025832 -0.006267 -630888.000000 1 0 0
2.868927 0.011567 -1.980276 3.486025 0.004032 2.174945 0.008692 -0.003240 1366200.000000 1 0 0
-13.529773 -3.153233 -10.728676 17.552838 0.228972 2.228400 0.031648 -0.013033 531817.000000 1 0 0
-6.624273 13.708867 5.082624 16.051389 -1.120670 1.248604 0.012295 -0.005472 269054.000000 1 0 0
7.324427 -4.290933 -0.579376 8.508526 -0.529942 1.638943 0.008690 -0.003008 -1468050.000000 1 0 0
11.764927 2.184067 -7.265776 13.999113 0.183553 2.116497 0.016214 0.005556 -1182300.000000 1 0 0
-7.528873 -4.432433 9.676324 13.036934 0.532088 0.734414 0.005467 -0.000915 274492.000000 1 0 0
1.024927 2.853267 8.439624 8.967656 1.225939 0.344874 0.002815 -0.003125 -1583330.000000 1 0 0
1.626427 7.885667 -8.720376 11.869034 1.367397 2.396045 0.007047 -0.002339 -302514.000000 1 0 0
-8.612373 -2.322533 -5.486776 10.472432 0.263408 2.122250 0.012423 -0.007100 -814946.000000 1 0 0
6.714127 -0.500833 7.115624 9.796042 -0.074456 0.757760 0.006488 -0.004663 591136.000000 1 0 0
-10.927673 6.510867 7.178924 14.606245 -0.537336 1.056989 0.005415 -0.008229 376531.000000 1 0 0
-5.954273 11.118767 4.851424 13.513573 -1.079142 1.203596 0.001391 -0.001303 370151.000000 1 0 0
6.069627 -1.226433 -6.875676 9.253077 -0.199376 2.408441 0.003543 -0.000252 -1083760.000000 1 0 0
4.503227 -5.698033 11.415324 13.529828 -0.901990 0.566629 0.008696 -0.001276 -1331710.000000 1 0 0
-9.038473 -7.504533 2.609124 12.034099 0.692938 1.352250 0.007796 0.001119 -970182.000000 1 0 0
-1.225173 12.764567 -9.393776 15.895856 -1.475107 2.203042 0.018586 -0.004467 586575.000000 1 0 0
-4.583473 9.328867 -2.343876 10.655034 -1.114116 1.792589 -0.002102 -0.002746 682190.000000 1 0 0
-3.302773 9.666467 -0.192876 10.216951 -1.241559 1.589675 0.003017 -0.003717 1098640.000000 1 0 0
-3.473873 10.792167 -6.491976 13.064625 -1.259381 2.090834 0.001218 -0.000657 711529.000000 1 0 0
4.918327 -4.967533 0.355424 6.999475 -0.790376 1.519996 0.008638 -0.003832 -709664.000000 1 0 0
-2.237973 3.046267 -10.781976 11.425378 -0.937185 2.804398 0.011377 -0.005044 -1723050.000000 1 0 0
-3.564673 12.085467 -2.215576 12.793521 -1.283974 1.744853 -0.002069 0.000355 -316110.000000 1 0 0
-0.127873 0.316867 -0.038176 0.343822 -1.187229 1.682060 0.002136 -0.001999 -2104310.000000 1 0 0
-4.910273 -1.870933 0.207524 5.258730 0.364042 1.531323 0.004068 -0.003039 286334.000000 1 0 0
2.590227 2.540267 -2.486876 4.398498 0.775661 2.171705 0.000502 0.000081 3027970.000000 1 0 0
5.912327 -9.769233 8.481824 14.224446 -1.026563 0.931931 0.005237 0.000293 -344031.000000 1 0 0
-4.309773 -5.422333 6.553224 9.535229 0.899223 0.813080 0.002215 -0.002337 181255.000000 1 0 0
-6.248073 5.336867 -11.972376 14.520962 -0.706905 2.540095 -0.004589 -0.002320 -511983.000000 1 0 0
-13.101773 3.117467 7.972024 15.650183 -0.233599 1.036322 0.007245 -0.009498 840963.000000 1 0 0
4.704727 -7.535733 -4.899876 10.145467 -1.012684 2.074831 0.000438 -0.005381 272135.000000 1 0 0
-5.988373 2.395667 -0.964776 6.521551 -0.380552 1.719278 0.006815 -0.002919 -496152.000000 1 0 0
-6.847773 -2.793233 -14.539076 16.311924 0.387301 2.671035 0.021287 -0.010099 -659054.000000 1 0 0
2.746127 -6.108033 0.918324 6.759630 -1.148281 1.434521 0.005378 -0.001749 118342.000000 1 0 0
4.814927 -7.884733 12.954924 15.911712 -1.022572 0.619489 0.004510 -0.002336 -123215.000000 1 0 0
-10.016273 -1.629533 8.033224 12.942712 0.161276 0.901192 0.002619 -0.000300 -165675.000000 1 0 0
-4.448073 13.280967 -0.145476 14.006806 -1.247618 1.581183 -0.000882 -0.001700 609477.000000 1 0 0
6.873827 2.152267 -4.462276 8.473114 0.303441 2.125439 0.006117 0.003387 -1433100.000000 1 0 0
5.040027 4.502867 0.019824 6.758556 0.729169 1.567863 0.004503 0.000949 -963711.000000 1 0 0
-5.834973 12.266667 1.920124 13.718779 -1.126796 1.430372 0.001944 -0.003043 -704597.000000 1 0 0
6.545627 -7.209633 6.512524 11.714820 -0.833634 0.981325 0.007818 -0.005112 -1909050.000000 1 0 0
-0.326773 4.961067 7.614724 9.094118 -1.505024 0.578426 0.000794 -0.000234 -876532.000000 1 0 0
-5.794973 -3.477133 -1.593676 6.943484 0.540438 1.802382 0.010203 -0.004931 -1597260.000000 1 0 0
2.385927 -6.543533 -5.138776 8.655489 -1.221154 2.206447 0.002787 -0.004412 -908774.000000 1 0 0
-14.473373 -4.898233 -3.821776 15.750466 0.326331 1.815888 0.017587 -0.005491 460474.000000 1 0 0
-12.383073 -5.138233 -6.314476 14.819398 0.393319 2.010969 0.017502 -0.009515 -1123660.000000 1 0 0
-14.734673 -3.743533 -1.399076 15.267025 0.248799 1.662565 0.006718 -0.003381 520802.000000 1 0 0
12.003427 2.913367 8.712624 15.115548 0.238107 0.956478 0.014733 -0.003003 -1178460.000000 1 0 0
8.687827 -6.438333 7.706624 13.278649 -0.637765 0.951605 0.016129 -0.008161 61060.900000 1 0 0
-8.820673 -1.769433 -9.869876 13.354760 0.197973 2.402460 0.013345 -0.009758 -16985.900000 1 0 0
-8.745173 5.110467 -3.900576 10.854005 -0.528852 1.938386 0.004937 -0.002798 -19739.900000 1 0 0
-4.077773 -6.259433 4.060624 8.502788 0.993395 1.072916 0.009377 -0.001094 -1310800.000000 1 0 0
-0.150073 -9.349233 3.580924 10.012677 1.554746 1.205058 0.005924 -0.002533 2095990.000000 1 0 0
7.901127 -10.524333 3.365424 13.583647 -0.926816 1.320433 0.011229 -0.005992 456351.000000 1 0 0
-0.015873 6.480967 9.633424 11.610601 -1.568347 0.592210 0.004487 -0.002626 -60107.800000 1 0 0
-0.006273 3.503967 -9.744676 10.355507 -1.569006 2.796411 0.012343 -0.005986 -749635.000000 1 0 0
4.419727 -3.100933 10.983524 12.238773 -0.611807 0.456872 0.008850 -0.005155 -1215470.000000 1 0 0
8.558127 -9.169133 1.402024 12.620626 -0.819852 1.459477 0.012703 -0.006522 -516898.000000 1 0 0
-0.330673 -0.303633 11.236524 11.245489 0.742794 0.039931 0.006690 -0.002129 -1085190.000000 1 0 0
10.943427 6.118767 11.376224 16.929748 0.509824 0.833935 0.018122 -0.002656 100308.000000 1 0 0
-6.335973 -2.949033 -11.858976 13.765052 0.435622 2.609068 0.012655 -0.008617 -239878.000000 1 0 0
-1.591373 2.896367 8.520524 9.138968 -1.068385 0.369996 0.004850 -0.005054 -413183.000000 1 0 0
-1.645273 13.436367 -6.799076 15.148278 -1.448954 2.036257 0.010159 -0.004297 -64721.500000 1 0 0
7.679327 3.096067 9.707024 12.758684 0.383235 0.706225 0.001972 0.001392 358501.000000 1 0 0
6.518027 8.455667 -7.972476 13.324539 0.914086 2.212212 0.003854 -0.003308 1449310.000000 1 0 0
6.732327 -3.065633 -3.821076 8.326041 -0.427302 2.047588 0.006558 -0.001761 -2352110.000000 1 0 0
2.084927 8.391567 1.021524 8.706827 1.327272 1.453201 0.002715 0.002087 604483.000000 1 0 0
-17.626773 6.249367 6.360124 19.753706 -0.340712 1.242986 0.035682 -0.014344 591464.000000 1 0 0
-14.851273 2.845667 -10.252676 18.269524 -0.189316 2.166619 0.049045 -0.009775 -152365.000000 1 0 0
-18.436173 0.133967 -4.363176 18.945916 -0.007266 1.803179 0.065914 -0.012086 240076.000000 1 0 0
-12.996173 7.887067 0.105924 15.202551 -0.545460 1.563829 0.008780 -0.000172 -149590.000000 1 0 0
-12.808673 -4.296933 -12.967476 18.726483 0.323673 2.335700 0.044497 -0.004970 -846480.000000 1 0 0
-17.386973 -0.629933 -8.716176 19.459583 0.036214 2.035225 0.040840 -0.014959 -43798.700000 1 0 0
-16.732373 -2.190433 -2.131476 17.009218 0.130170 1.696440 0.043395 -0.007073 -735556.000000 1 0 0
-15.383373 4.166267 1.793424 16.038152 -0.264485 1.458740 0.014763 -0.000201 -410088.000000 1 0 0
-13.267273 6.076467 4.282624 15.208052 -0.429490 1.285333 0.002588 -0.003463 450823.000000 1 0 0
-10.031873 14.141967 2.776324 17.559661 -0.953810 1.412022 0.025070 -0.010280 222997.000000 1 0 0
-11.910573 2.358267 -6.485076 13.765151 -0.195470 2.061360 0.011676 0.003014 714013.000000 1 0 0
-15.941773 10.602267 3.851924 19.529094 -0.586891 1.372254 0.023482 -0.013670 -282837.000000 1 0 0
-12.883173 1.148067 -8.674476 15.573720 -0.088879 2.161559 0.022137 -0.004689 463631.000000 1 0 0
-12.320673 14.243967 4.101424 19.274627 -0.857673 1.356368 0.041849 -0.019160 575152.000000 1 0 0
-10.379473 11.174067 -1.034576 15.286058 -0.822248 1.638529 0.011309 -0.005320 -307193.000000 1 0 0
-17.199073 5.663567 8.855524 20.156994 -0.318112 1.115946 0.036660 -0.021668 128568.000000 1 0 0
-11.784573 12.293567 -9.216476 19.363661 -0.806534 2.066860 0.031511 -0.023047 -883182.000000 1 0 0
-17.282173 -0.417633 3.121324 17.566747 0.024161 1.392164 0.046104 -0.005574 901220.000000 1 0 0
-13.078673 14.866467 -0.631776 19.810671 -0.849286 1.602692 0.055963 -0.014372 52866.200000 1 0 0
-16.681673 4.720967 -10.410776 20.222512 -0.275791 2.111584 0.076469 -0.011313 330391.000000 1 0 0
-11.869873 7.505867 -8.967476 16.662759 -0.563864 2.139066 0.018522 -0.004004 270586.000000 1 0 0
-14.778373 13.395167 -2.071276 20.052955 -0.736342 1.674271 0.060001 -0.017240 618633.000000 1 0 0
-11.837673 10.508367 -5.453476 16.742063 -0.725981 1.902585 0.031585 -0.010365 342407.000000 1 0 0
-17.775373 2.844467 -0.843976 18.021298 -0.158678 1.617646 0.052064 -0.003901 -617279.000000 1 0 0
-9.446873 15.373967 0.644724 18.055967 -1.019804 1.535082 0.034754 -0.012263 197133.000000 1 0 0
-8.045873 13.140667 -3.648776 15.834354 -1.021390 1.803320 0.010637 -0.005973 -949522.000000 1 0 0
-17.787773 11.646467 2.339324 21.389659 -0.579704 1.461210 0.090726 -0.006473 -697086.000000 1 0 0
-8.047973 15.440767 -7.355276 18.902043 -1.090320 1.970479 0.052198 -0.029311 -395101.000000 1 0 0
-6.208673 15.162867 -5.331576 17.230376 -1.182157 1.885389 0.016273 -0.009321 1273320.000000 1 0 0
-17.431573 5.278367 0.012924 18.213211 -0.294028 1.570087 0.051379 0.000987 647866.000000 1 0 0
-5.349473 12.193567 -12.126476 18.009757 -1.157368 2.309497 0.003000 -0.015750 -367700.000000 1 0 0
-11.155773 3.602467 -11.483076 16.410060 -0.312353 2.345855 0.018232 -0.009468 -54624.700000 1 0 0
-11.865673 11.025167 1.148024 16.237810 -0.748697 1.500037 0.015166 -0.007586 253412.000000 1 0 0
-12.918373 0.034267 -11.090176 17.025790 -0.002653 2.280192 0.022993 -0.013686 916825.000000 1 0 0
-14.293773 -2.163933 -13.046676 19.473323 0.150249 2.304974 0.050348 -0.013259 164242.000000 1 0 0
-18.872973 -2.276633 -3.622076 19.351786 0.120049 1.759077 0.062703 -0.011024 2693740.000000 1 0 0
-18.305973 4.856567 -5.063176 19.604353 -0.259326 1.832025 0.059027 -0.010368 -140267.000000 1 0 0
-8.125973 15.479667 -2.276476 17.630481 -1.087392 1.700279 0.028859 -0.008735 -712256.000000 1 0 0
-16.025773 9.155667 -5.340376 19.213830 -0.519056 1.852450 0.046934 -0.005308 46356.800000 1 0 0
-18.456273 1.547867 2.066924 18.636043 -0.083671 1.459658 0.072473 -0.009053 483676.000000 1 0 0
-15.724273 -2.723433 -8.611576 18.133645 0.171498 2.065641 0.031684 -0.010136 235593.000000 1 0 0
-9.767373 10.446667 -7.105276 15.969326 -0.818991 2.031895 0.016875 -0.012747 593078.000000 1 0 0
-14.061973 11.842767 -7.871576 19.998798 -0.699939 1.975343 0.057425 -0.020793 602220.000000 1 0 0
-11.016273 6.459967 -3.833976 13.333747 -0.530361 1.862453 0.006337 -0.000977 748053.000000 1 0 0
-13.227473 4.816067 -12.549576 18.858749 -0.349177 2.298894 0.057311 -0.019436 2156280.000000 1 0 0
-17.628173 9.019267 2.661424 19.979561 -0.472916 1.437192 0.043448 -0.015266 762291.000000 1 0 0
-13.300073 8.567067 -6.543476 17.120270 -0.572242 1.962979 0.020364 -0.006266 -429408.000000 1 0 0
-15.792073 6.946867 -3.836876 17.673996 -0.414420 1.789630 0.026906 0.002591 -774440.000000 1 0 0
-14.904473 -0.364833 -9.449576 17.651371 0.024473 2.135713 0.031188 -0.010335 -361908.000000 1 0 0
-9.922873 5.824667 -6.071076 13.009540 -0.530801 2.056311 0.008519 0.000746 694409.000000 1 0 0
-12.719273 12.236867 -0.945776 17.675274 -0.766070 1.624330 0.031739 -0.009784 282798.000000 1 0 0
-10.731373 3.376467 -13.995676 17.956666 -0.304829 2.464526 0.020672 -0.011096 559169.000000 1 0 0
-10.945673 6.158467 -11.921176 17.316146 -0.512495 2.330136 0.013669 -0.007652 -2268.820000 1 0 0
-5.824673 11.635067 -14.684976 19.620146 -1.106658 2.416539 0.008485 -0.013809 -230333.000000 1 0 0
-15.690973 13.224367 3.525724 20.821173 -0.700300 1.400643 0.042616 -0.023128 364507.000000 1 0 0
-15.012373 10.966967 -3.119976 18.851524 -0.630922 1.737064 0.051072 -0.008352 1161530.000000 1 0 0
-18.086073 7.766867 -4.690176 20.234328 -0.405625 1.804717 0.045898 -0.007404 -185240.000000 1 0 0
-4.002573 16.263367 -10.758876 19.906559 -1.329482 2.141791 0.041108 -0.009474 -93336.100000 1 0 0
-15.791673 4.375567 -4.390576 16.964660 -0.270300 1.832583 0.029375 0.000650 508018.000000 1 0 0
-18.732673 -1.666933 -6.167176 19.792063 0.088752 1.887671 0.052507 -0.011483 644061.000000 1 0 0
-10.716373 8.527167 -5.753976 14.854678 -0.672122 1.968553 0.010250 -0.000993 -35532.400000 1 0 0
-11.369373 13.355167 -6.888976 18.843596 -0.865543 1.945060 0.038953 -0.015787 456308.000000 1 0 0
-9.427573 10.498067 -4.466076 14.799810 -0.839071 1.877341 0.001442 -0.003844 -1171760.000000 1 0 0
-11.094473 6.204867 -0.245376 12.714083 -0.509937 1.590097 0.002595 0.000315 -1697430.000000 1 0 0
-14.693173 9.299067 -1.322376 17.438769 -0.564248 1.646699 0.039628 -0.004047 -340217.000000 1 0 0
-18.609473 3.428767 4.803924 19.522977 -0.182205 1.322178 0.046318 -0.015120 480063.000000 1 0 0
-14.646673 13.296667 0.536224 19.789238 -0.737123 1.543696 0.034259 -0.006719 -92529.200000 1 0 0
-17.069573 2.537567 -8.958076 19.443680 -0.147579 2.049602 0.059905 -0.015369 -13530.900000 1 0 0
-9.113873 8.367767 -8.699776 15.125089 -0.742745 2.183631 0.007076 -0.002601 -1251180.000000 1 0 0
-17.761273 4.756767 -2.573776 18.566475 -0.261676 1.709869 0.045518 0.002953 1157970.000000 1 0 0
-13.572973 5.740567 -4.373876 15.372394 -0.400125 1.859310 0.016789 0.002505 -1014110.000000 1 0 0
-12.178573 9.592667 3.280424 15.846075 -0.667176 1.362270 0.003985 -0.005772 1069750.000000 1 0 0
-17.564873 2.575567 -4.046876 18.208117 -0.145594 1.794925 0.038895 -0.004474 1071430.000000 1 0 0
-11.273573 1.312667 -12.754676 17.073321 -0.115916 2.414414 0.025649 -0.006643 -465743.000000 1 0 0
-11.123573 11.995167 3.437524 16.716294 -0.823081 1.363680 0.013219 -0.010771 624334.000000 1 0 0
-16.424073 12.895667 -4.130076 21.286285 -0.665632 1.766060 0.075088 -0.018048 641527.000000 1 0 0
-11.148673 4.107667 -4.704676 12.778882 -0.353011 1.947826 0.003602 0.000835 127527.000000 1 0 0
-11.529073 14.838367 -9.038576 20.851679 -0.910252 2.019136 0.059401 -0.018360 578629.000000 1 0 0
-15.508373 7.132867 -0.175776 17.070979 -0.431086 1.581093 0.029688 0.002062 -517846.000000 1 0 0
-12.723973 8.308767 -4.089676 15.737235 -0.578482 1.833687 0.018136 -0.000915 693577.000000 1 0 0
-19.352473 2.015467 -5.921476 20.338245 -0.103771 1.866225 0.085914 -0.013477 774988.000000 1 0 0
-12.623673 9.974967 -9.028376 18.449083 -0.668724 2.082160 0.033045 -0.015467 949217.000000 1 0 0
-16.649873 10.987867 -0.996676 19.973604 -0.583329 1.620717 0.051430 -0.008522 220606.000000 1 0 0
-10.726573 6.415867 -14.514876 19.154747 -0.539042 2.430684 0.025210 -0.017527 -230423.000000 1 0 0
-13.794873 12.730267 -4.458276 19.293378 -0.745284 1.803982 0.053067 -0.016336 754572.000000 1 0 0
-18.103473 7.756167 -0.061576 19.695118 -0.404777 1.573923 0.073446 -0.005676 580378.000000 1 0 0
-12.758873 6.634367 -2.137976 14.538728 -0.479504 1.718385 0.006323 0.004188 643085.000000 1 0 0
-13.793373 8.418867 -10.710976 19.387095 -0.547999 2.156133 0.039341 -0.010672 -226775.000000 1 0 0
-15.174273 1.409367 -0.929376 15.267895 -0.092613 1.631705 0.016090 0.001910 -727493.000000 1 0 0
-13.455273 2.827467 -2.343276 13.947397 -0.207125 1.739605 0.008052 0.003508 807163.000000 1 0 0
-11.189173 9.057467 -10.875076 18.041690 -0.680498 2.217770 0.022924 -0.013898 -90264.100000 1 0 0
-15.346373 4.339567 -8.175176 17.921398 -0.275580 2.044481 0.033426 -0.006634 548283.000000 1 0 0
-18.353373 10.368067 4.686024 21.594026 -0.514221 1.352050 0.087604 -0.033151 83338.400000 1 0 0
-15.395873 6.093567 -6.311876 17.720165 -0.376874 1.934991 0.036195 0.000720 509807.000000 1 0 0
-7.677173 11.319667 -12.909076 18.807395 -0.974841 2.327300 -0.005757 -0.006798 -1557720.000000 1 0 0
-16.783973 9.092267 -2.788276 19.291075 -0.496466 1.715841 0.050016 -0.007165 125402.000000 1 0 0
-20.802373 -0.886833 -4.637776 21.331530 0.042606 1.789961 0.095440 -0.021539 417692.000000 1 0 0
-15.495673 4.474067 4.175824 16.660452 -0.281086 1.317452 0.016236 -0.005875 750223.000000 1 0 0
-6.938073 12.604867 -9.478776 17.229821 -1.067624 2.153326 0.010458 -0.012690 -2176290.000000 1 0 0
-17.012473 1.582267 5.845324 18.058118 -0.092740 1.241164 0.026600 -0.015717 756250.000000 1 0 0
-10.304773 14.322867 -3.111976 17.916955 -0.947127 1.745371 0.044026 -0.016375 1134460.000000 1 0 0
-9.931673 8.356567 -12.962676 18.343972 -0.699483 2.355542 -0.001531 -0.008563 -31117.200000 1 0 0
-13.713073 11.626367 2.842424 18.201653 -0.703233 1.413992 0.026030 -0.013018 -320961.000000 1 0 0
-16.757673 6.702567 1.998224 18.158659 -0.380481 1.460531 0.024637 -0.001597 975849.000000 1 0 0
-9.389673 13.322167 -8.492176 18.378334 -0.956846 2.051130 0.031345 -0.019214 -21398.600000 1 0 0
-5.532973 9.767667 -12.932076 17.124827 -1.055405 2.426703 -0.002344 -0.004668 -507653.000000 1 0 0
-16.094573 1.950767 3.130424 16.511824 -0.120618 1.380055 0.017815 -0.004112 -652324.000000 1 0 0
-18.781273 -4.849433 4.705924 19.959933 0.252687 1.332787 0.063280 -0.013403 1154610.000000 1 0 0
-5.285573 14.496067 -9.156376 17.941919 -1.221156 2.106370 0.015538 -0.009154 756766.000000 1 0 0
-15.597573 -0.905433 -6.867276 17.066446 0.057985 1.984917 0.030423 -0.005094 743365.000000 1 0 0
-8.929973 10.919367 -9.530176 17.023550 -0.885289 2.164969 0.006645 -0.014437 367630.000000 1 0 0
-16.829073 1.270767 -6.080876 17.939052 -0.075367 1.916623 0.027209 -0.004724 -889184.000000 1 0 0
-11.050073 8.583667 -1.542976 14.077082 -0.660432 1.680626 0.010037 -0.003931 -324475.000000 1 0 0
-10.588073 10.878067 -12.603776 19.730555 -0.798907 2.263727 0.021103 -0.017140 -521728.000000 1 0 0
-13.977373 11.631767 -10.438576 20.967328 -0.694060 2.091914 0.066282 -0.026434 -81809.100000 1 0 0
-13.205573 5.695067 -7.645476 16.287242 -0.407163 2.059424 0.023974 0.000704 -829316.000000 1 0 0
-8.793573 15.298267 -4.867876 18.304647 -1.049106 1.839972 0.031379 -0.016981 401221.000000 1 0 0
-8.574873 6.077067 -12.981476 16.702632 -0.616545 2.461018 -0.000589 -0.005252 833662.000000 1 0 0
-16.493073 7.558267 4.415124 18.671962 -0.429709 1.332078 0.035026 -0.002815 -269207.000000 1 0 0
-12.654773 5.290967 -10.145176 17.060545 -0.396012 2.207636 0.028724 -0.005894 537742.000000 1 0 0
-12.436573 9.040667 -13.219076 20.276735 -0.628580 2.280927 0.049308 -0.022227 -408872.000000 1 0 0
-10.763173 5.184667 -8.396776 14.602483 -0.448904 2.183430 0.009317 0.000334 -2065560.000000 1 0 0
-17.878073 -4.483333 -2.692776 18.627314 0.245706 1.715865 0.054278 -0.010393 890288.000000 1 0 0
-8.922573 13.078567 -10.991376 19.273598 -0.972097 2.177645 0.030835 -0.015857 -46368.900000 1 0 0
-15.086973 6.137867 6.141024 17.406963 -0.386382 1.210244 0.013407 -0.011537 -432876.000000 1 0 0
-16.435173 -3.155033 -4.481276 17.324866 0.189661 1.832433 0.032907 -0.005057 -698583.000000 1 0 0
-11.208973 -1.257433 -12.665476 16.959850 0.111714 2.414021 0.026497 -0.006700 373215.000000 1 0 0
-15.309173 6.839367 -8.769376 18.922201 -0.420148 2.052674 0.037322 -0.001513 -220111.000000 1 0 0
-14.740673 9.337467 1.199924 17.490442 -0.564652 1.502138 0.027410 -0.008956 -74534.400000 1 0 0
-19.484273 5.212767 7.849924 21.643270 -0.261415 1.199637 0.072245 -0.031442 -614304.000000 1 0 0
-16.439973 0.372567 0.946324 16.471401 -0.022658 1.513312 0.035743 -0.002739 -31531.600000 1 0 0
-17.340173 3.776067 7.030424 19.088404 -0.214417 1.193607 0.018711 -0.015525 1030840.000000 1 0 0
-15.524173 4.063467 -1.388876 16.107163 -0.256007 1.657131 0.022271 0.000419 -575209.000000 1 0 0
-10.813173 13.266167 0.450124 17.120704 -0.886919 1.544502 0.027538 -0.013509 -1298350.000000 1 0 0
-13.594273 3.330567 0.091124 13.996615 -0.240265 1.564286 0.008383 0.001674 456410.000000 1 0 0
-15.129573 0.223767 -4.395076 15.756610 -0.014789 1.853482 0.015846 -0.001226 -8208.040000 1 0 0
-18.845173 6.760367 3.561624 20.335395 -0.344433 1.394744 0.046170 -0.010603 162099.000000 1 0 0
-14.284473 1.268267 -6.500876 15.745350 -0.088554 1.996406 0.020529 -0.001914 -712617.000000 1 0 0
-14.318873 11.963667 5.356424 19.412644 -0.696026 1.291245 0.016968 -0.020230 258961.000000 1 0 0
17.761027 5.541867 5.979224 19.542709 0.302451 1.259853 0.049518 -0.020995 -497245.000000 1 0 0
18.381227 7.655667 -0.242476 19.913250 0.394644 1.582973 0.037551 -0.014392 287250.000000 1 0 0
16.711727 5.071467 8.296124 19.334613 0.294635 1.127321 0.065267 -0.017228 326264.000000 1 0 0
11.668927 12.400367 10.924824 20.230787 0.815778 1.000348 0.025734 -0.008941 393464.000000 1 0 0
-2.155173 16.267067 -0.525376 16.417620 -1.439077 1.602803 -0.003960 -0.003964 333557.000000 1 0 0
15.273827 12.696067 3.342024 20.140731 0.693496 1.404092 0.036400 -0.009177 139624.000000 1 0 0
13.594327 11.704467 6.693124 19.146754 0.710835 1.213685 0.030864 -0.007296 633073.000000 1 0 0
-0.603073 15.853767 8.440224 17.970615 -1.532775 1.081882 0.011666 -0.001110 -140670.000000 1 0 0
0.764627 12.970367 9.315124 15.987076 1.511913 0.948791 0.011462 0.000168 -1228430.000000 1 0 0
0.796227 15.596567 -3.883776 16.092563 1.519789 1.814543 0.001428 -0.000288 -20559.900000 1 0 0
5.612727 10.333367 13.671624 18.033150 1.073216 0.710343 0.027371 -0.009308 494898.000000 1 0 0
-1.294573 16.514267 -2.838376 16.806347 -1.492565 1.740497 0.000001 0.000601 -1537360.000000 1 0 0
8.633727 10.071667 3.200124 13.646264 0.862120 1.334086 0.012653 -0.003287 102619.000000 1 0 0
12.769227 13.351167 -4.808476 19.090004 0.807674 1.825423 0.074624 -0.032201 323591.000000 1 0 0
2.517127 11.626767 7.763724 14.205388 1.357592 0.992577 0.012161 0.000564 883983.000000 1 0 0
-0.313073 14.879567 -8.571376 17.174633 -1.549759 2.093324 0.018095 -0.008552 -1494970.000000 1 0 0
2.450627 15.916767 0.231324 16.105979 1.418031 1.556433 0.007840 -0.008614 -513488.000000 1 0 0
1.938327 13.328567 5.247124 14.454761 1.426382 1.199307 0.006601 -0.000026 -413034.000000 1 0 0
17.415927 9.286567 -1.975576 19.835769 0.489871 1.670558 0.026779 -0.010561 97896.200000 1 0 0
-7.165073 15.032667 7.286724 18.177340 -1.126016 1.158332 0.018019 -0.009285 -1085320.000000 1 0 0
8.606527 16.039467 -0.220276 18.203992 1.078311 1.582897 0.026538 -0.010509 -50787.200000 1 0 0
15.818227 10.507067 2.077024 19.103109 0.586319 1.461854 0.027325 -0.002476 59855.400000 1 0 0
14.337527 7.462567 8.616624 18.316681 0.479906 1.081024 0.035950 -0.012901 -996708.000000 1 0 0
4.185627 18.728767 -1.936376 19.288228 1.350923 1.671357 0.022920 -0.012724 -1121540.000000 1 0 0
-0.576273 17.579667 -4.921776 18.264738 -1.538027 1.843638 0.011935 0.000835 417141.000000 1 0 0
1.441327 13.632267 -0.672376 13.724730 1.465459 1.619806 0.004414 -0.005327 -645928.000000 1 0 0
10.502027 14.874967 4.036324 18.650714 0.956041 1.352654 0.031725 -0.008412 656066.000000 1 0 0
-1.647073 15.301067 -5.095576 16.211120 -1.463565 1.890543 0.005526 -0.004210 435638.000000 1 0 0
15.088027 8.625667 -6.335676 18.498418 0.519343 1.920371 0.050429 -0.016254 117365.000000 1 0 0
-2.290673 18.458167 0.832224 18.618370 -1.447327 1.526082 0.003887 -0.006529 112867.000000 1 0 0
-3.741973 19.342667 3.404724 19.993331 -1.379700 1.399669 0.018634 -0.013745 484071.000000 1 0 0
1.842627 17.687867 -2.642376 17.978823 1.466996 1.718302 -0.001743 -0.006539 -13292.300000 1 0 0
2.927527 12.189067 3.208624 12.939824 1.335085 1.320217 0.006192 -0.002244 356357.000000 1 0 0
-2.432473 16.065967 1.880624 16.357536 -1.420532 1.455572 0.002996 -0.009457 -1340690.000000 1 0 0
11.841427 12.630067 -2.617276 17.509658 0.817614 1.720835 0.028049 -0.012194 246625.000000 1 0 0
7.309027 11.705467 4.638224 14.558604 1.012620 1.246555 0.010951 -0.001756 -195828.000000 1 0 0
7.215027 15.897167 1.970124 17.568663 1.144740 1.458421 0.021924 -0.010141 -2134790.000000 1 0 0
5.440627 12.146467 10.185124 16.759291 1.149675 0.917597 0.015309 -0.001361 1403240.000000 1 0 0
-1.296173 14.111667 3.188624 14.525376 -1.479202 1.349473 0.004614 -0.005772 -895542.000000 1 0 0
4.762227 16.147067 1.532424 16.904287 1.283999 1.480019 0.015039 -0.014407 -2558620.000000 1 0 0
7.362927 13.217367 11.770824 19.169345 1.062545 0.909622 0.027886 -0.007275 226574.000000 1 0 0
0.914727 16.992467 -9.383476 19.432712 1.517017 2.074726 0.029961 -0.010964 89170.300000 1 0 0
9.981527 9.706667 15.235724 20.639224 0.771438 0.740409 0.031802 -0.016067 -175937.000000 1 0 0
13.432727 7.511267 -0.211076 15.391616 0.509861 1.584510 -0.000535 -0.002660 -108130.000000 1 0 0
12.516027 13.570067 -0.244476 18.462324 0.825782 1.584039 0.032482 -0.011995 389308.000000 1 0 0
9.430727 12.534167 3.340424 16.037531 0.925760 1.360972 0.016871 0.001612 66105.200000 1 0 0
-0.550373 12.934667 0.757024 12.968485 -1.528272 1.512389 0.006374 -0.006022 59246.800000 1 0 0
15.916227 7.317367 -0.920976 17.541902 0.430926 1.623322 0.021265 -0.007284 -1607590.000000 1 0 0
-3.953773 18.476767 -2.467476 19.055489 -1.359989 1.700650 0.012927 -0.001685 -139735.000000 1 0 0
11.578527 9.110167 -3.287476 15.095195 0.666650 1.790339 0.015835 -0.006648 71662.600000 1 0 0
14.865627 9.769167 7.848924 19.442970 0.581396 1.155250 0.037168 -0.011584 1196920.000000 1 0 0
4.571227 13.535467 4.568124 14.999091 1.245101 1.261320 0.013054 -0.004113 40687.800000 1 0 0
2.286927 15.857567 5.587424 16.967963 1.427567 1.235242 0.009943 -0.001877 309902.000000 1 0 0
6.197527 18.276067 5.581624 20.089263 1.243859 1.289250 0.036284 -0.021755 -674769.000000 1 0 0
10.868727 17.081867 -1.221076 20.283255 1.004132 1.631034 0.052377 -0.021942 -711257.000000 1 0 0
10.109627 13.469167 -4.376776 17.400551 0.926927 1.825058 0.046296 -0.016165 -245053.000000 1 0 0
16.552627 7.943767 2.235524 18.495688 0.447447 1.449633 0.005602 -0.009038 -63510.100000 1 0 0
4.040627 13.989067 -0.453776 14.567998 1.289608 1.601950 0.008051 -0.007087 -248027.000000 1 0 0
5.714727 13.228967 -2.331276 14.597894 1.163023 1.731183 0.007865 -0.002342 -90233.000000 1 0 0
-6.077073 17.000567 -2.958076 18.294816 -1.227489 1.733199 0.023367 -0.004183 -1423800.000000 1 0 0
18.265627 9.780067 2.553624 20.875915 0.491593 1.448165 0.043687 -0.015395 -77070.600000 1 0 0
7.895527 12.906367 9.281824 17.750096 1.021779 1.020527 0.023355 -0.003426 1014500.000000 1 0 0
-2.531473 15.775667 6.619324 17.294377 -1.411686 1.178031 0.009634 -0.001524 -1143290.000000 1 0 0
11.497427 16.060067 6.110324 20.674928 0.949478 1.270773 0.035584 -0.011012 404092.000000 1 0 0
13.701527 11.965967 1.322624 18.239121 0.717884 1.498217 0.025698 -0.006943 244201.000000 1 0 0
17.519127 7.849267 -5.657176 20.013357 0.421223 1.857373 0.050204 0.002630 101347.000000 1 0 0
9.542227 9.299467 8.018124 15.550707 0.772515 1.029075 0.012254 -0.001710 -860500.000000 1 0 0
-2.002773 14.184267 -1.879376 14.447719 -1.430527 1.701247 -0.002067 -0.002206 687435.000000 1 0 0
11.106827 11.627267 0.658924 16.093139 0.808287 1.529840 0.013086 0.000913 84826.100000 1 0 0
11.834327 9.721067 -0.644576 15.328598 0.687672 1.612859 0.009700 -0.001408 -547590.000000 1 0 0
-0.263873 16.172767 11.024524 19.574681 -1.554482 0.972539 0.021770 -0.005471 -673835.000000 1 0 0
2.094027 20.087467 -1.651676 20.263744 1.466926 1.652396 0.017016 -0.020193 -811076.000000 1 0 0
9.384427 14.524167 1.682824 17.373854 0.997150 1.473785 0.025189 -0.005886 -43981.900000 1 0 0
8.543827 11.609967 -5.208376 15.326953 0.936378 1.917520 0.017054 -0.009130 -1317550.000000 1 0 0
10.571927 10.157667 10.172024 17.844156 0.765417 0.964232 0.011002 -0.003681 -32958.900000 1 0 0
-5.014373 15.840767 5.796024 17.597379 -1.264227 1.235162 0.001565 -0.002998 1113180.000000 1 0 0
14.433527 9.150567 -1.918876 17.197141 0.565031 1.682610 0.030227 -0.006628 -1025120.000000 1 0 0
12.296127 9.464667 6.943424 16.999582 0.656008 1.150045 0.013981 -0.006862 -1275470.000000 1 0 0
3.171727 13.005867 9.794224 16.587322 1.331596 0.939162 0.014107 -0.002572 -1012600.000000 1 0 0
8.554727 12.522367 -2.654676 15.396114 0.971465 1.744087 0.016835 -0.006405 -816495.000000 1 0 0
9.489727 17.085267 2.045024 19.650532 1.063791 1.466538 0.028205 -0.012187 -160261.000000 1 0 0
9.570427 14.169167 -7.460376 18.655176 0.976744 1.982214 0.061031 -0.025654 501283.000000 1 0 0
6.528227 11.490867 7.201624 15.050620 1.054146 1.071858 0.010833 0.002071 -1141630.000000 1 0 0
5.512527 16.875167 -5.550576 18.600218 1.255059 1.873827 0.030801 -0.005988 -1124480.000000 1 0 0
-3.982273 17.179767 -4.675176 18.244456 -1.343019 1.829939 0.014621 -0.003530 14710.000000 1 0 0
-0.102573 18.544967 -0.583876 18.554440 -1.565265 1.602270 0.000894 -0.007083 -706597.000000 1 0 0
6.579427 15.725867 -2.773676 17.270930 1.174544 1.732093 0.017161 -0.003202 123131.000000 1 0 0
-0.800773 20.622667 0.864024 20.656286 -1.531986 1.528955 0.012570 -0.015965 -40015.400000 1 0 0
-1.284673 18.812367 4.222724 19.323223 -1.502613 1.350487 0.009692 -0.008866 -1394630.000000 1 0 0
7.321327 13.778567 -4.348676 16.197584 1.082380 1.842608 0.019421 -0.002067 157072.000000 1 0 0
-0.978473 12.008267 7.594624 14.241987 -1.489493 1.008352 0.006084 0.003311 694135.000000 1 0 0
7.749527 10.915367 10.849324 17.231025 0.953414 0.889708 0.015742 -0.003349 453143.000000 1 0 0
1.517327 16.037867 -7.177176 17.635966 1.476468 1.989923 0.012917 -0.005966 -664625.000000 1 0 0
9.138727 7.272267 14.745924 18.810754 0.672152 0.669859 0.025256 -0.003973 135754.000000 1 0 0
11.341727 11.236967 -4.894076 16.698987 0.780758 1.868239 0.044328 -0.017035 -626173.000000 1 0 0
-3.268873 16.990467 4.340124 17.838110 -1.380724 1.325023 0.005037 -0.004878 -569173.000000 1 0 0
3.969727 15.271467 -6.752976 17.163307 1.316481 1.975182 0.020541 -0.007564 -186510.000000 1 0 0
-4.400873 14.068567 9.389724 17.477391 -1.267624 1.003623 0.018653 -0.008915 -972485.000000 1 0 0
6.296227 17.945167 0.537624 19.025260 1.233356 1.542534 0.022236 -0.015000 -670706.000000 1 0 0
9.843527 10.612267 -2.201076 14.641037 0.822961 1.721705 0.018735 -0.005928 -1129100.000000 1 0 0
7.494027 18.223267 -2.567276 19.870551 1.180643 1.700359 0.037262 -0.008296 -43277.800000 1 0 0
3.501027 10.404967 10.485724 15.181269 1.246220 0.808338 0.014596 -0.001719 819889.000000 1 0 0
0.145227 18.439567 1.953124 18.543285 1.562921 1.465273 0.005698 -0.013995 543930.000000 1 0 0
-0.827273 17.171767 -7.454176 18.738162 -1.522657 1.979922 0.025225 0.000323 -328203.000000 1 0 0
10.339927 8.663367 12.860424 18.637557 0.697401 0.809269 0.026449 -0.011727 -816810.000000 1 0 0
3.693027 11.303667 5.435424 13.074983 1.255018 1.142071 0.004377 -0.000851 660211.000000 1 0 0
13.173527 13.977667 7.945824 20.785887 0.815007 1.178545 0.036588 -0.022167 -249299.000000 1 0 0
-0.506873 17.395667 6.673824 18.638833 -1.541667 1.204607 0.013941 -0.002393 -571125.000000 1 0 0
12.427327 13.745367 5.475024 19.322253 0.835715 1.283507 0.030728 -0.011697 -198429.000000 1 0 0
4.985727 14.505967 -4.432676 15.966501 1.239743 1.852116 0.011307 -0.003244 -1233590.000000 1 0 0
3.861527 17.651467 4.645224 18.656468 1.355424 1.319162 0.019523 -0.009892 -713143.000000 1 0 0
7.219327 11.773067 1.997524 13.953992 1.020722 1.427152 0.014833 -0.002319 472299.000000 1 0 0
6.498327 8.830267 11.687424 16.024910 0.936371 0.753456 0.013399 -0.006194 445722.000000 1 0 0
-5.316873 14.824067 1.729924 15.843445 -1.226423 1.461390 0.009518 -0.002607 200049.000000 1 0 0
6.906827 13.780667 5.908124 16.508088 1.106192 1.204786 0.016609 -0.002575 -38559.700000 1 0 0
5.896527 15.854767 4.717924 17.561363 1.214739 1.298801 0.018274 -0.013308 775171.000000 1 0 0
1.315027 17.944467 4.288824 18.496681 1.497644 1.336797 0.015317 -0.010828 669749.000000 1 0 0
7.266427 17.995467 -6.953576 20.615286 1.187025 1.914846 0.035557 -0.013377 351783.000000 1 0 0
-2.450073 18.743867 -6.183876 19.889086 -1.440820 1.886955 0.027074 0.005518 -1743040.000000 1 0 0
13.577927 9.904167 -4.576476 17.418288 0.630207 1.836657 0.038735 -0.016442 -3153290.000000 1 0 0
-1.657273 17.987167 9.644024 20.476619 -1.478919 1.080398 0.026551 -0.011554 -340068.000000 1 0 0
3.524127 11.788967 -1.650176 12.414600 1.280318 1.704113 0.008639 -0.004501 76696.600000 1 0 0
4.411227 13.835267 -10.846276 18.124989 1.262147 2.212318 0.026537 -0.025420 -458206.000000 1 0 0
11.710127 13.505567 2.208524 18.011246 0.856481 1.447868 0.030932 -0.005867 950000.000000 1 0 0
16.014227 6.355467 -7.235376 18.686843 0.377800 1.968379 0.033708 -0.000523 382972.000000 1 0 0
2.655927 16.165967 2.867924 16.631820 1.407960 1.397494 0.011165 -0.009021 -120522.000000 1 0 0
13.669427 10.694067 3.521524 17.709247 0.663876 1.370610 0.020123 0.000850 -157570.000000 1 0 0
-4.909473 19.364867 -5.773776 20.795131 -1.322503 1.852144 0.025370 -0.008384 160350.000000 1 0 0
5.515127 11.976967 -0.025576 13.185788 1.139263 1.572736 0.009135 -0.003280 793122.000000 1 0 0
5.032327 15.221567 9.536524 18.653839 1.251503 1.034173 0.027957 -0.002010 -82668.500000 1 0 0
7.983427 9.364867 13.770624 18.467970 0.864860 0.729288 0.030219 -0.017014 -340530.000000 1 0 0
-5.018073 13.680867 6.975924 16.155826 -1.219238 1.124320 0.006988 -0.001419 -2149290.000000 1 0 0
-4.467473 17.110167 0.635224 17.695187 -1.315398 1.534890 0.015945 -0.005262 -1661860.000000 1 0 0
-0.560973 16.486467 3.532824 16.870066 -1.536783 1.359821 0.005003 -0.005726 -1482660.000000 1 0 0
7.947127 16.934267 -4.795476 19.311210 1.132015 1.821748 0.033838 -0.010111 79377.800000 1 0 0
3.210527 16.413367 -4.517776 17.323868 1.377631 1.834630 0.007121 -0.005401 56678.200000 1 0 0
9.501327 14.392867 8.113024 19.059145 0.987325 1.131087 0.018332 -0.009937 29020.400000 1 0 0
12.842727 10.892367 9.110024 19.146066 0.703410 1.074904 0.024984 -0.014294 429677.000000 1 0 0
3.811927 12.474667 12.261324 17.902183 1.274234 0.816321 0.028269 -0.003932 423446.000000 1 0 0
-3.162473 19.087767 5.931524 20.236775 -1.406607 1.273322 0.026362 -0.015679 127970.000000 1 0 0
-2.551973 15.679167 10.227524 18.893149 -1.409449 0.998772 0.017768 -0.011548 -631408.000000 1 0 0
2.089127 14.268967 7.624724 16.312703 1.425419 1.084437 0.014416 0.000182 7853.890000 1 0 0
4.455527 17.040567 7.924224 19.313880 1.315056 1.148028 0.026717 -0.007709 14381.400000 1 0 0
-1.883273 13.433367 9.300124 16.446713 -1.431510 0.969793 0.011273 -0.004239 -853878.000000 1 0 0
5.990927 17.902467 3.087324 19.129064 1.247868 1.408693 0.020974 -0.015296 492346.000000 1 0 0
7.357527 15.374967 -6.839076 18.365614 1.124464 1.952374 0.023108 -0.006032 -627461.000000 1 0 0
11.096927 7.679967 9.395924 16.444059 0.605391 0.962601 0.010655 -0.002527 864035.000000 1 0 0
9.178727 16.236167 -2.816276 18.862491 1.056263 1.720662 0.039154 -0.017603 218080.000000 1 0 0
14.504027 11.209967 -6.634976 19.494950 0.657988 1.918078 0.082406 -0.025843 306645.000000 1 0 0
11.139727 6.407167 16.047424 20.558821 0.521957 0.675233 0.051124 -0.020151 283948.000000 1 0 0
8.538827 8.448767 10.178324 15.744571 0.780097 0.867854 0.010183 -0.003898 519184.000000 1 0 0
16.400027 9.445567 4.429424 19.437063 0.522547 1.340891 0.028393 -0.006969 -143727.000000 1 0 0
-3.452373 14.231367 4.596724 15.348634 -1.332805 1.266641 0.007624 -0.002697 -920608.000000 1 0 0
4.711527 14.957267 12.585724 20.107679 1.265636 0.894490 0.030501 0.000478 -705584.000000 1 0 0
15.944127 10.454567 -4.591876 19.611182 0.580372 1.807136 0.059820 -0.031533 -177997.000000 1 0 0
14.913227 13.878367 6.067124 21.256138 0.749471 1.281342 0.053883 -0.013079 -1541090.000000 1 0 0
6.264727 9.516167 9.158124 14.617643 0.988591 0.893727 0.008801 -0.002143 1157020.000000 1 0 0
10.486627 12.103967 8.650324 18.201744 0.856870 1.075552 0.019675 -0.009846 215584.000000 1 0 0
8.068427 11.451067 -0.426676 14.014582 0.956989 1.601246 0.011057 -0.004446 229839.000000 1 0 0
7.315427 13.683567 -8.796276 17.836198 1.079842 2.086526 0.044275 -0.012953 -685322.000000 1 0 0
2.802127 15.231567 -2.196276 15.642128 1.388862 1.711670 0.003194 -0.003987 627712.000000 1 0 0
12.161227 13.345667 -7.608176 19.593024 0.831801 1.969594 0.078140 -0.037098 1026680.000000 1 0 0
-8.148573 14.741867 9.753624 19.464200 -1.065844 1.045920 0.032905 -0.016598 354166.000000 1 0 0
11.546227 9.662867 2.219524 15.218825 0.696831 1.424434 0.016564 -0.001068 -2015510.000000 1 0 0
12.300927 8.670167 4.420224 15.685120 0.613966 1.285116 0.009963 -0.001636 384410.000000 1 0 0
14.261127 8.042567 5.984524 17.432073 0.513491 1.220362 0.018301 -0.009326 -2997770.000000 1 0 0
16.409827 7.446767 7.237224 19.419428 0.426009 1.188901 0.055372 -0.017311 -378854.000000 1 0 0
13.657427 8.488567 2.163624 16.225361 0.556104 1.437050 0.004386 -0.002918 -2202800.000000 1 0 0
-4.301773 17.268067 -7.220076 19.204710 -1.326649 1.956222 0.026567 -0.012542 174955.000000 1 0 0
2.958227 19.494067 -4.107876 20.140616 1.420195 1.776197 0.020245 -0.016441 348691.000000 1 0 0
-0.030573 14.883567 6.117624 16.091825 -1.568742 1.180817 0.009241 0.000226 -811003.000000 1 0 0
6.917527 16.009267 7.979324 19.178593 1.162931 1.141695 0.033930 -0.007107 -422395.000000 1 0 0
12.882427 15.045667 -2.278176 19.937881 0.862701 1.685310 0.061957 -0.023284 116010.000000 1 0 0
13.001027 15.832467 3.915224 20.857198 0.883284 1.381960 0.040043 -0.006557 508053.000000 1 0 0
3.102527 18.166467 1.264824 18.472844 1.401645 1.502273 0.018736 -0.015478 -532098.000000 1 0 0
10.430327 14.524367 -1.364776 17.933532 0.948009 1.646972 0.033117 -0.005037 -569573.000000 1 0 0
-6.314473 15.796967 -0.613876 17.023325 -1.190525 1.606865 0.013939 -0.006688 -84777.400000 1 0 0
-3.815473 15.835867 -2.596076 16.494609 -1.334364 1.728843 0.008965 -0.005685 -1240940.000000 1 0 0
-6.797673 16.983167 1.655724 18.367845 -1.190066 1.480531 0.022627 -0.007198 -29396.500000 1 0 0
0.098127 19.448467 -6.673576 20.561836 1.565751 1.901344 0.026681 -0.001349 57416.100000 1 0 0
4.862527 14.705467 6.902724 16.957079 1.251453 1.151552 0.021462 -0.005752 -582173.000000 1 0 0
8.798027 12.321267 6.805524 16.599219 0.950702 1.148353 0.020309 -0.005910 -959437.000000 1 0 0
-7.572273 17.448567 -5.652176 19.842855 -1.161347 1.859643 0.047474 -0.016793 208016.000000 1 0 0
-7.806173 17.855667 -1.250876 19.527567 -1.158653 1.634897 0.053856 -0.010090 745839.000000 1 0 0
-13.862073 -8.923233 9.155824 18.857632 0.571945 1.063834 0.047581 -0.013344 -463573.000000 1 0 0
-12.724473 -12.889433 7.838824 19.735675 0.791838 1.162343 0.048295 -0.007360 64118.600000 1 0 0
-4.009673 -14.778533 12.641324 19.856626 1.305857 0.880676 0.025491 -0.018617 198437.000000 1 0 0
-2.113573 -14.086533 15.255624 20.871791 1.421865 0.751126 0.024237 0.000319 -28689.000000 1 0 0
-7.239373 -13.646233 12.786424 20.052951 1.083045 0.879375 0.046408 -0.010515 75485.500000 1 0 0
-10.004573 -11.483033 8.978324 17.679418 0.854095 1.038120 0.037381 -0.009148 450371.000000 1 0 0
-10.785073 -10.524833 11.248224 18.804586 0.773187 0.929588 0.062689 -0.020523 454979.000000 1 0 0
-6.124173 -12.256633 10.818224 17.457506 1.107419 0.902450 0.032959 -0.006461 718076.000000 1 0 0
-12.630473 -10.331833 7.298924 17.875959 0.685626 1.150195 0.030593 -0.003301 -279815.000000 1 0 0
-7.770173 -11.120733 12.594524 18.511303 0.960936 0.822530 0.040954 -0.013132 185795.000000 1 0 0
-14.889273 -11.555533 7.292824 20.209059 0.659996 1.201597 0.047439 -0.006224 -526069.000000 1 0 0
-11.220573 -9.123133 9.079524 17.075438 0.682661 1.010154 0.031233 -0.007740 265032.000000 1 0 0
-5.377873 -11.854833 13.217924 18.551876 1.144916 0.777764 0.033590 -0.014561 -536036.000000 1 0 0
3.845927 -12.273333 14.886324 19.673040 -1.267131 0.712566 -0.004379 -0.005837 -329025.000000 1 0 0
6.306227 -12.835033 14.405924 20.298700 -1.114109 0.781728 0.028894 -0.001283 -396736.000000 1 0 0
6.541127 -8.468633 16.195424 19.411230 -0.913116 0.583875 0.022838 -0.006720 908480.000000 1 0 0
0.683527 -1.797733 14.246124 14.375365 -1.207461 0.134193 0.007393 -0.003495 -1376830.000000 1 0 0
-0.196573 -6.287933 15.538124 16.763354 1.539545 0.384702 0.005742 -0.011396 -427586.000000 1 0 0
-1.550773 -4.680333 18.366924 19.017211 1.250842 0.262264 0.016989 -0.017524 -1527700.000000 1 0 0
-5.149873 12.901567 12.826024 18.907102 -1.191009 0.825254 0.013659 -0.002887 -319723.000000 1 0 0
-4.150873 8.957467 11.646924 15.268163 -1.136857 0.703127 0.004021 0.004033 46216.600000 1 0 0
-0.762273 -3.906333 14.862824 15.386489 1.378080 0.261644 0.006929 -0.009416 205071.000000 1 0 0
-4.517273 9.316067 14.121724 17.510510 -1.119309 0.632637 0.009031 -0.001610 275505.000000 1 0 0
-13.357973 -2.312133 16.942824 21.698864 0.171392 0.674825 0.047510 0.001550 -921947.000000 1 0 0
-0.273973 1.009967 17.214124 17.245903 -1.305902 0.060717 0.009942 -0.004757 -921647.000000 1 0 0
-3.367673 -7.368433 15.300424 17.312943 1.142103 0.486967 0.010235 -0.012944 175850.000000 1 0 0
-7.425173 5.530867 12.528224 15.578193 -0.640217 0.636442 0.001359 -0.003611 -1951750.000000 1 0 0
-9.828573 10.150367 13.415024 19.483164 -0.801503 0.811316 0.014918 -0.009710 682702.000000 1 0 0
-5.619573 2.260667 11.120324 12.663010 -0.382474 0.498765 0.003090 -0.004664 -2217510.000000 1 0 0
-7.174073 -7.324733 16.908124 19.773813 0.795789 0.545098 0.018888 -0.013023 -411842.000000 1 0 0
-4.691873 2.735667 18.717124 19.489184 -0.527874 0.282415 0.013684 -0.004892 -1431120.000000 1 0 0
0.870827 -8.259533 16.599824 18.561584 -1.465751 0.463908 0.001788 -0.008862 681694.000000 1 0 0
-14.886473 -3.675733 13.804024 20.631752 0.242076 0.837844 0.059355 -0.014508 306644.000000 1 0 0
-14.336773 2.327767 13.101924 19.560725 -0.160959 0.836847 0.038524 -0.017534 2316.090000 1 0 0
-5.500473 1.033567 15.934024 16.888357 -0.185739 0.337783 0.014009 -0.005343 468819.000000 1 0 0
4.701827 5.872167 15.168624 16.931529 0.895630 0.460388 0.012466 -0.001058 -455333.000000 1 0 0
-1.209773 -11.964333 13.880324 18.364972 1.470024 0.713915 -0.002639 -0.009183 -75286.600000 1 0 0
-5.831873 -3.993633 16.691624 18.126504 0.600448 0.400565 0.015020 -0.009559 -180065.000000 1 0 0
-13.025273 -1.479633 9.875124 16.412347 0.113112 0.925183 0.020237 -0.003612 -702818.000000 1 0 0
-14.563973 10.463067 10.280024 20.670365 -0.622982 1.050276 0.006870 -0.011846 289157.000000 1 0 0
-3.574873 -3.353933 17.739924 18.404714 0.753522 0.269593 0.021012 -0.010305 -2875120.000000 1 0 0
-7.925673 9.424467 11.803024 17.057205 -0.871569 0.806586 0.006719 -0.005067 -21048.700000 1 0 0
-4.183773 10.671067 16.261724 19.895208 -1.197147 0.613967 0.009103 -0.005017 199844.000000 1 0 0
-12.540873 12.726267 8.303324 19.702197 -0.792735 1.135762 0.016020 -0.017370 193388.000000 1 0 0
-12.563373 3.256967 10.497024 16.692324 -0.253659 0.890719 0.013475 -0.011912 906806.000000 1 0 0
-10.108873 -3.455733 13.683024 17.359624 0.329397 0.662902 0.014745 -0.004691 -975574.000000 1 0 0
-4.308173 -6.420433 17.610324 19.232936 0.979793 0.413715 0.020999 -0.015700 -778329.000000 1 0 0
0.656927 -3.538033 17.697024 18.059178 -1.387211 0.200605 0.015725 -0.021096 -523235.000000 1 0 0
-5.911873 1.870167 13.554824 14.905738 -0.306380 0.429030 0.008279 -0.000173 -849418.000000 1 0 0
-10.545973 8.726467 10.283324 17.120617 -0.691267 0.926495 0.013624 -0.012613 -172481.000000 1 0 0
4.540827 2.590967 17.240424 18.015672 0.518516 0.294429 0.017383 -0.007587 -1537720.000000 1 0 0
0.520627 -5.449433 13.246924 14.333470 -1.475548 0.391873 0.006027 -0.004625 -1488630.000000 1 0 0
-4.515973 5.668967 20.550024 21.790702 -0.898124 0.339072 0.070089 -0.024161 -275592.000000 1 0 0
-10.838673 10.845167 8.995824 17.776933 -0.785698 1.040210 0.013173 -0.015499 -462645.000000 1 0 0
0.635027 4.160967 12.978924 13.644390 1.419350 0.313604 0.008778 -0.002585 -2541920.000000 1 0 0
-3.122573 7.207367 13.301724 15.447733 -1.161961 0.533408 0.004430 0.002572 -1522610.000000 1 0 0
0.753427 8.931267 14.028424 16.647278 1.486637 0.568544 0.015360 -0.004558 370537.000000 1 0 0
-4.258673 -6.735233 12.989124 15.238668 1.006966 0.550278 0.009213 -0.007017 -21583.500000 1 0 0
-5.158473 8.284567 16.473324 19.147175 -1.013881 0.534835 0.019248 0.000970 191027.000000 1 0 0
1.461627 -10.581333 15.769124 19.046423 -1.433532 0.595388 -0.010052 -0.004993 -601764.000000 1 0 0
-15.131973 -1.075233 14.378224 20.901341 0.070938 0.812192 0.061477 -0.012495 -154693.000000 1 0 0
-13.565473 -5.204033 8.520324 16.843395 0.366309 1.040423 0.035095 -0.008219 -1079430.000000 1 0 0
-14.179273 -1.841033 12.139724 18.756708 0.129117 0.866864 0.043803 -0.008422 188814.000000 1 0 0
9.334227 1.428367 16.966424 19.417198 0.151847 0.507868 0.045036 -0.013151 -262723.000000 1 0 0
4.900927 -6.695633 16.949724 18.871771 -0.938942 0.455247 0.019169 -0.008072 -119460.000000 1 0 0
-6.129473 -2.583433 11.101424 12.941645 0.398883 0.539810 0.001937 -0.001689 189832.000000 1 0 0
0.559027 -6.148333 18.062424 19.088365 -1.480122 0.329349 0.016932 -0.020157 -435613.000000 1 0 0
-8.435573 11.940567 12.187324 19.033310 -0.955746 0.875887 0.011540 -0.006161 383432.000000 1 0 0
-6.712173 -5.698133 14.814624 17.233545 0.703870 0.536234 0.015226 -0.009071 -556825.000000 1 0 0
-4.508973 -8.886533 17.113724 19.803557 1.101251 0.527289 0.023352 -0.014404 165487.000000 1 0 0
2.481527 -6.182433 16.230724 17.544710 -1.189098 0.389481 0.012690 -0.013988 759376.000000 1 0 0
2.362927 5.305167 15.864324 16.893934 1.151773 0.350927 0.015122 -0.006713 -2827680.000000 1 0 0
0.902327 -8.741633 14.021524 16.547915 -1.467939 0.559861 -0.000887 -0.007034 -404988.000000 1 0 0
-9.954273 -2.734533 11.208624 15.238060 0.268096 0.744292 0.000220 -0.002171 -147431.000000 1 0 0
-1.284173 10.115067 12.362224 16.024614 -1.444515 0.689676 0.008413 -0.004504 -407259.000000 1 0 0
-12.393273 -3.554533 11.364624 17.186698 0.279314 0.848319 0.023220 -0.001344 -1407040.000000 1 0 0
-2.080373 6.532767 20.147724 21.282288 -1.262498 0.327996 0.050856 -0.014724 713742.000000 1 0 0
0.301127 -13.263833 15.660824 20.525140 -1.548097 0.702844 -0.005107 -0.009156 -1279750.000000 1 0 0
4.004827 -8.535933 15.325424 17.993594 -1.132113 0.551546 0.002556 -0.005727 -321511.000000 1 0 0
4.469027 -4.363333 16.148624 17.314414 -0.773432 0.369053 0.016965 -0.005237 -770439.000000 1 0 0
8.122127 1.816967 14.682024 16.876971 0.220082 0.515707 0.010616 -0.002118 160513.000000 1 0 0
-6.312273 -0.102133 11.795124 13.378347 0.016179 0.491432 0.003205 -0.002655 52430.700000 1 0 0
-3.510973 -11.085933 18.255724 21.644775 1.264085 0.567171 0.032615 -0.013157 -686637.000000 1 0 0
3.264027 -1.627033 13.464524 13.949714 -0.462426 0.264518 0.007417 -0.000912 505864.000000 1 0 0
-2.547373 8.705467 15.875224 18.283791 -1.286126 0.519097 0.015176 -0.005913 -295445.000000 1 0 0
-3.277973 4.145867 14.795424 15.711076 -0.901776 0.343091 0.011346 -0.002057 -1536330.000000 1 0 0
-4.691173 -9.267133 19.806924 22.365176 1.102188 0.482981 0.036007 -0.008221 57063.300000 1 0 0
-5.776173 -2.900633 19.017924 20.086296 0.465384 0.327620 0.022444 -0.015083 -1230800.000000 1 0 0
-6.689773 -8.566333 11.051524 15.500687 0.907787 0.777072 0.018585 -0.010059 -273671.000000 1 0 0
-11.730873 2.660967 12.723324 17.509343 -0.223060 0.757350 0.025037 -0.018083 -117979.000000 1 0 0
-11.858373 -7.410433 11.712224 18.240387 0.558536 0.873557 0.042561 -0.015475 -2038280.000000 1 0 0
-11.157573 -7.145233 15.522124 20.407894 0.569592 0.706569 0.043101 -0.027165 -269174.000000 1 0 0
0.536027 5.743067 17.634524 18.553883 1.477731 0.316119 0.018721 -0.007443 -193982.000000 1 0 0
-2.183173 -0.077133 13.168324 13.348294 0.035316 0.164396 0.007946 0.000308 -85286.500000 1 0 0
-6.053273 -10.691333 18.079624 21.859083 1.055612 0.596870 0.046028 -0.014128 272199.000000 1 0 0
0.266927 2.945967 18.987424 19.216458 1.480436 0.154547 0.019198 -0.013512 -538961.000000 1 0 0
-0.794973 10.979267 14.763324 18.415538 -1.498516 0.640700 0.022862 -0.006739 -334021.000000 1 0 0
-12.805373 -2.218433 14.353624 19.362994 0.171540 0.735804 0.032826 -0.005845 -426326.000000 1 0 0
-13.661573 8.454167 11.685624 19.866186 -0.554149 0.941944 0.016513 -0.017967 -237574.000000 1 0 0
-17.984373 -0.566933 6.931624 19.282285 0.031513 1.203084 0.061609 -0.020867 -1278780.000000 1 0 0
-2.146873 -7.812733 17.596124 19.371924 1.302624 0.431520 0.014361 -0.014492 -1479850.000000 1 0 0
5.710627 2.635567 14.424824 15.736360 0.432392 0.411165 0.006999 -0.002349 -2685360.000000 1 0 0
-14.238673 -6.463733 11.202424 19.235747 0.426139 0.949149 0.049450 -0.015026 518776.000000 1 0 0
3.292127 7.835567 16.278324 18.363498 1.173039 0.481179 0.024325 -0.016416 -239440.000000 1 0 0
0.965127 2.116467 14.517124 14.702306 1.142957 0.158883 0.006527 -0.002139 -1842560.000000 1 0 0
-14.434473 0.779967 9.873524 17.505680 -0.053983 0.971552 0.030769 -0.008621 -1141940.000000 1 0 0
-9.565773 -5.134433 15.663024 19.057721 0.492614 0.606105 0.016421 -0.005227 -313150.000000 1 0 0
-2.492073 -0.146433 18.021024 18.193108 0.058692 0.137650 0.021336 -0.013271 147112.000000 1 0 0
6.796827 3.807767 17.394524 19.059523 0.510661 0.421094 0.030017 -0.011746 -795946.000000 1 0 0
-4.254473 -0.837233 14.647224 15.275558 0.194306 0.287814 0.011908 0.000697 -425488.000000 1 0 0
4.580327 -9.164533 17.823924 20.558704 -1.107318 0.521692 0.019613 -0.005200 -341004.000000 1 0 0
1.915927 6.922267 13.425524 15.226072 1.300778 0.491246 0.013024 -0.002635 -1553800.000000 1 0 0
-3.910373 -0.646333 20.095524 20.482648 0.163806 0.194730 0.035937 -0.021174 -1272860.000000 1 0 0
-10.587773 1.729967 16.179024 19.412742 -0.161962 0.585523 0.020089 -0.012274 -541778.000000 1 0 0
-3.975873 7.040767 18.429124 20.124924 -1.056742 0.413460 0.026199 -0.010107 -412404.000000 1 0 0
-12.652273 1.124167 14.735724 19.454699 -0.088618 0.711417 0.036488 -0.016236 201951.000000 1 0 0
-16.029073 -4.771733 8.494024 18.757640 0.289338 1.100859 0.045362 -0.013384 -1895030.000000 1 0 0
-2.347573 0.750267 15.608624 15.801998 -0.309333 0.156604 0.014465 -0.001591 125646.000000 1 0 0
-13.964573 -8.726733 12.400624 20.614089 0.558541 0.925343 0.062813 -0.029251 213456.000000 1 0 0
6.173927 -3.161133 14.582024 16.147618 -0.473212 0.443990 0.017964 -0.000628 986671.000000 1 0 0
-15.731873 0.214867 7.700324 17.516649 -0.013657 1.115643 0.034569 -0.013412 453115.000000 1 0 0
-14.095473 5.854767 12.270724 19.583956 -0.393682 0.893652 0.038093 -0.029082 -583689.000000 1 0 0
0.554227 9.644367 16.513024 19.131151 1.513393 0.529324 0.029013 -0.016396 -12692.900000 1 0 0
-10.469973 -5.350733 10.811224 15.972891 0.472453 0.827324 0.016985 -0.007747 -113805.000000 1 0 0
-3.302773 -10.739933 14.959424 18.709325 1.272452 0.644217 0.015265 -0.012595 -383883.000000 1 0 0
-3.484873 2.780267 12.535324 13.304457 -0.673404 0.341690 0.007431 -0.001809 -1650830.000000 1 0 0
-12.522373 -7.710433 7.312924 16.423747 0.551907 1.109326 0.033495 -0.006768 -687375.000000 1 0 0
-8.169973 -1.866233 13.238224 15.667861 0.224573 0.564365 0.004801 -0.001512 -199426.000000 1 0 0
-9.869873 6.462467 9.546724 15.176225 -0.579719 0.890456 0.008714 -0.008073 -795474.000000 1 0 0
-17.994473 -3.579033 6.698124 19.531395 0.196334 1.220750 0.059090 -0.017682 629170.000000 1 0 0
-1.437073 -0.037633 20.405924 20.456499 0.026181 0.070332 0.025855 -0.017164 -609827.000000 1 0 0
-2.545473 2.642167 20.171024 20.501968 -0.804035 0.179920 0.025407 -0.013774 -877578.000000 1 0 0
-3.850373 11.390967 11.065024 16.340571 -1.244834 0.826913 0.009991 -0.008056 -1121580.000000 1 0 0
-4.184373 -4.873233 14.847924 16.177708 0.861305 0.408289 0.011867 -0.007611 -410993.000000 1 0 0
-0.327373 -14.267133 13.327324 19.526285 1.547854 0.819574 0.005944 -0.008218 -273472.000000 1 0 0
-12.173673 0.482167 8.412724 14.805564 -0.039587 0.966463 0.003685 -0.002084 -470302.000000 1 0 0
-7.819973 2.228767 15.275924 17.305295 -0.277648 0.489153 0.005181 -0.005261 -853860.000000 1 0 0
3.359727 -2.102633 18.490324 18.910339 -0.559199 0.211157 0.020637 -0.002289 -59680.600000 1 0 0
-2.072073 4.902567 12.551024 13.632933 -1.170917 0.401080 0.005885 -0.002030 -802756.000000 1 0 0
-10.384973 -6.173933 13.318124 17.981589 0.536370 0.736754 0.017980 -0.014360 480427.000000 1 0 0
2.296727 -3.809933 14.283124 14.959886 -1.028301 0.301939 0.009668 -0.001782 -473744.000000 1 0 0
6.738427 1.225367 16.916724 18.250575 0.179882 0.384691 0.017148 -0.007521 -50281.600000 1 0 0
-2.001973 -5.736233 13.657724 14.948100 1.235008 0.418557 0.004194 -0.006920 -387133.000000 1 0 0
-12.858773 3.769767 14.771724 19.943997 -0.285176 0.736744 0.021928 -0.010938 149305.000000 1 0 0
-13.563073 -6.468533 13.616724 20.278413 0.445016 0.834580 0.057369 -0.020245 114298.000000 1 0 0
-9.498073 6.903667 11.981924 16.776189 -0.628519 0.775284 0.011228 -0.009666 -613278.000000 1 0 0
-1.147573 -2.428033 12.658624 12.940364 1.129279 0.209053 0.004776 0.001001 477239.000000 1 0 0
0.189027 6.730667 15.335424 16.748518 1.542719 0.413727 0.014806 -0.004381 465991.000000 1 0 0
-16.706773 -0.575133 9.978824 19.468538 0.034412 1.032631 0.068004 -0.011197 362895.000000 1 0 0
-1.319173 2.816367 13.750524 14.097839 -1.132751 0.222431 0.004843 -0.002346 -1964670.000000 1 0 0
-11.132573 -3.228933 16.122324 19.856725 0.282298 0.623341 0.022604 -0.009444 -1038010.000000 1 0 0
-5.066373 -1.428333 17.043624 17.837976 0.274792 0.299553 0.018348 -0.003420 107957.000000 1 0 0
-11.899873 6.620567 11.186024 17.622884 -0.507710 0.883119 0.020811 -0.015121 -1734080.000000 1 0 0
-2.919473 4.629867 18.647324 19.434034 -1.008199 0.285507 0.031768 -0.007808 570389.000000 1 0 0
5.069027 -1.801933 16.511424 17.365746 -0.341548 0.314975 0.016497 -0.000689 -174827.000000 1 0 0
-8.068573 -4.134933 12.086924 15.109377 0.473577 0.643565 0.006968 -0.003668 -1712380.000000 1 0 0
-11.550773 -0.682433 16.133324 19.853721 0.059013 0.622180 0.025027 -0.005460 396717.000000 1 0 0
2.124627 2.160867 17.360824 17.623325 0.793854 0.172813 0.010980 -0.005243 -673196.000000 1 0 0
-9.165173 -7.525733 11.635124 16.613644 0.687489 0.794929 0.024914 -0.012334 1213740.000000 1 0 0
-7.181473 7.035667 14.754924 17.854466 -0.775143 0.598113 -0.002009 -0.002427 -377326.000000 1 0 0
-5.625273 3.515167 15.694124 17.038358 -0.558519 0.399886 0.006345 -0.004088 104264.000000 1 0 0
-9.438973 4.281967 11.563624 15.528904 -0.425883 0.730784 0.003653 -0.010216 -373793.000000 1 0 0
-10.157773 0.169567 14.185324 17.447995 -0.016692 0.621500 0.006066 -0.001836 -81771.300000 1 0 0
8.176227 -0.546233 15.635724 17.652901 -0.066708 0.482730 0.020203 -0.010122 172527.000000 1 0 0
-8.658473 -7.455933 14.732924 18.644547 0.710911 0.659661 0.024129 -0.008861 -1017110.000000 1 0 0
0.058927 4.227067 15.538324 16.103139 1.556857 0.265638 0.011110 -0.006032 -54476.900000 1 0 0
-8.061973 3.145867 9.637724 12.952900 -0.372039 0.731671 -0.000506 -0.003510 -464184.000000 1 0 0
-2.053473 -9.627333 13.064324 16.357838 1.360649 0.645734 -0.003076 -0.008054 352535.000000 1 0 0
-6.080273 10.403967 10.408824 15.923438 -1.041912 0.858360 0.014203 -0.004122 -1069290.000000 1 0 0
-8.568873 -2.798933 15.626624 18.040260 0.315714 0.523233 0.008932 -0.005283 -71804.600000 1 0 0
4.059527 5.764367 17.678224 19.032270 0.957227 0.379486 0.018480 -0.011203 167053.000000 1 0 0
-6.842673 -0.906733 15.232824 16.723734 0.131744 0.425456 0.006334 0.001413 -253657.000000 1 0 0
-0.979273 -9.833633 15.443924 18.335051 1.471540 0.569229 -0.007784 -0.006571 -1062020.000000 1 0 0
-4.309873 5.863467 16.147624 17.711607 -0.936940 0.423400 0.010663 -0.002085 252590.000000 1 0 0
3.674527 0.098367 17.403424 17.787383 0.026764 0.208154 0.015921 -0.004340 -219402.000000 1 0 0
1.208027 0.542967 19.293124 19.338531 0.422410 0.068541 0.013639 -0.003068 -562231.000000 1 0 0
-6.357173 6.314467 17.724524 19.860637 -0.782028 0.468061 0.015990 -0.009451 -124244.000000 1 0 0
-12.284273 0.721367 10.988824 16.497818 -0.058655 0.841859 0.020183 -0.008369 -572837.000000 1 0 0
-5.376873 5.262867 13.827624 15.742037 -0.774683 0.498316 0.005654 0.000032 -1388090.000000 1 0 0
-8.727273 -9.520033 9.960024 16.309457 0.828816 0.913865 0.030860 -0.008086 -183090.000000 1 0 0
6.909927 -3.536133 17.065324 18.747710 -0.473001 0.426880 0.025132 -0.002953 1449600.000000 1 0 0
-16.716573 1.926067 9.432824 19.290716 -0.114713 1.059873 0.059052 -0.023995 618255.000000 1 0 0
-4.191673 -9.532233 11.338624 15.394739 1.156510 0.742877 0.007648 -0.009418 360984.000000 1 0 0
-11.140573 -3.774233 9.165224 14.911691 0.326647 0.908875 0.011058 -0.001132 -361847.000000 1 0 0
3.481827 -5.196533 18.513824 19.541974 -0.980470 0.325823 0.014323 -0.015709 -510457.000000 1 0 0
2.496327 -1.805633 16.031224 16.324586 -0.626203 0.189866 0.011224 -0.003309 -952699.000000 1 0 0
-3.347173 -4.340933 20.243424 20.972446 0.913945 0.264440 0.027629 -0.013330 -802165.000000 1 0 0
-6.267173 -3.291833 14.343724 15.995501 0.483643 0.458460 0.005817 -0.001565 74587.800000 1 0 0
-9.662973 5.072067 13.930824 17.696519 -0.483366 0.664529 0.019158 -0.011609 494333.000000 1 0 0
-5.913373 -5.123533 11.771324 14.134449 0.713956 0.586630 0.006713 -0.002368 103826.000000 1 0 0
6.091927 2.211067 19.289024 20.348632 0.348165 0.324133 0.046657 -0.021049 344269.000000 1 0 0
-2.800473 11.908067 13.471824 18.197108 -1.339819 0.737239 0.016479 -0.011287 -1196110.000000 1 0 0
3.364427 1.437267 15.144124 15.579782 0.403729 0.237041 0.006170 -0.000161 -1172940.000000 1 0 0
-5.645673 7.452567 12.740124 15.802694 -0.922482 0.633096 0.000452 -0.005552 -630911.000000 1 0 0
-1.814973 -1.681333 15.077924 15.279555 0.747194 0.162636 0.011853 -0.002831 -129546.000000 1 0 0
-7.216373 10.551167 14.100824 19.032509 -0.970930 0.736415 0.016775 -0.009174 439146.000000 1 0 0
-10.136273 2.001667 10.673124 14.854840 -0.194967 0.769161 0.003098 -0.004489 -474999.000000 1 0 0
-13.663473 5.194467 9.133824 17.236581 -0.363297 1.012303 0.009769 -0.016037 150621.000000 1 0 0
0.452327 -4.576233 20.070024 20.590104 -1.472274 0.225237 0.029253 -0.025438 -324305.000000 1 0 0
-14.350473 -2.928933 7.514824 16.461692 0.201335 1.096735 0.017811 -0.007305 285157.000000 1 0 0
-2.378473 2.457067 17.554324 17.884312 -0.801650 0.192397 0.013850 -0.007516 -626991.000000 1 0 0
-6.244973 -8.288933 14.637124 17.943007 0.925116 0.616760 0.019435 -0.008813 -526965.000000 1 0 0
-8.027973 2.014667 12.073724 14.638376 -0.245878 0.600949 0.002487 -0.004996 253268.000000 1 0 0
-14.597973 -3.452233 10.140124 18.106376 0.232221 0.976374 0.033351 -0.008584 40595.800000 1 0 0
-0.519073 7.025567 12.718724 14.539394 -1.497047 0.505821 0.009175 -0.002063 262600.000000 1 0 0
-1.952073 -2.290933 19.369424 19.601876 0.865092 0.154157 0.024053 -0.013309 -69988.900000 1 0 0
-12.792773 10.314067 7.370424 18.009947 -0.678535 1.149173 0.003159 -0.017202 193435.000000 1 0 0
-19.399073 2.165367 6.973524 20.727829 -0.111162 1.227670 0.067902 -0.023940 -9868.920000 1 0 0
-16.189473 8.382467 6.907924 19.495748 -0.477764 1.208599 0.024430 -0.010050 335388.000000 1 0 0
-12.497973 7.257767 13.700624 19.914357 -0.526119 0.812098 0.031328 -0.012176 210151.000000 1 0 0
-15.963573 8.245167 10.545024 20.833050 -0.476759 1.040061 0.028665 -0.017592 -295383.000000 1 0 0
1.865027 11.118067 14.777724 18.586847 1.404596 0.651684 0.032463 -0.021543 400810.000000 1 0 0
2.136227 14.456567 12.827624 19.444890 1.424089 0.850388 0.025193 -0.004202 40068.100000 1 0 0
-3.142373 13.710767 11.585024 18.222854 -1.345497 0.881828 0.010109 -0.011644 -198417.000000 1 0 0
9.070327 4.820767 15.804624 18.849317 0.488519 0.576323 0.033180 -0.001015 -141235.000000 1 0 0
-0.385273 12.613467 12.831824 17.997325 -1.540261 0.777050 0.020448 -0.010535 -446039.000000 1 0 0
3.890927 13.739667 14.574924 20.404563 1.294833 0.775177 0.042806 -0.007319 215150.000000 1 0 0
-2.773673 -4.124033 -13.602876 14.482374 0.978723 2.791297 -0.001275 -0.006658 -507941.000000 1 0 0
5.771027 -11.483233 16.462524 20.885021 -1.105102 0.662844 0.026851 -0.004018 113677.000000 1 0 0
7.913127 -13.374333 7.360824 17.195118 -1.036528 1.128433 0.012117 -0.011207 -101040.000000 1 0 0
0.031127 15.477467 1.310324 15.532865 1.568785 1.486338 -0.000456 -0.007473 -2876340.000000 1 0 0
-13.730373 8.228567 9.044424 18.385703 -0.539902 1.056495 0.002530 -0.012104 968908.000000 1 0 0
-15.591673 -9.777133 5.018024 19.075460 0.560089 1.304602 0.032258 -0.004636 -1309070.000000 1 0 0
9.561127 -11.151633 11.030224 18.369538 -0.862036 0.926717 0.043224 -0.008832 90823.900000 1 0 0
-5.738873 -10.827233 -16.607576 20.639167 1.083406 2.505904 0.037192 -0.014869 23005.700000 1 0 0
-1.581973 -12.780633 -14.492776 19.387825 1.447644 2.415116 0.019174 -0.006589 -226882.000000 1 0 0
5.348027 -15.807233 -12.120076 20.624409 -1.244557 2.198956 0.032415 -0.010594 291611.000000 1 0 0
1.122427 -12.093133 -16.366576 20.380592 -1.478246 2.503187 0.008940 -0.005030 185584.000000 1 0 0
0.600627 -14.233233 -14.512276 20.335974 -1.528622 2.365457 0.029496 0.009539 203139.000000 1 0 0
-6.544473 -5.849833 -14.631776 17.062812 0.729412 2.601234 0.022589 -0.005164 17188.000000 1 0 0
-6.245873 -8.020133 -17.229176 20.004449 0.909133 2.608555 0.019110 -0.009413 -112120.000000 1 0 0
-2.240673 -16.234433 -13.442776 21.196359 1.433643 2.257772 0.022824 -0.000713 236626.000000 1 0 0
16.238227 -8.114833 -9.221976 20.361124 -0.463437 2.040835 0.087015 -0.017605 100957.000000 1 0 0
19.043227 -2.937433 -3.394576 19.565177 -0.153045 1.745180 0.099982 -0.030221 4443.970000 1 0 0
15.383527 -12.408433 -8.568676 21.541688 -0.678756 1.979883 0.050313 -0.001841 -96880.700000 1 0 0
18.673027 -4.140333 -7.046676 20.383325 -0.218198 1.923789 0.206024 -0.019988 -254584.000000 1 0 0
8.673927 -9.610233 -15.739176 20.379285 -0.836562 2.453270 0.067428 -0.007215 175204.000000 1 0 0
-4.655673 9.880667 -16.184576 19.525454 -1.130461 2.547928 0.003080 0.000185 529730.000000 1 0 0
2.653327 -9.743933 -17.823576 20.485708 -1.304937 2.626099 0.017584 -0.009237 178758.000000 1 0 0
11.190027 8.020767 -14.426276 19.941586 0.621898 2.379549 0.105439 -0.060853 310382.000000 1 0 0
17.735827 -6.819233 -7.397276 20.390713 -0.367064 1.942042 0.051058 -0.028105 99462.100000 1 0 0
12.291727 4.969667 -14.210276 19.434919 0.384216 2.390835 0.051752 -0.010884 72676.500000 1 0 0
16.061227 6.143867 -10.811576 20.312565 0.365354 2.132065 0.056172 -0.019284 347791.000000 1 0 0
3.314827 -0.065533 -19.116476 19.401856 -0.019767 2.969865 0.035949 -0.023148 150077.000000 1 0 0
10.236827 -1.745233 -14.338776 17.704207 -0.168862 2.514791 0.031027 -0.017802 27207.400000 1 0 0
12.204827 -6.236733 -14.018576 19.605487 -0.472413 2.367468 0.072992 -0.000160 407117.000000 1 0 0
9.763027 5.860667 -12.883976 17.194794 0.540634 2.417793 0.037376 -0.007545 470641.000000 1 0 0
10.698527 5.143067 -16.499976 20.326309 0.448110 2.517947 0.073201 -0.020733 500750.000000 1 0 0
11.958627 -10.127833 -14.946376 21.655852 -0.702695 2.332530 0.121097 -0.015899 303036.000000 1 0 0
-1.197973 2.408267 -17.752576 17.955190 -1.109197 2.991222 0.016776 -0.009251 316085.000000 1 0 0
6.510527 -1.280933 -17.244776 18.477285 -0.194267 2.774281 0.026512 0.006533 11106.300000 1 0 0
6.432127 -5.786633 -15.709976 17.934902 -0.732619 2.638186 0.004972 -0.006651 266413.000000 1 0 0
-1.923573 -4.546733 -20.435276 21.023164 1.170564 2.904548 0.008319 -0.023863 328524.000000 1 0 0
15.922927 -0.311933 -13.520076 20.890892 -0.019588 2.274670 0.069436 -0.011543 12053.000000 1 0 0
-4.010473 -0.160033 -18.247376 18.683582 0.039883 2.925082 0.014335 -0.024036 159957.000000 1 0 0
3.584827 8.663367 -17.860676 20.171977 1.178458 2.658194 0.038708 -0.021350 137419.000000 1 0 0
9.433527 -0.422133 -17.686976 20.049906 -0.044718 2.651199 0.050755 -0.003995 61011.200000 1 0 0
4.024927 4.458367 -18.321976 19.281387 0.836447 2.824807 0.026618 -0.008907 349412.000000 1 0 0
-2.116773 -11.194333 -18.060776 21.353816 1.383910 2.578835 0.029496 -0.014933 234559.000000 1 0 0
5.552927 -9.703833 -15.902776 19.439590 -1.051038 2.528828 0.015401 -0.010009 49059.400000 1 0 0
10.285827 -12.144233 -10.606176 19.125156 -0.868063 2.158639 0.046002 -0.013643 252172.000000 1 0 0
6.221527 6.812567 -17.121676 19.449171 0.830713 2.647352 0.048287 -0.010937 400090.000000 1 0 0
8.612927 1.701867 -20.287576 22.105759 0.195082 2.733176 0.079153 -0.023177 167337.000000 1 0 0
-1.512373 -0.290333 -19.778176 19.838039 0.189664 3.063886 0.026252 -0.033454 201770.000000 1 0 0
-1.044273 6.535167 -19.529676 20.620552 -1.412343 2.814865 0.013131 -0.015263 -63586.700000 1 0 0
8.773127 5.595367 -18.305476 21.056266 0.567740 2.624702 0.083991 -0.021344 183814.000000 1 0 0
12.127227 0.007367 -12.965376 17.753046 0.000607 2.389584 0.020401 -0.004842 -67378.200000 1 0 0
-4.269173 -2.489333 -19.818976 20.425827 0.527897 2.897223 0.002475 -0.016333 472472.000000 1 0 0
6.051827 -11.411333 -14.416676 19.356747 -1.083176 2.411014 0.019805 -0.008478 62991.800000 1 0 0
11.136927 1.844867 -16.058776 19.629543 0.164162 2.528882 0.048791 -0.012516 -132941.000000 1 0 0
-2.788573 -4.067233 -17.085076 17.782529 0.969787 2.860593 -0.005065 -0.009256 238397.000000 1 0 0
-6.783773 -4.714333 -17.266176 19.140672 0.607324 2.695332 0.030300 -0.018937 90111.500000 1 0 0
3.153527 10.422667 -15.470876 18.918899 1.276989 2.528282 0.016668 -0.014392 226409.000000 1 0 0
17.438527 -5.830533 -10.698876 21.273535 -0.322663 2.097770 0.137733 -0.024653 142726.000000 1 0 0
9.900527 -2.978033 -17.584676 20.398773 -0.292186 2.610089 0.067338 -0.012725 -46347.800000 1 0 0
-7.194173 -1.586133 -19.075876 20.448985 0.217003 2.773046 0.019665 -0.003942 459457.000000 1 0 0
1.442427 -7.485633 -19.283276 20.735477 -1.380437 2.765115 0.019996 -0.013386 160718.000000 1 0 0
5.505627 10.127967 -15.117976 19.011597 1.072875 2.490130 0.045702 -0.011471 346437.000000 1 0 0
5.705627 -3.602733 -18.376676 19.576416 -0.563213 2.789680 0.031610 -0.014602 286013.000000 1 0 0
4.784427 13.353067 -14.182576 20.058430 1.226745 2.356133 0.051315 -0.035199 -229107.000000 1 0 0
9.910627 11.270267 -15.491276 21.568938 0.849502 2.372039 0.135446 -0.031053 261036.000000 1 0 0
17.057327 0.812767 -11.300276 20.477041 0.047613 2.155379 0.086181 -0.015367 39402.200000 1 0 0
14.869627 -3.130133 -12.430276 19.631997 -0.207476 2.256431 0.085589 -0.013422 133965.000000 1 0 0
-8.620673 0.360367 -17.389776 19.412629 -0.041778 2.681018 0.032283 -0.022348 502271.000000 1 0 0
-3.537173 4.300167 -19.175776 19.967809 -0.882446 2.858996 0.022706 -0.008570 112614.000000 1 0 0
3.812027 1.323967 -17.112976 17.582332 0.334279 2.910014 0.018818 -0.002336 466675.000000 1 0 0
-5.204073 14.076667 -13.895076 20.452581 -1.216685 2.317714 0.038438 -0.021269 431053.000000 1 0 0
0.993127 9.084567 -17.944976 20.137970 1.461909 2.670563 0.016380 -0.007197 266652.000000 1 0 0
0.994227 -5.466533 -19.861876 20.624393 -1.390888 2.868823 0.020477 -0.004301 410718.000000 1 0 0
3.499127 -6.164133 -18.306576 19.630872 -1.054496 2.772181 0.022599 -0.011876 103096.000000 1 0 0
-7.219773 7.375867 -16.112776 19.135049 -0.796092 2.571879 0.004649 0.002173 3244.550000 1 0 0
-12.244773 3.241067 -16.508076 20.807584 -0.258756 2.487119 0.092036 -0.036538 334621.000000 1 0 0
-4.786273 7.163767 -17.483576 19.491111 -0.981787 2.683737 0.002815 0.019941 275481.000000 1 0 0
-8.083973 4.970267 -17.857576 20.222443 -0.551252 2.653134 0.016306 -0.006099 161678.000000 1 0 0
-8.364973 3.989367 -14.990676 17.624080 -0.445008 2.587882 -0.004529 -0.018253 476415.000000 1 0 0
9.631827 13.650967 -12.884176 21.097938 0.956336 2.227721 0.127150 -0.050724 503092.000000 1 0 0
14.955227 9.462567 -11.836276 21.290759 0.564136 2.160284 0.142196 -0.033300 304526.000000 1 0 0
9.035627 15.689467 -9.858376 20.615274 1.048283 2.069409 0.090460 -0.024971 85744.000000 1 0 0
7.460627 12.546867 -14.299376 20.434211 1.034342 2.345881 0.131212 -0.060849 157992.000000 1 0 0
4.378227 15.498567 -13.108976 20.765830 1.295478 2.253994 0.050990 -0.025157 166736.000000 1 0 0
10.880227 11.833267 -11.334176 19.668988 0.827333 2.184924 0.094282 -0.029728 4299.690000 1 0 0
15.918427 10.890567 -8.996776 21.282451 0.600008 2.007254 0.076114 -0.044882 454509.000000 1 0 0
12.377527 10.290367 -9.418276 18.649363 0.693581 2.100200 0.064895 -0.044370 156474.000000 1 0 0
10.419027 11.398267 -7.504776 17.169691 0.830252 2.023162 0.049366 -0.022661 -103210.000000 1 0 0
6.043027 16.830567 -10.187576 20.580886 1.226081 2.088633 0.071480 -0.017857 128200.000000 1 0 0
11.760327 13.948467 -10.102276 20.854760 0.870306 2.076486 0.137869 -0.043923 35032.500000 1 0 0
8.348127 -19.342533 -1.708076 21.136280 -1.163354 1.651697 0.037146 -0.009740 212113.000000 1 0 0
8.162727 -17.369033 -4.039676 19.612047 -1.131469 1.778261 0.049090 -0.003418 120133.000000 1 0 0
3.706227 -19.164633 5.845724 20.376255 -1.379766 1.279819 0.040182 -0.001272 253057.000000 1 0 0
10.511227 -17.956333 -2.401176 20.944723 -1.041198 1.685692 0.047765 -0.007078 640800.000000 1 0 0
-3.247873 -14.631533 7.931824 16.957130 1.352360 1.084044 0.036056 -0.037746 -3304.460000 1 0 0
-15.229273 -12.870733 -4.252176 20.387926 0.701661 1.780902 0.062527 -0.013541 185778.000000 1 0 0
-9.342073 -12.910833 -7.501576 17.613562 0.944417 2.010750 0.034621 -0.003544 93497.400000 1 0 0
-11.603773 -15.597733 6.705124 20.564423 0.931185 1.238669 0.046816 -0.006354 182754.000000 1 0 0
-14.944073 -8.511233 -8.362576 19.123260 0.517721 2.023389 0.066761 -0.012437 17302.500000 1 0 0
4.410027 -15.123833 6.203824 16.931217 -1.287069 1.195645 0.022571 -0.016373 169379.000000 1 0 0
2.665827 -14.323033 8.910724 17.077966 -1.386780 1.021875 0.007674 -0.008106 374457.000000 1 0 0
3.157727 -17.086533 10.678624 20.394947 -1.388050 1.019735 0.037086 -0.022042 178650.000000 1 0 0
-8.840173 -17.999433 -5.695076 20.846154 1.114265 1.847510 0.056059 -0.000486 1541.260000 1 0 0
2.069727 -19.795133 -4.044176 20.309762 -1.466618 1.771261 0.053520 -0.020930 46164.800000 1 0 0
-17.644273 -11.069433 -2.154976 20.940311 0.560300 1.673889 0.004293 -0.012104 -119608.000000 1 0 0
-4.195773 -14.800833 2.789924 15.634988 1.294561 1.391394 0.010713 0.001136 158005.000000 1 0 0
-10.988373 -9.889433 -14.597676 20.775884 0.732810 2.349878 0.043642 -0.009438 114878.000000 1 0 0
0.292327 -20.294733 2.521224 20.452829 -1.556393 1.447212 0.031031 -0.011677 281573.000000 1 0 0
6.939527 -18.321033 0.719824 19.604475 -1.208721 1.534071 0.041699 -0.008644 121306.000000 1 0 0
-6.754473 -17.831733 -3.171076 19.330011 1.208708 1.735591 -0.013251 -0.055733 120405.000000 1 0 0
-8.776073 -15.994533 -7.625976 19.773721 1.068958 1.966722 0.051923 -0.009636 -121888.000000 1 0 0
-11.827073 -11.215233 -12.381876 20.468805 0.758851 2.220455 0.030152 -0.001774 266521.000000 1 0 0
-13.295573 -15.141133 -3.511576 20.453785 0.850208 1.743335 0.053448 -0.011586 144332.000000 1 0 0
-0.073773 -20.593333 -2.721676 20.772538 1.567214 1.702197 0.073852 -0.026626 328146.000000 1 0 0
-12.317773 -16.583733 -0.755676 20.671690 0.931943 1.607361 0.060844 -0.020399 259764.000000 1 0 0
0.629627 -19.754733 5.517024 20.520318 -1.538935 1.298591 0.051443 -0.027580 128407.000000 1 0 0
-18.545573 -9.203833 2.163124 20.816530 0.460669 1.466695 0.073493 -0.001622 -73936.700000 1 0 0
-14.656773 -14.924733 -0.519176 20.924584 0.794456 1.595611 0.059358 -0.016091 98678.700000 1 0 0
10.384827 -15.631333 -4.626176 19.328339 -0.984393 1.812489 0.028026 -0.009404 -62498.100000 1 0 0
-0.034373 -18.957733 -7.205376 20.280884 1.568983 1.934009 0.044405 -0.010414 208313.000000 1 0 0
-9.995473 -18.063833 -2.797376 20.833551 1.065391 1.705476 0.042542 0.018480 508741.000000 1 0 0
-14.892073 -6.819633 -11.283376 19.889590 0.429435 2.174021 0.063307 -0.019680 -51939.900000 1 0 0
-12.208973 -15.208933 2.284724 19.636462 0.894381 1.454181 0.047663 -0.018059 262856.000000 1 0 0
-2.680773 -16.085333 10.005124 19.131832 1.405655 1.020480 0.029804 -0.023773 359583.000000 1 0 0
-12.480573 -14.653333 -6.647276 20.363476 0.865303 1.903322 0.052045 -0.008290 285878.000000 1 0 0
5.151627 -17.018133 -7.511876 19.302445 -1.276851 1.970524 0.030687 -0.010498 83984.600000 1 0 0
-17.245573 -7.136333 -2.803876 18.873229 0.392352 1.719912 0.011166 -0.013404 -73416.000000 1 0 0
-12.298273 -13.798133 -9.303476 20.692768 0.842809 2.037114 0.057232 -0.021876 19060.900000 1 0 0
-7.863873 -14.035833 10.043324 18.966114 1.060102 1.012738 0.048261 -0.007545 495773.000000 1 0 0
-15.885073 -8.398133 -5.719876 18.856860 0.486328 1.878983 0.059695 -0.002175 203233.000000 1 0 0
-1.086473 -19.762533 -0.358276 19.795618 1.515875 1.588896 0.044563 -0.012685 170566.000000 1 0 0
-14.999973 -11.315833 -2.100576 18.906604 0.646305 1.682129 0.030577 -0.004067 38814.900000 1 0 0
-6.989273 -19.103233 2.144524 20.454399 1.220055 1.465759 0.037635 -0.010402 215859.000000 1 0 0
-2.162273 -20.574933 -5.482576 21.402381 1.466088 1.829851 0.056337 -0.021136 249187.000000 1 0 0
-9.370473 -19.618133 -0.615176 21.749836 1.125193 1.599084 0.043514 -0.018892 167183.000000 1 0 0
-17.826973 -7.767633 4.882724 20.049391 0.410918 1.324788 0.047792 -0.007335 160404.000000 1 0 0
-3.003073 -15.972733 -11.047776 19.651972 1.384953 2.167805 0.019722 0.009590 59063.900000 1 0 0
-3.233273 -18.577933 -7.583176 20.324817 1.398484 1.953144 0.023160 0.002270 158136.000000 1 0 0
4.515027 -17.218033 -4.555876 18.373953 -1.314344 1.821363 0.029005 -0.024590 625314.000000 1 0 0
0.740427 -17.559633 -9.202976 19.838944 -1.528655 2.053171 0.025184 0.008261 21070.600000 1 0 0
-7.661873 -10.062533 -14.721176 19.408037 0.920023 2.431819 0.028737 -0.012652 530589.000000 1 0 0
-4.779273 -19.723133 -2.075276 20.399760 1.333061 1.672703 0.044010 -0.022079 400824.000000 1 0 0
-10.539473 -15.760533 8.558324 20.801918 0.981370 1.146785 0.045348 -0.017141 134333.000000 1 0 0
-7.226273 -15.019333 -10.304076 19.595238 1.122357 2.124506 0.033099 -0.013562 282687.000000 1 0 0
-12.707073 -7.890733 -12.156276 19.274554 0.555697 2.253239 0.046701 -0.019215 144439.000000 1 0 0
-15.678273 -13.079633 3.280324 20.679593 0.695280 1.411497 0.055069 -0.004743 112505.000000 1 0 0
-6.362873 -14.162233 -12.774976 20.106094 1.148537 2.259295 0.027085 -0.006550 479313.000000 1 0 0
-13.795773 -11.527533 -6.965076 19.280033 0.696065 1.940414 0.046724 -0.020353 259954.000000 1 0 0
-11.563673 -10.250533 -9.033176 17.899448 0.725274 2.099787 0.028860 -0.010738 137762.000000 1 0 0
-10.009473 -14.799233 3.665724 18.238541 0.976119 1.368430 0.016779 -0.005070 460038.000000 1 0 0
5.313227 -17.862233 8.159124 20.343575 -1.281675 1.158116 0.061946 -0.032781 232249.000000 1 0 0
-5.088273 -16.744733 5.902524 18.469337 1.275790 1.245505 0.023818 0.015857 599842.000000 1 0 0
-18.710373 -7.307733 -6.814176 21.211177 0.372352 1.897850 0.084743 -0.025961 305343.000000 1 0 0
-17.220573 -4.610933 -10.902176 20.896561 0.261620 2.119663 0.069978 -0.006054 -351035.000000 1 0 0
-15.887173 -4.084533 -12.778876 20.793878 0.251646 2.232612 0.058972 -0.026582 241522.000000 1 0 0
-19.452473 -4.439733 -6.079376 20.858302 0.224391 1.866550 0.068985 -0.014965 300291.000000 1 0 0
5.770627 -13.776333 8.910424 17.392043 -1.174121 1.032903 0.028423 -0.003318 240178.000000 1 0 0
20.178927 -2.421133 3.183524 20.571480 -0.119412 1.415418 0.099559 -0.012755 -73960.600000 1 0 0
18.283027 -2.462733 0.103524 18.448437 -0.133895 1.565185 0.075111 -0.016194 179385.000000 1 0 0
14.231627 -11.324633 0.281624 18.189718 -0.672136 1.555313 0.048514 -0.004223 40178.600000 1 0 0
11.155127 -13.988933 5.455024 18.705197 -0.897627 1.274864 0.033845 -0.000457 551804.000000 1 0 0
10.683827 -12.016633 7.857124 17.896313 -0.844044 1.116271 0.069785 -0.045854 -143985.000000 1 0 0
17.757327 4.405967 -4.192576 18.770000 0.243209 1.796062 0.024280 -0.005840 -168419.000000 1 0 0
19.247427 -6.046133 -4.625676 20.698214 -0.304366 1.796182 0.129662 -0.025581 -29135.800000 1 0 0
17.924127 -9.736233 -0.297976 20.399935 -0.497601 1.585404 0.086499 -0.013082 270026.000000 1 0 0
17.881127 -8.561433 8.844624 21.708528 -0.446542 1.151162 0.129984 -0.027691 -33917.100000 1 0 0
19.327827 0.497867 -3.192076 19.595972 0.025753 1.734420 0.062970 0.000097 -83460.300000 1 0 0
7.152527 -13.751933 11.782924 19.470788 -1.091190 0.920831 0.026444 0.006364 97135.600000 1 0 0
16.174627 -6.493733 -3.181776 17.717529 -0.381779 1.751359 0.073463 -0.015445 463200.000000 1 0 0
14.394327 -6.667433 11.653624 19.683960 -0.433776 0.937213 0.090655 -0.037145 314429.000000 1 0 0
17.308827 1.847967 9.236924 19.706122 0.106362 1.082940 0.162346 -0.036036 510551.000000 1 0 0
16.441727 -10.195233 2.533924 19.511379 -0.555056 1.440559 0.029747 -0.012526 170849.000000 1 0 0
16.017127 -7.158133 -5.774076 18.469628 -0.420277 1.888752 0.077890 -0.017571 178063.000000 1 0 0
18.716927 -4.902333 4.725524 19.916998 -0.256165 1.331251 0.176745 -0.035613 -372422.000000 1 0 0
13.621227 -13.167333 8.007924 20.568017 -0.768456 1.170883 0.083697 -0.027992 212347.000000 1 0 0
15.170727 -14.232133 -1.785176 20.878013 -0.753487 1.656406 0.057778 -0.007329 196693.000000 1 0 0
18.774227 -6.237233 7.796724 21.264138 -0.320751 1.195379 0.133692 -0.035445 266223.000000 1 0 0
19.494627 3.755167 2.670224 20.031771 0.190295 1.437099 0.076181 -0.009991 208506.000000 1 0 0
15.686327 -10.189333 8.308224 20.467290 -0.576071 1.152803 0.082531 -0.039646 295571.000000 1 0 0
14.173427 -4.308033 10.895224 18.388885 -0.295078 0.936650 0.070308 -0.014835 -149008.000000 1 0 0
18.863027 -7.704033 1.850224 20.459453 -0.387744 1.480239 0.094429 -0.021737 48457.800000 1 0 0
19.152627 -5.880233 -1.184676 20.069970 -0.297884 1.629858 0.090803 -0.024684 116470.000000 1 0 0
14.823627 -13.370733 -6.078476 20.867781 -0.733912 1.866366 0.080879 -0.024317 398405.000000 1 0 0
13.752027 -9.615333 10.361424 19.721358 -0.610185 1.017622 0.057168 -0.018169 457540.000000 1 0 0
14.376627 2.403667 0.599624 14.588508 0.165660 1.529682 0.004969 0.000145 -114903.000000 1 0 0
12.013827 1.708267 13.954324 18.492522 0.141245 0.715763 -0.007678 0.001092 74143.200000 1 0 0
18.389027 -3.190533 8.818624 20.642285 -0.171792 1.129390 0.113152 -0.034233 183861.000000 1 0 0
6.647427 -17.993333 4.671724 19.742678 -1.216911 1.331900 0.033578 -0.031627 468967.000000 1 0 0
12.980027 -2.967433 14.925924 20.001749 -0.224753 0.728414 0.075540 -0.005988 424142.000000 1 0 0
11.339427 -13.395433 -6.694876 18.784078 -0.868329 1.935221 0.029771 -0.022432 -51298.300000 1 0 0
10.386427 -17.863033 4.942724 21.246090 -1.044130 1.336003 0.033069 -0.007297 541871.000000 1 0 0
18.219327 -0.746733 -5.900676 19.165580 -0.040963 1.883759 0.087883 -0.004873 274303.000000 1 0 0
4.105227 -13.217333 11.361824 17.906474 -1.269649 0.883423 0.002242 -0.016856 -46451.800000 1 0 0
9.492227 -2.554533 14.757524 17.731681 -0.262890 0.587609 0.036822 0.002273 403608.000000 1 0 0
9.012127 -9.235433 13.986224 19.029612 -0.797635 0.745172 0.057109 -0.009768 404514.000000 1 0 0
21.037527 5.789567 -2.862676 22.006625 0.268554 1.701248 0.123819 -0.014191 402211.000000 1 0 0
14.880527 -13.017833 1.688424 19.843005 -0.718730 1.485604 0.059848 -0.014550 219625.000000 1 0 0
10.914627 -0.383533 15.203424 18.719516 -0.035125 0.622935 0.039279 -0.012469 4713.470000 1 0 0
19.706627 0.020367 7.692524 21.154822 0.001034 1.198635 0.133563 -0.025625 96392.100000 1 0 0
20.190027 1.481167 -0.151576 20.244852 0.073230 1.578284 0.115070 -0.006434 178548.000000 1 0 0
18.079727 0.304867 3.101324 18.346326 0.016861 1.400937 0.053830 -0.003239 37065.400000 1 0 0
10.104827 -8.497633 16.331924 21.001168 -0.699215 0.679849 0.070973 -0.005392 137049.000000 1 0 0
19.176227 3.056867 5.526924 20.189577 0.158079 1.293505 0.071806 -0.013308 193006.000000 1 0 0
15.882827 2.575167 7.309424 17.672673 0.160737 1.144391 0.063993 -0.009466 39916.300000 1 0 0
11.683227 -15.875533 2.127524 19.825658 -0.936363 1.463278 0.035963 -0.000727 290051.000000 1 0 0
8.285827 -16.209033 7.197424 19.575255 -1.098240 1.194284 0.034129 -0.007465 301451.000000 1 0 0
6.135427 6.904367 7.158024 11.685506 0.844299 0.911506 0.009236 -0.001285 -597899.000000 1 0 0
18.727427 2.821467 -6.239076 19.939992 0.149535 1.889033 0.087701 -0.005686 396211.000000 1 0 0
14.224327 4.404767 -7.052676 16.476459 0.300299 2.013125 0.023089 -0.002655 164485.000000 1 0 0
-10.575673 -4.001733 -13.693976 17.759046 0.361740 2.451361 0.028578 -0.014991 -388570.000000 1 0 0
7.968027 -14.021033 -10.258676 19.113326 -1.054019 2.137352 0.026562 -0.002792 113895.000000 1 0 0
1.730127 -16.140933 13.692224 21.236762 -1.464015 0.870111 -0.000377 -0.008431 418386.000000 1 0 0
-9.503973 -8.147233 2.086824 12.690853 0.708685 1.405611 0.007809 0.001965 353438.000000 1 0 0
-13.951073 2.924467 -9.959676 17.389080 -0.206631 2.180659 0.038108 -0.007799 323624.000000 1 0 0
-13.072673 -4.930033 -13.624676 19.514912 0.360632 2.343631 0.051633 -0.004424 139266.000000 1 0 0
-18.093173 -1.255233 -8.829176 20.171586 0.069265 2.023839 0.074454 -0.027464 509356.000000 1 0 0
-12.336173 14.988567 4.691224 19.971126 -0.882164 1.333680 0.046915 -0.025788 416553.000000 1 0 0
-17.378473 6.567067 9.087824 20.681544 -0.361298 1.115847 0.036247 -0.023229 151149.000000 1 0 0
-13.086773 15.133967 0.279724 20.009469 -0.857813 1.556816 0.066710 -0.038990 31503.000000 1 0 0
-16.168673 5.032667 -11.146976 20.273352 -0.301755 2.152962 0.062946 0.001429 7299.580000 1 0 0
-18.481773 2.834867 -0.208776 18.699091 -0.152201 1.581962 0.088457 -0.004648 34374.700000 1 0 0
-9.612873 15.360767 -0.290576 18.123050 -1.011617 1.586831 0.033341 -0.015334 -60498.000000 1 0 0
-18.615173 12.108467 2.405824 22.336688 -0.576700 1.462880 0.149855 -0.033219 9596.220000 1 0 0
-8.778173 15.964967 -7.662776 19.764985 -1.068076 1.968925 0.072015 -0.040692 74354.400000 1 0 0
-14.996673 -1.616733 -12.716676 19.728859 0.107391 2.271260 0.045587 -0.034425 66558.700000 1 0 0
-19.074573 5.311267 -4.739376 20.359533 -0.271568 1.805736 0.087858 -0.011173 73145.800000 1 0 0
-16.717673 9.746467 -5.613776 20.149161 -0.527829 1.853144 0.062555 0.002863 74407.500000 1 0 0
-19.181973 1.090667 2.475224 19.371742 -0.056798 1.442671 0.089681 -0.015182 110021.000000 1 0 0
-13.910573 12.607367 -7.328476 20.153320 -0.736293 1.942965 0.051472 0.005552 -77302.200000 1 0 0
-13.090373 5.006767 -13.470076 19.438841 -0.365310 2.336364 0.066973 -0.026508 30766.800000 1 0 0
-13.811073 9.349667 -6.713476 17.978676 -0.595101 1.953482 0.024872 -0.009567 181459.000000 1 0 0
-6.639573 11.617267 -15.172776 20.230125 -1.051577 2.418872 0.015987 -0.026987 -13882.700000 1 0 0
-15.101773 13.826167 3.086424 20.706339 -0.741331 1.421182 0.058145 -0.028295 119675.000000 1 0 0
-18.515473 8.425667 -5.223276 21.002315 -0.427055 1.822134 0.074736 -0.015521 136095.000000 1 0 0
-4.733173 16.410267 -11.348076 20.505575 -1.289990 2.157254 0.037425 -0.001504 110008.000000 1 0 0
-19.367073 -1.470033 -6.846276 20.594077 0.075758 1.909685 0.053115 -0.013689 -241306.000000 1 0 0
-10.612573 13.194167 -6.337676 18.079792 -0.893416 1.928943 0.034978 -0.032216 58015.600000 1 0 0
-19.355773 3.049867 4.354524 20.072606 -0.156284 1.352119 0.078265 -0.015033 151501.000000 1 0 0
-15.237773 12.554567 0.488224 19.749563 -0.689152 1.546073 0.039230 -0.009680 71307.400000 1 0 0
-17.339473 2.724967 -8.066776 19.317237 -0.155879 2.001593 0.035016 -0.018996 182251.000000 1 0 0
-16.711973 13.764067 -3.874276 21.994308 -0.688970 1.747869 0.065398 0.021612 270328.000000 1 0 0
-11.100573 15.611267 -8.689976 21.034497 -0.952685 1.996684 0.065480 -0.015160 75146.300000 1 0 0
-19.352173 1.776667 -6.840976 20.602478 -0.091550 1.909268 0.086035 -0.022515 170037.000000 1 0 0
-17.394173 10.584567 -0.565476 20.369342 -0.546655 1.598561 0.074610 -0.005832 111280.000000 1 0 0
-11.648573 6.622167 -14.416276 19.681752 -0.516933 2.392738 0.042501 -0.025968 252499.000000 1 0 0
-13.763573 12.122267 -5.187676 19.060359 -0.722077 1.846445 0.059626 -0.022945 239944.000000 1 0 0
-18.970373 7.422967 0.138624 20.371419 -0.372978 1.563991 0.085806 -0.011977 239872.000000 1 0 0
-14.604573 8.636867 -10.267276 19.831943 -0.534058 2.114973 0.049329 -0.013096 582207.000000 1 0 0
-18.460673 11.234167 5.061324 22.195044 -0.546680 1.340734 0.082672 -0.037182 149079.000000 1 0 0
-7.981873 12.149267 -13.257576 19.674306 -0.989527 2.310207 -0.009142 -0.010347 327927.000000 1 0 0
-21.246473 -1.549633 -5.153576 21.917421 0.072807 1.808155 0.098832 -0.027745 162245.000000 1 0 0
-10.496073 13.499467 -3.545576 17.463513 -0.909915 1.775245 0.035101 -0.003586 351753.000000 1 0 0
-18.579973 -5.266433 3.876424 19.697141 0.276202 1.372702 0.043841 -0.013930 -82188.000000 1 0 0
-10.063373 10.940867 -13.393276 20.008845 -0.827151 2.304154 0.007098 -0.024643 94354.000000 1 0 0
-14.811873 11.178867 -10.407576 21.276191 -0.646517 2.081929 0.075031 -0.028436 205720.000000 1 0 0
-12.739873 9.634067 -13.896176 21.171285 -0.647466 2.286792 0.069272 -0.025197 333907.000000 1 0 0
-18.473473 -5.025033 -3.197376 19.409878 0.265588 1.736280 0.053582 -0.013439 -194730.000000 1 0 0
-9.655673 12.598367 -11.357976 19.518056 -0.916867 2.191886 0.031820 -0.017359 70887.100000 1 0 0
-15.838273 7.544467 -8.415176 19.457262 -0.444544 2.018055 0.046627 -0.005594 12644.500000 1 0 0
-14.904873 8.852767 2.000324 17.450731 -0.535960 1.455917 0.033354 -0.006918 -239085.000000 1 0 0
-19.681573 6.141467 7.816124 22.049348 -0.302467 1.208435 0.075875 -0.028386 234980.000000 1 0 0
-18.789973 5.854067 3.840924 20.052079 -0.302022 1.378058 0.041990 -0.009308 153957.000000 1 0 0
-14.438473 12.846467 5.686224 20.145331 -0.727117 1.284647 0.029499 -0.023913 101635.000000 1 0 0
18.174327 6.386567 5.844224 20.130806 0.337927 1.276243 0.045343 -0.020754 -74110.300000 1 0 0
18.237727 8.269967 0.467824 20.030624 0.425722 1.547439 0.040431 -0.005289 -95101.900000 1 0 0
16.112827 5.389167 8.961724 19.208821 0.322768 1.085419 0.045165 0.001908 37964.100000 1 0 0
12.566427 12.709467 10.961624 20.966708 0.791057 1.020651 0.052446 -0.020678 212737.000000 1 0 0
15.408127 12.379367 4.227524 20.212151 0.676830 1.360083 0.034213 -0.010979 134473.000000 1 0 0
5.488027 10.472767 14.603024 18.789508 1.088111 0.680608 0.029138 -0.007405 205904.000000 1 0 0
12.647427 14.212767 -5.189676 19.720367 0.843610 1.837096 0.059991 0.007054 286418.000000 1 0 0
17.870427 9.423267 -2.798576 20.395640 0.485257 1.708445 0.046401 -0.015833 -46263.900000 1 0 0
14.618527 7.685567 9.496324 19.051232 0.484028 1.048972 0.039208 -0.011684 74096.300000 1 0 0
4.627127 19.522967 -1.659076 20.132289 1.338081 1.653299 0.020265 -0.012766 441814.000000 1 0 0
-4.187073 18.696667 2.868924 19.373375 -1.350484 1.422164 0.016237 -0.035592 139640.000000 1 0 0
7.814427 12.845467 12.519424 19.565461 1.024266 0.876462 0.063109 -0.006026 -3716.090000 1 0 0
0.354727 16.812667 -10.129376 19.631502 1.549701 2.112943 0.027072 -0.007296 139925.000000 1 0 0
10.864727 9.548367 15.547824 21.235547 0.721001 0.749308 0.043707 -0.013367 294478.000000 1 0 0
-1.289173 12.341267 0.689824 12.427578 -1.466713 1.515260 0.001989 -0.002668 594439.000000 1 0 0
-4.109773 19.264067 -2.975676 19.921073 -1.360609 1.720731 0.024073 0.004779 102964.000000 1 0 0
5.880027 18.277567 6.477024 20.263169 1.259545 1.245441 0.040083 -0.021060 65170.200000 1 0 0
11.506127 17.205967 -1.914576 20.787060 0.981367 1.663031 0.061813 -0.019145 481791.000000 1 0 0
18.522527 10.602467 2.953824 21.545797 0.519885 1.433268 0.034789 -0.013140 312398.000000 1 0 0
11.748327 16.965667 5.970424 21.482621 0.965138 1.289169 0.038790 -0.001913 -154333.000000 1 0 0
18.254027 7.262167 -5.790276 20.481110 0.378642 1.857418 0.051907 0.005801 664837.000000 1 0 0
0.295727 15.412267 10.919524 18.890776 1.551611 0.954478 0.015984 -0.004155 454408.000000 1 0 0
1.167327 20.227367 -1.806576 20.341405 1.513150 1.659726 0.011393 -0.012942 241930.000000 1 0 0
14.515127 9.823667 -1.253476 17.571697 0.594977 1.642192 0.033981 -0.013736 34329.700000 1 0 0
10.439527 17.089967 2.024424 20.128313 1.022432 1.470050 0.058269 -0.027067 295195.000000 1 0 0
0.341327 17.722667 -0.412976 17.730764 1.551539 1.594090 -0.002225 -0.003470 30173.300000 1 0 0
-0.067273 21.028767 1.310724 21.069684 -1.567597 1.508547 0.020094 -0.018008 235828.000000 1 0 0
5.490827 18.271367 0.153624 19.079194 1.278867 1.562744 0.014834 -0.005934 -166888.000000 1 0 0
6.593127 18.433267 -2.350976 19.717549 1.227300 1.690313 0.015984 -0.020077 -130691.000000 1 0 0
10.867727 9.450167 12.790224 19.261438 0.715742 0.844597 0.036023 -0.004064 -314139.000000 1 0 0
12.754127 14.829367 7.979224 21.124533 0.860492 1.183460 0.041005 -0.020753 251257.000000 1 0 0
0.395627 17.535667 6.935324 18.861465 1.548239 1.194264 0.014304 -0.004928 303301.000000 1 0 0
7.265127 17.916967 -7.900376 20.885778 1.185567 1.958719 0.044448 -0.017611 105895.000000 1 0 0
-1.014573 18.686467 9.663924 21.061929 -1.516555 1.094114 0.041211 0.000423 -39857.300000 1 0 0
16.234227 6.897367 -7.983976 19.361500 0.401757 1.995843 0.065390 0.002826 -120223.000000 1 0 0
-5.362773 19.552767 -6.587176 21.318089 -1.303107 1.884932 0.036043 -0.010056 277835.000000 1 0 0
4.439827 15.791367 10.012824 19.218116 1.296717 1.022763 0.028527 0.003440 222792.000000 1 0 0
8.916327 14.822067 7.499824 18.853167 1.029232 1.161677 0.018304 -0.009091 -55293.500000 1 0 0
-2.371273 19.373567 6.373024 20.532254 -1.449005 1.255192 0.025781 -0.013809 179137.000000 1 0 0
4.811027 17.800667 8.369624 20.249947 1.306831 1.144704 0.029139 -0.009268 175004.000000 1 0 0
15.009127 11.977967 -6.394876 20.239566 0.673548 1.892264 0.085274 -0.022205 171158.000000 1 0 0
11.899927 6.726167 15.575424 20.723017 0.514459 0.720312 0.065470 -0.021692 279007.000000 1 0 0
17.134027 9.163167 4.962224 20.053982 0.491093 1.320756 0.036565 -0.019169 163161.000000 1 0 0
5.554127 14.617567 12.308024 19.899976 1.207682 0.903971 0.032274 -0.025835 114803.000000 1 0 0
15.619527 10.634567 -3.717476 19.258330 0.597758 1.765048 0.052436 -0.031629 -65143.300000 1 0 0
15.309427 14.339367 6.797224 22.049904 0.752691 1.257427 0.052578 0.008362 249953.000000 1 0 0
12.922227 13.049367 -8.093476 20.069237 0.790293 1.985892 0.139798 -0.058469 539215.000000 1 0 0
-8.502473 15.622167 9.705224 20.261676 -1.072373 1.071288 0.049459 -0.015130 305575.000000 1 0 0
-3.629573 17.275967 -7.891376 19.336666 -1.363714 1.991173 0.011705 0.020421 131699.000000 1 0 0
2.154127 19.659267 -4.586076 20.301703 1.461659 1.798659 0.013279 -0.018089 44454.100000 1 0 0
7.237327 16.674867 8.577024 20.099638 1.161305 1.129928 0.037360 -0.003486 540418.000000 1 0 0
13.630627 15.411567 -1.821376 20.654970 0.846644 1.659092 0.082309 -0.027400 360451.000000 1 0 0
13.586527 16.407067 4.394224 21.750742 0.879161 1.367370 0.064088 -0.021393 261947.000000 1 0 0
2.408527 18.335467 0.638524 18.504001 1.440185 1.536282 0.008482 -0.021818 -158663.000000 1 0 0
-7.624373 17.196467 1.239224 18.851664 -1.153471 1.505013 0.035507 -0.008333 378806.000000 1 0 0
0.281727 20.058067 -5.968376 20.929093 1.556752 1.859981 0.026574 0.006287 162087.000000 1 0 0
-7.477973 17.980167 -6.433876 20.508565 -1.176658 1.889901 0.060384 -0.019220 146379.000000 1 0 0
-7.209873 18.559467 -1.477976 19.965483 -1.200265 1.644891 0.052215 -0.014632 264722.000000 1 0 0
-14.592773 -9.450433 8.854824 19.510705 0.574694 1.099721 0.051898 -0.003835 404135.000000 1 0 0
-13.255273 -13.675033 7.779424 20.572512 0.800984 1.183003 0.046439 -0.004716 111746.000000 1 0 0
-4.060073 -15.725733 12.694924 20.614169 1.318134 0.907351 0.048920 -0.009111 122265.000000 1 0 0
-1.991973 -15.027033 15.311724 21.545964 1.439005 0.780369 0.017469 0.000114 472075.000000 1 0 0
-7.878173 -13.595833 13.487824 20.708300 1.045620 0.861468 0.046946 -0.009321 241428.000000 1 0 0
-10.042773 -10.898633 11.708524 18.887219 0.826245 0.902158 0.052932 -0.015920 49523.000000 1 0 0
-7.329673 -10.366033 12.966924 18.147172 0.955331 0.774827 0.034576 -0.015036 452774.000000 1 0 0
-15.373973 -12.340733 7.067224 20.942741 0.676387 1.226585 0.046405 -0.010463 309358.000000 1 0 0
-5.128473 -12.581933 13.776124 19.349105 1.183750 0.778486 0.038546 -0.006504 403579.000000 1 0 0
3.437127 -12.497933 14.058724 19.122236 -1.302416 0.744830 -0.000053 0.003950 612817.000000 1 0 0
6.082527 -13.692033 14.749424 21.024139 -1.152744 0.793230 0.020589 0.000736 240096.000000 1 0 0
6.923427 -9.129233 16.761124 20.303005 -0.921954 0.599622 0.052395 -0.011726 490936.000000 1 0 0
-5.016673 13.625867 13.426224 19.776116 -1.218025 0.824518 0.002821 0.001973 479530.000000 1 0 0
-13.242973 -1.742233 17.694124 22.169658 0.130808 0.646622 0.054292 -0.008164 190666.000000 1 0 0
-10.495373 10.033167 12.748524 19.322064 -0.762887 0.850256 0.023686 -0.000405 515166.000000 1 0 0
-7.143473 -8.190433 17.298124 20.428840 0.853570 0.560950 0.034103 -0.008598 65136.300000 1 0 0
-5.105273 3.131267 17.958824 18.931139 -0.550170 0.321889 0.025087 -0.009041 600019.000000 1 0 0
-15.334373 -4.068833 13.064224 20.551699 0.259364 0.881912 0.073168 -0.028648 -29618.600000 1 0 0
-14.484973 3.096567 12.563824 19.422998 -0.210608 0.867346 0.036856 -0.014099 275391.000000 1 0 0
-14.838773 10.741867 9.414424 20.596317 -0.626590 1.096073 -0.004265 -0.007872 -55274.300000 1 0 0
-4.604873 11.225667 15.615524 19.775365 -1.181520 0.660566 0.023139 -0.007548 246254.000000 1 0 0
-13.466673 12.673767 8.096824 20.187477 -0.755075 1.158099 0.020027 -0.036112 135650.000000 1 0 0
-4.269573 -6.511933 18.555124 20.122802 0.990457 0.397338 0.026194 -0.015407 388842.000000 1 0 0
0.417927 -2.696533 18.067524 18.272421 -1.417033 0.149897 0.011934 -0.013772 162310.000000 1 0 0
-4.453573 6.353467 21.205724 22.580602 -0.959421 0.350758 0.050425 -0.016118 268273.000000 1 0 0
2.046927 -10.341833 16.478024 19.561920 -1.375395 0.569163 -0.004407 -0.011776 245390.000000 1 0 0
-15.005373 -0.205533 14.017524 20.535200 0.013696 0.819469 0.045213 -0.011814 66337.700000 1 0 0
-13.940373 -6.045533 8.288524 17.308440 0.409192 1.071427 0.036532 -0.005971 8593.700000 1 0 0
9.667227 2.304767 16.813024 19.530617 0.234041 0.533849 0.028998 -0.004189 315835.000000 1 0 0
-7.805873 12.563167 12.531424 19.385598 -1.014840 0.867901 0.020806 0.008620 53294.300000 1 0 0
-2.304473 7.334567 20.605124 21.992672 -1.266369 0.357117 0.068947 -0.014609 526622.000000 1 0 0
1.072027 -12.837933 15.304724 20.004908 -1.487485 0.699680 -0.008355 -0.022930 468751.000000 1 0 0
-3.598773 -11.774333 17.607024 21.484724 1.274168 0.610235 0.034797 -0.013157 337131.000000 1 0 0
-2.169873 9.007767 16.692924 19.091934 -1.334411 0.506713 0.024454 -0.011812 586949.000000 1 0 0
-4.070073 -9.655233 20.412024 22.944275 1.171859 0.474252 0.031409 -0.015754 387597.000000 1 0 0
-6.616173 -2.470333 19.125724 20.387977 0.357348 0.353727 0.017904 -0.009705 323944.000000 1 0 0
-11.019473 -7.822933 16.173424 21.076212 0.617352 0.696054 0.066317 -0.020714 167313.000000 1 0 0
-0.316773 6.105367 17.844024 18.862265 -1.518958 0.330078 0.029387 -0.015094 143390.000000 1 0 0
-6.158273 -11.491133 18.581524 22.698976 1.078831 0.611816 0.061709 -0.021632 365948.000000 1 0 0
0.844727 3.695667 19.069224 19.442398 1.346084 0.196242 0.021430 0.000947 67862.400000 1 0 0
-18.484373 -0.293833 7.691824 20.023050 0.015895 1.176511 0.066310 -0.024314 244455.000000 1 0 0
-1.842573 -8.706733 17.699524 19.810993 1.362247 0.465896 0.010291 -0.008456 343105.000000 1 0 0
5.269127 3.402967 14.080324 15.414260 0.573439 0.419087 0.011761 -0.009326 78167.900000 1 0 0
-14.321273 -6.908133 10.366824 18.981365 0.449443 0.993025 0.066475 -0.005486 81667.500000 1 0 0
4.053027 8.286967 16.624324 19.012338 1.115919 0.506605 0.032461 -0.017464 248816.000000 1 0 0
6.343627 4.384467 16.790624 18.476748 0.604769 0.430533 0.042897 -0.048073 214453.000000 1 0 0
5.302827 -9.463433 18.363424 21.328195 -1.060042 0.533578 0.025166 0.003421 387945.000000 1 0 0
-4.483473 -0.144733 19.527724 20.036329 0.032270 0.225798 0.029212 -0.025363 688244.000000 1 0 0
-11.079173 2.519267 16.374124 19.930046 -0.223586 0.606620 0.031872 -0.021716 21085.700000 1 0 0
-16.621373 -4.167433 8.925924 19.321223 0.245663 1.090575 0.042256 -0.013576 89901.200000 1 0 0
-13.424273 -9.339333 12.885624 20.820028 0.607838 0.903448 0.065035 -0.028668 23481.900000 1 0 0
-14.914973 6.091367 12.689024 20.507865 -0.387732 0.903659 0.053809 -0.036096 280836.000000 1 0 0
1.414327 9.344867 16.783324 19.261538 1.420588 0.512872 0.039388 -0.029528 154362.000000 1 0 0
-3.885673 -10.025333 14.731224 18.237728 1.201038 0.630499 0.022334 -0.022448 621454.000000 1 0 0
-18.811373 -3.094433 6.677124 20.199685 0.163038 1.233904 0.128740 -0.019045 -260970.000000 1 0 0
-0.587773 -0.449833 20.511524 20.524874 0.653232 0.036069 0.033167 -0.029767 194314.000000 1 0 0
-1.805273 3.154567 20.474624 20.794724 -1.051014 0.175687 0.031398 -0.009235 94210.900000 1 0 0
-7.990073 2.509367 16.167424 18.207795 -0.304306 0.477950 0.003068 0.004130 534362.000000 1 0 0
2.841927 -1.648033 19.144324 19.424153 -0.525509 0.169947 0.021495 0.004773 165284.000000 1 0 0
-12.517973 4.530867 14.316824 19.549932 -0.347280 0.749072 0.022028 -0.016349 133367.000000 1 0 0
-13.188673 -5.598233 13.546624 19.717818 0.401424 0.813410 0.028299 -0.011327 -57878.700000 1 0 0
-17.536273 -0.857433 9.611624 20.015978 0.048856 1.069916 0.078254 -0.026367 243855.000000 1 0 0
-7.347073 7.966467 14.662324 18.232603 -0.825824 0.636499 0.002611 -0.003649 -16521.300000 1 0 0
-9.602073 0.932067 14.074424 17.063352 -0.096766 0.600889 0.012625 -0.005148 64270.100000 1 0 0
7.390427 -0.873133 15.213724 16.936297 -0.117599 0.454932 0.015329 -0.003753 75580.500000 1 0 0
3.675327 6.333067 18.335124 19.743164 1.044959 0.379953 0.019759 -0.008997 129228.000000 1 0 0
1.822127 0.775167 19.979724 20.077610 0.402225 0.098786 0.026414 -0.006094 335249.000000 1 0 0
-7.164073 6.675267 17.376424 19.945507 -0.750093 0.513165 0.015845 -0.014695 663587.000000 1 0 0
7.465827 -2.769433 17.141324 18.900617 -0.355213 0.434884 0.021562 0.014358 393232.000000 1 0 0
-16.134073 2.676367 9.446124 18.886517 -0.164386 1.047022 0.034265 -0.018561 181129.000000 1 0 0
3.986527 -5.669533 19.164924 20.379654 -0.957960 0.347007 0.032693 -0.023612 134254.000000 1 0 0
-4.050473 -3.762133 20.513224 21.245054 0.748508 0.263236 0.031111 -0.017764 275470.000000 1 0 0
-10.082073 5.838767 14.303724 18.448196 -0.524928 0.683534 0.024914 -0.012852 -32413.700000 1 0 0
6.347827 3.035067 19.686424 20.906024 0.445997 0.343259 0.059917 -0.026805 169489.000000 1 0 0
-6.546273 11.209267 13.958524 19.061526 -1.042221 0.749121 -0.008034 -0.021631 131877.000000 1 0 0
-14.529273 4.958067 9.445424 18.024934 -0.328856 1.019232 0.016224 -0.017991 372701.000000 1 0 0
1.385327 -4.737633 20.147324 20.743167 -1.286318 0.240264 0.042028 -0.031248 333524.000000 1 0 0
-6.153473 -8.164033 13.699824 17.093913 0.924913 0.641090 0.016014 -0.005857 249907.000000 1 0 0
-12.726773 10.075367 6.453224 17.467910 -0.669639 1.192397 -0.013290 -0.021196 174607.000000 1 0 0
-19.563573 2.555367 7.824024 21.224482 -0.129883 1.193259 0.060980 -0.029457 15420.100000 1 0 0
-16.587373 9.115667 6.453524 19.997107 -0.502501 1.242191 0.047010 -0.018037 141352.000000 1 0 0
-13.182073 7.160767 14.352624 20.761538 -0.497623 0.807498 0.045783 -0.017614 -221320.000000 1 0 0
-16.489273 8.807467 11.101724 21.742030 -0.490580 1.034901 0.034653 -0.020719 376463.000000 1 0 0
2.648627 10.652767 14.509324 18.193877 1.327105 0.647683 0.037797 -0.051154 447554.000000 1 0 0
1.829127 14.891967 13.614224 20.259898 1.448582 0.833919 0.029679 -0.009109 713687.000000 1 0 0
8.617127 5.115167 16.585924 19.378150 0.535704 0.543491 0.036117 -0.009517 19445.500000 1 0 0
-0.052373 13.147467 13.543524 18.875531 -1.566813 0.770565 0.019556 0.003792 321900.000000 1 0 0
4.385927 12.985867 14.873624 20.226067 1.245079 0.744585 0.054219 -0.003646 142552.000000 1 0 0
-3.589673 -4.606733 -13.663476 14.859284 0.908853 2.737665 0.001232 -0.007800 107293.000000 1 0 0
5.020527 -11.611933 17.030524 21.215123 -1.162709 0.638897 -0.005280 0.006659 407427.000000 1 0 0
8.726927 -13.844833 7.223124 17.888884 -1.008368 1.155154 0.022605 -0.009152 317215.000000 1 0 0
-0.178273 15.305767 0.399724 15.312024 -1.559149 1.544688 -0.004812 -0.005089 -471427.000000 1 0 0
-14.254073 7.596367 8.566224 18.282877 -0.489640 1.083161 0.008376 -0.013406 -6625.330000 1 0 0
-16.165273 -9.893933 4.269824 19.427747 0.549232 1.349208 0.036363 -0.007209 145131.000000 1 0 0
8.677927 -10.992333 11.341924 18.021572 -0.902520 0.890076 0.011067 0.005568 21977.900000 1 0 0
-26.371973 5.565267 31.261095 41.276013 -0.207978 0.711525 0.072435 -0.022080 667759.000000 0 0 1
-25.180033 4.880167 30.815705 40.093114 -0.191438 0.694141 0.059243 -0.018617 452230.000000 0 0 1
-24.074173 5.299167 31.555805 40.042675 -0.216663 0.663154 0.056413 -0.009610 -570493.000000 0 0 1
-22.780073 4.580667 31.186185 38.890775 -0.198436 0.640342 0.040031 -0.013953 -502409.000000 0 0 1
-22.617873 3.262367 31.635248 39.025635 -0.143250 0.625574 0.021485 -0.015612 -351960.000000 0 0 1
-21.327673 2.840167 31.293305 37.976402 -0.132389 0.602327 0.026303 -0.004735 -241934.000000 0 0 1
-21.004873 1.595567 32.164368 38.448629 -0.075816 0.579833 0.024161 -0.000846 251571.000000 0 0 1
-21.925173 0.531167 31.920057 38.728354 -0.024222 0.602002 0.020945 0.008098 540547.000000 0 0 1
-21.703973 -0.491733 32.840646 39.367655 0.022652 0.584109 0.020619 0.012882 -152057.000000 0 0 1
-22.395573 -1.827433 32.563039 39.563275 0.081418 0.604014 0.030733 -0.018828 -492461.000000 0 0 1
-21.721873 -2.621933 31.596595 38.432527 0.120124 0.605651 0.041410 -0.021683 268103.000000 0 0 1
-21.875173 -4.018633 31.869497 38.863060 0.181682 0.609305 0.051956 -0.027233 446437.000000 0 0 1
-23.285673 -4.719933 31.635743 39.564133 0.199987 0.644156 0.033292 -0.014958 1503150.000000 0 0 1
-24.290673 -4.231233 32.560659 40.842829 0.172461 0.648123 0.017209 -0.011221 598442.000000 0 0 1
-24.336873 -4.820433 33.819245 41.943549 0.195540 0.632920 0.016500 -0.018643 -554546.000000 0 0 1
-25.326613 -4.062133 -32.973946 41.775823 0.159035 2.480476 0.011029 -0.012025 -73850.500000 0 0 1
-25.552313 -4.629533 -31.720436 40.994382 0.179234 2.455576 0.015608 -0.023924 292503.000000 0 0 1
-26.798293 -4.164633 -31.225146 41.358221 0.154173 2.426439 0.027412 -0.023960 -94962.400000 0 0 1
-27.022933 -4.660533 -29.799186 40.496308 0.170786 2.397717 0.016668 -0.020273 -956973.000000 0 0 1
-27.449363 -6.008633 -29.693956 40.881563 0.215500 2.383780 0.011332 -0.014918 664607.000000 0 0 1
-27.023333 -6.672433 -28.453336 39.804198 0.242072 2.367181 -0.002379 -0.011390 -43024.400000 0 0 1
-27.186833 -8.222633 -28.520186 40.250920 0.293702 2.358252 0.002726 -0.006232 -1159970.000000 0 0 1
-28.479593 -8.699333 -28.558806 41.259799 0.296457 2.335288 0.011096 -0.007386 -1019550.000000 0 0 1
-28.603853 -10.099733 -28.331496 41.507333 0.339425 2.322064 0.012766 -0.000770 1239830.000000 0 0 1
-30.050593 -10.292533 -27.707516 42.150692 0.329984 2.288086 0.074280 -0.008686 1220990.000000 0 0 1
-30.116103 -11.286733 -26.733896 41.821899 0.358573 2.264295 0.106185 -0.014101 873512.000000 0 0 1
-31.471963 -11.293333 -26.235826 42.501087 0.344526 2.236100 0.107533 -0.017886 880251.000000 0 0 1
-31.544263 -12.026233 -24.869276 41.930320 0.364238 2.205712 0.124738 -0.023157 47065.700000 0 0 1
-30.668363 -11.399033 -23.944076 40.543868 0.355863 2.202564 0.128866 -0.025649 364358.000000 0 0 1
-30.781253 -11.915933 -22.612976 40.010270 0.369351 2.171447 0.150832 -0.029851 914998.000000 0 0 1
-29.791063 -11.153333 -21.545476 38.420201 0.358232 2.166130 0.161336 -0.032249 781121.000000 0 0 1
-29.769473 -11.677133 -20.244276 37.847162 0.373809 2.135180 0.177033 -0.035573 -38562.600000 0 0 1
-28.924503 -12.773333 -19.983876 37.405083 0.415854 2.134423 0.178914 -0.042381 -321665.000000 0 0 1
-28.634783 -12.947333 -18.466276 36.449795 0.424644 2.102059 0.150333 -0.048042 231543.000000 0 0 1
-27.847023 -11.931933 -17.840376 35.158310 0.404816 2.102996 0.115460 -0.041417 311775.000000 0 0 1
-27.717263 -12.249533 -16.455776 34.483189 0.416136 2.068275 0.137389 -0.047678 -21369.600000 0 0 1
-27.422633 -10.968433 -15.635976 33.418424 0.380487 2.057692 0.117865 -0.035535 -356861.000000 0 0 1
-26.101683 -10.538533 -15.872976 32.315784 0.383734 2.084244 0.105199 -0.037089 203314.000000 0 0 1
-25.945193 -9.259833 -15.312376 31.517716 0.342808 2.078113 0.099641 -0.044408 -470317.000000 0 0 1
-24.533273 -8.699333 -15.577776 30.335243 0.340761 2.110079 0.107517 -0.043184 -51474.200000 0 0 1
-23.564573 -9.329633 -14.760376 29.329164 0.376982 2.098171 0.116772 -0.043698 -703111.000000 0 0 1
-22.394273 -8.597233 -14.791876 28.181829 0.366553 2.123362 0.112562 -0.064401 -668884.000000 0 0 1
-21.298073 -9.110433 -13.811276 26.969599 0.404205 2.108430 0.093974 -0.035487 -113393.000000 0 0 1
-20.528673 -10.153933 -14.345676 27.024566 0.459336 2.130386 0.097371 -0.026477 744327.000000 0 0 1
-19.368273 -10.476333 -13.582576 25.872184 0.495831 2.123497 0.103136 -0.021681 584674.000000 0 0 1
-18.325873 -11.465333 -14.139676 25.830639 0.559057 2.150050 0.095738 -0.017527 429654.000000 0 0 1
-17.484173 -11.021933 -15.194776 25.652691 0.562469 2.204740 0.098153 -0.028207 439717.000000 0 0 1
-18.087073 -11.360333 -16.425976 26.944611 0.560819 2.226378 0.099104 -0.030778 -166281.000000 0 0 1
-17.483073 -10.605533 -17.588376 26.971951 0.545271 2.281146 0.098181 -0.033281 -261962.000000 0 0 1
-18.035073 -11.001833 -18.832176 28.301149 0.547758 2.298854 0.075226 -0.027058 191262.000000 0 0 1
-17.663873 -10.207433 -19.902176 28.500890 0.523989 2.343816 0.076572 -0.029945 -403472.000000 0 0 1
-18.531873 -10.566933 -21.128076 30.024756 0.518222 2.351372 0.084742 -0.027853 -360594.000000 0 0 1
-19.852273 -10.143933 -20.896576 30.556162 0.472386 2.323856 0.090754 -0.039119 70327.100000 0 0 1
-20.690173 -10.540133 -22.010176 31.994148 0.471161 2.329448 0.082935 -0.026783 18616.000000 0 0 1
-21.994973 -9.765433 -21.992376 32.600723 0.417840 2.311216 0.070403 -0.025899 -574924.000000 0 0 1
-21.745573 -8.540933 -22.656276 32.544190 0.374255 2.340844 0.080916 -0.032009 1810240.000000 0 0 1
-22.971873 -8.138833 -23.364376 33.761541 0.340496 2.335109 0.062032 -0.034479 1382690.000000 0 0 1
-22.620673 -7.347233 -24.630276 34.239264 0.314053 2.373673 0.074712 -0.038215 -107079.000000 0 0 1
-21.854973 -8.124433 -25.507466 34.558314 0.355912 2.401045 0.077321 -0.035213 52889.800000 0 0 1
-21.270073 -7.333933 -26.497186 34.760659 0.332035 2.437617 0.071466 -0.036961 504440.000000 0 0 1
-20.037773 -7.914333 -27.303196 34.779499 0.376163 2.473552 0.086041 -0.036115 679486.000000 0 0 1
-20.327073 -8.946733 -28.226486 35.916131 0.414623 2.474947 0.077866 -0.029466 -77057.900000 0 0 1
-19.133673 -9.427933 -28.786356 35.827889 0.457823 2.503884 0.050195 -0.022365 -375713.000000 0 0 1
-19.255873 -10.687833 -29.698636 36.973334 0.506707 2.503519 0.058343 -0.020283 -311344.000000 0 0 1
-19.702173 -10.445533 -30.996096 38.184326 0.487493 2.517937 0.055662 -0.013743 211758.000000 0 0 1
-19.799273 -11.632633 -31.778436 39.207121 0.531199 2.515848 0.047232 -0.015153 -416329.000000 0 0 1
-20.489573 -11.489733 -33.087466 40.578528 0.511067 2.524205 0.040265 -0.019453 -50916.700000 0 0 1
-19.717973 -10.746433 33.603457 40.416291 0.499002 0.589114 0.039013 -0.017129 550143.000000 0 0 1
-20.421873 -10.837933 32.397784 39.801132 0.487907 0.619805 0.037625 -0.023592 -187685.000000 0 0 1
-19.906973 -11.922633 31.454245 39.087163 0.539623 0.635592 0.052883 -0.018510 -71249.500000 0 0 1
-18.525973 -11.730333 31.158655 38.100842 0.564462 0.613228 0.062338 -0.021854 542640.000000 0 0 1
-18.032073 -12.605433 30.134515 37.311414 0.610092 0.630643 0.066486 -0.021963 73237.500000 0 0 1
-18.086873 -14.156533 30.393095 38.095704 0.664101 0.647144 0.071379 -0.016950 431008.000000 0 0 1
-19.403873 -14.747033 30.236305 38.835801 0.649873 0.678416 0.054762 -0.015390 845204.000000 0 0 1
-19.304073 -16.145233 30.377485 39.447527 0.696524 0.691840 0.067529 -0.022807 -85251.700000 0 0 1
-19.378673 -16.739233 31.800172 40.828738 0.712449 0.677938 0.038325 -0.024724 -363987.000000 0 0 1
-18.318373 -16.352133 32.625907 40.833869 0.728747 0.645180 0.057862 -0.021498 -316235.000000 0 0 1
-18.828573 -15.720333 33.803705 41.765231 0.695673 0.627710 0.045870 -0.021627 -139031.000000 0 0 1
-17.784273 -15.255833 -32.869276 40.365952 0.709021 2.522288 0.057127 -0.025542 -329545.000000 0 0 1
-17.236873 -13.998033 -33.197576 39.939126 0.682074 2.552067 0.054185 -0.021430 -127885.000000 0 0 1
-16.080973 -13.610233 -32.483956 38.717483 0.702375 2.566239 0.069775 -0.024182 -20657.900000 0 0 1
-16.226573 -13.222833 -30.981026 37.389423 0.683753 2.547406 0.073226 -0.025488 -185713.000000 0 0 1
-16.576873 -14.267033 -30.095476 37.203207 0.710650 2.513157 0.057904 -0.027670 -21168.800000 0 0 1
-17.017673 -13.878733 -28.777546 36.199000 0.684150 2.489774 0.046060 -0.022810 -133246.000000 0 0 1
-17.065973 -15.113033 -27.920656 36.044614 0.724783 2.456901 0.050705 -0.020655 883857.000000 0 0 1
-15.840773 -15.734733 -27.497536 35.420706 0.782040 2.459591 0.088530 -0.032622 811204.000000 0 0 1
-14.949773 -16.338633 -28.401936 36.015505 0.829758 2.479330 0.108028 -0.039172 194710.000000 0 0 1
-13.565873 -16.827633 -27.909726 35.300920 0.892307 2.482622 0.152664 -0.039370 123963.000000 0 0 1
-12.509873 -15.937333 -28.151206 34.684087 0.905305 2.517761 0.145497 -0.043537 691473.000000 0 0 1
-11.247373 -16.516133 -27.728356 34.178177 0.972941 2.517149 0.176101 -0.050413 1144480.000000 0 0 1
-9.974473 -15.756533 -28.124836 33.745590 1.006438 2.556095 0.167876 -0.056133 124485.000000 0 0 1
-9.768473 -14.639633 -27.252336 32.441204 0.982382 2.568178 0.148116 -0.039755 547611.000000 0 0 1
-8.458273 -14.124533 -27.542216 32.087669 1.031233 2.602827 0.165227 -0.044394 710230.000000 0 0 1
-8.347173 -12.581633 -27.656026 31.509182 0.985030 2.641865 0.119765 -0.047379 -104162.000000 0 0 1
-8.821273 -12.114033 -28.918346 32.570468 0.941403 2.663491 0.153305 -0.039974 305230.000000 0 0 1
-8.638273 -10.728633 -29.109176 32.203532 0.892917 2.699627 0.129837 -0.036818 157700.000000 0 0 1
-7.415473 -10.382233 -30.008356 32.607996 0.950573 2.739582 0.121278 -0.026574 257119.000000 0 0 1
-6.139473 -10.625233 -29.399246 31.857564 1.046845 2.746171 0.102387 -0.029653 1214610.000000 0 0 1
-5.011073 -10.344433 -30.228906 32.340453 1.119688 2.778235 0.102122 -0.036143 371481.000000 0 0 1
-4.825573 -8.911733 -30.820126 32.443571 1.074514 2.823907 0.092490 -0.030664 -153366.000000 0 0 1
-3.557973 -8.699833 -31.499116 32.871577 1.182581 2.851606 0.095433 -0.043844 1169320.000000 0 0 1
-3.587673 -7.340733 -31.963146 32.990915 1.116201 2.891328 0.092378 -0.039627 252630.000000 0 0 1
-2.187673 -6.785333 -32.337546 33.114099 1.258907 2.924599 0.091869 -0.047695 122240.000000 0 0 1
-1.650173 -7.352833 -33.521556 34.358142 1.350027 2.920466 0.104078 -0.055750 -254007.000000 0 0 1
-0.432973 -6.745933 33.807535 34.476724 1.506701 0.197347 0.121006 -0.050276 -237418.000000 0 0 1
0.172527 -7.209733 32.508200 33.298545 -1.546871 0.218310 0.105703 -0.049369 -629263.000000 0 0 1
-0.560673 -6.919533 31.369235 32.128231 1.489945 0.217796 0.102508 -0.040980 229587.000000 0 0 1
0.086627 -7.548333 30.212145 31.140947 -1.559321 0.244848 0.081330 -0.039470 341999.000000 0 0 1
-0.228773 -6.818033 28.897885 29.692182 1.537255 0.231824 0.079716 -0.030707 -57648.400000 0 0 1
0.566027 -5.687033 28.670635 29.234706 -1.471594 0.196758 0.091451 -0.033704 178165.000000 0 0 1
0.293527 -5.190833 27.317155 27.807515 -1.514309 0.188075 0.089050 -0.028758 295728.000000 0 0 1
-0.926573 -4.229033 27.127275 27.470572 1.355106 0.158259 0.082258 -0.017613 445088.000000 0 0 1
-2.174173 -4.831833 27.367185 27.875374 1.147969 0.191240 0.060443 -0.009107 -1047180.000000 0 0 1
-3.181573 -4.001433 26.950485 27.431050 0.899045 0.187459 0.048242 -0.010743 -1254120.000000 0 0 1
-4.596673 -4.448433 27.261875 28.002282 0.769011 0.230470 0.041609 -0.010535 -585754.000000 0 0 1
-4.966173 -5.602333 26.542755 27.578377 0.845520 0.274916 0.039926 -0.004136 43147.300000 0 0 1
-6.303373 -5.921833 26.908395 28.264153 0.754199 0.310985 0.038561 -0.008119 707234.000000 0 0 1
-6.669573 -7.436933 26.636985 28.448553 0.839742 0.358793 0.058062 -0.010265 234660.000000 0 0 1
-6.024173 -8.128833 27.666715 29.458712 0.933024 0.350593 0.063339 -0.016682 -189022.000000 0 0 1
-6.175073 -9.541133 27.632945 29.878829 0.996388 0.390198 0.069083 -0.024467 -373827.000000 0 0 1
-5.497573 -10.228433 28.760315 31.016123 1.077617 0.383743 0.069459 -0.029874 -239579.000000 0 0 1
-5.665873 -11.601233 28.767335 31.531735 1.116483 0.421858 0.094328 -0.038831 230073.000000 0 0 1
-4.964173 -12.108733 29.929065 32.665171 1.181728 0.412210 0.103847 -0.043274 137223.000000 0 0 1
-4.954573 -13.678333 29.896845 33.248548 1.223276 0.452876 0.123128 -0.049684 1516920.000000 0 0 1
-6.276073 -14.239833 29.589385 33.431926 1.155669 0.484165 0.150337 -0.054063 1317160.000000 0 0 1
-6.292173 -15.665233 29.567195 34.047173 1.188856 0.518793 0.142527 -0.052076 115155.000000 0 0 1
-6.412973 -16.376133 30.927335 35.578140 1.197548 0.517054 0.166938 -0.052848 -298475.000000 0 0 1
-7.690173 -16.149933 31.447395 36.178692 1.126391 0.517165 0.162513 -0.059289 -472072.000000 0 0 1
-7.769073 -16.473233 32.801996 37.519286 1.130111 0.506866 0.173161 -0.056506 80114.500000 0 0 1
-9.255973 -16.587133 33.229906 38.275745 1.061816 0.519291 0.193048 -0.057469 552935.000000 0 0 1
-9.881873 -17.757333 32.706408 38.505628 1.062980 0.555962 0.182969 -0.056864 458411.000000 0 0 1
-10.600273 -17.620433 31.458945 37.583383 1.029209 0.578938 0.174496 -0.057175 -307044.000000 0 0 1
-11.463573 -18.804133 31.106025 38.112908 1.023326 0.616072 0.152296 -0.049441 -631931.000000 0 0 1
-12.529773 -19.076833 31.973286 39.283735 0.989652 0.619952 0.159302 -0.052663 -11780.400000 0 0 1
-12.985673 -20.428433 31.987272 40.114015 1.004563 0.647807 0.129776 -0.048441 -395248.000000 0 0 1
-12.265273 -21.281833 33.006639 41.143548 1.047966 0.639773 0.119759 -0.037507 -358770.000000 0 0 1
-10.923173 -21.598533 32.729706 40.706830 1.102570 0.636746 0.119008 -0.043581 -168870.000000 0 0 1
-10.213673 -22.336233 33.713585 41.711296 1.141914 0.629605 0.107626 -0.043257 91783.000000 0 0 1
-10.673773 -23.776233 -33.710446 42.610243 1.148836 2.483458 0.098666 -0.026858 -362836.000000 0 0 1
-10.399973 -24.617533 32.852499 42.349369 1.171077 0.682894 0.091238 -0.029760 -66978.200000 0 0 1
-10.615873 -26.004433 32.978748 43.318877 1.183213 0.705478 0.096655 -0.027782 -340931.000000 0 0 1
-9.860073 -26.885243 31.901887 42.869193 1.219281 0.731508 0.071712 -0.020747 1333400.000000 0 0 1
-8.426073 -26.792193 31.851849 42.465994 1.266093 0.722650 0.094132 -0.038198 1122300.000000 0 0 1
-7.646673 -27.444383 32.866717 43.495826 1.299064 0.714182 0.082503 -0.037189 1099500.000000 0 0 1
-6.112573 -27.079833 32.841335 43.002723 1.348793 0.701766 0.096165 -0.044590 1140370.000000 0 0 1
-5.775173 -25.955303 33.633235 42.874525 1.351858 0.668976 0.101620 -0.039205 16353.900000 0 0 1
-5.481273 -24.823633 32.829746 41.521673 1.353475 0.658901 0.131409 -0.039109 -58275.700000 0 0 1
-4.945573 -23.651533 33.652725 41.428971 1.364665 0.622713 0.139083 -0.040088 -543813.000000 0 0 1
-3.604573 -23.814933 -33.692556 41.416570 1.420579 2.520949 0.151037 -0.052256 -534811.000000 0 0 1
-2.998173 -22.604233 -33.282746 40.344536 1.438928 2.540933 0.121016 -0.046400 118026.000000 0 0 1
35.290596 -15.720533 2.281024 38.700961 -0.419072 1.511822 0.218465 -0.051460 559557.000000 0 0 1
36.272876 -15.781533 3.318424 39.696225 -0.410376 1.487103 0.184640 -0.047344 625309.000000 0 0 1
35.560556 -16.086933 4.492324 39.287702 -0.424833 1.456201 0.159790 -0.044253 -287256.000000 0 0 1
36.395166 -16.158133 5.719724 40.229450 -0.417823 1.428135 0.123887 -0.028921 -1001310.000000 0 0 1
37.327236 -17.173333 5.701324 41.481936 -0.431201 1.432919 0.120601 -0.029272 -203874.000000 0 0 1
-37.206753 -17.218333 7.002224 41.591401 0.433426 1.401633 0.108846 -0.022712 -78523.700000 0 0 1
-36.032923 -18.197033 6.883324 40.949771 0.467649 1.401903 0.100499 -0.036520 -674336.000000 0 0 1
-36.258143 -19.573133 6.892024 41.776315 0.494999 1.405064 0.071125 -0.033883 391567.000000 0 0 1
-35.002809 -20.221433 7.102524 41.043256 0.523868 1.396871 0.075529 -0.028113 472117.000000 0 0 1
-35.030977 -21.752233 7.206824 41.860092 0.555676 1.397770 0.095980 -0.033534 -242400.000000 0 0 1
-35.349010 -22.390633 6.001224 42.271830 0.564628 1.428348 0.094905 -0.034384 115306.000000 0 0 1
-35.501076 -23.778033 6.253724 43.183681 0.590157 1.425468 0.074596 -0.031678 -140917.000000 0 0 1
-34.757126 -24.719033 5.297724 42.978533 0.618199 1.447218 0.100693 -0.025176 -16893.900000 0 0 1
-35.193617 -24.651733 3.951524 43.149892 0.611035 1.479091 0.100261 -0.017672 210462.000000 0 0 1
-34.461868 -25.659493 3.231724 43.086819 0.640021 1.495721 0.108491 -0.017258 99873.000000 0 0 1
-34.617366 -25.500003 1.699524 43.029067 0.634886 1.531289 0.089463 -0.019728 -523248.000000 0 0 1
-35.871824 -25.727653 1.128824 44.158511 0.622184 1.545231 0.063266 -0.015213 -518910.000000 0 0 1
-36.103243 -25.026293 -0.072776 43.929088 0.606139 1.572453 0.059258 -0.014983 4162.510000 0 0 1
-36.935353 -23.731033 0.198724 43.902411 0.571086 1.566270 0.060377 -0.020387 447454.000000 0 0 1
36.885216 -23.990733 0.295924 44.001841 -0.576668 1.564071 0.046843 -0.008425 432446.000000 0 0 1
36.157156 -22.843233 0.674524 42.773920 -0.563457 1.555026 0.057993 -0.018098 -47788.900000 0 0 1
34.632916 -22.849033 0.495024 41.494123 -0.583198 1.558866 0.078851 -0.013975 218437.000000 0 0 1
34.060176 -22.932133 -0.800776 41.068474 -0.592569 1.590296 0.095203 -0.025521 -30976.400000 0 0 1
32.658996 -22.777533 -0.854676 39.826580 -0.609003 1.592258 0.098801 -0.020235 137765.000000 0 0 1
32.227116 -22.738833 -2.328576 39.510300 -0.614462 1.629766 0.104785 -0.018230 -233411.000000 0 0 1
32.322016 -21.517733 -2.973676 38.943142 -0.587354 1.647230 0.132165 -0.034009 31495.900000 0 0 1
32.105066 -21.470233 -4.382376 38.870444 -0.589443 1.683780 0.129824 -0.050111 -200656.000000 0 0 1
31.949286 -20.026333 -4.923076 38.026932 -0.559904 1.700624 0.147236 -0.046648 947772.000000 0 0 1
30.703046 -19.466033 -4.455376 36.625863 -0.565052 1.692744 0.161157 -0.039914 796693.000000 0 0 1
30.572286 -18.093533 -4.760176 35.842710 -0.534389 1.703997 0.157305 -0.047061 -245935.000000 0 0 1
29.732126 -17.464833 -3.636376 34.673375 -0.531108 1.675865 0.168105 -0.034959 -561908.000000 0 0 1
30.207326 -17.262133 -2.350776 34.871047 -0.519166 1.638261 0.171958 -0.038810 -704889.000000 0 0 1
30.507566 -18.387633 -1.504476 35.652210 -0.542420 1.613008 0.156024 -0.024536 158566.000000 0 0 1
29.448326 -19.496433 -1.155776 35.336251 -0.584804 1.603510 0.139717 -0.017989 -175400.000000 0 0 1
28.360726 -19.089233 -0.407676 34.189118 -0.592434 1.582721 0.123574 0.003573 -392643.000000 0 0 1
27.653326 -20.151733 0.173324 34.217376 -0.629747 1.565731 0.107054 -0.003156 313946.000000 0 0 1
26.589926 -19.772433 1.260724 33.159655 -0.639396 1.532767 0.107410 0.002672 -154922.000000 0 0 1
25.989526 -20.879433 1.920724 33.393044 -0.676798 1.513246 0.100037 0.008734 298875.000000 0 0 1
24.919726 -20.593933 2.792524 32.448436 -0.690639 1.484629 0.087559 0.007818 222965.000000 0 0 1
23.561226 -20.085633 2.256824 31.042830 -0.705936 1.498032 0.061893 0.002979 -489916.000000 0 0 1
23.566526 -18.780633 1.834824 30.190394 -0.672860 1.509984 0.095644 -0.014928 117372.000000 0 0 1
23.470626 -17.853733 2.893924 29.631079 -0.650304 1.472975 0.105310 -0.008574 -333416.000000 0 0 1
23.171326 -16.446033 2.323424 28.509308 -0.617245 1.489209 0.089746 0.006451 -859343.000000 0 0 1
21.888326 -16.192233 1.885524 27.291801 -0.636919 1.501654 0.075258 -0.001830 -976794.000000 0 0 1
21.862326 -14.911433 1.306324 26.495634 -0.598584 1.521473 0.086127 -0.008985 -281010.000000 0 0 1
20.472826 -14.485433 0.851824 25.093624 -0.615771 1.536844 0.069476 -0.011212 -385892.000000 0 0 1
19.484626 -14.400633 1.858224 24.299833 -0.636473 1.494251 0.075712 -0.010906 528406.000000 0 1 0
18.624026 -13.263433 1.835324 22.937773 -0.618846 1.490698 0.096745 -0.023268 -83268.200000 0 1 0
19.269826 -11.931733 2.207124 22.771997 -0.554412 1.473721 0.104357 -0.017875 -741932.000000 0 1 0
20.053626 -11.382033 1.189724 23.089262 -0.516240 1.519246 0.105922 -0.021752 299236.000000 0 1 0
20.587726 -10.143933 1.606824 23.007297 -0.457805 1.500900 0.124614 -0.022455 -169657.000000 0 1 0
21.371826 -9.377633 0.510024 23.344273 -0.413488 1.548947 0.134538 -0.024305 -183631.000000 0 1 0
20.575926 -8.949033 -0.547776 22.444464 -0.410249 1.595205 0.132065 -0.020709 915432.000000 0 1 0
21.441926 -8.283533 -1.479976 23.033963 -0.368662 1.635093 0.130806 -0.020546 25300.600000 0 1 0
20.751326 -7.919333 -2.828276 22.390456 -0.364571 1.697451 0.150209 -0.023431 -273387.000000 0 1 0
21.543826 -7.189333 -3.776276 23.023536 -0.322087 1.735559 0.162097 -0.031183 1260390.000000 0 1 0
22.764426 -7.789233 -4.230476 24.429248 -0.329680 1.744846 0.153500 -0.030784 -192586.000000 0 1 0
22.623326 -9.020533 -5.182076 24.900578 -0.379409 1.780439 0.150373 -0.031484 -374649.000000 0 1 0
21.971926 -8.729033 -6.440176 24.503825 -0.378160 1.836744 0.144042 -0.040108 303958.000000 0 1 0
20.568026 -8.795333 -6.307676 23.241952 -0.404089 1.845635 0.145713 -0.025484 -507050.000000 0 1 0
19.897326 -8.895633 -7.703076 23.116515 -0.420420 1.910522 0.138121 -0.022160 -274214.000000 0 1 0
19.851926 -10.215033 -8.173976 23.775192 -0.475229 1.921760 0.132988 -0.019948 789799.000000 0 1 0
21.000726 -10.437933 -8.993176 25.116890 -0.461267 1.936978 0.119699 -0.022297 220359.000000 0 0 1
20.966126 -11.834733 -9.698376 25.955690 -0.513884 1.953739 0.103660 -0.026245 -86105.000000 0 0 1
19.918526 -12.005433 -10.628676 25.570429 -0.542422 1.999468 0.124413 -0.028568 98119.400000 0 0 1
19.711226 -13.395433 -10.893676 26.203859 -0.596892 1.999539 0.116097 -0.031870 -598652.000000 0 0 1
18.560726 -13.639933 -11.848076 25.902224 -0.633755 2.045883 0.126500 -0.031682 -469586.000000 0 0 1
18.240626 -15.005933 -11.938176 26.465421 -0.688409 2.038778 0.108921 -0.033129 317149.000000 0 0 1
17.317726 -15.265333 -12.991876 26.490052 -0.722492 2.083395 0.120436 -0.033546 -406921.000000 0 0 1
17.259326 -16.682433 -13.442476 27.511599 -0.768403 2.081294 0.097929 -0.030583 -344392.000000 0 0 1
16.644626 -17.532733 -12.487976 27.210106 -0.811378 2.047605 0.090405 -0.021922 260176.000000 0 0 1
16.757626 -18.842133 -12.930976 28.338210 -0.843885 2.044639 0.079069 -0.017866 15153.600000 0 0 1
15.777626 -19.805833 -12.166476 28.093196 -0.898123 2.018698 0.073026 -0.016464 -402344.000000 0 0 1
14.461026 -19.584433 -12.548476 27.388602 -0.934765 2.046725 0.071328 -0.017535 -874370.000000 0 0 1
13.617826 -20.195333 -11.556676 26.960219 -0.977524 2.013802 0.062864 -0.008527 302291.000000 0 0 1
12.131726 -20.091933 -11.957176 26.340816 -1.027579 2.041980 0.069079 -0.019128 -16138.800000 0 0 1
11.203126 -20.774033 -11.167676 26.111060 -1.076217 2.012742 0.082234 -0.026957 -780683.000000 0 0 1
9.892726 -20.495833 -11.549976 25.521503 -1.121108 2.040429 0.078363 -0.021961 -436380.000000 0 0 1
8.854526 -21.198833 -10.665776 25.328875 -1.175134 2.005445 0.077838 -0.020787 -310904.000000 0 0 1
8.912926 -22.603233 -10.761476 26.573591 -1.195195 1.987741 0.107756 -0.029094 128337.000000 0 0 1
7.967626 -23.260433 -9.917776 26.512131 -1.240783 1.954206 0.099626 -0.030666 406790.000000 0 0 1
8.113126 -24.811833 -9.923276 27.927071 -1.254769 1.934061 0.101867 -0.030960 543803.000000 0 0 1
9.337126 -25.179173 -9.304676 28.420937 -1.215689 1.904334 0.087941 -0.021649 -62078.900000 0 0 1
9.788126 -26.516033 -9.403376 29.788100 -1.217173 1.891965 0.092102 -0.020174 96442.500000 0 0 1
11.276926 -26.614863 -9.019476 30.279877 -1.170021 1.873257 0.093177 -0.014120 -13869.300000 0 0 1
11.521026 -26.581593 -7.676776 29.970786 -1.161815 1.829825 0.096825 -0.026124 -131484.000000 0 0 1
12.817626 -27.079253 -7.385276 30.856438 -1.128705 1.812486 0.079867 -0.018843 -176206.000000 0 0 1
12.976026 -27.783203 -5.999376 31.245418 -1.133858 1.764004 0.082849 -0.022282 21004.600000 0 0 1
12.334526 -29.040403 -5.891876 32.096725 -1.169149 1.755409 0.088001 -0.026363 -432850.000000 0 0 1
10.942826 -29.077433 -5.820076 31.608794 -1.210857 1.755981 0.087053 -0.023111 -480529.000000 0 0 1
10.287526 -29.968233 -4.709476 32.032910 -1.240120 1.718351 0.087246 -0.019050 180108.000000 0 0 1
10.519026 -31.393423 -4.896776 33.469020 -1.247483 1.717631 0.100707 -0.017804 -276137.000000 0 0 1
9.832726 -32.045133 -5.926276 34.039592 -1.273076 1.745788 0.101058 -0.025111 -124489.000000 0 0 1
10.023926 -33.587113 -6.051376 35.569543 -1.280766 1.741756 0.093709 -0.023926 -38876.100000 0 0 1
9.447826 33.321846 -4.995176 34.993694 1.294515 1.714031 0.086101 -0.019224 -20284.400000 0 0 1
9.961326 31.999948 -4.861976 33.865374 1.269012 1.714862 0.085082 -0.009850 -362304.000000 0 0 1
9.142526 31.159134 -3.913476 32.707686 1.285393 1.690734 0.066954 -0.004499 135625.000000 0 0 1
7.927626 30.705744 -4.482276 32.027813 1.318133 1.711207 0.060859 0.003594 -752013.000000 0 0 1
7.154326 30.028594 -3.568876 31.074712 1.336906 1.685899 0.042699 0.001601 1186710.000000 0 0 1
5.664126 29.727364 -4.079076 30.535838 1.382517 1.704780 0.046964 -0.005479 1273300.000000 0 0 1
5.637426 28.984114 -5.312676 30.001400 1.378694 1.748816 0.063090 -0.012531 -153683.000000 0 0 1
5.468826 29.808964 -6.449976 30.985232 1.389352 1.780493 0.050662 -0.009493 -172531.000000 0 0 1
5.855726 29.120784 -7.778876 30.705383 1.372359 1.826927 0.056557 -0.025131 -242575.000000 0 0 1
5.048526 28.039864 -8.213976 29.651155 1.392657 1.851488 0.061882 -0.030116 -106320.000000 0 0 1
5.428726 26.824234 -7.581876 28.398864 1.371112 1.841052 0.055786 -0.024546 -411564.000000 0 0 1
4.465826 25.613424 -7.748276 27.129816 1.398177 1.860429 0.057968 -0.037113 458373.000000 0 0 1
3.151626 25.914424 -7.273376 27.099670 1.449774 1.842521 0.053938 -0.031393 441294.000000 0 0 1
2.196926 26.488854 -8.156576 27.803158 1.488048 1.868545 0.065593 -0.035723 169762.000000 0 0 1
1.625526 25.660384 -9.355876 27.361105 1.507533 1.919778 0.081543 -0.032790 -539975.000000 0 0 1
2.582026 25.454644 -10.359976 27.603168 1.469706 1.955537 0.075441 -0.036699 -217640.000000 0 0 1
2.162526 24.646974 -11.441476 27.259076 1.483280 2.003945 0.088621 -0.039160 -436721.000000 0 0 1
1.982526 23.128824 -11.249076 25.795632 1.485289 2.022039 0.093440 -0.031365 -761287.000000 0 0 1
0.909426 22.814704 -10.449176 25.110218 1.530956 1.999984 0.117151 -0.026204 -795468.000000 0 0 1
0.831926 21.419204 -10.254076 23.761744 1.531976 2.016992 0.075433 -0.018633 -168192.000000 0 1 0
-0.349074 20.872104 -9.430476 22.906341 -1.554073 1.995112 0.083469 -0.009594 180638.000000 0 1 0
-1.582374 20.830704 -10.110176 23.208572 -1.494978 2.021526 0.094647 -0.017924 -398974.000000 0 1 0
-2.641474 20.457204 -9.271676 22.615008 -1.442385 1.993227 0.080631 -0.008064 -794469.000000 0 1 0
-3.949474 20.203204 -9.938576 22.859202 -1.377743 2.020583 0.087809 -0.017052 -841385.000000 0 1 0
-4.967374 19.597304 -9.175476 22.201768 -1.322552 1.996846 0.078654 -0.022833 235639.000000 0 1 0
-6.000574 19.137804 -10.055976 22.436245 -1.266959 2.035550 0.083124 -0.021762 -35345.900000 0 1 0
-6.850574 18.020704 -9.400976 21.448881 -1.207518 2.024499 0.070583 -0.027012 123265.000000 0 1 0
-7.982574 18.473404 -8.675076 21.914495 -1.162917 1.977801 0.081202 -0.019844 -142427.000000 0 1 0
-9.190674 18.399204 -9.398076 22.612453 -1.107537 1.999415 0.081215 -0.027634 -325673.000000 0 1 0
-10.355474 18.631104 -8.422176 22.919139 -1.063498 1.947087 0.103066 -0.040278 -218659.000000 0 1 0
-10.512874 17.603004 -7.493276 21.829692 -1.032423 1.921183 0.089769 -0.035735 -369721.000000 0 1 0
-11.445374 17.909004 -6.488676 22.222330 -1.002133 1.867102 0.100053 -0.034214 -348485.000000 0 1 0
-11.868974 16.729104 -5.577876 21.256721 -0.953736 1.836310 0.084950 -0.039112 192245.000000 0 1 0
-12.693074 17.279004 -4.521876 21.911766 -0.937227 1.778657 0.087063 -0.033272 9843.900000 0 1 0
-13.319774 16.269204 -3.880576 21.381353 -0.884750 1.753301 0.084623 -0.024901 -960137.000000 0 1 0
-14.555874 16.633604 -3.087976 22.317837 -0.851916 1.709605 0.081123 -0.023953 230285.000000 0 1 0
-15.742674 16.799504 -3.897176 23.350441 -0.817862 1.738480 0.116062 -0.038802 1691940.000000 0 1 0
-16.946474 16.844604 -3.073776 24.090906 -0.782383 1.698736 0.125437 -0.038231 314076.000000 0 1 0
-18.187574 16.998004 -3.904976 25.198588 -0.751603 1.726391 0.138474 -0.050086 -753332.000000 0 0 1
-18.166574 18.237004 -4.640676 26.156235 -0.787333 1.749162 0.115870 -0.047539 843925.000000 0 0 1
-19.488774 18.452404 -5.171176 27.332117 -0.758090 1.761141 0.115802 -0.050622 939404.000000 0 0 1
-19.520874 19.394104 -6.453976 28.263928 -0.782141 1.801176 0.131121 -0.038328 67364.000000 0 0 1
-19.157974 20.779504 -6.236176 28.943145 -0.825978 1.787962 0.138115 -0.055692 182045.000000 0 0 1
-19.033474 21.499604 -7.451876 29.665410 -0.846166 1.824714 0.133791 -0.039157 -238954.000000 0 0 1
-18.867374 22.973584 -7.316476 30.615261 -0.883223 1.812113 0.153574 -0.045204 1339640.000000 0 0 1
-17.548774 23.502724 -6.965176 30.147159 -0.929430 1.803942 0.120124 -0.045058 1291050.000000 0 0 1
-17.326574 23.499174 -5.584376 29.725521 -0.935455 1.759784 0.140891 -0.047191 -102376.000000 0 0 1
-16.101874 24.376514 -5.247476 29.681995 -0.987041 1.748520 0.108919 -0.041687 -360696.000000 0 0 1
-16.022974 24.782284 -3.863676 29.762818 -0.996851 1.700979 0.108371 -0.038863 534754.000000 0 0 1
-14.829974 25.516034 -3.542776 29.724525 -1.044313 1.690267 0.126080 -0.041114 559110.000000 0 0 1
-14.413574 26.769514 -4.376776 30.716676 -1.076878 1.713772 0.121868 -0.035804 36789.600000 0 0 1
-15.376674 27.820144 -4.202876 32.063479 -1.065869 1.702254 0.148541 -0.031520 380980.000000 0 0 1
-15.055374 28.962454 -4.941776 33.013773 -1.091416 1.721049 0.111496 -0.030556 -84210.800000 0 0 1
-15.935574 30.142644 -4.520276 34.394104 -1.084475 1.702604 0.113435 -0.022599 132892.000000 0 0 1
-17.278674 30.022854 -4.920376 34.987633 -1.048573 1.711896 0.142960 -0.027750 27374.700000 0 0 1
-18.134474 31.093284 -4.553676 36.282054 -1.042800 1.696636 0.154163 -0.027197 351797.000000 0 0 1
13.311227 -8.774433 18.537785 24.450540 -0.582798 0.710287 0.165817 -0.024515 65950.700000 0 1 0
14.293327 -9.652233 19.046985 25.695378 -0.593953 0.735849 0.176646 -0.032527 -85519.700000 0 0 1
14.535027 -10.708533 18.192685 25.630323 -0.634960 0.781566 0.186293 -0.033087 -83669.500000 0 0 1
15.077127 -11.919533 18.947685 26.989068 -0.668965 0.792524 0.222016 -0.051067 -629603.000000 0 0 1
16.422227 -11.904333 19.344285 28.028629 -0.627237 0.809084 0.201577 -0.049562 179789.000000 0 0 1
16.918227 -13.134933 19.952485 29.272078 -0.660170 0.820820 0.184739 -0.047640 94420.800000 0 0 1
17.220927 -14.309933 18.946285 29.330807 -0.693337 0.868527 0.178443 -0.050609 642112.000000 0 0 1
16.063127 -14.756133 18.172885 28.390514 -0.743015 0.876163 0.198960 -0.057999 1136550.000000 0 0 1
16.466127 -15.805933 17.375285 28.685561 -0.764944 0.920132 0.207890 -0.061093 -580811.000000 0 0 1
15.664927 -15.964433 16.115285 27.567290 -0.794867 0.946434 0.200438 -0.065425 -1232290.000000 0 0 1
14.292727 -16.002633 16.355885 26.979275 -0.841780 0.919474 0.238326 -0.062122 -1059980.000000 0 0 1
13.626327 -15.735133 15.192385 25.769745 -0.857097 0.940303 0.253931 -0.061559 -244626.000000 0 0 1
13.037527 -17.018233 14.446985 25.851745 -0.917076 0.977810 0.193777 -0.046824 -639857.000000 0 0 1
14.006027 -17.901433 14.025385 26.708454 -0.906881 1.017930 0.189154 -0.051137 -690516.000000 0 0 1
13.420427 -18.888233 13.327985 26.730290 -0.953046 1.048802 0.168742 -0.044737 -188848.000000 0 0 1
14.438127 -19.763133 12.549985 27.505328 -0.939854 1.096992 0.160723 -0.047995 345732.000000 0 0 1
15.400727 -20.437333 13.354285 28.865272 -0.925022 1.089823 0.139151 -0.038499 250168.000000 0 0 1
15.873827 -21.639033 12.755485 29.714113 -0.937891 1.127108 0.103962 -0.029894 -2020.530000 0 0 1
16.574427 -22.528833 13.812585 31.193708 -0.936511 1.112077 0.092847 -0.034796 -157963.000000 0 0 1
17.886227 -22.152433 14.114085 31.778213 -0.891550 1.110578 0.085758 -0.028781 -439159.000000 0 0 1
18.399127 -22.865233 15.225985 33.063233 -0.893210 1.092225 0.096415 -0.037878 1284700.000000 0 0 1
19.879727 -22.472133 15.662985 33.845670 -0.846533 1.089671 0.073166 -0.027636 1751630.000000 0 0 1
20.887127 -22.935133 14.731485 34.341069 -0.832099 1.127438 0.050535 -0.025626 388526.000000 0 0 1
22.114227 -22.294233 15.076885 34.833666 -0.789452 1.123172 0.046163 -0.017814 -68293.300000 0 0 1
23.337127 -22.993033 14.542585 35.843937 -0.777971 1.153030 0.033958 -0.022637 -537942.000000 0 0 1
23.962227 -23.976333 15.318685 37.198320 -0.785692 1.146356 0.031950 -0.017741 266357.000000 0 0 1
25.165127 -24.378333 14.662085 37.981094 -0.769519 1.174465 0.037535 -0.015968 224762.000000 0 0 1
25.723027 -25.633653 15.329685 39.417731 -0.783658 1.171355 0.045251 -0.020460 -186121.000000 0 0 1
26.377627 -25.362263 16.565885 40.167800 -0.765776 1.145691 0.039913 -0.018300 337065.000000 0 0 1
26.963727 -26.544343 17.160785 41.546808 -0.777561 1.144999 0.058064 -0.012335 528957.000000 0 0 1
27.565727 -26.357563 18.574385 42.421671 -0.762997 1.117589 0.040171 -0.004225 -236862.000000 0 0 1
26.476127 -26.032033 19.389385 41.887949 -0.776941 1.089547 0.053586 -0.003304 -70891.300000 0 0 1
26.781527 -25.666773 20.742385 42.500352 -0.764147 1.060940 0.042947 -0.004272 -726710.000000 0 0 1
25.515127 -25.628073 21.568385 42.107185 -0.787607 1.033022 0.040142 -0.009976 -480588.000000 0 0 1
24.903027 -26.889313 21.663185 42.573342 -0.823730 1.036955 0.051874 -0.009017 299928.000000 0 0 1
23.759027 -26.801153 22.530785 42.313466 -0.845494 1.009277 0.070106 -0.009331 627692.000000 0 0 1
23.174427 -28.274533 22.753475 43.060700 -0.884205 1.014076 0.109332 -0.006765 -647875.000000 0 0 1
24.019927 -29.163433 23.382355 44.431939 -0.881811 1.016611 0.091706 -0.013321 -235108.000000 0 0 1
23.700427 -30.525693 23.223085 45.087025 -0.910606 1.029704 0.092975 -0.017153 299552.000000 0 0 1
24.851427 -31.420573 23.841375 46.618205 -0.901611 1.033963 0.075616 -0.013477 719628.000000 0 0 1
24.963327 -31.153733 25.243505 47.233011 -0.895266 1.006944 0.088367 -0.016632 392271.000000 0 0 1
26.128727 -31.780753 25.770925 48.547577 -0.882691 1.011207 0.103277 -0.013008 -287388.000000 0 0 1
25.941527 -32.326643 27.245535 49.601349 -0.894544 0.989282 0.113657 -0.021339 712535.000000 0 0 1
25.048627 -33.473593 27.400585 49.987070 -0.928378 0.990641 0.102956 -0.016207 703146.000000 0 0 1
23.681527 -33.241043 27.133205 49.010126 -0.951784 0.984086 0.102622 -0.023424 -129514.000000 0 0 1
22.845027 33.111081 27.516635 48.738118 0.966846 0.970870 0.132088 -0.033778 167438.000000 0 0 1
22.521927 33.162606 28.918635 49.429577 0.974211 0.945858 0.126681 -0.029493 -25202.000000 0 0 1
21.803227 32.043973 29.344365 48.613668 0.973335 0.922758 0.121185 -0.035960 -190938.000000 0 0 1
21.622027 32.225978 30.833065 49.565145 0.979834 0.899411 0.102158 -0.042347 -661056.000000 0 0 1
22.782527 32.166172 31.582745 50.509167 0.954538 0.895297 0.094120 -0.019615 -708970.000000 0 0 1
22.573527 32.368721 32.961125 51.417254 0.961826 0.874928 0.076128 -0.021062 200094.000000 0 0 1
23.827327 32.085768 -33.834986 52.364533 0.932039 2.273317 0.044508 -0.011761 74928.200000 0 0 1
23.929927 30.673174 33.799585 51.535395 0.908272 0.855486 0.047229 -0.005459 163261.000000 0 0 1
24.945427 30.142364 -33.049856 51.216496 0.879459 2.272208 0.049058 0.005500 -17664.800000 0 0 1
24.906727 28.631704 -33.046016 50.320559 0.854862 2.287244 0.071584 -0.015641 -18602.700000 0 0 1
25.387127 28.088444 33.424828 50.504317 0.835870 0.847551 0.076175 -0.016014 139257.000000 0 0 1
24.988727 26.783144 33.314186 49.513718 0.820044 0.832772 0.086503 -0.027692 -161058.000000 0 0 1
25.610027 26.092514 32.070140 48.633185 0.794730 0.850737 0.126484 -0.039863 1561930.000000 0 0 1
27.035127 25.797574 32.176080 49.312403 0.761978 0.859925 0.105370 -0.037637 1525140.000000 0 0 1
27.405627 25.081344 30.984715 48.375560 0.741144 0.875643 0.150519 -0.058582 397591.000000 0 0 1
28.859627 24.576704 31.254135 49.129558 0.705419 0.881289 0.125027 -0.046532 103902.000000 0 0 1
28.852827 23.518994 32.205891 49.222435 0.683903 0.857549 0.147082 -0.051580 -346943.000000 0 0 1
29.896827 23.588634 33.107130 50.461134 0.667998 0.855168 0.145261 -0.051208 -1712610.000000 0 0 1
29.592727 22.904884 -33.227916 50.044556 0.658687 2.296907 0.148097 -0.055390 171836.000000 0 0 1
28.604527 23.570894 -32.395736 49.226921 0.689221 2.289075 0.161001 -0.060007 1228220.000000 0 0 1
27.272927 23.626654 -32.883826 48.819846 0.713884 2.309831 0.145861 -0.049967 -265553.000000 0 0 1
26.434527 22.307404 -32.985576 47.795949 0.700927 2.332470 0.136246 -0.053075 -453285.000000 0 0 1
26.140827 21.704404 -31.722086 46.483489 0.692938 2.321889 0.125967 -0.063860 471308.000000 0 0 1
25.621027 20.378504 -31.895616 45.706135 0.671919 2.343175 0.149921 -0.053453 -303799.000000 0 0 1
25.554527 19.591004 -30.605386 44.424441 0.654063 2.330810 0.153796 -0.056996 -15974.000000 0 0 1
24.451027 19.967404 -29.775276 43.394896 0.684798 2.326976 0.122487 -0.042069 638900.000000 0 0 1
24.257527 19.116004 -28.677956 42.145870 0.667408 2.319166 0.119321 -0.035303 639443.000000 0 0 1
22.986627 19.343704 -27.761766 40.905740 0.699550 2.316755 0.094964 -0.028401 697974.000000 0 0 1
23.056327 18.572904 -26.570876 39.781383 0.678113 2.302210 0.104103 -0.023706 158168.000000 0 0 1
23.767127 19.149904 -25.498916 39.771722 0.678226 2.266768 0.074610 -0.010798 -76827.100000 0 0 1
23.741727 18.275104 -24.208776 38.519007 0.656019 2.250406 0.100474 -0.011966 -108956.000000 0 0 1
24.249027 16.952804 -24.290376 38.281004 0.610130 2.258194 0.124181 -0.030360 267221.000000 0 0 1
24.200527 16.265904 -23.052376 37.170649 0.591776 2.239764 0.127469 -0.020004 -609085.000000 0 0 1
25.229827 15.132404 -23.086776 37.396966 0.540259 2.236158 0.143512 -0.027984 -607281.000000 0 0 1
26.545927 15.586704 -22.813676 38.315733 0.530925 2.208576 0.144669 -0.034863 474053.000000 0 0 1
27.567627 14.613704 -23.006576 38.766441 0.487440 2.206155 0.158594 -0.039192 469094.000000 0 0 1
27.668227 13.679304 -21.796276 37.785338 0.459161 2.185657 0.143833 -0.032655 -520673.000000 0 0 1
26.523727 12.846404 -21.882076 36.706450 0.451038 2.209477 0.151842 -0.030835 198651.000000 0 0 1
26.305327 12.201604 -20.606276 35.573417 0.434308 2.188618 0.110940 -0.026284 23672.800000 0 0 1
24.838527 11.721304 -20.526976 34.288455 0.440916 2.212618 0.133954 -0.033461 311106.000000 0 0 1
23.894327 12.792804 -20.550776 34.013660 0.491558 2.219548 0.146264 -0.031309 321868.000000 0 0 1
22.644527 12.407804 -21.142476 33.372631 0.501259 2.256900 0.140324 -0.035084 864706.000000 0 0 1
21.584127 13.495104 -20.766776 32.851961 0.558767 2.255098 0.132322 -0.035388 -305996.000000 0 0 1
21.897927 14.716504 -21.421976 33.985228 0.591720 2.252777 0.119361 -0.025199 299779.000000 0 0 1
20.935827 15.759604 -21.354076 33.803410 0.645264 2.254558 0.079536 -0.018180 -108110.000000 0 0 1
19.644727 15.725404 -22.200176 33.556690 0.675040 2.293710 0.084078 -0.012074 -74605.800000 0 0 1
18.706427 14.819504 -21.706376 32.260113 0.669976 2.308858 0.072523 -0.016540 -276826.000000 0 0 1
17.595427 14.682804 -22.563476 32.160445 0.695407 2.348424 0.076025 -0.022765 691433.000000 0 0 1
16.472427 13.700904 -22.043876 30.740659 0.693802 2.370417 0.061266 -0.018999 805381.000000 0 0 1
15.306827 13.747004 -22.835876 30.736888 0.731762 2.408259 0.064117 -0.024383 -22870.100000 0 0 1
14.189727 13.124604 -22.222276 29.452218 0.746423 2.425718 0.081495 -0.024021 1012180.000000 0 0 1
12.826327 13.389604 -22.976976 29.525203 0.806881 2.462616 0.074398 -0.028484 583926.000000 0 0 1
12.341427 14.691504 -22.734676 29.749229 0.872114 2.440613 0.084923 -0.031532 -318040.000000 0 0 1
11.670727 15.107204 -23.871676 30.566164 0.913033 2.467036 0.074653 -0.032001 -966911.000000 0 0 1
11.540927 16.648704 -24.120976 31.499108 0.964647 2.443029 0.073652 -0.034686 -46847.400000 0 0 1
12.715727 17.466204 -24.161976 32.412329 0.941512 2.412016 0.062621 -0.022843 169792.000000 0 0 1
13.771427 17.109504 -25.017776 33.290786 0.893075 2.421118 0.078031 -0.025178 -236291.000000 0 0 1
13.325327 17.005304 -26.502426 34.192445 0.906137 2.457663 0.105127 -0.026497 -809119.000000 0 0 1
14.445927 16.810704 -27.335536 35.192558 0.860911 2.460273 0.084259 -0.031679 82990.300000 0 0 1
14.080127 16.612304 -28.666236 35.999607 0.867713 2.491938 0.089809 -0.043131 404324.000000 0 0 1
15.265627 17.049504 -29.621296 37.431887 0.840545 2.483792 0.071733 -0.035379 961990.000000 0 0 1
16.454727 16.266404 -29.539496 37.522470 0.779643 2.477130 0.050877 -0.034591 -297019.000000 0 0 1
17.317127 16.765704 -30.486356 38.863731 0.769221 2.472593 0.058279 -0.021622 -455068.000000 0 0 1
18.659327 15.994104 -30.531406 39.193732 0.708638 2.463845 0.075308 -0.026880 -10711.600000 0 0 1
19.803927 16.801004 -30.486206 40.048446 0.703545 2.436009 0.099933 -0.039833 266395.000000 0 0 1
21.009427 16.061404 -30.556126 40.410909 0.652708 2.428184 0.121077 -0.038188 404520.000000 0 0 1
22.257727 16.790704 -31.099256 41.767187 0.646296 2.410711 0.156359 -0.043449 28039.000000 0 0 1
22.107827 17.209804 -32.418216 42.847101 0.661461 2.428897 0.131939 -0.044199 17016.700000 0 0 1
23.202127 17.973404 -32.832976 44.038463 0.659088 2.412159 0.143466 -0.040820 -616633.000000 0 0 1
23.260627 18.149004 33.267920 44.465691 0.662579 0.725496 0.125601 -0.033575 -613582.000000 0 0 1
24.292227 19.015004 32.970846 45.152623 0.664141 0.752169 0.143878 -0.032050 -361758.000000 0 0 1
24.344527 19.298304 31.577275 44.296781 0.670284 0.777233 0.144612 -0.040738 654910.000000 0 0 1
25.552727 20.276704 31.165835 45.115362 0.670780 0.808197 0.159013 -0.044339 1030190.000000 0 0 1
26.822627 19.658404 31.276705 45.652365 0.632469 0.816047 0.138994 -0.038009 -253958.000000 0 0 1
27.758227 20.701204 31.274135 46.659732 0.640787 0.836238 0.120727 -0.045608 272914.000000 0 0 1
29.253027 20.249904 31.398285 47.451560 0.605494 0.847724 0.130611 -0.038866 479575.000000 0 0 1
29.601727 19.861104 32.709074 48.379843 0.590958 0.828355 0.108330 -0.035185 -606136.000000 0 0 1
30.893627 19.367404 32.789929 49.037659 0.559969 0.838380 0.089114 -0.024502 -745174.000000 0 0 1
31.225927 19.059104 -33.439926 49.563460 0.548003 2.311340 0.082667 -0.011920 -398641.000000 0 0 1
31.355127 20.160004 -32.555446 49.491684 0.571408 2.288686 0.079253 -0.027710 82808.800000 0 0 1
30.855527 19.725404 -31.300976 48.175784 0.568804 2.278018 0.107585 -0.040504 -336120.000000 0 0 1
31.571827 20.289504 -30.059916 48.083706 0.571188 2.246130 0.112462 -0.041548 66360.100000 0 0 1
32.868327 19.726704 -29.955446 48.649754 0.540547 2.234117 0.102267 -0.041142 -151156.000000 0 0 1
33.475227 20.063804 -28.774146 48.488128 0.539951 2.206106 0.118576 -0.041898 -797621.000000 0 0 1
34.902327 19.582304 -28.562396 49.167566 0.511295 2.190654 0.059569 -0.023400 -354551.000000 0 0 1
35.788827 20.123704 -29.538876 50.580123 0.512230 2.194446 0.053912 -0.022970 -187419.000000 0 0 1
37.110827 19.934304 -29.086576 51.191980 0.492929 2.175096 0.016220 -0.000320 -146757.000000 0 0 1
-37.110372 20.919904 -29.708796 51.936834 -0.513317 2.179760 0.006026 0.003936 -50164.900000 0 0 1
-36.525572 20.374304 -30.848966 51.970072 -0.508819 2.206310 -0.002270 0.004947 17163.600000 0 0 1
-35.387172 21.037604 -31.347266 51.744409 -0.536364 2.221580 -0.008359 0.002769 281942.000000 0 0 1
-34.488672 20.301804 -32.391706 51.486449 -0.532033 2.251231 -0.006975 -0.001800 44195.800000 0 0 1
-33.759772 19.189504 -31.875976 50.239796 -0.516870 2.258128 0.008693 0.001599 213986.000000 0 0 1
-33.090672 18.554504 -32.940456 50.242769 -0.511034 2.285807 0.027240 -0.006372 175958.000000 0 0 1
-32.287272 17.269504 -32.517786 48.970503 -0.491153 2.296989 0.026823 0.003614 123417.000000 0 0 1
-33.222272 16.276804 -32.221436 49.059909 -0.455564 2.287333 0.029548 0.009283 294458.000000 0 0 1
-32.635572 14.948404 -32.198566 48.221188 -0.429520 2.301947 0.030043 0.015620 306153.000000 0 0 1
-33.681472 13.851604 -32.589736 48.871253 -0.390169 2.300768 0.035433 0.010536 415862.000000 0 0 1
-33.100772 12.570704 -32.808456 48.270887 -0.362947 2.318114 0.045365 -0.002817 240604.000000 0 0 1
-34.136972 11.723104 -33.252316 49.076273 -0.330795 2.315242 0.054642 -0.005000 -71489.200000 0 0 1
-33.800172 10.207104 -33.313136 48.542782 -0.293276 2.327136 0.054373 -0.004955 -254394.000000 0 0 1
-33.103672 9.800004 33.206527 47.901635 -0.287820 0.804845 0.051230 -0.006955 185443.000000 0 0 1
-33.462472 8.434004 32.888085 47.670700 -0.246901 0.809443 0.078696 -0.023516 28081.200000 0 0 1
-32.410572 7.790004 31.933395 46.161359 -0.235879 0.806848 0.098598 -0.021735 811650.000000 0 0 1
-31.126172 7.698904 32.562124 45.699055 -0.242478 0.777693 0.052495 -0.006108 -97178.200000 0 0 1
-30.283572 6.923804 31.793482 44.450639 -0.224769 0.773809 0.062118 -0.011779 -354877.000000 0 0 1
21.707727 -3.897433 -31.598226 38.533924 -0.177649 2.532226 0.076199 -0.033081 549493.000000 0 0 1
22.996527 -4.021033 -32.212536 39.782615 -0.173104 2.514461 0.080527 -0.038816 710373.000000 0 0 1
23.999327 -3.116333 -31.769996 39.937600 -0.129128 2.490614 0.086946 -0.030462 156511.000000 0 0 1
24.004527 -1.651333 -32.206616 40.202118 -0.068684 2.499956 0.078216 -0.021133 -818086.000000 0 0 1
24.878827 -0.796433 -31.538596 40.178021 -0.032002 2.473446 0.088673 -0.014974 -18879.300000 0 0 1
24.795227 0.521167 -31.987166 40.475346 0.021016 2.482075 0.061852 -0.010904 -286841.000000 0 0 1
25.878127 1.415767 -31.356826 40.680860 0.054655 2.450893 0.070310 -0.012067 878191.000000 0 0 1
27.234727 1.253667 -31.810946 41.895564 0.045999 2.433020 0.074269 -0.023586 344745.000000 0 0 1
28.082927 2.096467 -31.154436 41.995772 0.074515 2.406617 0.082761 -0.025372 -781451.000000 0 0 1
29.576527 2.004867 -31.496216 43.252769 0.067682 2.386473 0.076757 -0.032052 -195319.000000 0 0 1
29.996827 2.554667 -32.723766 44.465501 0.084960 2.397845 0.079640 -0.032154 184383.000000 0 0 1
30.030327 1.518467 -33.649726 45.126825 0.050521 2.412336 0.067970 -0.027764 -657520.000000 0 0 1
30.773627 1.905767 32.747964 44.978631 0.061850 0.755282 0.070266 -0.042109 -375187.000000 0 0 1
30.034727 2.728567 31.886946 43.889717 0.090598 0.757546 0.065279 -0.027349 161957.000000 0 0 1
30.183427 4.098567 32.183733 44.312867 0.134963 0.757896 0.072472 -0.018975 -222791.000000 0 0 1
29.220927 5.065667 31.476305 43.246749 0.171652 0.755643 0.060139 -0.011628 -128338.000000 0 0 1
29.565027 6.437667 31.637889 43.777739 0.214399 0.763105 0.103473 -0.010201 18602.000000 0 0 1
28.645627 7.205367 30.924495 42.764631 0.246422 0.762469 0.093770 -0.005827 -296111.000000 0 0 1
28.778927 8.653267 31.203145 43.321380 0.292081 0.766603 0.098249 -0.002695 840612.000000 0 0 1
30.137627 9.051767 30.944305 44.133446 0.291776 0.793783 0.091975 -0.005271 860480.000000 0 0 1
30.386427 10.406067 31.392505 44.912254 0.329940 0.796834 0.090621 -0.010414 -256942.000000 0 0 1
31.732527 10.973167 30.943205 45.660110 0.332930 0.826185 0.101253 -0.002195 -1190250.000000 0 0 1
32.837327 10.394067 31.578895 46.728506 0.306554 0.828753 0.106338 -0.005249 1153400.000000 0 0 1
34.091927 10.733167 30.893905 47.242923 0.305006 0.858019 0.118377 -0.010474 1471700.000000 0 0 1
34.637627 12.179367 30.962205 48.028745 0.338119 0.870218 0.127285 -0.013838 -889882.000000 0 0 1
35.161927 12.619667 32.213807 49.328962 0.344583 0.859204 0.122160 -0.011848 150877.000000 0 0 1
35.628327 13.965567 32.184444 50.002532 0.373573 0.871530 0.132981 -0.010694 -192524.000000 0 0 1
34.612327 15.135667 32.213241 49.646697 0.412235 0.864725 0.125984 -0.013035 -580201.000000 0 0 1
33.989627 15.215267 30.950725 48.422582 0.420893 0.877365 0.121570 -0.025809 -189720.000000 0 0 1
33.119927 16.286767 30.760465 48.045755 0.457027 0.875995 0.105026 -0.017735 124751.000000 0 0 1
31.642627 15.977167 31.152785 47.191331 0.467580 0.849794 0.106133 -0.009853 -48474.100000 0 0 1
31.061827 15.106267 30.192575 45.876225 0.452651 0.852462 0.101087 -0.017504 -244638.000000 0 0 1
29.811827 14.630467 30.614305 45.166705 0.456229 0.826021 0.079354 -0.013710 -282530.000000 0 0 1
28.954727 14.028067 29.499555 43.650735 0.451157 0.828735 0.074991 -0.016206 -125818.000000 0 0 1
29.460727 12.828067 28.922125 43.231737 0.410671 0.837931 0.081699 -0.019773 -431403.000000 0 0 1
28.453027 12.259367 28.187105 41.885316 0.406826 0.832594 0.067579 -0.024542 -492817.000000 0 0 1
28.563927 10.750367 28.028055 41.437184 0.359964 0.827934 0.068595 -0.010854 195644.000000 0 0 1
29.388227 10.364967 26.928555 41.185525 0.339070 0.858154 0.071717 -0.009339 123370.000000 0 0 1
29.223127 8.997567 26.757935 40.631693 0.298681 0.851908 0.073158 -0.002055 209647.000000 0 0 1
30.341827 8.135667 26.083755 40.831089 0.261972 0.877832 0.084444 -0.010755 123659.000000 0 0 1
30.685527 8.385667 24.761825 40.312144 0.266764 0.909358 0.078799 -0.010765 -672180.000000 0 0 1
31.883827 7.844067 24.361825 40.885283 0.241230 0.932463 0.088177 -0.006150 -706348.000000 0 0 1
32.307027 8.197167 22.909405 40.444757 0.248483 0.968620 0.109205 -0.007897 2987.320000 0 0 1
32.817027 9.552867 22.730555 41.047444 0.283267 0.983920 0.113744 -0.022893 353817.000000 0 0 1
31.860227 10.541867 22.387785 40.341268 0.319540 0.982482 0.117582 -0.029192 -63213.600000 0 0 1
31.342727 10.564467 20.946985 39.150360 0.325103 1.006242 0.108179 -0.014473 -194250.000000 0 0 1
32.364327 10.881067 20.037985 39.590000 0.324333 1.040096 0.134670 -0.032214 166457.000000 0 0 1
32.078427 10.352967 18.731885 38.562844 0.312186 1.063576 0.129617 -0.039566 -732104.000000 0 0 1
33.073027 10.795467 17.649285 39.011082 0.315509 1.101322 0.161869 -0.068259 527886.000000 0 0 1
34.371127 10.213067 17.589085 39.938165 0.288832 1.114743 0.164145 -0.052667 612189.000000 0 0 1
35.294827 10.594767 18.600485 41.278953 0.291621 1.103354 0.168615 -0.052066 -105163.000000 0 0 1
36.720227 10.081467 18.248285 42.225714 0.267946 1.123909 0.208842 -0.046462 -11615.400000 0 0 1
36.741927 8.691267 18.156785 41.894823 0.232279 1.122546 0.174078 -0.025177 119224.000000 0 0 1
-37.280972 8.219267 17.604885 42.039972 -0.216997 1.138711 0.185433 -0.025262 -314049.000000 0 0 1
-37.433772 6.684767 17.178685 41.726258 -0.176713 1.146478 0.182211 -0.023522 -173219.000000 0 0 1
36.928227 6.566967 16.067485 40.804204 0.175991 1.166067 0.171147 -0.023225 109638.000000 0 0 1
37.099927 5.254567 15.494285 40.547354 0.140697 1.178698 0.184007 -0.018615 250729.000000 0 0 1
35.833227 4.344767 15.635385 39.336528 0.120661 1.162030 0.157281 -0.015106 261235.000000 0 0 1
35.619427 3.687967 16.887585 39.592110 0.103170 1.130133 0.142837 -0.004964 439158.000000 0 0 1
34.397027 2.947667 16.865185 38.422372 0.085487 1.116376 0.119579 -0.002284 493733.000000 0 0 1
34.044127 2.110267 18.112385 38.620128 0.061907 1.082651 0.106053 -0.001380 98645.600000 0 0 1
34.868327 0.973767 18.243985 39.364850 0.027920 1.088902 0.113803 0.000384 4419.320000 0 0 1
34.542127 0.263767 19.407585 39.621742 0.007636 1.058911 0.097498 0.003687 234345.000000 0 0 1
35.456727 -0.974733 19.637885 40.543509 -0.027484 1.065158 0.092999 -0.000613 270256.000000 0 0 1
34.899927 -1.887233 20.574685 40.557172 -0.054023 1.038747 0.109563 0.008966 182790.000000 0 0 1
35.596927 -3.131433 20.609785 41.251792 -0.087743 1.047648 0.092413 0.011154 183027.000000 0 0 1
35.087027 -4.132733 21.691485 41.457200 -0.117245 1.020164 0.093370 0.006135 -135743.000000 0 0 1
35.590527 -3.750333 22.942115 42.509896 -0.104987 1.000729 0.106109 -0.006867 -43939.700000 0 0 1
35.010327 -4.347233 24.053955 42.699112 -0.123538 0.972378 0.100512 -0.013249 -252561.000000 0 0 1
35.357227 -3.721533 25.424465 43.707971 -0.104869 0.949992 0.086695 -0.016880 133055.000000 0 0 1
34.475227 -4.023633 26.504265 43.671581 -0.116185 0.918643 0.092080 -0.016650 292645.000000 0 0 1
34.868527 -3.426633 27.740845 44.689042 -0.097958 0.901094 0.087679 -0.018891 132808.000000 0 0 1
33.784927 -3.720633 28.812275 44.557958 -0.109685 0.867645 0.071828 -0.027425 138367.000000 0 0 1
33.707227 -5.028233 29.250065 44.911319 -0.148082 0.861520 0.066850 -0.027048 -390651.000000 0 0 1
32.666427 -5.340133 30.119805 44.752823 -0.162041 0.832504 0.070157 -0.030843 -558505.000000 0 0 1
32.599927 -6.829233 30.502255 45.163937 -0.206500 0.829333 0.060959 -0.024361 325002.000000 0 0 1
33.716927 -7.206133 31.303155 46.568735 -0.210557 0.833630 0.051004 -0.026030 108847.000000 0 0 1
34.207827 -8.500533 31.066065 46.984411 -0.243563 0.848380 0.046364 -0.024038 -265172.000000 0 0 1
35.575727 -8.812233 31.676542 48.442658 -0.242816 0.858072 0.052708 -0.019275 -134907.000000 0 0 1
35.577527 -9.142433 33.057428 49.417993 -0.251530 0.838021 0.060420 -0.020672 -384510.000000 0 0 1
36.896627 -9.268833 33.490743 50.684339 -0.246118 0.848951 0.084551 -0.023486 -420142.000000 0 0 1
37.006027 -9.564233 -32.639106 50.261634 -0.252916 2.277571 0.093300 -0.027952 -135122.000000 0 0 1
36.478727 -8.532933 -31.844436 49.168858 -0.229784 2.275298 0.095922 -0.028123 220843.000000 0 0 1
37.304327 -7.378633 -31.729086 49.525669 -0.195275 2.266153 0.106318 -0.029057 -190749.000000 0 0 1
36.921327 -6.286633 -30.682206 48.415947 -0.168654 2.257150 0.110055 -0.032072 -119919.000000 0 0 1
37.417327 -6.498533 -29.399536 48.027284 -0.171962 2.229563 0.098268 -0.020325 203423.000000 0 0 1
36.730427 -5.595033 -28.572866 46.870431 -0.151165 2.226370 0.117122 -0.032828 -16935.900000 0 0 1
37.357527 -5.523033 -27.175176 46.525035 -0.146779 2.194565 0.120264 -0.026221 -247962.000000 0 0 1
-36.573872 -4.988633 -27.222856 45.865221 0.135562 2.206247 0.110579 -0.022442 -525887.000000 0 0 1
-36.106872 -4.696833 -25.906086 44.686595 0.129355 2.189192 0.116857 -0.016644 -201877.000000 0 0 1
-34.585772 -4.497833 -25.880056 43.430213 0.129323 2.209182 0.107818 -0.008723 -924634.000000 0 0 1
-34.274272 -4.136833 -24.558676 42.367059 0.120117 2.189113 0.129927 -0.009277 304792.000000 0 0 1
-32.897272 -4.118133 -24.232676 41.065948 0.124534 2.201969 0.126236 -0.004652 380069.000000 0 0 1
-31.916372 -3.121333 -24.903776 40.602901 0.097487 2.231091 0.109479 -0.008693 -324435.000000 0 0 1
-31.452372 -3.683533 -26.132576 41.057663 0.116584 2.260728 0.106373 -0.010840 -52954.100000 0 0 1
-30.390172 -2.998533 -26.736336 40.587996 0.098350 2.289919 0.101895 -0.013578 -113461.000000 0 0 1
-30.012972 -3.595033 -28.084976 41.260982 0.119215 2.319469 0.082189 -0.012780 -279204.000000 0 0 1
-31.013772 -3.439433 -29.065336 42.643611 0.110449 2.320726 0.106764 -0.012981 253302.000000 0 0 1
-30.537572 -4.040533 -30.254546 43.176461 0.131549 2.347200 0.090411 -0.008028 -1328680.000000 0 0 1
-31.671972 -4.393233 -31.177186 44.659056 0.137831 2.343559 0.095689 -0.020647 -1356300.000000 0 0 1
-32.579972 -5.326133 -30.687866 45.072912 0.162045 2.319718 0.082670 -0.019959 19245.200000 0 0 1
-33.691072 -4.888633 -29.948146 45.341797 0.144096 2.292278 0.107408 -0.021697 -149600.000000 0 0 1
-34.838572 -4.103733 -30.643026 46.578555 0.117252 2.288795 0.142589 -0.028509 -508979.000000 0 0 1
-34.554672 -2.802733 -31.095366 46.570403 0.080933 2.301920 0.156487 -0.022282 -23948.500000 0 0 1
-34.199372 -1.891633 -30.073686 45.580719 0.055256 2.291335 0.148966 -0.015762 -255508.000000 0 0 1
-34.049272 -0.448833 -30.643396 45.810175 0.013181 2.303553 0.137701 -0.016912 223875.000000 0 0 1
-35.220772 0.205867 -31.128776 47.005807 -0.005845 2.294591 0.172137 -0.016694 78809.200000 0 0 1
-34.948472 1.467867 -31.641306 47.166965 -0.041976 2.306132 0.155966 -0.008770 -450198.000000 0 0 1
-36.158972 2.301367 -32.032376 48.361562 -0.063560 2.294750 0.132155 -0.011729 -326107.000000 0 0 1
-36.774072 1.852067 -33.251936 49.613040 -0.050321 2.305309 0.123579 -0.015753 1102510.000000 0 0 1
37.071627 2.287067 -33.276236 49.868267 0.061615 2.301351 0.096962 -0.011528 851486.000000 0 0 1
36.240927 1.850967 33.180341 49.170783 0.051030 0.830106 0.073945 -0.018462 -84170.500000 0 0 1
36.662427 2.353467 31.909145 48.660722 0.064105 0.855624 0.092245 -0.023706 109300.000000 0 0 1
-37.588072 1.536767 31.306515 48.942034 -0.040862 0.876734 0.085351 -0.021128 -150445.000000 0 0 1
-37.521672 1.765267 29.776225 47.933450 -0.047012 0.900524 0.094402 -0.024479 180463.000000 0 0 1
-36.821472 2.996967 29.509435 47.282231 -0.081213 0.896801 0.107768 -0.027445 455205.000000 0 0 1
-36.362172 3.116567 28.159245 46.096243 -0.085500 0.913625 0.113684 -0.027606 415137.000000 0 0 1
-35.831572 4.582467 27.793835 45.578480 -0.127199 0.914986 0.103216 -0.023499 310859.000000 0 0 1
-34.955972 4.570067 26.683115 44.213054 -0.130000 0.922898 0.106946 -0.015066 230514.000000 0 0 1
-34.191572 5.741167 26.595725 43.696192 -0.166360 0.916437 0.105069 -0.014607 -113821.000000 0 0 1
-33.322272 5.850067 25.301885 42.246686 -0.173789 0.928659 0.091636 -0.004529 298153.000000 0 0 1
-32.265872 4.899367 25.122945 41.185588 -0.150693 0.914744 0.089223 -0.008974 700702.000000 0 0 1
-31.385272 5.105567 24.045825 39.866074 -0.161261 0.923333 0.092050 -0.007645 10277.500000 0 0 1
-32.025572 4.879267 22.665725 39.537066 -0.151193 0.960296 0.108331 -0.017288 -179439.000000 0 0 1
-32.299572 3.562767 22.426285 39.482831 -0.109860 0.966721 0.092118 -0.019708 -351390.000000 0 0 1
-33.037372 3.487367 21.254285 39.438234 -0.105169 1.001635 0.115533 -0.020507 -805993.000000 0 0 1
-32.896772 2.049167 20.657085 38.898739 -0.062210 1.010960 0.109272 -0.010542 180422.000000 0 0 1
-31.583472 1.720667 20.253585 37.559075 -0.054426 1.001255 0.115876 -0.010648 -13406.400000 0 0 1
-31.385672 2.163067 18.925485 36.713938 -0.068810 1.029223 0.124824 -0.020631 -287015.000000 0 0 1
-30.054572 1.686067 18.322585 35.239711 -0.056041 1.024014 0.125213 -0.021578 -295611.000000 0 0 1
-30.051872 0.301067 18.214685 35.142288 -0.010018 1.025920 0.139060 -0.022202 329658.000000 0 0 1
-28.900372 -0.286333 17.617985 33.848293 0.009907 1.023362 0.145900 -0.021451 75841.900000 0 0 1
-28.688172 -0.231033 16.073185 32.884828 0.008053 1.060115 0.156501 -0.015055 -119458.000000 0 0 1
-28.157572 1.016267 15.648185 32.229604 -0.036076 1.063836 0.161276 -0.024241 251963.000000 0 0 1
-28.323272 1.238267 14.294385 31.750126 -0.043691 1.103790 0.177229 -0.028163 133.781000 0 0 1
-27.672572 2.566967 13.812285 31.034494 -0.092497 1.109552 0.165243 -0.031379 73238.000000 0 0 1
-26.262272 2.520367 13.775785 29.762921 -0.095676 1.089588 0.140990 -0.041595 -4851.980000 0 0 1
-25.723172 3.650767 13.098985 29.096273 -0.140984 1.103813 0.133746 -0.046714 -910767.000000 0 0 1
-24.253472 3.613167 12.752585 27.639000 -0.147888 1.091226 0.120536 -0.051182 -817209.000000 0 0 1
-23.451472 3.671267 13.927585 27.521399 -0.155287 1.040181 0.097738 -0.040990 -262209.000000 0 0 1
-22.098372 3.867867 13.615485 26.242711 -0.173274 1.025315 0.106005 -0.041096 -488852.000000 0 0 1
-21.346372 4.430767 14.789885 26.344639 -0.204659 0.974720 0.091353 -0.043700 -466961.000000 0 0 1
-21.718872 5.800567 14.997085 27.023482 -0.260984 0.982475 0.079420 -0.034660 441525.000000 0 0 1
-21.467972 6.274567 16.321685 27.688291 -0.284355 0.940382 0.070876 -0.019541 -291171.000000 0 0 1
-21.539572 7.825367 16.425585 28.195556 -0.348476 0.948922 0.080859 -0.021103 -741687.000000 0 0 1
-20.478472 8.455467 15.767685 27.193430 -0.391573 0.952271 0.073785 -0.027495 258747.000000 0 0 1
-20.537572 9.913467 15.691985 27.682252 -0.449711 0.968106 0.064997 -0.015673 -299541.000000 0 0 1
-20.220972 10.664667 16.989185 28.482543 -0.485331 0.931692 0.080990 -0.017881 -241561.000000 0 0 1
-21.134372 10.402267 18.032985 29.665761 -0.457385 0.917419 0.095290 -0.022743 306958.000000 0 0 1
-20.784972 11.091267 19.200985 30.392583 -0.490180 0.886968 0.112120 -0.012280 -261429.000000 0 0 1
-13.010873 -32.970970 -19.786776 40.594140 1.194940 2.079940 0.166868 -0.062433 156092.000000 0 0 1
-14.069173 -33.639170 -19.108176 41.166222 1.174667 2.053495 0.194517 -0.057209 178913.000000 0 0 1
-15.271273 -32.924670 -19.335776 41.123204 1.136505 2.060304 0.170319 -0.068170 222782.000000 0 0 1
-16.521473 -33.593070 -18.699276 41.846342 1.113721 2.034044 0.161100 -0.060109 -942825.000000 0 0 1
-17.065173 33.016367 -19.485076 41.963899 -1.093744 2.053674 0.165759 -0.058276 504624.000000 0 0 1
-17.948473 32.085067 -18.835576 41.308330 -1.060763 2.044264 0.179527 -0.048311 1389410.000000 0 0 1
-19.312473 32.617667 -18.228276 42.061311 -1.036216 2.019030 0.157353 -0.046076 141231.000000 0 0 1
-19.107173 33.575667 -17.209276 42.291473 -1.053424 1.989877 0.165960 -0.045992 -561570.000000 0 0 1
-20.329873 -33.724470 -16.639176 42.749337 1.028304 1.970588 0.118402 -0.045802 -395076.000000 0 0 1
-20.594073 33.218967 -15.276276 41.964035 -1.015837 1.943390 0.123705 -0.042779 -128790.000000 0 0 1
-20.771473 31.836467 -15.314976 40.982474 -0.992706 1.953787 0.131266 -0.043185 3665.190000 0 0 1
-21.387573 31.377967 -14.149076 40.524085 -0.972519 1.927463 0.130365 -0.037724 -6150.950000 0 0 1
-21.353773 29.869767 -13.902076 39.261359 -0.950143 1.932738 0.141710 -0.044054 1117080.000000 0 0 1
-20.043473 29.380367 -13.519676 38.049027 -0.972112 1.934055 0.172630 -0.053704 977471.000000 0 0 1
-19.966273 27.965267 -13.514076 36.923414 -0.950758 1.945507 0.167368 -0.062723 -558650.000000 0 0 1
-18.651573 27.427367 -12.971876 35.614761 -0.973596 1.943600 0.177520 -0.059433 -525468.000000 0 0 1
-17.535073 27.770667 -13.753476 35.606837 -1.007591 1.967369 0.194297 -0.065031 -313039.000000 0 0 1
-16.450173 26.916067 -13.469976 34.300483 -1.022207 1.974368 0.196305 -0.073473 448127.000000 0 0 1
-15.083273 27.284967 -14.118376 34.224306 -1.065802 1.996020 0.169646 -0.066398 278604.000000 0 0 1
-15.026573 27.208867 -15.508176 34.736492 -1.066214 2.033593 0.174331 -0.068467 -801044.000000 0 0 1
-13.870273 27.782367 -15.984176 34.924752 -1.107751 2.046174 0.196851 -0.064075 -846841.000000 0 0 1
-13.895473 27.880867 -17.544176 35.752273 -1.108440 2.083706 0.222295 -0.081800 98088.700000 0 0 1
-13.814873 26.581667 -18.061976 34.981005 -1.091502 2.113364 0.190670 -0.071170 172676.000000 0 0 1
-14.080673 26.534267 -19.459776 35.791278 -1.082923 2.145638 0.170222 -0.070150 52477.200000 0 0 1
-13.256373 25.455267 -20.188576 35.089609 -1.090670 2.183820 0.137369 -0.048534 1209100.000000 0 0 1
-11.880973 25.814167 -20.469576 35.021883 -1.139451 2.195035 0.106470 -0.043758 1109550.000000 0 0 1
-11.092573 24.733967 -20.969276 34.271341 -1.149211 2.229207 0.105996 -0.046045 554548.000000 0 0 1
-9.899473 25.197667 -21.836276 34.781388 -1.196449 2.249539 0.118002 -0.045291 -147909.000000 0 0 1
-10.272573 25.783867 -23.072676 36.092685 -1.191661 2.264334 0.101621 -0.036960 328271.000000 0 0 1
-9.157773 26.347767 -23.770676 36.648529 -1.236285 2.276556 0.078480 -0.036869 460380.000000 0 0 1
-9.627273 27.115367 -25.038176 38.142336 -1.229631 2.286887 0.070586 -0.032893 -437594.000000 0 0 1
-10.239673 26.338367 -25.931636 38.353751 -1.200005 2.313276 0.070616 -0.026589 -834672.000000 0 0 1
-10.545673 27.045267 -27.095456 39.709211 -1.199004 2.321765 0.077998 -0.020922 -946799.000000 0 0 1
-11.686373 26.360167 -27.745906 40.015810 -1.153499 2.336957 0.078035 -0.020166 -916713.000000 0 0 1
-12.124073 27.012367 -28.938746 41.401837 -1.148912 2.344756 0.082860 -0.015653 962519.000000 0 0 1
-13.451273 26.577067 -29.323196 41.798649 -1.102262 2.348345 0.078894 -0.012075 1121370.000000 0 0 1
-13.797673 26.967967 -30.787886 43.191908 -1.097887 2.364302 0.064751 -0.014496 -118766.000000 0 0 1
-13.035573 26.304467 -31.785826 43.268810 -1.110703 2.395892 0.075805 -0.018162 56712.200000 0 0 1
-13.151373 24.880467 -31.918616 42.553429 -1.084545 2.418984 0.071228 -0.022031 77447.400000 0 0 1
-12.298673 24.276767 -33.036116 42.801913 -1.101881 2.452522 0.066254 -0.017849 514127.000000 0 0 1
-12.976273 24.534167 33.401717 43.427914 -1.084292 0.693317 0.060313 -0.011309 586042.000000 0 0 1
-12.255473 23.793267 32.433673 42.050676 -1.095156 0.689916 0.053524 -0.018051 -386452.000000 0 0 1
-12.824973 23.858967 31.057165 41.210166 -1.077575 0.717231 0.051445 -0.005541 -831383.000000 0 0 1
-13.969673 23.048067 31.015625 41.089344 -1.025896 0.715396 0.061488 -0.017557 -234518.000000 0 0 1
-14.557673 23.134367 29.688045 40.354737 -1.009135 0.744131 0.069538 -0.013559 -452784.000000 0 0 1
-15.730173 22.199767 29.576345 40.187413 -0.954339 0.743712 0.054848 -0.013414 -622515.000000 0 0 1
-15.388273 20.885367 29.706265 39.439317 -0.935799 0.717861 0.041529 -0.021226 -976340.000000 0 0 1
-16.531273 20.132767 29.754125 39.546419 -0.883314 0.719121 0.035791 -0.017720 -885393.000000 0 0 1
-16.213973 18.628167 29.864655 38.753054 -0.854577 0.690951 0.029345 -0.023588 -300996.000000 0 0 1
-15.894073 18.052667 28.578335 37.352933 -0.848900 0.699616 0.040716 -0.025024 -41655.900000 0 0 1
-15.351073 16.832167 28.847315 36.757923 -0.831386 0.668436 0.035074 -0.033760 -260334.000000 0 0 1
-14.892673 16.051067 27.556625 35.196535 -0.822816 0.671425 0.040260 -0.027293 288763.000000 0 0 1
-13.940773 16.802567 26.820415 34.583321 -0.878217 0.683242 0.030143 -0.028615 368964.000000 0 0 1
-13.143473 15.954167 25.940155 33.168931 -0.881695 0.672829 0.025027 -0.024162 469586.000000 0 0 1
-12.058473 16.768867 25.201645 32.584116 -0.947367 0.686556 0.037446 -0.022891 1331.660000 0 0 1
-12.537273 17.724967 24.244645 32.544746 -0.955173 0.730316 0.035902 -0.021158 -81999.500000 0 0 1
-13.007673 18.969367 24.764935 33.798498 -0.969719 0.748482 0.039091 -0.021621 557512.000000 0 0 1
-11.934873 19.810767 25.597155 34.498145 -1.028582 0.734768 0.045549 -0.026083 519991.000000 0 0 1
-11.734873 19.490467 26.946635 35.266226 -1.028847 0.701164 0.051934 -0.028652 245560.000000 0 0 1
-12.796673 19.827367 27.839255 36.495252 -0.997658 0.703135 0.052428 -0.028124 266932.000000 0 0 1
-12.319473 19.472367 29.295065 37.271213 -1.006705 0.666489 0.055416 -0.026811 396605.000000 0 0 1
-11.171273 20.195567 29.717945 37.627311 -1.065534 0.660318 0.058070 -0.030632 130152.000000 0 0 1
-11.092273 20.254767 31.124405 38.755938 -1.069769 0.638338 0.055398 -0.031304 863827.000000 0 0 1
-9.760773 20.983967 31.564335 39.139581 -1.135412 0.632663 0.040935 -0.031396 1398450.000000 0 0 1
-8.559273 20.215267 31.475495 38.374796 -1.170276 0.609014 0.044777 -0.038917 718425.000000 0 0 1
-7.457573 20.961667 31.977610 38.956058 -1.228989 0.607875 0.044922 -0.033087 126546.000000 0 0 1
-6.202273 20.257467 32.472983 38.772771 -1.273687 0.578067 0.051923 -0.030362 -546540.000000 0 0 1
-6.457773 19.568967 33.648835 39.457463 -1.252048 0.549496 0.040851 -0.033496 271067.000000 0 0 1
-5.295873 19.059967 -33.383666 38.804610 -1.299779 2.606657 0.035037 -0.029947 373373.000000 0 0 1
-4.516473 17.917567 33.569786 38.319294 -1.323871 0.503178 0.027313 -0.030576 -259828.000000 0 0 1
-5.131573 16.655767 33.629165 37.877016 -1.271929 0.478142 0.025695 -0.029115 -295398.000000 0 0 1
-4.907073 15.780167 32.561112 36.514641 -1.269311 0.469648 0.032008 -0.026996 -141977.000000 0 0 1
-5.738773 14.478267 32.498040 36.037152 -1.193422 0.446896 0.045964 -0.028599 -400382.000000 0 0 1
-5.108173 13.499367 33.259198 36.256042 -1.209047 0.409444 0.052422 -0.025106 -514273.000000 0 0 1
-5.656173 12.211767 33.263747 35.883094 -1.137041 0.384454 0.056268 -0.022154 -90018.800000 0 0 1
-4.643573 11.091367 33.666185 35.749031 -1.174303 0.343039 0.069863 -0.034141 189114.000000 0 0 1
-4.530573 10.772467 -32.623666 34.653654 -1.172684 2.797615 0.093630 -0.041830 -121570.000000 0 0 1
-3.426773 9.912967 -32.430606 34.084511 -1.237970 2.828795 0.112152 -0.041563 -67870.000000 0 0 1
-3.161973 9.344267 -30.946906 32.481139 -1.244505 2.833011 0.134431 -0.039994 556758.000000 0 0 1
-4.062873 8.359467 -30.367176 31.757723 -1.118395 2.844576 0.135276 -0.033660 1402290.000000 0 0 1
-5.301073 8.892967 -29.831836 31.577281 -1.033251 2.807550 0.145649 -0.043378 1143550.000000 0 0 1
-6.480773 7.929767 -29.607546 31.328715 -0.885612 2.808577 0.150189 -0.050815 -111643.000000 0 0 1
-6.253773 7.152167 -28.466966 30.010520 -0.852313 2.819472 0.152442 -0.042168 478024.000000 0 0 1
-7.440773 6.431967 -28.117186 29.787773 -0.712807 2.805095 0.169638 -0.064640 -375742.000000 0 0 1
-7.344973 5.530767 -26.885396 28.414125 -0.645419 2.812074 0.147987 -0.060504 -200943.000000 0 0 1
-7.286573 6.397667 -25.724146 27.491016 -0.720531 2.781117 0.106834 -0.044023 -451268.000000 0 0 1
-6.027373 6.931367 -25.442066 27.049432 -0.855045 2.795121 0.101569 -0.045666 -755795.000000 0 0 1
-5.989273 7.996867 -24.327476 26.299189 -0.927966 2.751905 0.054088 -0.022119 -11338.300000 0 0 1
-6.236373 7.531667 -23.002776 24.994921 -0.879202 2.739638 0.045609 -0.016097 -123183.000000 0 1 0
-7.507673 7.836767 -22.490776 24.972286 -0.806842 2.692012 0.057242 -0.013876 -82791.500000 0 1 0
-7.429673 7.749867 -20.938176 23.530144 -0.806489 2.667801 0.039846 -0.013208 -85784.700000 0 1 0
-6.616873 8.783167 -20.422776 23.195189 -0.925149 2.647659 0.011877 -0.007192 -143234.000000 0 1 0
-6.721573 9.091467 -19.019576 22.126423 -0.934161 2.605256 0.011789 -0.006166 -683591.000000 0 1 0
-8.036973 9.364267 -18.287976 22.062015 -0.861527 2.547997 0.010044 -0.000403 -662846.000000 0 1 0
-7.855573 9.471167 -16.910176 20.913323 -0.878372 2.512538 0.001855 0.000263 192120.000000 0 1 0
-9.021373 9.733867 -16.138776 20.894818 -0.823369 2.453379 0.012384 -0.006049 755614.000000 0 1 0
-9.729673 11.148967 -16.221876 21.957123 -0.853272 2.402081 0.030758 -0.018259 222495.000000 0 1 0
-8.802773 12.095167 -15.727076 21.705363 -0.941660 2.381208 0.013586 -0.018186 465294.000000 0 1 0
-9.320173 13.402967 -15.927176 22.807457 -0.963177 2.343861 0.034180 -0.021173 472292.000000 0 1 0
-8.165773 14.410167 -15.627876 22.771984 -1.055247 2.327153 0.050688 -0.021035 576942.000000 0 1 0
-7.689173 14.509067 -14.264676 21.751262 -1.083472 2.286050 0.052644 -0.023956 153522.000000 0 1 0
-8.595273 15.210667 -13.471676 22.061939 -1.056448 2.227652 0.046964 -0.029707 -733363.000000 0 1 0
-7.869673 16.070667 -12.386976 21.763163 -1.115429 2.176294 0.054943 -0.025076 321128.000000 0 1 0
-7.414173 17.334967 -12.835676 22.808455 -1.166641 2.168517 0.066413 -0.020971 -122515.000000 0 1 0
-6.423873 17.359567 -13.829776 23.105917 -1.216374 2.212472 0.095656 -0.021590 -545476.000000 0 1 0
-6.247973 18.745467 -14.373076 24.433891 -1.249071 2.199681 0.127884 -0.013699 385151.000000 0 1 0
-5.611773 19.664667 -13.469176 24.486932 -1.292812 2.153227 0.118483 -0.018412 -82205.000000 0 1 0
-5.894973 20.974167 -13.772276 25.774832 -1.296806 2.134512 0.125220 -0.016225 34090.100000 0 0 1
-5.263773 22.010167 -12.779576 25.989850 -1.336053 2.084854 0.121171 -0.014394 -138098.000000 0 0 1
-5.566773 23.385467 -12.936176 27.298602 -1.337102 2.064484 0.105874 -0.016062 41726.900000 0 0 1
-6.886373 23.898967 -12.903976 28.019553 -1.290251 2.049394 0.110129 -0.014056 562082.000000 0 0 1
-7.742173 23.834567 -11.567276 27.601263 -1.256719 2.003234 0.071256 -0.016386 308428.000000 0 0 1
-7.993373 22.486767 -11.158076 26.344855 -1.229257 2.008145 0.078469 -0.015482 -260847.000000 0 0 1
-8.684973 22.452067 -9.943576 26.046089 -1.201701 1.962505 0.075199 -0.017073 223247.000000 0 0 1
-7.858973 22.883567 -8.661176 25.698970 -1.239984 1.914551 0.084160 -0.017287 296778.000000 0 0 1
-7.628673 24.260967 -8.641476 26.860124 -1.266143 1.898343 0.075520 -0.014646 -321577.000000 0 0 1
-6.833973 24.632667 -7.553176 26.655617 -1.300167 1.858094 0.082324 -0.020923 19443.700000 0 0 1
-6.961373 26.156767 -7.370576 28.052853 -1.310685 1.836656 0.081719 -0.026718 -25148.900000 0 0 1
-6.175373 27.003467 -8.162276 28.878110 -1.345974 1.857348 0.078690 -0.031193 -452258.000000 0 0 1
-6.430373 27.032967 -9.577776 29.391577 -1.337265 1.902726 0.076374 -0.024379 68408.400000 0 0 1
-6.124673 28.329667 -10.413776 30.798188 -1.357880 1.915725 0.077281 -0.024974 39643.700000 0 0 1
-6.852273 29.444667 -10.011376 31.846031 -1.342149 1.890587 0.076664 -0.027706 -449070.000000 0 0 1
-7.684973 29.915667 -11.055376 32.805903 -1.319346 1.914518 0.075975 -0.025013 26335.800000 0 0 1
-8.765073 30.947967 -10.635276 33.877902 -1.294805 1.890125 0.074693 -0.030852 -296117.000000 0 0 1
-9.789173 30.321467 -9.914176 33.369300 -1.258514 1.872455 0.084384 -0.026778 -905026.000000 0 0 1
-10.685973 31.333467 -9.550476 34.455591 -1.242126 1.851656 0.075143 -0.028340 169.073000 0 0 1
-11.757073 30.859567 -8.531376 34.107565 -1.206788 1.823612 0.094115 -0.029771 327906.000000 0 0 1
-12.591773 29.849767 -9.035276 33.633280 -1.171607 1.842778 0.105613 -0.039958 -287294.000000 0 0 1
-13.744673 29.535567 -8.295276 33.616623 -1.135243 1.820133 0.111850 -0.032146 565085.000000 0 0 1
-14.712173 28.491867 -8.968376 33.296641 -1.094143 1.843512 0.121509 -0.044971 551984.000000 0 0 1
-14.392573 27.154667 -8.662776 31.930640 -1.083421 1.845540 0.112126 -0.044472 -157028.000000 0 0 1
-15.288373 26.295167 -9.318076 31.811896 -1.044155 1.868067 0.146860 -0.049807 -124252.000000 0 0 1
-15.417773 24.875667 -8.792176 30.558287 -1.015950 1.862640 0.142231 -0.047351 -92702.200000 0 0 1
-14.430573 23.932067 -9.156776 29.408023 -1.028188 1.887431 0.114415 -0.035195 -81918.000000 0 0 1
-14.872173 22.691467 -8.816476 28.527433 -0.990629 1.884993 0.117491 -0.034405 -651075.000000 0 0 1
-13.928073 21.602167 -9.220076 27.306678 -0.998118 1.915215 0.097673 -0.027346 -656367.000000 0 0 1
-13.949573 21.361367 -10.575876 27.617888 -0.992295 1.963768 0.088671 -0.022110 208688.000000 0 0 1
-13.321273 20.159667 -11.015976 26.555983 -0.986874 1.998542 0.087949 -0.018152 -91960.700000 0 0 1
-13.298973 20.004067 -12.548576 27.101515 -0.984078 2.052197 0.092352 -0.004693 -86725.900000 0 0 1
-14.607373 19.906967 -13.064376 27.934577 -0.937756 2.057458 0.114093 -0.001173 -54695.600000 0 0 1
-14.591573 19.844067 -14.455676 28.559894 -0.936762 2.101515 0.103531 0.014367 -52766.900000 0 0 1
-15.982473 19.461367 -14.975976 29.299558 -0.883237 2.107299 0.112505 -0.011120 94871.300000 0 0 1
-16.962673 20.479867 -14.890976 30.477835 -0.879059 2.081262 0.135112 -0.026647 -891.172000 0 0 1
-18.248973 19.900667 -14.981276 30.878798 -0.828666 2.077347 0.131941 -0.023493 -79015.700000 0 0 1
-19.389273 20.782767 -15.484776 32.367354 -0.820072 2.069636 0.129996 -0.032388 -219523.000000 0 0 1
-19.990073 21.646967 -14.536276 32.855708 -0.825171 2.029100 0.131028 -0.057394 306807.000000 0 0 1
-20.475473 22.856067 -15.215676 34.251447 -0.840282 2.031116 0.135618 -0.050657 -154797.000000 0 0 1
-21.214773 23.757767 -14.236476 34.888040 -0.841883 1.991126 0.135091 -0.046027 41347.900000 0 0 1
-22.521973 23.308067 -13.923876 35.275765 -0.802549 1.976554 0.180315 -0.056172 245942.000000 0 0 1
-23.241173 24.270867 -13.181776 36.096902 -0.807067 1.944620 0.191213 -0.065199 99638.500000 0 0 1
-26.051333 -0.547133 3.928624 26.351573 0.020999 1.421153 0.184000 -0.048457 10616.200000 0 0 1
-26.857743 -0.071033 5.002624 27.319767 0.002645 1.386644 0.198813 -0.044003 420023.000000 0 0 1
-28.237103 -0.329133 4.812624 28.646181 0.011656 1.401994 0.185883 -0.046645 171097.000000 0 0 1
-29.069923 0.432467 5.883524 29.662490 -0.014876 1.371123 0.187924 -0.041464 -589816.000000 0 0 1
-29.080633 1.850967 5.752124 29.701788 -0.063564 1.375902 0.206192 -0.051415 59325.800000 0 0 1
-29.474293 2.454167 6.961424 30.384508 -0.083073 1.339632 0.216745 -0.049092 176653.000000 0 0 1
-28.358913 2.917467 7.980724 29.604586 -0.102516 1.297842 0.234154 -0.048209 270063.000000 0 0 1
-27.651413 1.845567 8.581124 29.011075 -0.066645 1.270516 0.198062 -0.052647 -105926.000000 0 0 1
-26.711893 2.315567 9.478824 28.438270 -0.086471 1.230982 0.191306 -0.061974 -444049.000000 0 0 1
-25.801823 1.140267 10.009524 27.698824 -0.044165 1.201060 0.170302 -0.050487 -26743.900000 0 0 1
-24.789473 0.718167 9.119124 26.423326 -0.028963 1.218433 0.181310 -0.053717 544135.000000 0 0 1
-25.183913 -0.427433 8.397924 26.550656 0.016971 1.248972 0.156639 -0.041678 440010.000000 0 0 1
-23.918573 -1.133233 7.811224 25.187250 0.047343 1.255471 0.145873 -0.048668 852653.000000 0 0 1
-22.949273 -1.676433 8.710324 24.603847 0.072920 1.208927 0.146859 -0.055989 192640.000000 0 1 0
-21.851273 -2.197433 8.029124 23.383192 0.100226 1.220292 0.157807 -0.049317 -531323.000000 0 1 0
-20.592773 -2.340233 8.893324 22.552832 0.113158 1.165454 0.116636 -0.041966 -267973.000000 0 1 0
-19.943273 -1.162533 9.321824 22.045000 0.058226 1.134204 0.102067 -0.043106 624137.000000 0 1 0
-20.651673 -0.546233 10.396224 23.127288 0.026444 1.104566 0.132582 -0.044981 -527686.000000 0 1 0
-20.133773 0.825567 10.871024 22.896060 -0.040981 1.076061 0.100230 -0.038733 -341076.000000 0 1 0
-20.456173 1.944067 10.068824 22.882649 -0.094751 1.115175 0.103061 -0.031723 238310.000000 0 1 0
-21.819773 2.284567 10.021224 24.119425 -0.104322 1.142322 0.133033 -0.042485 -422463.000000 0 1 0
-22.161173 3.694167 9.427424 24.364745 -0.165177 1.173498 0.120275 -0.048939 -260670.000000 0 1 0
-22.199573 4.732567 10.406424 24.970220 -0.210039 1.140925 0.102525 -0.044802 455990.000000 0 1 0
-22.618973 5.864267 9.681024 25.292880 -0.253678 1.178018 0.088073 -0.038196 -260733.000000 0 0 1
-22.741973 6.955567 10.713524 26.083651 -0.296812 1.147534 0.100946 -0.043842 1639.890000 0 0 1
-23.736073 6.619867 11.658024 27.260472 -0.271984 1.128901 0.098938 -0.045075 115774.000000 0 0 1
-23.694173 7.468867 12.783324 27.939420 -0.305361 1.095573 0.111464 -0.040003 238629.000000 0 0 1
-24.593373 7.105967 14.045824 29.199554 -0.281278 1.068969 0.124185 -0.040475 1062510.000000 0 0 1
-25.997303 7.317267 13.800224 30.329002 -0.274364 1.098405 0.139342 -0.046548 511113.000000 0 0 1
-26.702233 6.703567 14.860224 31.285353 -0.245966 1.075844 0.131536 -0.044892 1063540.000000 0 0 1
-28.236783 6.636767 14.444924 32.403988 -0.230850 1.108755 0.147149 -0.041642 984197.000000 0 0 1
-28.453743 5.759267 13.362424 31.958395 -0.199710 1.139422 0.166246 -0.031196 -280784.000000 0 0 1
-29.696273 5.984367 12.757924 32.870137 -0.198856 1.172193 0.211371 -0.032615 -514264.000000 0 0 1
-30.084533 4.909267 11.767624 32.675021 -0.161757 1.202377 0.216029 -0.038308 -111117.000000 0 0 1
-30.580413 3.745067 12.452624 33.230333 -0.121859 1.186684 0.216336 -0.035298 329623.000000 0 0 1
-31.003913 2.708967 11.616924 33.219483 -0.087154 1.213543 0.198407 -0.026528 -189510.000000 0 0 1
-32.309663 1.974567 11.971224 34.512656 -0.061038 1.216570 0.166052 -0.010098 -127553.000000 0 0 1
-32.140493 0.920167 12.886524 34.639869 -0.028622 1.189618 0.147590 -0.006704 566392.000000 0 0 1
-33.394843 0.426167 13.372124 35.975142 -0.012761 1.189952 0.137995 -0.006908 655112.000000 0 0 1
-33.256773 -0.793733 14.311824 36.214241 0.023862 1.164512 0.131404 -0.008028 46500.000000 0 0 1
-33.378253 -2.034633 13.680324 36.130303 0.060882 1.182471 0.129863 -0.003395 209519.000000 0 0 1
-33.612493 -3.065233 14.668424 36.801603 0.090942 1.160827 0.138843 0.002736 -2775.330000 0 0 1
-33.514613 -4.475033 14.116524 36.640571 0.132740 1.175296 0.140623 0.002103 -280406.000000 0 0 1
-34.525686 -4.701533 13.182624 37.254651 0.135342 1.209110 0.123252 -0.003210 -79995.400000 0 0 1
-34.438154 -6.043133 12.667524 37.188333 0.173709 1.223208 0.137446 -0.005946 -992472.000000 0 0 1
-35.710319 -6.467033 11.913224 38.196522 0.179155 1.253612 0.139423 0.003625 -699227.000000 0 0 1
-36.792683 -6.783033 12.699224 39.509257 0.182311 1.243563 0.106654 -0.002048 -403693.000000 0 0 1
-37.523853 -5.670533 13.218924 40.186247 0.149983 1.235614 0.106446 -0.008867 -535227.000000 0 0 1
36.228786 -5.608333 12.764824 38.819056 -0.153584 1.235733 0.114450 -0.009827 -65085.900000 0 0 1
35.312676 -6.599933 13.135924 38.250447 -0.184768 1.220242 0.099974 -0.003273 61293.100000 0 0 1
33.995696 -6.131633 12.907324 36.876867 -0.178446 1.213213 0.126025 -0.004670 -212085.000000 0 0 1
32.887126 -7.112833 13.225724 36.153495 -0.212999 1.196281 0.098279 -0.006324 -490990.000000 0 0 1
32.581216 -7.142633 14.563724 36.395809 -0.215811 1.159118 0.100103 -0.002600 89506.800000 0 0 1
31.605696 -8.136733 14.843024 35.853059 -0.251973 1.143957 0.100617 0.001047 138037.000000 0 0 1
31.059216 -8.103933 16.300324 36.000683 -0.255228 1.100918 0.087333 -0.007053 54497.200000 0 0 1
31.984006 -8.435033 17.316724 37.336247 -0.257856 1.088511 0.059792 -0.003364 -214017.000000 0 0 1
31.420646 -8.380333 18.615524 37.470318 -0.260647 1.050880 0.052616 -0.012350 -122385.000000 0 0 1
32.360126 -8.976633 19.741524 38.954916 -0.270594 1.039352 0.053468 -0.010589 772015.000000 0 0 1
33.546996 -8.262433 20.005124 39.923348 -0.241488 1.045940 0.062654 -0.004504 -343918.000000 0 0 1
34.625006 -8.569833 19.167424 40.493496 -0.242628 1.077711 0.036009 0.003235 -942846.000000 0 0 1
35.926646 -7.911933 19.644124 41.703887 -0.216765 1.080329 0.039523 0.006066 -157252.000000 0 0 1
36.337796 -8.518333 20.869824 42.761513 -0.230263 1.060940 0.047648 -0.008750 -813730.000000 0 0 1
37.500216 -7.964233 21.359924 43.885551 -0.209269 1.062467 0.057821 -0.010999 -497545.000000 0 0 1
-37.182833 -8.649533 22.688624 44.408909 0.228557 1.034562 0.061977 -0.017150 360440.000000 0 0 1
37.407566 -8.032833 23.858924 45.089918 -0.211526 1.013208 0.061890 -0.012190 484634.000000 0 0 1
37.540306 -8.904933 24.997724 45.972368 -0.232905 0.995891 0.052624 -0.021426 -704195.000000 0 0 1
36.741236 -8.520833 26.237024 45.944580 -0.227886 0.963002 0.074968 -0.021264 -463906.000000 0 0 1
37.328726 -7.572833 27.064724 46.725591 -0.200152 0.953016 0.084509 -0.027074 -162008.000000 0 0 1
36.525216 -7.180933 28.137024 46.662076 -0.194126 0.923546 0.100516 -0.028085 -175788.000000 0 0 1
37.337086 -6.143233 28.945324 47.640624 -0.163073 0.917791 0.113071 -0.035975 594048.000000 0 0 1
-37.118093 -6.787633 29.940324 48.168951 0.180867 0.900052 0.105807 -0.037624 -120542.000000 0 0 1
-35.710882 -6.790433 29.865724 47.046132 0.187907 0.883024 0.108481 -0.037933 200572.000000 0 0 1
-35.035444 -7.282633 31.159724 47.449420 0.204946 0.854370 0.103286 -0.037008 -71530.500000 0 0 1
-35.057253 -8.704233 31.439124 47.887296 0.243365 0.854596 0.102033 -0.032687 117781.000000 0 0 1
-34.207282 -9.103433 32.502624 48.056542 0.260097 0.828012 0.092579 -0.026242 61152.900000 0 0 1
-34.265230 -10.628633 32.624324 48.491446 0.300776 0.832829 0.097723 -0.024814 233461.000000 0 0 1
-35.571919 -11.070633 32.961024 49.742833 0.301717 0.846473 0.085884 -0.031481 269513.000000 0 0 1
-35.702324 -12.499233 33.053524 50.233676 0.336760 0.852643 0.067072 -0.026420 919908.000000 0 0 1
-37.205423 -12.981933 33.066224 51.440736 0.335718 0.872645 0.054536 -0.022716 954694.000000 0 0 1
-37.448723 -14.392433 33.015924 51.957677 0.366920 0.882220 0.051808 -0.036476 606790.000000 0 0 1
36.373606 -14.691833 33.016324 51.273452 -0.383877 0.871177 0.046135 -0.027704 443197.000000 0 0 1
36.109536 -16.133933 33.503724 51.833405 -0.420194 0.867975 0.031963 -0.022155 -105025.000000 0 0 1
36.533016 -16.480033 -32.853537 51.822849 -0.423768 2.257457 0.044315 -0.029066 233210.000000 0 0 1
36.587096 -17.865433 -32.760537 52.259373 -0.454243 2.248343 0.035022 -0.037648 -241740.000000 0 0 1
37.026266 -18.247533 -31.386537 51.855873 -0.457893 2.220895 0.039528 -0.032429 310658.000000 0 0 1
35.920106 -18.422333 -30.474437 50.579914 -0.473890 2.217427 0.034720 -0.022387 254333.000000 0 0 1
36.231256 -19.160433 -29.317737 50.392021 -0.486450 2.191728 0.023889 -0.016228 -1325780.000000 0 0 1
35.145936 -19.457933 -28.233937 49.101967 -0.505628 2.183408 0.016429 -0.013662 -556138.000000 0 0 1
34.107596 -20.266033 -28.670337 48.949243 -0.536129 2.196559 0.027170 -0.013595 -405303.000000 0 0 1
33.177996 -19.575133 -29.470237 48.502166 -0.533037 2.223840 0.026143 -0.012538 -1820400.000000 0 0 1
31.823556 -20.281633 -29.582737 47.950200 -0.567406 2.235654 0.030853 -0.001054 -159071.000000 0 0 1
30.931096 -19.383933 -30.244337 47.404530 -0.559807 2.262701 0.035989 0.002532 -640972.000000 0 0 1
29.636126 -19.856633 -30.325937 46.821451 -0.590317 2.275349 0.047241 0.001230 -796208.000000 0 0 1
28.788626 -19.109933 -31.358637 46.661961 -0.586016 2.307755 0.056443 0.005430 -153699.000000 0 0 1
29.046126 -19.476033 -32.710637 47.885061 -0.590666 2.322805 0.049320 0.000364 51087.700000 0 0 1
28.057026 -19.005333 -33.616337 47.733191 -0.595384 2.352170 0.100485 -0.006158 68165.500000 0 0 1
28.357526 -19.155733 32.550524 47.229525 -0.594099 0.810414 0.094555 -0.006767 -244726.000000 0 0 1
29.355226 -18.241933 32.152124 47.204412 -0.556021 0.821498 0.066605 -0.014790 145496.000000 0 0 1
29.609626 -18.096533 30.758724 46.371474 -0.548593 0.845561 0.066565 -0.018105 108672.000000 0 0 1
28.408126 -17.648233 29.858924 44.833437 -0.555890 0.841967 0.067479 -0.022795 169637.000000 0 0 1
28.158426 -16.285433 30.082124 44.306280 -0.524348 0.824453 0.076447 -0.032695 -242347.000000 0 0 1
27.396926 -15.695233 29.107924 42.944186 -0.520242 0.826019 0.077366 -0.028661 -386956.000000 0 0 1
27.071826 -14.218433 29.445324 42.450851 -0.483613 0.804275 0.084089 -0.036452 49811.400000 0 0 1
28.299326 -13.545033 29.481024 43.051720 -0.446410 0.816492 0.090364 -0.035300 81097.300000 0 0 1
28.050226 -12.289433 30.001624 42.871235 -0.412933 0.795668 0.100877 -0.031297 -791265.000000 0 0 1
29.272126 -11.491433 30.358424 43.709774 -0.374087 0.803008 0.087601 -0.029515 -971376.000000 0 0 1
30.014026 -11.247033 29.200124 43.358791 -0.358530 0.831926 0.088283 -0.026515 -863509.000000 0 0 1
31.244926 -10.700533 29.513724 44.292287 -0.329953 0.841507 0.072587 -0.023644 -577629.000000 0 0 1
32.042976 -10.122433 28.308324 43.938334 -0.305981 0.870723 0.075344 -0.024233 -50960.300000 0 0 1
31.725186 -8.754333 28.112124 43.282991 -0.269242 0.863875 0.082875 -0.023563 220795.000000 0 0 1
31.853716 -8.364633 26.752424 42.430160 -0.256797 0.888593 0.076244 -0.015140 -48424.100000 0 0 1
31.775866 -6.850133 26.585924 41.993349 -0.212327 0.885247 0.078943 -0.018027 323.879000 0 0 1
30.427816 -6.464033 26.507324 40.868985 -0.209326 0.865062 0.085652 -0.021254 -322077.000000 0 0 1
30.348946 -5.027733 26.497424 40.601110 -0.164173 0.859748 0.099058 -0.022024 790955.000000 0 0 1
28.891126 -4.546333 26.212824 39.274399 -0.156081 0.840047 0.092507 -0.016586 658428.000000 0 0 1
28.346126 -4.712233 24.892224 38.017507 -0.164733 0.856935 0.108880 -0.015293 603781.000000 0 0 1
26.940826 -4.475233 24.996324 37.022318 -0.164610 0.829602 0.113387 -0.019312 300914.000000 0 0 1
26.145526 -4.826433 23.742024 35.645009 -0.182544 0.841871 0.121045 -0.014182 -428422.000000 0 0 1
26.260326 -3.875433 22.747124 34.957908 -0.146520 0.862290 0.137198 -0.001675 43007.400000 0 0 1
26.317526 -4.385733 21.448524 34.232821 -0.165129 0.893679 0.145605 -0.003674 12008.200000 0 0 1
26.570326 -3.346533 20.263524 33.582613 -0.125290 0.923047 0.155194 -0.005272 -190027.000000 0 0 1
25.502426 -2.500333 19.975524 32.490721 -0.097731 0.908655 0.147158 -0.003621 -280227.000000 0 0 1
25.914826 -1.477333 19.088424 32.220004 -0.056946 0.936712 0.152053 -0.010937 293593.000000 0 0 1
24.740126 -0.586833 18.570624 30.940043 -0.023715 0.927029 0.122456 -0.017597 -42845.700000 0 0 1
23.835126 -1.305933 17.764024 29.755323 -0.054736 0.931036 0.138891 -0.020347 -163043.000000 0 0 1
22.738626 -0.427133 17.549324 28.726405 -0.018782 0.913583 0.136606 -0.020981 -145029.000000 0 0 1
21.546626 -1.150333 16.904424 27.410580 -0.053337 0.906238 0.146758 -0.025211 -426286.000000 0 0 1
21.822826 -1.614333 15.592724 26.869590 -0.073840 0.951686 0.165162 -0.028918 344525.000000 0 0 1
20.721926 -2.369133 15.099924 25.749150 -0.113835 0.944159 0.171336 -0.031889 209699.000000 0 0 1
20.956926 -2.847233 13.633224 25.162756 -0.135034 0.998217 0.185136 -0.049822 -92523.300000 0 0 1
19.973726 -3.769233 13.220524 24.247456 -0.186516 0.994129 0.195271 -0.052758 465116.000000 0 1 0
20.197826 -4.205133 11.914224 23.824023 -0.205265 1.047090 0.177259 -0.044928 255370.000000 0 1 0
19.137126 -5.266033 11.444024 22.911272 -0.268528 1.047783 0.165863 -0.051587 265458.000000 0 1 0
19.244726 -6.480533 12.170424 23.674375 -0.324816 1.030866 0.182447 -0.054191 298124.000000 0 1 0
18.045426 -7.188333 12.053824 22.860538 -0.379080 1.015404 0.155981 -0.041020 -442690.000000 0 1 0
18.075026 -8.710633 12.439724 23.607804 -0.449076 1.015809 0.176419 -0.059887 -65257.300000 0 1 0
18.859526 -9.418233 11.469724 23.998738 -0.463158 1.072499 0.153438 -0.065986 674198.000000 0 1 0
18.614726 -10.791733 11.468524 24.382300 -0.525390 1.081095 0.173235 -0.061708 351987.000000 0 1 0
19.353526 -11.550533 10.274824 24.769857 -0.538077 1.143061 0.169105 -0.054128 646696.000000 0 1 0
18.748726 -11.016433 9.070624 23.561680 -0.531239 1.175617 0.150192 -0.047356 645116.000000 0 1 0
19.312426 -11.536333 7.914724 23.847424 -0.538471 1.232490 0.151670 -0.053180 -314020.000000 0 1 0
18.979926 -10.679433 6.670624 22.776855 -0.512519 1.273571 0.131620 -0.041809 -218825.000000 0 1 0
19.425826 -9.342933 6.562524 22.532639 -0.448295 1.275268 0.136264 -0.040199 534125.000000 0 1 0
19.862626 -9.142333 5.241924 22.485194 -0.431368 1.335503 0.108968 -0.037761 -247486.000000 0 1 0
20.350526 -7.675433 4.975224 22.311635 -0.360664 1.345918 0.141168 -0.041551 -104821.000000 0 1 0
20.902826 -7.504233 3.650824 22.507114 -0.344675 1.407869 0.123556 -0.033951 975175.000000 0 1 0
21.398026 -6.185833 3.582324 22.560432 -0.281413 1.411333 0.150495 -0.032766 -524560.000000 0 1 0
22.164026 -5.791033 2.329724 23.026240 -0.255567 1.469446 0.167168 -0.033963 -323214.000000 0 1 0
21.382126 -5.606033 1.161324 22.135302 -0.256412 1.518307 0.146065 -0.039285 312111.000000 0 1 0
22.097926 -5.148633 0.076924 22.689925 -0.228908 1.567406 0.174915 -0.028705 -237668.000000 0 1 0
-25.449013 -15.608033 -0.625576 29.860581 0.550146 1.591748 0.133411 -0.007878 -322149.000000 0 0 1
-24.671473 -14.538733 -1.104576 28.657921 0.532510 1.609349 0.102599 -0.000939 194768.000000 0 0 1
-23.355973 -14.493833 -0.588676 27.493985 0.555402 1.592209 0.112227 0.005897 158648.000000 0 0 1
-23.051573 -14.216433 0.941024 27.099216 0.552625 1.536064 0.136284 -0.020015 -624404.000000 0 0 1
-23.582473 -15.124333 1.885724 28.079075 0.570262 1.503588 0.127627 0.003546 -57054.400000 0 0 1
-23.299373 -14.835233 3.244024 27.811304 0.566985 1.453886 0.129935 0.005904 103225.000000 0 0 1
-23.931873 -15.823233 4.288324 29.008602 0.584193 1.422423 0.142586 0.003570 -148310.000000 0 0 1
-23.446973 -17.135233 4.278424 29.354415 0.631105 1.424525 0.169343 -0.015621 35790.200000 0 0 1
-23.987873 -17.969433 5.289124 30.435069 0.642928 1.396126 0.179282 -0.025990 18549.500000 0 0 1
-23.666373 -19.487833 5.119824 31.081915 0.688871 1.405322 0.155043 -0.019477 -18332.300000 0 0 1
-24.131673 -20.274333 6.230924 32.128035 0.698750 1.375619 0.154272 -0.029059 78603.600000 0 0 1
-23.866773 -21.654633 6.212724 32.819871 0.736841 1.380350 0.162415 -0.031930 -131039.000000 0 0 1
-24.531173 -22.416533 7.381424 34.040635 0.740386 1.352218 0.165443 -0.034358 166833.000000 0 0 1
-23.854773 -22.246033 8.615624 33.736703 0.750516 1.312557 0.158386 -0.034508 260348.000000 0 0 1
-24.626173 -22.896033 9.654724 34.984145 0.749007 1.291193 0.148229 -0.039737 441732.000000 0 0 1
-23.794473 -23.035733 10.948724 34.881177 0.769198 1.251513 0.146816 -0.042078 122102.000000 0 0 1
-23.565673 -21.786533 11.645324 34.140995 0.746189 1.222715 0.132827 -0.039216 54085.600000 0 0 1
-23.002373 -22.079933 12.880524 34.388087 0.764940 1.186870 0.124221 -0.038568 -523261.000000 0 0 1
-23.685473 -21.240933 13.938124 34.733992 0.731040 1.157880 0.112274 -0.025922 521844.000000 0 0 1
-24.999073 -21.719833 14.280524 36.064361 0.715322 1.163669 0.117216 -0.024650 215855.000000 0 0 1
-25.544293 -20.961933 15.288924 36.409679 0.687183 1.137446 0.110603 -0.012358 -1289070.000000 0 0 1
-26.961623 -21.384633 15.603624 37.784980 0.670551 1.145096 0.085870 -0.013568 -787620.000000 0 0 1
-27.834613 -21.219433 14.478124 37.876722 0.651352 1.178574 0.089525 -0.008982 204431.000000 0 0 1
-27.981343 -22.418633 13.734124 38.395011 0.675472 1.204986 0.088936 -0.017344 -349615.000000 0 0 1
-29.105283 -23.421433 14.129624 39.941549 0.677609 1.209211 0.072751 -0.014856 -209398.000000 0 0 1
-28.996023 -24.137933 15.387224 40.745255 0.694221 1.183545 0.061891 -0.010816 332841.000000 0 0 1
-30.083083 -24.994213 15.813424 42.187284 0.693265 1.186574 0.060057 -0.010972 568607.000000 0 0 1
-30.038763 -26.382013 15.119624 42.742730 0.720677 1.209234 0.072762 -0.015698 -18397.300000 0 0 1
-30.377753 -26.465553 13.759424 42.574113 0.716682 1.241700 0.088298 -0.028333 -370440.000000 0 0 1
-31.735793 -26.815243 13.674324 43.740198 0.701557 1.252840 0.094255 -0.037122 -316262.000000 0 0 1
-32.216643 -27.352103 12.304224 44.016401 0.703916 1.287484 0.111864 -0.044666 -204587.000000 0 0 1
-31.607323 -28.572203 11.952724 44.252246 0.735006 1.297295 0.113615 -0.051330 40574.200000 0 0 1
-32.066433 -28.974383 10.675824 44.516786 0.734786 1.328620 0.111507 -0.038785 -172234.000000 0 0 1
-31.448783 -30.274713 10.147824 44.816989 0.766379 1.342387 0.099785 -0.046199 -121880.000000 0 0 1
-31.846473 -31.435963 10.881624 46.052441 0.778911 1.332253 0.100596 -0.040155 -165539.000000 0 0 1
-31.292763 -32.561963 10.299424 46.320585 0.805272 1.346571 0.104518 -0.040910 -423638.000000 0 0 1
-31.552893 33.769024 11.092424 47.528664 -0.819311 1.335240 0.095042 -0.043240 -91281.200000 0 0 1
-32.904353 33.472345 11.351524 48.290283 -0.793955 1.333507 0.092639 -0.036806 -247951.000000 0 0 1
-33.075913 32.158725 11.894124 47.641052 -0.771339 1.318466 0.099050 -0.039010 108403.000000 0 0 1
-34.518960 31.840497 12.405424 48.572322 -0.745057 1.312534 0.125029 -0.032372 628768.000000 0 0 1
-35.577676 31.645024 11.499724 48.983898 -0.726963 1.333819 0.084876 -0.029282 217276.000000 0 0 1
-35.976156 32.796379 10.749724 49.854216 -0.739195 1.353466 0.098297 -0.026849 571129.000000 0 0 1
-37.462523 32.693561 10.187224 50.755188 -0.717526 1.368711 0.081853 -0.012306 1166790.000000 0 0 1
37.604326 31.775096 9.115824 50.068357 0.701575 1.387708 0.054763 -0.013374 -10570.700000 0 0 1
36.304316 31.877510 8.601824 49.073113 0.720563 1.394600 0.041821 -0.008031 -424715.000000 0 0 1
36.240626 31.463984 7.080324 48.512847 0.714964 1.424326 0.039077 -0.010883 -171793.000000 0 0 1
36.583146 30.123124 6.797724 47.874192 0.688856 1.428323 0.054655 -0.012006 115449.000000 0 0 1
36.123606 29.790874 5.534824 47.149182 0.689617 1.453135 0.066730 -0.013415 -270677.000000 0 0 1
36.119186 28.269164 5.215624 46.162149 0.664080 1.457570 0.088046 -0.010519 479110.000000 0 0 1
35.178126 27.560854 6.032624 45.094277 0.664577 1.436616 0.078291 -0.002543 749308.000000 0 0 1
35.894506 26.852124 7.064324 45.380137 0.642274 1.414491 0.055975 -0.003820 404668.000000 0 0 1
34.987046 25.847264 7.800624 44.193033 0.636273 1.393354 0.045728 0.004888 -17731.000000 0 0 1
34.866576 24.651844 7.051624 43.279521 0.615431 1.407135 0.060653 -0.000886 -99736.500000 0 0 1
33.895026 23.787684 7.573824 42.096194 0.611936 1.389894 0.051135 -0.002265 -429987.000000 0 0 1
33.961976 22.480904 6.703924 41.276500 0.584725 1.407659 0.069662 -0.000064 245528.000000 0 0 1
34.881826 21.454404 7.033024 41.551133 0.551419 1.400716 0.076027 0.001227 791967.000000 0 0 1
36.274966 21.728104 6.765124 42.822314 0.539672 1.412150 0.077875 -0.001212 1007130.000000 0 0 1
37.067206 20.400904 6.941624 42.876110 0.503132 1.408181 0.070142 0.003054 15515.500000 0 0 1
36.760306 19.501804 5.874624 42.025607 0.487759 1.430550 0.099628 -0.011009 194203.000000 0 0 1
37.513346 18.292304 5.957424 42.158634 0.453696 1.429012 0.112449 -0.018158 34716.200000 0 0 1
37.123366 17.203904 4.944224 41.213638 0.433962 1.450541 0.124961 -0.031195 -272308.000000 0 0 1
-37.429243 17.272204 3.745524 41.392104 -0.432345 1.480184 0.129148 -0.034108 -222098.000000 0 0 1
37.281566 16.262804 2.863824 40.774937 0.411332 1.500504 0.137151 -0.037787 -643174.000000 0 0 1
-37.088803 15.899804 1.644424 40.386721 -0.404997 1.530068 0.148954 -0.029131 735290.000000 0 0 1
-35.841171 15.200704 1.872124 38.976349 -0.401119 1.522746 0.152302 -0.045932 988725.000000 0 0 1
-34.787644 16.062604 2.252224 38.383069 -0.432568 1.512085 0.164736 -0.042842 785344.000000 0 0 1
-33.389413 15.296104 2.427124 36.806448 -0.429580 1.504806 0.142768 -0.035190 1371190.000000 0 0 1
-33.386763 14.377804 3.546924 36.523662 -0.406641 1.473530 0.166985 -0.037581 1560540.000000 0 0 1
-32.034953 13.832304 3.687824 35.088045 -0.407606 1.465500 0.166155 -0.037540 1457730.000000 0 0 1
-31.591913 13.044404 4.935024 34.533461 -0.391580 1.427400 0.196109 -0.025675 276038.000000 0 0 1
-32.195043 11.737304 4.993724 34.629791 -0.349594 1.426089 0.218078 -0.030788 652672.000000 0 0 1
-31.562953 10.990504 6.054724 33.965731 -0.335078 1.391579 0.206738 -0.012316 252777.000000 0 0 1
-31.857663 9.477304 6.046424 33.782973 -0.289152 1.390848 0.227250 -0.032672 1306900.000000 0 0 1
-33.266023 9.171404 6.222224 35.063643 -0.269016 1.392396 0.230395 -0.019275 1267830.000000 0 0 1
-33.532793 7.785304 6.278124 34.992485 -0.228128 1.390406 0.251417 -0.033725 873869.000000 0 0 1
-35.077982 7.475504 6.333324 36.420584 -0.209970 1.396014 0.229088 -0.026009 1101400.000000 0 0 1
-35.675175 7.359504 7.629824 37.216860 -0.203438 1.364323 0.221217 -0.023789 -25708.900000 0 0 1
-36.959213 6.789404 7.490824 38.316992 -0.181674 1.374033 0.175010 -0.032088 201292.000000 0 0 1
-37.565813 6.341004 8.852924 39.112312 -0.167221 1.342471 0.164509 -0.030453 283579.000000 0 0 1
37.070656 7.333304 9.748424 39.026179 0.195298 1.318331 0.170462 -0.025985 910738.000000 0 0 1
-37.174903 8.019404 10.534924 39.462246 -0.212465 1.300557 0.189610 -0.026750 241558.000000 0 0 1
37.321506 8.936304 11.533324 40.072059 0.235017 1.278852 0.167126 -0.035303 25078.600000 0 0 1
36.569386 8.236804 12.511124 39.518264 0.221541 1.248663 0.152789 -0.029807 355531.000000 0 0 1
36.114866 9.156304 13.475124 39.619445 0.248301 1.223758 0.173749 -0.042055 -261384.000000 0 0 1
35.293276 8.483404 14.605724 39.126853 0.235894 1.188242 0.167443 -0.039478 -1133910.000000 0 0 1
33.972056 8.204304 14.286524 37.756006 0.236964 1.182739 0.175021 -0.048890 -492225.000000 0 0 1
33.339326 7.771404 15.504324 37.580440 0.229011 1.145530 0.163786 -0.035692 -184345.000000 0 0 1
31.852916 7.414704 15.486124 36.185717 0.228707 1.128559 0.148490 -0.033611 -302990.000000 0 0 1
31.017336 8.576604 15.422324 35.685871 0.269770 1.123900 0.125725 -0.037091 2175070.000000 0 0 1
29.576026 8.444404 15.662724 34.516231 0.278116 1.099795 0.124335 -0.027814 1936160.000000 0 0 1
29.072326 7.871204 17.006524 34.588696 0.264407 1.056780 0.111843 -0.030087 -644706.000000 0 0 1
29.185426 8.817804 18.067524 35.439783 0.293410 1.035833 0.125604 -0.037227 257405.000000 0 0 1
28.531826 8.413204 19.271224 35.443295 0.286745 0.995933 0.113484 -0.026892 -170775.000000 0 0 1
29.148126 7.294704 20.127024 36.165219 0.245226 0.980593 0.126976 -0.028468 48999.700000 0 0 1
28.301426 7.035004 21.244124 36.080117 0.243636 0.941218 0.070769 -0.009475 247838.000000 0 0 1
28.515426 5.763404 21.808424 36.358681 0.199429 0.927528 0.086618 -0.009452 -254412.000000 0 0 1
27.820926 5.308904 23.162824 36.588315 0.188557 0.885289 0.089772 -0.009531 737911.000000 0 0 1
26.485226 4.814104 23.137224 35.496112 0.179803 0.860809 0.050130 -0.005349 -214681.000000 0 0 1
25.512426 5.776004 23.286124 35.021275 0.222646 0.843418 0.071070 0.002065 270546.000000 0 0 1
24.066826 5.294804 22.882924 33.628489 0.216554 0.822403 0.097880 -0.017438 487378.000000 0 0 1
23.927826 4.973504 21.486324 32.541339 0.204936 0.849608 0.093988 -0.019514 1457960.000000 0 0 1
22.576526 4.719104 21.020724 31.206415 0.206060 0.831724 0.104637 -0.016141 164222.000000 0 0 1
21.678226 3.552204 21.551324 30.773742 0.162417 0.794957 0.115478 -0.020341 844074.000000 0 0 1
20.375826 3.479004 20.948724 29.430032 0.169111 0.778718 0.104625 -0.024590 1024520.000000 0 0 1
19.449126 4.457204 21.404624 29.262486 0.225282 0.750321 0.124915 -0.026301 427360.000000 0 0 1
18.079626 4.304704 20.588924 27.736387 0.233745 0.734289 0.156371 -0.033747 686718.000000 0 0 1
17.428226 3.093204 20.903524 27.391026 0.175653 0.702619 0.145147 -0.035700 56837.500000 0 0 1
16.441226 2.910004 19.889724 25.968888 0.175180 0.698347 0.170423 -0.045952 391491.000000 0 0 1
15.226626 1.980604 20.269124 25.428534 0.129349 0.648316 0.175842 -0.052086 25529.800000 0 0 1
15.442526 0.588504 20.524124 25.691587 0.038091 0.645389 0.127523 -0.040503 -2915.710000 0 0 1
14.229026 0.054204 20.992624 25.360568 0.003809 0.595681 0.140119 -0.046002 -161962.000000 0 0 1
14.219426 -1.470996 21.332424 25.679335 -0.103083 0.590390 0.081554 -0.025264 -62089.200000 0 0 1
14.106326 -2.308496 20.218224 24.760739 -0.162212 0.615398 0.094301 -0.020713 113513.000000 0 1 0
14.084026 -3.676296 20.524624 25.162177 -0.255329 0.616869 0.091981 -0.004626 -11623.800000 0 0 1
13.706126 -4.558096 19.331524 24.131762 -0.321053 0.641695 0.105799 -0.011912 172770.000000 0 1 0
12.362826 -4.340596 18.945624 23.035123 -0.337655 0.605062 0.100560 -0.016221 -232477.000000 0 1 0
12.072226 -5.174296 17.874924 22.181634 -0.404926 0.633698 0.100478 -0.013183 223846.000000 0 1 0
10.546326 -5.236796 17.624424 21.195975 -0.460885 0.588996 0.089811 -0.007885 575712.000000 0 1 0
9.755126 -5.917296 18.623224 21.840361 -0.545246 0.549669 0.092153 -0.003694 827473.000000 0 1 0
8.451826 -6.170596 18.032524 20.849018 -0.630637 0.525825 0.069420 -0.023019 1028080.000000 0 1 0
7.555926 -6.935096 19.047124 21.632857 -0.742582 0.493940 0.058910 -0.024521 -554174.000000 0 1 0
7.672626 -8.322796 18.914024 22.042650 -0.826023 0.539307 0.069197 -0.026911 366465.000000 0 1 0
8.894426 -8.918596 19.352024 23.090106 -0.786755 0.576989 0.125516 -0.036487 401944.000000 0 1 0
9.116926 -10.372496 18.960324 23.456362 -0.849732 0.629498 0.155649 -0.043770 55702.100000 0 1 0
9.428026 -10.442596 17.573024 22.511034 -0.836413 0.675106 0.136902 -0.029067 36886.000000 0 1 0
9.741526 -11.768296 17.127724 22.951014 -0.879346 0.728351 0.149009 -0.038338 319504.000000 0 1 0
9.525526 -12.002796 15.609724 21.873871 -0.899965 0.776138 0.126949 -0.030071 534146.000000 0 1 0
10.231826 -13.168796 15.115424 22.507410 -0.910253 0.834463 0.118565 -0.027321 103082.000000 0 1 0
9.930326 -13.349896 13.728524 21.570894 -0.931243 0.880926 0.091672 -0.019894 -146563.000000 0 1 0
10.581726 -14.575596 13.053024 22.244153 -0.942840 0.943686 0.115814 -0.028526 -282272.000000 0 1 0
11.913426 -14.440496 12.657524 22.598021 -0.880996 0.976270 0.088197 -0.025650 -637259.000000 0 1 0
12.042826 -13.768196 11.415024 21.561439 -0.852145 1.012881 0.047106 -0.021001 -1567150.000000 0 1 0
13.384226 -13.161596 11.182924 21.850009 -0.777012 1.033513 0.093680 -0.035139 -597962.000000 0 1 0
14.425126 -14.107496 10.906624 22.936001 -0.774266 1.075236 0.115988 -0.031271 293385.000000 0 1 0
15.557726 -13.474996 10.330824 23.029205 -0.713783 1.105602 0.102039 -0.044252 421509.000000 0 1 0
16.632926 -14.478496 9.803124 24.132598 -0.716260 1.152484 0.104777 -0.048440 413435.000000 0 1 0
17.251526 -15.213896 10.840924 25.428398 -0.722717 1.130363 0.107661 -0.040413 -151747.000000 0 0 1
16.579926 -16.392796 11.031024 25.793433 -0.779723 1.128885 0.164693 -0.041213 -390002.000000 0 0 1
17.064826 -17.218796 12.209024 27.143240 -0.789889 1.104255 0.148811 -0.039192 -440115.000000 0 0 1
18.354926 -17.723396 12.000424 28.196316 -0.767896 1.131169 0.172699 -0.046347 -330810.000000 0 0 1
18.624326 -18.734296 12.976624 29.431822 -0.788342 1.114190 0.138809 -0.039749 -827782.000000 0 0 1
20.050626 -19.226696 12.962024 30.654649 -0.764424 1.134219 0.081272 -0.031763 -726162.000000 0 0 1
21.006126 -18.235996 13.300424 30.833588 -0.714924 1.124795 0.078105 -0.031141 -714941.000000 0 0 1
22.330126 -18.668696 13.256224 31.982530 -0.696329 1.143421 0.071219 -0.028108 -463664.000000 0 0 1
23.096226 -18.009896 12.128524 31.700049 -0.662287 1.178185 0.097935 -0.029183 -1087990.000000 0 0 1
22.812026 -18.335696 10.774524 31.187764 -0.677037 1.218054 0.085112 -0.007840 297614.000000 0 0 1
21.586626 -17.895996 10.174724 29.829081 -0.692194 1.222709 0.096023 -0.016297 447752.000000 0 0 1
21.316126 -16.384196 10.196724 28.753996 -0.655318 1.208289 0.137941 -0.030460 104806.000000 0 0 1
22.300226 -15.682896 9.412924 28.841922 -0.612912 1.238343 0.132200 -0.010856 387574.000000 0 0 1
21.989226 -14.341596 9.225924 27.826698 -0.577927 1.232851 0.156085 -0.029334 -51598.900000 0 0 1
-36.161293 24.676667 7.985624 44.501092 -0.598820 1.390371 0.104239 -0.000016 -7440.270000 0 0 1
-35.350085 23.866367 8.812224 43.553270 -0.593848 1.367058 0.111535 -0.010948 507741.000000 0 0 1
-34.426282 24.752367 9.485624 43.449116 -0.623362 1.350708 0.115179 -0.008527 70392.100000 0 0 1
-33.298513 23.982267 10.200724 42.284688 -0.624168 1.327154 0.147327 -0.031122 -133892.000000 0 0 1
-32.429063 23.328267 9.314524 41.019660 -0.623603 1.341724 0.159107 -0.031587 318731.000000 0 0 1
-31.575693 22.333967 9.915224 39.926710 -0.615619 1.319835 0.158919 -0.040493 671881.000000 0 0 1
-30.754923 21.505967 8.855324 38.558899 -0.610235 1.339071 0.132423 -0.040313 -20407.800000 0 0 1
-31.554923 20.762167 7.979924 38.606475 -0.581957 1.362596 0.133995 -0.041846 -217495.000000 0 0 1
-30.843453 19.824667 7.207324 37.366851 -0.571263 1.376700 0.140686 -0.045955 -187055.000000 0 0 1
-31.714023 19.174567 6.107724 37.559920 -0.543801 1.407458 0.123607 -0.028419 -77024.900000 0 0 1
-32.402033 18.041967 6.570724 37.664024 -0.508061 1.395443 0.147369 -0.034009 348608.000000 0 0 1
-33.465983 17.590167 5.758224 38.243210 -0.483928 1.419653 0.113137 -0.023878 250927.000000 0 0 1
-34.256781 16.333067 6.200024 38.454342 -0.444902 1.408859 0.115108 -0.015130 -373051.000000 0 0 1
-35.118328 16.505667 7.251424 39.475526 -0.439362 1.386053 0.099226 -0.012374 -433229.000000 0 0 1
-35.894996 15.383567 7.530424 39.772002 -0.404892 1.380307 0.113302 -0.014158 -237976.000000 0 0 1
-36.828163 15.538667 8.750724 40.918687 -0.399262 1.355275 0.123241 -0.016983 -70674.100000 0 0 1
37.364286 16.471567 8.504124 41.709981 0.415208 1.365470 0.133709 -0.024807 -148393.000000 0 0 1
36.780436 16.850067 9.719324 41.607577 0.429591 1.335023 0.135455 -0.022984 8650.830000 0 0 1
35.729326 17.988967 9.679524 41.156784 0.466427 1.333386 0.095241 -0.015750 -399070.000000 0 0 1
34.504316 17.568667 9.144224 39.784705 0.470959 1.338880 0.114581 -0.026217 -952366.000000 0 0 1
33.824266 18.772667 9.085324 39.737100 0.506678 1.340120 0.086061 -0.016372 -1068710.000000 0 0 1
32.368976 18.641767 8.655024 38.342868 0.522521 1.343107 0.067527 -0.014226 -1020290.000000 0 0 1
31.690666 19.837167 8.897824 38.431534 0.559291 1.337152 0.064537 -0.004870 -1352200.000000 0 0 1
30.341316 19.730867 8.662924 37.214901 0.576584 1.335860 0.032733 -0.001794 -844522.000000 0 0 1
29.853926 19.929767 7.150424 36.600288 0.588632 1.374166 0.042297 -0.003315 -519502.000000 0 0 1
30.161326 18.785867 6.344024 36.095166 0.557049 1.394120 0.058561 -0.007696 41222.100000 0 0 1
29.857926 18.832867 4.973424 35.649791 0.562723 1.430832 0.062023 -0.018382 -281375.000000 0 0 1
28.419726 19.149267 4.486624 34.561612 0.592926 1.440614 0.093205 -0.019692 -951305.000000 0 0 1
27.413126 18.391267 5.130224 33.407146 0.590923 1.416620 0.083618 -0.014163 -302578.000000 0 0 1
26.079426 18.524867 4.753824 32.340470 0.617622 1.423269 0.118811 -0.011896 -367178.000000 0 0 1
25.508326 19.933267 4.979024 32.753634 0.663322 1.418190 0.126083 -0.012788 -1551140.000000 0 0 1
26.042826 21.062967 4.286524 33.767613 0.680073 1.443511 0.102860 -0.014093 -403396.000000 0 0 1
25.487726 22.259767 4.647624 34.157310 0.717896 1.434308 0.124306 -0.013686 -391052.000000 0 0 1
26.457726 23.455767 4.456324 35.637664 0.725327 1.445423 0.101717 -0.014958 345734.000000 0 0 1
27.612326 23.309267 5.273324 36.518084 0.701095 1.425887 0.077334 -0.017503 172066.000000 0 0 1
28.591726 24.305267 5.007124 37.859003 0.704541 1.438151 0.077345 -0.014925 607125.000000 0 0 1
29.988826 23.885867 5.625524 38.749334 0.672598 1.425104 0.053193 -0.015260 752146.000000 0 0 1
30.762976 22.795967 5.067724 38.622515 0.637729 1.439205 0.046971 -0.013010 652961.000000 0 0 1
31.079586 22.877167 3.640524 38.762854 0.634535 1.476740 0.057330 -0.024465 -232538.000000 0 0 1
31.986526 24.046067 3.216024 40.145909 0.644624 1.490602 0.087208 -0.032677 -790141.000000 0 0 1
31.236326 25.207467 3.186524 40.265101 0.678990 1.491575 0.064861 -0.033862 -59637.100000 0 0 1
31.936576 26.243867 2.511124 41.412452 0.687863 1.510122 0.116049 -0.029599 -616189.000000 0 0 1
31.306776 27.666467 2.724624 41.868499 0.723748 1.505675 0.106980 -0.025537 961861.000000 0 0 1
30.103726 27.891867 1.967324 41.086019 0.747278 1.522895 0.146286 -0.026744 1665260.000000 0 0 1
28.925826 27.312767 2.599224 39.867865 0.756724 1.505554 0.116483 -0.018325 745838.000000 0 0 1
27.520726 27.877767 2.274824 39.239458 0.791843 1.512791 0.081814 -0.010958 271242.000000 0 0 1
27.401026 29.180567 2.807924 40.127374 0.816839 1.500764 0.092315 -0.011605 476727.000000 0 0 1
26.183526 29.828767 2.430424 39.764800 0.850386 1.509638 0.079726 -0.004962 444625.000000 0 0 1
26.167626 31.301667 2.948324 40.905154 0.874497 1.498657 0.086783 -0.012167 -61419.300000 0 0 1
26.127026 31.430967 4.360324 41.104010 0.877288 1.464516 0.087119 -0.026384 19422.800000 0 0 1
27.430626 31.421967 4.902824 41.997821 0.853114 1.453790 0.092918 -0.031518 -186805.000000 0 0 1
27.461726 31.368067 6.481824 42.191422 0.851702 1.416557 0.108745 -0.040314 -298136.000000 0 0 1
27.113626 30.119267 7.071324 41.137849 0.837866 1.398045 0.112074 -0.044066 151299.000000 0 0 1
27.856026 28.942567 6.685924 40.722622 0.804526 1.405868 0.077100 -0.043857 -102200.000000 0 0 1
27.231926 27.607367 7.102324 39.423185 0.792244 1.389651 0.096323 -0.043458 821738.000000 0 0 1
25.887326 27.450567 6.603224 38.305220 0.814698 1.397546 0.096500 -0.050110 816156.000000 0 0 1
25.224126 26.333767 7.149924 37.159726 0.806917 1.377178 0.115011 -0.037433 -266668.000000 0 0 1
23.775626 26.089467 6.677824 35.924003 0.831767 1.383821 0.134304 -0.025665 81671.500000 0 0 1
23.595226 25.741067 5.320924 35.322082 0.828865 1.419581 0.088813 -0.026482 -2038.200000 0 0 1
23.885426 26.791767 4.406024 36.162486 0.842685 1.448653 0.083845 -0.017801 -247028.000000 0 0 1
23.641526 26.321067 2.936524 35.501317 0.838978 1.487986 0.079175 -0.014601 -476921.000000 0 0 1
24.762926 25.702467 2.390824 35.770593 0.804014 1.503909 0.077951 -0.003528 -147757.000000 0 0 1
24.591626 25.505967 1.007224 35.444561 0.803647 1.542376 0.089973 -0.007523 -783186.000000 0 0 1
25.783826 24.936067 0.312424 35.870750 0.768685 1.562086 0.112221 -0.012018 -848292.000000 0 0 1
26.989126 25.654467 0.146824 37.236892 0.760051 1.566853 0.092026 -0.013000 658432.000000 0 0 1
28.046326 25.019967 -0.541876 37.588413 0.728430 1.585213 0.100129 -0.009485 859120.000000 0 0 1
28.891026 23.828967 0.061724 37.450165 0.689674 1.569148 0.093417 -0.018358 49583.300000 0 0 1
28.055626 22.686667 0.051024 36.080543 0.679982 1.569382 0.094119 -0.018412 539924.000000 0 0 1
28.481626 21.648167 0.886924 35.785930 0.649918 1.546010 0.097527 -0.023640 -808418.000000 0 0 1
27.266926 20.890267 1.373524 34.376956 0.653751 1.530831 0.089737 -0.021679 -579399.000000 0 0 1
26.621826 20.210467 0.307224 33.425723 0.649344 1.561605 0.124408 -0.043326 -552086.000000 0 0 1
25.467026 19.651367 0.796624 32.177325 0.657207 1.546036 0.088645 -0.027984 -901895.000000 0 0 1
24.882826 18.607267 -0.247476 31.071638 0.642089 1.578761 0.119796 -0.028802 518784.000000 0 0 1
23.590026 18.059567 0.055324 29.709264 0.653385 1.568934 0.096954 -0.019277 672661.000000 0 0 1
23.208526 17.130867 -0.978176 28.862763 0.635860 1.604693 0.121314 -0.042740 77816.800000 0 0 1
21.743626 16.696767 -0.796676 27.426301 0.654854 1.599848 0.090564 -0.020682 -1243090.000000 0 0 1
21.314326 15.646567 -1.692776 26.494925 0.633239 1.634730 0.103367 -0.031722 1060900.000000 0 0 1
19.922026 15.291267 -1.654176 25.168358 0.654642 1.636568 0.102380 -0.031182 546992.000000 0 0 1
18.883326 16.382067 -1.882776 25.069842 0.714590 1.645968 0.095872 -0.031673 -1319780.000000 0 0 1
18.748426 17.367967 -0.878576 25.571892 0.747194 1.605160 0.084848 -0.025048 -396497.000000 0 0 1
17.745826 18.294567 -1.171276 25.514259 0.800623 1.616719 0.059479 -0.033604 -215791.000000 0 0 1
17.964426 19.710967 -0.563276 26.675084 0.831723 1.591914 0.067359 -0.020003 -361505.000000 0 0 1
17.585126 19.915867 0.812424 26.580791 0.847470 1.540227 0.070645 -0.014814 245938.000000 0 0 1
17.803126 21.251967 1.257924 27.752113 0.873477 1.525454 0.087491 -0.014345 317387.000000 0 0 1
16.649526 22.186367 0.770024 27.749496 0.927014 1.543044 0.065706 -0.020159 466474.000000 0 0 1
15.486826 22.208767 1.586824 27.121746 0.961865 1.512255 0.054176 -0.012869 60495.900000 0 0 1
14.562326 23.104667 1.008324 27.329539 1.008412 1.533893 0.038004 -0.013801 594743.000000 0 0 1
13.104926 23.033467 1.580124 26.547627 1.053520 1.511241 0.036763 -0.018428 711588.000000 0 0 1
12.966826 23.506267 2.892324 27.000902 1.066700 1.463471 0.033935 -0.009007 -239811.000000 0 0 1
11.626426 23.307567 3.266224 26.250423 1.108088 1.446047 0.032898 -0.015685 45106.000000 0 0 1
11.374926 23.614367 4.754324 26.638898 1.121900 1.391362 0.053785 -0.024369 -259378.000000 0 0 1
11.951626 22.680567 5.620824 26.245822 1.085818 1.354964 0.074919 -0.041684 121465.000000 0 0 1
11.372526 22.722467 6.910224 26.332415 1.106751 1.305264 0.060229 -0.023471 -439831.000000 0 0 1
11.944726 21.524867 7.749824 25.808064 1.064178 1.265803 0.070517 -0.030107 -213908.000000 0 0 1
13.209726 21.671567 8.297324 26.702046 1.023390 1.254828 0.093755 -0.033050 -621868.000000 0 0 1
14.316126 21.551867 7.446024 26.923553 0.984459 1.290582 0.100885 -0.033397 -77104.900000 0 0 1
15.700326 21.692467 8.145124 27.989398 0.944296 1.275517 0.121281 -0.039545 356169.000000 0 0 1
16.136226 20.512567 8.924524 27.582428 0.904248 1.241309 0.132761 -0.041599 -702067.000000 0 0 1
17.468226 20.467467 9.274924 28.461910 0.864295 1.238863 0.126781 -0.046598 -810927.000000 0 0 1
17.819226 21.190867 10.609224 29.650182 0.871614 1.204871 0.096806 -0.030854 -279945.000000 0 0 1
17.442526 20.636867 11.835524 29.499180 0.869089 1.157953 0.105300 -0.044248 -107328.000000 0 0 1
17.692526 21.569867 12.847924 30.714065 0.883834 1.139215 0.104455 -0.040106 559495.000000 0 0 1
18.797726 21.005767 13.826724 31.397055 0.840815 1.114771 0.081290 -0.027667 1294700.000000 0 0 1
20.151126 21.058467 13.355024 32.060624 0.807412 1.141143 0.096480 -0.030048 583483.000000 0 0 1
21.003826 20.584067 14.419824 32.753562 0.775305 1.114917 0.088977 -0.031415 197612.000000 0 0 1
22.454526 21.084567 14.251324 33.939136 0.753944 1.137452 0.099647 -0.032414 -306806.000000 0 0 1
23.027026 20.343967 13.203224 33.443176 0.723614 1.164951 0.114199 -0.035615 -219768.000000 0 0 1
24.354826 20.827867 13.089724 34.616448 0.707496 1.183014 0.111168 -0.028170 6576.350000 0 0 1
25.117426 20.395867 11.794424 34.438132 0.682028 1.221239 0.118735 -0.032699 186608.000000 0 0 1
24.809826 21.206467 10.667124 34.336995 0.707251 1.254909 0.130310 -0.036138 -193801.000000 0 0 1
25.672426 20.905767 9.633424 34.480827 0.683416 1.287643 0.148136 -0.041395 -626346.000000 0 0 1
25.624426 22.024967 8.506124 34.843429 0.710001 1.324180 0.127231 -0.034961 -61469.700000 0 0 1
26.118926 23.315867 8.869724 36.117862 0.728757 1.322681 0.114290 -0.038127 249428.000000 0 0 1
27.517026 23.399267 8.667924 37.146269 0.704701 1.335279 0.086603 -0.033421 -352886.000000 0 0 1
28.087626 24.613267 9.434624 38.519343 0.719567 1.323347 0.083342 -0.040522 -2199070.000000 0 0 1
29.333626 24.866367 9.019924 39.498821 0.703162 1.340404 0.063790 -0.026202 -1965190.000000 0 0 1
29.722726 26.022067 9.675324 40.671861 0.719110 1.330606 0.064128 -0.024785 -500202.000000 0 0 1
30.912336 26.777667 9.135724 41.905578 0.713850 1.351024 0.056175 -0.020497 -225675.000000 0 0 1
30.601286 27.361867 7.857724 41.795386 0.729569 1.381666 0.067963 -0.027894 -280316.000000 0 0 1
31.836356 27.675567 7.305324 42.811895 0.715597 1.399319 0.058043 -0.013968 -454563.000000 0 0 1
31.748506 28.653267 6.113024 43.201232 0.734199 1.428819 0.083662 -0.012668 108345.000000 0 0 1
31.488306 30.007967 6.508924 43.981332 0.761331 1.422258 0.092260 -0.016711 -13626.500000 0 0 1
31.514736 30.898067 5.361424 44.459127 0.775518 1.449910 0.102676 -0.026504 -8939.180000 0 0 1
31.407276 32.407867 5.690124 45.486969 0.801076 1.445374 0.085668 -0.024218 -731615.000000 0 0 1
30.188226 32.911967 6.078724 45.071914 0.828537 1.435517 0.091498 -0.033685 -1008000.000000 0 0 1
30.332946 -33.378970 6.292624 45.539438 -0.833171 1.432173 0.094660 -0.031074 630093.000000 0 0 1
28.981426 -32.710870 6.734224 44.218479 -0.845777 1.417907 0.120808 -0.038581 705034.000000 0 0 1
27.998226 -32.820670 5.735624 43.520046 -0.864524 1.438619 0.115062 -0.040647 186512.000000 0 0 1
26.730326 -32.323370 6.189724 42.398388 -0.879828 1.424283 0.108456 -0.044691 871577.000000 0 0 1
25.586326 -32.419270 5.144624 41.618942 -0.902656 1.446867 0.112095 -0.035028 94747.000000 0 0 1
25.797326 -31.691170 3.981224 41.057063 -0.887563 1.473676 0.097053 -0.023629 -334865.000000 0 0 1
24.752426 -31.781470 3.053824 40.398890 -0.909097 1.495132 0.092917 -0.025359 -182923.000000 0 0 1
25.122526 -31.093070 1.703124 40.010261 -0.891209 1.528216 0.088136 -0.003693 116386.000000 0 0 1
25.297826 -29.684370 1.767924 39.041867 -0.865011 1.525498 0.100095 -0.001498 -215942.000000 0 0 1
26.065526 -29.122770 0.753524 39.091114 -0.840738 1.551519 0.088077 0.004090 -350206.000000 0 0 1
26.325226 -27.579970 0.930324 38.138403 -0.808671 1.546401 0.109318 -0.010988 321072.000000 0 0 1
25.127526 -26.833370 1.064724 36.777112 -0.818216 1.541842 0.103979 -0.010180 -79430.700000 0 0 1
24.426726 -26.601670 -0.105676 36.115440 -0.827995 1.573722 0.095810 -0.006733 -612946.000000 0 0 1
23.285426 -25.594370 0.003424 34.601776 -0.832600 1.570697 0.068249 0.002427 -403966.000000 0 0 1
23.582326 -24.227670 0.211424 33.810513 -0.798895 1.564543 0.082804 -0.014240 -445499.000000 0 0 1
23.550226 -23.755970 1.536424 33.486115 -0.789747 1.524898 0.078171 -0.003137 281485.000000 0 0 1
22.217926 -23.653770 2.339324 32.536280 -0.816689 1.498835 0.070120 -0.006919 219624.000000 0 0 1
22.373226 -23.007670 3.569224 32.290146 -0.799378 1.460034 0.066795 -0.005069 -15888.800000 0 0 1
21.092526 -22.637670 4.055924 31.205918 -0.820717 1.440455 0.064735 -0.008064 186857.000000 0 0 1
20.995826 -21.960870 5.473624 30.871752 -0.807860 1.392552 0.046370 -0.001078 -221845.000000 0 0 1
21.166726 -20.547370 5.601624 30.026703 -0.770552 1.383142 0.070124 -0.001306 214085.000000 0 0 1
20.111026 -19.835770 4.974424 28.681981 -0.778508 1.396481 0.055495 0.002322 -253253.000000 0 0 1
19.953426 -18.365270 5.306324 27.632941 -0.743976 1.377567 0.059527 0.005536 168861.000000 0 0 1
19.455026 -18.016370 6.590624 27.322591 -0.747024 1.327178 0.081201 -0.010847 -406372.000000 0 0 1
18.061026 -18.069170 6.707324 26.413704 -0.785624 1.314051 0.075728 -0.006119 -395135.000000 0 0 1
19.409527 -26.216693 -11.853676 34.706690 -0.933500 1.919350 0.120613 -0.016283 222544.000000 0 0 1
19.661027 -24.852333 -12.200976 33.956711 -0.901497 1.938324 0.132336 -0.020043 -551407.000000 0 0 1
18.503127 -24.218533 -12.654176 33.000473 -0.918391 1.964330 0.089525 -0.014923 -362876.000000 0 0 1
18.771327 -22.750633 -13.113576 32.278784 -0.880943 1.989154 0.080106 -0.010535 -44769.800000 0 0 1
18.795527 -21.723933 -12.112376 31.175483 -0.857544 1.969824 0.088859 -0.018742 -594292.000000 0 0 1
19.943627 -21.573333 -11.332276 31.489322 -0.824632 1.938932 0.086021 -0.027355 -974604.000000 0 0 1
19.894927 -22.363533 -9.990576 31.555464 -0.843749 1.892943 0.099247 -0.021657 135607.000000 0 0 1
19.014027 -21.865733 -8.997576 30.341389 -0.855044 1.871869 0.093601 -0.024774 677079.000000 0 0 1
17.617127 -22.016233 -9.271676 29.682346 -0.895941 1.888476 0.083269 -0.006733 384971.000000 0 0 1
16.644627 -21.426633 -8.226376 28.351675 -0.910350 1.865185 0.073988 -0.017356 -860484.000000 0 0 1
16.683127 -20.020033 -8.106776 27.291908 -0.876065 1.872387 0.068520 -0.028429 -466488.000000 0 0 1
15.759827 -19.344233 -7.347376 26.010679 -0.887154 1.857170 0.072697 -0.036120 -1313640.000000 0 0 1
14.335727 -19.368733 -7.857876 25.345751 -0.933630 1.886018 0.066557 -0.020203 -1165190.000000 0 0 1
13.692727 -20.614533 -7.634876 25.898669 -0.984485 1.870040 0.061437 -0.022149 -558913.000000 0 0 1
12.348527 -20.459633 -8.035376 25.212100 -1.027766 1.895166 0.066757 -0.029227 -510287.000000 0 0 1
11.575927 -21.763033 -7.919676 25.891175 -1.081950 1.881662 0.080566 -0.025442 -354766.000000 0 0 1
11.376927 -22.064533 -6.586276 25.683791 -1.094731 1.830131 0.077287 -0.029354 4967.060000 0 0 1
10.725727 -23.285933 -6.426976 26.430700 -1.139154 1.816422 0.077230 -0.028569 44186.600000 0 0 1
11.275627 -23.890433 -5.137676 26.912604 -1.129821 1.762878 0.075263 -0.028749 -3800.920000 0 0 1
10.517127 -24.956633 -4.631676 27.475369 -1.171965 1.740181 0.078528 -0.022497 -339333.000000 0 0 1
11.069827 -25.500213 -3.429076 28.010007 -1.161237 1.693527 0.078176 -0.026635 25312.000000 0 0 1
10.191627 -26.450253 -2.588076 28.463719 -1.203015 1.661848 0.081084 -0.024996 -99011.200000 0 0 1
9.079527 -25.826173 -2.000276 27.448682 -1.232730 1.643734 0.054106 -0.018916 -553806.000000 0 0 1
8.659927 -26.670773 -0.949776 28.057558 -1.256838 1.604654 0.056355 -0.021247 -5648.290000 0 0 1
7.974427 -25.926683 0.215424 27.126201 -1.272404 1.562855 0.058261 -0.019754 1036330.000000 0 0 1
6.604927 -25.560803 -0.063576 26.400450 -1.317927 1.573204 0.052358 -0.026010 574917.000000 0 0 1
6.069827 -25.064873 1.165824 25.815689 -1.333206 1.525621 0.042445 -0.021638 267283.000000 0 0 1
4.545127 -24.796433 1.021624 25.230239 -1.389511 1.530293 0.059069 -0.032154 311021.000000 0 0 1
3.721427 -25.922273 0.925624 26.204390 -1.428210 1.535466 0.062680 -0.032713 -987417.000000 0 0 1
2.407027 -25.502403 0.739224 25.626408 -1.476691 1.541946 0.075742 -0.036372 -525615.000000 0 0 1
1.479327 -26.623943 0.258324 26.666261 -1.515290 1.561109 0.086170 -0.034715 -80198.300000 0 0 1
1.051727 -27.581703 1.237824 27.629489 -1.532683 1.525980 0.079144 -0.031185 -127982.000000 0 0 1
1.812927 -28.761523 1.326424 28.849113 -1.507847 1.524802 0.049767 -0.025444 -510392.000000 0 0 1
1.043227 -29.793403 2.108524 29.886135 -1.535795 1.500186 0.079108 -0.031693 -84001.100000 0 0 1
0.991027 -29.433443 3.411524 29.647060 -1.537139 1.455470 0.065652 -0.030933 -311108.000000 0 0 1
0.155427 -30.381223 3.986524 30.642050 -1.565680 1.440327 0.076570 -0.032756 -309285.000000 0 0 1
0.196527 -30.323493 5.522324 30.822863 -1.564315 1.390660 0.076118 -0.034125 1173610.000000 0 0 1
1.574527 -30.569633 5.935524 31.180315 -1.519336 1.379266 0.072949 -0.015583 1300150.000000 0 0 1
1.753727 -30.368813 7.335124 31.291283 -1.513113 1.334180 0.073455 -0.015506 -48611.700000 0 0 1
3.237727 -30.666873 7.628724 31.766923 -1.465609 1.328279 0.088621 -0.019899 93614.800000 0 0 1
3.546527 -32.009983 7.494824 33.066437 -1.460452 1.342150 0.072844 -0.017940 418567.000000 0 0 1
4.934627 -32.233903 7.797124 33.528647 -1.418888 1.336096 0.074382 -0.015627 1039670.000000 0 0 1
5.416427 -33.706203 7.698224 34.995835 -1.411463 1.349007 0.060918 -0.004607 98450.200000 0 0 1
5.316627 33.436933 6.359024 34.448980 1.413112 1.385139 0.052611 -0.002943 -147797.000000 0 0 1
5.403427 32.062343 6.477024 33.153322 1.403836 1.374166 0.043516 -0.014407 -237599.000000 0 0 1
5.622427 31.351464 5.115924 32.259862 1.393347 1.411539 0.050989 -0.018620 161323.000000 0 0 1
6.845027 31.387974 4.412224 32.427258 1.356080 1.434308 0.054813 -0.010464 -160820.000000 0 0 1
7.826027 30.441004 4.828624 31.799639 1.319158 1.418361 0.049518 -0.016881 155597.000000 0 0 1
9.086027 30.532004 3.923224 32.095963 1.281552 1.448256 0.032461 -0.011455 66065.800000 0 0 1
10.123627 31.145584 4.676524 33.081794 1.256526 1.428959 0.032223 -0.016758 -965398.000000 0 0 1
11.315827 31.158704 3.975624 33.387399 1.222440 1.451438 0.037025 -0.017820 -152499.000000 0 0 1
12.552727 31.589694 4.833624 34.334293 1.192561 1.429546 0.045860 -0.024633 179939.000000 0 0 1
13.059227 30.611514 5.713024 33.767542 1.167561 1.400792 0.036980 -0.026797 -201686.000000 0 0 1
14.066327 31.273894 6.460824 34.894989 1.148127 1.384571 0.064389 -0.027467 314386.000000 0 0 1
14.944027 30.219644 7.258424 34.485295 1.111547 1.358732 0.040667 -0.023612 -66875.000000 0 0 1
14.307227 29.698514 8.412724 34.021646 1.121856 1.320929 0.053591 -0.017695 55037.600000 0 0 1
15.153427 28.773314 9.065124 33.759539 1.086058 1.298940 0.060739 -0.017624 171008.000000 0 0 1
14.880227 28.764744 10.598424 34.075772 1.093399 1.254525 0.062595 -0.007144 47769.200000 0 0 1
15.349327 29.913464 11.301324 35.470229 1.096704 1.246529 0.071097 -0.016238 58087.500000 0 0 1
14.915327 29.908614 12.640424 35.731954 1.108192 1.209212 0.085985 -0.013394 164387.000000 0 0 1
15.805127 30.802854 13.549224 37.177942 1.096719 1.197762 0.088177 -0.013617 950475.000000 0 0 1
17.067427 30.234204 13.929324 37.408959 1.056883 1.189254 0.088516 -0.016248 489637.000000 0 0 1
17.740827 31.052274 14.837524 38.718636 1.051731 1.177523 0.083806 -0.014245 -167256.000000 0 0 1
19.006227 30.490764 15.512024 39.134975 1.013389 1.163234 0.085822 -0.020911 26880.900000 0 0 1
20.029427 30.150574 14.609524 39.034258 0.984425 1.187182 0.069663 -0.018357 50717.300000 0 0 1
20.785027 29.030844 15.094024 38.763860 0.949437 1.170834 0.060909 -0.012122 189929.000000 0 0 1
22.154827 28.794324 14.439524 39.095388 0.914984 1.192497 0.091677 -0.020938 -541496.000000 0 0 1
23.271227 29.278684 15.105524 40.335694 0.899223 1.186944 0.102127 -0.017668 -272531.000000 0 0 1
24.409327 28.600094 14.554024 40.318733 0.864291 1.201484 0.097777 -0.021180 316344.000000 0 0 1
25.697427 28.689644 15.380324 41.472977 0.840360 1.190870 0.102953 -0.021152 -269909.000000 0 0 1
25.418927 28.164144 16.625624 41.421640 0.836586 1.157778 0.086367 -0.017117 -499864.000000 0 0 1
26.489327 28.282324 17.485224 42.512438 0.818122 1.146920 0.092073 -0.025253 -242377.000000 0 0 1
27.535727 27.070304 17.487924 42.389210 0.776875 1.145538 0.073826 -0.014739 562190.000000 0 0 1
27.000727 25.804654 17.911724 41.421604 0.762751 1.123616 0.081116 -0.016278 150004.000000 0 0 1
26.691327 25.730104 19.327124 41.809125 0.767064 1.090242 0.114020 -0.018381 374423.000000 0 0 1
25.966227 24.439954 19.834724 40.804076 0.755128 1.063179 0.120814 -0.023856 331904.000000 0 0 1
26.853927 23.334024 19.815024 40.721558 0.715378 1.062605 0.089572 -0.022251 100171.000000 0 0 1
26.222727 22.111404 20.051124 39.731514 0.700542 1.041802 0.098392 -0.024931 249600.000000 0 0 1
27.170627 20.923204 19.677424 39.537634 0.656221 1.049865 0.068953 -0.018787 98689.900000 0 0 1
26.508127 19.689104 19.802324 38.502905 0.638850 1.030597 0.053177 -0.010876 396809.000000 0 0 1
27.409627 18.580404 19.945124 38.656527 0.595725 1.028671 0.054892 -0.014335 513913.000000 0 0 1
28.091427 18.382204 21.327424 39.773015 0.579442 1.004834 0.067582 -0.009751 596346.000000 0 0 1
27.158327 17.934004 22.345924 39.478394 0.583617 0.969115 0.061348 -0.005774 593719.000000 0 0 1
27.770827 17.619904 23.563824 40.459037 0.565384 0.949104 0.084581 -0.005299 483359.000000 0 0 1
26.695127 16.957104 24.518424 40.016575 0.565910 0.911315 0.076108 -0.011988 549231.000000 0 0 1
26.362527 15.690704 24.038224 38.974572 0.536875 0.906168 0.063575 -0.021171 24981.700000 0 0 1
25.326827 15.033304 24.719724 38.451439 0.535680 0.872542 0.063454 -0.022126 -135313.000000 0 0 1
24.928427 13.716904 24.061124 37.262818 0.503036 0.868838 0.057095 -0.015624 -77652.500000 0 0 1
23.613227 13.353404 24.414924 36.496389 0.514669 0.837977 0.052897 -0.018061 60104.000000 0 0 1
23.204727 12.325704 23.536124 35.275083 0.488273 0.840330 0.057156 -0.012446 390185.000000 0 0 1
21.900327 11.584004 23.953224 34.461144 0.486532 0.802266 0.065816 -0.017081 2192900.000000 0 0 1
20.610327 12.277904 23.857624 33.833692 0.537264 0.788170 0.089444 -0.031097 1958860.000000 0 0 1
19.501827 11.399404 24.068624 33.008580 0.528967 0.753699 0.102157 -0.022104 283274.000000 0 0 1
18.083627 11.950804 24.114024 32.424149 0.583974 0.732200 0.089883 -0.035928 -242894.000000 0 0 1
17.914127 12.444404 25.421124 33.496458 0.607140 0.709144 0.105203 -0.015783 185102.000000 0 0 1
16.638427 13.037204 25.559124 33.167375 0.664636 0.690998 0.111446 -0.018549 -11920.900000 0 0 1
16.306227 13.474604 26.987824 34.289950 0.690601 0.664788 0.097290 -0.003122 -559941.000000 0 0 1
16.044027 12.343504 27.803224 34.391746 0.655772 0.629321 0.105171 -0.004868 -40277.700000 0 0 1
16.070527 12.607904 29.175224 35.614811 0.665240 0.610803 0.089352 -0.019396 -828928.000000 0 0 1
17.449427 12.735204 29.805224 36.810587 0.630470 0.627170 0.089402 -0.002659 -862307.000000 0 0 1
18.137727 13.780604 29.158624 37.001453 0.649728 0.663178 0.110964 -0.021797 333942.000000 0 0 1
19.555727 13.642604 29.368924 37.829629 0.609132 0.681947 0.106554 -0.006549 578441.000000 0 0 1
20.273727 14.990204 29.082324 38.490412 0.636676 0.714268 0.131221 -0.015444 -330551.000000 0 0 1
20.357427 15.519604 27.737224 37.744358 0.651362 0.745320 0.121203 -0.025607 206939.000000 0 0 1
20.783627 14.597204 26.751924 36.887708 0.612296 0.759434 0.108629 -0.030960 -273072.000000 0 0 1
20.762227 15.284204 25.409124 36.198074 0.634581 0.792669 0.099271 -0.033417 65985.500000 0 0 1
21.824527 16.194304 25.226324 37.080088 0.638376 0.822597 0.106291 -0.034708 183554.000000 0 0 1
21.653927 16.687204 23.916024 36.322604 0.656575 0.852061 0.091035 -0.032362 260714.000000 0 0 1
22.779227 17.676604 23.469424 37.177539 0.659932 0.887594 0.083689 -0.028147 11661.400000 0 0 1
22.668827 18.123304 22.134624 36.500294 0.674425 0.919242 0.083650 -0.027559 257649.000000 0 0 1
23.864827 18.813904 21.773524 37.384212 0.667599 0.949087 0.079791 -0.028373 455590.000000 0 0 1
24.216727 20.188604 22.461224 38.710931 0.694933 0.951786 0.108132 -0.037935 -1006780.000000 0 0 1
23.299927 21.181804 22.215024 38.536512 0.737816 0.956398 0.106214 -0.029631 -623750.000000 0 0 1
23.338027 22.282104 23.021124 39.637455 0.762256 0.951095 0.129599 -0.032489 584401.000000 0 0 1
22.254127 23.364054 22.645824 39.420281 0.809724 0.958838 0.121707 -0.037443 527291.000000 0 0 1
22.549827 23.901034 21.367224 39.195821 0.814479 0.994240 0.130464 -0.034057 418676.000000 0 0 1
21.696727 25.018254 21.101624 39.267538 0.856381 1.003468 0.115299 -0.024992 263132.000000 0 0 1
22.337127 25.966784 20.039724 39.683897 0.860399 1.041433 0.107192 -0.026021 25653.700000 0 0 1
22.376727 25.192124 18.775824 38.573211 0.844515 1.062422 0.091228 -0.027867 110557.000000 0 0 1
22.718327 26.097054 17.716424 38.872231 0.854502 1.097570 0.085079 -0.032670 -169731.000000 0 0 1
22.622527 25.501144 16.342124 37.804128 0.845144 1.123772 0.073845 -0.013676 -693248.000000 0 0 1
21.349127 25.128154 15.961924 36.633214 0.866529 1.119955 0.070484 -0.013151 -875007.000000 0 0 1
21.527827 24.678854 14.625324 35.866325 0.853487 1.150782 0.078617 -0.012766 -356240.000000 0 0 1
20.250327 24.410494 13.816324 34.595358 0.878280 1.159968 0.083119 -0.016006 104591.000000 0 0 1
19.321327 25.468064 13.665924 34.766269 0.921783 1.166818 0.079783 -0.008518 530392.000000 0 0 1
18.391527 25.701074 14.740224 34.872162 0.949681 1.134381 0.077538 -0.017565 297812.000000 0 0 1
16.874527 25.671604 14.379124 33.919613 0.989291 1.133030 0.085583 -0.021143 285151.000000 0 0 1
16.303527 24.351894 14.400624 32.652683 0.980837 1.114057 0.090014 -0.017410 121840.000000 0 0 1
16.070727 23.722714 15.669524 32.658375 0.975372 1.070368 0.103720 -0.019455 -432803.000000 0 0 1
15.033027 24.369414 16.589224 33.091730 1.018057 1.045684 0.139766 -0.035312 -406132.000000 0 0 1
15.507627 25.614214 17.108324 34.485783 1.026393 1.051697 0.112149 -0.037105 -469039.000000 0 0 1
14.536327 26.235234 17.872124 34.914254 1.064829 1.033417 0.125364 -0.045920 -654183.000000 0 0 1
14.965227 27.507224 18.573624 36.408583 1.072535 1.035444 0.128381 -0.047893 -333561.000000 0 0 1
14.992527 28.586444 17.717724 36.822254 1.087771 1.068809 0.122787 -0.040541 37000.900000 0 0 1
15.646627 29.647394 18.352924 38.217990 1.085190 1.069894 0.099137 -0.035752 -157046.000000 0 0 1
15.363727 30.982764 17.643524 38.823572 1.110450 1.099037 0.106127 -0.028016 1218670.000000 0 0 1
13.975627 31.432564 17.673324 38.673901 1.152423 1.096196 0.115074 -0.032478 1377080.000000 0 0 1
13.897127 32.721748 17.162724 39.476601 1.169175 1.121028 0.093861 -0.032520 327387.000000 0 0 1
12.516827 33.333471 17.548724 39.695705 1.211585 1.112879 0.112340 -0.043491 133280.000000 0 0 1
12.259227 -33.059223 16.964324 39.127857 -1.215690 1.122355 0.114628 -0.033762 -369063.000000 0 0 1
13.019427 -31.932153 17.328524 38.593336 -1.183651 1.105147 0.105584 -0.038396 -269396.000000 0 0 1
12.987227 -31.679883 18.865824 39.092229 -1.181740 1.067178 0.115155 -0.044103 -236512.000000 0 0 1
14.103427 -32.303943 19.484624 40.275327 -1.159154 1.065821 0.117954 -0.040843 192686.000000 0 0 1
14.116927 -32.179773 20.879324 40.875073 -1.157388 1.034672 0.108156 -0.039568 75021.500000 0 0 1
15.311027 -32.876973 21.606424 42.215642 -1.134958 1.033505 0.090742 -0.033852 817706.000000 0 0 1
16.553727 -32.301793 21.192324 42.030302 -1.097222 1.042323 0.101010 -0.033161 59888.000000 0 0 1
17.619427 -32.709653 22.029024 43.193096 -1.076700 1.035597 0.128049 -0.030849 1294790.000000 0 0 1
18.944227 -31.863763 21.747724 42.978444 -1.034402 1.040238 0.122151 -0.031068 1144580.000000 0 0 1
18.766427 -30.477543 22.050424 42.039037 -1.018879 1.018642 0.136347 -0.040346 -430998.000000 0 0 1
19.899327 -29.816373 21.633024 41.868688 -0.982289 1.027819 0.131047 -0.032681 -849304.000000 0 0 1
-5.122873 12.811467 18.696885 23.236846 -1.190405 0.635757 0.018076 -0.002428 -670601.000000 0 1 0
-4.845273 13.973967 17.924785 23.238897 -1.237033 0.689873 0.022570 -0.011774 -474123.000000 0 1 0
-6.001273 14.684167 17.634385 23.719435 -1.182821 0.732571 0.019571 -0.007179 -649330.000000 0 1 0
-5.743873 16.205267 17.382885 24.449283 -1.230167 0.779909 0.040286 -0.013821 167911.000000 0 1 0
-5.239373 16.865767 18.576785 25.632052 -1.269597 0.760127 0.049640 -0.012121 460544.000000 0 0 1
-4.698373 18.166667 18.289085 26.202922 -1.317716 0.798225 0.056081 -0.006564 94749.900000 0 0 1
-3.933773 18.800567 19.494585 27.367403 -1.364535 0.777986 0.047677 -0.009046 -137886.000000 0 0 1
-4.800273 19.132167 20.543085 28.479831 -1.324970 0.765089 0.038833 -0.008590 -157761.000000 0 0 1
-4.192173 19.950367 21.489685 29.620905 -1.363680 0.759050 0.040943 -0.004622 -376475.000000 0 0 1
-5.086173 20.267867 22.686785 30.843894 -1.324926 0.744339 0.030986 -0.006370 50061.700000 0 0 1
-5.636873 19.130567 23.374875 30.726824 -1.284253 0.706356 0.038987 -0.016213 338053.000000 0 0 1
-6.362273 19.483067 24.573205 31.998607 -1.255160 0.695168 0.032693 -0.021246 619132.000000 0 0 1
-5.437173 19.997067 25.747445 33.051119 -1.305316 0.677697 0.024185 -0.017465 -203606.000000 0 0 1
-4.902473 21.230867 25.333535 33.415146 -1.343861 0.710332 0.043545 -0.015570 -44826.500000 0 0 1
-4.000573 21.924967 26.208645 34.403515 -1.390315 0.704707 0.030095 -0.008609 611151.000000 0 0 1
-2.555773 21.401267 25.937205 33.723654 -1.451938 0.693349 0.041976 -0.006561 -549431.000000 0 0 1
-2.268773 20.103067 26.382885 33.246613 -1.458415 0.654174 0.052752 -0.009720 -415301.000000 0 0 1
-1.008773 19.774367 25.878545 32.584388 -1.519826 0.653105 0.059155 -0.003859 -367610.000000 0 0 1
-0.308273 18.520767 26.406015 32.255100 -1.554153 0.611720 0.070476 0.002376 -377276.000000 0 0 1
-0.871573 17.277467 26.002355 31.231282 -1.520393 0.587058 0.076474 -0.009598 -153730.000000 0 0 1
-0.104173 16.152367 26.391305 30.942056 -1.564347 0.549230 0.082235 -0.012909 1017670.000000 0 0 1
1.386027 16.023567 25.872145 30.463809 1.484512 0.556186 0.096937 -0.017188 556012.000000 0 0 1
1.514127 15.790967 24.446505 29.142389 1.475203 0.575603 0.087022 -0.018841 -395098.000000 0 0 1
0.951427 14.665767 23.828925 27.996564 1.506013 0.552648 0.097039 -0.024398 -160667.000000 0 0 1
1.221327 14.623067 22.313185 26.705879 1.487469 0.581725 0.108896 -0.038031 265248.000000 0 0 1
2.595127 14.470167 22.005085 26.464017 1.393340 0.588977 0.092809 -0.033083 -114407.000000 0 0 1
2.848527 13.873767 20.773285 25.142094 1.368293 0.598405 0.090132 -0.030372 -272029.000000 0 0 1
4.349827 13.876167 20.466485 25.106693 1.267024 0.617756 0.074952 -0.031143 -288665.000000 0 0 1
4.780627 15.120767 19.997485 25.522371 1.264578 0.670473 0.070682 -0.036326 646685.000000 0 0 1
6.209727 15.039867 19.842385 25.660837 1.179232 0.686837 0.065793 -0.031481 870137.000000 0 0 1
6.764127 16.007967 18.742485 25.559522 1.171005 0.747651 0.073234 -0.034120 800.486000 0 0 1
6.378727 15.539867 17.497885 24.255960 1.181293 0.764996 0.075876 -0.044508 172990.000000 0 1 0
6.799327 16.431667 16.451585 24.225713 1.178455 0.824266 0.070038 -0.035801 43065.100000 0 1 0
6.808727 15.717667 15.089085 22.827271 1.162010 0.848631 0.070013 -0.031512 -98728.400000 0 1 0
7.955127 14.970567 14.764585 22.480990 1.082358 0.854284 0.067399 -0.028862 -135663.000000 0 1 0
8.186027 13.780767 15.426785 22.246489 1.034787 0.804533 0.067141 -0.031283 160575.000000 0 1 0
9.404527 12.994467 14.857985 21.864607 0.944319 0.823654 0.066757 -0.028822 901936.000000 0 1 0
10.668227 13.654867 14.907585 22.858315 0.907577 0.860348 0.060138 -0.027896 350966.000000 0 1 0
11.696127 13.009067 14.213385 22.540087 0.838493 0.888493 0.071416 -0.018521 -246132.000000 0 1 0
13.007127 13.810167 14.126885 23.653223 0.815334 0.930728 0.068274 -0.011385 -1017100.000000 0 1 0
13.835727 13.571067 15.227985 24.647368 0.775742 0.904811 0.063244 -0.020562 -719587.000000 0 1 0
15.055227 14.231967 15.126285 25.651769 0.757296 0.940136 0.058808 -0.020456 -295540.000000 0 0 1
16.121627 13.449467 14.311185 25.408759 0.695279 0.972497 0.064829 -0.027169 -244206.000000 0 0 1
17.447027 13.986567 14.343385 26.566059 0.675752 1.000461 0.072510 -0.037552 1041740.000000 0 0 1
18.343627 13.310267 13.473485 26.366393 0.627706 1.034437 0.077286 -0.036515 -72860.600000 0 0 1
19.796927 13.764667 13.643685 27.704413 0.607560 1.055867 0.074213 -0.043108 55511.200000 0 0 1
20.509927 13.267367 14.813085 28.567597 0.574176 1.025668 0.061855 -0.041290 -317205.000000 0 0 1
21.863127 13.529167 14.617585 29.575471 0.554137 1.053828 0.080195 -0.045584 -638703.000000 0 0 1
22.773327 13.247567 15.823285 30.732699 0.526866 1.029943 0.088568 -0.036887 -197560.000000 0 0 1
23.029327 11.885367 16.065485 30.491173 0.476442 1.015859 0.091548 -0.032074 610004.000000 0 0 1
23.865227 11.870767 17.234585 31.741063 0.461572 0.996821 0.081115 -0.030740 -183013.000000 0 0 1
24.312727 10.467467 17.716885 31.852230 0.406549 0.980965 0.098255 -0.026892 -499405.000000 0 0 1
23.309127 9.608767 18.214285 31.103119 0.391006 0.945164 0.069948 -0.026268 192248.000000 0 0 1
23.006427 8.571667 17.273285 30.018920 0.356645 0.957687 0.061891 -0.006355 -89204.300000 0 0 1
21.808527 7.770267 17.838085 29.226464 0.342272 0.914306 0.097600 -0.016117 -91082.200000 0 0 1
21.587027 6.529967 17.228685 28.380764 0.293744 0.918447 0.115142 -0.022715 408956.000000 0 0 1
20.498327 5.799267 17.769485 27.741080 0.275709 0.875585 0.124197 -0.018992 -54301.900000 0 0 1
20.303827 4.434767 17.088785 26.906117 0.215043 0.882624 0.152002 -0.018985 -588259.000000 0 0 1
19.712127 4.552367 15.811285 25.676618 0.226963 0.907414 0.151367 -0.031276 350383.000000 0 0 1
19.587827 3.226467 15.241885 25.028146 0.163252 0.916010 0.149355 -0.035120 311892.000000 0 0 1
18.553127 2.180967 15.806885 24.471059 0.117016 0.868540 0.161225 -0.030628 -128342.000000 0 1 0
19.095327 1.632367 16.965985 25.595718 0.085278 0.846185 0.170654 -0.042182 348332.000000 0 0 1
18.149927 0.774867 17.535485 25.249030 0.042667 0.803070 0.158232 -0.048388 -46764.000000 0 0 1
18.713827 0.141867 18.842385 26.556787 0.007581 0.781989 0.166299 -0.048590 -230309.000000 0 0 1
18.929527 -1.213733 18.904385 26.780140 -0.064031 0.787088 0.173061 -0.038702 1086520.000000 0 0 1
17.708327 -1.976833 19.112685 26.130202 -0.111173 0.750364 0.123376 -0.017791 943768.000000 0 0 1
17.834227 -3.422733 18.619885 26.009131 -0.189614 0.772887 0.090901 -0.013579 -144704.000000 0 0 1
17.814027 -3.476533 17.219685 25.018861 -0.192735 0.811697 0.120681 -0.033779 271216.000000 0 0 1
17.810727 -4.829733 16.697285 24.886696 -0.264802 0.835331 0.150631 -0.032656 -302822.000000 0 1 0
17.463127 -4.828433 15.203885 23.652329 -0.269754 0.872639 0.141113 -0.038026 -72673.100000 0 1 0
16.078127 -4.579633 15.033985 22.483325 -0.277488 0.838374 0.127485 -0.042669 86146.300000 0 1 0
15.724427 -4.300433 13.704385 21.296983 -0.266959 0.871748 0.123661 -0.040119 -37827.400000 0 1 0
16.108027 -2.968733 13.043585 20.938410 -0.182256 0.898288 0.120912 -0.032739 209553.000000 0 1 0
15.139127 -1.943033 13.293885 20.240947 -0.127647 0.854253 0.112878 -0.026854 562567.000000 0 1 0
15.583627 -0.716933 12.755685 20.151202 -0.045973 0.885376 0.103081 -0.020720 -339365.000000 0 1 0
14.615027 0.413867 13.027385 19.582724 0.028310 0.842969 0.106108 -0.020353 -776326.000000 0 1 0
14.999027 1.743167 12.707985 19.735813 0.115700 0.871205 0.103614 -0.019999 345333.000000 0 1 0
15.932427 2.383767 13.592785 21.078149 0.148516 0.869936 0.121544 -0.022781 -37740.900000 0 1 0
16.197027 3.801567 13.045185 21.141723 0.230535 0.905827 0.102967 -0.020378 -283013.000000 0 1 0
15.113627 4.646267 13.277685 20.647190 0.298252 0.872290 0.078808 -0.012455 57083.500000 0 1 0
15.233827 5.770467 12.446685 20.500921 0.362092 0.918355 0.092903 -0.023948 1039140.000000 0 1 0
14.085227 6.849567 12.744485 20.192377 0.452623 0.887757 0.059274 -0.015131 754892.000000 0 1 0
14.336327 7.944767 11.983385 20.303968 0.506039 0.939491 0.035774 -0.023628 244769.000000 0 1 0
13.469827 9.051967 12.151385 20.273887 0.591698 0.928093 0.027911 -0.009456 -882162.000000 0 1 0
13.734927 10.049967 13.369285 21.642270 0.631692 0.904931 0.038345 -0.012592 -236446.000000 0 1 0
13.471927 9.402467 14.597385 21.976871 0.609336 0.844352 0.058970 -0.020103 616724.000000 0 1 0
14.040727 10.077367 15.709585 23.355650 0.622523 0.833046 0.084343 -0.025576 -286972.000000 0 1 0
13.820727 9.410767 17.090285 23.909263 0.597803 0.774462 0.082923 -0.029876 -82916.600000 0 1 0
12.460027 9.562167 17.440585 23.470435 0.654562 0.733124 0.068898 -0.035952 125787.000000 0 1 0
11.865527 8.864867 18.488985 23.690065 0.641650 0.675406 0.090046 -0.029978 -36118.300000 0 1 0
12.497327 9.196967 19.862285 25.204717 0.634425 0.663180 0.116267 -0.023657 27847.400000 0 0 1
13.872327 8.848167 19.955485 25.864124 0.567771 0.689521 0.134306 -0.032390 275657.000000 0 0 1
14.371227 9.026467 21.242285 27.189041 0.560820 0.674081 0.133642 -0.015566 -271157.000000 0 0 1
15.853027 8.664367 21.456785 28.049659 0.500186 0.699822 0.130190 -0.023686 -331040.000000 0 0 1
16.745527 9.534367 20.881385 28.413889 0.517591 0.745276 0.132510 -0.018917 -303472.000000 0 0 1
17.336527 8.946167 19.720585 27.739693 0.476389 0.779997 0.102976 -0.017873 -203424.000000 0 0 1
18.307727 9.838467 18.922285 28.107315 0.493114 0.832247 0.098133 -0.021146 -359310.000000 0 0 1
19.356727 10.295367 19.719785 29.488089 0.488822 0.838287 0.092605 -0.023584 -51715.700000 0 0 1
20.240127 11.098267 18.964985 29.874821 0.501560 0.883027 0.080499 -0.032332 250877.000000 0 0 1
21.187627 12.083667 19.692085 31.348186 0.518308 0.891593 0.070590 -0.025359 -415122.000000 0 0 1
20.538827 13.249667 20.010185 31.588045 0.572925 0.884762 0.064956 -0.026307 423511.000000 0 0 1
21.213827 14.100767 20.988985 33.005993 0.586638 0.881604 0.059727 -0.025121 -11996.400000 0 0 1
22.483427 14.912167 20.607185 33.948981 0.585635 0.918511 0.034044 -0.015449 -747107.000000 0 0 1
23.612027 14.135467 20.774285 34.480577 0.539430 0.924176 0.013476 -0.005276 -460043.000000 0 0 1
24.792827 14.910067 20.535885 35.478401 0.541438 0.953506 0.019084 -0.009128 500891.000000 0 0 1
26.106927 14.101567 20.582585 36.111891 0.495247 0.964331 0.020400 -0.017964 65543.500000 0 0 1
26.406327 13.407767 19.340885 35.371347 0.469827 0.992264 0.039278 -0.032524 182819.000000 0 0 1
27.553827 12.593767 19.409185 35.979617 0.428710 1.001013 0.072601 -0.045460 -43304.800000 0 0 1
27.810927 11.837567 18.123885 35.242742 0.402416 1.030653 0.110146 -0.045907 -264976.000000 0 0 1
28.264327 12.613167 17.023985 35.323933 0.419737 1.067930 0.122633 -0.052976 600189.000000 0 0 1
28.703127 11.876067 15.855685 34.875682 0.392308 1.098835 0.165947 -0.059683 46427.900000 0 0 1
27.507527 11.471567 14.970785 33.352441 0.395104 1.105300 0.147091 -0.062018 9524.190000 0 0 1
27.065227 12.530567 14.147885 33.010669 0.433593 1.127870 0.166705 -0.064567 169256.000000 0 0 1
25.945527 12.168367 13.365685 31.620896 0.438539 1.134390 0.158355 -0.061654 73971.800000 0 0 1
25.470927 13.209167 12.333385 31.230796 0.478415 1.164825 0.142944 -0.063048 -133024.000000 0 0 1
24.883527 14.338267 12.903385 31.484491 0.522747 1.148525 0.119079 -0.057730 151278.000000 0 0 1
24.543827 15.244567 11.867885 31.235284 0.555802 1.181053 0.100855 -0.045964 -342820.000000 0 0 1
23.697027 16.418467 12.326685 31.353824 0.605911 1.166744 0.089949 -0.037573 -757209.000000 0 0 1
22.345927 16.047267 12.458585 30.200523 0.622790 1.145568 0.107821 -0.053292 -115364.000000 0 0 1
21.576627 17.070867 13.054385 30.452952 0.669336 1.127772 0.099572 -0.041454 -426088.000000 0 0 1
20.832227 17.971167 12.060785 30.040091 0.711799 1.157654 0.128282 -0.040341 55198.400000 0 0 1
19.752427 17.447167 11.254485 28.657031 0.723507 1.167198 0.113821 -0.044983 708269.000000 0 0 1
18.534227 17.604667 11.964985 28.224152 0.759682 1.133019 0.097496 -0.037294 -522016.000000 0 0 1
17.247927 17.139167 11.296985 26.811637 0.782235 1.135867 0.090302 -0.025453 -458152.000000 0 0 1
17.047527 15.727567 11.157485 25.738376 0.745147 1.122428 0.083178 -0.027894 227668.000000 0 0 1
15.820127 15.389467 10.538385 24.457507 0.771600 1.125323 0.075240 -0.027544 138888.000000 0 1 0
15.755327 13.977367 9.866585 23.258259 0.725671 1.132698 0.072456 -0.030083 -304781.000000 0 1 0
15.931827 12.861767 10.774885 23.137552 0.679176 1.086384 0.056730 -0.026111 592464.000000 0 1 0
16.396327 11.708967 10.045285 22.513267 0.620141 1.108288 0.065871 -0.019581 -376528.000000 0 1 0
17.171927 10.696067 10.837285 22.950548 0.557074 1.079010 0.078543 -0.030800 -1123610.000000 0 1 0
17.753327 9.624267 10.172685 22.611737 0.496766 1.104160 0.083844 -0.028854 405833.000000 0 1 0
18.332027 8.614067 10.988885 23.043892 0.439272 1.073709 0.097244 -0.027002 1463460.000000 0 1 0
19.527127 9.008167 12.010885 24.631628 0.432224 1.061434 0.095653 -0.039110 530581.000000 0 1 0
19.059027 9.677067 13.150785 25.096519 0.469822 1.019246 0.082304 -0.041898 -251652.000000 0 0 1
20.030627 9.772267 14.134385 26.391363 0.453894 1.005615 0.087128 -0.033436 -915058.000000 0 0 1
19.382027 9.996467 15.532185 26.773888 0.476176 0.951915 0.063442 -0.024006 650287.000000 0 0 1
18.562727 8.964467 16.116285 26.166221 0.449897 0.907244 0.063956 -0.018191 1392150.000000 0 0 1
17.399327 8.500167 15.408185 24.746749 0.454433 0.898691 0.073015 -0.025214 -65230.100000 0 1 0
17.083227 6.987167 15.671385 24.212589 0.388247 0.866837 0.096792 -0.027050 126987.000000 0 1 0
16.044327 6.849767 16.631285 24.102684 0.403502 0.809282 0.114540 -0.029117 185207.000000 0 1 0
15.754127 5.503067 16.826385 23.698175 0.336060 0.781257 0.116167 -0.022115 -209530.000000 0 1 0
14.382027 5.313367 17.546285 23.301216 0.353892 0.718156 0.097559 -0.031910 305505.000000 0 1 0
13.764127 4.065167 17.710385 22.795493 0.287181 0.681030 0.091741 -0.023661 404167.000000 0 1 0
13.431127 3.507867 16.458885 21.531261 0.255468 0.700658 0.094319 -0.022739 -803199.000000 0 1 0
13.186727 1.980467 16.610885 21.301022 0.149072 0.676424 0.096173 -0.020663 -568690.000000 0 1 0
14.385427 1.315567 16.830185 22.179413 0.091198 0.709297 0.109582 -0.023370 -107646.000000 0 1 0
14.203527 -0.110233 16.748985 21.960893 -0.007761 0.703360 0.109703 -0.015342 466421.000000 0 1 0
13.230527 -0.916733 17.727385 22.139273 -0.069179 0.642298 0.083605 -0.016410 -104544.000000 0 1 0
11.892727 -0.605733 17.489185 21.158343 -0.050889 0.597782 0.074325 -0.014636 -830977.000000 0 1 0
11.038227 -1.357933 18.300685 21.414983 -0.122406 0.546067 0.072692 -0.018234 -31282.800000 0 1 0
-26.863483 14.423667 28.347775 41.632743 -0.492749 0.821804 0.072946 -0.018291 -253836.000000 0 0 1
-26.179413 14.145667 29.551445 41.937447 -0.495393 0.788859 0.071190 -0.011219 393531.000000 0 0 1
-25.317043 13.041167 29.386945 40.922088 -0.475666 0.769700 0.066827 -0.005524 193634.000000 0 0 1
-24.117873 12.959067 30.384735 40.900383 -0.493058 0.733410 0.060632 -0.010163 251155.000000 0 0 1
-24.553773 13.030267 31.743066 42.193576 -0.487892 0.719220 0.060617 -0.020104 -104540.000000 0 0 1
-23.461973 12.953667 32.625072 42.221523 -0.504464 0.687694 0.058204 -0.020031 -410185.000000 0 0 1
-23.781973 13.085367 -33.552536 43.157638 -0.503014 2.461384 0.061250 -0.014859 -297598.000000 0 0 1
-24.392973 12.002867 -32.901256 42.679955 -0.457277 2.451023 0.056926 -0.011643 -171771.000000 0 0 1
-24.825573 12.504267 -31.677386 42.144069 -0.466591 2.421349 0.044008 -0.007473 9252.000000 0 0 1
-25.620503 11.400867 -30.931006 41.750654 -0.418680 2.405133 0.043020 -0.012468 441364.000000 0 0 1
-24.759873 10.395467 -30.350816 40.525166 -0.397502 2.417253 0.046146 -0.015686 562575.000000 0 0 1
-24.448173 9.257767 -31.130096 40.650981 -0.361984 2.443064 0.045162 -0.019937 16022.500000 0 0 1
-23.468773 8.314467 -30.392976 39.289269 -0.340481 2.455251 0.042614 -0.010366 51188.500000 0 0 1
-24.124673 7.566567 -29.375736 38.758053 -0.303927 2.430924 0.045451 -0.014658 99932.300000 0 0 1
-23.229573 6.704067 -28.770526 37.580590 -0.280966 2.442721 0.039739 -0.009301 -522782.000000 0 0 1
-23.865673 5.784867 -27.681766 37.004259 -0.237806 2.415945 0.039740 -0.009226 -111713.000000 0 0 1
-24.666873 4.736567 -28.192176 37.758290 -0.189712 2.413806 0.053970 -0.020235 520308.000000 0 0 1
-25.172453 3.894567 -27.112396 37.200834 -0.153498 2.387381 0.092640 -0.016631 -271071.000000 0 0 1
-26.096923 2.733367 -27.563386 38.056024 -0.104359 2.380792 0.097819 -0.017018 396675.000000 0 0 1
-27.486163 2.987467 -27.658976 39.107967 -0.108265 2.356392 0.096009 -0.023037 237446.000000 0 0 1
-27.834583 3.694367 -28.821126 40.237665 -0.131955 2.369242 0.098913 -0.024596 -448600.000000 0 0 1
-29.246243 3.426767 -29.412306 41.619337 -0.116638 2.355617 0.112072 -0.028086 -547401.000000 0 0 1
-30.276393 3.821867 -28.579756 41.809916 -0.125568 2.323431 0.101145 -0.028617 86437.600000 0 0 1
-31.559423 3.841267 -29.208766 43.172961 -0.121120 2.313867 0.105652 -0.027523 697562.000000 0 0 1
-31.954573 5.187867 -29.924666 44.085081 -0.160947 2.316915 0.102005 -0.035953 -570073.000000 0 0 1
-30.999953 5.559667 -30.896826 44.119393 -0.177458 2.346614 0.108719 -0.037843 323305.000000 0 0 1
-31.331543 6.786567 -31.562316 44.987808 -0.213310 2.348401 0.102363 -0.035867 -1187040.000000 0 0 1
-30.963493 8.063967 -30.749736 44.376928 -0.254775 2.336330 0.068010 -0.030572 284122.000000 0 0 1
-29.604293 8.464667 -30.511236 43.347437 -0.278496 2.351636 0.060115 -0.039464 758471.000000 0 0 1
-28.966873 7.667367 -29.535326 42.073789 -0.258760 2.348982 0.040725 -0.031646 -663364.000000 0 0 1
-28.852923 8.195867 -28.085136 41.090610 -0.276767 2.323333 0.036140 -0.015697 -394337.000000 0 0 1
-30.062833 8.405767 -27.415656 41.545746 -0.272644 2.291470 0.040104 -0.016474 -221037.000000 0 0 1
-30.675543 7.341367 -26.753386 41.359742 -0.234905 2.274238 0.047214 -0.015188 230251.000000 0 0 1
-32.116553 7.670867 -26.225286 42.167295 -0.234452 2.242007 0.038453 -0.017288 515089.000000 0 0 1
-32.231473 8.510167 -25.089266 41.722441 -0.258142 2.215970 0.003648 -0.014775 -41175.900000 0 0 1
-31.834603 7.891667 -23.881476 40.571483 -0.242997 2.200156 0.022205 -0.014199 26682.800000 0 0 1
-31.197063 8.883367 -22.878476 39.693773 -0.277408 2.185081 0.026304 -0.007535 172625.000000 0 0 1
-32.172293 9.741167 -22.301376 40.339784 -0.294006 2.156563 0.027327 -0.009993 639220.000000 0 0 1
-31.507443 10.811967 -21.679676 39.744508 -0.330565 2.147753 0.049649 -0.023149 141506.000000 0 0 1
-32.511363 11.809067 -21.035076 40.483543 -0.348411 2.117174 0.050787 -0.022292 -235135.000000 0 0 1
-33.100213 11.319967 -19.883776 40.238418 -0.329522 2.087652 0.056860 -0.023068 -34880.100000 0 0 1
-33.994573 12.193467 -19.243276 40.922064 -0.344394 2.060361 0.051410 -0.025630 -26362.700000 0 0 1
-33.372403 13.240167 -18.205976 40.255147 -0.377693 2.040099 0.067404 -0.035114 -80494.600000 0 0 1
-32.766573 12.741367 -17.032676 39.065366 -0.370860 2.021951 0.103152 -0.036328 178152.000000 0 0 1
-33.673233 12.126067 -16.111376 39.249262 -0.345653 1.993786 0.092725 -0.024611 -130047.000000 0 0 1
-34.219016 13.201467 -15.167676 39.689774 -0.368200 1.962924 0.085189 -0.012195 -822263.000000 0 0 1
-35.109899 14.132467 -15.675376 40.965218 -0.382678 1.963460 0.065767 -0.018826 -180056.000000 0 0 1
-35.680167 14.919167 -14.621176 41.345310 -0.396043 1.932251 0.044433 -0.008335 318176.000000 0 0 1
-36.489973 16.097567 -15.273776 42.707588 -0.415470 1.936532 0.024535 -0.011801 -447050.000000 0 0 1
-37.428613 15.647767 -16.172576 43.672713 -0.395986 1.950142 0.024129 -0.008298 -591742.000000 0 0 1
36.988386 16.723767 -16.562976 43.842414 0.424628 1.958198 0.019691 -0.012497 -573182.000000 0 0 1
36.689566 16.568367 -18.077876 44.129861 0.424169 1.992869 0.029405 -0.017373 690559.000000 0 0 1
35.725026 15.539767 -18.420176 43.093674 0.410296 2.012461 0.045508 -0.015711 598328.000000 0 0 1
34.366766 15.888967 -18.296576 42.051142 0.433064 2.020949 0.078184 -0.016678 -456592.000000 0 0 1
33.480816 14.664867 -18.528976 40.979828 0.412837 2.039969 0.101634 -0.021808 -273539.000000 0 0 1
33.584926 14.214767 -19.860576 41.526490 0.400386 2.069472 0.114051 -0.024835 194039.000000 0 0 1
32.839466 13.031467 -20.102176 40.649073 0.377765 2.088090 0.066778 -0.016814 96287.700000 0 0 1
33.417436 11.693467 -19.542176 40.439570 0.336605 2.075153 0.078539 -0.013361 42306.400000 0 0 1
33.263866 11.577467 -18.136876 39.616522 0.334936 2.046328 0.096858 -0.011370 -138704.000000 0 0 1
34.003706 10.492767 -17.698476 39.744009 0.299307 2.032319 0.079670 -0.015238 -390134.000000 0 0 1
33.917566 10.293967 -16.199576 38.971699 0.294664 1.999482 0.071426 -0.009051 -241176.000000 0 0 1
32.631186 9.975967 -15.702076 37.561542 0.296695 2.002079 0.090518 -0.013782 -14599.000000 0 0 1
32.601596 9.884467 -14.281376 36.939470 0.294381 1.967755 0.073371 -0.008754 -44691.200000 0 0 1
31.975296 11.095067 -13.520376 36.446133 0.333990 1.950848 0.081306 -0.008717 233127.000000 0 0 1
30.555426 11.173067 -13.629276 35.273625 0.350562 1.967508 0.090885 -0.014995 341137.000000 0 0 1
30.081826 12.062967 -12.662876 34.796262 0.381373 1.943264 0.095274 -0.015240 80313.200000 0 0 1
28.541826 12.195767 -12.827576 33.584509 0.403813 1.962701 0.109197 -0.006698 -245850.000000 0 0 1
27.878826 11.164567 -12.144676 32.393976 0.380909 1.955091 0.109123 -0.021630 -594989.000000 0 0 1
26.525426 11.000967 -12.427376 31.289921 0.393142 1.979226 0.103857 -0.008676 -439258.000000 0 0 1
26.086526 10.368967 -13.814976 31.286992 0.378335 2.028129 0.102881 -0.025455 -592891.000000 0 0 1
26.393326 8.989967 -14.066076 31.229500 0.328290 2.038021 0.116862 -0.026404 176508.000000 0 0 1
27.717026 8.796667 -14.518676 32.502413 0.307319 2.033865 0.120104 -0.029824 -259858.000000 0 0 1
28.553626 7.977967 -13.545376 32.595011 0.272455 1.999361 0.127805 -0.031020 -606217.000000 0 0 1
28.239026 6.622967 -13.578076 32.026090 0.230369 2.008620 0.131641 -0.042458 -380557.000000 0 0 1
27.188926 6.363967 -12.733276 30.689967 0.229925 1.998630 0.151053 -0.044714 -964128.000000 0 0 1
26.679926 4.923767 -12.873276 30.029705 0.182496 2.013833 0.168656 -0.048242 106807.000000 0 0 1
25.729126 4.541567 -11.870276 28.696990 0.174715 1.997247 0.188348 -0.043773 867395.000000 0 0 1
25.248826 3.235167 -12.060476 28.167794 0.127437 2.013258 0.184330 -0.047957 -223288.000000 0 0 1
24.671126 2.507367 -10.828176 27.059208 0.101284 1.982494 0.179058 -0.036471 -338702.000000 0 0 1
25.628226 2.233967 -9.853076 27.547771 0.086948 1.936570 0.188968 -0.037527 221008.000000 0 0 1
25.264826 1.038367 -9.182776 26.901915 0.041076 1.919141 0.214981 -0.027651 -5636.970000 0 0 1
26.175026 0.718767 -7.934376 27.360609 0.027453 1.865015 0.241710 -0.022939 155396.000000 0 0 1
26.069026 -0.607333 -7.364176 27.096016 -0.023293 1.846039 0.198259 -0.031932 492771.000000 0 0 1
26.555026 -1.709333 -8.172276 27.836618 -0.064281 1.868766 0.157234 -0.035558 -208886.000000 0 0 1
26.678126 -2.927633 -7.263576 27.803830 -0.109302 1.835107 0.152747 -0.032390 -781997.000000 0 0 1
27.846526 -2.878533 -6.506476 28.741072 -0.103005 1.799158 0.142615 -0.042353 -20674.500000 0 0 1
28.042726 -3.966633 -5.603676 28.870917 -0.140517 1.766130 0.150524 -0.059535 -836590.000000 0 0 1
29.437126 -4.033733 -5.007976 30.131300 -0.136181 1.737776 0.117157 -0.051627 -549084.000000 0 0 1
30.432516 -4.379633 -5.963076 31.318964 -0.142932 1.762364 0.087205 -0.034267 180246.000000 0 0 1
31.616366 -4.814233 -5.330476 32.421990 -0.151110 1.735955 0.103765 -0.041543 -641111.000000 0 0 1
32.731836 -5.112933 -6.320076 33.726229 -0.154954 1.759304 0.120938 -0.042887 -552593.000000 0 0 1
32.514826 -6.257833 -7.067176 33.857338 -0.190136 1.781077 0.135790 -0.043547 51157.100000 0 0 1
33.073956 -6.129133 -8.371276 34.663109 -0.183237 1.814712 0.131394 -0.045828 -499480.000000 0 0 1
32.243876 -6.911833 -9.442476 34.301623 -0.211165 1.849675 0.123881 -0.053338 1827080.000000 0 0 1
30.895806 -6.569133 -9.850676 33.086858 -0.209502 1.873102 0.091403 -0.053127 1033220.000000 0 0 1
29.950526 -6.449233 -8.834976 31.885473 -0.212091 1.851555 0.104840 -0.040244 -1264120.000000 0 0 1
28.780326 -5.568533 -9.277076 30.747030 -0.191122 1.877295 0.097952 -0.044249 -777292.000000 0 0 1
27.864226 -6.031133 -10.209876 30.282523 -0.213159 1.914689 0.079085 -0.037544 166981.000000 0 0 1
26.721526 -5.223933 -10.390776 29.142712 -0.193060 1.935367 0.110924 -0.037135 439157.000000 0 0 1
25.420226 -5.793933 -9.770376 27.842733 -0.224098 1.929342 0.149280 -0.035608 -592821.000000 0 0 1
25.384126 -5.828133 -8.343976 27.348545 -0.225686 1.880837 0.141762 -0.050360 1157630.000000 0 0 1
24.160826 -6.200933 -7.661976 26.094117 -0.251230 1.868817 0.145602 -0.056382 743431.000000 0 0 1
23.211026 -5.009933 -7.367976 24.862386 -0.212582 1.871665 0.179680 -0.040970 -154992.000000 0 1 0
22.611826 -4.383333 -8.493576 24.548913 -0.191476 1.924086 0.182584 -0.041458 447468.000000 0 1 0
22.220226 -3.079633 -8.224076 23.892635 -0.137719 1.922193 0.182613 -0.041326 -259145.000000 0 1 0
22.091226 -2.212733 -9.498776 24.148400 -0.099830 1.975069 0.178663 -0.032121 -585876.000000 0 1 0
23.285626 -2.145333 -10.222176 25.520888 -0.091872 1.982904 0.158551 -0.037374 20829.700000 0 0 1
23.253226 -1.564433 -11.509976 25.993067 -0.067177 2.029526 0.170389 -0.035639 63779.600000 0 0 1
24.654726 -1.557633 -12.183376 27.544807 -0.063094 2.028970 0.152917 -0.030573 226129.000000 0 0 1
25.665826 -0.803233 -11.566276 28.163071 -0.031286 1.994006 0.143640 -0.044161 801473.000000 0 0 1
26.948726 -1.136433 -12.122076 29.571440 -0.042145 1.993168 0.121648 -0.037743 172476.000000 0 0 1
28.014826 -0.167233 -11.611676 30.326382 -0.005969 1.963719 0.111151 -0.022441 -22333.300000 0 0 1
29.324426 -0.624433 -11.988076 31.686367 -0.021291 1.958794 0.089141 -0.026007 436783.000000 0 0 1
30.427726 0.141067 -11.636476 32.577200 0.004636 1.936061 0.096558 -0.026096 -128111.000000 0 0 1
30.682506 1.431367 -12.380176 33.116971 0.046617 1.953933 0.113904 -0.027026 -564910.000000 0 0 1
31.008616 1.247767 -13.748076 33.942610 0.040218 1.987818 0.104354 -0.025758 383854.000000 0 0 1
31.257436 2.456767 -14.440276 34.519336 0.078437 2.002396 0.128234 -0.032566 -40928.600000 0 0 1
31.346436 2.363667 -15.942276 35.246874 0.075262 2.040142 0.111510 -0.027650 203361.000000 0 0 1
30.113026 2.004567 -16.551976 34.420641 0.066470 2.072447 0.106520 -0.020097 306300.000000 0 0 1
30.231006 1.947567 -17.968976 35.222022 0.064334 2.106171 0.088347 -0.019321 442035.000000 0 0 1
29.184026 1.071167 -18.778876 34.720325 0.036687 2.142257 0.061543 -0.014224 331811.000000 0 0 1
29.356326 -0.324133 -18.741176 34.830025 -0.011041 2.138948 0.074508 -0.015337 -64199.700000 0 0 1
28.949926 -0.901633 -19.903876 35.143640 -0.031135 2.172876 0.052397 -0.011312 -298059.000000 0 0 1
28.743926 -2.417333 -19.821776 34.999423 -0.083901 2.172862 0.054515 -0.015473 538682.000000 0 0 1
27.438626 -2.835833 -19.383076 33.713851 -0.102986 2.183314 0.054007 -0.008875 814148.000000 0 0 1
27.244926 -4.256133 -19.391776 33.711150 -0.154965 2.183686 0.056625 -0.006398 -120442.000000 0 0 1
28.017626 -5.042433 -18.285776 33.834643 -0.178067 2.141763 0.041709 -0.003435 -304026.000000 0 0 1
29.368526 -5.237433 -18.593376 35.151880 -0.176480 2.128152 0.045975 -0.003601 -547047.000000 0 0 1
30.130626 -5.229833 -17.414276 35.191800 -0.171860 2.088446 0.049035 -0.009751 871241.000000 0 0 1
31.647046 -4.874533 -17.697076 36.585285 -0.152827 2.075698 0.085948 -0.015362 1104140.000000 0 0 1
32.395186 -5.923833 -18.328776 37.689308 -0.180863 2.078661 0.071413 -0.014182 5097.150000 0 0 1
33.710506 -5.577433 -18.656776 38.930467 -0.163966 2.070577 0.099727 -0.008848 -148373.000000 0 0 1
34.451556 -6.761933 -19.349976 40.088091 -0.193810 2.074516 0.105729 -0.005041 -73302.000000 0 0 1
34.646056 -7.776933 -18.353476 39.970989 -0.220808 2.047857 0.116909 -0.015512 75248.800000 0 0 1
35.179136 -8.931233 -18.895176 40.919020 -0.248626 2.050786 0.106829 -0.007769 -410861.000000 0 0 1
36.191076 -9.654133 -17.974776 41.546225 -0.260684 2.018221 0.118946 -0.016476 -612611.000000 0 0 1
35.657826 -10.271633 -16.860576 40.758631 -0.280468 1.997277 0.100104 -0.018803 20501.800000 0 0 1
36.545606 -11.137533 -16.201976 41.498554 -0.295815 1.971887 0.100457 -0.027187 -225451.000000 0 0 1
-37.487063 -10.613833 -15.342976 41.872906 0.275912 1.945952 0.130379 -0.032927 -241221.000000 0 0 1
-37.011963 -11.468533 -14.292376 41.299935 0.300478 1.924168 0.141027 -0.040584 446812.000000 0 0 1
-36.410183 -12.726333 -14.655676 41.260754 0.336253 1.933921 0.120073 -0.033918 173247.000000 0 0 1
-35.008636 -12.586933 -15.330376 40.237494 0.345146 1.961671 0.145096 -0.042558 -146895.000000 0 0 1
-34.988305 -12.095233 -16.648976 40.591434 0.332833 1.993426 0.171859 -0.030349 81.521600 0 0 1
-33.623773 -12.179133 -17.009076 39.600481 0.347518 2.014754 0.184537 -0.039306 77463.200000 0 0 1
-33.147903 -11.153033 -18.028576 39.347213 0.324564 2.046756 0.205927 -0.038591 39632.200000 0 0 1
-33.364633 -9.742033 -17.742376 39.024324 0.284089 2.042775 0.210476 -0.027141 1521800.000000 0 0 1
-34.707702 -9.299533 -18.098176 40.232448 0.261790 2.037383 0.196592 -0.027629 1064140.000000 0 0 1
-34.960495 -7.951433 -17.515376 39.903006 0.223636 2.025225 0.210173 -0.027985 16907.300000 0 0 1
-36.222433 -7.508233 -17.982576 41.131633 0.204387 2.023275 0.201782 -0.021021 201763.000000 0 0 1
-36.678103 -6.358433 -17.338176 41.064891 0.171652 2.006683 0.183776 -0.021883 83556.300000 0 0 1
25.350327 27.233467 -26.862386 45.889962 0.821195 2.196127 0.034034 0.009179 -53190.000000 0 0 1
25.881327 26.417467 -25.853046 45.123227 0.795649 2.180889 0.046796 -0.010625 52529.800000 0 0 1
27.147827 25.914467 -26.246036 45.797582 0.762159 2.181065 0.062649 -0.017563 -7177.620000 0 0 1
27.754127 25.031267 -25.127686 45.036169 0.733860 2.162703 0.085113 -0.030463 -263149.000000 0 0 1
28.093827 25.753367 -23.959076 45.017067 0.741961 2.132019 0.082139 -0.020143 271095.000000 0 0 1
28.122627 24.847567 -22.884376 43.954276 0.723648 2.118397 0.089517 -0.026306 -30700.700000 0 0 1
28.950627 25.382367 -21.705676 44.198866 0.719818 2.084138 0.082042 -0.013472 -25857.300000 0 0 1
28.270027 26.383567 -20.971176 43.989513 0.750895 2.067729 0.061779 -0.019178 467387.000000 0 0 1
29.080327 26.963667 -19.936676 44.386662 0.747648 2.036620 0.044603 -0.011967 241456.000000 0 0 1
28.243327 27.940767 -19.096276 44.079924 0.780013 2.018858 0.041774 -0.012243 -183694.000000 0 0 1
27.283427 27.332767 -18.263776 42.720382 0.786302 2.012543 0.049863 -0.011317 456787.000000 0 0 1
26.324127 28.330267 -17.875676 42.604031 0.822088 2.003776 0.045564 -0.016378 375518.000000 0 0 1
25.251227 27.965967 -16.840376 41.271274 0.836366 1.991104 0.051493 -0.017594 -234961.000000 0 0 1
24.318527 27.025967 -17.278576 40.253482 0.838080 2.014452 0.060871 -0.014070 -338881.000000 0 0 1
23.045227 27.236067 -16.714276 39.398640 0.868554 2.008913 0.050364 -0.009250 -62489.300000 0 0 1
22.071927 26.155167 -17.254976 38.327496 0.869864 2.037784 0.059252 -0.010764 -513832.000000 0 0 1
21.479927 26.452367 -18.487276 38.767181 0.888767 2.067897 0.058610 -0.013358 -346431.000000 0 0 1
20.900227 25.268567 -19.008676 37.903162 0.879734 2.096135 0.063876 -0.010328 -373194.000000 0 0 1
20.046627 25.645567 -20.230976 38.325641 0.907326 2.126888 0.050567 -0.006414 -687616.000000 0 0 1
18.799627 26.088667 -19.853576 37.791652 0.946375 2.123914 0.036122 -0.004408 -1148340.000000 0 0 1
18.058327 26.609867 -20.948376 38.379977 0.974555 2.148158 0.033070 0.005834 224776.000000 0 0 1
17.065827 27.724667 -20.547476 38.498031 1.019024 2.133799 0.038396 0.000025 216390.000000 0 0 1
16.094427 27.298767 -19.619176 37.271508 1.038084 2.125140 0.053846 0.000191 723265.000000 0 0 1
14.925327 28.149167 -19.585876 37.399833 1.083264 2.121972 0.057375 -0.009061 1352280.000000 0 0 1
14.090427 28.233367 -18.254176 36.453780 1.107893 2.095260 0.068129 -0.011975 229816.000000 0 0 1
13.394227 27.046067 -17.975376 35.128467 1.110966 2.107963 0.071935 -0.013689 -256998.000000 0 0 1
12.955027 26.984467 -16.641776 34.248254 1.123202 2.078207 0.090264 -0.021199 -360294.000000 0 0 1
12.132127 25.749267 -16.261576 32.781887 1.130482 2.089844 0.095969 -0.018702 -242264.000000 0 0 1
12.912327 24.609367 -16.073276 32.104506 1.087591 2.095151 0.081198 -0.018249 -287168.000000 0 0 1
12.145527 23.418167 -15.900476 30.801778 1.092351 2.113227 0.106072 -0.022293 458401.000000 0 0 1
12.985927 22.112767 -16.095876 30.276823 1.039798 2.131313 0.090787 -0.026118 569094.000000 0 0 1
13.571627 22.081167 -17.436576 31.237816 1.019693 2.162997 0.088938 -0.019631 -233239.000000 0 0 1
14.467427 20.995467 -17.574276 30.967261 0.967441 2.174277 0.092904 -0.017117 -366940.000000 0 0 1
13.929127 19.542467 -17.619376 29.771983 0.951557 2.204100 0.104779 -0.021035 -169839.000000 0 0 1
13.513027 19.057867 -16.284876 28.478086 0.954021 2.179542 0.115647 -0.029885 187540.000000 0 0 1
13.124627 17.688867 -16.355576 27.434590 0.932454 2.209514 0.093755 -0.024818 50255.500000 0 0 1
14.332727 16.703767 -16.457376 27.482506 0.861645 2.212837 0.130946 -0.025080 489996.000000 0 0 1
14.983127 16.447667 -15.225376 26.959820 0.831960 2.170918 0.151298 -0.038098 -277577.000000 0 0 1
16.140927 15.683467 -15.336176 27.234150 0.771025 2.168956 0.154852 -0.037303 -1901390.000000 0 0 1
16.693527 15.224267 -14.000076 26.579208 0.739398 2.125546 0.208280 -0.044764 -1323840.000000 0 0 1
17.509227 16.203067 -13.366076 27.345281 0.746673 2.081498 0.135572 -0.032054 2151770.000000 0 0 1
18.783427 16.558067 -14.029776 28.702288 0.722514 2.081514 0.090461 -0.019682 718013.000000 0 0 1
19.617727 15.452167 -14.726276 28.991169 0.667173 2.103608 0.081877 -0.023269 -1623770.000000 0 0 1
20.135527 14.392767 -13.889676 28.381584 0.620586 2.082187 0.115834 -0.025209 478746.000000 0 0 1
21.155627 14.721967 -12.974476 28.855396 0.607962 2.037156 0.102668 -0.014178 -386470.000000 0 0 1
21.841927 13.434967 -12.403176 28.485205 0.551448 2.021307 0.114085 -0.026521 -194767.000000 0 0 1
21.156027 12.784367 -11.333776 27.193234 0.543568 2.000704 0.198276 -0.036918 308550.000000 0 0 1
21.767027 11.617067 -10.764476 26.919020 0.490243 1.982186 0.210864 -0.011185 -179963.000000 0 0 1
21.798627 10.322767 -11.600676 26.764068 0.442266 2.019105 0.168203 -0.012505 -234391.000000 0 0 1
22.720827 10.302167 -12.685876 27.987534 0.425698 2.041225 0.133150 -0.002645 437904.000000 0 0 1
22.486727 9.234867 -13.633376 27.871214 0.389680 2.081918 0.106527 -0.012799 -44511.400000 0 0 1
22.733227 7.815867 -13.101576 27.377704 0.331148 2.069798 0.123091 0.003584 270297.000000 0 0 1
21.607027 7.517267 -12.276276 25.963048 0.334810 2.063303 0.119306 -0.019142 907786.000000 0 0 1
21.955727 6.461967 -11.346676 25.545215 0.286236 2.031055 0.128170 -0.004477 -458778.000000 0 0 1
21.926627 5.037167 -11.864076 25.434353 0.225810 2.056079 0.136137 -0.020429 -633702.000000 0 0 1
20.683027 4.496767 -12.212076 24.436516 0.214082 2.094103 0.092278 -0.029880 7784.190000 0 1 0
20.146827 4.991067 -13.424776 24.719021 0.242845 2.144915 0.060916 -0.037618 -35656.700000 0 1 0
18.986627 4.040167 -13.928476 23.891785 0.209663 2.193190 0.052363 -0.037488 506146.000000 0 1 0
19.458127 2.721567 -14.317876 24.311051 0.138966 2.200549 0.074174 -0.064244 522113.000000 0 1 0
19.530427 1.788467 -13.281876 23.686376 0.091319 2.166074 0.121506 -0.071802 -735924.000000 0 1 0
20.486927 0.610567 -13.601976 24.598795 0.029794 2.156700 0.147925 -0.059893 -290816.000000 0 1 0
21.863327 0.814667 -13.354176 25.632065 0.037245 2.118812 0.179237 -0.041466 127214.000000 0 0 1
22.503827 1.172267 -14.544576 26.820535 0.052045 2.143960 0.135049 -0.030890 -139252.000000 0 0 1
23.218627 0.006167 -15.290076 27.800919 0.000266 2.153142 0.128496 -0.030570 -212380.000000 0 0 1
22.240627 -0.784833 -15.928376 27.367400 -0.035274 2.192007 0.131866 -0.030697 521968.000000 0 0 1
22.857327 -1.922933 -16.551176 28.285977 -0.083930 2.195846 0.110126 -0.026337 118313.000000 0 0 1
21.874227 -2.549333 -17.548776 28.159198 -0.116022 2.243622 0.127720 -0.026155 202888.000000 0 0 1
20.873427 -3.388333 -16.982676 27.121800 -0.160924 2.247419 0.151486 -0.022017 520979.000000 0 0 1
20.436527 -4.332433 -17.934176 27.532822 -0.208902 2.280191 0.138349 -0.010564 -141039.000000 0 0 1
19.536227 -5.440733 -17.377976 26.706924 -0.271612 2.279291 0.139972 -0.011290 -163427.000000 0 0 1
20.275727 -6.464333 -16.729476 27.069689 -0.308633 2.237012 0.146701 -0.017798 755564.000000 0 0 1
19.475227 -7.402333 -15.998076 26.268183 -0.363225 2.225632 0.159766 -0.014010 742665.000000 0 0 1
20.466627 -8.475233 -15.371176 26.962667 -0.392602 2.177413 0.191619 -0.017055 827406.000000 0 0 1
21.136327 -9.279233 -16.341176 28.282194 -0.413684 2.186815 0.163295 -0.024751 163932.000000 0 0 1
21.848127 -10.275433 -15.738376 28.820507 -0.439616 2.148477 0.130376 -0.033408 -815964.000000 0 0 1
22.514127 -11.271133 -16.684876 30.204460 -0.464147 2.156034 0.111128 -0.030301 -312776.000000 0 0 1
23.618427 -10.744333 -17.392776 31.237468 -0.426932 2.161315 0.098573 -0.023664 244127.000000 0 0 1
24.142427 -11.628433 -18.362176 32.484561 -0.448868 2.171543 0.090904 -0.021621 -478875.000000 0 0 1
23.436227 -11.542633 -19.742476 32.745297 -0.457640 2.217940 0.117795 -0.023564 752898.000000 0 0 1
22.034427 -11.824033 -19.761976 31.872550 -0.492510 2.239579 0.137437 -0.036021 654176.000000 0 0 1
21.700427 -13.205133 -19.618076 32.095996 -0.546660 2.228412 0.117489 -0.020367 -355840.000000 0 0 1
20.176027 -13.418033 -19.489476 31.095906 -0.586881 2.248177 0.116535 -0.021074 208707.000000 0 0 1
19.432927 -13.162833 -20.669076 31.274742 -0.595360 2.292797 0.113103 -0.012433 235745.000000 0 0 1
18.045127 -13.392833 -20.516576 30.429007 -0.638481 2.310737 0.112939 -0.008986 402168.000000 0 0 1
17.166127 -12.850333 -21.675776 30.490101 -0.642596 2.361590 0.108410 -0.014623 127989.000000 0 0 1
17.402727 -13.517433 -22.946676 31.813925 -0.660398 2.376442 0.085212 -0.006125 418525.000000 0 0 1
16.570727 -12.890433 -23.903476 31.813966 -0.661122 2.420904 0.098137 -0.020077 -10639.500000 0 0 1
16.675027 -13.537733 -25.288086 33.178517 -0.681929 2.437474 0.087941 -0.025126 -734533.000000 0 0 1
15.775027 -14.623733 -25.409126 33.291571 -0.747543 2.439094 0.086436 -0.019328 124215.000000 0 0 1
15.912827 -15.309833 -26.649276 34.609145 -0.766088 2.449648 0.086373 -0.026338 135286.000000 0 0 1
16.853527 -16.572033 -26.739026 35.688221 -0.776977 2.417709 0.079542 -0.018059 1295040.000000 0 0 1
18.263727 -16.300733 -26.792206 36.291871 -0.728667 2.401258 0.085379 -0.014328 850611.000000 0 0 1
19.043427 -17.474833 -26.819826 37.246811 -0.742471 2.374681 0.101140 -0.015416 1415520.000000 0 0 1
20.608927 -17.265133 -26.955546 38.071172 -0.697339 2.357501 0.111019 -0.008485 1683170.000000 0 0 1
21.217227 -16.678233 -25.744076 37.297341 -0.666189 2.332616 0.119168 -0.004745 194327.000000 0 0 1
22.578127 -16.389133 -25.974016 38.118565 -0.627888 2.320471 0.124102 -0.005471 109894.000000 0 0 1
23.330427 -15.924533 -24.666576 37.501194 -0.598929 2.288630 0.122831 -0.002903 110904.000000 0 0 1
23.104427 -14.580233 -24.203376 36.499331 -0.562944 2.295773 0.133874 -0.009729 -226766.000000 0 0 1
21.774627 -14.203233 -23.954576 35.350925 -0.577979 2.315321 0.137684 -0.012620 -125906.000000 0 0 1
21.729827 -12.840933 -23.230676 34.303633 -0.533728 2.314757 0.131626 -0.017933 67727.500000 0 0 1
22.103827 -11.759033 -24.028676 34.702036 -0.488912 2.335646 0.131425 -0.023784 187573.000000 0 0 1
21.592727 -10.562433 -23.437176 33.572490 -0.454943 2.343546 0.139269 -0.027122 81318.600000 0 0 1
22.066227 -9.209933 -24.070076 33.928009 -0.395396 2.359508 0.131422 -0.024441 -308356.000000 0 0 1
21.582627 -8.116933 -23.426776 32.871085 -0.359723 2.364117 0.142097 -0.027332 -83387.400000 0 0 1
21.307927 -7.043033 -24.328076 33.098147 -0.319231 2.396505 0.109648 -0.018998 -415898.000000 0 0 1
20.497527 -5.945033 -23.628476 31.840177 -0.282291 2.406989 0.123271 -0.028285 -118056.000000 0 0 1
19.178527 -6.388833 -23.363876 30.895045 -0.321562 2.428334 0.145624 -0.029650 -111004.000000 0 0 1
18.386927 -5.506033 -22.611376 29.659228 -0.290956 2.437768 0.142613 -0.021051 -45852.900000 0 0 1
18.743027 -5.334733 -21.072276 28.701938 -0.277292 2.395249 0.145695 -0.018212 -586212.000000 0 0 1
18.553327 -6.479033 -20.280676 28.240213 -0.335972 2.371935 0.157721 -0.026184 207838.000000 0 0 1
19.117227 -7.727633 -20.687076 29.208557 -0.384142 2.357818 0.154716 -0.022661 -298370.000000 0 0 1
18.871027 -8.814433 -19.694076 28.664726 -0.436973 2.328216 0.152945 -0.027072 -250730.000000 0 0 1
17.524127 -9.138333 -19.487076 27.755185 -0.480677 2.349147 0.166735 -0.032527 -447142.000000 0 0 1
17.341827 -10.140633 -18.550476 27.343949 -0.529131 2.316396 0.173377 -0.033258 107427.000000 0 0 1
15.871927 -10.568533 -18.314876 26.439490 -0.587446 2.336035 0.163034 -0.029510 309047.000000 0 0 1
15.061927 -9.533033 -17.787476 25.182030 -0.564276 2.355133 0.156972 -0.019231 -832577.000000 0 0 1
13.703427 -9.761433 -17.803476 24.495576 -0.618957 2.384453 0.126483 -0.030195 -1041980.000000 0 1 0
12.969327 -8.559933 -17.172576 23.159733 -0.583383 2.406076 0.140195 -0.020118 -590845.000000 0 1 0
11.762827 -8.334233 -17.838076 22.935137 -0.616423 2.461894 0.123115 -0.020564 -595299.000000 0 1 0
11.250027 -7.035433 -17.506176 21.966488 -0.558866 2.493024 0.121081 -0.022344 151640.000000 0 1 0
9.759927 -6.911733 -17.889776 21.519115 -0.616191 2.552317 0.100430 -0.016585 829.102000 0 1 0
9.454127 -6.576233 -19.199076 22.388208 -0.607763 2.601290 0.094016 -0.027074 258514.000000 0 1 0
8.081727 -6.183333 -19.205576 21.734812 -0.653096 2.654360 0.078888 -0.038439 566789.000000 0 1 0
7.566227 -5.806333 -20.628076 22.726170 -0.654545 2.708517 0.086322 -0.044950 122518.000000 0 1 0
7.388527 -6.963633 -21.432876 23.716043 -0.755802 2.699198 0.085373 -0.039850 214914.000000 0 1 0
6.735527 -6.632333 -22.674676 24.566157 -0.777679 2.746613 0.098085 -0.041349 177036.000000 0 1 0
6.935427 -7.664233 -23.831276 25.976342 -0.835276 2.732350 0.097097 -0.041726 -277722.000000 0 0 1
6.326527 -8.918533 -23.573076 25.985671 -0.953810 2.707273 0.099959 -0.029571 178848.000000 0 0 1
6.155027 -9.720633 -24.753276 27.296515 -1.006328 2.706496 0.084368 -0.013284 -184287.000000 0 0 1
5.469627 -11.060433 -24.520876 27.450380 -1.111541 2.675386 0.088007 -0.014664 51739.900000 0 0 1
6.304927 -11.956833 -23.801976 27.372468 -1.085542 2.625105 0.066285 -0.014536 166710.000000 0 0 1
5.669227 -13.194333 -23.589576 27.616999 -1.164976 2.594746 0.081166 -0.017382 -356194.000000 0 0 1
6.426227 -14.173533 -22.630376 27.464875 -1.145122 2.539188 0.081387 -0.011936 -267747.000000 0 0 1
7.597527 -14.764833 -23.135376 28.477506 -1.095561 2.519068 0.053638 -0.002740 286579.000000 0 0 1
8.807927 -14.010133 -23.101576 28.417358 -1.009553 2.519977 0.087184 -0.015504 488723.000000 0 0 1
9.399927 -13.637733 -21.679576 27.282786 -0.967316 2.489186 0.071057 -0.012771 -589957.000000 0 0 1
9.917527 -14.666533 -20.839276 27.344834 -0.976222 2.437334 0.071908 -0.010582 185547.000000 0 0 1
8.925927 -15.339833 -20.112076 26.823092 -1.043808 2.418563 0.077474 -0.008987 -80030.300000 0 0 1
9.470127 -15.860133 -18.733076 26.308844 -1.032510 2.363203 0.080460 -0.001649 339209.000000 0 0 1
10.346827 -16.975433 -18.793776 27.357415 -1.023408 2.328110 0.078507 0.001115 -284756.000000 0 0 1
10.776827 -17.463633 -17.550976 27.002874 -1.017897 2.278337 0.070064 0.007189 -1035880.000000 0 0 1
9.775627 -18.257333 -16.708176 26.609326 -1.079204 2.249657 0.071599 -0.014137 -972579.000000 0 0 1
9.520827 -19.539433 -17.176576 27.703255 -1.117391 2.239565 0.077186 -0.017274 600443.000000 0 0 1
8.584727 -19.578333 -18.284876 28.130861 -1.157563 2.278372 0.099336 -0.007721 1395000.000000 0 0 1
7.049627 -19.315433 -17.970476 27.307896 -1.220845 2.289047 0.103587 -0.015883 719510.000000 0 0 1
6.829127 -17.962433 -17.638076 26.084242 -1.207484 2.313384 0.104296 -0.021098 312057.000000 0 0 1
5.403827 -17.867333 -17.577976 25.640362 -1.277101 2.326167 0.091249 -0.023410 701806.000000 0 0 1
4.833027 -16.436133 -17.470176 24.468585 -1.284808 2.365968 0.062287 -0.012067 5034.230000 0 1 0
5.048927 -15.964833 -16.119376 23.242242 -1.264496 2.337185 0.040900 -0.016760 230975.000000 0 1 0
4.719527 -14.611033 -16.051576 22.212819 -1.258364 2.378391 0.025346 -0.003118 -345983.000000 0 1 0
10.558327 29.315567 -17.848976 35.909145 1.225098 2.091003 0.096958 -0.043390 -952561.000000 0 0 1
9.584727 29.213067 -18.821376 36.048779 1.253766 2.120118 0.123143 -0.037824 -348277.000000 0 0 1
8.659927 28.224867 -18.405976 34.791053 1.273095 2.128269 0.098412 -0.041070 -76021.900000 0 0 1
7.644227 27.673767 -19.389876 34.644464 1.301290 2.164798 0.108951 -0.034479 -29667.300000 0 0 1
6.810827 28.658667 -19.935276 35.568550 1.337471 2.165755 0.127569 -0.050012 -388286.000000 0 0 1
6.061527 28.176867 -21.022476 35.673834 1.358901 2.200984 0.112845 -0.042751 47461.200000 0 0 1
5.093427 29.257367 -21.594076 36.718396 1.398433 2.199504 0.106140 -0.046872 656317.000000 0 0 1
3.942927 29.417267 -20.742176 36.209945 1.437556 2.180752 0.098529 -0.046062 776880.000000 0 0 1
2.978227 30.324267 -21.300276 37.177046 1.472898 2.180887 0.094430 -0.054005 -204891.000000 0 0 1
1.561527 30.169967 -20.663176 36.600985 1.519085 2.170687 0.104067 -0.044912 557414.000000 0 0 1
0.938427 28.858867 -20.840876 35.609787 1.538290 2.195993 0.114703 -0.061941 325550.000000 0 0 1
0.561927 28.714067 -22.208676 36.304803 1.551229 2.229040 0.144717 -0.077992 -755630.000000 0 0 1
-0.209773 27.396767 -22.571076 35.497610 -1.563140 2.259903 0.152010 -0.072560 677658.000000 0 0 1
-1.547173 27.305767 -22.092476 35.157875 -1.514196 2.250264 0.160952 -0.068755 527821.000000 0 0 1
-1.976473 25.928567 -22.024776 34.077673 -1.494716 2.273536 0.165525 -0.080497 -98136.400000 0 0 1
-2.923573 25.605767 -20.836076 33.141283 -1.457112 2.250683 0.125263 -0.073840 -147851.000000 0 0 1
-4.166673 26.223867 -21.090476 33.909594 -1.413225 2.242042 0.112208 -0.068846 -534523.000000 0 0 1
-5.071973 26.013967 -20.048376 33.232345 -1.378241 2.218403 0.103807 -0.064662 232515.000000 0 0 1
-6.487273 26.484167 -20.502176 34.115026 -1.330577 2.215513 0.098141 -0.070737 729647.000000 0 0 1
-7.688173 26.152167 -19.821576 33.703690 -1.284873 2.199520 0.116661 -0.064327 225567.000000 0 0 1
-7.984173 27.040167 -18.750176 33.859810 -1.283684 2.157668 0.104432 -0.074559 652315.000000 0 0 1
-9.322973 26.675467 -18.002476 33.505037 -1.234570 2.138037 0.140876 -0.061017 1041890.000000 0 0 1
-9.177773 25.576067 -17.111376 32.111772 -1.226266 2.132784 0.124879 -0.068936 -562482.000000 0 0 1
-10.485873 25.163467 -16.844976 32.045387 -1.175968 2.124287 0.111789 -0.067165 -105327.000000 0 0 1
-10.580873 24.399767 -15.478776 30.771675 -1.161625 2.097886 0.091263 -0.048197 111967.000000 0 0 1
-10.106373 23.075767 -15.482676 29.569292 -1.157996 2.121875 0.104016 -0.046139 -254012.000000 0 0 1
-10.284773 22.638067 -14.222876 28.645224 -1.144361 2.090379 0.107181 -0.029939 -77924.700000 0 0 1
-9.853573 21.130567 -13.994776 27.192784 -1.134455 2.111396 0.127974 -0.009934 302067.000000 0 0 1
-10.639473 20.046467 -14.547676 26.957264 -1.082860 2.140826 0.095012 -0.006119 -180169.000000 0 0 1
-10.858873 19.993367 -15.932576 27.775832 -1.073248 2.181706 0.120975 -0.008313 1112250.000000 0 0 1
-9.590473 19.739767 -16.884976 27.690034 -1.118536 2.226586 0.112001 -0.020732 1108400.000000 0 0 1
-8.952273 18.500767 -16.857876 26.582128 -1.120122 2.257745 0.106337 -0.013958 -157061.000000 0 0 1
-7.977073 18.438067 -17.892076 26.902089 -1.162471 2.298399 0.121461 -0.025483 216172.000000 0 0 1
-7.349073 16.983267 -17.965276 25.791304 -1.162401 2.341393 0.104444 -0.024549 262730.000000 0 0 1
-8.190073 15.851067 -18.251676 25.523662 -1.093887 2.367547 0.095598 -0.033695 -39424.300000 0 0 1
-7.937173 15.346167 -19.564576 26.101268 -1.093477 2.418200 0.096963 -0.038707 653650.000000 0 0 1
-6.637473 14.446767 -19.573876 25.217092 -1.140117 2.459436 0.067435 -0.028869 408873.000000 0 0 1
-6.747473 13.280967 -18.789776 23.978494 -1.100725 2.471251 0.034123 -0.025058 371035.000000 0 1 0
-5.436173 12.793867 -18.542176 23.174281 -1.169006 2.498289 0.033515 -0.012988 535011.000000 0 1 0
-4.684573 13.458667 -17.378376 22.474183 -1.235841 2.454762 0.041157 -0.002871 -517599.000000 0 1 0
-3.984373 14.633467 -17.608276 23.239298 -1.304962 2.430569 0.056079 -0.021092 -396819.000000 0 1 0
-3.634373 15.176467 -16.343976 22.597774 -1.335749 2.379302 0.064952 -0.011108 88183.400000 0 1 0
-2.655273 16.361467 -16.412476 23.326325 -1.409911 2.351252 0.095164 -0.017144 -1320.190000 0 1 0
-3.251173 17.592467 -16.805776 24.545858 -1.388053 2.324945 0.097068 -0.023491 -102462.000000 0 1 0
-2.353373 18.671267 -16.832376 25.248435 -1.445415 2.300529 0.113567 -0.022152 2844.530000 0 0 1
-3.046473 19.962667 -17.389176 26.649062 -1.419356 2.281708 0.118422 -0.024493 478165.000000 0 0 1
-3.418573 19.797867 -18.785976 27.505546 -1.399809 2.322643 0.123183 -0.033825 -108516.000000 0 0 1
-3.932473 20.965467 -19.357976 28.805319 -1.385382 2.307740 0.144165 -0.045235 43012.000000 0 0 1
-2.900973 22.117767 -19.540976 29.655708 -1.440380 2.290189 0.126804 -0.053500 692830.000000 0 0 1
-1.846373 21.862267 -20.516376 30.038134 -1.486541 2.322673 0.146489 -0.052611 968034.000000 0 0 1
-0.703473 22.693067 -20.390776 30.516453 -1.539807 2.302569 0.137984 -0.056801 540023.000000 0 0 1
0.337727 22.237767 -19.328376 29.465547 1.555610 2.286257 0.135727 -0.049865 -126068.000000 0 0 1
-0.127273 22.354467 -17.991076 28.695247 -1.565103 2.248455 0.133416 -0.038092 -597336.000000 0 0 1
0.792227 21.691967 -17.196176 27.692554 1.534291 2.240773 0.122350 -0.035050 -301905.000000 0 0 1
0.554227 21.625067 -15.668576 26.710578 1.545173 2.197658 0.122878 -0.033104 -431324.000000 0 0 1
-0.421973 20.747867 -15.194276 25.719994 -1.550461 2.202794 0.119331 -0.024652 -399074.000000 0 0 1
-0.243973 20.615467 -13.804976 24.811980 -1.558962 2.160823 0.114855 -0.022917 -7877.060000 0 1 0
-1.197273 19.619967 -13.145276 23.646878 -1.509849 2.160240 0.103116 -0.014829 11630.800000 0 1 0
-0.914873 18.267967 -13.538776 22.756407 -1.520757 2.207992 0.081698 -0.016401 40215.000000 0 1 0
-1.719573 17.405567 -12.786276 21.665631 -1.472321 2.202058 0.069368 -0.017116 -69352.500000 0 1 0
-1.190573 15.958067 -12.946276 20.583572 -1.496328 2.251013 0.048996 -0.018328 -1381750.000000 0 1 0
-0.111573 15.673067 -12.138276 19.824107 -1.563678 2.229761 0.042606 -0.016456 -571790.000000 0 1 0
0.176127 14.281667 -12.116176 18.729622 1.558465 2.274307 0.036734 -0.013574 -112906.000000 0 1 0
0.751427 13.728767 -13.419676 19.212792 1.516117 2.344062 0.023051 -0.014283 -483472.000000 0 1 0
-0.150873 13.490767 -14.529976 19.827853 -1.559613 2.393233 0.033012 -0.018879 336973.000000 0 1 0
0.497127 12.672267 -15.458276 19.994794 1.531587 2.454534 0.027452 -0.018926 -450543.000000 0 1 0
-0.252173 12.611567 -16.772876 20.986772 -1.550804 2.496779 0.030250 -0.013401 -104671.000000 0 1 0
-0.184573 13.789767 -17.489476 22.272708 -1.557412 2.473884 0.041151 -0.020701 6786.480000 0 1 0
-0.519073 13.650667 -18.850476 23.279832 -1.532789 2.514495 0.045801 -0.022274 -297033.000000 0 1 0
-0.879773 15.048267 -19.410676 24.576385 -1.512399 2.481296 0.062711 -0.025395 -630735.000000 0 1 0
0.097427 16.024767 -19.502176 25.241583 1.564717 2.453756 0.067481 -0.031005 -605368.000000 0 0 1
-0.492673 17.300767 -19.643476 26.180630 -1.542327 2.419321 0.114939 -0.044504 300202.000000 0 0 1
0.531727 18.439267 -19.977776 27.191926 1.541968 2.396014 0.137803 -0.050867 172969.000000 0 0 1
0.933927 18.312267 -21.301476 28.106302 1.519840 2.430869 0.137335 -0.063213 -390489.000000 0 0 1
1.820427 19.349667 -21.605076 29.060332 1.476992 2.409019 0.132196 -0.058920 -7902.890000 0 0 1
2.497127 19.233667 -23.007976 30.092134 1.441687 2.441193 0.138910 -0.065536 359119.000000 0 0 1
3.457827 18.181667 -23.089676 29.591599 1.382859 2.465907 0.122364 -0.056546 60176.700000 0 0 1
3.864027 18.088367 -24.459776 30.665948 1.360340 2.494135 0.113634 -0.063005 746740.000000 0 0 1
4.850727 16.875667 -24.802676 30.388985 1.290903 2.525553 0.095195 -0.048651 299844.000000 0 0 1
6.124527 17.039067 -24.196076 30.220684 1.225736 2.499169 0.080792 -0.041220 214034.000000 0 0 1
7.082927 16.062967 -24.590776 30.214120 1.155496 2.521601 0.093934 -0.040240 279018.000000 0 0 1
7.519327 15.950367 -26.067356 31.471599 1.130273 2.546831 0.087004 -0.040693 -972411.000000 0 0 1
8.674727 16.760667 -26.279316 32.353876 1.093196 2.518789 0.063340 -0.034127 927349.000000 0 0 1
9.369327 16.700167 -27.562006 33.561049 1.059523 2.534394 0.077722 -0.038929 692952.000000 0 0 1
10.012727 15.323167 -27.908976 33.376115 0.992009 2.561106 0.072822 -0.042725 -577012.000000 0 0 1
11.060627 14.874267 -27.081356 32.817391 0.931399 2.541377 0.086651 -0.038981 -43965.000000 0 0 1
11.464327 13.532067 -27.260546 32.522069 0.867932 2.564801 0.079914 -0.033579 -444565.000000 0 0 1
10.660927 12.460367 -26.524696 31.184541 0.863068 2.587868 0.084584 -0.029187 771182.000000 0 0 1
9.264527 12.630467 -26.847956 31.083322 0.937935 2.613444 0.111128 -0.036617 424050.000000 0 0 1
8.453527 11.719467 -26.204236 29.924405 0.945902 2.637641 0.118284 -0.041336 402142.000000 0 0 1
6.907627 11.877167 -26.351346 29.718274 1.044025 2.660965 0.107530 -0.046776 243491.000000 0 0 1
6.407227 12.875767 -25.492936 29.269911 1.109055 2.627950 0.121961 -0.036031 196121.000000 0 0 1
4.981027 12.822267 -25.470216 28.947419 1.200272 2.646403 0.134046 -0.049263 642295.000000 0 0 1
4.213027 13.693067 -26.491996 30.117695 1.272312 2.645850 0.138246 -0.039273 -822347.000000 0 0 1
4.278727 13.236167 -27.808196 31.093398 1.258139 2.677759 0.135667 -0.051655 265487.000000 0 0 1
4.237827 14.283767 -28.714966 32.350185 1.282381 2.662968 0.133939 -0.063502 -88426.300000 0 0 1
4.121627 13.803767 -30.161506 33.425263 1.280636 2.696003 0.154387 -0.054848 308833.000000 0 0 1
5.332927 13.203467 -30.614516 33.764186 1.186929 2.706226 0.146989 -0.050017 444900.000000 0 0 1
5.218227 12.763267 -31.971396 34.818114 1.182686 2.734410 0.148257 -0.045177 129206.000000 0 0 1
6.426827 11.818967 -32.331516 35.018838 1.072747 2.747280 0.141502 -0.033244 1105310.000000 0 0 1
7.725227 12.428367 -32.327406 35.485273 1.014660 2.716521 0.143408 -0.029868 906428.000000 0 0 1
8.376327 12.594367 -31.053456 34.541252 0.983889 2.688335 0.136130 -0.034223 -331706.000000 0 0 1
8.450727 11.533867 -29.988826 33.223103 0.938467 2.696683 0.150745 -0.038530 -532514.000000 0 0 1
9.539927 10.665967 -30.170626 33.392211 0.841069 2.698717 0.120366 -0.034924 -130691.000000 0 0 1
9.418027 9.495467 -29.367716 32.269581 0.789493 2.714260 0.126634 -0.034195 -5407.560000 0 0 1
10.429127 8.349567 -29.632716 32.505074 0.675107 2.718038 0.109610 -0.032693 -53402.100000 0 0 1
11.764727 8.677867 -29.340206 32.780510 0.635529 2.679340 0.099203 -0.037612 -411486.000000 0 0 1
12.528927 7.535567 -29.339876 32.780895 0.541488 2.679294 0.072535 -0.027299 -969049.000000 0 0 1
13.868927 7.565867 -28.619446 32.690399 0.499402 2.637203 0.066963 -0.021118 -423210.000000 0 0 1
14.553527 6.353467 -28.544186 32.664082 0.411620 2.633904 0.081891 -0.025017 79546.600000 0 0 1
15.535727 6.144167 -29.534006 33.931801 0.376609 2.626797 0.075612 -0.020530 -818796.000000 0 0 1
16.383027 4.901267 -29.313606 33.936904 0.290693 2.613496 0.095160 -0.027028 -357466.000000 0 0 1
17.333127 5.076767 -28.303746 33.575480 0.284925 2.573611 0.071918 -0.021530 90735.000000 0 0 1
18.154027 3.957867 -28.032556 33.631200 0.214657 2.556260 0.067229 -0.021584 134171.000000 0 0 1
18.846327 3.996867 -26.653676 32.887344 0.208980 2.515723 0.086121 -0.014395 -506354.000000 0 0 1
19.854127 4.931567 -26.537976 33.507773 0.243463 2.484865 0.123782 -0.021006 -248066.000000 0 0 1
19.998427 5.275667 -25.153806 32.565069 0.257928 2.453434 0.137211 -0.027167 473444.000000 0 0 1
21.104527 6.383267 -24.962076 33.305441 0.293712 2.418087 0.137146 -0.023996 256077.000000 0 0 1
20.618027 7.680667 -25.255046 33.494970 0.356596 2.424919 0.141163 -0.023201 597541.000000 0 0 1
21.558127 8.576467 -25.896196 34.769550 0.378634 2.411024 0.140064 -0.039477 -159743.000000 0 0 1
21.782427 8.214267 -27.420676 35.970012 0.360615 2.437687 0.189560 -0.042161 -348042.000000 0 0 1
20.808227 8.555767 -28.366186 36.205303 0.390100 2.471045 0.153056 -0.027099 626810.000000 0 0 1
19.680027 7.648567 -28.444046 35.424113 0.370680 2.503037 0.136946 -0.019119 482536.000000 0 0 1
18.384727 8.249867 -28.986836 35.302906 0.421801 2.534113 0.122067 -0.015568 -557097.000000 0 0 1
18.566827 8.585667 -30.326616 36.580656 0.433134 2.548175 0.094544 -0.011837 739398.000000 0 0 1
17.453027 9.341067 -30.840416 36.646895 0.491419 2.570954 0.069142 -0.010251 180050.000000 0 0 1
17.079127 8.945667 -32.257236 37.579926 0.482488 2.602868 0.043474 -0.004786 -12137.100000 0 0 1
16.383927 7.726467 -32.516926 37.222061 0.440661 2.633333 0.073416 -0.003624 767192.000000 0 0 1
15.006227 7.996267 -32.801306 36.946621 0.489591 2.663345 0.064582 -0.009926 445164.000000 0 0 1
14.235127 6.799867 -33.375576 36.916204 0.445635 2.700042 0.083614 -0.020285 -65960.800000 0 0 1
13.917827 5.887267 -32.334006 35.691088 0.400177 2.704392 0.092114 -0.017822 87401.900000 0 0 1
13.044727 4.857367 -32.746396 35.582093 0.356456 2.739657 0.100847 -0.027769 159859.000000 0 0 1
12.813927 3.890267 -31.590906 34.312042 0.294753 2.740652 0.115092 -0.027781 387063.000000 0 0 1
13.904927 2.971867 -31.557246 34.612696 0.210560 2.718259 0.123677 -0.036860 481235.000000 0 0 1
13.843027 2.112267 -30.446866 33.512725 0.151419 2.710516 0.144662 -0.036067 212817.000000 0 0 1
13.067727 0.742367 -30.535846 33.222801 0.056748 2.736645 0.135455 -0.028897 997.220000 0 0 1
13.787427 -0.276933 -31.106946 34.026635 -0.020083 2.724311 0.134181 -0.034468 -166977.000000 0 0 1
14.626127 -0.982133 -30.186836 33.557909 -0.067049 2.689522 0.125841 -0.038750 197025.000000 0 0 1
15.293427 -2.240833 -30.767176 34.431517 -0.145487 2.676045 0.129964 -0.036267 -231006.000000 0 0 1
14.486727 -3.392133 -30.867496 34.266224 -0.230011 2.692437 0.143672 -0.034008 -231683.000000 0 0 1
14.980427 -4.413433 -31.704886 35.342487 -0.286508 2.683903 0.111366 -0.023963 -459641.000000 0 0 1
14.228127 -5.742833 -31.618966 35.145110 -0.383628 2.689807 0.147005 -0.034368 -203166.000000 0 0 1
14.389827 -6.423133 -30.341786 34.189878 -0.419828 2.662578 0.126939 -0.023300 -162034.000000 0 0 1
13.911927 -7.721333 -30.273386 34.199979 -0.506686 2.657693 0.129731 -0.033614 -224323.000000 0 0 1
14.170927 -8.445733 -28.891516 33.269585 -0.537466 2.622775 0.098904 -0.028625 -1529250.000000 0 0 1
15.495827 -8.642233 -28.634806 33.686213 -0.508746 2.586868 0.132442 -0.028585 -1231040.000000 0 0 1
15.762727 -9.545433 -27.528066 33.126625 -0.544505 2.551691 0.130915 -0.039093 23550.800000 0 0 1
15.527627 -11.071133 -27.859686 33.761506 -0.619395 2.541336 0.100107 -0.025133 1398940.000000 0 0 1
14.142627 -11.487833 -28.109826 33.498455 -0.682187 2.566493 0.080317 -0.030309 1481970.000000 0 0 1
14.040227 -12.756233 -28.699726 34.402380 -0.737518 2.557543 0.079538 -0.028233 166157.000000 0 0 1
-10.511273 -2.969933 -17.595176 20.709843 0.275369 2.586031 0.053650 -0.015020 -69369.500000 0 1 0
-11.458173 -2.432633 -18.450776 21.854944 0.209199 2.575938 0.076177 -0.027292 -540710.000000 0 1 0
-12.002273 -3.345233 -19.329576 22.997340 0.271818 2.569027 0.063122 -0.017200 -456796.000000 0 1 0
-13.138373 -2.724133 -20.140576 24.200838 0.204445 2.553908 0.073587 -0.040868 -124533.000000 0 1 0
-14.198873 -2.064033 -19.473276 24.188359 0.144355 2.506587 0.064161 -0.037433 418548.000000 0 1 0
-15.180573 -1.630833 -20.424176 25.500125 0.107019 2.499667 0.068970 -0.030831 667836.000000 0 0 1
-15.854973 -0.245933 -20.142976 25.635525 0.015510 2.474695 0.073791 -0.027375 366179.000000 0 0 1
-15.099773 0.869967 -20.632276 25.582236 -0.057551 2.509018 0.069155 -0.028958 319084.000000 0 0 1
-15.783073 2.061367 -20.251376 25.757967 -0.129871 2.475461 0.068044 -0.019976 -83840.600000 0 0 1
-15.299473 3.330167 -21.029376 26.218286 -0.214322 2.501580 0.090741 -0.033877 -555469.000000 0 0 1
-13.989373 3.687967 -20.743076 25.289896 -0.257762 2.532578 0.095114 -0.035883 -574490.000000 0 0 1
-13.707573 4.855767 -21.485976 25.944618 -0.340447 2.546591 0.113575 -0.040748 355765.000000 0 0 1
-12.365573 5.463567 -20.960976 24.942343 -0.416045 2.568775 0.091119 -0.033344 212399.000000 0 1 0
-12.392373 5.782567 -19.610376 23.907652 -0.436591 2.532653 0.096630 -0.038955 81359.400000 0 1 0
-11.142373 6.288567 -19.201476 23.073691 -0.513819 2.553825 0.067743 -0.024309 -202266.000000 0 1 0
-11.056273 6.968067 -17.808876 22.089617 -0.562356 2.508515 0.061289 -0.024547 -283346.000000 0 1 0
-11.692073 8.206967 -17.645676 22.703056 -0.612017 2.461060 0.066985 -0.032944 51001.400000 0 1 0
-12.858373 8.090467 -16.837176 22.677829 -0.561613 2.407518 0.102128 -0.031742 -406653.000000 0 1 0
-13.547673 9.425167 -16.936476 23.647779 -0.607837 2.369135 0.119999 -0.035697 -567358.000000 0 1 0
-12.996973 10.453067 -16.057076 23.152054 -0.677339 2.337200 0.081296 -0.030305 432527.000000 0 1 0
-13.504373 11.722767 -16.365776 24.241080 -0.714893 2.311931 0.095902 -0.031136 -482327.000000 0 1 0
-12.974073 12.834967 -15.503476 23.946205 -0.780008 2.275003 0.096548 -0.025206 -674508.000000 0 1 0
-13.373773 12.907167 -14.182176 23.379198 -0.767645 2.222592 0.104322 -0.021405 -102070.000000 0 1 0
-12.675273 13.909367 -13.510176 23.165878 -0.831786 2.193450 0.092461 -0.025372 -1038840.000000 0 1 0
-13.217173 14.282367 -12.099376 22.914506 -0.824114 2.127067 0.080067 -0.026216 399334.000000 0 1 0
-14.525273 14.806967 -11.965076 23.945623 -0.795001 2.094022 0.082346 -0.022730 -195716.000000 0 1 0
-15.575373 13.984667 -12.326476 24.292080 -0.731637 2.102993 0.094881 -0.020187 -1204330.000000 0 1 0
-16.903073 14.404367 -11.645176 25.076080 -0.705755 2.053746 0.070433 -0.014350 -410741.000000 0 0 1
-17.979073 13.647167 -12.071176 25.596983 -0.649273 2.061885 0.073285 -0.016221 617307.000000 0 0 1
-19.234473 14.234067 -11.583676 26.584867 -0.637089 2.021639 0.140438 -0.026853 648034.000000 0 0 1
-20.414373 13.666467 -12.324676 27.484843 -0.589929 2.035790 0.121556 -0.042074 -815164.000000 0 0 1
-20.789573 12.314567 -12.070876 27.010386 -0.534771 2.034091 0.128261 -0.044082 -141701.000000 0 0 1
-22.068873 11.978167 -12.492376 28.045875 -0.497270 2.032447 0.164970 -0.055438 -685184.000000 0 0 1
-22.708173 10.695667 -11.948876 27.799893 -0.440184 2.015087 0.156300 -0.045484 -231796.000000 0 0 1
-22.002273 9.521167 -12.285576 26.938597 -0.408404 2.044358 0.155800 -0.034868 -50853.800000 0 0 1
-22.506473 8.420067 -11.652176 26.706030 -0.357997 2.022293 0.154586 -0.030992 409098.000000 0 0 1
-21.511673 7.175267 -11.393476 25.378097 -0.321948 2.036385 0.173718 -0.035458 563298.000000 0 0 1
-21.493173 6.224967 -12.433476 25.598790 -0.281912 2.077967 0.184922 -0.030792 -4893.570000 0 0 1
-20.301573 5.497667 -12.369076 24.400251 -0.264457 2.102409 0.181171 -0.036959 -314955.000000 0 1 0
-20.196573 4.326167 -13.394276 24.617553 -0.211014 2.146106 0.182363 -0.047173 -101973.000000 0 1 0
-20.817373 3.111367 -12.983276 24.730732 -0.148362 2.123494 0.153970 -0.046734 429168.000000 0 1 0
-20.520073 2.097967 -13.921376 24.885328 -0.101886 2.164483 0.148029 -0.047718 -586958.000000 0 1 0
-21.252473 0.780867 -13.678876 25.286143 -0.036726 2.142378 0.121547 -0.045709 -873186.000000 0 0 1
-22.569873 0.800767 -14.121976 26.635889 -0.035465 2.129616 0.120469 -0.042940 -393831.000000 0 0 1
-23.086073 -0.520633 -14.087576 27.049910 0.022548 2.118583 0.100664 -0.050906 227103.000000 0 0 1
-24.488773 -0.701633 -14.731676 28.586965 0.028643 2.112187 0.105906 -0.039043 -178797.000000 0 0 1
-25.578453 -0.149733 -14.105976 29.210584 0.005854 2.074767 0.147154 -0.054329 -774778.000000 0 0 1
-26.800003 -0.513933 -14.675476 30.559350 0.019174 2.071712 0.171011 -0.039612 49425.400000 0 0 1
-28.057073 -0.038033 -13.892076 31.307995 0.001356 2.030545 0.172800 -0.041941 92671.300000 0 0 1
-28.337103 -0.748133 -12.749876 31.082317 0.026395 1.993466 0.197818 -0.046777 -1283850.000000 0 0 1
-29.467033 -0.292633 -12.169076 31.882253 0.009931 1.962418 0.232189 -0.055532 -1223000.000000 0 0 1
-29.824703 -1.010633 -10.834176 31.747656 0.033873 1.919052 0.239971 -0.060792 -248208.000000 0 0 1
-30.285973 -2.352433 -10.829276 32.249765 0.077518 1.913244 0.250982 -0.055772 480202.000000 0 0 1
-29.394063 -3.308333 -11.408976 31.703639 0.112079 1.938918 0.241686 -0.054088 -63013.000000 0 0 1
-29.535133 -4.739733 -10.875076 31.828547 0.159121 1.919497 0.240377 -0.057318 -830820.000000 0 0 1
-30.625913 -5.353533 -11.452876 33.132691 0.173056 1.923746 0.239737 -0.050455 -516082.000000 0 0 1
-30.938923 -6.663833 -10.974376 33.497172 0.212146 1.904581 0.236536 -0.053632 -288963.000000 0 0 1
-30.135873 -7.829533 -11.507176 33.194691 0.254188 1.924801 0.222849 -0.054745 -17747.100000 0 0 1
-28.793613 -7.928133 -11.055576 31.845772 0.268685 1.925337 0.158494 -0.052046 223338.000000 0 0 1
-28.158973 -9.007133 -11.702876 31.796439 0.309583 1.947714 0.151375 -0.046916 124471.000000 0 0 1
-26.696983 -9.223933 -11.225876 30.394574 0.332664 1.949093 0.145303 -0.057429 192735.000000 0 0 1
-25.794893 -8.199833 -11.675976 29.477825 0.307784 1.978055 0.118632 -0.055005 1354970.000000 0 0 1
-24.456773 -8.336733 -11.150976 28.142124 0.328524 1.978212 0.116656 -0.048033 752425.000000 0 0 1
-24.181973 -7.809933 -9.728576 27.210440 0.312390 1.936419 0.123377 -0.048641 -602270.000000 0 0 1
-24.473873 -6.426033 -9.445576 27.008948 0.256771 1.928069 0.129597 -0.036936 2011600.000000 0 0 1
-25.912563 -6.174333 -9.392376 28.245354 0.233914 1.909779 0.136528 -0.045465 1177270.000000 0 0 1
-26.277833 -4.818433 -8.753476 28.113434 0.181350 1.887423 0.149683 -0.045353 -341095.000000 0 0 1
-26.057673 -4.657533 -7.348276 27.471660 0.176872 1.841579 0.148203 -0.044175 311009.000000 0 0 1
-26.472463 -3.336233 -6.952076 27.572688 0.125366 1.825684 0.187827 -0.045813 4945.390000 0 0 1
-26.406703 -3.164633 -5.432876 27.144889 0.119273 1.772301 0.187204 -0.044255 -285039.000000 0 0 1
-25.198193 -3.634133 -4.892476 25.924741 0.143234 1.760653 0.169736 -0.032027 -159990.000000 0 0 1
-24.998473 -3.041733 -3.619476 25.441627 0.121082 1.713547 0.162578 -0.030636 -158447.000000 0 0 1
-23.568373 -3.206533 -3.062476 23.981844 0.135222 1.698846 0.145507 -0.021088 -41084.200000 0 1 0
-23.229273 -4.527733 -2.701376 23.820095 0.192501 1.684448 0.145665 -0.023747 531062.000000 0 1 0
-21.871673 -4.598333 -2.280676 22.465890 0.207223 1.672489 0.122711 -0.020015 204642.000000 0 1 0
-21.357073 -6.036533 -2.060276 22.289214 0.275462 1.663362 0.110662 -0.024781 1365.700000 0 1 0
-22.100173 -6.687633 -1.023876 23.112560 0.293845 1.615110 0.122158 -0.022794 344652.000000 0 1 0
-22.926373 -7.698333 -1.510476 24.231476 0.323955 1.633172 0.130800 -0.033875 -308586.000000 0 1 0
-23.175973 -8.682533 -0.305276 24.750865 0.358451 1.583131 0.125443 -0.035106 774909.000000 0 1 0
-21.970873 -9.395033 0.096824 23.895508 0.404082 1.566744 0.091098 -0.024395 1249580.000000 0 1 0
-22.277373 -10.404333 1.066024 24.610321 0.436930 1.527467 0.062667 -0.015737 310640.000000 0 1 0
-21.074273 -11.083133 1.819524 23.880358 0.484159 1.494529 0.079556 -0.016406 -38021.200000 0 1 0
-20.347873 -11.969533 1.056024 23.630930 0.531731 1.526093 0.078350 -0.007318 -207231.000000 0 1 0
-19.298173 -12.483833 1.818824 23.055882 0.574187 1.491827 0.058397 -0.011494 -405689.000000 0 1 0
-18.618173 -13.627933 1.044324 23.096483 0.631861 1.525565 0.059799 -0.009985 -39915.400000 0 1 0
-19.390673 -14.822133 1.178924 24.435296 0.652650 1.522531 0.080936 -0.007852 363901.000000 0 1 0
-18.929273 -15.942533 0.453524 24.752524 0.699958 1.552473 0.077725 -0.016036 356447.000000 0 1 0
-17.750073 -16.775033 1.057024 24.445534 0.757164 1.527543 0.076445 -0.014393 138796.000000 0 1 0
-16.486673 -16.156733 1.049924 23.107418 0.775291 1.525344 0.087290 -0.012057 895738.000000 0 1 0
-15.432873 -16.838833 1.789124 22.911151 0.828937 1.492627 0.091727 -0.014079 1070910.000000 0 1 0
-15.523773 -16.704133 3.321224 23.044438 0.822007 1.426170 0.094927 -0.024281 -307981.000000 0 1 0
-15.230373 -15.363033 3.682524 21.944203 0.789734 1.402185 0.073634 -0.014066 -1831.920000 0 1 0
-14.420073 -15.140433 4.816624 21.456260 0.809762 1.344381 0.048136 -0.014409 -209908.000000 0 1 0
-14.978073 -15.515533 6.201324 22.439493 0.803022 1.290794 0.078210 -0.017790 -1276580.000000 0 1 0
-15.974873 -14.640433 6.614024 22.655775 0.741838 1.274547 0.069850 -0.015296 -145811.000000 0 1 0
-16.304873 -14.745633 7.993624 23.391892 0.735224 1.222043 0.077879 -0.015199 388824.000000 0 1 0
-17.218273 -15.971333 8.437624 24.954877 0.747846 1.225883 0.061042 -0.007515 245490.000000 0 1 0
-16.491673 -17.207033 8.165224 25.193812 0.806623 1.240740 0.060740 -0.011918 205457.000000 0 0 1
-17.019273 -18.426033 8.605524 26.518473 0.825066 1.240302 0.046011 -0.013569 -411642.000000 0 0 1
-16.778573 -18.770533 10.126424 27.136652 0.841374 1.188379 0.074544 -0.018909 -123045.000000 0 0 1
-15.494573 -19.310633 10.308524 26.818800 0.894602 1.176264 0.044585 -0.018963 -243143.000000 0 0 1
-15.248173 -19.767733 11.599324 27.528428 0.913760 1.135854 0.051446 -0.018325 -623479.000000 0 0 1
-13.889173 -20.408533 11.804424 27.363512 0.973239 1.124760 0.039099 -0.008730 37208.900000 0 0 1
-12.780873 -19.486833 11.755224 26.101201 0.990304 1.103615 0.043797 -0.014183 715943.000000 0 0 1
-11.630573 -20.185733 12.270124 26.330401 1.048077 1.086025 0.047988 -0.011734 774524.000000 0 0 1
-10.369973 -19.300433 12.416924 25.183786 1.077762 1.055202 0.064728 -0.015705 -47160.500000 0 0 1
-9.840173 -18.789133 11.242224 24.005169 1.088356 1.083402 0.060518 -0.016325 -288791.000000 0 1 0
-8.837073 -17.828733 11.515924 22.990739 1.110623 1.046165 0.068344 -0.022063 286821.000000 0 1 0
-7.940073 -17.435833 10.312924 21.757974 1.143471 1.076987 0.048628 -0.017687 741235.000000 0 1 0
-6.803373 -18.299933 10.083924 21.974052 1.214860 1.094038 0.047771 -0.016636 611176.000000 0 1 0
-6.073173 -17.787133 8.969624 20.825938 1.241771 1.125534 0.046884 -0.004919 -453586.000000 0 1 0
-4.854073 -18.518433 8.515824 20.952652 1.314442 1.152251 0.038600 -0.007248 -735611.000000 0 1 0
-3.642973 -18.333033 9.179824 20.824037 1.374641 1.114275 0.038740 -0.014982 -410874.000000 0 1 0
-2.522173 -18.583133 8.365324 20.534674 1.435897 1.151218 0.040333 -0.025144 112776.000000 0 1 0
-1.280773 -19.000933 9.184424 21.143072 1.503492 1.121431 0.046013 -0.027987 672861.000000 0 1 0
-0.190473 -19.468633 8.355924 21.186916 1.561013 1.165392 0.045089 -0.024709 194427.000000 0 1 0
0.903827 -19.851333 9.151124 21.877737 -1.525298 1.139240 0.058782 -0.026263 223333.000000 0 1 0
2.112627 -20.386633 8.337724 22.126808 -1.467537 1.184440 0.057413 -0.040256 160199.000000 0 1 0
1.906627 -21.615133 7.675124 23.016445 -1.482816 1.230822 0.067624 -0.038539 -197964.000000 0 1 0
2.387527 -22.669433 8.498724 24.327593 -1.465864 1.213924 0.081087 -0.044326 -57233.300000 0 1 0
2.020327 -24.109733 8.123324 25.521547 -1.487194 1.246868 0.082445 -0.042380 -17482.200000 0 0 1
2.190227 -25.058843 9.155624 26.768791 -1.483615 1.221724 0.102589 -0.044871 -171631.000000 0 0 1
1.647527 -26.272113 8.739524 27.736574 -1.508168 1.250245 0.109835 -0.043301 -908542.000000 0 0 1
1.613527 -27.343513 9.863324 29.112821 -1.511855 1.225159 0.136207 -0.045868 376924.000000 0 0 1
0.741027 -27.100983 10.949424 29.238712 -1.543460 1.186956 0.124297 -0.054844 -1056430.000000 0 0 1
-0.612073 -27.219323 10.667524 29.241447 1.548313 1.197369 0.086839 -0.041079 -847437.000000 0 0 1
-1.481573 -27.128033 11.944624 29.678263 1.516236 1.156582 0.089999 -0.042797 171951.000000 0 0 1
-1.262173 -28.307263 12.693324 31.048586 1.526238 1.149634 0.101533 -0.048411 -289902.000000 0 0 1
-1.406973 -28.106023 14.043324 31.450645 1.520779 1.107925 0.099456 -0.051299 -116098.000000 0 0 1
-0.825373 -29.198313 14.926024 32.802575 1.542536 1.098395 0.098228 -0.046807 -289918.000000 0 0 1
-1.264773 -29.001083 16.245824 33.265436 1.527213 1.060576 0.097026 -0.041909 -144747.000000 0 0 1
-0.801073 -29.899813 17.241524 34.524060 1.544011 1.047883 0.104665 -0.037380 -179713.000000 0 0 1
-1.438773 -29.643823 18.631024 35.041994 1.522299 1.010217 0.094870 -0.034000 72611.400000 0 0 1
-2.821473 -29.936243 18.668824 35.392999 1.476825 1.015174 0.094865 -0.031729 -48189.600000 0 0 1
-3.207573 -29.735753 19.992524 35.975055 1.463343 0.981552 0.114359 -0.036294 -776457.000000 0 0 1
-4.709873 -29.766623 20.237124 36.301184 1.413871 0.979451 0.147241 -0.041082 -781903.000000 0 0 1
-5.374873 -28.573193 19.841024 35.199188 1.384860 0.971964 0.119048 -0.039403 -208012.000000 0 0 1
-6.572573 -28.366673 20.534424 35.630456 1.343113 0.956582 0.111530 -0.043027 -200490.000000 0 0 1
-6.401273 -27.472043 21.821224 35.663080 1.341871 0.912372 0.144712 -0.051083 -278114.000000 0 0 1
-5.506973 -28.043133 22.742224 36.523319 1.376889 0.898637 0.170123 -0.050040 5875.680000 0 0 1
-5.215973 -27.200963 23.850624 36.550664 1.381339 0.859870 0.170799 -0.044158 -112497.000000 0 0 1
-4.154373 -27.742033 24.827424 37.460382 1.422151 0.846291 0.197986 -0.039632 -124338.000000 0 0 1
-4.536773 -28.918723 25.478124 38.807340 1.415185 0.854589 0.193667 -0.045460 -138057.000000 0 0 1
-3.659673 -29.982813 25.261824 39.376669 1.449338 0.874288 0.193313 -0.048175 -79537.200000 0 0 1
-3.916773 -31.094723 26.303624 40.915811 1.445494 0.872555 0.190505 -0.028735 274609.000000 0 0 1
-3.408673 -30.670353 27.590624 41.394832 1.460112 0.841261 0.183718 -0.039020 89241.800000 0 0 1
-3.798573 -31.498933 28.637224 42.739941 1.450782 0.836541 0.158412 -0.037702 -740377.000000 0 0 1
-3.060573 -31.269473 29.940924 43.400530 1.473230 0.809480 0.180753 -0.037246 -462476.000000 0 0 1
-1.675973 -31.426013 29.744924 43.303160 1.517516 0.813582 0.195449 -0.032507 -74434.300000 0 0 1
-1.003173 -31.169983 30.967324 43.949395 1.538623 0.788918 0.188026 -0.049550 -300916.000000 0 0 1
-29.344373 2.785667 -9.334476 30.919001 -0.094647 1.877482 0.206599 -0.043972 269278.000000 0 0 1
-30.278603 2.500167 -10.393976 32.110425 -0.082385 1.900428 0.188379 -0.053085 483322.000000 0 0 1
-30.914593 3.702067 -10.799676 32.955278 -0.119184 1.904672 0.156219 -0.051669 -343106.000000 0 0 1
-31.695223 3.549367 -12.104176 34.112992 -0.111520 1.933524 0.151830 -0.051895 -485607.000000 0 0 1
-32.835493 2.758567 -11.940776 35.047988 -0.083815 1.918455 0.172485 -0.054259 -276039.000000 0 0 1
-33.590233 2.623967 -13.107376 36.152348 -0.077959 1.941809 0.174657 -0.049690 -189514.000000 0 0 1
-34.930416 1.894167 -12.835376 37.262162 -0.054174 1.922461 0.181240 -0.047109 -54688.400000 0 0 1
-34.936936 0.511867 -12.391976 37.073071 -0.014650 1.911614 0.218037 -0.054006 149018.000000 0 0 1
-36.233373 -0.071633 -12.501276 38.329419 0.001977 1.903028 0.196549 -0.052383 452965.000000 0 0 1
-36.307583 -1.558233 -12.043676 38.284707 0.042891 1.890812 0.246252 -0.057922 170225.000000 0 0 1
-35.600420 -2.394633 -12.971676 37.965623 0.067163 1.919489 0.235194 -0.047530 266736.000000 0 0 1
-35.303008 -3.633133 -12.430376 37.603408 0.102552 1.907699 0.270444 -0.057088 80028.900000 0 0 1
-35.146727 -4.808133 -13.463076 37.942917 0.135958 1.933523 0.244386 -0.041098 223596.000000 0 0 1
-34.626206 -6.067533 -12.990176 37.477110 0.173468 1.924758 0.241812 -0.045697 281176.000000 0 0 1
-34.797902 -7.124533 -13.906876 38.145172 0.201949 1.943975 0.231106 -0.035232 -550894.000000 0 0 1
-34.480748 -8.516733 -13.274176 37.916493 0.242153 1.928463 0.174310 -0.036830 -643795.000000 0 0 1
-33.172273 -8.945133 -13.095476 36.768282 0.263392 1.934954 0.179686 -0.037831 -286465.000000 0 0 1
-32.511153 -9.267033 -14.310276 36.710175 0.277678 1.971230 0.191208 -0.034563 -675152.000000 0 0 1
-31.499903 -10.371733 -13.982176 35.990526 0.318082 1.969795 0.155149 -0.037906 -406404.000000 0 0 1
-32.037473 -11.691233 -14.030576 36.877387 0.349908 1.961096 0.138482 -0.034496 313691.000000 0 0 1
-31.110783 -12.662133 -13.596176 36.236259 0.386527 1.955419 0.146733 -0.030633 -78285.000000 0 0 1
-31.501823 -14.066033 -14.075476 37.260397 0.419952 1.958172 0.157942 -0.024006 -207625.000000 0 0 1
-31.289053 -14.148133 -15.438076 37.649817 0.424661 1.993298 0.150996 -0.035327 55009.900000 0 0 1
-31.370283 -15.425533 -16.016576 38.452210 0.457005 2.000424 0.156188 -0.040509 224258.000000 0 0 1
-30.201503 -16.418533 -15.739176 37.807680 0.497942 2.000164 0.138595 -0.031035 490267.000000 0 0 1
-28.923163 -15.953933 -16.141976 36.764667 0.504069 2.025351 0.142387 -0.038548 43297.600000 0 0 1
-27.921713 -16.958833 -15.943976 36.351540 0.545822 2.024842 0.152329 -0.040205 1204680.000000 0 0 1
-26.518593 -16.364633 -16.357976 35.194039 0.552898 2.054198 0.145271 -0.042920 711975.000000 0 0 1
-26.490653 -16.112033 -17.740076 35.722018 0.546439 2.090490 0.128202 -0.038941 6023.420000 0 0 1
-25.210833 -15.751433 -18.228876 34.870986 0.558447 2.120872 0.087703 -0.024210 -170388.000000 0 0 1
-25.268293 -15.149433 -19.640876 35.408417 0.540084 2.158793 0.090198 -0.025168 -117395.000000 0 0 1
-25.728703 -16.124933 -20.572976 36.677336 0.559842 2.166291 0.096678 -0.029148 414864.000000 0 0 1
-27.120033 -15.947033 -20.781576 37.705145 0.531562 2.154550 0.134180 -0.043148 -391429.000000 0 0 1
-27.736993 -17.109333 -21.490376 39.037243 0.552711 2.153771 0.139497 -0.050247 -519353.000000 0 0 1
-27.199913 -17.212033 -22.803676 39.447395 0.564187 2.187168 0.118754 -0.035528 114946.000000 0 0 1
-27.777373 -18.194733 -23.621876 40.750752 0.579896 2.189117 0.122555 -0.033068 -649461.000000 0 0 1
-27.059623 -18.389733 -24.984676 41.165999 0.596903 2.222982 0.105216 -0.026817 -302194.000000 0 0 1
-25.756193 -18.871733 -24.918876 40.502767 0.632341 2.233485 0.096805 -0.028224 -421064.000000 0 0 1
-25.792893 -20.253333 -24.621076 41.008148 0.665669 2.214791 0.086770 -0.025552 329218.000000 0 0 1
-24.370973 -20.937933 -24.432676 40.364552 0.709773 2.220939 0.069720 -0.003474 928918.000000 0 0 1
-23.631673 -20.861533 -25.623606 40.623007 0.723219 2.253336 0.054466 -0.010699 -389484.000000 0 0 1
-22.334773 -21.366533 -25.373826 39.990022 0.763246 2.258163 0.059277 -0.013514 408158.000000 0 0 1
-21.395373 -21.121733 -26.632636 40.164498 0.778962 2.295734 0.050622 -0.016123 105476.000000 0 0 1
-21.595073 -22.026333 -27.716826 41.469615 0.795284 2.302804 0.082190 -0.014824 210502.000000 0 0 1
-22.388973 -21.490233 -28.765196 42.314687 0.764919 2.318276 0.092535 -0.025883 -24139.500000 0 0 1
-21.636073 -21.687733 -30.065496 42.923321 0.786591 2.346819 0.094262 -0.029425 95418.400000 0 0 1
-21.303773 -23.050633 -30.437596 43.722187 0.824762 2.340829 0.106671 -0.033001 354708.000000 0 0 1
-20.497873 -23.036033 -31.623316 44.168492 0.843635 2.368809 0.115157 -0.035979 149336.000000 0 0 1
-19.960873 -24.439333 -31.882146 44.857426 0.885924 2.361352 0.129987 -0.033964 17440.900000 0 0 1
-19.222573 -24.601233 -33.135706 45.526948 0.907521 2.385943 0.135803 -0.034195 -41346.400000 0 0 1
-19.913673 -24.461233 33.343401 45.898679 0.887522 0.757645 0.125631 -0.020408 -829569.000000 0 0 1
-19.057873 -24.522333 32.102215 44.666537 0.910136 0.768853 0.122347 -0.018521 -216537.000000 0 0 1
-18.247073 -23.349533 32.014502 43.624359 0.907454 0.746798 0.102052 -0.020914 -435982.000000 0 0 1
-17.550673 -23.362333 30.806055 42.459837 0.926503 0.758986 0.104006 -0.013612 -518941.000000 0 0 1
-16.825573 -22.072333 30.425145 41.182244 0.919474 0.739519 0.085250 -0.013792 -116128.000000 0 0 1
-17.685573 -20.979433 30.190665 40.796965 0.870383 0.737693 0.077487 -0.017843 262539.000000 0 0 1
-16.979473 -19.773433 29.814535 39.600476 0.861272 0.718364 0.082342 -0.028762 387944.000000 0 0 1
-16.193873 -18.999633 30.916835 39.737618 0.864954 0.679281 0.090952 -0.035402 106802.000000 0 0 1
-15.773673 -17.703133 30.608385 38.717992 0.842970 0.659095 0.098327 -0.040414 -229037.000000 0 0 1
-15.199773 -17.046733 31.704061 39.073926 0.842612 0.624276 0.100570 -0.043653 -122648.000000 0 0 1
-14.708873 -15.642533 31.369115 38.013960 0.816150 0.600240 0.117367 -0.040784 -232555.000000 0 0 1
-13.562473 -15.548333 30.572735 36.883377 0.853510 0.593653 0.149157 -0.048787 -311263.000000 0 0 1
-13.089673 -14.265633 30.435015 36.071290 0.828360 0.566571 0.125314 -0.046223 28444.000000 0 0 1
-11.680373 -14.246333 29.777575 35.015612 0.884047 0.554035 0.144999 -0.046896 456075.000000 0 0 1
-11.146073 -12.925333 29.652915 34.213953 0.859180 0.522267 0.140461 -0.042492 332079.000000 0 0 1
-9.852173 -12.780333 30.234135 34.271054 0.914062 0.490269 0.138742 -0.042284 392759.000000 0 0 1
-9.392873 -11.316533 30.318725 33.697405 0.878021 0.451635 0.123307 -0.036707 -246548.000000 0 0 1
-10.199173 -10.570233 31.172685 34.459966 0.803262 0.440342 0.123901 -0.033106 -93853.500000 0 0 1
-9.953273 -9.178033 31.135225 33.951527 0.744898 0.410179 0.103237 -0.025098 -328289.000000 0 0 1
-10.867573 -8.469133 32.133106 34.962364 0.661993 0.405064 0.090127 -0.025409 -21209.000000 0 0 1
-12.077673 -8.003933 31.539395 34.708307 0.585255 0.430640 0.086723 -0.029176 237973.000000 0 0 1
-12.973273 -7.413033 32.488403 35.759687 0.519131 0.431067 0.068221 -0.028874 193456.000000 0 0 1
-12.652373 -6.027433 33.020653 35.871661 0.444580 0.401382 0.059065 -0.017474 -446115.000000 0 0 1
-12.803173 -5.024533 32.021837 34.850613 0.373976 0.405687 0.058955 -0.019400 168807.000000 0 0 1
-12.981273 -3.797433 32.703779 35.390269 0.284591 0.392150 0.057386 -0.021217 -279680.000000 0 0 1
-12.503173 -2.581333 31.902860 34.362554 0.203594 0.380661 0.057929 -0.010901 -1143940.000000 0 0 1
-11.145073 -2.384833 32.003105 33.972030 0.210802 0.342128 0.063410 -0.019109 -879135.000000 0 0 1
-10.785373 -1.184833 31.284985 33.113115 0.109417 0.333839 0.051590 -0.014830 275652.000000 0 0 1
-9.246073 -0.947133 31.211965 32.566450 0.102080 0.289424 0.057905 -0.018121 440126.000000 0 0 1
-8.738073 -0.428033 32.414990 33.574823 0.048946 0.263611 0.064557 -0.028901 -509334.000000 0 0 1
-7.399773 -0.057833 32.242884 33.081166 0.007815 0.225601 0.099021 -0.031553 -311036.000000 0 0 1
-6.847373 0.744467 33.469592 34.170958 -0.108298 0.202957 0.142123 -0.048428 -244196.000000 0 0 1
-7.371773 2.077267 33.655155 34.515613 -0.274665 0.223758 0.128092 -0.036774 44215.400000 0 0 1
-6.768273 3.058167 32.846819 33.676037 -0.424382 0.222374 0.134570 -0.037761 -63639.600000 0 0 1
-7.545773 4.376167 32.721794 33.864515 -0.525546 0.260520 0.143093 -0.040875 -1113180.000000 0 0 1
-8.730073 4.401267 32.055522 33.513308 -0.466962 0.296033 0.105377 -0.018072 -836985.000000 0 0 1
-9.459673 5.591567 32.418966 34.230694 -0.533846 0.326804 0.111702 -0.023544 -316107.000000 0 0 1
-10.852673 5.571367 31.809470 34.068505 -0.474281 0.366209 0.088133 -0.011787 -150041.000000 0 0 1
-11.805773 6.472967 32.369413 35.057873 -0.501528 0.394175 0.095471 -0.014837 -68754.000000 0 0 1
-12.995873 6.505067 31.636457 34.814854 -0.464086 0.430623 0.061823 -0.015538 -244593.000000 0 0 1
-13.726373 7.840667 31.771162 35.486563 -0.518983 0.461689 0.085737 -0.017888 30663.100000 0 0 1
-14.492873 7.994167 32.969515 36.890907 -0.504065 0.465264 0.079670 -0.018005 183282.000000 0 0 1
-15.390373 9.065567 32.872384 37.411786 -0.532323 0.497740 0.088397 -0.011289 -691494.000000 0 0 1
-16.197273 9.286267 -33.579346 38.420813 -0.520573 2.634147 0.069529 -0.005492 -816584.000000 0 0 1
-15.459673 9.655367 -32.474496 37.240039 -0.558277 2.630134 0.063931 -0.009740 -288213.000000 0 0 1
-16.297373 10.146567 -31.428986 36.828499 -0.556864 2.593246 0.066124 -0.009656 -99612.400000 0 0 1
-15.542173 10.434167 -30.028366 35.385502 -0.591235 2.584142 0.080007 -0.019503 762453.000000 0 0 1
-14.663473 11.544967 -29.896906 35.243846 -0.666966 2.583539 0.084937 -0.019512 973571.000000 0 0 1
-13.490073 11.462167 -30.749756 35.481133 -0.704305 2.619246 0.097261 -0.028885 747402.000000 0 0 1
-12.486173 12.650167 -30.644106 35.425873 -0.791922 2.615988 0.101125 -0.027346 257169.000000 0 0 1
-12.788573 13.661567 -31.643946 36.763097 -0.818391 2.607543 0.090751 -0.025099 -271106.000000 0 0 1
-11.928973 14.747267 -31.830266 37.053314 -0.890656 2.604187 0.093206 -0.025762 -642514.000000 0 0 1
-12.109473 15.856667 -30.820396 36.714711 -0.918595 2.567078 0.093545 -0.021475 -297023.000000 0 0 1
-13.403873 16.381967 -30.862546 37.423648 -0.885051 2.540433 0.101401 -0.024086 -260990.000000 0 0 1
-13.517273 17.300767 -29.849186 37.054111 -0.907556 2.507411 0.089378 -0.021921 277244.000000 0 0 1
-14.925573 17.956467 -29.858326 37.904183 -0.877313 2.477914 0.082641 -0.026497 -175029.000000 0 0 1
-15.277773 18.611067 -31.040856 39.285072 -0.883442 2.481840 0.086373 -0.031838 278355.000000 0 0 1
-16.658373 18.908067 -31.185036 40.093925 -0.848567 2.461953 0.080496 -0.031165 466348.000000 0 0 1
-17.237773 20.066967 -30.336206 40.250582 -0.861093 2.424445 0.061245 -0.030456 -391638.000000 0 0 1
-16.653973 21.360267 -30.641446 40.896382 -0.908575 2.417719 0.069438 -0.026665 446121.000000 0 0 1
-17.182673 22.499567 -29.945246 41.209132 -0.918592 2.384252 0.049546 -0.025920 1254340.000000 0 0 1
-18.547373 23.101967 -30.547726 42.554312 -0.894321 2.371509 0.049007 -0.024433 1540720.000000 0 0 1
-19.721373 22.393667 -30.164166 42.429775 -0.848765 2.361602 0.056730 -0.027088 -82595.600000 0 0 1
-20.629573 22.450567 -31.194636 43.620093 -0.827643 2.367626 0.079970 -0.026889 -790699.000000 0 0 1
-21.799873 21.419267 -31.180836 43.660783 -0.776592 2.366221 0.108695 -0.036934 299546.000000 0 0 1
-22.828073 21.642267 -30.240366 43.634715 -0.758739 2.336486 0.139733 -0.031306 827037.000000 0 0 1
-23.806373 22.674767 -30.521346 44.860239 -0.761057 2.319057 0.132556 -0.034406 -318297.000000 0 0 1
-25.114483 22.118167 -31.038286 45.643464 -0.722046 2.318581 0.151052 -0.042020 -750645.000000 0 0 1
-24.868373 21.429367 -32.267466 46.030893 -0.711254 2.347589 0.142482 -0.032090 625390.000000 0 0 1
-26.136733 21.132667 -32.841086 46.992078 -0.679928 2.344605 0.161826 -0.033968 331591.000000 0 0 1
-26.052643 20.148867 33.668475 47.098655 -0.658304 0.774387 0.148064 -0.029641 -119900.000000 0 0 1
-25.759063 18.838267 -33.598846 46.338883 -0.631442 2.381930 0.147870 -0.038801 287482.000000 0 0 1
-25.414543 18.065167 32.932765 45.352136 -0.617951 0.758081 0.126819 -0.043118 -261857.000000 0 0 1
-24.924573 16.604467 33.294674 44.782564 -0.587672 0.732546 0.096035 -0.027293 205825.000000 0 0 1
-25.954993 15.750467 33.785605 45.422527 -0.545432 0.732048 0.088057 -0.020150 870311.000000 0 0 1
-26.804583 15.221067 32.762351 44.983755 -0.516447 0.754936 0.088915 -0.019332 -632998.000000 0 0 1
-27.497033 13.949567 33.126621 45.255390 -0.469480 0.749554 0.055951 -0.007845 -50917.700000 0 0 1
-28.738193 14.138567 33.830725 46.586487 -0.457210 0.758030 0.062331 -0.003754 493382.000000 0 0 1
-29.690223 13.143667 33.534545 46.677950 -0.416761 0.769263 0.035788 0.001931 -33892.600000 0 0 1
-29.504163 11.830067 -33.356336 46.077015 -0.381336 2.380272 0.025457 0.001003 -88791.800000 0 0 1
-28.374983 11.028067 -33.677166 45.397240 -0.370688 2.406596 0.030818 -0.010859 -243849.000000 0 0 1
-28.657893 9.640767 -33.531776 45.150850 -0.324516 2.407832 0.042486 -0.001413 -797956.000000 0 0 1
-27.403203 8.735467 -33.591886 44.222830 -0.308592 2.433502 0.051537 -0.009179 150227.000000 0 0 1
-26.800603 8.716367 32.778772 43.228408 -0.314440 0.710142 0.049986 -0.013059 88108.800000 0 0 1
-26.103683 9.912567 32.460645 42.817692 -0.362918 0.710382 0.035349 -0.014008 -1781230.000000 0 0 1
-24.699773 9.547767 31.996204 41.533068 -0.368861 0.691361 0.042443 -0.011154 -610824.000000 0 0 1
-24.756873 9.098067 30.674685 40.455085 -0.352176 0.710186 0.038863 -0.010021 -109236.000000 0 0 1
-23.494873 9.295267 30.106785 39.304320 -0.376733 0.698214 0.051787 -0.012678 -100079.000000 0 0 1
-23.631973 9.167067 28.581815 38.202427 -0.370040 0.725500 0.067557 -0.023399 48208.400000 0 0 1
-24.228673 10.271667 27.966795 38.401528 -0.400978 0.754998 0.058726 -0.017835 127527.000000 0 0 1
-24.170473 10.142267 26.566595 37.321057 -0.397300 0.778683 0.067152 -0.026474 -926835.000000 0 0 1
-24.407873 11.477367 25.836175 37.349460 -0.439551 0.806898 0.074396 -0.031224 1147970.000000 0 0 1
-25.689783 12.101867 26.060255 38.542925 -0.440243 0.828291 0.079797 -0.028052 1116220.000000 0 0 1
-26.828683 11.452767 25.540305 38.771785 -0.403466 0.851661 0.082253 -0.021403 -697727.000000 0 0 1
-28.184273 12.117367 25.712105 40.028692 -0.406042 0.873246 0.083254 -0.014767 -438709.000000 0 0 1
-28.251013 13.380967 25.048215 40.057248 -0.442343 0.895267 0.111317 -0.019450 407770.000000 0 0 1
-29.451283 14.110367 25.338555 41.334283 -0.446795 0.910925 0.091457 -0.024191 259938.000000 0 0 1
-29.354333 15.598467 24.944975 41.560087 -0.488440 0.927027 0.113854 -0.026281 236961.000000 0 0 1
-28.385713 16.384867 25.668665 41.630433 -0.523503 0.906400 0.123047 -0.030326 569442.000000 0 0 1
-28.079143 17.561267 24.912265 41.442217 -0.558902 0.925879 0.108634 -0.029717 -217657.000000 0 0 1
-23.665873 -9.014633 31.539075 40.448120 0.363944 0.676544 0.052943 -0.023939 511880.000000 0 0 1
-22.787073 -8.400333 30.524045 39.006841 0.353187 0.672076 0.046284 -0.024282 657103.000000 0 0 1
-23.174473 -8.676033 29.208275 38.281237 0.358226 0.702867 0.046394 -0.023107 -175093.000000 0 0 1
-22.043073 -8.361533 28.199265 36.756100 0.362559 0.696333 0.072461 -0.027642 -279309.000000 0 0 1
-21.617873 -7.017533 28.148075 36.178617 0.313886 0.679271 0.076066 -0.028442 -923606.000000 0 0 1
-20.423873 -6.711233 28.741065 35.891838 0.317482 0.642219 0.070692 -0.021504 -1155030.000000 0 0 1
-19.120573 -7.013033 27.970365 34.599426 0.351544 0.629358 0.076006 -0.019649 -709878.000000 0 0 1
-18.702973 -8.330533 27.885445 34.594754 0.419032 0.633332 0.071613 -0.026120 207580.000000 0 0 1
-18.224973 -8.989333 29.114855 35.505388 0.458227 0.609364 0.069251 -0.027371 -231239.000000 0 0 1
-16.826873 -8.597033 29.643305 35.153637 0.472338 0.567495 0.068123 -0.025367 -828908.000000 0 0 1
-15.769373 -9.212833 29.014975 34.284373 0.528738 0.561789 0.069826 -0.024544 -1812340.000000 0 0 1
-14.603473 -8.629133 29.430695 33.968944 0.533698 0.522849 0.079878 -0.029296 68867.100000 0 0 1
-13.247373 -9.402633 29.176505 33.394174 0.617255 0.508038 0.102468 -0.029244 750643.000000 0 0 1
-13.020573 -9.440933 27.803555 32.120153 0.627359 0.524427 0.104386 -0.028726 -658303.000000 0 0 1
-11.894873 -10.223833 27.559215 31.710016 0.709993 0.517414 0.125273 -0.031360 -343407.000000 0 0 1
-11.319373 -10.024333 26.126815 30.186519 0.724797 0.524623 0.103425 -0.025993 -532844.000000 0 0 1
-12.146073 -10.455833 25.138575 29.812740 0.710754 0.567559 0.092730 -0.024908 -786999.000000 0 0 1
-11.534373 -10.391733 23.892455 28.493496 0.733332 0.576229 0.092622 -0.021443 -9180.580000 0 0 1
-12.520573 -10.853033 22.815015 28.197127 0.714176 0.628134 0.104718 -0.030416 -572916.000000 0 0 1
-12.876473 -12.193633 22.913415 28.974348 0.758168 0.658653 0.102594 -0.027621 -81762.600000 0 0 1
-13.966773 -12.639433 22.148485 29.075443 0.735551 0.704772 0.088330 -0.024116 -138470.000000 0 0 1
-15.334473 -12.270533 22.732705 30.041437 0.674858 0.712528 0.092842 -0.025896 -462631.000000 0 0 1
-16.498673 -12.724633 22.013785 30.310547 0.656964 0.757909 0.056484 -0.010864 1380490.000000 0 0 1
-17.599373 -12.539133 22.959015 31.529100 0.619050 0.755126 0.059297 -0.007570 787537.000000 0 0 1
-18.914973 -13.255333 22.600185 32.314833 0.611253 0.796274 0.101194 -0.020196 -257189.000000 0 0 1
-18.718273 -14.644033 22.726255 32.883189 0.663879 0.807758 0.092103 -0.023036 -52123.400000 0 0 1
-19.889773 -15.354533 22.450185 33.695335 0.657421 0.841601 0.098312 -0.016880 308960.000000 0 0 1
-20.864973 -15.443433 23.710425 35.157232 0.637174 0.830630 0.085808 -0.017454 298279.000000 0 0 1
-20.344973 -16.304333 24.755905 35.952803 0.675590 0.811286 0.070450 -0.010169 391173.000000 0 0 1
-21.187273 -16.243933 25.898135 37.195152 0.654093 0.800599 0.062495 -0.014270 -145611.000000 0 0 1
-20.711573 -17.087233 27.088375 38.140829 0.689805 0.780986 0.060072 -0.007689 -245977.000000 0 0 1
-20.925473 -18.460933 27.065435 38.874404 0.722906 0.800668 0.069530 -0.004493 188363.000000 0 0 1
-20.429473 -19.169233 28.183345 39.738191 0.753584 0.782397 0.064198 -0.009524 -161137.000000 0 0 1
-20.483173 -20.677533 27.916855 40.329537 0.790120 0.806238 0.073348 -0.009030 -978477.000000 0 0 1
-21.784773 -21.100133 27.749695 41.107634 0.769435 0.829764 0.060812 0.000476 -956935.000000 0 0 1
-21.778373 -22.435133 27.336615 41.532195 0.800251 0.852367 0.069984 0.000580 -570780.000000 0 0 1
-23.083373 -22.918133 26.736735 42.106246 0.781806 0.882810 0.053329 0.006855 -523250.000000 0 0 1
-23.960073 -23.441033 27.725835 43.500449 0.774449 0.879717 0.047158 0.008849 521959.000000 0 0 1
-25.197163 -23.863233 27.133195 44.051801 0.758215 0.907220 0.023154 0.010237 779672.000000 0 0 1
-26.042113 -24.735933 28.140165 45.628137 0.759681 0.906217 0.009451 0.013064 -121284.000000 0 0 1
-26.625623 -24.017833 29.181975 46.231675 0.733950 0.887682 0.008280 0.012085 -58055.200000 0 0 1
-27.247773 -24.968233 30.024665 47.616534 0.741770 0.888533 0.002279 0.015112 -453604.000000 0 0 1
-28.362483 -24.378433 30.876995 48.498735 0.710001 0.880643 0.018998 0.015984 -176507.000000 0 0 1
-29.480423 -24.022533 30.067105 48.478946 0.683739 0.901787 0.027864 0.010019 116691.000000 0 0 1
-30.507353 -23.461933 30.878055 49.341820 0.655587 0.894641 0.043029 -0.006054 -221510.000000 0 0 1
-31.734893 -23.271133 29.965725 49.463054 0.632726 0.920000 0.061813 -0.016042 -384108.000000 0 0 1
-32.397583 -24.502833 29.647395 50.288769 0.647532 0.940303 0.073076 -0.015163 247825.000000 0 0 1
-33.514913 -24.322133 28.813555 50.448355 0.627774 0.962891 0.079621 -0.022333 652095.000000 0 0 1
-34.901292 -24.738633 29.404375 51.910668 0.616619 0.968615 0.085004 -0.015123 490556.000000 0 0 1
-34.948686 -26.157503 29.462785 52.665751 0.642511 0.977099 0.088673 -0.018096 -40794.200000 0 0 1
-35.944729 -26.640723 30.344515 54.060533 0.637818 0.974833 0.084808 -0.019287 109614.000000 0 0 1
-35.737769 -28.120233 30.826215 54.938067 0.666671 0.975072 0.084479 -0.023728 -145574.000000 0 0 1
-34.706628 -28.196043 31.771949 54.854568 0.682263 0.953045 0.075051 -0.014763 -398006.000000 0 0 1
-34.308883 -29.551363 31.882179 55.379201 0.711037 0.957328 0.073280 -0.024342 7766.760000 0 0 1
-33.438553 -29.834583 33.111351 55.718944 0.728501 0.934455 0.045883 -0.021174 173511.000000 0 0 1
-34.086438 -29.716333 -33.324116 56.173325 0.717011 2.205871 0.047650 -0.011529 72060.000000 0 0 1
-33.070743 -29.962893 -32.373806 55.131772 0.736133 2.198401 0.037166 -0.008274 452786.000000 0 0 1
-33.520983 -29.445283 -31.010706 54.335485 0.720760 2.178187 0.045487 -0.014905 206711.000000 0 0 1
-33.581103 -28.017523 -30.861986 53.526949 0.695323 2.185320 0.051882 -0.019483 892248.000000 0 0 1
-32.263483 -27.473893 -30.577866 52.256607 0.705392 2.195859 0.050839 -0.013312 1059180.000000 0 0 1
-32.219863 -25.918153 -30.515456 51.391276 0.677427 2.206553 0.033988 -0.010276 -541248.000000 0 0 1
-33.074723 -25.392313 -29.553706 51.108985 0.654749 2.187377 0.035538 -0.021772 -239548.000000 0 0 1
-33.035533 -23.990433 -29.582156 50.418164 0.628095 2.197819 0.054072 -0.022211 400045.000000 0 0 1
-32.037103 -23.257133 -28.605046 48.841774 0.627926 2.196500 0.054499 -0.023616 10274.000000 0 0 1
-31.875663 -21.895033 -28.802976 48.218895 0.601872 2.210974 0.069544 -0.022913 356830.000000 0 0 1
-31.016063 -21.398533 -27.755026 46.799945 0.603927 2.205646 0.090125 -0.024501 263930.000000 0 0 1
-30.684413 -19.951033 -28.011176 46.089076 0.576516 2.224035 0.120880 -0.038062 17786.500000 0 0 1
-29.975953 -19.871633 -29.245816 46.354690 0.585404 2.253527 0.098789 -0.017394 522469.000000 0 0 1
-29.419673 -18.589333 -29.534206 45.643727 0.563522 2.274518 0.104569 -0.026995 -180691.000000 0 0 1
-28.981603 -18.290833 -31.030936 46.232098 0.562987 2.306621 0.095739 -0.018031 -116228.000000 0 0 1
-29.914413 -18.104633 -32.054086 47.435369 0.544245 2.312768 0.095229 -0.027111 108558.000000 0 0 1
-30.881093 -17.072933 -31.820476 47.514941 0.505037 2.304593 0.104603 -0.028236 46177.100000 0 0 1
-31.546873 -16.488033 -33.105286 48.610908 0.481604 2.319959 0.099960 -0.037810 116973.000000 0 0 1
-32.551503 -17.173533 33.828545 49.989009 0.485468 0.827498 0.102039 -0.040669 -233161.000000 0 0 1
-33.771513 -16.551333 -33.562176 50.407156 0.455694 2.299391 0.089254 -0.036647 -594721.000000 0 0 1
-34.806925 -17.128533 33.094232 50.991537 0.457309 0.864508 0.082038 -0.038466 -95039.000000 0 0 1
-35.146226 -18.497033 33.404190 51.896410 0.484456 0.871511 0.071035 -0.035997 659527.000000 0 0 1
-36.027553 -19.086433 32.417361 52.088020 0.487182 0.899046 0.068902 -0.035310 149109.000000 0 0 1
-36.386383 -20.501633 32.812517 53.112589 0.513105 0.904865 0.060292 -0.033801 57183.300000 0 0 1
-35.473194 -21.500133 32.381905 52.623103 0.544889 0.907960 0.080279 -0.033988 257659.000000 0 0 1
-35.856264 -22.707333 33.026695 53.777851 0.564537 0.909511 0.074534 -0.026731 -32656.400000 0 0 1
-34.651443 -23.675733 33.255608 53.546226 0.599398 0.900697 0.084696 -0.022443 1062290.000000 0 0 1
-33.610933 -23.280233 -33.516386 52.867875 0.605768 2.257466 0.060136 -0.026860 722994.000000 0 0 1
-32.828503 -22.126833 -33.764406 52.032129 0.593071 2.276953 0.061419 -0.028820 -145439.000000 0 0 1
-31.588533 -21.999833 -32.796786 50.571308 0.608339 2.276442 0.054966 -0.017044 848137.000000 0 0 1
-30.556273 -22.975333 -33.070666 50.549191 0.644717 2.283957 0.043041 -0.011549 681592.000000 0 0 1
-29.278403 -22.664733 -32.568336 49.311373 0.658754 2.292232 0.049056 -0.009159 89079.900000 0 0 1
-29.100143 -23.109233 -31.121316 48.470520 0.671150 2.267988 0.052140 0.002756 -837493.000000 0 0 1
-29.070353 -24.502833 -30.956446 49.028316 0.700346 2.254153 0.053571 -0.003524 56581.500000 0 0 1
-28.917153 -24.886333 -29.594026 48.283928 0.710620 2.230543 0.043569 -0.007664 -367540.000000 0 0 1
-28.200133 -26.262003 -29.464366 48.508650 0.749826 2.223585 0.045872 -0.003218 137360.000000 0 0 1
-29.063423 -27.318893 -29.828916 49.807316 0.754467 2.212906 0.026216 -0.000109 272087.000000 0 0 1
-28.528363 -28.516483 -29.278486 49.842623 0.785190 2.198662 0.023236 -0.003688 -66340.900000 0 0 1
-29.334423 -29.803423 -29.514086 51.184311 0.793329 2.185386 0.021300 0.012164 -254574.000000 0 0 1
-29.269023 -30.154683 -30.885086 52.152365 0.800301 2.204594 0.041213 -0.004908 395545.000000 0 0 1
-29.720563 -31.518623 -31.102106 53.329883 0.814751 2.193461 0.059448 0.000276 -258368.000000 0 0 1
-29.391033 -32.082203 -32.454846 54.280914 0.829148 2.211682 0.043310 -0.005770 851359.000000 0 0 1
-27.985563 -31.923223 -32.754686 53.620456 0.851031 2.227945 0.044809 -0.009917 892198.000000 0 0 1
-27.599183 -32.783833 -33.804766 54.582569 0.871051 2.238689 0.052195 -0.009098 -50624.300000 0 0 1
-26.105783 -32.703143 33.491560 53.597501 0.897114 0.895829 0.064054 -0.018407 149413.000000 0 0 1
-25.759893 -33.528273 32.371757 53.250801 0.915683 0.917369 0.056383 -0.010566 147628.000000 0 0 1
-24.626873 33.271878 32.538591 52.652262 -0.933616 0.904612 0.060641 -0.010988 132771.000000 0 0 1
-24.427473 32.399308 31.240785 51.209406 -0.924772 0.914661 0.071833 -0.016159 -324852.000000 0 0 1
-25.571093 31.686752 30.844405 51.081390 -0.891804 0.922501 0.053284 -0.029747 -158422.000000 0 0 1
-25.299563 30.795584 29.781075 49.752873 -0.883063 0.929069 0.050086 -0.021854 90987.200000 0 0 1
-26.607563 30.179074 29.213985 49.721181 -0.848209 0.942761 0.050596 -0.021011 73971.000000 0 0 1
-27.215843 29.259244 30.093995 50.024534 -0.821565 0.925313 0.056738 -0.020187 -359016.000000 0 0 1
-28.387423 28.755314 29.544035 50.055608 -0.791836 0.939460 0.057910 -0.026087 -524262.000000 0 0 1
-28.949503 27.513884 30.309955 50.137620 -0.759978 0.921614 0.062213 -0.034592 238049.000000 0 0 1
-28.028203 26.414724 30.261115 48.980128 -0.755771 0.904824 0.059673 -0.020979 437944.000000 0 0 1
-28.532403 25.185204 30.772585 48.942257 -0.723168 0.890848 0.064509 -0.016684 418151.000000 0 0 1
-29.539323 24.427334 29.853575 48.585000 -0.690955 0.909094 0.082794 -0.018995 506550.000000 0 0 1
-28.913873 23.966824 28.675355 47.251420 -0.692119 0.918683 0.073856 -0.020379 -383566.000000 0 0 1
-29.769453 23.191134 27.900025 46.930379 -0.661820 0.934155 0.096208 -0.011118 -524775.000000 0 0 1
-29.238343 22.971334 26.535305 45.680251 -0.665934 0.950972 0.110151 -0.021689 115306.000000 0 0 1
-28.088213 22.142004 26.720595 44.645339 -0.667567 0.929159 0.118724 -0.029575 454561.000000 0 0 1
-27.282153 21.992104 25.547155 43.366181 -0.678449 0.940848 0.097337 -0.019540 -96885.500000 0 0 1
-25.851503 21.569704 25.891345 42.472510 -0.695349 0.915237 0.079206 -0.027625 -401890.000000 0 0 1
-25.830793 20.290304 26.492185 42.199078 -0.665842 0.892085 0.136721 -0.039861 1028560.000000 0 0 1
-24.474373 20.018404 26.886635 41.504489 -0.685581 0.866102 0.096737 -0.027854 705722.000000 0 0 1
-24.441073 18.705904 27.705095 41.410738 -0.653251 0.837891 0.124863 -0.030979 255568.000000 0 0 1
-23.220773 18.062604 28.048515 40.647032 -0.661097 0.809237 0.101465 -0.022677 178224.000000 0 0 1
-23.526773 16.926404 28.829615 40.879811 -0.623663 0.788051 0.097384 -0.018452 -15986.200000 0 0 1
-22.292273 16.004304 28.967935 39.902687 -0.622659 0.758361 0.099646 -0.022435 223184.000000 0 0 1
-21.355073 16.756404 29.746485 40.269959 -0.665315 0.739691 0.126497 -0.020461 1046200.000000 0 0 1
-20.061673 16.085004 29.731295 39.308371 -0.675824 0.713065 0.115386 -0.017546 1815030.000000 0 0 1
-19.031973 16.746604 30.764795 39.863986 -0.721609 0.689217 0.096000 -0.025940 208295.000000 0 0 1
-19.338673 16.409004 32.094775 40.906165 -0.703627 0.668754 0.078359 -0.028209 696108.000000 0 0 1
-18.243873 16.774804 32.927180 41.212039 -0.743472 0.645216 0.080300 -0.022479 -55609.500000 0 0 1
-18.609873 16.557804 -33.267016 41.559387 -0.727113 2.498874 0.069210 -0.029637 784308.000000 0 0 1
-19.671573 17.307404 -32.657976 41.869564 -0.721552 2.465451 0.094199 -0.033333 1033390.000000 0 0 1
-21.020973 16.986104 -32.959816 42.623450 -0.679633 2.454793 0.093830 -0.031235 360604.000000 0 0 1
-22.090373 17.700104 -32.086716 42.788265 -0.675508 2.418700 0.087155 -0.035034 135667.000000 0 0 1
-22.164473 17.112704 -30.795276 41.622801 -0.657482 2.403667 0.098079 -0.030807 76206.400000 0 0 1
-23.064673 17.832104 -29.981996 41.819651 -0.658144 2.370193 0.108435 -0.026786 -524272.000000 0 0 1
-23.282173 17.491404 -28.515136 40.756862 -0.644319 2.345690 0.107185 -0.026863 -43386.900000 0 0 1
-23.974873 16.300204 -28.333476 40.537354 -0.597099 2.344721 0.104207 -0.026532 -224790.000000 0 0 1
-25.378803 16.310704 -28.414496 41.442808 -0.571219 2.326267 0.108761 -0.021251 51835.600000 0 0 1
-26.165993 15.230704 -27.608456 40.973899 -0.527139 2.310144 0.105090 -0.009698 352980.000000 0 0 1
-25.815833 13.916404 -27.997606 40.546140 -0.494409 2.332993 0.074601 -0.005654 82835.500000 0 0 1
-26.591303 13.050604 -27.202006 40.216474 -0.456248 2.313646 0.050623 0.002888 41646.800000 0 0 1
-26.187593 11.555304 -27.165486 39.462371 -0.415555 2.330063 0.054523 0.000203 -238369.000000 0 0 1
-25.150753 11.235104 -26.287326 38.076390 -0.420115 2.332816 0.051017 -0.001218 -371453.000000 0 0 1
-24.396373 10.196304 -26.855176 37.687506 -0.395879 2.363958 0.046585 0.004374 140371.000000 0 0 1
-23.415273 9.529204 -25.826986 36.140199 -0.386497 2.366896 0.061512 -0.001629 55267.800000 0 0 1
-23.976273 8.578404 -24.986476 35.675968 -0.343595 2.346716 0.058708 -0.006421 68317.700000 0 0 1
-22.988273 7.957204 -24.170476 34.292706 -0.333234 2.352978 0.081956 -0.002995 -142756.000000 0 0 1
-23.473973 6.760504 -23.365476 33.803510 -0.280412 2.333965 0.083734 -0.005564 -117863.000000 0 0 1
-23.747073 5.656304 -24.217676 34.386234 -0.233832 2.352210 0.079191 -0.010039 397472.000000 0 0 1
-24.085273 4.482204 -23.448976 33.912314 -0.183993 2.334303 0.086134 -0.004494 -231035.000000 0 0 1
35.536776 24.361867 -10.123376 44.258849 0.600955 1.801570 0.048587 -0.017948 83564.100000 0 0 1
36.639846 24.091367 -9.299776 44.825864 0.581642 1.779779 0.049065 -0.026807 -301032.000000 0 0 1
-37.598253 23.294567 -9.871376 45.317872 -0.554682 1.790382 0.059036 -0.030743 -118142.000000 0 0 1
-36.574923 22.687267 -8.892976 43.949085 -0.555209 1.774550 0.092012 -0.040300 22281.600000 0 0 1
-37.097123 21.670567 -7.995876 43.700618 -0.528689 1.754802 0.082864 -0.034219 869096.000000 0 0 1
-36.210183 21.499767 -6.836076 42.663208 -0.535811 1.731724 0.133719 -0.036451 496036.000000 0 0 1
-36.751603 20.507967 -5.795376 42.483449 -0.508976 1.707638 0.103140 -0.013778 -175136.000000 0 0 1
-36.772543 19.219867 -6.261576 41.962251 -0.481618 1.720575 0.080826 -0.001446 299524.000000 0 0 1
-37.179133 18.316067 -5.298376 41.783239 -0.457745 1.697945 0.092614 -0.021587 -358097.000000 0 0 1
37.340356 17.066467 -5.880476 41.474649 0.428702 1.713061 0.089819 -0.006054 326515.000000 0 0 1
35.997116 17.397567 -6.241076 40.465031 0.450202 1.725648 0.082603 -0.003025 401662.000000 0 0 1
35.461246 16.380467 -7.062676 39.695101 0.432727 1.749672 0.086414 -0.003455 228469.000000 0 0 1
34.017966 16.645867 -7.581976 38.623740 0.455072 1.768383 0.071064 -0.008686 381189.000000 0 0 1
33.623226 15.586767 -8.420876 38.004997 0.434082 1.794223 0.079077 -0.009649 -164271.000000 0 0 1
32.765806 15.978967 -9.451876 37.659838 0.453737 1.824489 0.064074 -0.012750 -436617.000000 0 0 1
32.294746 14.667067 -10.278176 36.928504 0.426310 1.852848 0.062795 -0.011066 1033690.000000 0 0 1
31.049096 14.044167 -9.863076 35.476263 0.424783 1.852528 0.061692 -0.001686 1226360.000000 0 0 1
30.884626 13.607267 -8.506776 34.804929 0.414996 1.817711 0.085370 -0.005116 -494330.000000 0 0 1
29.897526 12.447967 -8.476076 33.476228 0.394525 1.826780 0.084590 0.003124 -262711.000000 0 0 1
30.451266 11.315567 -9.114676 33.740169 0.355783 1.844338 0.100166 -0.004972 578114.000000 0 0 1
29.509126 10.249767 -9.285676 32.589416 0.334305 1.859729 0.128355 -0.015245 -142623.000000 0 0 1
30.057926 9.000867 -10.007476 32.933935 0.290953 1.879543 0.151814 -0.020886 -401277.000000 0 0 1
31.073786 8.373867 -9.269376 33.490643 0.263230 1.851233 0.142874 -0.026752 145870.000000 0 0 1
31.195606 6.994467 -9.407876 33.325614 0.220565 1.856989 0.147996 -0.030531 -481358.000000 0 0 1
32.279286 6.406467 -8.521376 33.994249 0.195924 1.824170 0.169897 -0.035772 916647.000000 0 0 1
33.650326 6.748067 -8.834176 35.439011 0.197910 1.822731 0.153983 -0.029953 1286410.000000 0 0 1
34.567006 6.469667 -7.764576 36.014207 0.185022 1.788100 0.149495 -0.027156 991914.000000 0 0 1
36.010476 6.907867 -8.211876 37.575363 0.189527 1.791119 0.144242 -0.025240 465082.000000 0 0 1
36.459706 6.134667 -9.258476 38.113825 0.166697 1.816168 0.152407 -0.033027 -632051.000000 0 0 1
-37.376153 6.094167 -9.378676 39.013783 -0.161627 1.813568 0.147536 -0.033661 -894482.000000 0 0 1
-37.009133 5.261167 -10.697176 38.881684 -0.141212 1.849512 0.129846 -0.034073 283792.000000 0 0 1
-35.632701 4.992967 -10.924276 37.602645 -0.139217 1.865565 0.134449 -0.036001 802271.000000 0 0 1
-34.859510 5.972867 -11.625476 37.229186 -0.169693 1.888376 0.108467 -0.031795 312622.000000 0 0 1
-33.900383 6.858067 -10.764076 36.223396 -0.199607 1.872511 0.113352 -0.021672 -546295.000000 0 0 1
-34.578674 7.717567 -9.914076 36.790412 -0.219590 1.843644 0.123091 -0.024695 188112.000000 0 0 1
-35.109871 8.848567 -10.602076 37.728029 -0.246884 1.855646 0.118143 -0.024698 -205348.000000 0 0 1
-36.138433 9.632067 -9.750976 38.650286 -0.260477 1.825840 0.135329 -0.021109 210802.000000 0 0 1
-35.533269 10.336867 -8.673576 38.009143 -0.283094 1.801022 0.132626 -0.019678 -174289.000000 0 0 1
-36.464203 11.194867 -8.108776 38.996351 -0.297875 1.780261 0.134969 -0.028105 -364272.000000 0 0 1
-35.863972 12.182567 -7.068076 38.530470 -0.327459 1.755282 0.145785 -0.034747 150454.000000 0 0 1
-35.004060 13.176767 -7.588276 38.164032 -0.360029 1.770964 0.128423 -0.036815 -7470.420000 0 0 1
-34.600192 14.066967 -6.559676 37.922054 -0.386147 1.744649 0.140385 -0.033778 -153455.000000 0 0 1
-33.927483 15.284167 -7.171476 37.896041 -0.423266 1.761185 0.104363 -0.029043 -338286.000000 0 0 1
-34.795620 15.996267 -8.026976 39.128609 -0.430908 1.777407 0.085411 -0.027548 54014.400000 0 0 1
-34.411911 17.353567 -8.194476 39.401464 -0.467073 1.780299 0.063052 -0.025468 -126846.000000 0 0 1
-35.029626 17.995267 -9.429076 40.494590 -0.474560 1.805801 0.063411 -0.029540 388024.000000 0 0 1
-34.225738 17.820467 -10.613876 40.020302 -0.480050 1.839220 0.050282 -0.030417 399601.000000 0 0 1
-35.029196 18.107967 -11.742676 41.144057 -0.477107 1.860224 0.051679 -0.024020 -216821.000000 0 0 1
-34.267305 18.283367 -13.039576 40.970236 -0.490127 1.894700 0.031992 -0.017524 -635969.000000 0 0 1
-33.581183 19.507667 -12.980276 40.947924 -0.526265 1.893355 0.031071 -0.027568 -207185.000000 0 0 1
-33.027803 19.628567 -14.287476 40.990833 -0.536221 1.926823 0.021247 -0.018541 -244990.000000 0 0 1
-32.377913 20.996167 -14.593176 41.256867 -0.575300 1.932336 0.014301 -0.012840 305295.000000 0 0 1
-31.242783 21.191667 -13.674676 40.152148 -0.596006 1.918321 0.015354 -0.006194 1229540.000000 0 0 1
-30.539083 22.414467 -13.889776 40.348108 -0.633156 1.922235 0.019749 -0.009666 300472.000000 0 0 1
-29.838813 22.612267 -15.276576 40.435667 -0.648483 1.958215 0.021068 -0.018825 -1223850.000000 0 0 1
-30.730253 22.977467 -16.327476 41.700107 -0.642037 1.973107 0.040523 -0.002428 107765.000000 0 0 1
-30.174733 23.519667 -17.516676 42.077585 -0.662084 2.000163 0.065850 -0.006411 -443482.000000 0 0 1
-29.642093 24.973067 -17.518776 42.534871 -0.700116 1.995300 0.074359 -0.014815 -33993.600000 0 0 1
-30.572693 26.031767 -17.395976 43.760284 -0.705348 1.979619 0.103271 -0.026343 2259.980000 0 0 1
-29.939023 27.308867 -17.494676 44.138226 -0.739487 1.978346 0.107409 -0.032936 50155.700000 0 0 1
-30.842263 28.512867 -17.122276 45.358584 -0.746173 1.957877 0.113233 -0.036757 -257763.000000 0 0 1
-30.764903 28.855467 -15.713476 45.011449 -0.753383 1.927406 0.096703 -0.042176 193307.000000 0 0 1
-29.589123 29.532767 -15.306876 44.519670 -0.784445 1.921781 0.085353 -0.041169 25273.500000 0 0 1
-29.623693 29.970667 -13.829776 44.351627 -0.791220 1.887905 0.079056 -0.032725 -123097.000000 0 0 1
-30.508593 31.058767 -13.735176 45.651685 -0.794334 1.876400 0.064679 -0.025798 -140335.000000 0 0 1
-30.312963 31.865367 -12.545676 45.734793 -0.810360 1.848672 0.057501 -0.030110 -47082.400000 0 0 1
-29.133573 32.858267 -12.623576 45.692291 -0.845410 1.850711 0.066753 -0.042080 -147706.000000 0 0 1
-29.244253 -33.819870 -13.630776 46.741930 0.857826 1.866714 0.054779 -0.044004 -185761.000000 0 0 1
-28.417653 -32.653170 -13.581776 45.368019 0.854641 1.874828 0.100097 -0.047914 78290.400000 0 0 1
-28.423933 -31.964270 -14.974676 45.319703 0.843957 1.907548 0.079973 -0.049248 378473.000000 0 0 1
-27.737043 -32.761070 -15.986976 45.806273 0.868252 1.927314 0.077714 -0.044261 186600.000000 0 0 1
-27.963033 -32.178370 -17.212876 45.974578 0.855374 1.954546 0.070002 -0.028851 -9873.010000 0 0 1
-27.278653 -32.835270 -18.443576 46.502101 0.877571 1.978626 0.086818 -0.025444 -27884.000000 0 0 1
-27.771113 33.514767 -18.882776 47.445058 -0.878844 1.980124 0.085888 -0.013168 -209768.000000 0 0 1
-27.386173 32.467567 -18.003676 46.133261 -0.870092 1.971703 0.070607 -0.038625 -709453.000000 0 0 1
-27.648433 31.071167 -18.622676 45.570356 -0.843622 1.991779 0.083684 -0.048247 -86028.600000 0 0 1
-28.982663 30.784167 -18.955676 46.335487 -0.815531 1.992260 0.105895 -0.037311 -118211.000000 0 0 1
-29.630903 31.595967 -19.914976 47.674960 -0.817482 2.001735 0.104193 -0.030162 -1785010.000000 0 0 1
-31.122023 31.392267 -19.969976 48.506234 -0.789721 1.995114 0.111910 -0.040030 -982374.000000 0 0 1
-31.472883 30.124367 -20.426676 48.117242 -0.763509 2.009227 0.114097 -0.044311 -779096.000000 0 0 1
-32.843783 29.940167 -20.346976 48.878698 -0.739183 2.000141 0.121771 -0.037706 -898509.000000 0 0 1
-33.391503 29.003467 -21.407276 49.137206 -0.715187 2.021571 0.127503 -0.040326 -1365650.000000 0 0 1
-34.728020 28.706367 -21.379776 49.871692 -0.690754 2.013845 0.126583 -0.036893 -1054840.000000 0 0 1
-34.929490 27.407767 -21.869976 49.492937 -0.665317 2.028490 0.118407 -0.026646 -833188.000000 0 0 1
-36.360563 26.912767 -21.913076 50.265002 -0.637176 2.021891 0.110801 -0.029243 -673433.000000 0 0 1
-37.195163 27.609367 -22.810576 51.634094 -0.638544 2.028371 0.112418 -0.021518 -820265.000000 0 0 1
37.064146 26.770367 -23.302276 51.316659 0.625517 2.042145 0.105549 -0.014691 -747460.000000 0 0 1
36.351816 27.515067 -24.448476 51.732595 0.647909 2.063027 0.114214 -0.014451 -97634.100000 0 0 1
37.071706 27.498467 -25.671316 52.815656 0.638209 2.078366 0.114365 -0.025362 196815.000000 0 0 1
36.233186 27.798867 -26.793286 52.948097 0.654432 2.101371 0.137845 -0.025313 -148772.000000 0 0 1
36.939666 27.947567 -28.141426 54.199126 0.647695 2.116738 0.120844 -0.029024 -101208.000000 0 0 1
37.437276 26.785967 -28.741686 54.268980 0.621046 2.128943 0.085084 -0.012060 -202415.000000 0 0 1
-37.187613 27.080067 -29.958836 54.897909 -0.629403 2.148043 0.055648 -0.008770 -997762.000000 0 0 1
-36.886123 25.811967 -30.824166 54.561643 -0.610575 2.171159 0.029733 -0.004604 463518.000000 0 0 1
-35.947738 24.888967 -30.250036 53.167332 -0.605584 2.176036 0.015382 -0.000468 177451.000000 0 0 1
-34.603936 25.299267 -30.346016 52.520148 -0.631301 2.186824 -0.014867 0.008324 -18308.700000 0 0 1
-33.696463 24.557767 -29.283626 50.951607 -0.629790 2.183076 -0.012939 0.010888 309154.000000 0 0 1
-33.745693 23.145367 -29.439556 50.409992 -0.601184 2.194447 -0.018887 0.009743 -71722.600000 0 0 1
-33.313823 22.487767 -28.236826 49.120554 -0.593769 2.183214 -0.005490 0.017049 -60292.200000 0 0 1
-33.073483 20.993967 -28.490716 48.438857 -0.565592 2.199602 -0.011421 0.009737 -359100.000000 0 0 1
-31.750163 20.753967 -28.886926 47.678659 -0.578947 2.221652 0.060971 0.007271 -194417.000000 0 0 1
-31.600153 19.368567 -29.251586 47.216166 -0.549870 2.238934 0.044391 0.001437 -326755.000000 0 0 1
-30.110633 19.022267 -29.331396 46.139220 -0.563436 2.259731 0.082794 -0.007416 -156811.000000 0 0 1
-29.383813 19.583867 -30.456436 46.631865 -0.587877 2.282500 0.105686 -0.016038 1008310.000000 0 0 1
-28.064183 19.055267 -30.666576 45.728989 -0.596485 2.305835 0.113125 -0.020117 678655.000000 0 0 1
-27.958053 17.647867 -31.275736 45.511225 -0.563064 2.328437 0.105123 -0.015945 -319737.000000 0 0 1
-28.460293 16.656167 -30.404606 44.853721 -0.529498 2.315646 0.072180 -0.006024 68413.100000 0 0 1
-28.593683 15.459567 -31.086476 44.977393 -0.495647 2.333886 0.043645 0.002301 -65354.900000 0 0 1
-28.944313 14.232067 -30.314966 44.264231 -0.456990 2.325213 0.046455 0.006970 814121.000000 0 0 1
-30.346833 14.048467 -30.042226 44.953588 -0.433555 2.302710 0.021007 0.008017 808450.000000 0 0 1
-30.700763 12.710967 -29.689116 44.559501 -0.392540 2.300006 0.018156 0.015577 -128747.000000 0 0 1
-30.528693 12.022367 -28.329516 43.348586 -0.375155 2.283033 0.018003 -0.002460 -240890.000000 0 0 1
-31.184223 12.641067 -27.242996 43.294725 -0.385125 2.251378 0.012173 0.001592 153992.000000 0 0 1
-31.398233 11.728967 -26.199236 42.541952 -0.357503 2.234254 0.012470 0.007216 43173.200000 0 0 1
-30.883813 12.330967 -24.874776 41.528510 -0.379877 2.213024 0.013990 -0.010183 -1177850.000000 0 0 1
-29.526753 12.435967 -24.741076 40.479665 -0.398627 2.228369 0.034050 -0.009602 -1384320.000000 0 0 1
-29.341883 13.400367 -23.742776 40.052907 -0.428410 2.205309 0.036539 -0.011677 -390675.000000 0 0 1
-27.930723 13.742767 -23.262376 38.860353 -0.457252 2.212567 0.056028 -0.006091 -1052770.000000 0 0 1
-27.230773 14.640067 -24.094676 39.196938 -0.493296 2.232812 0.071861 -0.003568 342273.000000 0 0 1
-25.874843 14.953267 -23.822076 38.217784 -0.524017 2.243783 0.074493 -0.007028 523951.000000 0 0 1
-25.607443 15.469367 -22.362376 37.351283 -0.543426 2.212679 0.080793 -0.011666 -1096970.000000 0 0 1
-26.121953 16.764867 -22.113376 38.110610 -0.570584 2.189822 0.102852 -0.009375 96860.700000 0 0 1
-26.151133 17.125367 -20.720576 37.503363 -0.579785 2.156156 0.099608 -0.010588 -308090.000000 0 0 1
-27.553373 17.031567 -20.115876 38.130186 -0.553644 2.126519 0.084758 -0.013892 -324925.000000 0 0 1
-28.005293 15.677667 -20.093176 37.865834 -0.510344 2.130153 0.082465 -0.019827 639904.000000 0 0 1
-29.232043 15.564967 -19.350576 38.356555 -0.489279 2.099590 0.069877 -0.020617 -814607.000000 0 0 1
-30.101233 14.418467 -19.883476 38.850084 -0.446706 2.108075 0.060383 -0.030186 -415796.000000 0 0 1
-30.784573 14.628267 -21.142976 40.108622 -0.443597 2.126031 0.044610 -0.020751 265034.000000 0 0 1
-31.701863 15.706967 -21.063776 41.175230 -0.460008 2.107801 0.048808 -0.020413 -960820.000000 0 0 1
-32.324393 15.920067 -22.491576 42.475710 -0.457637 2.128826 0.017432 0.000853 -43999.500000 0 0 1
-33.305973 14.968267 -22.852476 43.076357 -0.422369 2.129999 0.021614 -0.004421 188682.000000 0 0 1
-33.591433 15.088567 -24.203776 44.066677 -0.422171 2.152267 0.009881 0.006235 393879.000000 0 0 1
-34.910970 14.392067 -24.716776 45.131214 -0.391022 2.150367 0.001899 -0.010213 664235.000000 0 0 1
-34.834058 12.975767 -24.818876 44.696294 -0.356579 2.159494 0.009827 -0.009366 211423.000000 0 0 1
-35.146601 12.272567 -23.639276 44.098921 -0.335946 2.136549 0.010729 -0.011250 -405185.000000 0 0 1
-35.110345 10.772267 -23.844976 43.787680 -0.297694 2.146660 0.020258 -0.016585 188607.000000 0 0 1
-36.112963 10.311367 -24.751276 44.978840 -0.278130 2.153504 0.028036 -0.019180 279237.000000 0 0 1
-35.671566 9.185667 -25.452036 44.773242 -0.252031 2.175436 0.022061 -0.016539 25328.400000 0 0 1
-36.864203 8.488967 -26.138306 45.980899 -0.226331 2.175429 0.048604 -0.010958 447039.000000 0 0 1
37.390796 7.906167 -25.259056 45.810468 0.208378 2.154816 0.050763 -0.013576 -237630.000000 0 0 1
36.413966 7.214767 -25.949306 45.292342 0.195599 2.180872 0.061539 -0.009830 -150697.000000 0 0 1
35.222936 6.652267 -25.122066 43.772435 0.186663 2.182086 0.085810 -0.024040 197912.000000 0 0 1
35.714196 5.701667 -24.166776 43.497654 0.158311 2.159866 0.077018 -0.032601 217603.000000 0 0 1
34.791516 4.717367 -23.724676 42.374089 0.134768 2.165045 0.089935 -0.028581 184138.000000 0 0 1
35.488886 3.662567 -22.836176 42.359962 0.102839 2.140162 0.066921 -0.020178 187273.000000 0 0 1
36.425806 2.824967 -23.447476 43.412025 0.077399 2.141370 0.081383 -0.027678 131504.000000 0 0 1
37.212876 2.073767 -22.516376 43.544068 0.055670 2.114249 0.120672 -0.023862 30968.800000 0 0 1
-37.204963 0.996067 -23.245576 43.881183 -0.026766 2.129089 0.136346 -0.023683 -493412.000000 0 0 1
37.353656 -0.095433 -23.767976 44.274388 -0.002555 2.137476 0.122158 -0.021679 -310661.000000 0 0 1
-36.980123 -1.191933 -23.839876 44.014655 0.032221 2.143177 0.137290 -0.027168 52615.500000 0 0 1
-23.780873 29.184667 26.951155 46.299454 -0.887071 0.949481 0.046713 -0.022423 122193.000000 0 0 1
-25.052623 29.632367 26.419875 46.943806 -0.868951 0.973030 0.038233 -0.026544 1343550.000000 0 0 1
-25.326563 29.139367 25.097765 46.048185 -0.855288 0.994368 0.033487 -0.021901 -364733.000000 0 0 1
-25.610103 27.636967 24.911365 45.169187 -0.823445 0.986620 0.037795 -0.018442 -490749.000000 0 0 1
-26.757173 27.056067 25.485615 45.798402 -0.790952 0.980660 0.043255 -0.014295 -245963.000000 0 0 1
-26.790873 26.886367 26.890665 46.515970 -0.787177 0.954404 0.050387 -0.014941 -544324.000000 0 0 1
-25.896793 25.721167 27.455795 45.673220 -0.781996 0.925875 0.047760 -0.013117 147954.000000 0 0 1
-24.535573 25.888767 27.718585 45.172365 -0.812228 0.910162 0.044710 -0.017910 -367648.000000 0 0 1
-24.266673 26.177667 29.106935 46.058174 -0.823263 0.886716 0.039911 -0.010582 -153458.000000 0 0 1
-22.836973 25.806267 29.516345 45.372959 -0.846365 0.862518 0.053653 -0.005097 -769185.000000 0 0 1
-21.831673 26.609467 28.913215 44.951749 -0.883711 0.872119 0.071318 -0.017148 378993.000000 0 0 1
-20.580473 26.237867 29.475895 44.506291 -0.905652 0.846931 0.091580 -0.023281 361702.000000 0 0 1
-19.779473 24.906367 29.252305 43.211712 -0.899631 0.827181 0.083297 -0.012984 -375386.000000 0 0 1
-19.047073 24.827867 28.064675 42.033796 -0.916400 0.839723 0.093766 -0.013921 46136.300000 0 0 1
-19.765773 24.141267 27.052045 41.295275 -0.884724 0.856497 0.084126 -0.015007 -68535.500000 0 0 1
-19.634173 22.624467 27.027265 40.346503 -0.856042 0.836751 0.052519 -0.004919 -44419.300000 0 0 1
-20.320173 21.974667 28.077025 41.037967 -0.824496 0.817329 0.053401 0.000978 -43149.100000 0 0 1
-19.973273 20.628967 28.211805 40.254091 -0.801546 0.794217 0.071288 -0.002040 -102740.000000 0 0 1
-20.569973 20.006467 29.502695 41.155699 -0.771512 0.771514 0.093845 -0.015494 -89664.900000 0 0 1
-19.954173 20.400867 30.712085 41.923699 -0.796467 0.748705 0.070240 -0.022581 269978.000000 0 0 1
-20.594573 19.863367 31.873544 42.832378 -0.767327 0.731541 0.077304 -0.020279 -70243.000000 0 0 1
-19.878873 20.402267 33.136087 43.696938 -0.798391 0.710070 0.074447 -0.023868 -544614.000000 0 0 1
-19.990473 21.792467 33.374489 44.591335 -0.828499 0.725071 0.046569 -0.017577 662217.000000 0 0 1
-19.029673 22.610767 32.660672 44.046507 -0.871187 0.735487 0.070207 -0.009065 340756.000000 0 0 1
-17.574873 22.640667 33.161379 43.830960 -0.910704 0.712738 0.060988 -0.009589 -280339.000000 0 0 1
-16.930873 21.403267 33.037776 42.851476 -0.901542 0.690412 0.065506 -0.023445 287099.000000 0 0 1
-15.575773 21.505367 33.509360 42.754681 -0.943964 0.670101 0.061643 -0.022041 -460918.000000 0 0 1
-14.793873 20.223567 33.331864 41.699694 -0.939230 0.644615 0.062671 -0.025937 305323.000000 0 0 1
-13.400973 20.292867 33.646955 41.515107 -0.987160 0.625834 0.059583 -0.036961 796890.000000 0 0 1
-13.078073 20.643467 -32.655756 40.787095 -1.006093 2.499158 0.079818 -0.038344 -644276.000000 0 0 1
-11.584773 20.354367 -32.381026 39.962959 -1.053366 2.515419 0.058707 -0.033128 47954.000000 0 0 1
-10.653173 21.302567 -32.755286 40.499361 -1.107078 2.512880 0.055371 -0.031652 -304933.000000 0 0 1
-9.352073 20.952267 -32.334646 39.648305 -1.150981 2.524452 0.048043 -0.023889 171798.000000 0 0 1
-8.196373 21.966967 -32.392036 39.987150 -1.213673 2.515053 0.045005 -0.031930 48539.500000 0 0 1
-8.208273 23.050467 -31.445336 39.843556 -1.228698 2.480334 0.054675 -0.022906 1105.610000 0 0 1
-7.716273 22.671167 -30.153016 38.506195 -1.242739 2.470382 0.043733 -0.018380 -42076.300000 0 0 1
-7.479173 23.879767 -29.217776 38.468945 -1.267273 2.433365 0.054385 -0.017255 -256474.000000 0 0 1
-6.355973 24.639767 -29.530396 38.981544 -1.318344 2.430345 0.059138 -0.021343 -499710.000000 0 0 1
-6.177773 25.749667 -28.739166 39.078765 -1.335330 2.397077 0.081130 -0.022102 -80955.200000 0 0 1
-4.847973 26.521467 -28.926716 39.542963 -1.389998 2.391354 0.079231 -0.025939 -1044650.000000 0 0 1
-3.780873 25.783167 -28.469016 38.594709 -1.425193 2.400365 0.091350 -0.023741 -241250.000000 0 0 1
-2.643673 25.873167 -29.345146 39.211572 -1.468972 2.416412 0.107607 -0.026236 1182680.000000 0 0 1
-1.646073 27.087767 -29.096896 39.788014 -1.510103 2.391019 0.128350 -0.044364 29053.400000 0 0 1
-0.856973 26.980467 -27.937256 38.848041 -1.539044 2.373363 0.138328 -0.059353 561180.000000 0 0 1
0.060127 28.090267 -27.840706 39.549610 1.568656 2.351731 0.146753 -0.062164 -152175.000000 0 0 1
0.726027 28.305167 -26.469376 38.759998 1.545152 2.322528 0.148118 -0.070854 170842.000000 0 0 1
1.849727 27.537267 -26.065256 37.962088 1.503725 2.327616 0.184986 -0.078617 792099.000000 0 0 1
3.065027 28.039567 -26.622746 38.786368 1.461918 2.327316 0.183306 -0.077777 -261582.000000 0 0 1
4.276127 28.170767 -25.710346 38.378370 1.420153 2.304894 0.180971 -0.083561 -269805.000000 0 0 1
4.851827 26.936467 -25.330126 37.292476 1.392586 2.317508 0.169708 -0.063847 -155506.000000 0 0 1
6.062527 27.075567 -24.646376 37.111783 1.350518 2.297102 0.114847 -0.049045 -408721.000000 0 0 1
6.683727 25.749567 -24.239676 35.989919 1.316834 2.309747 0.114592 -0.040623 1207590.000000 0 0 1
7.908727 25.999567 -23.470376 35.907993 1.275503 2.283161 0.101521 -0.036247 944655.000000 0 0 1
8.577527 24.833967 -23.006576 34.922807 1.238230 2.289997 0.089295 -0.023190 103806.000000 0 0 1
9.940727 25.152267 -22.378076 35.103175 1.194416 2.262038 0.070636 -0.001793 -726315.000000 0 0 1
10.028827 25.652767 -21.095476 34.693817 1.198120 2.224395 0.086539 -0.012986 507250.000000 0 0 1
11.336427 25.900067 -20.554676 34.954581 1.158219 2.199429 0.104370 -0.016972 1076700.000000 0 0 1
12.178927 24.642567 -20.116076 34.062279 1.111781 2.202558 0.067157 -0.003244 72790.300000 0 0 1
12.394927 23.705067 -21.134476 34.091502 1.089012 2.239455 0.061199 -0.006043 -68741.300000 0 0 1
12.638027 22.413967 -20.636376 32.984324 1.057385 2.246750 0.055711 0.000394 -532536.000000 0 0 1
12.525027 21.344567 -21.754576 32.950393 1.040138 2.291911 0.061217 0.001043 -839739.000000 0 0 1
11.369227 21.227367 -22.529776 32.976525 1.079081 2.322941 0.063098 -0.013856 -559544.000000 0 0 1
11.572527 20.429667 -23.667476 33.338328 1.055406 2.360178 0.068116 -0.019343 -147087.000000 0 0 1
10.548027 20.621967 -24.797576 33.932966 1.097995 2.390262 0.082743 -0.017377 -447424.000000 0 0 1
9.300527 20.043167 -24.580576 33.051975 1.136341 2.409376 0.073838 -0.020114 -457674.000000 0 0 1
8.539227 20.011167 -25.785176 33.737820 1.167467 2.440722 0.094239 -0.018648 743430.000000 0 0 1
6.985027 19.996967 -25.597936 33.225346 1.234741 2.450318 0.089550 -0.039485 407910.000000 0 0 1
6.262127 21.086167 -25.107126 33.379761 1.282114 2.422139 0.120689 -0.046799 -168356.000000 0 0 1
6.574727 21.555467 -23.813876 32.786672 1.274746 2.383761 0.118713 -0.048379 -54402.700000 0 0 1
5.294227 21.958867 -22.999676 32.236715 1.334214 2.365223 0.142195 -0.055701 548538.000000 0 0 1
4.601427 23.096667 -23.445476 33.231303 1.374146 2.353958 0.147446 -0.060299 -503334.000000 0 0 1
3.248427 22.786667 -23.615176 32.976674 1.429192 2.369020 0.168939 -0.058341 -558564.000000 0 0 1
2.444527 23.957167 -24.131576 34.091854 1.469111 2.357232 0.158015 -0.051287 -606881.000000 0 0 1
1.073027 23.838667 -24.361576 34.101610 1.525815 2.366537 0.172904 -0.073607 -646394.000000 0 0 1
0.696127 24.744467 -25.315636 35.406986 1.542671 2.367406 0.166005 -0.064553 944361.000000 0 0 1
-0.867473 24.725567 -25.546946 35.563361 -1.535727 2.372224 0.163553 -0.058642 1059870.000000 0 0 1
-1.289673 23.469067 -26.050456 35.086844 -1.515899 2.407526 0.165766 -0.060722 55691.000000 0 0 1
-2.674473 23.625067 -26.352186 35.492736 -1.458071 2.407542 0.161845 -0.045753 453755.000000 0 0 1
-3.265173 22.293067 -26.919846 35.104420 -1.425365 2.444716 0.125617 -0.044977 -226065.000000 0 0 1
-2.683873 21.808867 -28.161906 35.720062 -1.448349 2.479010 0.156891 -0.060637 187089.000000 0 0 1
-3.156573 20.482867 -28.450466 35.198591 -1.417891 2.512029 0.096007 -0.049051 -78040.300000 0 0 1
-4.427473 20.431467 -29.334326 36.021522 -1.357397 2.522414 0.070521 -0.038103 -400518.000000 0 0 1
-4.288273 20.676967 -30.741856 37.295951 -1.366302 2.539704 0.079654 -0.038215 -251967.000000 0 0 1
-3.834973 21.971067 -31.022506 38.207731 -1.397991 2.518270 0.097833 -0.041452 -224963.000000 0 0 1
-3.589173 22.168867 -32.465376 39.475834 -1.410288 2.536433 0.095361 -0.038678 -1111110.000000 0 0 1
-2.546073 21.434767 -32.921816 39.367216 -1.452568 2.561250 0.093206 -0.036480 -839823.000000 0 0 1
-2.242973 21.681167 33.365638 39.854357 -1.467710 0.578673 0.098232 -0.019949 -45905.700000 0 0 1
-0.957873 20.957067 32.909946 39.027948 -1.525122 0.567513 0.112024 -0.016936 82659.300000 0 0 1
-1.150273 19.573267 32.850814 38.257181 -1.512096 0.538101 0.090560 -0.000735 -584597.000000 0 0 1
-0.056873 18.981067 32.256904 37.427156 -1.567800 0.531874 0.090232 -0.012252 -602118.000000 0 0 1
-0.299073 17.602567 31.656536 36.222591 -1.553808 0.507536 0.077468 -0.015214 100041.000000 0 0 1
-0.972273 17.630367 30.403955 35.159290 -1.515704 0.526146 0.053635 -0.010319 284124.000000 0 0 1
-1.515273 16.344467 30.050555 34.241401 -1.478352 0.499945 0.054585 -0.011419 -169810.000000 0 0 1
-2.782673 16.370767 29.190205 33.582933 -1.402427 0.517219 0.058776 -0.012109 -503424.000000 0 0 1
-3.924173 16.757467 29.898265 34.498088 -1.340767 0.522319 0.032186 -0.019783 -403162.000000 0 0 1
-4.431773 18.021867 29.394705 34.763156 -1.329670 0.563163 0.045888 -0.014495 -450332.000000 0 0 1
-5.920673 18.238067 29.595555 35.264406 -1.256897 0.574899 0.034501 -0.029459 -617266.000000 0 0 1
-6.756573 17.743267 28.601325 34.329442 -1.206954 0.586030 0.034939 -0.024832 410302.000000 0 0 1
-8.067573 18.356367 28.638595 34.960136 -1.156711 0.610819 0.043612 -0.026494 935094.000000 0 0 1
-9.005773 17.661367 27.590565 33.974507 -1.099249 0.623061 0.042753 -0.025518 11662.600000 0 0 1
-9.263773 16.280467 27.881705 33.589590 -1.053474 0.591563 0.047596 -0.034607 470667.000000 0 0 1
-10.145173 15.991067 28.989895 34.627342 -1.005446 0.578659 0.051286 -0.030761 -111844.000000 0 0 1
-10.694673 14.549667 29.217525 34.347236 -0.936935 0.553573 0.051527 -0.034032 534228.000000 0 0 1
-9.761373 13.481867 29.555185 33.919819 -0.944120 0.512900 0.053890 -0.028241 675134.000000 0 0 1
-9.042373 13.595067 30.775275 34.838311 -0.983864 0.487782 0.053035 -0.028154 -198324.000000 0 0 1
-9.860873 13.107467 31.960952 35.924156 -0.925819 0.474156 0.101335 -0.033970 -220610.000000 0 0 1
-10.164373 11.724067 31.968030 35.534816 -0.856534 0.451885 0.115702 -0.031998 462511.000000 0 0 1
-10.670773 11.346667 33.267427 36.733281 -0.816087 0.437891 0.120698 -0.031070 -47081.700000 0 0 1
-11.018773 9.891967 33.434301 36.566609 -0.731564 0.416922 0.115563 -0.031727 -444436.000000 0 0 1
-9.874673 9.141467 33.728535 36.313767 -0.746860 0.379612 0.117384 -0.035938 -101783.000000 0 0 1
-10.013973 8.395967 -32.758536 35.268876 -0.697736 2.762019 0.149468 -0.047651 -99590.400000 0 0 1
-9.262873 8.934867 -31.525316 34.051112 -0.767376 2.754005 0.116448 -0.046256 -355789.000000 0 0 1
-9.803773 10.185767 -31.138226 34.197265 -0.804506 2.715402 0.113219 -0.043906 611930.000000 0 0 1
-8.853673 10.871367 -30.322366 33.406886 -0.887335 2.708490 0.110305 -0.047978 89206.700000 0 0 1
-7.945573 11.763867 -31.129526 34.213566 -0.976757 2.713741 0.069678 -0.036196 -470647.000000 0 0 1
-8.636673 12.897367 -31.516996 35.131969 -0.980734 2.683965 0.062711 -0.024144 464440.000000 0 0 1
-7.709773 13.868567 -32.042926 35.756494 -1.063422 2.681796 0.026832 -0.017683 315891.000000 0 0 1
-8.254973 15.307067 -32.071316 36.483149 -1.076212 2.644708 0.034101 -0.016758 -295997.000000 0 0 1
-8.905673 15.571467 -33.287116 37.812877 -1.051278 2.647315 0.057209 -0.022792 -57516.200000 0 0 1
-9.139673 16.983767 -33.381706 38.552824 -1.077103 2.617682 0.059853 -0.029342 -775118.000000 0 0 1
-9.533673 17.317967 32.841205 38.332071 -1.067563 0.541851 0.059035 -0.034103 -50399.500000 0 0 1
-10.566973 16.603367 32.239690 37.772084 -1.004016 0.548069 0.047199 -0.035412 -503257.000000 0 0 1
-11.862073 16.820767 32.733513 38.666909 -0.956586 0.561324 0.072903 -0.032956 -987103.000000 0 0 1
-12.923573 16.265967 31.771527 37.960906 -0.899408 0.579103 0.084353 -0.040374 -479930.000000 0 0 1
-13.121773 14.847567 31.740465 37.417754 -0.847023 0.558081 0.081348 -0.034179 -18262.600000 0 0 1
-14.017673 14.317767 32.667720 38.323277 -0.795989 0.550190 0.062786 -0.025226 -348398.000000 0 0 1
-14.275173 12.795167 32.528456 37.757083 -0.730780 0.532542 0.074654 -0.028981 93097.900000 0 0 1
-14.660873 12.322367 31.230285 36.634856 -0.698949 0.550095 0.068111 -0.025352 332871.000000 0 0 1
-13.567073 11.649067 30.628515 35.466494 -0.709482 0.528449 0.091473 -0.030025 126636.000000 0 0 1
-13.909773 10.932567 29.297655 34.225070 -0.666123 0.543258 0.086240 -0.032234 129168.000000 0 0 1
-14.909373 9.915067 29.313795 34.349622 -0.586863 0.548332 0.084823 -0.026456 378234.000000 0 0 1
-15.095873 9.481167 28.029155 33.217638 -0.560799 0.566465 0.079954 -0.027779 467812.000000 0 0 1
-16.038373 8.241067 27.945165 33.257734 -0.474654 0.573033 0.076544 -0.027100 435011.000000 0 0 1
-15.300773 7.134067 28.417695 33.054107 -0.436289 0.536050 0.073715 -0.020556 16341.700000 0 0 1
-15.880273 5.939067 27.996465 32.730073 -0.357885 0.544523 0.069808 -0.011769 -526577.000000 0 0 1
-14.985673 4.679967 28.012455 32.111838 -0.302699 0.510827 0.083544 -0.012358 -483361.000000 0 0 1
-13.940273 4.757967 27.095115 30.840148 -0.328913 0.497944 0.087250 -0.023490 -411039.000000 0 0 1
-14.312373 4.525267 25.762855 29.816887 -0.306233 0.527565 0.077857 -0.020470 -97665.400000 0 0 1
-13.131273 4.156567 24.791735 28.360845 -0.306561 0.507106 0.072046 -0.018444 509105.000000 0 0 1
-12.450273 2.941167 25.129315 28.198267 -0.231980 0.470889 0.062957 -0.020443 231367.000000 0 0 1
-11.448473 2.656767 24.183865 26.888386 -0.228027 0.452363 0.046103 -0.020935 -670009.000000 0 0 1
-10.517673 1.530467 24.592585 26.791025 -0.144500 0.407937 0.039159 -0.004727 -1028960.000000 0 0 1
-9.204773 1.902067 24.320445 26.073545 -0.203771 0.368793 0.031472 -0.021657 -955041.000000 0 0 1
-8.298373 0.907567 24.663185 26.037653 -0.108934 0.326370 0.036188 -0.014649 -534952.000000 0 0 1
-6.851973 1.354667 24.415605 25.395008 -0.195188 0.278630 0.044637 -0.026801 -688892.000000 0 0 1
-6.572273 1.507967 23.059985 24.025646 -0.225540 0.284482 0.040027 -0.026628 539662.000000 0 1 0
-5.186773 1.566467 22.691125 23.329029 -0.293302 0.234390 0.045232 -0.027100 529515.000000 0 1 0
-4.519173 2.963567 22.843615 23.474165 -0.580425 0.232304 0.064907 -0.040519 -429572.000000 0 1 0
-4.400773 3.313467 24.211345 24.830125 -0.645373 0.223717 0.068585 -0.040757 -49915.300000 0 1 0
-3.910473 4.598467 24.345655 25.082835 -0.866078 0.243043 0.065279 -0.050446 -668912.000000 0 0 1
4.220327 -23.509333 12.639024 27.023042 -1.393171 1.084095 0.133373 -0.034252 298229.000000 0 0 1
3.871427 -24.828333 12.982824 28.284055 -1.416114 1.093909 0.148279 -0.043778 -640583.000000 0 0 1
2.491727 -25.070383 12.870324 28.290953 -1.471732 1.098506 0.132456 -0.050029 -227643.000000 0 0 1
2.056927 -26.287893 13.662624 29.697669 -1.492709 1.092737 0.123442 -0.046182 -236125.000000 0 0 1
1.826227 -26.152783 15.070224 30.239293 -1.501080 1.049084 0.146586 -0.041785 1149.960000 0 0 1
2.016327 -27.350383 15.725324 31.613207 -1.497207 1.050164 0.145706 -0.046685 -577684.000000 0 0 1
1.970027 -27.316213 17.296624 32.391815 -1.498802 1.007494 0.141468 -0.044049 -319718.000000 0 0 1
3.039827 -26.713493 17.965524 32.335914 -1.457490 0.981723 0.150769 -0.042334 -274274.000000 0 0 1
2.981627 -26.984023 19.351124 33.339070 -1.460747 0.951535 0.141684 -0.041652 487337.000000 0 0 1
3.934827 -26.151673 20.273824 33.322977 -1.421455 0.916749 0.113090 -0.037964 572308.000000 0 0 1
3.276727 -24.944333 20.601924 32.517625 -1.440183 0.884648 0.111247 -0.034386 449089.000000 0 0 1
4.112927 -24.223033 21.485824 32.639120 -1.402606 0.852259 0.077670 -0.029871 111422.000000 0 0 1
3.357227 -23.140333 22.280224 32.297900 -1.426720 0.809535 0.089683 -0.034953 137131.000000 0 0 1
2.749027 -22.074333 21.517824 30.949153 -1.446899 0.802010 0.104466 -0.032311 102808.000000 0 0 1
3.701027 -21.302233 20.861124 30.044454 -1.398775 0.803291 0.091851 -0.020127 -97191.900000 0 0 1
2.994327 -20.205333 20.004224 28.590041 -1.423672 0.795830 0.060078 -0.007953 -9543.150000 0 0 1
2.775027 -18.939933 20.692724 28.188839 -1.425314 0.746493 0.038564 -0.012401 38190.600000 0 0 1
2.055827 -18.097533 19.816424 26.915382 -1.457684 0.743286 0.015115 -0.015228 159692.000000 0 0 1
1.512227 -16.831033 20.594324 26.640133 -1.481189 0.687151 0.043494 -0.010205 412275.000000 0 0 1
2.505627 -15.837633 20.749824 26.223348 -1.413890 0.657908 0.011800 0.007642 306981.000000 0 0 1
1.847827 -14.623733 21.074724 25.717932 -1.445104 0.610334 0.022002 -0.000728 716355.000000 0 0 1
2.692627 -13.344833 20.690024 24.767154 -1.371697 0.581970 -0.004642 0.003890 -312164.000000 0 1 0
2.833527 -13.129733 19.259924 23.481129 -1.358246 0.608984 -0.011631 -0.010112 704668.000000 0 1 0
1.615027 -12.809533 18.539324 22.592012 -1.445378 0.608311 -0.008430 -0.002609 706247.000000 0 1 0
0.859027 -11.562833 19.026824 22.281317 -1.496640 0.547293 -0.015118 -0.011568 -799997.000000 0 1 0
1.575427 -10.353933 18.942624 21.645067 -1.419797 0.505056 -0.008349 -0.006798 -450916.000000 0 1 0
1.349727 -9.322433 19.943024 22.055696 -1.427013 0.441265 0.006953 -0.020200 -978039.000000 0 1 0
-0.054373 -8.801833 20.066724 21.912294 1.564619 0.413364 0.022555 -0.023839 -868894.000000 0 1 0
-0.440273 -8.009833 21.195824 22.663059 1.515885 0.361807 0.030281 -0.027654 -1205490.000000 0 1 0
-1.671073 -7.440533 20.974624 22.317905 1.349872 0.348718 0.029440 -0.027211 -859217.000000 0 1 0
-2.176873 -6.805433 22.271324 23.389412 1.261209 0.310448 0.035080 -0.021492 -210373.000000 0 1 0
-2.361773 -7.710233 23.317924 24.672885 1.273555 0.332948 0.040207 -0.017669 -73712.300000 0 1 0
-2.546173 -7.132933 24.560824 25.702059 1.227934 0.299115 0.048702 -0.013348 -136376.000000 0 0 1
-2.683373 -8.150833 25.700524 27.095267 1.252757 0.322252 0.058360 -0.014159 -257672.000000 0 0 1
-1.540273 -8.924433 25.941624 27.477005 1.399889 0.335878 0.051149 -0.015394 -389715.000000 0 0 1
-1.614073 -9.720933 27.094524 28.830800 1.406256 0.348819 0.063484 -0.030318 -263403.000000 0 0 1
-0.466673 -10.724233 27.258024 29.295509 1.527308 0.375156 0.075053 -0.034516 -65382.000000 0 0 1
0.788027 -10.113233 27.539524 29.348319 -1.493033 0.352918 0.069908 -0.031187 -454707.000000 0 0 1
1.664527 -11.191933 27.723524 29.943677 -1.423153 0.387502 0.088480 -0.042180 -235476.000000 0 0 1
2.883327 -10.657133 28.520324 30.582625 -1.306568 0.369339 0.111906 -0.044779 -296503.000000 0 0 1
2.467527 -10.262733 29.778124 31.593497 -1.334839 0.340644 0.108231 -0.058716 -182768.000000 0 0 1
3.487527 -9.852133 30.652624 32.385347 -1.230574 0.328595 0.138083 -0.050546 -441801.000000 0 0 1
2.906827 -9.359633 32.031524 33.497327 -1.269670 0.296923 0.137585 -0.063179 -315040.000000 0 0 1
2.173027 -10.336133 32.764224 34.424585 -1.363578 0.311848 0.132021 -0.062349 54077.100000 0 0 1
2.013827 -10.202233 -33.513737 35.090050 -1.375911 2.840719 0.110930 -0.063270 65564.900000 0 0 1
3.296027 -10.454433 -32.655637 34.446329 -1.265385 2.817735 0.104673 -0.047936 198277.000000 0 0 1
4.252327 -9.426533 -32.763037 34.356344 -1.147026 2.835851 0.091357 -0.060031 -19032.200000 0 0 1
4.513627 -8.834533 -31.522737 33.047008 -1.098461 2.836688 0.116976 -0.058082 434917.000000 0 0 1
3.476827 -7.710333 -31.057437 32.188538 -1.147169 2.875707 0.101478 -0.049574 316486.000000 0 0 1
3.448127 -6.597733 -31.870437 32.728343 -1.089215 2.912123 0.142005 -0.057142 -122584.000000 0 0 1
2.514227 -5.619233 -31.510537 32.106246 -1.150080 2.948658 0.107221 -0.037348 -158763.000000 0 0 1
2.714127 -4.360433 -32.359337 32.764410 -1.014037 2.984184 0.115144 -0.040431 -153811.000000 0 0 1
2.229527 -4.501633 -33.688737 34.061217 -1.110939 2.993568 0.108861 -0.049065 33951.800000 0 0 1
2.601327 -3.292633 33.333524 33.596609 -0.902155 0.125227 0.126230 -0.034706 338285.000000 0 0 1
1.874727 -3.080733 31.972224 32.174969 -1.024126 0.112321 0.134695 -0.041247 263489.000000 0 0 1
0.513627 -2.719333 31.992224 32.111696 -1.384116 0.086288 0.133741 -0.040300 -425536.000000 0 0 1
-0.123473 -3.156333 30.837324 30.998681 1.531697 0.102077 0.124644 -0.029076 212881.000000 0 0 1
-1.664573 -3.266833 30.986824 31.202985 1.099548 0.117776 0.106500 -0.031062 83727.700000 0 0 1
-2.342273 -2.126233 30.567724 30.730976 0.737088 0.103121 0.111373 -0.026317 191920.000000 0 0 1
-3.727273 -2.456933 30.449524 30.775032 0.582800 0.145573 0.079016 -0.029185 271588.000000 0 0 1
-4.679273 -1.469533 29.836124 30.236558 0.304298 0.162928 0.060276 -0.019802 -519256.000000 0 0 1
-4.607573 -1.554433 28.427424 28.840327 0.325374 0.169417 0.058917 -0.021698 -439732.000000 0 0 1
-5.691973 -1.046633 27.717824 28.315575 0.181847 0.205840 0.038458 -0.027207 -354860.000000 0 0 1
-5.895373 0.521567 27.792524 28.415697 -0.088241 0.209815 0.061336 -0.030845 -208073.000000 0 0 1
-6.922073 0.898567 28.670624 29.508087 -0.129090 0.238814 0.052136 -0.024332 -314037.000000 0 0 1
-7.201973 2.293867 28.645024 29.625456 -0.308347 0.257986 0.058989 -0.025115 -495812.000000 0 0 1
-8.551273 2.609867 29.267224 30.602387 -0.296223 0.296481 0.060988 -0.024086 89118.100000 0 0 1
-9.665373 2.192367 28.446824 30.123873 -0.223053 0.335250 0.059142 -0.014351 820707.000000 0 0 1
-10.897273 2.660167 29.009324 31.102539 -0.239430 0.368969 0.059069 -0.017948 356287.000000 0 0 1
-12.105573 2.041167 28.291424 30.840168 -0.167043 0.409409 0.059057 -0.013833 -276185.000000 0 0 1
-12.329873 0.660367 28.601424 31.152902 -0.053507 0.407541 0.056205 -0.003159 186978.000000 0 0 1
-12.197473 -0.100933 27.394524 29.987472 0.008275 0.418911 0.048412 0.003747 -906975.000000 0 0 1
-12.160773 -1.590733 27.761924 30.350276 0.130070 0.415988 0.057699 0.000711 467637.000000 0 0 1
-10.899273 -2.125433 28.215524 30.322062 0.192590 0.374945 0.051436 -0.010614 1402930.000000 0 0 1
-9.790073 -2.062833 27.305624 29.080886 0.207669 0.351218 0.053057 -0.005490 -190584.000000 0 0 1
-9.911873 -2.764633 25.914024 27.882343 0.272008 0.377996 0.042889 -0.001663 -566041.000000 0 0 1
-10.809873 -2.130333 24.981824 27.303538 0.194579 0.415371 0.036582 -0.001445 634239.000000 0 0 1
-10.832173 -2.730433 23.710924 26.210669 0.246923 0.440289 0.036096 0.001410 -568466.000000 0 0 1
-9.885773 -2.091033 22.690824 24.838970 0.208447 0.418949 0.029914 -0.006833 521231.000000 0 1 0
-8.542273 -2.421133 23.087024 24.735460 0.276186 0.367141 0.027834 -0.008222 85748.800000 0 1 0
-7.655173 -2.121733 22.041324 23.429114 0.270376 0.345913 0.019427 -0.013274 286358.000000 0 1 0
-6.153373 -2.090933 22.480724 23.401260 0.327562 0.281417 0.034062 -0.015534 1066610.000000 0 1 0
-5.340473 -3.260133 22.723824 23.569499 0.548074 0.268688 0.027177 -0.011497 145312.000000 0 1 0
-5.914773 -4.163833 23.578024 24.662629 0.613387 0.297670 0.034848 -0.012328 -700872.000000 0 1 0
-5.714373 -5.672633 23.197824 24.555486 0.781733 0.334086 0.044979 -0.012182 16400.900000 0 1 0
-6.485673 -6.325633 22.165124 23.945152 0.772907 0.388014 0.039189 -0.014631 63675.300000 0 1 0
-6.163873 -5.907933 20.891524 22.568845 0.764200 0.387968 0.034732 -0.017583 -142471.000000 0 1 0
-7.365373 -5.978033 19.883624 22.030527 0.681798 0.445144 0.032997 -0.013219 -46444.400000 0 1 0
-8.213073 -4.910233 20.183524 22.336956 0.538841 0.442712 0.025146 -0.009470 -678259.000000 0 1 0
-9.206473 -4.898633 19.172624 21.825335 0.488986 0.498172 0.027402 -0.003162 27795.500000 0 1 0
-9.864473 -3.501133 19.213124 21.879440 0.341054 0.498844 0.020634 -0.005147 89443.900000 0 1 0
-8.949373 -2.545133 18.766124 20.946035 0.277077 0.460282 0.013373 -0.006498 369861.000000 0 1 0
-9.640673 -1.331333 18.907524 21.265218 0.137228 0.475358 0.016893 -0.003831 346858.000000 0 1 0
-8.715573 -0.203533 18.376424 20.339508 0.023349 0.442966 0.014134 -0.003813 42826.000000 0 1 0
-7.666573 0.107767 19.266324 20.735940 -0.014056 0.378751 0.016264 0.002408 -249675.000000 0 1 0
-7.846673 0.965267 20.374824 21.854873 -0.122401 0.370136 0.026349 -0.000563 -491918.000000 0 1 0
-7.750473 2.489667 20.075624 21.663309 -0.310816 0.385233 0.025842 -0.012926 -24070.500000 0 1 0
-8.822573 2.849867 19.238124 21.355677 -0.312440 0.449088 0.020632 -0.019193 105059.000000 0 1 0
-8.693173 4.218067 18.966924 21.286323 -0.451751 0.471169 0.019576 -0.018761 213527.000000 0 1 0
-9.537673 4.685067 17.754924 20.691892 -0.456597 0.539313 0.022683 -0.009752 1192580.000000 0 1 0
-10.950073 4.937667 17.996024 21.636579 -0.423623 0.588560 0.030066 -0.005671 1161220.000000 0 1 0
-11.517273 5.669467 16.934724 21.250302 -0.457435 0.648622 0.025907 0.005764 -150364.000000 0 1 0
-11.363573 7.218867 17.019024 21.700000 -0.565946 0.669251 0.030910 0.004009 -270022.000000 0 1 0
-10.012673 7.613567 16.927124 21.089039 -0.650120 0.639071 0.011780 0.006730 147344.000000 0 1 0
-9.930973 9.011267 16.735624 21.445472 -0.736883 0.675523 -0.000297 -0.000278 288697.000000 0 1 0
-8.544673 9.515367 17.195724 21.430039 -0.839095 0.639470 -0.004817 0.009213 136210.000000 0 1 0
-8.558173 9.870667 18.573624 22.707970 -0.856498 0.612985 0.010569 0.025511 -138442.000000 0 1 0
-8.170573 11.223967 18.916324 23.464079 -0.941552 0.633125 0.027949 0.023033 -7285.850000 0 1 0
-8.937173 12.479767 18.274424 23.865712 -0.949325 0.698638 0.035969 0.012498 206566.000000 0 1 0
-8.626673 12.639367 16.891724 22.792618 -0.971896 0.736082 0.020638 0.004116 -386935.000000 0 1 0
-9.439173 13.583867 16.211224 23.160812 -0.963514 0.795480 0.033339 -0.012207 -196317.000000 0 1 0
-9.052773 14.204067 14.794624 22.418500 -1.003375 0.850072 0.030934 -0.012653 -163140.000000 0 1 0
-7.969973 15.088167 14.869824 22.633712 -1.084823 0.853995 0.030629 0.001248 -443458.000000 0 1 0
-7.717973 15.659667 13.576024 22.115621 -1.112880 0.909848 0.025868 -0.004347 -345460.000000 0 1 0
-6.585873 16.648767 13.429124 22.380718 -1.194108 0.927256 0.013240 -0.002979 376391.000000 0 1 0
-5.263373 16.144967 13.643024 21.782910 -1.255654 0.893976 0.013736 -0.010460 294030.000000 0 1 0
-4.305573 17.161867 13.458324 22.230477 -1.324989 0.920528 0.016720 -0.017292 -44746.500000 0 1 0
-2.818773 16.792867 13.479624 21.717415 -1.404491 0.901183 0.023029 -0.023179 -257340.000000 0 1 0
-2.193073 16.437667 14.666024 22.138174 -1.438162 0.846676 0.032860 -0.021026 -239444.000000 0 1 0
-2.618973 15.142167 15.129724 21.565083 -1.399532 0.793178 0.025941 -0.014483 33867.300000 0 1 0
-1.690073 14.493267 16.218024 21.815945 -1.454710 0.732653 0.032775 -0.013697 1108180.000000 0 1 0
-0.442373 13.948467 15.704824 21.009449 -1.539092 0.726487 0.045140 -0.034977 1133690.000000 0 1 0
0.403727 13.448367 16.769524 21.499733 1.540785 0.676150 0.050165 -0.009536 348313.000000 0 1 0
1.411527 14.441067 17.307224 22.584881 1.473362 0.697704 0.046886 -0.023607 -848437.000000 0 1 0
0.781227 15.422067 18.096924 23.789685 1.520183 0.706398 0.044635 -0.031977 -375494.000000 0 1 0
1.637627 16.432267 18.565924 24.847430 1.471465 0.726962 0.070042 -0.035741 -487163.000000 0 1 0
0.916327 17.704067 19.042224 26.016916 1.519084 0.749665 0.078825 -0.031857 504711.000000 0 0 1
0.351227 18.560667 17.987024 25.848690 1.551875 0.801182 0.053483 -0.025340 450844.000000 0 0 1
-0.866473 18.131867 17.383824 25.133896 -1.523045 0.807027 0.054073 -0.021346 -150231.000000 0 0 1
-1.485973 19.190267 16.448324 25.318409 -1.493517 0.863661 0.048163 -0.016586 -236660.000000 0 0 1
-2.027773 20.186667 17.257824 26.635425 -1.470681 0.865936 0.045854 -0.010753 -292072.000000 0 0 1
-2.845573 21.004467 16.438024 26.823377 -1.436141 0.911166 0.054196 -0.017745 -339752.000000 0 0 1
-3.435373 22.199167 17.203024 28.293972 -1.417262 0.917244 0.044824 -0.010878 -832983.000000 0 0 1
-4.535273 21.774667 17.921224 28.563527 -1.365450 0.892566 0.059211 -0.010221 -780224.000000 0 0 1
-5.158573 22.786067 18.666924 29.904344 -1.348158 0.896662 0.064048 -0.005595 224172.000000 0 0 1
-6.264673 22.288967 19.625824 30.351559 -1.296799 0.867656 0.057182 -0.010112 798672.000000 0 0 1
-7.607873 22.213867 19.126624 30.284705 -1.240834 0.887232 0.049936 -0.006521 59954.700000 0 0 1
-8.469273 21.862367 20.147124 30.912753 -1.201207 0.860918 0.031049 -0.010771 546348.000000 0 0 1
-9.966573 22.112567 19.716324 31.257505 -1.147344 0.888250 0.041900 -0.013249 657803.000000 0 0 1
-10.283273 23.497967 19.579424 32.268468 -1.158282 0.918810 0.060102 -0.021014 718842.000000 0 0 1
-11.571873 23.631467 18.942324 32.421692 -1.115438 0.946843 0.039823 -0.015834 768304.000000 0 0 1
-12.139273 25.039767 19.015824 33.703909 -1.119383 0.971330 0.044539 -0.019332 -183504.000000 0 0 1
-12.619273 25.319267 20.323924 34.833507 -1.108425 0.947815 0.040368 -0.018662 280226.000000 0 0 1
-13.261173 26.598667 20.330424 36.009359 -1.108297 0.970863 0.052335 -0.024763 -285577.000000 0 0 1
-14.108973 26.938767 21.545724 37.269002 -1.088336 0.954381 0.082264 -0.034941 -168177.000000 0 0 1
-15.400173 26.371267 21.585724 37.397226 -1.042243 0.955499 0.084550 -0.037031 -217347.000000 0 0 1
-16.113573 26.474467 22.757424 38.450553 -1.024044 0.937429 0.078149 -0.029298 -20019.000000 0 0 1
-17.568073 26.020667 22.500324 38.626117 -0.976938 0.948976 0.095425 -0.027598 -360.825000 0 0 1
-17.758273 24.609367 22.543424 37.804539 -0.945716 0.931893 0.101887 -0.023854 -114820.000000 0 0 1
-19.125573 24.247867 22.623624 38.282829 -0.902951 0.938548 0.106252 -0.015705 256655.000000 0 0 1
28.352127 23.930867 23.302145 43.812321 0.701035 1.009998 0.129154 -0.036983 38252.800000 0 0 1
28.375227 23.255167 24.557595 44.147840 0.686554 0.980920 0.136385 -0.045489 119788.000000 0 0 1
28.443327 21.869267 24.307565 43.337575 0.655470 0.975337 0.132828 -0.042694 -293948.000000 0 0 1
28.048227 21.050567 25.549795 43.389186 0.643830 0.941159 0.157351 -0.047078 -43897.500000 0 0 1
26.675027 21.210267 25.874025 42.788990 0.671768 0.921421 0.153797 -0.040533 190033.000000 0 0 1
26.308027 20.449967 26.981325 42.875463 0.660763 0.890150 0.151950 -0.045770 -56060.500000 0 0 1
24.822927 20.564367 27.380785 42.293951 0.691845 0.866638 0.165716 -0.054095 -102035.000000 0 0 1
24.430427 21.759167 28.021185 43.075445 0.727630 0.862535 0.165444 -0.057459 -368681.000000 0 0 1
23.081527 21.682967 28.380795 42.525022 0.754166 0.840097 0.210601 -0.059748 -554828.000000 0 0 1
22.520327 22.911167 29.116435 43.357277 0.794001 0.834502 0.210506 -0.069398 -340520.000000 0 0 1
22.549827 24.043367 28.255165 43.415810 0.817442 0.862154 0.175022 -0.056388 40946.800000 0 0 1
22.251727 25.296367 28.838285 44.347404 0.849344 0.862842 0.156686 -0.045716 1057670.000000 0 0 1
20.834227 25.589067 29.520175 44.275344 0.887466 0.840969 0.146873 -0.042963 191513.000000 0 0 1
19.840427 25.708967 28.542795 43.235225 0.913531 0.849745 0.139759 -0.045958 64917.400000 0 0 1
18.566127 26.169167 28.960295 43.222969 0.953746 0.836559 0.117772 -0.037523 469998.000000 0 0 1
17.670027 25.192167 29.742435 42.795883 0.959125 0.802399 0.077252 -0.033092 -743248.000000 0 0 1
18.150427 24.949267 31.003695 43.739376 0.941856 0.782961 0.094694 -0.031794 -555478.000000 0 0 1
17.121427 24.472367 31.793941 43.622181 0.960324 0.754158 0.049230 -0.021534 -180335.000000 0 0 1
17.609427 24.103967 33.249955 44.683919 0.939852 0.731588 0.078142 -0.021568 73690.800000 0 0 1
18.010327 25.124467 -33.532716 45.607606 0.948855 2.396823 0.081710 -0.028388 87237.800000 0 0 1
18.331927 24.550367 -32.256586 44.488958 0.929406 2.381899 0.053074 -0.005794 -91023.400000 0 0 1
18.750427 25.606667 -31.213946 44.515057 0.938754 2.347875 0.044060 0.012309 -148631.000000 0 0 1
17.779327 26.609067 -31.066216 44.601084 0.981755 2.341353 0.046308 -0.004676 42714.600000 0 0 1
18.372727 27.766267 -30.539496 45.179459 0.986245 2.313063 0.067279 -0.008601 113722.000000 0 0 1
17.645127 28.344367 -29.288926 44.413904 1.013978 2.290889 0.077118 -0.003162 -122376.000000 0 0 1
18.001127 27.622267 -28.157276 43.357380 0.993235 2.277622 0.043321 0.006934 149863.000000 0 0 1
17.653427 28.190967 -26.879726 42.765568 1.011328 2.250467 0.031871 0.013129 -226987.000000 0 0 1
18.126427 27.430567 -25.568496 41.650346 0.986858 2.231768 0.023452 0.016665 -702612.000000 0 0 1
19.510227 27.406967 -25.647606 42.303552 0.952148 2.222165 0.025608 0.011808 -1257380.000000 0 0 1
20.096827 26.790367 -24.499176 41.494769 0.927198 2.202371 0.025718 0.009215 175502.000000 0 0 1
21.614927 27.058867 -24.555476 42.454196 0.896781 2.187561 0.022146 0.006194 75686.800000 0 0 1
22.276227 26.616567 -23.381876 41.849541 0.873939 2.163629 0.035877 0.001464 57629.600000 0 0 1
23.683627 26.511567 -23.540976 42.637483 0.841678 2.155700 0.039287 -0.001400 219513.000000 0 0 1
24.346927 26.488267 -22.187176 42.269042 0.827496 2.123398 0.052979 -0.006603 -29007.400000 0 0 1
23.880327 25.380367 -21.428876 40.910020 0.815840 2.122108 0.064736 -0.015959 -28443.500000 0 0 1
24.671827 25.318367 -20.272176 40.751440 0.798331 2.091464 0.070998 -0.012906 -8121.080000 0 0 1
24.352527 24.223067 -19.162376 39.331911 0.782733 2.079673 0.080330 -0.017615 -827571.000000 0 0 1
24.685027 22.940867 -19.610276 38.989702 0.748792 2.097817 0.071168 -0.007413 204629.000000 0 0 1
24.560727 22.011267 -18.583576 37.855970 0.730710 2.083921 0.085273 -0.019091 -459718.000000 0 0 1
24.885127 20.479967 -18.998376 37.411721 0.688597 2.103447 0.100258 -0.020556 855066.000000 0 0 1
24.009827 19.895767 -20.013976 37.052295 0.691969 2.141417 0.090457 -0.018869 1366350.000000 0 0 1
22.625227 19.715467 -19.638876 35.864829 0.716784 2.150266 0.083247 -0.024153 693981.000000 0 0 1
21.824927 19.596067 -20.974376 36.059087 0.731640 2.191573 0.080441 -0.010214 -60799.700000 0 0 1
21.639027 20.733367 -21.839576 37.082166 0.764028 2.200556 0.077131 -0.005994 -77968.800000 0 0 1
21.340727 21.999067 -21.268876 37.306175 0.800587 2.177444 0.069588 -0.010265 -82698.300000 0 0 1
20.867227 22.853767 -22.485876 38.253764 0.830804 2.199143 0.061270 -0.006667 -254324.000000 0 0 1
19.526427 22.646267 -22.819376 37.614607 0.859241 2.222652 0.070238 -0.002728 -661746.000000 0 0 1
19.233827 23.177867 -24.112876 38.582177 0.878126 2.245895 0.061660 -0.002681 314328.000000 0 0 1
17.700327 23.324567 -24.277676 38.036069 0.921642 2.263059 0.054246 0.002854 216072.000000 0 0 1
17.148727 24.436267 -23.586176 38.046257 0.958881 2.239455 0.052059 -0.012980 504969.000000 0 0 1
15.724327 24.261767 -23.529076 37.276067 0.995750 2.253910 0.051309 -0.009978 936742.000000 0 0 1
15.068527 25.520667 -22.888976 37.446898 1.037433 2.228420 0.045435 -0.002300 -59892.200000 0 0 1
15.087727 26.580167 -23.842576 38.763555 1.054518 2.233280 0.042949 0.008269 -19652.600000 0 0 1
14.298827 27.670367 -23.409676 38.963041 1.093834 2.215320 0.076768 0.001055 155992.000000 0 0 1
14.439227 28.920367 -24.347676 40.468361 1.107729 2.216358 0.080473 -0.004368 -55034.600000 0 0 1
14.131927 28.755967 -25.684146 41.064490 1.114017 2.246516 0.076655 -0.019278 -126999.000000 0 0 1
13.701727 29.948867 -26.294226 42.143306 1.141720 2.244550 0.116685 -0.036784 183506.000000 0 0 1
14.669427 31.199567 -26.322826 43.376217 1.131288 2.222887 0.116480 -0.038506 905636.000000 0 0 1
15.928727 31.018067 -26.989716 44.094099 1.096383 2.229502 0.078151 -0.014965 576588.000000 0 0 1
16.592627 32.282767 -27.074076 45.282424 1.096029 2.211667 0.074472 -0.027670 393840.000000 0 0 1
18.065627 32.091867 -27.542666 45.987534 1.058077 2.212943 0.066967 -0.000613 427861.000000 0 0 1
18.942427 31.572467 -26.554076 45.395541 1.030401 2.195613 0.032533 0.005667 314867.000000 0 0 1
20.193627 31.201267 -27.091136 45.991644 0.996388 2.200673 0.031206 0.008141 156887.000000 0 0 1
21.230127 30.469267 -26.157996 45.423950 0.962240 2.184456 0.014710 0.017816 -2102.570000 0 0 1
21.765427 31.156967 -25.056876 45.522933 0.961028 2.153667 0.025497 0.011704 484746.000000 0 0 1
22.612927 32.284767 -25.339406 46.858683 0.959788 2.142139 0.022620 0.000827 -43573.800000 0 0 1
24.020227 32.177267 -25.964656 47.817478 0.929541 2.144796 0.005819 0.004907 -244995.000000 0 0 1
23.919127 31.493967 -27.135626 47.961826 0.921254 2.172170 0.005773 0.015125 173243.000000 0 0 1
25.059227 31.753267 -27.933056 49.157811 0.902684 2.175152 0.008789 0.019725 -285058.000000 0 0 1
24.926927 30.847367 -29.171626 49.233073 0.891152 2.204981 0.014967 0.014382 -257857.000000 0 0 1
24.029127 31.382967 -30.076606 49.667814 0.917339 2.221260 0.039746 0.000895 418111.000000 0 0 1
22.708327 30.828367 -29.928146 48.597842 0.935923 2.234239 0.028611 0.000509 506195.000000 0 0 1
21.641127 31.486567 -30.845226 49.103668 0.968636 2.249989 0.026472 0.002486 -702371.000000 0 0 1
21.388527 32.838967 -30.566386 49.700813 0.993497 2.233192 0.045613 -0.006298 833808.000000 0 0 1
20.371027 33.431167 -31.423746 50.200333 1.023536 2.247167 0.058279 -0.013895 1258890.000000 0 0 1
18.876827 33.067867 -31.103496 49.165495 1.052086 2.255739 0.071519 -0.019019 336102.000000 0 0 1
18.332827 31.748767 -31.414306 48.279761 1.047135 2.279266 0.097184 -0.026576 317875.000000 0 0 1
18.511527 31.211967 -32.737766 48.873560 1.035473 2.304798 0.097958 -0.032179 -300996.000000 0 0 1
17.789627 31.942267 33.755315 49.761436 1.062648 0.825291 0.117113 -0.037347 -306701.000000 0 0 1
18.291327 33.263367 33.622745 50.710090 1.068034 0.845926 0.100011 -0.030357 3948.160000 0 0 1
18.054927 -33.724770 32.353951 50.101085 -1.079262 0.868760 0.098271 -0.039181 127974.000000 0 0 1
16.594527 -33.272770 32.072158 49.102738 -1.108156 0.859040 0.110628 -0.044528 -1157250.000000 0 0 1
15.737627 33.257767 32.058406 48.800547 1.128816 0.854060 0.117837 -0.046602 -565593.000000 0 0 1
14.377027 33.566767 32.239143 48.711283 1.166124 0.847524 0.092601 -0.044957 151134.000000 0 0 1
13.658727 -33.318170 31.065395 47.557545 -1.181743 0.858971 0.085695 -0.044132 -1105910.000000 0 0 1
14.262027 -32.074570 30.721025 46.647238 -1.152399 0.851864 0.101627 -0.037985 549096.000000 0 0 1
13.518127 -31.520670 29.610585 45.310917 -1.165656 0.858600 0.096944 -0.044120 325988.000000 0 0 1
14.103227 -30.136370 29.267865 44.313765 -1.133091 0.849353 0.106289 -0.043705 470154.000000 0 0 1
13.463227 -29.200270 30.149615 44.078493 -1.138779 0.817567 0.109132 -0.042490 719893.000000 0 0 1
14.065427 -27.972870 29.883055 43.281806 -1.104892 0.808713 0.138433 -0.049587 -294218.000000 0 0 1
13.621927 -26.916770 30.941045 43.213629 -1.102300 0.772738 0.128622 -0.042994 1286840.000000 0 0 1
12.207527 -26.602270 31.032685 42.658317 -1.140574 0.756168 0.089592 -0.044010 1185290.000000 0 0 1
11.750727 -25.762570 29.999605 41.252466 -1.142868 0.756534 0.092678 -0.040989 -408970.000000 0 0 1
12.171327 -24.262670 30.189045 40.597990 -1.105831 0.732344 0.092429 -0.030897 -370085.000000 0 0 1
11.514527 -23.735470 31.277065 40.917132 -1.119124 0.700686 0.098898 -0.032089 185392.000000 0 0 1
12.099327 -22.476270 31.698312 40.698396 -1.076968 0.677952 0.094746 -0.027210 523219.000000 0 0 1
11.249627 -22.012370 32.932420 41.178184 -1.098340 0.643911 0.094666 -0.027630 -33954.800000 0 0 1
11.212627 -22.768770 -33.533266 42.054962 -1.113202 2.493717 0.091474 -0.027694 447623.000000 0 0 1
12.491127 -23.060470 -32.977276 42.134478 -1.074372 2.469736 0.075713 -0.028532 535974.000000 0 0 1
13.239927 -21.896970 -32.269816 41.183905 -1.026967 2.471162 0.059712 -0.027430 -270112.000000 0 0 1
13.721227 -20.922270 -33.125296 41.512633 -0.990341 2.494694 0.054637 -0.024506 -184316.000000 0 0 1
14.666427 -20.044170 -32.594626 40.979049 -0.939107 2.490459 0.042449 -0.024852 -268157.000000 0 0 1
14.865827 -18.805570 -33.483446 41.179891 -0.901874 2.520257 0.021526 -0.019397 -775221.000000 0 0 1
15.683027 -19.081770 33.052997 41.262233 -0.882852 0.641754 0.038952 -0.013000 373139.000000 0 0 1
15.531927 -18.097470 32.028056 39.931887 -0.861539 0.640048 0.032142 -0.013141 348523.000000 0 0 1
16.576227 -16.911670 32.029597 39.833039 -0.795415 0.636643 0.033613 -0.007952 -590423.000000 0 0 1
16.324927 -16.001170 33.066581 40.198750 -0.775383 0.604868 0.030811 -0.009097 559903.000000 0 0 1
17.122227 -14.816370 32.966802 39.993819 -0.713327 0.601836 0.038599 -0.014906 -311745.000000 0 0 1
18.597427 -14.901770 33.357938 40.996086 -0.675522 0.620331 0.055165 -0.006894 -802320.000000 0 0 1
19.291127 -15.669570 32.411614 40.843552 -0.682177 0.654167 0.064222 -0.011823 71491.700000 0 0 1
20.688227 -15.652570 32.731838 41.765763 -0.647707 0.670196 0.090215 -0.012655 653912.000000 0 0 1
21.522727 -16.366070 31.617887 41.602486 -0.650130 0.707483 0.107326 -0.024303 -192402.000000 0 0 1
21.719427 -15.499870 30.463255 40.496783 -0.619822 0.719343 0.094998 -0.016191 244912.000000 0 0 1
22.451027 -16.179270 29.485395 40.437680 -0.624449 0.753708 0.086730 -0.024698 -251370.000000 0 0 1
22.510127 -15.270370 28.221335 39.196094 -0.596067 0.766989 0.079909 -0.021517 -445545.000000 0 0 1
23.401027 -14.189170 28.341325 39.397606 -0.545074 0.767906 0.061076 -0.026954 334169.000000 0 0 1
23.333627 -13.372670 27.171065 38.230266 -0.520411 0.780273 0.055407 -0.023037 -59993.000000 0 0 1
24.137627 -12.072570 27.508585 38.536921 -0.463772 0.775853 0.048013 -0.019738 -66336.400000 0 0 1
23.592427 -11.361470 28.542405 38.734410 -0.448797 0.742361 0.067245 -0.028184 -7583.300000 0 0 1
24.193927 -10.116970 28.644615 38.835720 -0.396064 0.741311 0.058699 -0.028849 -199681.000000 0 0 1
23.122027 -9.045370 28.386935 37.712928 -0.372898 0.718626 0.080455 -0.021099 106658.000000 0 0 1
22.117427 -9.057170 29.375275 37.869773 -0.388672 0.682986 0.080741 -0.022613 -275392.000000 0 0 1
21.269127 -7.945770 29.276565 37.048999 -0.357527 0.659641 0.089646 -0.015677 -156731.000000 0 0 1
20.156327 -7.842270 30.328565 37.250511 -0.371051 0.619483 0.070410 0.000756 -143763.000000 0 0 1
20.518627 -7.443470 31.669787 38.462901 -0.348003 0.603445 0.068953 -0.003812 45998.600000 0 0 1
20.734527 -8.579670 32.475133 39.473607 -0.392335 0.604643 0.069818 -0.008642 -405044.000000 0 0 1
20.869227 -8.137870 -33.713106 40.476204 -0.371809 2.555145 0.071177 -0.019839 158421.000000 0 0 1
19.661327 -7.700370 -33.100536 39.262055 -0.373288 2.573757 0.052812 -0.019468 231743.000000 0 0 1
19.841327 -7.067170 -31.872706 38.203305 -0.342174 2.557643 0.062670 -0.028961 -1772260.000000 0 0 1
18.548527 -6.663570 -31.317266 37.003002 -0.344892 2.579880 0.070402 -0.029703 -1493470.000000 0 0 1
18.641027 -5.953670 -30.121966 35.920285 -0.309145 2.565464 0.072976 -0.026700 -618090.000000 0 0 1
17.372427 -5.943870 -29.581376 34.816499 -0.329659 2.586092 0.089470 -0.024450 -1410160.000000 0 0 1
17.196927 -4.869870 -28.475216 33.619754 -0.275957 2.581073 0.080875 -0.026713 -521631.000000 0 0 1
17.830427 -5.048670 -27.228656 32.936498 -0.275927 2.544016 0.082633 -0.024258 143112.000000 0 0 1
17.237927 -6.010270 -26.351066 32.056952 -0.335485 2.535724 0.101481 -0.033314 83669.400000 0 0 1
15.816227 -5.686170 -25.829916 30.816718 -0.345126 2.564731 0.117968 -0.030485 21814.900000 0 0 1
15.782327 -4.545170 -24.970476 29.887541 -0.280403 2.559804 0.106583 -0.029589 -330554.000000 0 0 1
14.463927 -4.378570 -24.522576 28.805100 -0.293954 2.589307 0.104274 -0.035712 -142227.000000 0 0 1
14.226327 -3.088270 -23.736076 27.844696 -0.213765 2.591441 0.122014 -0.031032 36212.900000 0 0 1
14.239827 -1.852470 -24.488376 28.388111 -0.129364 2.611238 0.095415 -0.041201 125448.000000 0 0 1
14.127327 -0.789470 -23.579076 27.498681 -0.055824 2.601113 0.108044 -0.041606 -120858.000000 0 0 1
14.531227 0.513530 -24.300176 28.318171 0.035325 2.602379 0.088639 -0.042028 -48467.700000 0 0 1
13.611527 1.085530 -25.243536 28.699968 0.079582 2.645747 0.104410 -0.040776 477913.000000 0 0 1
14.164527 2.274530 -25.794766 29.515712 0.159220 2.634033 0.097417 -0.021321 -190691.000000 0 0 1
13.269727 2.936530 -26.823396 30.069975 0.217786 2.672619 0.101002 -0.025395 -1912.950000 0 0 1
12.082627 3.550530 -26.349156 29.204009 0.285809 2.695743 0.110809 -0.037200 285200.000000 0 0 1
11.259427 3.995530 -27.398396 29.889982 0.340999 2.730392 0.121243 -0.032210 -662196.000000 0 0 1
10.029727 4.689530 -26.856636 29.049372 0.437363 2.750563 0.116846 -0.030431 -722331.000000 0 0 1
10.294027 5.994530 -26.323556 28.893442 0.527326 2.716636 0.112424 -0.045654 777583.000000 0 0 1
9.064127 6.715530 -26.145536 28.475354 0.637646 2.734261 0.128140 -0.046557 603689.000000 0 0 1
8.280327 5.454667 -30.902246 32.454060 0.582502 2.831104 0.108367 -0.026731 -256109.000000 0 0 1
8.412027 4.441867 -29.935526 31.410637 0.485825 2.833910 0.099553 -0.010042 351782.000000 0 0 1
8.089327 3.161367 -30.369986 31.587458 0.372556 2.863050 0.087286 -0.009231 -188470.000000 0 0 1
7.963327 2.151867 -29.218706 30.360795 0.263919 2.866436 0.098031 -0.011622 288261.000000 0 0 1
9.207427 1.707967 -28.669686 30.160317 0.183414 2.825883 0.131326 -0.028386 770564.000000 0 0 1
8.977627 0.815567 -27.537266 28.975230 0.090596 2.825228 0.120677 -0.024788 146636.000000 0 0 1
10.276227 0.168267 -27.006846 28.896347 0.016373 2.777960 0.125188 -0.041422 246785.000000 0 0 1
10.884627 -0.838533 -27.821236 29.886442 -0.076886 2.767661 0.131052 -0.034690 431908.000000 0 0 1
12.057927 -1.308933 -27.163146 29.747998 -0.108130 2.721640 0.114988 -0.032669 320697.000000 0 0 1
12.515227 -2.701033 -27.740196 30.552331 -0.212560 2.709179 0.107245 -0.033261 -268877.000000 0 0 1
11.621027 -3.674433 -27.367396 29.958706 -0.306242 2.722612 0.123226 -0.027217 96093.500000 0 0 1
12.272727 -4.956633 -27.549826 30.564374 -0.383841 2.693720 0.115290 -0.026135 253791.000000 0 0 1
11.520527 -6.039833 -26.775926 29.768311 -0.482872 2.689369 0.107156 -0.043071 7638.210000 0 0 1
11.353427 -5.792933 -25.379876 28.400642 -0.471803 2.676182 0.122151 -0.033348 126700.000000 0 0 1
10.699927 -6.876833 -24.752576 27.829288 -0.571226 2.666922 0.123667 -0.036061 -87884.000000 0 0 1
10.760427 -6.646333 -23.242376 26.460699 -0.553307 2.643245 0.131778 -0.040430 -361901.000000 0 0 1
12.072627 -6.489433 -22.775276 26.581464 -0.493221 2.599848 0.118892 -0.033272 -365357.000000 0 0 1
12.098427 -6.263133 -21.403376 25.371308 -0.477693 2.574759 0.137520 -0.037548 1286340.000000 0 0 1
13.536727 -6.030733 -20.750076 25.498595 -0.419113 2.521412 0.148527 -0.041617 1424790.000000 0 0 1
14.066727 -4.704433 -20.862876 25.598127 -0.322743 2.523553 0.138160 -0.039963 653893.000000 0 0 1
15.161827 -4.537133 -19.935776 25.453914 -0.290766 2.470609 0.143032 -0.027189 570308.000000 0 0 1
15.680227 -3.097733 -19.726076 25.388650 -0.195045 2.460626 0.148163 -0.024496 -7789.250000 0 0 1
16.676127 -2.613333 -20.612476 26.642013 -0.155447 2.455430 0.135707 -0.015359 514082.000000 0 0 1
17.326127 -1.461933 -20.055676 26.543588 -0.084178 2.427328 0.140305 -0.010064 -266974.000000 0 0 1
18.520527 -0.937033 -20.812376 27.875490 -0.050551 2.413762 0.087415 -0.016093 -730574.000000 0 0 1
19.667627 -1.732433 -20.746276 28.639568 -0.087859 2.380948 0.132342 -0.024706 511629.000000 0 0 1
20.707227 -1.171633 -21.598776 29.944433 -0.056521 2.376467 0.134236 -0.018784 1275480.000000 0 0 1
22.106227 -1.843833 -21.550376 30.927394 -0.083215 2.341730 0.100929 -0.016795 -253065.000000 0 0 1
22.968327 -1.549333 -20.464276 30.801478 -0.067353 2.297477 0.090973 -0.018476 764127.000000 0 0 1
24.289027 -2.079833 -20.596976 31.914228 -0.085420 2.272324 0.066069 -0.015523 715385.000000 0 0 1
25.278627 -1.399333 -21.560076 33.253631 -0.055300 2.276215 0.061885 -0.012993 -1247450.000000 0 0 1
24.785127 -1.298033 -22.891876 33.764262 -0.052324 2.315823 0.074170 -0.015031 -140583.000000 0 0 1
25.604027 -0.717533 -23.876176 35.016465 -0.028017 2.321093 0.077683 -0.011038 -101353.000000 0 0 1
26.833427 -1.527133 -24.385476 36.290720 -0.056850 2.307632 0.084334 -0.025338 -699256.000000 0 0 1
27.822827 -1.626333 -23.413176 36.399608 -0.058387 2.269501 0.085697 -0.023446 233000.000000 0 0 1
29.008627 -2.327433 -23.817076 37.605458 -0.080061 2.256659 0.078085 -0.020725 1230050.000000 0 0 1
30.032727 -1.636633 -24.777476 38.968790 -0.054441 2.259878 0.088960 -0.028852 -345102.000000 0 0 1
29.486427 -1.561433 -26.070466 39.389804 -0.052905 2.294091 0.094012 -0.029321 444570.000000 0 0 1
30.175227 -0.524433 -26.780726 40.348812 -0.017378 2.296591 0.098064 -0.034596 -703665.000000 0 0 1
29.553827 -0.050033 -28.117336 40.792349 -0.001693 2.331291 0.080867 -0.036708 709659.000000 0 0 1
28.208327 0.463767 -28.103496 39.821241 0.016439 2.354265 0.068377 -0.023893 1020270.000000 0 0 1
27.986827 1.670467 -27.410096 39.209263 0.059617 2.344895 0.062632 -0.016492 -448216.000000 0 0 1
26.493327 2.063367 -27.537106 38.268081 0.077726 2.374000 0.079099 -0.018108 124916.000000 0 0 1
25.670227 1.507167 -26.525976 36.944005 0.058645 2.371728 0.088988 -0.019641 534244.000000 0 0 1
24.316427 1.567667 -26.972926 36.349483 0.064380 2.406911 0.082814 -0.016307 504803.000000 0 0 1
23.260227 1.256067 -25.872906 34.814122 0.053948 2.408596 0.086624 -0.014477 60339.600000 0 0 1
23.172327 2.261267 -24.864076 34.063064 0.097277 2.389034 0.101900 -0.022764 101892.000000 0 0 1
22.153427 1.890167 -23.987076 32.706679 0.085116 2.394106 0.099173 -0.018106 -444680.000000 0 0 1
22.134927 2.654467 -22.676476 31.799744 0.119352 2.364710 0.109425 -0.018809 -240299.000000 0 0 1
21.864327 4.027367 -22.728476 31.793900 0.182156 2.367233 0.118625 -0.031689 399234.000000 0 0 1
22.135027 4.478467 -21.434176 31.135831 0.199630 2.330089 0.110624 -0.034272 -305963.000000 0 0 1
21.848427 5.975167 -21.144476 30.986210 0.266955 2.321815 0.129655 -0.031592 -273985.000000 0 0 1
22.571427 7.012667 -21.798776 32.153280 0.301233 2.315786 0.132368 -0.030075 227528.000000 0 0 1
22.554627 8.338767 -21.275976 32.107840 0.354129 2.295136 0.127646 -0.022132 -285982.000000 0 0 1
22.978027 8.581267 -19.785276 31.513251 0.357416 2.249571 0.127411 -0.034593 -313929.000000 0 0 1
24.334527 8.275767 -19.501276 32.263870 0.327813 2.219847 0.117808 -0.028762 541822.000000 0 0 1
24.723427 8.515267 -18.132576 31.820558 0.331696 2.177106 0.122389 -0.041516 -70516.100000 0 0 1
24.513327 9.856867 -17.438076 31.656714 0.382317 2.154178 0.118814 -0.048638 198047.000000 0 0 1
23.153427 10.247267 -17.221976 30.621628 0.416667 2.168096 0.109275 -0.055542 482948.000000 0 0 1
23.015627 11.698367 -17.144276 30.991887 0.470249 2.156980 0.078672 -0.045929 -619872.000000 0 0 1
21.565327 12.133467 -16.821676 29.920781 0.512494 2.167849 0.062361 -0.045810 509925.000000 0 0 1
20.682927 11.805267 -17.911776 29.798985 0.518652 2.215657 0.081038 -0.046455 217413.000000 0 0 1
20.174627 10.531067 -17.979476 29.003112 0.481089 2.239431 0.086445 -0.053913 -1197860.000000 0 0 1
19.187127 10.392267 -19.135376 29.022537 0.496392 2.290721 0.093856 -0.032977 -220746.000000 0 0 1
19.815527 10.435767 -20.432976 30.316115 0.484736 2.310403 0.111006 -0.038371 436118.000000 0 0 1
18.892727 10.426967 -21.513576 30.471146 0.504304 2.354674 0.098861 -0.032550 -217385.000000 0 0 1
19.548627 10.459167 -22.887776 31.865236 0.491280 2.372106 0.124390 -0.030984 -230346.000000 0 0 1
20.304527 11.633967 -23.189376 32.944956 0.520310 2.351645 0.107165 -0.032449 318403.000000 0 0 1
20.595627 11.806667 -24.575676 34.169300 0.520526 2.373494 0.135887 -0.030873 -159630.000000 0 0 1
21.351927 13.084467 -24.896276 35.311933 0.549778 2.353274 0.147122 -0.041875 -140717.000000 0 0 1
21.607027 13.290867 -26.280666 36.526486 0.551461 2.373873 0.177940 -0.044352 61225.300000 0 0 1
21.732527 14.684267 -26.558956 37.327049 0.594218 2.362456 0.168521 -0.031244 79218.600000 0 0 1
20.424727 15.332167 -27.063776 37.211460 0.643928 2.385171 0.144983 -0.037711 248851.000000 0 0 1
19.305127 15.177767 -26.222236 35.925732 0.666272 2.388974 0.106000 -0.026741 -21005.100000 0 0 1
18.099227 15.563567 -26.865526 35.938324 0.710215 2.415155 0.103656 -0.035069 1071430.000000 0 0 1
16.798027 15.182267 -26.051506 34.516024 0.734917 2.426093 0.088270 -0.038217 515693.000000 0 0 1
16.579127 13.755067 -26.122816 33.859575 0.692568 2.451999 0.104690 -0.037336 -636417.000000 0 0 1
15.284327 13.336967 -25.863496 32.869526 0.717464 2.476490 0.062821 -0.039832 -820432.000000 0 0 1
15.184627 11.818267 -25.692766 32.099261 0.661371 2.498785 0.050785 -0.034879 -160195.000000 0 0 1
13.854727 11.400167 -25.501986 31.181221 0.688511 2.528485 0.058996 -0.040521 -75876.100000 0 0 1
13.808627 9.996867 -25.273756 30.485706 0.626625 2.548178 0.075565 -0.041460 -80298.800000 0 0 1
12.389027 9.422767 -25.094736 29.530024 0.650234 2.586410 0.124684 -0.057301 143844.000000 0 0 1
11.710927 9.920667 -23.941676 28.438869 0.702825 2.571525 0.148894 -0.062785 836997.000000 0 0 1
10.387027 9.377367 -23.796576 27.606202 0.734358 2.610001 0.144485 -0.059441 570126.000000 0 0 1
9.521727 10.135067 -22.798276 26.704761 0.816590 2.593876 0.134386 -0.055429 -343157.000000 0 0 1
9.199827 11.454267 -23.148876 27.417285 0.894120 2.576085 0.134106 -0.050802 -642414.000000 0 0 1
8.464427 12.181067 -22.245776 26.737604 0.963512 2.553505 0.121461 -0.045006 -232803.000000 0 0 1
9.257027 12.931967 -21.151776 26.463672 0.949528 2.496886 0.127472 -0.043157 287593.000000 0 0 1
9.984627 12.009267 -20.305876 25.617257 0.877194 2.485963 0.143029 -0.043914 572303.000000 0 0 1
10.914927 12.737967 -19.475676 25.703957 0.862321 2.430565 0.163049 -0.044611 807967.000000 0 0 1
12.033227 11.870267 -18.741676 25.237912 0.778581 2.407741 0.165413 -0.048138 1254080.000000 0 0 1
13.036227 11.300967 -19.595676 26.108343 0.714218 2.419694 0.142509 -0.041310 613572.000000 0 0 1
12.506327 10.295867 -20.413176 26.059755 0.688759 2.470788 0.148080 -0.045974 -301799.000000 0 0 1
13.641727 9.537167 -21.179476 26.937418 0.610133 2.475509 0.130173 -0.049023 813772.000000 0 0 1
14.415727 8.659767 -20.334876 26.387723 0.540946 2.450608 0.149286 -0.059060 745787.000000 0 0 1
15.328127 7.797067 -21.027776 27.164556 0.470565 2.456071 0.123871 -0.054909 300968.000000 0 0 1
16.059027 6.897567 -20.003976 26.563656 0.405687 2.423494 0.175993 -0.062736 -225998.000000 0 0 1
17.023327 7.431267 -19.148776 26.677575 0.411600 2.371413 0.134409 -0.051150 -55059.100000 0 0 1
17.368027 6.460267 -18.168176 25.951224 0.356106 2.346319 0.131611 -0.058906 30538.100000 0 0 1
18.554627 6.827167 -17.214276 26.214799 0.352575 2.287181 0.177354 -0.046449 -362473.000000 0 0 1
19.765327 6.800867 -17.926676 27.536987 0.331392 2.279702 0.139317 -0.060502 23538.800000 0 0 1
20.876927 7.062567 -17.069176 27.876203 0.326210 2.229789 0.128323 -0.066946 269419.000000 0 0 1
21.601127 5.806767 -16.512776 27.802859 0.262610 2.206723 0.125370 -0.061325 -1405230.000000 0 0 1
22.979727 5.796967 -16.628476 28.951319 0.247109 2.182618 0.115975 -0.064134 -424363.000000 0 0 1
23.503127 4.689067 -15.885776 28.753125 0.196923 2.156143 0.166084 -0.066462 -367490.000000 0 0 1
24.835327 4.238367 -16.491376 30.111836 0.169030 2.150374 0.082863 -0.020760 -456815.000000 0 0 1
25.249827 3.099267 -15.713476 29.901046 0.122133 2.124118 0.094949 -0.026875 -272759.000000 0 0 1
26.515527 2.689767 -16.138076 31.156789 0.101095 2.115265 0.089487 -0.030765 -502446.000000 0 0 1
27.059727 1.546267 -15.280376 31.114460 0.057081 2.084151 0.119769 -0.045960 -145745.000000 0 0 1
26.435027 0.280167 -15.513676 30.652296 0.010598 2.101474 0.116943 -0.043620 91442.600000 0 0 1
27.384527 -0.734833 -15.772876 31.610693 -0.026827 2.093209 0.099199 -0.026967 -10473.000000 0 0 1
26.764227 -2.151133 -16.053976 31.283883 -0.080201 2.109671 0.077301 -0.021177 -202449.000000 0 0 1
26.297327 -2.797933 -14.917476 30.362953 -0.105997 2.084384 0.089438 -0.027000 223031.000000 0 0 1
26.080427 -4.122733 -15.157476 30.445602 -0.156780 2.091919 0.079520 -0.020427 -1163270.000000 0 0 1
25.540027 -4.951133 -13.985376 29.536375 -0.191483 2.064053 0.090333 -0.022048 765938.000000 0 0 1
24.212127 -4.677633 -13.503776 28.115108 -0.190843 2.071797 0.127345 -0.018956 1056520.000000 0 0 1
23.199627 -5.113733 -14.380776 27.770122 -0.216954 2.115133 0.137660 -0.021497 224076.000000 0 0 1
21.695827 -4.928733 -13.959176 26.265184 -0.223383 2.131132 0.164776 -0.027915 758694.000000 0 0 1
21.248327 -5.906733 -13.019776 25.610456 -0.271140 2.104096 0.177022 -0.033166 445089.000000 0 0 1
21.209927 -5.464633 -11.679076 24.821846 -0.252161 2.060672 0.192463 -0.034245 -479560.000000 0 1 0
20.942727 -6.542933 -10.650976 24.389569 -0.302812 2.022726 0.183958 -0.038390 -751536.000000 0 1 0
19.695927 -7.131033 -10.750776 23.544858 -0.347375 2.044975 0.169845 -0.031944 -296304.000000 0 1 0
19.625327 -8.273733 -11.651676 24.276937 -0.398974 2.071392 0.171643 -0.038341 -427979.000000 0 1 0
18.280627 -9.042933 -11.529676 23.428388 -0.459377 2.085324 0.189863 -0.037766 299784.000000 0 1 0
17.247327 -8.101633 -11.890076 22.460647 -0.439142 2.128659 0.171789 -0.031421 -37370.800000 0 1 0
16.066227 -8.842133 -12.130176 21.987454 -0.503116 2.155181 0.169765 -0.025648 241010.000000 0 1 0
14.808527 -7.919033 -12.153576 20.729519 -0.491069 2.197272 0.116656 -0.019604 82489.300000 0 1 0
14.440327 -7.096333 -13.238776 20.836175 -0.456764 2.259290 0.109475 -0.021287 476625.000000 0 1 0
15.397427 -6.083733 -13.510576 21.368861 -0.376287 2.255257 0.103227 -0.017694 -82056.000000 0 1 0
14.991927 -5.193933 -14.686076 21.619797 -0.333508 2.317589 0.086147 -0.012026 263313.000000 0 1 0
14.117327 -4.121833 -14.282376 20.500602 -0.284073 2.341557 0.102751 -0.020829 429552.000000 0 1 0
13.662427 -3.213533 -15.284276 20.750850 -0.231011 2.398769 0.082154 -0.023551 -494391.000000 0 1 0
14.627227 -2.099133 -15.671576 21.539740 -0.142535 2.385563 0.105438 -0.020107 -1268720.000000 0 1 0
15.710827 -2.579933 -16.392876 22.851970 -0.162761 2.370789 0.107094 -0.020830 108624.000000 0 1 0
16.833627 -1.678833 -16.188876 23.415148 -0.099402 2.334200 0.112037 -0.028613 866461.000000 0 1 0
17.937327 -2.341433 -15.329976 23.711562 -0.129800 2.273809 0.133541 -0.030624 -246266.000000 0 1 0
17.559527 -2.386633 -13.942676 22.548419 -0.135089 2.237430 0.112623 -0.021864 -135751.000000 0 1 0
18.658327 -2.795433 -13.204276 23.028255 -0.148716 2.181440 0.111692 -0.014959 -510349.000000 0 1 0
18.418127 -2.958633 -11.655976 21.996424 -0.159276 2.129283 0.123102 -0.015991 -242271.000000 0 1 0
18.324927 -1.719933 -10.956076 21.419540 -0.093583 2.107725 0.124886 -0.016724 581213.000000 0 1 0
17.964527 -1.951433 -9.605976 20.464777 -0.108203 2.059397 0.125638 -0.017696 -636957.000000 0 1 0
17.783227 -0.681633 -8.760776 19.835800 -0.038311 2.028250 0.106696 -0.017854 -693632.000000 0 1 0
18.852227 -0.038433 -8.127676 20.529663 -0.002039 1.977843 0.110512 -0.013419 224616.000000 0 1 0
19.707027 0.685167 -9.000676 21.675990 0.034754 1.999000 0.116284 -0.010442 -240908.000000 0 1 0
19.121227 2.045067 -9.518476 21.457050 0.106548 2.030415 0.100378 -0.018226 -716011.000000 0 1 0
19.392727 3.243167 -8.838076 21.557077 0.165703 1.993234 0.101407 -0.005938 495874.000000 0 1 0
18.871627 4.385267 -9.553276 21.601712 0.228322 2.028898 0.098479 -0.012799 -121618.000000 0 1 0
19.169227 5.799067 -8.985776 21.950686 0.293767 1.992551 0.119869 -0.001375 -340562.000000 0 1 0
18.448827 6.762467 -9.702876 21.914287 0.351344 2.029476 0.097915 -0.002531 463128.000000 0 1 0
18.608227 8.054967 -9.140576 22.241824 0.408519 1.994307 0.094871 -0.001429 -61627.300000 0 1 0
-26.979573 -28.886563 5.481524 39.904611 0.819520 1.432995 0.097004 -0.005766 74702.900000 0 0 1
-26.939483 -28.150583 6.669824 39.530717 0.807379 1.401260 0.140407 -0.017546 -345280.000000 0 0 1
-25.957983 -27.150463 6.543224 38.128445 0.807848 1.398333 0.125871 -0.019339 -469254.000000 0 0 1
-26.135833 -26.064143 7.616424 37.688609 0.784025 1.367307 0.141735 -0.030884 -531427.000000 0 0 1
-27.065623 -25.044733 7.414324 37.613280 0.746637 1.372377 0.170288 -0.036729 1614960.000000 0 0 1
-28.499593 -25.329543 7.472524 38.854230 0.726575 1.377269 0.153102 -0.037293 1624910.000000 0 0 1
-29.127493 -25.684173 8.812224 39.821387 0.722660 1.347655 0.160965 -0.036738 -212863.000000 0 0 1
-28.564233 -26.926863 9.365624 40.356985 0.755900 1.336592 0.140314 -0.029976 -33521.500000 0 0 1
-28.897863 -27.108183 10.705224 41.043171 0.753454 1.306916 0.119478 -0.028152 256295.000000 0 0 1
-27.671283 -27.718093 11.513724 40.823503 0.786243 1.284880 0.079104 -0.020043 461260.000000 0 0 1
-26.633813 -26.870803 11.796224 39.630177 0.789827 1.268558 0.084344 -0.014145 -760211.000000 0 0 1
-26.844783 -26.138553 12.976724 39.651755 0.772070 1.237386 0.081069 -0.017984 740767.000000 0 0 1
-25.479193 -25.483053 13.473324 38.472142 0.785474 1.213001 0.085299 -0.020370 852367.000000 0 0 1
-24.616073 -26.417813 14.006324 38.730208 0.820688 1.200772 0.077444 -0.017125 -281069.000000 0 0 1
-23.541573 -25.858363 14.768824 37.960226 0.832262 1.171185 0.096372 -0.026871 584240.000000 0 0 1
-22.708573 -26.935453 15.530424 38.501844 0.870337 1.155601 0.095111 -0.032792 160526.000000 0 0 1
-23.493973 -27.720853 16.428524 39.878677 0.867744 1.146189 0.090293 -0.020897 608939.000000 0 0 1
-22.744273 -28.859843 16.898924 40.444606 0.903357 1.139742 0.088617 -0.021573 237432.000000 0 0 1
-23.608273 -29.780123 17.781424 41.956946 0.900490 1.133158 0.101970 -0.025679 305111.000000 0 0 1
-24.697573 -30.410183 17.109724 42.749175 0.888692 1.159023 0.073589 -0.026173 621598.000000 0 0 1
-25.372873 -31.275693 18.055024 44.135423 0.889224 1.149348 0.082702 -0.025602 6492.370000 0 0 1
-26.281783 -32.285223 17.326424 45.091825 0.887547 1.176404 0.069603 -0.030742 202462.000000 0 0 1
-25.573693 -33.268093 16.550024 45.107462 0.915425 1.195120 0.071787 -0.038148 351772.000000 0 0 1
-26.489183 33.435820 16.043824 45.574502 -0.900805 1.211052 0.068045 -0.042824 -523626.000000 0 0 1
-25.962003 32.737113 14.779024 44.318887 -0.900311 1.230814 0.072468 -0.044898 1004940.000000 0 0 1
-24.660873 32.105685 14.883724 43.133038 -0.915802 1.218488 0.062891 -0.045537 1000430.000000 0 0 1
-23.645273 33.051149 14.578324 43.174124 -0.949800 1.226363 0.064824 -0.043189 -721866.000000 0 0 1
-22.242073 32.429958 14.667824 41.970908 -0.969631 1.213785 0.076987 -0.045121 3595.640000 0 0 1
-21.996373 31.576164 13.533224 40.792680 -0.962347 1.232632 0.060811 -0.035611 513136.000000 0 0 1
-20.692373 30.987694 13.677624 39.692429 -0.982037 1.218994 0.063088 -0.030297 789220.000000 0 0 1
-20.347673 30.074854 12.477024 38.395323 -0.975970 1.239825 0.057465 -0.032433 103572.000000 0 0 1
-20.014573 30.697004 11.269324 38.339104 -0.993014 1.272452 0.037021 -0.022890 -101430.000000 0 0 1
-20.292073 29.829304 10.230024 37.499454 -0.973433 1.294489 0.049232 -0.024243 123863.000000 0 0 1
-20.086773 30.392974 8.794824 37.477464 -0.986795 1.333918 0.043392 -0.018695 398560.000000 0 0 1
-18.686573 30.434154 8.556224 36.723763 -1.020146 1.335646 0.035470 -0.024337 -48261.200000 0 0 1
-18.259673 30.963194 7.351224 36.690265 -1.037969 1.369072 0.054346 -0.030407 -87475.400000 0 0 1
-17.720873 29.940544 6.335824 35.363939 -1.036377 1.390663 0.056675 -0.030343 -717476.000000 0 0 1
-18.719373 29.067864 5.918624 35.076855 -0.998659 1.401252 0.045597 -0.020174 -329842.000000 0 0 1
-18.646273 27.837494 6.586524 34.146623 -0.980610 1.376690 0.022529 -0.012347 -182442.000000 0 0 1
-19.702173 26.795724 6.186724 33.829898 -0.936787 1.386884 0.032674 -0.007997 -40218.700000 0 0 1
-19.379873 26.171704 4.995124 32.946758 -0.933410 1.418597 0.039682 -0.016930 -15476.100000 0 0 1
-20.516673 25.648314 4.364124 33.133299 -0.896102 1.438698 0.058084 -0.015228 -880845.000000 0 0 1
-20.234973 24.702624 3.179424 32.090225 -0.884492 1.471556 0.077007 -0.024124 -1242310.000000 0 0 1
-19.797173 25.328804 1.933924 32.205845 -0.907372 1.510711 0.084851 -0.022105 792131.000000 0 0 1
-18.526473 25.987614 1.882424 31.970765 -0.951467 1.511883 0.077440 -0.027171 -226893.000000 0 0 1
-17.334273 25.067084 2.184924 30.555026 -0.965787 1.499227 0.063711 -0.033796 -1299540.000000 0 0 1
-17.043073 24.013294 1.285124 29.474670 -0.953567 1.527182 0.102369 -0.045151 124077.000000 0 0 1
-16.910073 24.373454 -0.098376 29.665224 -0.964250 1.574113 0.108772 -0.042996 -468123.000000 0 0 1
-16.651773 23.163624 -1.047976 28.547037 -0.947514 1.607515 0.115153 -0.049528 75296.100000 0 0 1
-17.749973 22.311604 -1.331476 28.541935 -0.898775 1.617463 0.122216 -0.056191 136949.000000 0 0 1
-17.356873 21.216804 -2.155176 27.496520 -0.885133 1.649257 0.130751 -0.054297 806973.000000 0 0 1
-16.212273 20.216704 -1.670876 25.968149 -0.894883 1.635184 0.130473 -0.052659 790778.000000 0 0 1
-16.627973 19.457104 -0.556076 25.600344 -0.863640 1.592519 0.143608 -0.054506 144951.000000 0 0 1
-15.569673 18.749304 0.064024 24.371197 -0.877784 1.568169 0.152724 -0.049053 174744.000000 0 1 0
-16.084273 17.563904 0.929724 23.833988 -0.829343 1.531778 0.139511 -0.046970 363091.000000 0 1 0
-16.731173 16.555804 0.174924 23.538424 -0.780130 1.563365 0.128442 -0.041155 186394.000000 0 1 0
-17.399473 15.571104 0.909524 23.367246 -0.730000 1.531863 0.144672 -0.057199 -260040.000000 0 1 0
-17.967373 14.431804 0.088724 23.045853 -0.676703 1.566946 0.130800 -0.045504 -41652.700000 0 1 0
-19.187873 14.720204 -0.566376 24.190487 -0.654395 1.594212 0.173729 -0.049316 137557.000000 0 1 0
-19.817173 13.513004 -0.942776 24.004384 -0.598464 1.610082 0.179153 -0.048311 -202587.000000 0 1 0
-21.161073 13.705304 -1.697776 25.268732 -0.574733 1.638036 0.183927 -0.038602 -673428.000000 0 0 1
-21.945573 12.586804 -1.931876 25.372583 -0.520741 1.647010 0.171303 -0.046612 447601.000000 0 0 1
-22.639673 12.047204 -0.791576 25.657680 -0.489018 1.601653 0.173680 -0.052416 -156987.000000 0 0 1
-24.037373 12.732504 -0.644876 27.208966 -0.487121 1.594499 0.181509 -0.049871 -375978.000000 0 0 1
-23.979773 14.080704 -0.207376 27.808969 -0.530948 1.578254 0.192626 -0.054869 -602233.000000 0 0 1
-25.251253 14.617504 -0.111576 29.177211 -0.524747 1.574620 0.176476 -0.040612 -854733.000000 0 0 1
-25.473173 16.019004 0.459624 30.094888 -0.561369 1.555523 0.177934 -0.044954 -204118.000000 0 0 1
-25.206853 16.149904 1.838324 29.993071 -0.569806 1.509466 0.185436 -0.041414 -98114.200000 0 0 1
-25.286163 17.445304 2.428424 30.816001 -0.603925 1.491911 0.161858 -0.038794 135752.000000 0 0 1
-26.680123 18.106404 2.579924 32.346976 -0.596251 1.490954 0.165141 -0.037062 -788084.000000 0 0 1
-27.558163 17.334504 3.372624 32.730903 -0.561481 1.467572 0.164873 -0.037373 650634.000000 0 0 1
-28.881083 17.839504 3.595324 34.136362 -0.553324 1.465278 0.153895 -0.036596 968524.000000 0 0 1
-29.765143 18.142904 2.332424 34.936642 -0.547401 1.503985 0.104952 -0.038001 -1359620.000000 0 0 1
-30.938083 18.761304 2.795624 36.290041 -0.545123 1.493684 0.091705 -0.037187 -585753.000000 0 0 1
-31.657513 19.057304 1.621824 36.986610 -0.541877 1.526933 0.075544 -0.035099 -272417.000000 0 0 1
-32.858613 19.994904 1.938724 38.512898 -0.546656 1.520435 0.091500 -0.038714 -248347.000000 0 0 1
-33.903543 19.194604 2.496924 39.039950 -0.515160 1.506794 0.111871 -0.032210 215304.000000 0 0 1
-35.134652 19.900904 2.512224 40.457398 -0.515361 1.508661 0.122416 -0.028209 165914.000000 0 0 1
-35.336268 20.428804 3.935424 41.005798 -0.524180 1.474676 0.099511 -0.025075 -342722.000000 0 0 1
-34.314590 21.381204 4.222824 40.650698 -0.557227 1.466728 0.101531 -0.030025 516503.000000 0 0 1
-34.242268 21.751404 5.607124 40.952367 -0.565915 1.433447 0.109049 -0.025455 -424505.000000 0 0 1
-33.073253 22.714024 5.832924 40.543680 -0.601798 1.426428 0.115302 -0.026243 -234065.000000 0 0 1
-33.357573 24.012404 5.316824 41.443840 -0.623923 1.442152 0.095924 -0.020164 416640.000000 0 0 1
-32.347493 24.851454 5.820224 41.204734 -0.655089 1.429071 0.102038 -0.031072 -33869.300000 0 0 1
-32.703673 26.337954 5.597224 42.362094 -0.677996 1.438281 0.097600 -0.029509 -66907.100000 0 0 1
-33.886483 26.620634 6.303224 43.550919 -0.665888 1.425554 0.109161 -0.019228 122182.000000 0 0 1
-34.306995 27.969454 6.184524 44.693497 -0.683983 1.431974 0.101535 -0.020982 -372980.000000 0 0 1
-35.398023 28.423274 7.113724 45.951144 -0.676545 1.415361 0.090278 -0.016390 -531627.000000 0 0 1
-34.798254 28.441604 8.407724 45.722349 -0.685218 1.385857 0.105713 -0.015816 689297.000000 0 0 1
-35.584391 29.103924 9.395224 46.920758 -0.685551 1.369198 0.105784 -0.018708 231277.000000 0 0 1
-36.785573 28.286414 9.952724 47.458996 -0.655522 1.359516 0.087044 -0.007570 -90093.300000 0 0 1
-36.436553 27.256324 10.829424 46.773989 -0.642251 1.337150 0.100276 -0.007503 -207477.000000 0 0 1
-37.500533 26.710394 11.559324 47.469497 -0.618912 1.324813 0.091632 -0.006916 -300268.000000 0 0 1
-37.076243 25.403914 12.304824 46.598448 -0.600711 1.303566 0.126192 -0.008345 -780790.000000 0 0 1
-36.042303 25.611844 13.173124 46.136161 -0.617808 1.281240 0.157774 -0.032189 -822552.000000 0 0 1
-35.766278 24.497804 14.019124 45.562100 -0.600548 1.258029 0.171282 -0.032514 596938.000000 0 0 1
-34.381388 24.695194 14.721924 44.818161 -0.622884 1.236101 0.174372 -0.041577 393756.000000 0 0 1
-34.482556 25.667154 15.730824 45.774538 -0.639876 1.219986 0.169652 -0.040264 -349235.000000 0 0 1
-33.205633 26.089254 16.129324 45.204185 -0.665953 1.205945 0.178957 -0.032311 -308226.000000 0 0 1
-33.216383 27.296024 17.095824 46.267356 -0.687871 1.192325 0.173544 -0.037686 -78903.300000 0 0 1
-33.561903 28.517914 16.477824 47.023308 -0.704326 1.212779 0.186249 -0.038407 315.668000 0 0 1
-33.615293 29.565124 17.329524 48.004134 -0.721381 1.201456 0.160400 -0.032487 44899.800000 0 0 1
-33.271243 30.900554 16.616224 48.352030 -0.748472 1.219994 0.149542 -0.038680 1332200.000000 0 0 1
-31.894643 31.028724 16.175024 47.346398 -0.771638 1.222144 0.127685 -0.032753 881486.000000 0 0 1
-31.776973 32.211740 15.364024 47.785201 -0.792192 1.243459 0.117127 -0.024670 341467.000000 0 0 1
-30.307243 32.494540 14.900324 46.866233 -0.820213 1.247248 0.124428 -0.036272 697546.000000 0 0 1
-29.525163 31.771820 13.983524 45.571074 -0.822034 1.258914 0.113229 -0.036118 -172816.000000 0 0 1
-29.418183 30.378394 14.220724 44.615080 -0.801455 1.246394 0.120769 -0.040357 -345347.000000 0 0 1
-30.549863 29.447414 13.696024 44.587279 -0.767025 1.258575 0.155495 -0.047364 71210.100000 0 0 1
-30.523373 29.239764 12.314424 44.025960 -0.763923 1.287306 0.173044 -0.048370 -325506.000000 0 0 1
-31.343353 28.155624 12.018324 43.813070 -0.731873 1.292925 0.154262 -0.048893 -87049.700000 0 0 1
-31.590793 27.872254 10.486924 43.414472 -0.722944 1.326830 0.144621 -0.031170 115174.000000 0 0 1
-30.461573 27.228724 9.955324 42.052578 -0.729419 1.331792 0.124992 -0.021388 -163053.000000 0 0 1
-30.487453 27.170194 8.567524 41.726571 -0.727928 1.364000 0.120051 -0.021028 -64616.300000 0 0 1
-29.360463 26.323264 7.965024 40.229251 -0.730908 1.371489 0.141528 -0.024484 -59158.100000 0 0 1
-29.259733 26.667454 6.610024 40.136985 -0.739080 1.405356 0.130157 -0.035908 -48279.100000 0 0 1
-28.150213 26.012554 6.012824 38.797442 -0.745951 1.415189 0.122213 -0.030189 42491.300000 0 0 1
-27.906093 26.539074 4.553324 38.778928 -0.760295 1.453107 0.114757 -0.025747 27740.500000 0 0 1
-27.133843 27.726724 4.490824 39.053607 -0.796205 1.455550 0.090606 -0.020159 67913.800000 0 0 1
-26.959453 28.072374 3.127824 39.046813 -0.805619 1.490606 0.075555 -0.018305 333909.000000 0 0 1
-25.769993 29.062954 2.911424 38.951563 -0.845381 1.495982 0.060960 -0.019758 -198715.000000 0 0 1
-24.494373 28.523064 3.070224 37.722219 -0.861240 1.489316 0.067143 -0.015357 -532929.000000 0 0 1
-23.591473 29.621384 2.855024 37.975455 -0.898234 1.495545 0.063571 -0.019480 140294.000000 0 0 1
-22.145873 29.227424 3.209724 36.810112 -0.922380 1.483489 0.053822 -0.024521 80446.000000 0 0 1
-21.152473 29.988034 2.547424 36.785849 -0.956480 1.501491 0.059922 -0.026219 -170062.000000 0 0 1
-19.876873 29.644414 3.043324 35.820988 -0.980138 1.485735 0.077371 -0.039404 379113.000000 0 0 1
-18.699473 30.575094 2.646924 35.937625 -1.021897 1.497076 0.078315 -0.041236 260197.000000 0 0 1
-18.719773 31.779696 3.396624 37.039385 -1.038469 1.478964 0.084278 -0.040264 -157410.000000 0 0 1
-17.546273 32.481832 3.099524 37.047917 -1.075518 1.487036 0.098011 -0.032218 -272048.000000 0 0 1
-17.299073 33.696724 3.948024 38.082989 -1.096506 1.466941 0.103622 -0.033864 -375448.000000 0 0 1
-18.208973 -32.890203 3.771824 37.783049 1.065171 1.470801 0.099721 -0.032909 -230619.000000 0 0 1
-17.984973 -31.798663 4.653624 36.827577 1.056063 1.444095 0.078541 -0.031472 265382.000000 0 0 1
-19.124273 -30.733473 4.766624 36.510339 1.014168 1.439867 0.082789 -0.023642 308548.000000 0 0 1
-19.230673 -29.805913 3.701524 35.663883 0.997805 1.466820 0.091601 -0.018896 -80357.400000 0 0 1
-20.325273 -28.950513 3.906524 35.588058 0.958683 1.460804 0.088184 -0.023246 -225695.000000 0 0 1
-20.551273 -27.909963 2.739524 34.768173 0.936094 1.491921 0.082441 -0.024122 -69644.100000 0 0 1
-19.673073 -26.816253 2.692624 33.367521 0.937858 1.490013 0.088650 -0.027193 -315273.000000 0 0 1
-19.975173 -25.952873 1.623424 32.790161 0.914824 1.521267 0.085738 -0.029632 277327.000000 0 0 1
-18.921773 -24.807633 1.444824 31.233630 0.919191 1.524521 0.075192 -0.031644 1567990.000000 0 0 1
-17.584073 -25.321543 1.240324 30.853178 0.963818 1.530585 0.085669 -0.034883 240044.000000 0 0 1
-16.600273 -24.346333 1.397524 29.500272 0.972363 1.523405 0.087128 -0.032580 -37188.500000 0 0 1
-15.295473 -24.651933 0.640524 29.018607 1.015470 1.548722 0.085476 -0.032332 -230445.000000 0 0 1
-15.453873 -24.781533 -0.759776 29.215130 1.013201 1.596806 0.063660 -0.029125 -16624.000000 0 0 1
-15.185373 -23.585633 -1.403076 28.086407 0.998764 1.620773 0.060748 -0.028406 -105910.000000 0 0 1
-15.404673 -23.688933 -2.941376 28.409878 0.994217 1.674516 0.034067 -0.009955 -437875.000000 0 0 1
-14.298873 -24.241533 -3.569976 28.369956 1.037873 1.696967 0.057448 -0.014852 -647906.000000 0 0 1
-14.519973 -24.287833 -4.971276 28.730507 1.031975 1.744703 0.050614 -0.013176 -732021.000000 0 0 1
-13.362673 -24.681533 -5.831376 28.666078 1.074577 1.775650 0.066888 -0.013180 -742775.000000 0 0 1
-13.035873 -26.049873 -5.835976 29.708391 1.106813 1.768524 0.037431 -0.011677 -450889.000000 0 0 1
-11.978573 -26.232933 -6.743076 29.616247 1.142448 1.800492 0.054388 -0.013208 25327.500000 0 0 1
24.345327 13.296667 27.856595 39.312672 0.499897 0.783297 0.082811 -0.017709 -341142.000000 0 0 1
25.056127 12.174067 28.323505 39.727048 0.452281 0.777096 0.062193 -0.019508 156434.000000 0 0 1
24.618527 11.439367 29.499895 40.089585 0.434982 0.743876 0.057659 -0.011752 -229345.000000 0 0 1
24.494227 12.234767 30.825835 41.229708 0.463244 0.726264 0.083995 -0.033704 143949.000000 0 0 1
23.453727 13.202367 30.751005 40.865684 0.512702 0.718962 0.087108 -0.024724 266450.000000 0 0 1
23.526427 14.117567 31.841669 42.032016 0.540473 0.711233 0.115624 -0.020947 -499207.000000 0 0 1
22.194927 14.677967 32.320160 41.864666 0.584292 0.688791 0.098279 -0.026334 -416910.000000 0 0 1
21.269727 13.772467 32.891263 41.520083 0.574626 0.656428 0.089280 -0.010319 60618.400000 0 0 1
20.237327 14.463167 33.552348 41.767124 0.620509 0.637948 0.101208 -0.012462 -9644.120000 0 0 1
19.220527 13.479667 -33.464366 40.877792 0.611609 2.529843 0.092906 -0.008720 6573.320000 0 0 1
18.124627 13.013467 33.471393 40.226690 0.622704 0.587968 0.069136 0.000742 -820155.000000 0 0 1
17.117927 12.641667 -33.357916 39.567483 0.636103 2.573751 0.054147 0.000462 -1139570.000000 0 0 1
15.817327 12.323167 33.607505 39.134546 0.661862 0.537936 0.053716 0.001268 -514206.000000 0 0 1
15.895627 11.164267 32.756117 38.082477 0.612300 0.535260 0.042768 0.006698 148716.000000 0 0 1
14.619127 10.842367 32.214905 37.001026 0.638140 0.514276 0.071948 -0.004083 77736.300000 0 0 1
14.693827 9.773767 31.065825 35.728428 0.586960 0.516610 0.088198 -0.006328 -178311.000000 0 0 1
15.035727 8.501867 31.487505 35.914034 0.514623 0.501741 0.066611 -0.014918 -50779.400000 0 0 1
15.481527 7.667967 30.463705 35.021604 0.459879 0.515889 0.078979 -0.030692 -18727.200000 0 0 1
15.984327 6.289867 30.896495 35.350453 0.374892 0.507411 0.124718 -0.035495 60294.400000 0 0 1
14.939027 5.454367 31.402775 35.200269 0.350071 0.468786 0.129150 -0.028765 191087.000000 0 0 1
15.365727 4.120267 31.652213 35.425200 0.261984 0.465729 0.138439 -0.033436 -122435.000000 0 0 1
14.245227 3.092567 31.977249 35.143064 0.213778 0.427714 0.107607 -0.026853 -75557.700000 0 0 1
14.765227 1.852267 32.389549 35.644435 0.124796 0.430674 0.114425 -0.032845 61914.400000 0 0 1
13.782327 0.970967 32.954682 35.733827 0.070334 0.396996 0.096927 -0.030756 17736.200000 0 0 1
14.222827 -0.385133 33.457956 36.357557 -0.027072 0.402084 0.078464 -0.030935 -369737.000000 0 0 1
14.439827 -1.310533 32.406254 35.501992 -0.090510 0.420706 0.051308 -0.020052 -17442.700000 0 0 1
14.998027 -2.465733 32.925713 36.264628 -0.162946 0.432480 0.093555 -0.021581 -627679.000000 0 0 1
15.337827 -3.585433 31.860944 35.541863 -0.229640 0.459139 0.092896 -0.019538 -786888.000000 0 0 1
15.958427 -4.776333 32.317197 36.357750 -0.290813 0.475930 0.095344 -0.013929 564003.000000 0 0 1
17.298327 -4.752433 32.821045 37.403726 -0.268119 0.500213 0.082669 -0.007223 812768.000000 0 0 1
18.426727 -4.293133 31.860974 37.055323 -0.228901 0.535876 0.086126 -0.019293 -588695.000000 0 0 1
18.335727 -2.905533 31.735678 36.766755 -0.157156 0.529297 0.089927 -0.021596 -137645.000000 0 0 1
19.214227 -2.394733 30.763165 36.349602 -0.123994 0.561770 0.136233 -0.028034 -156774.000000 0 0 1
19.310827 -0.838833 30.699695 36.277858 -0.043411 0.561912 0.159673 -0.044221 -687838.000000 0 0 1
19.917527 -0.354733 31.861373 37.576333 -0.017808 0.558765 0.128800 -0.033634 39124.700000 0 0 1
20.025227 1.069767 31.875797 37.659269 0.053370 0.561558 0.117196 -0.030959 575972.000000 0 0 1
21.207627 1.720567 31.038945 37.631634 0.080952 0.600930 0.139510 -0.033070 281082.000000 0 0 1
21.113827 1.564667 29.628855 36.415806 0.073971 0.620434 0.146130 -0.033353 -25552.900000 0 0 1
22.110427 2.291267 28.949525 36.499259 0.103260 0.654826 0.117583 -0.028366 -105876.000000 0 0 1
21.890827 3.803867 28.858795 36.421254 0.172047 0.656126 0.110799 -0.020337 -144399.000000 0 0 1
22.108727 4.557267 30.054185 37.587478 0.203283 0.644201 0.104434 -0.015636 238406.000000 0 0 1
21.379927 5.746367 29.931035 37.228872 0.262569 0.636849 0.107258 -0.012761 -599708.000000 0 0 1
20.952527 6.430167 31.281565 38.195441 0.297768 0.611153 0.110648 -0.011651 -718744.000000 0 0 1
20.000427 5.643567 31.875853 38.051767 0.275022 0.577744 0.107309 -0.006353 -550454.000000 0 0 1
19.605927 6.186767 33.097970 38.963368 0.305667 0.555828 0.093604 -0.011776 399702.000000 0 0 1
18.321527 5.537667 33.711225 38.765846 0.293519 0.516381 0.101249 -0.017114 375360.000000 0 0 1
18.534827 4.168967 -33.710686 38.695354 0.221244 2.628401 0.101437 -0.018985 162936.000000 0 0 1
17.386927 3.655267 -33.073986 37.544037 0.207213 2.648638 0.105496 -0.033380 30232.300000 0 0 1
17.317027 2.131167 -33.193636 37.499850 0.122452 2.657649 0.116155 -0.043320 330765.000000 0 0 1
18.298627 1.442267 -32.390806 37.230152 0.078656 2.626030 0.088293 -0.025315 560758.000000 0 0 1
18.407527 0.064567 -32.712826 37.536252 0.003508 2.629048 0.092543 -0.025855 182615.000000 0 0 1
19.552727 -0.604433 -31.879416 37.402829 -0.030903 2.591214 0.096125 -0.024482 268201.000000 0 0 1
19.273727 -0.892433 -30.471546 36.066440 -0.046270 2.577123 0.092389 -0.024167 355754.000000 0 0 1
19.385827 0.302567 -29.657896 35.432931 0.015606 2.562601 0.095306 -0.018422 -292880.000000 0 0 1
18.829727 0.077367 -28.264866 33.962733 0.004109 2.553917 0.084789 -0.005948 1174620.000000 0 0 1
17.380827 -0.076333 -28.185396 33.113676 -0.004392 2.589008 0.104164 -0.017881 1673830.000000 0 0 1
16.881527 -0.258733 -26.861546 31.726890 -0.015325 2.580453 0.099656 -0.019010 -228097.000000 0 0 1
17.469627 -1.375233 -25.944906 31.308422 -0.078559 2.547555 0.117992 -0.014963 -200755.000000 0 0 1
18.708227 -1.047633 -25.291296 31.476101 -0.055940 2.503961 0.119930 -0.016183 1050960.000000 0 0 1
19.472327 -2.271333 -25.041676 31.802767 -0.116119 2.477385 0.101759 -0.012452 643732.000000 0 0 1
20.235327 -2.991133 -26.210136 33.247354 -0.146755 2.478898 0.113592 -0.023747 57938.300000 0 0 1
21.387127 -2.201933 -26.518266 34.139070 -0.102595 2.460320 0.116255 -0.013243 143891.000000 0 0 1
21.902527 -2.574833 -27.782976 35.471738 -0.117022 2.470661 0.116111 -0.019722 -179848.000000 0 0 1
23.195527 -1.924833 -28.277236 36.624302 -0.082793 2.452919 0.086209 -0.019126 607653.000000 0 0 1
24.387427 -2.512133 -27.724716 37.009692 -0.102647 2.417530 0.080787 -0.026806 466653.000000 0 0 1
25.548327 -1.896633 -28.235086 38.125245 -0.074101 2.404741 0.056387 -0.031083 825258.000000 0 0 1
26.894727 -2.685533 -28.031666 38.939860 -0.099524 2.374412 0.088042 -0.029123 498414.000000 0 0 1
27.184727 -3.690433 -29.017156 39.932744 -0.134929 2.384230 0.112793 -0.032819 214625.000000 0 0 1
28.434927 -4.336633 -28.907396 40.779762 -0.151345 2.358686 0.114263 -0.032242 -115148.000000 0 0 1
28.501127 -5.610833 -27.970106 40.325209 -0.194378 2.337290 0.105792 -0.027746 -248318.000000 0 0 1
28.604127 -5.331533 -26.572986 39.404884 -0.184276 2.310891 0.091773 -0.009731 386286.000000 0 0 1
28.392827 -6.461733 -25.765076 38.881175 -0.223772 2.295164 0.059125 -0.010859 -258643.000000 0 0 1
28.494527 -6.239433 -24.277876 37.951072 -0.215567 2.264924 0.046618 -0.003099 -418178.000000 0 0 1
29.777627 -5.976833 -23.784976 38.576608 -0.198084 2.235168 0.041801 0.000353 -158394.000000 0 0 1
29.819827 -5.603333 -22.444476 37.740879 -0.185740 2.207688 0.045498 -0.003442 -335265.000000 0 0 1
31.261027 -5.478533 -21.914876 38.568483 -0.173489 2.175121 0.048281 0.003676 -81851.900000 0 0 1
31.806927 -4.282333 -22.466076 39.175803 -0.133830 2.181529 0.074062 -0.015707 516711.000000 0 0 1
33.126827 -3.902533 -22.078976 40.001220 -0.117265 2.155506 0.093480 -0.010401 538025.000000 0 0 1
33.518327 -2.521633 -22.558776 40.481295 -0.075090 2.161884 0.104274 -0.022240 95751.700000 0 0 1
32.677427 -1.466133 -22.098276 39.475278 -0.044837 2.164941 0.072994 -0.022918 204359.000000 0 0 1
33.192427 -0.185233 -22.406476 40.047742 -0.005581 2.164572 0.083478 -0.024761 -260851.000000 0 0 1
32.248327 1.019567 -22.203876 39.166391 0.031606 2.173548 0.070770 -0.021188 -1120530.000000 0 0 1
31.171327 0.921267 -23.042876 38.774663 0.029546 2.207162 0.061685 -0.018821 -546873.000000 0 0 1
30.128527 1.765167 -22.566376 37.684019 0.058521 2.212838 0.062712 -0.012212 -101396.000000 0 0 1
28.863527 1.792567 -23.431476 37.220297 0.062025 2.251751 0.058862 -0.012467 -304001.000000 0 0 1
27.910227 2.701267 -22.922976 36.217957 0.096484 2.256112 0.063388 -0.016108 256892.000000 0 0 1
27.028227 3.142867 -23.952476 36.250845 0.115761 2.292604 0.089674 -0.021878 863351.000000 0 0 1
25.955327 4.203767 -23.490576 35.258443 0.160567 2.299951 0.095364 -0.016456 561571.000000 0 0 1
26.644727 5.384967 -23.203176 35.739708 0.199416 2.277364 0.080036 -0.010100 733507.000000 0 0 1
25.729927 6.466167 -22.935176 35.069399 0.246210 2.283648 0.126783 -0.029626 604422.000000 0 0 1
26.473927 7.786267 -22.477076 35.590922 0.286045 2.254334 0.149406 -0.023106 423993.000000 0 0 1
27.242227 8.389667 -23.524176 36.958251 0.298749 2.260757 0.144369 -0.019245 288991.000000 0 0 1
27.542827 9.733967 -23.241076 37.329680 0.339711 2.242844 0.169690 -0.021226 -117559.000000 0 0 1
28.611027 10.345767 -24.177476 38.860984 0.346972 2.242286 0.206843 -0.026864 -229544.000000 0 0 1
28.173727 10.653867 -25.481586 39.453453 0.361529 2.272951 0.228793 -0.041462 648616.000000 0 0 1
27.205927 11.711567 -25.558756 39.122542 0.406502 2.282731 0.233510 -0.041886 365137.000000 0 0 1
26.973127 12.299267 -27.013036 40.106429 0.427818 2.309776 0.227386 -0.044270 -557735.000000 0 0 1
26.324827 11.439667 -27.957496 40.068492 0.409939 2.343038 0.194013 -0.038618 186608.000000 0 0 1
27.052727 10.424267 -28.671126 40.774365 0.367797 2.350636 0.182133 -0.043161 -153349.000000 0 0 1
28.176727 10.871767 -29.615176 42.298722 0.368242 2.346395 0.184686 -0.038979 -653135.000000 0 0 1
29.388227 11.245467 -29.001476 42.792686 0.365462 2.315454 0.176891 -0.045160 891131.000000 0 0 1
30.551127 11.358567 -29.836296 44.188154 0.355952 2.312046 0.199019 -0.038258 902433.000000 0 0 1
31.161227 10.043067 -30.350726 44.643609 0.311782 2.318347 0.141079 -0.026300 -796378.000000 0 0 1
30.383627 9.435367 -31.366246 44.676977 0.301099 2.349093 0.133517 -0.022331 215755.000000 0 0 1
30.846327 8.151567 -31.747216 45.009217 0.258358 2.353712 0.111171 -0.014127 18415.400000 0 0 1
29.765027 7.492267 -32.651626 44.813163 0.246591 2.387097 0.120275 -0.016020 626147.000000 0 0 1
28.624027 7.168967 -31.862326 43.427374 0.245405 2.394536 0.117996 -0.026098 83833.300000 0 0 1
27.605327 6.524967 -32.604846 43.216955 0.232106 2.425606 0.077356 -0.019875 295787.000000 0 0 1
26.254427 6.499767 -31.839896 41.777038 0.242689 2.437406 0.098538 -0.014843 -216959.000000 0 0 1
25.738927 7.826467 -31.655226 41.542740 0.295188 2.437180 0.107885 -0.007832 866568.000000 0 0 1
24.623427 7.894967 -30.733286 40.164394 0.310273 2.442129 0.121947 -0.014259 1031100.000000 0 0 1
23.207327 7.601767 -31.288496 39.690513 0.316545 2.478856 0.132357 -0.014116 101384.000000 0 0 1
22.690027 8.761467 -31.957886 40.161015 0.368499 2.491031 0.133083 -0.013418 11391.600000 0 0 1
21.313927 8.775167 -32.270036 39.656554 0.390561 2.521351 0.119644 -0.010927 24810.400000 0 0 1
20.998627 9.857967 -33.295786 40.579936 0.438917 2.533079 0.116191 -0.008707 -163140.000000 0 0 1
21.345227 9.486567 33.046277 40.468137 0.418216 0.615301 0.094529 -0.012769 238604.000000 0 0 1
21.004427 10.552767 32.112252 39.796276 0.465571 0.631884 0.076344 -0.012609 -359866.000000 0 0 1
19.886927 10.258267 31.134265 38.341418 0.476231 0.623179 0.083727 -0.013999 -516658.000000 0 0 1
20.130627 9.325567 30.101235 37.393752 0.433820 0.635154 0.079427 -0.014023 -117954.000000 0 0 1
21.076227 9.550067 29.056755 37.144396 0.425446 0.672503 0.088993 -0.010134 -1013310.000000 0 0 1
20.522027 10.198367 27.778225 36.010972 0.461203 0.689786 0.084148 -0.002797 -123410.000000 0 0 1
19.583427 9.478967 27.034775 34.702168 0.450790 0.677645 0.093812 -0.002315 686982.000000 0 0 1
18.315127 9.441067 27.742835 34.557814 0.475954 0.638828 0.106338 -0.020021 -161837.000000 0 0 1
17.246127 8.501967 27.133995 33.256068 0.458015 0.616493 0.119271 -0.020316 -236960.000000 0 0 1
16.901227 8.982267 25.837715 32.154628 0.488495 0.637568 0.115607 -0.019904 -373226.000000 0 0 1
15.697327 8.570767 25.281435 30.967969 0.499768 0.615693 0.135693 -0.024706 -365206.000000 0 0 1
15.532127 7.015267 24.903705 30.177069 0.424235 0.600147 0.138101 -0.024960 -160651.000000 0 0 1
15.588727 6.258267 26.082715 31.023900 0.381765 0.572167 0.116420 -0.031192 -104745.000000 0 0 1
15.369227 4.896467 25.935145 30.542107 0.308423 0.556403 0.134712 -0.033948 -172170.000000 0 0 1
15.692427 4.141967 27.219025 31.690432 0.258061 0.537671 0.129244 -0.037551 26547.300000 0 0 1
17.042527 4.214067 27.652345 32.754515 0.242405 0.565669 0.131119 -0.028587 413688.000000 0 0 1
17.490827 3.495867 28.823255 33.895872 0.197269 0.554152 0.128010 -0.029799 -162207.000000 0 0 1
17.758027 1.989767 28.582645 33.708668 0.111583 0.558725 0.147012 -0.028240 3177.830000 0 0 1
16.649727 1.142367 28.267755 32.826581 0.068504 0.533320 0.126996 -0.045546 441836.000000 0 0 1
15.903427 0.596467 29.329435 33.369005 0.037488 0.497156 0.110413 -0.042396 14106.300000 0 0 1
15.973327 -0.994033 29.261225 33.351980 -0.062151 0.500493 0.107201 -0.032716 -426091.000000 0 0 1
15.257727 -1.484333 28.116285 32.023850 -0.096979 0.499171 0.092339 -0.030453 328762.000000 0 0 1
15.844327 -1.327733 26.848395 31.203235 -0.083603 0.534671 0.111104 -0.030422 -765591.000000 0 0 1
17.047227 -2.241233 26.556595 31.636748 -0.130722 0.574577 0.111147 -0.027585 842397.000000 0 0 1
18.347327 -1.979833 27.100915 32.787250 -0.107493 0.597813 0.126335 -0.035024 708453.000000 0 0 1
19.099827 -0.893533 26.633675 32.786498 -0.046748 0.622649 0.129235 -0.034313 242518.000000 0 0 1
20.564827 -0.882033 27.194465 34.106143 -0.042864 0.647908 0.150299 -0.032615 847726.000000 0 0 1
21.430427 -1.719533 26.423395 34.064876 -0.080066 0.683007 0.129850 -0.038851 281149.000000 0 0 1
22.789827 -1.519033 26.814125 35.223302 -0.066556 0.705541 0.132529 -0.039427 167942.000000 0 0 1
23.761227 -2.143633 25.821005 35.155588 -0.089972 0.745899 0.123783 -0.026788 -546045.000000 0 0 1
23.788027 -1.677533 24.530545 34.211577 -0.070404 0.771272 0.132873 -0.018505 102892.000000 0 0 1
22.879927 -2.260633 23.606835 32.952757 -0.098485 0.772190 0.134275 -0.014212 173173.000000 0 0 1
22.940727 -1.472233 22.283885 32.015870 -0.064088 0.800948 0.125891 -0.030627 136243.000000 0 0 1
22.121627 -0.320633 22.305685 31.416759 -0.014493 0.781308 0.107478 -0.027492 -86723.500000 0 0 1
21.761227 -0.067333 21.035585 30.266341 -0.003094 0.802354 0.108405 -0.018458 -241522.000000 0 0 1
-31.536623 -27.018470 -10.271576 42.779219 0.708390 1.813272 0.042582 -0.000249 6368.290000 0 0 1
-31.529033 -25.881470 -9.417176 41.864229 0.687342 1.797684 0.054591 0.004655 -131552.000000 0 0 1
-32.280093 -26.047770 -8.221976 42.285833 0.678952 1.766481 0.052412 -0.004540 -505476.000000 0 0 1
-32.400543 -24.655870 -7.592876 41.416891 0.650486 1.755167 0.084652 -0.012067 1669560.000000 0 0 1
-31.166453 -24.075370 -7.018476 40.002878 0.657732 1.747158 0.116491 -0.026005 1121210.000000 0 0 1
-30.673523 -24.754070 -5.866376 39.850262 0.679005 1.718544 0.118272 -0.018995 828990.000000 0 0 1
-29.365873 -24.085170 -5.266676 38.343028 0.686923 1.708589 0.134158 -0.016277 683977.000000 0 0 1
-29.505743 -23.014570 -4.310976 37.667544 0.662428 1.685496 0.135788 -0.023670 108756.000000 0 0 1
-30.244353 -21.921770 -4.913276 37.675260 0.627191 1.701580 0.143673 -0.027684 346169.000000 0 0 1
-30.181613 -20.746870 -3.985176 36.840793 0.602220 1.679181 0.143231 -0.034377 24573.000000 0 0 1
-28.930433 -20.098070 -4.064776 35.460186 0.607162 1.685678 0.157074 -0.035598 205118.000000 0 0 1
-28.813263 -19.007670 -3.181776 34.664382 0.583153 1.662714 0.169817 -0.028563 676982.000000 0 0 1
-27.550523 -18.086870 -3.435276 33.135590 0.580930 1.674656 0.155777 -0.022943 668485.000000 0 0 1
-27.687383 -17.180370 -4.545676 32.900144 0.555366 1.709406 0.150133 -0.031801 -444250.000000 0 0 1
-26.789343 -16.128370 -4.633576 31.611126 0.541921 1.717907 0.135109 -0.031550 -399107.000000 0 0 1
-27.202733 -14.996670 -5.679976 31.577697 0.503835 1.751654 0.151314 -0.050764 553867.000000 0 0 1
-28.251283 -14.173970 -5.154576 32.025085 0.465015 1.732454 0.141411 -0.035654 359231.000000 0 0 1
-28.721433 -13.122970 -5.978676 32.138414 0.428581 1.757915 0.165628 -0.054190 -875578.000000 0 0 1
-30.084263 -12.612070 -5.581076 33.094948 0.396969 1.740244 0.146783 -0.042608 -596272.000000 0 0 1
-31.123793 -13.503370 -5.974176 34.448836 0.409351 1.745099 0.148404 -0.038663 651621.000000 0 0 1
-32.413263 -12.921070 -5.769376 35.367490 0.379329 1.734655 0.123301 -0.037257 372444.000000 0 0 1
-33.514453 -13.572870 -6.636776 36.762592 0.384797 1.752322 0.094920 -0.034452 -261797.000000 0 0 1
-34.142586 -14.695270 -6.037976 37.657991 0.406443 1.731829 0.092897 -0.035016 213030.000000 0 0 1
-34.571146 -15.566170 -7.108876 38.574680 0.423074 1.756144 0.099975 -0.039204 -742017.000000 0 0 1
-35.639059 -16.640270 -6.868776 39.927700 0.436828 1.743687 0.102892 -0.030837 972817.000000 0 0 1
-36.989643 -16.145670 -6.692676 40.910980 0.411564 1.735126 0.092722 -0.035010 1090510.000000 0 0 1
-37.326373 -15.281970 -5.588776 40.718929 0.388596 1.708483 0.105712 -0.039668 -277992.000000 0 0 1
36.384616 -15.038170 -5.302576 39.725359 -0.391929 1.704677 0.134072 -0.040499 19955.700000 0 0 1
35.758446 -14.207570 -6.259876 38.983427 -0.378194 1.732072 0.144692 -0.057768 407960.000000 0 0 1
34.369486 -14.399070 -6.431476 37.814794 -0.396734 1.741705 0.151889 -0.042606 628787.000000 0 0 1
33.345206 -13.874770 -5.367276 36.513281 -0.394304 1.718326 0.192399 -0.050655 -129962.000000 0 0 1
33.363466 -14.709770 -4.222076 36.705914 -0.415256 1.686076 0.189036 -0.052560 370448.000000 0 0 1
32.409756 -14.265470 -3.269876 35.561046 -0.414641 1.662877 0.216758 -0.044204 -751170.000000 0 0 1
32.246926 -15.133170 -1.985776 35.676608 -0.438779 1.626486 0.236094 -0.039108 -699245.000000 0 0 1
33.294276 -15.011570 -1.050076 36.537087 -0.423582 1.599540 0.263674 -0.039982 550967.000000 0 0 1
34.645026 -15.310970 -1.372876 37.902354 -0.416130 1.607026 0.213191 -0.045161 79117.200000 0 0 1
34.844406 -16.850070 -1.790876 38.746158 -0.450426 1.617034 0.190929 -0.047167 -1150400.000000 0 0 1
34.922606 -17.743170 -0.689676 39.177598 -0.470084 1.588401 0.171021 -0.035740 260289.000000 0 0 1
34.644116 -19.142270 -1.035276 39.594357 -0.504791 1.596946 0.143005 -0.035628 631195.000000 0 0 1
35.823256 -19.848070 -1.808276 40.994163 -0.505951 1.614921 0.123414 -0.049531 561660.000000 0 0 1
35.931116 -19.367470 -3.127376 40.938057 -0.494372 1.647264 0.099120 -0.049743 -479188.000000 0 0 1
37.076856 -19.752470 -3.814676 42.182995 -0.489498 1.661352 0.083312 -0.040644 -406358.000000 0 0 1
37.084846 -19.136970 -5.205776 42.054840 -0.476391 1.694900 0.103303 -0.047051 -155693.000000 0 0 1
36.012856 -19.527170 -6.028876 41.407530 -0.496856 1.716914 0.086337 -0.049546 -12275.700000 0 0 1
35.797326 -18.466970 -6.872376 40.862050 -0.476267 1.739784 0.091627 -0.039231 -283500.000000 0 0 1
34.642716 -18.683470 -7.871376 40.139113 -0.494606 1.768178 0.105608 -0.044303 -224371.000000 0 0 1
34.763526 -19.799070 -8.781276 40.958720 -0.517718 1.786867 0.109657 -0.045092 156853.000000 0 0 1
33.641976 -19.843370 -9.633476 40.228668 -0.532915 1.812614 0.099579 -0.047275 -303424.000000 0 0 1
33.582876 -21.150370 -10.571076 41.071832 -0.562041 1.831106 0.095324 -0.035924 -133189.000000 0 0 1
33.289926 -22.279870 -9.783976 41.235155 -0.589801 1.810354 0.086209 -0.040100 173342.000000 0 0 1
32.980686 -23.369770 -10.630876 41.795781 -0.616468 1.827975 0.063963 -0.031501 -228058.000000 0 0 1
32.477656 -24.614870 -9.853276 41.925852 -0.648539 1.808032 0.078203 -0.028160 587427.000000 0 0 1
31.206676 -24.329270 -9.262476 40.639433 -0.662188 1.800736 0.096506 -0.037469 359807.000000 0 0 1
30.434556 -25.472970 -8.969176 40.688826 -0.696884 1.793055 0.063426 -0.032983 -114949.000000 0 0 1
29.011126 -25.088370 -8.555776 39.297240 -0.713015 1.790274 0.070418 -0.036831 165577.000000 0 0 1
28.212426 -24.446770 -9.564976 38.536662 -0.714010 1.821623 0.081902 -0.027998 769128.000000 0 0 1
26.857026 -24.266570 -9.123376 37.328304 -0.734771 1.817707 0.091365 -0.041231 644890.000000 0 0 1
25.878326 -23.726270 -10.169976 36.552046 -0.742041 1.852750 0.132091 -0.040778 -529169.000000 0 0 1
25.331726 -24.663270 -10.996876 37.025728 -0.772029 1.872352 0.114728 -0.034099 -158439.000000 0 0 1
24.729026 -24.124070 -12.125176 36.613049 -0.773016 1.908341 0.122776 -0.023378 -252785.000000 0 0 1
23.832626 -25.177370 -12.785676 36.950880 -0.812829 1.924120 0.119957 -0.032771 -382768.000000 0 0 1
24.594126 -26.216070 -13.273376 38.318871 -0.817309 1.924519 0.118721 -0.028485 -337351.000000 0 0 1
23.894226 -27.394970 -13.279976 38.701114 -0.853547 1.921056 0.127015 -0.020625 -532351.000000 0 0 1
24.614726 -28.536070 -13.987876 40.197671 -0.859042 1.926209 0.104049 -0.026171 -192679.000000 0 0 1
24.765426 -28.339670 -15.392276 40.661842 -0.852602 1.959019 0.102191 -0.021454 382669.000000 0 0 1
25.124026 -29.517870 -16.068076 41.960749 -0.865637 1.963764 0.083143 -0.012933 -324886.000000 0 0 1
25.154626 -29.454270 -17.630276 42.557442 -0.863971 1.997937 0.080362 -0.019432 544426.000000 0 0 1
23.833326 -29.262870 -18.158476 41.881658 -0.887303 2.019243 0.080080 -0.018785 781036.000000 0 0 1
23.755326 -29.508570 -19.486576 42.600445 -0.892995 2.045895 0.054896 -0.009308 66180.500000 0 0 1
22.289426 -29.465770 -19.986576 42.006111 -0.923179 2.066672 0.056307 -0.008051 115670.000000 0 0 1
22.220226 -29.662470 -21.371176 42.782330 -0.927870 2.093856 0.039638 0.003481 292895.000000 0 0 1
20.857826 -29.611670 -21.754676 42.251223 -0.957138 2.111674 0.061674 -0.010354 -309034.000000 0 0 1
20.604526 -29.735970 -23.280976 43.020673 -0.964841 2.142610 0.059610 -0.010859 -353272.000000 0 0 1
21.116826 -28.689270 -24.102776 43.010910 -0.936281 2.165650 0.063233 -0.011847 446478.000000 0 0 1
21.051226 -28.954270 -25.486986 43.944173 -0.942145 2.189507 0.064126 -0.010611 -435444.000000 0 0 1
21.516926 -27.738670 -26.375606 43.909959 -0.911048 2.215141 0.068214 -0.016622 542762.000000 0 0 1
20.588826 -26.668070 -26.620846 42.938970 -0.913338 2.239500 0.093388 -0.031357 248218.000000 0 0 1
19.488126 -26.975770 -27.442346 43.134228 -0.945174 2.260370 0.108864 -0.036590 -351931.000000 0 0 1
18.640826 -25.774770 -27.863286 42.286900 -0.944656 2.290166 0.110034 -0.041399 -305745.000000 0 0 1
17.949826 -25.214270 -26.734966 40.898827 -0.952134 2.283240 0.090338 -0.024190 115016.000000 0 0 1
17.409626 -23.992970 -27.187556 40.223387 -0.943086 2.313001 0.076775 -0.010153 -846698.000000 0 0 1
16.227726 -23.565970 -26.333896 38.886606 -0.967757 2.314743 0.071386 -0.007361 -377829.000000 0 0 1
15.056326 -24.363070 -26.608856 39.093265 -1.017248 2.319447 0.094575 -0.021471 835781.000000 0 0 1
13.954326 -24.119670 -25.724136 37.923777 -1.046302 2.316259 0.077699 -0.011604 456040.000000 0 0 1
14.123726 -24.489870 -24.265976 37.256825 -1.047673 2.280114 0.079810 -0.010133 -345486.000000 0 0 1
15.097126 -23.774570 -23.505376 36.683186 -1.005030 2.266293 0.039213 -0.001671 28412.100000 0 0 1
15.074426 -24.114870 -22.157776 36.051801 -1.012119 2.232687 0.047819 -0.008147 65604.900000 0 0 1
16.144326 -23.288070 -21.428376 35.526733 -0.964619 2.218256 0.038245 -0.006435 8443.090000 0 0 1
15.885826 -21.917470 -21.161476 34.359031 -0.943618 2.234315 0.023848 -0.000898 -144158.000000 0 0 1
17.013726 -21.322170 -20.546676 34.150662 -0.897315 2.216359 0.037235 0.002616 -567226.000000 0 0 1
17.010926 -19.841270 -20.002076 32.910950 -0.862050 2.224038 0.058538 0.006132 -35744.200000 0 0 1
16.269526 -19.733270 -18.807676 31.746309 -0.881311 2.204876 0.044675 0.005435 -97280.300000 0 0 1
14.877326 -19.617270 -19.000176 31.099499 -0.921954 2.228054 0.028989 0.004465 -427757.000000 0 0 1
14.105526 -19.709870 -17.663976 29.991014 -0.949639 2.200587 0.041243 0.004761 -112078.000000 0 0 1
14.189326 -18.470470 -16.909176 28.782208 -0.915738 2.198746 0.073165 -0.008354 110540.000000 0 0 1
13.800926 -18.599270 -15.568276 27.906444 -0.932426 2.162618 0.072823 -0.013608 -236583.000000 0 0 1
13.703426 -17.218470 -14.886276 26.568041 -0.898587 2.165553 0.090232 -0.014883 -596119.000000 0 0 1
12.567126 -16.547170 -15.340776 25.827909 -0.921260 2.206770 0.087402 -0.026526 -271474.000000 0 0 1
12.493126 -15.304670 -14.750376 24.655318 -0.886198 2.212129 0.078398 -0.033319 -176349.000000 0 1 0
11.026126 -14.921870 -14.473276 23.531115 -0.934422 2.233271 0.081832 -0.025219 -290671.000000 0 1 0
10.381626 -14.410070 -15.596776 23.636576 -0.946482 2.291426 0.107766 -0.019996 -294530.000000 0 1 0
9.167726 -13.798870 -15.230076 22.503583 -0.984377 2.314182 0.100487 -0.025486 176762.000000 0 1 0
8.217626 -13.377270 -16.387376 22.694203 -1.019930 2.377623 0.071550 -0.010035 -81274.700000 0 1 0
8.447026 -12.114470 -16.986976 22.509331 -0.961907 2.425938 0.069882 -0.005293 41918.000000 0 1 0
9.720426 -12.065170 -17.614676 23.459152 -0.892614 2.420168 0.099346 -0.011228 123695.000000 0 1 0
9.808626 -10.808770 -18.472376 23.542883 -0.833870 2.472890 0.095830 -0.011545 -198161.000000 0 1 0
9.181026 -10.825670 -19.742376 24.315587 -0.867418 2.518234 0.099922 -0.011270 234052.000000 0 1 0
9.378726 -9.550770 -20.432176 24.426451 -0.794487 2.561620 0.093326 -0.018953 242731.000000 0 1 0
9.045726 -9.733970 -21.918376 25.631827 -0.822030 2.596585 0.103386 -0.020445 -132816.000000 0 0 1
10.211226 -10.138170 -22.601776 26.793505 -0.781808 2.574664 0.117445 -0.021919 -248785.000000 0 0 1
10.059226 -10.358270 -24.013176 28.019893 -0.800044 2.600225 0.112175 -0.020503 -468661.000000 0 0 1
11.283326 -10.975670 -24.652876 29.249668 -0.771577 2.573341 0.119327 -0.018315 -415991.000000 0 0 1
11.238126 -12.374570 -24.648376 29.782006 -0.833490 2.545662 0.098237 -0.018882 252161.000000 0 0 1
12.505126 -12.869370 -25.075146 30.834426 -0.799752 2.520459 0.077934 -0.026410 275597.000000 0 0 1
12.651126 -14.403470 -24.855576 31.389658 -0.850078 2.484612 0.061361 -0.013142 -117742.000000 0 0 1
11.659026 -15.230370 -25.470856 31.885131 -0.917441 2.496147 0.053015 -0.008308 39832.400000 0 0 1
11.575626 -16.516870 -24.854676 32.008703 -0.959509 2.459884 0.039298 -0.006898 -141109.000000 0 0 1
10.324826 -17.280570 -25.277826 32.313908 -1.032231 2.469079 0.039767 -0.003823 -109627.000000 0 0 1
10.425626 -17.654270 -26.631816 33.609828 -1.037359 2.485500 0.042609 -0.012156 246960.000000 0 0 1
9.236326 -18.325770 -27.037646 33.943746 -1.103948 2.492351 0.053728 -0.012332 206077.000000 0 0 1
9.344626 -19.261170 -28.306886 35.490767 -1.119096 2.494076 0.062264 -0.015250 -74963.900000 0 0 1
10.197926 -20.368170 -28.036206 36.123246 -1.106605 2.459296 0.047598 -0.018061 216146.000000 0 0 1
9.955226 -21.365270 -28.949586 37.331754 -1.134755 2.458253 0.058212 -0.018366 75421.900000 0 0 1
10.947026 -22.546270 -28.780286 38.163812 -1.118787 2.425117 0.054502 -0.014527 125407.000000 0 0 1
10.860726 -23.471670 -29.858786 39.502174 -1.137418 2.427789 0.067857 -0.016354 77106.500000 0 0 1
11.611826 -24.617770 -29.500086 40.138811 -1.130056 2.396392 0.090508 -0.027412 -208112.000000 0 0 1
10.995626 -25.717770 -28.609246 40.009954 -1.166768 2.367497 0.096254 -0.032806 -78700.900000 0 0 1
10.492726 -25.164570 -27.406336 38.658248 -1.175752 2.358789 0.096019 -0.030776 -72647.000000 0 0 1
10.395626 -26.166770 -26.388546 38.589173 -1.192634 2.323799 0.093562 -0.022664 339043.000000 0 0 1
9.611426 -25.674870 -25.120046 37.183265 -1.212594 2.312539 0.075468 -0.012575 -165943.000000 0 0 1
10.263526 -24.626270 -24.523976 36.238357 -1.175916 2.314123 0.062719 -0.009772 -194294.000000 0 0 1
9.709426 -23.345770 -24.815776 35.427682 -1.176662 2.346842 0.055213 0.000446 259732.000000 0 0 1
10.816426 -22.250070 -24.728576 34.979468 -1.118306 2.355966 0.060416 0.011355 337210.000000 0 0 1
11.208926 -21.896470 -23.405876 33.954830 -1.097670 2.331352 0.056475 0.004006 795352.000000 0 0 1
12.297626 -20.952270 -23.272976 33.643137 -1.040039 2.334720 0.048502 -0.003156 531440.000000 0 0 1
12.794226 -20.653470 -21.827376 32.660257 -1.016183 2.302739 0.036741 0.009649 353036.000000 0 0 1
11.922026 -19.933670 -20.906176 31.249866 -1.031786 2.303660 0.033652 0.012581 252595.000000 0 0 1
11.435926 -18.678170 -21.283476 30.539168 -1.021410 2.341895 0.035681 0.008622 226860.000000 0 0 1
12.456926 -17.486470 -21.158276 30.143395 -0.951813 2.348887 0.045185 -0.002741 -205804.000000 0 0 1
13.508626 -17.528870 -22.045476 31.236954 -0.914210 2.354277 0.037708 0.007311 -556362.000000 0 0 1
14.429626 -16.470870 -21.755176 30.867319 -0.851361 2.352932 0.055382 0.000433 1229250.000000 0 0 1
15.712026 -16.444370 -22.701476 32.134749 -0.808169 2.355261 0.041045 0.005437 756746.000000 0 0 1
16.768126 -17.260170 -22.264876 32.784268 -0.799857 2.317377 0.047901 0.009034 226353.000000 0 0 1
17.984226 -16.831370 -22.885376 33.622431 -0.752297 2.319457 0.081310 0.003722 1090290.000000 0 0 1
19.288026 -17.151070 -22.063176 33.955425 -0.726821 2.278077 0.087812 0.004258 642662.000000 0 0 1
19.614126 -18.519670 -21.982376 34.798232 -0.756706 2.254553 0.084127 -0.001371 -3000.100000 0 0 1
20.976426 -18.811270 -21.767776 35.604921 -0.731034 2.228587 0.068736 -0.005020 65824.600000 0 0 1
21.181926 -20.356970 -21.550476 36.434918 -0.765541 2.203688 0.087788 -0.008474 120300.000000 0 0 1
20.509026 -20.827170 -20.355876 35.619557 -0.793095 2.179105 0.078844 -0.005103 578352.000000 0 0 1
20.708826 -22.215170 -20.264376 36.510467 -0.820477 2.159194 0.100561 -0.005582 -123807.000000 0 0 1
-17.155173 12.928967 28.904295 36.012726 -0.645832 0.639133 0.082770 -0.026454 -383551.000000 0 0 1
-18.246873 13.677667 28.446095 36.458295 -0.643238 0.675752 0.087354 -0.029205 -155056.000000 0 0 1
-18.443373 13.317567 27.099605 35.382258 -0.625391 0.698342 0.086114 -0.033771 -289729.000000 0 0 1
-19.538073 14.126767 26.393935 35.748310 -0.626021 0.740210 0.088773 -0.023662 -221911.000000 0 0 1
-19.378873 15.517867 26.361665 36.211632 -0.675205 0.755412 0.097604 -0.027471 149260.000000 0 0 1
-20.446973 16.082467 25.624715 36.515072 -0.666483 0.792935 0.104916 -0.028764 -138050.000000 0 0 1
-20.318573 17.635167 25.832685 37.298407 -0.714814 0.805716 0.103365 -0.017604 -666810.000000 0 0 1
-19.218373 18.233367 25.290045 36.624963 -0.759104 0.808597 0.050908 -0.011830 -166055.000000 0 0 1
-18.061773 18.320767 26.144285 36.679719 -0.792517 0.777354 0.044686 -0.004199 745474.000000 0 0 1
-16.903673 19.177167 25.559025 36.149159 -0.848326 0.785488 0.050055 -0.010256 272400.000000 0 0 1
-17.205873 20.576367 25.610165 37.085166 -0.874371 0.808510 0.063255 -0.012854 768916.000000 0 0 1
-16.014173 21.280667 25.239185 36.692465 -0.925683 0.812263 0.078140 -0.022558 599941.000000 0 0 1
-16.231173 22.824867 25.230385 37.696125 -0.952648 0.837517 0.091006 -0.026141 169364.000000 0 0 1
-15.791673 23.540967 26.411465 38.744284 -0.979926 0.820731 0.086438 -0.018038 158758.000000 0 0 1
-16.171673 24.864467 26.190855 39.569251 -0.994145 0.847447 0.089453 -0.020253 -382279.000000 0 0 1
-15.551973 25.896567 27.121815 40.596661 -1.029978 0.839171 0.066706 -0.007163 -363599.000000 0 0 1
-14.161273 25.950367 26.944435 39.999572 -1.071256 0.831703 0.070335 -0.013310 -246446.000000 0 0 1
-13.574373 26.992367 27.725075 41.006478 -1.104834 0.828320 0.083424 -0.003349 332254.000000 0 0 1
-12.053673 27.057167 28.021825 40.775041 -1.151700 0.813128 0.082182 -0.015156 131445.000000 0 0 1
-11.390473 27.447767 26.887715 40.075828 -1.177437 0.835346 0.060657 -0.012793 -772814.000000 0 0 1
-10.020473 27.649567 27.115445 40.001948 -1.223109 0.825958 0.051346 -0.004674 -146877.000000 0 0 1
-9.251073 27.831767 25.747615 39.027289 -1.249893 0.850332 0.051494 -0.008404 1240230.000000 0 0 1
-7.867273 28.240067 25.934735 39.140846 -1.299100 0.846511 0.037091 -0.004985 1371540.000000 0 0 1
-7.230973 28.465667 24.675615 38.359707 -1.322034 0.872036 0.057413 -0.011475 -665982.000000 0 0 1
-5.730573 28.244667 24.807245 38.026308 -1.370623 0.860088 0.059738 -0.014926 -813163.000000 0 0 1
-5.129373 29.329967 25.545155 39.231523 -1.397662 0.861713 0.082924 -0.013782 597275.000000 0 0 1
-3.716573 29.144067 25.705885 39.038213 -1.443957 0.851999 0.073454 -0.017321 897747.000000 0 0 1
-2.898173 29.867467 24.600495 38.802698 -1.474065 0.884095 0.080124 -0.018539 -314188.000000 0 0 1
-3.004473 29.320067 23.289695 37.564652 -1.468681 0.902067 0.081054 -0.021604 -216641.000000 0 0 1
-2.580873 30.345367 22.371285 37.788578 -1.485951 0.937243 0.084301 -0.022832 -264041.000000 0 0 1
-2.813373 30.017767 20.909885 36.690662 -1.477346 0.964416 0.074261 -0.023428 1090420.000000 0 0 1
-4.173173 29.840967 20.451685 36.416619 -1.431850 0.974474 0.074191 -0.023824 899453.000000 0 0 1
-4.860473 28.669367 20.901685 35.811133 -1.402858 0.947562 0.069676 -0.018970 283967.000000 0 0 1
-6.412673 28.779667 20.777485 36.070701 -1.351558 0.956944 0.064226 -0.025052 391826.000000 0 0 1
-6.826373 28.627267 19.433285 35.267157 -1.336711 0.987197 0.059209 -0.023802 255563.000000 0 0 1
-7.713373 27.550167 19.115885 34.408210 -1.297810 0.981758 0.047840 -0.022282 -275282.000000 0 0 1
-7.032673 26.155467 18.935385 33.047175 -1.308129 0.960658 0.047310 -0.021043 576177.000000 0 0 1
-6.117573 25.949567 17.847785 32.083456 -1.339275 0.980879 0.050055 -0.022884 1224040.000000 0 0 1
-4.797373 26.495267 18.018285 32.398651 -1.391672 0.981059 0.056468 -0.017885 464208.000000 0 0 1
-3.970073 26.616067 16.738585 31.691588 -1.422727 1.014351 0.040686 -0.019287 852.249000 0 0 1
-3.538973 25.400167 16.175885 30.320819 -1.432359 1.008074 0.051935 -0.022739 169380.000000 0 0 1
-2.763373 25.676467 14.982885 29.856390 -1.463586 1.045081 0.063497 -0.037086 129177.000000 0 0 1
-2.089473 24.416167 14.394385 28.420300 -1.485427 1.039696 0.058925 -0.034247 -519296.000000 0 0 1
-0.895573 24.090367 15.019285 28.402936 -1.533638 1.013618 0.053234 -0.032508 -745348.000000 0 0 1
-0.213673 23.043367 14.390585 27.168573 -1.561524 1.012576 0.042266 -0.043881 -291660.000000 0 0 1
1.071127 22.596067 15.123685 27.211310 1.523429 0.981487 0.033180 -0.038799 305366.000000 0 0 1
2.059027 23.622667 14.936885 28.024641 1.483853 1.008665 0.048581 -0.047745 271728.000000 0 0 1
3.291927 23.130767 15.439885 28.004629 1.429428 0.986835 0.054100 -0.043890 131657.000000 0 0 1
4.537327 24.027767 15.254185 28.820324 1.384157 1.013038 0.074461 -0.050026 330144.000000 0 0 1
5.746827 23.321667 15.452285 28.560450 1.329194 0.999126 0.089287 -0.047631 -162394.000000 0 0 1
6.840727 24.202967 15.554585 29.572357 1.295341 1.016925 0.110319 -0.052939 840498.000000 0 0 1
8.275627 23.540467 15.712385 29.487601 1.232742 1.008835 0.127966 -0.046485 990167.000000 0 0 1
8.803727 23.074067 14.507185 28.642217 1.206303 1.039680 0.118803 -0.036388 -14304.400000 0 0 1
9.494827 24.057767 13.694885 29.265641 1.194895 1.083826 0.133186 -0.038350 -237815.000000 0 0 1
10.058027 23.371267 12.410585 28.309056 1.164396 1.116983 0.107660 -0.029220 388016.000000 0 0 1
11.268927 22.708467 12.795385 28.396920 1.110159 1.103370 0.118936 -0.028546 429019.000000 0 0 1
11.869627 22.168967 11.595085 27.691102 1.079219 1.138750 0.112754 -0.026347 215922.000000 0 0 1
13.179927 21.368367 11.739485 27.715214 1.018118 1.133408 0.121033 -0.036403 99818.000000 0 0 1
13.068427 20.214667 12.495685 27.121185 0.996898 1.091973 0.114471 -0.026675 -531040.000000 0 0 1
14.264227 19.500167 12.554485 27.227556 0.939246 1.091568 0.096772 -0.029759 -399856.000000 0 0 1
14.332127 18.777267 13.944985 27.430972 0.918856 1.037510 0.102495 -0.032957 937074.000000 0 0 1
15.601527 18.073767 13.981285 27.668484 0.858681 1.041050 0.096080 -0.034748 1080760.000000 0 0 1
15.999727 17.798067 15.317885 28.414786 0.838557 1.001450 0.081239 -0.035459 186773.000000 0 0 1
17.463927 17.303767 15.409185 29.014687 0.780792 1.010919 0.067854 -0.032793 108047.000000 0 0 1
17.916627 16.887167 16.677385 29.737470 0.755828 0.975420 0.065475 -0.038042 442485.000000 0 0 1
19.144427 16.162567 16.601685 30.055841 0.701143 0.985602 0.064863 -0.039906 428709.000000 0 0 1
19.688727 15.671667 17.977385 30.926259 0.672280 0.950473 0.069675 -0.045051 -128173.000000 0 0 1
20.207627 16.588767 18.931085 32.278807 0.687365 0.944082 0.083299 -0.039577 332164.000000 0 0 1
19.229727 17.382967 19.563885 32.476076 0.735000 0.924280 0.075456 -0.033742 -105802.000000 0 0 1
19.866927 18.308667 20.542985 33.939893 0.744603 0.920684 0.069071 -0.037051 -259237.000000 0 0 1
18.869927 19.168267 21.015185 34.134068 0.793241 0.907565 0.088718 -0.037534 -193919.000000 0 0 1
19.435727 20.201967 21.697885 35.449474 0.804727 0.912109 0.092549 -0.031938 155610.000000 0 0 1
18.397027 21.293167 22.134385 35.801963 0.858238 0.904288 0.104083 -0.031206 165490.000000 0 0 1
17.509627 20.777067 23.074235 35.646793 0.870533 0.866757 0.104377 -0.029396 -187269.000000 0 0 1
16.839127 21.816867 23.809175 36.419894 0.913464 0.858279 0.098344 -0.035573 57261.200000 0 0 1
16.112127 21.398167 25.077895 36.693092 0.925399 0.818318 0.106332 -0.033834 106794.000000 0 0 1
14.961627 20.631267 24.781295 35.547321 0.943362 0.799402 0.101542 -0.030101 -545520.000000 0 0 1
14.213027 20.477467 25.945265 35.979071 0.964054 0.765377 0.085346 -0.021998 -68603.400000 0 0 1
13.086627 19.405167 25.830975 34.857705 0.977467 0.736178 0.081358 -0.018047 71832.000000 0 0 1
13.439427 17.991267 25.791045 34.197688 0.929220 0.716399 0.092497 -0.021842 201435.000000 0 0 1
14.160227 17.502667 24.638735 33.375480 0.890572 0.740356 0.104812 -0.027563 309782.000000 0 0 1
13.316127 17.542567 23.317985 32.074746 0.921512 0.756870 0.108210 -0.024391 -426644.000000 0 0 1
13.242927 18.792067 22.584385 32.226873 0.956917 0.794287 0.098146 -0.023098 689506.000000 0 0 1
14.438627 19.243667 21.888285 32.525216 0.927100 0.832588 0.110291 -0.029367 1185800.000000 0 0 1
15.038027 18.205167 20.848385 31.499611 0.880383 0.847497 0.116294 -0.030705 -327788.000000 0 0 1
14.150127 17.887467 19.812985 30.211619 0.901528 0.855546 0.110304 -0.025132 -43496.000000 0 0 1
14.694927 16.880467 18.997585 29.356418 0.854505 0.866975 0.097387 -0.021632 -174170.000000 0 0 1
13.610627 16.250467 18.120285 27.886763 0.873573 0.863500 0.088483 -0.017495 -36309.000000 0 0 1
13.004627 17.139567 17.205585 27.548453 0.921719 0.896232 0.106387 -0.025270 379639.000000 0 0 1
11.979227 16.422467 16.499685 26.180888 0.940583 0.888961 0.078937 -0.023812 505977.000000 0 0 1
11.291827 17.149767 15.325085 25.621829 0.988522 0.929636 0.085725 -0.018481 -27075.400000 0 0 1
10.488327 18.267467 15.588385 26.205021 1.049599 0.933702 0.088800 -0.027248 54909.500000 0 0 1
10.010627 18.848667 14.374885 25.731736 1.082575 0.978046 0.080012 -0.014268 970288.000000 0 0 1
8.877027 19.966867 14.522085 26.236775 1.152452 0.984234 0.090283 -0.015881 1220550.000000 0 0 1
7.606727 19.477267 14.928985 25.692427 1.198468 0.950759 0.061213 -0.014346 -246595.000000 0 0 1
6.706727 20.546667 15.063185 26.344739 1.255286 0.962132 0.073506 -0.022680 -735187.000000 0 0 1
5.456427 20.172767 15.828885 26.215773 1.306633 0.922546 0.065208 -0.027614 -93148.800000 0 0 1
4.474827 19.462067 15.066085 25.015656 1.344799 0.924459 0.056231 -0.022293 -510729.000000 0 0 1
3.366527 18.983267 15.723485 24.878222 1.395279 0.886642 0.049521 -0.032873 300430.000000 0 1 0
2.308827 18.311267 14.751685 23.627217 1.445370 0.896495 0.040481 -0.030986 818937.000000 0 1 0
1.406027 19.244667 14.182485 23.947380 1.497865 0.936966 0.038111 -0.027557 304171.000000 0 1 0
0.430427 18.599767 13.345285 22.896140 1.547659 0.948550 0.030729 -0.031178 626877.000000 0 1 0
-0.365873 19.555767 12.378585 23.147165 -1.552089 1.006552 0.034178 -0.035882 103938.000000 0 1 0
-1.376973 20.323367 12.973885 24.150714 -1.503147 1.003676 0.049494 -0.030623 -591420.000000 0 1 0
-2.251973 20.779467 11.981485 24.091775 -1.462843 1.050282 0.052197 -0.033849 -346035.000000 0 1 0
-3.499273 21.454567 12.536685 25.094060 -1.409118 1.047673 0.052520 -0.036377 -426666.000000 0 0 1
-4.315273 20.635267 13.312685 24.933179 -1.364646 1.007549 0.060867 -0.030937 374558.000000 0 1 0
-5.455873 21.388367 13.780385 26.021680 -1.321037 1.012699 0.062591 -0.022664 1130940.000000 0 0 1
-6.306373 20.889767 15.016585 26.488687 -1.277608 0.968052 0.050110 -0.024246 -499817.000000 0 0 1
-7.174773 19.826367 14.767785 25.741983 -1.223577 0.959799 0.047086 -0.018237 45590.400000 0 0 1
-7.857373 19.392967 15.962285 26.317675 -1.185844 0.919116 0.037509 -0.004084 441051.000000 0 0 1
-8.953673 20.332667 16.598285 27.732448 -1.155989 0.929150 0.027454 0.007950 57973.000000 0 0 1
-10.135773 20.286767 15.823485 27.652658 -1.107449 0.961582 0.016234 -0.002609 320738.000000 0 0 1
-11.209873 19.587867 16.474985 27.942278 -1.051004 0.940223 -0.001282 0.004882 437033.000000 0 0 1
-12.496073 19.448767 15.632085 27.906423 -0.999703 0.976216 0.006782 -0.008763 -13745.700000 0 0 1
-13.198473 20.634567 15.349785 28.906763 -1.001746 1.011004 0.002337 -0.003325 -326199.000000 0 0 1
-13.999973 20.361267 14.229985 28.514434 -0.968456 1.048300 -0.000431 -0.009943 -143206.000000 0 0 1
-15.061873 21.427667 13.863985 29.634693 -0.958115 1.083963 0.008731 -0.016710 628569.000000 0 0 1
-16.251073 21.407767 14.683285 30.626602 -0.921484 1.070792 0.004066 -0.024041 900922.000000 0 0 1
-17.215673 22.336367 14.166685 31.559272 -0.914149 1.105272 0.038854 -0.022067 433519.000000 0 0 1
-18.475673 22.397567 15.081885 32.717958 -0.881058 1.091712 0.100565 -0.025568 -63838.100000 0 0 1
-19.353073 21.275167 14.863885 32.374515 -0.832672 1.093789 0.097178 -0.026131 834624.000000 0 0 1
-20.460473 21.149667 15.778285 33.390023 -0.801960 1.078620 0.117564 -0.027139 1304470.000000 0 0 1
-21.609073 22.206867 15.586685 34.684892 -0.799041 1.104726 0.114646 -0.030454 -46232.900000 0 0 1
-22.552873 21.958267 14.532885 34.669905 -0.772040 1.138256 0.127167 -0.024538 406126.000000 0 0 1
-23.446873 23.017367 14.271785 35.822324 -0.776155 1.161019 0.135694 -0.035068 -88290.000000 0 0 1
-22.963773 24.348567 13.560585 36.112007 -0.814659 1.185844 0.123759 -0.028704 -437055.000000 0 0 1
-21.913573 24.887567 14.330785 36.124328 -0.848858 1.162869 0.086942 -0.027341 16172.400000 0 0 1
-21.355073 26.025467 13.687985 36.341781 -0.883653 1.184623 0.076797 -0.027387 -147053.000000 0 0 1
-19.945773 26.539667 14.055385 36.051930 -0.926307 1.170311 0.060539 -0.020322 103340.000000 0 0 1
-18.955273 25.744467 13.447385 34.683024 -0.936131 1.172637 0.052486 -0.011984 -252795.000000 0 0 1
-17.667573 26.322867 13.530185 34.468861 -0.979671 1.167412 0.003455 -0.012971 -276478.000000 0 0 1
-16.741673 25.639167 12.514285 33.079568 -0.992334 1.182828 0.005981 -0.014514 344065.000000 0 0 1
-15.442173 26.221167 12.644385 32.952857 -1.038564 1.176984 0.009802 -0.019713 917583.000000 0 0 1
-14.413773 25.673967 11.795585 31.718217 -1.059231 1.189756 0.007913 -0.017717 536548.000000 0 0 1
-13.080973 26.429767 11.935385 31.813486 -1.111210 1.186219 0.021950 -0.013372 -238077.000000 0 0 1
-12.008973 25.736567 11.275885 30.557027 -1.134215 1.192851 0.024293 -0.017603 791926.000000 0 0 1
-10.727673 26.225867 11.680385 30.648172 -1.182513 1.179798 0.059298 -0.022606 510455.000000 0 0 1
-10.223073 27.516767 11.039485 31.361663 -1.215079 1.211083 0.068928 -0.032046 -222500.000000 0 0 1
-8.882173 27.782067 11.444085 31.332145 -1.261357 1.196894 0.102421 -0.036512 367735.000000 0 0 1
-8.449273 29.053367 10.990985 32.191460 -1.287784 1.222363 0.116574 -0.041731 297980.000000 0 0 1
-7.184173 29.492167 11.799185 32.567177 -1.331854 1.200059 0.105498 -0.042826 980620.000000 0 0 1
-5.984173 28.825867 11.412485 31.575081 -1.366106 1.200985 0.117878 -0.040893 1021720.000000 0 0 1
-4.827073 29.316667 12.138085 32.095182 -1.407608 1.182956 0.118552 -0.043563 1547480.000000 0 0 1
-3.428273 28.819067 11.640685 31.269749 -1.452394 1.189346 0.111069 -0.049288 389750.000000 0 0 1
-3.102373 29.360767 10.423985 31.310363 -1.465523 1.231393 0.137320 -0.050331 -291626.000000 0 0 1
-1.724673 29.420067 10.159685 31.172649 -1.512241 1.238815 0.116256 -0.044663 196083.000000 0 0 1
-1.343473 30.257867 8.874385 31.561023 -1.526425 1.285771 0.113265 -0.044725 146880.000000 0 0 1
-1.829573 29.567667 7.764285 30.624800 -1.508998 1.314469 0.144130 -0.042562 -176163.000000 0 0 1
-1.644873 30.271767 6.525785 31.010826 -1.516513 1.358776 0.147233 -0.040162 132017.000000 0 0 1
11.829727 -33.628670 -26.164526 44.220044 -1.232541 2.203949 0.171336 -0.064594 -331267.000000 0 0 1
12.684027 -33.689970 -25.049176 43.856127 -1.210718 2.178723 0.163595 -0.061651 267646.000000 0 0 1
13.701527 -32.724870 -25.139046 43.481267 -1.174284 2.187266 0.154030 -0.056073 -160632.000000 0 0 1
14.617327 -32.565970 -23.904276 42.960715 -1.148897 2.160869 0.141316 -0.045465 -411639.000000 0 0 1
14.086027 -31.757570 -22.867776 41.592002 -1.153320 2.152935 0.165465 -0.053805 396309.000000 0 0 1
14.609027 -32.013670 -21.565676 41.271990 -1.142685 2.120607 0.132506 -0.043449 351995.000000 0 0 1
16.097627 -31.700870 -21.230876 41.410492 -1.100930 2.109115 0.100202 -0.029969 239153.000000 0 0 1
17.048127 -32.490070 -21.916676 42.738554 -1.087570 2.109249 0.107406 -0.028355 -135680.000000 0 0 1
18.317827 -32.124570 -21.395276 42.723397 -1.052568 2.095303 0.088773 -0.028088 -120872.000000 0 0 1
19.350327 -33.282370 -21.607776 44.148016 -1.044167 2.082243 0.052120 -0.012253 -903147.000000 0 0 1
20.649227 -32.858970 -21.347776 44.292551 -1.009742 2.073700 0.033345 0.001646 -417464.000000 0 0 1
21.454927 33.599867 -21.536276 45.310883 1.002518 2.066102 0.023349 0.009635 90489.600000 0 0 1
22.934527 -33.821470 -21.138776 46.007958 -0.974916 2.048182 0.022214 0.016098 -106549.000000 0 0 1
23.705227 -33.496170 -22.250576 46.679967 -0.954922 2.067650 0.009540 0.016812 1128370.000000 0 0 1
25.140127 -33.521270 -22.045476 47.346642 -0.927311 2.055130 0.002153 0.022216 1968920.000000 0 0 1
26.013827 -32.906270 -23.236176 47.952703 -0.901848 2.076662 0.020983 0.013390 482536.000000 0 0 1
25.894627 -31.519870 -23.398376 47.026779 -0.883062 2.091573 0.021504 0.013368 1114030.000000 0 0 1
24.577027 -31.061070 -23.805176 46.211543 -0.901414 2.111961 0.009022 0.010720 1034000.000000 0 0 1
24.555327 -29.486670 -23.714876 45.109014 -0.876396 2.124362 0.025811 -0.001373 9114.850000 0 0 1
25.403527 -28.693370 -24.546976 45.510468 -0.846137 2.140485 0.036476 -0.009331 156256.000000 0 0 1
25.467527 -27.347270 -24.115676 44.475094 -0.820974 2.143884 0.059990 -0.006579 211930.000000 0 0 1
26.107327 -26.344370 -25.083066 44.774754 -0.789917 2.165430 0.068243 -0.008227 571685.000000 0 0 1
25.174727 -26.135770 -26.149816 44.728718 -0.804126 2.195222 0.060898 -0.009896 469343.000000 0 0 1
25.866127 -25.592170 -27.230596 45.448004 -0.780074 2.213247 0.063267 -0.016233 -382618.000000 0 0 1
24.839427 -25.144370 -28.259016 45.252718 -0.791499 2.245251 0.065515 -0.017107 96702.600000 0 0 1
24.127327 -24.038070 -27.701666 43.901469 -0.783545 2.253633 0.094434 -0.014172 271755.000000 0 0 1
22.731927 -24.303570 -27.607296 43.238488 -0.818800 2.263330 0.075425 -0.017291 171660.000000 0 0 1
21.821727 -23.060470 -27.522026 42.017079 -0.812991 2.285005 0.083694 -0.017381 -120049.000000 0 0 1
21.722927 -22.384970 -28.810576 42.462003 -0.800407 2.316519 0.119823 -0.027802 76961.900000 0 0 1
21.197727 -21.103170 -28.622846 41.399936 -0.783163 2.334186 0.104222 -0.008135 -352907.000000 0 0 1
20.112427 -20.741670 -29.647786 41.397075 -0.800799 2.369111 0.110565 -0.025778 -574756.000000 0 0 1
18.901527 -21.356970 -29.346326 40.921813 -0.846315 2.370474 0.090363 -0.030338 -430055.000000 0 0 1
17.832127 -20.763570 -30.078196 40.667044 -0.861205 2.403303 0.065319 -0.031479 -309118.000000 0 0 1
16.555427 -21.548170 -29.826606 40.348881 -0.915687 2.402704 0.050106 -0.034092 -891539.000000 0 0 1
16.527227 -22.774070 -30.497736 41.496017 -0.943027 2.396398 0.054524 -0.029969 293483.000000 0 0 1
15.493527 -23.688570 -30.154486 41.358080 -0.991579 2.387813 0.065875 -0.030984 -214781.000000 0 0 1
15.677427 -25.050770 -30.918556 42.770082 -1.011603 2.378789 0.094925 -0.037865 -284519.000000 0 0 1
14.787627 -26.039070 -30.550226 42.778773 -1.054313 2.366198 0.095343 -0.033084 -330235.000000 0 0 1
15.341827 -27.277570 -30.912776 43.989058 -1.058457 2.350035 0.135062 -0.037697 182705.000000 0 0 1
14.680227 -28.426870 -30.133446 43.950206 -1.094099 2.326261 0.122756 -0.040497 -212663.000000 0 0 1
15.050127 -28.643970 -28.751146 43.285237 -1.087020 2.297253 0.143684 -0.050830 67616.900000 0 0 1
14.863227 -27.591770 -27.789416 41.886429 -1.076683 2.296212 0.118543 -0.043471 -569403.000000 0 0 1
15.741827 -27.838170 -26.567596 41.576508 -1.056149 2.264000 0.096974 -0.021804 -515656.000000 0 0 1
15.497027 -28.990170 -25.741566 41.751839 -1.079883 2.235133 0.112964 -0.028064 172250.000000 0 0 1
16.294827 -29.029970 -24.570176 41.375767 -1.059311 2.206607 0.111921 -0.036245 -920663.000000 0 0 1
16.042327 -27.944170 -23.421376 39.834580 -1.049650 2.199338 0.101280 -0.027761 1269550.000000 0 0 1
14.843027 -28.118170 -22.629476 39.026147 -1.085094 2.189346 0.107227 -0.033033 1967280.000000 0 0 1
13.562027 -28.233570 -23.291076 39.032516 -1.122991 2.210191 0.115713 -0.031840 661379.000000 0 0 1
12.307227 -28.073070 -22.390376 37.959110 -1.157631 2.201676 0.089349 -0.023541 269966.000000 0 0 1
12.132527 -26.716770 -22.080776 36.722537 -1.144524 2.215907 0.074767 -0.016067 -165119.000000 0 0 1
10.858027 -26.494870 -21.538576 35.829948 -1.181856 2.215715 0.069214 -0.016537 -306013.000000 0 0 1
10.582327 -25.047370 -21.217576 34.489737 -1.171051 2.233417 0.061840 -0.010515 -275725.000000 0 0 1
11.307727 -24.556470 -20.148776 33.717326 -1.139263 2.211275 0.058721 -0.007284 -79520.700000 0 0 1
10.994627 -23.182270 -19.949176 32.500294 -1.127945 2.231681 0.058316 -0.008248 -139161.000000 0 0 1
11.482727 -22.614470 -18.600876 31.452502 -1.100960 2.203585 0.058644 -0.013252 133786.000000 0 0 1
10.647427 -23.016770 -17.518876 30.822888 -1.137518 2.175323 0.077809 -0.015637 271051.000000 0 0 1
10.935127 -22.338470 -16.334876 29.755881 -1.115568 2.151919 0.074752 -0.017685 -36354.900000 0 0 1
10.117827 -22.761470 -15.061776 29.108625 -1.152513 2.114645 0.074225 -0.015449 151458.000000 0 0 1
10.471527 -24.042870 -14.606076 30.017494 -1.160036 2.078973 0.084747 -0.012918 -31585.100000 0 0 1
9.670727 -24.502670 -13.561276 29.627893 -1.194884 2.046225 0.094454 -0.017909 -86747.000000 0 0 1
10.026727 -26.001670 -13.384876 30.915644 -1.202749 2.018557 0.101129 -0.022683 -179267.000000 0 0 1
11.241627 -26.227770 -12.734176 31.247869 -1.165867 1.990535 0.079012 -0.020011 -615418.000000 0 0 1
11.664327 -27.545170 -13.017076 32.622648 -1.170229 1.981244 0.090064 -0.021554 -421565.000000 0 0 1
13.020127 -28.009170 -12.467876 33.308937 -1.135660 1.954449 0.069736 -0.022538 165276.000000 0 0 1
14.246827 -27.697270 -13.095976 33.787800 -1.095714 1.968817 0.069522 -0.018001 111723.000000 0 0 1
14.456927 -27.992870 -14.481476 34.674438 -1.094075 2.001644 0.074654 -0.020381 -397202.000000 0 0 1
15.768927 -27.323770 -14.962176 34.915816 -1.047375 2.013652 0.072611 -0.013648 628906.000000 0 0 1
16.983327 -27.915670 -14.511176 35.753213 -1.024238 1.988727 0.096046 -0.017910 -582537.000000 0 0 1
18.042727 -27.289670 -15.140476 36.048580 -0.986619 2.004244 0.121373 -0.016181 7715.680000 0 0 1
19.402427 -27.988470 -14.818676 37.140299 -0.964629 1.981213 0.131620 -0.022692 516318.000000 0 0 1
19.480027 -29.200470 -15.524776 38.381735 -0.982484 1.987210 0.107870 -0.014667 431929.000000 0 0 1
20.829727 -29.631270 -15.743676 39.493709 -0.958084 1.980827 0.107241 -0.016802 809052.000000 0 0 1
20.939727 -30.661570 -16.915776 40.801318 -0.971618 1.998287 0.086397 -0.022268 -105318.000000 0 0 1
20.589427 -31.994270 -16.600876 41.510805 -0.998979 1.982223 0.082473 -0.014323 67506.800000 0 0 1
20.961827 -32.917970 -17.609376 42.814496 -1.003764 1.994670 0.073298 -0.011294 71342.600000 0 0 1
20.793327 33.282867 -17.004576 42.769934 1.012380 1.979677 0.057784 -0.004939 -279669.000000 0 0 1
21.818527 32.931967 -16.130676 42.670379 0.985661 1.958464 0.068040 -0.009619 -239621.000000 0 0 1
21.599727 31.610967 -15.725676 41.389592 0.971368 1.960531 0.071276 -0.016293 -234206.000000 0 0 1
22.413027 31.099667 -14.506876 40.987590 0.946323 1.932570 0.058218 -0.026147 707135.000000 0 0 1
23.791827 30.829267 -14.830376 41.670551 0.913533 1.934669 0.052072 -0.016959 970882.000000 0 0 1
24.639027 30.503867 -13.746576 41.551605 0.891357 1.907981 0.060773 -0.022488 160170.000000 0 0 1
24.301027 29.185667 -12.975176 40.133505 0.876470 1.900011 0.060272 -0.016728 -1084570.000000 0 0 1
24.345327 28.002967 -13.780676 39.582422 0.855156 1.926395 0.065788 -0.005695 -53177.000000 0 0 1
23.917527 26.905567 -13.002776 38.275708 0.844124 1.917409 0.035959 -0.008721 1064170.000000 0 0 1
22.363527 26.801367 -12.717176 37.150601 0.875419 1.920175 0.040923 -0.014128 624852.000000 0 0 1
21.752927 26.304467 -13.941776 36.871234 0.879827 1.958562 0.057420 -0.022302 493158.000000 0 0 1
20.343627 26.085167 -13.909276 35.885471 0.908437 1.968825 0.072343 -0.027471 995219.000000 0 0 1
19.377527 27.352467 -13.948976 36.307299 0.954430 1.965129 0.090211 -0.030380 188938.000000 0 0 1
19.355127 28.221167 -15.070376 37.392131 0.969639 1.985628 0.083798 -0.028317 -131556.000000 0 0 1
18.805227 27.761267 -16.275276 37.272096 0.975406 2.022680 0.068551 -0.021142 -468358.000000 0 0 1
19.018227 28.795267 -17.438876 38.664903 0.987100 2.038711 0.062871 -0.014771 198405.000000 0 0 1
18.315427 30.047467 -17.373376 39.244609 1.023385 2.029398 0.066980 -0.016244 331880.000000 0 0 1
18.633827 30.710067 -18.581676 40.442631 1.025417 2.048181 0.057193 -0.007173 240073.000000 0 0 1
17.571827 31.818667 -18.883576 40.960787 1.066228 2.049936 0.065332 -0.008824 433007.000000 0 0 1
17.570127 32.844367 -17.905276 41.328691 1.079580 2.018882 0.081049 -0.032017 -513093.000000 0 0 1
16.526927 33.640567 -18.317076 41.717410 1.114149 2.025365 0.093481 -0.032152 -536931.000000 0 0 1
16.147727 -32.749570 -17.488776 40.486303 -1.112711 2.017470 0.109620 -0.028430 219791.000000 0 0 1
15.025527 -32.057270 -18.019776 39.725903 -1.132493 2.041600 0.103834 -0.027828 196354.000000 0 0 1
14.627127 -31.031570 -17.108076 38.335329 -1.130320 2.033394 0.099917 -0.028057 -20168.700000 0 0 1
13.292627 -30.332670 -17.337176 37.381044 -1.157775 2.053071 0.077472 -0.025005 194577.000000 0 0 1
12.072227 -31.060370 -17.473076 37.627033 -1.200095 2.053726 0.103239 -0.025597 117497.000000 0 0 1
11.063727 -30.114470 -17.747776 36.664300 -1.218715 2.076087 0.087958 -0.016430 -362270.000000 0 0 1
9.704227 -30.804670 -17.952176 36.951053 -1.265613 2.078116 0.078562 -0.020577 -1194190.000000 0 0 1
9.014627 -31.309270 -16.844776 36.678064 -1.290457 2.047959 0.080548 -0.027319 459234.000000 0 0 1
7.880527 -32.128870 -17.123576 37.250287 -1.330266 2.048442 0.085314 -0.020057 1694380.000000 0 0 1
6.595927 -31.586670 -17.897976 36.899343 -1.364935 2.077215 0.083674 -0.011102 217322.000000 0 0 1
6.918227 -31.022370 -19.148276 37.106681 -1.351379 2.113010 0.071807 -0.006014 -207940.000000 0 0 1
7.006527 -32.012870 -20.200776 38.496579 -1.355328 2.123208 0.085872 -0.020663 -1113890.000000 0 0 1
7.132127 -31.572770 -21.722376 38.981645 -1.348630 2.161862 0.087306 -0.008640 -40404.300000 0 0 1
8.421027 -31.104270 -22.114476 39.082469 -1.306399 2.172250 0.094939 -0.020869 1096730.000000 0 0 1
9.506627 -32.053670 -22.113776 40.085319 -1.282476 2.155159 0.105730 -0.032894 123206.000000 0 0 1
9.419127 -33.319870 -23.017876 41.578316 -1.295297 2.157481 0.131120 -0.050886 -427469.000000 0 0 1
8.359627 33.435867 -22.691576 41.264369 1.325799 2.153050 0.145717 -0.058290 49958.200000 0 0 1
8.191827 32.520567 -23.745276 41.091744 1.324033 2.186900 0.161615 -0.069703 -1278270.000000 0 0 1
7.023127 31.582867 -23.510876 39.994538 1.351985 2.199198 0.155191 -0.074751 -866726.000000 0 0 1
5.819827 32.272367 -23.664576 40.439933 1.392379 2.195896 0.138093 -0.072628 -515598.000000 0 0 1
5.276527 32.881567 -22.542276 40.214343 1.411682 2.165850 0.099663 -0.062093 -1089730.000000 0 0 1
4.003827 33.696667 -22.861276 40.916182 1.452531 2.163655 0.099149 -0.046060 -416585.000000 0 0 1
2.842327 32.904667 -22.827176 40.148174 1.484630 2.175567 0.090322 -0.051781 65963.800000 0 0 1
1.778427 33.790167 -23.151276 40.999022 1.518213 2.170840 0.084699 -0.041049 -10290.400000 0 0 1
0.326527 33.424967 -22.786276 40.454288 1.561028 2.169122 0.074568 -0.043924 -17546.700000 0 0 1
0.055227 33.527867 -21.423476 39.788016 1.569149 2.139382 0.055915 -0.038604 -347705.000000 0 0 1
-1.195873 33.011667 -21.065076 39.178281 -1.534586 2.138470 0.052571 -0.037596 -302295.000000 0 0 1
-1.567773 33.239467 -19.607476 38.623480 -1.523665 2.103259 0.062506 -0.036746 -59759.300000 0 0 1
-0.773873 32.560167 -18.655576 37.533903 -1.547033 2.090972 0.070432 -0.039883 -52033.800000 0 0 1
-1.380873 32.523767 -17.345676 36.885969 -1.528364 2.060372 0.044021 -0.030466 281250.000000 0 0 1
-0.811773 31.471967 -16.289776 35.447151 -1.545009 2.048286 0.052618 -0.024730 713243.000000 0 0 1
0.461727 31.793267 -15.748076 35.482769 1.556275 2.030657 0.036619 -0.022662 92521.300000 0 0 1
1.147927 30.685767 -15.190676 34.259169 1.533405 2.030190 0.051851 -0.023025 1011960.000000 0 0 1
2.365927 31.093267 -14.285976 34.299825 1.494851 2.000392 0.067764 -0.033772 1329160.000000 0 0 1
3.521627 31.720067 -14.877676 35.212352 1.460227 2.007012 0.065575 -0.038835 698322.000000 0 0 1
4.353127 32.303267 -13.902776 35.436393 1.436845 1.973960 0.078946 -0.043776 150494.000000 0 0 1
5.721927 32.823367 -14.427676 36.308012 1.398206 1.979444 0.080471 -0.055440 259506.000000 0 0 1
6.692427 31.816167 -14.294776 35.516161 1.363472 1.985028 0.082447 -0.046702 214196.000000 0 0 1
7.759027 31.976267 -15.274576 36.276670 1.332748 2.005408 0.078089 -0.039977 855077.000000 0 0 1
8.693527 30.753467 -15.339576 35.449340 1.295300 2.018302 0.076758 -0.044808 -266761.000000 0 0 1
9.619827 30.707267 -14.275276 35.203137 1.267205 1.988335 0.069099 -0.049132 -342297.000000 0 0 1
10.550227 29.663067 -14.279776 34.570462 1.229080 1.996611 0.085032 -0.047993 -85550.100000 0 0 1
9.997627 28.265367 -14.091276 33.127746 1.230824 2.010158 0.082941 -0.046646 -316512.000000 0 0 1
9.298927 27.627067 -15.170576 32.861394 1.246120 2.050655 0.094267 -0.050009 271235.000000 0 0 1
8.743027 26.392267 -14.744276 31.470398 1.250902 2.058403 0.079103 -0.039826 -26478.000000 0 0 1
7.933927 25.569767 -15.780576 31.077110 1.269930 2.103411 0.088139 -0.034840 140413.000000 0 0 1
8.713127 25.028267 -16.822276 31.389834 1.235787 2.136387 0.085720 -0.021474 -384438.000000 0 0 1
8.021527 24.053867 -17.541976 30.832683 1.248912 2.176014 0.074304 -0.015884 192581.000000 0 0 1
8.975227 23.230867 -18.478476 31.010997 1.202113 2.209143 0.077697 -0.013531 498716.000000 0 0 1
8.323527 22.138767 -19.130176 30.419890 1.211175 2.250896 0.096117 -0.021445 -35010.500000 0 0 1
9.294527 21.365667 -19.774976 30.560262 1.160468 2.274546 0.077033 -0.017011 -406538.000000 0 0 1
8.773027 20.386367 -20.872576 30.466939 1.164413 2.325523 0.066834 -0.027836 -355709.000000 0 0 1
8.018027 19.322967 -20.395776 29.217349 1.177471 2.343496 0.084913 -0.026745 24675.100000 0 0 1
7.271727 18.638567 -21.406676 29.300511 1.198815 2.389983 0.079160 -0.026005 461532.000000 0 0 1
25.541127 -11.869233 -9.724776 29.795958 -0.435020 1.903267 0.106120 -0.026522 240343.000000 0 0 1
26.171627 -11.440233 -8.502076 29.801313 -0.412094 1.860107 0.119036 -0.033113 1148880.000000 0 0 1
25.127427 -11.452733 -7.524276 28.621101 -0.427655 1.836815 0.111501 -0.024661 -179821.000000 0 0 1
25.585527 -10.981433 -6.124376 28.508228 -0.405427 1.787312 0.090071 -0.025276 -85372.100000 0 0 1
26.064227 -9.627733 -5.976076 28.420954 -0.353839 1.782648 0.116114 -0.036864 1211980.000000 0 0 1
27.163727 -9.251833 -6.842576 29.500599 -0.328272 1.804875 0.103929 -0.044697 -555303.000000 0 0 1
27.513427 -7.787033 -6.480576 29.319352 -0.275813 1.793671 0.151688 -0.045782 -154853.000000 0 0 1
28.094127 -7.532033 -5.191976 29.546034 -0.261940 1.747438 0.133339 -0.057176 1480560.000000 0 0 1
29.386627 -8.121433 -4.905176 30.880289 -0.269635 1.730317 0.137459 -0.059775 651296.000000 0 0 1
29.783527 -7.985133 -3.416876 31.024117 -0.261945 1.681156 0.147531 -0.064999 -296019.000000 0 0 1
30.222927 -6.741033 -2.954776 31.106230 -0.219452 1.665930 0.155154 -0.060794 182991.000000 0 0 1
30.643827 -6.938533 -1.652176 31.462947 -0.222671 1.623332 0.168809 -0.048476 -344680.000000 0 0 1
31.297727 -5.690833 -1.103176 31.830022 -0.179864 1.605462 0.157328 -0.058148 -636198.000000 0 0 1
30.392027 -4.601433 -1.026376 30.755519 -0.150261 1.604175 0.179298 -0.051142 438078.000000 0 0 1
31.022527 -3.378333 -0.556076 31.210888 -0.108472 1.588614 0.164832 -0.043443 347236.000000 0 0 1
31.625627 -3.282333 0.920824 31.808834 -0.103417 1.541844 0.159266 -0.045289 709798.000000 0 0 1
30.626327 -3.444833 1.966524 30.882131 -0.112009 1.507075 0.205303 -0.062213 934279.000000 0 0 1
31.170227 -3.114933 3.236624 31.492246 -0.099602 1.467839 0.175761 -0.047359 -64413.900000 0 0 1
30.576627 -3.936633 4.411724 31.143065 -0.128042 1.428658 0.196283 -0.048733 7056.750000 0 0 1
31.036727 -5.293733 4.361424 31.785595 -0.168938 1.433148 0.179782 -0.051271 262699.000000 0 0 1
31.070927 -5.846333 5.659724 32.118758 -0.185986 1.393659 0.175370 -0.045189 -119992.000000 0 0 1
31.781627 -7.216833 5.741424 33.092574 -0.223289 1.396418 0.154865 -0.039044 43264.700000 0 0 1
33.174827 -7.068833 5.601524 34.378985 -0.209939 1.407132 0.156137 -0.049598 -176899.000000 0 0 1
33.916827 -8.240133 5.412124 35.320561 -0.238334 1.416962 0.155604 -0.038440 509539.000000 0 0 1
35.451327 -7.998133 5.358424 36.735261 -0.221894 1.424408 0.183074 -0.045034 361657.000000 0 0 1
36.117127 -7.693733 4.132324 37.157994 -0.209885 1.459356 0.197343 -0.054523 210748.000000 0 0 1
37.498027 -7.620833 4.432524 38.520467 -0.200502 1.455472 0.197075 -0.044202 -9545.930000 0 0 1
-36.797972 -7.767633 3.215724 37.746096 0.208035 1.485499 0.201755 -0.042643 -74668.800000 0 0 1
-36.481372 -9.069433 2.658624 37.685719 0.243665 1.500190 0.235074 -0.055179 -96265.800000 0 0 1
-35.551772 -8.880733 1.650624 36.681337 0.244788 1.525782 0.243387 -0.062555 -593818.000000 0 0 1
-35.100172 -10.223133 1.028924 36.573122 0.283416 1.542659 0.247446 -0.049582 142139.000000 0 0 1
-34.229872 -10.979533 1.896524 35.997654 0.310391 1.518087 0.235028 -0.048517 467283.000000 0 0 1
-34.045872 -12.228433 1.285024 36.198167 0.344825 1.535289 0.249579 -0.051005 -595340.000000 0 0 1
-33.387372 -13.366133 2.109124 36.025249 0.380795 1.512217 0.161492 -0.052997 1127110.000000 0 0 1
-32.004372 -13.275933 2.491924 34.738162 0.393213 1.499000 0.163681 -0.043707 1478640.000000 0 0 1
-31.020772 -13.249633 1.449124 33.763013 0.403666 1.527863 0.182886 -0.030266 -667863.000000 0 0 1
-29.605372 -13.516033 1.943924 32.602761 0.428279 1.511136 0.179843 -0.024961 -546411.000000 0 0 1
-29.074272 -12.378733 2.621224 31.708314 0.402516 1.488035 0.160053 -0.039094 508254.000000 0 0 1
-27.659172 -12.499933 2.700824 30.472489 0.424455 1.482048 0.162578 -0.017269 213164.000000 0 0 1
-27.026872 -11.726633 3.871124 29.714497 0.409375 1.440148 0.153498 -0.017571 28972.500000 0 0 1
-25.640372 -12.004033 3.947324 28.585081 0.437860 1.432263 0.127110 -0.004017 354162.000000 0 0 1
-24.979272 -11.291833 4.974124 27.860572 0.424556 1.391298 0.119610 -0.002717 288718.000000 0 0 1
-23.598572 -11.789533 5.452624 26.937275 0.463317 1.366969 0.106676 0.011968 174365.000000 0 0 1
-23.578972 -12.976833 6.201424 27.619265 0.503117 1.344333 0.094307 0.003355 1969130.000000 0 0 1
-22.230172 -13.242033 6.767124 26.745578 0.537236 1.314997 0.077498 0.014373 1852030.000000 0 0 1
-21.760972 -12.618133 8.124524 26.434165 0.525473 1.258390 0.087465 -0.000728 -654094.000000 0 0 1
-21.720272 -11.196633 8.209824 25.778596 0.475964 1.246677 0.085275 -0.000115 793559.000000 0 0 1
-22.837072 -10.509433 8.806424 26.637064 0.431297 1.233849 0.096816 0.002485 -27164.400000 0 0 1
-23.006772 -10.907133 10.344024 27.482284 0.442700 1.184901 0.088977 0.014989 -566482.000000 0 0 1
-23.637672 -12.176233 10.592724 28.621775 0.475670 1.191687 0.086327 -0.000999 1078200.000000 0 0 1
-25.000772 -12.396233 10.214724 29.716086 0.460309 1.219895 0.084643 -0.006979 588924.000000 0 0 1
-26.097772 -11.584433 10.954424 30.582548 0.417758 1.204466 0.100007 0.002352 -615578.000000 0 0 1
-26.351372 -12.152333 12.225324 31.488610 0.432100 1.172069 0.100302 -0.008590 -77265.600000 0 0 1
-27.417172 -11.553033 12.905724 32.430412 0.398800 1.161514 0.088982 -0.012254 -280132.000000 0 0 1
-27.767572 -12.351333 14.173524 33.533301 0.418531 1.134407 0.087053 -0.017759 -279876.000000 0 0 1
-28.358872 -13.588533 13.906124 34.383923 0.446840 1.154433 0.082531 -0.017315 167260.000000 0 0 1
-28.609372 -14.215433 15.123524 35.345377 0.461149 1.128652 0.104307 -0.020340 -209032.000000 0 0 1
-28.596172 -15.678433 14.758524 35.796206 0.501514 1.145827 0.097812 -0.012463 257626.000000 0 0 1
-29.541972 -16.460133 15.485824 37.195092 0.508337 1.141380 0.085706 -0.004264 254061.000000 0 0 1
-29.291272 -17.817733 15.264324 37.529320 0.546496 1.151924 0.080495 -0.008759 -48904.400000 0 0 1
-30.267372 -18.812733 15.944424 39.041739 0.556116 1.150102 0.063685 0.001367 -19098.900000 0 0 1
-30.096972 -18.762433 17.364724 39.489116 0.557447 1.115493 0.056505 0.008681 99251.900000 0 0 1
-30.593772 -19.819833 18.152024 40.722238 0.574854 1.108782 0.069247 0.005337 -275273.000000 0 0 1
-29.595672 -20.982733 18.224324 40.599321 0.616727 1.105282 0.045702 0.005951 581414.000000 0 0 1
-28.435072 -20.653433 19.026024 39.963824 0.628184 1.074603 0.057421 0.005621 803449.000000 0 0 1
-27.619772 -21.794233 19.247224 40.103567 0.668047 1.070212 0.054578 0.003530 901687.000000 0 0 1
-26.160272 -21.455333 19.728724 39.165210 0.686907 1.042884 0.068700 0.002343 1463280.000000 0 0 1
-25.192872 -21.027833 18.754124 37.796399 0.695529 1.051594 0.085488 -0.004064 1680440.000000 0 0 1
-23.829872 -20.981433 19.248924 37.129563 0.721918 1.025787 0.095558 -0.004304 1417400.000000 0 0 1
-22.779872 -20.844833 18.127924 35.805744 0.741071 1.039924 0.105097 -0.021936 11532.200000 0 0 1
-22.575772 -22.013933 17.330424 35.980861 0.772799 1.068252 0.098726 -0.025784 774855.000000 0 0 1
-21.276272 -21.994133 16.714624 34.868328 0.801987 1.070866 0.099663 -0.027404 606003.000000 0 0 1
-21.042872 -23.186433 15.790824 35.067981 0.833825 1.103704 0.103188 -0.021537 -811126.000000 0 0 1
-20.881672 -24.458433 16.404024 36.101955 0.864122 1.099120 0.106641 -0.029372 -344490.000000 0 0 1
-19.735572 -24.703933 17.165424 35.978173 0.896736 1.073437 0.113619 -0.029883 -62679.800000 0 0 1
-18.384272 -24.793033 16.380324 34.942681 0.932751 1.082891 0.092450 -0.026779 88560.600000 0 0 1
-17.788972 -23.503633 16.270624 33.668999 0.922919 1.066430 0.091700 -0.032511 -646684.000000 0 0 1
-16.436172 -23.666933 15.983124 32.950444 0.963786 1.064358 0.097658 -0.035067 -87418.100000 0 0 1
-15.538672 -22.378433 15.999524 31.594768 0.963866 1.039794 0.081235 -0.032360 79313.400000 0 0 1
-15.929372 -21.493233 14.979824 30.661035 0.932993 1.060355 0.079271 -0.020504 19865.100000 0 0 1
-16.879072 -20.472833 15.272324 30.615092 0.881317 1.048525 0.083278 -0.019018 -84238.600000 0 0 1
-16.573172 -19.240933 16.160924 30.100814 0.859750 1.004046 0.085578 -0.024067 -377809.000000 0 0 1
-15.874472 -18.229333 15.415224 28.669436 0.854339 1.003103 0.070832 -0.017582 246535.000000 0 0 1
-15.914772 -17.045433 16.237924 28.416491 0.819689 0.962554 0.068090 -0.015619 -474717.000000 0 0 1
-15.341472 -15.835333 15.489924 26.945432 0.801237 0.958360 0.053925 -0.008970 112651.000000 0 0 1
-16.059572 -15.237933 14.389024 26.403569 0.759152 0.994449 0.056265 -0.019847 272340.000000 0 0 1
-16.184072 -15.980133 13.175524 26.284659 0.779058 1.045739 0.076936 -0.017732 -763002.000000 0 0 1
-17.000372 -15.127433 12.261224 25.849362 0.727168 1.076589 0.066413 -0.013866 -187608.000000 0 0 1
-18.381972 -15.324133 12.555924 27.025491 0.694925 1.087618 0.063597 -0.016373 273586.000000 0 0 1
-19.217772 -14.498833 11.779124 26.800871 0.646343 1.115749 0.090667 -0.021341 119085.000000 0 0 1
-20.739372 -14.747033 12.039524 28.152206 0.618113 1.128896 0.091520 -0.027630 550772.000000 0 0 1
-21.250472 -15.909633 11.407724 28.893514 0.642651 1.164925 0.101918 -0.031887 109325.000000 0 0 1
-21.441672 -15.864533 10.007624 28.488265 0.637001 1.211848 0.101514 -0.023399 -485246.000000 0 0 1
-22.067572 -17.187433 9.478524 29.533507 0.661714 1.244073 0.101249 -0.015497 288231.000000 0 0 1
-21.219372 -18.323533 9.401624 29.570326 0.712296 1.247239 0.099717 -0.005180 565979.000000 0 0 1
-22.014672 -19.464533 8.979024 30.726808 0.723996 1.274248 0.128160 -0.026670 845410.000000 0 0 1
-21.171072 -20.777133 9.045324 31.011634 0.776007 1.274819 0.121039 -0.016687 351410.000000 0 0 1
-20.053872 -20.818333 8.159724 30.035677 0.804100 1.295671 0.135852 -0.018837 28793.600000 0 0 1
-19.568672 -22.159833 8.201224 30.679818 0.847414 1.300189 0.111460 -0.025654 -751312.000000 0 0 1
-18.303472 -22.251333 7.366524 29.738941 0.882439 1.320484 0.094168 -0.032462 -1169190.000000 0 0 1
-17.213672 -21.673733 8.018524 28.815932 0.899591 1.288807 0.061082 -0.030287 -523042.000000 0 0 1
-16.058172 -22.215033 7.381924 28.387768 0.944898 1.307734 0.073110 -0.026831 751898.000000 0 0 1
-14.743472 -21.879833 8.189124 27.625329 0.977845 1.269838 0.028370 -0.011494 1625060.000000 0 0 1
-13.482972 -22.266833 7.576024 27.110856 1.026329 1.287579 0.043021 -0.008538 499593.000000 0 0 1
-12.460172 -22.043833 8.496524 26.709126 1.056324 1.247058 0.039086 -0.006357 98313.200000 0 0 1
-11.110872 -22.661933 7.990724 26.473881 1.114949 1.264180 0.037580 -0.008627 302994.000000 0 0 1
-11.067572 -24.069533 7.882024 27.639824 1.139809 1.281613 0.039929 -0.007698 -198957.000000 0 0 1
-9.741572 -24.472233 7.566324 27.405067 1.191958 1.291070 0.078031 -0.009361 430199.000000 0 0 1
-9.565572 -26.004603 7.373424 28.672407 1.218316 1.310713 0.082116 -0.014482 53513.500000 0 0 1
-10.225572 -26.523783 6.236724 29.102751 1.202831 1.354821 0.081029 -0.013232 -223027.000000 0 0 1
-10.226572 -27.962463 6.293924 30.431819 1.220182 1.362472 0.104894 -0.015873 -370256.000000 0 0 1
-9.250572 -28.612063 5.313524 30.536155 1.258094 1.395898 0.123854 -0.019718 -282953.000000 0 0 1
-7.901572 -28.226223 5.574024 29.836626 1.297846 1.382874 0.123937 -0.025192 433177.000000 0 0 1
-6.892572 -29.158823 5.167424 30.404716 1.338677 1.400013 0.125517 -0.022934 624647.000000 0 0 1
-6.895572 -30.436523 5.947924 31.769618 1.348001 1.382464 0.144699 -0.040510 -850597.000000 0 0 1
-6.634572 -30.220573 7.292024 31.787957 1.354686 1.339339 0.138789 -0.035912 17135.300000 0 0 1
-6.702572 -31.452723 8.004624 33.140191 1.360837 1.326846 0.180178 -0.045076 130748.000000 0 0 1
-7.252572 -31.261483 9.426824 33.447648 1.342832 1.285087 0.157881 -0.051804 93138.600000 0 0 1
-6.272572 -30.743333 10.285424 33.019504 1.369528 1.254030 0.134846 -0.043465 506242.000000 0 0 1
-6.805572 -30.978453 11.589224 33.768187 1.354544 1.220475 0.121460 -0.034377 196635.000000 0 0 1
-5.973572 -30.250983 12.683724 33.341901 1.375837 1.180552 0.104456 -0.036732 249089.000000 0 0 1
-6.161572 -28.901153 12.635124 32.138575 1.360746 1.166747 0.085378 -0.029949 245524.000000 0 0 1
-5.323572 -28.253383 13.621224 31.814019 1.384557 1.128350 0.075922 -0.033568 347136.000000 0 0 1
-6.035572 -27.640033 14.860124 31.956577 1.355808 1.087151 0.081394 -0.032795 -161268.000000 0 0 1
-6.731572 -28.534323 15.740224 33.275762 1.339121 1.078077 0.075579 -0.032621 67401.100000 0 0 1
-5.921572 -29.406973 16.506924 34.239066 1.372087 1.067737 0.066757 -0.038993 -64824.300000 0 0 1
-6.595572 -30.741143 16.871724 35.681571 1.359448 1.078284 0.073057 -0.037866 66631.700000 0 0 1
-7.071572 -31.337573 15.692924 35.753580 1.348856 1.116401 0.081851 -0.040016 86102.600000 0 0 1
-7.778572 -32.544813 15.935624 37.062314 1.336187 1.126339 0.087537 -0.043658 235355.000000 0 0 1
-6.867572 -33.783573 15.679024 37.872485 1.370248 1.143958 0.085511 -0.041067 386947.000000 0 0 1
-6.348572 -33.786043 14.346424 37.250785 1.385057 1.175447 0.089587 -0.043722 190427.000000 0 0 1
-5.461572 32.765840 14.102424 36.087497 -1.405630 1.169313 0.104211 -0.047366 325924.000000 0 0 1
-4.232572 33.162768 13.254924 35.963549 -1.443852 1.193331 0.119586 -0.047139 -82941.100000 0 0 1
-4.535572 33.313897 11.901424 35.665545 -1.435482 1.230575 0.140790 -0.046426 -123191.000000 0 0 1
-3.442572 33.583881 11.064724 35.526842 -1.468646 1.254081 0.139932 -0.045683 -629558.000000 0 0 1
-3.914572 -33.650243 9.663024 35.228352 1.454986 1.292938 0.143337 -0.046104 -435248.000000 0 0 1
-4.271572 32.999719 8.696124 34.392592 -1.442069 1.315173 0.149887 -0.053486 472972.000000 0 0 1
-5.216572 31.971612 8.993024 33.619505 -1.409059 1.300005 0.170370 -0.055287 221851.000000 0 0 1
-6.646572 32.377525 9.417524 34.368166 -1.368326 1.293227 0.192506 -0.055605 -263537.000000 0 0 1
-7.441572 32.755077 8.305224 34.601284 -1.347400 1.328403 0.195895 -0.040195 -451850.000000 0 0 1
-8.783572 32.950452 8.704424 35.194466 -1.310285 1.320879 0.162103 -0.040782 -73289.800000 0 0 1
-9.770572 33.023345 7.554424 35.257265 -1.283134 1.354856 0.168008 -0.047740 -252017.000000 0 0 1
-9.868572 -33.338573 6.904824 35.447507 1.283004 1.374753 0.172689 -0.040351 -197140.000000 0 0 1
-10.839872 -33.518073 5.895624 35.717257 1.258009 1.404974 0.159284 -0.029484 74047.800000 0 0 1
-11.274372 -32.172893 5.404624 34.516901 1.233738 1.413570 0.141341 -0.033240 284788.000000 0 0 1
-12.209772 -31.475203 6.205224 34.325963 1.200749 1.389023 0.142780 -0.037598 -44779.100000 0 0 1
-12.810572 -30.310923 5.662824 33.390573 1.170927 1.400379 0.143601 -0.034888 112549.000000 0 0 1
-13.881572 -29.662773 6.590724 33.406823 1.133092 1.372207 0.118286 -0.028608 1075620.000000 0 0 1
-15.065672 -30.510283 6.657224 34.672330 1.112129 1.377593 0.126388 -0.028049 943892.000000 0 0 1
-16.014672 -29.908933 7.532724 34.752783 1.079194 1.352311 0.112854 -0.029592 72292.000000 0 0 1
34.600526 -12.416733 -12.674576 38.884657 -0.344546 1.902816 0.110401 -0.037342 12106.500000 0 0 1
33.594596 -12.505633 -11.674476 37.699882 -0.356359 1.885641 0.129464 -0.039518 421603.000000 0 0 1
33.258296 -13.789033 -11.189776 37.702291 -0.393033 1.872129 0.133710 -0.035887 -515745.000000 0 0 1
34.239056 -14.269633 -10.172176 38.463080 -0.394875 1.838446 0.116467 -0.035742 -314500.000000 0 0 1
35.514446 -14.684633 -10.622776 39.871766 -0.392076 1.840477 0.111404 -0.033218 -234126.000000 0 0 1
36.407316 -14.795933 -9.561376 40.445423 -0.386011 1.809457 0.089658 -0.029744 31667.700000 0 0 1
-37.379693 -15.145833 -10.057476 41.566700 0.384971 1.815182 0.077601 -0.029155 144863.000000 0 0 1
-36.612433 -14.065533 -10.549276 40.615227 0.366789 1.833546 0.087272 -0.028333 -227434.000000 0 0 1
-35.296832 -14.492433 -10.835476 39.664903 0.389600 1.847489 0.080226 -0.031754 -195247.000000 0 0 1
-34.479639 -13.266033 -11.210276 38.607039 0.367291 1.865408 0.098107 -0.037672 -530909.000000 0 0 1
-34.371777 -12.385933 -10.130076 37.913702 0.345867 1.841270 0.107078 -0.035065 192819.000000 0 0 1
-33.762103 -11.175533 -10.536076 37.091522 0.319656 1.858818 0.126617 -0.035043 -127402.000000 0 0 1
-34.197597 -9.978233 -9.666476 36.911808 0.283900 1.835766 0.136539 -0.039699 113194.000000 0 0 1
-33.565323 -10.040833 -8.385476 36.024512 0.290670 1.805723 0.137612 -0.039076 525809.000000 0 0 1
-34.222546 -9.108033 -7.507176 36.200782 0.260112 1.779688 0.179733 -0.054908 4892.720000 0 0 1
-33.549993 -9.037433 -6.108376 35.278740 0.263127 1.744819 0.163734 -0.046516 -1053660.000000 0 0 1
-32.355983 -8.318933 -6.242976 33.986601 0.251656 1.755535 0.170233 -0.061960 -268378.000000 0 0 1
-31.786833 -7.991933 -4.978876 33.152118 0.246317 1.721549 0.173304 -0.053081 63712.700000 0 0 1
-30.895053 -9.080533 -4.296676 32.487256 0.285865 1.703442 0.144473 -0.045466 -738187.000000 0 0 1
-31.497763 -10.287133 -3.904376 33.364327 0.315677 1.688088 0.157420 -0.043524 101316.000000 0 0 1
-32.095233 -10.204233 -2.588276 33.777648 0.307830 1.647498 0.144637 -0.049624 -46755.300000 0 0 1
-32.868793 -11.475133 -2.147776 34.880499 0.335890 1.632411 0.159955 -0.042119 -880347.000000 0 0 1
-34.073670 -11.594933 -2.794276 36.100768 0.327999 1.648276 0.178304 -0.060026 -857954.000000 0 0 1
-34.685200 -12.849833 -2.575076 37.078462 0.354793 1.640302 0.188872 -0.059887 -391564.000000 0 0 1
-36.215223 -12.811033 -2.494876 38.495316 0.340009 1.635652 0.174546 -0.053143 -441299.000000 0 0 1
-36.620393 -12.087133 -1.371976 38.588007 0.318807 1.606358 0.202728 -0.060717 -75029.500000 0 0 1
37.209146 -12.145933 -1.210776 39.160059 -0.315519 1.601720 0.268290 -0.054503 -14988.200000 0 0 1
36.624816 -11.420933 0.079724 38.364322 -0.302280 1.568718 0.242899 -0.063864 48915.200000 0 0 1
36.682436 -12.205233 1.206024 38.678461 -0.321205 1.539611 0.267386 -0.055797 205476.000000 0 0 1
36.140336 -11.448433 2.246424 37.976795 -0.306777 1.511609 0.258387 -0.050023 91156.300000 0 0 1
36.632066 -11.993333 3.583324 38.711607 -0.316401 1.478099 0.240127 -0.054229 -281316.000000 0 0 1
35.831766 -11.569733 4.609424 37.934430 -0.312323 1.448985 0.218221 -0.053604 -270073.000000 0 0 1
36.418426 -11.922533 5.866924 38.766859 -0.316380 1.418874 0.187002 -0.047680 -254898.000000 0 0 1
35.474006 -12.022133 7.077124 38.118532 -0.326752 1.384052 0.151830 -0.047320 197138.000000 0 0 1
34.763366 -10.795833 7.318224 37.129477 -0.301109 1.372397 0.159653 -0.032126 456327.000000 0 0 1
33.854516 -10.841633 8.402524 36.527684 -0.309922 1.338686 0.127903 -0.014338 310075.000000 0 0 1
33.002496 -9.522333 8.661024 35.423903 -0.280904 1.323796 0.128407 -0.033324 1174780.000000 0 0 1
31.650346 -9.477733 8.157324 34.031071 -0.290953 1.328737 0.161777 -0.027843 720180.000000 0 0 1
30.877626 -8.608733 8.915724 33.272033 -0.271897 1.299517 0.168938 -0.014962 -160488.000000 0 0 1
29.351326 -8.686633 8.701624 31.822574 -0.287740 1.293827 0.160065 -0.010036 -127426.000000 0 0 1
28.902826 -8.055733 7.570224 30.944733 -0.271819 1.323651 0.188481 -0.014617 306247.000000 0 0 1
28.089626 -8.954733 6.788224 30.253831 -0.308606 1.344494 0.189219 -0.028119 -4849.350000 0 0 1
27.153826 -8.314233 5.760724 28.976588 -0.297126 1.370657 0.183463 -0.032854 -646072.000000 0 0 1
26.032026 -7.721633 6.338224 27.883025 -0.288353 1.341477 0.183805 -0.033794 458841.000000 0 0 1
25.038826 -7.185633 5.465624 26.616709 -0.279469 1.363980 0.191321 -0.046458 349254.000000 0 0 1
25.456326 -5.817533 4.840624 26.557482 -0.224672 1.387502 0.189281 -0.049497 378445.000000 0 0 1
26.507426 -5.825833 3.834924 27.409681 -0.216342 1.430424 0.182642 -0.054285 1058590.000000 0 0 1
26.725326 -4.593233 3.277224 27.314484 -0.170205 1.450525 0.174588 -0.058295 57035.300000 0 0 1
27.387726 -4.617733 1.878124 27.837714 -0.167035 1.503278 0.179162 -0.063690 -29983.500000 0 0 1
26.493926 -4.986833 0.888324 26.973797 -0.186049 1.537858 0.183411 -0.057186 -372640.000000 0 0 1
27.214026 -5.031533 -0.286676 27.676736 -0.182823 1.581155 0.177123 -0.062369 -584590.000000 0 0 1
26.505626 -5.384533 -1.585276 27.093440 -0.200419 1.629341 0.177954 -0.052227 -371886.000000 0 0 1
25.494426 -4.445633 -1.852876 25.945376 -0.172641 1.642272 0.224733 -0.053527 -74995.500000 0 0 1
24.756426 -4.712833 -3.026076 25.382052 -0.188117 1.690302 0.227163 -0.053804 -78438.100000 0 0 1
23.640226 -3.640033 -3.160876 24.126775 -0.152776 1.702185 0.203628 -0.044463 -311081.000000 0 1 0
24.032926 -2.323033 -3.300376 24.369458 -0.096361 1.706645 0.194011 -0.049448 141241.000000 0 1 0
24.471926 -1.892333 -4.597576 24.971860 -0.077173 1.755963 0.200013 -0.044629 165184.000000 0 1 0
23.306026 -1.339733 -5.483476 23.979872 -0.057421 1.801508 0.205876 -0.032010 279024.000000 0 1 0
22.840526 -0.108333 -4.985876 23.378630 -0.004743 1.785713 0.188541 -0.018121 316327.000000 0 1 0
21.727526 0.414767 -5.698476 22.466198 0.019087 1.827245 0.165178 -0.007942 -160702.000000 0 1 0
21.445126 1.884767 -5.278676 22.165518 0.087663 1.811255 0.156972 0.001802 -134052.000000 0 1 0
22.535726 2.812667 -5.353976 23.333133 0.124167 1.802317 0.186427 -0.009563 1054840.000000 0 1 0
23.427626 2.700867 -4.223176 23.957954 0.114779 1.747997 0.212358 -0.010230 451163.000000 0 1 0
24.624826 3.660767 -4.062776 25.224778 0.147581 1.732564 0.217168 -0.030223 472711.000000 0 0 1
24.086526 4.935767 -3.886276 24.892281 0.202120 1.727561 0.180617 -0.016017 1051870.000000 0 1 0
25.079626 5.700067 -3.191576 25.916492 0.223482 1.694258 0.173073 -0.023110 582752.000000 0 0 1
24.639826 7.198767 -3.098976 25.856274 0.284249 1.690939 0.148314 -0.025467 381956.000000 0 0 1
23.501126 7.347367 -2.247776 24.725275 0.303011 1.661832 0.168133 -0.036229 700953.000000 0 1 0
22.950926 8.652367 -2.374476 24.642374 0.360518 1.667303 0.154938 -0.032309 -193010.000000 0 1 0
21.713526 8.881867 -1.494976 23.507440 0.388282 1.634435 0.122327 -0.033224 -222502.000000 0 1 0
22.111926 9.293267 -0.190776 23.986214 0.397869 1.578750 0.089314 -0.034292 1490560.000000 0 1 0
21.008826 9.953567 0.474924 23.252308 0.442453 1.550370 0.049014 -0.028070 498660.000000 0 1 0
21.382726 10.312567 1.933124 23.818207 0.449375 1.489545 0.058048 -0.029059 -347312.000000 0 1 0
22.452226 11.236867 2.135924 25.197853 0.464031 1.485928 0.081149 -0.038265 608180.000000 0 0 1
22.174226 12.613567 1.889624 25.580638 0.517192 1.496860 0.094997 -0.023136 357776.000000 0 0 1
20.960826 13.310767 2.629124 24.968881 0.565780 1.465305 0.076586 -0.014363 1740510.000000 0 1 0
19.629126 12.754767 2.313324 23.523141 0.576226 1.472295 0.092831 -0.022192 2685320.000000 0 1 0
18.586326 13.546467 2.980424 23.191404 0.629821 1.441926 0.076106 -0.022512 691192.000000 0 1 0
18.500526 13.403367 4.535224 23.291371 0.626971 1.374827 0.057997 -0.013849 -697145.000000 0 1 0
18.218526 12.090667 5.002524 22.430430 0.585909 1.345881 0.050187 -0.009754 346536.000000 0 1 0
18.263326 12.199167 6.415624 22.880756 0.588897 1.286592 0.047328 -0.022644 46202.100000 0 1 0
18.222426 10.783667 7.081624 22.326972 0.534353 1.248044 0.017049 -0.033850 -772380.000000 0 1 0
19.410326 10.111367 6.842724 22.930839 0.480249 1.267773 0.017896 -0.038486 -190246.000000 0 1 0
19.574226 8.872867 7.466624 22.751452 0.425589 1.236418 0.032961 -0.025795 -182089.000000 0 1 0
20.572726 7.930167 6.814524 23.077312 0.367918 1.271036 0.050436 -0.025234 -137295.000000 0 1 0
20.056126 7.646367 5.526324 22.164282 0.364237 1.318803 0.030399 -0.037028 1085940.000000 0 1 0
21.063626 7.097067 4.662324 22.710834 0.324988 1.364036 0.059658 -0.036045 199850.000000 0 1 0
20.559726 6.834967 3.210324 21.902632 0.320950 1.423694 0.065260 -0.029096 -122765.000000 0 1 0
21.564826 6.275667 2.405124 22.587836 0.283193 1.464115 0.071589 -0.030503 409981.000000 0 1 0
21.138126 6.135067 1.045224 22.035243 0.282476 1.523344 0.072912 -0.016094 -624704.000000 0 1 0
22.155526 5.415667 0.217424 22.808859 0.239738 1.561264 0.139251 -0.024682 -585637.000000 0 1 0
22.228126 4.026967 0.382624 22.593195 0.179222 1.553860 0.131604 -0.030599 128021.000000 0 1 0
23.398326 3.517167 -0.200276 23.662042 0.149200 1.579260 0.164286 -0.038254 -176786.000000 0 1 0
23.444826 1.954467 -0.337076 23.528566 0.083172 1.585123 0.200290 -0.040627 78093.600000 0 1 0
22.373526 1.465167 -1.141276 22.450476 0.065393 1.621654 0.150426 -0.026247 865706.000000 0 1 0
22.603326 0.118767 -1.515876 22.654411 0.005254 1.637759 0.178770 -0.031808 -747854.000000 0 1 0
22.411926 -1.037433 -0.452676 22.440490 -0.046256 1.590970 0.189509 -0.028207 -53056.800000 0 1 0
23.443226 -1.272633 0.474524 23.482539 -0.054233 1.550587 0.196159 -0.034039 601162.000000 0 1 0
24.704126 -1.741933 -0.010076 24.765465 -0.070395 1.571203 0.211055 -0.046997 17904.700000 0 1 0
25.795126 -1.532633 1.039124 25.861502 -0.059346 1.530605 0.211571 -0.042428 -522323.000000 0 0 1
25.794026 -0.159033 1.450024 25.835240 -0.006165 1.514641 0.207977 -0.039837 515073.000000 0 0 1
26.642226 -0.021333 2.588024 26.767640 -0.000801 1.473960 0.216690 -0.046580 -280585.000000 0 0 1
26.714926 1.438567 3.272524 26.953036 0.053797 1.449080 0.217009 -0.040334 328548.000000 0 0 1
27.417826 2.537767 2.650324 27.662279 0.092296 1.474839 0.247680 -0.042505 -374141.000000 0 0 1
28.765226 2.309467 2.385524 28.956219 0.080115 1.488319 0.245962 -0.039740 -819051.000000 0 0 1
29.115226 3.497867 1.511424 29.363512 0.119566 1.519301 0.268975 -0.046923 -118382.000000 0 0 1
28.516926 3.281267 0.185324 28.705681 0.114560 1.564340 0.280830 -0.043767 343030.000000 0 0 1
28.932326 4.123767 -0.864076 29.237503 0.141578 1.600354 0.264487 -0.041431 -419492.000000 0 0 1
30.298586 3.742567 -1.425976 30.562142 0.122900 1.617472 0.230971 -0.040040 -47038.500000 0 0 1
31.445496 4.102767 -0.649376 31.718663 0.129739 1.591271 0.211456 -0.033336 393464.000000 0 0 1
32.649576 3.777067 -1.306176 32.893269 0.115173 1.610516 0.164597 -0.036396 761698.000000 0 0 1
33.974016 4.262867 -0.610576 34.245855 0.124822 1.588626 0.122606 -0.024821 539027.000000 0 0 1
34.212136 3.630367 0.649724 34.410347 0.105718 1.551914 0.152728 -0.033214 -18700.300000 0 0 1
33.491606 4.105567 1.768524 33.788623 0.121976 1.518432 0.166272 -0.024539 -121553.000000 0 0 1
33.675086 3.227867 3.014324 33.963461 0.095561 1.481927 0.176738 -0.028678 342535.000000 0 0 1
32.731216 2.124867 3.026224 32.939423 0.064828 1.478794 0.201125 -0.038392 501625.000000 0 0 1
32.937356 1.146767 4.068324 33.207465 0.034803 1.447975 0.196150 -0.038997 -35885.000000 0 0 1
34.127206 0.205467 3.784824 34.337054 0.006021 1.460346 0.174577 -0.035251 -6427.910000 0 0 1
35.394816 0.685567 4.128624 35.641388 0.019367 1.454698 0.171000 -0.036815 -489608.000000 0 0 1
36.398826 -0.273633 4.147724 36.635407 -0.007517 1.457337 0.162656 -0.039323 -856565.000000 0 0 1
-37.449353 0.302067 4.478524 37.717403 -0.008066 1.451777 0.162588 -0.052154 -262902.000000 0 0 1
-36.870243 1.195367 3.543124 37.059377 -0.032410 1.475043 0.160867 -0.051712 379987.000000 0 0 1
-35.995831 0.567767 2.599924 36.094069 -0.015772 1.498702 0.153018 -0.046136 -193564.000000 0 0 1
-35.382242 1.544667 1.637224 35.453766 -0.043629 1.524601 0.175884 -0.045652 -1004150.000000 0 0 1
-34.369500 2.339467 2.114724 34.513877 -0.067963 1.509486 0.165153 -0.067557 -266339.000000 0 0 1
-33.742103 3.006267 0.998324 33.890468 -0.088861 1.541335 0.172095 -0.037361 -542579.000000 0 0 1
-32.628333 3.932967 1.405224 32.894544 -0.119960 1.528064 0.194726 -0.039633 -872465.000000 0 0 1
-31.535143 3.346467 2.051924 31.778522 -0.105723 1.506182 0.195055 -0.054835 -62639.100000 0 0 1
-30.890133 4.097967 3.042224 31.308925 -0.131893 1.473475 0.210298 -0.048056 -221603.000000 0 0 1
-31.629763 4.146467 4.398624 32.202220 -0.130351 1.433774 0.222689 -0.053197 272367.000000 0 0 1
-32.901643 4.762567 4.611524 33.562871 -0.143753 1.432961 0.222355 -0.029464 635521.000000 0 0 1
-34.021483 3.926567 4.735824 34.573216 -0.114906 1.433385 0.207885 -0.026741 -59119.500000 0 0 1
-34.162684 3.195567 6.070924 34.844752 -0.093268 1.395675 0.178227 -0.024533 -866551.000000 0 0 1
-34.316928 3.981367 7.247324 35.299101 -0.115501 1.364014 0.187845 -0.030931 408373.000000 0 0 1
-34.151468 3.353967 8.523824 35.358555 -0.097895 1.327330 0.160285 -0.030875 -703450.000000 0 0 1
-35.153628 2.277167 8.793424 36.308227 -0.064687 1.326176 0.160907 -0.028847 -941921.000000 0 0 1
-34.893585 1.053167 8.134024 35.844578 -0.030173 1.341877 0.164195 -0.038190 262208.000000 0 0 1
-35.878576 0.039167 8.265424 36.818351 -0.001092 1.344375 0.149422 -0.036775 40257.200000 0 0 1
-35.741579 -0.712633 9.588424 37.012244 0.019936 1.308747 0.171935 -0.033802 -18693.900000 0 0 1
-34.531858 -1.430333 9.652224 35.883987 0.041397 1.298458 0.155042 -0.030604 -37718.300000 0 0 1
-34.591400 -2.361733 10.666424 36.275548 0.068169 1.272346 0.139854 -0.021432 525392.000000 0 0 1
-33.293683 -3.235233 10.565624 35.079460 0.096868 1.264855 0.155505 -0.011846 388176.000000 0 0 1
-33.270473 -3.944733 9.404624 34.798452 0.118015 1.297133 0.158683 -0.015009 -311296.000000 0 0 1
-32.282903 -4.915833 9.353224 33.968133 0.151113 1.291840 0.157935 -0.018058 -330258.000000 0 0 1
-32.521353 -5.825433 8.123224 34.022946 0.177247 1.329710 0.170325 -0.019670 -239299.000000 0 0 1
-33.645123 -6.626233 8.292324 35.279795 0.194456 1.333532 0.189400 -0.022933 -315121.000000 0 0 1
-34.089608 -7.085533 7.012524 35.517343 0.204932 1.372051 0.177516 -0.035899 91321.500000 0 0 1
-34.882562 -8.428033 7.069524 36.575990 0.237068 1.376289 0.185848 -0.043965 -441030.000000 0 0 1
-36.103063 -8.275633 7.703724 37.832058 0.225330 1.365733 0.176349 -0.040108 -728008.000000 0 0 1
-36.583473 -9.502333 8.166724 38.669629 0.254128 1.358002 0.186583 -0.039651 -27520.100000 0 0 1
8.049227 -23.891833 10.736524 27.402239 -1.245837 1.168196 0.148702 -0.037301 369610.000000 0 0 1
7.382527 -24.446433 9.586024 27.276760 -1.277517 1.211692 0.144338 -0.040220 307224.000000 0 0 1
5.976127 -24.626433 9.671424 27.124007 -1.332727 1.206210 0.143714 -0.047206 705507.000000 0 0 1
5.530527 -25.700943 8.615324 27.664942 -1.358841 1.254113 0.125944 -0.030873 -25480.400000 0 0 1
5.506627 -25.304563 7.262724 26.895929 -1.356523 1.297372 0.114128 -0.032534 -156549.000000 0 0 1
5.033927 -26.356363 6.412824 27.588451 -1.382074 1.336205 0.100363 -0.026822 -119642.000000 0 0 1
4.259727 -25.964363 5.117324 26.804485 -1.408184 1.378704 0.079948 -0.021676 909435.000000 0 0 1
2.862327 -25.735513 5.306424 26.432323 -1.460031 1.368668 0.067108 -0.027547 145501.000000 0 0 1
2.069627 -26.878753 5.089124 27.434466 -1.493949 1.384215 0.060493 -0.026955 1292780.000000 0 0 1
0.506227 -26.574103 5.053624 27.055098 -1.551749 1.382903 0.083461 -0.039962 1511380.000000 0 0 1
-0.138773 -26.333373 6.279124 27.072000 1.565527 1.336723 0.075560 -0.037634 410986.000000 0 0 1
-1.561573 -26.360703 6.447524 27.182637 1.511627 1.331321 0.067751 -0.039501 1037050.000000 0 0 1
-2.139073 -27.780743 6.655224 28.646768 1.493950 1.336334 0.088247 -0.041562 -335301.000000 0 0 1
-1.694273 -28.412743 7.880524 29.534000 1.511236 1.300695 0.077305 -0.039294 246177.000000 0 0 1
-2.398173 -29.651403 8.097024 30.830484 1.490093 1.305049 0.104532 -0.037938 203455.000000 0 0 1
-2.059373 -30.303503 9.461824 31.813039 1.502942 1.268807 0.100853 -0.035542 -117513.000000 0 0 1
-0.725673 -30.698623 9.620624 32.179007 1.547162 1.267181 0.096705 -0.037321 -535746.000000 0 0 1
-0.465373 -30.958773 10.984724 32.853103 1.555765 1.229872 0.104841 -0.035869 329191.000000 0 0 1
1.029027 -31.058083 11.387124 33.095770 -1.537676 1.219553 0.080644 -0.031574 221250.000000 0 0 1
1.618427 -32.302043 10.955024 34.147530 -1.520735 1.244207 0.082949 -0.027360 2306720.000000 0 0 1
3.082227 -32.333273 11.212324 34.360688 -1.475757 1.238396 0.091170 -0.026794 2533590.000000 0 0 1
3.458827 -32.890173 12.609224 35.393778 -1.466019 1.206539 0.096984 -0.027594 -381387.000000 0 0 1
3.005527 -32.097003 13.672324 35.016899 -1.477430 1.169677 0.097736 -0.030979 26270.900000 0 0 1
3.454527 -32.588733 14.913224 36.005049 -1.465187 1.143735 0.107247 -0.030204 -480677.000000 0 0 1
3.057127 -31.594243 16.049724 35.568748 -1.474334 1.102652 0.122283 -0.042119 -99765.200000 0 0 1
3.543127 -30.301993 15.937524 34.420476 -1.454398 1.089392 0.134396 -0.042781 -828228.000000 0 0 1
4.907227 -30.185973 16.155324 34.587112 -1.409640 1.084799 0.122397 -0.035948 -654747.000000 0 0 1
5.619727 -28.913373 15.546424 33.305492 -1.378826 1.085147 0.139057 -0.032102 249829.000000 0 0 1
6.019827 -28.956473 14.194924 32.805663 -1.365824 1.123314 0.127974 -0.028811 1913.310000 0 0 1
4.903627 -28.858853 13.315024 32.158495 -1.402486 1.143904 0.117739 -0.023572 -342725.000000 0 0 1
5.180527 -28.844493 11.794224 31.590289 -1.393089 1.188179 0.104951 -0.027810 9720.350000 0 0 1
5.629927 -30.090913 11.283124 32.626186 -1.385837 1.217673 0.104371 -0.026561 -888676.000000 0 0 1
6.989427 -30.279203 11.472224 33.125431 -1.343937 1.217144 0.113144 -0.020635 -1178370.000000 0 0 1
7.498727 -31.635083 10.908124 34.292806 -1.338054 1.247084 0.098091 -0.015742 21343.100000 0 0 1
7.097227 -32.711783 11.721624 35.465869 -1.357145 1.233958 0.082399 -0.026950 35156.500000 0 0 1
7.246827 33.757914 10.984424 36.232180 1.359335 1.262781 0.085705 -0.020773 72279.600000 0 0 1
6.906627 32.448469 11.765824 35.199990 1.361077 1.229980 0.080825 -0.020616 476149.000000 0 0 1
5.517327 32.188590 11.875724 34.750238 1.401040 1.222023 0.086563 -0.024340 -42584.600000 0 0 1
5.460127 30.944664 12.546324 33.834827 1.396146 1.190914 0.095769 -0.021233 289488.000000 0 0 1
4.284427 30.747844 13.545324 33.871257 1.432347 1.159382 0.086633 -0.027061 331196.000000 0 0 1
4.394227 31.515894 14.711724 35.057034 1.432261 1.137735 0.108452 -0.031757 -29905.700000 0 0 1
3.344527 31.190124 15.596224 35.032156 1.463974 1.109402 0.104557 -0.035491 232588.000000 0 0 1
3.748627 31.418034 17.099424 35.965753 1.452043 1.075336 0.116973 -0.038908 68596.200000 0 0 1
3.932727 32.750814 17.488324 37.335287 1.451288 1.083303 0.128196 -0.039049 1221.420000 0 0 1
4.505627 32.788612 18.769724 38.048605 1.434237 1.054906 0.125347 -0.033519 22752.600000 0 0 1
4.795727 -33.486013 19.386924 38.989292 -1.428548 1.050385 0.123440 -0.037792 1043110.000000 0 0 1
3.558827 -32.758563 19.565524 38.322297 -1.462583 1.034970 0.133532 -0.041911 717731.000000 0 0 1
3.710727 -31.623233 20.337724 37.781231 -1.453989 1.002375 0.123137 -0.040575 518377.000000 0 0 1
2.314327 -30.998513 20.663724 37.326310 -1.496275 0.984119 0.133277 -0.035259 1006220.000000 0 0 1
1.415827 -31.895943 21.352624 38.409508 -1.526437 0.981327 0.146022 -0.034677 366602.000000 0 0 1
0.186627 -31.241813 21.632224 38.000511 -1.564823 0.965189 0.128260 -0.034754 13523.500000 0 0 1
-0.832373 -32.178913 22.309724 39.165024 1.544935 0.964736 0.153264 -0.029501 -1095210.000000 0 0 1
-1.630473 -32.784373 21.326324 39.144420 1.521104 0.994632 0.147947 -0.033579 -26339.500000 0 0 1
-2.434373 33.783374 21.802024 40.281147 -1.498862 0.998878 0.142163 -0.029550 377545.000000 0 0 1
-3.653273 -33.526223 22.699324 40.652347 1.462257 0.978369 0.152897 -0.035176 396863.000000 0 0 1
-4.651273 -32.664613 22.094124 39.708458 1.429352 0.980739 0.137698 -0.034229 455999.000000 0 0 1
-5.783573 -32.489993 22.912124 40.174803 1.394631 0.963912 0.121289 -0.036246 -240585.000000 0 0 1
-6.985173 -31.845923 22.225724 39.458057 1.354873 0.972453 0.092003 -0.026030 -388444.000000 0 0 1
-7.839573 -32.742233 21.575324 39.987590 1.335787 1.000893 0.073765 -0.024424 -196641.000000 0 0 1
-8.881573 -32.043643 20.921224 39.285812 1.300413 1.009199 0.073876 -0.030477 347895.000000 0 0 1
-9.978473 -32.984063 20.328224 40.009437 1.277025 1.037836 0.046905 -0.034232 21611.500000 0 0 1
-10.649273 -33.619943 21.362324 41.231741 1.264040 1.026164 0.053411 -0.033036 -1219560.000000 0 0 1
-11.884973 33.549035 20.925824 41.287776 -1.230334 1.039295 0.038095 -0.033119 -294140.000000 0 0 1
-12.794073 33.264402 22.130124 41.951772 -1.203621 1.015125 0.045107 -0.026753 -495866.000000 0 0 1
-13.074273 -33.260643 23.023724 42.512338 1.196265 0.998484 0.051200 -0.027298 225313.000000 0 0 1
-11.941373 -32.897653 23.792924 42.319679 1.222600 0.973730 0.068347 -0.025662 -73611.500000 0 0 1
-12.125873 -31.471043 24.409324 41.632661 1.203024 0.944310 0.069291 -0.031820 263797.000000 0 0 1
-12.951273 -31.461413 25.576224 42.564060 1.180282 0.926185 0.049530 -0.024492 101364.000000 0 0 1
-13.339273 -30.138753 25.791524 41.850727 1.154117 0.906793 0.085503 -0.030056 365756.000000 0 0 1
-14.151773 -29.948423 27.121624 42.810784 1.129359 0.884698 0.079590 -0.022465 926088.000000 0 0 1
-13.279373 -29.805613 28.275124 43.176370 1.151664 0.856779 0.066710 -0.019205 1060260.000000 0 0 1
-14.078473 -29.332303 29.356124 43.822020 1.123305 0.836730 0.079711 -0.014340 314227.000000 0 0 1
-13.295973 -29.156643 30.667924 44.355544 1.142949 0.807356 0.066953 -0.013661 206693.000000 0 0 1
-14.201873 -28.627553 31.670724 44.991830 1.110281 0.789893 0.082343 -0.014430 1068430.000000 0 0 1
-13.660873 -28.296113 32.990024 45.559095 1.121017 0.761046 0.067552 -0.009041 -104045.000000 0 0 1
-13.069673 -29.546233 33.751224 46.721958 1.154325 0.763552 0.068435 -0.003184 1093910.000000 0 0 1
-11.680473 -29.823673 33.476124 46.330722 1.197508 0.763317 0.051333 -0.002335 795196.000000 0 0 1
-11.183573 -30.843863 -33.414837 46.829131 1.222953 2.365346 0.055319 0.001005 -435722.000000 0 0 1
-9.661973 -30.963623 -33.479837 46.615439 1.268328 2.372028 0.069000 -0.009837 -244155.000000 0 0 1
-8.892573 -29.948473 -32.849437 45.332928 1.282159 2.381288 0.082138 -0.020919 337546.000000 0 0 1
-7.564473 -30.411183 -32.658237 45.261703 1.327004 2.376824 0.093982 -0.036355 416427.000000 0 0 1
-6.669373 -29.593843 -31.670737 43.855577 1.349136 2.377716 0.113050 -0.042257 194613.000000 0 0 1
-7.132273 -29.636693 -30.329637 43.001044 1.334630 2.353675 0.115887 -0.043686 360872.000000 0 0 1
-6.280773 -28.848433 -29.487637 41.727700 1.356425 2.355574 0.120598 -0.046089 281501.000000 0 0 1
-6.687773 -28.977893 -27.998037 40.845253 1.343979 2.326040 0.116355 -0.041680 -51096.100000 0 0 1
-6.312373 -30.217383 -27.489837 41.335547 1.364859 2.298345 0.101734 -0.046098 -244948.000000 0 0 1
-7.105073 -30.536853 -26.396337 40.984730 1.342192 2.270581 0.108614 -0.039898 -281997.000000 0 0 1
-6.731873 -31.877173 -25.736037 41.518862 1.362673 2.239365 0.097223 -0.051659 1068400.000000 0 0 1
-5.585873 -31.741353 -24.856037 40.700590 1.396599 2.227746 0.075144 -0.048026 677349.000000 0 0 1
-5.464073 -32.942313 -24.156437 41.213900 1.406425 2.197062 0.078130 -0.052197 -72156.400000 0 0 1
-4.527873 -32.932653 -22.927337 40.382224 1.434164 2.174576 0.091430 -0.058458 -157558.000000 0 0 1
-4.954873 -32.360963 -21.696137 39.274738 1.418864 2.156061 0.106355 -0.048810 -22197.500000 0 0 1
-5.030373 -30.952683 -21.675237 38.120718 1.409687 2.175593 0.087053 -0.037455 -659012.000000 0 0 1
-5.530473 -30.358643 -20.383337 36.982614 1.390601 2.154550 0.129418 -0.046844 889303.000000 0 0 1
-6.953773 -30.447003 -20.094637 37.137170 1.346258 2.142532 0.136234 -0.057827 1839910.000000 0 0 1
-7.773173 -29.280653 -20.310037 36.472955 1.311310 2.161387 0.135987 -0.046988 370106.000000 0 0 1
-7.930173 -28.874203 -21.816237 37.048015 1.302760 2.200449 0.174890 -0.063455 -935945.000000 0 0 1
-6.715473 -28.380223 -22.322537 36.726425 1.338445 2.224091 0.176831 -0.041148 -191920.000000 0 0 1
-6.902073 -28.168473 -23.733037 37.474772 1.330502 2.256615 0.226910 -0.053078 43794.800000 0 0 1
-5.577073 -27.780643 -24.470437 37.438886 1.372676 2.283141 0.209298 -0.052016 105026.000000 0 0 1
-5.020073 -26.525673 -24.103937 36.191328 1.383755 2.299649 0.202121 -0.054997 510224.000000 0 0 1
-4.265273 -26.532453 -22.848737 35.273622 1.411403 2.275433 0.149682 -0.045163 -905021.000000 0 0 1
-2.778973 -26.948463 -22.971737 35.519615 1.468038 2.274091 0.129352 -0.040666 475.338000 0 0 1
-1.844173 -25.952953 -23.356737 34.964180 1.499857 2.302340 0.132621 -0.038317 290357.000000 0 0 1
-1.700173 -24.972033 -22.366437 33.567105 1.502818 2.300059 0.134142 -0.039422 -1068160.000000 0 0 1
-1.046173 -23.658333 -22.914537 32.952803 1.526605 2.339737 0.144435 -0.037585 194842.000000 0 0 1
-1.831273 -22.876433 -23.833337 33.086443 1.490916 2.375082 0.241865 -0.047464 -18250.900000 0 0 1
-2.882573 -22.157033 -23.233237 32.233936 1.441426 2.375708 0.242132 -0.049602 769247.000000 0 0 1
-4.015473 -21.688433 -24.260237 32.788279 1.387726 2.403727 0.229392 -0.064236 886267.000000 0 0 1
-3.512173 -20.746433 -25.178137 32.812931 1.403096 2.445453 0.236109 -0.052307 95839.100000 0 0 1
-4.430673 -20.602233 -26.244137 33.657653 1.358965 2.465043 0.292298 -0.054605 89638.700000 0 0 1
-4.116073 -21.333633 -27.593337 35.120624 1.380200 2.474580 0.235259 -0.048879 53777.000000 0 0 1
-5.026273 -20.901633 -28.589237 35.769906 1.334804 2.496849 0.235788 -0.051997 73033.400000 0 0 1
-4.746973 -21.574033 -29.783737 37.081581 1.354216 2.503435 0.249897 -0.051112 483659.000000 0 0 1
-5.973573 -21.628533 -30.755237 38.070482 1.301325 2.511291 0.232539 -0.054060 152610.000000 0 0 1
-6.169573 -20.469533 -31.475737 38.049802 1.278053 2.544947 0.211561 -0.054003 307237.000000 0 0 1
-7.158373 -20.719633 -32.494937 39.197786 1.238147 2.548112 0.200825 -0.052542 452842.000000 0 0 1
-6.808173 -19.865033 -33.785437 39.779725 1.240620 2.585479 0.182643 -0.059234 194401.000000 0 0 1
-5.591473 -20.278933 33.327824 39.411211 1.301753 0.563027 0.160554 -0.047307 -502208.000000 0 0 1
-5.396373 -19.701933 32.046524 38.003509 1.303452 0.567492 0.171837 -0.044337 304534.000000 0 0 1
-4.093173 -20.160033 31.347124 37.494309 1.370485 0.580752 0.107135 -0.046241 -886947.000000 0 0 1
-4.129373 -21.569533 31.088224 38.062766 1.381640 0.615020 0.129804 -0.045046 427586.000000 0 0 1
-3.111773 -22.124733 30.221824 37.583848 1.431066 0.636607 0.113668 -0.033023 2597750.000000 0 0 1
-1.576573 -21.958933 30.703224 37.780528 1.499123 0.622071 0.094039 -0.039215 1125690.000000 0 0 1
-1.147173 -20.663933 30.607124 36.947397 1.515338 0.594556 0.100153 -0.034579 -556322.000000 0 0 1
0.000227 -20.397733 31.362524 37.412236 -1.570785 0.576646 0.098182 -0.032635 -372931.000000 0 0 1
-0.397373 -20.023133 32.858124 38.480386 1.550953 0.547377 0.081962 -0.029464 53544.900000 0 0 1
-1.221673 -18.868233 32.874424 37.924009 1.506139 0.521947 0.073408 -0.025318 38800.600000 0 0 1
-1.669573 -18.535733 -33.482837 38.307457 1.480966 2.634284 0.076763 -0.030396 301820.000000 0 0 1
-2.781673 -17.476033 -33.388237 37.787879 1.412950 2.654228 0.096622 -0.045382 203640.000000 0 0 1
-2.277273 -16.180633 -33.541337 37.309786 1.430974 2.688267 0.098004 -0.041466 -154872.000000 0 0 1
-3.346273 -15.273433 -33.655037 37.109794 1.355113 2.706674 0.127526 -0.047453 40333.300000 0 0 1
-2.946973 -13.867633 33.481724 36.359617 1.361404 0.400544 0.110422 -0.040232 234706.000000 0 0 1
-2.184873 -13.150633 -33.204137 35.780267 1.406158 2.759808 0.101903 -0.041966 162670.000000 0 0 1
-2.630973 -11.827233 -32.938137 35.095959 1.351910 2.789104 0.089082 -0.042427 101832.000000 0 0 1
-2.103273 -10.731733 33.757324 35.484515 1.377263 0.313288 0.082523 -0.037675 -21419.300000 0 0 1
-2.602173 -11.033933 32.423124 34.347896 1.339194 0.336360 0.104283 -0.046461 279812.000000 0 0 1
-1.773373 -10.531533 31.399524 33.166069 1.403974 0.327851 0.115230 -0.044608 208334.000000 0 0 1
-0.631073 -11.452433 30.898024 32.958222 1.515748 0.355448 0.087380 -0.047012 302276.000000 0 0 1
-1.170073 -12.606433 30.280624 32.820838 1.478246 0.396020 0.109286 -0.044307 833784.000000 0 0 1
-0.113073 -13.516833 29.885124 32.799973 1.562431 0.424772 0.083017 -0.045155 529071.000000 0 0 1
-0.367673 -14.965233 30.241924 33.744145 1.546233 0.459640 0.096155 -0.037924 949112.000000 0 0 1
-1.470573 -15.636133 29.563324 33.475982 1.477022 0.488324 0.099857 -0.044213 946809.000000 0 0 1
-1.934173 -16.717533 30.286524 34.648095 1.455611 0.507179 0.110083 -0.043764 -225618.000000 0 0 1
-2.359773 -17.835033 29.342224 34.418353 1.439249 0.550015 0.113727 -0.025141 -362286.000000 0 0 1
-3.621673 -17.718433 28.731724 33.949541 1.369172 0.561783 0.127440 -0.027982 -226557.000000 0 0 1
-3.843273 -18.921433 27.988224 34.001942 1.370405 0.603884 0.137476 -0.031673 1632630.000000 0 0 1
-5.233673 -19.121433 27.195624 33.654457 1.303632 0.629904 0.107881 -0.036589 1415250.000000 0 0 1
-5.576173 -20.425733 26.710424 34.084469 1.304293 0.670270 0.123417 -0.029956 -121742.000000 0 0 1
-4.660673 -20.933633 25.754524 33.514689 1.351729 0.694373 0.137335 -0.030036 -480366.000000 0 0 1
-30.575983 -33.137170 -0.072176 45.088447 0.825575 1.572397 0.061356 -0.022178 -374776.000000 0 0 1
-29.605923 -32.159370 0.018524 43.711968 0.826716 1.570373 0.071055 -0.018632 -612766.000000 0 0 1
-29.823243 -31.433170 1.184224 43.345962 0.811674 1.543473 0.068842 -0.015633 -314727.000000 0 0 1
-29.010693 -30.185170 1.423924 41.890242 0.805236 1.536798 0.082525 -0.017228 -571059.000000 0 0 1
-27.658743 -30.488670 1.612024 41.196647 0.834028 1.531656 0.096361 -0.012716 -920429.000000 0 0 1
-26.929893 -29.323270 1.883924 39.857527 0.827919 1.523512 0.106606 -0.004078 709806.000000 0 0 1
-25.432793 -29.586670 2.264124 39.080996 0.860754 1.512830 0.079197 -0.009714 550191.000000 0 0 1
-25.172813 -30.422470 3.385524 39.631540 0.879545 1.485267 0.075092 -0.003406 432943.000000 0 0 1
-23.782173 -30.582570 3.683824 38.916011 0.909840 1.475993 0.071121 0.000765 579754.000000 0 0 1
-23.565173 -31.238770 5.001124 39.448566 0.924513 1.443678 0.079644 -0.000236 18910.500000 0 0 1
-23.855973 -30.301570 6.022424 39.032835 0.903857 1.415886 0.082173 0.002988 -27376.700000 0 0 1
-23.551973 -30.932070 7.240124 39.546274 0.920033 1.386678 0.071063 -0.010482 -405693.000000 0 0 1
-23.990173 -30.128770 8.427224 39.424476 0.898343 1.355378 0.075022 -0.014611 -220826.000000 0 0 1
-23.285773 -28.970370 8.750024 38.184716 0.893755 1.339592 0.086886 -0.015412 -225214.000000 0 0 1
-23.828573 -28.485270 9.972524 38.453384 0.874179 1.308457 0.072270 -0.018586 209879.000000 0 0 1
-23.062373 -27.277870 10.515124 37.236046 0.868943 1.284511 0.082725 -0.026826 326952.000000 0 0 1
-21.707673 -27.493470 10.855524 36.673647 0.902455 1.270291 0.070150 -0.025942 -77696.100000 0 0 1
-21.120673 -26.350670 11.481624 35.668871 0.895127 1.243066 0.088392 -0.031610 -283739.000000 0 0 1
-19.843873 -26.639670 12.246924 35.403933 0.930568 1.217577 0.086881 -0.033080 -518188.000000 0 0 1
-20.031273 -27.602370 13.271724 36.596194 0.943024 1.199683 0.097170 -0.026307 15655.200000 0 0 1
-18.830473 -27.800270 14.008124 36.382266 0.975435 1.175560 0.097411 -0.031718 445233.000000 0 0 1
-18.912773 -29.032070 14.908224 37.720144 0.993407 1.164475 0.102570 -0.040840 179323.000000 0 0 1
-18.696273 -30.298670 14.263324 38.353650 1.017923 1.189753 0.102321 -0.034224 -160305.000000 0 0 1
-18.869073 -31.353570 15.175124 39.615309 1.029043 1.177687 0.098549 -0.037540 246298.000000 0 0 1
-18.278073 -32.708970 14.687424 40.245312 1.061215 1.197220 0.100042 -0.038312 122179.000000 0 0 1
-18.465573 -33.686170 15.680924 41.492491 1.069363 1.183246 0.100315 -0.032092 269318.000000 0 0 1
-17.673973 32.770567 15.525124 40.339917 -1.076186 1.175743 0.085498 -0.033971 107685.000000 0 0 1
-17.940273 31.733167 16.629224 40.067173 -1.056246 1.142817 0.088013 -0.038436 -184355.000000 0 0 1
-19.094173 30.920667 16.504524 39.913336 -1.017593 1.144492 0.097715 -0.037537 145661.000000 0 0 1
-19.392873 29.978867 17.577224 39.796668 -0.996614 1.113331 0.079636 -0.027044 322456.000000 0 0 1
-20.046373 30.608467 18.857224 41.162243 -0.990964 1.094918 0.086584 -0.038455 255037.000000 0 0 1
-19.066973 31.362867 19.549524 41.585608 -1.024554 1.081389 0.089422 -0.036669 198493.000000 0 0 1
-19.688273 31.898967 20.708224 42.825258 -1.017820 1.066089 0.091504 -0.038786 -105885.000000 0 0 1
-18.986173 32.921267 21.630924 43.728497 -1.047674 1.053348 0.078826 -0.024922 23845.900000 0 0 1
-17.897573 32.369267 22.360724 43.221459 -1.065715 1.027042 0.069907 -0.029962 -60105.900000 0 0 1
-17.698673 33.025567 23.637524 44.301960 -1.078836 1.007998 0.070062 -0.034563 -28274.900000 0 0 1
-18.582173 32.403967 24.764324 44.817251 -1.050125 0.985361 0.061248 -0.030916 716047.000000 0 0 1
-19.954573 32.699167 24.516524 45.480550 -1.022876 1.001481 0.043890 -0.036169 735484.000000 0 0 1
-20.901573 31.968067 25.316424 45.823077 -0.991736 0.985457 0.048792 -0.031172 -417622.000000 0 0 1
-22.354273 32.231167 25.090424 46.562764 -0.964405 1.001723 0.080795 -0.042350 -1106740.000000 0 0 1
-22.850973 32.023567 23.768424 45.963179 -0.951023 1.027315 0.062184 -0.033808 -869541.000000 0 0 1
-24.218773 32.168767 23.661124 46.703612 -0.925463 1.039533 0.052390 -0.040126 -965711.000000 0 0 1
-24.685473 31.624367 22.281124 45.890322 -0.908007 1.063827 0.050766 -0.038299 -14933.600000 0 0 1
-24.179773 32.459867 21.242724 45.711680 -0.930559 1.087488 0.046822 -0.038740 110756.000000 0 0 1
-24.097473 31.805067 20.019424 44.643340 -0.922410 1.105788 0.035635 -0.027475 73184.400000 0 0 1
-23.617073 32.795467 18.896624 44.613801 -0.946686 1.133425 0.052590 -0.030113 1311170.000000 0 0 1
-22.271973 33.319167 19.078824 44.387039 -0.981565 1.126493 0.066283 -0.027458 1080470.000000 0 0 1
-21.862773 -33.450270 18.062824 43.853929 0.991901 1.146273 0.082216 -0.023456 -435383.000000 0 0 1
-20.523773 -32.788970 18.335124 42.807927 1.011525 1.128173 0.085232 -0.027004 -618357.000000 0 0 1
-20.503773 -31.922970 19.480524 42.649403 0.999861 1.096447 0.085391 -0.030311 523786.000000 0 0 1
-19.314873 -31.129170 19.515424 41.508329 1.015458 1.081328 0.074145 -0.033282 436303.000000 0 0 1
-19.457473 -30.028970 20.569124 41.272523 0.995859 1.049075 0.072166 -0.024374 131334.000000 0 0 1
-20.512973 -29.116770 20.320024 41.005753 0.957052 1.052339 0.087362 -0.025750 222534.000000 0 0 1
-20.954573 -28.553170 21.515424 41.440212 0.937693 1.024891 0.086086 -0.020096 -19705.700000 0 0 1
-21.840273 -27.279870 21.224824 40.886208 0.895689 1.024976 0.071447 -0.024512 -301334.000000 0 0 1
-21.194673 -26.197170 20.579924 39.484670 0.890565 1.022525 0.077608 -0.022917 54240.700000 0 0 1
-21.975673 -25.038270 20.363024 39.044820 0.850449 1.022154 0.066770 -0.011810 -482198.000000 0 0 1
-22.943273 -25.007270 19.175224 38.980079 0.828416 1.056498 0.074917 -0.011191 -55497.900000 0 0 1
-24.267073 -25.390570 19.534324 40.189075 0.808019 1.063220 0.067460 -0.009797 250647.000000 0 0 1
-25.074383 -25.307970 18.378624 40.087303 0.790034 1.094529 0.062640 -0.003880 880659.000000 0 0 1
-26.635913 -25.240370 18.636324 41.156539 0.758503 1.100876 0.046930 -0.006654 1613420.000000 0 0 1
-27.322023 -26.462570 19.018224 42.525915 0.769420 1.107147 0.034965 -0.009400 231319.000000 0 0 1
-27.388473 -27.511170 18.064024 42.817075 0.787633 1.135269 0.052661 -0.014901 -476634.000000 0 0 1
-28.152043 -28.743170 18.665624 44.352146 0.795788 1.136414 0.062879 -0.023231 499197.000000 0 0 1
-29.554583 -28.619570 18.783324 45.225728 0.769327 1.142498 0.050243 -0.019549 319813.000000 0 0 1
-30.308883 -28.913170 17.594224 45.432990 0.761835 1.173142 0.059723 -0.018880 -935866.000000 0 0 1
-31.808843 -28.817670 17.716524 46.434210 0.736100 1.179334 0.063892 -0.017202 -871542.000000 0 0 1
-32.129323 -27.496870 17.556924 45.788829 0.707862 1.177286 0.067426 -0.015626 -381381.000000 0 0 1
-33.520403 -27.371770 17.718724 46.763067 0.684764 1.182184 0.086042 -0.010940 -106929.000000 0 0 1
-34.243404 -26.109870 17.136824 46.346594 0.651440 1.192052 0.104370 -0.023890 78976.800000 0 0 1
-34.300773 -26.074770 15.738224 45.870779 0.649985 1.220582 0.115882 -0.036302 459849.000000 0 0 1
-35.130416 -24.993470 15.268724 45.737880 0.618368 1.230431 0.111214 -0.034238 20110.900000 0 0 1
-34.354120 -23.763570 14.780724 44.310074 0.605150 1.230703 0.096847 -0.035091 -264321.000000 0 0 1
-33.630163 -23.156870 15.786024 43.777015 0.603017 1.201884 0.084677 -0.023425 -134384.000000 0 0 1
-33.282583 -21.782870 15.569424 42.715697 0.579520 1.197712 0.087072 -0.014870 -609932.000000 0 0 1
-34.383733 -20.792270 15.855824 43.196837 0.543877 1.194950 0.084731 -0.026674 -649908.000000 0 0 1
-34.659268 -20.531970 17.199324 43.802322 0.534809 1.167277 0.089705 -0.018837 771472.000000 0 0 1
-35.593119 -19.444770 17.383624 44.126632 0.500003 1.165873 0.098352 -0.020655 210710.000000 0 0 1
-35.988735 -19.102570 18.782224 44.865011 0.487978 1.138851 0.068427 -0.010589 -558886.000000 0 0 1
-37.033123 -19.850070 19.327324 46.249573 0.492038 1.139673 0.079722 -0.006123 -62518.200000 0 0 1
-37.395403 -19.358970 20.612224 46.883363 0.477694 1.115588 0.093656 -0.001434 -739211.000000 0 0 1
36.406376 -19.721770 21.045024 46.446372 -0.496458 1.100552 0.097816 0.002542 -689516.000000 0 0 1
36.038436 -21.081870 21.265324 46.855396 -0.529304 1.099715 0.097071 -0.007470 -195513.000000 0 0 1
36.652136 -21.679170 22.379324 48.106129 -0.534135 1.086928 0.078519 0.002666 -242446.000000 0 0 1
35.997256 -23.027370 22.898424 48.480925 -0.569099 1.078877 0.091513 0.009374 -212252.000000 0 0 1
34.829276 -22.773570 23.625724 47.852783 -0.579086 1.054438 0.094248 -0.005995 -303388.000000 0 0 1
34.657326 -23.806470 24.563124 48.695229 -0.601887 1.042080 0.093188 -0.016980 -349937.000000 0 0 1
33.490556 -23.662770 25.540724 48.310171 -0.615109 1.013749 0.111383 -0.019069 -845785.000000 0 0 1
32.220986 -23.870270 25.029424 47.270010 -0.637606 1.012786 0.095999 -0.016332 -969049.000000 0 0 1
31.363216 -24.159970 26.090924 47.414047 -0.656385 0.988099 0.052766 -0.016194 -956702.000000 0 0 1
30.082826 -24.842070 25.624324 46.676663 -0.690269 0.989659 0.046978 -0.015137 -674693.000000 0 0 1
29.208126 -23.855570 25.159924 45.334586 -0.684868 0.982454 0.050078 -0.014325 -448993.000000 0 0 1
27.919326 -24.360770 24.869524 44.625431 -0.717436 0.979672 0.046861 -0.008995 253262.000000 0 0 1
26.919726 -23.270970 24.408824 43.150903 -0.712828 0.969561 0.040650 -0.009765 -287137.000000 0 0 1
26.976726 -22.794570 23.112524 42.208115 -0.701568 0.991321 0.046539 -0.013926 -6709.290000 0 0 1
28.177226 -22.114970 22.779824 42.449362 -0.665436 1.004352 0.040311 -0.012102 -14221.400000 0 0 1
28.113826 -21.290070 21.494024 41.299484 -0.648145 1.023427 0.040962 -0.010771 -14153.700000 0 0 1
27.403726 -20.071970 21.537324 40.220698 -0.632177 1.005722 0.042380 -0.018327 -82083.800000 0 0 1
27.277826 -19.466470 20.253624 39.156514 -0.619820 1.027164 0.024719 -0.012144 -321254.000000 0 0 1
26.364926 -18.244570 20.319824 37.958779 -0.605338 1.005918 0.039303 -0.008227 -541421.000000 0 0 1
26.728426 -17.070570 21.049424 38.064306 -0.568367 0.984840 0.039398 -0.015916 -71286.900000 0 0 1
26.907326 -17.233370 22.463324 39.058855 -0.569647 0.958052 0.046538 -0.020890 -131114.000000 0 0 1
26.965226 -15.824170 23.095424 38.870637 -0.530684 0.934574 0.059685 -0.020111 -800565.000000 0 0 1
25.730726 -15.256770 22.866024 37.652282 -0.535212 0.918146 0.030604 -0.022053 -893623.000000 0 0 1
25.736926 -14.035870 23.583324 37.624037 -0.499273 0.893337 0.028838 -0.023693 -107408.000000 0 0 1
24.465626 -13.196870 23.415024 36.345393 -0.494672 0.870772 0.031438 -0.025010 -355502.000000 0 0 1
23.375826 -13.868370 23.954424 36.229482 -0.535462 0.848398 0.052311 -0.022227 -538585.000000 0 0 1
22.147626 -13.171370 23.887424 35.137037 -0.536519 0.823257 0.074235 -0.026564 -66227.300000 0 0 1
20.963526 -13.945170 24.461824 35.104388 -0.586994 0.799827 0.087369 -0.025247 -485795.000000 0 0 1
20.502426 -14.872870 23.464924 34.527589 -0.627583 0.823580 0.101835 -0.028145 73576.600000 0 0 1
19.263926 -15.424770 23.853824 34.322402 -0.675172 0.802386 0.113075 -0.023435 -93387.200000 0 0 1
18.667026 -16.478070 22.964324 33.872479 -0.723195 0.825807 0.124816 -0.033184 -153899.000000 0 0 1
19.303126 -17.707470 23.123524 34.940844 -0.742311 0.847592 0.104054 -0.031965 134294.000000 0 0 1
18.783226 -18.635870 22.195524 34.536163 -0.781460 0.872812 0.130587 -0.033547 201963.000000 0 0 1
19.208026 -20.089770 22.577724 35.809227 -0.807832 0.888599 0.106683 -0.028749 142455.000000 0 0 1
18.433026 -20.525370 23.700824 36.370267 -0.839054 0.861034 0.114380 -0.029445 430046.000000 0 0 1
18.653926 -21.902070 24.089024 37.522669 -0.865318 0.873711 0.119661 -0.028110 -320726.000000 0 0 1
18.310626 -23.041470 23.105024 37.416982 -0.899307 0.905235 0.112129 -0.023689 340505.000000 0 0 1
19.110226 -23.000970 21.899424 37.065215 -0.877529 0.938703 0.110979 -0.018399 289500.000000 0 0 1
20.343726 -23.704770 22.022324 38.219970 -0.861554 0.956725 0.094872 -0.021461 -67619.000000 0 0 1
21.118726 -23.625370 20.706024 37.853641 -0.841361 0.992017 0.086263 -0.012276 -249828.000000 0 0 1
20.605926 -24.490770 19.637424 37.550372 -0.871331 1.020474 0.089251 -0.022771 -5117.660000 0 0 1
21.643026 -24.986370 18.834124 38.045545 -0.856976 1.052914 0.083662 -0.017504 -110426.000000 0 0 1
21.186226 -25.876470 17.705724 37.840990 -0.884730 1.083885 0.088037 -0.020972 21379.900000 0 0 1
20.485026 -27.017570 18.102124 38.435300 -0.922061 1.080399 0.085419 -0.028794 101658.000000 0 0 1
19.680126 -27.585370 17.064824 37.940325 -0.951116 1.104277 0.095269 -0.030967 178913.000000 0 0 1
18.767326 -28.704270 17.598224 38.546662 -0.991743 1.096690 0.079321 -0.024887 496262.000000 0 0 1
17.566526 -28.236470 18.221824 37.919862 -1.014269 1.069532 0.105436 -0.036246 445940.000000 0 0 1
16.760726 -29.297170 18.691424 38.582580 -1.051149 1.065059 0.117791 -0.040144 977269.000000 0 0 1
15.475026 -28.860170 19.506024 38.116543 -1.078604 1.033579 0.115608 -0.036160 474289.000000 0 0 1
14.546426 -28.175170 18.731424 36.828046 -1.094206 1.037217 0.122876 -0.037428 -1045770.000000 0 0 1
13.399026 -27.951370 19.511724 36.626771 -1.123789 1.008988 0.113101 -0.034478 -572214.000000 0 0 1
12.259726 -27.565970 18.575424 35.429225 -1.152324 1.018907 0.123491 -0.042937 -611861.000000 0 0 1
11.911826 -28.640170 17.722524 35.724485 -1.176647 1.051708 0.129384 -0.050573 -113703.000000 0 0 1
11.334426 -28.064870 16.546124 34.494643 -1.186962 1.070515 0.132103 -0.045026 89630.600000 0 0 1
10.944426 -29.207670 15.538324 34.846922 -1.212279 1.108614 0.130695 -0.042067 -223958.000000 0 0 1
9.669326 -29.752670 15.736124 35.019178 -1.256573 1.104751 0.131982 -0.040871 -346805.000000 0 0 1
9.556226 -30.708770 14.698324 35.360865 -1.269106 1.142121 0.117047 -0.031565 156168.000000 0 0 1
8.254826 -31.536470 14.639124 35.735068 -1.314785 1.148718 0.116746 -0.030186 -105028.000000 0 0 1
8.289726 -32.577770 15.586924 37.053784 -1.321625 1.136627 0.137134 -0.037947 263201.000000 0 0 1
7.320626 -33.575670 15.263124 37.601598 -1.356122 1.152814 0.104547 -0.032983 342117.000000 0 0 1
7.327026 32.987467 16.284924 37.510759 1.352229 1.121713 0.119002 -0.039386 -461339.000000 0 0 1
8.473526 32.214967 16.190124 37.036804 1.313592 1.118384 0.132360 -0.040620 -736560.000000 0 0 1
8.408926 31.166967 17.131224 36.545434 1.307269 1.082904 0.123826 -0.047208 -334567.000000 0 0 1
9.721926 30.466867 17.492324 36.451711 1.261912 1.070282 0.134067 -0.045186 -361081.000000 0 0 1
10.256726 29.758367 16.390824 35.488307 1.238880 1.090699 0.135525 -0.042709 359657.000000 0 0 1
11.604926 29.321167 16.637224 35.653925 1.193927 1.085319 0.131528 -0.046934 986768.000000 0 0 1
12.318126 28.516567 15.532624 34.730293 1.163042 1.107124 0.129169 -0.040366 111306.000000 0 0 1
11.808726 27.191967 15.354824 33.385921 1.161098 1.092892 0.149267 -0.046944 77740.700000 0 0 1
12.538826 26.501067 14.360024 32.645658 1.128863 1.115336 0.145848 -0.035355 185670.000000 0 0 1
-9.392573 -9.060433 19.019085 23.065938 0.767401 0.601385 0.056583 -0.025001 68866.900000 0 1 0
-9.560273 -9.128833 17.638985 22.042418 0.762317 0.643119 0.053207 -0.029376 44857.700000 0 1 0
-9.259073 -10.452333 17.208285 22.160929 0.845861 0.681681 0.057849 -0.035907 -159328.000000 0 1 0
-9.595473 -10.743833 15.713885 21.317346 0.841798 0.741967 0.060866 -0.031156 507972.000000 0 1 0
-11.010773 -10.584933 15.604685 21.835387 0.765682 0.774671 0.059128 -0.028320 857108.000000 0 1 0
-11.742473 -11.003233 14.452885 21.629672 0.752909 0.839013 0.079718 -0.031490 294060.000000 0 1 0
-11.932473 -12.539433 14.350485 22.484611 0.810195 0.878592 0.063377 -0.027518 -622153.000000 0 1 0
-10.789773 -13.250533 13.938985 22.052010 0.887403 0.886541 0.089955 -0.026064 -36875.000000 0 1 0
-10.905573 -14.640833 14.023985 23.020810 0.930584 0.915761 0.101444 -0.025255 10674.700000 0 1 0
-10.557673 -15.269633 15.352685 24.090062 0.965854 0.879802 0.108427 -0.027593 -379938.000000 0 1 0
-11.547573 -15.080133 16.296585 25.026697 0.917293 0.861674 0.089182 -0.020148 -557755.000000 0 0 1
-11.020473 -15.166533 17.572585 25.695725 0.942420 0.817740 0.121902 -0.024857 -128058.000000 0 0 1
-12.105673 -14.809833 18.609585 26.686984 0.885531 0.799133 0.073085 -0.016845 83906.000000 0 0 1
-12.538173 -13.438833 18.561885 26.121861 0.820056 0.780463 0.073315 -0.019381 523010.000000 0 0 1
-13.609773 -13.084533 17.686385 25.869657 0.765725 0.818013 0.087270 -0.028361 414636.000000 0 0 1
-15.058073 -13.192133 18.230985 27.076683 0.719443 0.832121 0.050244 -0.019926 68147.100000 0 0 1
-15.409073 -14.559233 18.453785 28.106102 0.757048 0.854526 0.060308 -0.017754 -612903.000000 0 0 1
-16.431073 -14.495833 19.387585 29.257269 0.722905 0.846433 0.069830 -0.019817 -636599.000000 0 0 1
-16.966973 -15.873933 19.811185 30.534292 0.752128 0.864767 0.088486 -0.024824 361323.000000 0 0 1
-18.044273 -16.355433 18.985585 30.879579 0.736343 0.908630 0.085961 -0.019799 473556.000000 0 0 1
-18.396473 -17.653233 19.401885 32.039039 0.764784 0.920314 0.084628 -0.020891 -129312.000000 0 0 1
-19.664573 -18.210933 18.719685 32.691897 0.747038 0.961111 0.091604 -0.021080 -29643.900000 0 0 1
-19.564473 -18.372833 17.351685 31.959515 0.753998 0.996878 0.100740 -0.024788 168912.000000 0 0 1
-20.010873 -17.206233 16.658585 31.208940 0.710181 1.007737 0.101934 -0.029716 -424212.000000 0 0 1
-19.727673 -17.293133 15.134185 30.286583 0.719731 1.047545 0.101176 -0.034169 54893.500000 0 0 1
-20.315973 -18.410833 14.463285 30.998131 0.736243 1.085370 0.107909 -0.031584 263811.000000 0 0 1
-19.907873 -18.349533 13.124785 30.088017 0.744688 1.119410 0.098450 -0.034363 74404.300000 0 0 1
-20.053973 -19.674433 12.395285 30.706485 0.775845 1.155272 0.104028 -0.029687 71754.400000 0 0 1
-19.196473 -20.656333 12.961085 31.035116 0.822013 1.139965 0.109792 -0.032203 240984.000000 0 0 1
-19.220473 -21.817533 12.156785 31.515373 0.848598 1.174785 0.091367 -0.031177 -293184.000000 0 0 1
-18.262573 -22.892733 12.758885 31.943512 0.897432 1.159912 0.086726 -0.027259 163138.000000 0 0 1
-18.038473 -24.029133 11.907085 32.319722 0.926853 1.193492 0.096763 -0.040735 389186.000000 0 0 1
-17.251373 -23.787933 10.732185 31.283469 0.943347 1.220621 0.073691 -0.033430 -300401.000000 0 0 1
-17.350773 -25.006033 9.820385 31.981103 0.964201 1.258685 0.075048 -0.036161 201535.000000 0 0 1
-18.618073 -25.094543 9.180485 32.567623 0.932488 1.285033 0.063327 -0.032735 15392.900000 0 0 1
-18.755373 -26.123653 8.285085 33.209214 0.948127 1.318652 0.080909 -0.032283 280596.000000 0 0 1
-19.988073 -26.093513 7.339085 33.678727 0.917123 1.351119 0.067778 -0.030765 318793.000000 0 0 1
-19.985973 -24.975733 6.474885 32.636643 0.895924 1.371078 0.074366 -0.032331 80063.400000 0 0 1
-21.082073 -24.981883 5.583485 33.162081 0.869858 1.401621 0.097255 -0.027529 -15401.900000 0 0 1
-21.053873 -23.822033 4.565485 32.118507 0.847005 1.428168 0.101098 -0.027074 43096.200000 0 0 1
-22.143573 -23.834633 3.661985 32.738932 0.822161 1.458708 0.107721 -0.033114 287882.000000 0 0 1
-22.041673 -22.653833 2.907985 31.740950 0.799094 1.479051 0.114987 -0.027253 284125.000000 0 0 1
-22.719073 -22.754733 1.490285 32.189363 0.786182 1.524482 0.110775 -0.023063 269943.000000 0 0 1
-22.000273 -23.550233 0.545285 32.232326 0.819412 1.553878 0.085082 -0.035903 219089.000000 0 0 1
-22.449573 -23.322033 -0.783815 32.380780 0.804457 1.595005 0.110935 -0.034363 -224908.000000 0 0 1
-21.772173 -24.253733 -1.832215 32.643960 0.839263 1.626953 0.114843 -0.035940 370286.000000 0 0 1
-20.375273 -23.936733 -1.847415 31.488599 0.865598 1.629499 0.109232 -0.033751 349612.000000 0 0 1
-19.563173 -24.537233 -2.815215 31.507443 0.897713 1.660266 0.086797 -0.018944 204423.000000 0 0 1
-19.315973 -26.068553 -2.735215 32.560063 0.933101 1.654901 0.101081 -0.025426 -668127.000000 0 0 1
-20.453573 -26.809273 -3.079615 33.861037 0.919072 1.661871 0.156833 -0.035615 -206466.000000 0 0 1
-20.030973 -28.056383 -3.556715 34.656179 0.950766 1.673606 0.161240 -0.026296 -857888.000000 0 0 1
-21.169973 -28.846043 -4.097015 36.014545 0.937682 1.684803 0.173039 -0.033874 -1017460.000000 0 0 1
-21.757873 -28.306083 -5.233615 36.083654 0.915457 1.716351 0.172992 -0.031997 -546147.000000 0 0 1
-22.564073 -29.212243 -5.876115 37.376748 0.913101 1.728664 0.186112 -0.056146 -535724.000000 0 0 1
-23.130473 -28.653733 -7.168515 37.515901 0.891656 1.763058 0.172503 -0.017790 -254413.000000 0 0 1
-22.163573 -28.574793 -8.168515 37.073810 0.911090 1.792950 0.185006 -0.016161 186798.000000 0 0 1
-22.748273 -28.495793 -9.487315 37.676296 0.897091 1.825348 0.184323 -0.014662 288401.000000 0 0 1
-23.450873 -27.137593 -9.893715 37.205887 0.858146 1.839952 0.150811 -0.007905 412822.000000 0 0 1
-22.650173 -25.987493 -10.233315 35.959712 0.853907 1.859362 0.140685 -0.010317 110343.000000 0 0 1
-22.368173 -25.164463 -9.122615 34.882767 0.844159 1.835395 0.138027 -0.015419 60970.000000 0 0 1
-22.011973 -23.726733 -9.399515 33.702162 0.822871 1.853444 0.092565 -0.015514 -185869.000000 0 0 1
-23.107773 -23.055633 -9.953915 34.126409 0.784269 1.866777 0.124788 -0.019725 -93440.700000 0 0 1
-22.850173 -21.672133 -10.214315 33.108065 0.758945 1.884427 0.102043 -0.015017 341422.000000 0 0 1
-24.151773 -20.810333 -10.145715 33.456145 0.711218 1.878902 0.120620 -0.013685 -168436.000000 0 0 1
-24.849573 -20.944333 -11.384515 34.435063 0.700325 1.907744 0.112558 -0.011606 1453500.000000 0 0 1
-26.204683 -20.407133 -11.299715 35.083045 0.661654 1.898727 0.126578 -0.009771 1446670.000000 0 0 1
-26.193283 -18.845933 -11.394215 34.221125 0.623690 1.910236 0.142612 -0.027886 -1222130.000000 0 0 1
-25.893823 -18.330833 -12.678815 34.165214 0.616024 1.950993 0.146873 -0.026372 425737.000000 0 0 1
-25.485303 -16.964733 -12.747715 33.163339 0.587310 1.965345 0.144967 -0.034611 -449268.000000 0 0 1
-24.171773 -16.573433 -12.087515 31.702702 0.601032 1.961974 0.130553 -0.031458 -1137480.000000 0 0 1
-24.299073 -16.635533 -10.690815 31.328572 0.600326 1.919041 0.167814 -0.032762 -57683.000000 0 0 1
-23.111473 -16.326433 -10.031415 30.022023 0.615022 1.911484 0.149028 -0.033407 -328409.000000 0 0 1
-23.385773 -16.591233 -8.539615 29.918028 0.617046 1.860255 0.129120 -0.046323 214983.000000 0 0 1
-23.832473 -17.947433 -8.309215 30.969988 0.645461 1.842423 0.160140 -0.035494 353812.000000 0 0 1
-24.479673 -18.071533 -7.060615 31.235989 0.635923 1.798808 0.160570 -0.025963 220201.000000 0 0 1
-25.368693 -19.342233 -6.863115 32.631195 0.651418 1.782702 0.176303 -0.026358 743737.000000 0 0 1
-26.588433 -19.453933 -7.607315 33.812298 0.631666 1.797726 0.150121 -0.034325 655770.000000 0 0 1
-27.261703 -20.711533 -7.330715 35.012961 0.649699 1.781728 0.147559 -0.018302 397220.000000 0 0 1
-26.594253 -22.061433 -7.841415 35.432314 0.692505 1.793951 0.129070 -0.016791 -89966.400000 0 0 1
-27.349073 -23.193333 -7.512515 36.637964 0.703360 1.777308 0.132984 -0.010315 -220247.000000 0 0 1
-27.010383 -24.187133 -8.513615 37.243252 0.730310 1.801430 0.125473 -0.000817 241994.000000 0 0 1
-27.825023 -25.473783 -8.394115 38.647208 0.741312 1.789740 0.123758 -0.012275 38361.300000 0 0 1
-27.548113 -26.246963 -7.281415 38.740426 0.761216 1.759875 0.161353 -0.032102 326030.000000 0 0 1
-28.454183 -27.362483 -7.293715 40.144044 0.765842 1.753500 0.139036 -0.036302 389059.000000 0 0 1
-28.289953 -28.275003 -6.041915 40.451230 0.785134 1.720720 0.136989 -0.036888 50450.800000 0 0 1
-28.716593 -27.740463 -4.785615 40.212910 0.768110 1.690086 0.113127 -0.033585 233680.000000 0 0 1
-27.833203 -27.986313 -3.671515 39.640900 0.788141 1.663549 0.132127 -0.044427 151131.000000 0 0 1
-27.999393 -29.303073 -2.928515 40.635112 0.808145 1.642927 0.107708 -0.024418 -527878.000000 0 0 1
-27.363603 -30.416253 -3.489115 41.062016 0.838182 1.655871 0.118756 -0.039570 -124611.000000 0 0 1
-27.430833 -31.560483 -2.631615 41.897972 0.855289 1.633648 0.103132 -0.043616 199829.000000 0 0 1
-26.363373 -31.484953 -1.506715 41.092577 0.873703 1.607471 0.111685 -0.041468 895658.000000 0 0 1
-25.046953 -31.943103 -1.933615 40.638043 0.905819 1.618396 0.127812 -0.050356 1662610.000000 0 0 1
-24.039473 -31.968433 -0.896915 40.008517 0.926032 1.593216 0.130625 -0.033704 769420.000000 0 0 1
-22.966173 -30.886523 -0.909315 38.499990 0.931426 1.594417 0.148228 -0.033154 -54682.000000 0 0 1
-23.521073 -29.582983 -0.706815 37.800706 0.899058 1.589496 0.122675 -0.026926 -58037.500000 0 0 1
-24.007873 -28.953293 -1.844415 37.657310 0.878506 1.619795 0.160294 -0.032747 -483547.000000 0 0 1
-24.412673 -27.495093 -1.518715 36.800343 0.844711 1.612077 0.095000 -0.020485 770650.000000 0 0 1
-25.672663 -27.457173 -0.824815 37.598701 0.818973 1.592735 0.118047 -0.023414 472002.000000 0 0 1
-26.189283 -26.185153 -0.515215 37.037903 0.785319 1.584707 0.144554 -0.038540 468803.000000 0 0 1
-25.479173 -25.404903 0.694985 35.987225 0.783939 1.551483 0.144071 -0.028919 301045.000000 0 0 1
-25.390023 -26.241083 1.849385 36.560470 0.801880 1.520190 0.139001 -0.029747 -342713.000000 0 0 1
-25.047583 -25.607883 3.077085 35.952935 0.796459 1.485105 0.150857 -0.020705 138904.000000 0 0 1
-26.002763 -24.565033 3.783685 35.970833 0.756974 1.465414 0.173233 -0.032493 140610.000000 0 0 1
-26.227343 -23.428333 2.935185 35.289880 0.729089 1.487527 0.160708 -0.031670 -101826.000000 0 0 1
-26.908063 -22.470033 3.693185 35.250331 0.695760 1.465833 0.180281 -0.026121 -43567.500000 0 0 1
-27.299283 -21.265433 2.816885 34.718933 0.661788 1.489573 0.172628 -0.017515 -64610.100000 0 0 1
-26.209543 -20.409533 2.657585 33.324945 0.661621 1.490964 0.149349 -0.017464 -275493.000000 0 0 1
-26.389243 -19.472833 1.598985 32.835044 0.635717 1.522080 0.123162 -0.011378 -243615.000000 0 0 1
-25.194253 -18.548433 1.449285 31.319246 0.634621 1.524505 0.126532 -0.006088 -1026680.000000 0 0 1
-23.980073 -19.167133 1.324285 30.727457 0.674310 1.527685 0.131545 -0.010276 -251936.000000 0 0 1
-22.859173 -18.270433 1.326385 29.293511 0.674290 1.525502 0.115562 -0.010395 970889.000000 0 0 1
-21.452573 -18.858233 1.636885 28.609880 0.721128 1.513551 0.090334 -0.020144 376158.000000 0 0 1
-21.062373 -19.590733 0.471885 28.768786 0.749214 1.554393 0.051004 -0.005750 -79291.100000 0 0 1
-19.809273 -20.182733 0.735085 28.289404 0.794736 1.544809 0.088328 -0.012705 -96681.500000 0 0 1
-19.082673 -20.692433 -0.538215 28.153417 0.825848 1.589915 0.084695 -0.010806 -33676.400000 0 0 1
-18.725473 -19.699633 -1.482815 27.219802 0.810745 1.625299 0.103003 -0.019902 65044.900000 0 0 1
-18.457673 -20.344033 -2.716615 27.603358 0.833975 1.669372 0.085869 -0.013741 -84245.100000 0 0 1
-17.890973 -19.423633 -3.791115 26.678399 0.826449 1.713383 0.104516 -0.008348 -862713.000000 0 0 1
-16.541273 -19.215133 -3.594115 25.607669 0.860039 1.711614 0.135846 -0.021835 -968312.000000 0 0 1
-16.009773 -18.475433 -4.659315 24.887018 0.856776 1.759126 0.141608 -0.017598 489933.000000 0 1 0
-14.492873 -18.075733 -4.666015 23.633603 0.894967 1.769533 0.144885 -0.029286 433919.000000 0 1 0
-13.698273 -19.210933 -4.812815 24.080403 0.951368 1.772016 0.113108 -0.028489 18012.900000 0 1 0
-12.392773 -18.868233 -5.265215 23.180024 0.989651 1.799941 0.107355 -0.040356 752502.000000 0 1 0
-11.329173 -20.009433 -5.426215 23.625651 1.055607 1.802540 0.101343 -0.047442 657312.000000 0 1 0
-11.633173 -21.011733 -6.377215 24.849397 1.065154 1.830335 0.082815 -0.038530 950511.000000 0 1 0
-10.341873 -21.654033 -6.642715 24.899340 1.125232 1.840850 0.091277 -0.039510 1608550.000000 0 1 0
-10.483573 -22.869433 -7.544615 26.264757 1.140971 1.862153 0.073495 -0.011346 -174846.000000 0 0 1
-10.826873 -22.679933 -8.853715 26.645615 1.125411 1.909513 0.077789 -0.016748 -115675.000000 0 0 1
-10.596073 -23.849433 -9.596515 27.805850 1.152701 1.923169 0.097215 -0.012934 144593.000000 0 0 1
-11.292673 -23.720733 -10.978915 28.473395 1.126477 1.966638 0.139591 -0.020957 562438.000000 0 0 1
-10.604073 -22.775433 -11.824415 27.766590 1.135052 2.010698 0.119058 -0.015493 502229.000000 0 0 1
-11.552773 -22.355133 -12.793815 28.229421 1.093812 2.041158 0.127756 -0.029973 -284306.000000 0 0 1
-11.242673 -21.201633 -13.782115 27.674061 1.083224 2.092105 0.100908 -0.008274 -293205.000000 0 0 1
-11.045473 -19.979033 -13.109315 26.325242 1.065765 2.092059 0.094480 -0.017897 -44342.600000 0 0 1
-11.106073 -18.860333 -13.972515 25.967060 1.038609 2.138961 0.083956 -0.005205 -209423.000000 0 0 1
-10.829773 -17.585133 -13.200315 24.510594 1.018805 2.139518 0.102239 0.001138 337501.000000 0 1 0
-11.735373 -17.259933 -12.120415 24.135632 0.973674 2.096913 0.114297 -0.013433 281472.000000 0 1 0
-11.415473 -15.997133 -11.476215 22.757961 0.951004 2.099336 0.111695 -0.022329 6207.780000 0 1 0
-11.144173 -14.691533 -12.305615 22.168940 0.921849 2.159260 0.108627 -0.010905 -239329.000000 0 1 0
-12.257973 -14.044933 -12.852215 22.642824 0.853232 2.174392 0.100362 -0.003906 -266086.000000 0 1 0
-12.100873 -13.903433 -14.241815 23.293043 0.854605 2.228649 0.106518 -0.008569 403613.000000 0 1 0
-13.265873 -13.021333 -14.822415 23.774829 0.776096 2.243944 0.098097 -0.005734 367336.000000 0 1 0
-13.191573 -11.669333 -14.349615 22.717887 0.724244 2.254468 0.071361 -0.007789 -249465.000000 0 1 0
-14.261773 -10.885133 -14.785715 23.248691 0.651920 2.260075 0.069928 -0.022762 -453085.000000 0 1 0
-14.377173 -9.483633 -14.081615 22.247118 0.583116 2.256172 0.064862 -0.030569 -656964.000000 0 1 0
-13.340673 -8.618333 -14.340415 21.398521 0.573572 2.305220 0.056550 -0.024150 -517997.000000 0 1 0
-13.321073 -8.041633 -15.606515 22.038198 0.543119 2.357682 0.057955 -0.022269 -989535.000000 0 1 0
-12.165873 -7.077833 -15.767215 21.135497 0.526913 2.412841 0.046036 -0.011385 -747755.000000 0 1 0
-10.998173 -7.861033 -15.714015 20.728867 0.620562 2.431151 0.048249 -0.012622 -197838.000000 0 1 0
-9.855473 -7.053433 -15.472215 19.653771 0.621177 2.477115 0.032727 -0.003758 296695.000000 0 1 0
11.923227 22.087267 15.739285 29.626606 1.075800 1.010715 0.139423 -0.029295 -319603.000000 0 0 1
12.567827 22.007167 16.965185 30.497265 1.051914 0.980887 0.146237 -0.042455 -271931.000000 0 0 1
13.139427 20.744667 17.110085 29.928929 1.006188 0.962231 0.123429 -0.038099 -441289.000000 0 0 1
14.245927 20.593667 18.152585 30.928335 0.965620 0.943542 0.119926 -0.043462 502641.000000 0 0 1
15.521427 21.012767 17.624685 31.513181 0.934588 0.977280 0.107833 -0.039548 242606.000000 0 0 1
16.529127 20.614267 18.519685 32.266682 0.894941 0.959467 0.117845 -0.042707 1615410.000000 0 0 1
18.025127 20.996367 18.075585 33.052676 0.861395 0.992173 0.089047 -0.032278 1266320.000000 0 0 1
18.319727 22.384267 18.159085 34.152894 0.884924 1.010190 0.095916 -0.037567 366645.000000 0 0 1
19.526627 22.834867 17.541585 34.791199 0.863335 1.042346 0.088893 -0.027946 1654890.000000 0 0 1
20.941227 22.480567 18.157885 35.687808 0.820834 1.037008 0.076251 -0.033389 732112.000000 0 0 1
21.286627 21.128567 17.993885 34.975945 0.781672 1.030413 0.088590 -0.028673 499147.000000 0 0 1
22.618427 20.884367 18.463285 35.897673 0.745558 1.030569 0.107743 -0.032604 568674.000000 0 0 1
22.783627 19.380867 18.131985 34.978287 0.704871 1.025843 0.103044 -0.035375 -139967.000000 0 0 1
22.965927 19.046767 16.756985 34.220019 0.692382 1.059069 0.067672 -0.028257 -44807.600000 0 0 1
22.760727 17.682767 16.521585 33.221886 0.660495 1.050301 0.062998 -0.021094 209241.000000 0 0 1
23.869127 16.711667 17.039585 33.754444 0.610818 1.041634 0.058840 -0.025128 -284771.000000 0 0 1
25.094327 16.673067 16.399585 34.302519 0.586443 1.072321 0.072483 -0.035288 -442105.000000 0 0 1
25.894927 15.567567 16.805485 34.573410 0.541288 1.063196 0.055112 -0.016018 -858809.000000 0 0 1
27.148027 15.497567 15.945885 35.092181 0.518713 1.099098 0.176846 -0.044000 -862736.000000 0 0 1
27.973127 16.648467 16.203785 36.362480 0.536853 1.108932 0.147775 -0.034762 1051440.000000 0 0 1
29.142827 16.364767 16.990885 37.494001 0.511657 1.100486 0.165879 -0.042538 317114.000000 0 0 1
30.342827 15.528267 16.541185 37.887003 0.473012 1.118989 0.164294 -0.050148 -512854.000000 0 0 1
31.131227 16.200467 15.563485 38.390500 0.479828 1.153381 0.214053 -0.048396 18841.200000 0 0 1
31.781827 15.180367 14.776585 38.195229 0.445603 1.173562 0.221532 -0.054932 137892.000000 0 0 1
31.070827 14.671167 13.489585 36.913525 0.441149 1.196694 0.186106 -0.049842 -137228.000000 0 0 1
31.242827 15.515867 12.407185 37.024243 0.460941 1.229075 0.186577 -0.037718 33212.300000 0 0 1
30.318427 15.220667 11.385785 35.784240 0.465268 1.246989 0.169676 -0.034583 137446.000000 0 0 1
29.049327 16.090867 11.270385 35.068518 0.505844 1.243608 0.146275 -0.037526 -328086.000000 0 0 1
29.192027 17.508167 11.064585 35.792952 0.540242 1.256521 0.127054 -0.022680 -122706.000000 0 0 1
29.842327 18.231567 12.148485 37.020808 0.548417 1.236449 0.155238 -0.036724 225415.000000 0 0 1
29.106327 18.358967 13.540485 36.980734 0.562727 1.195928 0.147023 -0.039488 807804.000000 0 0 1
27.967427 19.248667 13.470885 36.526058 0.602799 1.193076 0.144824 -0.035057 725158.000000 0 0 1
27.003027 19.099267 14.480785 36.105936 0.615609 1.158118 0.108298 -0.032848 -420060.000000 0 0 1
27.440927 19.656867 15.911485 37.317184 0.621604 1.130304 0.113699 -0.030074 -167240.000000 0 0 1
27.362827 21.049367 16.056285 38.073671 0.655719 1.135459 0.094820 -0.021690 68947.400000 0 0 1
26.062927 21.563967 16.264385 37.534132 0.691215 1.122620 0.083662 -0.019948 -70833.900000 0 0 1
25.964827 23.106567 15.984985 38.257096 0.727217 1.139740 0.082845 -0.012052 -84290.500000 0 0 1
26.018027 23.371267 14.630985 37.910679 0.731860 1.174577 0.105024 -0.026463 -76918.000000 0 0 1
26.013727 24.804567 14.508585 38.761831 0.761609 1.187154 0.106101 -0.027640 -271992.000000 0 0 1
25.678427 25.335367 13.126185 38.386966 0.778673 1.221812 0.095309 -0.028664 -441494.000000 0 0 1
24.320027 25.223367 12.815485 37.308425 0.803629 1.220154 0.106738 -0.029536 -458126.000000 0 0 1
24.160427 25.482067 11.449385 36.934407 0.812015 1.255611 0.108355 -0.042439 46993.900000 0 0 1
23.624127 24.190567 10.763485 35.484300 0.797244 1.262610 0.124161 -0.043234 -68760.900000 0 0 1
22.267027 23.912267 11.125885 34.516696 0.821010 1.242603 0.120740 -0.037072 431716.000000 0 0 1
21.793527 22.692767 10.571485 33.191502 0.805609 1.246650 0.120240 -0.030470 131373.000000 0 0 1
21.716827 22.597567 8.978285 32.601844 0.805270 1.291799 0.138691 -0.030708 -1078310.000000 0 0 1
20.467727 23.089167 8.631385 32.039636 0.845510 1.298029 0.152927 -0.030140 -619845.000000 0 0 1
20.392227 23.200967 7.176285 31.711620 0.849740 1.342521 0.142072 -0.038000 -457672.000000 0 0 1
19.059127 23.544267 6.528985 30.987263 0.890288 1.358506 0.127112 -0.034281 -431255.000000 0 0 1
18.251127 22.407367 6.139585 29.544682 0.887267 1.361464 0.136737 -0.026458 925211.000000 0 0 1
17.577227 22.638067 4.871685 29.071882 0.910584 1.402428 0.143678 -0.032115 1117290.000000 0 0 1
16.156227 23.332167 4.891285 28.798235 0.965159 1.400122 0.089763 -0.021264 670290.000000 0 0 1
16.195327 24.757867 5.123785 30.024886 0.991510 1.399306 0.104012 -0.026236 628331.000000 0 0 1
14.912227 25.191067 5.583385 29.801654 1.036306 1.382331 0.094790 -0.030620 420583.000000 0 0 1
14.755527 26.733567 5.321385 30.995585 1.066459 1.398260 0.073392 -0.033814 -173835.000000 0 0 1
14.495127 26.992867 3.943285 30.891311 1.077990 1.442797 0.055826 -0.024262 355143.000000 0 0 1
14.365127 28.393967 3.601885 32.024175 1.102423 1.458084 0.042292 -0.025403 -76855.200000 0 0 1
13.778327 28.429867 2.136485 31.664873 1.119510 1.503273 0.056288 -0.021127 -305701.000000 0 0 1
14.668427 28.077567 1.131785 31.698477 1.089370 1.535084 0.083843 -0.026219 -202505.000000 0 0 1
14.312127 26.812867 0.517485 30.397938 1.080493 1.553772 0.056422 -0.017552 -141524.000000 0 0 1
15.301327 26.378367 -0.548015 30.499986 1.045159 1.588765 0.065820 -0.021566 -29063.200000 0 0 1
15.172927 27.188267 -1.678615 31.180720 1.061779 1.624657 0.062403 -0.008526 -361996.000000 0 0 1
16.256627 26.878967 -2.510415 31.512838 1.026849 1.650544 0.073848 -0.006987 -44247.800000 0 0 1
16.144327 27.390867 -3.947615 32.038766 1.038203 1.694324 0.099956 -0.017914 -212843.000000 0 0 1
15.165327 26.718467 -4.692715 31.078694 1.054543 1.722371 0.126034 -0.023448 -638063.000000 0 0 1
15.180427 27.159167 -6.039815 31.694559 1.061113 1.762532 0.135800 -0.025828 264553.000000 0 0 1
13.934427 26.747867 -6.862015 30.930630 1.090526 1.794509 0.147113 -0.037265 347661.000000 0 0 1
13.836027 25.400767 -7.152315 29.795809 1.072024 1.813208 0.129298 -0.028012 -638880.000000 0 0 1
12.623627 25.162567 -7.794815 29.210784 1.105803 1.840916 0.110703 -0.030034 -327749.000000 0 0 1
12.447227 23.686167 -8.237715 27.996927 1.086953 1.869453 0.116173 -0.026468 -174530.000000 0 0 1
12.999227 23.277567 -9.429715 28.279755 1.061493 1.910751 0.118390 -0.030946 -100120.000000 0 0 1
12.658727 21.952267 -9.606915 27.100520 1.047725 1.933167 0.127641 -0.024404 27887.000000 0 0 1
13.095827 21.411967 -10.969515 27.391664 1.021882 1.982825 0.140645 -0.036077 -54835.600000 0 0 1
12.540827 20.126067 -11.167015 26.211317 1.013555 2.010905 0.158246 -0.038978 -20448.800000 0 0 1
12.640027 19.844867 -12.554415 26.668378 1.003656 2.060949 0.145733 -0.041175 -45862.000000 0 0 1
13.923227 19.296467 -13.197115 27.209809 0.945758 2.077175 0.149880 -0.033029 788049.000000 0 0 1
15.130327 20.073467 -13.022115 28.309828 0.924901 2.048775 0.124399 -0.030224 573312.000000 0 0 1
16.221427 19.510667 -13.712615 28.841578 0.877192 2.066267 0.110512 -0.023782 207042.000000 0 0 1
17.550027 20.257067 -13.423715 29.975796 0.856878 2.035120 0.111220 -0.011012 -85078.500000 0 0 1
17.798827 21.550367 -14.119815 31.314306 0.880451 2.038577 0.109234 -0.021972 -88031.900000 0 0 1
16.836127 22.577267 -14.054015 31.475443 0.930046 2.033654 0.109191 -0.025697 -103029.000000 0 0 1
17.447627 23.932167 -14.533215 32.990645 0.940842 2.026980 0.100321 -0.023812 158513.000000 0 0 1
17.612227 24.124567 -15.947115 33.859943 0.940184 2.061190 0.082923 -0.019723 458802.000000 0 0 1
16.345727 24.412667 -16.560615 33.725585 0.980794 2.084080 0.085648 -0.018009 860738.000000 0 0 1
16.312627 24.379067 -18.106515 34.471533 0.981094 2.123817 0.070793 -0.004713 210312.000000 0 0 1
16.520827 23.054367 -18.586315 33.910067 0.949014 2.150895 0.075648 0.001652 -350448.000000 0 0 1
16.672427 23.079267 -19.975015 34.779644 0.945195 2.182583 0.062169 0.006890 -43289.100000 0 0 1
16.986327 21.724367 -20.637215 34.443839 0.907189 2.213242 0.076638 0.004016 120996.000000 0 0 1
15.911227 20.794667 -20.654115 33.349329 0.917664 2.238681 0.078118 -0.001804 149820.000000 0 0 1
16.184527 19.826667 -21.628215 33.508436 0.886195 2.272416 0.093362 0.002227 -249806.000000 0 0 1
15.048227 18.825467 -21.739715 32.457088 0.896449 2.304734 0.089483 -0.003818 -1095580.000000 0 0 1
14.927627 17.952067 -20.635015 31.159502 0.877125 2.294598 0.081733 -0.005286 491438.000000 0 0 1
13.904827 16.963167 -20.829815 30.248544 0.884154 2.330383 0.073162 -0.009001 102367.000000 0 0 1
12.460027 17.414767 -20.660415 29.755321 0.949752 2.338304 0.083196 -0.019806 -866923.000000 0 0 1
11.953227 17.296667 -19.333015 28.562559 0.966088 2.314293 0.087432 -0.028622 58358.400000 0 0 1
10.570627 17.560067 -19.212415 28.092899 1.028930 2.323876 0.089888 -0.035693 -112608.000000 0 0 1
9.928427 16.931967 -17.957915 26.603606 1.040458 2.311786 0.106522 -0.037071 -1269050.000000 0 0 1
9.673127 15.563267 -18.161815 25.799926 1.014692 2.351738 0.125234 -0.058320 -262227.000000 0 0 1
8.314827 15.269367 -18.328515 25.263103 1.072152 2.382565 0.139347 -0.044543 124700.000000 0 0 1
7.348427 15.440667 -17.100615 24.183561 1.126603 2.356209 0.135261 -0.045669 -249352.000000 0 1 0
7.228627 16.754467 -16.611615 24.676121 1.163480 2.309305 0.144802 -0.046943 -638955.000000 0 1 0
6.559327 16.866267 -15.397515 23.760875 1.199894 2.275778 0.126002 -0.052428 -543909.000000 0 1 0
6.237727 18.260467 -14.930015 24.397935 1.241627 2.229305 0.104903 -0.051263 -534641.000000 0 1 0
7.276727 19.199367 -14.691815 25.247096 1.208516 2.191885 0.110795 -0.046925 -205879.000000 0 0 1
7.590227 19.883467 -15.929415 26.584019 1.206134 2.213311 0.106797 -0.036700 -728271.000000 0 0 1
8.920827 20.635667 -15.941115 27.559591 1.162758 2.187591 0.097578 -0.028210 -363407.000000 0 0 1
9.024227 21.805467 -15.080815 28.006179 1.178406 2.139431 0.092982 -0.034497 48270.300000 0 0 1
8.931427 21.574867 -13.698015 27.071773 1.178302 2.101324 0.102280 -0.033321 -351950.000000 0 0 1
8.403227 22.784967 -12.868515 27.483952 1.217467 2.058071 0.094964 -0.039135 899510.000000 0 0 1
7.042927 23.181767 -13.197815 27.589481 1.275845 2.069587 0.069772 -0.033253 1127280.000000 0 0 1
6.392827 23.996367 -12.221615 27.677820 1.310435 2.028141 0.063263 -0.036052 207431.000000 0 0 1
6.012727 23.343367 -10.844715 26.432433 1.318699 1.993558 0.051634 -0.037376 -510690.000000 0 0 1
7.106527 23.338667 -9.973915 26.356689 1.275220 1.958886 0.050203 -0.028800 -160123.000000 0 0 1
6.725527 22.673467 -8.803415 25.235272 1.282438 1.927144 0.053292 -0.037656 140855.000000 0 0 1
7.831127 22.678467 -7.722715 25.204756 1.238305 1.882204 0.058730 -0.034880 95889.800000 0 0 1
7.874127 23.947367 -7.149015 26.202799 1.253123 1.847134 0.059676 -0.031051 416366.000000 0 0 1
8.952827 24.176267 -6.249915 26.527466 1.216140 1.808634 0.074183 -0.024729 64123.400000 0 0 1
8.999127 25.658967 -5.808515 27.804779 1.233480 1.781250 0.058294 -0.018325 -68808.000000 0 0 1
9.480427 26.496867 -6.814215 28.955068 1.227195 1.808362 0.077815 -0.029940 -55948.700000 0 0 1
9.180027 27.831967 -6.590515 30.038744 1.252195 1.791996 0.054173 -0.020651 -398539.000000 0 0 1
9.720627 28.789767 -7.600515 31.322661 1.245173 1.815895 0.055814 -0.008085 454004.000000 0 0 1
11.149927 28.826167 -7.640915 31.837908 1.201722 1.813156 0.085084 -0.019465 452823.000000 0 0 1
11.590527 29.929367 -8.437915 33.185927 1.201318 1.827881 0.073950 -0.021650 -61899.500000 0 0 1
13.069627 29.842467 -8.811415 33.749504 1.158005 1.834940 0.112805 -0.036567 -482658.000000 0 0 1
14.051627 29.983767 -7.851315 34.031128 1.132549 1.803603 0.110161 -0.027540 -811302.000000 0 0 1
15.183727 30.586267 -8.447315 35.177016 1.110014 1.813304 0.109280 -0.028900 74607.000000 0 0 1
16.321827 30.819367 -7.428415 35.656932 1.083753 1.780664 0.114203 -0.030925 16006.500000 0 0 1
17.101327 29.658267 -7.111715 34.966336 1.047751 1.775613 0.104790 -0.031086 8453.220000 0 0 1
18.246827 30.113867 -6.422615 35.791642 1.026030 1.751218 0.093270 -0.023621 401076.000000 0 0 1
19.413127 29.170667 -6.045115 35.557569 0.983601 1.741635 0.083782 -0.022578 -57928.300000 0 0 1
19.122327 28.177467 -5.021815 34.421674 0.974551 1.717210 0.087308 -0.027827 97991.200000 0 0 1
20.152027 27.272067 -4.592015 34.219241 0.934421 1.705396 0.069763 -0.025451 206440.000000 0 0 1
20.529127 26.158467 -5.603715 33.721092 0.905394 1.737749 0.070660 -0.012363 -191174.000000 0 0 1
21.190427 26.629667 -6.780615 34.700866 0.898655 1.767464 0.067822 -0.013237 372442.000000 0 0 1
20.866727 25.690067 -7.840415 34.012820 0.888631 1.803402 0.065746 -0.017109 -312538.000000 0 0 1
21.485327 26.091767 -9.223115 35.035203 0.881918 1.837189 0.065606 -0.021961 922437.000000 0 0 1
22.907027 26.092467 -9.380515 35.965856 0.850316 1.834665 0.042312 -0.018167 714147.000000 0 0 1
23.533927 24.794667 -9.322415 35.433440 0.811479 1.837027 0.040102 -0.012955 -868630.000000 0 0 1
25.042027 24.886467 -9.439015 36.544963 0.782283 1.832043 0.026368 -0.003914 -423702.000000 0 0 1
25.711027 25.404067 -10.609415 37.669394 0.779393 1.856305 0.031329 -0.009238 90949.900000 0 0 1
27.099727 25.211267 -10.440515 38.457867 0.749313 1.845726 0.030319 0.001647 -35489.100000 0 0 1
27.892927 25.492467 -11.723115 39.564032 0.740464 1.871620 0.030257 -0.002741 -159950.000000 0 0 1
27.786327 26.786167 -12.343815 40.520963 0.767073 1.880344 0.034143 -0.004947 171093.000000 0 0 1
28.464427 26.615667 -13.612615 41.278573 0.751846 1.906861 0.038508 -0.003501 481436.000000 0 0 1
28.190027 27.837667 -14.541715 42.202782 0.779109 1.922575 0.043936 -0.012641 113897.000000 0 0 1
28.707527 29.066867 -14.047515 43.201129 0.791618 1.901983 0.052439 -0.019595 187319.000000 0 0 1
28.397127 30.060367 -15.007815 43.991556 0.813843 1.918939 0.056314 -0.019331 -109118.000000 0 0 1
28.891527 31.477967 -14.589715 45.149114 0.828215 1.899847 0.061055 -0.027406 -256628.000000 0 0 1
30.270027 31.640567 -14.767215 46.211153 0.807532 1.896061 0.056631 -0.024752 -300552.000000 0 0 1
30.689527 32.983767 -14.925915 47.461130 0.821414 1.890713 0.053417 -0.031955 -111045.000000 0 0 1
16.587827 -31.635570 -27.632116 45.160814 -1.087866 2.229207 0.099047 -0.051079 -63761.800000 0 0 1
17.859227 -32.206670 -27.352496 45.873529 -1.064490 2.209629 0.076129 -0.037248 352891.000000 0 0 1
18.329827 -31.903970 -26.064176 45.090876 -1.049314 2.187117 0.073964 -0.038900 197278.000000 0 0 1
19.683127 -32.629570 -25.764956 45.999427 -1.028005 2.165321 0.010015 -0.029035 240176.000000 0 0 1
20.855927 -32.071470 -26.284376 46.415701 -0.994214 2.172784 0.032422 -0.021253 48055.700000 0 0 1
21.218727 -32.536470 -27.566846 47.631788 -0.992910 2.187990 0.047770 -0.020530 -152334.000000 0 0 1
22.705827 -32.235770 -27.883476 48.292729 -0.957145 2.186318 0.064961 -0.014639 198933.000000 0 0 1
23.009227 -30.857170 -28.141156 47.681381 -0.930073 2.202093 0.073853 -0.024602 452679.000000 0 0 1
24.356127 -30.540470 -27.810366 47.951618 -0.897580 2.189485 0.039796 -0.010443 374083.000000 0 0 1
24.895627 -29.266970 -28.614336 47.907494 -0.865931 2.210906 0.026951 -0.004455 83009.600000 0 0 1
24.983527 -29.608570 -30.018216 49.009564 -0.869916 2.230012 0.035573 -0.011949 26188.000000 0 0 1
25.363727 -28.497470 -30.808076 49.036333 -0.843514 2.250124 0.048798 -0.026365 -45600.500000 0 0 1
25.692727 -28.996470 -32.213426 50.384683 -0.845734 2.264448 0.060634 -0.004311 623476.000000 0 0 1
26.948227 -29.660870 -32.428626 51.551818 -0.833280 2.251126 0.068597 -0.020347 397554.000000 0 0 1
27.141427 -30.099270 -33.740456 52.735581 -0.837026 2.265040 0.068736 -0.021900 -54342.900000 0 0 1
28.344327 -31.044670 33.816295 53.951036 -0.830836 0.893362 0.063459 -0.037170 21219.600000 0 0 1
29.580327 -30.395270 -33.731316 54.191050 -0.798985 2.242668 0.067803 -0.041643 -341814.000000 0 0 1
30.707927 -31.204570 33.668855 55.229465 -0.793420 0.915218 0.073783 -0.032846 244076.000000 0 0 1
32.009227 -30.387070 33.630265 55.488372 -0.759406 0.919676 0.082294 -0.036338 -36312.000000 0 0 1
32.037127 -29.550170 32.488904 54.361006 -0.745039 0.930228 0.069271 -0.027827 -40367.100000 0 0 1
33.259427 -28.834770 32.373463 54.641327 -0.714261 0.936672 0.073889 -0.033285 223211.000000 0 0 1
33.227427 -27.878570 31.196615 53.427571 -0.698087 0.947266 0.062878 -0.027994 258999.000000 0 0 1
34.424427 -27.124970 30.935355 53.645143 -0.667354 0.956154 0.072487 -0.029414 701958.000000 0 0 1
34.184227 -26.106270 29.989215 52.435215 -0.652207 0.961941 0.056296 -0.026017 -80426.400000 0 0 1
34.915827 -26.332170 28.616355 52.262740 -0.646159 0.991365 0.073839 -0.016506 72741.200000 0 0 1
34.431627 -27.411870 27.846265 52.080342 -0.672374 1.006668 0.062337 -0.026152 1287110.000000 0 0 1
33.129327 -27.209470 27.241595 50.793819 -0.687601 1.004729 0.073013 -0.024955 871889.000000 0 0 1
32.712227 -28.251370 26.146605 50.516083 -0.712356 1.026765 0.058583 -0.012378 416169.000000 0 0 1
31.367127 -27.984670 25.751735 49.296960 -0.728470 1.021157 0.050408 -0.003223 345832.000000 0 0 1
30.909527 -29.088770 24.992815 49.256433 -0.755061 1.038629 0.024464 0.003760 -118347.000000 0 0 1
29.534227 -28.893770 24.318425 47.942740 -0.774437 1.038818 0.017593 0.004930 -66109.900000 0 0 1
28.563927 -28.582570 25.292795 47.671655 -0.785724 1.011532 0.021995 0.004299 762303.000000 0 0 1
27.309427 -28.249170 24.614445 46.364764 -0.802311 1.011150 0.034551 0.009320 1618750.000000 0 0 1
26.128427 -28.000270 25.604715 46.068550 -0.819966 0.981476 0.058077 0.005266 180966.000000 0 0 1
26.141427 -26.777370 26.236015 45.702629 -0.797415 0.959342 0.056491 -0.002585 147446.000000 0 0 1
25.037227 -26.668070 27.118505 45.535283 -0.816929 0.932847 0.079131 -0.014179 75855.600000 0 0 1
24.757827 -25.242370 27.722585 44.929600 -0.795089 0.905843 0.088554 -0.010792 -426686.000000 0 0 1
23.849627 -25.313170 28.817325 45.166354 -0.815159 0.878864 0.114066 -0.017042 287463.000000 0 0 1
23.757227 -24.172070 29.724525 45.080397 -0.794053 0.850820 0.111945 -0.018430 -208072.000000 0 0 1
23.081727 -22.914870 29.124455 43.658805 -0.781771 0.840497 0.103229 -0.021790 -755086.000000 0 0 1
23.738027 -22.315970 28.061495 42.999348 -0.754530 0.859782 0.098812 -0.015322 -145810.000000 0 0 1
23.463627 -20.926470 27.822205 41.982545 -0.728304 0.846366 0.098527 -0.015568 15945.300000 0 0 1
24.292427 -19.914070 28.676035 42.532425 -0.686677 0.830894 0.104351 -0.015640 98575.700000 0 0 1
23.949327 -19.999170 30.061565 43.327067 -0.695758 0.804004 0.110993 -0.017785 105780.000000 0 0 1
24.861027 -19.261170 30.823655 44.035906 -0.659156 0.795446 0.111834 -0.016826 -202292.000000 0 0 1
24.226127 -18.898570 32.160299 44.478602 -0.662483 0.762587 0.111936 -0.015631 -112891.000000 0 0 1
24.264327 -19.964570 33.037684 45.594190 -0.688487 0.760338 0.095166 -0.013787 152940.000000 0 0 1
23.540827 -19.684370 -33.474366 45.411212 -0.696416 2.399623 0.107411 -0.017779 -19193.600000 0 0 1
23.610527 -20.894270 -32.545836 45.312900 -0.724441 2.372075 0.094393 -0.012497 434867.000000 0 0 1
24.849627 -20.961570 -31.833796 45.500351 -0.700730 2.345688 0.111100 -0.014124 396327.000000 0 0 1
24.853727 -21.954370 -30.824786 45.275485 -0.723536 2.319688 0.106985 -0.014045 -40253.800000 0 0 1
26.034227 -21.984170 -29.828066 45.285740 -0.701253 2.289838 0.082363 -0.005373 -53730.500000 0 0 1
27.227727 -22.479570 -30.368666 46.571838 -0.690165 2.281124 0.071071 -0.005550 -301553.000000 0 0 1
28.011527 -23.102770 -29.351386 46.689265 -0.689657 2.250617 0.060665 -0.006797 289089.000000 0 0 1
29.168327 -24.051970 -29.818026 48.149800 -0.689557 2.238617 0.043073 0.005466 656828.000000 0 0 1
30.126527 -23.350370 -30.614086 48.888339 -0.659358 2.247471 0.043465 0.004541 302005.000000 0 0 1
29.781127 -23.385370 -31.973656 49.559114 -0.665677 2.272032 0.047383 0.000667 -518070.000000 0 0 1
30.216927 -24.560870 -32.852066 50.946612 -0.682508 2.271601 0.039128 -0.008419 -511655.000000 0 0 1
29.562327 -25.756470 -32.547786 50.957681 -0.716708 2.263632 0.063427 -0.005113 -121143.000000 0 0 1
29.774827 -26.835470 -33.417116 52.186075 -0.733522 2.265744 0.062007 -0.019130 -33238.100000 0 0 1
29.283827 -26.816270 32.767092 51.481426 -0.741442 0.880866 0.058034 -0.021221 6777.760000 0 0 1
30.115827 -26.089670 31.881884 51.030270 -0.713888 0.895967 0.032582 -0.015923 -203757.000000 0 0 1
29.525327 -25.919770 30.644685 49.826460 -0.720460 0.908374 0.034001 -0.019376 -720162.000000 0 0 1
30.415227 -25.318170 29.538295 49.382250 -0.694198 0.929598 0.042236 -0.017170 -237692.000000 0 0 1
30.776027 -23.941170 29.559185 48.929428 -0.661129 0.922137 0.038578 -0.012344 358660.000000 0 0 1
31.367527 -23.409470 30.746685 49.772319 -0.641127 0.904922 0.043532 0.000844 -1437180.000000 0 0 1
31.943527 -21.981670 30.579915 49.383337 -0.602723 0.903028 0.041413 0.002820 673651.000000 0 0 1
33.222827 -21.803670 29.975095 49.776125 -0.580781 0.924545 0.050453 -0.006883 915349.000000 0 0 1
34.279727 -22.409670 30.730105 51.201879 -0.578993 0.927076 0.050169 -0.005911 -176872.000000 0 0 1
35.763727 -22.004770 30.491995 51.894276 -0.551580 0.942733 0.053572 -0.024131 478483.000000 0 0 1
36.128427 -22.352870 29.170345 51.534678 -0.554060 0.969110 0.066407 -0.027580 355652.000000 0 0 1
37.384327 -21.734170 28.891665 52.006638 -0.526609 0.981786 0.066214 -0.029189 316905.000000 0 0 1
-37.357772 -22.036270 27.465865 51.337843 0.532938 1.006286 0.090389 -0.029389 -185659.000000 0 0 1
-37.036172 -23.391070 27.244305 51.585583 0.563312 1.014390 0.092774 -0.026834 135871.000000 0 0 1
-36.818372 -23.614870 25.904075 50.835772 0.570297 1.036118 0.095758 -0.014020 -57117.600000 0 0 1
-36.627172 -25.091270 25.602185 51.250302 0.600619 1.047715 0.089996 -0.016275 370731.000000 0 0 1
37.359827 -25.816370 25.653685 52.157005 -0.604673 1.056577 0.104688 -0.017499 449603.000000 0 0 1
37.413627 -27.233270 25.505415 52.838969 -0.629205 1.067060 0.107889 -0.015653 620968.000000 0 0 1
-36.820972 -28.051370 26.470915 53.323285 0.651030 1.051323 0.105802 -0.025699 274681.000000 0 0 1
-36.582972 -29.414570 25.993435 53.658079 0.677206 1.065088 0.099617 -0.023581 1460170.000000 0 0 1
-35.319672 -29.947970 26.466175 53.336841 0.703281 1.051570 0.102768 -0.037374 1325550.000000 0 0 1
-33.934072 -29.440370 26.041935 51.927248 0.714609 1.045455 0.100686 -0.033916 -430835.000000 0 0 1
-33.470372 -29.582070 24.672365 51.030288 0.723808 1.066165 0.095690 -0.031508 1189890.000000 0 0 1
-32.277972 -28.761270 24.451875 49.668626 0.727848 1.056066 0.073745 -0.028705 1273480.000000 0 0 1
-31.804772 -28.898770 22.945905 48.715470 0.737563 1.080351 0.072722 -0.028601 8320.050000 0 0 1
-31.595672 -30.237070 22.560985 49.209399 0.763429 1.094525 0.081639 -0.029436 354008.000000 0 0 1
-30.994972 -30.326470 21.273885 48.300738 0.774497 1.114701 0.073083 -0.028132 -368060.000000 0 0 1
-30.821172 -31.760170 20.688885 48.853690 0.800401 1.133506 0.082283 -0.024303 -91616.000000 0 0 1
-29.892072 -32.625270 21.262085 49.091960 0.829089 1.122859 0.080477 -0.037969 161071.000000 0 0 1
-28.522372 -32.366070 20.951885 47.959042 0.848441 1.118680 0.095597 -0.036850 567113.000000 0 0 1
-27.648572 -33.657870 20.831185 48.282855 0.883107 1.124707 0.081868 -0.028939 -253831.000000 0 0 1
-27.844372 33.143667 19.729285 47.571593 -0.872071 1.143152 0.070049 -0.024748 636246.000000 0 0 1
-29.038372 32.324567 19.693685 47.706875 -0.838900 1.145264 0.073085 -0.020124 673186.000000 0 0 1
-29.205572 31.279567 20.787685 47.576303 -0.819674 1.118610 0.077702 -0.015740 10023.800000 0 0 1
-28.154972 30.319767 20.707385 46.268634 -0.822402 1.106776 0.062743 -0.018400 189220.000000 0 0 1
-28.243072 29.268167 21.655885 46.078998 -0.803221 1.081536 0.062362 -0.021940 -464977.000000 0 0 1
-27.223572 28.181267 21.430685 44.660732 -0.802682 1.070307 0.044977 -0.013542 684249.000000 0 0 1
-25.861672 28.663467 21.441885 44.160784 -0.836738 1.063814 0.043754 -0.014070 847538.000000 0 0 1
-24.974872 27.777767 20.774985 42.742819 -0.838481 1.063236 0.039903 -0.017986 -457573.000000 0 0 1
-23.521372 28.167067 20.964785 42.262996 -0.875036 1.051746 0.040295 -0.017190 -956641.000000 0 0 1
-23.038472 28.101067 22.236285 42.601567 -0.884072 1.021650 0.053100 -0.019596 1310750.000000 0 0 1
-21.684372 28.657567 22.241985 42.263152 -0.923039 1.016584 0.091507 -0.026358 1306030.000000 0 0 1
-21.194272 28.760167 23.691065 42.867365 -0.935712 0.985244 0.089574 -0.023902 -562359.000000 0 0 1
-20.996772 27.452467 24.246415 42.218373 -0.917864 0.959036 0.105764 -0.029506 307448.000000 0 0 1
-20.730772 27.391967 25.648605 42.871153 -0.922945 0.929454 0.102269 -0.024241 141817.000000 0 0 1
-19.252672 27.649667 26.051765 42.589482 -0.962553 0.912595 0.106522 -0.025476 -409060.000000 0 0 1
-18.821472 28.918267 25.611545 42.970516 -0.993823 0.932254 0.073164 -0.025636 2057480.000000 0 0 1
-17.441472 29.291667 26.022945 42.888231 -1.033735 0.918816 0.073263 -0.014610 2248140.000000 0 0 1
-17.090572 29.541367 27.520765 43.842588 -1.046313 0.892179 0.062262 -0.006212 -326375.000000 0 0 1
-17.226172 28.342967 28.299895 43.599872 -1.024679 0.864419 0.071137 -0.010951 178212.000000 0 0 1
-17.300972 28.648767 29.675645 44.729402 -1.027515 0.845378 0.068085 -0.003385 -138605.000000 0 0 1
-17.225772 27.456467 30.641795 44.603861 -1.010484 0.813476 0.063709 0.003063 1048130.000000 0 0 1
-15.850672 27.227067 31.064215 44.244123 -1.043593 0.792441 0.062389 0.006615 1494540.000000 0 0 1
-15.618772 25.992967 31.792614 43.935756 -1.029727 0.761769 0.070510 0.001228 -307248.000000 0 0 1
-16.102672 26.070367 33.286229 45.243045 -1.017491 0.744067 0.063185 -0.000079 -461973.000000 0 0 1
-17.460672 25.781967 33.425748 45.682223 -0.975507 0.749982 0.054660 -0.003099 -647457.000000 0 0 1
-18.027972 26.729867 -33.346286 46.383923 -0.977424 2.373042 0.068733 -0.004336 64391.100000 0 0 1
-19.342072 26.282267 -32.670106 46.175850 -0.936357 2.356772 0.050688 -0.004531 89787.700000 0 0 1
-20.434472 26.404867 -33.564696 47.343146 -0.912180 2.358828 0.044631 0.001639 921786.000000 0 0 1
-21.638672 25.896267 -32.914806 47.140569 -0.874727 2.343714 0.068961 -0.001601 842283.000000 0 0 1
-22.866772 25.784767 33.836305 48.297402 -0.845304 0.794583 0.083453 -0.012368 -398046.000000 0 0 1
-22.849472 24.770367 32.823849 47.043326 -0.825714 0.798563 0.087560 -0.006681 -28867.100000 0 0 1
-23.071172 23.471767 33.351332 46.856314 -0.794005 0.778769 0.087153 -0.015896 -287954.000000 0 0 1
-23.252472 22.498567 32.151250 45.613220 -0.768921 0.788561 0.073136 -0.015632 -226464.000000 0 0 1
-24.566472 22.596067 31.670330 46.011994 -0.743643 0.811645 0.100206 -0.018410 -371039.000000 0 0 1
-24.687372 22.081667 30.335185 44.914250 -0.729741 0.829286 0.107645 -0.019381 -223116.000000 0 0 1
-26.151372 21.907967 29.960095 45.403310 -0.697331 0.850156 0.113661 -0.020122 -103943.000000 0 0 1
-26.936272 20.871167 30.560915 45.772676 -0.659207 0.839725 0.128455 -0.028411 1361810.000000 0 0 1
-28.088972 20.513167 29.739585 45.762685 -0.630769 0.863389 0.117369 -0.029017 939907.000000 0 0 1
-28.685572 19.128567 30.154645 45.804659 -0.588120 0.852196 0.127590 -0.030399 -250114.000000 0 0 1
-29.387272 19.139167 31.386835 47.064349 -0.577270 0.840766 0.110014 -0.029466 -7758.670000 0 0 1
-29.206972 17.974367 32.137719 46.999554 -0.551676 0.817855 0.097286 -0.017668 -709802.000000 0 0 1
-29.998772 16.786967 31.653151 46.729547 -0.510175 0.826616 0.075185 -0.015087 25015.800000 0 0 1
-31.399772 17.081767 31.636453 47.734659 -0.498232 0.846303 0.057364 -0.014490 650865.000000 0 0 1
-32.186272 15.948967 31.292845 47.639981 -0.460058 0.854148 0.071678 -0.008577 -644856.000000 0 0 1
-33.678772 16.185467 31.263105 48.719717 -0.447994 0.874093 0.079935 -0.007312 -921116.000000 0 0 1
-34.203972 16.397267 32.544166 49.979044 -0.447029 0.861689 0.056843 -0.001052 -1231110.000000 0 0 1
-35.557572 16.559567 32.533895 50.960912 -0.435842 0.878367 0.095532 -0.007638 -1471160.000000 0 0 1
-36.202072 16.775367 -33.752266 52.261060 -0.433926 2.272919 0.070894 0.000031 761749.000000 0 0 1
37.605127 17.049867 -33.764216 53.337283 0.425671 2.256260 0.074010 -0.004112 780758.000000 0 0 1
37.214727 17.528067 -32.497136 52.423591 0.440178 2.239406 0.061082 -0.005888 -469985.000000 0 0 1
35.732527 17.862867 -32.346896 51.402502 0.463572 2.251431 0.079704 -0.008601 73686.300000 0 0 1
34.955327 16.632667 -32.293396 50.412140 0.444122 2.266060 0.081000 -0.005956 -602690.000000 0 0 1
33.902327 16.719067 -31.435936 49.164144 0.458156 2.264524 0.091729 -0.014614 -1338550.000000 0 0 1
32.933327 15.566367 -31.545076 48.187214 0.441540 2.284497 0.101152 -0.019469 -321574.000000 0 0 1
32.240327 15.409967 -32.779596 48.491315 0.445870 2.313102 0.108559 -0.017107 276724.000000 0 0 1
31.392227 14.276967 -32.881436 47.649685 0.426833 2.332377 0.115443 -0.017229 175059.000000 0 0 1
32.113227 12.984667 -33.330426 48.070554 0.384242 2.336944 0.112155 -0.009401 177213.000000 0 0 1
32.913127 12.478967 -32.266766 47.750840 0.362403 2.312753 0.099948 -0.008157 -40284.300000 0 0 1
33.925627 11.623167 -32.710816 48.539094 0.330074 2.310280 0.107782 -0.013017 -186718.000000 0 0 1
18.085227 -20.872533 9.566224 29.227568 -0.856823 1.237350 0.050694 -0.023927 -197114.000000 0 0 1
18.192127 -21.905233 10.516124 30.354268 -0.877737 1.217016 0.042410 -0.022652 -278274.000000 0 0 1
19.416327 -22.573233 10.696924 31.638091 -0.860440 1.225896 0.036887 -0.022954 -578332.000000 0 0 1
19.265827 -23.995033 11.433924 32.827859 -0.894284 1.215040 0.045149 -0.019918 -84706.500000 0 0 1
18.516527 -24.982303 10.755824 32.903875 -0.932960 1.237789 0.041867 -0.017579 -419488.000000 0 0 1
17.159227 -24.924933 11.073024 32.222713 -0.967874 1.220006 0.044829 -0.012990 -978615.000000 0 0 1
16.188827 -25.794283 10.320624 32.154913 -1.010320 1.244047 0.073493 -0.016532 -270876.000000 0 0 1
15.719927 -25.202943 9.118224 31.071634 -1.013108 1.272954 0.073131 -0.022043 129608.000000 0 0 1
14.924427 -26.090903 8.356724 31.197894 -1.051207 1.299623 0.086788 -0.014900 27310.000000 0 0 1
14.678727 -25.647093 6.888124 30.342786 -1.050967 1.341790 0.089836 -0.018827 383470.000000 0 0 1
13.673727 -24.622233 6.817824 28.977714 -1.063862 1.333292 0.093554 -0.024686 334721.000000 0 0 1
13.569227 -24.001333 5.594224 28.133312 -1.056242 1.370615 0.105537 -0.019159 -254034.000000 0 0 1
12.590327 -22.866533 5.835724 26.747903 -1.067492 1.350852 0.109562 -0.022175 -333057.000000 0 0 1
12.033927 -22.206433 4.695024 25.690160 -1.074184 1.387008 0.106552 -0.023443 -316430.000000 0 0 1
11.317927 -21.108233 5.103524 24.488751 -1.078621 1.360855 0.102504 -0.021313 -930215.000000 0 1 0
10.383227 -20.580433 4.075624 23.408894 -1.103540 1.395799 0.082260 -0.022028 -774331.000000 0 1 0
11.039727 -19.906033 3.019824 22.961817 -1.064434 1.438899 0.077886 -0.017763 -434442.000000 0 1 0
10.209127 -19.228933 2.150524 21.876995 -1.082716 1.472337 0.043206 -0.010021 -332263.000000 0 1 0
10.949527 -18.904033 0.807524 21.861077 -1.045799 1.533849 0.049789 -0.003669 -313284.000000 0 1 0
11.908427 -17.920733 0.942424 21.537211 -0.984291 1.527024 0.048007 -0.000551 -683538.000000 0 1 0
12.594727 -17.764533 -0.266476 21.777897 -0.954068 1.583033 0.051989 -0.007302 -1114030.000000 0 1 0
13.728627 -16.800033 -0.118876 21.696323 -0.885668 1.576275 0.043380 0.000188 -649810.000000 0 1 0
14.813427 -17.284033 0.651924 22.772800 -0.862219 1.542165 0.060496 -0.012305 7486.580000 0 1 0
16.001527 -16.576433 0.332424 23.042081 -0.803043 1.556369 0.074254 -0.017919 386547.000000 0 1 0
17.231227 -17.080333 1.118624 24.287945 -0.781000 1.524723 0.065678 -0.014280 376092.000000 0 1 0
17.944127 -18.236433 0.629924 25.592108 -0.793477 1.546180 0.075540 -0.013988 -333479.000000 0 0 1
19.165227 -18.451933 1.231924 26.632638 -0.766439 1.524524 0.069472 -0.013111 -500019.000000 0 0 1
19.818127 -19.710333 0.672424 27.959033 -0.782671 1.546744 0.057859 -0.013777 167867.000000 0 0 1
19.105227 -20.857833 1.192224 28.310427 -0.829226 1.528671 0.064832 -0.006395 313957.000000 0 0 1
19.253727 -22.030933 0.421324 29.261673 -0.852567 1.556397 0.072011 -0.011348 -359080.000000 0 0 1
18.073327 -22.997933 0.542724 29.254822 -0.904732 1.552244 0.081114 -0.013028 -364361.000000 0 0 1
18.051527 -23.662733 1.810124 29.817094 -0.919111 1.510051 0.062970 -0.009031 -310950.000000 0 0 1
17.180527 -24.730033 1.776824 30.164584 -0.963621 1.511858 0.068746 -0.007704 -850645.000000 0 0 1
17.151627 -25.495443 3.149624 30.888769 -0.978606 1.468652 0.075301 -0.012980 432962.000000 0 0 1
18.198627 -26.407773 3.403824 32.251302 -0.967397 1.465059 0.061884 -0.010012 542759.000000 0 0 1
19.517227 -25.894693 3.642524 32.630128 -0.924922 1.458932 0.061626 -0.007318 467427.000000 0 0 1
20.536127 -27.062243 3.755124 34.178918 -0.921657 1.460707 0.069678 -0.007411 21367.900000 0 0 1
20.860527 -27.588933 2.470024 34.675810 -0.923390 1.499504 0.073031 -0.002999 -407167.000000 0 0 1
21.826527 -28.606203 2.451124 36.065498 -0.919027 1.502781 0.113471 -0.005749 -114821.000000 0 0 1
21.449527 -30.047283 2.867024 37.028924 -0.950829 1.493292 0.103747 -0.007514 -174940.000000 0 0 1
21.343127 -30.236993 4.273924 37.256828 -0.956147 1.455828 0.109784 -0.013288 455335.000000 0 0 1
20.565827 -31.450683 4.568324 37.854567 -0.991679 1.449821 0.101393 -0.023126 497621.000000 0 0 1
20.386327 -31.823683 6.076724 38.278920 -1.001056 1.411373 0.113833 -0.030113 -322087.000000 0 0 1
21.499927 -32.453483 6.616224 39.487338 -0.985695 1.402449 0.116099 -0.039942 -465931.000000 0 0 1
21.100827 -33.300693 7.624624 40.153654 -1.006004 1.379750 0.102518 -0.032735 -734283.000000 0 0 1
22.180127 33.560820 8.294924 41.074231 0.986801 1.367448 0.118196 -0.044743 -710359.000000 0 0 1
23.104427 -33.294543 9.004124 41.514038 -0.964149 1.352165 0.117548 -0.040855 19508.400000 0 0 1
24.313427 33.615446 9.102124 42.473399 0.944616 1.354819 0.140554 -0.048164 42516.800000 0 0 1
25.405727 -33.331913 9.923324 43.069011 -0.919530 1.338302 0.124416 -0.043602 -223654.000000 0 0 1
26.175427 -32.328003 9.303424 42.624013 -0.890179 1.350758 0.116264 -0.043385 387.390000 0 0 1
27.134327 -31.854283 10.223524 43.075370 -0.865243 1.331169 0.094640 -0.036168 -79683.500000 0 0 1
27.879527 -30.633993 9.635824 42.527152 -0.832437 1.342231 0.107687 -0.040256 -38256.600000 0 0 1
27.003027 -29.590723 9.260924 41.116165 -0.831090 1.343609 0.101406 -0.038099 199430.000000 0 0 1
27.561527 -28.922553 8.172124 40.779106 -0.809489 1.369030 0.120679 -0.037709 97906.900000 0 0 1
26.972627 -27.507723 8.162324 39.380464 -0.795220 1.362014 0.111050 -0.031298 29308.300000 0 0 1
27.671527 -26.667463 9.024724 39.475469 -0.766922 1.340141 0.103822 -0.039385 270315.000000 0 0 1
26.923727 -25.449263 9.130824 38.156572 -0.757252 1.329153 0.085719 -0.023336 305156.000000 0 0 1
27.590227 -24.483233 10.135024 38.253994 -0.725803 1.302654 0.085416 -0.036177 -553884.000000 0 0 1
28.837927 -24.180033 9.617824 38.843308 -0.697768 1.320588 0.090789 -0.029279 -1145070.000000 0 0 1
29.565327 -23.361333 10.545924 39.128978 -0.668712 1.297905 0.057289 -0.033121 666471.000000 0 0 1
31.030127 -23.152233 10.046224 39.997766 -0.641014 1.316908 0.073766 -0.032199 591780.000000 0 0 1
31.026427 -22.479833 8.819824 39.316299 -0.627005 1.344541 0.090164 -0.029004 96876.700000 0 0 1
32.344927 -22.262833 8.307224 40.135246 -0.602827 1.362308 0.081742 -0.031442 561867.000000 0 0 1
32.299727 -21.341733 7.095524 39.358460 -0.583889 1.389526 0.082731 -0.008066 -126167.000000 0 0 1
32.018527 -20.008533 7.423624 38.479055 -0.558531 1.376653 0.081734 -0.003994 -145638.000000 0 0 1
31.927327 -19.269933 6.216024 37.806395 -0.543030 1.405629 0.072005 -0.005145 15797.900000 0 0 1
31.685527 -17.724433 6.453724 36.875177 -0.510021 1.394875 0.091692 0.000808 116723.000000 0 0 1
32.838927 -17.150433 7.033624 37.709473 -0.481296 1.383176 0.100704 -0.001004 139322.000000 0 0 1
32.559727 -15.816533 7.320324 36.930823 -0.452199 1.371258 0.109064 -0.004376 40822.200000 0 0 1
33.204227 -15.276433 8.623924 37.553457 -0.431201 1.339084 0.110529 -0.035772 167542.000000 0 0 1
34.619727 -15.386833 8.559724 38.840044 -0.418231 1.348588 0.090820 -0.033194 -35923.500000 0 0 1
35.109027 -15.020333 9.829424 39.431862 -0.404257 1.318864 0.077102 -0.048218 -564588.000000 0 0 1
36.630827 -15.083033 9.899624 40.832804 -0.390601 1.325913 0.073826 -0.051718 -622992.000000 0 0 1
37.306827 -14.051233 9.229624 40.919707 -0.360207 1.343284 0.113195 -0.034468 390898.000000 0 0 1
-36.592572 -14.450933 8.849524 40.325673 0.376115 1.349544 0.110284 -0.044935 731142.000000 0 0 1
-35.681672 -13.305833 8.399724 38.997209 0.356932 1.353702 0.128765 -0.040247 -393935.000000 0 0 1
-36.023072 -12.898933 7.077824 38.911949 0.343850 1.387885 0.166712 -0.054583 545824.000000 0 0 1
-34.942872 -12.342533 6.299724 37.590278 0.339541 1.402413 0.162126 -0.042680 655705.000000 0 0 1
-33.929972 -13.356933 5.723724 36.910861 0.375030 1.415099 0.140047 -0.038663 -578503.000000 0 0 1
-33.021272 -13.907633 6.586224 36.430825 0.398624 1.389010 0.147810 -0.033671 -507544.000000 0 0 1
-32.103672 -14.786833 5.983724 35.848308 0.431631 1.403093 0.153362 -0.018564 -66873.100000 0 0 1
-31.617172 -15.838333 6.958624 36.040544 0.464400 1.376498 0.146148 -0.031978 -519687.000000 0 0 1
-32.661372 -16.588633 7.494724 37.391428 0.469946 1.368990 0.124329 -0.040719 -542463.000000 0 0 1
-32.419472 -17.144833 8.773424 37.708626 0.486455 1.335981 0.127240 -0.036671 545423.000000 0 0 1
-33.622172 -17.892833 9.488924 39.251033 0.489054 1.326628 0.059398 -0.039422 -262031.000000 0 0 1
-34.655272 -17.062033 9.926224 39.882713 0.457498 1.319267 0.065281 -0.025282 1014850.000000 0 0 1
-35.690772 -17.560833 10.829924 41.225009 0.457249 1.304974 0.081753 -0.039357 1205100.000000 0 0 1
-36.488072 -18.867233 10.452924 42.386502 0.477218 1.321616 0.080501 -0.040219 -557067.000000 0 0 1
-35.807572 -20.129933 10.604524 42.424667 0.512139 1.318156 0.099359 -0.030912 -85626.500000 0 0 1
-35.446272 -20.400533 11.923624 42.600385 0.522235 1.287112 0.121121 -0.050188 -578982.000000 0 0 1
-36.536872 -21.041533 12.761724 44.051683 0.522509 1.276884 0.079878 -0.064669 -466671.000000 0 0 1
-36.642172 -22.380633 12.360024 44.680104 0.548315 1.290507 0.111316 -0.069246 419760.000000 0 0 1
37.287727 -22.631133 11.822824 45.192056 -0.545501 1.306103 0.105112 -0.054165 236888.000000 0 0 1
37.082427 -24.165133 11.614124 45.759676 -0.577541 1.314182 0.100883 -0.046856 -288631.000000 0 0 1
37.437127 -24.747633 12.856424 46.682668 -0.584101 1.291790 0.118920 -0.047778 334825.000000 0 0 1
37.100527 -26.145353 13.051424 47.226775 -0.613884 1.290795 0.101186 -0.045250 456861.000000 0 0 1
35.629827 -26.407983 13.523324 46.365358 -0.637830 1.274825 0.097232 -0.045531 105326.000000 0 0 1
34.712127 -26.068493 12.522624 45.180905 -0.644135 1.289953 0.076193 -0.037794 177796.000000 0 0 1
33.430127 -25.667163 13.034524 44.116612 -0.654787 1.270863 0.069581 -0.011107 639865.000000 0 0 1
33.211527 -24.185133 13.440224 43.226911 -0.629412 1.254633 0.071778 -0.026224 -483788.000000 0 0 1
33.859327 -23.773933 14.619724 43.879269 -0.612160 1.231121 0.096862 -0.037815 -209534.000000 0 0 1
33.969627 -22.414933 14.788024 43.301852 -0.583270 1.222273 0.090221 -0.046049 -335641.000000 0 0 1
35.331427 -21.960833 15.311824 44.328770 -0.556127 1.218115 0.075540 -0.044153 -521031.000000 0 0 1
35.577727 -20.662833 15.821224 44.079910 -0.526167 1.203684 0.100543 -0.021474 -125866.000000 0 0 1
34.881927 -20.377933 16.997824 43.828472 -0.528719 1.172524 0.090004 -0.023305 -239941.000000 0 0 1
35.266927 -19.055433 17.686524 43.814139 -0.495381 1.155270 0.080708 -0.007665 -268257.000000 0 0 1
34.863027 -17.954533 16.853224 42.682866 -0.475577 1.164894 0.071333 -0.025302 219266.000000 0 0 1
34.959327 -16.680433 17.465424 42.490380 -0.445192 1.147197 0.062731 -0.021013 884867.000000 0 0 1
36.407727 -16.054133 17.632024 43.521788 -0.415306 1.153674 0.056363 -0.030627 1013370.000000 0 0 1
37.073727 -16.503433 18.832324 44.737914 -0.418815 1.136306 0.060649 -0.002745 622017.000000 0 0 1
-37.109672 -15.570933 19.137224 44.562485 0.397281 1.126916 0.052450 -0.008110 140318.000000 0 0 1
-36.636272 -15.619833 20.605724 44.841850 0.403013 1.093342 0.051775 -0.002921 11657.600000 0 0 1
-35.773072 -16.692133 20.947324 44.689265 0.436582 1.082941 0.065344 -0.002927 201340.000000 0 0 1
-35.404872 -16.519933 22.277624 44.974501 0.436573 1.052571 0.061469 -0.003564 -5484.570000 0 0 1
-34.522372 -17.673033 22.834024 45.005810 0.473146 1.038681 0.067778 -0.000933 -399691.000000 0 0 1
-35.175172 -18.942033 22.921324 46.059532 0.493976 1.049914 0.064592 -0.002822 616000.000000 0 0 1
-34.431772 -20.076133 23.451824 46.244850 0.527878 1.038953 0.062558 0.002954 1199130.000000 0 0 1
-33.197072 -20.683633 22.625024 45.185728 0.557200 1.046376 0.054757 0.007970 1778560.000000 0 0 1
-32.060172 -19.811333 22.544524 43.915819 0.553508 1.031703 0.052774 0.011595 277624.000000 0 0 1
-30.891372 -20.421333 22.078024 43.113187 0.584117 1.033175 0.050040 0.014492 376681.000000 0 0 1
-29.706772 -19.393533 22.014724 41.752240 0.578364 1.015411 0.066303 0.011383 298518.000000 0 0 1
-29.074772 -19.026033 23.184824 41.771622 0.579450 0.982388 0.048209 0.011028 21869.000000 0 0 1
-27.940572 -18.217633 23.029824 40.533079 0.577789 0.966512 0.076716 -0.001182 -165979.000000 0 0 1
-27.528972 -17.539433 24.372224 40.736732 0.567272 0.929436 0.076545 -0.013191 -345109.000000 0 0 1
-26.487772 -16.577233 24.234224 39.543702 0.559207 0.911138 0.082972 -0.019435 419582.000000 0 0 1
-26.198972 -15.965133 25.482224 39.882520 0.547288 0.877687 0.070869 -0.027893 665531.000000 0 0 1
-25.100172 -16.677633 26.385324 40.054306 0.586462 0.851655 0.052664 -0.015733 633286.000000 0 0 1
-25.535272 -17.979433 26.804224 41.155517 0.613474 0.861512 0.050587 -0.017545 -38070.600000 0 0 1
-24.473972 -18.443333 27.590524 41.235529 0.645795 0.837805 0.048765 -0.010802 -125242.000000 0 0 1
-24.685072 -19.842733 28.194824 42.403242 0.677075 0.843408 0.034540 -0.000239 -730404.000000 0 0 1
-25.707772 -19.686933 29.119824 43.548008 0.653535 0.838360 0.036370 -0.012903 -415377.000000 0 0 1
-25.886972 -20.903533 29.738724 44.626054 0.679293 0.841429 0.033135 -0.008285 -147536.000000 0 0 1
-27.233772 -20.936833 30.524424 45.953996 0.655414 0.844321 0.044261 -0.010840 -10793.900000 0 0 1
-27.236372 -19.983733 31.579724 46.243362 0.632997 0.819067 0.057675 -0.028934 850018.000000 0 0 1
-28.293072 -20.155233 32.566424 47.616209 0.618982 0.817653 0.076828 -0.024492 241418.000000 0 0 1
-29.508272 -19.287433 32.297524 47.810807 0.578921 0.829116 0.062235 -0.031030 -652327.000000 0 0 1
-30.407772 -19.773133 31.308324 47.914722 0.576562 0.858706 0.068033 -0.037571 679354.000000 0 0 1
-31.708072 -19.295533 31.662124 48.787391 0.546673 0.864551 0.085099 -0.044222 -9169.810000 0 0 1
-32.820672 -19.843933 30.779524 49.176796 0.543807 0.894517 0.078370 -0.017916 -778372.000000 0 0 1
-33.027272 -19.134133 29.646324 48.330325 0.525092 0.910425 0.069670 -0.033921 512203.000000 0 0 1
-34.073472 -19.633833 28.803924 48.745820 0.522751 0.938622 0.072086 -0.034102 306566.000000 0 0 1
-34.680172 -18.510133 27.939124 48.227938 0.490272 0.952909 0.061192 -0.024203 -664462.000000 0 0 1
-35.664672 -18.946433 27.075424 48.621135 0.488325 0.980189 0.048115 -0.019956 -325925.000000 0 0 1
-36.255072 -17.905833 26.300224 48.236406 0.458744 0.994126 0.070838 -0.018493 -207929.000000 0 0 1
-37.471272 -18.448733 25.548024 48.960735 0.457504 1.021829 0.054704 -0.015720 5679.320000 0 0 1
36.636027 -18.920833 26.315724 48.915373 -0.476724 1.002752 0.056519 -0.022407 -289236.000000 0 0 1
35.752227 -19.507033 25.433724 48.016876 -0.499472 1.012570 0.093410 -0.019002 -1060510.000000 0 0 1
34.637827 -20.190833 26.211224 47.900700 -0.527761 0.991782 0.086418 -0.027695 -1046590.000000 0 0 1
33.791227 -19.222533 26.701424 47.162685 -0.517209 0.968962 0.081527 -0.035529 -63896.900000 0 0 1
32.665427 -19.820833 27.355424 46.991646 -0.545392 0.949446 0.071318 -0.027169 422360.000000 0 0 1
-29.358103 -5.203433 33.587566 44.912120 0.175418 0.725978 0.095717 -0.033931 -74575.200000 0 0 1
-30.402733 -5.372733 32.648856 44.934844 0.174913 0.757462 0.119175 -0.032101 329313.000000 0 0 1
-30.481853 -4.283133 31.792199 44.251921 0.139600 0.769244 0.102016 -0.028623 -280254.000000 0 0 1
-31.462063 -4.410933 30.602245 44.111395 0.139291 0.804115 0.108522 -0.029299 48263.000000 0 0 1
-31.203103 -5.337233 29.469455 43.250069 0.169409 0.821159 0.116694 -0.024220 419274.000000 0 0 1
-29.975833 -5.141333 28.750765 41.852006 0.169863 0.813495 0.107741 -0.023907 528458.000000 0 0 1
-29.854833 -6.224133 27.668395 41.177554 0.205536 0.833986 0.085858 -0.022919 -595015.000000 0 0 1
-30.586263 -5.940633 26.549645 40.935245 0.191837 0.865083 0.092110 -0.020710 -321858.000000 0 0 1
-30.388663 -7.041833 25.650815 40.385921 0.227707 0.882603 0.107499 -0.023283 205100.000000 0 0 1
-31.116333 -6.709833 24.316635 40.056795 0.212385 0.918448 0.101389 -0.021090 193984.000000 0 0 1
-30.630413 -5.538133 23.578975 39.049471 0.178873 0.922508 0.096368 -0.014366 -99374.600000 0 0 1
-31.325933 -5.278433 22.401185 38.871442 0.166932 0.956616 0.092887 -0.010891 -110453.000000 0 0 1
-31.007173 -3.853633 21.838085 38.120824 0.123648 0.960799 0.100814 -0.013365 -521837.000000 0 0 1
-29.712833 -3.879033 21.349385 36.792602 0.129817 0.951745 0.117120 -0.013498 -804578.000000 0 0 1
-29.257393 -2.624333 20.929485 36.068345 0.089459 0.951733 0.127338 -0.015011 -764761.000000 0 0 1
-27.828743 -2.648033 20.445685 34.633467 0.094869 0.939310 0.122656 -0.014924 -856008.000000 0 0 1
-27.688653 -3.262533 19.198885 33.851186 0.117288 0.967748 0.136997 -0.011867 -600217.000000 0 0 1
-26.444273 -2.989233 18.644685 32.493990 0.112561 0.959672 0.141507 -0.015369 -598618.000000 0 0 1
-26.067263 -3.717333 17.322185 31.517913 0.141650 0.988913 0.142521 -0.020598 -2714.990000 0 0 1
-27.025873 -3.549833 16.297885 31.758781 0.130602 1.031914 0.135449 -0.012718 306007.000000 0 0 1
-26.509803 -3.962133 15.038785 30.734886 0.148361 1.059502 0.139704 -0.017270 806763.000000 0 0 1
-27.679683 -4.094133 13.979785 31.278766 0.146846 1.107453 0.155497 -0.012619 786189.000000 0 0 1
-28.340173 -2.893633 13.693585 31.607796 0.101751 1.122718 0.150048 -0.015483 -213956.000000 0 0 1
-29.500493 -3.068133 12.931885 32.356239 0.103630 1.159637 0.159885 -0.018020 -104241.000000 0 0 1
-29.844203 -1.843433 12.063985 32.243053 0.061690 1.187308 0.153159 -0.011341 -122936.000000 0 0 1
-28.942663 -1.689533 10.980985 31.001844 0.058309 1.208733 0.158768 -0.020228 50837.300000 0 0 1
-29.111763 -0.551233 10.132685 30.829692 0.018933 1.235905 0.155710 -0.019952 -199913.000000 0 0 1
-30.437913 -0.423233 9.331885 31.839123 0.013904 1.273334 0.157781 -0.017349 202316.000000 0 0 1
-30.629903 -1.281133 8.223785 31.740556 0.041802 1.308712 0.165279 -0.028054 610452.000000 0 0 1
-32.006293 -1.163433 7.827485 32.970076 0.036334 1.331096 0.164076 -0.032805 529707.000000 0 0 1
-32.328113 -1.952233 6.530385 33.038826 0.060315 1.371828 0.191068 -0.043130 -72035.900000 0 0 1
-31.697783 -1.515033 5.346385 32.181184 0.047760 1.403889 0.186629 -0.054183 701255.000000 0 0 1
-32.504543 -0.459133 4.800185 32.860279 0.014124 1.424193 0.197439 -0.046416 55518.600000 0 0 1
-32.076503 -0.002433 3.416685 32.257957 0.000076 1.464680 0.166867 -0.032662 -298611.000000 0 0 1
-32.449093 -0.847033 2.309285 32.542187 0.026098 1.499774 0.156556 -0.046748 369048.000000 0 0 1
-32.042933 -0.319833 1.078185 32.062663 0.009981 1.537163 0.153041 -0.053392 -151426.000000 0 0 1
-32.811143 -1.043433 -0.063715 32.827792 0.031790 1.572737 0.157863 -0.057353 -387252.000000 0 0 1
-34.184528 -0.816033 -0.069115 34.194337 0.023867 1.572818 0.176217 -0.051866 -563917.000000 0 0 1
-34.827398 -1.724533 -0.945515 34.882885 0.049476 1.597905 0.179492 -0.053426 -5332.390000 0 0 1
-36.354123 -1.551933 -1.049315 36.402360 0.042663 1.599626 0.167897 -0.042969 180838.000000 0 0 1
-37.103213 -2.050333 0.096085 37.159945 0.055204 1.568211 0.167970 -0.044021 1386980.000000 0 0 1
36.716786 -1.713333 0.013485 36.756742 -0.046630 1.570429 0.144767 -0.040328 737067.000000 0 0 1
35.795266 -2.801833 0.511885 35.908402 -0.078115 1.556541 0.157836 -0.049781 -542540.000000 0 0 1
35.771726 -2.839533 1.916385 35.935385 -0.079213 1.517442 0.163767 -0.051796 505809.000000 0 0 1
34.913026 -3.855533 2.478585 35.212610 -0.109987 1.500349 0.167133 -0.041766 122439.000000 0 0 1
34.917486 -4.052233 3.999685 35.378650 -0.115535 1.457500 0.173134 -0.033053 -119902.000000 0 0 1
34.384876 -2.959433 4.661985 34.825451 -0.085856 1.436526 0.182859 -0.041934 -966.730000 0 0 1
34.323696 -3.104133 6.051185 34.990979 -0.090192 1.396987 0.175829 -0.052156 39401.000000 0 0 1
33.597716 -1.885933 6.733885 34.317757 -0.056074 1.373293 0.200188 -0.038943 287591.000000 0 0 1
32.191766 -1.917433 6.545485 32.906378 -0.059493 1.370548 0.203971 -0.040323 -42262.800000 0 0 1
31.669926 -0.741933 7.092085 32.462784 -0.023423 1.350552 0.224374 -0.034275 385926.000000 0 0 1
30.122626 -0.794633 7.260685 30.995509 -0.026374 1.334350 0.194050 -0.033572 -18678.900000 0 0 1
29.376126 -0.771533 6.069485 30.006511 -0.026258 1.367119 0.215729 -0.040849 530954.000000 0 0 1
27.975226 -0.945433 6.237685 28.677793 -0.033783 1.351534 0.209403 -0.023757 629286.000000 0 0 1
27.402726 -2.380133 6.570885 28.279868 -0.086640 1.336301 0.223978 -0.037293 -356293.000000 0 0 1
27.814226 -2.924533 7.846985 29.047534 -0.104760 1.297255 0.195048 -0.038383 603771.000000 0 0 1
27.375226 -4.311433 7.803785 28.790459 -0.156211 1.296308 0.197793 -0.044058 -75877.700000 0 0 1
27.903426 -5.234433 8.873885 29.744685 -0.185436 1.267848 0.183862 -0.030361 299996.000000 0 0 1
26.910126 -5.239433 9.913685 29.152833 -0.192295 1.223817 0.182929 -0.021875 1038220.000000 0 0 1
27.285726 -6.071733 10.991785 30.036580 -0.218957 1.196147 0.168543 -0.019135 344808.000000 0 0 1
26.198526 -5.975533 12.126585 29.480906 -0.224250 1.146876 0.154382 -0.016467 1681140.000000 0 0 1
24.948726 -6.572433 11.679185 28.320296 -0.257585 1.145713 0.185044 -0.027751 1376090.000000 0 0 1
23.860326 -6.246533 12.556685 27.676789 -0.256049 1.099895 0.185295 -0.036829 676422.000000 0 0 1
22.722026 -7.263033 12.587985 26.972198 -0.309383 1.085238 0.174414 -0.044793 145699.000000 0 0 1
23.154926 -8.325733 13.415785 28.025912 -0.345172 1.071632 0.159517 -0.044506 987604.000000 0 0 1
22.129326 -9.337133 13.437585 27.521952 -0.399272 1.060713 0.210681 -0.073062 564490.000000 0 0 1
22.678426 -10.597033 14.136985 28.748260 -0.437126 1.056697 0.161149 -0.060929 -109624.000000 0 0 1
22.690526 -10.473233 15.517485 29.416678 -0.432433 1.015134 0.127086 -0.047766 241417.000000 0 0 1
23.210526 -11.634233 16.095085 30.547269 -0.464646 1.015858 0.116861 -0.048872 -133764.000000 0 0 1
23.140726 -11.638633 17.657585 31.348705 -0.466005 0.972466 0.124986 -0.050957 -4232.240000 0 0 1
21.800126 -11.670333 18.096485 30.641882 -0.491513 0.939019 0.128027 -0.045024 -60833.400000 0 0 1
21.627726 -12.045233 19.450085 31.482566 -0.508152 0.904848 0.149210 -0.038393 29540.600000 0 0 1
22.030026 -11.038633 20.541085 32.079739 -0.464505 0.875890 0.119375 -0.035017 -347122.000000 0 0 1
21.079126 -10.081733 20.911085 31.356728 -0.446121 0.840786 0.127766 -0.038825 -338132.000000 0 0 1
20.992826 -8.925133 20.115585 30.413706 -0.401999 0.848114 0.124422 -0.026541 -445648.000000 0 0 1
22.004326 -7.808633 20.517785 31.082867 -0.341005 0.849845 0.109434 -0.006111 1713510.000000 0 0 1
23.422226 -8.110033 20.506985 32.170013 -0.333333 0.879604 0.130664 -0.015004 1054520.000000 0 0 1
23.973926 -8.186333 19.228985 31.804387 -0.329054 0.921531 0.132437 -0.017932 -1066780.000000 0 0 1
25.471626 -8.500733 19.281485 33.058159 -0.322111 0.948061 0.107731 -0.016482 -242017.000000 0 0 1
25.716326 -9.752733 19.904085 33.950226 -0.362485 0.944346 0.077234 -0.022776 -948759.000000 0 0 1
27.007826 -10.198433 19.674885 34.936110 -0.361057 0.972582 0.064630 -0.025499 -448246.000000 0 0 1
27.082826 -11.734433 20.050485 35.681905 -0.408862 0.974088 0.029764 -0.026534 -453425.000000 0 0 1
26.285226 -12.460133 19.232185 34.871836 -0.442661 0.986622 0.079380 -0.039917 -644685.000000 0 0 1
26.202626 -13.844733 19.563885 35.510560 -0.486087 0.987316 0.061305 -0.033960 -521545.000000 0 0 1
25.202026 -14.618233 18.716985 34.628895 -0.525615 0.999763 0.105088 -0.034819 -369861.000000 0 0 1
25.542126 -14.752633 17.342785 34.217139 -0.523771 1.039275 0.103882 -0.041691 777372.000000 0 0 1
24.482126 -15.428033 16.609285 33.365657 -0.562312 1.049741 0.088054 -0.043631 563934.000000 0 0 1
24.388726 -16.972233 16.835585 34.151187 -0.607972 1.055294 0.066874 -0.030956 -784606.000000 0 0 1
25.531026 -17.603033 16.395685 35.078748 -0.603628 1.084453 0.076024 -0.033533 -765964.000000 0 0 1
25.552626 -18.971533 16.701485 35.941555 -0.638651 1.087518 0.067093 -0.023142 370534.000000 0 0 1
26.814226 -19.745733 16.179085 37.022419 -0.634734 1.118527 0.056288 -0.012654 263209.000000 0 0 1
26.886826 -19.877033 14.800085 36.565563 -0.636608 1.154086 0.075474 -0.023609 388610.000000 0 0 1
27.803726 -20.921133 14.421385 37.665864 -0.645072 1.177888 0.059805 -0.023669 233793.000000 0 0 1
27.784226 -20.880733 12.895485 37.071037 -0.644481 1.215510 0.047719 -0.031187 324648.000000 0 0 1
26.475726 -21.186433 12.405085 36.106996 -0.674876 1.220086 0.058387 -0.017008 661449.000000 0 0 1
26.415826 -20.880733 11.016885 35.428416 -0.668899 1.254591 0.091540 -0.021882 -253056.000000 0 0 1
25.009326 -21.084933 10.459185 34.342908 -0.700465 1.261329 0.060716 -0.019141 -399356.000000 0 0 1
24.598326 -22.321033 9.995485 34.687402 -0.736900 1.278493 0.056715 -0.024620 108714.000000 0 0 1
23.234726 -22.273333 9.613785 33.591349 -0.764276 1.280540 0.038852 -0.017029 199081.000000 0 0 1
22.973526 -23.171333 8.422185 33.699062 -0.789685 1.318195 0.042342 -0.013705 -316012.000000 0 0 1
23.147526 -24.554233 8.708485 34.850481 -0.814879 1.318239 0.036542 -0.008690 42154.700000 0 0 1
22.875026 -25.333763 7.554785 34.959135 -0.836356 1.352975 0.041990 -0.004610 336833.000000 0 0 1
21.405826 -25.860153 7.503385 34.398513 -0.879360 1.350897 0.042755 -0.004474 345300.000000 0 0 1
20.542626 -24.780033 7.332885 33.012433 -0.878621 1.346803 0.043208 -0.003476 -115000.000000 0 0 1
19.155526 -25.112653 7.467085 32.455152 -0.919164 1.338643 0.056391 -0.018129 1146580.000000 0 0 1
18.231826 -23.842733 7.424685 30.919271 -0.917972 1.328295 0.066596 -0.021348 83439.800000 0 0 1
17.903226 -23.409333 6.105285 30.096460 -0.917897 1.366521 0.075147 -0.020803 -19748.200000 0 0 1
17.006526 -22.338633 6.204385 28.752928 -0.920099 1.353303 0.091171 -0.021785 -324627.000000 0 0 1
16.588826 -21.752633 4.865285 27.785557 -0.919272 1.394788 0.098420 -0.015937 -304848.000000 0 0 1
15.848826 -20.585433 5.101085 26.475770 -0.914677 1.376914 0.133903 -0.020503 -326529.000000 0 0 1
15.258526 -20.190333 3.898485 25.606061 -0.923635 1.417953 0.115135 -0.019118 33664.900000 0 0 1
14.462826 -18.885733 4.044285 24.128831 -0.917255 1.402389 0.109112 -0.011533 336746.000000 0 1 0
15.312926 -17.845733 4.530285 23.947429 -0.861635 1.380473 0.105248 -0.012620 446645.000000 0 1 0
14.696926 -16.630533 4.236185 22.594679 -0.847042 1.382194 0.072779 -0.006149 -142413.000000 0 1 0
15.742726 -15.527233 4.200785 22.507221 -0.778507 1.383054 0.073330 -0.009456 -553822.000000 0 1 0
16.219126 -15.189933 5.502285 22.892559 -0.752642 1.328067 0.096819 -0.024712 531111.000000 0 1 0
17.148126 -14.085933 5.582085 22.882994 -0.687670 1.324369 0.082954 -0.028174 1327310.000000 0 1 0
18.632226 -14.523233 5.276185 24.205831 -0.662096 1.351061 0.103144 -0.031968 173564.000000 0 1 0
19.512226 -13.446633 5.105785 24.240626 -0.603399 1.358578 0.121388 -0.031627 -115509.000000 0 1 0
20.825326 -13.941633 4.977185 25.550650 -0.589931 1.374746 0.138584 -0.018520 102380.000000 0 0 1
21.924326 -12.840533 4.925785 25.880856 -0.529820 1.379303 0.128557 -0.018237 -4632.410000 0 0 1
22.012626 -12.021333 6.053485 25.801411 -0.499852 1.333970 0.155722 -0.030042 548073.000000 0 0 1
23.087526 -11.075633 6.022185 26.305327 -0.447295 1.339814 0.155627 -0.030024 213896.000000 0 0 1
23.195326 -10.366333 7.359185 26.450739 -0.420285 1.288854 0.179419 -0.034242 -300860.000000 0 0 1
23.742426 -11.185633 8.360985 27.545004 -0.440281 1.262392 0.189852 -0.021837 138057.000000 0 0 1
24.052126 -10.441133 9.475985 27.880393 -0.409557 1.224007 0.223456 -0.045420 -35916.400000 0 0 1
24.720726 -11.252833 10.611785 29.160770 -0.427168 1.198338 0.184140 -0.038220 392357.000000 0 0 1
23.799726 -12.182333 11.203285 28.988787 -0.473097 1.173996 0.194797 -0.045982 1228810.000000 0 0 1
24.501226 -13.002133 12.161885 30.286581 -0.487884 1.157577 0.187862 -0.044479 396799.000000 0 0 1
23.504226 -14.089333 12.584585 30.155095 -0.540006 1.140293 0.149496 -0.043009 37867.500000 0 0 1
22.451926 -13.615933 13.377085 29.469120 -0.545147 1.099619 0.138124 -0.056890 -569380.000000 0 0 1
21.408226 -14.545833 13.445785 29.166463 -0.596801 1.091673 0.119474 -0.054213 68631.100000 0 0 1
20.090526 -13.854633 13.910785 28.090746 -0.603719 1.052721 0.112601 -0.054795 -617277.000000 0 0 1
20.040026 -13.594333 15.281085 28.634247 -0.596054 1.007868 0.115570 -0.059652 -129762.000000 0 0 1
19.359426 -12.437633 15.685185 27.847929 -0.571056 0.972489 0.142179 -0.068236 245521.000000 0 0 1
17.807826 -12.540233 15.631985 26.809235 -0.613538 0.948279 0.171134 -0.068303 -270820.000000 0 0 1
17.406226 -12.442033 14.250985 25.707420 -0.620592 0.983211 0.187047 -0.081345 995535.000000 0 0 1
15.960326 -12.368633 14.176185 24.671427 -0.659286 0.958682 0.234282 -0.079118 1591740.000000 0 1 0
15.318926 -10.911533 14.095385 23.503424 -0.618927 0.927650 0.193050 -0.071239 -102468.000000 0 1 0
15.660626 -10.235433 15.201485 24.106108 -0.578886 0.888461 0.171345 -0.055537 114219.000000 0 1 0
15.208226 -8.904733 15.198685 23.271967 -0.529705 0.859139 0.153727 -0.040571 -196740.000000 0 1 0
16.028526 -8.108533 16.256485 24.226747 -0.468342 0.835221 0.168391 -0.028301 -258963.000000 0 1 0
17.387826 -7.883833 16.043085 24.937359 -0.425687 0.871949 0.160636 -0.045163 -718529.000000 0 1 0
18.272726 -8.782833 16.577385 26.188554 -0.448050 0.885373 0.167486 -0.044483 -1011940.000000 0 0 1
19.733826 -8.513733 16.232185 26.933091 -0.407303 0.923934 0.152719 -0.046237 -605779.000000 0 0 1
20.229626 -7.367533 16.819985 27.320875 -0.349264 0.907591 0.135436 -0.040369 479007.000000 0 0 1
21.535226 -7.103133 16.294985 27.923950 -0.318601 0.947705 0.128876 -0.029187 529206.000000 0 0 1
22.167426 -5.738033 16.685585 28.332465 -0.253290 0.941073 0.138983 -0.024260 -52176.600000 0 0 1
22.648326 -5.688733 17.992485 29.479448 -0.246086 0.914307 0.148668 -0.022730 72355.800000 0 0 1
23.119726 -4.391333 18.292285 29.806262 -0.187703 0.910050 0.149147 -0.016647 9301.340000 0 0 1
-5.558173 -32.829970 -6.263976 33.881228 1.403085 1.756747 0.077971 -0.030473 -113350.000000 0 0 1
-6.360673 -31.679370 -6.262276 32.912866 1.372648 1.762232 0.066302 -0.029643 -52395.200000 0 0 1
-5.798373 -30.720870 -5.375976 31.722139 1.384247 1.741089 0.078450 -0.032564 -324859.000000 0 0 1
-6.534873 -29.332270 -5.381076 30.529373 1.351588 1.747981 0.076006 -0.027516 1136540.000000 0 0 1
-7.905673 -29.344270 -4.955576 30.791941 1.307633 1.732437 0.061309 -0.028269 1241880.000000 0 0 1
-8.822273 -29.835870 -5.989976 31.684246 1.283295 1.760993 0.057083 -0.026410 468056.000000 0 0 1
-10.306773 -29.530670 -5.633776 31.780961 1.234995 1.749007 0.073303 -0.016373 1097310.000000 0 0 1
-11.268673 -30.121370 -6.562576 32.822970 1.212807 1.772091 0.047011 -0.021211 510957.000000 0 0 1
-12.586073 -29.917770 -6.064476 33.019087 1.172583 1.755511 0.058771 -0.016875 354713.000000 0 0 1
-13.642073 -30.406470 -7.088476 34.072072 1.149060 1.780371 0.062417 -0.017701 73105.300000 0 0 1
-13.704673 -29.619170 -8.259076 33.664902 1.137435 1.818658 0.081296 -0.027128 -233725.000000 0 0 1
-14.693773 -30.172070 -9.075876 34.765390 1.117603 1.834917 0.094897 -0.023863 -99759.600000 0 0 1
-15.027873 -29.337970 -10.345876 34.548381 1.097410 1.874923 0.127498 -0.023031 -90692.300000 0 0 1
-15.550773 -28.054870 -10.194676 33.657595 1.064659 1.878524 0.136075 -0.027340 537287.000000 0 0 1
-14.511373 -27.080170 -10.047476 32.324408 1.078868 1.886865 0.110016 -0.021340 255565.000000 0 0 1
-15.035473 -25.691770 -9.760176 31.327201 1.041311 1.887626 0.101675 -0.012337 -60454.900000 0 0 1
-15.726773 -25.099970 -10.852276 31.545393 1.011072 1.921992 0.119350 -0.031412 164354.000000 0 0 1
-16.159173 -23.837970 -10.421076 30.626239 0.975074 1.917996 0.086283 -0.005136 -134076.000000 0 0 1
-17.031173 -23.111470 -11.470476 30.915574 0.935723 1.950910 0.112765 -0.007502 912174.000000 0 0 1
-18.390473 -23.578470 -11.547976 32.054789 0.908389 1.939340 0.142337 -0.028580 827517.000000 0 0 1
-19.043073 -23.067670 -12.726376 32.507179 0.880681 1.973051 0.155173 -0.036177 113925.000000 0 0 1
-20.409173 -23.673370 -13.085676 33.885066 0.859311 1.967281 0.151733 -0.029801 -206739.000000 0 0 1
-20.306373 -25.018070 -13.453876 34.917895 0.888981 1.966330 0.183246 -0.036347 148794.000000 0 0 1
-20.265773 -25.903370 -12.340876 35.128099 0.906904 1.929767 0.205194 -0.031493 -1140140.000000 0 0 1
-20.230473 -27.466870 -12.697676 36.399615 0.935965 1.927130 0.205772 -0.039860 673155.000000 0 0 1
-19.149773 -27.935770 -13.517176 36.466904 0.969873 1.950526 0.201847 -0.045986 1922650.000000 0 0 1
-17.775373 -27.525270 -13.261076 35.347709 0.997391 1.955367 0.187375 -0.044689 392858.000000 0 0 1
-16.814873 -28.532970 -13.807176 35.881868 1.038271 1.965782 0.160680 -0.033717 -797653.000000 0 0 1
-16.801973 -28.456770 -15.241876 36.392429 1.037437 2.002942 0.184804 -0.051174 72636.600000 0 0 1
-16.005573 -29.427670 -15.881576 37.072774 1.072652 2.013506 0.175400 -0.041942 291961.000000 0 0 1
-16.706973 -30.839070 -15.775576 38.458289 1.074311 1.993469 0.177564 -0.043200 198129.000000 0 0 1
-16.618273 -31.416270 -14.497676 38.384003 1.084242 1.958108 0.173718 -0.039130 17916.900000 0 0 1
-17.181673 -32.697570 -14.491376 39.677966 1.086979 1.944671 0.163550 -0.043639 -776989.000000 0 0 1
-17.488173 -33.120670 -13.009976 39.649394 1.084990 1.905115 0.184163 -0.029955 1149940.000000 0 0 1
-18.836373 -32.923070 -12.493276 39.935191 1.051119 1.888977 0.203452 -0.039607 1390140.000000 0 0 1
-19.350673 -31.611970 -12.403476 39.084670 1.021505 1.893729 0.209398 -0.044223 -437040.000000 0 0 1
-18.793173 -30.673270 -11.317276 37.710922 1.021099 1.875600 0.211040 -0.040805 -409555.000000 0 0 1
-19.136173 -30.956770 -9.971676 37.735250 1.017132 1.838226 0.211309 -0.048393 239185.000000 0 0 1
-18.648673 -29.937770 -9.122676 36.431666 1.013698 1.823895 0.198965 -0.037562 -164139.000000 0 0 1
-18.828273 -30.134370 -7.627076 36.342213 1.012333 1.782237 0.214631 -0.045442 -4774.050000 0 0 1
-18.053673 -31.157470 -7.056476 36.694917 1.045637 1.764303 0.167353 -0.038189 131497.000000 0 0 1
-18.335773 -31.238970 -5.671076 36.663810 1.040026 1.726098 0.193031 -0.046060 -165925.000000 0 0 1
-17.649473 -32.487270 -4.990376 37.307244 1.073132 1.704963 0.175582 -0.037863 1179070.000000 0 0 1
-16.249573 -32.268170 -4.727776 36.436730 1.104290 1.700916 0.145992 -0.029551 905216.000000 0 0 1
-16.036773 -31.690670 -3.439376 35.683413 1.102328 1.667332 0.126305 -0.033558 615989.000000 0 0 1
-14.638673 -31.021170 -3.145876 34.445614 1.129886 1.662253 0.124297 -0.031321 323800.000000 0 0 1
-13.519173 -31.839370 -3.038676 34.723869 1.169260 1.658418 0.071873 -0.028770 -436435.000000 0 0 1
-12.450473 -31.028470 -2.568276 33.531721 1.189205 1.647464 0.087627 -0.021658 -173758.000000 0 0 1
-11.152273 -31.744970 -2.235376 33.721110 1.232956 1.637135 0.095063 -0.026154 -663633.000000 0 0 1
-11.312273 -32.739570 -1.210476 34.659952 1.238116 1.605728 0.102265 -0.019030 418000.000000 0 0 1
-10.112373 -33.450470 -0.866076 34.956318 1.277223 1.595575 0.116435 -0.022223 504613.000000 0 0 1
-9.025373 -32.720570 -0.052976 33.942538 1.301657 1.572357 0.125138 -0.035757 -318338.000000 0 0 1
-9.351673 -32.447970 1.320124 33.794486 1.290195 1.531723 0.143219 -0.032446 -153816.000000 0 0 1
-8.203473 -32.104670 2.081924 33.201525 1.320627 1.508049 0.145957 -0.033929 782335.000000 0 0 1
-7.433873 -33.421470 2.529724 34.331569 1.351931 1.497044 0.151468 -0.045988 44105.400000 0 0 1
-7.983873 33.639067 3.697924 34.770731 -1.337769 1.464243 0.175653 -0.050430 64222.600000 0 0 1
-7.222473 32.552367 4.217324 33.609620 -1.352461 1.444985 0.178502 -0.041628 776103.000000 0 0 1
-6.036073 32.844467 5.217324 33.799610 -1.389047 1.415816 0.180424 -0.037880 566734.000000 0 0 1
-5.015273 33.540267 4.530824 34.214483 -1.422366 1.437982 0.171552 -0.041386 -945451.000000 0 0 1
-4.055073 -33.794870 5.482024 34.475926 1.451376 1.411108 0.149197 -0.046269 -88884.300000 0 0 1
-2.986073 -32.769270 4.962824 33.277189 1.479923 1.421102 0.153378 -0.048601 307067.000000 0 0 1
-3.492673 -31.479870 4.681624 32.017161 1.460299 1.424048 0.132256 -0.043841 -8798.140000 0 0 1
-3.948873 -31.492070 3.348524 31.914835 1.446055 1.465682 0.126998 -0.046023 -171706.000000 0 0 1
-3.917273 -30.122270 2.635924 30.490069 1.441476 1.484236 0.128652 -0.043869 377296.000000 0 0 1
-2.600673 -29.643770 2.374724 29.852235 1.483290 1.491163 0.106699 -0.042962 84331.100000 0 0 1
-2.654673 -28.562770 1.577524 28.729214 1.478121 1.515859 0.102264 -0.039627 261167.000000 0 0 1
-2.366373 -27.231270 2.308824 27.431232 1.484115 1.486529 0.095002 -0.037698 -173374.000000 0 0 1
-2.493873 -26.094070 1.511024 26.256487 1.475513 1.513216 0.103124 -0.038364 -411671.000000 0 0 1
-2.519473 -24.915270 2.241424 25.142443 1.470017 1.481529 0.074724 -0.031232 418932.000000 0 0 1
-3.845973 -24.526070 2.979224 25.003908 1.415251 1.451362 0.068551 -0.019007 404470.000000 0 0 1
-3.950073 -25.221570 4.241724 25.879005 1.415443 1.406147 0.072962 -0.023863 -85412.300000 0 0 1
-5.011373 -24.679070 5.010224 25.676307 1.370459 1.374406 0.068493 -0.018965 -166635.000000 0 0 1
-5.598373 -25.611770 6.048524 26.905189 1.355595 1.344049 0.087541 -0.025803 -180710.000000 0 0 1
-4.791173 -26.087570 7.105724 27.459206 1.389163 1.309044 0.069016 -0.028127 -255149.000000 0 0 1
-5.669373 -26.741070 8.027324 28.489727 1.361880 1.285166 0.081616 -0.033583 437537.000000 0 0 1
-5.083173 -27.340270 9.364624 29.343231 1.386973 1.245974 0.072309 -0.031612 131540.000000 0 0 1
-4.652673 -26.464070 10.411624 28.816598 1.396764 1.201128 0.065739 -0.037585 -333432.000000 0 0 1
-5.767973 -25.909070 11.014624 28.737978 1.351745 1.177454 0.062558 -0.038368 -172109.000000 0 0 1
-5.338273 -24.758670 11.960724 28.009781 1.358435 1.129602 0.058233 -0.037782 405560.000000 0 0 1
-4.782573 -25.271470 13.189024 28.904508 1.383760 1.096968 0.072743 -0.043970 -291125.000000 0 0 1
-4.029173 -24.257570 13.828324 28.211460 1.406199 1.058515 0.058162 -0.034523 4779.410000 0 0 1
-3.087973 -24.952770 14.835624 29.193699 1.447670 1.037727 0.060261 -0.039014 -168910.000000 0 0 1
-3.705573 -25.417670 16.013924 30.269374 1.426029 1.013319 0.063959 -0.038050 163302.000000 0 0 1
-2.706073 -26.030470 16.838324 31.119726 1.467211 0.999073 0.080145 -0.031990 624850.000000 0 0 1
-3.159073 -26.175570 18.321924 32.106590 1.450689 0.963488 0.108598 -0.036699 -28842.500000 0 0 1
-2.830673 -25.065070 19.170724 31.682600 1.458340 0.920921 0.107628 -0.027558 -8329.940000 0 0 1
-3.643773 -24.981570 20.343624 32.422507 1.425959 0.892517 0.157166 -0.038507 15064.000000 0 0 1
-3.019173 -24.094370 21.411124 32.374223 1.446140 0.848161 0.132315 -0.038581 -673485.000000 0 0 1
-1.812673 -24.648970 21.932724 33.043939 1.497389 0.844983 0.089356 -0.051156 214831.000000 0 0 1
-1.083173 -23.731670 22.722624 32.873745 1.525185 0.807636 0.083389 -0.040353 254050.000000 0 0 1
-0.489273 -22.476170 22.003924 31.457754 1.549031 0.796133 0.079295 -0.040189 -1044930.000000 0 0 1
-1.447173 -21.564270 21.530324 30.506834 1.503787 0.787309 0.116373 -0.030447 -609504.000000 0 0 1
-0.871573 -20.482070 20.848124 29.239000 1.528269 0.776994 0.128927 -0.027141 -764205.000000 0 0 1
-1.827773 -19.365470 20.446624 28.221032 1.476692 0.760463 0.111138 -0.000173 -1119790.000000 0 0 1
-2.350373 -18.619070 21.592224 28.608009 1.445226 0.715506 0.113771 -0.025741 1450530.000000 0 0 1
-3.595873 -19.222770 22.089224 29.502187 1.385870 0.724650 0.137000 -0.037016 1030370.000000 0 0 1
-4.842673 -18.905370 21.208024 28.820909 1.320035 0.743867 0.128204 -0.037629 -501451.000000 0 0 1
-4.941273 -19.695670 20.026524 28.520121 1.324988 0.792329 0.120373 -0.035388 -359878.000000 0 0 1
-5.386373 -21.013970 20.258424 29.681707 1.319875 0.819588 0.135428 -0.035053 -172569.000000 0 0 1
-5.441773 -21.758070 18.945424 29.359081 1.325720 0.869380 0.102775 -0.031981 -50598.300000 0 0 1
-6.074973 -22.999370 18.983924 30.434614 1.312558 0.897251 0.096420 -0.039035 -303240.000000 0 0 1
-6.090473 -23.588470 17.677924 30.100146 1.318118 0.943073 0.083806 -0.046172 19629.400000 0 0 1
-6.728473 -25.011070 17.637024 31.335134 1.307998 0.972965 0.087528 -0.049503 -1089050.000000 0 0 1
-8.053173 -25.080070 17.942224 31.871412 1.260097 0.972837 0.092228 -0.045054 -1865740.000000 0 0 1
-8.609573 -26.358170 17.804924 32.952894 1.255084 0.999986 0.089055 -0.043919 723267.000000 0 0 1
-10.112573 -26.486770 18.221924 33.702398 1.206080 0.999561 0.061267 -0.042373 123724.000000 0 0 1
-10.962073 -26.042270 17.163024 33.059587 1.172375 1.024935 0.080337 -0.041300 -444498.000000 0 0 1
-12.335773 -26.139370 17.436324 33.755938 1.129861 1.027990 0.091284 -0.038606 202924.000000 0 0 1
-12.871173 -25.133970 18.552024 33.786997 1.097514 0.989524 0.102432 -0.043891 -923943.000000 0 0 1
-13.067573 -23.831470 17.962624 32.578464 1.069234 0.986797 0.094433 -0.039825 49980.200000 0 0 1
-13.357973 -22.801170 18.883624 32.479533 1.040849 0.950347 0.107955 -0.041588 -98735.400000 0 0 1
-12.119073 -22.094270 19.499224 31.862964 1.069093 0.912245 0.106261 -0.046299 45967.300000 0 0 1
-11.293473 -23.004070 20.201824 32.631940 1.114428 0.903224 0.125508 -0.048744 31876.100000 0 0 1
-9.977873 -22.456670 20.118624 31.758763 1.152679 0.884750 0.126261 -0.057473 396306.000000 0 0 1
-8.911973 -23.368470 20.772524 32.511635 1.206455 0.877695 0.129167 -0.050863 50204.800000 0 0 1
-8.956973 -23.264870 22.165424 33.358471 1.203288 0.844023 0.152161 -0.051254 227956.000000 0 0 1
-8.024473 -24.142470 22.772424 34.144316 1.249904 0.840693 0.142018 -0.047223 199520.000000 0 0 1
-8.161573 -24.089970 24.298824 35.176282 1.244138 0.808239 0.147415 -0.046657 408881.000000 0 0 1
-7.075373 -24.683470 25.006224 35.841957 1.291637 0.798642 0.156531 -0.036903 196458.000000 0 0 1
-6.646873 -23.919170 26.114724 36.031742 1.299746 0.760096 0.149021 -0.037295 602344.000000 0 0 1
-5.377373 -24.491870 26.870324 36.752989 1.354668 0.750855 0.165186 -0.035033 531157.000000 0 0 1
-4.250073 -24.401970 26.034124 35.934592 1.398357 0.760507 0.154751 -0.022212 -1129190.000000 0 0 1
-3.109773 -24.490370 26.817824 36.450578 1.444493 0.744051 0.138102 -0.021531 -140611.000000 0 0 1
-1.893673 -23.729470 26.189924 35.391890 1.491163 0.737729 0.116039 -0.021150 -210853.000000 0 0 1
-2.051473 -22.325970 26.100924 34.408077 1.479166 0.709681 0.115021 -0.018391 94717.200000 0 0 1
-0.932273 -21.542270 25.633724 33.496662 1.527547 0.699348 0.102032 -0.026667 410272.000000 0 0 1
0.130127 -21.243570 26.687624 34.110636 -1.564671 0.672311 0.097568 -0.015511 -156646.000000 0 0 1
0.649127 -22.364770 27.399924 35.374569 -1.541780 0.684768 0.096854 -0.031789 -140689.000000 0 0 1
1.531227 -22.020870 28.419924 35.985490 -1.501373 0.660378 0.061081 -0.042810 -235296.000000 0 0 1
1.972027 -23.198670 29.378224 37.485294 -1.485994 0.670153 0.104210 -0.050479 -669351.000000 0 0 1
2.775127 -24.110770 28.730424 37.609412 -1.456202 0.701437 0.084361 -0.049167 -330272.000000 0 0 1
3.229827 -25.161570 29.488724 38.898859 -1.443131 0.710421 0.094964 -0.039802 -497395.000000 0 0 1
4.432727 -24.929970 30.430524 39.587489 -1.394828 0.694005 0.062584 -0.041477 240128.000000 0 0 1
5.684127 -24.595870 29.834024 39.081135 -1.343683 0.702256 0.075929 -0.038542 443626.000000 0 0 1
6.415627 -25.657970 29.276224 39.453631 -1.325776 0.734686 0.055432 -0.037695 -933864.000000 0 0 1
7.815027 -25.231670 28.838924 39.107485 -1.270436 0.741543 0.052663 -0.026692 -429922.000000 0 0 1
7.824227 -24.346270 27.725824 37.718440 -1.259849 0.745021 0.049521 -0.037162 -77466.500000 0 0 1
9.017027 -24.446470 26.975724 37.505018 -1.217430 0.768065 0.070947 -0.021707 -93053.400000 0 0 1
9.257827 -23.309070 25.957824 36.094719 -1.192726 0.768206 0.078066 -0.018054 -255046.000000 0 0 1
8.518227 -23.375770 24.766124 35.104811 -1.221347 0.787681 0.064683 -0.020204 -152571.000000 0 0 1
8.595127 -22.153470 24.064424 33.819358 -1.200694 0.779084 0.061684 -0.027662 81824.900000 0 0 1
7.662727 -22.005270 22.853924 32.638186 -1.235706 0.795090 0.047397 -0.012646 113950.000000 0 0 1
8.233127 -22.705670 21.725224 32.485646 -1.222939 0.838252 0.043202 -0.004707 191319.000000 0 0 1
7.493127 -22.639470 20.527824 31.465602 -1.251169 0.860063 0.047891 0.001707 -178050.000000 0 0 1
8.173827 -23.515770 19.461024 31.599594 -1.236271 0.907315 0.106627 -0.017827 -627596.000000 0 0 1
9.398427 -23.049870 19.036824 31.337320 -1.183633 0.917911 0.120260 -0.013706 -1097270.000000 0 0 1
9.892127 -23.857770 17.976924 31.467716 -1.177743 0.962730 0.119640 -0.022920 -56360.200000 0 0 1
11.210727 -23.316070 17.395624 31.175748 -1.122614 0.978840 0.129876 -0.029809 -31990.800000 0 0 1
11.078727 -22.159470 16.576424 29.808693 -1.107185 0.981118 0.152993 -0.026716 -432469.000000 0 0 1
12.213227 -22.035170 15.761924 29.717838 -1.064688 1.011741 0.135502 -0.035977 25110.300000 0 0 1
-12.854573 22.424867 11.035024 28.104919 -1.050294 1.167299 0.046639 -0.022459 -783919.000000 0 0 1
-13.804773 21.528567 10.616624 27.690498 -1.000611 1.177318 0.008433 -0.025742 -469301.000000 0 0 1
-13.296073 20.218167 10.390224 26.334703 -0.989076 1.165224 0.050148 -0.032810 552560.000000 0 0 1
-14.399373 19.582967 9.479524 26.090150 -0.936769 1.198949 0.052759 -0.030539 -20219.900000 0 0 1
-14.487973 20.316067 8.306524 26.299093 -0.951313 1.249446 0.053816 -0.034125 66322.800000 0 0 1
-15.294573 19.754867 7.228724 26.008329 -0.911975 1.289149 0.067327 -0.033792 825366.000000 0 0 1
-16.839173 19.664567 7.399824 26.926016 -0.862644 1.292393 0.056994 -0.028191 17892.100000 0 0 1
-17.126373 18.675267 8.394324 26.693500 -0.828634 1.250897 0.047027 -0.034996 -320404.000000 0 0 1
-18.512673 18.462567 8.377524 27.454842 -0.784043 1.260713 0.058625 -0.023973 -453299.000000 0 0 1
-19.108573 17.424767 9.277024 27.474047 -0.739341 1.226361 0.069103 -0.025455 -93822.200000 0 0 1
-18.743973 16.099767 8.810824 26.232988 -0.709656 1.228270 0.072111 -0.026325 257828.000000 0 0 1
-19.148273 15.101467 9.715724 26.250828 -0.667788 1.191668 0.082429 -0.036185 646148.000000 0 0 1
-18.033273 14.764567 10.828524 25.699189 -0.686064 1.135856 0.065045 -0.026307 287521.000000 0 0 1
-16.984073 14.083567 10.250824 24.328687 -0.692307 1.135866 0.037624 -0.010983 -192740.000000 0 1 0
-16.099873 13.248367 11.011624 23.579250 -0.688541 1.084896 0.012127 -0.019419 843598.000000 0 1 0
-16.860573 12.173167 11.893024 23.956397 -0.625332 1.051298 0.024906 -0.021237 211500.000000 0 1 0
-17.781173 11.331867 11.199124 23.874709 -0.567392 1.082549 0.013392 -0.017697 257195.000000 0 1 0
-18.655673 10.631667 12.077424 24.635963 -0.517985 1.058436 0.040746 -0.017451 115781.000000 0 1 0
-19.741473 9.850567 11.302624 24.789287 -0.462830 1.097359 0.049865 -0.024849 -268973.000000 0 1 0
-19.241973 8.907667 10.357524 23.598270 -0.433554 1.116411 0.036451 -0.024220 293809.000000 0 1 0
-18.848473 9.413267 9.087324 22.944585 -0.463182 1.163580 0.055020 -0.019016 -480182.000000 0 1 0
-19.983873 9.505267 8.055224 23.549775 -0.443976 1.221698 0.072069 -0.023842 12849.200000 0 1 0
-20.430573 8.297467 7.438524 23.272042 -0.385780 1.245454 0.060646 -0.029453 775049.000000 0 1 0
-21.321973 8.507967 6.334924 23.814771 -0.379664 1.301547 0.081368 -0.026643 285109.000000 0 1 0
-21.545273 7.203767 5.499324 23.373823 -0.322670 1.333293 0.090151 -0.026120 -239015.000000 0 1 0
-22.335873 6.267167 6.187424 24.009432 -0.273553 1.310147 0.112805 -0.030825 271774.000000 0 1 0
-22.146173 4.972567 5.664924 23.393819 -0.220871 1.326210 0.123735 -0.038734 -454641.000000 0 1 0
-23.331673 4.016167 5.876224 24.393167 -0.170463 1.327507 0.149794 -0.038413 -417068.000000 0 1 0
-24.491973 4.462367 5.200024 25.432454 -0.180220 1.364880 0.179361 -0.042620 579346.000000 0 0 1
-25.367273 3.290367 5.141824 26.091443 -0.128989 1.372429 0.192899 -0.045200 114226.000000 0 0 1
-26.533463 3.400167 4.161224 27.072155 -0.127452 1.416476 0.202517 -0.046259 -313475.000000 0 0 1
-26.252853 2.998767 2.837924 26.575528 -0.113733 1.463805 0.211935 -0.039127 659207.000000 0 0 1
-27.477843 2.945167 2.114924 27.716038 -0.106776 1.494415 0.206311 -0.033379 146139.000000 0 0 1
-27.346983 3.067067 0.583124 27.524615 -0.111687 1.549609 0.227750 -0.040157 -236660.000000 0 0 1
-26.938923 4.347367 0.098724 27.287633 -0.159999 1.567178 0.235698 -0.047191 298088.000000 0 0 1
-27.017323 4.482567 -1.308776 27.417915 -0.164417 1.618549 0.270150 -0.040592 -318703.000000 0 0 1
-28.415363 4.883167 -1.792076 28.887536 -0.170187 1.632872 0.252144 -0.058298 -499725.000000 0 0 1
-29.277453 3.807567 -2.011776 29.592466 -0.129325 1.638832 0.205365 -0.054161 -55192.900000 0 0 1
-30.618363 4.264467 -1.982276 30.977399 -0.138388 1.634831 0.172310 -0.028763 -358505.000000 0 0 1
-31.586423 3.104967 -2.140276 31.810749 -0.097986 1.638129 0.165953 -0.025831 -625295.000000 0 0 1
-31.619723 2.627767 -3.435876 31.914218 -0.082915 1.678665 0.160378 -0.033070 511978.000000 0 0 1
-32.521683 1.534167 -3.547876 32.750587 -0.047139 1.679339 0.175252 -0.042420 -98146.300000 0 0 1
-32.625503 1.061967 -4.995776 33.022856 -0.032539 1.722662 0.179705 -0.049105 -157414.000000 0 0 1
-31.384873 0.750667 -5.587476 31.887202 -0.023914 1.746932 0.209809 -0.056444 315878.000000 0 0 1
-31.617183 -0.053233 -6.738176 32.327266 0.001684 1.780772 0.232381 -0.060085 -18448.200000 0 0 1
-32.115703 0.680567 -8.014576 33.107627 -0.021188 1.815302 0.231248 -0.057457 902405.000000 0 0 1
-33.548353 0.875867 -8.021076 34.505026 -0.026102 1.805404 0.235304 -0.054877 1066210.000000 0 0 1
-34.000673 1.732667 -9.063476 35.230590 -0.050916 1.830984 0.219400 -0.047089 -820849.000000 0 0 1
-35.507282 1.877067 -8.937976 36.663031 -0.052815 1.817065 0.202045 -0.043159 -633709.000000 0 0 1
-36.003287 2.477367 -7.734476 36.907942 -0.068701 1.781923 0.163576 -0.039050 1741900.000000 0 0 1
-37.463873 2.392567 -7.753676 38.332567 -0.063777 1.774476 0.159875 -0.037373 1484040.000000 0 0 1
37.213186 3.161067 -6.554476 37.918000 0.084741 1.744528 0.167648 -0.032833 831618.000000 0 0 1
35.785406 2.975967 -6.386276 36.472403 0.082971 1.746802 0.160288 -0.028594 1279030.000000 0 0 1
35.335456 3.818067 -5.347676 35.941198 0.107634 1.720140 0.157409 -0.037295 -366109.000000 0 0 1
33.902666 3.479467 -4.947176 34.437944 0.102273 1.714950 0.162090 -0.037597 -360145.000000 0 0 1
33.802956 2.280267 -4.186376 34.137446 0.067356 1.693739 0.137540 -0.037548 824476.000000 0 0 1
32.529266 1.615267 -4.378676 32.862365 0.049615 1.704437 0.131707 -0.038034 828642.000000 0 0 1
32.526146 0.339467 -3.500476 32.715726 0.010436 1.677998 0.163902 -0.043775 -2739.050000 0 0 1
33.407036 -0.714533 -3.918076 33.643602 -0.021385 1.687519 0.108868 -0.040019 320563.000000 0 0 1
33.095006 -1.889833 -3.221976 33.305135 -0.057041 1.667689 0.116520 -0.039728 275.003000 0 0 1
34.204426 -2.967733 -3.415676 34.502421 -0.086548 1.669957 0.104721 -0.033639 256919.000000 0 0 1
33.907206 -4.099633 -2.719976 34.262281 -0.120323 1.650267 0.093115 -0.039871 -46226.500000 0 0 1
34.993156 -4.996233 -2.846376 35.462447 -0.141819 1.651147 0.141180 -0.041411 243196.000000 0 0 1
34.851276 -6.251333 -1.961876 35.461804 -0.177484 1.626148 0.172678 -0.047428 -173606.000000 0 0 1
35.002636 -6.068933 -0.552376 35.529165 -0.171678 1.586344 0.169277 -0.062075 -23858.900000 0 0 1
35.008526 -7.291833 0.117724 35.760056 -0.205351 1.567504 0.201885 -0.058472 -361281.000000 0 0 1
34.095516 -7.302133 1.349224 34.894781 -0.210980 1.532121 0.214068 -0.045210 -905019.000000 0 0 1
32.771086 -7.071933 0.935624 33.538511 -0.212539 1.542896 0.192430 -0.046872 -579864.000000 0 0 1
31.918116 -7.249033 2.058924 32.795637 -0.223325 1.507975 0.230962 -0.053459 -528982.000000 0 0 1
31.390256 -8.678533 2.301024 32.649040 -0.269734 1.500260 0.206193 -0.044121 -1202040.000000 0 0 1
30.420616 -9.186733 1.461724 31.811108 -0.293282 1.524830 0.201386 -0.045637 -332302.000000 0 0 1
29.134526 -8.889533 1.958024 30.523405 -0.296148 1.506604 0.203281 -0.045481 -627940.000000 0 0 1
28.008826 -9.775733 1.320924 29.695187 -0.335804 1.526299 0.169808 -0.035157 1221270.000000 0 0 1
26.673226 -9.553633 1.866524 28.393957 -0.343937 1.505012 0.140665 -0.044032 1889800.000000 0 0 1
25.857426 -8.468433 1.533124 27.251996 -0.316496 1.514509 0.143646 -0.045144 -369890.000000 0 0 1
25.242126 -8.533533 0.122824 26.645848 -0.326005 1.566187 0.109997 -0.032874 -951623.000000 0 0 1
26.235526 -8.520833 -0.873376 27.598373 -0.314035 1.602448 0.109902 -0.046301 452621.000000 0 0 1
25.840426 -9.007333 -2.208076 27.454239 -0.335405 1.651311 0.105265 -0.047496 -268790.000000 0 0 1
25.425526 -10.514533 -2.298676 27.609721 -0.392126 1.654149 0.110072 -0.022455 551209.000000 0 0 1
24.062926 -10.728333 -1.918576 26.415951 -0.419393 1.643490 0.097613 -0.015503 707703.000000 0 0 1
23.693226 -12.085033 -2.036876 26.675192 -0.471665 1.647229 0.096104 -0.008609 1424080.000000 0 0 1
22.164626 -12.457633 -1.736776 25.484891 -0.512048 1.638998 0.101775 -0.015160 1177150.000000 0 0 1
21.338426 -12.175633 -2.812876 24.728258 -0.518519 1.684795 0.109024 -0.009466 755153.000000 0 1 0
19.964726 -12.385833 -2.439376 23.620959 -0.555274 1.674252 0.120134 -0.017543 1193820.000000 0 1 0
18.818426 -11.799633 -3.319376 22.458467 -0.560055 1.719140 0.107768 -0.012269 434584.000000 0 1 0
18.695726 -12.432233 -4.586476 22.915635 -0.586832 1.772303 0.106476 -0.021249 -219457.000000 0 1 0
17.697626 -11.834133 -5.314876 21.943121 -0.589398 1.815441 0.094881 -0.021324 -846478.000000 0 1 0
17.689526 -12.384433 -6.761976 22.627811 -0.610793 1.874268 0.105274 -0.031960 -542443.000000 0 1 0
16.959126 -13.556733 -6.923376 22.788815 -0.674361 1.879481 0.080817 -0.032283 32671.600000 0 1 0
17.447526 -14.303233 -8.007876 23.940023 -0.686690 1.911868 0.100423 -0.037793 -383469.000000 0 1 0
16.566026 -15.491633 -8.469976 24.210832 -0.751896 1.928199 0.090362 -0.038544 -776827.000000 0 1 0
15.378026 -15.081733 -9.045376 23.361532 -0.775671 1.968379 0.100273 -0.027529 -620891.000000 0 1 0
14.878426 -16.133733 -9.864076 24.061689 -0.825854 1.993195 0.094843 -0.024563 -273861.000000 0 1 0
14.398126 -15.726733 -11.249276 24.107724 -0.829473 2.056268 0.105284 -0.039336 -736097.000000 0 1 0
13.157026 -15.033333 -11.266176 22.935456 -0.851859 2.084277 0.084911 -0.029804 245031.000000 0 1 0
13.251226 -13.638433 -10.879576 21.908150 -0.799797 2.090473 0.078761 -0.026926 -397577.000000 0 1 0
13.440626 -12.654333 -12.040076 22.039646 -0.755275 2.148727 0.100544 -0.021019 603863.000000 0 1 0
14.691726 -12.764033 -12.745076 23.263798 -0.715302 2.150589 0.125894 -0.026956 688734.000000 0 1 0
14.665926 -12.082833 -13.976376 23.588627 -0.689128 2.204961 0.149116 -0.030009 167662.000000 0 1 0
16.050426 -11.546133 -14.449276 24.488996 -0.623605 2.201894 0.170939 -0.045589 245369.000000 0 1 0
16.958026 -12.597333 -14.715076 25.744920 -0.638912 2.179217 0.171316 -0.041534 422429.000000 0 0 1
18.124426 -12.047133 -15.337676 26.624660 -0.586633 2.184709 0.161266 -0.039838 519005.000000 0 0 1
19.231726 -13.083233 -15.718076 28.072908 -0.597378 2.165064 0.141519 -0.030625 -120834.000000 0 0 1
19.902326 -13.522733 -14.552076 28.119918 -0.596804 2.114724 0.117767 -0.049837 -749944.000000 0 0 1
20.993226 -14.257833 -14.963376 29.460210 -0.596604 2.103563 0.088245 -0.030465 -740565.000000 0 0 1
22.224226 -14.100933 -14.050276 29.835596 -0.565391 2.061133 0.070596 -0.028172 -314404.000000 0 0 1
22.828326 -12.848033 -13.999176 29.701538 -0.512626 2.061593 0.078138 -0.030074 162449.000000 0 0 1
24.023026 -12.885733 -13.218776 30.296599 -0.492335 2.022292 0.077501 -0.029514 394467.000000 0 0 1
24.738426 -11.530033 -13.310276 30.366014 -0.436144 2.024534 0.085863 -0.033280 -472800.000000 0 0 1
24.031626 -10.500733 -12.658376 29.120764 -0.411953 2.020485 0.085242 -0.024701 125822.000000 0 0 1
24.605126 -9.235533 -12.907576 29.279905 -0.359077 2.027324 0.100006 -0.026892 287351.000000 0 0 1
25.695526 -8.869833 -11.830976 29.646349 -0.332383 1.981299 0.113772 -0.028927 -187356.000000 0 0 1
26.818726 -9.686633 -11.951476 30.917838 -0.346608 1.967691 0.094617 -0.029904 -1261790.000000 0 0 1
27.682326 -9.322433 -10.957976 31.197695 -0.324836 1.929695 0.097088 -0.032953 -1319720.000000 0 0 1
29.044326 -9.999933 -11.129876 32.671787 -0.331587 1.918412 0.111294 -0.033788 -565380.000000 0 0 1
29.621126 -9.657233 -12.351476 33.514657 -0.315159 1.948234 0.104075 -0.033239 -77640.800000 0 0 1
30.918416 -10.223833 -12.422276 34.853811 -0.319353 1.935220 0.101963 -0.033038 65041.900000 0 0 1
31.777926 -9.786933 -13.607976 35.927672 -0.298761 1.959253 0.086371 -0.030016 -353404.000000 0 0 1
31.369876 -10.346233 -14.803276 36.197384 -0.318580 1.992110 0.069248 -0.024177 281186.000000 0 0 1
32.008226 -9.680133 -15.903276 37.028984 -0.293681 2.014715 0.057419 -0.019626 142811.000000 0 0 1
31.754076 -10.408133 -17.253376 37.607573 -0.316738 2.047411 0.035404 -0.010421 1046030.000000 0 0 1
30.465716 -10.124233 -17.854176 36.734610 -0.320834 2.078339 0.028427 -0.005283 1016030.000000 0 0 1
30.460026 -9.000133 -18.700576 36.858203 -0.287299 2.102921 0.023943 0.001030 64766.700000 0 0 1
29.049226 -8.759033 -19.298076 35.958225 -0.292854 2.137294 -0.001417 0.002781 23011.300000 0 0 1
28.496726 -9.692233 -20.186976 36.242472 -0.327844 2.161563 0.002610 0.009430 444631.000000 0 0 1
27.226326 -9.147233 -20.519176 35.298460 -0.324122 2.191128 0.045960 0.015413 79542.100000 0 0 1
26.641726 -9.601033 -21.866176 35.778360 -0.345888 2.228317 0.066593 -0.000195 -88087.000000 0 0 1
26.536226 -11.024933 -22.066076 36.230266 -0.393769 2.225660 0.059998 -0.008615 574696.000000 0 0 1
25.799826 -11.284633 -23.299276 36.549011 -0.412320 2.262020 0.087246 -0.018923 -855005.000000 0 0 1
26.074126 -12.686133 -23.887276 37.568603 -0.452823 2.259881 0.092778 -0.008414 53491.800000 0 0 1
27.355826 -12.867133 -24.409276 38.855078 -0.439657 2.250051 0.087985 -0.007316 -143078.000000 0 0 1
28.486626 -12.669233 -23.594076 39.098309 -0.418474 2.218623 0.054995 -0.002330 -1425430.000000 0 0 1
29.728726 -13.424733 -24.045476 40.524135 -0.424162 2.206025 0.046259 0.004409 -343010.000000 0 0 1
30.385996 -12.884333 -25.181086 41.513876 -0.401042 2.222536 0.070424 -0.013028 197466.000000 0 0 1
31.742136 -13.304133 -25.119726 42.609433 -0.396890 2.201279 0.037942 -0.011018 -223514.000000 0 0 1
32.642426 -12.866733 -26.231946 43.808627 -0.375472 2.212779 0.070470 -0.012923 -572658.000000 0 0 1
32.281806 -13.337833 -27.490126 44.449070 -0.391807 2.237582 0.060091 -0.023017 -161207.000000 0 0 1
33.340966 -13.020833 -28.344036 45.656834 -0.372321 2.240567 0.038777 -0.022209 -96580.000000 0 0 1
33.294176 -13.748233 -29.749826 46.717965 -0.391605 2.261132 0.051261 -0.037657 106735.000000 0 0 1
33.855146 -15.091933 -29.656876 47.470703 -0.419339 2.245596 0.064931 -0.034364 152643.000000 0 0 1
33.841306 -15.820533 -30.839626 48.441777 -0.437305 2.260920 0.034561 -0.028100 129106.000000 0 0 1
32.456586 -16.342633 -31.335956 47.983891 -0.466462 2.282403 0.037535 -0.017630 510827.000000 0 0 1
31.717026 -15.413633 -32.145136 47.716450 -0.452364 2.309960 0.047782 -0.025225 16366.000000 0 0 1
30.595706 -16.143133 -32.590646 47.527341 -0.485504 2.326394 0.057684 -0.018890 -157091.000000 0 0 1
29.763026 -15.459733 -33.706726 47.549810 -0.479069 2.358694 0.088381 -0.023771 -184084.000000 0 0 1
28.978526 -14.315733 -33.423546 46.495469 -0.458846 2.372952 0.101193 -0.025742 174228.000000 0 0 1
29.653826 -13.107333 -33.134966 46.358144 -0.416191 2.367078 0.084931 -0.026440 -611260.000000 0 0 1
28.650126 -11.964733 -32.944496 45.269464 -0.395599 2.385820 0.102332 -0.025217 -72205.100000 0 0 1
28.171626 -11.517333 33.494234 45.256527 -0.388093 0.737581 0.104865 -0.028792 18676.200000 0 0 1
27.278226 -10.431433 33.678595 44.577620 -0.365250 0.714372 0.084856 -0.026948 179317.000000 0 0 1
21.273527 -29.496370 9.219424 37.517950 -0.945967 1.322520 0.054905 -0.019319 -4460.640000 0 0 1
21.915027 -28.876970 8.088524 37.142591 -0.921617 1.351268 0.061277 -0.020115 323090.000000 0 0 1
23.190627 -29.484870 7.974724 38.350476 -0.904325 1.361325 0.093346 -0.023537 58891.400000 0 0 1
23.829527 -29.299370 6.610824 38.340611 -0.887991 1.397507 0.092710 -0.023471 -61812.600000 0 0 1
24.205527 -27.948870 6.255624 37.499063 -0.857050 1.403192 0.094698 -0.025924 31832.400000 0 0 1
25.012427 -27.938670 5.108724 37.845606 -0.840605 1.435394 0.100407 -0.017324 -58892.400000 0 0 1
25.106227 -26.555470 4.401124 36.808770 -0.813443 1.450942 0.102839 -0.017536 231520.000000 0 0 1
25.798327 -25.616370 5.232824 36.730567 -0.781859 1.427845 0.100981 -0.016408 157920.000000 0 0 1
25.612827 -24.315270 4.767924 35.636812 -0.759416 1.436602 0.094807 -0.007317 -264946.000000 0 0 1
26.305727 -23.303370 5.674224 35.598247 -0.724952 1.410717 0.086469 -0.006843 -390066.000000 0 0 1
27.666727 -23.273070 5.292124 36.538886 -0.699359 1.425450 0.099738 -0.013448 196596.000000 0 0 1
28.557127 -22.543570 6.137724 36.897069 -0.668256 1.403672 0.089707 -0.009329 295500.000000 0 0 1
28.323627 -21.033270 6.399124 35.854917 -0.638752 1.391362 0.073496 -0.001025 -618644.000000 0 0 1
28.381027 -20.181070 5.274624 35.221867 -0.618121 1.420477 0.088359 0.009282 202372.000000 0 0 1
28.126727 -18.829170 5.538624 34.297621 -0.589920 1.408599 0.105509 0.006268 -285445.000000 0 0 1
28.081727 -17.843970 4.333324 33.552472 -0.566064 1.441284 0.119203 0.011278 -224185.000000 0 0 1
29.341127 -17.503370 3.834924 34.379883 -0.537877 1.459018 0.130165 0.006193 -184831.000000 0 0 1
29.147427 -16.742070 2.669524 33.719368 -0.521378 1.491545 0.145575 0.015699 370137.000000 0 0 1
30.178927 -15.599670 2.566724 34.069127 -0.477081 1.495386 0.156853 -0.004547 330433.000000 0 0 1
29.767327 -14.612970 3.475024 33.342292 -0.456346 1.466384 0.154239 -0.006034 348398.000000 0 0 1
30.900627 -13.825370 3.756224 34.060224 -0.420701 1.460290 0.178182 -0.014168 163331.000000 0 0 1
30.669927 -12.711370 4.825224 33.548564 -0.392907 1.426468 0.189461 -0.015065 -9570.830000 0 0 1
30.682027 -13.099070 6.147424 33.922901 -0.403504 1.388572 0.171497 -0.015000 31737.600000 0 0 1
30.482027 -12.062070 7.088924 33.539534 -0.376803 1.357830 0.172078 -0.013715 -216407.000000 0 0 1
30.481827 -12.593070 8.596224 34.082580 -0.391777 1.315825 0.178772 -0.008246 -664377.000000 0 0 1
29.294427 -13.243270 8.931524 33.366447 -0.424578 1.299812 0.148342 0.000851 -538862.000000 0 0 1
29.094127 -13.585670 10.307924 33.723760 -0.436865 1.260167 0.160846 -0.006897 85462.700000 0 0 1
29.931227 -14.690770 11.015324 35.114590 -0.456275 1.251713 0.153550 -0.014708 -464987.000000 0 0 1
31.132227 -14.356770 11.616324 36.197671 -0.432091 1.244102 0.124123 -0.015996 -773899.000000 0 0 1
31.454227 -15.482670 12.431424 37.197067 -0.457411 1.230035 0.125705 -0.021750 -69716.600000 0 0 1
32.509827 -15.269570 13.502924 38.371573 -0.439108 1.211197 0.111216 -0.032422 717555.000000 0 0 1
33.878927 -15.058270 13.106624 39.323235 -0.418248 1.230990 0.076771 -0.036029 708689.000000 0 0 1
34.604627 -14.808870 14.284224 40.259432 -0.404362 1.208091 0.052666 -0.034153 -256801.000000 0 0 1
36.116227 -14.694570 13.999724 41.428306 -0.386414 1.226083 0.063322 -0.033453 -233911.000000 0 0 1
36.497327 -13.468670 13.425724 41.154708 -0.353528 1.238488 0.084796 -0.038745 415380.000000 0 0 1
-37.381272 -13.555170 12.969924 41.824886 0.347872 1.255497 0.089212 -0.027781 -3176.740000 0 0 1
-36.974172 -12.260070 12.302524 40.850347 0.320176 1.264887 0.100712 -0.023015 40786.700000 0 0 1
-35.619572 -12.276170 11.858224 39.497794 0.331898 1.265868 0.111495 -0.020287 147486.000000 0 0 1
-34.944872 -11.178470 12.401824 38.728640 0.309602 1.244831 0.108845 -0.016067 133261.000000 0 0 1
-33.567672 -10.914470 11.707424 37.188413 0.314366 1.250536 0.121609 -0.022481 1129340.000000 0 0 1
-32.556272 -11.920570 11.854924 36.640825 0.350992 1.241324 0.107835 -0.015330 538748.000000 0 0 1
-32.708972 -12.871070 10.857624 36.788984 0.374893 1.271202 0.098663 -0.013866 -393388.000000 0 0 1
-31.847772 -14.144570 11.088524 36.569179 0.417962 1.262726 0.081617 -0.017125 67007.800000 0 0 1
-30.471572 -13.919070 10.924124 35.236256 0.428485 1.255577 0.103639 -0.015866 -605761.000000 0 0 1
-29.792472 -15.132170 11.005724 35.180960 0.469963 1.252623 0.102697 -0.016388 -700945.000000 0 0 1
-28.412372 -15.003470 10.378924 33.765205 0.485844 1.258352 0.110629 -0.008613 -607120.000000 0 0 1
-28.496272 -14.855670 9.009824 33.375221 0.480558 1.297450 0.129671 -0.021586 -320523.000000 0 0 1
-27.192672 -14.848970 8.539624 32.138116 0.499817 1.301849 0.110545 -0.013979 -589856.000000 0 0 1
-27.216372 -14.692970 6.986124 31.708362 0.495023 1.348649 0.134533 -0.011346 -49928.600000 0 0 1
-27.763572 -15.788770 6.329624 32.560181 0.517077 1.375153 0.145334 -0.006444 67739.300000 0 0 1
-27.912272 -15.597870 4.905424 32.348906 0.509588 1.418568 0.163838 -0.006240 9347.550000 0 0 1
-28.633172 -16.730270 4.133224 33.419217 0.528793 1.446801 0.154998 -0.008839 -203711.000000 0 0 1
-29.996972 -16.865170 4.400624 34.693195 0.512184 1.443610 0.119361 -0.018476 -368826.000000 0 0 1
-30.618472 -17.920870 3.680424 35.667828 0.529538 1.467426 0.127738 -0.012834 -784172.000000 0 0 1
-32.061472 -18.146670 4.070824 37.064960 0.515041 1.460745 0.149357 -0.018216 -674322.000000 0 0 1
-32.932672 -17.207070 3.435824 37.315534 0.481479 1.478591 0.175346 -0.026879 113602.000000 0 0 1
-34.275672 -17.499070 3.800724 38.671497 0.472043 1.472355 0.166238 -0.022710 308137.000000 0 0 1
-35.254372 -16.449370 3.220524 39.036192 0.436565 1.488201 0.137268 -0.030589 104013.000000 0 0 1
-35.389272 -16.672870 1.826624 39.162760 0.440284 1.524138 0.132555 -0.024574 -220558.000000 0 0 1
-36.162672 -15.669170 1.210024 39.430013 0.408877 1.540104 0.178112 -0.036042 -81730.200000 0 0 1
-36.645172 -16.107970 -0.203576 40.029699 0.414143 1.575882 0.149508 -0.037614 285933.000000 0 0 1
-35.531472 -16.303270 -1.072176 39.107949 0.430181 1.598216 0.160719 -0.033821 613957.000000 0 0 1
-35.848472 -17.231470 -2.082276 39.829291 0.448069 1.623100 0.127593 -0.023699 585591.000000 0 0 1
-34.576272 -17.574870 -2.938276 38.897662 0.470260 1.646407 0.118292 -0.026925 297451.000000 0 0 1
-34.846372 -18.522270 -3.895776 39.655028 0.488561 1.669197 0.110011 -0.030336 -534343.000000 0 0 1
-33.766772 -19.175470 -4.467476 39.087746 0.516467 1.685340 0.120111 -0.022971 -839087.000000 0 0 1
-34.174672 -20.157970 -5.562876 40.064917 0.532924 1.710093 0.119893 -0.027997 -93309.000000 0 0 1
-34.870072 -21.284870 -5.036876 41.162334 0.548035 1.693470 0.106553 -0.029797 -83986.700000 0 0 1
-35.256872 -22.161270 -6.058376 42.081740 0.561160 1.715265 0.102889 -0.029800 -11640.000000 0 0 1
-35.927272 -23.429070 -5.562076 43.250745 0.577868 1.699754 0.087963 -0.026206 -506479.000000 0 0 1
-35.122372 -24.202370 -4.740576 42.916300 0.603364 1.681483 0.093310 -0.025208 -492223.000000 0 0 1
-35.733972 -25.460970 -4.459576 44.102898 0.619076 1.672087 0.070689 -0.010242 709684.000000 0 0 1
-34.684372 -26.545670 -4.006576 43.860357 0.653253 1.662272 0.056831 -0.014338 796840.000000 0 0 1
-33.722872 -26.943570 -5.041276 43.458055 0.674113 1.687061 0.052233 -0.017891 762260.000000 0 0 1
-33.115672 -28.181370 -4.707476 43.737829 0.705073 1.678635 0.053001 -0.018505 784176.000000 0 0 1
-31.908072 -28.135670 -3.667876 42.698880 0.722653 1.656803 0.077662 -0.024517 141270.000000 0 0 1
-32.263372 -27.810170 -2.355276 42.660029 0.711404 1.626035 0.076221 -0.018592 122483.000000 0 0 1
-31.251672 -28.165770 -1.421076 42.095096 0.733509 1.604561 0.092645 -0.015522 199599.000000 0 0 1
-31.795872 -28.040270 0.033224 42.393813 0.722716 1.570013 0.083995 -0.013459 253930.000000 0 0 1
-32.251172 -29.269170 0.654024 43.557436 0.736964 1.555781 0.077603 -0.006880 297443.000000 0 0 1
-33.056872 -28.951170 1.791524 43.978820 0.719282 1.530049 0.084574 -0.006280 74952.000000 0 0 1
-33.637472 -30.217070 2.434824 45.282218 0.731884 1.517000 0.061555 -0.002771 -65270.100000 0 0 1
-34.677372 -30.016970 3.404724 45.990551 0.713485 1.496698 0.049088 -0.006540 438451.000000 0 0 1
-35.295172 -31.131670 3.927524 47.226640 0.722802 1.487537 0.033871 -0.003284 305536.000000 0 0 1
-36.410772 -31.760770 3.012924 48.410418 0.717293 1.508519 0.028795 -0.009070 -262687.000000 0 0 1
-37.009372 -32.893470 3.597924 49.644930 0.726586 1.498260 0.033778 -0.012321 299261.000000 0 0 1
37.253727 -33.336470 2.617324 50.060072 -0.729962 1.518489 0.051803 -0.010104 -650113.000000 0 0 1
36.183927 33.339767 3.112124 49.300121 0.744512 1.507628 0.055067 -0.012644 -657253.000000 0 0 1
35.324727 33.719967 4.184624 49.014116 0.762160 1.485316 0.041177 -0.018408 1033520.000000 0 0 1
34.524227 -32.711270 4.009524 47.728668 -0.758440 1.486691 0.049229 -0.017173 234076.000000 0 0 1
33.414827 -32.677970 2.948724 46.830496 -0.774250 1.507789 0.076303 -0.016591 -150043.000000 0 0 1
34.049727 -32.833270 1.670824 47.330743 -0.767212 1.535488 0.069553 -0.010079 4370.580000 0 0 1
33.089227 -32.944770 0.624924 46.697381 -0.783211 1.557414 0.087643 -0.004941 -282340.000000 0 0 1
33.639227 -33.679370 -0.702176 47.606624 -0.785994 1.585546 0.074795 -0.010339 1174390.000000 0 0 1
34.668927 -33.005670 -1.480476 47.890506 -0.760826 1.601715 0.054780 -0.002212 434422.000000 0 0 1
35.879927 -32.802270 -0.791376 48.620822 -0.740618 1.587074 0.052474 -0.001342 -1019920.000000 0 0 1
37.056527 -32.516470 -1.727676 49.330436 -0.720235 1.605826 0.049776 -0.003016 -522867.000000 0 0 1
37.583427 -33.653370 -2.356676 50.503636 -0.730285 1.617477 0.050372 -0.012384 -9382.060000 0 0 1
-37.006872 -33.229570 -3.526976 49.861333 0.731670 1.641591 0.057124 -0.007934 -331196.000000 0 0 1
-36.287672 33.281967 -4.293476 49.425888 -0.742221 1.657773 0.060234 -0.008507 151388.000000 0 0 1
-35.122572 32.755567 -3.678376 48.166925 -0.750541 1.647238 0.083034 -0.006935 40575.100000 0 0 1
-34.387172 32.053267 -4.676476 47.241496 -0.750285 1.669950 0.107576 -0.013024 242450.000000 0 0 1
-33.175772 31.376167 -3.967676 45.834901 -0.757527 1.657469 0.116282 -0.014448 97111.600000 0 0 1
-31.952472 32.080767 -3.965376 45.451736 -0.787402 1.658151 0.100113 -0.016882 291862.000000 0 0 1
-30.843172 31.295167 -3.505976 44.079254 -0.792672 1.650418 0.106195 -0.021335 929716.000000 0 0 1
-30.493372 31.190367 -1.981376 43.664752 -0.796697 1.616189 0.099460 -0.010415 257361.000000 0 0 1
-31.459672 30.366667 -1.317276 43.744493 -0.767721 1.600914 0.095903 -0.005441 177311.000000 0 0 1
-31.131672 30.154967 0.051224 43.341731 -0.769463 1.569614 0.093293 -0.009275 -148672.000000 0 0 1
-32.310172 29.608867 0.895224 43.834161 -0.741799 1.550372 0.089547 -0.019251 194323.000000 0 0 1
-32.771372 28.284567 0.603024 43.293686 -0.712043 1.556867 0.098258 -0.026724 425210.000000 0 0 1
-33.840972 28.314867 -0.343476 44.125515 -0.696724 1.578580 0.102348 -0.020585 -9470.300000 0 0 1
-34.150172 26.926667 -0.996076 43.500251 -0.667676 1.593696 0.109234 -0.010551 332684.000000 0 0 1
-34.611472 25.882967 -0.068276 43.219054 -0.642101 1.572376 0.111660 -0.022659 172391.000000 0 0 1
-34.853472 24.729267 -0.761776 42.742034 -0.617087 1.588620 0.114988 -0.017427 -218969.000000 0 0 1
-34.873172 23.492167 0.108924 42.047972 -0.592819 1.568206 0.119960 -0.021747 669194.000000 0 0 1
-33.567572 23.110167 0.562024 40.757547 -0.602944 1.557006 0.125146 -0.030025 478647.000000 0 0 1
-33.209672 23.699067 1.761124 40.836622 -0.619808 1.527657 0.116561 -0.028623 -1290060.000000 0 0 1
-31.721972 23.593767 2.061224 39.587852 -0.639500 1.518706 0.105869 -0.037460 -496559.000000 0 0 1
-30.815172 24.275167 1.221824 39.247311 -0.667237 1.539660 0.114941 -0.033169 -127268.000000 0 0 1
-30.734372 25.672767 1.538824 40.075686 -0.695904 1.532389 0.092179 -0.024787 234282.000000 0 0 1
-29.800772 26.436467 0.498924 39.839952 -0.725646 1.558273 0.078588 -0.021724 337211.000000 0 0 1
-28.471872 26.026067 0.424124 38.576982 -0.740549 1.559802 0.086070 -0.019755 -995561.000000 0 0 1
-27.791972 26.803567 -0.483076 38.614224 -0.767296 1.583307 0.078095 -0.015187 1360240.000000 0 0 1
-26.562572 26.203667 -1.353676 37.336776 -0.778596 1.607060 0.078811 -0.013286 1090610.000000 0 0 1
-26.956072 25.351867 -2.415276 37.083427 -0.754739 1.635973 0.104239 -0.023762 350002.000000 0 0 1
-25.882272 24.802367 -3.217376 35.991679 -0.764095 1.660308 0.099354 -0.007728 1491300.000000 0 0 1
-24.906172 23.766467 -2.471676 34.514802 -0.761987 1.642470 0.086469 -0.014713 720404.000000 0 0 1
-25.484672 22.482867 -2.225876 34.057339 -0.722900 1.636200 0.099390 -0.022597 26029.600000 0 0 1
-24.550872 21.594567 -1.620276 32.736768 -0.721421 1.620311 0.099672 -0.038820 -306967.000000 0 0 1
-25.216372 20.285867 -1.120676 32.382677 -0.677462 1.605411 0.116489 -0.046103 103058.000000 0 0 1
-26.124572 20.445567 -0.029376 33.174016 -0.664052 1.571682 0.107318 -0.044512 1302240.000000 0 0 1
-27.453572 20.945867 -0.301076 34.532863 -0.651741 1.579515 0.104625 -0.048891 1508870.000000 0 0 1
-28.424672 20.174367 -1.301876 34.880682 -0.617239 1.608129 0.103629 -0.052715 32044.300000 0 0 1
-29.002972 18.967267 -0.869676 34.665342 -0.579166 1.595887 0.104968 -0.051074 517376.000000 0 0 1
-29.878972 18.432467 -1.889276 35.157904 -0.552757 1.624559 0.113926 -0.049886 380550.000000 0 0 1
-30.135772 16.953667 -1.638776 34.616141 -0.512447 1.618155 0.117632 -0.047669 -287999.000000 0 0 1
-30.908872 16.562867 -0.554676 35.071279 -0.491923 1.586613 0.108832 -0.039315 -67979.800000 0 0 1
-30.996272 15.126767 -0.429876 34.493083 -0.454017 1.583259 0.120875 -0.044488 442246.000000 0 0 1
-29.750972 14.408767 0.211624 33.057188 -0.451019 1.564395 0.166071 -0.038096 111608.000000 0 0 1
-29.612272 14.568667 1.619024 33.041700 -0.457212 1.521777 0.175943 -0.035470 -231744.000000 0 0 1
-28.405072 14.107067 2.166524 31.789170 -0.460955 1.502591 0.204251 -0.039805 -297344.000000 0 0 1
-28.109272 12.585167 2.055624 30.866539 -0.420959 1.504150 0.228127 -0.043661 -368434.000000 0 0 1
-27.621972 12.136967 0.800324 30.181449 -0.414000 1.544276 0.215606 -0.045893 400034.000000 0 0 1
-27.243572 10.771267 0.829924 29.307357 -0.376508 1.542475 0.246719 -0.045042 -146636.000000 0 0 1
-27.311972 10.083667 -0.536676 29.118932 -0.353679 1.589228 0.241511 -0.042671 714216.000000 0 0 1
-28.645272 9.740567 -0.980576 30.271964 -0.327775 1.603194 0.226055 -0.047712 1301590.000000 0 0 1
-28.578072 9.132967 -2.241776 30.085592 -0.309321 1.645379 0.243909 -0.049043 94039.900000 0 0 1
-29.965872 8.632367 -2.688976 31.300189 -0.280479 1.656812 0.225798 -0.053901 36972.200000 0 0 1
-29.777272 7.906767 -3.878576 31.052315 -0.259541 1.696028 0.245417 -0.048831 -301796.000000 0 0 1
-30.985372 7.715767 -4.534476 32.251943 -0.244050 1.711859 0.214702 -0.050923 -675502.000000 0 0 1
-11.225773 18.288967 -20.438576 29.635109 -1.020291 2.331836 0.119482 -0.015730 381990.000000 0 0 1
-11.720773 17.136467 -21.083576 29.589731 -0.970912 2.363894 0.126051 -0.034557 -382638.000000 0 0 1
-10.631673 16.447667 -21.616376 29.168921 -0.996960 2.405467 0.122577 -0.045516 -394875.000000 0 0 1
-10.997473 15.218567 -22.490176 29.297734 -0.945040 2.445950 0.111151 -0.035455 995423.000000 0 0 1
-9.932673 14.220867 -22.328476 28.274580 -0.961106 2.481118 0.120068 -0.050364 1060110.000000 0 0 1
-10.053973 13.174767 -23.202376 28.513280 -0.918949 2.521353 0.102845 -0.045061 -86005.400000 0 0 1
-9.078373 12.091067 -22.678776 27.256882 -0.926762 2.553569 0.088967 -0.038568 197633.000000 0 0 1
-7.704773 12.362467 -22.914776 27.152920 -1.013464 2.575337 0.061173 -0.036200 -333325.000000 0 0 1
-6.965873 11.462567 -22.166676 25.908982 -1.024730 2.597427 0.054820 -0.029139 -471968.000000 0 0 1
-5.445673 11.603767 -22.320076 25.738853 -1.132007 2.620297 0.041649 -0.021072 -145314.000000 0 0 1
-5.023873 11.281867 -23.648676 26.679200 -1.151854 2.660325 0.029595 -0.025891 -670825.000000 0 0 1
-3.635773 11.313767 -23.764076 26.569747 -1.259862 2.677892 0.023827 -0.019676 -604865.000000 0 0 1
-3.049273 10.871367 -25.106036 27.528126 -1.297336 2.718964 0.051770 -0.030621 -267211.000000 0 0 1
-3.166173 9.457867 -25.425766 27.312002 -1.247757 2.767768 0.052804 -0.033605 76184.200000 0 0 1
-2.541673 9.284867 -26.688346 28.371406 -1.303599 2.795418 0.056780 -0.033875 -58677.100000 0 0 1
-2.223573 7.758867 -26.996776 28.177477 -1.291692 2.851082 0.055805 -0.008829 472887.000000 0 0 1
-1.126973 7.096767 -26.373276 27.334664 -1.413310 2.875588 0.056536 -0.019879 293773.000000 0 0 1
-1.356173 6.989567 -24.961176 25.956763 -1.379149 2.863732 0.061290 -0.037197 -101602.000000 0 0 1
-0.584473 5.879167 -24.197076 24.907924 -1.471708 2.902111 -0.007472 -0.016153 -1358130.000000 0 1 0
0.790327 6.009467 -24.205776 24.953114 1.440033 2.896234 0.032604 -0.006001 -1039380.000000 0 1 0
1.446427 5.306267 -23.193876 23.837040 1.304674 2.908767 0.021764 -0.009915 -103634.000000 0 1 0
1.500727 6.002367 -21.779876 22.641634 1.325796 2.864809 0.024647 -0.018157 -250885.000000 0 1 0
2.253627 7.197267 -21.885676 23.148700 1.267344 2.809735 0.022501 -0.011978 98471.200000 0 1 0
2.198527 7.970867 -20.673976 22.266152 1.301668 2.761131 0.038471 -0.016417 147014.000000 0 1 0
2.888027 9.373067 -20.758976 22.959315 1.271907 2.700214 0.038657 -0.021664 -70097.700000 0 1 0
2.727627 10.102467 -19.546876 22.171607 1.307088 2.650075 0.049374 -0.028873 29833.400000 0 1 0
3.164127 11.456567 -19.667376 22.979780 1.301329 2.597999 0.055834 -0.027673 650016.000000 0 1 0
4.475927 11.742867 -18.832676 22.640639 1.206635 2.553154 0.076038 -0.026816 753036.000000 0 1 0
5.583727 11.005967 -19.300376 22.908815 1.101297 2.572679 0.085904 -0.023898 -516153.000000 0 1 0
6.536127 10.869967 -18.265076 22.237134 1.029420 2.534618 0.089400 -0.020462 221388.000000 0 1 0
7.670327 9.867567 -18.648676 22.449408 0.910034 2.551156 0.131467 -0.032883 109115.000000 0 1 0
7.337527 8.514767 -18.901176 21.990794 0.859525 2.605095 0.112215 -0.023321 -227953.000000 0 1 0
6.691027 8.386267 -20.132476 22.812626 0.897365 2.651979 0.085915 -0.011748 -175130.000000 0 1 0
6.519227 6.869967 -20.480276 22.564097 0.811588 2.708444 0.096048 -0.014980 937908.000000 0 1 0
7.774227 6.227867 -20.791276 23.054329 0.675406 2.694802 0.096242 -0.011602 1067780.000000 0 1 0
7.511527 4.860467 -20.780876 22.625030 0.574311 2.735043 0.080976 -0.016090 -110610.000000 0 1 0
7.436827 4.360367 -22.269076 23.879509 0.530301 2.772237 0.102590 -0.029655 -6076.400000 0 1 0
6.255427 4.804067 -22.914776 24.234199 0.654912 2.810093 0.093833 -0.028008 -68277.500000 0 1 0
6.308227 4.674067 -24.301776 25.538538 0.637683 2.829108 0.097645 -0.031181 614539.000000 0 0 1
5.076227 5.359467 -25.017976 26.084307 0.812533 2.854672 0.074095 -0.026269 730654.000000 0 0 1
5.125027 6.806567 -25.109336 26.515543 0.925408 2.814457 0.099172 -0.035238 -13460.400000 0 0 1
4.790627 7.546567 -23.929076 25.544108 1.005175 2.784093 0.091115 -0.041424 -878750.000000 0 0 1
4.574827 9.076867 -24.137476 26.190386 1.103946 2.743020 0.102598 -0.045453 -198946.000000 0 0 1
3.532927 9.515367 -24.957676 26.942705 1.215285 2.755331 0.111224 -0.044717 -264206.000000 0 0 1
2.257527 9.347467 -24.366076 26.194985 1.333822 2.765702 0.071389 -0.037804 151889.000000 0 0 1
1.156827 10.016067 -25.318416 27.252193 1.455809 2.762610 0.064033 -0.020864 460315.000000 0 0 1
1.358727 11.410967 -25.418466 27.895425 1.452282 2.716997 0.098582 -0.044625 -34245.700000 0 0 1
0.535427 11.986867 -26.392886 28.992345 1.526158 2.714901 0.101061 -0.043364 -176665.000000 0 0 1
0.631027 13.582467 -26.548786 29.828169 1.524371 2.668268 0.094012 -0.048387 -292884.000000 0 0 1
0.126827 14.140167 -25.358806 29.034969 1.561827 2.632913 0.085027 -0.045610 100093.000000 0 0 1
-0.110573 15.556567 -25.401066 29.786459 -1.563689 2.592067 0.083673 -0.056369 -339837.000000 0 0 1
-0.789473 16.144067 -24.176976 29.082303 -1.521934 2.552292 0.093968 -0.047184 966561.000000 0 0 1
-2.079373 15.516167 -23.941176 28.605159 -1.437577 2.562488 0.083203 -0.042115 826143.000000 0 0 1
-2.420273 15.606867 -22.555276 27.534932 -1.416944 2.530726 0.081920 -0.053703 -34266.700000 0 0 1
-3.677173 14.812067 -22.081676 26.842491 -1.327460 2.536833 0.073607 -0.042618 1004300.000000 0 0 1
-4.972573 15.200567 -22.536576 27.634778 -1.254638 2.524415 0.078790 -0.046644 365714.000000 0 0 1
-5.212273 14.882167 -23.880876 28.617179 -1.233911 2.558011 0.067107 -0.045479 -693913.000000 0 0 1
-6.694973 15.061667 -24.243876 29.316241 -1.152522 2.544507 0.050686 -0.039788 -71461.800000 0 0 1
-7.153073 16.393767 -24.399376 30.253125 -1.159369 2.509017 0.054551 -0.037602 262548.000000 0 0 1
-8.461073 16.344667 -24.975176 31.024141 -1.093116 2.506512 0.065443 -0.035054 387529.000000 0 0 1
-9.170573 17.680467 -25.308136 32.205591 -1.092314 2.474834 0.073089 -0.030842 -81660.200000 0 0 1
-9.787873 18.296967 -24.216476 31.890738 -1.079585 2.433122 0.084029 -0.034237 -747525.000000 0 0 1
-10.888173 18.980567 -24.706176 33.003172 -1.049978 2.416744 0.093658 -0.020663 -200118.000000 0 0 1
-11.618673 19.945867 -23.753476 33.121878 -1.043336 2.370506 0.101174 -0.027291 484345.000000 0 0 1
-10.767873 21.039567 -23.386076 33.249346 -1.097760 2.350902 0.101284 -0.030177 291800.000000 0 0 1
-11.359473 22.240667 -23.860976 34.540282 -1.098584 2.333413 0.107763 -0.035719 104928.000000 0 0 1
-10.862273 22.907567 -25.149296 35.710400 -1.128019 2.352172 0.091042 -0.021027 -230411.000000 0 0 1
-11.485673 22.290367 -26.254566 36.305418 -1.095003 2.379161 0.092746 -0.019120 153858.000000 0 0 1
-11.241173 22.953567 -27.480856 37.529024 -1.115394 2.392425 0.085843 -0.012758 -272898.000000 0 0 1
-11.733273 22.115567 -28.679736 38.069611 -1.083013 2.423938 0.076335 -0.017173 101020.000000 0 0 1
-10.854873 21.136567 -29.212966 37.656077 -1.096360 2.458752 0.053790 -0.021275 -25301.600000 0 0 1
-10.505073 20.139667 -28.288636 36.279604 -1.090010 2.465046 0.056835 -0.021340 211830.000000 0 0 1
-9.636273 18.992267 -28.915586 35.912046 -1.101263 2.506772 0.060270 -0.027139 352234.000000 0 0 1
-8.328273 19.397767 -29.323686 36.131870 -1.165254 2.517637 0.048534 -0.026711 86086.000000 0 0 1
-7.523973 18.441267 -29.908236 35.933175 -1.183415 2.554093 0.046133 -0.021945 119281.000000 0 0 1
-7.016773 17.226567 -29.058846 34.502264 -1.183993 2.572203 0.054021 -0.033575 152510.000000 0 0 1
-8.147673 16.373967 -28.756826 34.080000 -1.109071 2.575128 0.062358 -0.030435 777196.000000 0 0 1
-7.794773 15.089767 -28.280376 32.988471 -1.093988 2.600761 0.045111 -0.029887 -181511.000000 0 0 1
-9.092473 14.302967 -28.092886 32.809422 -1.004536 2.598751 0.066099 -0.019675 124167.000000 0 0 1
-10.002973 14.784967 -27.096516 32.448049 -0.975973 2.559063 0.075792 -0.031419 620747.000000 0 0 1
-11.170873 13.930667 -27.170546 32.512927 -0.894904 2.560174 0.115254 -0.030290 437416.000000 0 0 1
-12.306873 14.330967 -26.241486 32.333440 -0.861238 2.517664 0.105416 -0.027252 -252965.000000 0 0 1
-12.898473 15.559967 -26.607926 33.413544 -0.878649 2.491986 0.090934 -0.028279 -389066.000000 0 0 1
-13.868773 15.886767 -25.635706 33.195205 -0.853114 2.453205 0.110462 -0.032421 -128863.000000 0 0 1
-14.757773 17.100867 -25.913526 34.376480 -0.858813 2.424646 0.096744 -0.027831 -168935.000000 0 0 1
-14.239773 18.404867 -26.105066 34.971199 -0.912301 2.413543 0.098364 -0.024176 -268844.000000 0 0 1
-15.288573 19.339067 -26.038866 35.857531 -0.901842 2.383539 0.089126 -0.016709 -48589.800000 0 0 1
-14.711873 20.737567 -26.129506 36.458702 -0.953769 2.369838 0.085265 -0.016468 710117.000000 0 0 1
-15.713673 21.698867 -26.573556 37.734788 -0.944032 2.352119 0.062427 -0.011398 875613.000000 0 0 1
-15.192173 23.013967 -26.742226 38.413428 -0.987334 2.340843 0.065069 -0.010828 34565.300000 0 0 1
-14.732873 23.793367 -25.446496 37.824675 -1.016378 2.308714 0.059379 -0.018981 19419.700000 0 0 1
-14.392173 25.106367 -25.741436 38.730942 -1.050280 2.297784 0.074629 -0.027236 -12964.700000 0 0 1
-14.154273 25.840467 -24.553276 38.352791 -1.069678 2.265549 0.088662 -0.035469 248317.000000 0 0 1
-13.780773 27.357867 -24.633976 39.308973 -1.104175 2.248076 0.103560 -0.033168 125420.000000 0 0 1
-14.923773 28.037667 -25.116286 40.492686 -1.081663 2.239880 0.115805 -0.035144 192526.000000 0 0 1
-15.511573 28.775467 -24.031976 40.573049 -1.076395 2.204724 0.117568 -0.034473 -612136.000000 0 0 1
-16.712573 29.577967 -24.480776 41.874510 -1.056484 2.195211 0.101948 -0.035999 -1019940.000000 0 0 1
-17.822073 28.786267 -24.705276 41.912124 -1.016439 2.201179 0.091790 -0.024890 -1039100.000000 0 0 1
-18.958573 29.588767 -25.009376 43.132256 -1.000962 2.189316 0.082961 -0.031124 -391998.000000 0 0 1
-20.104873 28.624867 -25.196576 43.109818 -0.958490 2.195028 0.074156 0.001198 -646838.000000 0 0 1
-20.639973 28.033667 -23.971576 42.267380 -0.936149 2.173827 0.072135 -0.005135 314064.000000 0 0 1
-21.598973 27.023967 -24.258876 42.252852 -0.896511 2.182345 0.056916 -0.021252 -21841.900000 0 0 1
-22.214073 26.310867 -23.060376 41.442825 -0.869625 2.160889 0.053535 -0.019656 64793.300000 0 0 1
-23.002273 27.289367 -22.352876 42.112530 -0.870437 2.130328 0.061628 -0.015602 32448.200000 0 0 1
-23.322573 26.791867 -21.072676 41.301383 -0.854515 2.106234 0.050286 -0.010429 -581709.000000 0 0 1
-24.347073 27.692167 -20.347276 42.114697 -0.849590 2.075033 0.034281 -0.011653 -140834.000000 0 0 1
-25.651853 27.260367 -20.668076 42.758795 -0.815788 2.075290 0.078282 -0.025614 -74488.300000 0 0 1
-26.647663 28.223467 -20.404876 43.852263 -0.814109 2.054781 0.072860 -0.028770 692822.000000 0 0 1
-28.116293 27.708467 -20.538176 44.498334 -0.778093 2.050537 0.071561 -0.024190 451883.000000 0 0 1
-28.473213 27.425767 -21.887776 45.188177 -0.766662 2.076439 0.077577 -0.023470 -312329.000000 0 0 1
-29.831313 27.068067 -21.911576 45.855258 -0.736873 2.068993 0.081375 -0.014259 -218096.000000 0 0 1
-30.348563 26.910267 -23.342376 46.798122 -0.725422 2.092997 0.076877 -0.016795 -36887.300000 0 0 1
-30.102173 25.571367 -23.777976 46.102362 -0.704195 2.112696 0.093634 -0.013698 33193.400000 0 0 1
-30.415193 25.598367 -25.154846 47.043880 -0.699615 2.134961 0.089596 -0.002215 -272997.000000 0 0 1
-30.747983 24.235367 -25.724036 46.845678 -0.667500 2.152111 0.075969 -0.005854 -188091.000000 0 0 1
-29.624203 23.372767 -25.695986 45.652638 -0.667982 2.168637 0.109951 -0.023430 188971.000000 0 0 1
-29.988013 22.086967 -26.157156 45.511667 -0.634822 2.183077 0.083493 -0.010612 550871.000000 0 0 1
-28.880533 20.946467 -26.007646 44.150168 -0.627492 2.200707 0.096792 -0.008477 678687.000000 0 0 1
-28.502653 20.662967 -24.646576 42.974564 -0.627275 2.181587 0.091324 -0.002945 343935.000000 0 0 1
-27.757243 19.427067 -24.523576 41.824410 -0.610653 2.197337 0.103703 -0.007226 2212.390000 0 0 1
-28.541873 18.109767 -24.431676 41.707421 -0.565400 2.196647 0.099174 -0.003723 -146759.000000 0 0 1
-29.207203 17.764067 -25.646636 42.736082 -0.546433 2.214443 0.092717 -0.002060 197858.000000 0 0 1
-29.832003 16.506167 -25.526066 42.590868 -0.505376 2.213463 0.067196 0.004381 -112029.000000 0 0 1
-30.557853 16.056867 -26.810686 43.708332 -0.483806 2.231155 0.037407 0.005554 332832.000000 0 0 1
-31.837043 16.651967 -26.987526 44.935641 -0.481907 2.215025 0.018769 0.007954 172402.000000 0 0 1
-32.564323 15.968067 -27.967096 45.799266 -0.455902 2.227671 0.011608 0.013693 -225609.000000 0 0 1
-33.891043 16.613967 -28.385466 47.226702 -0.455791 2.215607 -0.000077 0.008115 189652.000000 0 0 1
-34.953982 16.396867 -27.438816 47.365882 -0.438622 2.188660 -0.013001 0.009621 -49806.100000 0 0 1
-36.151843 16.715967 -28.076556 48.730610 -0.433103 2.184817 0.001439 0.005510 -310933.000000 0 0 1
-37.455243 16.370067 -27.309546 49.159797 -0.412038 2.159792 0.019691 0.007877 204747.000000 0 0 1
37.409756 17.429867 -26.412216 48.998931 0.436012 2.140089 0.038774 -0.000678 -122700.000000 0 0 1
36.287996 17.053467 -25.665546 47.606298 0.439318 2.140189 0.048371 -0.004588 -190494.000000 0 0 1
35.777526 18.065067 -24.594476 47.024103 0.467582 2.121185 0.064323 -0.001451 61475.500000 0 0 1
35.206606 19.245367 -25.166086 47.362656 0.500261 2.130988 0.072113 -0.016135 426953.000000 0 0 1
34.592606 20.148767 -24.239576 46.799340 0.527422 2.115245 0.102559 -0.015681 50225.300000 0 0 1
33.814036 21.292867 -24.935176 47.101361 0.561976 2.128682 0.113061 -0.030211 144012.000000 0 0 1
32.637466 20.831767 -25.570946 46.400862 0.568090 2.154464 0.119864 -0.034618 -121381.000000 0 0 1
31.579966 21.753267 -25.414916 46.004531 0.603191 2.156089 0.128600 -0.028602 98767.300000 0 0 1
30.379276 21.369167 -26.313776 45.518749 0.613013 2.187178 0.096393 -0.029587 130270.000000 0 0 1
29.598426 20.286667 -25.797946 44.194453 0.600858 2.194120 0.123289 -0.046014 92235.100000 0 0 1
28.623226 19.962067 -26.778216 43.986885 0.608984 2.225315 0.125939 -0.047206 -179558.000000 0 0 1
28.103626 18.513167 -26.605376 42.899851 0.582499 2.239761 0.140524 -0.036117 -107437.000000 0 0 1
28.921126 17.434967 -27.024306 43.251852 0.542509 2.245688 0.140769 -0.042620 -292995.000000 0 0 1
29.943726 17.062667 -26.133066 43.251572 0.517936 2.219571 0.133543 -0.032516 -1051800.000000 0 0 1
31.090206 16.465567 -26.892466 44.282282 0.487051 2.223449 0.113178 -0.022977 -1099420.000000 0 0 1
30.892726 15.303267 -27.741606 44.250957 0.459935 2.248384 0.129545 -0.037034 43553.300000 0 0 1
30.335756 14.055167 -27.281336 43.151791 0.433876 2.255209 0.134597 -0.033693 -550392.000000 0 0 1
31.071936 13.301067 -26.227906 42.781849 0.404471 2.230726 0.125125 -0.030218 -681148.000000 0 0 1
31.188476 14.002367 -25.001576 42.354057 0.421988 2.202226 0.120907 -0.029279 232168.000000 0 0 1
31.554116 13.059867 -23.974976 41.725554 0.392421 2.182896 0.094999 -0.023791 -23986.800000 0 0 1
-14.981373 -30.895270 -23.169576 41.422078 1.119295 2.164402 0.132536 -0.015450 -140661.000000 0 0 1
-14.217573 -29.930170 -23.823176 40.810516 1.127328 2.194137 0.113374 -0.035216 -303207.000000 0 0 1
-14.671473 -29.702570 -25.142596 41.589000 1.112003 2.219996 0.080916 -0.022488 -78723.700000 0 0 1
-14.083173 -28.414870 -25.754006 40.853512 1.110653 2.252863 0.093372 -0.026691 -309523.000000 0 0 1
-14.639873 -27.185070 -25.353766 39.952064 1.076805 2.258293 0.092838 -0.018682 -223863.000000 0 0 1
-14.245273 -26.115170 -26.132046 39.595628 1.071431 2.291579 0.095160 -0.012570 -303643.000000 0 0 1
-14.847873 -24.759970 -25.634846 38.609077 1.030618 2.296897 0.050093 0.002677 121024.000000 0 0 1
-14.203873 -24.328270 -24.434076 37.291270 1.042342 2.285273 0.098354 -0.012528 181948.000000 0 0 1
-14.773173 -23.147670 -23.996476 36.467686 1.002751 2.288983 0.058919 -0.012152 -287024.000000 0 0 1
-14.201273 -22.677970 -22.607176 35.029286 1.011324 2.272316 0.097607 -0.012876 -752005.000000 0 0 1
-12.870673 -22.340170 -22.769276 34.397345 1.048119 2.294212 0.145231 -0.024784 -1227970.000000 0 0 1
-12.454473 -21.538470 -21.706776 33.018233 1.046528 2.288183 0.117794 -0.021273 -127962.000000 0 0 1
-10.934473 -21.326870 -21.751676 32.365622 1.097033 2.307785 0.152944 -0.029597 -171715.000000 0 0 1
-10.518773 -20.520370 -22.844976 32.459561 1.097118 2.351526 0.196532 -0.037992 -410230.000000 0 0 1
-9.130073 -20.376370 -22.946176 32.016897 1.149547 2.369840 0.233071 -0.042008 -355146.000000 0 0 1
-8.769973 -19.180370 -23.840176 31.830065 1.141941 2.417322 0.277532 -0.039747 -287246.000000 0 0 1
-9.064973 -17.990370 -23.176876 30.708219 1.104050 2.426062 0.200513 -0.037646 -43900.500000 0 0 1
-8.993573 -16.762770 -23.944076 30.580935 1.078361 2.470229 0.194585 -0.041996 -458415.000000 0 0 1
-7.581873 -16.267070 -24.277076 30.190707 1.134645 2.504997 0.221434 -0.048540 -282954.000000 0 0 1
-7.195173 -16.846470 -25.521086 31.414963 1.167146 2.519029 0.222363 -0.052651 20538.800000 0 0 1
-5.894473 -16.451470 -25.931106 31.270081 1.226751 2.548583 0.201395 -0.052848 400471.000000 0 0 1
-5.376673 -17.321670 -27.146666 32.647976 1.269824 2.552592 0.201217 -0.036665 155865.000000 0 0 1
-5.971373 -16.888770 -28.360156 33.543797 1.230944 2.578234 0.231040 -0.044256 5057.960000 0 0 1
-5.539673 -17.618970 -29.467166 34.776860 1.266168 2.581717 0.213935 -0.050861 -311236.000000 0 0 1
-6.200173 -17.142070 -30.791276 35.782613 1.223742 2.607065 0.209276 -0.051997 -58483.200000 0 0 1
-5.828573 -15.921370 -31.431676 35.712918 1.219864 2.646913 0.179764 -0.045553 -149452.000000 0 0 1
-6.354973 -14.715170 -30.883976 34.795717 1.163125 2.662861 0.164110 -0.039596 161363.000000 0 0 1
-7.412173 -14.058770 -31.806826 35.556483 1.085605 2.678205 0.154971 -0.041447 -85104.700000 0 0 1
-6.828473 -13.766870 -33.011446 36.413052 1.110348 2.705912 0.159331 -0.051896 -185019.000000 0 0 1
-7.543773 -12.887770 33.789115 36.941947 1.041223 0.416144 0.154028 -0.044922 -192585.000000 0 0 1
-7.755673 -11.414170 -33.405666 36.143772 0.973977 2.749847 0.128184 -0.039872 674192.000000 0 0 1
-6.612773 -10.537170 -33.435516 35.674843 1.010354 2.785395 0.117107 -0.041529 435448.000000 0 0 1
-6.270373 -10.188070 32.900716 35.008163 1.019085 0.348748 0.094841 -0.045289 -467084.000000 0 0 1
-5.228873 -9.093770 32.899651 34.531505 1.048966 0.308655 0.090865 -0.042990 -686469.000000 0 0 1
-4.999973 -8.621370 31.588275 33.123208 1.045249 0.305622 0.084794 -0.033393 -174744.000000 0 0 1
-4.076373 -7.554670 31.535495 32.682982 1.075986 0.265771 0.080658 -0.040781 -853018.000000 0 0 1
-4.473273 -6.406470 30.558435 31.541576 0.961251 0.250332 0.076905 -0.031141 -642172.000000 0 0 1
-5.645773 -5.746270 30.818145 31.853610 0.794220 0.255674 0.049766 -0.026759 -1011880.000000 0 0 1
-6.792373 -6.469370 30.430955 31.843871 0.761047 0.299006 0.072264 -0.027210 -73312.900000 0 0 1
-8.115173 -5.605470 30.446135 32.003820 0.604484 0.313279 0.062920 -0.021019 949096.000000 0 0 1
-9.258273 -6.314470 29.961265 31.988522 0.598567 0.357926 0.067644 -0.010180 -941069.000000 0 0 1
-10.290673 -5.410670 29.894555 32.075812 0.484061 0.370913 0.064743 -0.011067 -912184.000000 0 0 1
-11.364373 -5.922370 28.929585 31.640865 0.480412 0.416993 0.067493 -0.004975 -248734.000000 0 0 1
-10.807773 -5.926370 27.653845 30.276476 0.501570 0.419292 0.060562 -0.007824 740733.000000 0 0 1
-11.741173 -6.533270 26.761975 29.945652 0.507775 0.465305 0.068432 -0.013793 350825.000000 0 0 1
-11.287773 -6.240770 25.346505 28.439521 0.505051 0.470719 0.051336 -0.012262 287982.000000 0 0 1
-10.224173 -7.068470 24.891845 27.822670 0.604896 0.463126 0.050175 -0.004175 331348.000000 0 0 1
-9.609273 -6.752770 23.636655 26.393740 0.612559 0.461153 0.043453 -0.011467 -18037.800000 0 0 1
-10.467373 -6.920870 22.331685 25.615786 0.584198 0.511944 0.053324 -0.011314 -264315.000000 0 0 1
-11.477973 -5.965970 22.329485 25.805863 0.479343 0.525073 0.038639 -0.008614 -759034.000000 0 0 1
-12.173773 -5.928770 21.125285 25.092404 0.453203 0.570003 0.040191 -0.012369 121162.000000 0 0 1
-13.280573 -4.818170 21.129785 25.417636 0.348031 0.589346 0.046321 -0.009697 587682.000000 0 0 1
-12.766673 -3.497670 20.972785 24.800793 0.267407 0.563015 0.031655 -0.003792 -15838.700000 0 1 0
-13.875973 -2.624470 20.960685 25.274113 0.186930 0.592881 0.056636 -0.005393 201213.000000 0 0 1
-13.689373 -1.168470 20.459385 24.644486 0.085150 0.591364 0.040504 -0.003602 74055.000000 0 1 0
-12.882973 -0.176470 21.141685 24.758291 0.013697 0.547318 0.045862 0.002790 149526.000000 0 1 0
-12.993873 1.164530 20.746685 24.507587 -0.089383 0.561342 0.053280 -0.012322 -183277.000000 0 1 0
-12.449873 1.471530 19.289285 23.005244 -0.117651 0.576321 0.044263 -0.019321 -179227.000000 0 1 0
-13.183373 1.007530 18.215285 22.508066 -0.076276 0.627874 0.056990 -0.016993 -80627.400000 0 1 0
-14.484373 1.590530 18.092185 23.230454 -0.109372 0.678025 0.071081 -0.020838 12448.700000 0 1 0
-15.479973 0.728530 17.362685 23.272799 -0.047028 0.728685 0.083637 -0.017633 -494396.000000 0 1 0
-15.841773 -0.457470 18.065285 24.031762 0.028869 0.720122 0.082832 -0.012632 341085.000000 0 1 0
-16.671773 -1.370470 17.360685 24.108496 0.082019 0.766841 0.098276 -0.012838 38610.900000 0 1 0
-16.669973 -2.841270 17.919085 24.638475 0.168820 0.756445 0.084610 -0.003914 -24419.800000 0 1 0
-17.441273 -2.997070 19.107185 26.043521 0.170176 0.747098 0.115321 -0.013722 229664.000000 0 0 1
-17.589473 -4.378470 19.408185 26.556322 0.243967 0.751258 0.133320 -0.019119 -214330.000000 0 0 1
-18.487173 -4.674270 20.594085 28.066719 0.247648 0.746964 0.137134 -0.014889 -380203.000000 0 0 1
-17.924573 -4.164970 21.794185 28.524092 0.228310 0.701210 0.122687 -0.009711 362498.000000 0 0 1
-18.650273 -4.408670 23.031405 29.961887 0.232125 0.694006 0.117425 -0.016169 -446627.000000 0 0 1
-18.888173 -5.883170 23.488575 30.709737 0.301950 0.699976 0.122662 -0.013536 326630.000000 0 0 1
-17.735573 -6.538270 24.026145 30.570495 0.353195 0.666604 0.084847 -0.024076 703958.000000 0 0 1
-16.738373 -6.845170 23.036525 29.286703 0.388199 0.665535 0.095594 -0.021266 198457.000000 0 0 1
-15.463873 -7.465770 23.680345 29.251117 0.449783 0.627405 0.100272 -0.017037 233085.000000 0 0 1
-15.593473 -8.870870 23.933125 29.910587 0.517225 0.643242 0.102509 -0.025850 -153663.000000 0 0 1
-15.313073 -9.142170 25.277925 30.936111 0.538223 0.614432 0.102212 -0.019114 -187992.000000 0 0 1
-16.337973 -9.947170 26.078125 32.341060 0.546892 0.632846 0.082241 -0.021341 -546475.000000 0 0 1
-16.375373 -11.335370 25.878145 32.654584 0.605486 0.655930 0.088798 -0.028076 -46848.600000 0 0 1
-15.422273 -12.028170 26.672505 33.074853 0.662378 0.632709 0.079787 -0.023798 226482.000000 0 0 1
-15.500573 -13.502270 26.340265 33.412402 0.716607 0.662693 0.069998 -0.026175 -148963.000000 0 0 1
-16.645073 -14.109570 26.880065 34.621905 0.703141 0.681880 0.071839 -0.028053 -125750.000000 0 0 1
-16.790573 -15.500870 26.625015 35.086917 0.745480 0.709281 0.093642 -0.026778 20677.300000 0 0 1
-15.817773 -16.418270 27.422915 35.661994 0.804024 0.693572 0.086059 -0.028726 -18713.300000 0 0 1
-14.547273 -16.563470 26.858775 34.747165 0.850115 0.687275 0.110765 -0.038987 -428293.000000 0 0 1
-13.608573 -17.097270 27.726675 35.302669 0.898530 0.667456 0.128491 -0.037592 -660445.000000 0 0 1
-12.294073 -17.477870 27.050025 34.472076 0.957787 0.668594 0.127619 -0.047399 -958338.000000 0 0 1
-11.302173 -17.822370 27.973175 35.041041 1.005640 0.646333 0.149389 -0.052918 -586975.000000 0 0 1
-10.171573 -18.151670 27.194055 34.241213 1.060030 0.653122 0.138441 -0.047101 255599.000000 0 0 1
-8.955673 -18.570170 28.094135 34.847320 1.121440 0.633084 0.152433 -0.051014 404008.000000 0 0 1
-9.352773 -19.733770 28.843315 36.177795 1.128207 0.648045 0.145843 -0.047343 225287.000000 0 0 1
-8.229973 -20.384570 29.405955 36.714757 1.187074 0.641949 0.159569 -0.049223 55142.300000 0 0 1
-8.564973 -21.702370 30.100995 38.084400 1.194905 0.659374 0.123263 -0.038166 130017.000000 0 0 1
-8.579773 -22.773970 29.183925 37.999575 1.210505 0.695074 0.129137 -0.037611 -16744.500000 0 0 1
-8.686273 -23.984870 29.849115 39.264424 1.223333 0.707164 0.110722 -0.036766 -26258.800000 0 0 1
-8.964173 -25.198370 28.886325 39.366662 1.229013 0.746933 0.120173 -0.027576 752909.000000 0 0 1
-10.289073 -25.334170 28.332855 39.375575 1.185013 0.767636 0.109812 -0.032045 866605.000000 0 0 1
-10.372673 -26.621770 27.698845 39.793681 1.199260 0.800899 0.112821 -0.032137 233737.000000 0 0 1
-11.716973 -27.072470 27.016595 40.001282 1.162337 0.829299 0.110778 -0.037135 407949.000000 0 0 1
-12.059473 -26.434470 25.798635 38.855909 1.142796 0.844699 0.128375 -0.045375 185828.000000 0 0 1
-12.555073 -25.121870 25.897755 38.202512 1.107335 0.825884 0.118251 -0.036824 -601178.000000 0 0 1
-12.686473 -24.396670 24.554545 36.865564 1.091270 0.841887 0.128486 -0.051688 -254080.000000 0 0 1
-13.809573 -24.738870 23.791135 36.996407 1.061669 0.872301 0.124842 -0.049823 6778.210000 0 0 1
-13.788673 -23.986070 22.579985 35.711550 1.049066 0.886293 0.125833 -0.052140 585908.000000 0 0 1
-15.111773 -24.163570 21.749885 35.851099 1.011913 0.918928 0.120881 -0.048532 308685.000000 0 0 1
-15.427273 -25.380370 21.142285 36.457649 1.024630 0.952174 0.125604 -0.050367 396418.000000 0 0 1
-16.505173 -25.158670 20.230385 36.258074 0.990185 0.978876 0.121490 -0.045450 196931.000000 0 0 1
-17.065173 -26.466470 19.608285 37.096887 0.998096 1.013882 0.106048 -0.037114 35610.200000 0 0 1
-16.132473 -27.032870 18.736185 36.634375 1.032753 1.033940 0.095692 -0.039685 163877.000000 0 0 1
-16.424573 -28.415970 18.626685 37.738407 1.046707 1.054602 0.094252 -0.038214 144289.000000 0 0 1
-15.388673 -28.987870 17.655485 37.266930 1.082762 1.077244 0.096347 -0.043836 112494.000000 0 0 1
-15.677673 -28.567870 16.289985 36.431803 1.068885 1.107235 0.092319 -0.046992 -447537.000000 0 0 1
-14.566873 -28.832570 15.515285 35.836224 1.102979 1.123034 0.082014 -0.046118 -769808.000000 0 0 1
-14.712373 -28.262070 14.082885 34.835703 1.090829 1.154620 0.074795 -0.043077 -97352.000000 0 0 1
-14.666073 -26.847170 13.984585 33.636779 1.070814 1.142026 0.071194 -0.040346 -148215.000000 0 0 1
-14.804173 -26.251270 12.713385 32.709676 1.057313 1.171605 0.073203 -0.048102 240727.000000 0 0 1
-13.814973 -26.617070 11.561185 32.140052 1.092043 1.202836 0.064669 -0.033201 342554.000000 0 0 1
-14.164873 -25.962570 10.386385 31.346063 1.071347 1.233067 0.053708 -0.027429 103556.000000 0 0 1
-13.374573 -26.563570 9.376185 31.183575 1.104358 1.265394 0.063557 -0.023412 160896.000000 0 0 1
-13.654673 -25.935770 8.012485 30.386086 1.086190 1.303951 0.069487 -0.022771 1436540.000000 0 0 1
-14.937773 -26.371270 7.440385 31.208017 1.055418 1.330065 0.063243 -0.030645 1496610.000000 0 0 1
-15.263673 -25.479670 6.354985 30.373988 1.031073 1.360014 0.062201 -0.028187 -118266.000000 0 0 1
-16.193173 -26.126770 5.317285 31.194559 1.015951 1.399504 0.073238 -0.027106 32784.000000 0 0 1
-15.573073 -27.101370 4.460385 31.573722 1.049245 1.429053 0.082672 -0.027474 -515709.000000 0 0 1
-16.400373 -27.510770 3.457485 32.214421 1.033217 1.463262 0.103212 -0.023483 -734592.000000 0 0 1
-15.937973 -28.780970 2.746385 33.013722 1.065065 1.487511 0.103161 -0.022029 -431980.000000 0 0 1
-14.732773 -28.577670 2.070985 32.218424 1.094799 1.506472 0.098958 -0.015414 -647741.000000 0 0 1
-14.330973 -29.697970 1.385185 33.004014 1.121200 1.528814 0.097724 -0.016985 -22272.600000 0 0 1
-12.942273 -29.466570 0.726885 32.191762 1.156944 1.548215 0.074862 -0.015599 192099.000000 0 0 1
-12.931973 -28.695870 -0.444415 31.478348 1.147397 1.584915 0.074792 -0.008309 -102857.000000 0 0 1
-12.932773 -27.295170 -0.230415 30.204901 1.128318 1.578425 0.058878 -0.014767 -239048.000000 0 0 1
-12.573573 -26.650670 -1.586615 29.510512 1.129969 1.624587 0.049984 -0.016403 -841898.000000 0 0 1
-11.253073 -26.747670 -1.966315 29.084978 1.172563 1.638454 0.065088 -0.017955 -1409330.000000 0 0 1
-10.944673 -26.105670 -3.148715 28.481684 1.173810 1.681575 0.076521 -0.022010 -474651.000000 0 0 1
-9.491873 -26.257270 -3.540715 28.143855 1.223918 1.696938 0.076775 -0.024317 -420239.000000 0 0 1
-9.037873 -25.468370 -4.647915 27.421235 1.229793 1.741119 0.072453 -0.029397 234980.000000 0 0 1
-7.643273 -25.671270 -4.895215 27.228604 1.281417 1.751561 0.103377 -0.029119 996797.000000 0 0 1
-6.954373 -24.561270 -5.750215 26.166472 1.294875 1.792360 0.080917 -0.031876 -222176.000000 0 0 1
-7.238573 -24.608470 -7.151515 26.629268 1.284715 1.842693 0.074251 -0.022229 -194918.000000 0 0 1
-6.544073 -23.532570 -7.722015 25.617109 1.299564 1.876999 0.075383 -0.017514 -244050.000000 0 0 1
-6.685673 -23.388770 -9.228515 26.017269 1.292371 1.933397 0.070303 -0.012944 -6953.170000 0 0 1
-5.887973 -24.339470 -9.904715 26.929193 1.333446 1.947445 0.054838 -0.015516 -8922.760000 0 0 1
-5.963673 -24.208370 -11.300615 27.373609 1.329258 1.996354 0.037965 -0.000117 1422110.000000 0 0 1
-7.347873 -24.783970 -11.879715 28.449324 1.282575 2.001571 0.045222 -0.007366 1416130.000000 0 0 1
-7.445973 -24.548370 -13.230915 28.863855 1.276298 2.046980 0.063967 -0.004395 -673218.000000 0 0 1
-8.647073 -25.053170 -13.696015 29.833103 1.238450 2.047764 0.094897 -0.013332 -1179460.000000 0 0 1
-8.848173 -24.894870 -15.268615 30.515166 1.229300 2.094813 0.104583 -0.015924 -61832.400000 0 0 1
-7.946673 -25.639770 -16.060615 31.280837 1.270250 2.109977 0.094677 -0.028251 40193.000000 0 0 1
-6.665673 -25.050170 -16.122815 30.526831 1.310730 2.127219 0.084645 -0.022457 -681417.000000 0 0 1
-5.703373 -25.938970 -16.927715 31.494542 1.354364 2.138243 0.085184 -0.013570 -328092.000000 0 0 1
-6.003373 -25.949170 -18.343515 32.340137 1.343445 2.173905 0.144073 -0.025135 507556.000000 0 0 1
-5.150873 -26.910170 -18.955415 33.316610 1.381674 2.176022 0.115723 -0.026672 208303.000000 0 0 1
-25.993053 14.007667 -4.960276 29.940907 -0.494282 1.737233 0.156092 -0.057844 -39475.800000 0 0 1
-25.551553 12.908767 -4.243976 28.940101 -0.467803 1.717974 0.159454 -0.052114 -219384.000000 0 0 1
-24.244973 12.548867 -4.590776 27.683353 -0.477617 1.737398 0.159450 -0.041055 -781219.000000 0 0 1
-23.943773 11.044867 -4.179576 26.697607 -0.432198 1.727995 0.163995 -0.053422 -92490.200000 0 0 1
-24.589573 10.106867 -4.999176 27.051573 -0.389972 1.756666 0.154994 -0.044676 44272.400000 0 0 1
-25.996823 10.087167 -5.007876 28.331336 -0.370132 1.748491 0.181022 -0.052679 -594844.000000 0 0 1
-26.503983 9.374467 -6.273176 28.804418 -0.339967 1.790341 0.182034 -0.044199 -163243.000000 0 0 1
-26.462073 10.247567 -7.380476 29.321074 -0.369471 1.825245 0.207116 -0.045538 147595.000000 0 0 1
-26.662983 9.510767 -8.593576 29.584099 -0.342634 1.865524 0.194044 -0.042933 44347.800000 0 0 1
-27.305583 10.392167 -9.743676 30.798234 -0.363660 1.892698 0.190736 -0.040504 164648.000000 0 0 1
-26.354043 11.313067 -10.242176 30.453624 -0.405484 1.913803 0.183839 -0.045997 261650.000000 0 0 1
-26.832853 12.022267 -11.367376 31.523866 -0.421225 1.939703 0.181926 -0.055331 -457170.000000 0 0 1
-25.876993 13.000667 -12.060576 31.370266 -0.465568 1.965418 0.153745 -0.046749 -391729.000000 0 0 1
-25.575053 14.165967 -11.300376 31.344161 -0.505831 1.939628 0.144592 -0.050021 552891.000000 0 0 1
-24.652973 15.033567 -11.981076 31.262172 -0.547600 1.964103 0.119807 -0.046943 332185.000000 0 0 1
-24.589173 16.414867 -11.381276 31.679784 -0.588624 1.938271 0.127672 -0.054567 -238765.000000 0 0 1
-23.649773 16.614067 -10.365076 30.704622 -0.612405 1.915135 0.125678 -0.041107 -270019.000000 0 0 1
-23.652273 17.971067 -9.962076 31.331011 -0.649746 1.894376 0.084157 -0.029142 579988.000000 0 0 1
-22.552173 18.213867 -8.851076 30.309850 -0.679378 1.867134 0.112603 -0.033673 -19502.200000 0 0 1
-22.890373 17.568167 -7.599476 29.838929 -0.654602 1.828316 0.139520 -0.043587 502413.000000 0 0 1
-23.911373 18.259067 -6.880176 30.862341 -0.652157 1.795617 0.134334 -0.048962 139083.000000 0 0 1
-24.265573 17.647967 -5.521676 30.508322 -0.628804 1.752788 0.135585 -0.040287 121932.000000 0 0 1
-23.131773 17.625167 -4.679276 29.455408 -0.651103 1.730332 0.121624 -0.043167 474078.000000 0 0 1
-23.565373 17.179667 -3.413176 29.361838 -0.629939 1.687305 0.121985 -0.036499 -663175.000000 0 0 1
-22.421673 16.893867 -2.496776 28.184536 -0.645713 1.659499 0.129168 -0.048458 -869268.000000 0 0 1
-21.801473 18.053167 -1.972276 28.374477 -0.691625 1.640361 0.131329 -0.040521 -254944.000000 0 0 1
-20.755673 17.761067 -1.108076 27.340104 -0.707806 1.611337 0.188098 -0.062534 -435527.000000 0 0 1
-20.213373 19.100567 -0.496076 27.814712 -0.757100 1.588632 0.152267 -0.054439 87092.900000 0 0 1
-21.098173 19.807867 0.357924 28.941538 -0.753865 1.558429 0.135953 -0.044221 34394.400000 0 0 1
-20.675273 21.134267 0.467724 29.569290 -0.796376 1.554978 0.136071 -0.042501 -80945.100000 0 0 1
-21.575073 21.927767 1.384324 30.793296 -0.793505 1.525826 0.109829 -0.031376 -218952.000000 0 0 1
-21.453073 21.360667 2.708324 30.394859 -0.783240 1.481573 0.118555 -0.027612 -133350.000000 0 0 1
-22.552573 21.573267 3.545624 31.410123 -0.763208 1.457674 0.103779 -0.019288 -376830.000000 0 0 1
-22.351973 21.115467 4.961924 31.146338 -0.756959 1.410805 0.120048 -0.016066 -462456.000000 0 0 1
-21.374773 21.901667 5.570724 31.106220 -0.797573 1.390738 0.100861 -0.010669 -162946.000000 0 0 1
-20.788273 21.339667 6.757524 30.548287 -0.798486 1.347743 0.095945 -0.003563 -132078.000000 0 0 1
-21.541573 21.426267 8.114324 31.447839 -0.782715 1.309819 0.112207 -0.020361 -523156.000000 0 0 1
-22.716673 20.648467 8.128224 31.756487 -0.737741 1.311961 0.126826 -0.020723 380201.000000 0 0 1
-23.305673 20.457367 9.426624 32.411719 -0.720405 1.275692 0.145057 -0.029516 114989.000000 0 0 1
-23.950673 21.663167 10.188024 33.863304 -0.735291 1.265205 0.153442 -0.022470 -319469.000000 0 0 1
-25.269673 21.920267 9.738824 34.841056 -0.714540 1.287501 0.164651 -0.022354 339300.000000 0 0 1
-25.961723 22.731367 10.687224 36.123993 -0.719154 1.270453 0.173550 -0.025553 1364690.000000 0 0 1
-27.486943 23.086067 10.406424 37.373683 -0.698597 1.288624 0.162973 -0.038733 1340790.000000 0 0 1
-28.194093 23.624667 11.505024 38.540853 -0.697445 1.267660 0.155347 -0.032237 149197.000000 0 0 1
-28.165943 25.044467 11.475824 39.398480 -0.726802 1.275236 0.148696 -0.033423 -93111.500000 0 0 1
-28.535103 25.588167 12.869624 40.430603 -0.731003 1.246846 0.159384 -0.039421 351508.000000 0 0 1
-27.509343 25.340267 13.840924 39.880625 -0.744379 1.216363 0.128239 -0.035153 382767.000000 0 0 1
-27.770883 25.926867 15.142124 40.898757 -0.751071 1.191535 0.122427 -0.030845 -260406.000000 0 0 1
-26.514113 25.886767 16.004524 40.364188 -0.773427 1.163092 0.095998 -0.023586 -137372.000000 0 0 1
-26.237173 24.631267 16.589424 39.626980 -0.753839 1.138849 0.103346 -0.026269 425180.000000 0 0 1
-25.218043 24.742767 17.601224 39.470968 -0.775885 1.108585 0.084900 -0.025322 337462.000000 0 0 1
-24.777373 23.434867 18.202824 38.658169 -0.757560 1.080524 0.093582 -0.017215 370477.000000 0 0 1
-23.645973 23.599667 19.093024 38.478824 -0.784418 1.051585 0.086841 -0.026072 966850.000000 0 0 1
-23.172673 22.299667 19.381424 37.548469 -0.766202 1.028422 0.098905 -0.024616 208973.000000 0 0 1
-21.689073 22.104967 19.810324 36.762677 -0.794894 1.001701 0.109585 -0.028675 122863.000000 0 0 1
-20.739173 22.427267 18.792524 35.864391 -0.824485 1.019269 0.108426 -0.034455 1197600.000000 0 0 1
-19.363073 22.158367 19.156524 35.112594 -0.852618 0.993722 0.092845 -0.034232 1168240.000000 0 0 1
-18.916773 20.686367 19.195224 33.973912 -0.830052 0.970364 0.099413 -0.029973 -761616.000000 0 0 1
-19.185273 19.913567 20.398524 34.361674 -0.804023 0.935220 0.113575 -0.026961 65715.100000 0 0 1
-18.511873 20.330967 21.579124 34.952772 -0.832196 0.905389 0.099466 -0.024185 -340387.000000 0 0 1
-19.380173 20.231267 22.820824 36.134268 -0.806881 0.887237 0.078511 -0.020865 328430.000000 0 0 1
-20.422773 21.244467 22.851524 37.290873 -0.805116 0.911208 0.079501 -0.025305 596895.000000 0 0 1
-21.203873 21.032367 24.040724 38.339550 -0.781338 0.893039 0.084855 -0.020061 542241.000000 0 0 1
-22.397473 22.041667 24.003224 39.542846 -0.777392 0.918493 0.088264 -0.013518 -193517.000000 0 0 1
-21.976973 23.348667 24.328024 40.249228 -0.815652 0.921740 0.090375 -0.019287 1223750.000000 0 0 1
-23.078973 24.293167 24.494924 41.506605 -0.811024 0.939558 0.082775 -0.022103 991784.000000 0 0 1
-24.015973 24.621867 23.325924 41.558417 -0.797855 0.974864 0.069077 -0.030779 43768.700000 0 0 1
-24.982373 23.643267 22.960524 41.355879 -0.757866 0.982200 0.063508 -0.028242 -118638.000000 0 0 1
-25.707573 24.120667 21.889824 41.495184 -0.753561 1.015110 0.055338 -0.026625 -530964.000000 0 0 1
-26.820153 23.205167 21.390724 41.416947 -0.713260 1.028070 0.058598 -0.025491 -114267.000000 0 0 1
-27.878413 23.021767 22.311324 42.485325 -0.690271 1.017901 0.076093 -0.023305 121470.000000 0 0 1
-28.742313 21.965067 21.919324 42.297063 -0.652532 1.026024 0.096404 -0.028039 1877890.000000 0 0 1
-30.298763 22.291267 22.139624 43.647206 -0.634296 1.038817 0.119008 -0.022682 1274500.000000 0 0 1
-30.807623 23.241067 21.221024 44.040762 -0.646307 1.068032 0.130999 -0.031961 548634.000000 0 0 1
-32.206583 23.468567 21.382724 45.224535 -0.629722 1.078316 0.145071 -0.026011 571037.000000 0 0 1
-33.140063 22.561967 20.570624 45.060589 -0.597728 1.096727 0.161564 -0.041706 -837330.000000 0 0 1
-33.246343 21.206267 21.070724 44.710183 -0.567788 1.080062 0.151165 -0.044745 367787.000000 0 0 1
-33.953443 20.308767 20.199324 44.421785 -0.539048 1.098742 0.154429 -0.043324 207715.000000 0 0 1
-35.487864 20.361567 20.317524 45.681328 -0.520903 1.109883 0.162318 -0.050282 -344896.000000 0 0 1
-36.215613 19.466467 19.503924 45.507329 -0.493208 1.127866 0.149112 -0.042634 -63621.800000 0 0 1
-37.588443 19.748167 19.687324 46.802477 -0.483744 1.136638 0.156533 -0.043981 -194857.000000 0 0 1
36.684176 19.054667 18.748424 45.390666 0.479066 1.145000 0.166265 -0.051887 -347707.000000 0 0 1
36.790686 17.676567 18.803124 44.939660 0.447896 1.139104 0.185027 -0.053945 164403.000000 0 0 1
36.049536 16.975767 17.795224 43.639612 0.440099 1.150778 0.203833 -0.064611 66333.100000 0 0 1
36.391826 15.433967 17.645924 43.289155 0.401113 1.150940 0.216706 -0.074274 -14715.300000 0 0 1
35.521116 14.698767 16.812824 41.958009 0.392349 1.158509 0.249268 -0.068642 -198903.000000 0 0 1
36.068136 13.474667 16.471524 41.878254 0.357533 1.166557 0.224804 -0.062257 21431.700000 0 0 1
35.285866 12.654867 15.402724 40.527545 0.344350 1.180940 0.221339 -0.070381 -79429.600000 0 0 1
35.133086 13.236767 14.155924 40.124007 0.360313 1.210230 0.211870 -0.062366 293471.000000 0 0 1
34.399756 12.342067 13.339924 38.905313 0.344478 1.220813 0.214962 -0.055016 -143591.000000 0 0 1
34.325716 12.733467 11.854524 38.482798 0.355224 1.257656 0.235108 -0.055294 -537649.000000 0 0 1
35.603766 12.652467 11.308024 39.440899 0.341450 1.280007 0.211139 -0.042403 -285425.000000 0 0 1
35.575606 12.440967 9.901724 38.967237 0.336412 1.313875 0.194699 -0.035267 -360684.000000 0 0 1
36.903366 12.316567 9.143824 39.964556 0.322127 1.339953 0.150879 -0.015130 -572869.000000 0 0 1
-37.481783 11.204367 9.507724 40.259393 -0.290473 1.332382 0.198332 -0.029533 698239.000000 0 0 1
-36.182003 11.302067 8.935924 38.945151 -0.302764 1.339285 0.203711 -0.026400 274296.000000 0 0 1
-36.027893 11.088567 7.436624 38.422243 -0.298577 1.376017 0.177159 -0.035994 -711443.000000 0 0 1
-36.683063 11.968067 6.543724 39.136966 -0.315367 1.402807 0.152573 -0.037808 -129381.000000 0 0 1
-36.373333 11.675267 5.214024 38.555379 -0.310596 1.435146 0.168418 -0.051114 -266193.000000 0 0 1
-37.208623 12.374667 4.152924 39.431723 -0.321068 1.465281 0.183920 -0.046855 471828.000000 0 0 1
36.635616 11.960467 4.000524 38.745649 0.315562 1.467361 0.192750 -0.055210 737896.000000 0 0 1
35.757936 13.047067 4.035524 38.277166 0.349862 1.465171 0.163027 -0.055024 -193104.000000 0 0 1
35.378356 13.493767 5.457424 38.255631 0.364381 1.427651 0.173473 -0.046558 -594486.000000 0 0 1
34.528466 14.674567 5.520824 37.921463 0.401870 1.424691 0.145136 -0.035570 636401.000000 0 0 1
34.011516 15.057467 6.751624 37.803372 0.416781 1.391235 0.123918 -0.030220 50362.600000 0 0 1
32.777896 14.285567 7.256024 36.484487 0.411007 1.370582 0.183691 -0.047317 -354892.000000 0 0 1
33.086406 13.004167 7.617624 36.357211 0.374489 1.359711 0.224857 -0.040090 1053490.000000 0 0 1
31.864756 12.250567 7.848024 35.028996 0.367034 1.344835 0.220926 -0.036699 979211.000000 0 0 1
31.671876 11.093667 6.846824 34.249908 0.336914 1.369532 0.225734 -0.043572 -635579.000000 0 0 1
31.087486 11.505567 5.672724 33.630190 0.354470 1.401306 0.213477 -0.058419 123684.000000 0 0 1
31.270026 10.504467 4.687524 33.318632 0.324084 1.429640 0.226439 -0.061712 -96390.600000 0 0 1
30.599036 10.950367 3.366024 32.673256 0.343665 1.467592 0.186630 -0.060871 -536215.000000 0 0 1
29.211926 10.834567 3.387924 31.340110 0.355167 1.462483 0.149564 -0.054480 -609443.000000 0 0 1
28.594226 11.454967 2.288924 30.888270 0.381027 1.496625 0.165855 -0.056004 -281520.000000 0 0 1
27.098226 11.177467 2.169224 29.393114 0.391218 1.496929 0.191688 -0.041957 -301034.000000 0 0 1
27.001126 9.834767 1.676224 28.785294 0.349300 1.512531 0.146096 -0.039959 353286.000000 0 0 1
25.665326 9.337667 1.565124 27.355998 0.348937 1.513552 0.143712 -0.041796 331143.000000 0 0 1
25.591526 7.818367 1.278424 26.789689 0.296501 1.523057 0.157294 -0.043396 79393.500000 0 0 1
26.205826 7.001767 2.234324 27.216948 0.261085 1.488611 0.169851 -0.036085 -355709.000000 0 0 1
27.595826 6.872067 2.246024 28.527172 0.244061 1.491982 0.215986 -0.051578 -713765.000000 0 0 1
28.086726 6.138567 3.498324 28.961776 0.215174 1.449710 0.212377 -0.066024 -646927.000000 0 0 1
29.453526 5.941967 3.719224 30.276225 0.199068 1.447642 0.249014 -0.068580 -123000.000000 0 0 1
29.619126 5.349767 4.980824 30.507724 0.178692 1.406798 0.233199 -0.051791 931427.000000 0 0 1
31.152376 5.198967 5.329924 32.029797 0.165364 1.403613 0.236940 -0.059247 796829.000000 0 0 1
31.713376 6.407567 5.708624 32.853973 0.199362 1.396152 0.232772 -0.056644 367681.000000 0 0 1
33.122466 6.219967 5.932824 34.219646 0.185625 1.396541 0.229708 -0.048575 964098.000000 0 0 1
33.704676 7.510367 6.607724 35.157827 0.219247 1.381727 0.206527 -0.050116 -24799.900000 0 0 1
33.295346 7.708067 7.983324 35.095980 0.227498 1.341316 0.224323 -0.053159 316084.000000 0 0 1
33.913366 8.890967 8.526524 36.081398 0.256397 1.332226 0.225815 -0.058143 32060.100000 0 0 1
33.645116 9.042867 10.053724 36.260787 0.262567 1.289854 0.229098 -0.052273 1097000.000000 0 0 1
32.255486 9.292767 10.369924 35.132709 0.280503 1.271169 0.230075 -0.060152 1099910.000000 0 0 1
31.904076 8.953267 11.691224 35.138523 0.273594 1.231612 0.212111 -0.064550 1025080.000000 0 0 1
30.368316 9.062367 12.071424 33.912835 0.290002 1.206861 0.171519 -0.061974 1293140.000000 0 0 1
29.763626 10.357867 12.368924 33.854824 0.334896 1.196786 0.215049 -0.069158 553887.000000 0 0 1
29.730926 11.358567 11.332624 33.784218 0.364933 1.228723 0.225177 -0.076975 -86481.700000 0 0 1
28.461426 11.247067 10.442824 32.335768 0.376335 1.241952 0.174847 -0.065559 72039.300000 0 0 1
28.472626 12.274167 9.459524 32.416480 0.407015 1.274675 0.152576 -0.036612 -337906.000000 0 0 1
27.253926 12.263667 8.798924 31.154375 0.422836 1.284470 0.140009 -0.042237 -1210040.000000 0 0 1
27.037526 13.565567 7.931724 31.272427 0.465032 1.314362 0.119268 -0.037016 66976.100000 0 0 1
26.793126 14.729667 8.658424 31.777398 0.502655 1.294836 0.104738 -0.019298 15565.000000 0 0 1
27.381826 15.782967 7.994624 32.600314 0.522888 1.323038 0.096651 -0.007343 -988122.000000 0 0 1
27.051426 17.182167 8.523324 33.161025 0.565877 1.310850 0.128795 -0.018003 777144.000000 0 0 1
25.764626 17.723667 8.190324 32.326858 0.602564 1.314645 0.136923 -0.026005 1012090.000000 0 0 1
24.604026 17.111867 8.732924 31.215990 0.607693 1.287254 0.141333 -0.028579 32593.800000 0 0 1
23.341126 18.003467 8.814524 30.767334 0.657007 1.280235 0.148760 -0.035579 43220.700000 0 0 1
22.748226 18.224467 7.563324 30.113400 0.675434 1.316916 0.151039 -0.030731 102500.000000 0 0 1
21.724726 19.205067 7.682024 29.996863 0.723915 1.311817 0.188590 -0.041419 101637.000000 0 0 1
21.157526 19.537667 6.320124 29.483984 0.745614 1.354762 0.170812 -0.032569 52467.900000 0 0 1
22.087626 20.249867 5.518524 30.469238 0.742018 1.388673 0.120318 -0.011985 360001.000000 0 0 1
21.508826 20.471967 4.255024 29.997271 0.760705 1.428469 0.134214 -0.019203 187252.000000 0 0 1
17.762127 16.957067 32.691645 40.887394 0.762215 0.644245 0.136720 -0.027225 -226371.000000 0 0 1
17.243727 17.644167 31.578765 40.073447 0.796876 0.663207 0.110050 -0.032071 153333.000000 0 0 1
17.038227 16.635667 30.621145 38.790477 0.773444 0.660968 0.111794 -0.031250 -56698.500000 0 0 1
16.442527 17.148067 29.286855 37.711176 0.806399 0.681530 0.111649 -0.028906 2888.000000 0 0 1
17.385327 17.784767 28.466335 37.800526 0.796755 0.718085 0.128165 -0.034212 -316671.000000 0 0 1
16.864127 18.143967 27.266695 36.838499 0.821940 0.737475 0.116368 -0.029980 -376758.000000 0 0 1
17.969727 18.137867 26.194945 36.579618 0.790055 0.772587 0.126994 -0.032364 229253.000000 0 0 1
18.779427 19.314867 26.327715 37.668018 0.799453 0.796881 0.127997 -0.038995 -219305.000000 0 0 1
19.762527 19.358867 25.343305 37.518080 0.775080 0.829159 0.127994 -0.045266 -953668.000000 0 0 1
20.543627 20.639767 25.501875 38.708994 0.787733 0.851560 0.141924 -0.044720 -853539.000000 0 0 1
19.907527 21.824667 25.170845 38.809756 0.831305 0.865092 0.123927 -0.039019 -260468.000000 0 0 1
20.377727 22.940067 25.912465 40.161602 0.844481 0.869505 0.129326 -0.042130 -134609.000000 0 0 1
19.481227 24.203867 25.718245 40.333280 0.893086 0.879361 0.141452 -0.046959 167066.000000 0 0 1
19.689127 24.886167 24.501505 40.091231 0.901464 0.913292 0.136598 -0.035899 -7262.860000 0 0 1
18.724827 25.886867 24.401325 40.201663 0.944582 0.918550 0.132994 -0.033047 -358798.000000 0 0 1
19.034927 26.878867 23.234595 40.306927 0.954605 0.956429 0.106437 -0.034086 798462.000000 0 0 1
20.319727 27.534667 23.303195 41.401547 0.935040 0.972957 0.123607 -0.035335 770898.000000 0 0 1
20.385427 28.584867 22.380885 41.636093 0.951296 1.003284 0.101849 -0.026914 1182330.000000 0 0 1
21.781827 29.351167 22.296485 42.814393 0.932363 1.023043 0.108753 -0.019629 1329640.000000 0 0 1
22.600027 28.943867 21.186985 42.395719 0.907859 1.047494 0.114387 -0.029545 -523711.000000 0 0 1
23.795727 29.654667 21.231285 43.547714 0.894577 1.061525 0.115598 -0.034871 -462682.000000 0 0 1
24.283627 29.948767 19.802385 43.344638 0.889481 1.096335 0.103222 -0.032848 -19224.500000 0 0 1
23.572627 30.973967 19.130785 43.370985 0.920263 1.113976 0.083592 -0.024980 206874.000000 0 0 1
24.049827 30.945067 17.797285 43.043405 0.910127 1.144531 0.091328 -0.015168 -19238.700000 0 0 1
23.309927 31.878267 16.808185 42.919596 0.939425 1.168404 0.089901 -0.025656 -415153.000000 0 0 1
23.566127 33.261167 17.082285 44.198100 0.954377 1.173970 0.094919 -0.020292 118058.000000 0 0 1
23.625127 -33.605170 15.914585 44.053696 -0.958046 1.201184 0.092995 -0.020848 329471.000000 0 0 1
24.807727 33.727467 14.913985 44.445386 0.936617 1.228599 0.074236 -0.018953 164020.000000 0 0 1
24.672027 32.576367 14.066385 43.217957 0.922602 1.239282 0.097740 -0.025381 -59950.000000 0 0 1
23.588527 32.747267 13.168585 42.452488 0.946562 1.255397 0.093957 -0.030485 -240341.000000 0 0 1
23.266927 31.505167 12.350185 41.066440 0.934689 1.265331 0.110710 -0.036095 -386727.000000 0 0 1
24.191827 31.078967 11.400985 41.001575 0.909366 1.289020 0.121792 -0.051744 -493545.000000 0 0 1
23.800927 29.835867 10.923885 39.698795 0.897442 1.292031 0.117365 -0.053635 434659.000000 0 0 1
24.938527 29.154367 10.004585 39.648442 0.863178 1.315706 0.113666 -0.051231 1126620.000000 0 0 1
26.060627 28.608367 10.649085 40.137239 0.831967 1.302264 0.105486 -0.046136 -129450.000000 0 0 1
26.970227 29.557067 11.145285 41.535897 0.831129 1.299138 0.098109 -0.046062 -1288540.000000 0 0 1
28.331327 28.967067 11.496485 42.117980 0.796493 1.294329 0.086556 -0.039023 -408352.000000 0 0 1
28.378027 28.145467 12.664385 41.926917 0.781284 1.263945 0.092113 -0.031183 84894.600000 0 0 1
29.723627 27.846667 12.992085 42.751902 0.752807 1.262018 0.084345 -0.017412 182509.000000 0 0 1
29.834027 26.726567 14.096585 42.462834 0.730513 1.232400 0.065938 -0.025364 91503.600000 0 0 1
30.979527 26.937167 14.896585 43.672077 0.715715 1.222709 0.052681 -0.028144 125607.000000 0 0 1
31.305527 25.842067 15.761385 43.546179 0.690085 1.200441 0.068477 -0.029156 565752.000000 0 0 1
32.551127 26.086167 16.661785 44.918583 0.675588 1.190783 0.075647 -0.041393 1418610.000000 0 0 1
33.868227 26.200667 16.098585 45.745996 0.658439 1.211183 0.082501 -0.032717 542816.000000 0 0 1
34.899527 26.243367 17.050585 46.876580 0.644760 1.198523 0.089365 -0.035143 642385.000000 0 0 1
36.277127 26.322867 16.303685 47.694165 0.627705 1.221924 0.121810 -0.043926 453229.000000 0 0 1
36.535927 27.448667 15.534285 48.266109 0.644319 1.243117 0.113354 -0.033752 -592299.000000 0 0 1
-37.315872 27.756367 15.576085 49.045944 -0.639535 1.247618 0.151608 -0.041352 -2823.690000 0 0 1
-37.013972 28.891867 14.598585 49.172074 -0.662778 1.269365 0.112856 -0.030286 -228758.000000 0 0 1
37.554027 30.078167 14.883485 50.363868 0.675308 1.270797 0.112523 -0.037343 -228125.000000 0 0 1
37.224427 30.830667 13.753485 50.252824 0.691723 1.293573 0.093252 -0.014700 -386821.000000 0 0 1
36.083827 31.809267 14.011185 50.101750 0.722521 1.287362 0.069927 -0.019707 -807451.000000 0 0 1
35.771727 32.694067 12.982885 50.170447 0.740477 1.309042 0.043108 -0.013009 807457.000000 0 0 1
34.821527 33.745367 13.344785 50.292861 0.769704 1.302238 0.036236 -0.008429 145323.000000 0 0 1
33.341027 33.420467 13.309085 49.047767 0.786588 1.296002 0.051010 -0.007592 -893665.000000 0 0 1
32.913727 32.466967 14.255685 48.380181 0.778565 1.271697 0.051547 -0.026105 -256748.000000 0 0 1
32.126927 31.494267 13.634885 47.009982 0.775454 1.276525 0.061315 -0.018132 -453432.000000 0 0 1
31.639927 30.358267 14.598585 46.215020 0.764729 1.249408 0.078423 -0.027247 -115088.000000 0 0 1
30.772027 30.891467 15.576085 46.301348 0.787335 1.227698 0.073390 -0.033413 -22256.300000 0 0 1
30.448427 29.911567 16.500685 45.761131 0.776504 1.201903 0.069195 -0.027743 83633.900000 0 0 1
29.574327 30.550767 17.612885 46.023949 0.801637 1.178091 0.072050 -0.027363 171880.000000 0 0 1
29.101427 29.687567 18.706385 45.586989 0.795368 1.147964 0.065696 -0.020307 194518.000000 0 0 1
29.977627 29.601567 19.821285 46.559577 0.779086 1.131040 0.069300 -0.034328 13888.200000 0 0 1
29.713527 28.405767 20.734785 46.040337 0.762901 1.103626 0.085642 -0.035649 -694026.000000 0 0 1
28.616827 28.543467 21.554585 45.806685 0.784115 1.080876 0.095115 -0.038434 -827056.000000 0 0 1
28.597927 27.664067 22.669235 45.793408 0.768801 1.052924 0.098512 -0.040520 10391.000000 0 0 1
27.229227 27.606767 23.411345 45.295204 0.792283 1.027616 0.123723 -0.035042 89035.800000 0 0 1
26.345327 26.776567 22.650375 43.864568 0.793516 1.028189 0.137902 -0.035050 1798620.000000 0 0 1
24.960927 26.845367 23.151105 43.355453 0.821757 1.007491 0.135926 -0.040951 1875450.000000 0 0 1
24.613627 25.820667 24.231445 43.124244 0.809327 0.974117 0.150826 -0.039849 -599639.000000 0 0 1
25.430027 25.933167 25.362995 44.300078 0.795194 0.961212 0.147170 -0.041072 -230879.000000 0 0 1
25.256427 24.886367 26.300295 44.146618 0.778018 0.932599 0.153380 -0.043423 1328490.000000 0 0 1
26.591527 24.403767 27.116335 45.143646 0.742523 0.926460 0.149617 -0.054282 1971770.000000 0 0 1
27.257727 25.319267 27.959855 46.538183 0.748546 0.926303 0.163488 -0.045180 373663.000000 0 0 1
27.935927 26.384267 27.325845 47.151324 0.756841 0.952638 0.128964 -0.030326 -466549.000000 0 0 1
28.311627 27.561467 28.257105 48.576195 0.771973 0.949971 0.090699 -0.024494 488932.000000 0 0 1
29.497427 27.383667 29.051525 49.638237 0.748254 0.945589 0.099085 -0.020520 472844.000000 0 0 1
29.838227 28.604367 29.642085 50.864357 0.764289 0.948666 0.092091 -0.027207 325954.000000 0 0 1
31.333727 28.742767 30.090075 52.089939 0.742297 0.954942 0.078042 -0.025827 383380.000000 0 0 1
32.050727 28.865367 28.904955 51.922586 0.733155 0.980396 0.061072 -0.017247 -1339250.000000 0 0 1
33.385027 29.196467 29.034055 53.009151 0.718568 0.991162 0.084198 -0.025041 -473505.000000 0 0 1
34.070527 29.650567 27.683455 52.974811 0.716145 1.020925 0.068770 -0.020834 -33683.200000 0 0 1
33.750027 30.976467 27.346775 53.352150 0.742574 1.032620 0.060222 -0.018203 215453.000000 0 0 1
34.226327 31.275367 26.014495 53.163371 0.740377 1.059474 0.059713 -0.019932 -164824.000000 0 0 1
34.020727 32.809367 25.705885 53.802016 0.767274 1.072663 0.061988 -0.021356 101316.000000 0 0 1
34.784927 33.744867 26.479165 55.225478 0.770223 1.070741 0.070434 -0.021671 107454.000000 0 0 1
34.205627 -32.632770 26.393485 54.143685 -0.761870 1.061605 0.073843 -0.017649 405212.000000 0 0 1
35.176827 -31.485270 26.913495 54.342135 -0.730078 1.052662 0.064774 -0.018667 516252.000000 0 0 1
35.299427 -31.351470 28.300875 55.044562 -0.726234 1.030786 0.067636 -0.028219 -86536.000000 0 0 1
36.296427 -30.416170 28.586495 55.315113 -0.697482 1.027695 0.073433 -0.031835 -324030.000000 0 0 1
36.211627 -29.854870 30.040445 55.722738 -0.689476 1.001421 0.074189 -0.030033 -442587.000000 0 0 1
36.438427 -30.740070 31.130895 56.937189 -0.700777 0.992308 0.084151 -0.026695 636255.000000 0 0 1
35.497727 -31.828070 31.209955 56.983998 -0.730946 0.991187 0.076431 -0.029460 125740.000000 0 0 1
35.709727 -32.730270 32.445799 58.302531 -0.741892 0.980620 0.101681 -0.028556 -872954.000000 0 0 1
35.354027 -32.129170 33.690625 58.457241 -0.737647 0.956566 0.078353 -0.037547 253993.000000 0 0 1
35.188527 -33.107670 -32.947086 58.479575 -0.754939 2.169285 0.101220 -0.042234 14096.800000 0 0 1
33.978227 33.578067 -32.912416 58.010634 0.779475 2.174082 0.115287 -0.044759 -153956.000000 0 0 1
34.165827 32.659167 33.715075 58.057137 0.762856 0.951181 0.125884 -0.040490 -323117.000000 0 0 1
33.362927 31.542667 -33.828936 57.030006 0.757361 2.205797 0.131806 -0.030836 -466742.000000 0 0 1
33.615427 30.395667 32.884392 55.993542 0.735140 0.943091 0.110825 -0.031398 449447.000000 0 0 1
34.799427 29.669767 33.237171 56.533218 0.705998 0.942308 0.116275 -0.039317 489956.000000 0 0 1
35.055827 28.710667 32.186451 55.580402 0.686218 0.953176 0.091888 -0.035723 -177497.000000 0 0 1
36.446727 28.070767 31.988676 56.032198 0.656296 0.963197 0.095781 -0.033998 -232943.000000 0 0 1
36.747427 27.024367 32.846785 56.210329 0.634097 0.946711 0.087301 -0.035007 1154940.000000 0 0 1
-37.106872 26.635567 32.575159 56.102713 -0.622577 0.951289 0.075268 -0.034665 1307510.000000 0 0 1
-36.753672 25.251467 33.259736 55.629840 -0.601979 0.929948 0.061467 -0.030703 237561.000000 0 0 1
-37.527972 24.195167 32.697642 55.343388 -0.572657 0.938729 0.064435 -0.027920 265501.000000 0 0 1
-37.568972 23.188267 33.692165 55.536343 -0.552984 0.918933 0.036013 -0.030791 -28028.700000 0 0 1
37.148227 21.828067 33.123175 54.347033 0.531247 0.915398 0.034193 -0.034260 376954.000000 0 0 1
-37.089872 21.192167 32.279185 53.541688 -0.519105 0.923691 0.052162 -0.024478 851427.000000 0 0 1
37.540227 20.195467 31.448815 52.973139 0.493559 0.935179 0.057925 -0.013058 21503.500000 0 0 1
-36.634872 19.471467 30.591285 51.546859 -0.488530 0.935438 0.078309 -0.027151 1123.170000 0 0 1
-36.066072 20.356167 29.641095 50.928672 -0.513842 0.949596 0.084897 -0.019324 -71160.200000 0 0 1
-34.970372 19.860567 28.890525 49.517992 -0.516501 0.947845 0.107156 -0.025819 31123.100000 0 0 1
-35.129372 18.856567 27.740765 48.571524 -0.492633 0.962912 0.118492 -0.020223 -684254.000000 0 0 1
-35.796072 17.739667 28.204015 48.903180 -0.460102 0.956074 0.113234 -0.018785 -81966.400000 0 0 1
-36.080172 16.896467 27.135675 48.203883 -0.437970 0.972863 0.110324 -0.027878 -14739.400000 0 0 1
-36.732872 15.581667 27.607925 48.521024 -0.401183 0.965521 0.128045 -0.033765 305933.000000 0 0 1
-35.829172 14.816367 28.448105 48.088970 -0.392114 0.937789 0.116122 -0.027719 782265.000000 0 0 1
-36.525572 14.002567 29.377515 48.920627 -0.366083 0.926653 0.112488 -0.035192 287089.000000 0 0 1
-35.670472 12.759967 29.802295 48.201412 -0.343534 0.904235 0.108866 -0.021560 378299.000000 0 0 1
-34.448672 13.110667 30.419405 47.790593 -0.363659 0.880826 0.109850 -0.015087 555153.000000 0 0 1
-33.655372 11.920267 30.716615 47.098697 -0.340399 0.860346 0.085192 -0.006724 45563.500000 0 0 1
-32.149572 12.189767 30.724835 46.110746 -0.362411 0.841524 0.072831 -0.003849 -1333360.000000 0 0 1
-31.581272 12.303067 29.428885 44.886540 -0.371481 0.855782 0.056468 -0.005013 -174196.000000 0 0 1
-30.204472 12.514467 29.297175 43.900416 -0.392794 0.840144 0.040883 -0.003501 -57094.500000 0 0 1
-29.306172 11.373367 29.851095 43.350814 -0.370195 0.811248 0.046974 0.000087 -889697.000000 0 0 1
-29.116672 10.320067 28.998235 42.369589 -0.340623 0.817000 0.050313 -0.010835 249758.000000 0 0 1
-28.127172 9.432067 29.509455 41.843872 -0.323552 0.788052 0.046914 -0.011359 40478.400000 0 0 1
-27.820472 8.149167 28.693275 40.788376 -0.284949 0.790532 0.044341 -0.016754 61971.800000 0 0 1
-28.784472 7.133967 28.717275 41.281003 -0.242945 0.801467 0.056272 -0.019898 138276.000000 0 0 1
-29.879772 7.214567 27.802765 41.446888 -0.236919 0.835503 0.068794 -0.016630 440950.000000 0 0 1
-30.673672 5.874967 27.804545 41.814855 -0.189239 0.843377 0.082144 -0.023794 -331179.000000 0 0 1
-31.369672 5.613567 29.008525 43.093654 -0.177075 0.832335 0.091843 -0.019161 100708.000000 0 0 1
-31.983772 4.335867 29.093845 43.453576 -0.134743 0.837209 0.115390 -0.024212 -90461.300000 0 0 1
-32.721772 4.064667 30.395465 44.845515 -0.123586 0.826055 0.107681 -0.018897 -284134.000000 0 0 1
-33.932672 4.745567 30.550405 45.905053 -0.138951 0.842616 0.105897 -0.022059 -508132.000000 0 0 1
-34.506572 4.500567 31.834982 47.163807 -0.129694 0.829849 0.106911 -0.026831 449328.000000 0 0 1
-35.906072 5.137967 32.037059 48.394399 -0.142130 0.847313 0.096627 -0.020559 224211.000000 0 0 1
-35.906372 6.512667 32.060570 48.575329 -0.179428 0.849954 0.101688 -0.017445 -45508.200000 0 0 1
-37.236272 7.006367 32.092931 49.654661 -0.185985 0.868041 0.091257 -0.012603 303767.000000 0 0 1
-37.326272 8.484067 32.473858 50.197425 -0.223498 0.867254 0.083591 -0.005716 -83591.200000 0 0 1
-37.460672 8.605967 -33.787306 51.175645 -0.225815 2.291911 0.075439 -0.008328 175813.000000 0 0 1
-37.575072 9.961767 -33.391956 51.245932 -0.259154 2.280491 0.075076 -0.012359 -188470.000000 0 0 1
-37.469172 10.155767 -31.874136 50.229862 -0.264684 2.258242 0.062059 -0.012976 242504.000000 0 0 1
36.558327 9.782467 -31.181046 49.035350 0.261460 2.259956 0.074514 -0.009329 347218.000000 0 0 1
36.631427 9.887367 -29.754366 48.217671 0.263632 2.235828 0.053464 -0.001692 -598133.000000 0 0 1
35.470027 9.254067 -29.031856 46.761194 0.255209 2.240627 0.054184 -0.002690 -515929.000000 0 0 1
35.497827 7.854567 -29.173306 46.614072 0.217760 2.247014 0.048913 -0.007279 53790.800000 0 0 1
34.258327 7.309367 -28.783136 45.337939 0.210208 2.258621 0.082931 -0.017347 -378002.000000 0 0 1
37.042016 5.473467 -19.256876 42.105784 0.146702 2.045804 0.084297 -0.029179 -740006.000000 0 0 1
36.399596 6.404767 -18.385776 41.279394 0.174174 2.032416 0.074557 -0.027989 186757.000000 0 0 1
36.674486 7.770267 -18.565176 41.833727 0.208784 2.030614 0.042755 -0.017803 68326.600000 0 0 1
-37.107683 8.250467 -18.135076 42.118064 -0.218780 2.015928 0.055198 -0.021609 556843.000000 0 0 1
-36.083533 7.645567 -18.861176 41.427286 -0.208797 2.043487 0.061449 -0.031938 -462604.000000 0 0 1
-35.744756 8.293367 -20.099676 41.838553 -0.227983 2.071919 0.056725 -0.027491 35507.000000 0 0 1
-34.653997 7.634467 -21.020576 41.243778 -0.216842 2.105594 0.059165 -0.020321 437424.000000 0 0 1
-35.155878 6.526867 -21.716276 41.834584 -0.183565 2.116592 0.056418 -0.025989 144670.000000 0 0 1
-35.787046 6.801267 -22.951076 43.054869 -0.187809 2.133016 0.042485 -0.024512 126396.000000 0 0 1
-35.741612 5.609267 -23.904876 43.363231 -0.155670 2.154683 0.068849 -0.023909 793943.000000 0 0 1
-34.389994 5.400267 -24.338576 42.475886 -0.155758 2.180955 0.071465 -0.021118 670212.000000 0 0 1
-34.229808 4.185067 -25.046976 42.620952 -0.121660 2.198970 0.076105 -0.021222 -538243.000000 0 0 1
-32.890133 3.892867 -25.693246 41.917278 -0.117812 2.230587 0.091427 -0.018207 -17202.900000 0 0 1
-31.736963 3.973367 -24.875276 40.519154 -0.124549 2.231806 0.086878 -0.019616 857632.000000 0 0 1
-30.519863 3.623367 -25.555686 39.971038 -0.118168 2.264456 0.094328 -0.019128 890767.000000 0 0 1
-29.213483 4.099467 -24.888076 38.595978 -0.139418 2.271605 0.082788 -0.026029 -97063.800000 0 0 1
-29.084553 5.520967 -24.890676 38.677358 -0.187593 2.269919 0.065212 -0.013843 376961.000000 0 0 1
-27.769413 5.821567 -24.437376 37.446179 -0.206647 2.281807 0.071395 -0.009653 435806.000000 0 0 1
-27.240723 7.239667 -24.575476 37.395505 -0.259762 2.287864 0.055781 -0.009155 373679.000000 0 0 1
-28.002913 8.163967 -23.730176 37.602324 -0.283677 2.253744 0.055574 -0.008104 463821.000000 0 0 1
-27.670003 9.539467 -23.900176 37.786888 -0.331998 2.255572 0.044945 -0.007210 247390.000000 0 0 1
-26.376353 10.134467 -23.261776 36.599585 -0.366834 2.259549 0.062513 -0.004968 251016.000000 0 0 1
-26.365403 10.315367 -21.896276 35.790895 -0.372937 2.229110 0.050847 -0.009372 399591.000000 0 0 1
-25.045363 10.570967 -21.429076 34.615327 -0.399389 2.238346 0.083729 -0.024176 -72230.200000 0 0 1
-24.947073 10.903367 -19.935076 33.743846 -0.412041 2.202817 0.108251 -0.040116 -1165340.000000 0 0 1
-25.189973 12.258867 -19.609576 34.195760 -0.452916 2.181508 0.109792 -0.049762 222650.000000 0 0 1
-26.460273 12.854367 -19.792776 35.456097 -0.452222 2.163051 0.082404 -0.035690 -611326.000000 0 0 1
-27.475713 12.251067 -18.786576 35.467434 -0.419428 2.129026 0.078471 -0.035077 -1467070.000000 0 0 1
-27.163883 12.319567 -17.414776 34.538713 -0.425783 2.099264 0.078604 -0.050491 219147.000000 0 0 1
-28.120473 11.616167 -16.648776 34.682533 -0.391736 2.071489 0.096752 -0.047755 -529849.000000 0 0 1
-27.573073 11.241467 -15.257076 33.457784 -0.387124 2.044303 0.125670 -0.054550 486763.000000 0 0 1
-26.718323 10.078267 -15.170976 32.335720 -0.360702 2.059148 0.144218 -0.052972 771654.000000 0 0 1
-25.360943 10.324667 -15.463176 31.446558 -0.386620 2.084870 0.138925 -0.048973 -126914.000000 0 0 1
-24.473573 9.013167 -15.493376 30.335419 -0.352868 2.106836 0.115324 -0.041286 1870240.000000 0 0 1
-23.051773 9.237367 -15.776876 29.421472 -0.381129 2.136769 0.111336 -0.037728 1379270.000000 0 0 1
-22.376073 8.093867 -15.378476 28.331905 -0.347077 2.144560 0.126352 -0.032421 4277.590000 0 0 1
-20.863373 8.475067 -15.299376 27.224585 -0.385855 2.167561 0.166850 -0.044047 379128.000000 0 0 1
-20.240873 8.837167 -16.550876 27.599275 -0.411655 2.213904 0.169763 -0.059137 -673587.000000 0 0 1
-18.906873 9.089167 -16.309176 26.572016 -0.448116 2.231627 0.182487 -0.060828 -1265030.000000 0 0 1
-18.097473 9.756367 -17.451176 26.967550 -0.494437 2.274594 0.141620 -0.053730 -72758.200000 0 0 1
-17.909073 8.876567 -18.579476 27.289655 -0.460159 2.319685 0.176185 -0.063461 -118958.000000 0 0 1
-16.802273 8.037967 -18.444676 26.213191 -0.446207 2.351305 0.163523 -0.055533 -896765.000000 0 0 1
-16.443373 7.280167 -19.778176 26.731285 -0.416802 2.403701 0.131801 -0.042118 398905.000000 0 0 1
-17.320773 6.212967 -20.175776 27.306997 -0.344405 2.402159 0.116508 -0.040730 363113.000000 0 0 1
-18.458573 6.654367 -20.892276 28.661590 -0.346001 2.387553 0.112084 -0.037409 472067.000000 0 0 1
-19.405173 5.498667 -21.429176 29.427974 -0.276123 2.386475 0.089384 -0.019545 491281.000000 0 0 1
-20.105073 4.745467 -20.444776 29.064106 -0.231791 2.351018 0.124290 -0.026461 690727.000000 0 0 1
-21.051173 3.870667 -21.095876 30.052786 -0.181838 2.348943 0.082610 -0.009610 305580.000000 0 0 1
-21.961773 3.169467 -20.043376 29.901537 -0.143328 2.305426 0.096510 -0.013577 146196.000000 0 0 1
-22.768673 2.126567 -20.622676 30.793336 -0.093129 2.304618 0.101239 -0.010976 836119.000000 0 0 1
-23.362673 1.339867 -19.542576 30.488063 -0.057288 2.266585 0.109578 -0.013073 129952.000000 0 0 1
-24.142873 0.061067 -19.963376 31.327599 -0.002529 2.261715 0.114642 -0.006191 -360539.000000 0 0 1
-23.306273 -1.006733 -20.250076 30.891123 0.043169 2.285681 0.107337 -0.022331 -390690.000000 0 0 1
-23.934573 -2.173833 -20.651676 31.687238 0.090575 2.280666 0.102570 -0.022685 -582095.000000 0 0 1
-24.348073 -2.184233 -22.181076 33.009085 0.089469 2.307660 0.103599 -0.026624 292969.000000 0 0 1
-23.272273 -2.070633 -23.113176 32.864953 0.088741 2.350793 0.084978 -0.027436 134047.000000 0 0 1
-22.549373 -3.276033 -23.170176 32.497133 0.144273 2.364552 0.092108 -0.036088 85290.700000 0 0 1
-21.439173 -3.256233 -24.246976 32.529326 0.150730 2.411913 0.088307 -0.032976 458232.000000 0 0 1
-22.112573 -3.370533 -25.499316 33.919633 0.151262 2.421519 0.088963 -0.036267 345099.000000 0 0 1
-21.162673 -3.568433 -26.481746 34.086292 0.167048 2.460528 0.090104 -0.039782 -333993.000000 0 0 1
-21.797173 -3.760433 -27.892966 35.598808 0.170838 2.471134 0.088752 -0.042803 339921.000000 0 0 1
-22.811073 -4.756833 -27.907906 36.356894 0.205586 2.445900 0.093778 -0.038661 355247.000000 0 0 1
-23.400773 -4.930633 -29.174916 37.723773 0.207666 2.454956 0.047663 -0.035595 -442353.000000 0 0 1
-22.812373 -6.088833 -29.980206 38.161381 0.260829 2.474488 0.056621 -0.031916 -478934.000000 0 0 1
-21.525273 -5.924633 -30.490236 37.790120 0.268590 2.509564 0.053956 -0.030842 -456724.000000 0 0 1
-20.891773 -7.162333 -30.746466 37.856444 0.330273 2.518685 0.055011 -0.031254 -633549.000000 0 0 1
-19.587373 -6.937033 -31.502726 37.738698 0.340375 2.558492 0.062475 -0.029580 -877140.000000 0 0 1
-19.674773 -6.529533 -32.870996 38.861728 0.320436 2.578944 0.051995 -0.035364 275575.000000 0 0 1
-19.919473 -7.634933 -33.756086 39.931829 0.366019 2.578003 0.046291 -0.029483 -497499.000000 0 0 1
-20.028973 -7.163433 32.464222 38.812372 0.343477 0.580041 0.049002 -0.024883 1187890.000000 0 0 1
-18.778973 -6.772933 31.800056 37.546851 0.346145 0.560587 0.056352 -0.025261 1403490.000000 0 0 1
-18.266273 -5.522533 32.242804 37.466699 0.293598 0.534404 0.057153 -0.024665 -1153140.000000 0 0 1
-16.918473 -5.218933 31.654556 36.269587 0.299214 0.509973 0.065516 -0.024099 -841985.000000 0 0 1
-17.024873 -4.915433 30.272585 35.077588 0.281077 0.529583 0.067047 -0.022353 482909.000000 0 0 1
-15.769373 -4.461233 29.779135 33.990773 0.275700 0.503095 0.063677 -0.012439 320952.000000 0 0 1
-15.696373 -4.603733 28.248205 32.642481 0.285298 0.524885 0.065898 -0.006152 259720.000000 0 0 1
-16.586673 -3.654133 27.666895 32.464250 0.216842 0.550570 0.070950 -0.016202 200881.000000 0 0 1
-16.733873 -3.806733 26.289545 31.395126 0.223680 0.578330 0.085201 -0.017399 -406427.000000 0 0 1
-15.652173 -3.230633 25.395865 30.006291 0.203543 0.561699 0.100928 -0.015690 -308183.000000 0 0 1
-15.685473 -1.848533 25.408455 29.917231 0.117309 0.556154 0.096026 -0.010508 58638.800000 0 0 1
-14.651073 -1.330333 24.598045 28.661604 0.090553 0.538999 0.091671 -0.014667 62779.800000 0 0 1
-14.716773 0.208767 24.468915 28.554418 -0.014185 0.541528 0.075977 -0.005389 177687.000000 0 0 1
-15.848773 0.555967 23.683235 28.502427 -0.035065 0.590037 0.076789 -0.018455 279108.000000 0 0 1
-16.150473 1.871167 23.950875 28.947944 -0.115344 0.596374 0.056053 -0.016509 -442948.000000 0 0 1
-16.686173 2.704967 22.778715 28.365738 -0.160710 0.638424 0.068122 -0.020848 -142881.000000 0 0 1
-15.750973 3.161567 21.810685 27.088644 -0.198090 0.634852 0.069732 -0.016912 330342.000000 0 0 1
-16.297673 4.145867 20.926085 26.845920 -0.249100 0.676948 0.085202 -0.022833 -592160.000000 0 0 1
-15.256173 4.699067 19.973285 25.568812 -0.298790 0.674278 0.086462 -0.021793 -418363.000000 0 0 1
-14.375873 5.425967 20.778785 25.843080 -0.360904 0.636743 0.070614 -0.019017 -142013.000000 0 0 1
-13.045573 5.464267 20.296085 24.738154 -0.396658 0.608622 0.051692 -0.017878 437765.000000 0 1 0
-12.210973 6.633767 20.949385 25.139440 -0.497656 0.585696 0.054421 -0.009695 229662.000000 0 0 1
-12.672673 7.899767 20.630685 25.468179 -0.557426 0.626546 0.062488 -0.014381 850450.000000 0 0 1
-11.600873 8.839667 20.880685 25.470041 -0.651126 0.609711 0.042386 -0.003417 1062300.000000 0 0 1
-12.196373 10.304267 20.999285 26.379905 -0.701504 0.650083 0.038041 0.003744 259652.000000 0 0 1
-12.493173 10.826367 19.735485 25.744494 -0.714043 0.697282 0.040464 -0.004495 10805.300000 0 0 1
-13.134973 12.051267 19.811985 26.650991 -0.742397 0.732677 0.028096 -0.000553 -570508.000000 0 0 1
-13.424073 12.808067 18.518785 26.214456 -0.761920 0.786349 0.038756 -0.000545 25012.600000 0 0 1
-12.409073 13.573467 17.850885 25.629635 -0.830183 0.800297 0.022687 -0.005392 195187.000000 0 0 1
-12.171273 14.905567 18.289785 26.548673 -0.886040 0.810805 0.028917 -0.006318 -691467.000000 0 0 1
-13.125373 15.961967 17.755385 27.245431 -0.882611 0.860995 0.026818 -0.003683 -331529.000000 0 0 1
-13.032873 16.285967 16.338685 26.496059 -0.895902 0.906321 0.000884 -0.007734 78626.100000 0 0 1
-13.675873 15.288367 15.553385 25.742406 -0.841013 0.922043 0.030407 -0.009979 -325219.000000 0 0 1
-14.043873 15.787967 14.124985 25.416638 -0.843796 0.981546 0.010612 -0.013973 -550122.000000 0 0 1
-15.219973 16.522267 14.062185 26.502414 -0.826402 1.011488 0.016368 -0.015260 -770281.000000 0 0 1
-15.508773 16.923967 12.801585 26.283517 -0.829005 1.062079 0.003369 -0.012919 -214694.000000 0 0 1
-16.630173 17.960967 12.783985 27.615019 -0.823851 1.089492 0.036769 -0.024027 -361706.000000 0 0 1
-17.919273 17.433767 12.991185 28.174589 -0.771666 1.091567 0.065335 -0.024449 127682.000000 0 0 1
-18.892273 18.494267 13.067985 29.491153 -0.774753 1.111725 0.093744 -0.025616 158844.000000 0 0 1
-20.297273 17.972167 13.366685 30.226584 -0.724717 1.112728 0.105172 -0.020155 -138064.000000 0 0 1
-20.914673 17.245467 12.314485 29.773751 -0.689540 1.144389 0.118341 -0.020662 -670778.000000 0 0 1
-22.258273 16.975267 12.588785 30.693125 -0.651548 1.148178 0.145604 -0.028330 -440690.000000 0 0 1
-22.897373 16.412067 11.294185 30.351347 -0.621890 1.189510 0.140318 -0.023050 -90144.000000 0 0 1
-22.525373 15.067567 11.056685 29.268999 -0.589558 1.183419 0.125029 -0.018903 155724.000000 0 0 1
-23.131473 14.629567 9.844285 29.086066 -0.563941 1.225523 0.141425 -0.015480 91595.700000 0 0 1
-22.519273 13.337267 9.221585 27.749558 -0.534709 1.232040 0.135927 -0.018420 -378276.000000 0 0 1
-22.655473 12.194167 10.028485 27.614103 -0.493773 1.199133 0.124482 -0.030688 -24869.600000 0 0 1
-23.846073 11.458367 10.137385 28.331889 -0.447937 1.204877 0.179683 -0.026123 -216421.000000 0 0 1
-24.490073 10.753467 8.933985 28.199589 -0.413748 1.248429 0.188697 -0.020684 141126.000000 0 0 1
-25.041113 11.699067 7.940085 28.757094 -0.437060 1.291053 0.190476 -0.019663 507889.000000 0 0 1
-26.254103 11.176167 7.428685 29.485081 -0.402457 1.316104 0.238395 -0.028379 118837.000000 0 0 1
-26.958253 12.311367 6.524985 30.346212 -0.428397 1.354086 0.217831 -0.014944 -138316.000000 0 0 1
-26.446733 12.492067 5.204885 29.708118 -0.441282 1.394687 0.210879 -0.032285 85341.600000 0 0 1
-25.170313 13.062967 5.110685 28.815011 -0.478718 1.392491 0.196773 -0.036347 -610145.000000 0 0 1
-25.017553 14.554567 5.503085 29.461794 -0.526910 1.382906 0.189965 -0.029385 -239773.000000 0 0 1
-23.697173 15.084467 5.490885 28.622491 -0.566863 1.377762 0.178262 -0.039598 757572.000000 0 0 1
-23.864773 16.431867 5.877285 29.564779 -0.602994 1.370670 0.168119 -0.039995 -174890.000000 0 0 1
-22.555873 17.193767 6.125385 29.015744 -0.651311 1.358090 0.157840 -0.026558 -121160.000000 0 0 1
-21.790373 17.382167 4.957285 28.311389 -0.673337 1.394790 0.162425 -0.043415 230514.000000 0 0 1
-20.460973 17.772467 5.223885 27.600742 -0.715196 1.380382 0.162145 -0.030600 -398030.000000 0 0 1
-19.817073 18.577467 4.127685 27.475015 -0.753123 1.419991 0.140841 -0.025827 -1118570.000000 0 0 1
-18.489573 18.788067 4.514085 26.743836 -0.793405 1.401195 0.118730 -0.028822 -609324.000000 0 0 1
-17.810673 19.623667 3.646485 26.750799 -0.833792 1.434057 0.116641 -0.039204 -101275.000000 0 0 1
-18.074973 21.159767 3.883785 28.098473 -0.863861 1.432132 0.104130 -0.038124 -490600.000000 0 0 1
-17.463073 21.637667 5.048385 28.260109 -0.891760 1.391192 0.079747 -0.036153 -62167.700000 0 0 1
-17.736773 22.973167 5.327185 29.508277 -0.913323 1.389269 0.055873 -0.034472 47163.000000 0 0 1
-16.760073 23.362367 6.469985 29.471358 -0.948490 1.349459 0.027164 -0.015005 18874.600000 0 0 1
-17.238873 22.850367 7.704585 29.642514 -0.924470 1.307860 0.036252 -0.013304 468235.000000 0 0 1
-16.322873 23.002167 8.794085 29.544404 -0.953641 1.268559 0.023996 -0.016976 190353.000000 0 0 1
-16.899173 22.368867 10.089185 29.794965 -0.923799 1.225346 0.009104 -0.011172 -219572.000000 0 0 1
-17.968373 23.117267 10.604185 31.140315 -0.910069 1.223317 0.021115 -0.009369 -485633.000000 0 0 1
-18.934773 22.202867 11.079585 31.212980 -0.864675 1.207917 0.037390 -0.014599 -426839.000000 0 0 1
-20.184173 22.862267 11.675585 32.655832 -0.847532 1.205170 0.064282 -0.016273 -137148.000000 0 0 1
-21.068573 23.557467 10.787885 33.394872 -0.841113 1.241856 0.098780 -0.011102 392271.000000 0 0 1
-20.579173 24.789867 10.374585 33.847775 -0.877943 1.259275 0.053167 -0.007443 -588309.000000 0 0 1
-21.683473 25.637967 9.718585 34.956105 -0.868771 1.289061 0.076046 -0.011253 278481.000000 0 0 1
-22.623973 26.122367 10.670685 36.167468 -0.857043 1.271304 0.102251 -0.024049 344556.000000 0 0 1
-23.569573 27.034467 10.126685 37.268444 -0.853762 1.295614 0.105372 -0.019135 -96720.400000 0 0 1
-24.466473 27.632767 11.210185 38.572612 -0.846098 1.275916 0.104308 -0.027520 -381209.000000 0 0 1
-23.833473 28.521667 12.101085 39.089080 -0.874706 1.256048 0.102620 -0.029340 628905.000000 0 0 1
-24.843073 29.197767 12.846285 40.431608 -0.865806 1.247463 0.098016 -0.030421 423742.000000 0 0 1
9.701027 -32.446570 28.148225 44.036490 -1.280271 0.877336 0.048548 -0.033894 1245570.000000 0 0 1
11.118327 -32.330570 27.836435 44.087981 -1.239570 0.887460 0.044527 -0.048897 1532790.000000 0 0 1
11.286027 -32.071870 26.493565 43.103228 -1.232432 0.908849 0.064204 -0.042493 -225189.000000 0 0 1
12.763927 -32.067170 26.040915 43.235986 -1.191983 0.924421 0.041893 -0.034265 -163708.000000 0 0 1
13.191727 -33.378070 26.016985 44.328329 -1.194416 0.943552 0.070164 -0.044856 98249.600000 0 0 1
14.591227 -33.343370 25.775465 44.598866 -1.158298 0.954594 0.083848 -0.039238 387090.000000 0 0 1
15.286927 32.947867 25.395215 44.318947 1.136383 0.960622 0.109438 -0.033940 102266.000000 0 0 1
15.230727 32.476767 24.059475 43.192288 1.132277 0.979989 0.087854 -0.035008 278351.000000 0 0 1
16.236927 31.493067 23.898875 42.738827 1.094769 0.977395 0.102104 -0.029604 50409.100000 0 0 1
16.285827 30.870767 22.530985 41.543684 1.085354 0.997571 0.099781 -0.038179 525228.000000 0 0 1
15.124927 30.081567 22.234485 40.348933 1.104913 0.987168 0.103889 -0.033408 582261.000000 0 0 1
15.450927 28.656067 22.305685 39.464477 1.076294 0.970110 0.103708 -0.029474 226802.000000 0 0 1
15.165327 28.026267 23.681085 39.702048 1.074803 0.931700 0.110240 -0.033395 -58006.500000 0 0 1
16.092427 28.460867 24.653685 40.948643 1.056189 0.924713 0.101687 -0.024664 156309.000000 0 0 1
15.710527 28.038367 25.952845 41.310058 1.060063 0.891501 0.100396 -0.027945 -337334.000000 0 0 1
16.535027 28.616767 27.068745 42.720527 1.046854 0.884568 0.114679 -0.032760 -341453.000000 0 0 1
16.295627 29.958667 27.234115 43.643627 1.072620 0.896931 0.113870 -0.040063 137882.000000 0 0 1
16.758327 30.301167 28.516265 44.857325 1.065608 0.881868 0.133916 -0.047428 -143596.000000 0 0 1
16.753127 31.755667 28.965325 46.131114 1.085342 0.891955 0.145036 -0.051017 -264142.000000 0 0 1
17.555327 32.569767 28.180545 46.509379 1.076432 0.919886 0.133917 -0.044353 -208444.000000 0 0 1
17.374927 -33.738570 28.517675 47.470380 -1.095231 0.926361 0.129629 -0.035672 -226980.000000 0 0 1
18.156227 -32.730970 27.681305 46.553406 -1.064343 0.934011 0.114092 -0.040922 -744916.000000 0 0 1
17.940127 -32.740970 26.287655 45.660268 -1.069535 0.957309 0.125827 -0.035440 -83616.200000 0 0 1
18.279227 -31.536170 25.567945 44.523926 -1.045491 0.959106 0.120256 -0.038791 -320423.000000 0 0 1
19.758927 -31.131870 25.491905 44.826842 -1.005263 0.965902 0.125510 -0.031340 26449.100000 0 0 1
20.396327 -30.634470 26.704095 45.470756 -0.983396 0.943101 0.124742 -0.030952 133730.000000 0 0 1
21.392827 -29.690370 26.429115 45.140550 -0.946424 0.945318 0.121942 -0.025784 2129.360000 0 0 1
21.715727 -28.922470 27.755615 45.590089 -0.926767 0.916239 0.135084 -0.030786 271815.000000 0 0 1
20.526227 -28.195970 28.064705 44.765683 -0.941535 0.893197 0.139908 -0.032580 553259.000000 0 0 1
20.692127 -27.337870 29.166935 45.013702 -0.922892 0.865897 0.153867 -0.030499 507046.000000 0 0 1
19.348027 -26.757470 29.708325 44.417260 -0.944742 0.838140 0.142855 -0.033794 673941.000000 0 0 1
18.603927 -25.926270 28.802345 42.986657 -0.948375 0.836547 0.142288 -0.033944 -113212.000000 0 0 1
17.322627 -25.656270 29.264515 42.599642 -0.976922 0.813490 0.119318 -0.033016 -293372.000000 0 0 1
16.391727 -24.990270 28.186195 41.081187 -0.990268 0.814669 0.125666 -0.030847 -407592.000000 0 0 1
15.925527 -25.810670 27.122675 40.687254 -1.017961 0.841140 0.129638 -0.032728 -111835.000000 0 0 1
15.132727 -25.129670 26.230865 39.351722 -1.028771 0.841192 0.138287 -0.042228 -416317.000000 0 0 1
13.646027 -24.886870 26.606625 38.903507 -1.069242 0.817683 0.098279 -0.031782 161821.000000 0 0 1
12.710527 -25.929170 26.866525 39.442230 -1.115018 0.821449 0.096606 -0.030361 534654.000000 0 0 1
12.568227 -26.849870 25.825655 39.317176 -1.132999 0.854157 0.078829 -0.030098 -786911.000000 0 0 1
11.533927 -28.003870 26.054665 39.951143 -1.180100 0.860362 0.076364 -0.027171 412122.000000 0 0 1
10.217227 -27.524970 26.254845 39.386960 -1.215363 0.841175 0.050374 -0.036223 -131975.000000 0 0 1
9.332327 -28.552170 26.511705 40.064813 -1.254890 0.847685 0.034632 -0.036554 -636017.000000 0 0 1
7.855627 -28.216270 26.752685 39.668312 -1.299265 0.830632 0.034527 -0.039824 -14159.100000 0 0 1
6.947727 -28.141370 25.665425 38.715910 -1.328750 0.846088 0.061341 -0.038029 162350.000000 0 0 1
7.083827 -26.941270 24.830895 37.317369 -1.313680 0.842770 0.068344 -0.033127 -379113.000000 0 0 1
5.846327 -26.711770 23.932355 36.338077 -1.355327 0.851836 0.077358 -0.030653 -651475.000000 0 0 1
5.886327 -27.697970 22.877265 36.403237 -1.361393 0.891250 0.077004 -0.026997 120073.000000 0 0 1
5.375727 -29.025570 23.138715 37.507097 -1.387665 0.905979 0.080968 -0.025633 -417022.000000 0 0 1
3.965127 -29.004470 23.764245 37.705714 -1.434931 0.888914 0.112500 -0.025891 -716134.000000 0 0 1
2.913427 -28.717070 22.846635 36.812049 -1.469689 0.901251 0.124591 -0.025233 369304.000000 0 0 1
1.640927 -28.511670 23.420055 36.933819 -1.513307 0.883941 0.149170 -0.032174 119128.000000 0 0 1
1.382727 -27.006670 23.667095 35.936104 -1.519642 0.851855 0.130292 -0.036184 -524396.000000 0 0 1
2.197927 -26.456370 24.667075 36.238585 -1.487909 0.822099 0.094968 -0.032501 149260.000000 0 0 1
1.837127 -25.156670 25.003215 35.516107 -1.497898 0.789787 0.082415 -0.025437 40171.700000 0 0 1
3.024927 -24.581370 25.794405 35.759548 -1.448354 0.765077 0.080577 -0.021644 585580.000000 0 0 1
4.270027 -24.334770 25.144585 35.251445 -1.397094 0.776612 0.074401 -0.027176 621821.000000 0 0 1
5.254227 -23.612170 25.888535 35.431028 -1.351842 0.751488 0.056340 -0.022302 212023.000000 0 0 1
5.054927 -22.138970 26.214595 34.682723 -1.346317 0.713860 0.054905 -0.017334 -676836.000000 0 0 1
4.933427 -21.308370 25.048805 33.253992 -1.343280 0.717796 0.047792 -0.015267 111522.000000 0 0 1
4.130427 -20.185670 25.287885 32.618995 -1.368961 0.683685 0.072282 -0.030574 -115948.000000 0 0 1
4.049327 -19.183570 24.129835 31.091082 -1.362767 0.682336 0.085522 -0.033611 864870.000000 0 0 1
5.314827 -18.510570 24.001005 30.772339 -1.291194 0.676204 0.061851 -0.017431 647019.000000 0 0 1
5.329927 -17.906670 22.698615 29.398709 -1.281497 0.688664 0.060958 -0.010951 -47146.000000 0 0 1
6.714927 -17.371170 22.312585 29.063710 -1.201933 0.695532 0.075253 -0.013788 -715092.000000 0 0 1
7.614227 -18.301870 21.844985 29.498106 -1.176543 0.736900 0.074972 -0.018312 -1042740.000000 0 0 1
8.694727 -17.705370 21.210185 28.964640 -1.114311 0.749134 0.074276 -0.018577 -62562.300000 0 0 1
10.037227 -17.649770 21.980485 29.923269 -1.053718 0.745776 0.100886 -0.018895 -107589.000000 0 0 1
9.971527 -16.870370 23.199995 30.369072 -1.036971 0.701407 0.107865 -0.014810 785657.000000 0 0 1
11.225727 -16.951370 23.918215 31.391829 -0.985871 0.704516 0.111533 -0.010870 967251.000000 0 0 1
11.248527 -16.206370 25.300355 32.082453 -0.964054 0.662261 0.128740 -0.023975 -210461.000000 0 0 1
11.321227 -14.818170 25.111475 31.278340 -0.918389 0.638754 0.153109 -0.033845 95540.800000 0 0 1
11.216727 -13.976870 26.260335 31.792657 -0.894520 0.598845 0.140569 -0.034267 -50492.600000 0 0 1
11.471627 -12.425170 26.115585 31.112809 -0.825280 0.574648 0.154866 -0.035349 -167762.000000 0 0 1
10.350927 -11.772770 25.621145 30.036359 -0.849578 0.549081 0.166665 -0.030782 -247589.000000 0 0 1
10.723027 -10.434670 25.483415 29.551144 -0.771770 0.530904 0.162822 -0.028044 128038.000000 0 0 1
9.635927 -9.675470 24.729715 28.249330 -0.787446 0.504515 0.144685 -0.027345 483209.000000 0 0 1
8.361527 -9.561170 25.341495 28.346472 -0.852233 0.464622 0.129555 -0.029259 -23558.000000 0 0 1
7.399727 -8.925870 24.548055 27.148373 -0.878609 0.441251 0.114608 -0.032655 -242850.000000 0 0 1
5.999627 -8.968170 25.169525 27.384824 -0.981186 0.404994 0.093615 -0.031296 -624299.000000 0 0 1
5.620427 -7.898870 26.032155 27.778669 -0.952362 0.356490 0.098982 -0.026166 885253.000000 0 0 1
4.295227 -7.808070 26.581665 28.035689 -1.067876 0.323475 0.086165 -0.028254 1501720.000000 0 0 1
3.021427 -7.861270 25.689925 27.035178 -1.203860 0.316789 0.064375 -0.023004 87818.400000 0 0 1
2.826327 -6.915270 24.671885 25.778111 -1.182806 0.294020 0.068859 -0.024703 93925.000000 0 0 1
1.521027 -6.864570 24.109045 25.113381 -1.352743 0.283766 0.060506 -0.026870 516129.000000 0 0 1
1.443127 -5.669870 23.144485 23.872521 -1.321563 0.247601 0.046323 -0.035356 -144384.000000 0 1 0
1.440927 -4.457270 23.863855 24.319274 -1.258125 0.193832 0.060897 -0.030438 -130335.000000 0 1 0
2.031827 -3.339070 23.261915 23.588014 -1.024150 0.166474 0.062809 -0.029058 -1199180.000000 0 1 0
1.178627 -2.615470 22.237685 22.421964 -1.147413 0.128296 0.051162 -0.029982 -377728.000000 0 1 0
0.132727 -1.776470 22.596385 22.666497 -1.496221 0.078674 0.047637 -0.029708 -51774.300000 0 1 0
-0.998473 -2.475470 23.124115 23.277663 1.187408 0.114923 0.045337 -0.029669 -205741.000000 0 1 0
-2.140073 -1.520470 23.562005 23.707801 0.617722 0.110960 0.046520 -0.041459 16446.900000 0 1 0
-1.724173 -0.545470 24.524735 24.591318 0.306403 0.073605 0.064651 -0.034349 -36326.900000 0 1 0
-2.730973 0.281530 25.037245 25.187321 -0.102725 0.109218 0.059359 -0.036641 -640099.000000 0 0 1
-2.164373 1.185530 26.133255 26.249515 -0.501112 0.094152 0.103690 -0.036081 -54029.100000 0 0 1
-2.257073 0.738530 27.508075 27.610397 -0.316227 0.086118 0.123920 -0.030752 488925.000000 0 0 1
-1.454473 -0.436470 27.791515 27.832972 0.291538 0.054587 0.119980 -0.030527 31817.400000 0 0 1
-0.067073 -0.192470 28.464265 28.464995 1.235471 0.007161 0.139680 -0.023917 -112919.000000 0 0 1
0.889927 0.423530 27.669195 27.686742 0.444195 0.035605 0.105579 -0.022221 -342062.000000 0 0 1
1.564927 -0.353470 26.718375 26.766500 -0.222143 0.059975 0.099079 -0.025044 144799.000000 0 0 1
2.745427 -1.296470 27.181045 27.350090 -0.441185 0.111240 0.101452 -0.021777 57250.400000 0 0 1
2.330927 -2.283470 28.111835 28.300578 -0.775114 0.115557 0.109659 -0.025536 531029.000000 0 0 1
3.353527 -3.191770 28.588225 28.960666 -0.760690 0.160548 0.120767 -0.024016 497175.000000 0 0 1
4.007127 -4.244870 27.618225 28.228396 -0.814201 0.208297 0.113738 -0.025867 286451.000000 0 0 1
5.026127 -3.576870 26.889275 27.587843 -0.618506 0.225518 0.108627 -0.023690 101034.000000 0 0 1
5.528727 -4.386770 25.807525 26.755166 -0.670734 0.266946 0.100344 -0.024062 -1031890.000000 0 0 1
6.638427 -3.769470 24.980765 26.121184 -0.516426 0.296581 0.091373 -0.019979 630515.000000 0 0 1
7.989027 -3.726370 25.515345 26.995244 -0.436438 0.332653 0.094839 -0.018243 1280460.000000 0 0 1
8.605827 -4.988970 25.662685 27.523145 -0.525374 0.369788 0.107337 -0.018585 -294416.000000 0 0 1
9.467427 -5.534570 24.466785 26.812072 -0.529012 0.421372 0.087582 -0.027036 232740.000000 0 0 1
8.639127 -5.950370 23.407755 25.650817 -0.603149 0.421310 0.090107 -0.026790 42699.600000 0 0 1
9.320627 -6.002470 22.157285 24.775977 -0.572145 0.463920 0.096420 -0.027809 244558.000000 0 1 0
9.496427 -4.569270 21.462885 23.910579 -0.448460 0.456431 0.106778 -0.024776 710164.000000 0 1 0
8.214827 -4.014770 21.181985 23.071156 -0.454585 0.407498 0.074645 -0.022197 311828.000000 0 1 0
8.414227 -2.712170 20.645285 22.458470 -0.311816 0.404587 0.072501 -0.011572 620330.000000 0 1 0
7.061827 -1.984470 20.341285 21.623492 -0.273948 0.346099 0.054671 -0.009248 434518.000000 0 1 0
6.470927 -1.389470 21.440285 22.438568 -0.211513 0.299411 0.058788 -0.010460 16431.900000 0 1 0
5.340527 -0.609470 21.113385 21.786870 -0.113630 0.249291 0.041599 -0.007566 99024.200000 0 1 0
4.619727 -0.048470 22.368785 22.840901 -0.010492 0.203673 0.047660 -0.014580 161869.000000 0 1 0
3.371527 0.554530 22.073785 22.336667 0.163015 0.153572 0.050987 -0.016690 -108702.000000 0 1 0
2.649927 0.710530 23.278645 23.439759 0.261970 0.117315 0.063435 -0.020459 -90595.400000 0 1 0
1.206027 1.210530 23.150355 23.213333 0.787261 0.073678 0.067893 -0.033920 -163608.000000 0 1 0
1.073827 2.620530 22.807235 22.982390 1.181892 0.123539 0.065444 -0.028074 248108.000000 0 1 0
-0.282773 2.909530 23.097795 23.282042 -1.473912 0.125890 0.049590 -0.022363 54246.800000 0 1 0
-0.777573 4.355530 22.767985 23.193887 -1.394132 0.191933 0.057932 -0.021062 -493826.000000 0 1 0
-0.258373 5.517530 23.394745 24.037970 -1.524003 0.231857 0.083226 -0.027081 325455.000000 0 1 0
-1.238073 6.557530 23.289915 24.227137 -1.384191 0.279058 0.068130 -0.021361 64992.100000 0 1 0
-0.943173 7.788530 24.146605 25.389157 -1.450285 0.314149 0.080874 -0.023065 -299170.000000 0 0 1
-0.019573 8.656530 23.576855 25.115812 -1.568535 0.351882 0.082050 -0.022796 -270050.000000 0 0 1
0.086927 9.875530 24.317245 26.246182 1.561994 0.385778 0.111785 -0.031672 -66396.500000 0 0 1
0.906027 10.957530 23.523385 25.966093 1.488299 0.437232 0.123486 -0.039841 -590472.000000 0 0 1
2.269427 11.002530 23.611355 26.147697 1.367385 0.444096 0.102213 -0.034482 -1281020.000000 0 0 1
2.861727 11.500530 24.836745 27.519367 1.326915 0.445213 0.135582 -0.043862 -528049.000000 0 0 1
4.239727 12.143530 24.700735 27.849002 1.234893 0.480092 0.111236 -0.039897 486852.000000 0 0 1
5.367527 11.334530 24.281485 27.328967 1.128527 0.476754 0.082255 -0.025073 858715.000000 0 0 1
5.259127 10.776530 22.914525 25.862472 1.116781 0.482119 0.088429 -0.029855 -948987.000000 0 0 1
6.569027 10.189530 22.361885 25.436834 0.998167 0.496796 0.078083 -0.025217 -353968.000000 0 0 1
7.461527 11.133530 21.896285 25.672498 0.980362 0.549265 0.064701 -0.022792 94491.100000 0 0 1
8.622227 10.569530 21.266585 25.265102 0.886518 0.570303 0.075809 -0.026391 650670.000000 0 0 1
9.509927 11.692530 20.678385 25.588075 0.887978 0.629833 0.063753 -0.027397 -472287.000000 0 0 1
8.967127 12.220530 19.496085 24.695102 0.937760 0.660848 0.062615 -0.035097 81189.200000 0 1 0
9.671627 13.309530 18.977485 25.116307 0.942395 0.714251 0.072955 -0.031871 346851.000000 0 0 1
11.088027 13.126530 18.335585 25.128546 0.869385 0.752955 0.077761 -0.030749 509191.000000 0 0 1
12.086127 12.881530 19.325085 26.181428 0.817245 0.740514 0.084851 -0.031812 -402931.000000 0 0 1
13.314827 12.688530 18.679985 26.214981 0.761318 0.777643 0.077030 -0.030499 -388621.000000 0 0 1
14.485627 12.378530 19.625685 27.353773 0.707123 0.770624 0.094161 -0.024024 -105078.000000 0 0 1
15.193727 13.545530 20.040785 28.565080 0.728111 0.793179 0.099962 -0.029955 39572.400000 0 0 1
16.399427 13.153530 20.661185 29.476111 0.676003 0.794072 0.107462 -0.026851 359307.000000 0 0 1
17.315227 14.323530 21.133285 30.847955 0.691120 0.816084 0.113007 -0.023601 54450.100000 0 0 1
16.753227 15.072530 22.199285 31.633211 0.732638 0.792915 0.116310 -0.028194 -435384.000000 0 0 1
17.659727 15.840530 22.868935 32.951123 0.731147 0.803730 0.105799 -0.026096 -738447.000000 0 0 1
-21.490673 12.649667 -24.402576 34.890526 -0.532004 2.345360 0.056113 -0.000847 -39651.800000 0 0 1
-21.320373 12.602067 -25.783646 35.751459 -0.533836 2.376317 0.055270 -0.009418 611965.000000 0 0 1
-22.222473 13.510467 -26.467386 37.106516 -0.546255 2.364965 0.077343 -0.004792 414853.000000 0 0 1
-21.978373 13.648867 -27.983576 38.110641 -0.555728 2.395390 0.070569 -0.004256 -1034910.000000 0 0 1
-20.756373 14.159367 -28.315466 37.856047 -0.598659 2.415806 0.088862 -0.010961 -1379900.000000 0 0 1
-20.789073 14.682067 -29.624916 39.056168 -0.614901 2.431836 0.094205 -0.024565 -62429.200000 0 0 1
-19.384873 15.197867 -30.008866 38.823711 -0.664912 2.454277 0.080887 -0.017416 -571757.000000 0 0 1
-18.511873 14.152967 -30.242406 38.178515 -0.652739 2.485090 0.081625 -0.012980 -297493.000000 0 0 1
-17.159373 14.602967 -30.102836 37.601482 -0.705086 2.499052 0.081802 -0.011361 866886.000000 0 0 1
-16.534473 14.025467 -28.757486 36.015212 -0.703481 2.495565 0.106711 -0.006419 -187517.000000 0 0 1
-17.016373 14.535267 -27.546146 35.491141 -0.706923 2.459320 0.114730 -0.020767 -176686.000000 0 0 1
-17.301073 13.440567 -26.639986 34.491518 -0.660473 2.453350 0.122128 -0.014778 -113046.000000 0 0 1
-17.813273 13.782167 -25.260256 33.842892 -0.658499 2.413429 0.115267 -0.017464 -806062.000000 0 0 1
-16.892673 14.425767 -24.466776 33.046759 -0.706792 2.404415 0.156124 -0.040256 -266623.000000 0 0 1
-17.450273 14.707367 -23.184876 32.532401 -0.700308 2.364094 0.151272 -0.044042 -241968.000000 0 0 1
-16.423173 15.259367 -22.221076 31.564935 -0.748681 2.351782 0.142972 -0.041800 -344821.000000 0 0 1
-16.174173 16.612967 -22.554576 32.346614 -0.798780 2.342389 0.131382 -0.038809 154811.000000 0 0 1
-15.190873 17.293867 -21.763776 31.678106 -0.850046 2.328189 0.128416 -0.036823 -83337.600000 0 0 1
-15.066173 18.786267 -22.204976 32.756287 -0.894850 2.315677 0.121651 -0.030699 594610.000000 0 0 1
-16.256773 19.589767 -22.086476 33.702434 -0.878111 2.285426 0.086765 -0.023264 980425.000000 0 0 1
-17.233973 19.291867 -23.087776 34.673208 -0.841679 2.299453 0.061170 -0.019057 -615968.000000 0 0 1
-18.613973 19.911467 -22.939076 35.625100 -0.819064 2.270384 0.055905 -0.013845 -430973.000000 0 0 1
-18.698173 21.218867 -23.439576 36.732489 -0.848463 2.262845 0.043726 -0.009533 251966.000000 0 0 1
-19.966373 21.821267 -23.218576 37.602208 -0.829758 2.236330 0.075588 -0.025553 15022.300000 0 0 1
-19.897573 23.282267 -23.651876 38.696106 -0.863624 2.228399 0.064021 -0.023647 195471.000000 0 0 1
-19.180073 24.101167 -22.717976 38.273331 -0.898612 2.206286 0.059792 -0.022416 33147.900000 0 0 1
-18.465773 25.197067 -23.263976 38.949834 -0.938359 2.210902 0.064251 -0.019655 -649964.000000 0 0 1
-17.442873 25.709967 -22.264176 38.222372 -0.974682 2.192586 0.079335 -0.027698 195481.000000 0 0 1
-16.366673 24.794167 -21.937676 36.930750 -0.987352 2.206846 0.095280 -0.043511 668133.000000 0 0 1
-16.716273 23.591867 -21.199576 35.852922 -0.954348 2.203457 0.093452 -0.020079 -1477570.000000 0 0 1
-15.653073 22.515267 -21.055576 34.573013 -0.963285 2.225618 0.127098 -0.027742 125293.000000 0 0 1
-14.671173 22.835167 -20.055476 33.747745 -0.999725 2.207162 0.148472 -0.048965 435907.000000 0 0 1
-13.825773 21.768667 -19.661976 32.428694 -1.004951 2.222214 0.121084 -0.039625 222064.000000 0 0 1
-13.020473 21.980167 -18.342276 31.449953 -1.036003 2.193485 0.115392 -0.043646 69700.300000 0 0 1
-13.801673 22.057667 -17.183176 31.181539 -1.011688 2.154441 0.125962 -0.042580 28558.300000 0 0 1
-14.347273 23.354367 -16.896976 32.199045 -1.019907 2.123237 0.142348 -0.052425 -130983.000000 0 0 1
-14.857473 23.513267 -15.464876 31.824214 -1.007268 2.078243 0.156545 -0.065054 14764.200000 0 0 1
-13.805473 23.510967 -14.527476 30.893433 -1.039847 2.060364 0.148500 -0.072937 356202.000000 0 0 1
-14.378673 23.451567 -13.228576 30.524047 -1.020784 2.019039 0.145603 -0.061107 341476.000000 0 0 1
-13.388573 23.911467 -12.108076 29.960268 -1.060367 1.986832 0.162857 -0.057142 139191.000000 0 0 1
-13.089773 25.269467 -12.246076 30.981519 -1.092847 1.977158 0.154881 -0.063847 1087340.000000 0 0 1
-11.861473 25.605267 -11.555676 30.493571 -1.136984 1.959463 0.085188 -0.047215 925058.000000 0 0 1
-11.529973 27.081567 -11.706876 31.676529 -1.168291 1.949349 0.121051 -0.048415 5674.820000 0 0 1
-11.107373 27.350067 -13.050276 32.275526 -1.185026 1.987053 0.109144 -0.043964 -143175.000000 0 0 1
-11.154973 28.660567 -13.374376 33.537076 -1.199626 1.980997 0.095826 -0.026252 -266775.000000 0 0 1
-10.292173 28.863067 -14.682276 33.979033 -1.228266 2.017614 0.132443 -0.048166 861071.000000 0 0 1
-8.880773 28.736367 -14.592376 33.430291 -1.271064 2.022503 0.104607 -0.046024 26758.900000 0 0 1
-8.361373 27.478367 -14.308576 32.089072 -1.275409 2.032978 0.109768 -0.049285 -472917.000000 0 0 1
-6.868373 27.339167 -14.714776 31.798258 -1.324662 2.051896 0.105063 -0.048192 1059790.000000 0 0 1
-5.950473 28.173267 -13.953276 31.997422 -1.362646 2.022029 0.085784 -0.043491 -398399.000000 0 0 1
-4.654773 28.019967 -14.442976 31.865107 -1.406176 2.041208 0.090916 -0.048222 97700.700000 0 0 1
-3.587273 28.966267 -13.794076 32.282963 -1.447581 2.012286 0.077189 -0.037792 212914.000000 0 0 1
-3.544573 30.343167 -14.233476 33.702576 -1.454507 2.006806 0.063110 -0.025972 54872.800000 0 0 1
-4.665673 31.102967 -13.798676 34.344818 -1.421899 1.984244 0.057271 -0.026342 189930.000000 0 0 1
-4.578373 32.574967 -14.127276 35.800418 -1.431162 1.976442 0.062732 -0.028088 167377.000000 0 0 1
-3.739373 33.322867 -13.235876 36.049754 -1.459047 1.946746 0.041837 -0.031938 146494.000000 0 0 1
-3.895973 -32.932870 -13.429576 35.778570 1.453043 1.955573 0.053134 -0.021857 -315914.000000 0 0 1
-2.957073 -32.197070 -12.548376 34.682234 1.479210 1.941005 0.056206 -0.031349 -413536.000000 0 0 1
-3.309073 -32.322570 -11.162976 34.355648 1.468775 1.901728 0.055110 -0.037951 174970.000000 0 0 1
-2.391473 -31.592870 -10.378676 33.339849 1.495244 1.887356 0.046598 -0.033707 -288718.000000 0 0 1
-2.700373 -31.650570 -8.831576 32.970401 1.485684 1.841971 0.053403 -0.028220 209205.000000 0 0 1
-1.661873 -30.942570 -8.129476 32.035806 1.517140 1.827364 0.039935 -0.022578 449026.000000 0 0 1
-1.930273 -30.717370 -6.722076 31.503478 1.508039 1.785825 0.057327 -0.027835 -382264.000000 0 0 1
-0.688573 -30.319770 -5.934076 30.902684 1.548090 1.764021 0.064411 -0.023808 -402878.000000 0 0 1
-0.819373 -30.350870 -4.527776 30.697678 1.543806 1.718832 0.088631 -0.034976 -33044.600000 0 0 1
0.396527 -29.970970 -3.903976 30.226765 -1.557567 1.700314 0.071812 -0.025257 113813.000000 0 0 1
0.376327 -30.020670 -2.426476 30.120924 -1.558261 1.651442 0.075151 -0.024170 -259128.000000 0 0 1
0.353527 -31.350370 -1.896276 31.409657 -1.559520 1.631205 0.080968 -0.027761 102681.000000 0 0 1
1.453127 -32.222370 -2.109176 32.324006 -1.525730 1.636094 0.063554 -0.019349 808007.000000 0 0 1
2.874027 -31.949570 -1.512776 32.114227 -1.481083 1.617920 0.056948 -0.009335 -261443.000000 0 0 1
2.927727 -32.012070 -0.075176 32.145760 -1.479593 1.573135 0.053283 -0.012119 -452606.000000 0 0 1
4.244827 -31.877470 0.373624 32.161021 -1.438414 1.559179 0.047966 -0.011425 -131973.000000 0 0 1
4.866127 -30.472570 0.346424 30.860602 -1.412445 1.559571 0.031516 -0.015708 -968744.000000 0 0 1
4.869527 -29.934970 -0.950076 30.343325 -1.409539 1.602112 0.049691 -0.020732 -234042.000000 0 0 1
5.104327 -28.568070 -0.896976 29.034348 -1.393990 1.601695 0.055961 -0.023538 -247787.000000 0 0 1
4.599727 -27.902470 -2.162076 28.361592 -1.407416 1.647103 0.053030 -0.019505 1281090.000000 0 0 1
3.156527 -27.893770 -2.358576 28.170711 -1.458113 1.654619 0.068705 -0.024604 1644620.000000 0 0 1
2.590327 -26.840970 -3.211476 27.156234 -1.474588 1.689333 0.076830 -0.031296 444590.000000 0 0 1
3.083327 -26.741770 -4.701676 27.326451 -1.456003 1.743713 0.069143 -0.023997 -350016.000000 0 0 1
2.479127 -27.678970 -5.515176 28.331760 -1.481468 1.766711 0.070573 -0.024870 -99410.300000 0 0 1
3.021727 -27.622770 -6.803176 28.608241 -1.461837 1.810901 0.081426 -0.028167 -151693.000000 0 0 1
2.191227 -28.518270 -7.725776 29.627366 -1.494111 1.834611 0.066486 -0.029380 74135.600000 0 0 1
0.846427 -28.125370 -7.923876 29.232528 -1.540711 1.845294 0.061886 -0.025502 -156192.000000 0 0 1
0.562027 -28.189470 -9.271276 29.680274 -1.550861 1.888485 0.062701 -0.026211 -382281.000000 0 0 1
-0.901973 -27.880470 -9.598776 29.500351 1.538456 1.902208 0.049590 -0.022842 -644911.000000 0 0 1
-1.097373 -26.501470 -9.435576 28.152482 1.529412 1.912571 0.046565 -0.019820 18369.600000 0 0 1
-2.436573 -26.048070 -9.336976 27.778012 1.477526 1.913599 0.058523 -0.021931 1150520.000000 0 0 1
-3.388973 -26.491570 -8.122876 27.915400 1.443561 1.866049 0.071441 -0.020114 495671.000000 0 0 1
-2.997573 -26.101270 -6.792176 27.136606 1.456453 1.823782 0.090957 -0.027370 182698.000000 0 0 1
-1.946073 -26.915070 -6.239976 27.697392 1.498618 1.798038 0.088282 -0.028334 610182.000000 0 0 1
-1.551573 -26.566770 -4.838876 27.048390 1.512460 1.750662 0.102926 -0.030258 -130759.000000 0 0 1
-2.580373 -26.860970 -3.936676 27.270267 1.475026 1.715660 0.128550 -0.038325 -279895.000000 0 0 1
-2.391873 -26.239870 -2.708876 26.487542 1.479893 1.673245 0.128861 -0.043859 -487715.000000 0 0 1
-3.503473 -26.523870 -1.717276 26.809309 1.439469 1.634895 0.137049 -0.039104 -226215.000000 0 0 1
-4.737373 -25.934770 -2.076176 26.445520 1.390123 1.649385 0.141957 -0.035248 -820756.000000 0 0 1
-5.543273 -25.931270 -0.971776 26.534939 1.360198 1.607427 0.155730 -0.039409 37444.400000 0 0 1
-6.768473 -24.970770 -1.120276 25.896073 1.306101 1.614070 0.118764 -0.033777 474137.000000 0 0 1
-6.313273 -23.633970 -0.991276 24.482741 1.309764 1.611296 0.116099 -0.036702 150757.000000 0 1 0
-7.032673 -22.986570 0.045724 24.038365 1.273893 1.568894 0.105745 -0.030734 165137.000000 0 1 0
-6.350273 -21.640870 0.470624 22.558252 1.285370 1.549932 0.074912 -0.027063 1023480.000000 0 1 0
-5.171273 -21.878270 1.269924 22.516960 1.338691 1.514368 0.071209 -0.023760 824940.000000 0 1 0
-4.409973 -20.692570 1.547524 21.213796 1.360819 1.497783 0.046754 -0.012196 666680.000000 0 1 0
-3.319873 -20.709070 2.664424 21.142051 1.411839 1.444435 0.050613 -0.002726 301179.000000 0 1 0
-3.859073 -20.800370 3.992424 21.528755 1.387353 1.384270 0.032431 0.014822 373588.000000 0 1 0
-2.944773 -20.545770 5.094824 21.371888 1.428438 1.330090 0.039924 0.006311 722192.000000 0 1 0
-1.999673 -21.738470 5.432524 22.496046 1.479067 1.326897 0.048017 -0.012270 578203.000000 0 1 0
-1.041773 -21.984170 4.413824 22.447068 1.523444 1.372874 0.066647 -0.012794 59944.400000 0 1 0
-0.179773 -23.090970 4.652224 23.555645 1.563011 1.371990 0.074143 -0.018900 -575617.000000 0 1 0
0.741827 -23.519470 3.458624 23.783984 -1.539266 1.424861 0.079586 -0.032592 40048.300000 0 1 0
1.764327 -22.660970 3.064324 22.935181 -1.493096 1.436788 0.044587 -0.026128 -570233.000000 0 1 0
2.788627 -22.730570 4.024624 23.251943 -1.448725 1.396833 0.060979 -0.034578 -1422460.000000 0 1 0
3.871927 -21.633570 3.884524 22.317991 -1.393694 1.395852 0.062270 -0.026516 109068.000000 0 1 0
4.897127 -22.020470 2.978124 22.754169 -1.351968 1.439537 0.034944 -0.013098 -251080.000000 0 1 0
6.128327 -21.529870 3.485924 22.654875 -1.293487 1.416312 0.057004 -0.007133 408964.000000 0 1 0
7.031127 -21.046670 2.298224 22.308763 -1.248380 1.467594 0.068197 -0.007184 164902.000000 0 1 0
7.588127 -22.084870 1.488724 23.399519 -1.239844 1.507131 0.060322 -0.003375 55821.400000 0 1 0
7.115027 -21.811470 0.185324 22.943369 -1.255474 1.562719 0.050307 -0.017105 390231.000000 0 1 0
8.104227 -22.477470 -0.813176 23.907664 -1.224755 1.604816 0.060144 -0.012450 339972.000000 0 1 0
9.361127 -21.844770 -0.778376 23.778784 -1.165940 1.603536 0.052369 -0.006163 -612884.000000 0 1 0
10.245327 -22.454970 -1.688476 24.739510 -1.142748 1.639100 0.058791 -0.013861 498028.000000 0 1 0
11.666927 -21.902970 -1.938476 24.892067 -1.081360 1.648751 0.066935 -0.014666 475063.000000 0 1 0
11.698527 -20.898070 -2.894476 24.123907 -1.060468 1.691070 0.063194 -0.004940 41094.200000 0 1 0
13.009927 -20.758470 -3.414776 24.735258 -1.010955 1.709292 0.068092 -0.009690 184378.000000 0 1 0
13.121627 -19.595270 -4.373876 23.985047 -0.980743 1.754181 0.062160 -0.020472 -32223.700000 0 1 0
12.982427 -18.409970 -3.647976 22.820564 -0.956599 1.731340 0.073887 -0.017094 52689.200000 0 1 0
12.886827 -17.359770 -4.546276 22.092998 -0.932217 1.778056 0.063423 -0.025415 -744036.000000 0 1 0
13.402627 -15.975970 -3.944776 21.223178 -0.872768 1.757755 0.067876 -0.024748 501022.000000 0 1 0
14.759627 -15.953070 -3.542776 22.020406 -0.824237 1.732385 0.073346 -0.019603 424004.000000 0 1 0
15.705027 -15.950970 -4.598876 22.852374 -0.793167 1.773423 0.072096 -0.018193 -284743.000000 0 1 0
17.158427 -15.537670 -4.311276 23.546081 -0.735868 1.754935 0.088323 -0.014573 235306.000000 0 1 0
17.969427 -16.388370 -3.535076 24.575918 -0.739413 1.715140 0.099315 -0.021566 -1039230.000000 0 1 0
19.295427 -16.091270 -3.691776 25.394324 -0.695097 1.716691 0.076794 -0.002404 -904874.000000 0 0 1
20.151327 -16.817670 -2.561376 26.371778 -0.695467 1.668075 0.076702 -0.024357 820631.000000 0 0 1
21.568527 -16.740270 -2.713876 27.437258 -0.660024 1.669870 0.072374 -0.012900 687300.000000 0 0 1
22.199527 -17.266270 -1.559276 28.166903 -0.661042 1.626183 0.066152 -0.011183 579833.000000 0 0 1
23.755527 -17.372370 -1.546476 29.470594 -0.631424 1.623296 0.085179 -0.014482 341767.000000 0 0 1
24.470527 -16.174170 -1.477476 29.369941 -0.584045 1.621123 0.073758 -0.009204 -872617.000000 0 0 1
25.663327 -16.455470 -0.842876 30.497529 -0.570168 1.598437 0.119320 -0.009106 -895279.000000 0 0 1
26.295927 -15.126470 -0.386576 30.338677 -0.522015 1.583539 0.107232 -0.007876 228620.000000 0 0 1
25.533427 -14.490770 0.681324 29.366691 -0.516196 1.547594 0.077127 -0.000899 1115200.000000 0 0 1
26.230327 -13.333070 1.192424 29.448645 -0.470271 1.530294 0.071967 0.003578 518332.000000 0 0 1
25.373027 -12.802670 2.364424 28.518229 -0.467303 1.487792 0.078002 -0.007172 -46249.600000 0 0 1
25.162227 -13.682570 3.409624 28.843993 -0.498051 1.452310 0.107294 -0.001607 -135839.000000 0 0 1
26.250127 -14.073970 4.188924 30.078113 -0.492147 1.431074 0.147164 0.013200 -288010.000000 0 0 1
25.742327 -14.693470 5.524424 30.151032 -0.518665 1.386530 0.126128 0.014015 273155.000000 0 0 1
25.039727 -15.910770 5.415524 30.157394 -0.566058 1.390242 0.134709 0.001282 299408.000000 0 0 1
24.509227 -16.299270 6.692324 30.185354 -0.586866 1.347231 0.111886 0.003331 225296.000000 0 0 1
23.837527 -17.705870 6.731524 30.447314 -0.638860 1.347867 0.100722 0.004738 -43700.500000 0 0 1
24.802327 -18.707070 6.517724 31.742568 -0.646213 1.363995 0.106962 -0.000696 -204704.000000 0 0 1
24.300427 -19.974570 6.240624 32.069294 -0.688003 1.374949 0.067922 0.000917 -245165.000000 0 0 1
2.105527 23.317367 -3.250876 23.636858 1.480742 1.708768 0.033712 -0.023024 177431.000000 0 1 0
2.995827 24.357267 -2.866576 24.707665 1.448416 1.687078 0.046156 -0.026823 389205.000000 0 1 0
3.738227 24.905967 -3.998376 25.500364 1.421815 1.728243 0.063282 -0.026153 111701.000000 0 0 1
4.826127 25.854667 -3.517376 26.535396 1.386256 1.703742 0.053325 -0.018503 -429576.000000 0 0 1
5.697127 25.293367 -2.568876 26.053998 1.349252 1.669555 0.046186 -0.022070 -160790.000000 0 0 1
6.392127 26.324167 -1.829376 27.150832 1.332583 1.638226 0.041296 -0.016129 82861.100000 0 0 1
7.604127 25.695767 -1.101576 26.819930 1.283078 1.611881 0.033273 -0.029129 -64147.700000 0 0 1
8.685427 25.524867 -1.997576 27.036009 1.242813 1.644749 0.031631 -0.031163 49785.200000 0 0 1
9.664527 24.667167 -1.403976 26.530046 1.197381 1.623741 0.029013 -0.017493 330445.000000 0 0 1
10.780927 24.137467 -2.327676 26.537969 1.150734 1.658620 0.058499 -0.015417 -325347.000000 0 0 1
11.758527 25.144167 -2.573076 27.876743 1.133367 1.663230 0.062901 -0.011355 510737.000000 0 0 1
12.718727 24.973567 -3.631276 28.260064 1.099746 1.699648 0.078899 -0.016476 722160.000000 0 0 1
13.695227 23.774367 -3.509276 27.660347 1.048173 1.698009 0.073335 -0.011762 -382539.000000 0 0 1
13.105027 22.436267 -3.656476 26.239238 1.042150 1.710603 0.080462 -0.016517 64699.900000 0 0 1
13.018127 21.981567 -4.963876 26.025007 1.036110 1.762707 0.108829 -0.027318 -178699.000000 0 0 1
11.993627 20.845367 -5.038476 24.571582 1.048690 1.777314 0.106626 -0.033215 -214327.000000 0 1 0
10.649227 21.232567 -4.920976 24.257863 1.105908 1.775075 0.100462 -0.030022 -122679.000000 0 1 0
9.787127 20.092167 -4.771376 22.852769 1.117513 1.781131 0.074712 -0.026749 378221.000000 0 1 0
8.317827 20.563567 -4.662076 22.666748 1.186422 1.777954 0.054459 -0.022197 -36433.300000 0 1 0
7.985027 21.156567 -3.427376 22.871552 1.209901 1.721216 0.054766 -0.019671 1175260.000000 0 1 0
6.655227 21.727967 -3.571376 23.003289 1.273572 1.726682 0.051371 -0.006493 1611800.000000 0 1 0
5.971127 22.424967 -2.311776 23.321188 1.310563 1.670087 0.044947 -0.012087 240485.000000 0 1 0
5.239227 21.560667 -1.488176 22.237952 1.332417 1.637767 0.031094 -0.017283 -365935.000000 0 1 0
4.549327 22.296367 -0.526276 22.761839 1.369520 1.593919 0.039796 -0.015968 -96617.500000 0 1 0
4.095627 21.384767 0.641424 21.782880 1.381567 1.541346 0.025165 -0.015535 14231.200000 0 1 0
3.401127 22.036867 1.688824 22.361648 1.417667 1.495201 0.022730 -0.014178 274685.000000 0 1 0
3.163927 21.076267 2.729824 21.486540 1.421791 1.443404 0.026726 -0.015505 113379.000000 0 1 0
2.195227 21.477467 3.896524 21.938175 1.468939 1.392235 0.022982 -0.023086 -776343.000000 0 1 0
0.894227 21.529867 3.450824 21.822993 1.529286 1.412002 0.023027 -0.026038 -1358050.000000 0 1 0
0.038427 21.983967 4.483524 22.436539 1.569048 1.369611 0.035878 -0.030929 -68317.200000 0 1 0
-1.368173 22.247367 3.938024 22.634603 -1.509375 1.395924 0.041068 -0.025477 17079.700000 0 1 0
-2.321373 22.693967 4.911524 23.335123 -1.468861 1.358733 0.064547 -0.033197 932724.000000 0 1 0
-3.617273 22.720867 4.265524 23.399085 -1.412916 1.387477 0.085514 -0.036639 341078.000000 0 1 0
-4.856273 22.984267 5.061324 24.030750 -1.362572 1.358589 0.109187 -0.051946 -687660.000000 0 1 0
-5.181673 24.287567 5.457224 25.426697 -1.360601 1.354488 0.142353 -0.042025 -538653.000000 0 0 1
-6.360473 24.195867 6.204924 25.775893 -1.313738 1.327683 0.161747 -0.046559 -80219.000000 0 0 1
-7.004873 25.456667 6.838724 27.274132 -1.302273 1.317351 0.170102 -0.051557 -338220.000000 0 0 1
-6.238873 25.993067 7.852924 27.860931 -1.335232 1.285063 0.135766 -0.055735 -619566.000000 0 0 1
-6.752573 27.110467 8.531124 29.212236 -1.326687 1.274438 0.164108 -0.047196 -252495.000000 0 0 1
-6.970473 28.386467 7.647624 30.213659 -1.330004 1.314894 0.179243 -0.047073 149125.000000 0 0 1
-8.173073 28.300267 6.926324 30.260175 -1.289648 1.339857 0.167074 -0.053889 -750893.000000 0 0 1
-8.284473 29.328267 5.944824 31.050293 -1.295495 1.378149 0.192195 -0.051145 1112790.000000 0 0 1
-9.799973 29.657967 5.568924 31.727707 -1.251658 1.394360 0.196408 -0.049302 1592400.000000 0 0 1
-10.560273 30.199667 6.632024 32.672971 -1.234405 1.366394 0.167334 -0.044986 -143896.000000 0 0 1
-11.189673 29.213767 7.452524 32.158873 -1.205007 1.336929 0.132156 -0.039940 -339225.000000 0 0 1
-12.070373 29.850367 8.525224 33.307923 -1.186535 1.311964 0.082219 -0.033921 29721.000000 0 0 1
-11.312673 30.321267 9.613024 33.760421 -1.213698 1.282059 0.103290 -0.035374 726372.000000 0 0 1
-12.228473 30.945667 10.541324 34.904002 -1.194470 1.263997 0.093368 -0.032083 809975.000000 0 0 1
-11.411273 31.341867 11.797424 35.379500 -1.221624 1.230832 0.086943 -0.039218 324127.000000 0 0 1
-10.706273 32.576467 11.570324 36.190094 -1.253266 1.245373 0.092989 -0.041206 776752.000000 0 0 1
-9.655573 32.801767 12.531524 36.417374 -1.284521 1.219507 0.083437 -0.049326 770866.000000 0 0 1
-9.477073 -33.300370 12.695724 36.876971 1.293533 1.219333 0.093321 -0.044108 667855.000000 0 0 1
-10.566173 -32.720570 13.445824 36.919777 1.258446 1.198033 0.083588 -0.035859 450585.000000 0 0 1
-10.408773 -31.330870 13.474124 35.658351 1.250047 1.183305 0.082737 -0.028245 -242743.000000 0 0 1
-11.621673 -30.582070 14.009224 35.589109 1.207635 1.166211 0.066617 -0.036801 -598714.000000 0 0 1
-11.837673 -30.526970 15.419424 36.190953 1.200871 1.130666 0.054048 -0.037454 -184424.000000 0 0 1
-10.897773 -29.785870 16.162024 35.597339 1.220053 1.099521 0.071532 -0.038578 -79572.800000 0 0 1
-11.024773 -30.160970 17.679424 36.657766 1.220353 1.067537 0.077408 -0.046664 -326857.000000 0 0 1
-12.150773 -29.598870 18.274524 36.846881 1.181258 1.051858 0.081063 -0.048102 -278283.000000 0 0 1
-12.450773 -30.207070 19.542124 38.070769 1.179834 1.031759 0.086634 -0.052599 -150902.000000 0 0 1
-12.763673 -29.174370 20.671724 37.965450 1.158389 0.995018 0.116594 -0.054267 760562.000000 0 0 1
-11.551673 -28.759270 21.336924 37.627133 1.188853 0.967862 0.100616 -0.055629 893130.000000 0 0 1
-11.784073 -27.845070 22.369324 37.611155 1.170450 0.933839 0.116094 -0.057204 -57260.600000 0 0 1
-10.531073 -27.668370 23.240624 37.637333 1.207110 0.905250 0.132531 -0.051812 52386.300000 0 0 1
-10.218073 -28.748770 24.076224 38.865993 1.229295 0.902732 0.112810 -0.038892 238764.000000 0 0 1
-8.867173 -28.657170 24.519824 38.743799 1.270718 0.885541 0.137719 -0.032418 516458.000000 0 0 1
-8.544673 -29.779870 25.522624 40.140459 1.291375 0.881709 0.130341 -0.034299 47417.500000 0 0 1
-8.555373 -31.100370 25.034424 40.830746 1.302347 0.910784 0.124293 -0.014658 117446.000000 0 0 1
-8.360073 -32.059470 26.125324 42.192808 1.315709 0.903087 0.123214 -0.019202 -14780.800000 0 0 1
-8.737473 -33.506470 25.672024 43.105450 1.315707 0.932830 0.112662 -0.019675 121435.000000 0 0 1
-7.630273 33.430467 25.106124 42.498643 -1.346397 0.938807 0.100175 -0.017403 559527.000000 0 0 1
-7.894873 32.123067 24.692724 41.278942 -1.329803 0.929554 0.057836 -0.012563 -349558.000000 0 0 1
-8.834173 31.962367 23.507824 40.647919 -1.301136 0.954119 0.064988 -0.020936 -343821.000000 0 0 1
-9.333173 30.653067 23.452924 39.708416 -1.275237 0.938959 0.080708 -0.018354 267592.000000 0 0 1
-10.052073 30.361067 22.217924 38.941940 -1.251071 0.963633 0.063565 -0.028878 340639.000000 0 0 1
-10.509373 28.910367 22.108924 37.882196 -1.222132 0.947613 0.069850 -0.027299 -448228.000000 0 0 1
-9.422073 28.028567 22.116924 36.926066 -1.246504 0.928605 0.054311 -0.020628 -194976.000000 0 0 1
-9.818273 26.711167 22.516324 36.288700 -1.218554 0.901445 0.048632 -0.016156 -273620.000000 0 0 1
-8.849273 25.550367 22.156924 34.957977 -1.237380 0.884320 0.065067 -0.018883 -119254.000000 0 0 1
-7.636273 25.755967 22.845324 35.264590 -1.282567 0.866069 0.039873 -0.026523 -341393.000000 0 0 1
-6.905773 24.559167 22.894224 34.278096 -1.296685 0.839417 0.034047 -0.022682 -1042610.000000 0 0 1
-5.540773 24.626367 23.522324 34.503012 -1.349488 0.820648 0.038810 -0.026982 -1553620.000000 0 0 1
-4.630373 25.113667 22.623524 34.116865 -1.388467 0.845819 0.058721 -0.019702 -1199010.000000 0 0 1
-3.375373 25.170167 23.242624 34.426008 -1.437489 0.829632 0.065861 -0.023471 -200686.000000 0 0 1
-2.262973 25.728867 22.298424 34.122066 -1.483067 0.858610 0.074527 -0.012631 119866.000000 0 0 1
-1.717173 24.720567 21.475424 32.790989 -1.501444 0.856722 0.045269 -0.011135 35335.400000 0 0 1
-1.396173 25.060167 20.169924 32.199179 -1.515141 0.893856 0.057119 -0.009214 -56478.400000 0 0 1
-1.129673 23.859667 19.202524 30.647949 -1.523485 0.893675 0.044123 -0.010365 82523.700000 0 0 1
0.088527 23.196567 19.512524 30.312162 1.566980 0.871448 0.051348 -0.009988 102872.000000 0 0 1
0.374327 22.080667 18.665224 28.915162 1.553845 0.869097 0.051080 -0.009744 -7862.420000 0 0 1
1.647327 21.273767 19.007524 28.575738 1.493516 0.843084 0.051048 -0.015100 -343229.000000 0 0 1
2.834827 21.955967 18.724224 28.994781 1.442393 0.868753 0.049158 -0.022208 -1068810.000000 0 0 1
3.831027 21.217467 19.381124 28.991130 1.392161 0.838581 0.051484 -0.018878 491891.000000 0 0 1
5.258427 21.820767 19.060124 29.446311 1.334322 0.866781 0.057241 -0.021941 24806.000000 0 0 1
6.219727 20.871567 18.950024 28.868854 1.281175 0.854736 0.068173 -0.023313 -1202990.000000 0 0 1
7.451727 21.418567 18.554524 29.301086 1.235985 0.885068 0.093207 -0.030098 -427551.000000 0 0 1
8.498227 20.359367 18.239324 28.625105 1.175371 0.879963 0.085630 -0.017103 -437137.000000 0 0 1
8.997827 19.718567 19.390424 29.082148 1.142705 0.840961 0.081624 -0.021287 99740.800000 0 0 1
10.039627 18.817667 19.019324 28.576798 1.080693 0.842564 0.076642 -0.021555 626860.000000 0 0 1
10.655227 17.952867 20.176524 29.033281 1.035162 0.802453 0.083839 -0.015918 186597.000000 0 0 1
9.703427 17.058267 20.704224 28.527283 1.053604 0.758644 0.078658 -0.017663 148797.000000 0 0 1
10.217627 16.325267 21.855224 29.130140 1.011566 0.722339 0.074364 -0.021077 130297.000000 0 0 1
9.272027 15.155067 22.224724 28.453205 1.021738 0.674375 0.068775 -0.019504 249214.000000 0 0 1
8.085927 15.542167 22.895624 28.829686 1.091074 0.653158 0.067884 -0.003386 390286.000000 0 0 1
7.252327 14.440867 23.344624 28.392012 1.105383 0.605487 0.058877 -0.000291 246962.000000 0 0 1
7.699127 13.486967 24.467824 28.980153 1.052081 0.565546 0.073142 -0.009569 -780420.000000 0 0 1
7.828227 14.161467 25.684124 30.356260 1.065818 0.562190 0.086977 -0.017267 -49186.500000 0 0 1
8.014127 13.309667 26.774424 30.955504 1.028813 0.525780 0.101935 -0.021327 -143637.000000 0 0 1
8.965327 13.919167 27.922824 32.462354 0.998580 0.535213 0.081280 -0.015483 890500.000000 0 0 1
10.333127 13.963867 27.549524 32.568994 0.933732 0.562580 0.112911 -0.012409 207492.000000 0 0 1
10.687727 14.962367 26.621124 32.354044 0.950533 0.604464 0.090758 -0.005207 -921602.000000 0 0 1
11.970327 14.623767 25.836124 32.010133 0.884845 0.631533 0.109322 -0.014374 41670.000000 0 0 1
11.853327 13.406267 25.129024 30.849590 0.846800 0.618816 0.101717 -0.028635 -205879.000000 0 0 1
12.949027 13.289767 24.262824 30.544719 0.798384 0.652880 0.134600 -0.035013 -381073.000000 0 0 1
12.796127 12.179567 23.190324 29.152596 0.760717 0.650996 0.101893 -0.036098 60692.200000 0 0 1
12.525127 10.872067 23.761024 28.977007 0.714863 0.609393 0.109026 -0.027403 735399.000000 0 0 1
11.146027 10.654667 24.078824 28.592755 0.762863 0.569575 0.109114 -0.028570 289217.000000 0 0 1
10.825327 9.216867 24.432924 28.268465 0.705316 0.527005 0.110811 -0.027392 -87948.300000 0 0 1
10.984527 8.378767 23.363724 27.142719 0.651630 0.534010 0.109599 -0.020584 190900.000000 0 0 1
10.806427 7.013067 23.769224 27.035865 0.575652 0.496671 0.107914 -0.026002 -202382.000000 0 0 1
11.263327 6.019567 22.740924 26.081552 0.490818 0.511694 0.123507 -0.041858 2060800.000000 0 0 1
12.736527 6.007267 22.545624 26.582166 0.440717 0.558316 0.135406 -0.036795 2724120.000000 0 0 1
13.284827 4.851367 21.885124 26.057265 0.350135 0.573724 0.151682 -0.042313 98245.500000 0 0 1
12.969027 3.457167 22.491824 26.192171 0.260513 0.538024 0.128763 -0.045084 -372889.000000 0 0 1
13.712727 3.215167 23.689324 27.560121 0.230306 0.536406 0.141792 -0.037207 468946.000000 0 0 1
13.212827 2.016867 24.251924 27.691197 0.151475 0.503707 0.129659 -0.030086 -345911.000000 0 0 1
14.288527 1.321267 25.119024 28.928759 0.092208 0.519019 0.093203 -0.017826 -47108.200000 0 0 1
15.230927 0.624267 24.333324 28.713786 0.040964 0.559644 0.124139 -0.027214 -1245690.000000 0 0 1
16.446327 1.248867 24.377924 29.433391 0.075790 0.594836 0.109498 -0.034244 -1844680.000000 0 0 1
17.394227 0.638067 23.347824 29.121936 0.036666 0.640618 0.110657 -0.036723 -645465.000000 0 0 1
17.769327 -0.646533 23.731724 29.654034 -0.036369 0.643023 0.109166 -0.037375 -90959.900000 0 0 1
18.427327 -1.202533 22.614724 29.196544 -0.065166 0.684764 0.131495 -0.028398 -137828.000000 0 0 1
18.719327 -2.719533 22.836524 29.653261 -0.144270 0.691769 0.116619 -0.024180 -277165.000000 0 0 1
17.714527 -3.627633 22.545224 28.900715 -0.201990 0.675983 0.102209 -0.009991 -228758.000000 0 0 1
18.191127 -4.860633 22.986224 29.713791 -0.261098 0.686313 0.111114 -0.011098 192747.000000 0 0 1
17.328027 -6.049033 22.482124 29.022357 -0.335863 0.684637 0.115455 -0.015082 167565.000000 0 0 1
17.213527 -6.202233 21.042124 27.884479 -0.345831 0.715725 0.120288 -0.020221 106983.000000 0 0 1
16.341727 -7.216533 20.623424 27.284721 -0.415848 0.713830 0.148680 -0.030793 -101858.000000 0 0 1
17.008427 -8.633433 20.632024 28.098099 -0.469707 0.746183 0.149464 -0.035149 56130.400000 0 0 1
17.035727 -9.154033 21.896824 29.214435 -0.493074 0.723459 0.136810 -0.028058 -26128.400000 0 0 1
17.840827 -10.304333 22.063324 30.187160 -0.523764 0.751179 0.114335 -0.031532 -36523.400000 0 0 1
17.529027 -11.243433 23.318224 31.263735 -0.570318 0.728978 0.117081 -0.032035 600952.000000 0 0 1
16.262027 -11.868233 23.074024 30.622199 -0.630456 0.717417 0.152170 -0.040110 419962.000000 0 0 1
16.091827 -12.973233 23.911624 31.607237 -0.678510 0.712815 0.155201 -0.032073 1036620.000000 0 0 1
14.861027 -13.931233 23.596324 31.172358 -0.753116 0.712143 0.177774 -0.039575 1040210.000000 0 0 1
15.142627 -14.624933 22.383424 30.727927 -0.768009 0.754755 0.191380 -0.040633 1427990.000000 0 0 1
13.958927 -15.315133 21.886424 30.140015 -0.831693 0.758079 0.186637 -0.031471 976575.000000 0 0 1
14.332027 -16.245133 20.732424 29.985742 -0.847883 0.807358 0.170804 -0.036271 -308419.000000 0 0 1
15.005427 -17.359733 21.168024 31.218719 -0.858012 0.825682 0.190031 -0.042880 -126547.000000 0 0 1
15.670827 -18.018933 20.122624 31.227820 -0.854984 0.870582 0.166293 -0.036676 -117272.000000 0 0 1
-24.402773 -31.731870 25.884935 47.670083 0.915227 0.996789 0.062372 -0.039334 -569753.000000 0 0 1
-24.952973 -32.981570 25.575725 48.626665 0.923102 1.016952 0.059155 -0.028449 -484819.000000 0 0 1
-26.179103 -33.302770 26.145895 49.779793 0.904592 1.017810 0.051782 -0.041341 -517092.000000 0 0 1
-26.289993 -33.465870 27.677255 50.765723 0.904912 0.994174 0.044347 -0.036630 -260671.000000 0 0 1
-27.608343 -33.316070 28.177825 51.634978 0.878811 0.993558 0.062571 -0.033633 149655.000000 0 0 1
-27.603583 -33.315570 29.636425 52.442375 0.878888 0.970213 0.036609 -0.029754 151711.000000 0 0 1
-28.784103 -32.685970 30.451305 53.143007 0.848789 0.960626 0.036446 -0.026688 38231.900000 0 0 1
-28.801013 -31.286870 30.223695 52.171241 0.826745 0.952906 0.025449 -0.020781 334527.000000 0 0 1
-29.424593 -30.521570 31.259355 52.673715 0.803695 0.935455 0.019740 0.000657 -97278.200000 0 0 1
-29.408703 -28.977870 30.901585 51.570309 0.778019 0.928279 0.011047 -0.002786 26558.900000 0 0 1
-30.223993 -28.822270 29.736065 51.268378 0.761663 0.952058 0.021979 0.003423 430083.000000 0 0 1
-30.524423 -27.529970 29.339235 50.501786 0.733864 0.950896 0.041787 0.002038 -155463.000000 0 0 1
-31.241413 -27.441670 27.966615 50.111902 0.720738 0.978722 0.036638 -0.011498 -258107.000000 0 0 1
-30.487743 -27.343970 26.779835 48.932144 0.731091 0.991679 0.040803 -0.012416 -202356.000000 0 0 1
-29.835053 -26.106070 26.641085 47.764053 0.718838 0.979107 0.039320 -0.008348 -358387.000000 0 0 1
-28.951813 -26.061170 25.402925 46.504846 0.732902 0.992925 0.024084 -0.008738 -307881.000000 0 0 1
-29.674583 -26.153270 24.201005 46.370929 0.722407 1.021719 0.022622 -0.015856 171730.000000 0 0 1
-28.762723 -26.014270 23.120755 45.150923 0.735265 1.033195 0.021332 0.005645 -85318.400000 0 0 1
-29.337823 -26.139670 21.696685 44.885815 0.727814 1.066290 0.027282 0.001052 -319834.000000 0 0 1
-30.160513 -25.123570 21.233485 44.628592 0.694539 1.074943 0.039534 -0.010815 -266548.000000 0 0 1
-30.585283 -25.362270 19.950585 44.460434 0.692312 1.105456 0.043739 0.000359 -256506.000000 0 0 1
-31.327253 -24.187870 19.311585 44.038474 0.657498 1.116849 0.061488 -0.003020 -470482.000000 0 0 1
-32.615853 -24.043770 19.830585 45.112624 0.635246 1.115666 0.092916 -0.013412 -170017.000000 0 0 1
-33.271533 -22.859670 19.318985 44.752459 0.601991 1.124436 0.093784 -0.006942 441027.000000 0 0 1
-34.791897 -22.771270 19.597985 45.968336 0.579532 1.130357 0.094205 -0.003348 356174.000000 0 0 1
-35.688727 -23.572370 18.836185 46.734824 0.583721 1.155956 0.084540 -0.016828 -489418.000000 0 0 1
-36.827593 -22.842470 18.572285 47.148487 0.555179 1.165914 0.075479 -0.018960 -812355.000000 0 0 1
37.302256 -23.587470 17.800885 47.588849 -0.563856 1.187418 0.083904 -0.016170 -155634.000000 0 0 1
36.895096 -24.781570 18.432985 48.115998 -0.591463 1.177652 0.078429 -0.014506 -415870.000000 0 0 1
35.978376 -25.469270 17.645685 47.481549 -0.616012 1.190030 0.079088 -0.007478 -181179.000000 0 0 1
35.796756 -26.892470 18.150785 48.312149 -0.644303 1.185646 0.080160 0.002373 352049.000000 0 0 1
34.707746 -27.095470 19.053085 47.977205 -0.662846 1.162411 0.065209 -0.003422 221662.000000 0 0 1
34.969076 -26.662270 20.415585 48.482049 -0.651423 1.136143 0.079117 -0.001074 511084.000000 0 0 1
33.677206 -26.747870 21.311385 47.997687 -0.671220 1.110729 0.057980 -0.000376 956278.000000 0 0 1
32.712256 -25.809270 20.848685 46.592680 -0.667984 1.106865 0.052827 0.000521 200359.000000 0 0 1
31.553216 -25.725570 21.676085 46.122262 -0.684005 1.081539 0.050918 -0.001289 891893.000000 0 0 1
30.470566 -24.645770 21.283885 44.596784 -0.680107 1.073272 0.044143 0.005333 284001.000000 0 0 1
31.009976 -23.354870 21.003085 44.138398 -0.645508 1.074871 0.026068 0.008133 -117795.000000 0 0 1
31.814976 -22.715770 21.970885 44.843268 -0.620058 1.058766 0.053882 -0.003110 -216668.000000 0 0 1
32.656676 -21.553770 21.388785 44.592641 -0.583381 1.070542 0.048285 -0.003769 118150.000000 0 0 1
31.941276 -20.393270 20.884385 43.269945 -0.568221 1.067115 0.032137 -0.011269 518637.000000 0 0 1
32.848246 -19.312570 20.594385 43.314101 -0.531500 1.075303 0.043034 -0.008990 -152682.000000 0 0 1
32.143916 -17.940370 20.672185 42.218805 -0.509061 1.059115 0.018712 0.001557 300531.000000 0 0 1
31.705866 -17.397970 21.963185 42.312325 -0.501868 1.025030 0.043603 -0.009921 886687.000000 0 0 1
30.589306 -18.096870 22.561685 42.097886 -0.534226 1.005183 0.050419 -0.015274 192878.000000 0 0 1
30.468016 -17.988770 24.120765 42.821807 -0.533342 0.972443 0.051907 -0.015311 -95198.600000 0 0 1
29.942626 -16.725870 24.489275 42.143092 -0.509420 0.950719 0.064649 -0.019738 186657.000000 0 0 1
30.024326 -16.510570 25.897205 42.950254 -0.502771 0.923592 0.070817 -0.024297 -182383.000000 0 0 1
29.921526 -15.029670 26.231395 42.535571 -0.465488 0.906261 0.058653 -0.025715 569506.000000 0 0 1
28.659926 -14.414570 25.898915 41.230147 -0.466007 0.891617 0.073080 -0.025920 802773.000000 0 0 1
28.510126 -13.096370 26.397575 41.002124 -0.430609 0.871329 0.060993 -0.030787 538103.000000 0 0 1
29.405826 -11.945970 25.729575 40.858535 -0.385878 0.889599 0.069079 -0.030889 286403.000000 0 0 1
28.964226 -11.819670 24.405565 39.676978 -0.387451 0.908275 0.062768 -0.026914 367346.000000 0 0 1
29.674126 -10.869570 23.592915 39.437634 -0.351120 0.929501 0.069439 -0.023441 429675.000000 0 0 1
30.739646 -11.475170 22.610045 39.847453 -0.357281 0.967433 0.064721 -0.028370 156598.000000 0 0 1
30.270266 -12.299970 21.550585 39.140848 -0.385959 0.987725 0.050095 -0.025028 -226472.000000 0 0 1
30.282036 -13.682270 21.908285 39.801749 -0.424373 0.987911 0.056236 -0.022645 -196033.000000 0 0 1
29.499026 -14.577870 20.889485 38.975344 -0.458982 1.005144 0.039655 -0.018257 -273206.000000 0 0 1
30.029226 -14.400570 19.595685 38.640933 -0.447156 1.038954 0.041240 -0.023475 -266697.000000 0 0 1
29.705626 -15.412470 18.721385 38.346561 -0.478606 1.060753 0.042630 -0.031914 -400613.000000 0 0 1
30.157126 -15.227370 17.290985 37.951327 -0.467587 1.097740 0.062295 -0.039948 -27501.500000 0 0 1
29.562626 -16.093870 16.331685 37.412370 -0.498533 1.119056 0.062949 -0.045951 272454.000000 0 0 1
28.204526 -15.855170 15.989885 36.090970 -0.512123 1.111805 0.082638 -0.044839 -489331.000000 0 0 1
27.773326 -14.981670 14.793785 34.852032 -0.494689 1.132415 0.104660 -0.047403 -378371.000000 0 0 1
27.714826 -15.547570 13.528185 34.537665 -0.511237 1.168325 0.122407 -0.050477 521021.000000 0 0 1
26.858126 -16.692270 13.386785 34.339436 -0.556077 1.170342 0.127990 -0.047554 -28387.800000 0 0 1
26.937526 -17.327570 12.005185 34.205255 -0.571616 1.212184 0.105291 -0.020446 -119580.000000 0 0 1
26.563126 -16.427770 10.936885 33.092095 -0.553870 1.233965 0.138283 -0.019718 -25089.000000 0 0 1
26.512226 -17.106070 9.651385 32.994924 -0.573004 1.273944 0.115906 -0.015686 732937.000000 0 0 1
27.866026 -17.533570 8.948585 34.117718 -0.561621 1.305406 0.117700 -0.007565 820293.000000 0 0 1
28.564426 -18.528670 9.667185 35.393397 -0.575434 1.294146 0.102069 0.000860 -1917100.000000 0 0 1
29.888426 -18.442270 9.348685 36.343270 -0.552853 1.310639 0.108860 -0.004666 -1264390.000000 0 0 1
30.668806 -19.280870 10.462285 37.706591 -0.561241 1.289641 0.093966 -0.025938 123939.000000 0 0 1
30.794856 -18.612070 11.692285 37.834400 -0.543640 1.256614 0.081984 -0.037395 -14349.100000 0 0 1
31.191626 -19.452570 12.764985 38.913556 -0.557626 1.236574 0.054888 -0.035638 -130350.000000 0 0 1
31.211056 -18.889870 14.214985 39.153838 -0.544256 1.199252 0.058904 -0.027697 106482.000000 0 0 1
31.040236 -19.896070 15.135485 39.855147 -0.570006 1.181257 0.060022 -0.025434 -100737.000000 0 0 1
30.935126 -19.411870 16.481885 40.068133 -0.560397 1.146866 0.066780 -0.036059 -11331.800000 0 0 1
30.647546 -20.594570 17.446185 40.838435 -0.591673 1.129402 0.056460 -0.027918 -57451.400000 0 0 1
29.342326 -21.104870 17.327985 40.082998 -0.623538 1.123752 -0.001665 -0.010564 -440992.000000 0 0 1
29.252226 -22.269170 18.154285 41.002277 -0.650682 1.112119 0.021449 -0.012551 452168.000000 0 0 1
27.825326 -22.872470 18.087485 40.305779 -0.688013 1.105423 0.033011 -0.003587 580932.000000 0 0 1
26.782726 -22.129670 18.707085 39.458735 -0.690553 1.076863 0.044906 -0.006938 500782.000000 0 0 1
25.533326 -22.761170 18.435585 38.857334 -0.728060 1.076465 0.060150 -0.019592 113581.000000 0 0 1
24.280226 -22.196870 19.083385 38.031645 -0.740603 1.045145 0.061301 -0.016399 -382826.000000 0 0 1
23.964226 -20.852970 18.606485 36.814831 -0.716088 1.040942 0.066620 -0.023396 368030.000000 0 0 1
22.726326 -20.298770 19.060785 35.942169 -0.729036 1.011821 0.083110 -0.014281 616878.000000 0 0 1
22.718126 -19.775870 20.521285 36.446144 -0.716269 0.972715 0.072123 -0.013550 -152819.000000 0 0 1
22.678926 -20.851070 21.472885 37.552438 -0.743432 0.962085 0.072844 -0.019602 -242873.000000 0 0 1
23.104026 -20.375170 22.721005 38.277770 -0.722718 0.935293 0.059823 -0.021622 -14874.500000 0 0 1
23.619826 -21.552970 23.582855 39.731320 -0.739676 0.935323 0.053170 -0.019120 -357865.000000 0 0 1
22.631726 -22.465070 23.980065 39.898846 -0.781703 0.926018 0.080866 -0.017514 -257284.000000 0 0 1
23.079326 -23.453870 24.906445 41.268273 -0.793447 0.922881 0.083982 -0.011902 -699605.000000 0 0 1
21.948226 -24.220870 25.559015 41.492631 -0.834583 0.907155 0.098131 -0.017672 -771599.000000 0 0 1
21.327326 -25.166470 24.715365 41.219599 -0.867785 0.927792 0.100462 -0.018628 292903.000000 0 0 1
20.353426 -25.826370 25.554125 41.644648 -0.903362 0.910155 0.117653 -0.026551 310533.000000 0 0 1
19.552326 -26.843370 24.647595 41.356546 -0.941273 0.932313 0.123992 -0.032336 -177382.000000 0 0 1
18.602526 -26.124470 23.897755 39.995558 -0.952014 0.930404 0.123121 -0.029258 -148011.000000 0 0 1
17.844926 -27.061770 23.177505 39.849436 -0.987831 0.950069 0.118657 -0.032536 -378390.000000 0 0 1
16.910726 -26.346770 22.185485 38.370832 -1.000170 0.954292 0.122115 -0.033414 -115443.000000 0 0 1
15.718526 -25.835570 22.721885 37.826351 -1.024219 0.926433 0.121197 -0.034585 -295302.000000 0 0 1
14.942326 -25.119770 21.811685 36.469516 -1.034177 0.929693 0.099789 -0.026921 -52951.800000 0 0 1
13.530326 -24.717770 22.265885 35.913891 -1.069957 0.902079 0.091509 -0.021177 303669.000000 0 0 1
12.525826 -25.732170 22.122585 36.172499 -1.117783 0.912733 0.080875 -0.022413 410894.000000 0 0 1
11.284326 -25.068070 21.878385 35.134142 -1.147820 0.898595 0.069815 -0.015135 763100.000000 0 0 1
10.050026 -26.026270 21.918485 35.479427 -1.202287 0.904880 0.067834 -0.018075 321667.000000 0 0 1
9.810426 -26.817670 20.763685 35.306692 -1.220099 0.942095 0.084219 -0.023334 -218233.000000 0 0 1
8.614626 -27.525470 20.916585 35.628175 -1.267484 0.943349 0.093424 -0.028432 -276043.000000 0 0 1
8.309026 -28.566570 19.789185 35.730949 -1.287741 0.983829 0.113333 -0.035795 6985.650000 0 0 1
9.067026 -29.747770 19.898485 36.920056 -1.274945 1.001593 0.119673 -0.035910 185388.000000 0 0 1
8.794726 -30.557170 18.786385 36.932589 -1.290558 1.037161 0.125565 -0.040696 72482.400000 0 0 1
9.452926 -31.959070 18.903385 38.315505 -1.283213 1.054847 0.117035 -0.042013 -461081.000000 0 0 1
8.872826 -32.683270 19.969385 39.315386 -1.305706 1.038019 0.127481 -0.043334 12746.600000 0 0 1
9.469626 33.741367 20.224785 40.462274 1.297182 1.047379 0.119242 -0.044820 -372438.000000 0 0 1
8.705726 32.900267 21.274585 40.135087 1.312115 1.012108 0.135522 -0.044254 -430475.000000 0 0 1
7.798026 32.064667 20.633085 38.918842 1.332231 1.012011 0.121716 -0.043489 -470196.000000 0 0 1
7.725426 30.807467 21.175785 38.173238 1.325098 0.982760 0.117939 -0.052369 882121.000000 0 0 1
6.564726 29.892367 20.558185 36.868526 1.354616 0.979295 0.103569 -0.047829 170251.000000 0 0 1
5.272426 30.201067 20.940785 37.127071 1.397961 0.971538 0.110089 -0.044680 -1120130.000000 0 0 1
4.430526 29.128267 20.586485 35.942856 1.419849 0.960932 0.107363 -0.038581 -10501.300000 0 0 1
3.033526 29.217067 21.218985 36.236509 1.467340 0.945214 0.092195 -0.028777 -113234.000000 0 0 1
3.010826 28.937667 22.616425 36.850459 1.467124 0.910013 0.073539 -0.029545 575109.000000 0 0 1
1.673626 28.732267 23.091945 36.899622 1.512613 0.894634 0.073761 -0.022518 734660.000000 0 0 1
1.736526 28.134967 24.481485 37.335439 1.509153 0.855664 0.078625 -0.019685 -81231.900000 0 0 1
1.341926 28.999067 25.563745 38.681413 1.524555 0.848807 0.093722 -0.027537 175776.000000 0 0 1
1.235726 28.408967 26.860935 39.116573 1.527326 0.813871 0.095857 -0.026850 -425993.000000 0 0 1
2.500326 27.899167 27.574755 39.306263 1.481415 0.793246 0.085662 -0.028873 -406009.000000 0 0 1
3.006726 26.755867 26.904565 38.062744 1.458889 0.785764 0.083647 -0.025892 -177878.000000 0 0 1
3.732026 25.969967 27.763255 38.199025 1.428068 0.757137 0.066283 -0.025132 -490184.000000 0 0 1
4.233626 24.667067 27.186735 36.952758 1.400822 0.744073 0.048354 -0.005974 -222264.000000 0 0 1
3.194826 23.785567 26.888285 36.040810 1.437278 0.728684 0.057138 -0.002993 -274477.000000 0 0 1
3.766126 22.635567 26.301435 34.904414 1.405926 0.717385 0.051024 0.004634 443032.000000 0 0 1
2.794226 21.434467 26.045505 33.846897 1.441166 0.692724 0.061584 0.006452 503425.000000 0 0 1
3.427126 20.164667 26.337705 33.347169 1.402448 0.660308 0.080332 0.006722 725634.000000 0 0 1
4.142026 19.497567 25.258795 32.176361 1.361470 0.668083 0.083059 0.000224 180405.000000 0 0 1
4.372226 17.990167 25.626435 31.614501 1.332384 0.625635 0.075334 -0.011697 -230981.000000 0 0 1
5.452926 17.642667 26.458265 32.265119 1.271034 0.609338 0.052970 -0.001638 122706.000000 0 0 1
6.637526 17.368567 25.707635 31.727061 1.205766 0.626176 0.058439 0.007907 1307.220000 0 0 1
7.870426 17.349867 26.673645 32.778725 1.144928 0.620223 0.049758 -0.002168 13288.700000 0 0 1
8.311726 18.547467 27.258445 34.001708 1.149496 0.640698 0.047186 -0.000988 156108.000000 0 0 1
8.853726 19.518367 26.372025 33.982920 1.144944 0.682438 0.038626 -0.016074 -264266.000000 0 0 1
9.324326 20.854467 27.054785 35.409226 1.150345 0.701213 0.028633 -0.012596 504526.000000 0 0 1
10.533726 20.662867 27.789915 36.196586 1.099347 0.695475 0.043032 -0.028425 333299.000000 0 0 1
10.816526 21.860467 28.501855 37.513104 1.111319 0.707816 0.063685 -0.032175 -213457.000000 0 0 1
11.819026 21.624267 29.617185 38.528898 1.070596 0.693989 0.082183 -0.035021 83431.400000 0 0 1
13.193726 21.590867 29.265465 38.687303 1.022270 0.712910 0.081142 -0.034577 194924.000000 0 0 1
13.964026 21.255067 30.446675 39.670794 0.989534 0.695890 0.088467 -0.028599 553418.000000 0 0 1
15.373626 20.795067 29.965465 39.581717 0.934184 0.712005 0.077669 -0.035589 225216.000000 0 0 1
16.143726 21.912567 29.574585 40.192494 0.935840 0.743914 0.067548 -0.047177 -488571.000000 0 0 1
17.303926 21.448667 28.930635 39.955636 0.891947 0.761113 0.142512 -0.035165 -76933.500000 0 0 1
-8.637473 16.898667 4.138124 19.424082 -1.098282 1.356110 0.045385 -0.021106 -82867.800000 0 1 0
-8.495673 18.136767 4.787924 20.592304 -1.132728 1.336138 0.055705 -0.026627 -156703.000000 0 1 0
-7.139973 18.496867 4.919324 20.428242 -1.202408 1.327596 0.058713 -0.019140 -316828.000000 0 1 0
-7.017973 19.863367 5.630924 21.806251 -1.231174 1.309612 0.069799 -0.025068 93912.200000 0 1 0
-7.398873 21.017367 4.856224 22.804735 -1.232309 1.356205 0.087505 -0.032089 -269762.000000 0 1 0
-8.708673 21.078267 4.339524 23.215637 -1.178998 1.382768 0.084698 -0.042226 -183304.000000 0 1 0
-8.958273 22.221067 3.333224 24.189602 -1.187583 1.432561 0.131784 -0.052322 349302.000000 0 1 0
-8.289473 22.057467 2.055224 23.653143 -1.211313 1.483797 0.103603 -0.048586 204875.000000 0 1 0
-8.626073 20.873167 1.361124 22.626332 -1.178910 1.510603 0.117460 -0.052355 -345392.000000 0 1 0
-7.998373 20.976367 -0.055876 22.449612 -1.206510 1.573285 0.083155 -0.028440 1262720.000000 0 1 0
-6.619473 20.600867 -0.204976 21.639204 -1.259896 1.580269 0.057221 -0.018052 437143.000000 0 1 0
-5.686773 21.584167 0.136424 22.321162 -1.313181 1.564684 0.056531 -0.023849 358533.000000 0 1 0
-4.204873 21.297667 -0.279476 21.710589 -1.375870 1.583669 0.043191 -0.017223 761473.000000 0 1 0
-4.005873 21.366467 -1.729676 21.807446 -1.385464 1.650196 0.039857 -0.023617 430704.000000 0 1 0
-2.628373 21.503567 -2.085476 21.763753 -1.449170 1.666767 0.021685 -0.012234 510959.000000 0 1 0
-2.491273 21.536467 -3.636476 21.982944 -1.455631 1.736983 0.036420 -0.014091 789421.000000 0 1 0
-1.268073 22.067767 -4.194876 22.498696 -1.513397 1.758344 0.034870 -0.007480 646082.000000 0 1 0
-1.385073 22.403767 -5.566076 23.126357 -1.509052 1.813864 0.049669 -0.015755 570017.000000 0 1 0
-0.106473 23.060467 -6.209676 23.882139 -1.566179 1.833832 0.054925 -0.021761 1060190.000000 0 1 0
1.034027 22.204467 -6.192176 23.074891 1.524262 1.842477 0.045210 -0.008183 -27659.200000 0 1 0
2.139427 22.743267 -6.874976 23.855788 1.477004 1.863131 0.050062 -0.012477 -235792.000000 0 1 0
3.304927 21.759967 -6.962076 23.084393 1.420067 1.877159 0.047312 -0.006882 -331979.000000 0 1 0
3.046527 20.698567 -7.854176 22.347261 1.424660 1.929927 0.046972 -0.015175 27737.900000 0 1 0
4.001327 19.662367 -7.748176 21.509382 1.370036 1.939303 0.040403 -0.018248 315945.000000 0 1 0
3.737727 18.554167 -8.820176 20.881169 1.372007 2.006886 0.035971 -0.020384 -171070.000000 0 1 0
4.308127 18.980767 -10.033576 21.897537 1.347604 2.046772 0.041274 -0.024025 9645.500000 0 1 0
3.415727 18.865367 -11.140476 22.173846 1.391679 2.097186 0.042551 -0.021085 -48880.800000 0 1 0
3.889427 19.451767 -12.486376 23.439464 1.373447 2.132593 0.042856 -0.016773 -170296.000000 0 1 0
3.881127 20.819767 -12.673676 24.680922 1.386496 2.110056 0.085704 -0.025220 -6417.950000 0 1 0
4.166527 21.010767 -14.077476 25.631769 1.375032 2.152227 0.098094 -0.026205 -204961.000000 0 0 1
4.266427 22.472867 -14.564476 27.117450 1.383181 2.137778 0.091463 -0.031221 87209.600000 0 0 1
3.109527 23.313667 -14.551376 27.657526 1.438201 2.124836 0.106527 -0.034451 190642.000000 0 0 1
3.438727 24.605567 -15.050076 29.047608 1.431942 2.115445 0.096611 -0.039957 -476866.000000 0 0 1
2.212327 25.253267 -15.651976 29.792721 1.483414 2.123937 0.099518 -0.035138 -532750.000000 0 0 1
1.218327 25.581767 -14.723876 29.541558 1.523207 2.092563 0.119414 -0.037923 -425925.000000 0 0 1
1.179727 27.004367 -14.439976 30.645399 1.527138 2.061442 0.097194 -0.037871 -691852.000000 0 0 1
0.495627 27.391167 -13.074976 30.355834 1.552704 2.016091 0.114408 -0.040868 572341.000000 0 0 1
-0.924873 27.317567 -13.046176 30.287086 -1.536953 2.016120 0.100471 -0.040321 513651.000000 0 0 1
-1.582073 26.047167 -13.245976 29.264548 -1.510132 2.040508 0.098522 -0.037685 -483699.000000 0 0 1
-1.480573 25.041267 -12.053076 27.830447 -1.511740 2.018714 0.127057 -0.041088 -742124.000000 0 0 1
-2.106373 25.462067 -10.916576 27.783544 -1.488258 1.974596 0.119766 -0.033111 -419524.000000 0 0 1
-2.238873 24.364067 -10.062976 26.455317 -1.479161 1.960999 0.128676 -0.021559 58147.900000 0 0 1
-3.297673 24.623667 -8.980476 26.416824 -1.437666 1.917663 0.100059 -0.016386 -108450.000000 0 0 1
-2.759973 24.886967 -7.685476 26.192463 -1.460347 1.868602 0.100897 -0.024485 -8964.270000 0 0 1
-2.465873 26.271367 -7.461276 27.421450 -1.477209 1.846367 0.104466 -0.034078 140079.000000 0 0 1
-2.192473 26.644367 -5.988876 27.397005 -1.488695 1.791172 0.097352 -0.025327 -520765.000000 0 0 1
-1.154673 25.894567 -5.471676 26.491529 -1.526235 1.778838 0.081634 -0.028391 -1052000.000000 0 0 1
-0.875373 25.877867 -4.085376 26.212985 -1.536982 1.727287 0.080894 -0.028628 -245251.000000 0 0 1
-1.992573 25.476467 -3.099176 25.741515 -1.492743 1.691485 0.077327 -0.030507 -653190.000000 0 0 1
-3.025473 26.434867 -3.007576 26.776878 -1.456842 1.683354 0.074766 -0.027180 312323.000000 0 0 1
-4.066273 26.142867 -2.067976 26.537909 -1.416492 1.648801 0.067055 -0.020378 333617.000000 0 0 1
-5.021173 24.987767 -2.421776 25.602064 -1.372492 1.665531 0.075518 -0.030308 -1260370.000000 0 0 1
-5.971373 25.424967 -3.365176 26.332692 -1.340115 1.698941 0.078464 -0.031038 -445168.000000 0 0 1
-6.815173 24.334267 -3.681076 25.537295 -1.297727 1.715445 0.024258 -0.026236 -212603.000000 0 0 1
-8.171173 24.868867 -4.173576 26.507496 -1.253339 1.728903 0.048013 -0.026200 -564913.000000 0 0 1
-9.032273 25.069567 -3.099976 26.826759 -1.224985 1.686610 0.083941 -0.029344 -1174580.000000 0 0 1
-10.305673 25.415167 -3.544476 27.653226 -1.185564 1.699326 0.094606 -0.034128 -206048.000000 0 0 1
-11.308773 25.745067 -2.402776 28.221803 -1.156910 1.656039 0.103109 -0.037258 -143299.000000 0 0 1
-11.850473 24.656567 -1.645576 27.405983 -1.122771 1.630877 0.095052 -0.031934 215771.000000 0 0 1
-10.993673 24.185167 -0.603376 26.573431 -1.144155 1.593504 0.130826 -0.046225 305474.000000 0 0 1
-11.546073 22.908267 0.083924 25.653607 -1.103943 1.567525 0.113300 -0.045318 -145126.000000 0 0 1
-12.612973 22.997267 0.979424 26.247298 -1.069140 1.533472 0.126372 -0.051924 -293468.000000 0 0 1
-13.183973 21.704067 1.144624 25.420343 -1.024922 1.525753 0.122948 -0.052627 204775.000000 0 0 1
-14.369373 21.663767 2.147524 26.084661 -0.985135 1.488374 0.125499 -0.054467 98583.900000 0 0 1
-14.074173 21.597867 3.516524 26.017612 -0.993265 1.435222 0.104492 -0.051528 -117489.000000 0 0 1
-13.652373 22.840267 4.087124 26.921547 -1.032046 1.418391 0.104427 -0.052620 -132446.000000 0 0 1
-13.279573 22.715367 5.572524 26.895873 -1.041772 1.362096 0.106409 -0.053246 -1064660.000000 0 0 1
-12.172073 21.906267 5.740824 25.709939 -1.063631 1.345606 0.108552 -0.049794 -635880.000000 0 0 1
-12.036973 21.650467 7.139124 25.779809 -1.063382 1.290202 0.087575 -0.054572 -529541.000000 0 0 1
-10.550873 21.587567 7.516724 25.176281 -1.116191 1.267609 0.088163 -0.044942 6842.480000 0 0 1
-9.906473 22.899367 7.763624 26.130310 -1.162498 1.269130 0.112825 -0.049953 773741.000000 0 0 1
-8.718773 22.694967 8.553924 25.773012 -1.204009 1.232485 0.124371 -0.051525 359985.000000 0 0 1
-8.855773 22.733667 10.077624 26.397023 -1.199336 1.179084 0.084805 -0.043579 82586.700000 0 0 1
-9.646673 21.625267 10.545724 25.921473 -1.151204 1.151811 0.086602 -0.041859 102702.000000 0 0 1
-9.166473 21.130767 11.745724 25.855281 -1.161498 1.099224 0.069775 -0.029091 91275.700000 0 0 1
-10.054073 20.003567 12.369824 25.578108 -1.105060 1.066022 0.053895 -0.012483 78323.400000 0 0 1
-10.189073 18.796767 11.652524 24.349887 -1.074066 1.071799 0.070806 -0.028219 -423127.000000 0 1 0
-10.936273 17.833067 12.282824 24.258774 -1.020685 1.039879 0.047420 -0.022874 -550476.000000 0 1 0
-10.911573 16.481867 11.561324 22.899314 -0.986007 1.041558 0.043101 -0.027990 -170511.000000 0 1 0
-11.549873 15.405767 12.187024 22.787294 -0.927480 1.006506 0.035045 -0.020768 -88815.700000 0 1 0
-11.542773 14.262867 11.348724 21.574488 -0.890417 1.016876 0.031551 -0.015583 -23910.300000 0 1 0
-11.794073 12.904867 12.130824 21.278925 -0.830341 0.964185 0.014777 -0.014244 -199295.000000 0 1 0
-13.047073 12.720667 12.726224 22.226072 -0.772732 0.961146 0.031593 -0.018089 -238200.000000 0 1 0
-13.112573 11.475367 13.416624 21.991576 -0.718911 0.914635 0.021845 -0.008899 -375629.000000 0 1 0
-13.828373 11.662167 14.736924 23.332530 -0.700621 0.887176 0.034787 -0.011152 1135200.000000 0 1 0
-15.229873 11.974067 14.486624 24.190692 -0.666283 0.928730 0.057769 -0.026094 1221380.000000 0 1 0
-15.905173 12.263567 15.693024 25.488048 -0.656833 0.907521 0.056633 -0.015798 132902.000000 0 0 1
-17.070673 13.268267 15.641124 26.685194 -0.660717 0.944516 0.062517 -0.018169 172064.000000 0 0 1
-18.223573 12.900667 14.922324 26.855197 -0.616016 0.981641 0.060518 -0.021955 -359951.000000 0 0 1
-19.079273 13.978267 14.749724 27.874091 -0.632299 1.013192 0.097990 -0.029084 439124.000000 0 0 1
-20.254073 13.594267 13.756024 28.004638 -0.591125 1.057323 0.104920 -0.027960 300245.000000 0 0 1
-21.209173 12.740867 14.285224 28.569675 -0.540952 1.047182 0.109109 -0.026179 -89484.300000 0 0 1
-22.282973 12.568267 13.371924 28.866946 -0.513551 1.089164 0.091009 -0.022769 -278446.000000 0 0 1
-23.365273 11.597867 13.751024 29.487916 -0.460741 1.085662 0.094487 -0.032865 -418326.000000 0 0 1
-23.956673 11.895167 15.002624 30.667506 -0.460866 1.059621 0.104901 -0.018964 520463.000000 0 0 1
-25.122753 11.131867 15.277624 31.440054 -0.417100 1.063371 0.079801 -0.025637 386003.000000 0 0 1
-26.032233 11.516667 16.468924 32.886718 -0.416516 1.046300 0.067550 -0.010648 257177.000000 0 0 1
-26.786993 12.735567 16.299824 33.844083 -0.443806 1.068300 0.084361 -0.007403 127568.000000 0 0 1
-27.460213 13.082867 17.493224 35.088995 -0.444614 1.048884 0.063692 0.009985 -221510.000000 0 0 1
-28.673483 13.987267 17.237724 36.262259 -0.453850 1.075420 0.068252 0.007600 -148048.000000 0 0 1
-28.358663 15.323267 16.969724 36.427844 -0.495395 1.086207 0.094761 0.003867 -266070.000000 0 0 1
-29.557033 16.041967 16.864724 37.621561 -0.497257 1.105964 0.100472 -0.004078 -152616.000000 0 0 1
-29.320523 17.586267 16.698024 38.049887 -0.540268 1.116483 0.097282 -0.007604 748.967000 0 0 1
-28.935773 18.316767 17.873324 38.629505 -0.564342 1.089774 0.093466 -0.004804 744324.000000 0 0 1
-29.980203 18.477967 18.866624 39.952439 -0.552347 1.078981 0.103484 -0.022218 532816.000000 0 0 1
-29.308943 18.924467 20.219224 40.323276 -0.573339 1.045548 0.089500 -0.022158 926863.000000 0 0 1
-28.595473 18.022867 21.101524 39.847197 -0.562380 1.012713 0.088057 -0.011431 -54155.800000 0 0 1
-27.468103 17.405467 20.579524 38.483292 -0.564803 1.006567 0.099214 0.001395 -876502.000000 0 0 1
-27.127253 16.156567 21.424524 38.156687 -0.537166 0.974613 0.108891 -0.008507 388492.000000 0 0 1
-28.193623 15.194267 21.447424 38.545274 -0.494301 0.980723 0.076478 -0.007369 692103.000000 0 0 1
-27.697743 13.897167 21.715124 37.839699 -0.465042 0.959571 0.065109 -0.000359 -358721.000000 0 0 1
-28.791063 12.840567 21.747124 38.298079 -0.419515 0.966919 0.084756 -0.011749 -339931.000000 0 0 1
-29.401973 12.676367 20.490624 38.013576 -0.407060 1.001506 0.093336 -0.019519 387017.000000 0 0 1
-30.571493 11.863767 20.551424 38.700468 -0.370177 1.010971 0.131366 -0.023732 -19776.200000 0 0 1
-31.252203 11.773267 19.190224 38.517200 -0.360276 1.049246 0.151122 -0.023142 -449127.000000 0 0 1
-30.586883 11.083267 18.128024 37.242737 -0.347638 1.062427 0.170360 -0.021996 405734.000000 0 0 1
-30.099433 9.760667 18.333224 36.569846 -0.313581 1.045672 0.177222 -0.019143 192712.000000 0 0 1
-29.314343 9.156667 17.085924 35.144047 -0.302759 1.063097 0.182147 -0.029052 379558.000000 0 0 1
-30.095803 8.705167 15.944224 35.153315 -0.281564 1.100038 0.185152 -0.024247 544225.000000 0 0 1
-30.784833 9.718267 15.219124 35.689948 -0.305783 1.130258 0.190117 -0.022725 -36929.900000 0 0 1
-29.921473 10.785367 14.487324 34.949982 -0.345959 1.143386 0.171954 -0.016579 68382.200000 0 0 1
-29.294093 10.313467 13.297824 33.783777 -0.338515 1.166235 0.165425 -0.031044 12243.900000 0 0 1
-28.185183 11.074167 12.927824 32.926742 -0.374377 1.167314 0.126002 -0.019595 -374548.000000 0 0 1
-27.855103 10.945767 11.411224 32.030183 -0.374417 1.206529 0.167029 -0.015063 141880.000000 0 0 1
-27.073053 9.761567 11.049524 30.827429 -0.346055 1.204209 0.179952 -0.019642 791357.000000 0 0 1
-27.693573 8.504567 11.145624 31.040080 -0.297953 1.203523 0.193503 -0.020843 -134855.000000 0 0 1
-26.803673 7.374167 10.508924 29.719568 -0.268476 1.209376 0.206400 -0.036504 -75455.300000 0 0 1
-26.841953 7.569267 9.096724 29.334871 -0.274857 1.255499 0.216573 -0.027743 656685.000000 0 0 1
-26.192023 6.498767 8.361324 28.251863 -0.243209 1.270340 0.219542 -0.052405 -42470.400000 0 0 1
-25.490203 6.959667 7.083024 27.356108 -0.266537 1.308893 0.219572 -0.036214 -239461.000000 0 0 1
-26.438193 7.413167 6.151924 28.138573 -0.273376 1.350386 0.225577 -0.041042 460283.000000 0 0 1
-25.741353 7.944967 5.046124 27.408085 -0.299370 1.385629 0.211751 -0.039527 683757.000000 0 0 1
-26.769403 8.625267 4.033224 28.412375 -0.311703 1.428362 0.216951 -0.038499 863813.000000 0 0 1
-27.650433 7.752967 3.283124 28.903873 -0.273372 1.456963 0.242520 -0.043735 636391.000000 0 0 1
-27.118063 6.703267 2.426324 28.039440 -0.242331 1.484155 0.245004 -0.043632 -226653.000000 0 0 1
-26.265543 7.124867 1.167524 27.239780 -0.264889 1.527922 0.259362 -0.035256 281112.000000 0 0 1
-25.053393 7.658967 1.667924 26.250986 -0.296683 1.507216 0.230318 -0.035511 6801.650000 0 0 1
-24.081873 7.898367 0.683624 25.353267 -0.316925 1.543829 0.235311 -0.020930 2253.240000 0 0 1
-22.700573 8.202667 1.324724 24.173429 -0.346743 1.515968 0.183856 -0.025195 -174506.000000 0 1 0
-22.605573 9.461367 1.972724 24.584976 -0.396387 1.490469 0.159247 -0.034792 522309.000000 0 1 0
-21.293073 9.841167 2.335424 23.573242 -0.432934 1.471563 0.129816 -0.036546 -113166.000000 0 1 0
-21.313973 11.134067 3.188624 24.257375 -0.481394 1.438965 0.103780 -0.048559 -780433.000000 0 1 0
-21.528173 12.284267 2.479524 24.910108 -0.518531 1.471092 0.199067 -0.041851 388953.000000 0 1 0
-21.705173 13.426167 3.260424 25.729494 -0.553962 1.443735 0.184941 -0.047683 517291.000000 0 0 1
-20.345673 14.046367 3.755124 25.006955 -0.604244 1.420063 0.136266 -0.035661 814947.000000 0 0 1
-19.696073 13.359267 4.819124 24.282283 -0.595993 1.371007 0.119899 -0.042420 -82724.500000 0 1 0
-18.888173 14.202967 5.618224 24.290982 -0.644748 1.337394 0.110435 -0.035291 -159488.000000 0 1 0
-18.395573 13.311767 6.756124 23.690620 -0.626416 1.281601 0.074576 -0.032151 80430.100000 0 1 0
-17.277373 12.481667 6.477224 22.276761 -0.625621 1.275774 0.065102 -0.029103 464967.000000 0 1 0
-16.766573 11.798267 7.656324 21.884615 -0.613190 1.213386 0.052752 -0.025598 -207535.000000 0 1 0
11.032727 -32.421270 -14.393376 37.148743 -1.242795 1.968663 0.080962 -0.037938 -158724.000000 0 0 1
12.012327 -32.494370 -13.380776 37.137922 -1.216703 1.939385 0.074816 -0.026311 -163201.000000 0 0 1
12.896627 -31.436770 -13.472576 36.552754 -1.181493 1.948276 0.073394 -0.024170 574964.000000 0 0 1
14.410127 -31.566270 -13.094976 37.088537 -1.142547 1.931650 0.094387 -0.019098 726999.000000 0 0 1
15.196927 -32.435270 -13.870976 38.410901 -1.132639 1.940266 0.107973 -0.024217 357910.000000 0 0 1
16.547827 -31.972470 -13.731376 38.530768 -1.093196 1.935181 0.112930 -0.025857 867425.000000 0 0 1
17.686427 -32.949670 -14.100576 39.966445 -1.078166 1.931369 0.124276 -0.027416 218386.000000 0 0 1
17.773627 33.599167 -13.252176 40.254515 1.084227 1.906263 0.122017 -0.024806 -858258.000000 0 0 1
18.623227 32.654167 -13.761376 40.031171 1.052489 1.921721 0.117343 -0.020857 -576046.000000 0 0 1
18.730727 31.418067 -12.922676 38.793435 1.033193 1.910402 0.105807 -0.029747 -1932.700000 0 0 1
19.704127 31.446667 -11.902276 38.971909 1.011055 1.881162 0.088208 -0.037650 -116740.000000 0 0 1
19.644527 30.310267 -11.174276 37.808520 0.995748 1.870827 0.075190 -0.035287 -4299.810000 0 0 1
20.547527 30.317267 -9.926176 37.945573 0.975160 1.835465 0.083988 -0.034962 -62474.800000 0 0 1
21.884027 29.960467 -10.153776 38.466081 0.939938 1.837929 0.076765 -0.034011 -258421.000000 0 0 1
22.603427 29.916667 -8.907076 38.539044 0.923755 1.804023 0.069379 -0.036772 -505147.000000 0 0 1
23.903927 29.192167 -9.059776 38.802833 0.884668 1.806454 0.042706 -0.025467 -1049010.000000 0 0 1
24.864427 29.636167 -9.964776 39.947952 0.872729 1.822902 0.055981 -0.029026 -272444.000000 0 0 1
26.037227 28.855567 -9.831976 40.090506 0.836696 1.818568 0.041136 -0.013465 -139755.000000 0 0 1
27.225027 29.308167 -10.673076 41.401513 0.822230 1.831535 0.042208 -0.021302 -699383.000000 0 0 1
27.851627 30.450267 -10.212876 42.511583 0.829941 1.813407 0.052406 -0.038647 -196.832000 0 0 1
28.939527 30.682867 -11.116376 43.617753 0.814630 1.828498 0.061630 -0.033590 599002.000000 0 0 1
29.561427 32.113167 -10.883376 44.984234 0.826749 1.815159 0.053646 -0.037003 160170.000000 0 0 1
28.741727 33.073067 -11.555676 45.314989 0.855353 1.828652 0.064351 -0.032443 355812.000000 0 0 1
29.215427 -33.224070 -11.376076 45.681453 -0.849511 1.822475 0.074973 -0.029318 588288.000000 0 0 1
28.111827 -32.219570 -11.874476 44.377682 -0.853380 1.841674 0.065058 -0.022303 841083.000000 0 0 1
26.932627 -32.309470 -11.069476 43.494845 -0.875911 1.828128 0.081833 -0.034539 412430.000000 0 0 1
25.916827 -31.309370 -11.240376 42.169949 -0.879353 1.840607 0.089676 -0.034480 529692.000000 0 0 1
26.274527 -29.879070 -10.854076 41.242218 -0.849501 1.837112 0.078422 -0.031751 -494044.000000 0 0 1
27.192927 -29.250070 -11.727476 41.623978 -0.821828 1.856412 0.066394 -0.025600 -163883.000000 0 0 1
27.635427 -28.144770 -10.992876 40.947384 -0.794529 1.842594 0.074536 -0.026841 -142549.000000 0 0 1
28.539827 -27.120970 -11.759476 41.089585 -0.759913 1.861046 0.088378 -0.012906 758053.000000 0 0 1
29.853727 -27.600970 -12.035976 42.401926 -0.746209 1.858608 0.064327 -0.008130 271898.000000 0 0 1
29.945527 -28.377070 -13.221176 43.321960 -0.758512 1.880928 0.070263 -0.018584 437287.000000 0 0 1
31.338527 -29.058570 -13.520676 44.825355 -0.747667 1.877198 0.063104 -0.013052 782273.000000 0 0 1
31.649127 -30.147870 -12.642176 45.501494 -0.761110 1.852342 0.061879 -0.013702 -583381.000000 0 0 1
32.536227 -31.001070 -13.246076 46.852225 -0.761241 1.857425 0.051469 -0.024547 -682668.000000 0 0 1
33.298727 -31.839670 -12.181976 47.654699 -0.763003 1.829296 0.046510 -0.026061 106979.000000 0 0 1
34.334127 -32.576870 -12.830376 49.037774 -0.759142 1.835520 0.039583 -0.032288 181551.000000 0 0 1
35.119427 -33.362070 -11.921476 49.885103 -0.759742 1.812110 0.038526 -0.028475 77338.800000 0 0 1
34.488127 33.049067 -11.164776 49.054296 0.764094 1.800409 0.043061 -0.036275 -676452.000000 0 0 1
33.559327 33.399667 -10.218676 48.437460 0.783014 1.783360 0.042493 -0.039676 -726976.000000 0 0 1
33.154427 32.218567 -9.543776 47.205251 0.771083 1.774376 0.063866 -0.038245 -527094.000000 0 0 1
32.380627 32.601767 -8.294876 46.692453 0.788801 1.749393 0.044574 -0.033206 -551656.000000 0 0 1
31.181827 33.280267 -8.533376 46.397209 0.817940 1.755769 0.040317 -0.031450 -873045.000000 0 0 1
30.555027 33.585767 -7.322676 45.991684 0.832614 1.730694 0.036282 -0.026721 815999.000000 0 0 1
29.406627 -33.016170 -7.562976 44.855499 -0.843158 1.740213 0.034230 -0.034097 395955.000000 0 0 1
30.039827 -31.745370 -7.769276 44.390555 -0.812996 1.746723 0.012292 -0.031439 883688.000000 0 0 1
29.154027 -30.699370 -8.245976 43.132409 -0.811211 1.763159 0.030338 -0.026991 630802.000000 0 0 1
28.137827 -30.041670 -7.284976 41.800839 -0.818110 1.745969 0.048863 -0.032088 311722.000000 0 0 1
27.324027 -29.059970 -7.886376 40.660537 -0.816176 1.765990 0.049640 -0.037318 -937125.000000 0 0 1
26.402627 -28.560970 -7.019076 39.523350 -0.824647 1.749337 0.066643 -0.047845 -800784.000000 0 0 1
25.381027 -27.637570 -7.683176 38.302259 -0.827934 1.772760 0.123465 -0.049761 247367.000000 0 0 1
24.436227 -28.323470 -8.537276 38.369692 -0.858944 1.795175 0.151361 -0.052547 784751.000000 0 0 1
23.496427 -27.480270 -9.153476 37.296561 -0.863390 1.818754 0.159297 -0.051696 -505185.000000 0 0 1
22.219727 -28.086970 -9.701476 37.104081 -0.901503 1.835338 0.144866 -0.038558 -587666.000000 0 0 1
22.322227 -28.761570 -10.909076 38.006811 -0.910791 1.861921 0.147530 -0.033814 269815.000000 0 0 1
21.180727 -29.584570 -11.179576 38.063801 -0.949453 1.868898 0.138502 -0.034646 505214.000000 0 0 1
21.045027 -30.934470 -10.379376 38.827388 -0.973408 1.841408 0.140777 -0.040852 150674.000000 0 0 1
22.067427 -31.822670 -10.785176 40.199175 -0.964480 1.842417 0.129215 -0.038948 -58874.800000 0 0 1
21.857327 -33.073370 -10.214476 40.938076 -0.986815 1.822971 0.104394 -0.042636 -86384.300000 0 0 1
23.049927 33.636667 -10.356976 42.071266 0.970030 1.819530 0.095725 -0.039762 398586.000000 0 0 1
24.196827 -33.747170 -9.540576 42.607283 -0.948750 1.796630 0.101920 -0.039736 212482.000000 0 0 1
25.134627 32.854867 -9.573076 42.459811 0.917752 1.798214 0.081632 -0.036077 -119527.000000 0 0 1
26.482627 33.177367 -8.905976 43.374919 0.897146 1.777593 0.065770 -0.034125 -662777.000000 0 0 1
26.554227 32.857467 -7.570576 42.919153 0.891097 1.748116 0.055086 -0.032468 269472.000000 0 0 1
27.000227 31.467467 -7.308976 42.102670 0.861655 1.745279 0.053079 -0.029660 -16278.400000 0 0 1
26.700127 31.209567 -5.787476 41.478051 0.863112 1.710784 0.055734 -0.025871 -304481.000000 0 0 1
27.612127 31.752067 -4.861276 42.358651 0.855023 1.685814 0.053253 -0.019618 343926.000000 0 0 1
28.522027 30.797167 -4.281276 42.193611 0.823734 1.672439 0.069614 -0.016794 444655.000000 0 0 1
27.802027 29.766467 -3.344076 40.867813 0.819508 1.652715 0.067097 -0.005570 -169091.000000 0 0 1
27.297827 30.233467 -2.080876 40.786811 0.836381 1.621837 0.081657 -0.003741 114160.000000 0 0 1
26.866527 29.169267 -1.275076 39.677226 0.826469 1.602938 0.068803 0.004892 332940.000000 0 0 1
25.447227 28.579967 -1.515776 38.297173 0.843318 1.610386 0.035512 0.004373 396067.000000 0 0 1
24.418927 29.273767 -0.808076 38.129915 0.875572 1.591991 0.045462 -0.004478 -9164.540000 0 0 1
23.139327 28.799167 -1.175476 36.962173 0.893942 1.602604 0.062458 -0.002848 1058030.000000 0 0 1
21.947127 29.421367 -0.326176 36.706942 0.929887 1.579682 0.056454 -0.005687 770492.000000 0 0 1
21.854827 28.911167 0.964124 36.254911 0.923511 1.544200 0.075573 -0.014862 1459.740000 0 0 1
20.844627 29.615667 1.652024 36.253488 0.957499 1.525212 0.091174 -0.014593 -164485.000000 0 0 1
19.988027 28.789067 2.650124 35.147614 0.963911 1.495325 0.101119 -0.026281 253276.000000 0 0 1
19.050327 27.969867 1.928624 33.896136 0.972867 1.513868 0.092866 -0.021316 -16956.400000 0 0 1
18.510127 27.024967 2.750224 32.871528 0.970258 1.487033 0.102402 -0.029381 -508451.000000 0 0 1
18.177927 25.674367 2.035524 31.523856 0.954709 1.506180 0.109931 -0.017165 401339.000000 0 0 1
19.263127 24.910167 1.503424 31.525304 0.912547 1.523089 0.115450 -0.019301 632812.000000 0 0 1
20.230527 24.426567 2.432224 31.809544 0.879084 1.494260 0.125168 -0.013365 135850.000000 0 0 1
21.423627 23.704467 1.761224 31.999617 0.835897 1.515730 0.118711 -0.012732 -160757.000000 0 0 1
20.997427 22.559667 1.016624 30.836083 0.821249 1.537822 0.112043 -0.006032 713339.000000 0 0 1
22.121927 21.816667 0.565924 31.075181 0.778451 1.552584 0.078566 -0.013565 328179.000000 0 0 1
21.667327 20.719167 -0.474076 29.983023 0.763033 1.586608 0.113709 -0.017878 6685.970000 0 0 1
21.134327 21.174767 -1.732476 29.967182 0.786354 1.628641 0.072973 -0.008676 471906.000000 0 0 1
21.308527 20.261567 -2.776676 29.534630 0.760218 1.664950 0.120921 -0.015110 -118434.000000 0 0 1
21.493427 20.990867 -4.167476 30.330706 0.773569 1.708634 0.071415 -0.021462 430916.000000 0 0 1
22.683427 21.791767 -4.240076 31.739521 0.765352 1.704787 0.076347 -0.014068 740322.000000 0 0 1
22.633527 22.688567 -5.347176 32.490613 0.786613 1.736124 0.038144 -0.011089 315440.000000 0 0 1
23.926527 23.577167 -5.422976 34.026022 0.778044 1.730856 0.041973 -0.001378 424746.000000 0 0 1
23.846127 24.759167 -4.648776 34.688114 0.804181 1.705217 0.038472 -0.004496 -40986.600000 0 0 1
24.084427 24.669767 -3.258576 34.630555 0.797404 1.665031 0.054860 -0.007759 -487579.000000 0 0 1
22.875127 24.370867 -2.352976 33.507418 0.817046 1.641077 0.048327 -0.011974 -1479470.000000 0 0 1
21.967527 25.443367 -2.390176 33.699408 0.858580 1.641782 0.062287 -0.016522 72197.700000 0 0 1
20.894927 25.400367 -1.461776 32.922840 0.882412 1.615211 0.078240 -0.000686 341668.000000 0 0 1
19.895327 24.205367 -1.697876 31.378442 0.882821 1.624932 0.094345 -0.016203 -1159540.000000 0 0 1
19.133927 24.547967 -2.865176 31.255705 0.908712 1.662594 0.071149 -0.016452 42371.500000 0 0 1
18.635827 23.377967 -3.450076 30.095289 0.897794 1.685687 0.082544 -0.021428 -156735.000000 0 0 1
18.210527 23.739067 -4.907076 30.319070 0.916433 1.733359 0.084196 -0.022814 -310984.000000 0 0 1
17.580527 22.657167 -5.531376 29.206476 0.910901 1.761336 0.085912 -0.029657 -48263.200000 0 0 1
17.154327 23.031567 -6.801776 29.512509 0.930620 1.803358 0.092659 -0.027733 384458.000000 0 0 1
16.178327 22.036067 -7.514376 28.351232 0.937500 1.839048 0.115835 -0.023320 346822.000000 0 0 1
16.874227 20.886767 -8.034276 28.027596 0.891262 1.861531 0.099582 -0.020284 456023.000000 0 0 1
16.360927 20.368867 -9.251576 27.715742 0.894088 1.911131 0.147055 -0.027175 -362770.000000 0 0 1
17.080427 19.070967 -9.618476 27.348818 0.840404 1.930179 0.137543 -0.027979 339938.000000 0 0 1
18.368227 19.305967 -10.187676 28.528948 0.810284 1.935957 0.111261 -0.024375 844062.000000 0 0 1
19.021927 18.015367 -10.374276 28.178232 0.758228 1.947832 0.117459 -0.027298 1368040.000000 0 0 1
20.570627 17.990367 -10.700976 29.348167 0.718584 1.944023 0.081659 -0.025172 1103020.000000 0 0 1
20.958527 18.514567 -11.984576 30.424975 0.723563 1.975673 0.090448 -0.019500 576611.000000 0 0 1
22.370727 18.618867 -12.155176 31.541400 0.694120 1.966407 0.072820 -0.009399 531434.000000 0 0 1
22.661527 18.867267 -13.664176 32.499666 0.694287 2.004727 0.073126 -0.017068 -146203.000000 0 0 1
22.649027 17.775467 -14.516576 32.244017 0.665418 2.037797 0.071428 -0.016041 87252.800000 0 0 1
22.453327 18.233367 -15.822976 32.969291 0.682049 2.071372 0.086432 -0.024403 -564.050000 0 0 1
22.394827 17.042967 -16.817576 32.784476 0.650518 2.109442 0.073226 -0.023451 -103519.000000 0 0 1
23.528527 16.192467 -16.762676 33.117592 0.602766 2.101518 0.072105 -0.021658 39409.300000 0 0 1
23.620127 15.361467 -17.865276 33.362451 0.576625 2.135885 0.074938 -0.026076 -203305.000000 0 0 1
24.363727 15.982467 -19.061976 34.819382 0.580578 2.150114 0.090209 -0.015682 -980164.000000 0 0 1
25.737627 16.095467 -18.850176 35.732599 0.558863 2.126492 0.100934 -0.012270 -407711.000000 0 0 1
26.308527 16.831567 -19.929576 37.048998 0.569154 2.138770 0.118090 -0.018271 862207.000000 0 0 1
27.853527 17.029567 -19.671676 38.115613 0.548758 2.113094 0.090055 -0.015236 919547.000000 0 0 1
28.147727 17.973967 -18.661576 38.257188 0.568290 2.080356 0.071186 -0.013134 68338.800000 0 0 1
29.539927 18.003967 -18.409876 39.187672 0.547360 2.059846 0.057763 -0.017401 111526.000000 0 0 1
29.890527 18.879367 -17.205776 39.318098 0.563344 2.023729 0.061536 -0.021656 1918.930000 0 0 1
29.209827 18.655267 -15.992776 38.170694 0.568365 2.003119 0.035165 -0.019429 545687.000000 0 0 1
28.041527 19.494167 -15.880576 37.663543 0.607490 2.006053 0.030051 -0.011040 90528.900000 0 0 1
27.059027 19.242867 -14.785576 36.346831 0.618166 1.989735 0.034751 -0.004660 -666205.000000 0 0 1
27.465527 19.583567 -13.465076 36.320511 0.619413 1.950590 0.030399 -0.004381 292908.000000 0 0 1
26.460527 19.241567 -12.502976 35.024588 0.628736 1.935826 0.043686 -0.008204 94055.400000 0 0 1
26.887427 19.620667 -11.068876 35.077405 0.630404 1.891839 0.034832 -0.012320 -522807.000000 0 0 1
26.839027 21.002367 -10.898676 35.780077 0.663998 1.880317 0.039643 -0.006718 16379.200000 0 0 1
27.165127 21.411967 -9.586076 35.893026 0.667514 1.841151 0.037051 -0.003842 85739.700000 0 0 1
26.098427 21.149567 -8.487976 34.647912 0.681036 1.818293 0.053147 -0.008610 -560568.000000 0 0 1
26.124527 19.822467 -7.948776 33.743209 0.649089 1.808598 0.072881 -0.017241 579590.000000 0 0 1
25.245727 19.765867 -6.792276 32.774552 0.664251 1.779552 0.075895 -0.019959 59995.100000 0 0 1
23.784327 19.500967 -7.141376 31.575009 0.686763 1.798942 0.085406 -0.023637 -694245.000000 0 0 1
23.020227 20.614267 -7.644676 31.832686 0.730315 1.813319 0.067911 -0.017723 728125.000000 0 0 1
21.754027 20.140867 -8.129276 30.740484 0.746912 1.838428 0.059954 -0.017438 475089.000000 0 0 1
20.691827 21.277467 -8.172076 30.784170 0.799351 1.839481 0.082191 -0.024272 -256087.000000 0 0 1
20.948927 22.418867 -8.965276 31.966221 0.819280 1.855071 0.087263 -0.023963 -11879.000000 0 0 1
20.644027 22.305667 -10.372776 32.114064 0.824067 1.899692 0.095360 -0.012815 160575.000000 0 0 1
19.180127 22.674867 -10.723876 31.575756 0.868701 1.917313 0.102219 -0.020282 -41093.800000 0 0 1
18.837827 24.007667 -10.381276 32.233565 0.905480 1.898705 0.112204 -0.035424 -253211.000000 0 0 1
17.471027 24.237767 -10.591376 31.699895 0.946235 1.911461 0.114115 -0.029897 -255788.000000 0 0 1
17.104227 25.598167 -10.011776 32.373699 0.981746 1.885207 0.111054 -0.031534 -29364.300000 0 0 1
17.757327 26.746367 -10.535976 33.789016 0.984701 1.887901 0.134780 -0.020722 -120428.000000 0 0 1
17.330527 27.944967 -9.931076 34.349594 1.015680 1.864101 0.140985 -0.048741 -132266.000000 0 0 1
20.784527 28.714967 31.689233 47.547380 0.944261 0.841323 0.067074 0.010009 513027.000000 0 0 1
19.566827 29.038567 32.340326 47.665457 0.977856 0.825097 0.086720 -0.023526 -4195.380000 0 0 1
18.753427 27.906067 32.582366 46.819335 0.979097 0.801100 0.082676 -0.023305 578676.000000 0 0 1
17.259627 28.277167 32.857338 46.659378 1.022784 0.789506 0.114806 -0.036535 272871.000000 0 0 1
16.608227 28.718367 31.698129 45.884084 1.046475 0.808159 0.113686 -0.043030 -862526.000000 0 0 1
15.420627 29.325467 32.121585 46.147318 1.086688 0.800893 0.134818 -0.042420 -559270.000000 0 0 1
14.320227 29.248867 31.063605 45.005696 1.115504 0.809010 0.125313 -0.044351 -476773.000000 0 0 1
13.869327 27.952867 30.811515 43.852827 1.110219 0.791735 0.114682 -0.053304 92992.600000 0 0 1
12.510327 27.959467 30.408825 43.161751 1.150069 0.789033 0.107651 -0.031473 68934.100000 0 0 1
11.900127 26.488567 30.370245 42.019150 1.148562 0.762992 0.085136 -0.033037 10947.000000 0 0 1
12.223027 25.485867 29.358285 40.753414 1.123601 0.766434 0.082214 -0.027119 449859.000000 0 0 1
13.599027 25.207967 29.131595 40.853702 1.076071 0.776927 0.063909 -0.022184 154532.000000 0 0 1
13.753827 24.520267 27.773045 39.519024 1.059610 0.791503 0.072727 -0.021994 -141896.000000 0 0 1
13.203127 25.085867 26.581015 38.860953 1.086317 0.817560 0.074914 -0.028627 415039.000000 0 0 1
13.343727 24.239567 25.498345 37.626816 1.067574 0.826215 0.082809 -0.025556 -114629.000000 0 0 1
11.997727 23.673767 25.002975 36.462878 1.101728 0.815217 0.080063 -0.019616 -47974.800000 0 0 1
12.193127 23.091867 23.776175 35.315905 1.084979 0.832211 0.091941 -0.027578 214691.000000 0 0 1
11.024327 22.367467 23.458175 34.236316 1.112866 0.815940 0.086389 -0.024684 627.528000 0 0 1
11.006427 21.985167 21.957385 32.963855 1.106645 0.841822 0.103187 -0.040769 -161925.000000 0 0 1
10.706327 23.150467 21.155685 33.138083 1.137623 0.878366 0.114037 -0.037847 867.198000 0 0 1
10.927027 22.930367 19.751485 32.176433 1.126100 0.909869 0.115850 -0.038096 -560630.000000 0 0 1
10.544127 24.171367 18.906385 32.448189 1.159458 0.948794 0.118018 -0.045236 -285622.000000 0 0 1
9.201027 24.539867 18.771885 32.237364 1.212077 0.949239 0.120095 -0.052426 -632548.000000 0 0 1
8.684027 25.133967 19.940385 33.237743 1.238127 0.927380 0.117906 -0.057772 -255007.000000 0 0 1
7.248327 25.683667 19.666585 33.150619 1.295734 0.935707 0.112666 -0.052670 344865.000000 0 0 1
7.096427 26.671867 18.625085 33.296270 1.310757 0.977165 0.123937 -0.058524 -952013.000000 0 0 1
5.780727 26.542867 18.200785 32.698764 1.356357 0.980485 0.104460 -0.057265 -878173.000000 0 0 1
5.294527 27.526367 17.108185 32.839350 1.380773 1.022814 0.113241 -0.054293 -22422.900000 0 0 1
5.978927 27.455967 15.866985 32.269783 1.356380 1.056758 0.119102 -0.051704 560168.000000 0 0 1
7.209927 28.214167 15.815285 33.138279 1.320608 1.073272 0.121375 -0.046153 808279.000000 0 0 1
8.082727 27.888167 14.603085 32.501237 1.288699 1.104805 0.125480 -0.046913 -196074.000000 0 0 1
7.330627 28.029367 13.448885 31.941447 1.314992 1.136196 0.116883 -0.045591 -82711.300000 0 0 1
6.911827 26.737767 12.833185 30.452786 1.317830 1.135794 0.089244 -0.042777 -22343.400000 0 0 1
6.181827 26.986667 11.530685 29.990863 1.345612 1.176159 0.086815 -0.043398 -51512.800000 0 0 1
6.982427 27.403067 10.394385 30.128485 1.321301 1.218555 0.080249 -0.035742 283131.000000 0 0 1
7.207627 28.818267 10.341685 31.454616 1.325718 1.235784 0.077840 -0.033072 -80402.400000 0 0 1
7.365027 29.335567 8.909885 31.531019 1.324819 1.284319 0.072840 -0.022204 -449554.000000 0 0 1
6.213127 29.121567 8.152585 30.872856 1.360596 1.303557 0.060581 -0.033523 -558858.000000 0 0 1
6.131927 27.895567 7.430285 29.512240 1.354420 1.316288 0.049492 -0.020822 1028.460000 0 0 1
4.679227 27.604167 6.978785 28.854612 1.402881 1.326514 0.055208 -0.030263 190044.000000 0 0 1
4.154127 28.659867 6.198185 29.615237 1.426853 1.359947 0.051625 -0.024506 -868593.000000 0 0 1
2.780727 28.479767 6.069585 29.251828 1.473466 1.361784 0.072632 -0.030552 -541372.000000 0 0 1
2.056327 29.506567 5.211785 30.033792 1.501218 1.396383 0.086109 -0.028576 -496525.000000 0 0 1
2.478127 29.430267 3.882185 29.788472 1.486791 1.440099 0.062837 -0.029771 189180.000000 0 0 1
1.760927 30.226267 2.915185 30.417534 1.512604 1.474810 0.045685 -0.028053 809866.000000 0 0 1
0.376827 29.663567 2.463485 29.768070 1.558094 1.487946 0.110352 -0.033789 275861.000000 0 0 1
0.536327 28.592567 1.558185 28.640015 1.552041 1.516364 0.102012 -0.033847 18790.800000 0 0 1
-0.700673 27.929067 1.360485 27.970961 -1.545714 1.522138 0.107833 -0.037918 338783.000000 0 0 1
-1.115773 27.960167 -0.143415 27.982789 -1.530912 1.575921 0.094302 -0.038934 -197585.000000 0 0 1
-1.669973 29.162367 -0.578815 29.215877 -1.513594 1.590609 0.103954 -0.037202 -146188.000000 0 0 1
-1.469073 29.379767 -1.948715 29.480949 -1.520835 1.636945 0.090012 -0.035693 -153759.000000 0 0 1
-2.489173 30.408167 -2.529215 30.614531 -1.489120 1.653505 0.116637 -0.034541 465943.000000 0 0 1
-3.772873 30.079967 -3.007515 30.464473 -1.446020 1.669679 0.098250 -0.035072 112786.000000 0 0 1
-3.678173 29.245667 -4.122415 29.762935 -1.445685 1.709751 0.078727 -0.035532 -603354.000000 0 0 1
-5.057673 28.900467 -4.730815 29.718642 -1.397548 1.730663 0.080459 -0.031998 8794.090000 0 0 1
-5.671573 30.062167 -5.201815 31.031589 -1.384327 1.739221 0.084826 -0.031121 13218.100000 0 0 1
-6.643473 29.765267 -6.208515 31.123183 -1.351200 1.771626 0.078796 -0.029314 313151.000000 0 0 1
-7.308073 30.978367 -6.908415 32.569823 -1.339123 1.784531 0.077295 -0.023901 -55141.700000 0 0 1
-8.223773 31.556867 -6.012315 33.160432 -1.315865 1.753115 0.068379 -0.022497 -252631.000000 0 0 1
-8.700673 32.757267 -6.605015 34.530660 -1.311180 1.763262 0.060843 -0.030652 -14666.200000 0 0 1
-9.716973 33.608367 -5.801115 35.462584 -1.289347 1.735119 0.064158 -0.034238 530862.000000 0 0 1
-10.952073 32.923067 -5.656015 35.154897 -1.249655 1.732387 0.073753 -0.030269 5074.580000 0 0 1
-11.960273 33.782567 -5.119815 36.201139 -1.230530 1.712699 0.073253 -0.021843 667571.000000 0 0 1
-13.406673 33.313967 -5.408315 36.315412 -1.188193 1.720279 0.099928 -0.026127 295387.000000 0 0 1
-13.798273 33.309467 -6.771015 36.684596 -1.178071 1.756435 0.079920 -0.019249 50532.000000 0 0 1
-15.163973 33.036967 -7.015315 37.021641 -1.140483 1.761441 0.113307 -0.032491 -298821.000000 0 0 1
-15.474773 32.854367 -8.553615 37.310084 -1.130608 1.802111 0.154830 -0.037892 -1210580.000000 0 0 1
-16.756273 32.597067 -8.928015 37.723347 -1.095978 1.809734 0.210846 -0.040850 -1019550.000000 0 0 1
-17.606673 33.740867 -8.964515 39.099918 -1.089845 1.802126 0.194691 -0.045153 281511.000000 0 0 1
-19.105673 33.490167 -9.385415 39.682541 -1.052361 1.809571 0.192199 -0.047172 682721.000000 0 0 1
-19.956773 32.765667 -8.575915 39.311678 -1.023730 1.790717 0.185961 -0.052475 -149538.000000 0 0 1
-20.424473 33.613067 -7.542315 40.048519 -1.024782 1.760257 0.166515 -0.033535 -25677.000000 0 0 1
-21.282073 32.878167 -6.401315 39.684724 -0.996321 1.732808 0.168129 -0.040830 -234283.000000 0 0 1
-20.903473 33.343367 -5.110715 39.684439 -1.010821 1.699939 0.148057 -0.041664 -136994.000000 0 0 1
-21.840873 33.029967 -4.134315 39.813252 -0.986557 1.674827 0.131876 -0.043560 -530678.000000 0 0 1
-23.105473 -33.749070 -4.164715 41.112133 0.970464 1.672272 0.165872 -0.052147 -509633.000000 0 0 1
-23.933973 33.536367 -5.264115 41.535935 -0.950953 1.697874 0.177697 -0.060304 -522408.000000 0 0 1
-25.070073 -33.290870 -5.385115 42.021305 0.925339 1.699302 0.181688 -0.077083 -238033.000000 0 0 1
-25.390203 -32.961570 -6.816115 42.161439 0.914431 1.733176 0.225424 -0.063180 -522232.000000 0 0 1
-24.538073 -32.129270 -7.559215 41.128442 0.918566 1.755642 0.255751 -0.050010 -345021.000000 0 0 1
-24.734673 -32.110670 -8.999615 41.519782 0.914433 1.789285 0.224189 -0.050758 218708.000000 0 0 1
-26.063113 -31.533170 -9.564515 42.013172 0.880087 1.800465 0.189213 -0.036368 1108060.000000 0 0 1
-27.287943 -32.263070 -9.184715 43.242300 0.868749 1.784828 0.172183 -0.026381 2211860.000000 0 0 1
-28.511673 -31.745170 -9.745115 43.768009 0.839009 1.795332 0.087201 -0.022882 869282.000000 0 0 1
-28.945203 -30.282770 -9.372415 42.926835 0.807978 1.790904 0.059864 -0.006503 -842415.000000 0 0 1
-28.296263 -29.178170 -9.967415 41.849653 0.800741 1.811280 0.090680 -0.003516 -248136.000000 0 0 1
-28.603843 -29.053170 -11.351015 42.321532 0.793191 1.842330 0.076661 -0.009582 34793.200000 0 0 1
-27.606153 -28.151470 -12.154815 41.259478 0.795178 1.869827 0.145026 -0.008890 35041.000000 0 0 1
-26.299093 -28.674070 -12.139815 40.758063 0.828574 1.873237 0.147747 -0.021355 -267226.000000 0 0 1
-25.485213 -27.926570 -13.020615 39.986571 0.831075 1.902469 0.132800 -0.026861 -77371.300000 0 0 1
-24.037173 -28.441970 -13.181815 39.503058 0.869136 1.911013 0.155842 -0.034904 -47067.000000 0 0 1
-23.850773 -29.625470 -13.927715 40.503199 0.892968 1.921828 0.171549 -0.049618 38222.100000 0 0 1
-24.393173 -30.813470 -13.384915 41.516898 0.901174 1.899057 0.168053 -0.050949 -246280.000000 0 0 1
-24.410373 -31.969470 -14.329515 42.699512 0.918678 1.913027 0.175840 -0.048685 279312.000000 0 0 1
-25.095523 -33.139770 -13.840215 43.813026 0.922663 1.892194 0.155555 -0.054650 259778.000000 0 0 1
-24.820673 33.353767 -14.633015 44.075670 -0.931041 1.909217 0.156075 -0.041088 208361.000000 0 0 1
-25.441673 32.156767 -13.844615 43.278283 -0.901459 1.896418 0.132183 -0.048160 441396.000000 0 0 1
-24.646673 31.722367 -12.713115 42.135381 -0.910270 1.877293 0.141805 -0.051825 413341.000000 0 0 1
-24.739973 32.581867 -11.597515 42.522308 -0.921359 1.847036 0.189002 -0.051509 159628.000000 0 0 1
-23.937873 32.138167 -10.343315 41.386806 -0.930604 1.823392 0.194567 -0.049092 145588.000000 0 0 1
-24.656973 31.223367 -9.552015 40.915840 -0.902370 1.806426 0.174328 -0.043715 188365.000000 0 0 1
-23.895073 30.712567 -8.442315 39.818450 -0.909601 1.784438 0.157025 -0.036310 362390.000000 0 0 1
-24.598073 29.541367 -7.669915 39.199301 -0.876452 1.767731 0.142953 -0.024329 67112.800000 0 0 1
-24.963373 28.504267 -8.511415 38.834359 -0.851527 1.791762 0.144545 -0.006330 -105301.000000 0 0 1
-25.371013 27.315767 -7.852815 38.098637 -0.822293 1.778402 0.128440 -0.005779 -355680.000000 0 0 1
-24.250473 26.362567 -7.363015 36.568899 -0.827104 1.773529 0.132035 -0.000428 -182505.000000 0 0 1
-23.517073 26.929367 -6.298215 36.303045 -0.852937 1.745169 0.126865 0.000479 -317033.000000 0 0 1
-22.828173 25.855767 -5.677315 34.955373 -0.847507 1.733935 0.107378 -0.012257 522240.000000 0 0 1
-21.442173 26.363367 -5.092915 34.361777 -0.887979 1.719559 0.095587 -0.031482 1018240.000000 0 0 1
-20.584573 26.694167 -6.192015 34.273083 -0.913911 1.752461 0.119245 -0.027828 174840.000000 0 0 1
-19.427173 27.452767 -5.834015 34.133637 -0.954949 1.742556 0.126876 -0.030521 1430000.000000 0 0 1
-18.350373 27.388667 -7.045615 33.712252 -0.980490 1.781341 0.146365 -0.035428 686689.000000 0 0 1
-18.747673 27.954167 -8.281215 34.662505 -0.980036 1.812039 0.162547 -0.039554 23681.300000 0 0 1
-18.830673 29.322667 -8.248115 35.811234 -0.999932 1.803205 0.170546 -0.039683 11860.700000 0 0 1
-18.888173 29.895067 -9.695515 36.667167 -1.007311 1.838398 0.187217 -0.040486 313328.000000 0 0 1
-17.629573 29.772567 -10.347715 36.114856 -1.036175 1.861391 0.168233 -0.039931 314353.000000 0 0 1
-17.588373 30.540267 -11.521115 37.078226 -1.048280 1.886752 0.177152 -0.044763 -720632.000000 0 0 1
-16.176473 30.608367 -12.075115 36.665499 -1.084611 1.906392 0.157473 -0.038905 -411336.000000 0 0 1
-15.882773 31.341367 -13.279715 37.561877 -1.101750 1.932152 0.156601 -0.038300 -268984.000000 0 0 1
-16.149873 30.631767 -14.405015 37.505040 -1.085606 1.965010 0.166739 -0.045035 -381462.000000 0 0 1
-15.545273 31.305967 -15.597515 38.275339 -1.109905 1.990520 0.191113 -0.051408 -983327.000000 0 0 1
-14.171073 31.195767 -15.669815 37.676761 -1.144403 1.999730 0.183504 -0.058331 -1033960.000000 0 0 1
-13.809473 31.518267 -17.020415 38.390067 -1.157847 2.030134 0.164156 -0.063466 204435.000000 0 0 1
-12.304873 31.654267 -17.346915 38.135521 -1.200046 2.043029 0.169670 -0.066846 86847.200000 0 0 1
-11.499773 30.500567 -17.179715 36.846601 -1.210243 2.055843 0.180694 -0.073921 1437860.000000 0 0 1
-10.109373 30.628167 -17.575515 36.731223 -1.251988 2.069730 0.166332 -0.068468 1566300.000000 0 0 1
-9.800973 30.527767 -19.127215 37.334354 -1.260140 2.108683 0.146865 -0.071573 -419788.000000 0 0 1
-10.500873 29.476567 -19.749615 37.002481 -1.228569 2.133811 0.158860 -0.077341 279026.000000 0 0 1
-10.188273 29.396067 -21.112715 37.598888 -1.237166 2.167024 0.118057 -0.078847 -1035230.000000 0 0 1
-11.378673 28.902067 -21.939015 38.027938 -1.195735 2.185747 0.129849 -0.065789 164651.000000 0 0 1
-12.304873 29.966267 -22.186815 39.263747 -1.181165 2.171316 0.157873 -0.066164 491141.000000 0 0 1
-13.367873 30.137267 -21.260715 39.229745 -1.153306 2.143557 0.168950 -0.062379 -245083.000000 0 0 1
-14.015473 31.535967 -21.447815 40.632001 -1.152586 2.126870 0.193364 -0.067227 223621.000000 0 0 1
-14.656973 31.694567 -22.710415 41.654956 -1.137642 2.147428 0.150699 -0.051632 40572.300000 0 0 1
-15.381973 32.890867 -22.819415 42.885195 -1.133348 2.131881 0.143605 -0.058717 74585.600000 0 0 1
-16.008773 33.126767 -24.243515 44.061452 -1.120632 2.153425 0.138816 -0.046072 237372.000000 0 0 1
-15.147273 33.452567 -25.345815 44.619776 -1.145618 2.174919 0.137649 -0.039158 131612.000000 0 0 1
-15.819373 33.600967 -26.583315 45.672204 -1.130779 2.192039 0.131043 -0.032953 325437.000000 0 0 1
-16.577473 -32.688770 -26.786315 45.396861 1.101461 2.201914 0.112771 -0.021261 -148719.000000 0 0 1
-17.849473 -32.448770 -26.264515 45.402105 1.067890 2.187669 0.113092 -0.025222 -425964.000000 0 0 1
-18.552473 -31.783470 -27.274515 45.807013 1.042438 2.208587 0.093979 -0.008942 -799587.000000 0 0 1
-20.010473 -31.448670 -27.035215 46.047158 1.004120 2.198293 0.116106 -0.021333 -422302.000000 0 0 1
-20.943273 -32.507670 -27.192115 47.273464 0.998469 2.183656 0.121808 -0.028074 -218307.000000 0 0 1
-22.240673 -31.967570 -27.368215 47.598238 0.962945 2.183381 0.105041 -0.023505 -66752.600000 0 0 1
-23.287973 -33.080470 -27.496815 48.915458 0.957405 2.167755 0.076250 -0.017018 -299940.000000 0 0 1
-23.485773 33.748967 -26.335015 48.827321 -0.962830 2.140461 0.110487 -0.024231 -71492.400000 0 0 1
-24.389173 32.691067 -26.704415 48.751035 -0.929828 2.150494 0.071013 -0.014214 499525.000000 0 0 1
-23.808573 31.334067 -27.237915 47.859962 -0.921033 2.176228 0.059554 -0.010119 53970.600000 0 0 1
-23.184673 30.518767 -26.257015 46.458100 -0.921125 2.171443 0.083757 -0.029763 7201.300000 0 0 1
-24.155173 29.706267 -25.632515 46.075596 -0.888098 2.160740 0.057045 -0.021912 116050.000000 0 0 1
33.199636 10.340567 -25.838456 43.321692 0.301943 2.209845 0.047903 -0.017854 -263889.000000 0 0 1
33.081196 8.935967 -26.054426 43.047069 0.263826 2.220882 0.033114 -0.007060 -753741.000000 0 0 1
31.759696 8.613367 -26.321626 42.139012 0.264834 2.245464 0.068456 -0.016484 -565162.000000 0 0 1
31.330566 7.154867 -26.009286 41.343433 0.224517 2.251195 0.057336 -0.016815 -25894.300000 0 0 1
31.378746 6.883667 -24.649476 40.492064 0.215953 2.225278 0.036024 0.001986 144966.000000 0 0 1
30.555916 5.763167 -24.362676 39.502127 0.186421 2.235395 0.068157 0.000429 275821.000000 0 0 1
30.390406 5.504767 -22.833076 38.408705 0.179192 2.207411 0.078873 -0.013799 -123392.000000 0 0 1
31.576066 5.055067 -22.249776 38.957081 0.158745 2.178685 0.071909 -0.019210 -162261.000000 0 0 1
31.317756 4.996567 -20.867176 37.963226 0.158211 2.152763 0.075728 -0.014822 -128348.000000 0 0 1
32.553006 4.762267 -19.976276 38.489336 0.145262 2.116486 0.071755 -0.019461 -75379.800000 0 0 1
33.081736 3.442667 -20.118976 38.871923 0.103692 2.114806 0.092432 -0.017996 -227511.000000 0 0 1
33.939316 3.127867 -19.085776 39.063123 0.091901 2.081267 0.093658 -0.021647 -345958.000000 0 0 1
34.631306 1.754267 -19.314876 39.692181 0.050612 2.079009 0.102636 -0.022041 31368.100000 0 0 1
33.770106 0.698867 -18.912476 38.711629 0.020692 2.081221 0.110193 -0.020308 165435.000000 0 0 1
34.348566 -0.582233 -18.920476 39.219222 -0.016949 2.074222 0.125044 -0.016539 -600065.000000 0 0 1
33.373606 -1.675633 -18.520876 38.205080 -0.050166 2.076902 0.105789 -0.012014 -142758.000000 0 0 1
33.021526 -1.855333 -17.135776 37.249138 -0.056127 2.048827 0.097527 -0.013581 405102.000000 0 0 1
31.714276 -1.348933 -16.888676 35.956116 -0.042508 2.059750 0.091559 -0.025520 50161.500000 0 0 1
31.241806 -1.591733 -15.440076 34.885240 -0.050905 2.029288 0.103817 -0.022794 -76503.800000 0 0 1
31.021776 -2.930433 -15.183876 34.662489 -0.094184 2.024224 0.084826 -0.024936 168804.000000 0 0 1
30.109426 -3.061133 -14.116976 33.395166 -0.101319 2.007247 0.085321 -0.029530 -58170.700000 0 0 1
29.993226 -4.483133 -13.542576 33.212851 -0.148373 1.990786 0.076519 -0.037432 211518.000000 0 0 1
29.359126 -5.487333 -14.373476 33.146130 -0.184772 2.019324 0.055877 -0.024756 638240.000000 0 0 1
28.986726 -6.660133 -13.668976 32.732683 -0.225845 2.001592 0.061008 -0.027428 -305270.000000 0 0 1
28.467926 -7.704033 -14.662276 32.935653 -0.264291 2.032171 0.050344 -0.015313 -461419.000000 0 0 1
27.170826 -7.460933 -15.134876 31.984118 -0.267988 2.063716 0.058351 -0.010540 -169802.000000 0 0 1
26.782626 -8.299833 -16.212676 32.388997 -0.300511 2.095043 0.061409 -0.012594 -364798.000000 0 0 1
25.380726 -7.985533 -16.720976 31.425165 -0.304824 2.131862 0.053446 -0.012270 -444461.000000 0 0 1
25.242226 -6.827933 -17.518376 31.475135 -0.264175 2.161058 0.049879 -0.009861 725370.000000 0 0 1
23.903726 -6.785633 -18.048276 30.711125 -0.276597 2.198983 0.106363 -0.016561 847904.000000 0 0 1
23.777626 -7.123533 -19.601676 31.628246 -0.291080 2.239223 0.066666 -0.006831 -151287.000000 0 0 1
24.323726 -6.194733 -20.515476 32.417636 -0.249377 2.256024 0.064680 -0.002325 293956.000000 0 0 1
24.324826 -6.625633 -21.837076 33.353471 -0.265930 2.284604 0.077520 -0.011750 -171126.000000 0 0 1
24.605126 -5.601633 -22.952576 34.111747 -0.223846 2.308870 0.087445 -0.010430 -175150.000000 0 0 1
24.560626 -6.189733 -24.231676 35.052978 -0.246878 2.334065 0.110364 -0.023365 214163.000000 0 0 1
24.675426 -5.101433 -25.192836 35.631170 -0.203869 2.356107 0.107886 -0.025759 -143569.000000 0 0 1
24.635226 -5.604633 -26.692916 36.753476 -0.223697 2.383675 0.120498 -0.029892 -433609.000000 0 0 1
23.390426 -6.149033 -27.016886 36.260650 -0.257070 2.411443 0.126961 -0.023255 -338052.000000 0 0 1
23.160626 -6.189533 -28.394556 37.161482 -0.261141 2.440419 0.116359 -0.024619 3272.100000 0 0 1
21.871726 -6.965333 -28.726816 36.771160 -0.308308 2.467434 0.093090 -0.032168 -73455.300000 0 0 1
21.876626 -8.329533 -28.365486 36.777285 -0.363803 2.451642 0.084428 -0.026850 -73406.000000 0 0 1
20.595926 -8.820333 -28.072686 35.917491 -0.404625 2.468004 0.077634 -0.040039 -250164.000000 0 0 1
20.633426 -10.322933 -27.726976 36.070575 -0.463889 2.447582 0.100517 -0.035310 -145667.000000 0 0 1
19.355326 -10.779833 -27.320726 35.174643 -0.508159 2.460232 0.118495 -0.038087 413266.000000 0 0 1
19.250326 -12.121233 -26.861346 35.199876 -0.561946 2.438907 0.120033 -0.033508 -751144.000000 0 0 1
19.411926 -13.236833 -27.925636 36.494900 -0.598469 2.442137 0.105145 -0.019826 684828.000000 0 0 1
18.299426 -13.302433 -28.868386 36.677069 -0.628573 2.476884 0.099089 -0.017523 1057910.000000 0 0 1
18.508126 -14.352533 -29.750966 37.863781 -0.659605 2.474683 0.076506 -0.020946 -474997.000000 0 0 1
17.392426 -14.715633 -30.731666 38.255478 -0.702222 2.503658 0.053365 -0.024087 -62696.000000 0 0 1
16.302726 -15.450633 -30.171376 37.613998 -0.758570 2.501653 0.048059 -0.028694 383416.000000 0 0 1
15.253926 -15.595633 -31.120246 38.004944 -0.796474 2.530196 0.036412 -0.029484 -412113.000000 0 0 1
14.005226 -16.124233 -30.429966 37.176875 -0.855613 2.529624 0.048655 -0.040262 -589688.000000 0 0 1
14.072626 -17.495733 -30.026916 37.493401 -0.893411 2.499524 0.032490 -0.032541 -471381.000000 0 0 1
13.134726 -17.822833 -29.055356 36.529277 -0.935693 2.490462 0.038079 -0.029286 -400637.000000 0 0 1
13.360426 -19.175733 -28.393196 36.774764 -0.962264 2.452910 0.046030 -0.020008 -287808.000000 0 0 1
14.407026 -19.051333 -27.481016 36.410464 -0.923325 2.426078 0.041655 -0.014947 -371131.000000 0 0 1
14.412326 -20.152533 -26.588556 36.342689 -0.949967 2.391472 0.055333 -0.011363 -150567.000000 0 0 1
15.347326 -20.046833 -25.379596 35.798601 -0.917402 2.358812 0.051413 -0.003608 -1097370.000000 0 0 1
16.681926 -20.239733 -25.667816 36.698368 -0.881463 2.345391 0.068579 -0.010797 -681134.000000 0 0 1
17.434326 -20.390533 -24.453576 36.300233 -0.863395 2.309930 0.075519 0.001061 -147373.000000 0 0 1
18.948926 -20.579233 -24.667876 37.297061 -0.826619 2.293466 0.073717 -0.002249 -174091.000000 0 0 1
19.447426 -21.823533 -25.081336 38.516781 -0.842908 2.279934 0.078785 -0.013884 138675.000000 0 0 1
19.270426 -22.865133 -24.076476 38.390628 -0.870505 2.248678 0.074709 -0.016520 -851273.000000 0 0 1
20.201626 -24.074033 -24.223076 39.678989 -0.872637 2.227458 0.061638 -0.012949 -147870.000000 0 0 1
21.458226 -23.845233 -23.599876 39.824675 -0.838039 2.205072 0.087055 -0.015486 278477.000000 0 0 1
22.084926 -25.094303 -23.280476 40.736330 -0.849098 2.179119 0.099603 -0.027080 -10946.700000 0 0 1
21.939026 -25.460873 -21.784076 40.051503 -0.859563 2.145876 0.108024 -0.023865 -207365.000000 0 0 1
20.622926 -25.685353 -21.314076 39.234325 -0.894286 2.145101 0.084769 -0.016227 151640.000000 0 0 1
20.628626 -26.001863 -19.868976 38.683502 -0.900122 2.110206 0.074943 -0.018373 114072.000000 0 0 1
19.244126 -26.526713 -19.367976 38.067327 -0.943185 2.104566 0.072870 -0.016550 162394.000000 0 0 1
19.018326 -27.897573 -19.702276 39.091572 -0.972445 2.099024 0.082805 -0.020022 -305278.000000 0 0 1
18.041826 -28.502693 -18.925776 38.679400 -1.006474 2.082082 0.080067 -0.015996 -898876.000000 0 0 1
16.612626 -28.392803 -19.430276 38.205578 -1.041405 2.104321 0.098802 -0.023096 -661556.000000 0 0 1
15.849326 -27.407003 -18.706676 36.773423 -1.046489 2.104472 0.083971 -0.020825 -250217.000000 0 0 1
14.598126 -27.347523 -19.346276 36.541356 -1.080475 2.128731 0.087913 -0.012276 196485.000000 0 0 1
13.496926 -26.512023 -18.605276 35.088612 -1.099906 2.129676 0.062275 -0.010990 -340927.000000 0 0 1
12.942926 -27.190383 -17.501376 34.830079 -1.126523 2.097260 0.067911 -0.014452 -348399.000000 0 0 1
12.081326 -26.346743 -16.789176 33.496055 -1.140854 2.095814 0.070740 -0.010482 35066.200000 0 0 1
10.626026 -26.260853 -17.323276 33.206034 -1.186302 2.119628 0.076347 -0.018298 -559228.000000 0 0 1
9.799526 -27.265623 -16.706676 33.444849 -1.225764 2.093851 0.083970 -0.019414 -36116.900000 0 0 1
8.449626 -26.885243 -16.850976 32.835466 -1.266286 2.109699 0.084966 -0.007590 111023.000000 0 0 1
7.606426 -27.603653 -17.933176 33.784881 -1.301911 2.130346 0.086238 -0.004001 -326235.000000 0 0 1
7.857326 -27.217643 -19.273876 34.263975 -1.289752 2.168217 0.092315 -0.006382 -81401.400000 0 0 1
7.120626 -27.951493 -20.226476 35.229244 -1.321353 2.182348 0.087591 -0.001606 -89244.400000 0 0 1
7.066226 -27.268203 -21.610876 35.503752 -1.317236 2.225208 0.088963 -0.006361 -279104.000000 0 0 1
6.293226 -26.102653 -21.599776 34.460173 -1.334216 2.248241 0.084762 -0.008216 -68675.900000 0 0 1
6.225926 -25.477003 -22.892476 34.812430 -1.331119 2.288418 0.073559 -0.008385 -70449.700000 0 0 1
4.995126 -24.555833 -23.115276 34.091879 -1.370115 2.315874 0.060427 -0.007534 489893.000000 0 0 1
3.799026 -25.306103 -23.335776 34.632209 -1.421786 2.310159 0.061328 -0.004528 82272.500000 0 0 1
2.904626 -24.654933 -24.179076 34.654441 -1.453526 2.343005 0.059928 -0.009750 117736.000000 0 0 1
1.775026 -25.588173 -24.714876 35.619242 -1.501538 2.337636 0.043551 -0.015507 54040.500000 0 0 1
2.137026 -26.402213 -25.835966 37.001904 -1.490031 2.343723 0.063698 -0.017939 -223139.000000 0 0 1
1.191526 -27.358893 -26.203076 37.901582 -1.527272 2.334145 0.067474 -0.033679 -468405.000000 0 0 1
1.641526 -28.184923 -27.353026 39.309954 -1.512621 2.340371 0.080406 -0.037120 -963371.000000 0 0 1
1.881026 -27.458723 -28.535716 39.646019 -1.502399 2.374256 0.081441 -0.035624 -13688.100000 0 0 1
2.632526 -28.229183 -29.419476 40.857344 -1.477810 2.374676 0.105558 -0.046410 90990.200000 0 0 1
4.104826 -28.622353 -29.181026 41.080664 -1.428354 2.360770 0.102025 -0.049540 -754135.000000 0 0 1
4.255326 -29.674133 -28.239136 41.183865 -1.428365 2.326340 0.088290 -0.048652 313013.000000 0 0 1
5.545126 -30.277953 -28.369096 41.860584 -1.389663 2.315432 0.107511 -0.055396 309231.000000 0 0 1
5.879026 -31.457273 -27.391736 42.123986 -1.386038 2.278729 0.128526 -0.064497 695987.000000 0 0 1
4.879926 -32.526083 -27.229276 42.698867 -1.421876 2.262311 0.129176 -0.076586 879701.000000 0 0 1
5.500026 -33.747093 -26.854246 43.477202 -1.409239 2.236564 0.141023 -0.083726 -99183.700000 0 0 1
4.486126 32.819766 -26.454056 42.391974 1.434948 2.244692 0.154762 -0.075705 -393233.000000 0 0 1
3.676826 32.408306 -27.532936 42.683485 1.457826 2.271884 0.139692 -0.075442 -153485.000000 0 0 1
2.455726 31.979243 -27.004416 41.927808 1.494155 2.270602 0.110184 -0.077138 322694.000000 0 0 1
1.170826 31.991756 -27.922386 42.479441 1.534215 2.288047 0.109637 -0.054909 395642.000000 0 0 1
1.054926 31.008624 -28.904196 42.404012 1.536789 2.320796 0.128579 -0.058603 54640.900000 0 0 1
0.082726 31.345054 -29.868536 43.297214 1.568157 2.332077 0.121545 -0.059484 -127998.000000 0 0 1
-0.166374 30.316064 -31.093036 43.426585 -1.565308 2.368839 0.124655 -0.056618 56854.500000 0 0 1
0.941726 29.998804 -31.915266 43.810950 1.539415 2.386892 0.140363 -0.052794 85981.600000 0 0 1
0.452226 29.504434 -33.159566 44.387757 1.555470 2.414399 0.170927 -0.055684 212180.000000 0 0 1
1.580426 28.987684 33.575008 44.385412 1.516330 0.712940 0.152965 -0.042565 150314.000000 0 0 1
2.340426 30.111174 33.081646 44.794595 1.493226 0.739926 0.153979 -0.045464 633978.000000 0 0 1
3.539226 29.737074 32.385264 44.109240 1.452336 0.746300 0.131428 -0.045143 421231.000000 0 0 1
3.423326 28.877714 31.067825 42.554099 1.452801 0.752360 0.132650 -0.038914 -453647.000000 0 0 1
2.947826 27.565744 31.405165 41.890862 1.464263 0.723203 0.138839 -0.041947 262488.000000 0 0 1
4.029726 26.651554 31.565195 41.507898 1.420733 0.706771 0.128304 -0.036594 -44796.600000 0 0 1
3.616826 25.197174 31.738243 40.685318 1.428229 0.675985 0.134805 -0.043472 -228033.000000 0 0 1
2.939526 24.587954 30.675675 39.423411 1.451810 0.679148 0.124707 -0.030644 69353.600000 0 0 1
3.059726 23.185834 30.703695 38.596136 1.439589 0.650944 0.106955 -0.019548 -290872.000000 0 0 1
2.170026 22.467804 29.689065 37.295467 1.474511 0.650055 0.090077 -0.005575 172739.000000 0 0 1
0.787826 22.460904 30.027945 37.507204 1.535735 0.642515 0.089651 -0.010421 197171.000000 0 0 1
0.044526 21.929104 28.932495 36.303951 1.568766 0.648565 0.085839 -0.003603 996369.000000 0 0 1
-1.404574 21.449404 29.322665 36.357509 -1.505407 0.632573 0.074552 -0.004781 1007050.000000 0 0 1
-2.306974 22.463404 29.763815 37.360559 -1.468456 0.649041 0.085122 -0.012432 949998.000000 0 0 1
-3.649974 21.946304 29.825835 37.209448 -1.405991 0.640886 0.056416 -0.017392 965958.000000 0 0 1
-4.640374 23.067904 30.267315 38.337601 -1.372284 0.660812 0.029865 -0.019543 15683.200000 0 0 1
-4.475574 23.496184 31.602695 39.633720 -1.382570 0.647874 0.046102 -0.016141 72258.100000 0 0 1
-5.262174 24.653984 31.861543 40.628406 -1.360511 0.669361 0.040514 -0.018017 240285.000000 0 0 1
-5.696974 24.774054 33.328901 41.916881 -1.344769 0.651593 0.051376 -0.019363 526483.000000 0 0 1
-6.990974 25.325884 33.568586 42.627739 -1.301463 0.664083 0.037480 -0.012427 457446.000000 0 0 1
-7.192074 25.646424 -32.721676 42.192097 -1.297387 2.458367 0.036597 -0.016063 972601.000000 0 0 1
-8.619674 26.264014 -32.435436 42.616367 -1.253679 2.435808 0.079838 -0.014081 900667.000000 0 0 1
-8.788474 27.569934 -32.953286 43.854961 -1.262209 2.421001 0.063933 -0.017026 -181425.000000 0 0 1
-9.917674 28.308484 -32.530836 44.249134 -1.233816 2.396720 0.071146 -0.022492 -12096.000000 0 0 1
-10.097074 28.778244 -31.002986 43.489348 -1.233357 2.364403 0.073642 -0.016852 -345116.000000 0 0 1
-9.415574 29.931344 -30.655236 43.866638 -1.266025 2.344554 0.077450 -0.016060 -144704.000000 0 0 1
-9.395974 30.103824 -29.236656 43.003565 -1.268259 2.318376 0.091734 -0.021255 -9479.170000 0 0 1
-8.619074 31.389654 -28.762456 43.438206 -1.302818 2.294476 0.078688 -0.018650 1628470.000000 0 0 1
-7.194174 31.263034 -29.044166 43.274670 -1.344616 2.306567 0.063010 -0.016473 1469860.000000 0 0 1
-6.503974 32.413626 -28.508886 43.654340 -1.372771 2.282414 0.063121 -0.016389 184438.000000 0 0 1
-4.962374 32.246662 -28.320936 43.203562 -1.418106 2.285672 0.085783 -0.024441 258194.000000 0 0 1
-4.245274 33.400829 -27.912416 43.734891 -1.444373 2.262978 0.096808 -0.035917 128738.000000 0 0 1
-4.241374 -33.163343 -28.834566 44.150071 1.443593 2.282472 0.096236 -0.041463 -715877.000000 0 0 1
-3.387574 -33.476143 -30.119176 45.158527 1.469946 2.300925 0.097546 -0.045795 -118088.000000 0 0 1
-3.986474 33.313537 -31.135876 45.772552 -1.451697 2.318873 0.090426 -0.039360 300727.000000 0 0 1
-4.965874 -33.710443 -31.955576 46.714160 1.424539 2.324119 0.103958 -0.035248 198924.000000 0 0 1
-4.478874 -32.621913 -33.018786 46.631424 1.434353 2.357572 0.065175 -0.038764 11402.400000 0 0 1
-3.892974 -31.386573 -32.546346 45.382120 1.447393 2.370518 0.082407 -0.041632 330051.000000 0 0 1
-3.365174 -30.554903 -33.511456 45.474654 1.461103 2.399308 0.080947 -0.052816 -139112.000000 0 0 1
34.220836 17.741667 13.051985 40.696274 0.478296 1.244310 0.106448 -0.032844 329466.000000 0 0 1
35.621806 17.645867 13.245585 41.901494 0.459934 1.249167 0.124193 -0.044599 39088.900000 0 0 1
35.837006 16.314267 13.578685 41.651255 0.427199 1.238717 0.147096 -0.024204 126302.000000 0 0 1
37.305156 16.048667 14.052585 42.973358 0.406267 1.237662 0.128941 -0.046490 387953.000000 0 0 1
-36.967763 15.722367 13.085185 42.249620 -0.402124 1.255907 0.125470 -0.023408 -469121.000000 0 0 1
-37.154913 14.496767 12.432185 41.775627 -0.372004 1.268625 0.173734 -0.047978 -717207.000000 0 0 1
-35.786047 13.849667 12.121985 40.241732 -0.369261 1.264815 0.185386 -0.035969 340150.000000 0 0 1
-35.137573 13.254267 13.274485 39.831352 -0.360707 1.231030 0.158742 -0.030823 336281.000000 0 0 1
-35.657275 11.980167 13.776185 40.059318 -0.324132 1.219735 0.165649 -0.031337 36376.800000 0 0 1
-34.870898 11.521967 15.012485 39.675055 -0.319124 1.182744 0.189667 -0.043987 116749.000000 0 0 1
-35.226503 12.341967 16.095185 40.648317 -0.336996 1.163681 0.192799 -0.038171 200630.000000 0 0 1
-34.732603 11.766867 17.285185 40.541220 -0.326649 1.130331 0.195113 -0.025184 -93509.300000 0 0 1
-35.091389 12.663367 18.492485 41.638185 -0.346324 1.110601 0.185286 -0.033417 -199832.000000 0 0 1
-36.442123 12.718667 18.860985 42.959627 -0.335793 1.116267 0.203319 -0.052405 -328267.000000 0 0 1
-36.609503 13.655267 19.938885 43.866629 -0.357014 1.098947 0.213509 -0.047805 -295905.000000 0 0 1
37.203286 13.548567 20.529185 44.599278 0.349248 1.092460 0.200658 -0.072022 -245261.000000 0 0 1
37.009926 12.265167 21.077785 44.322026 0.320011 1.075196 0.171177 -0.051072 201743.000000 0 0 1
35.867896 12.255567 21.920085 43.785786 0.329249 1.046480 0.179310 -0.059916 264685.000000 0 0 1
35.947826 10.909367 22.736275 43.911259 0.294644 1.026545 0.165099 -0.052422 -27940.600000 0 0 1
36.977616 10.795567 23.686525 45.221011 0.284054 1.019497 0.152534 -0.035490 -42494.100000 0 0 1
36.743016 11.580167 24.859075 45.848916 0.305312 0.997749 0.149923 -0.027726 -479778.000000 0 0 1
-37.156913 11.675367 25.682465 46.653396 -0.304449 0.987839 0.134087 -0.023670 1177870.000000 0 0 1
-36.155413 12.575567 25.175555 45.816671 -0.334731 0.989049 0.137359 -0.035227 243454.000000 0 0 1
-35.221590 11.936367 24.293605 44.420902 -0.326746 0.992144 0.131327 -0.037974 761146.000000 0 0 1
-34.038943 12.966967 23.888985 43.560022 -0.363973 0.990328 0.130089 -0.041208 1344430.000000 0 0 1
-33.128993 13.236567 24.953885 43.536574 -0.380115 0.960426 0.097928 -0.036189 129651.000000 0 0 1
-33.713523 13.954967 26.008905 44.808547 -0.392455 0.951521 0.097301 -0.031202 -1031740.000000 0 0 1
-32.663283 14.442367 27.035465 44.792727 -0.416314 0.922827 0.087271 -0.023129 -353578.000000 0 0 1
-32.074183 15.637867 26.609635 44.512569 -0.453641 0.930042 0.111282 -0.032290 -258016.000000 0 0 1
-31.883573 16.468667 27.733365 45.353266 -0.476780 0.912846 0.122958 -0.027142 293968.000000 0 0 1
-31.000883 17.759567 27.521125 45.098440 -0.520234 0.914426 0.109658 -0.030040 139420.000000 0 0 1
-31.729003 18.745967 26.856815 45.600761 -0.533638 0.941031 0.116838 -0.039153 325482.000000 0 0 1
-30.870253 19.705667 26.325915 45.103655 -0.568134 0.947548 0.126632 -0.037681 -272382.000000 0 0 1
-31.637433 20.472067 25.246165 45.358589 -0.574322 0.980520 0.144390 -0.030346 191239.000000 0 0 1
-32.275903 21.653067 25.735805 46.614600 -0.590910 0.985918 0.135977 -0.037045 363457.000000 0 0 1
-33.324323 22.073067 24.904345 47.095193 -0.585023 1.013600 0.126613 -0.024885 -206912.000000 0 0 1
-33.874403 23.479867 25.144865 48.280882 -0.606110 1.023004 0.125301 -0.022613 487917.000000 0 0 1
-34.976637 23.851767 24.306055 48.816557 -0.598498 1.049614 0.136433 -0.027180 459784.000000 0 0 1
-35.218749 25.220967 24.480755 49.757058 -0.621465 1.056404 0.133534 -0.011964 -113982.000000 0 0 1
-36.232313 25.750167 23.473425 50.267816 -0.617869 1.084938 0.141841 -0.007771 -295527.000000 0 0 1
-35.790096 25.710867 22.142385 49.317998 -0.622955 1.105182 0.133331 -0.020051 -16041.000000 0 0 1
-36.808513 26.031267 21.214285 49.825088 -0.615547 1.130978 0.143332 -0.021597 206242.000000 0 0 1
-36.332313 25.838667 19.738385 48.757333 -0.618187 1.154004 0.166329 -0.040090 186301.000000 0 0 1
-36.437193 24.442667 19.440185 47.989934 -0.590870 1.153720 0.167688 -0.043498 76305.800000 0 0 1
-35.981993 24.202767 18.127885 47.001042 -0.592124 1.174840 0.178045 -0.039616 -230567.000000 0 0 1
-36.410323 22.870067 17.469485 46.410500 -0.560840 1.184876 0.176328 -0.043304 -371808.000000 0 0 1
37.442766 22.890967 17.206585 47.138346 0.548730 1.197139 0.158111 -0.047785 -805113.000000 0 0 1
37.174156 21.915367 16.185385 46.088696 0.532687 1.211966 0.145510 -0.043799 578269.000000 0 0 1
35.814196 22.121867 15.435785 44.836337 0.553321 1.219336 0.131382 -0.034563 513763.000000 0 0 1
34.708366 21.583367 16.115985 43.934467 0.556330 1.195209 0.133769 -0.042189 -410992.000000 0 0 1
33.574686 21.630867 15.263285 42.756541 0.572330 1.205762 0.125265 -0.035252 -79163.500000 0 0 1
32.457196 20.718467 15.853785 41.642130 0.568129 1.180227 0.106165 -0.042266 409232.000000 0 0 1
31.857516 21.110467 17.101185 41.868887 0.585219 1.150045 0.110042 -0.029940 199126.000000 0 0 1
30.842496 22.099167 16.969885 41.564525 0.621725 1.150229 0.107551 -0.020875 224962.000000 0 0 1
30.198826 22.777967 18.215285 41.983348 0.646226 1.122013 0.096203 -0.015080 337408.000000 0 0 1
31.095186 23.625267 18.912085 43.390446 0.649726 1.119805 0.054546 -0.017599 -130149.000000 0 0 1
30.485866 24.179367 20.007985 43.753277 0.670540 1.095850 0.062832 -0.011649 609562.000000 0 0 1
31.618916 24.863067 20.854185 45.308112 0.666353 1.092492 0.059604 -0.015102 684562.000000 0 0 1
32.237116 25.992567 20.285585 46.112364 0.678566 1.115291 0.071546 -0.025191 -356171.000000 0 0 1
33.402756 26.230667 21.011685 47.384416 0.665703 1.111374 0.085780 -0.032694 -608292.000000 0 0 1
34.092256 27.548867 20.603185 48.432564 0.679641 1.131393 0.102466 -0.036878 388844.000000 0 0 1
35.250226 27.980267 21.328285 49.803308 0.670925 1.128241 0.104571 -0.029700 537373.000000 0 0 1
34.948386 28.479467 22.633205 50.445334 0.683761 1.105522 0.080351 -0.016703 1241650.000000 0 0 1
36.166606 28.301967 23.714645 51.685676 0.664006 1.094125 0.068919 -0.017506 1391420.000000 0 0 1
37.270856 29.063467 23.319525 52.702961 0.662296 1.112444 0.103724 -0.016558 -204975.000000 0 0 1
-37.245693 29.649267 24.446315 53.515820 -0.672325 1.096396 0.113092 -0.008940 792983.000000 0 0 1
-36.056793 30.603767 24.079825 53.070904 -0.703777 1.099851 0.124932 -0.013444 1224800.000000 0 0 1
-34.856665 29.960267 23.653575 51.692324 -0.709999 1.095520 0.126015 -0.014677 807093.000000 0 0 1
-33.698763 30.774267 23.595875 51.375359 -0.740069 1.093607 0.129613 -0.016476 256445.000000 0 0 1
-32.304103 30.162067 23.524485 50.067023 -0.751120 1.081664 0.123551 -0.016530 -258329.000000 0 0 1
-32.068903 29.502267 22.261885 48.932503 -0.743737 1.098479 0.106795 -0.009288 -79618.200000 0 0 1
-32.576603 28.222067 21.983785 48.383953 -0.713898 1.099141 0.130799 -0.007996 -115375.000000 0 0 1
-32.011683 27.098067 22.909195 47.790002 -0.702462 1.070857 0.120147 -0.006481 -502198.000000 0 0 1
-30.751803 26.644367 22.459585 46.476108 -0.713957 1.066433 0.080115 -0.005426 274728.000000 0 0 1
-30.028573 25.767067 23.321345 45.929752 -0.709169 1.038212 0.074385 -0.001723 382749.000000 0 0 1
-29.621823 26.332067 24.713095 46.707250 -0.726672 1.013249 0.077766 -0.003777 -263768.000000 0 0 1
-30.764133 26.405967 25.603125 47.950255 -0.709314 1.007529 0.083422 -0.002668 812070.000000 0 0 1
-30.473213 27.233967 26.703285 48.819782 -0.729325 0.992048 0.097796 -0.009422 -634196.000000 0 0 1
-31.679213 27.552167 27.561915 50.223039 -0.715834 0.989880 0.106732 -0.022743 -250593.000000 0 0 1
-32.364743 26.471967 28.195355 50.430345 -0.685576 0.977502 0.102021 -0.016772 341330.000000 0 0 1
-33.616943 26.812867 28.758405 51.730789 -0.673276 0.981322 0.106608 -0.012355 294012.000000 0 0 1
-34.387231 25.488467 29.087645 51.751664 -0.637858 0.973920 0.099676 -0.023365 108039.000000 0 0 1
-33.881083 24.803367 30.275175 51.766022 -0.631928 0.946106 0.085697 -0.020617 28249.900000 0 0 1
-34.613241 23.677167 30.628715 51.930751 -0.599940 0.939986 0.071839 -0.032910 -477803.000000 0 0 1
-33.736263 22.757967 31.505575 51.465151 -0.593464 0.911991 0.067100 -0.036121 893632.000000 0 0 1
-32.572643 22.279367 30.754865 50.032080 -0.599900 0.908787 0.077105 -0.026838 1136770.000000 0 0 1
-31.840073 21.291067 31.509475 49.597851 -0.589401 0.882400 0.072901 -0.026401 360096.000000 0 0 1
-30.682293 21.895367 32.370952 49.685901 -0.619806 0.861221 0.083042 -0.030249 -400149.000000 0 0 1
-30.993163 22.714467 33.502888 50.980062 -0.632458 0.853730 0.091399 -0.035370 79231.800000 0 0 1
-31.329383 21.909967 -33.057956 50.541125 -0.610285 2.283762 0.082232 -0.030245 -35684.500000 0 0 1
-30.389273 22.225567 -31.834746 49.304511 -0.631466 2.272705 0.098287 -0.024877 434682.000000 0 0 1
-30.651513 23.455267 -31.136916 49.590043 -0.653173 2.249631 0.073873 -0.017816 -6874.810000 0 0 1
-29.710433 23.530467 -30.103306 48.400431 -0.669840 2.242044 0.111911 -0.021518 -52410.600000 0 0 1
-29.605343 24.893667 -29.361386 48.561940 -0.699158 2.220082 0.090930 -0.008371 96644.800000 0 0 1
-29.161383 26.000067 -30.176006 49.365789 -0.728151 2.228465 0.089983 -0.006922 440512.000000 0 0 1
-30.242683 26.597767 -30.875016 50.747687 -0.721360 2.224842 0.056285 0.005949 39047.300000 0 0 1
-29.888443 27.952767 -31.539836 51.666599 -0.751945 2.227424 0.064754 0.003514 -203256.000000 0 0 1
-29.948003 28.974967 -30.573676 51.683472 -0.768886 2.203784 0.054018 -0.005667 83559.000000 0 0 1
-29.385243 30.100067 -31.147876 52.342112 -0.797414 2.208165 0.043251 -0.009229 -233381.000000 0 0 1
-29.826293 31.477367 -30.539656 53.038693 -0.812324 2.184378 0.034704 -0.004355 118115.000000 0 0 1
-29.164873 31.859667 -29.323696 52.206392 -0.829529 2.167221 0.041545 -0.003582 376640.000000 0 0 1
-29.652063 33.081267 -28.799066 52.943378 -0.840007 2.145945 0.028574 -0.000265 -579130.000000 0 0 1
-29.280283 33.460367 -27.365406 52.209162 -0.851925 2.122512 0.013657 0.001034 -253920.000000 0 0 1
-27.912243 33.751167 -27.192896 51.552771 -0.879807 2.126424 0.051861 -0.001028 -67167.100000 0 0 1
-27.511523 -32.554370 -27.351426 50.643572 0.869157 2.141325 0.045141 0.010930 -152534.000000 0 0 1
-28.093313 -31.459970 -26.348816 49.731520 0.841870 2.129186 0.054376 0.005202 -310698.000000 0 0 1
-29.461803 -31.222370 -26.510636 50.454416 0.814402 2.124025 0.035934 -0.002673 -434478.000000 0 0 1
-29.976333 -30.553170 -25.333546 49.737967 0.794928 2.105214 0.037138 0.002538 -1025530.000000 0 0 1
-31.449863 -30.310770 -25.331326 50.492700 0.766957 2.096339 0.035368 0.000254 -1197780.000000 0 0 1
-31.878143 -29.335370 -26.239816 50.648869 0.743883 2.115393 0.027041 -0.006382 1340770.000000 0 0 1
-33.324503 -29.206570 -26.224806 51.490647 0.719639 2.105182 0.026776 -0.011795 1233680.000000 0 0 1
-33.957953 -28.299570 -27.338766 51.975152 0.694760 2.124683 0.037485 -0.020349 -558847.000000 0 0 1
-35.337402 -28.218370 -27.161426 52.751791 0.673851 2.111677 0.052023 -0.029462 -883737.000000 0 0 1
-35.901329 -27.541570 -28.271486 53.354667 0.654385 2.129254 0.065667 -0.035676 256532.000000 0 0 1
-37.399123 -27.935370 -28.383766 54.632568 0.641548 2.117108 0.072641 -0.036396 352054.000000 0 0 1
37.057166 -27.426470 -27.302716 53.580623 -0.637143 2.105473 0.056950 -0.032418 -419859.000000 0 0 1
35.676156 -27.590870 -27.531016 52.839389 -0.658291 2.118856 0.068235 -0.033245 414726.000000 0 0 1
34.883716 -26.918670 -26.293576 51.311213 -0.657225 2.108812 0.056842 -0.030427 229844.000000 0 0 1
34.781406 -27.653170 -25.084176 51.026071 -0.671719 2.084717 0.060741 -0.019074 333348.000000 0 0 1
33.790306 -27.065370 -24.253176 49.623942 -0.675338 2.081441 0.061525 -0.020726 333413.000000 0 0 1
33.426776 -27.899770 -22.977576 49.231246 -0.695517 2.056383 0.063585 -0.012712 253165.000000 0 0 1
32.749886 -29.155370 -23.180176 49.597492 -0.727398 2.057105 0.076993 -0.012071 278166.000000 0 0 1
32.302236 -29.835670 -22.006376 49.171966 -0.745724 2.034808 0.081159 -0.019960 -103619.000000 0 0 1
33.328026 -30.128170 -20.894776 49.548518 -0.735015 2.006119 0.072258 -0.011418 -929948.000000 0 0 1
34.428806 -30.892270 -21.260176 50.908449 -0.731310 2.001616 0.060855 -0.007218 -262996.000000 0 0 1
35.577296 -30.751070 -20.477376 51.290304 -0.712764 1.981489 0.041087 -0.003633 268611.000000 0 0 1
36.494926 -29.506770 -20.600376 51.253338 -0.679913 1.984423 0.024823 0.004285 -226378.000000 0 0 1
35.938736 -28.310470 -20.021376 49.939273 -0.667222 1.983311 0.018670 0.011157 191441.000000 0 0 1
36.493056 -27.136270 -20.609276 49.928575 -0.639393 1.996295 0.001380 0.015883 -92965.100000 0 0 1
35.696856 -25.873070 -20.174176 48.483798 -0.627177 1.999950 0.006429 0.013143 638021.000000 0 0 1
34.537786 -25.593870 -20.954576 47.822580 -0.637742 2.024362 0.038474 0.006845 221977.000000 0 0 1
33.644466 -24.751270 -20.288176 46.434745 -0.634268 2.022966 0.073551 -0.007023 -729974.000000 0 0 1
32.325606 -24.477670 -21.002676 45.664139 -0.648107 2.048722 0.083412 -0.014375 -458478.000000 0 0 1
31.481556 -25.609170 -21.040876 45.712541 -0.682898 2.049114 0.105975 -0.019157 -732858.000000 0 0 1
30.354136 -25.331670 -21.777776 45.136888 -0.695449 2.074283 0.103146 -0.027623 -727849.000000 0 0 1
29.566226 -26.530770 -22.295976 45.553859 -0.731340 2.082246 0.092310 -0.027336 -10681.700000 0 0 1
28.858026 -27.270070 -21.312076 45.062701 -0.757114 2.063424 0.089845 -0.020219 273893.000000 0 0 1
28.245626 -28.426870 -21.914376 45.674306 -0.788596 2.071219 0.073259 -0.016254 172699.000000 0 0 1
27.479326 -29.195470 -20.774076 45.155853 -0.815669 2.048851 0.066577 -0.000637 889271.000000 0 0 1
28.366926 -29.787370 -19.733976 45.622360 -0.809819 2.018116 0.089987 -0.013962 885758.000000 0 0 1
28.977126 -30.993670 -20.131676 46.963452 -0.819011 2.013813 0.087855 -0.012689 233829.000000 0 0 1
30.054226 -31.434770 -19.096976 47.498377 -0.807846 1.984557 0.063080 -0.011187 303503.000000 0 0 1
29.493226 -31.986970 -17.892076 47.044054 -0.825938 1.960945 0.063517 -0.015956 -85556.500000 0 0 1
28.824326 -31.136470 -17.043976 45.725471 -0.823940 1.952763 0.051456 -0.021004 -269268.000000 0 0 1
28.213926 -31.811370 -15.804676 45.362724 -0.845259 1.926667 0.055557 -0.018279 167868.000000 0 0 1
26.980226 -32.501070 -15.976176 45.160717 -0.877949 1.932387 0.056888 -0.014057 198314.000000 0 0 1
26.598526 -33.153070 -14.794276 45.005314 -0.894658 1.905747 0.070407 -0.017052 -125347.000000 0 0 1
25.060626 -33.327070 -14.771176 44.237046 -0.926042 1.911245 0.072764 -0.013967 199965.000000 0 0 1
24.389426 -32.105670 -14.521376 42.854271 -0.921141 1.916496 0.080353 -0.012252 -203821.000000 0 0 1
23.065526 -32.347470 -14.107576 42.159234 -0.951362 1.912005 0.094366 -0.020218 -80022.700000 0 0 1
-0.433873 -7.152433 -29.143036 30.011033 1.510210 2.900499 0.091263 -0.035206 -30594.600000 0 0 1
0.052327 -8.463133 -29.113796 30.318979 -1.564613 2.858692 0.099099 -0.030107 -88426.900000 0 0 1
-0.198173 -9.104533 -30.361256 31.697597 1.549033 2.850187 0.098320 -0.048727 -104157.000000 0 0 1
0.028127 -10.600833 -30.214026 32.019772 -1.568143 2.804153 0.112987 -0.029659 -798397.000000 0 0 1
1.331727 -10.879133 -29.856946 31.805129 -1.448991 2.789770 0.073993 -0.032693 -922230.000000 0 0 1
1.551527 -12.201033 -29.331996 31.806264 -1.444312 2.744549 0.098465 -0.036326 -249632.000000 0 0 1
2.988527 -12.458533 -28.868286 31.583608 -1.335367 2.723900 0.083222 -0.022703 -93720.000000 0 0 1
3.946127 -12.342733 -29.951916 32.634832 -1.261354 2.733274 0.091941 -0.033311 2171150.000000 0 0 1
5.353927 -12.367233 -29.539216 32.468111 -1.162243 2.713578 0.091586 -0.032569 2030080.000000 0 0 1
5.928727 -13.769233 -29.132166 32.763160 -1.164211 2.666334 0.093777 -0.032404 -753674.000000 0 0 1
5.392827 -14.368433 -27.951196 31.887361 -1.211741 2.639465 0.082963 -0.022962 74583.700000 0 0 1
6.033727 -15.584633 -27.538816 32.212933 -1.201409 2.596153 0.091190 -0.019527 -46743.800000 0 0 1
5.785427 -16.916733 -28.322696 33.493613 -1.241271 2.578512 0.051510 -0.019843 -378672.000000 0 0 1
6.307327 -16.978533 -29.627446 34.725185 -1.215108 2.592882 0.070388 -0.035503 180651.000000 0 0 1
5.999627 -18.306133 -30.089926 35.728331 -1.254089 2.572122 0.059770 -0.022452 -90035.700000 0 0 1
6.761527 -18.637333 -31.398996 37.134423 -1.222769 2.578390 0.080363 -0.049232 197015.000000 0 0 1
8.173127 -18.659933 -31.273976 37.323648 -1.157963 2.564245 0.082535 -0.041646 14410.400000 0 0 1
8.670727 -19.510333 -32.254596 38.680661 -1.152595 2.556876 0.091070 -0.043038 -80429.700000 0 0 1
10.145827 -19.258833 -32.631706 39.225867 -1.085928 2.553306 0.085216 -0.044557 -45201.500000 0 0 1
10.419127 -18.014733 -33.254746 39.229669 -1.046435 2.582419 0.100282 -0.049036 449056.000000 0 0 1
11.636827 -17.900833 33.686165 39.882493 -0.994371 0.564913 0.103784 -0.037043 -468903.000000 0 0 1
11.779727 -16.580633 32.841541 38.629602 -0.953091 0.554497 0.099127 -0.038800 -559276.000000 0 0 1
10.784327 -16.428433 31.894157 37.462413 -0.989905 0.552216 0.119133 -0.034470 -284371.000000 0 0 1
10.895727 -15.110433 31.290265 36.415968 -0.946067 0.537003 0.097096 -0.027610 -215803.000000 0 0 1
9.673027 -14.778133 30.417575 35.173705 -0.991229 0.526081 0.138127 -0.034566 46402.600000 0 0 1
9.651727 -15.652233 29.306515 34.597978 -1.018234 0.560370 0.128688 -0.029569 -827302.000000 0 0 1
8.535227 -15.294233 28.607655 33.543428 -1.061780 0.549369 0.130764 -0.035909 -1054860.000000 0 0 1
8.267027 -16.196833 27.382005 32.870280 -1.098855 0.586230 0.104640 -0.033905 -622672.000000 0 0 1
7.937327 -17.530133 27.743455 33.763975 -1.145631 0.606430 0.110457 -0.035813 205563.000000 0 0 1
7.978527 -18.422933 26.685975 33.394650 -1.162105 0.644984 0.093790 -0.034075 95238.700000 0 0 1
7.457527 -19.795633 27.164675 34.429658 -1.210513 0.661632 0.101127 -0.040709 -338335.000000 0 0 1
8.403227 -20.376233 28.049295 35.673072 -1.179643 0.666019 0.109837 -0.033860 346014.000000 0 0 1
7.905027 -21.406333 28.890715 36.815676 -1.217046 0.668521 0.099547 -0.033916 -225926.000000 0 0 1
8.538327 -21.476033 30.304605 38.111575 -1.192382 0.651533 0.120257 -0.042228 -150811.000000 0 0 1
8.058227 -20.531233 31.300655 38.290959 -1.196784 0.613840 0.139464 -0.046595 201789.000000 0 0 1
8.163027 -19.110333 31.062425 37.372638 -1.167104 0.589616 0.128609 -0.040543 -278179.000000 0 0 1
7.487927 -18.243333 32.129602 37.698801 -1.181316 0.550484 0.126464 -0.037909 103074.000000 0 0 1
6.093227 -18.457233 32.111366 37.535806 -1.251934 0.544307 0.139023 -0.044815 -122125.000000 0 0 1
5.323227 -17.484733 32.808319 37.555804 -1.275262 0.508268 0.132498 -0.038451 452702.000000 0 0 1
3.815427 -17.825633 32.875246 37.591122 -1.359936 0.506293 0.135376 -0.041215 280598.000000 0 0 1
3.390327 -18.851633 33.730725 38.789692 -1.392856 0.516446 0.130283 -0.051436 -6306.800000 0 0 1
2.878727 -18.410633 -32.691506 37.629417 -1.415690 2.623520 0.116476 -0.060747 -114970.000000 0 0 1
2.428127 -19.603333 -31.785426 37.423252 -1.447561 2.585548 0.094441 -0.041097 107811.000000 0 0 1
1.258927 -20.330333 -32.151476 38.060803 -1.508952 2.576875 0.095896 -0.045338 713568.000000 0 0 1
0.529627 -21.055333 -31.151536 37.603534 -1.545648 2.547078 0.090370 -0.048766 21917.300000 0 0 1
-0.223373 -20.310233 -30.108306 36.318942 1.559799 2.548109 0.090245 -0.043425 -1331860.000000 0 0 1
-1.395073 -19.756533 -30.628546 36.474301 1.500300 2.567581 0.102783 -0.048120 -414160.000000 0 0 1
-1.974773 -18.836133 -29.679366 35.207448 1.466338 2.573605 0.139770 -0.039243 24893.900000 0 0 1
-1.410173 -17.385333 -29.703726 34.446331 1.489861 2.610628 0.123161 -0.038010 -162774.000000 0 0 1
-2.122473 -16.480233 -28.884666 33.323068 1.442712 2.619559 0.131654 -0.037174 -12410.600000 0 0 1
-1.704273 -15.186733 -29.217076 32.972396 1.459043 2.659674 0.119149 -0.027850 770796.000000 0 0 1
-2.904073 -14.196133 -28.969476 32.391270 1.369012 2.677796 0.116520 -0.022505 711224.000000 0 0 1
-3.189473 -14.019333 -27.589896 31.111361 1.347099 2.661194 0.117772 -0.028039 488129.000000 0 0 1
-4.261473 -13.078433 -27.406016 30.664234 1.255805 2.676423 0.112043 -0.032127 384657.000000 0 0 1
-4.394073 -12.628633 -25.935556 29.179502 1.235953 2.665577 0.115455 -0.032777 41515.600000 0 0 1
-5.153173 -13.535233 -25.121226 28.997133 1.207018 2.618613 0.139384 -0.029756 346644.000000 0 0 1
-5.019773 -13.282133 -23.719976 27.645080 1.209456 2.602195 0.128345 -0.036541 -187709.000000 0 0 1
-6.145973 -12.417633 -23.122876 26.956223 1.111206 2.601758 0.109504 -0.034371 -519553.000000 0 0 1
-7.435973 -12.946433 -23.200276 27.589067 1.049440 2.569783 0.115763 -0.031765 -773132.000000 0 0 1
-8.335173 -11.877833 -23.049276 27.236504 0.958902 2.579730 0.088697 -0.030793 89492.300000 0 0 1
-9.789873 -12.279333 -23.425476 28.202421 0.897726 2.551015 0.095183 -0.035352 388986.000000 0 0 1
-10.422073 -13.155633 -22.475176 28.050380 0.900821 2.500166 0.092162 -0.034571 140723.000000 0 0 1
-11.447873 -13.901533 -23.120976 29.306756 0.881891 2.479862 0.074729 -0.031470 435784.000000 0 0 1
-12.212873 -14.879933 -22.162976 29.355820 0.883524 2.426416 0.067035 -0.030586 147644.000000 0 0 1
-11.485273 -16.077633 -22.021476 29.586267 0.950495 2.410304 0.102316 -0.033618 -67359.100000 0 0 1
-12.293973 -17.183533 -21.624476 30.232988 0.949776 2.367794 0.093274 -0.028342 335786.000000 0 0 1
-13.115473 -17.822733 -22.764476 31.747233 0.936391 2.370363 0.094847 -0.026233 -1035100.000000 0 0 1
-14.311073 -17.221033 -23.035076 32.124531 0.877423 2.370365 0.058726 -0.021517 -1364650.000000 0 0 1
-14.716373 -17.774233 -24.271376 33.490218 0.879237 2.381439 0.030564 -0.019911 377488.000000 0 0 1
-16.102173 -17.306633 -24.811076 34.269360 0.821435 2.380382 0.037229 -0.017168 40998.200000 0 0 1
-17.260573 -17.831133 -24.154276 34.630994 0.801656 2.342665 0.038089 -0.010279 862964.000000 0 0 1
-18.430973 -17.317833 -24.827176 35.440045 0.754270 2.346951 0.028588 -0.015133 494216.000000 0 0 1
-18.903073 -15.905033 -24.434376 34.746726 0.699480 2.350704 0.038272 -0.006746 -1021490.000000 0 0 1
-19.541273 -15.931833 -23.187976 34.254443 0.683996 2.314385 0.041993 -0.004425 -1536.830000 0 0 1
-19.995073 -14.616833 -22.907676 33.737462 0.631244 2.317193 0.054432 -0.009258 -131488.000000 0 0 1
-20.745373 -14.537833 -21.521776 33.240125 0.611246 2.275048 0.058717 -0.012390 -73703.500000 0 0 1
-20.027873 -14.898833 -20.345176 32.202750 0.639589 2.254649 0.067449 -0.012288 -135847.000000 0 0 1
-20.713473 -14.636933 -19.112676 31.758182 0.615167 2.216573 0.055394 -0.014581 -10096.900000 0 0 1
-21.031973 -13.125733 -18.775376 31.098931 0.557941 2.218969 0.070077 -0.020960 -373607.000000 0 0 1
-22.385573 -12.888133 -19.033276 32.085564 0.522386 2.205829 0.067967 -0.026022 -271850.000000 0 0 1
-22.710073 -11.635433 -18.431076 31.477536 0.473476 2.196331 0.065976 -0.028430 -49184.700000 0 0 1
-24.183173 -11.254333 -18.663376 32.554684 0.435569 2.181316 0.091134 -0.034867 -147687.000000 0 0 1
-24.362573 -10.796533 -20.015076 33.327216 0.417152 2.215001 0.064199 -0.031355 921135.000000 0 0 1
-25.783263 -10.566233 -20.093276 34.353481 0.388934 2.195550 0.076073 -0.032315 534178.000000 0 0 1
-26.259013 -9.642333 -21.201276 35.099921 0.351916 2.219340 0.067371 -0.025974 -462598.000000 0 0 1
-26.419253 -10.220833 -22.449276 36.144327 0.369137 2.240943 0.055988 -0.029640 449762.000000 0 0 1
-27.023043 -9.223233 -23.271476 36.835777 0.328912 2.254622 0.021928 -0.020649 -253137.000000 0 0 1
-27.304343 -9.623533 -24.765276 38.098011 0.338860 2.278435 0.036220 -0.017925 -405023.000000 0 0 1
-26.189353 -9.369333 -25.547786 37.767128 0.343565 2.313736 0.020393 -0.021053 -29078.100000 0 0 1
-25.307653 -10.489233 -25.678296 37.548318 0.392917 2.323855 0.029788 -0.012336 211391.000000 0 0 1
-24.329373 -10.418833 -26.886966 37.727701 0.404613 2.364077 0.045086 -0.019410 24056.800000 0 0 1
-24.827573 -10.613833 -28.176666 39.025458 0.403988 2.377495 0.044724 -0.008219 360641.000000 0 0 1
-23.789973 -10.372533 -29.139346 39.021196 0.411154 2.413969 0.046385 -0.004088 586254.000000 0 0 1
-24.315573 -10.561433 -30.566866 40.461392 0.409762 2.427149 0.046275 -0.003705 -8858.270000 0 0 1
-25.333803 -9.680533 -30.945846 41.148022 0.364998 2.421981 0.030689 -0.010781 -119612.000000 0 0 1
-24.883673 -8.791633 -31.930656 41.425316 0.339620 2.450893 0.026883 -0.014447 -681978.000000 0 0 1
-25.986263 -7.933533 -32.554736 42.403274 0.296309 2.446105 0.026981 -0.018821 -1188230.000000 0 0 1
-26.830463 -8.492133 -33.559416 43.797540 0.306535 2.443765 0.038632 -0.022757 985256.000000 0 0 1
-27.955213 -9.218233 -33.077566 44.278608 0.318522 2.414384 0.055456 -0.023705 -5257.840000 0 0 1
-28.972253 -8.480433 -32.164286 44.111795 0.284754 2.387881 0.037640 -0.014642 -2297080.000000 0 0 1
-30.265943 -8.933333 -32.275296 45.138968 0.287012 2.367450 0.062621 -0.014530 -705038.000000 0 0 1
-31.025213 -8.132233 -31.349056 44.849307 0.256350 2.344775 0.060986 -0.012864 19530.300000 0 0 1
-32.507313 -8.555133 -31.312226 45.938777 0.257340 2.320754 0.070038 -0.017588 -153691.000000 0 0 1
-32.730853 -9.941033 -30.925756 46.114372 0.294867 2.305856 0.070391 -0.013154 265724.000000 0 0 1
-34.089264 -10.340733 -30.936096 47.181042 0.294521 2.285891 0.081152 -0.012764 272884.000000 0 0 1
-34.073326 -11.892033 -30.812746 47.453528 0.335795 2.277492 0.078922 -0.020653 211740.000000 0 0 1
-35.391310 -12.348833 -31.123926 48.721015 0.335715 2.263759 0.055082 -0.016243 557236.000000 0 0 1
-35.417663 -13.739233 -31.367216 49.265400 0.370050 2.261006 0.052887 -0.028173 -9460.400000 0 0 1
-36.803133 -14.343433 -31.085166 50.264224 0.371625 2.237546 0.034821 -0.030683 -91667.300000 0 0 1
-37.011563 -14.321533 -29.668596 49.549851 0.369204 2.212752 0.036805 -0.031073 -237653.000000 0 0 1
37.204706 -15.195333 -29.242546 49.701255 -0.387748 2.199833 0.026004 -0.027921 -370249.000000 0 0 1
37.233616 -15.447433 -27.688656 48.904264 -0.393267 2.172661 0.037833 -0.019353 -8935.810000 0 0 1
-36.837543 -16.120533 -27.213006 48.553309 0.412504 2.165758 0.049610 -0.036206 184295.000000 0 0 1
-36.711053 -16.145533 -25.788006 47.680194 0.414340 2.142248 0.066504 -0.033690 -170900.000000 0 0 1
-35.552851 -15.344033 -25.133026 46.163986 0.407434 2.146505 0.128660 -0.036341 -444644.000000 0 0 1
-34.323922 -15.997233 -25.324536 45.556286 0.436134 2.160236 0.119006 -0.034819 -1105130.000000 0 0 1
-33.417153 -15.317033 -24.545776 44.201954 0.429783 2.159532 0.140403 -0.021394 150318.000000 0 0 1
-31.976923 -15.984333 -24.592276 43.391273 0.463544 2.173360 0.145755 -0.026814 882361.000000 0 0 1
-31.802773 -17.257733 -23.944976 43.389026 0.497182 2.155398 0.165543 -0.038986 52615.500000 0 0 1
-32.393583 -18.368733 -24.587676 44.624079 0.515838 2.154353 0.128658 -0.040612 -177484.000000 0 0 1
-32.099093 -19.688533 -23.824876 44.560238 0.550190 2.134910 0.120528 -0.040592 -351324.000000 0 0 1
-30.796033 -20.140033 -24.036476 43.951891 0.579169 2.149431 0.112932 -0.034038 -407839.000000 0 0 1
-30.651213 -21.413333 -23.388576 44.102757 0.609794 2.129774 0.092899 -0.023964 84079.300000 0 0 1
-29.296473 -22.198333 -23.518276 43.636666 0.648419 2.139994 0.084541 -0.025773 809121.000000 0 0 1
-28.156573 -21.670033 -22.834376 42.234958 0.655944 2.142007 0.095518 -0.026809 332379.000000 0 0 1
-28.118483 -21.512533 -21.421276 41.380058 0.653075 2.114923 0.105622 -0.033168 -643676.000000 0 0 1
-28.146053 -22.852933 -20.580076 41.689284 0.681980 2.087083 0.095991 -0.025238 -59548.400000 0 0 1
-27.848293 -22.641133 -19.215076 40.710778 0.682628 2.062343 0.095186 -0.031078 133164.000000 0 0 1
-27.908323 -23.840633 -18.522476 41.113652 0.706955 2.038143 0.081815 -0.003844 -51478.100000 0 0 1
-27.757243 -23.791433 -17.002176 40.318368 0.708616 2.006114 0.080636 -0.010587 1134430.000000 0 0 1
-28.934573 -23.236333 -16.328176 40.543138 0.676607 1.985300 0.099976 -0.008977 886182.000000 0 0 1
-28.940513 -21.825933 -16.126976 39.673719 0.646162 1.989406 0.095836 -0.018824 -129958.000000 0 0 1
-30.213493 -21.224833 -15.506176 40.047349 0.612399 1.968385 0.111411 -0.005983 697142.000000 0 0 1
-31.250603 -20.846433 -16.448576 41.008897 0.588284 1.983511 0.114769 -0.014781 1070360.000000 0 0 1
-32.340473 -20.220433 -15.748576 41.264873 0.558769 1.962373 0.125856 -0.022649 134616.000000 0 0 1
-33.215283 -19.370533 -16.641976 41.897827 0.527961 1.979264 0.137173 -0.041304 -1073550.000000 0 0 1
-34.162059 -20.072433 -17.356876 43.257485 0.531226 1.983673 0.081655 -0.028367 -997046.000000 0 0 1
-34.749399 -19.191433 -18.284876 43.705475 0.504593 2.002442 0.086017 -0.023928 -101059.000000 0 0 1
-36.155693 -19.767833 -18.637576 45.225663 0.500338 1.995556 0.048048 -0.008633 510188.000000 0 0 1
-37.171183 -19.610833 -17.641776 45.579753 0.485469 1.968230 0.040089 0.002757 352472.000000 0 0 1
-37.067633 -20.414833 -16.452376 45.403254 0.503415 1.941596 0.065758 -0.009306 -1003360.000000 0 0 1
-37.409883 -21.914133 -16.719876 46.468084 0.529901 1.938865 0.044019 0.025513 211813.000000 0 0 1
36.416556 -22.150733 -16.793076 45.812967 -0.546471 1.946102 0.042524 -0.000643 313985.000000 0 0 1
36.175266 -23.580033 -16.920676 46.378628 -0.577659 1.944255 0.037609 0.002778 -16531.900000 0 0 1
34.822976 -24.077133 -16.353576 45.384881 -0.604941 1.939419 0.022356 0.002549 156309.000000 0 0 1
33.765076 -23.710633 -17.222276 44.708850 -0.612217 1.966231 0.044979 -0.005047 241272.000000 0 0 1
32.500566 -24.066133 -16.683276 43.746968 -0.637383 1.962062 0.078412 -0.005534 627395.000000 0 0 1
31.292586 -23.887833 -17.644176 43.141296 -0.652003 1.992139 0.078668 -0.020735 28773.900000 0 0 1
30.742646 -22.611433 -17.753076 42.089891 -0.634161 2.006214 0.055893 -0.022016 -724838.000000 0 0 1
29.705826 -22.637833 -18.640776 41.741899 -0.651179 2.033727 0.099045 -0.026283 -926271.000000 0 0 1
35.413546 30.174367 -18.302976 49.996106 0.705687 1.945598 0.072561 -0.020335 679910.000000 0 0 1
34.360776 29.797167 -19.205076 49.369718 0.714387 1.970348 0.062926 -0.028598 610659.000000 0 0 1
34.946466 29.136867 -20.279976 49.814555 0.694988 1.990083 0.075226 -0.021823 99528.500000 0 0 1
33.977146 29.195167 -21.473676 49.678194 0.709845 2.017789 0.083736 -0.025342 -552360.000000 0 0 1
32.892236 28.311867 -21.363076 48.371914 0.710700 2.028225 0.065395 -0.019567 33934.000000 0 0 1
31.983746 28.381367 -22.443576 48.292609 0.725792 2.054139 0.087530 -0.018274 316726.000000 0 0 1
30.861846 29.447967 -22.278576 48.124539 0.761959 2.052101 0.073185 -0.018144 -705135.000000 0 0 1
31.285796 30.751967 -22.271376 49.198564 0.776793 2.040569 0.094827 -0.020107 -97147.000000 0 0 1
30.195826 31.645367 -22.404176 49.144321 0.808834 2.044163 0.082119 -0.010282 -282415.000000 0 0 1
30.649006 33.149367 -22.316276 50.361278 0.824570 2.029876 0.079219 -0.011085 -4542.840000 0 0 1
31.254106 33.559867 -21.138476 50.496722 0.820958 2.002711 0.073313 -0.016518 -38684.900000 0 0 1
32.660776 33.456867 -21.288276 51.373913 0.797438 1.998057 0.064192 -0.021215 184184.000000 0 0 1
33.394136 33.223867 -19.862076 51.122360 0.782842 1.969822 0.070562 -0.024608 52562.700000 0 0 1
33.301096 -33.318870 -18.997276 50.793765 -0.785665 1.954123 0.061389 -0.022163 235754.000000 0 0 1
33.548686 -33.622370 -17.636776 50.665906 -0.786495 1.926339 0.054055 -0.032949 -505633.000000 0 0 1
33.345096 -32.388770 -16.727376 49.403775 -0.770851 1.916209 0.053348 -0.030642 360719.000000 0 0 1
34.404076 -31.429570 -16.640076 49.480809 -0.740247 1.913775 0.064575 -0.017439 375941.000000 0 0 1
35.549436 -31.853870 -15.911476 50.315073 -0.730625 1.892556 0.055280 -0.022845 -168486.000000 0 0 1
36.683166 -30.829870 -16.077076 50.543130 -0.698916 1.894507 0.054954 -0.006601 -208279.000000 0 0 1
37.556126 -31.241870 -17.125176 51.766676 -0.693875 1.907963 0.040373 -0.010043 58795.200000 0 0 1
-36.459973 -30.467770 -17.068276 50.487035 0.696104 1.915664 0.025558 0.002685 1048270.000000 0 0 1
-35.414759 -30.991570 -18.136676 50.434330 0.718888 1.938646 0.052077 -0.004974 19213.900000 0 0 1
-34.792508 -32.190970 -17.680176 50.590175 0.746579 1.927811 0.048531 -0.022121 232033.000000 0 0 1
-33.890253 -32.841070 -18.556776 50.709359 0.769677 1.945443 0.071849 -0.026341 583584.000000 0 0 1
-32.482293 -32.219570 -18.762676 49.449349 0.781338 1.959979 0.055341 -0.025173 -855979.000000 0 0 1
-32.527223 -31.378370 -19.881576 49.375089 0.767423 1.985222 0.046093 -0.008326 1201690.000000 0 0 1
-31.218143 -30.877470 -20.259776 48.357514 0.779912 2.003094 0.069421 -0.007388 1224340.000000 0 0 1
-30.189943 -31.897970 -20.758176 48.577928 0.812901 2.012319 0.074205 -0.004580 -835371.000000 0 0 1
-30.702063 -32.392670 -21.961176 49.741281 0.812186 2.028075 0.067322 0.006722 -111202.000000 0 0 1
-29.914153 -33.399570 -22.548176 50.187728 0.840393 2.036752 0.069698 0.001459 -65250.900000 0 0 1
-30.589073 33.568867 -23.784676 51.266666 -0.831809 2.053234 0.059136 -0.000863 -332355.000000 0 0 1
-31.676643 32.739867 -23.472376 51.247059 -0.801902 2.046567 0.067820 -0.017233 -428344.000000 0 0 1
-32.229593 31.941867 -24.483376 51.560307 -0.780914 2.065589 0.060278 -0.012934 121623.000000 0 0 1
-33.084453 32.712067 -25.509216 53.060159 -0.779739 2.072318 0.055144 -0.023799 -828302.000000 0 0 1
-32.446613 33.527067 -26.454566 53.634793 -0.801774 2.086601 0.042302 -0.020887 -825097.000000 0 0 1
-33.354393 -33.476370 -27.304736 54.577757 0.787223 2.094731 0.044458 -0.024274 20589.800000 0 0 1
-32.709393 -32.508970 -28.378316 54.148558 0.782325 2.122434 0.029382 -0.019236 57798.700000 0 0 1
-32.388223 -33.054370 -29.664866 54.969015 0.795577 2.140836 0.033780 -0.012450 -502697.000000 0 0 1
-33.491543 -33.270870 -30.466806 56.185946 0.782093 2.143909 0.039903 -0.014295 -563881.000000 0 0 1
-33.149273 33.455467 -31.696096 56.769579 -0.789995 2.163166 0.052647 -0.012125 482604.000000 0 0 1
-32.346233 -33.590170 -32.740276 56.978101 0.804262 2.182926 0.035120 -0.022887 367552.000000 0 0 1
-32.481943 33.177667 -33.836566 57.452131 -0.795994 2.200558 0.045796 -0.030087 11460.000000 0 0 1
-31.573933 33.614867 32.619193 56.487913 -0.816696 0.955189 0.047680 -0.025260 1977100.000000 0 0 1
-30.192623 33.124867 32.661095 55.458078 -0.831675 0.941058 0.037846 -0.018872 1452480.000000 0 0 1
-30.085913 31.759167 32.260285 54.355615 -0.812447 0.935390 0.044873 -0.027335 -348478.000000 0 0 1
-28.640573 31.221567 32.375944 53.322326 -0.828487 0.918297 0.050752 -0.023541 9198.540000 0 0 1
-28.083813 31.143467 33.670905 53.780535 -0.837012 0.894281 0.053045 -0.026222 374005.000000 0 0 1
-26.749943 30.664167 33.772675 52.881416 -0.853468 0.878055 0.067625 -0.026455 105425.000000 0 0 1
-26.425793 29.191567 33.540816 51.724815 -0.835086 0.865253 0.077420 -0.023597 -510670.000000 0 0 1
-26.668393 28.458767 -32.954586 51.059860 -0.817864 2.272357 0.077699 -0.015853 328212.000000 0 0 1
-26.331333 27.133567 -33.123556 50.266684 -0.800402 2.290227 0.075471 -0.012752 -402656.000000 0 0 1
-26.098653 26.404367 -31.754176 48.853434 -0.791221 2.278366 0.108936 -0.018523 1025300.000000 0 0 1
-24.806873 26.642867 -31.135626 47.902511 -0.821068 2.278353 0.098036 -0.022584 1063890.000000 0 0 1
-24.798173 27.824567 -30.355296 48.068700 -0.842846 2.254280 0.081777 -0.020598 669132.000000 0 0 1
-23.425573 27.945367 -29.593356 46.962408 -0.873156 2.252543 0.113866 -0.028698 910244.000000 0 0 1
-22.296173 28.118667 -30.479266 47.082528 -0.900380 2.274910 0.118436 -0.024610 1437350.000000 0 0 1
-21.046673 28.280967 -29.759076 46.134349 -0.931018 2.271888 0.088241 -0.021605 1035530.000000 0 0 1
-20.852973 29.570867 -28.852126 46.278805 -0.956598 2.243933 0.073295 -0.017991 -988985.000000 0 0 1
-20.648173 30.743567 -29.598746 47.408857 -0.979368 2.245069 0.076024 -0.017821 172328.000000 0 0 1
-20.476873 31.884367 -28.791956 47.590881 -0.999908 2.220548 0.094723 -0.025813 -377013.000000 0 0 1
-19.941273 33.080267 -29.604976 48.666344 -1.028310 2.224745 0.096781 -0.017888 -61219.800000 0 0 1
-18.681673 32.803367 -30.175686 48.328437 -1.053102 2.245144 0.089257 -0.013181 -336432.000000 0 0 1
-18.193773 -33.704670 -30.810816 49.156124 1.075818 2.248229 0.091557 -0.005514 93942.000000 0 0 1
-16.686573 33.740367 -31.106646 48.831112 -1.111512 2.261429 0.079675 0.003414 -331044.000000 0 0 1
-15.819573 -33.555870 -30.066606 47.752027 1.130257 2.251887 0.089343 -0.003757 1113740.000000 0 0 1
-14.419773 -33.751070 -30.409246 47.663265 1.167031 2.262697 0.104749 -0.001360 1311820.000000 0 0 1
-13.800173 32.547367 -30.228886 46.514099 -1.169771 2.278231 0.107420 -0.012782 -736452.000000 0 0 1
-13.713273 32.134167 -28.894566 45.338223 -1.167444 2.261801 0.109342 -0.023528 170024.000000 0 0 1
-13.344373 30.746167 -28.891256 44.250466 -1.161313 2.282207 0.094001 -0.024599 -207125.000000 0 0 1
-13.096973 30.256567 -27.489046 42.925962 -1.162284 2.265793 0.083765 -0.035968 -630788.000000 0 0 1
-11.870773 30.765467 -27.094686 42.679635 -1.202550 2.258596 0.088272 -0.027596 -762813.000000 0 0 1
-11.538873 30.558967 -25.752186 41.595326 -1.209754 2.238408 0.064934 -0.030588 -472100.000000 0 0 1
-10.167173 31.113367 -25.369206 41.412675 -1.254957 2.230136 0.072491 -0.034514 -558322.000000 0 0 1
-9.143673 30.204167 -25.636496 40.658682 -1.276838 2.253031 0.077884 -0.022467 -1546250.000000 0 0 1
-7.963773 30.628367 -25.076376 40.377508 -1.316416 2.240876 0.098213 -0.029259 -705506.000000 0 0 1
-6.757773 29.744867 -25.489776 39.751142 -1.347397 2.266901 0.098466 -0.032814 -293769.000000 0 0 1
-6.574773 28.509867 -24.810676 38.361567 -1.344145 2.274123 0.096663 -0.046459 -987261.000000 0 0 1
-5.433473 27.951867 -25.311086 38.098301 -1.378804 2.297437 0.095520 -0.055984 -1120690.000000 0 0 1
-4.970873 26.852367 -24.363776 36.597169 -1.387750 2.299266 0.103729 -0.051274 -175247.000000 0 0 1
-5.803373 25.718467 -24.513276 36.000269 -1.348863 2.319813 0.105092 -0.050216 413294.000000 0 0 1
-5.379573 24.668667 -23.650876 34.595475 -1.356085 2.323536 0.109731 -0.065032 -74648.200000 0 0 1
-6.337473 23.473767 -23.814176 34.033752 -1.307102 2.345805 0.097188 -0.051124 12617.200000 0 0 1
-6.206373 22.852367 -25.094056 34.503063 -1.305607 2.385175 0.095283 -0.049764 390038.000000 0 0 1
-7.142173 21.788167 -25.221696 34.086197 -1.254034 2.403776 0.087563 -0.052063 105572.000000 0 0 1
-6.768873 20.906367 -26.459816 34.394995 -1.257677 2.448530 0.061044 -0.037646 -434675.000000 0 0 1
-5.604473 20.143867 -26.381486 33.662565 -1.299437 2.471403 0.071459 -0.044123 -654398.000000 0 0 1
-5.651273 19.031567 -25.548406 32.355192 -1.282147 2.480991 0.076686 -0.046301 -782151.000000 0 0 1
-4.483773 18.091767 -25.742236 31.781739 -1.327856 2.514896 0.078111 -0.057695 -232312.000000 0 0 1
-4.583473 17.412767 -26.958306 32.418559 -1.313410 2.552725 0.071772 -0.049317 222060.000000 0 0 1
-3.338273 16.736267 -27.081076 32.009864 -1.373917 2.579277 0.076894 -0.052979 232808.000000 0 0 1
-2.994773 16.448967 -28.545516 33.081470 -1.390704 2.611748 0.073022 -0.040864 -138475.000000 0 0 1
-2.366073 17.517567 -29.235996 34.164410 -1.436540 2.597784 0.090822 -0.050923 178513.000000 0 0 1
-2.341173 17.389667 -30.714746 35.373397 -1.436971 2.622563 0.087935 -0.050042 -351754.000000 0 0 1
-1.508873 18.534667 -31.290336 36.399117 -1.489567 2.605372 0.093694 -0.037412 -708865.000000 0 0 1
-0.150873 18.393467 -30.937766 35.992885 -1.562594 2.605189 0.120632 -0.041792 -163429.000000 0 0 1
0.582627 19.485767 -31.554156 37.090421 1.540905 2.588180 0.140817 -0.029095 393262.000000 0 0 1
0.541527 20.879567 -30.937566 37.328040 1.544866 2.547760 0.134795 -0.039597 -232325.000000 0 0 1
1.192127 20.914567 -29.677706 36.326389 1.513858 2.526940 0.154627 -0.056109 -320647.000000 0 0 1
1.295027 22.251567 -29.251836 36.776069 1.512663 2.490470 0.149809 -0.061614 -156296.000000 0 0 1
2.366327 22.426267 -28.190616 36.100523 1.465669 2.466889 0.161083 -0.069453 433061.000000 0 0 1
3.729127 22.352567 -28.635616 36.517696 1.405487 2.472133 0.161894 -0.067779 1244770.000000 0 0 1
4.694427 22.577467 -27.558806 35.934210 1.365792 2.444830 0.145253 -0.067869 929220.000000 0 0 1
5.138727 24.082467 -27.410776 36.847284 1.360569 2.409687 0.154642 -0.067978 -5922.570000 0 0 1
5.956727 24.610067 -28.478656 38.107372 1.333319 2.414826 0.136270 -0.065303 362259.000000 0 0 1
6.225927 25.931667 -28.199556 38.812736 1.335167 2.384090 0.137214 -0.062835 -372050.000000 0 0 1
7.156227 26.581867 -29.226736 40.149836 1.307817 2.386111 0.148557 -0.056228 -174593.000000 0 0 1
8.527127 26.308867 -29.027916 40.093494 1.257364 2.380388 0.123733 -0.048534 -33234.600000 0 0 1
9.292027 26.974967 -30.028876 41.421299 1.239058 2.381776 0.132363 -0.046028 491320.000000 0 0 1
10.803327 26.929167 -29.659316 41.491769 1.189277 2.367169 0.121367 -0.039526 451769.000000 0 0 1
11.634627 27.872367 -30.329796 42.803387 1.175359 2.358286 0.115412 -0.035398 1106480.000000 0 0 1
12.963227 27.930867 -29.743806 42.812061 1.136264 2.338873 0.101989 -0.033904 952538.000000 0 0 1
13.853027 28.919367 -30.478746 44.240141 1.124071 2.330820 0.102350 -0.031169 -603903.000000 0 0 1
13.406227 30.250567 -30.470606 44.980902 1.153634 2.315035 0.108791 -0.031866 188541.000000 0 0 1
14.318527 31.175067 -31.034196 46.260419 1.140240 2.306162 0.145302 -0.044255 244053.000000 0 0 1
13.731327 32.603367 -30.790146 46.899488 1.172180 2.286984 0.146137 -0.051405 411126.000000 0 0 1
12.739827 32.957767 -31.748656 47.502576 1.201938 2.302793 0.122194 -0.048967 198636.000000 0 0 1
12.289027 -33.395270 -31.471696 47.505072 -1.218188 2.294936 0.108007 -0.044400 312180.000000 0 0 1
10.944027 -32.989770 -32.166416 47.357945 -1.250480 2.317494 0.076680 -0.037692 422330.000000 0 0 1
11.093727 -32.581670 -33.533886 48.053694 -1.242619 2.343176 0.061072 -0.021153 -276765.000000 0 0 1
9.820027 -32.608270 33.580910 47.826873 -1.278284 0.792405 0.075044 -0.026620 -332403.000000 0 0 1
9.734627 -31.984470 32.167679 46.395354 -1.275349 0.804685 0.079360 -0.032151 14094.300000 0 0 1
9.667527 -30.576370 32.294506 45.511654 -1.264566 0.781884 0.072889 -0.037412 60979.600000 0 0 1
9.840127 -29.931870 31.050685 44.236750 -1.253176 0.792706 0.091130 -0.038919 -585522.000000 0 0 1
9.457127 -28.432870 31.048085 43.149148 -1.249695 0.767638 0.088022 -0.043718 1321340.000000 0 0 1
8.050127 -28.042570 31.062415 42.615302 -1.291245 0.754078 0.062862 -0.042072 1102430.000000 0 0 1
7.510427 -28.271070 32.346450 43.611383 -1.311136 0.735199 0.073913 -0.037199 -1689710.000000 0 0 1
6.002027 -28.277370 32.382789 43.408283 -1.361645 0.728754 0.064570 -0.034150 -954483.000000 0 0 1
5.310827 -29.435370 31.935256 43.755074 -1.392293 0.752673 0.087880 -0.038426 90113.100000 0 0 1
5.604227 -30.122970 30.692655 43.368650 -1.386854 0.784537 0.077374 -0.031610 -686928.000000 0 0 1
5.430627 -29.338470 29.368105 41.865537 -1.387765 0.793315 0.067934 -0.036185 -431364.000000 0 0 1
4.070027 -29.289770 29.030375 41.439335 -1.432723 0.794627 0.101047 -0.038710 -267789.000000 0 0 1
3.866527 -28.551870 27.831825 40.059578 -1.436194 0.802709 0.106978 -0.038929 -772107.000000 0 0 1
2.382727 -28.482570 27.390905 39.587825 -1.487335 0.806676 0.092121 -0.031185 137777.000000 0 0 1
1.961227 -29.721470 26.819415 40.081083 -1.504905 0.837760 0.110391 -0.037004 145824.000000 0 0 1
1.737227 -30.693570 27.807345 41.453126 -1.514258 0.835490 0.148584 -0.047322 -1525100.000000 0 0 1
1.920527 -32.107670 27.196915 42.122003 -1.511052 0.868896 0.172169 -0.045336 -87826.200000 0 0 1
3.262827 -32.463070 26.990235 42.343474 -1.470624 0.879662 0.133596 -0.037201 32112.100000 0 0 1
3.894327 -31.930570 25.841145 41.261264 -1.449433 0.894023 0.121885 -0.041347 559928.000000 0 0 1
5.455527 -32.072070 25.832945 41.541805 -1.402307 0.899688 0.138645 -0.035867 1162970.000000 0 0 1
6.213827 -31.753870 24.650565 40.676409 -1.377551 0.919754 0.117051 -0.045713 1326900.000000 0 0 1
7.582127 -31.401170 24.905335 40.789678 -1.333871 0.914004 0.106744 -0.045764 707641.000000 0 0 1
8.429827 -31.017570 23.661465 39.912612 -1.305430 0.936226 0.088759 -0.040199 -389390.000000 0 0 1
9.704527 -30.506770 23.935545 39.971880 -1.262808 0.928782 0.080680 -0.029767 -202250.000000 0 0 1
10.365227 -30.403170 22.697365 39.331426 -1.242228 0.955648 0.093121 -0.030295 107990.000000 0 0 1
11.707627 -29.630670 22.634865 39.081738 -1.194505 0.953089 0.068361 -0.027109 504826.000000 0 0 1
12.814227 -30.209470 23.316585 40.255182 -1.169621 0.953025 0.068202 -0.036078 520022.000000 0 0 1
13.935927 -29.326570 23.242135 39.930623 -1.127186 0.949533 0.082175 -0.031758 586547.000000 0 0 1
15.241927 -29.840770 23.916455 41.167763 -1.098566 0.950900 0.098477 -0.029129 78380.800000 0 0 1
15.179027 -29.981970 25.311945 42.071558 -1.102144 0.925243 0.101996 -0.033049 140809.000000 0 0 1
15.512627 -28.802770 26.038025 41.811720 -1.076762 0.898551 0.107344 -0.036438 -438314.000000 0 0 1
-11.115673 -13.797933 25.572365 31.110882 0.892648 0.605926 0.117170 -0.040058 1178770.000000 0 0 1
-9.691773 -13.588933 25.425585 30.414634 0.951259 0.580907 0.123955 -0.034159 470748.000000 0 0 1
-9.036973 -14.259033 26.463295 31.389376 1.005914 0.567839 0.133668 -0.043107 47292.900000 0 0 1
-7.512973 -13.990733 26.307565 30.729031 1.077991 0.543093 0.136421 -0.034016 284302.000000 0 0 1
-6.840573 -14.911233 25.444905 30.275097 1.140687 0.572671 0.130138 -0.034413 152219.000000 0 0 1
-6.866573 -14.685633 24.054475 29.007506 1.133427 0.593032 0.126848 -0.031362 -362785.000000 0 0 1
-6.276473 -15.915633 23.269345 28.881896 1.195162 0.633987 0.132895 -0.029534 392815.000000 0 0 1
-7.063573 -17.115733 23.120215 29.620715 1.179394 0.675264 0.145344 -0.031695 187424.000000 0 0 1
-7.287473 -17.854133 24.352625 31.063285 1.183269 0.669764 0.151812 -0.035031 -192429.000000 0 0 1
-7.960073 -19.183533 24.096615 31.812223 1.177475 0.711376 0.157554 -0.039377 168061.000000 0 0 1
-9.357673 -19.235633 23.860885 32.045553 1.118026 0.730872 0.149966 -0.038567 260124.000000 0 0 1
-9.767973 -20.616033 23.852475 33.005677 1.128324 0.763127 0.144719 -0.042690 1141130.000000 0 0 1
-11.317873 -20.839533 23.596155 33.453833 1.073269 0.787901 0.118863 -0.045270 1171320.000000 0 0 1
-12.067173 -20.345633 24.697555 34.198402 1.035459 0.763841 0.123376 -0.047326 -226113.000000 0 0 1
-13.447073 -20.398233 24.414355 34.539433 0.987962 0.785755 0.120116 -0.039153 8213.920000 0 0 1
-14.347773 -20.153733 25.631835 35.623342 0.952117 0.767680 0.119560 -0.042861 -387189.000000 0 0 1
-14.083873 -21.192933 26.551155 36.775804 0.984257 0.764146 0.110353 -0.038730 903797.000000 0 0 1
-13.089973 -20.885533 27.577255 36.987267 1.010941 0.729380 0.115682 -0.042682 713969.000000 0 0 1
-12.526373 -22.075233 28.388195 38.080383 1.054662 0.729540 0.110098 -0.034121 651335.000000 0 0 1
-13.541973 -22.856633 29.074565 39.384528 1.035929 0.740364 0.102961 -0.033392 451857.000000 0 0 1
-13.059573 -24.079633 29.537135 40.284284 1.073846 0.747755 0.094765 -0.026979 -47118.100000 0 0 1
-14.024573 -24.748233 30.550565 41.743272 1.055230 0.749737 0.104196 -0.025686 56835.300000 0 0 1
-13.850273 -24.327833 31.870807 42.419593 1.053243 0.720732 0.090509 -0.025913 432715.000000 0 0 1
-14.867573 -24.880133 32.730620 43.719095 1.032167 0.724762 0.101627 -0.026082 234917.000000 0 0 1
-14.789773 -24.253133 -33.501946 43.924164 1.023196 2.438309 0.101352 -0.025465 63740.100000 0 0 1
-15.018573 -22.863233 -33.374186 43.152303 0.989594 2.454991 0.109293 -0.033580 -622556.000000 0 0 1
-16.347773 -22.494633 -33.576966 43.596684 0.942348 2.449908 0.104420 -0.036754 -801791.000000 0 0 1
-16.619073 -20.967733 -33.476696 42.854738 0.900582 2.467329 0.089072 -0.038700 45327.500000 0 0 1
-16.504173 -20.474733 -32.171636 41.552576 0.892362 2.456309 0.080580 -0.042636 52219.300000 0 0 1
-16.784573 -19.105933 -32.153816 40.995444 0.849987 2.472406 0.070118 -0.038892 -176828.000000 0 0 1
-17.136573 -18.639333 -30.749456 39.832348 0.827378 2.452734 0.059361 -0.030849 120553.000000 0 0 1
-18.386573 -19.130533 -30.284896 40.264355 0.805225 2.422117 0.059602 -0.025702 250096.000000 0 0 1
-18.612273 -18.823233 -28.923946 39.208742 0.791033 2.400441 0.052399 -0.025654 123529.000000 0 0 1
-17.901173 -19.736933 -27.881436 38.566475 0.834134 2.378852 0.039392 -0.012531 406463.000000 0 0 1
-16.480673 -19.636833 -27.849526 37.852528 0.872563 2.397551 0.034865 -0.020636 515376.000000 0 0 1
-15.971273 -20.766033 -27.104266 37.695503 0.915179 2.373205 0.031834 -0.015962 879569.000000 0 0 1
-14.429073 -20.999333 -27.289696 37.334939 0.968767 2.390498 0.158003 -0.023213 1064590.000000 0 0 1
-13.624473 -19.942833 -26.707466 36.008771 0.971451 2.406388 0.150858 -0.032744 1305140.000000 0 0 1
-12.199173 -19.979533 -26.877236 35.642494 1.022631 2.425046 0.120230 -0.040499 1298400.000000 0 0 1
-11.377473 -21.051433 -26.047136 35.370369 1.075306 2.398547 0.176684 -0.047198 -274113.000000 0 0 1
-11.382573 -22.387133 -26.443766 36.469432 1.100417 2.381967 0.170845 -0.039664 180610.000000 0 0 1
-10.911273 -23.236633 -25.382476 36.100790 1.131786 2.350544 0.233449 -0.042240 68409.400000 0 0 1
-10.930073 -24.741233 -25.747816 37.343609 1.154803 2.331573 0.210861 -0.040198 -177088.000000 0 0 1
-9.883373 -25.147083 -26.615726 37.926952 1.196319 2.348665 0.201030 -0.046522 263458.000000 0 0 1
-10.251773 -26.366883 -27.314176 39.323982 1.199971 2.338651 0.187287 -0.032845 39491.400000 0 0 1
-9.887873 -27.770803 -26.664076 39.748717 1.228739 2.306105 0.200091 -0.027027 -211206.000000 0 0 1
-10.720373 -28.046103 -25.552666 39.426502 1.205692 2.275895 0.159143 -0.032229 229343.000000 0 0 1
-10.348573 -29.198823 -24.824576 39.697907 1.230192 2.246360 0.148549 -0.046613 23090.900000 0 0 1
-11.245373 -29.309383 -23.516376 39.223950 1.204439 2.213724 0.152947 -0.049648 -136406.000000 0 0 1
-11.140773 -28.162133 -22.653976 37.820962 1.194094 2.213022 0.155411 -0.052329 -267731.000000 0 0 1
-12.240973 -27.294493 -22.746376 37.579627 1.149209 2.220920 0.137063 -0.041043 -396500.000000 0 0 1
-12.164173 -25.984513 -21.854576 36.066390 1.132967 2.221761 0.162468 -0.040811 -91498.400000 0 0 1
-12.811573 -26.172673 -20.618776 35.697047 1.115582 2.186587 0.098712 -0.034359 154771.000000 0 0 1
-12.686773 -25.074063 -19.754476 34.349704 1.102383 2.183521 0.096063 -0.022363 -51825.100000 0 0 1
-13.293573 -25.372713 -18.371176 34.029307 1.088187 2.141071 0.128455 -0.027447 175265.000000 0 0 1
-14.704073 -25.246133 -18.347876 34.499588 1.043397 2.131555 0.157275 -0.035525 13564.100000 0 0 1
-15.195873 -25.850933 -17.155676 34.547106 1.039376 2.090460 0.151056 -0.038875 -221283.000000 0 0 1
-16.708973 -25.972163 -16.997976 35.251585 0.999116 2.073950 0.164114 -0.043736 -1743690.000000 0 0 1
-17.486673 -24.822133 -17.023376 34.809731 0.957071 2.081786 0.145257 -0.037159 362324.000000 0 0 1
-18.806273 -24.946133 -16.485876 35.323782 0.924820 2.056361 0.151782 -0.035538 866828.000000 0 0 1
-19.787473 -25.835123 -17.323676 36.866074 0.917188 2.059983 0.142905 -0.027352 -1310010.000000 0 0 1
-19.471873 -27.185323 -17.470976 37.728380 0.949238 2.052255 0.154581 -0.039678 -335641.000000 0 0 1
-19.844073 -28.045133 -16.443476 38.088117 0.955004 2.017197 0.153918 -0.043737 -605062.000000 0 0 1
-21.317173 -28.473703 -16.396776 39.166668 0.928152 2.002745 0.144118 -0.038230 -267982.000000 0 0 1
-21.847273 -29.142533 -17.520776 40.417424 0.927507 2.019165 0.118726 -0.035412 508639.000000 0 0 1
-23.192373 -29.494453 -17.166276 41.261240 0.904447 1.999881 0.135045 -0.030368 526310.000000 0 0 1
-23.820673 -30.495473 -18.158076 42.744755 0.907673 2.009540 0.106505 -0.032971 -259435.000000 0 0 1
-23.211473 -31.752763 -18.221676 43.347894 0.939562 2.004637 0.093772 -0.040374 -18768.400000 0 0 1
-23.632673 -32.524223 -19.368276 44.625760 0.942429 2.019742 0.069725 -0.010718 168952.000000 0 0 1
-23.046273 33.694304 -19.390976 45.193438 -0.970902 2.014255 0.050651 -0.017354 -171636.000000 0 0 1
-23.760173 32.873100 -18.528776 44.592624 -0.944942 1.999302 0.060513 -0.022238 -532811.000000 0 0 1
-23.084773 31.663314 -18.221076 43.214348 -0.940826 2.006054 0.051847 -0.022902 -459204.000000 0 0 1
-23.788873 30.329494 -17.883676 42.492524 -0.905673 2.005197 0.076846 -0.039347 -171472.000000 0 0 1
-24.419973 30.323864 -16.592276 42.322281 -0.892829 1.973651 0.072449 -0.041488 674.758000 0 0 1
-25.172833 29.199554 -16.252876 41.838278 -0.859321 1.969766 0.076183 -0.035051 -77205.300000 0 0 1
-24.373373 27.873554 -15.919276 40.304090 -0.852291 1.976841 0.085827 -0.042981 144466.000000 0 0 1
-23.714273 27.337864 -17.075876 40.016386 -0.856258 2.011662 0.068554 -0.031858 -49911.000000 0 0 1
-23.293073 26.060614 -16.766576 38.766493 -0.841415 2.018062 0.070190 -0.031984 43711.100000 0 0 1
-22.330773 25.458904 -17.852376 38.282196 -0.850761 2.055941 0.063703 -0.022498 -409815.000000 0 0 1
-22.155373 24.051574 -17.814676 37.238441 -0.826412 2.069622 0.082560 -0.034235 381906.000000 0 0 1
-21.430173 23.514584 -18.950176 37.031030 -0.831742 2.108003 0.075040 -0.020388 201349.000000 0 0 1
-19.933673 23.843134 -19.028576 36.440816 -0.874466 2.120199 0.063360 -0.029911 -747790.000000 0 0 1
-19.122373 23.432454 -17.933176 35.161682 -0.886337 2.106005 0.096795 -0.040602 208539.000000 0 0 1
-17.850673 24.032644 -17.861376 34.860340 -0.931940 2.108738 0.119104 -0.058352 -331644.000000 0 0 1
-17.732673 25.382444 -17.097476 35.370042 -0.960997 2.075318 0.146848 -0.061686 -679280.000000 0 0 1
-18.661073 26.361444 -17.428376 36.700268 -0.954793 2.065629 0.115259 -0.045657 -321453.000000 0 0 1
-18.326273 27.598144 -16.836476 37.161496 -0.984614 2.040994 0.140477 -0.061559 -209407.000000 0 0 1
-19.245973 28.829794 -17.116776 38.659391 -0.982167 2.029469 0.114351 -0.045586 101280.000000 0 0 1
-19.464773 29.309044 -18.393876 39.701790 -0.984558 2.052513 0.102696 -0.041699 479860.000000 0 0 1
-20.376873 28.479094 -19.135676 39.905512 -0.949741 2.070909 0.077458 -0.025902 -119261.000000 0 0 1
-20.587973 29.044584 -20.579976 41.121624 -0.954162 2.094933 0.079373 -0.027858 -183512.000000 0 0 1
-21.348373 30.236654 -20.747376 42.431850 -0.956026 2.081691 0.077523 -0.023095 129285.000000 0 0 1
-21.851873 30.267944 -22.030176 43.347220 -0.945492 2.103920 0.084659 -0.021994 -281148.000000 0 0 1
-22.271573 31.651574 -22.507576 44.770929 -0.957626 2.097547 0.086280 -0.026899 557298.000000 0 0 1
-21.193173 32.629179 -22.607476 44.999021 -0.994761 2.097168 0.071960 -0.025063 866760.000000 0 0 1
-21.566273 33.745914 -23.426576 46.397148 -1.002137 2.100079 0.086828 -0.021848 -412761.000000 0 0 1
-20.373373 -32.954023 -23.669176 45.401232 1.017076 2.119209 0.108020 -0.018427 135451.000000 0 0 1
-20.166973 -32.071183 -22.539576 44.082877 1.009455 2.107493 0.106153 -0.023900 407748.000000 0 0 1
-19.485973 -32.695783 -21.442476 43.686350 1.033339 2.083836 0.114640 -0.040782 -541961.000000 0 0 1
-19.177673 -31.707783 -20.262276 42.234186 1.026836 2.071178 0.143203 -0.044110 -279168.000000 0 0 1
-18.186473 -30.742253 -20.513676 41.190349 1.036592 2.092112 0.130411 -0.046954 74209.000000 0 0 1
-18.071273 -29.825533 -19.523476 39.966229 1.026050 2.081165 0.133436 -0.044498 -203620.000000 0 0 1
-16.847073 -28.900323 -19.621776 38.782298 1.043017 2.101275 0.144736 -0.044104 -431839.000000 0 0 1
-15.633073 -29.536563 -19.360976 38.621871 1.084001 2.095892 0.149658 -0.050375 -1144240.000000 0 0 1
-14.593873 -28.677383 -19.673576 37.715024 1.100055 2.119566 0.127392 -0.050036 -1322170.000000 0 0 1
-13.336073 -29.453463 -20.068976 38.054187 1.145629 2.126309 0.162630 -0.058120 -250717.000000 0 0 1
-12.667473 -30.158743 -19.003476 37.830500 1.173146 2.097090 0.155413 -0.050634 380192.000000 0 0 1
-11.737373 -29.386123 -18.266376 36.537250 1.190791 2.094324 0.127236 -0.038011 -487124.000000 0 0 1
-11.016973 -30.219013 -17.215776 36.482124 1.221200 2.062237 0.117976 -0.014680 -23795.400000 0 0 1
-11.800773 -30.659473 -16.099576 36.584941 1.203376 2.026462 0.139763 -0.026226 65508.400000 0 0 1
-12.454773 -31.896453 -16.220976 37.889644 1.198528 2.013198 0.148329 -0.024092 440483.000000 0 0 1
-13.398873 -32.314573 -15.053976 38.083902 1.177734 1.977174 0.148246 -0.034773 102393.000000 0 0 1
-12.588273 -32.565353 -13.916276 37.584965 1.201935 1.950087 0.134372 -0.029492 -235857.000000 0 0 1
-13.313373 -33.059433 -12.850276 37.885375 1.187956 1.916850 0.149881 -0.029994 -577007.000000 0 0 1
-12.586173 -33.513163 -11.583976 37.626219 1.211536 1.883750 0.113833 -0.022227 -279250.000000 0 0 1
-12.128073 -32.456363 -10.785276 36.288122 1.213189 1.872568 0.073648 -0.013789 -105641.000000 0 0 1
-11.740873 -32.859473 -9.480576 36.159015 1.227628 1.836088 0.086050 -0.020734 442704.000000 0 0 1
-10.334773 -32.217843 -9.200576 35.063479 1.260388 1.836302 0.075964 -0.022794 746117.000000 0 0 1
-9.300273 -32.884963 -9.899476 35.579706 1.295182 1.852751 0.048056 -0.024724 -1690510.000000 0 0 1
-8.088373 -32.378113 -9.574176 34.719286 1.325997 1.850176 0.047461 -0.037159 -1801950.000000 0 0 1
-6.918373 -33.032623 -10.266876 35.276434 1.364340 1.866111 0.062069 -0.052647 -480228.000000 0 0 1
-6.553773 33.410041 -9.661676 35.391112 -1.377094 1.847304 0.051463 -0.029651 -966584.000000 0 0 1
-5.518873 32.824312 -10.347376 34.856300 -1.404221 1.872197 0.067638 -0.028107 -873541.000000 0 0 1
-4.640473 31.886376 -9.520876 33.599436 -1.426279 1.858097 0.082134 -0.034158 -76261.200000 0 0 1
-3.846273 32.594575 -8.588976 33.925958 -1.453336 1.826750 0.105179 -0.035816 119095.000000 0 0 1
-3.030273 31.713017 -7.794576 32.797156 -1.475533 1.810753 0.091414 -0.033963 408832.000000 0 0 1
-2.702073 32.404549 -6.424076 33.145509 -1.487603 1.765845 0.099380 -0.027815 529083.000000 0 0 1
-1.530673 33.245336 -6.385276 33.887566 -1.524787 1.760355 0.074609 -0.021914 484476.000000 0 0 1
-1.383873 33.792934 -5.047276 34.195797 -1.529868 1.718937 0.079665 -0.021010 120665.000000 0 0 1
-0.247773 33.065707 -4.302776 33.345409 -1.563303 1.700194 0.071780 -0.023715 114390.000000 0 0 1
1.063427 33.232455 -4.833776 33.598993 1.538808 1.715164 0.065354 -0.013424 -80742.200000 0 0 1
1.915727 32.353692 -4.162976 32.676625 1.511653 1.698543 0.061768 -0.013685 618590.000000 0 0 1
3.420027 32.531799 -4.588576 33.031342 1.466052 1.710163 0.055800 0.001942 660542.000000 0 0 1
4.117227 33.554643 -3.956676 34.037052 1.448704 1.687306 0.043422 0.000358 -1119720.000000 0 0 1
5.472227 33.510731 -4.240576 34.218370 1.408927 1.695043 0.048797 0.004830 -690947.000000 0 0 1
6.205527 -32.877953 -3.855376 33.679850 -1.384247 1.685519 0.057883 0.001314 -200354.000000 0 0 1
5.976127 -31.782203 -4.728476 32.683038 -1.384933 1.715983 0.062244 -0.005205 -200771.000000 0 0 1
6.303727 -30.544343 -4.160076 31.464267 -1.367274 1.703400 0.057320 -0.010666 559.824000 0 0 1
5.981627 -29.376333 -5.097476 30.409424 -1.369922 1.739220 0.060212 -0.012726 -389799.000000 0 0 1
6.917727 -29.209833 -6.134576 30.638249 -1.338252 1.772385 0.073869 -0.010377 -131888.000000 0 0 1
6.911727 -27.950463 -6.803476 29.585260 -1.328375 1.802835 0.084218 -0.017180 109247.000000 0 0 1
7.411927 -26.716863 -6.028076 28.373670 -1.300177 1.784881 0.088949 -0.019750 499828.000000 0 0 1
6.443127 -26.275993 -5.087576 27.528624 -1.330331 1.756675 0.074629 -0.020511 -90301.200000 0 0 1
7.020727 -25.202213 -4.379576 26.525890 -1.299109 1.736662 0.079760 -0.031086 136895.000000 0 0 1
6.128827 -24.648533 -3.244676 25.605480 -1.327090 1.697856 0.059756 -0.029608 2242.440000 0 0 1
5.034527 -23.940633 -3.781176 24.754750 -1.363524 1.724142 0.056358 -0.034870 -520210.000000 0 1 0
4.153327 -23.485033 -2.765176 24.009229 -1.395756 1.686224 0.070644 -0.041454 -171439.000000 0 1 0
2.952327 -22.807433 -3.405976 23.248568 -1.442066 1.717828 0.079633 -0.041695 -104034.000000 0 1 0
2.138827 -23.679533 -4.197976 24.143692 -1.480717 1.745559 0.079332 -0.038472 -373288.000000 0 1 0
0.909927 -23.064033 -4.482776 23.513249 -1.531365 1.762619 0.092023 -0.035532 176907.000000 0 1 0
-15.615573 22.804667 18.035885 33.002911 -0.970376 0.992625 0.011887 -0.017237 -134604.000000 0 0 1
-15.712873 22.270867 19.320985 33.409375 -0.956365 0.954140 0.033700 -0.021241 293440.000000 0 0 1
-15.402973 23.299667 20.201885 34.470890 -0.986671 0.944613 0.047716 -0.016360 -814021.000000 0 0 1
-15.321973 22.919167 21.715385 35.094288 -0.981510 0.903617 0.073710 -0.024593 532752.000000 0 0 1
-14.255873 22.024367 22.168485 34.347407 -0.996338 0.869224 0.058565 -0.022322 2345780.000000 0 0 1
-12.867973 22.429967 22.002985 33.953196 -1.049943 0.865790 0.049449 -0.029418 1046110.000000 0 0 1
-12.358873 23.519867 22.951235 35.109615 -1.086985 0.858330 0.071049 -0.024612 -677058.000000 0 0 1
-12.097473 23.029767 24.257095 35.568605 -1.087116 0.820329 0.058502 -0.018435 103965.000000 0 0 1
-12.045473 24.010367 25.282405 36.888903 -1.105807 0.815690 0.080826 -0.025416 -6810.860000 0 0 1
-11.512973 23.435767 26.631405 37.296320 -1.114168 0.775531 0.077785 -0.022495 199286.000000 0 0 1
-10.204273 22.919467 26.508585 36.498414 -1.151922 0.757881 0.052366 -0.018357 -304449.000000 0 0 1
-9.821573 22.206267 27.639515 36.790276 -1.154374 0.720809 0.044929 -0.016978 -998225.000000 0 0 1
-8.325873 21.897967 27.713425 36.288773 -1.207464 0.701784 0.037874 -0.018188 -262948.000000 0 0 1
-7.464373 22.968667 27.940365 36.931566 -1.256582 0.712784 0.023932 -0.013270 -162893.000000 0 0 1
-7.227373 23.828367 26.801685 36.583553 -1.276306 0.748639 0.028448 -0.016057 -593539.000000 0 0 1
-6.407673 25.109867 27.115735 37.507690 -1.320943 0.762751 0.032906 -0.022326 -385525.000000 0 0 1
-5.055473 24.919167 27.349215 37.343035 -1.370638 0.748989 0.037770 -0.019887 -991229.000000 0 0 1
-4.346173 26.083367 27.693565 38.290532 -1.405687 0.762302 0.059511 -0.010416 385450.000000 0 0 1
-2.829173 25.738967 27.809205 37.998033 -1.461318 0.749750 0.055181 -0.007700 -211605.000000 0 0 1
-2.217273 25.471467 26.597165 36.893375 -1.483966 0.765668 0.057903 -0.014171 -270069.000000 0 0 1
-0.990573 24.840567 26.917085 36.641022 -1.530940 0.745696 0.067923 -0.009097 53890.300000 0 0 1
-0.123473 24.560967 25.665435 35.524230 -1.565769 0.763418 0.062053 -0.014878 -189081.000000 0 0 1
-0.390273 23.440067 24.903155 34.201699 -1.554148 0.755212 0.062383 -0.008674 -367158.000000 0 0 1
0.346527 23.419267 23.693465 33.316099 1.556001 0.779633 0.066925 -0.001999 17596.400000 0 0 1
-0.035573 22.203467 22.748165 31.787957 -1.569194 0.773282 0.049952 -0.004162 372412.000000 0 0 1
0.683827 21.049767 23.184305 31.322074 1.538322 0.737443 0.068226 -0.004402 216363.000000 0 0 1
0.387727 19.969267 22.268585 29.913406 1.551383 0.731108 0.071143 -0.010214 70945.100000 0 0 1
1.301127 18.737067 22.439585 29.262700 1.501466 0.696905 0.080744 -0.005800 1507710.000000 0 0 1
2.625727 18.919367 21.835585 29.010854 1.432892 0.718689 0.076126 -0.011725 745235.000000 0 0 1
3.377327 17.801767 22.113885 28.589039 1.383306 0.686437 0.076986 -0.015603 -162834.000000 0 0 1
4.842527 17.882167 21.604585 28.460149 1.306337 0.708841 0.072256 -0.014177 316670.000000 0 0 1
5.768127 18.468567 22.510385 29.682936 1.268074 0.710001 0.056832 -0.006755 -1045380.000000 0 0 1
6.923727 18.687567 21.786285 29.526351 1.215977 0.740903 0.060384 -0.013473 -838356.000000 0 0 1
8.010827 19.388967 22.664425 30.883354 1.178993 0.746792 0.069748 -0.017874 -277241.000000 0 0 1
7.795327 20.640567 23.275955 32.071330 1.209687 0.758664 0.052249 -0.010548 -111512.000000 0 0 1
7.411827 21.668367 22.394685 32.030848 1.241215 0.796575 0.061866 -0.023397 -294960.000000 0 0 1
6.235927 22.464267 23.030775 32.771126 1.300021 0.791504 0.048537 -0.012450 11.307700 0 0 1
5.829227 23.519967 22.179685 32.849767 1.327850 0.829580 0.042360 -0.016582 454891.000000 0 0 1
4.709427 24.189167 22.756375 33.543213 1.378510 0.825187 0.021795 -0.012592 -95352.100000 0 0 1
4.539027 25.639267 22.144485 34.181179 1.395578 0.866030 0.045149 -0.016240 59425.400000 0 0 1
4.055127 25.796667 20.785685 33.375991 1.414876 0.898514 0.057382 -0.021305 667951.000000 0 0 1
2.700327 25.351367 20.601085 32.777863 1.464680 0.891165 0.058573 -0.023341 478577.000000 0 0 1
2.359527 25.442067 19.114785 31.909891 1.478320 0.928515 0.059539 -0.032900 -592628.000000 0 0 1
2.224727 26.796267 18.675085 32.737565 1.487963 0.963745 0.070494 -0.032309 66146.600000 0 0 1
1.591027 26.995667 17.429585 32.172781 1.511928 0.998279 0.072419 -0.033975 224492.000000 0 0 1
0.259727 27.758667 17.649785 32.895683 1.561440 1.004467 0.063626 -0.018203 256638.000000 0 0 1
0.661527 29.073467 18.098285 34.252767 1.548047 1.014112 0.082139 -0.026201 -116544.000000 0 0 1
-0.392873 29.952567 18.298185 35.101769 -1.557681 1.022435 0.067938 -0.029121 -854295.000000 0 0 1
0.134927 31.313667 18.751885 36.499276 1.566487 1.031234 0.076815 -0.026245 -41618.800000 0 0 1
0.489427 31.261467 20.089385 37.163184 1.555142 0.999679 0.096658 -0.027451 -27289.800000 0 0 1
0.887627 32.566467 20.540885 38.513512 1.543547 1.008249 0.120118 -0.029090 -52750.200000 0 0 1
1.434427 32.591167 21.987685 39.340819 1.526812 0.977735 0.118929 -0.037061 259265.000000 0 0 1
0.405327 32.419267 22.950845 39.722971 1.558294 0.954799 0.133291 -0.028459 418719.000000 0 0 1
0.957727 32.705067 24.210995 40.702714 1.541521 0.933748 0.147576 -0.035745 348332.000000 0 0 1
-0.060573 32.509467 25.390595 41.249866 -1.568933 0.907736 0.151931 -0.018333 101789.000000 0 0 1
-1.105073 33.474967 25.428945 42.052656 -1.537796 0.921416 0.156721 -0.018562 -259019.000000 0 0 1
-1.923573 33.229267 26.521095 42.558816 -1.512973 0.898015 0.157424 -0.019556 -660218.000000 0 0 1
-1.419573 33.360067 27.962925 43.552663 -1.528269 0.873629 0.171999 -0.034339 -346051.000000 0 0 1
-0.422573 32.412967 28.410185 43.103569 -1.557760 0.851156 0.166261 -0.038241 854263.000000 0 0 1
0.062627 32.832567 29.700195 44.272824 1.568889 0.835449 0.167438 -0.042943 74880.300000 0 0 1
1.181227 31.927267 30.345085 44.063249 1.533816 0.811142 0.137901 -0.036817 1599270.000000 0 0 1
2.538327 31.953367 29.858785 43.806481 1.491524 0.820840 0.130150 -0.036935 1041230.000000 0 0 1
2.719327 31.639967 28.503095 42.672107 1.485061 0.839337 0.124892 -0.036307 200623.000000 0 0 1
4.228627 31.526867 28.053455 42.412510 1.437464 0.848055 0.094625 -0.035060 785234.000000 0 0 1
4.898427 30.437267 28.561295 42.025818 1.411229 0.823561 0.096457 -0.035038 -658359.000000 0 0 1
6.259427 30.375867 28.274545 41.968126 1.367575 0.831572 0.079513 -0.043741 -552830.000000 0 0 1
7.023327 29.191667 28.876845 41.657565 1.334690 0.804883 0.085241 -0.034384 -53864.700000 0 0 1
7.113427 29.306367 30.274475 42.731813 1.332675 0.783460 0.102267 -0.039653 -127349.000000 0 0 1
7.777327 28.202867 30.806795 42.484670 1.301720 0.759577 0.081616 -0.035279 -237532.000000 0 0 1
7.757227 28.087067 32.327788 43.521762 1.301329 0.733560 0.107487 -0.041321 -362009.000000 0 0 1
6.485927 28.123267 32.928530 43.786682 1.344134 0.719673 0.126021 -0.046421 -375551.000000 0 0 1
6.474727 27.742867 -33.353546 43.863969 1.341517 2.434703 0.142438 -0.044792 55511.800000 0 0 1
6.429127 26.225767 -33.043216 42.672926 1.330392 2.456463 0.136711 -0.046894 1301810.000000 0 0 1
7.741627 25.719367 -33.450246 42.899156 1.278419 2.465049 0.110422 -0.042469 1382240.000000 0 0 1
7.999027 24.479867 -32.864976 41.753502 1.254974 2.476920 0.122313 -0.048452 -953132.000000 0 0 1
9.460827 24.135267 -33.017026 41.977879 1.197213 2.475972 0.094909 -0.041791 -1434170.000000 0 0 1
9.842927 24.083867 33.280811 42.243677 1.182818 0.663520 0.063992 -0.030604 206557.000000 0 0 1
11.161227 23.553467 33.214410 42.220088 1.128272 0.665356 0.081418 -0.046764 38529.500000 0 0 1
11.352627 22.027567 33.544349 41.705146 1.094918 0.636263 0.084691 -0.042947 -941974.000000 0 0 1
10.667327 21.131867 32.647156 40.325978 1.103318 0.627358 0.067940 -0.034538 232147.000000 0 0 1
10.281027 19.894467 33.155083 40.009360 1.093816 0.594045 0.056910 -0.024825 270984.000000 0 0 1
8.991427 19.888267 -33.652626 40.110948 1.146200 2.566218 0.100397 -0.035916 -119857.000000 0 0 1
9.095327 20.663267 -32.459536 39.538804 1.156148 2.533876 0.106992 -0.044290 432184.000000 0 0 1
7.872427 20.587267 -31.712646 38.619976 1.205560 2.534213 0.115118 -0.044034 520149.000000 0 0 1
7.931127 21.127167 -30.333526 37.807179 1.211675 2.501971 0.134252 -0.054477 -314703.000000 0 0 1
8.219627 22.462667 -30.319896 38.619034 1.220006 2.473658 0.155804 -0.056169 3507.230000 0 0 1
8.551927 22.993567 -29.053726 38.025762 1.214723 2.440370 0.122131 -0.049237 909110.000000 0 0 1
10.117727 23.160167 -28.872866 38.371918 1.158924 2.422567 0.110077 -0.039144 996797.000000 0 0 1
10.748327 21.975867 -28.517786 37.572987 1.115909 2.432568 0.104066 -0.033071 7299.150000 0 0 1
12.129627 22.030867 -28.871676 38.289171 1.067512 2.424992 0.104008 -0.032144 572073.000000 0 0 1
12.811527 20.623167 -28.700106 37.591838 1.014920 2.439460 0.107315 -0.039238 58194.800000 0 0 1
12.584527 19.698567 -29.798716 37.873042 1.002296 2.476412 0.098715 -0.037025 -308884.000000 0 0 1
11.249027 19.390267 -30.052986 37.492733 1.045109 2.500710 0.111613 -0.036642 -815684.000000 0 0 1
11.255827 18.211867 -31.060046 37.723894 1.017211 2.538089 0.096806 -0.032005 -640367.000000 0 0 1
11.774227 16.993267 -30.608886 36.936533 0.964868 2.547557 0.103412 -0.032156 152451.000000 0 0 1
11.834227 15.927467 -31.531316 37.255295 0.931785 2.579906 0.081029 -0.020538 85587.400000 0 0 1
13.029827 16.051067 -32.531766 38.545154 0.888918 2.575478 0.066725 -0.001974 -148524.000000 0 0 1
12.879827 17.225667 -33.335306 39.671856 0.928762 2.568588 0.060087 -0.007167 125589.000000 0 0 1
13.656927 17.266267 33.170395 39.810937 0.901592 0.585930 0.073443 -0.008114 60121.600000 0 0 1
12.753727 16.942467 31.944133 38.342305 0.925527 0.586053 0.079226 -0.016631 27614.600000 0 0 1
13.113727 17.634467 30.749485 37.795173 0.931377 0.620509 0.068707 -0.014518 149909.000000 0 0 1
12.310727 17.307667 29.611045 36.440682 0.952535 0.622228 0.061364 -0.014322 856179.000000 0 0 1
10.861027 17.899067 29.495785 36.170981 1.025397 0.617283 0.046927 -0.004377 243716.000000 0 0 1
9.982327 17.236967 30.331525 36.287206 1.045869 0.581074 0.060735 -0.004484 -52562.200000 0 0 1
8.675227 17.829067 30.276765 36.191404 1.117944 0.579798 0.070012 -0.010578 666040.000000 0 0 1
7.634827 17.048367 31.092165 36.272030 1.149746 0.541000 0.084511 -0.019705 -329851.000000 0 0 1
7.903927 17.002767 32.499724 37.520637 1.135653 0.523284 0.099560 -0.019330 21327.500000 0 0 1
7.346027 15.882067 33.146722 37.482120 1.137567 0.485730 0.126219 -0.019348 -168211.000000 0 0 1
7.522027 15.906067 -32.990966 37.389674 1.129060 2.651640 0.123060 -0.021410 -264656.000000 0 0 1
6.768527 16.938667 -32.443186 37.219507 1.190643 2.629399 0.128846 -0.028495 -198179.000000 0 0 1
6.496327 16.694667 -31.065186 35.860284 1.199699 2.618511 0.128601 -0.041810 160956.000000 0 0 1
5.621227 17.847467 -30.354956 35.658850 1.265672 2.589178 0.134640 -0.050295 -251207.000000 0 0 1
5.468227 17.852867 -28.952466 34.451004 1.273575 2.568809 0.117134 -0.058261 -188700.000000 0 0 1
4.729727 18.898767 -28.427186 34.462133 1.325567 2.540789 0.121961 -0.057435 -99280.600000 0 0 1
3.198627 18.772267 -28.608676 34.366925 1.402026 2.554307 0.140544 -0.071653 -1560700.000000 0 0 1
2.636427 17.841267 -27.673676 33.031710 1.424087 2.564021 0.142427 -0.068720 -409163.000000 0 0 1
1.274727 17.619667 -27.930156 33.048014 1.498575 2.577621 0.140672 -0.065321 139497.000000 0 0 1
0.360927 18.823167 -27.485636 33.315193 1.551624 2.541030 0.130595 -0.069228 -985252.000000 0 0 1
0.309627 19.140567 -26.059396 32.334955 1.554621 2.508025 0.133786 -0.067194 -233756.000000 0 0 1
-0.463373 20.272167 -25.811286 32.823741 -1.547943 2.475691 0.132687 -0.067880 -221219.000000 0 0 1
-0.978873 20.323067 -24.316676 31.706245 -1.522668 2.444850 0.119573 -0.070708 363824.000000 0 0 1
-2.030073 19.432167 -23.941076 30.901544 -1.466704 2.457121 0.115725 -0.068843 175205.000000 0 0 1
-2.503273 19.847067 -22.671876 30.235516 -1.445331 2.418620 0.125235 -0.067743 419978.000000 0 0 1
-3.582173 18.853967 -22.079676 29.254335 -1.383039 2.426068 0.100997 -0.058883 341735.000000 0 0 1
-4.899873 19.176767 -22.457676 29.935002 -1.320638 2.419183 0.102878 -0.047773 -768014.000000 0 0 1
-5.755873 18.217467 -21.915376 29.073869 -1.264768 2.424596 0.103794 -0.050551 -30835.800000 0 0 1
-7.265373 18.587967 -21.899176 29.628906 -1.198190 2.402552 0.126231 -0.040859 412930.000000 0 0 1
-7.641873 19.684767 -21.074376 29.833163 -1.200493 2.355206 0.100459 -0.037362 -117274.000000 0 0 1
-7.307073 20.919067 -21.634576 30.968622 -1.234743 2.344231 0.111490 -0.041685 -266313.000000 0 0 1
-7.778273 22.027567 -20.716976 31.223522 -1.231349 2.296291 0.121907 -0.049198 -152876.000000 0 0 1
-6.987973 22.054067 -19.585876 30.312047 -1.263948 2.273315 0.132475 -0.049676 -10350.800000 0 0 1
-7.528373 23.033467 -18.679476 30.596402 -1.254897 2.227503 0.130515 -0.048329 -141894.000000 0 0 1
-6.779373 23.142867 -17.391576 29.732459 -1.285833 2.195597 0.144218 -0.047249 -550457.000000 0 0 1
-5.524773 23.752967 -17.457176 29.991325 -1.342267 2.192074 0.134923 -0.047613 -535738.000000 0 0 1
-4.979273 23.919267 -16.127376 29.274848 -1.365558 2.154233 0.134871 -0.032775 -664674.000000 0 0 1
-3.470473 23.941567 -16.107576 29.063668 -1.426843 2.158218 0.120705 -0.035860 -447377.000000 0 0 1
-2.835373 25.240467 -16.127176 30.086647 -1.458931 2.136517 0.094651 -0.047863 649098.000000 0 0 1
-1.535373 25.234167 -16.732276 30.316491 -1.510026 2.155461 0.092011 -0.048457 658499.000000 0 0 1
-1.106473 26.652067 -17.112376 31.692118 -1.529305 2.141182 0.075778 -0.060315 -88757.100000 0 0 1
-1.922873 27.176667 -18.149076 32.736182 -1.500159 2.158443 0.076437 -0.059500 -42157.600000 0 0 1
-1.384873 28.375867 -18.618076 33.966755 -1.522030 2.150919 0.082624 -0.066878 -731450.000000 0 0 1
-2.276873 29.345067 -19.434576 35.270666 -1.493362 2.154373 0.115593 -0.059372 -66306.300000 0 0 1
-3.249973 30.115467 -18.760876 35.629681 -1.463295 2.125336 0.071998 -0.042272 -45071.100000 0 0 1
-4.462873 29.389767 -18.662976 35.099606 -1.420096 2.131420 0.044093 -0.045784 -200321.000000 0 0 1
-5.578173 30.097467 -17.844676 35.431709 -1.387539 2.098598 0.089721 -0.034088 166481.000000 0 0 1
-5.961273 31.317867 -18.389976 36.804032 -1.382699 2.094017 0.125556 -0.035641 -9866.860000 0 0 1
-5.593173 32.474267 -17.696376 37.403520 -1.400236 2.063626 0.119895 -0.053999 -185026.000000 0 0 1
-6.176873 33.784867 -18.304476 38.918181 -1.389964 2.060464 0.116830 -0.036888 -841476.000000 0 0 1
-7.550773 33.821167 -18.165776 39.126473 -1.351143 2.053622 0.136396 -0.056613 -935397.000000 0 0 1
-8.044373 -32.522070 -18.142376 38.099118 1.328312 2.067112 0.189082 -0.060027 -146912.000000 0 0 1
31.084027 -20.352333 -26.151066 45.434705 -0.579709 2.184103 0.072192 -0.015548 289789.000000 0 0 1
30.364127 -21.471233 -25.598626 45.147355 -0.615492 2.173658 0.092428 -0.030294 308779.000000 0 0 1
28.993827 -21.451633 -26.002466 44.462825 -0.636986 2.195447 0.099299 -0.021538 865295.000000 0 0 1
28.279327 -22.738133 -25.388496 44.286778 -0.677209 2.181293 0.088575 -0.023396 -42440.600000 0 0 1
28.629027 -24.015833 -25.948006 45.493740 -0.697993 2.177746 0.071491 -0.005901 -185286.000000 0 0 1
29.898627 -24.580533 -25.703306 46.462785 -0.688089 2.156999 0.073481 -0.005383 -19061.200000 0 0 1
30.025927 -25.985943 -26.267656 47.611083 -0.713396 2.155213 0.074616 -0.008845 -189040.000000 0 0 1
29.596127 -27.030683 -25.439236 47.473606 -0.740125 2.136323 0.082528 -0.017482 -323158.000000 0 0 1
29.497927 -28.318933 -26.099606 48.510608 -0.765009 2.138881 0.073351 -0.013150 -134907.000000 0 0 1
28.450727 -28.649523 -27.171766 48.667688 -0.788880 2.163146 0.084980 -0.007565 -843836.000000 0 0 1
28.424027 -27.828883 -28.363166 48.855309 -0.774819 2.190206 0.060865 -0.014209 4651.640000 0 0 1
29.488927 -27.869693 -29.307016 50.052151 -0.757176 2.196330 0.048612 -0.012120 -2283.750000 0 0 1
29.786527 -29.264933 -30.037246 51.438406 -0.776566 2.194377 0.066530 -0.019020 2924.810000 0 0 1
30.326027 -30.260913 -29.098126 51.788915 -0.784323 2.167429 0.080313 -0.024477 553547.000000 0 0 1
31.628527 -30.168723 -28.540916 52.202485 -0.761780 2.149256 0.071512 -0.018600 581002.000000 0 0 1
32.887427 -30.182313 -29.465596 53.486224 -0.742534 2.154239 0.067731 -0.024874 205582.000000 0 0 1
33.020327 -28.950873 -30.096426 53.238049 -0.719825 2.171615 0.071860 -0.031353 827189.000000 0 0 1
34.307527 -28.807373 -30.746846 54.334516 -0.698473 2.172297 0.064937 -0.029438 922240.000000 0 0 1
34.420327 -27.531583 -31.625876 54.248899 -0.674658 2.193185 0.059518 -0.014596 -222325.000000 0 0 1
34.384627 -26.278563 -30.942716 53.200725 -0.652561 2.191518 0.043997 -0.001822 -500048.000000 0 0 1
33.118827 -25.884453 -30.499486 51.933421 -0.663397 2.198491 0.049176 -0.003431 -448408.000000 0 0 1
33.092827 -24.553333 -29.655566 50.768631 -0.638331 2.194606 0.044394 -0.008623 -201803.000000 0 0 1
33.564927 -24.658433 -28.341596 50.377462 -0.633604 2.168305 0.045402 -0.016584 88663.300000 0 0 1
33.435827 -23.372233 -27.792216 49.362162 -0.610066 2.168840 0.034598 -0.012599 73909.100000 0 0 1
34.552827 -23.033633 -26.776546 49.410824 -0.587971 2.143512 0.037084 -0.017157 -138313.000000 0 0 1
34.405727 -23.703233 -25.536116 48.966218 -0.603260 2.119410 0.045630 -0.025452 643127.000000 0 0 1
33.419727 -23.164933 -24.610776 47.530859 -0.606115 2.115056 0.065255 -0.013545 402602.000000 0 0 1
33.891727 -22.063133 -23.684376 46.865559 -0.577070 2.100605 0.048152 -0.006114 -333441.000000 0 0 1
34.081927 -20.804733 -24.394276 46.792044 -0.548056 2.119210 0.038586 -0.011299 85725.600000 0 0 1
34.550727 -19.729533 -23.545776 46.232140 -0.518846 2.105161 0.025506 -0.018290 -216767.000000 0 0 1
34.624127 -18.488533 -24.382576 46.207857 -0.490459 2.126654 0.005943 -0.021096 116111.000000 0 0 1
33.439627 -18.196533 -25.117516 45.609342 -0.498349 2.154011 0.015716 -0.026017 481388.000000 0 0 1
33.657827 -17.002933 -25.903926 45.748906 -0.467775 2.172708 0.014300 -0.025328 -234414.000000 0 0 1
32.577727 -16.826233 -26.953676 45.507483 -0.476756 2.204696 0.037317 -0.014278 161044.000000 0 0 1
31.250927 -16.562233 -26.491446 44.189645 -0.487340 2.213666 0.054689 -0.017394 559127.000000 0 0 1
30.441427 -16.428733 -27.619756 44.265502 -0.494888 2.244592 0.069217 -0.022483 1269770.000000 0 0 1
28.967627 -15.822533 -27.455216 42.933260 -0.499932 2.264626 0.079306 -0.015066 1781150.000000 0 0 1
27.910527 -16.498833 -26.826906 42.081966 -0.533874 2.262035 0.084777 -0.005564 181733.000000 0 0 1
28.022127 -16.591933 -25.432546 41.320046 -0.534591 2.233818 0.093767 -0.005871 -745303.000000 0 0 1
26.996827 -17.481033 -24.768176 40.594060 -0.574631 2.227037 0.103868 -0.008739 -677086.000000 0 0 1
26.950927 -17.334833 -23.316176 39.629446 -0.571580 2.199819 0.107961 0.003939 274586.000000 0 0 1
26.045827 -18.162933 -22.585776 38.966582 -0.608942 2.189058 0.117013 -0.007596 103411.000000 0 0 1
26.108927 -17.772433 -21.053576 37.957720 -0.597657 2.158749 0.102698 -0.011044 465828.000000 0 0 1
25.308527 -16.573533 -20.736176 36.676866 -0.579784 2.171684 0.095909 -0.014284 753081.000000 0 0 1
25.775027 -15.315033 -21.259776 36.754324 -0.536130 2.187598 0.092807 -0.006919 -380452.000000 0 0 1
27.062827 -14.739333 -20.676576 37.110178 -0.498714 2.161767 0.076808 -0.015461 -464036.000000 0 0 1
26.943527 -14.236433 -19.344976 36.095121 -0.486093 2.136422 0.073891 -0.025959 362153.000000 0 0 1
28.115327 -13.487733 -19.080676 36.557663 -0.447300 2.119913 0.045300 -0.023310 -165314.000000 0 0 1
27.994927 -12.485033 -17.896276 35.494629 -0.419502 2.099248 0.055654 -0.020816 -325653.000000 0 0 1
28.190627 -13.076233 -16.652776 35.256407 -0.434312 2.062732 0.057021 -0.018812 278882.000000 0 0 1
28.217227 -12.020533 -15.778976 34.491755 -0.402717 2.045945 0.043992 -0.018662 27772.500000 0 0 1
28.565027 -12.408933 -14.289976 34.265811 -0.409814 2.000975 0.071377 -0.023725 496762.000000 0 0 1
27.680627 -13.426833 -13.783576 33.711777 -0.451626 1.992007 0.096011 -0.035952 1187500.000000 0 0 1
28.261527 -13.785533 -12.493276 33.835437 -0.453827 1.948984 0.110636 -0.033156 434152.000000 0 0 1
27.635627 -15.092433 -11.953876 33.680923 -0.499861 1.933620 0.113287 -0.045736 96310.100000 0 0 1
26.294927 -14.874233 -11.545876 32.341509 -0.514794 1.935849 0.102980 -0.047049 110594.000000 0 0 1
25.760727 -16.136733 -11.233376 32.406758 -0.559611 1.924780 0.088646 -0.040470 -840445.000000 0 0 1
24.300427 -16.068833 -10.813676 31.074969 -0.584248 1.926219 0.101360 -0.043409 -932408.000000 0 0 1
24.075327 -15.306733 -9.662576 30.121136 -0.566317 1.897360 0.095075 -0.045270 -219345.000000 0 0 1
22.716627 -15.414933 -9.365676 29.006571 -0.596202 1.899568 0.097558 -0.044025 -687731.000000 0 0 1
22.305527 -15.158833 -7.879976 28.096633 -0.596903 1.855069 0.088487 -0.036198 -330510.000000 0 0 1
22.504227 -13.810533 -7.467476 27.439647 -0.550422 1.846415 0.107583 -0.023370 237828.000000 0 0 1
22.232127 -13.469033 -6.117376 26.704018 -0.544700 1.801930 0.107918 -0.018677 -486055.000000 0 0 1
23.011327 -14.164833 -4.986776 27.477838 -0.551782 1.753291 0.090591 -0.011926 -1243870.000000 0 0 1
24.351127 -13.845233 -5.075876 28.468094 -0.516986 1.750055 0.112211 -0.015999 -641268.000000 0 0 1
25.139127 -14.739133 -4.278976 29.453818 -0.530287 1.716590 0.114856 -0.023199 145782.000000 0 0 1
26.649627 -14.425233 -4.344676 30.613170 -0.496133 1.713199 0.120855 -0.024880 -9379.560000 0 0 1
27.170927 -13.335933 -3.631376 30.484312 -0.456274 1.690203 0.120227 -0.024739 -224475.000000 0 0 1
28.498627 -13.074633 -3.981776 31.606523 -0.430132 1.697112 0.134331 -0.036545 -277689.000000 0 0 1
29.157527 -11.924433 -3.182276 31.661970 -0.388212 1.671474 0.175227 -0.038563 -935780.000000 0 0 1
29.606427 -12.311233 -1.903476 32.120557 -0.394078 1.630091 0.190388 -0.039058 35479.900000 0 0 1
30.353527 -11.353333 -1.258476 32.431752 -0.357926 1.609610 0.194756 -0.040122 314945.000000 0 0 1
31.825127 -11.028233 -1.682276 33.723741 -0.333577 1.620701 0.222050 -0.048332 -54457.800000 0 0 1
31.920027 -10.601933 -3.031176 33.770951 -0.320677 1.660674 0.211398 -0.051743 -1197420.000000 0 0 1
33.175027 -10.534133 -3.553276 34.988229 -0.307463 1.672528 0.224557 -0.050201 -1359530.000000 0 0 1
33.146527 -9.978633 -5.017476 34.977713 -0.292416 1.714741 0.200371 -0.056474 -444902.000000 0 0 1
32.331627 -10.736133 -5.862876 34.568366 -0.320607 1.741222 0.186825 -0.056508 71552.000000 0 0 1
32.204727 -10.309833 -7.212476 34.575380 -0.309825 1.780941 0.163596 -0.058293 -453560.000000 0 0 1
30.944227 -10.891533 -7.840176 33.728905 -0.338431 1.805389 0.163041 -0.047682 -442776.000000 0 0 1
30.895627 -12.290433 -7.742276 34.139967 -0.378613 1.799567 0.152288 -0.046041 -686509.000000 0 0 1
29.783027 -12.836733 -8.338076 33.486324 -0.406949 1.822443 0.143079 -0.041811 -586729.000000 0 0 1
29.826027 -14.410033 -8.246176 34.135617 -0.450066 1.814781 0.156314 -0.044122 63268.600000 0 0 1
30.317327 -14.962933 -9.438476 35.101489 -0.458469 1.843038 0.164461 -0.045204 225055.000000 0 0 1
30.552127 -16.289733 -9.246376 35.836899 -0.489837 1.831761 0.156639 -0.044135 -181173.000000 0 0 1
30.807127 -17.138533 -10.540276 36.795459 -0.507680 1.861322 0.126653 -0.042662 358504.000000 0 0 1
32.095027 -16.938633 -11.130776 37.959218 -0.485612 1.868400 0.132610 -0.037227 774442.000000 0 0 1
32.195627 -17.558433 -12.397376 38.711134 -0.499279 1.896793 0.118880 -0.024455 54233.300000 0 0 1
31.599927 -16.737333 -13.611876 38.261951 -0.487096 1.934518 0.104196 -0.028515 617758.000000 0 0 1
32.500827 -15.757633 -14.162176 38.796572 -0.451445 1.944469 0.095131 -0.030252 790005.000000 0 0 1
31.861027 -15.157333 -15.275476 38.447496 -0.444046 1.979377 0.079962 -0.032249 -826822.000000 0 0 1
32.539327 -13.858433 -15.739376 38.711651 -0.402631 1.989504 0.076713 -0.028661 365562.000000 0 0 1
33.636827 -14.185133 -16.584976 40.096328 -0.399084 1.997232 0.050588 -0.029527 623640.000000 0 0 1
34.872027 -14.435533 -15.939176 40.969503 -0.392480 1.970396 0.070359 -0.035380 -509573.000000 0 0 1
35.867527 -15.134933 -16.901876 42.440772 -0.399299 1.980400 0.079453 -0.039406 -134184.000000 0 0 1
37.191227 -15.274633 -16.443876 43.438495 -0.389701 1.959031 0.099940 -0.047395 -137716.000000 0 0 1
-37.283172 -16.034833 -17.364576 44.143848 0.406168 1.975083 0.103955 -0.052371 -115564.000000 0 0 1
-35.784072 -15.991733 -16.982276 42.715724 0.420269 1.979658 0.128105 -0.049240 55679.100000 0 0 1
-35.297072 -16.785033 -15.883976 42.189114 0.443886 1.956806 0.120243 -0.048073 208408.000000 0 0 1
-35.707972 -16.352633 -14.604076 41.901634 0.429449 1.926801 0.099607 -0.042016 -622258.000000 0 0 1
-35.100772 -17.183933 -13.502576 41.348172 0.455261 1.903456 0.089171 -0.027694 230826.000000 0 0 1
-33.676772 -17.080133 -13.487276 40.096914 0.469374 1.913853 0.135671 -0.035161 626416.000000 0 0 1
-33.130972 -17.875233 -12.428776 39.644164 0.494771 1.889682 0.139714 -0.014987 465154.000000 0 0 1
-31.581272 -17.814033 -12.318976 38.294565 0.513581 1.898310 0.186148 -0.022962 -17882.900000 0 0 1
-31.087072 -16.605433 -11.864576 37.187560 0.490600 1.895520 0.170070 -0.034302 -293238.000000 0 0 1
-29.711372 -16.827833 -11.637976 36.074701 0.515330 1.899280 0.192741 -0.030983 13527.000000 0 0 1
-29.426172 -16.661433 -10.073176 35.284158 0.515204 1.860311 0.193943 -0.038704 -186824.000000 0 0 1
-29.989372 -17.758633 -9.454276 36.112530 0.534638 1.835684 0.191907 -0.034749 -150584.000000 0 0 1
-30.314472 -17.528033 -8.082676 35.937847 0.524241 1.797644 0.187987 -0.042245 80066.800000 0 0 1
-30.972972 -18.789633 -7.441076 36.983036 0.545292 1.773382 0.172056 -0.041376 38947.700000 0 0 1
-32.281672 -19.134333 -7.812776 38.331039 0.535057 1.776058 0.150084 -0.033598 -265221.000000 0 0 1
-32.484472 -19.764933 -9.100776 39.098819 0.546604 1.805715 0.138417 -0.025661 769225.000000 0 0 1
-33.961672 -20.213433 -9.440776 40.633807 0.536871 1.805277 0.108824 -0.020906 1609190.000000 0 0 1
-34.916772 -19.136433 -9.635876 40.966256 0.501351 1.808236 0.107097 -0.017639 59369.700000 0 0 1
-36.196572 -19.629533 -9.371776 42.229617 0.496915 1.794584 0.096630 -0.020292 -286713.000000 0 0 1
-37.370772 -18.858133 -10.010476 43.039673 0.467339 1.805533 0.084206 -0.039504 -53654.000000 0 0 1
-37.433372 -18.914433 -11.402776 43.463047 0.467865 1.836259 0.083147 -0.042613 406877.000000 0 0 1
36.625727 -18.281733 -11.958776 42.645961 -0.462967 1.855028 0.087098 -0.038408 447561.000000 0 0 1
36.387027 -18.458533 -13.475276 42.968782 -0.469457 1.889785 0.086245 -0.038899 -234458.000000 0 0 1
35.446227 -19.468233 -13.730976 42.708158 -0.502254 1.898117 0.062612 -0.027793 217112.000000 0 0 1
34.963927 -19.493933 -15.064676 42.771884 -0.508617 1.930727 0.057963 -0.027026 -742078.000000 0 0 1
33.696327 -20.298033 -15.325176 42.217456 -0.542169 1.942288 0.070059 -0.032579 -188562.000000 0 0 1
32.567627 -19.631733 -14.746976 40.786377 -0.542475 1.940744 0.089800 -0.031377 1539730.000000 0 0 1
31.356427 -20.436933 -14.529976 40.149893 -0.577613 1.941094 0.106842 -0.030716 1515000.000000 0 0 1
30.430527 -20.271233 -15.791676 39.828594 -0.587643 1.978488 0.127980 -0.035050 -262762.000000 0 0 1
29.771527 -18.993133 -15.786376 38.681941 -0.567867 1.991176 0.085463 -0.028082 451733.000000 0 0 1
28.969627 -18.748133 -16.933076 38.437753 -0.574380 2.026988 0.087791 -0.028251 -80735.900000 0 0 1
28.098927 -17.508733 -16.833376 37.141190 -0.557239 2.041178 0.081725 -0.025278 -632595.000000 0 0 1
27.014327 -17.483833 -15.948976 35.914177 -0.574409 2.030950 0.086730 -0.029394 -109643.000000 0 0 1
26.526327 -16.184933 -16.092976 34.994027 -0.547846 2.048654 0.066502 -0.023537 -955555.000000 0 0 1
25.148227 -15.941633 -15.417676 33.530191 -0.564979 2.048583 0.057697 -0.025528 707605.000000 0 0 1
23.986427 -16.467233 -16.071676 33.238791 -0.601624 2.075470 0.062209 -0.020693 690644.000000 0 0 1
23.708827 -15.914333 -17.336976 33.405766 -0.591163 2.116455 0.069877 -0.011914 -1313400.000000 0 0 1
22.571427 -16.611133 -18.074876 33.348166 -0.634439 2.143618 0.070867 -0.005939 -1165670.000000 0 0 1
21.331727 -16.407933 -17.516576 32.110641 -0.655664 2.147790 0.069704 -0.007882 -1000840.000000 0 0 1
20.397127 -17.022133 -18.389276 32.310389 -0.695448 2.176261 0.067106 -0.007424 -202446.000000 0 0 1
18.932427 -17.159933 -17.964876 31.235186 -0.736328 2.183582 0.083194 -0.007176 -324888.000000 0 0 1
18.341327 -15.941733 -17.671676 30.047150 -0.715519 2.199543 0.087761 -0.015811 173917.000000 0 0 1
16.936127 -16.140533 -17.741676 29.361816 -0.761350 2.219612 0.084863 -0.013779 105237.000000 0 0 1
16.072527 -14.937833 -17.306576 27.946065 -0.748824 2.238628 0.102859 -0.029261 -235554.000000 0 0 1
15.460127 -14.426033 -18.464976 28.072785 -0.750811 2.288629 0.101894 -0.026811 455438.000000 0 0 1
14.099727 -14.090233 -18.169976 26.971930 -0.785061 2.309950 0.110472 -0.020946 208810.000000 0 0 1
13.372027 -13.852733 -19.452376 27.369769 -0.803053 2.361324 0.094452 -0.018577 -452804.000000 0 0 1
13.735927 -12.616433 -20.001776 27.348146 -0.742942 2.391134 0.129362 -0.029115 -57814.300000 0 0 1
13.169027 -12.364933 -21.246376 27.887691 -0.753917 2.436968 0.111328 -0.022278 -71586.800000 0 0 1
13.323227 -10.875933 -21.658176 27.656299 -0.684609 2.470462 0.127140 -0.022705 229704.000000 0 0 1
14.604627 -10.611633 -22.207576 28.619544 -0.628352 2.459029 0.130490 -0.028184 86486.000000 0 0 1
14.797627 -9.207933 -22.430176 28.405432 -0.556625 2.481025 0.138736 -0.037208 -1020140.000000 0 0 1
16.187527 -8.868233 -22.854176 29.376775 -0.501186 2.462221 0.129301 -0.030389 -1186270.000000 0 0 1
16.572027 -9.236033 -24.145876 30.707649 -0.508451 2.475618 0.141342 -0.024500 -508517.000000 0 0 1
17.962327 -9.170133 -24.245176 31.536726 -0.472028 2.447746 0.120804 -0.039563 -665267.000000 0 0 1
22.663427 5.331167 -7.173076 24.361964 0.231032 1.869663 0.199515 0.008172 -135185.000000 0 1 0
22.309927 6.665867 -7.364876 24.421466 0.290342 1.877139 0.174221 0.005678 541205.000000 0 1 0
22.198027 7.232267 -6.091176 24.128003 0.314961 1.826010 0.175084 -0.000050 -290094.000000 0 1 0
21.826527 8.730867 -6.056476 24.275630 0.380516 1.822948 0.145727 0.008671 -357126.000000 0 1 0
20.529427 9.005767 -6.528876 23.349249 0.413397 1.854193 0.093930 -0.015511 503908.000000 0 1 0
19.880327 10.265067 -6.318976 23.249268 0.476636 1.846051 0.059717 -0.009382 111560.000000 0 1 0
19.652927 10.740767 -4.802876 22.905659 0.500169 1.782045 0.099581 -0.011972 1462820.000000 0 1 0
20.903527 11.063667 -4.060576 23.996884 0.486791 1.740827 0.132396 -0.006926 2002550.000000 0 1 0
21.293327 12.397867 -4.290076 25.010350 0.527260 1.743181 0.180728 -0.022926 -413578.000000 0 0 1
22.263427 12.971867 -3.285376 25.975435 0.527567 1.697616 0.151628 -0.033359 -870357.000000 0 0 1
23.412627 12.207367 -3.120176 26.587712 0.480621 1.688421 0.144425 -0.055653 -195398.000000 0 0 1
23.998727 12.531167 -1.865876 27.137622 0.481218 1.639607 0.152581 -0.059695 -637272.000000 0 0 1
25.045927 11.556067 -1.391576 27.618429 0.432290 1.621203 0.137422 -0.056733 -1311070.000000 0 0 1
26.190527 11.601667 -2.176876 28.727707 0.416994 1.646645 0.104064 -0.039334 -432357.000000 0 0 1
26.930527 10.388767 -1.826676 28.922595 0.368172 1.633996 0.144734 -0.044074 628750.000000 0 0 1
28.417027 10.531667 -2.278676 30.391377 0.354917 1.645844 0.136310 -0.043443 351242.000000 0 0 1
29.235527 11.408867 -1.516576 31.419393 0.372064 1.619084 0.130195 -0.052145 -52129.400000 0 0 1
30.585027 11.145767 -1.813676 32.603089 0.349462 1.626454 0.132613 -0.046017 -36227.600000 0 0 1
31.546927 12.105267 -1.059576 33.806342 0.366396 1.602144 0.123090 -0.042794 -848944.000000 0 0 1
31.642627 11.930367 0.364224 33.818961 0.360553 1.560026 0.146379 -0.056474 538728.000000 0 0 1
32.586527 12.885667 0.865824 35.052415 0.376560 1.546093 0.143890 -0.046871 -273268.000000 0 0 1
34.072027 12.664267 0.614424 36.354700 0.355867 1.553895 0.163901 -0.051867 -1088400.000000 0 0 1
34.848627 13.834367 0.876724 37.504468 0.377904 1.547418 0.155842 -0.061888 166657.000000 0 0 1
35.525827 14.302367 -0.268076 38.297702 0.382738 1.577796 0.163554 -0.047363 -343995.000000 0 0 1
34.773427 15.430767 -1.045076 38.057745 0.417646 1.598260 0.112868 -0.026095 55998.500000 0 0 1
33.681727 14.966267 -1.799576 36.901035 0.418140 1.619583 0.129361 -0.024263 -280626.000000 0 0 1
33.184127 15.965067 -2.650376 36.920105 0.448418 1.642645 0.099710 -0.009504 -126527.000000 0 0 1
31.859727 15.596367 -3.347176 35.629938 0.455238 1.664878 0.110931 -0.023947 -421358.000000 0 0 1
31.934727 14.422467 -4.162876 35.286880 0.424203 1.689044 0.086752 -0.018762 -249600.000000 0 0 1
30.909427 14.369267 -5.088476 34.463910 0.435161 1.718985 0.071200 -0.021594 41797.100000 0 0 1
29.602827 13.651567 -4.639176 32.927414 0.432094 1.712158 0.090386 -0.038937 -336110.000000 0 0 1
28.503727 13.690367 -5.483476 32.092945 0.447765 1.742501 0.108036 -0.039967 115594.000000 0 0 1
27.429627 12.953367 -4.893976 30.726620 0.441194 1.730752 0.096107 -0.024235 40909.300000 0 0 1
26.312727 12.627267 -5.892776 29.774692 0.447432 1.770024 0.087888 -0.022153 -736227.000000 0 0 1
26.737727 11.930767 -7.015676 30.107623 0.419702 1.805978 0.080304 -0.009774 213304.000000 0 0 1
25.788527 11.596567 -8.036176 29.395724 0.422587 1.847701 0.091988 -0.009819 65135.300000 0 0 1
25.309527 12.744867 -8.990576 29.729350 0.466492 1.878021 0.097884 0.000930 119122.000000 0 0 1
24.422627 13.683667 -8.408476 29.230291 0.510706 1.862582 0.082866 -0.008133 38637.300000 0 0 1
24.197727 14.781167 -9.274876 29.833475 0.548359 1.886924 0.089483 -0.019819 -941528.000000 0 0 1
23.095927 15.774367 -8.813576 29.324591 0.599221 1.876068 0.081785 -0.008243 1128810.000000 0 0 1
21.718127 15.389367 -8.949976 28.082231 0.616471 1.895160 0.095104 -0.018227 901461.000000 0 0 1
21.395227 14.257267 -8.177576 26.979588 0.587801 1.878743 0.113864 -0.024134 -1138140.000000 0 0 1
19.869727 13.992367 -8.336576 25.692234 0.613543 1.901257 0.139199 -0.024476 701516.000000 0 0 1
19.077627 14.948367 -7.604976 25.401677 0.664633 1.874848 0.179566 -0.044134 -70651.300000 0 0 1
17.698527 14.914367 -7.789276 24.420258 0.700235 1.895437 0.189490 -0.039572 -116719.000000 0 1 0
16.853627 15.316467 -6.515076 23.687235 0.737652 1.849434 0.177277 -0.028314 240216.000000 0 1 0
16.817927 14.240767 -5.603876 22.738635 0.702611 1.819809 0.138230 -0.039630 204764.000000 0 1 0
16.187427 14.636767 -4.434676 22.269578 0.735134 1.771273 0.114390 -0.028382 -372910.000000 0 1 0
16.142127 13.551767 -3.386276 21.346792 0.698383 1.730101 0.100189 -0.026749 -295439.000000 0 1 0
17.411827 13.219367 -2.880776 22.050448 0.649374 1.701816 0.108749 -0.024895 170915.000000 0 1 0
17.379727 12.345167 -1.782276 21.392395 0.617619 1.654207 0.099115 -0.025287 -131045.000000 0 1 0
17.237327 12.992667 -0.413676 21.589487 0.645898 1.589958 0.100551 -0.027517 208292.000000 0 1 0
16.057927 13.805767 -0.262376 21.178410 0.710126 1.583185 0.080165 -0.033800 616419.000000 0 1 0
16.141427 14.817167 0.661124 21.921022 0.742649 1.540632 0.076106 -0.023544 -1131430.000000 0 1 0
14.921027 15.636467 0.994024 21.636179 0.808807 1.524837 0.074010 -0.019948 -1022930.000000 0 1 0
14.603927 16.664267 0.090724 22.158084 0.851196 1.566702 0.074460 -0.020409 862854.000000 0 1 0
13.527927 17.448567 0.677124 22.088816 0.911297 1.540137 0.054765 -0.030091 618850.000000 0 1 0
13.610027 18.945767 0.314524 23.329677 0.947849 1.557314 0.057229 -0.024101 -200762.000000 0 1 0
13.318927 19.097967 -1.080676 23.308668 0.961817 1.617177 0.073908 -0.025532 -32076.400000 0 1 0
12.998127 20.427167 -1.456076 24.255734 1.004101 1.630863 0.075572 -0.026446 253978.000000 0 1 0
11.459827 20.562967 -1.385576 23.581414 1.062363 1.629587 0.065362 -0.026783 -326958.000000 0 1 0
10.764327 20.494067 -0.198976 23.149884 1.087160 1.579392 0.051260 -0.029543 -715006.000000 0 1 0
9.393627 20.474667 -0.477476 22.531760 1.140655 1.591989 0.051607 -0.024551 88880.400000 0 1 0
8.477127 20.421567 0.807024 22.125853 1.177335 1.534314 0.037013 -0.026786 233230.000000 0 1 0
8.605527 21.470167 1.720024 23.194431 1.189589 1.496571 0.038485 -0.029626 632378.000000 0 1 0
7.554527 21.445367 2.704724 22.897384 1.232102 1.452396 0.033644 -0.031969 697512.000000 0 1 0
7.201127 22.905867 3.252124 24.230379 1.266200 1.436173 0.037455 -0.028212 3495.510000 0 1 0
7.896727 23.221267 4.406024 24.919843 1.243000 1.393054 0.042543 -0.027582 -23158.300000 0 1 0
7.504727 24.530767 4.847324 26.107011 1.273907 1.384041 0.035471 -0.024935 -223821.000000 0 0 1
7.934027 24.970267 6.249424 26.935447 1.263146 1.336648 0.045087 -0.024799 -668831.000000 0 0 1
7.249927 24.457667 7.329324 26.541626 1.282620 1.291016 0.044238 -0.023615 -319774.000000 0 0 1
7.858927 24.721367 8.612924 27.332969 1.262999 1.250223 0.053978 -0.024039 19269.800000 0 0 1
7.409527 23.794067 9.731224 26.753606 1.268912 1.198522 0.062307 -0.025140 -207264.000000 0 0 1
6.159727 24.027367 10.338824 26.872809 1.319838 1.175879 0.062973 -0.024097 -109138.000000 0 0 1
5.830727 22.879667 11.087324 26.084580 1.321265 1.131776 0.056325 -0.026963 -191526.000000 0 0 1
4.486527 23.020367 11.825924 26.266304 1.378315 1.103771 0.048672 -0.036533 118204.000000 0 0 1
3.394327 23.010967 10.920324 25.695905 1.424343 1.131853 0.034948 -0.031541 -1084270.000000 0 0 1
2.234627 23.412567 11.513224 26.185801 1.475639 1.115560 0.034351 -0.032736 -1154630.000000 0 0 1
1.127527 23.680367 10.485024 25.922323 1.523218 1.154388 0.061032 -0.033545 -508331.000000 0 0 1
1.272627 24.832567 9.659324 26.675429 1.519593 1.200270 0.065145 -0.038510 193885.000000 0 0 1
0.196827 24.963467 8.745924 26.451930 1.562912 1.233820 0.059886 -0.035709 747500.000000 0 0 1
-1.158673 25.550467 9.204324 27.182503 -1.525479 1.225355 0.085757 -0.044341 349159.000000 0 0 1
-2.022073 24.760667 10.007524 26.783016 -1.489312 1.187853 0.080586 -0.044360 138623.000000 0 0 1
-3.320773 25.323067 10.025424 27.437099 -1.440404 1.196737 0.094207 -0.046487 -208123.000000 0 0 1
-4.359573 24.404867 10.664124 26.987533 -1.394025 1.164565 0.111741 -0.053951 -266438.000000 0 0 1
-4.670373 24.502067 12.042724 27.698211 -1.382444 1.120999 0.088121 -0.037088 424752.000000 0 0 1
-5.720573 25.464367 12.250824 28.831261 -1.349815 1.131929 0.103643 -0.033358 91519.300000 0 0 1
-6.337773 25.341167 13.620624 29.459523 -1.325726 1.090152 0.072685 -0.026162 291634.000000 0 0 1
-7.451973 24.450767 13.797324 29.047170 -1.274965 1.075835 0.067155 -0.028570 386657.000000 0 0 1
-8.089673 24.732467 15.013024 30.042114 -1.254678 1.047506 0.057279 -0.005667 333614.000000 0 0 1
-9.301873 23.792867 15.296924 29.776186 -1.198114 1.031269 0.044710 -0.007915 874289.000000 0 0 1
-10.541273 24.222267 14.741124 30.251238 -1.160327 1.061813 0.042922 -0.005777 18933.300000 0 0 1
-11.600173 23.377067 15.097324 30.149303 -1.110177 1.046329 0.029071 -0.005313 1407890.000000 0 0 1
-13.055773 24.035767 14.960924 31.176924 -1.073203 1.070288 0.029179 -0.013125 1280780.000000 0 0 1
-13.296373 24.936767 16.009424 32.479802 -1.080940 1.055372 0.031403 -0.018379 165079.000000 0 0 1
-14.336573 25.845167 15.658124 33.446776 -1.064344 1.083600 0.026757 -0.015124 183431.000000 0 0 1
-15.007773 26.646367 16.820724 34.902706 -1.057860 1.067938 0.033394 -0.016523 652026.000000 0 0 1
-16.145273 25.942667 17.362724 35.144786 -1.014109 1.054073 0.040146 -0.025802 405233.000000 0 0 1
-16.629173 26.568967 18.496224 36.394364 -1.011559 1.037683 0.071272 -0.025780 -177468.000000 0 0 1
-18.004973 26.032967 18.953224 36.893348 -0.965715 1.031269 0.060676 -0.039035 302299.000000 0 0 1
-19.105173 26.523967 18.185424 37.406391 -0.946577 1.063108 0.056062 -0.025383 268974.000000 0 0 1
-20.296073 25.962867 18.721424 37.901092 -0.907292 1.054164 0.072419 -0.028536 -300344.000000 0 0 1
-21.521973 26.249367 17.868224 38.360110 -0.884036 1.086255 0.069241 -0.028096 -643452.000000 0 0 1
-21.984973 27.585967 18.028224 39.614915 -0.897910 1.098327 0.060003 -0.030117 188759.000000 0 0 1
-22.673073 27.929967 16.824824 39.714305 -0.888912 1.133329 0.071978 -0.031843 -74099.600000 0 0 1
-23.629673 29.146167 16.970224 41.180687 -0.889547 1.146048 0.062826 -0.034606 -320715.000000 0 0 1
-24.879573 28.791467 17.494724 41.880868 -0.858156 1.139855 0.056532 -0.029754 -322568.000000 0 0 1
-25.752463 29.880367 17.251424 43.053889 -0.859462 1.158522 0.054488 -0.035293 -601712.000000 0 0 1
-27.149823 29.723667 17.828824 44.028130 -0.830623 1.153881 0.056009 -0.025596 -796145.000000 0 0 1
-28.025343 28.958567 17.044224 43.755274 -0.801774 1.170669 0.090964 -0.022323 -700302.000000 0 0 1
-29.352093 28.879567 17.441324 44.718839 -0.777284 1.170141 0.124334 -0.025448 -299567.000000 0 0 1
-29.643763 27.727867 18.461024 44.591442 -0.752016 1.143948 0.109473 -0.022811 -494318.000000 0 0 1
-29.720633 26.492867 17.772924 43.601203 -0.728041 1.150945 0.123684 -0.021033 121786.000000 0 0 1
-30.003203 25.414267 18.666724 43.526127 -0.702780 1.127563 0.123367 -0.022021 -23367.500000 0 0 1
-29.977013 24.070667 17.879824 42.399368 -0.676550 1.135477 0.120242 -0.029227 201707.000000 0 0 1
-30.968833 24.128967 16.847324 42.721283 -0.661890 1.165431 0.132203 -0.034565 131800.000000 0 0 1
-30.925793 23.083867 15.875424 41.728871 -0.641211 1.180522 0.144038 -0.036163 -360405.000000 0 0 1
-31.362253 21.690567 16.275724 41.460473 -0.605075 1.167383 0.132271 -0.032685 945342.000000 0 0 1
-32.790043 21.466867 16.318424 42.453554 -0.579656 1.176257 0.144404 -0.034291 955307.000000 0 0 1
-33.107683 20.090867 16.481924 42.088186 -0.545429 1.168422 0.133961 -0.036931 -293339.000000 0 0 1
-34.539119 19.654267 16.199424 42.914593 -0.517346 1.183722 0.158312 -0.046015 -362416.000000 0 0 1
-34.849254 19.718167 14.818024 42.694853 -0.514903 1.216353 0.137111 -0.042148 -63896.000000 0 0 1
-36.097953 19.191267 14.423024 43.351939 -0.488641 1.231635 0.145286 -0.043942 86817.100000 0 0 1
-36.463913 19.410567 12.945524 43.289417 -0.489170 1.267104 0.135805 -0.027754 72089.300000 0 0 1
-36.618993 20.804967 12.672124 43.981588 -0.516669 1.278530 0.135735 -0.035526 -193173.000000 0 0 1
-36.887563 21.170467 11.322924 44.012380 -0.521021 1.310604 0.080598 -0.015939 -54138.100000 0 0 1
-35.809913 20.912467 10.228024 42.711751 -0.528561 1.328980 0.104830 -0.023372 43896.500000 0 0 1
-35.582871 19.545767 9.967724 41.803508 -0.502308 1.330035 0.125910 -0.019670 585211.000000 0 0 1
-34.363114 19.237767 9.270424 40.458078 -0.510365 1.339606 0.147152 -0.022921 949000.000000 0 0 1
-33.501283 18.192167 10.099824 39.437259 -0.497475 1.311812 0.122326 -0.026518 254129.000000 0 0 1
-32.922503 18.678667 11.288624 39.499580 -0.516068 1.280965 0.138545 -0.037258 -167497.000000 0 0 1
-32.489593 17.638767 12.116524 38.903855 -0.497380 1.254080 0.143662 -0.047266 -20270.600000 0 0 1
-31.714283 18.111767 13.352024 38.885838 -0.518892 1.220299 0.112264 -0.023665 661150.000000 0 0 1
-30.493753 18.860167 13.203524 38.208742 -0.553906 1.217958 0.127769 -0.024750 441791.000000 0 0 1
-30.639283 20.215467 12.732924 38.853032 -0.583226 1.236907 0.137772 -0.023614 284923.000000 0 0 1
-29.302273 21.009167 12.906624 38.296074 -0.622032 1.227044 0.154931 -0.039125 503183.000000 0 0 1
-28.892013 20.984567 14.279524 38.457838 -0.628167 1.190384 0.132182 -0.024962 62232.100000 0 0 1
-27.707133 21.754267 14.446024 38.073888 -0.665621 1.181626 0.136037 -0.024127 13261.800000 0 0 1
-27.140433 21.578367 15.868924 38.132031 -0.671724 1.141581 0.112029 -0.021963 -130273.000000 0 0 1
-26.510533 20.340567 16.208824 37.138565 -0.654459 1.119156 0.124637 -0.020957 96441.600000 0 0 1
-26.171993 20.292867 17.540924 37.476095 -0.659539 1.083706 0.112241 -0.008855 -444865.000000 0 0 1
-25.512113 19.014267 17.901324 36.508460 -0.640489 1.058324 0.112631 -0.010956 -182252.000000 0 0 1
-24.765673 19.168467 19.094624 36.679332 -0.658681 1.023263 0.111446 -0.016895 229701.000000 0 0 1
-23.825373 18.112467 19.267024 35.593933 -0.650008 0.998813 0.103198 -0.013498 46242.000000 0 0 1
-23.127773 18.269767 20.603024 35.960574 -0.668582 0.960716 0.095531 -0.021113 61187.900000 0 0 1
-23.946773 17.784467 21.677724 36.873553 -0.638791 0.942344 0.105224 -0.011151 463740.000000 0 0 1
-23.260073 17.605167 22.915824 37.095928 -0.647892 0.904924 0.137721 -0.021748 236110.000000 0 0 1
-24.190173 16.986467 24.011124 38.081999 -0.612204 0.888585 0.142689 -0.018788 308926.000000 0 0 1
-24.641773 15.656767 23.706624 37.607916 -0.566025 0.888776 0.131557 -0.036122 -153936.000000 0 0 1
-25.296333 15.071867 24.767924 38.477470 -0.537335 0.871474 0.128797 -0.034820 -340694.000000 0 0 1
21.344627 24.627867 33.062293 46.424564 0.856695 0.778208 0.129536 -0.037471 -4763.820000 0 0 1
22.200627 23.805867 32.289893 45.850020 0.820276 0.789430 0.148715 -0.050918 -35233.900000 0 0 1
22.300927 22.456267 32.743421 45.538411 0.788869 0.768393 0.156230 -0.053277 -570707.000000 0 0 1
21.198827 21.502667 32.355332 44.256327 0.792513 0.750879 0.148720 -0.049966 -760540.000000 0 0 1
21.346527 20.876667 31.094565 43.108948 0.774271 0.765116 0.174466 -0.052168 -500949.000000 0 0 1
20.408127 19.886267 30.892255 42.027214 0.772448 0.745051 0.156770 -0.053188 -577092.000000 0 0 1
20.710927 19.161767 29.583385 40.881444 0.746565 0.761737 0.155497 -0.046070 1095960.000000 0 0 1
22.040027 18.586167 29.519565 41.262733 0.700587 0.773593 0.154214 -0.048853 828968.000000 0 0 1
22.315127 17.999267 28.292655 40.279186 0.678749 0.792013 0.139092 -0.044648 142425.000000 0 0 1
23.514427 17.008567 28.405305 40.608878 0.626209 0.796120 0.138569 -0.040941 498421.000000 0 0 1
24.740227 17.636367 28.732305 41.817049 0.619306 0.813312 0.150425 -0.045616 -89790.500000 0 0 1
25.817327 16.730767 28.726775 42.091336 0.574999 0.819637 0.121756 -0.032993 5142.290000 0 0 1
27.189727 17.414867 28.898795 43.332427 0.569664 0.840743 0.096415 -0.033975 50828.100000 0 0 1
28.026727 17.343567 27.748515 43.084531 0.554145 0.871018 0.091494 -0.022114 956852.000000 0 0 1
29.208027 18.151867 27.864225 44.260752 0.556056 0.889826 0.086214 -0.017389 463709.000000 0 0 1
30.369827 17.925767 26.899125 44.353381 0.533219 0.919179 0.076442 -0.013834 -293907.000000 0 0 1
30.308427 18.619867 25.715765 43.893061 0.550901 0.944839 0.091090 -0.017760 -473118.000000 0 0 1
31.423227 18.365467 24.935615 44.119094 0.528911 0.970134 0.086591 -0.013964 -640380.000000 0 0 1
31.913827 19.548367 24.108555 44.518012 0.549586 0.998521 0.104337 -0.027263 222130.000000 0 0 1
30.902327 20.098667 23.218425 43.566105 0.576652 1.008717 0.099890 -0.030324 393339.000000 0 0 1
31.257427 20.968167 22.128285 43.661788 0.590874 1.039315 0.088422 -0.027799 -469940.000000 0 0 1
31.972827 20.301167 20.953885 43.283534 0.565723 1.065453 0.087610 -0.024453 -163595.000000 0 0 1
31.170627 19.289867 20.349285 41.926130 0.554163 1.064021 0.109984 -0.032920 109405.000000 0 0 1
31.591927 18.753267 19.120285 41.416424 0.535707 1.090931 0.113384 -0.037633 345239.000000 0 0 1
32.608927 17.536967 19.271685 41.740690 0.493426 1.090885 0.140141 -0.048142 773613.000000 0 0 1
31.989227 16.379967 19.898285 41.079870 0.473238 1.065141 0.137896 -0.047547 374004.000000 0 0 1
32.967927 15.438767 20.235985 41.650148 0.437965 1.063454 0.138799 -0.057282 -710789.000000 0 0 1
32.398527 14.108567 20.702885 40.955166 0.410705 1.040834 0.141112 -0.058557 -204730.000000 0 0 1
31.834727 14.015867 21.965285 41.138402 0.414733 1.007547 0.113630 -0.051788 658953.000000 0 0 1
30.546127 14.615367 22.152485 40.464891 0.446275 0.991483 0.106025 -0.042776 -72804.700000 0 0 1
29.815527 14.100567 23.351075 40.411191 0.441756 0.954721 0.083136 -0.029883 -286579.000000 0 0 1
29.388927 12.782367 23.181155 39.553304 0.410258 0.944592 0.083384 -0.026962 -36883.200000 0 0 1
28.636227 12.285167 24.265395 39.493901 0.405260 0.909160 0.072577 -0.024012 -8119.870000 0 0 1
28.031227 10.881067 24.031805 38.492531 0.370272 0.896531 0.076414 -0.016917 -561612.000000 0 0 1
27.033027 10.894967 23.056535 37.163001 0.383111 0.901523 0.062171 -0.010511 -355184.000000 0 0 1
26.735327 9.589467 22.592485 36.292643 0.344388 0.898852 0.063660 -0.003137 -97915.900000 0 0 1
25.574127 9.317567 21.617385 34.758659 0.349389 0.899594 0.061645 -0.015221 476845.000000 0 0 1
24.264227 9.295867 22.186785 34.167518 0.365862 0.864063 0.058638 -0.013925 309239.000000 0 0 1
23.368527 8.652467 21.338285 32.806640 0.354610 0.862651 0.059746 -0.002590 1057.340000 0 0 1
21.889327 8.624967 21.805485 32.078215 0.375346 0.823361 0.065431 -0.005038 225732.000000 0 0 1
21.654827 7.858367 23.009635 32.559619 0.348114 0.785984 0.072548 0.000064 965734.000000 0 0 1
20.263927 7.879767 23.392625 31.936380 0.370863 0.748845 0.088302 -0.005682 1023500.000000 0 0 1
19.909527 7.016867 24.650395 32.454085 0.338845 0.708180 0.096032 -0.013855 -117565.000000 0 0 1
20.042227 5.623167 24.343305 32.029789 0.273533 0.707451 0.078672 -0.021154 292253.000000 0 0 1
19.784927 4.800467 25.506975 32.635772 0.238033 0.673626 0.108654 -0.039289 78467.700000 0 0 1
20.221227 3.341767 25.208745 32.489171 0.163780 0.682636 0.109711 -0.036453 615481.000000 0 0 1
21.638927 3.176667 25.272235 33.421853 0.145762 0.713373 0.119779 -0.030577 466295.000000 0 0 1
22.049027 1.835767 25.074075 33.440079 0.083067 0.723005 0.106156 -0.034571 853018.000000 0 0 1
23.616527 1.821067 24.903755 34.369371 0.076958 0.760355 0.102934 -0.028870 555580.000000 0 0 1
24.264227 2.244867 26.070845 35.685867 0.092255 0.751647 0.110198 -0.037588 -814344.000000 0 0 1
25.582927 2.505267 25.677055 36.332818 0.097616 0.785948 0.105426 -0.030984 -491743.000000 0 0 1
26.425327 3.002067 26.853745 37.794628 0.113121 0.780563 0.070337 -0.027930 -872140.000000 0 0 1
26.786727 1.962467 27.751095 38.619986 0.073132 0.769055 0.067340 -0.031480 -165193.000000 0 0 1
27.486527 2.293767 28.927305 39.969482 0.083258 0.761597 0.064918 -0.011030 718499.000000 0 0 1
29.006427 2.599767 28.700175 40.888038 0.089388 0.792705 0.088472 -0.025165 -1709.620000 0 0 1
29.100327 3.791967 27.921965 40.507335 0.129577 0.810265 0.084116 -0.008704 792439.000000 0 0 1
30.470127 4.206067 27.719565 41.406448 0.137172 0.837328 0.074101 0.000360 926206.000000 0 0 1
31.286027 3.576367 26.594755 41.217555 0.113818 0.869474 0.081385 -0.008526 -394616.000000 0 0 1
30.679127 3.707567 25.324645 39.953630 0.120267 0.884274 0.067120 0.007986 101359.000000 0 0 1
31.063727 2.622867 24.499525 39.649228 0.084235 0.904719 0.084500 0.016300 180408.000000 0 0 1
30.466727 2.755067 22.998155 38.271752 0.090183 0.926148 0.092019 0.007003 326537.000000 0 0 1
31.071327 3.771067 22.219185 38.384118 0.120777 0.953461 0.093303 0.004110 -703628.000000 0 0 1
32.405527 3.510967 21.926785 39.283953 0.107924 0.978628 0.082827 0.004093 -655304.000000 0 0 1
33.128927 4.692867 21.219785 39.621056 0.140718 1.005616 0.089989 -0.003283 -709184.000000 0 0 1
32.668827 5.078167 19.932885 38.605180 0.154210 1.028240 0.088274 -0.001489 -301665.000000 0 0 1
33.160627 6.265367 19.351885 38.902152 0.186739 1.050139 0.113375 -0.002991 -702002.000000 0 0 1
34.674627 6.359467 19.167085 40.126671 0.181388 1.072802 0.102928 -0.007988 -614007.000000 0 0 1
35.488927 6.314967 20.353285 41.395639 0.176099 1.056782 0.092167 -0.011356 261355.000000 0 0 1
35.625427 7.507067 21.037285 42.048715 0.207684 1.046843 0.109462 -0.019718 -930458.000000 0 0 1
36.632127 7.345167 22.156085 43.436808 0.197887 1.035523 0.121044 -0.016499 -570740.000000 0 0 1
36.238827 6.380567 23.092065 43.442004 0.174284 1.010354 0.110717 -0.007621 117365.000000 0 0 1
37.092227 6.298867 24.215775 44.742740 0.168212 0.998906 0.123163 -0.009394 34378.400000 0 0 1
36.556027 5.351367 25.304545 44.780579 0.145356 0.970268 0.107327 -0.005535 152083.000000 0 0 1
36.275327 3.968467 24.947295 44.204249 0.108965 0.971133 0.108213 -0.008225 402092.000000 0 0 1
35.403527 3.383367 25.940195 44.019889 0.095276 0.940625 0.110346 0.001880 420398.000000 0 0 1
35.329327 1.875867 25.797855 43.785951 0.053047 0.940751 0.097726 0.006546 302454.000000 0 0 1
34.399027 1.398267 24.810495 42.435938 0.040626 0.946338 0.104919 -0.000103 339641.000000 0 0 1
34.664427 0.039267 24.513535 42.456300 0.001133 0.955277 0.109538 -0.008579 170501.000000 0 0 1
33.762627 -0.558333 23.354065 41.056535 -0.016536 0.965717 0.126606 0.006632 1224480.000000 0 0 1
32.389827 -0.664233 23.779405 40.187090 -0.020505 0.937609 0.125322 -0.005468 470144.000000 0 0 1
31.718627 -1.481433 22.834235 39.110973 -0.046672 0.947356 0.125386 0.000167 423442.000000 0 0 1
30.207027 -1.690633 23.111435 38.071789 -0.055910 0.918455 0.119720 -0.001393 127340.000000 0 0 1
29.383627 -0.563933 23.061715 37.357171 -0.019190 0.905452 0.108772 -0.004542 518341.000000 0 0 1
28.026527 -1.081133 23.006145 36.275857 -0.038556 0.883823 0.096154 -0.006419 1239360.000000 0 0 1
27.023527 0.117367 22.862705 35.397571 0.004343 0.868616 0.106264 -0.017499 86993.900000 0 0 1
27.098327 0.823467 21.623485 34.678128 0.030379 0.897523 0.096884 -0.015616 188223.000000 0 0 1
26.194627 1.919167 21.649885 34.037615 0.073135 0.881418 0.104562 -0.012660 22794.300000 0 0 1
26.350127 2.941967 20.478685 33.501655 0.111189 0.913127 0.092205 -0.008569 -423845.000000 0 0 1
25.936527 2.494467 19.208185 32.370977 0.095881 0.935549 0.096750 -0.014457 -352378.000000 0 0 1
24.707927 3.045667 18.879485 31.244083 0.122648 0.921962 0.095136 -0.012293 -962587.000000 0 0 1
24.397727 3.014467 17.360285 30.095109 0.122932 0.955932 0.107091 -0.019993 -207296.000000 0 0 1
25.280727 3.807167 16.587485 30.475471 0.149472 0.995254 0.099963 -0.007908 372750.000000 0 0 1
24.764927 4.294767 15.344985 29.448518 0.171714 1.022682 0.080073 0.001203 -422615.000000 0 0 1
24.407227 3.294867 14.205585 28.431805 0.134184 1.047617 0.102162 -0.002374 184884.000000 0 0 1
23.349527 2.399567 14.532885 27.607301 0.102408 1.016418 0.116487 -0.002059 300606.000000 0 0 1
23.218227 1.351067 13.572285 26.928022 0.058124 1.042548 0.117439 -0.004962 -41403.500000 0 0 1
21.858427 0.586967 13.526785 25.712045 0.026847 1.016803 0.169116 -0.024225 959475.000000 0 0 1
20.787027 1.247167 12.769785 24.427921 0.059926 1.020718 0.190850 -0.026890 1384570.000000 0 1 0
20.847827 1.291767 11.353585 23.774029 0.061883 1.072918 0.184852 -0.021829 -1203860.000000 0 1 0
20.603427 -0.032033 10.631085 23.184525 -0.001555 1.094442 0.186424 -0.019601 102980.000000 0 1 0
21.601527 -1.058833 10.699585 24.129406 -0.048977 1.111380 0.189204 -0.033278 134381.000000 0 1 0
22.840027 -0.739533 10.132685 24.997701 -0.032368 1.153440 0.205545 -0.022681 -365947.000000 0 1 0
23.957827 -1.757333 10.600285 26.257032 -0.073220 1.155226 0.217653 -0.031315 357629.000000 0 0 1
24.282627 -1.599833 11.957585 27.114374 -0.065789 1.114078 0.182070 -0.029629 -257770.000000 0 0 1
25.260227 -2.485033 12.402785 28.250372 -0.098062 1.116277 0.130176 -0.012316 -242516.000000 0 0 1
25.668327 -2.116133 13.826985 29.232286 -0.082255 1.078099 0.130183 -0.012787 -119771.000000 0 0 1
26.477327 -0.984733 13.951085 29.944137 -0.037174 1.086141 0.108543 -0.007115 -193422.000000 0 0 1
26.783827 -0.805533 15.321485 30.866975 -0.030066 1.051382 0.092104 -0.015063 -216974.000000 0 0 1
27.935227 0.180067 15.596485 31.994682 0.006446 1.061605 0.127853 -0.009555 915600.000000 0 0 1
29.161527 -0.408133 15.076885 32.830987 -0.013995 1.093671 0.145303 -0.004782 1500350.000000 0 0 1
30.277427 0.500867 15.166285 33.867236 0.016541 1.106475 0.139494 -0.009941 377168.000000 0 0 1
31.668027 -0.092933 15.346485 35.190726 -0.002935 1.119542 0.144663 -0.002900 -234665.000000 0 0 1
32.257727 -0.751233 14.247385 35.271990 -0.023284 1.154988 0.162616 -0.011649 -241628.000000 0 0 1
33.647127 -0.868133 14.395985 36.607748 -0.025795 1.166633 0.138536 -0.016402 -338582.000000 0 0 1
34.289727 -1.880433 13.455585 36.883251 -0.054785 1.197362 0.136152 -0.020371 -96210.000000 0 0 1
34.462827 -1.403833 12.088485 36.548443 -0.040712 1.233696 0.158682 -0.021416 -57285.100000 0 0 1
35.352827 -2.242133 11.419085 37.218880 -0.063337 1.258958 0.156307 -0.031923 -69767.300000 0 0 1
35.528027 -1.870333 9.931185 36.937343 -0.052595 1.298581 0.236138 -0.036542 51959.700000 0 0 1
36.024527 -0.576633 9.651785 37.299544 -0.016005 1.309054 0.182332 -0.034672 206772.000000 0 0 1
34.954627 0.335367 9.716585 36.281544 0.009594 1.299676 0.218831 -0.044835 -141978.000000 0 0 1
35.266827 1.728567 9.235685 36.497053 0.048975 1.314962 0.232028 -0.049557 -349004.000000 0 0 1
35.565827 1.789667 7.869885 36.470071 0.050277 1.353295 0.206437 -0.041931 466079.000000 0 0 1
35.962627 3.111967 7.475685 36.863000 0.086318 1.366583 0.209291 -0.038843 -4627.640000 0 0 1
36.174527 3.353767 5.988485 36.819914 0.092446 1.407428 0.185693 -0.041200 -26761.400000 0 0 1
36.531227 4.707367 5.650285 37.264132 0.128153 1.418581 0.163552 -0.029392 317092.000000 0 0 1
36.793627 4.832767 4.272785 37.354830 0.130600 1.456162 0.166491 -0.024222 -163779.000000 0 0 1
37.198927 6.212467 3.750685 37.900166 0.165479 1.471672 0.171741 -0.037488 129859.000000 0 0 1
36.092327 7.103967 3.668385 36.967275 0.194343 1.471399 0.186826 -0.042720 252412.000000 0 0 1
36.381027 8.353367 3.101285 37.456319 0.225696 1.487904 0.179454 -0.044362 -750811.000000 0 0 1
35.181727 9.334967 3.148085 36.534996 0.259359 1.484523 0.205237 -0.060966 476145.000000 0 0 1
34.162027 9.172067 2.177685 35.438866 0.262301 1.509309 0.207553 -0.062002 522328.000000 0 0 1
33.391727 7.969967 2.181985 34.398966 0.234297 1.507322 0.236526 -0.058012 130239.000000 0 0 1
32.104127 7.870767 1.294685 33.080208 0.240422 1.531649 0.239734 -0.062378 756045.000000 0 0 1
32.458627 7.766567 -0.067215 33.374939 0.234860 1.572810 0.237019 -0.054355 -93138.400000 0 0 1
31.334527 7.423167 -0.814715 32.212106 0.232612 1.596091 0.222329 -0.055858 -573482.000000 0 0 1
31.612427 7.282967 -2.285915 32.520956 0.226432 1.641145 0.177896 -0.041022 -811723.000000 0 0 1
30.605927 6.641667 -3.000615 31.461694 0.213693 1.666315 0.197337 -0.046191 143426.000000 0 0 1
30.936427 6.544667 -4.348815 31.918762 0.208478 1.707468 0.164309 -0.041100 -11256.000000 0 0 1
29.911327 5.731667 -5.208015 30.897620 0.189327 1.740162 0.190255 -0.030986 76448.800000 0 0 1
30.067627 4.333167 -5.013815 30.789233 0.143129 1.734368 0.190492 -0.030008 327887.000000 0 0 1
28.893327 3.680867 -5.425915 29.627920 0.126713 1.754971 0.186721 -0.028965 -305596.000000 0 0 1
28.733427 2.159067 -5.124815 29.266621 0.075000 1.746812 0.207001 -0.026184 -420086.000000 0 0 1
28.455627 1.924967 -3.773215 28.769174 0.067545 1.702330 0.239512 -0.048796 401428.000000 0 0 1
28.292827 0.507667 -3.658315 28.532877 0.017941 1.699364 0.207900 -0.051695 -129442.000000 0 0 1
28.573727 0.113867 -2.193715 28.658039 0.003985 1.647419 0.220316 -0.047978 -548036.000000 0 0 1
29.905627 0.199067 -1.804515 29.960681 0.006656 1.631062 0.195202 -0.047435 -614069.000000 0 0 1
29.935327 0.089667 -0.442115 29.938726 0.002995 1.585564 0.213102 -0.040807 -577014.000000 0 0 1
31.240427 0.643367 0.114185 31.247260 0.020591 1.567142 0.230701 -0.045742 -808731.000000 0 0 1
32.287527 -0.199033 -0.273915 32.289302 -0.006164 1.579280 0.188392 -0.044100 514979.000000 0 0 1
33.578727 0.342567 0.076285 33.580561 0.010202 1.568525 0.143544 -0.045463 704503.000000 0 0 1
-2.760273 -21.613833 -8.215076 23.286570 1.443775 1.931339 0.053105 0.012791 441727.000000 0 1 0
-3.550073 -21.901433 -7.061776 23.283996 1.410101 1.878938 0.064702 -0.006577 85861.500000 0 1 0
-3.165373 -23.127133 -6.465376 24.221580 1.434773 1.840998 0.060152 -0.011486 -288517.000000 0 1 0
-3.762473 -23.436833 -5.089376 24.276390 1.411618 1.782006 0.074531 -0.019403 -706753.000000 0 1 0
-3.308173 -22.540833 -4.098376 23.147999 1.425073 1.748786 0.090260 -0.030518 88036.400000 0 1 0
-3.838573 -22.902633 -2.821576 23.392874 1.404736 1.691708 0.095990 -0.044937 -22178.800000 0 1 0
-2.994473 -22.292533 -1.688176 22.556015 1.437269 1.645710 0.096601 -0.051535 741748.000000 0 1 0
-1.612373 -22.647833 -1.656076 22.765471 1.499723 1.643606 0.097147 -0.040916 291678.000000 0 1 0
-1.040073 -22.468733 -0.357776 22.495638 1.524540 1.586701 0.082251 -0.041031 1984810.000000 0 1 0
0.548027 -22.422233 -0.172776 22.429595 -1.546360 1.578499 0.083935 -0.041646 1460430.000000 0 1 0
1.161327 -21.382033 -0.793276 21.428236 -1.516536 1.607825 0.063503 -0.035176 -182835.000000 0 1 0
2.260227 -20.916633 0.002624 21.038397 -1.463155 1.570672 0.038794 -0.032412 772570.000000 0 1 0
3.176027 -19.878133 -0.724876 20.143306 -1.412361 1.606790 0.046226 -0.028694 911179.000000 0 1 0
3.970827 -20.401833 -1.798776 20.862355 -1.378569 1.657125 0.044741 -0.023950 300311.000000 0 1 0
4.799527 -19.459633 -2.455076 20.192577 -1.328982 1.692681 0.048088 -0.015350 162948.000000 0 1 0
5.647827 -19.931733 -3.695576 21.043508 -1.294676 1.747328 0.047221 -0.012402 -132582.000000 0 1 0
6.601927 -20.929633 -3.309576 22.194330 -1.265240 1.720473 0.048198 -0.021276 432957.000000 0 1 0
7.489727 -21.375633 -4.343376 23.062494 -1.233777 1.760258 0.049821 -0.020880 912954.000000 0 1 0
8.677827 -20.413633 -4.647976 22.663291 -1.168841 1.777350 0.066929 -0.021980 57920.900000 0 1 0
8.346527 -19.395633 -5.680076 21.865918 -1.164420 1.833579 0.053626 -0.021805 -83724.700000 0 1 0
9.538427 -18.897633 -6.239076 22.068715 -1.103362 1.857416 0.069590 -0.020665 -257416.000000 0 1 0
9.307427 -17.797633 -7.293676 21.367771 -1.088951 1.919139 0.054211 -0.014713 -384060.000000 0 1 0
10.458127 -17.038333 -7.546376 21.368786 -1.020292 1.931732 0.067459 -0.029940 -229339.000000 0 1 0
10.409427 -16.180733 -8.587276 21.069257 -0.999130 1.990592 0.067127 -0.013352 -387346.000000 0 1 0
10.768427 -16.680133 -10.014576 22.236852 -0.997532 2.037964 0.062419 -0.004383 31090.700000 0 1 0
9.759727 -17.353033 -10.775576 22.638310 -1.058466 2.066884 0.060708 -0.007193 -3300.630000 0 1 0
8.855927 -16.451233 -11.346376 21.858883 -1.076969 2.116563 0.040194 -0.024081 -288358.000000 0 1 0
8.254827 -16.887133 -12.700376 22.685171 -1.116130 2.165006 0.056948 -0.029630 -366085.000000 0 1 0
7.109827 -17.698333 -12.603076 22.860843 -1.188806 2.154712 0.047678 -0.021634 143781.000000 0 1 0
6.870227 -18.175733 -13.929976 23.908189 -1.209408 2.192775 0.069018 -0.016044 129929.000000 0 1 0
5.735427 -19.245633 -13.892576 24.419115 -1.281165 2.175991 0.077238 -0.006479 177593.000000 0 1 0
6.034827 -20.461733 -13.278976 25.128328 -1.283995 2.127566 0.089000 -0.015786 347772.000000 0 0 1
4.839627 -21.201033 -12.984676 25.328000 -1.346369 2.109077 0.105591 -0.017141 702349.000000 0 0 1
5.093127 -22.677033 -12.673976 26.472957 -1.349868 2.070029 0.090769 -0.025564 -223216.000000 0 0 1
5.586327 -23.457033 -13.731676 27.748844 -1.337000 2.088465 0.111278 -0.026077 -55571.000000 0 0 1
5.142427 -24.831933 -13.707476 28.826452 -1.366594 2.066348 0.092461 -0.021343 456109.000000 0 0 1
3.706027 -25.121153 -14.234276 29.110506 -1.424327 2.081709 0.104296 -0.020903 -169751.000000 0 0 1
2.772827 -24.499933 -13.421676 28.072703 -1.458099 2.069291 0.099500 -0.020131 1001660.000000 0 0 1
1.337427 -24.662533 -13.661476 28.225258 -1.516620 2.076035 0.077698 -0.023552 2031280.000000 0 0 1
0.700127 -25.981493 -13.196176 29.149052 -1.543856 2.040603 0.064562 -0.014717 -861179.000000 0 0 1
1.216927 -27.085423 -13.895576 30.466179 -1.525897 2.044402 0.078304 -0.017398 -24705.600000 0 0 1
0.931727 -28.382643 -13.307176 31.361178 -1.537981 2.009007 0.058890 -0.017077 -180122.000000 0 0 1
-0.507473 -28.920663 -13.408376 31.881763 1.553251 2.004865 0.052247 -0.017341 866219.000000 0 0 1
-1.554173 -28.130633 -12.780576 30.936889 1.515604 1.996671 0.039476 -0.019391 1021020.000000 0 0 1
-2.835873 -28.538673 -13.265076 31.598422 1.471752 2.004023 0.038957 -0.017881 1151760.000000 0 0 1
-4.096873 -27.842373 -12.620376 30.842438 1.424699 1.992361 0.042920 -0.006706 845500.000000 0 0 1
-4.395473 -28.079573 -11.257576 30.569848 1.415520 1.947930 0.040807 -0.019825 -249810.000000 0 0 1
-5.041273 -29.275583 -11.018776 31.684186 1.400268 1.925987 0.037711 -0.016478 -791295.000000 0 0 1
-5.641073 -29.519133 -9.571176 31.540582 1.381974 1.879114 0.045146 -0.021353 384752.000000 0 0 1
-6.973873 -29.094263 -9.298176 31.329972 1.335536 1.872118 0.043188 -0.014866 241391.000000 0 0 1
-7.206973 -27.691453 -9.268176 30.077502 1.316185 1.884037 0.045438 -0.013277 -398899.000000 0 0 1
-8.663073 -27.288273 -8.855976 29.968767 1.263395 1.870782 0.049576 -0.015445 1539840.000000 0 0 1
-9.699373 -27.405183 -9.870476 30.700948 1.230629 1.898114 0.070264 -0.019987 687595.000000 0 0 1
-9.933673 -28.755763 -10.306076 32.121441 1.238181 1.897420 0.069551 -0.023449 -714913.000000 0 0 1
-11.126373 -28.773473 -11.299676 32.854096 1.201818 1.921901 0.087866 -0.024943 -22864.100000 0 0 1
-10.838373 -28.181353 -12.557376 32.700867 1.203641 1.964929 0.112231 -0.032169 470448.000000 0 0 1
-11.870573 -28.366033 -13.535376 33.596856 1.174462 1.985454 0.119891 -0.044388 -64316.800000 0 0 1
-11.800773 -27.385803 -14.756876 33.271697 1.163932 2.030326 0.134386 -0.036821 -130574.000000 0 0 1
-12.753973 -26.350303 -14.921976 32.858297 1.120017 2.042193 0.110855 -0.040800 -56448.000000 0 0 1
-13.014773 -25.574583 -13.798376 31.840835 1.100058 2.019008 0.128911 -0.040849 -488460.000000 0 0 1
-14.123273 -24.545433 -13.939276 31.563405 1.048667 2.028208 0.157533 -0.030509 -555454.000000 0 0 1
-13.742773 -23.468433 -14.737676 30.932673 1.041043 2.067402 0.165745 -0.035471 -78390.700000 0 0 1
-14.858273 -22.725933 -15.161876 31.098534 0.991753 2.080070 0.179907 -0.038331 -172804.000000 0 0 1
-14.574273 -21.807333 -16.416476 30.943010 0.981650 2.130033 0.160292 -0.024021 225576.000000 0 0 1
-13.875773 -20.559033 -16.265076 29.660809 0.977099 2.151209 0.142724 -0.022067 485564.000000 0 0 1
-13.923573 -19.881133 -17.488076 29.915851 0.959842 2.195153 0.119639 -0.016370 -17944.100000 0 0 1
-13.993873 -18.369733 -17.295776 28.851680 0.919792 2.213638 0.100719 -0.017426 -9531.210000 0 0 1
-12.706273 -17.794533 -17.338876 27.905759 0.950700 2.241244 0.089812 0.001235 -99342.100000 0 0 1
-12.566973 -16.429833 -17.652276 27.193217 0.917835 2.277253 0.077491 -0.003166 -105159.000000 0 0 1
-11.063973 -16.099733 -17.723476 26.376780 0.968703 2.307614 0.077361 -0.003627 82154.000000 0 0 1
-10.520773 -15.871533 -16.415476 25.140805 0.985426 2.282258 0.102529 -0.011624 -99226.000000 0 0 1
-9.233673 -15.302733 -16.512476 24.333027 1.027880 2.316656 0.100005 -0.011488 -543197.000000 0 1 0
-8.591873 -14.907033 -15.197176 22.956351 1.047938 2.294285 0.084485 -0.018327 -201943.000000 0 1 0
-8.088473 -15.928633 -14.326176 22.899434 1.100933 2.246713 0.079883 -0.003868 909125.000000 0 1 0
-6.777673 -16.438933 -14.628476 23.025370 1.179737 2.259219 0.069214 -0.000255 503449.000000 0 1 0
-6.257873 -17.410833 -13.582076 22.951489 1.225751 2.204053 0.053951 0.006841 -926069.000000 0 1 0
-5.951973 -16.774333 -12.353676 21.666046 1.229828 2.177529 0.054756 -0.000949 395770.000000 0 1 0
-5.408473 -17.578833 -11.277676 21.574358 1.272318 2.120853 0.041433 -0.005626 -280708.000000 0 1 0
-4.333873 -18.592433 -11.674476 22.377542 1.341787 2.119645 0.049650 -0.004381 -1349420.000000 0 1 0
-3.132673 -18.025633 -12.093376 21.931412 1.398725 2.154859 0.053969 0.005947 -984409.000000 0 1 0
-2.082173 -18.917633 -11.827176 22.407462 1.461172 2.126832 0.035014 0.005534 -510804.000000 0 1 0
-0.689273 -18.409933 -12.126976 22.055935 1.533374 2.152955 0.030186 0.002090 -946576.000000 0 1 0
-0.514173 -18.177733 -13.522376 22.661620 1.542518 2.210189 0.040399 0.003723 -936109.000000 0 1 0
0.704927 -17.579833 -13.798476 22.359459 -1.530719 2.235874 0.051370 -0.004974 -503887.000000 0 1 0
1.818027 -18.587033 -14.183276 23.450977 -1.473295 2.220318 0.059725 -0.010854 -349760.000000 0 1 0
1.600327 -19.406633 -15.354476 24.797951 -1.488520 2.238498 0.074297 -0.013149 -73559.000000 0 1 0
0.788227 -20.530733 -15.091176 25.492663 -1.532423 2.204311 0.078102 -0.013300 -660158.000000 0 0 1
0.903927 -21.626133 -16.206276 27.039787 -1.529023 2.213484 0.089046 -0.009841 165811.000000 0 0 1
2.119627 -22.317233 -16.350776 27.747064 -1.476103 2.200963 0.111465 -0.013636 203532.000000 0 0 1
3.244627 -21.556433 -16.770676 27.503872 -1.421400 2.226550 0.113994 -0.017383 -231442.000000 0 0 1
4.593827 -22.277133 -16.856376 28.310975 -1.367434 2.208561 0.126687 -0.024158 -82297.400000 0 0 1
4.870127 -23.111033 -17.983076 29.685501 -1.363108 2.221550 0.108626 -0.017372 -754897.000000 0 0 1
6.218527 -23.420633 -17.890476 30.120844 -1.311270 2.206764 0.121735 -0.019966 -492822.000000 0 0 1
6.934827 -23.384333 -19.283676 31.093070 -1.282500 2.239784 0.109885 -0.011069 -15683.500000 0 0 1
7.071227 -22.099733 -19.844076 30.531751 -1.261122 2.278313 0.118028 -0.022366 -56918.700000 0 0 1
7.440627 -22.145233 -21.225676 31.564277 -1.246655 2.308322 0.091073 -0.005829 62212.400000 0 0 1
7.740327 -20.687533 -21.713676 30.973705 -1.212767 2.347645 0.071354 -0.001273 128436.000000 0 0 1
6.561627 -19.911333 -21.750276 30.209115 -1.252462 2.374585 0.098882 -0.011179 -18875.400000 0 0 1
6.765127 -18.537833 -21.974476 29.534654 -1.220878 2.409868 0.090306 -0.001970 -276333.000000 0 0 1
5.502127 -17.822633 -22.445476 29.184226 -1.271363 2.448222 0.090383 -0.009797 -1293620.000000 0 0 1
5.093827 -18.024233 -23.784376 30.274025 -1.295369 2.474520 0.082408 -0.009935 -103258.000000 0 0 1
4.213727 -17.094433 -24.387376 30.078551 -1.329117 2.516296 0.088423 -0.015547 1228010.000000 0 0 1
2.760927 -17.052033 -23.773376 29.386527 -1.410277 2.513226 0.099250 -0.008098 195704.000000 0 0 1
2.880627 -16.520033 -22.487076 28.051347 -1.398160 2.500830 0.104727 -0.005452 363890.000000 0 0 1
1.582727 -16.176533 -21.945276 27.308980 -1.473266 2.504102 0.106935 -0.010868 1092260.000000 0 0 1
1.677527 -15.485433 -20.578376 25.808570 -1.462888 2.493682 0.104490 -0.017916 159477.000000 0 0 1
2.411927 -14.267433 -20.625876 25.195313 -1.403328 2.529834 0.083928 -0.014604 -40019.600000 0 0 1
2.467527 -13.740933 -19.337376 23.850284 -1.393115 2.516283 0.078114 -0.016391 -683741.000000 0 1 0
3.414727 -12.567833 -19.230776 23.225708 -1.305497 2.546319 0.062307 -0.016715 -598454.000000 0 1 0
4.736027 -13.151733 -19.258776 23.797027 -1.225146 2.513744 0.065681 -0.011605 395628.000000 0 1 0
5.773027 -12.217633 -19.468276 23.698358 -1.129377 2.534839 0.067915 -0.009534 50086.500000 0 1 0
5.935427 -11.073733 -18.412976 22.291131 -1.078772 2.542810 0.070904 -0.011627 -1685560.000000 0 1 0
4.967827 -10.074433 -18.200176 21.387377 -1.112674 2.588640 0.037883 -0.004618 -477742.000000 0 1 0
5.147827 -8.967233 -19.007776 21.638090 -1.049661 2.643385 0.053184 -0.012965 41926.900000 0 1 0
4.493127 -9.021433 -20.456776 22.804695 -1.108710 2.683827 0.068869 -0.024026 194546.000000 0 1 0
3.093927 -8.827533 -20.433476 22.472754 -1.233689 2.712288 0.054722 -0.029495 -342531.000000 0 1 0
2.626827 -9.137033 -21.739076 23.727052 -1.290854 2.729326 0.065840 -0.030733 511966.000000 0 1 0
1.089527 -8.951833 -21.879176 23.664757 -1.449682 2.750641 0.039470 -0.025522 438261.000000 0 1 0
0.656127 -7.596633 -21.596876 22.903371 -1.484639 2.802198 0.031408 -0.025302 -591942.000000 0 1 0
-0.738073 -7.485233 -21.667976 22.936317 1.472510 2.807480 0.039187 -0.022926 -140175.000000 0 1 0
-1.084973 -6.418533 -22.779776 23.691621 1.403342 2.863249 0.044884 -0.024083 -34129.900000 0 1 0
-0.701073 -6.824833 -24.090376 25.048275 1.468432 2.864146 0.055577 -0.025684 -203852.000000 0 0 1
-1.401973 -6.127733 -25.142506 25.916409 1.345876 2.896597 0.065180 -0.031845 73038.900000 0 0 1
-0.964273 -4.717133 -25.590376 26.039365 1.369155 2.955622 0.065439 -0.026810 -43856.900000 0 0 1
-1.780273 -4.249333 -26.644256 27.039648 1.174058 2.970371 0.072710 -0.028548 -105888.000000 0 0 1
-1.565973 -2.909833 -27.009506 27.210895 1.077084 3.019854 0.056567 -0.030795 -680866.000000 0 0 1
-1.945173 -1.774633 -26.060986 26.193663 0.739584 3.040900 0.055112 -0.033843 763647.000000 0 0 1
-3.359073 -1.560533 -25.967246 26.230069 0.434906 2.999912 0.046394 -0.035096 590298.000000 0 0 1
-4.027173 -0.934633 -27.017686 27.332161 0.228045 2.989752 0.065528 -0.027377 -426675.000000 0 0 1
-5.543173 -0.752233 -26.755066 27.333609 0.134880 2.935481 0.057777 -0.031987 171852.000000 0 0 1
-5.876173 0.182267 -25.721226 26.384543 -0.031008 2.916887 0.070759 -0.032109 525311.000000 0 0 1
-7.293273 0.081967 -25.554706 26.575205 -0.011238 2.863568 0.089862 -0.044338 131933.000000 0 0 1
-7.966773 1.421367 -25.126076 26.397148 -0.176554 2.830005 0.090203 -0.046151 -483820.000000 0 0 1
-8.315073 2.350867 -26.159226 27.549449 -0.275532 2.822553 0.112869 -0.043411 675045.000000 0 0 1
-9.107273 1.805067 -27.272826 28.809855 -0.195665 2.813471 0.114088 -0.043814 -310541.000000 0 0 1
-10.560673 1.399567 -27.104026 29.122411 -0.131759 2.767099 0.106803 -0.039236 -1346960.000000 0 0 1
-11.526573 2.407667 -27.124646 29.570343 -0.205919 2.732023 0.107222 -0.055567 -455249.000000 0 0 1
-12.764773 1.764067 -27.016566 29.932360 -0.137328 2.696538 0.058957 -0.036207 -325385.000000 0 0 1
-13.955373 2.465767 -27.697176 31.112152 -0.174884 2.668661 0.037395 -0.029102 -2208.110000 0 0 1
-15.193173 1.789967 -27.544056 31.507325 -0.117273 2.634605 0.033288 -0.024248 1219440.000000 0 0 1
-16.331973 2.321967 -28.267656 32.728966 -0.141227 2.613340 0.033466 -0.022551 1061600.000000 0 0 1
-17.084373 3.526667 -27.593506 32.645287 -0.203567 2.577834 0.026670 -0.014693 -371561.000000 0 0 1
-16.470773 4.828967 -27.502576 32.419083 -0.285192 2.583648 0.039959 -0.022229 -46619.300000 0 0 1
-16.125073 5.536467 -28.681496 33.366130 -0.330734 2.605281 0.041310 -0.019169 246874.000000 0 0 1
-17.313173 5.969167 -29.626926 34.830040 -0.332013 2.587949 0.033708 -0.011230 435047.000000 0 0 1
-17.974773 7.082767 -29.063706 34.899242 -0.375357 2.554923 0.028888 -0.002840 -137736.000000 0 0 1
-18.946373 7.590567 -29.938946 36.234269 -0.381053 2.543233 0.028545 -0.002120 -450195.000000 0 0 1
-19.677973 8.756967 -29.300936 36.365532 -0.418700 2.507710 0.029770 -0.004754 -371251.000000 0 0 1
-18.828573 9.857667 -29.004426 35.957551 -0.482308 2.509224 0.036068 0.001359 94839.200000 0 0 1
-19.447073 10.764567 -28.168876 35.882449 -0.505550 2.473544 0.060866 0.000617 -244886.000000 0 0 1
-9.098173 24.716067 30.708735 40.455990 -1.218082 0.708920 0.043146 -0.013111 -572674.000000 0 0 1
-9.900573 25.843767 30.535325 41.210772 -1.204949 0.736305 0.047086 -0.010656 -103075.000000 0 0 1
-9.610973 26.926267 31.417755 42.479054 -1.227955 0.738312 0.054858 -0.013152 -800172.000000 0 0 1
-8.287973 27.651467 31.283045 42.566689 -1.279587 0.745250 0.048930 -0.012194 -689796.000000 0 0 1
-8.177873 28.428567 30.171025 42.253423 -1.290695 0.775531 0.049398 -0.005109 379317.000000 0 0 1
-6.818973 28.630167 29.805935 41.887691 -1.336978 0.779069 0.058836 -0.006188 235257.000000 0 0 1
-6.433273 29.727067 28.823055 41.902912 -1.357672 0.812269 0.084858 -0.008193 -293100.000000 0 0 1
-6.572673 30.961367 29.458635 43.239073 -1.361615 0.821264 0.091446 -0.014299 448188.000000 0 0 1
-6.108673 31.958867 28.559145 43.293300 -1.381933 0.850421 0.115031 -0.014316 38696.400000 0 0 1
-6.457673 33.301467 29.245535 44.788286 -1.379258 0.859293 0.117299 -0.027516 -82047.300000 0 0 1
-5.715573 33.490467 30.459695 45.629729 -1.401762 0.839896 0.130838 -0.029814 98699.500000 0 0 1
-6.318973 -33.336770 31.428715 46.249690 1.383469 0.823655 0.131441 -0.036978 59700.500000 0 0 1
-7.557773 33.723467 32.160299 47.208866 -1.350329 0.821349 0.091266 -0.033878 71091.900000 0 0 1
-7.299373 32.888967 33.250904 47.334846 -1.352396 0.791946 0.092788 -0.029890 16574.400000 0 0 1
-7.356973 31.509767 32.941037 46.174694 -1.341423 0.776458 0.093474 -0.019657 -149945.000000 0 0 1
-7.099173 30.595767 -33.522126 45.937263 -1.342800 2.388734 0.078444 -0.022725 -783569.000000 0 0 1
-5.799273 30.472167 -33.062386 45.335482 -1.382732 2.388069 0.085787 -0.025675 -854668.000000 0 0 1
-5.849173 30.043167 -31.725996 44.083370 -1.378510 2.374140 0.075304 -0.021693 -180460.000000 0 0 1
-4.502673 29.654267 -31.047426 43.169344 -1.420108 2.373448 0.076394 -0.024051 469532.000000 0 0 1
-3.890773 28.437067 -31.446686 42.575802 -1.434820 2.401795 0.093744 -0.022213 271737.000000 0 0 1
-3.381973 28.397367 -32.770716 43.494460 -1.452260 2.424083 0.086948 -0.027217 -593030.000000 0 0 1
-2.638473 27.107867 -33.210036 42.950023 -1.473770 2.454708 0.100511 -0.035000 332281.000000 0 0 1
-1.379173 26.899167 -32.539636 42.240919 -1.519569 2.450162 0.135906 -0.036972 1142240.000000 0 0 1
-0.726373 25.625767 -32.845546 41.665783 -1.542458 2.478853 0.147407 -0.034647 334100.000000 0 0 1
-0.200473 25.322767 33.460048 41.962573 -1.562880 0.647858 0.143034 -0.033774 -327154.000000 0 0 1
-1.208973 25.073267 32.474554 41.045426 -1.522616 0.658051 0.132451 -0.025917 220906.000000 0 0 1
-0.713673 25.117167 31.129995 40.005725 -1.542390 0.679100 0.136217 -0.027469 201577.000000 0 0 1
-0.517173 26.531467 30.532405 40.452614 -1.551306 0.715493 0.123158 -0.026356 1057630.000000 0 0 1
-1.778773 27.225067 30.400315 40.847858 -1.505553 0.731411 0.102077 -0.023419 916071.000000 0 0 1
-1.551573 28.517567 29.875095 41.330138 -1.516442 0.762892 0.089567 -0.021056 276257.000000 0 0 1
-2.732973 29.533067 29.986715 42.176703 -1.478520 0.779908 0.103979 -0.019055 164063.000000 0 0 1
-2.872673 29.971067 31.364945 43.477315 -1.475240 0.764961 0.111773 -0.026863 62774.600000 0 0 1
-3.619073 31.160767 31.557685 44.496950 -1.455172 0.782419 0.115133 -0.021371 72109.100000 0 0 1
-3.067373 31.940967 32.809532 45.892260 -1.475057 0.774279 0.116001 -0.023731 375730.000000 0 0 1
-1.753373 32.426367 32.601663 46.015345 -1.516776 0.783432 0.166326 -0.040179 -105342.000000 0 0 1
-1.227373 32.874167 33.818725 47.179693 -1.533478 0.771584 0.133392 -0.040096 -6405.190000 0 0 1
0.275627 33.226267 33.746035 47.358797 1.562501 0.777655 0.149102 -0.050465 83822.000000 0 0 1
0.474127 -33.202870 33.043355 46.845690 -1.556518 0.787857 0.174790 -0.052790 678433.000000 0 0 1
1.845627 -32.809570 33.148468 46.676495 -1.514603 0.781050 0.154032 -0.046548 481712.000000 0 0 1
2.191727 -31.335870 32.783068 45.403414 -1.500967 0.764050 0.148279 -0.052810 -66823.800000 0 0 1
1.608027 -30.422470 33.721825 45.445285 -1.517989 0.734701 0.139271 -0.045355 482349.000000 0 0 1
2.086327 -29.098270 33.508455 44.428354 -1.499219 0.716341 0.115563 -0.053590 199416.000000 0 0 1
1.506827 -28.089270 -33.089026 43.429958 -1.517203 2.437029 0.122595 -0.052874 367786.000000 0 0 1
0.131027 -27.817770 -33.296966 43.388172 -1.566086 2.445604 0.118081 -0.056835 292745.000000 0 0 1
-0.416273 -27.203870 -32.135476 42.105969 1.555496 2.439055 0.105855 -0.052273 191875.000000 0 0 1
-1.951473 -26.970570 -32.271256 42.102896 1.498567 2.444147 0.126021 -0.049900 124529.000000 0 0 1
-2.372673 -26.589470 -31.020176 40.925308 1.481798 2.430992 0.120022 -0.048101 -832983.000000 0 0 1
-3.711073 -26.234870 -31.081996 40.842759 1.430273 2.435674 0.141775 -0.047028 -954112.000000 0 0 1
-4.130973 -25.449270 -29.855436 39.447146 1.409878 2.429271 0.150206 -0.050963 -317286.000000 0 0 1
-4.296473 -26.387070 -28.779766 39.281193 1.409388 2.393019 0.161099 -0.056910 -158368.000000 0 0 1
-4.449873 -25.868970 -27.462416 37.989331 1.400448 2.378784 0.182453 -0.049251 789727.000000 0 0 1
-3.086273 -25.555470 -26.713046 37.097088 1.450611 2.374721 0.181639 -0.052400 1088330.000000 0 0 1
-2.261573 -24.635870 -27.413066 36.925831 1.479253 2.407415 0.201832 -0.058055 324211.000000 0 0 1
-1.172173 -24.190370 -26.623136 35.990823 1.522378 2.403451 0.157453 -0.050574 -100678.000000 0 0 1
-0.265773 -23.047370 -27.254156 35.693710 1.559265 2.439599 0.106306 -0.044620 1084990.000000 0 0 1
0.531627 -23.347670 -28.412866 36.778897 -1.548030 2.453615 0.065243 -0.042298 917523.000000 0 0 1
1.484227 -24.428470 -28.365686 37.464186 -1.510113 2.429722 0.047215 -0.027243 71832.100000 0 0 1
2.430827 -24.555070 -29.555226 38.501581 -1.472123 2.445942 0.049658 -0.035901 -309185.000000 0 0 1
3.377927 -23.547170 -29.673086 38.031193 -1.428315 2.465830 0.070252 -0.039134 -182812.000000 0 0 1
4.143327 -23.683770 -30.855226 39.116916 -1.397605 2.479642 0.074365 -0.032396 -823310.000000 0 0 1
5.131427 -22.509470 -31.132456 38.758710 -1.346659 2.503507 0.090688 -0.046248 -180386.000000 0 0 1
6.298227 -22.456670 -30.319066 38.251999 -1.297360 2.485880 0.059883 -0.036128 991574.000000 0 0 1
7.231627 -23.563470 -30.399436 39.136419 -1.273021 2.460294 0.070095 -0.026991 -236403.000000 0 0 1
7.859727 -23.838470 -31.824826 40.532302 -1.252312 2.473770 0.078496 -0.023287 -799089.000000 0 0 1
7.137027 -24.687570 -32.735716 41.617789 -1.289375 2.476047 0.072242 -0.032152 69541.600000 0 0 1
7.283727 -24.382470 33.568023 42.123268 -1.280507 0.648650 0.091834 -0.033651 -17719.600000 0 0 1
6.631927 -23.071870 33.055879 40.853210 -1.290896 0.628113 0.097372 -0.029498 1139200.000000 0 0 1
5.182627 -23.088370 33.167309 40.743133 -1.349987 0.619689 0.109882 -0.038237 1028330.000000 0 0 1
4.727627 -21.959970 32.492278 39.501125 -1.358749 0.604888 0.136827 -0.043319 -280559.000000 0 0 1
3.238527 -21.697070 32.770967 39.435862 -1.422629 0.589904 0.104975 -0.040828 -292212.000000 0 0 1
2.256727 -22.611070 32.389522 39.565572 -1.471319 0.611777 0.102374 -0.047785 -187574.000000 0 0 1
2.028727 -23.594670 33.383547 40.930251 -1.485025 0.616996 0.107560 -0.038181 92875.200000 0 0 1
0.575827 -24.175570 33.333148 41.181167 -1.546982 0.627621 0.099562 -0.030627 648624.000000 0 0 1
0.208127 -24.805370 32.094427 40.563555 -1.562406 0.658006 0.122565 -0.035059 300483.000000 0 0 1
-1.087073 -25.386570 32.064085 40.911676 1.528002 0.670133 0.107397 -0.030758 236668.000000 0 0 1
-1.224173 -26.273770 30.898075 40.577095 1.524237 0.705225 0.098577 -0.038088 386366.000000 0 0 1
-2.557573 -26.504770 30.450975 40.451278 1.474599 0.718519 0.121112 -0.040360 465892.000000 0 0 1
-2.612573 -27.602570 29.515995 40.495943 1.476428 0.754137 0.138300 -0.044682 365407.000000 0 0 1
-3.960673 -27.786170 28.754695 40.181970 1.429209 0.773297 0.159207 -0.037886 -109919.000000 0 0 1
-4.977773 -28.420470 29.440115 41.221617 1.397408 0.775328 0.163473 -0.039143 -1202740.000000 0 0 1
-6.083573 -28.616270 28.641825 40.942092 1.361323 0.796002 0.138150 -0.037860 -1435020.000000 0 0 1
-7.260673 -29.093570 29.450535 42.029599 1.326229 0.794405 0.104592 -0.030165 -1072950.000000 0 0 1
-8.313273 -29.654270 28.669885 42.076699 1.297473 0.821161 0.123929 -0.030602 -197071.000000 0 0 1
-9.500873 -29.799970 29.385565 42.916387 1.262163 0.816581 0.100405 -0.021706 -482943.000000 0 0 1
-9.552673 -30.846470 30.566445 44.464209 1.270479 0.812839 0.063478 -0.008808 -834025.000000 0 0 1
-9.455073 -32.266170 30.247595 45.226333 1.285743 0.838196 0.079665 -0.016105 -17063.300000 0 0 1
-10.555673 -32.724670 29.514685 45.314930 1.258773 0.861469 0.075368 -0.008518 -396910.000000 0 0 1
-10.457773 33.454067 29.098755 45.555210 -1.267819 0.877913 0.069680 -0.011551 -241905.000000 0 0 1
-10.702473 32.689067 30.225465 45.789702 -1.254393 0.849854 0.069841 -0.004557 143158.000000 0 0 1
-10.498873 31.361067 29.803475 44.519546 -1.247750 0.837332 0.068382 -0.003095 -72698.700000 0 0 1
-11.126973 30.251867 30.676775 44.497747 -1.218343 0.810135 0.056102 -0.003149 -375288.000000 0 0 1
-12.533373 30.266867 30.524865 44.776513 -1.178198 0.820691 0.064444 0.003707 -219215.000000 0 0 1
-13.089873 29.112267 31.027445 44.514843 -1.148247 0.799572 0.062391 -0.001399 -257822.000000 0 0 1
-13.155773 28.884967 32.583345 45.487252 -1.143416 0.772285 0.070930 -0.005710 -550779.000000 0 0 1
-14.228273 29.655967 33.088597 46.655926 -1.123457 0.782427 0.079864 -0.003763 375977.000000 0 0 1
-14.301573 29.427767 -33.230286 46.634540 -1.118420 2.363948 0.079820 -0.007985 495375.000000 0 0 1
-15.583673 30.035067 -32.553746 46.954260 -1.092183 2.336865 0.071773 -0.008799 558355.000000 0 0 1
-15.862173 29.342867 -31.308886 45.747773 -1.075214 2.324550 0.068551 -0.010614 424195.000000 0 0 1
-16.959573 29.922767 -30.597536 46.034860 -1.055163 2.297835 0.084077 -0.011998 436149.000000 0 0 1
-16.963673 29.357567 -29.156006 44.718068 -1.046838 2.281010 0.103334 -0.022821 -157509.000000 0 0 1
-17.113373 27.963267 -29.032586 43.791585 -1.021604 2.295578 0.087446 -0.025795 290112.000000 0 0 1
-17.091973 27.617167 -27.664006 42.663107 -1.016603 2.276316 0.101778 -0.027555 335902.000000 0 0 1
-17.940873 26.306367 -27.314746 41.952297 -0.972255 2.279817 0.064649 -0.023288 1025930.000000 0 0 1
-19.352573 26.431567 -27.496256 42.769077 -0.938800 2.269075 0.076153 -0.024658 301217.000000 0 0 1
-19.896973 25.168367 -27.204696 42.064614 -0.901841 2.274093 0.054952 -0.017530 -138778.000000 0 0 1
-21.278573 24.912267 -27.842416 42.995335 -0.863903 2.275185 0.075519 -0.021861 -61952.000000 0 0 1
-22.354073 25.236067 -27.002436 43.193694 -0.845883 2.246117 0.083212 -0.022215 1020150.000000 0 0 1
-23.612773 24.643967 -27.428966 43.786257 -0.806764 2.247759 0.102714 -0.027342 1632710.000000 0 0 1
-24.735673 24.488967 -26.343696 43.652644 -0.780386 2.218660 0.112855 -0.023772 632632.000000 0 0 1
-25.460593 25.709967 -26.147436 44.642274 -0.790272 2.196552 0.077636 -0.017752 968360.000000 0 0 1
-26.647493 25.696667 -25.322666 44.851366 -0.767235 2.170734 0.101539 -0.019929 958076.000000 0 0 1
-26.335383 25.532467 -23.822276 43.737399 -0.769919 2.146787 0.080241 -0.016323 -105880.000000 0 0 1
-25.968973 24.231167 -23.276376 42.465594 -0.750794 2.150915 0.078429 -0.013271 158794.000000 0 0 1
-27.033433 23.285067 -23.260276 42.591564 -0.711043 2.148527 0.099793 -0.013839 432388.000000 0 0 1
-27.935863 23.321567 -21.958376 42.502685 -0.695618 2.113713 0.074404 -0.018920 114106.000000 0 0 1
-27.322523 23.062367 -20.714376 41.321646 -0.701047 2.095892 0.079289 -0.013843 -437365.000000 0 0 1
-26.468723 24.054167 -20.290576 41.120600 -0.737643 2.086837 0.075101 -0.008560 -415990.000000 0 0 1
-25.634413 23.715967 -19.044676 39.777756 -0.746544 2.070057 0.065880 -0.012978 -19852.400000 0 0 1
-26.406203 23.848367 -17.843476 39.804796 -0.734544 2.035630 0.058682 -0.004978 445769.000000 0 0 1
-25.725643 23.414567 -16.691576 38.583149 -0.738403 2.018185 0.092525 -0.026022 -141155.000000 0 0 1
-26.503923 23.762867 -15.377676 38.776342 -0.730922 1.978578 0.105736 -0.033678 -202590.000000 0 0 1
-26.474793 25.134067 -15.110576 39.509056 -0.759425 1.963252 0.105020 -0.031252 116682.000000 0 0 1
-27.194783 25.290667 -13.894676 39.651432 -0.749135 1.928816 0.071095 -0.037830 199424.000000 0 0 1
-27.025933 26.736067 -13.320476 40.282172 -0.780007 1.907819 0.064912 -0.022183 129396.000000 0 0 1
-25.702243 27.101967 -13.010776 39.552525 -0.811900 1.905987 0.109159 -0.042882 -299469.000000 0 0 1
-25.594613 27.846267 -11.829376 39.628688 -0.827507 1.873923 0.115120 -0.035013 1287450.000000 0 0 1
-24.073873 28.112067 -11.431276 38.736465 -0.862625 1.870360 0.142155 -0.043456 1361020.000000 0 0 1
-23.458973 26.864667 -11.064476 37.342421 -0.852971 1.871610 0.150343 -0.046228 324713.000000 0 0 1
-22.205373 27.171067 -10.456176 36.615258 -0.885629 1.860396 0.147104 -0.043872 253562.000000 0 0 1
-21.388173 25.969367 -9.992076 35.095634 -0.881834 1.859500 0.197020 -0.047657 -296448.000000 0 0 1
-20.575973 25.354567 -10.948976 34.439872 -0.889065 1.894327 0.186199 -0.062701 54288.400000 0 0 1
-19.635873 24.519067 -10.270876 33.049101 -0.895543 1.886806 0.192277 -0.049951 -41963.000000 0 0 1
-18.637873 23.892767 -11.264676 32.328433 -0.908331 1.926708 0.185513 -0.058899 -236260.000000 0 0 1
-18.015973 22.778567 -10.625376 30.924699 -0.901618 1.921532 0.148112 -0.045039 -31211.900000 0 0 1
-17.657373 21.914467 -11.653376 30.460267 -0.892565 1.963379 0.137151 -0.029620 -26913.000000 0 0 1
-17.265473 20.536967 -11.069676 29.024150 -0.871725 1.962102 0.118090 -0.015500 425199.000000 0 0 1
-18.403473 19.839967 -10.532976 29.038865 -0.822942 1.941981 0.140440 -0.016935 942254.000000 0 0 1
-18.036173 18.483067 -10.200076 27.766326 -0.797635 1.946959 0.152618 -0.030472 662924.000000 0 0 1
-19.405573 17.691967 -10.048576 28.116825 -0.739239 1.936264 0.147262 -0.012229 768046.000000 0 0 1
-20.088073 17.225067 -11.199976 28.734528 -0.708819 1.971183 0.145878 -0.018458 216464.000000 0 0 1
-20.597873 18.262367 -12.060576 30.054017 -0.725370 1.983728 0.151253 -0.029219 -638964.000000 0 0 1
-21.354873 17.659867 -13.302476 30.738532 -0.690972 2.018351 0.147535 -0.029880 289447.000000 0 0 1
-20.452273 17.192367 -14.274776 30.292609 -0.699017 2.061481 0.144657 -0.039261 568657.000000 0 0 1
-21.209473 16.517367 -15.301076 30.931991 -0.661663 2.088249 0.139002 -0.036943 56846.700000 0 0 1
-20.420373 16.066767 -16.504876 30.782196 -0.666641 2.136704 0.162130 -0.045964 -372035.000000 0 0 1
-19.994773 17.137667 -17.364776 31.544033 -0.708606 2.153751 0.143251 -0.037866 593800.000000 0 0 1
-19.052473 16.738967 -18.366076 31.312976 -0.720849 2.197567 0.132373 -0.032158 158237.000000 0 0 1
-18.337873 17.934967 -19.126776 31.996472 -0.774291 2.211522 0.091121 -0.025541 400294.000000 0 0 1
-17.376573 18.602967 -18.279376 31.339293 -0.819471 2.193549 0.100805 -0.020944 672111.000000 0 0 1
-17.018573 19.808967 -18.863876 32.216034 -0.861023 2.196346 0.106090 -0.027740 -194735.000000 0 0 1
34.331286 29.911967 1.842324 45.571451 0.716716 1.530358 0.097724 -0.022432 -448183.000000 0 0 1
35.592816 30.002967 1.265724 46.568537 0.700387 1.543613 0.117529 -0.023964 -451470.000000 0 0 1
35.620836 31.024367 0.274624 47.238022 0.716538 1.564983 0.117315 -0.021416 -6800.830000 0 0 1
36.944366 31.218667 -0.500976 48.370883 0.701595 1.581153 0.085827 -0.021252 -46581.300000 0 0 1
-37.196803 31.665067 0.272624 48.850312 -0.705239 1.565215 0.061975 -0.019637 -114027.000000 0 0 1
-36.050173 31.788967 -0.528176 48.066957 -0.722667 1.581785 0.069363 -0.013461 -123996.000000 0 0 1
-34.983136 32.787567 -0.018576 47.946269 -0.753012 1.571184 0.044584 -0.016911 -56537.400000 0 0 1
-34.340358 32.349667 1.149024 47.191963 -0.755557 1.546446 0.030743 -0.018118 -65033.700000 0 0 1
-33.934863 33.510267 1.835124 47.727148 -0.779103 1.532337 0.010117 -0.015431 23956.500000 0 0 1
-32.992183 33.141067 3.051724 46.862858 -0.787649 1.505630 0.038894 -0.009619 201706.000000 0 0 1
-32.615913 -33.270070 3.653324 46.733737 0.795326 1.492543 0.033909 -0.000435 -64876.800000 0 0 1
-31.892913 -33.516770 4.832024 46.517526 0.810219 1.466733 0.070513 -0.013415 -586130.000000 0 0 1
-31.657703 -32.286570 5.699324 45.575378 0.795232 1.445415 0.081792 -0.007173 286271.000000 0 0 1
-32.787813 -31.699070 6.353924 46.046108 0.768517 1.432364 0.074482 -0.010749 220882.000000 0 0 1
-33.326343 -32.535770 7.309624 47.145011 0.773395 1.415123 0.063808 -0.024207 -570980.000000 0 0 1
-34.436939 -31.922770 8.237324 47.674097 0.747529 1.397141 0.066929 -0.021775 2009400.000000 0 0 1
-35.740465 -31.576570 7.679424 48.305633 0.723622 1.411143 0.033302 -0.018890 1564420.000000 0 0 1
-36.577913 -32.604470 7.158424 49.520079 0.728027 1.425732 0.031100 -0.023522 -561224.000000 0 0 1
37.177086 -32.163270 7.068024 49.664561 -0.713216 1.427996 0.031335 -0.012051 -540611.000000 0 0 1
36.484276 -32.478370 8.261424 49.539863 -0.727375 1.403250 0.031663 -0.013901 -225284.000000 0 0 1
35.140256 -32.225270 7.933624 48.334750 -0.742154 1.405911 0.032557 -0.002196 -545986.000000 0 0 1
34.146286 -32.468470 9.106524 47.990616 -0.760217 1.379882 0.041506 -0.015884 -487868.000000 0 0 1
32.858786 -32.070870 8.689424 46.730575 -0.773264 1.383760 0.050241 -0.023776 -486215.000000 0 0 1
31.922706 -32.259870 9.695924 46.408721 -0.790651 1.360321 0.052103 -0.034455 -410542.000000 0 0 1
31.767266 -31.149570 10.756624 45.772917 -0.775581 1.333578 0.061115 -0.023371 -616473.000000 0 0 1
31.206516 -29.884170 10.427124 44.448118 -0.763756 1.333999 0.070176 -0.032299 80159.700000 0 0 1
31.825576 -29.209570 9.368624 44.202233 -0.742564 1.357227 0.080718 -0.031110 -134123.000000 0 0 1
31.094956 -27.891170 9.031724 42.736234 -0.731137 1.357854 0.082936 -0.037229 431265.000000 0 0 1
31.676316 -27.391570 7.817924 42.600552 -0.712986 1.386233 0.085118 -0.035153 641051.000000 0 0 1
30.945086 -26.157170 7.515224 41.210126 -0.701746 1.387407 0.092433 -0.035832 599321.000000 0 0 1
31.140366 -25.493070 6.135324 40.709474 -0.686010 1.419510 0.089733 -0.023607 393025.000000 0 0 1
32.413136 -24.955670 5.814624 41.318358 -0.656131 1.429600 0.066296 -0.021375 -136390.000000 0 0 1
32.380846 -24.455170 4.482324 40.824818 -0.646844 1.460780 0.069725 -0.018934 41985.200000 0 0 1
33.790406 -24.038770 4.000324 41.661212 -0.618341 1.474628 0.062804 -0.018805 360234.000000 0 0 1
34.704576 -25.110970 3.827124 43.007154 -0.626366 1.481690 0.046942 -0.015086 234698.000000 0 0 1
36.044306 -24.598570 3.790224 43.802368 -0.598853 1.484158 0.039209 -0.014018 544910.000000 0 0 1
36.998326 -25.783670 3.556424 45.236290 -0.608634 1.492096 0.034691 -0.013141 -648235.000000 0 0 1
37.056576 -26.559270 4.694024 45.832505 -0.621861 1.468200 0.022590 -0.014180 52774.600000 0 0 1
-37.328483 -27.707770 4.578924 46.712983 0.638535 1.472616 0.024379 -0.015897 -585370.000000 0 0 1
-37.609053 -28.843270 5.579624 47.723237 0.654245 1.453612 0.025719 -0.019021 1165440.000000 0 0 1
36.339656 -29.552570 5.586624 47.171341 -0.682757 1.452085 0.008503 -0.016337 1344020.000000 0 0 1
35.232046 -28.782370 6.012624 45.889798 -0.684984 1.439395 0.036562 -0.011683 131073.000000 0 0 1
33.878606 -29.527070 6.290824 45.378214 -0.716876 1.431717 0.087481 -0.017542 947257.000000 0 0 1
33.114906 -29.999070 5.171024 44.980893 -0.736070 1.455581 0.070213 -0.025838 76568.200000 0 0 1
32.427336 -29.036470 4.425424 43.751950 -0.730286 1.469475 0.091225 -0.027199 -576127.000000 0 0 1
30.922966 -29.350370 4.343024 42.854824 -0.759313 1.469279 0.086118 -0.031268 -62578.600000 0 0 1
30.657606 -30.456970 3.535324 43.359132 -0.782115 1.489170 0.088753 -0.021882 -530841.000000 0 0 1
29.269626 -30.651570 3.443324 42.521597 -0.808457 1.489729 0.108892 -0.023601 -26403.000000 0 0 1
28.908326 -31.945770 2.714724 43.169356 -0.835270 1.507869 0.110769 -0.017774 -170501.000000 0 0 1
29.145126 -31.962770 1.340724 43.276490 -0.831475 1.539811 0.108658 -0.006057 108392.000000 0 0 1
28.748626 -33.249070 0.917624 43.963919 -0.857862 1.549923 0.102739 -0.007836 -174044.000000 0 0 1
28.576626 -33.403270 -0.564776 43.962723 -0.863116 1.583643 0.097835 -0.010451 -419161.000000 0 0 1
29.650026 -33.088970 -1.403376 44.451923 -0.840157 1.602372 0.089118 -0.012336 -78731.300000 0 0 1
29.281326 -33.363870 -2.715976 44.473817 -0.850475 1.631903 0.078158 -0.008890 -428702.000000 0 0 1
30.400946 -32.913370 -3.618776 44.951118 -0.825059 1.651388 0.061374 -0.010631 -392145.000000 0 0 1
30.571686 -31.520570 -3.662076 44.063422 -0.800679 1.654002 0.047224 -0.008714 79181.900000 0 0 1
31.434506 -31.153770 -4.729776 44.509059 -0.780913 1.677263 0.036076 -0.006904 -119485.000000 0 0 1
31.855786 -29.642570 -4.860876 43.784714 -0.749425 1.682043 0.034831 0.002530 -30514.300000 0 0 1
30.770286 -28.711570 -5.058476 42.388123 -0.750801 1.690419 0.031960 -0.010033 371963.000000 0 0 1
31.093246 -27.363270 -4.978176 41.717152 -0.721677 1.690413 0.029830 -0.012720 -423657.000000 0 0 1
32.121446 -26.776370 -5.951576 42.239585 -0.694894 1.712167 0.039384 -0.014129 -125825.000000 0 0 1
33.424576 -27.227470 -5.620876 43.475645 -0.683577 1.700447 0.049505 -0.005298 -8868.430000 0 0 1
34.489516 -26.719970 -6.408076 44.097018 -0.659140 1.716630 0.056299 -0.015517 327552.000000 0 0 1
34.766896 -27.585570 -7.675476 45.040134 -0.670730 1.742046 0.053320 -0.017590 387034.000000 0 0 1
33.615126 -27.607370 -8.580476 44.336984 -0.687581 1.765554 0.053358 -0.019568 990807.000000 0 0 1
33.560796 -28.678970 -9.536576 45.163665 -0.707123 1.783554 0.033459 -0.008461 52893.500000 0 0 1
33.417566 -30.116270 -8.938776 45.865294 -0.733484 1.766944 0.023744 -0.008245 417517.000000 0 0 1
34.599356 -30.677670 -8.360876 46.990841 -0.725393 1.749674 0.036043 -0.013605 -87896.400000 0 0 1
34.300286 -31.886470 -7.710676 47.462734 -0.748945 1.733977 0.052146 -0.023579 -992253.000000 0 0 1
35.478026 -32.689670 -7.312876 48.793268 -0.744517 1.721238 0.060214 -0.026541 -1111910.000000 0 0 1
35.244536 33.672567 -6.763876 49.211473 0.762593 1.708678 0.058315 -0.023077 -251685.000000 0 0 1
34.735276 33.734767 -5.427276 48.724011 0.770787 1.682416 0.068535 -0.021016 18852.500000 0 0 1
34.412176 32.319467 -4.868776 47.459991 0.754048 1.673564 0.062260 -0.021980 657052.000000 0 0 1
33.291186 31.649667 -5.481476 46.260686 0.760126 1.689566 0.069973 -0.034229 586722.000000 0 0 1
32.974696 30.409267 -4.880976 45.120705 0.744946 1.679184 0.083901 -0.016821 651822.000000 0 0 1
31.735126 29.746467 -5.580476 43.853304 0.753064 1.698396 0.098981 -0.033025 475497.000000 0 0 1
32.034746 29.264967 -6.908076 43.936144 0.740245 1.728681 0.066034 -0.029540 353562.000000 0 0 1
30.863816 28.670267 -7.469776 42.782671 0.748570 1.746294 0.048195 -0.027168 553399.000000 0 0 1
31.010846 28.420267 -8.986576 43.013285 0.741836 1.781272 0.046986 -0.020588 -94746.400000 0 0 1
31.918536 27.376767 -9.292576 43.065442 0.708952 1.788285 0.044468 -0.019637 -36909.700000 0 0 1
32.356916 27.334467 -10.638476 43.672878 0.701456 1.816867 0.044631 -0.011681 365717.000000 0 0 1
33.616366 28.188167 -10.946076 45.215588 0.697794 1.815312 0.049844 -0.022260 -839662.000000 0 0 1
34.793086 27.751367 -10.277376 45.676270 0.673283 1.797744 0.055462 -0.029868 1072360.000000 0 0 1
35.974346 28.428567 -10.779376 47.101294 0.668765 1.801698 0.054643 -0.030845 638568.000000 0 0 1
36.061496 29.900967 -10.392776 47.984467 0.692274 1.789113 0.044132 -0.042151 -1127790.000000 0 0 1
36.639436 30.029967 -9.054776 48.231070 0.686583 1.759654 0.059597 -0.033983 148799.000000 0 0 1
36.570426 31.306967 -8.468676 48.879860 0.708009 1.744930 0.046864 -0.033779 -852051.000000 0 0 1
-37.603703 31.514367 -7.335676 49.608527 -0.697525 1.719212 0.049975 -0.021257 366746.000000 0 0 1
-36.261133 31.728767 -7.727176 48.798501 -0.718834 1.729814 0.060700 -0.023686 209984.000000 0 0 1
-35.589897 30.501567 -8.120376 47.570231 -0.708561 1.742339 0.072323 -0.023809 -655471.000000 0 0 1
-34.182543 30.785767 -8.667876 46.811770 -0.733162 1.757036 0.095054 -0.022568 -5823.380000 0 0 1
-33.236073 31.161567 -7.652276 46.197805 -0.753195 1.737205 0.097975 -0.016497 24783.900000 0 0 1
-31.987263 31.595867 -8.119276 45.688144 -0.779243 1.749456 0.090854 -0.026552 -179749.000000 0 0 1
-31.830503 32.971967 -8.882776 46.682280 -0.803011 1.762245 0.064664 -0.032614 -501005.000000 0 0 1
-32.075213 -33.485970 -8.148276 47.079974 0.806913 1.744745 0.053298 -0.026182 180760.000000 0 0 1
-30.971713 -33.000470 -7.385476 45.856551 0.817101 1.732557 0.077496 -0.032638 173414.000000 0 0 1
-31.280783 -31.741570 -6.553676 45.044038 0.792710 1.716809 0.064395 -0.034914 -15708.000000 0 0 1
-32.240063 -31.861470 -5.533276 45.663904 0.779492 1.692269 0.050032 -0.029173 252558.000000 0 0 1
-31.677683 -32.538270 -4.377176 45.622081 0.798799 1.666888 0.070099 -0.031129 442398.000000 0 0 1
-32.682183 -32.557570 -3.204676 46.242734 0.783488 1.640153 0.072540 -0.027688 -130815.000000 0 0 1
-33.229443 -31.282970 -2.943576 45.732754 0.755235 1.635206 0.057651 -0.016930 -59907.200000 0 0 1
-34.176466 -31.389170 -1.910876 46.443108 0.742912 1.611952 0.055664 -0.017912 -74511.900000 0 0 1
-34.833801 -30.025270 -1.516776 46.013163 0.711395 1.603766 0.058062 -0.008602 144787.000000 0 0 1
-35.894840 -30.273970 -0.610676 46.960896 0.700654 1.583801 0.055714 -0.003360 -179245.000000 0 0 1
-36.536383 -29.041870 -0.377576 46.674191 0.671608 1.578886 0.058111 -0.006234 -438209.000000 0 0 1
-37.445933 -29.010670 0.818724 47.376019 0.659144 1.553514 0.046374 -0.001114 -606275.000000 0 0 1
36.536486 -29.621570 0.552824 47.038897 -0.681255 1.559044 0.033405 -0.001049 514562.000000 0 0 1
35.529616 -29.390770 1.567424 46.137055 -0.691119 1.536817 0.035912 -0.007291 1253600.000000 0 0 1
34.671886 -28.045770 1.556524 44.622054 -0.680139 1.535907 0.030997 -0.002414 115335.000000 0 0 1
33.691106 -27.990070 0.527024 43.804251 -0.693233 1.558765 0.041009 -0.009253 192484.000000 0 0 1
32.953866 -26.781470 0.660324 42.469289 -0.682435 1.555247 0.044066 -0.004534 -566485.000000 0 0 1
31.730576 -26.608570 -0.261876 41.411521 -0.697826 1.577120 0.056260 -0.019242 518605.000000 0 0 1
30.583386 -27.333270 0.254824 41.018485 -0.729340 1.564584 0.067646 -0.010382 701088.000000 0 0 1
30.593746 -28.770970 0.112724 41.997128 -0.754703 1.568112 0.061494 -0.007688 -676826.000000 0 0 1
30.163026 -29.247670 -1.307976 42.035047 -0.769992 1.601918 0.060513 -0.010062 -50132.200000 0 0 1
28.775026 -29.159270 -1.534176 40.995352 -0.792030 1.608228 0.070280 -0.006320 -44647.200000 0 0 1
28.384426 -29.501170 -2.846976 41.037787 -0.804688 1.640227 0.061305 -0.006627 530875.000000 0 0 1
26.900026 -29.985070 -2.987976 40.393611 -0.839578 1.644835 0.085199 -0.015523 1300990.000000 0 0 1
25.908126 -28.956770 -3.071176 38.976373 -0.840907 1.649674 0.093207 -0.016654 32024.000000 0 0 1
24.655226 -29.448070 -3.492476 38.565093 -0.873754 1.661481 0.071948 -0.017502 163817.000000 0 0 1
23.582326 -28.328270 -3.393576 37.015312 -0.876570 1.662606 0.079509 -0.014457 -2385.270000 0 0 1
23.336426 -27.633270 -4.565976 36.455926 -0.869501 1.696373 0.090937 -0.021437 -16968.700000 0 0 1
22.806326 -26.360570 -4.275876 35.118247 -0.857562 1.692856 0.092617 -0.025342 73984.400000 0 0 1
22.283726 -25.636170 -5.587076 34.423729 -0.855244 1.733821 0.099784 -0.036563 327462.000000 0 0 1
21.030726 -26.137170 -6.029176 34.085100 -0.893239 1.748618 0.090277 -0.031511 -182278.000000 0 0 1
20.535526 -25.519970 -7.188376 33.535794 -0.893205 1.786822 0.106029 -0.035816 552179.000000 0 0 1
19.012126 -25.755070 -7.397476 32.855855 -0.934897 1.797893 0.092888 -0.027416 592707.000000 0 0 1
18.134226 -25.120470 -6.477276 31.651908 -0.945529 1.776893 0.086025 -0.024579 -1413510.000000 0 0 1
16.859326 -25.520970 -6.777576 31.328778 -0.987001 1.788857 0.081375 -0.029508 -1069360.000000 0 0 1
15.836826 -24.843970 -5.817776 30.031224 -1.003293 1.765753 0.070692 -0.025323 -25424.300000 0 0 1
16.047626 -25.179070 -4.457776 30.189131 -1.003373 1.719000 0.073487 -0.023863 78882.300000 0 0 1
15.508426 -24.187570 -3.591376 28.955963 -1.000651 1.695145 0.089617 -0.027121 52393.100000 0 0 1
15.738426 -24.569670 -2.145876 29.256991 -1.001084 1.644208 0.084478 -0.015138 -11241.400000 0 0 1
15.124126 -25.844070 -2.025976 30.012660 -1.041325 1.638352 0.103496 -0.017495 310771.000000 0 0 1
15.425726 -26.592970 -0.850776 30.754884 -1.045162 1.598463 0.093501 -0.015275 -112785.000000 0 0 1
14.874226 -28.015070 -1.054076 31.736380 -1.082707 1.604016 0.097608 -0.023230 763574.000000 0 0 1
13.471226 -28.244970 -0.863176 31.304909 -1.125764 1.598373 0.104175 -0.025285 777643.000000 0 0 1
12.882926 -29.304570 -1.610676 32.051863 -1.156606 1.621070 0.103528 -0.025998 366065.000000 0 0 1
13.403826 -30.748370 -1.209676 33.564686 -1.159713 1.606844 0.099279 -0.023421 -133347.000000 0 0 1
14.715826 -31.014570 -1.658976 34.368755 -1.127771 1.619085 0.101929 -0.025657 -139368.000000 0 0 1
15.239926 -32.304170 -1.357376 35.744332 -1.129992 1.608780 0.098109 -0.027044 -989321.000000 0 0 1
16.718826 -32.358870 -1.623876 36.458917 -1.093903 1.615351 0.086977 -0.026509 -1251380.000000 0 0 1
17.459426 -31.410070 -0.909976 35.947909 -1.063469 1.596113 0.084428 -0.017659 -676965.000000 0 0 1
18.739226 -31.366170 -1.477776 36.567459 -1.032266 1.611220 0.073119 -0.023228 -524488.000000 0 0 1
19.625826 -30.288070 -0.845376 36.100622 -0.995848 1.594216 0.063699 -0.015441 -156948.000000 0 0 1
19.204526 -29.027770 -1.360976 34.832134 -0.986316 1.609879 0.077961 -0.019502 131409.000000 0 0 1
19.934726 -28.008570 -0.722276 34.385971 -0.952237 1.591803 0.068672 -0.007639 -297635.000000 0 0 1
19.346726 -26.584970 -0.718576 32.887274 -0.941700 1.592648 0.073869 -0.010317 -465098.000000 0 0 1
19.596026 -25.811770 -1.885776 32.462407 -0.921440 1.628920 0.068081 -0.012765 134938.000000 0 0 1
18.985626 -26.169270 -3.125976 32.481632 -0.943165 1.667184 0.077952 -0.014464 -174264.000000 0 0 1
33.270486 -29.308070 13.600624 46.377421 -0.722164 1.273162 0.042827 -0.039291 365184.000000 0 0 1
34.250706 -29.785970 14.512124 47.654136 -0.715789 1.261351 0.062440 -0.027875 412333.000000 0 0 1
33.605076 -30.081370 15.751124 47.773297 -0.730126 1.234805 0.052145 -0.018840 301187.000000 0 0 1
34.613976 -30.651370 16.761924 49.179223 -0.724757 1.222993 0.058375 -0.011554 -123910.000000 0 0 1
34.019136 -30.860770 18.040624 49.347268 -0.736756 1.196535 0.042530 -0.009322 356356.000000 0 0 1
34.926026 -31.146670 19.104124 50.546117 -0.728260 1.183211 0.042600 -0.009175 -214472.000000 0 0 1
35.669096 -32.468970 19.095224 51.876257 -0.738467 1.193840 0.043078 -0.001423 -604912.000000 0 0 1
36.729936 -32.432970 18.182524 52.264615 -0.723350 1.215473 0.058208 -0.001233 -320233.000000 0 0 1
37.298906 -33.751570 18.118524 53.466418 -0.735513 1.225074 0.075182 -0.008158 -133933.000000 0 0 1
-36.803173 33.733867 17.067224 52.761136 -0.741912 1.241390 0.085785 -0.009948 610229.000000 0 0 1
-35.653436 -33.135770 17.489124 51.720559 0.748815 1.225850 0.099274 -0.018426 952404.000000 0 0 1
-34.781942 -32.836870 16.384824 50.561903 0.756641 1.240784 0.109177 -0.012128 -334507.000000 0 0 1
-33.423613 -32.328070 16.893524 49.473561 0.768738 1.222320 0.088805 -0.017549 378839.000000 0 0 1
-32.335953 -32.289270 15.963424 48.404977 0.784676 1.234716 0.096700 -0.026023 329502.000000 0 0 1
-32.465383 -31.316570 14.938624 47.517272 0.767389 1.250990 0.096839 -0.025472 -1247820.000000 0 0 1
-31.287803 -31.286070 14.006724 46.410485 0.785370 1.264215 0.088121 -0.030190 -164870.000000 0 0 1
-30.087093 -30.906470 14.675724 45.561167 0.798831 1.242839 0.076171 -0.031491 -443882.000000 0 0 1
-28.995723 -30.982770 13.823324 44.629232 0.818515 1.255880 0.074973 -0.026800 -491081.000000 0 0 1
-27.707203 -30.403270 14.406124 43.584221 0.831760 1.233926 0.075398 -0.032681 -427079.000000 0 0 1
-26.594593 -30.463570 13.578324 42.657618 0.853102 1.246851 0.074900 -0.030435 -307935.000000 0 0 1
-25.449963 -29.957570 14.271124 41.818915 0.866573 1.222539 0.067911 -0.025635 334569.000000 0 0 1
-24.141473 -29.931170 13.455024 40.739702 0.892064 1.234209 0.085000 -0.021466 106624.000000 0 0 1
-23.555373 -31.223270 13.260124 41.298657 0.924474 1.243928 0.090753 -0.038723 -524496.000000 0 0 1
-22.421973 -31.059270 12.485124 40.290216 0.945517 1.255730 0.087791 -0.039463 -553366.000000 0 0 1
-21.895773 -32.349170 11.860424 40.823564 0.975772 1.276017 0.074753 -0.035219 -173248.000000 0 0 1
-22.809173 -32.922370 10.962124 41.524800 0.964908 1.303640 0.064302 -0.032354 -75454.900000 0 0 1
-22.751173 33.334067 10.898824 41.803831 -0.971898 1.307035 0.079746 -0.030698 165475.000000 0 0 1
-23.668673 32.741367 9.783724 41.568311 -0.944867 1.333202 0.070926 -0.026621 308444.000000 0 0 1
-23.284073 32.998367 8.430324 41.256644 -0.956313 1.365008 0.065910 -0.021874 640157.000000 0 0 1
-24.357273 32.573267 7.556524 41.369017 -0.928725 1.387104 0.071915 -0.025423 368309.000000 0 0 1
-24.032273 32.761567 6.062624 41.080723 -0.937906 1.422677 0.062305 -0.012103 -100776.000000 0 0 1
-23.111173 31.916667 5.385524 39.771897 -0.944072 1.434969 0.063587 -0.013385 1591250.000000 0 0 1
-21.694573 31.913467 5.706924 39.008882 -0.973761 1.423971 0.058727 -0.023186 1261610.000000 0 0 1
-20.856273 33.195167 5.439624 39.578943 -1.009833 1.432923 0.072948 -0.024621 -751067.000000 0 0 1
-21.055773 -33.346670 6.256224 39.931020 1.007593 1.413472 0.070508 -0.018156 65707.600000 0 0 1
-20.460473 -33.527170 7.530824 39.992692 1.022863 1.381360 0.064383 -0.025759 -278805.000000 0 0 1
-20.529873 -32.285870 8.451024 39.182559 1.004413 1.353405 0.060918 -0.026654 -120155.000000 0 0 1
-19.583373 -31.269570 8.078424 37.769769 1.011280 1.355245 0.061034 -0.036105 183396.000000 0 0 1
-19.652173 -30.012970 8.795524 36.937075 0.991062 1.330365 0.060788 -0.033864 -96048.200000 0 0 1
-19.075373 -30.043370 10.213924 37.024292 1.005090 1.291301 0.060736 -0.030280 1036800.000000 0 0 1
-17.649073 -30.277870 10.195024 36.499010 1.043043 1.287707 0.055913 -0.039518 643273.000000 0 0 1
-17.100673 -30.197370 11.472024 36.550260 1.055527 1.251530 0.073860 -0.037957 -261991.000000 0 0 1
-15.798773 -30.991270 11.518324 36.643306 1.099354 1.251039 0.069688 -0.042424 -539118.000000 0 0 1
-14.643173 -30.398470 11.010024 35.492396 1.121889 1.255385 0.089589 -0.037339 -314689.000000 0 0 1
-13.623073 -31.353670 10.745024 35.834290 1.160909 1.266258 0.096562 -0.039316 175258.000000 0 0 1
-12.454873 -30.687770 10.005524 34.597307 1.185250 1.277406 0.116435 -0.031087 -148303.000000 0 0 1
-11.609973 -29.905670 10.803524 33.850506 1.200486 1.245960 0.114480 -0.038733 -131816.000000 0 0 1
-10.581873 -29.203970 10.103824 32.663974 1.223168 1.256312 0.123622 -0.038790 -19961.300000 0 0 1
-9.585673 -28.685270 11.101224 32.217496 1.248296 1.219014 0.116269 -0.034184 -538922.000000 0 0 1
-10.113873 -27.661870 11.923524 31.774832 1.220270 1.186129 0.087280 -0.039691 -81990.800000 0 0 1
-9.221473 -27.427170 13.025224 31.732345 1.246453 1.147825 0.081089 -0.024668 354066.000000 0 0 1
-9.419973 -26.043370 13.742224 30.916691 1.223734 1.110189 0.068718 -0.028991 218830.000000 0 0 1
-9.015373 -24.861370 13.049024 29.489688 1.222918 1.112418 0.048933 -0.023259 -27819.900000 0 0 1
-9.744973 -24.594370 11.803624 28.968485 1.193546 1.151121 0.045468 -0.021392 426711.000000 0 0 1
-9.383673 -23.317870 11.059424 27.460649 1.188202 1.156291 0.044645 -0.018625 289619.000000 0 0 1
-8.196173 -23.452370 10.280724 26.886506 1.234583 1.178431 0.037754 -0.021849 2751.370000 0 0 1
-7.816173 -22.182270 9.847724 25.497517 1.232019 1.174263 0.041694 -0.012547 -768752.000000 0 0 1
-6.704873 -22.144070 8.820124 24.761053 1.276787 1.206588 0.048595 -0.019731 -775315.000000 0 1 0
-5.472673 -22.468270 9.388624 24.958357 1.331875 1.185135 0.058495 -0.029960 -25717.500000 0 1 0
-4.471973 -22.694570 8.352824 24.592920 1.376239 1.224259 0.053793 -0.035084 583867.000000 0 1 0
-3.223373 -23.456170 8.798324 25.258515 1.434231 1.215006 0.064129 -0.039972 140102.000000 0 0 1
-2.417073 -22.689670 9.727224 24.804884 1.464669 1.167829 0.064977 -0.036538 -117155.000000 0 1 0
-1.397073 -23.541570 10.196124 25.692767 1.511521 1.162716 0.075609 -0.045202 523456.000000 0 0 1
-0.502073 -22.883170 11.312024 25.531421 1.548859 1.111784 0.073908 -0.044186 83431.200000 0 0 1
-1.098973 -22.956270 12.592424 26.206244 1.522960 1.069557 0.073262 -0.031088 -383446.000000 0 0 1
-0.285873 -22.791470 13.735624 26.612031 1.558254 1.028454 0.099119 -0.029023 -322281.000000 0 0 1
0.539227 -21.499770 13.947924 25.633484 -1.545721 0.995446 0.080335 -0.016987 875247.000000 0 0 1
1.710527 -21.357170 13.100224 25.113154 -1.490875 1.022015 0.079731 -0.023941 653744.000000 0 0 1
1.938127 -20.009070 12.784724 23.823694 -1.474235 1.004347 0.057756 -0.020694 219755.000000 0 1 0
3.451427 -19.700370 12.557024 23.615584 -1.397360 1.010159 0.064791 -0.029175 638562.000000 0 1 0
3.919227 -20.233870 11.324924 23.516457 -1.379469 1.068346 0.073033 -0.022636 -1015280.000000 0 1 0
5.306527 -20.112970 11.315824 23.679921 -1.312838 1.072573 0.105622 -0.029958 -504361.000000 0 1 0
5.943127 -20.812970 10.108124 23.888798 -1.292649 1.133897 0.112955 -0.031640 -679900.000000 0 1 0
5.747527 -20.140770 8.890824 22.753713 -1.292817 1.169359 0.089471 -0.032864 -304498.000000 0 1 0
6.021727 -21.043470 7.775224 23.228064 -1.292088 1.229473 0.086966 -0.036376 74902.700000 0 1 0
7.463227 -21.594670 7.608024 24.081353 -1.238042 1.249360 0.089611 -0.023539 16253.800000 0 1 0
8.454127 -20.793970 6.979624 23.506948 -1.184642 1.269333 0.089172 -0.031849 262923.000000 0 1 0
9.042927 -19.712570 7.711224 23.017883 -1.140699 1.229180 0.100306 -0.025158 -178920.000000 0 1 0
9.773927 -19.885070 9.048424 23.933651 -1.113955 1.183093 0.097324 -0.023483 -586156.000000 0 1 0
9.044227 -20.205070 10.172424 24.362289 -1.149922 1.140051 0.117866 -0.028432 -900867.000000 0 1 0
9.688227 -19.756670 11.363224 24.765109 -1.114876 1.094107 0.117030 -0.022198 224533.000000 0 1 0
8.933327 -20.243070 12.619024 25.472063 -1.155198 1.052494 0.145619 -0.025474 47725.100000 0 0 1
8.929427 -21.635570 12.891224 26.721082 -1.179373 1.067362 0.123042 -0.024912 1524.610000 0 0 1
8.263127 -21.859270 14.156924 27.322618 -1.209385 1.026122 0.158860 -0.025349 358613.000000 0 0 1
8.551227 -23.245070 14.835824 28.871412 -1.218289 1.031120 0.148758 -0.029549 -78643.200000 0 0 1
8.205327 -24.324370 13.958224 29.220445 -1.245454 1.072776 0.154408 -0.026912 -124191.000000 0 0 1
8.300727 -25.601170 14.600724 30.618673 -1.257259 1.073721 0.161233 -0.038937 165126.000000 0 0 1
8.455727 -26.758370 13.623424 31.194669 -1.264723 1.118844 0.171439 -0.045641 1247290.000000 0 0 1
9.786727 -26.805770 13.038324 31.373990 -1.220735 1.142219 0.144628 -0.032808 977666.000000 0 0 1
9.868927 -27.775270 12.051524 31.844946 -1.229396 1.182682 0.138665 -0.043861 381443.000000 0 0 1
11.304027 -28.066270 11.500224 32.368993 -1.187911 1.207577 0.131157 -0.038019 508889.000000 0 0 1
12.100427 -28.727470 12.462124 33.570708 -1.172136 1.190474 0.100449 -0.031118 -24090.100000 0 0 1
13.336227 -29.116670 11.875724 34.156526 -1.141287 1.215695 0.137797 -0.027986 480683.000000 0 0 1
14.305227 -29.765070 12.946124 35.471130 -1.122785 1.197189 0.106574 -0.037489 -12496.200000 0 0 1
15.073227 -28.819270 13.664324 35.276993 -1.088898 1.173048 0.094802 -0.029681 177588.000000 0 0 1
16.001427 -29.469270 14.524624 36.543786 -1.073353 1.162051 0.080015 -0.026904 1419500.000000 0 0 1
17.492227 -29.612470 14.015224 37.138968 -1.037240 1.183839 0.086246 -0.019509 567847.000000 0 0 1
18.223627 -28.459970 13.825024 36.513036 -1.001253 1.182478 0.072721 -0.022335 -410721.000000 0 0 1
19.350127 -28.712470 13.037724 36.997508 -0.977784 1.210668 0.060726 -0.019299 -664807.000000 0 0 1
20.013027 -27.444370 12.621224 36.235480 -0.940727 1.215027 0.035982 -0.020597 1473140.000000 0 0 1
21.401127 -27.637170 12.174824 37.014156 -0.911886 1.235633 0.034902 -0.023942 2160700.000000 0 0 1
22.096727 -26.380670 11.874924 36.403557 -0.873539 1.238513 0.029512 -0.015434 736299.000000 0 0 1
23.531627 -26.649470 11.347224 37.318778 -0.847450 1.261843 0.042308 -0.014165 -68582.000000 0 0 1
24.460927 -27.120970 12.249724 38.521938 -0.836922 1.247184 0.052966 -0.020018 -508938.000000 0 0 1
25.445227 -27.904170 11.623824 39.512221 -0.831457 1.272196 0.058942 -0.030642 -609178.000000 0 0 1
26.467327 -28.541670 12.605524 40.915102 -0.823089 1.257612 0.067349 -0.028872 922600.000000 0 0 1
27.542527 -27.674370 13.057124 41.169771 -0.787786 1.248070 0.059099 -0.029144 1349800.000000 0 0 1
28.624827 -27.529670 12.104824 41.518553 -0.765898 1.274947 0.039825 -0.027842 193523.000000 0 0 1
29.862527 -26.818170 12.711024 42.101721 -0.731739 1.264098 0.051775 -0.034828 -268580.000000 0 0 1
29.964927 -25.413370 13.028724 41.394249 -0.703392 1.250606 0.054937 -0.035450 -124057.000000 0 0 1
29.157827 -24.980970 14.091324 40.899794 -0.708400 1.219055 0.059079 -0.029063 -177601.000000 0 0 1
29.985927 -25.006370 15.401424 41.972351 -0.695094 1.195077 0.035639 -0.021079 125631.000000 0 0 1
30.224727 -26.277170 15.942524 43.106703 -0.715646 1.191961 0.038493 -0.021270 -229928.000000 0 0 1
31.043827 -25.990770 17.051724 43.931772 -0.697033 1.172183 0.049761 -0.006166 -107128.000000 0 0 1
31.548227 -27.159270 17.861624 45.298501 -0.710777 1.165480 0.047820 0.008991 -448210.000000 0 0 1
30.467827 -27.946970 18.251524 45.193360 -0.742271 1.155070 0.034554 -0.001964 -584813.000000 0 0 1
30.861227 -28.993770 19.153124 46.474683 -0.754209 1.146017 0.051745 -0.010735 -513302.000000 0 0 1
29.715527 -29.762170 19.736524 46.457827 -0.786182 1.132026 0.044891 -0.000574 -1349180.000000 0 0 1
28.849627 -28.960470 20.552124 45.753684 -0.787316 1.104937 0.041700 -0.000195 568361.000000 0 0 1
27.625627 -29.530870 20.985924 45.559374 -0.818720 1.092094 0.048803 -0.004570 1125160.000000 0 0 1
26.626627 -30.126770 19.917324 44.869804 -0.846993 1.110860 0.066982 -0.011628 -714766.000000 0 0 1
27.079027 -31.347070 19.360724 45.724721 -0.858319 1.133580 0.059065 -0.008401 -364414.000000 0 0 1
26.417027 -31.864670 18.245424 45.233970 -0.878598 1.155614 0.074446 -0.008286 -410423.000000 0 0 1
26.676727 -31.015570 16.988024 44.296798 -0.860463 1.177208 0.069048 -0.005511 360793.000000 0 0 1
28.033727 -31.026570 16.561024 44.975609 -0.836029 1.193700 0.061221 -0.011858 315618.000000 0 0 1
28.396527 -29.928070 15.708324 44.145255 -0.811651 1.206991 0.060851 -0.025367 3799.200000 0 0 1
29.853227 -30.080670 15.208824 45.026328 -0.789193 1.226243 0.067951 -0.021400 -147378.000000 0 0 1
30.181327 -31.061370 14.221124 45.584664 -0.799767 1.253529 0.090478 -0.014643 27429.500000 0 0 1
30.226727 -32.416870 14.700224 46.696949 -0.820346 1.250550 0.093337 -0.023731 138782.000000 0 0 1
29.193227 -33.450770 14.087124 46.579455 -0.853258 1.263553 0.085178 -0.029663 423772.000000 0 0 1
29.498227 -33.729670 12.780524 46.595899 -0.852222 1.292951 0.085864 -0.026411 210857.000000 0 0 1
28.761727 32.807967 12.307024 45.332797 0.851022 1.295864 0.075396 -0.035074 -103071.000000 0 0 1
29.140027 32.489967 10.853124 44.972541 0.839700 1.327062 0.092998 -0.037594 -29135.200000 0 0 1
30.412327 31.868367 10.832924 45.363583 0.808773 1.329664 0.064607 -0.031336 241982.000000 0 0 1
30.657527 31.221067 9.593224 44.795858 0.794505 1.354970 0.065129 -0.039615 16979.300000 0 0 1
32.113627 30.699167 9.653124 45.463246 0.762883 1.356840 0.047016 -0.031190 165049.000000 0 0 1
32.344027 29.613967 10.557624 45.106391 0.741364 1.334544 0.041389 -0.023780 1051140.000000 0 0 1
33.763327 29.423767 10.749124 46.057182 0.716828 1.335237 0.037480 -0.019020 1215190.000000 0 0 1
34.188427 28.596267 11.993724 46.156738 0.696564 1.307932 0.037182 -0.008567 21256.000000 0 0 1
33.850427 27.195567 11.844124 45.008150 0.676813 1.304505 0.036341 -0.008564 263362.000000 0 0 1
34.197827 26.418567 12.963724 45.116407 0.657760 1.279348 0.049438 -0.018332 -117416.000000 0 0 1
34.004427 24.941667 12.643924 44.025636 0.632846 1.279500 0.045507 -0.020540 698510.000000 0 0 1
34.977327 24.425167 11.673724 44.229832 0.609594 1.303699 0.047919 -0.006239 616702.000000 0 0 1
35.162627 23.031667 11.574324 43.598543 0.579885 1.302100 0.060462 -0.008091 -43826.200000 0 0 1
33.978627 22.154167 11.040824 42.038720 0.577782 1.305045 0.047684 -0.002871 314877.000000 0 0 1
32.831327 22.141567 11.848824 41.334485 0.593340 1.280061 0.075279 -0.023310 -217495.000000 0 0 1
31.679427 22.447767 11.088624 40.378781 0.616469 1.292607 0.070809 -0.016409 74290.900000 0 0 1
30.342827 22.255167 11.846624 39.450248 0.632829 1.265797 0.068094 -0.018373 234905.000000 0 0 1
30.016027 23.147867 12.950124 40.056102 0.656921 1.241582 0.075484 -0.012327 -475506.000000 0 0 1
28.879327 22.666567 13.589024 39.146524 0.665448 1.216285 0.131348 -0.032077 -772207.000000 0 0 1
25.103027 10.043767 25.844785 37.403103 0.380594 0.807953 0.042324 0.001940 -347064.000000 0 0 1
24.976827 8.623067 25.912935 37.009180 0.332430 0.795153 0.044884 -0.005118 146945.000000 0 0 1
23.628127 8.230467 25.758755 35.910200 0.335189 0.770862 0.056681 -0.007071 11538.700000 0 0 1
23.384827 6.870867 26.499605 36.004000 0.285775 0.743627 0.069690 -0.010132 -116213.000000 0 0 1
23.470127 6.840767 27.923155 37.112606 0.283610 0.719113 0.069583 0.002310 884387.000000 0 0 1
24.807527 6.637467 28.428705 38.310059 0.261435 0.734645 0.051459 -0.003525 747442.000000 0 0 1
24.860327 6.632267 29.990305 39.515076 0.260709 0.709084 0.067524 -0.004783 -430707.000000 0 0 1
25.133427 7.891967 30.617635 40.390740 0.304253 0.710500 0.092437 -0.012079 290428.000000 0 0 1
24.816927 7.834867 32.012824 41.256344 0.305803 0.682578 0.104518 -0.010024 -61183.700000 0 0 1
24.897627 9.171067 32.844222 42.222544 0.352929 0.679506 0.132701 -0.021365 -211943.000000 0 0 1
26.174427 9.767367 32.815963 43.097442 0.357160 0.705270 0.117798 -0.021503 -217890.000000 0 0 1
26.357627 10.303567 -33.551946 43.893292 0.372649 2.440903 0.136254 -0.016971 496823.000000 0 0 1
27.660027 11.154367 -33.400806 44.778464 0.383319 2.412700 0.119378 -0.017286 420892.000000 0 0 1
27.518527 12.391167 33.670385 45.216205 0.423091 0.730781 0.118204 -0.027259 306252.000000 0 0 1
27.189227 13.317867 -32.983636 44.772088 0.455472 2.398975 0.127286 -0.031102 91625.600000 0 0 1
26.587327 14.676967 -33.497636 45.214941 0.504399 2.405136 0.122111 -0.032949 408278.000000 0 0 1
27.598727 15.393367 33.424326 45.998164 0.508779 0.757371 0.100005 -0.028441 1023650.000000 0 0 1
27.378927 16.805067 33.314788 46.280569 0.550502 0.767219 0.117728 -0.038592 -166161.000000 0 0 1
28.039227 17.508167 -33.165466 46.826086 0.558180 2.357840 0.117476 -0.046028 -792058.000000 0 0 1
27.421927 17.242667 -31.893566 45.458456 0.561321 2.348434 0.132762 -0.046875 691592.000000 0 0 1
28.283927 16.775267 -30.832616 45.078158 0.535332 2.324003 0.120177 -0.043333 190638.000000 0 0 1
27.445627 16.180467 -29.670426 43.536239 0.532697 2.320622 0.136216 -0.040938 -91515.900000 0 0 1
26.747727 15.041467 -30.001346 42.915817 0.512272 2.344898 0.154117 -0.029293 -101469.000000 0 0 1
25.610927 14.799567 -29.207946 41.569831 0.523982 2.349874 0.179360 -0.036944 284912.000000 0 0 1
24.663327 13.666467 -29.700556 40.953328 0.506002 2.382164 0.161603 -0.034024 -118708.000000 0 0 1
23.946127 13.840567 -30.926286 41.489920 0.524077 2.411920 0.176277 -0.036701 747089.000000 0 0 1
23.288927 12.677567 -31.453206 41.138777 0.498503 2.441160 0.146073 -0.030594 251113.000000 0 0 1
22.368627 11.749467 -30.621216 39.699676 0.483655 2.451711 0.155390 -0.039818 -842331.000000 0 0 1
21.151427 12.379167 -30.361076 39.018221 0.529514 2.462472 0.172899 -0.036865 -50898.900000 0 0 1
20.357127 11.601467 -29.451746 37.635249 0.517991 2.469559 0.144252 -0.031359 345179.000000 0 0 1
19.086227 12.266467 -28.877486 36.724099 0.571217 2.475652 0.123109 -0.024349 45895.900000 0 0 1
18.074727 12.563667 -29.794146 37.043658 0.607427 2.505290 0.080239 -0.013329 -1159930.000000 0 0 1
16.908227 12.882967 -29.157606 36.083583 0.651096 2.511643 0.067244 -0.031238 -983309.000000 0 0 1
15.683827 12.956667 -30.114416 36.341927 0.690464 2.547472 0.056350 -0.029571 120945.000000 0 0 1
15.170527 11.717367 -30.573726 36.085929 0.657669 2.581579 0.053419 -0.010201 695510.000000 0 0 1
13.839627 11.531367 -30.055216 35.040315 0.694668 2.601639 0.064793 -0.019908 799586.000000 0 0 1
12.807227 11.064967 -31.102136 35.409058 0.712545 2.643231 0.074215 -0.016784 -254039.000000 0 0 1
12.426427 12.011267 -32.059526 36.421145 0.768411 2.647174 0.080616 -0.016589 18749.300000 0 0 1
11.542127 11.333267 -32.936906 36.694733 0.776268 2.685073 0.097135 -0.009821 -417990.000000 0 0 1
11.078427 12.183367 33.597500 37.416013 0.832863 0.455720 0.109761 -0.010509 -522390.000000 0 0 1
11.965527 12.589467 32.570388 36.912040 0.810803 0.489903 0.081058 0.001308 -135814.000000 0 0 1
11.333027 12.939367 31.314735 35.727823 0.851482 0.502294 0.097121 -0.014485 -278885.000000 0 0 1
12.221927 12.881067 30.050155 34.904286 0.811650 0.533701 0.082247 -0.008827 -308045.000000 0 0 1
12.472127 11.560367 29.683325 34.209587 0.747478 0.520259 0.085945 -0.011434 -102310.000000 0 0 1
12.348327 11.371567 28.299595 32.903811 0.744242 0.535389 0.105453 -0.004705 -272549.000000 0 0 1
12.931927 10.063867 27.810255 32.278885 0.661318 0.532458 0.111222 -0.015181 -239352.000000 0 0 1
12.290327 8.892667 28.252555 32.067718 0.626357 0.492766 0.109817 -0.031398 245366.000000 0 0 1
12.871127 7.717467 27.659315 31.468443 0.540122 0.497132 0.096169 -0.031160 271398.000000 0 0 1
11.951227 6.465367 27.895825 31.029177 0.495891 0.453272 0.093402 -0.026662 415777.000000 0 0 1
10.683127 6.513067 27.264305 29.998193 0.547492 0.430242 0.079603 -0.030867 561373.000000 0 0 1
9.739627 5.518167 27.739325 29.912885 0.515475 0.383563 0.077155 -0.037183 411693.000000 0 0 1
9.972227 4.125867 27.044835 29.118571 0.392291 0.379681 0.077033 -0.029083 -663299.000000 0 0 1
11.107027 3.528967 27.590855 29.951209 0.307637 0.399660 0.077642 -0.026176 -85169.500000 0 0 1
11.062427 2.137767 27.357225 29.586570 0.190893 0.390681 0.075811 -0.019577 -247751.000000 0 0 1
11.819827 1.260367 28.383375 30.771949 0.106230 0.396604 0.045899 -0.014028 -61453.900000 0 0 1
11.031327 1.161767 29.530155 31.544729 0.104928 0.359321 0.045690 -0.018626 67241.900000 0 0 1
11.261127 -0.037633 30.210055 32.240686 -0.003342 0.356808 0.056648 -0.021820 23812.900000 0 0 1
10.164627 -0.221233 31.282105 32.892836 -0.021762 0.314242 0.073108 -0.016323 62212.300000 0 0 1
10.259527 0.734267 32.370061 33.964951 0.071447 0.307666 0.067323 -0.018493 445597.000000 0 0 1
8.949127 0.948767 32.883484 34.092676 0.105623 0.267131 0.084566 -0.026294 108482.000000 0 0 1
8.906127 2.259867 33.711515 34.941270 0.248498 0.266095 0.078166 -0.029578 -210020.000000 0 0 1
9.015127 3.518967 32.969398 34.360397 0.372151 0.285513 0.070386 -0.027323 1418460.000000 0 0 1
10.266027 3.678867 32.217352 34.012985 0.344097 0.326385 0.067468 -0.027145 1026930.000000 0 0 1
10.401227 4.980767 31.347955 33.401914 0.446596 0.352514 0.071917 -0.030214 32423.100000 0 0 1
10.616227 6.154167 32.132508 34.395874 0.525355 0.364796 0.078044 -0.033707 -6062.880000 0 0 1
10.837827 7.300867 31.291305 33.910278 0.592819 0.395595 0.082507 -0.031231 -134011.000000 0 0 1
11.009327 8.592267 32.147176 35.049583 0.662708 0.409823 0.103928 -0.034201 689572.000000 0 0 1
9.830627 9.054967 32.838835 35.454517 0.744350 0.386526 0.113296 -0.035794 673851.000000 0 0 1
9.301627 8.248167 -33.761516 35.977666 0.725443 2.788773 0.104922 -0.038737 -166157.000000 0 0 1
7.871927 8.704667 -33.415036 35.416142 0.835592 2.803827 0.109927 -0.039219 -83567.900000 0 0 1
7.340927 7.967367 -32.308456 34.076450 0.826297 2.818056 0.114493 -0.028896 417630.000000 0 0 1
6.012027 8.412467 -32.025896 33.653708 0.950301 2.829296 0.101272 -0.029020 704745.000000 0 0 1
5.453027 7.863367 -30.669416 32.127576 0.964465 2.839156 0.100294 -0.018277 -384291.000000 0 0 1
6.007927 8.563167 -29.557016 31.353472 0.958997 2.801438 0.110388 -0.027920 210264.000000 0 0 1
5.599927 8.139367 -28.238686 29.917083 0.968166 2.805039 0.107291 -0.022057 203922.000000 0 0 1
4.089327 8.195667 -27.898486 29.363533 1.107979 2.824374 0.084681 -0.023270 7913.330000 0 0 1
3.265227 7.340767 -28.634186 29.739959 1.152269 2.868045 0.057919 -0.013850 -105107.000000 0 0 1
1.905827 7.388567 -28.226506 29.239677 1.318356 2.877575 0.075283 -0.004543 504554.000000 0 0 1
0.984927 6.508467 -29.120566 29.855277 1.420606 2.919283 0.075042 -0.020642 -163453.000000 0 0 1
0.707627 7.123767 -30.343016 31.176071 1.471788 2.909900 0.063402 -0.023175 -221645.000000 0 0 1
0.090327 6.331967 -31.299756 31.933943 1.556532 2.941966 0.096175 -0.023166 -607176.000000 0 0 1
-0.101873 7.117467 -32.610326 33.378168 -1.556484 2.926683 0.111435 -0.028824 946155.000000 0 0 1
1.111927 7.770767 -33.103866 34.021863 1.428670 2.908763 0.080537 -0.017428 971621.000000 0 0 1
1.942527 6.933267 33.794805 34.553328 1.297626 0.209919 0.085605 -0.025640 -97717.200000 0 0 1
1.501927 6.765567 32.314195 33.048992 1.352343 0.211265 0.110559 -0.032551 778912.000000 0 0 1
0.292027 5.982567 32.072313 32.626824 1.522022 0.184629 0.111998 -0.033645 784183.000000 0 0 1
-0.054273 5.712267 30.717495 31.244159 -1.561295 0.183869 0.133456 -0.038471 -67578.600000 0 0 1
0.800427 4.713167 29.928205 30.307624 1.402574 0.158399 0.142726 -0.036874 -62333.600000 0 0 1
0.819927 5.104067 28.546665 29.010961 1.411515 0.179148 0.139313 -0.034937 408129.000000 0 0 1
1.743927 4.300667 27.787255 28.172124 1.185556 0.165484 0.120723 -0.035439 246826.000000 0 0 1
1.879727 4.797867 26.340395 26.839697 1.197393 0.193189 0.124167 -0.031565 -35855.800000 0 0 1
2.637627 5.972167 26.217085 27.017761 1.154905 0.244060 0.122030 -0.035544 -81073.700000 0 0 1
2.671927 6.417767 24.850785 25.804814 1.176290 0.272768 0.110015 -0.028816 -825946.000000 0 0 1
3.491227 7.705067 24.577805 25.992792 1.145361 0.331478 0.109225 -0.032259 1184400.000000 0 0 1
4.920927 7.501067 24.620255 26.203788 0.990194 0.349428 0.086872 -0.025739 689998.000000 0 0 1
5.432627 6.938167 23.430175 25.032473 0.906504 0.359732 0.069497 -0.021653 -529319.000000 0 0 1
6.941627 6.596067 23.557525 25.429339 0.759878 0.386082 0.089745 -0.022300 146353.000000 0 0 1
7.431627 5.457967 24.321095 26.010270 0.633458 0.362375 0.098521 -0.025383 51369.300000 0 0 1
6.929427 4.159667 24.105175 25.423990 0.540633 0.323505 0.107653 -0.025967 -842530.000000 0 0 1
6.742027 3.594067 22.690935 23.942656 0.489763 0.324783 0.088347 -0.024883 489004.000000 0 1 0
5.824027 4.236667 21.801185 22.959972 0.628910 0.319062 0.052636 -0.024950 367772.000000 0 1 0
4.460227 3.997067 22.095985 22.893290 0.730688 0.264693 0.059725 -0.018473 -120252.000000 0 1 0
3.359127 4.470867 21.142685 21.869740 0.926440 0.258575 0.029603 -0.009509 139837.000000 0 1 0
3.099627 5.906367 21.194585 22.219435 1.087511 0.304903 0.030692 -0.016164 -433301.000000 0 1 0
1.815027 6.073267 20.667585 21.617770 1.280390 0.297589 0.025515 -0.008266 -341013.000000 0 1 0
1.421627 7.555467 20.639785 22.025141 1.384812 0.356566 0.037230 -0.000669 377634.000000 0 1 0
2.283427 8.300067 19.751185 21.545637 1.302328 0.411020 0.029614 -0.013407 276090.000000 0 1 0
1.984827 9.694367 19.837885 22.168942 1.368847 0.462701 0.053638 -0.020931 -367586.000000 0 1 0
3.120227 10.595667 19.372985 22.300595 1.284410 0.518183 0.070305 -0.030125 -864268.000000 0 1 0
3.079627 10.879067 17.968585 21.229891 1.294935 0.561643 0.046292 -0.026197 -311781.000000 0 1 0
4.078927 11.717267 17.507885 21.458286 1.235804 0.616507 0.056058 -0.025608 1059260.000000 0 1 0
5.622527 11.347367 17.614285 21.694206 1.110762 0.623337 0.059297 -0.031557 1060590.000000 0 1 0
5.956227 10.120067 17.001985 20.663008 1.038834 0.604437 0.050113 -0.025997 -1291550.000000 0 1 0
7.222327 9.679967 17.272485 21.076112 0.929789 0.610208 0.047081 -0.020888 -1084530.000000 0 1 0
7.177727 8.244767 17.799785 20.888473 0.854475 0.550746 0.048682 -0.020094 -173457.000000 0 1 0
6.771627 8.031667 19.100085 21.798529 0.870312 0.502856 0.057089 -0.024770 -183390.000000 0 1 0
6.731827 6.684067 19.478385 21.665681 0.781838 0.453217 0.054160 -0.034175 -335859.000000 0 1 0
8.075627 6.078867 19.887385 22.308663 0.645254 0.470229 0.090206 -0.027920 -226812.000000 0 1 0
8.978227 5.933867 18.792785 21.656133 0.584012 0.520076 0.070107 -0.024915 -526355.000000 0 1 0
10.260327 5.587467 19.230285 22.501066 0.498665 0.545941 0.085721 -0.023650 -374437.000000 0 1 0
10.658327 4.107367 19.187685 22.330196 0.367828 0.536954 0.105624 -0.025233 -462516.000000 0 1 0
10.084427 3.358267 20.223485 22.846509 0.321464 0.483896 0.114912 -0.030897 101683.000000 0 1 0
10.428327 2.034567 20.066085 22.705445 0.192680 0.486966 0.106675 -0.041412 -458199.000000 0 1 0
9.671627 1.086967 20.957485 23.107100 0.111918 0.434759 0.108844 -0.035169 -284545.000000 0 1 0
9.901527 1.176867 22.379085 24.499974 0.118302 0.419155 0.095921 -0.030198 475992.000000 0 1 0
9.141627 0.196067 23.113865 24.856761 0.021444 0.376703 0.105537 -0.032733 -261609.000000 0 1 0
9.470327 0.185867 24.620765 26.379987 0.019624 0.367267 0.108780 -0.025004 548841.000000 0 0 1
10.791727 -0.279933 24.937495 27.173855 -0.025934 0.408540 0.099177 -0.027825 787739.000000 0 0 1
10.913927 -1.688033 24.791075 27.139651 -0.153452 0.419081 0.092286 -0.026808 -819608.000000 0 0 1
12.337527 -2.165633 25.026935 27.986640 -0.173762 0.464053 0.080805 -0.025514 -499977.000000 0 0 1
12.591827 -3.489233 24.659295 27.907162 -0.270320 0.487260 0.075388 -0.015756 -198804.000000 0 0 1
13.923027 -3.873733 24.879405 28.772231 -0.271362 0.526240 0.087620 -0.012808 -265630.000000 0 0 1
13.942027 -5.388933 25.125985 29.235866 -0.368836 0.536656 0.102423 -0.018093 -133251.000000 0 0 1
13.773627 -6.153633 23.951575 28.306500 -0.420164 0.562075 0.128704 -0.029188 233021.000000 0 0 1
13.570227 -7.477333 24.311735 28.829187 -0.503618 0.567397 0.156510 -0.037938 -179788.000000 0 0 1
13.429527 -8.314833 23.065655 27.955556 -0.554378 0.600447 0.173609 -0.046970 428139.000000 0 0 1
12.824127 -9.635633 23.182795 28.191233 -0.644376 0.605284 0.180414 -0.037314 -30507.100000 0 0 1
12.905527 -10.247433 21.916885 27.421020 -0.671093 0.644712 0.185170 -0.047407 209490.000000 0 0 1
12.198427 -11.642733 21.794885 27.556703 -0.762094 0.658501 0.200618 -0.039301 1365600.000000 0 0 1
10.764027 -11.528733 21.858385 26.954869 -0.819688 0.625065 0.177321 -0.036793 553708.000000 0 0 1
10.117327 -12.784133 21.935285 27.330406 -0.901323 0.639161 0.166533 -0.035102 1440150.000000 0 0 1
8.610227 -12.638133 22.438785 27.154327 -0.972738 0.598214 0.126578 -0.029447 1514230.000000 0 0 1
7.772227 -11.992133 21.510285 25.824623 -0.995751 0.586402 0.119501 -0.032886 1379550.000000 0 0 1
6.356927 -12.067133 21.885085 25.787268 -1.085942 0.557316 0.069101 -0.027701 1952710.000000 0 0 1
5.438027 -11.034133 21.232385 24.538509 -1.112896 0.525112 0.047060 -0.021740 -61240.300000 0 1 0
5.579127 -9.775433 21.806085 24.539582 -1.052177 0.476494 0.058342 -0.020971 -549935.000000 0 1 0
4.957027 -8.782333 21.078585 23.366819 -1.056941 0.446247 0.042957 -0.018261 -127167.000000 0 1 0
5.278427 -7.398133 21.767885 23.588874 -0.951080 0.395503 0.053026 -0.024118 527204.000000 0 1 0
4.554127 -6.269433 21.258985 22.627203 -0.942570 0.349535 0.029412 -0.020803 79188.700000 0 1 0
5.032127 -5.196233 22.057785 23.213553 -0.801441 0.316882 0.055111 -0.023818 294842.000000 0 1 0
-8.583673 -15.287133 -20.373176 26.878284 1.059169 2.431006 0.110679 -0.016116 -40878.300000 0 0 1
-7.924973 -14.719333 -19.240376 25.488351 1.076898 2.426251 0.085776 -0.017370 -74352.400000 0 0 1
-7.063973 -13.732233 -19.783276 25.096851 1.095689 2.478800 0.086967 -0.022445 -256925.000000 0 0 1
-6.171573 -13.084433 -18.760876 23.690951 1.130066 2.484711 0.062150 -0.019969 70896.400000 0 1 0
-5.122673 -13.912133 -18.274376 23.531724 1.217986 2.460023 0.060675 -0.012494 249824.000000 0 1 0
-4.334573 -13.301733 -17.272176 22.227296 1.255782 2.460794 0.042854 -0.011529 389171.000000 0 1 0
-3.381573 -14.283233 -16.506776 22.088898 1.338325 2.414768 0.043850 -0.010007 749314.000000 0 1 0
-2.225173 -14.632533 -17.276076 22.749181 1.419882 2.433210 0.045035 -0.008098 349490.000000 0 1 0
-1.251873 -15.284333 -16.462576 22.498765 1.489073 2.391624 0.054110 -0.006922 196268.000000 0 1 0
-0.002773 -15.715533 -17.243076 23.330273 1.570620 2.402509 0.053564 -0.004401 -92544.700000 0 1 0
-0.319473 -16.594533 -18.273676 24.686187 1.551547 2.404222 0.096239 -0.020740 -277057.000000 0 1 0
-0.550373 -17.962233 -17.989576 25.427732 1.540165 2.356720 0.078462 -0.013051 -405447.000000 0 0 1
-0.801173 -18.636533 -19.301676 26.842446 1.527833 2.373264 0.098101 -0.021809 258013.000000 0 0 1
-1.979673 -18.145033 -19.934176 27.028368 1.462123 2.400199 0.122069 -0.025163 3128.000000 0 0 1
-1.996873 -18.390033 -21.313376 28.221283 1.462636 2.426791 0.139334 -0.029391 -182052.000000 0 0 1
-2.966673 -17.506433 -22.099576 28.349032 1.402929 2.464748 0.156967 -0.038800 -222509.000000 0 0 1
-2.714573 -16.061233 -22.096376 27.451447 1.403365 2.506347 0.145495 -0.035014 -218446.000000 0 0 1
-2.846373 -15.366933 -20.885176 26.085150 1.387645 2.499182 0.135914 -0.022563 -202721.000000 0 0 1
-2.011373 -14.098833 -20.742076 25.160613 1.429090 2.539914 0.105488 -0.022225 -7195.420000 0 0 1
-2.407573 -13.147933 -21.719276 25.502774 1.389689 2.589910 0.097873 -0.031652 254706.000000 0 0 1
-1.459973 -12.097633 -21.793476 24.968777 1.450695 2.631766 0.056549 -0.012217 158191.000000 0 1 0
-1.874573 -11.144533 -22.871776 25.511424 1.404151 2.682671 0.065269 -0.009427 832478.000000 0 0 1
-3.109573 -10.426833 -22.611776 25.093439 1.280966 2.693103 0.067970 -0.020940 958545.000000 0 0 1
-3.382773 -9.762933 -23.809476 25.954752 1.237251 2.732157 0.080476 -0.022077 -34489.800000 0 0 1
-4.332773 -8.530633 -23.677376 25.537477 1.100843 2.757562 0.058175 -0.026885 -462947.000000 0 0 1
-5.665373 -8.927733 -23.589276 25.850625 1.005337 2.720206 0.068815 -0.029330 -626200.000000 0 0 1
-6.488873 -7.813533 -23.504376 25.604930 0.877753 2.733710 0.067342 -0.031632 141719.000000 0 0 1
-8.026173 -8.156433 -23.491976 26.130821 0.793447 2.688309 0.058717 -0.035625 984231.000000 0 0 1
-8.719273 -8.467633 -24.699676 27.528177 0.770758 2.684299 0.058423 -0.038280 265694.000000 0 0 1
-8.838373 -7.428433 -25.644466 28.123604 0.698938 2.718561 0.055674 -0.036268 -278120.000000 0 0 1
-9.997173 -7.811933 -26.599696 29.470555 0.663305 2.696534 0.054936 -0.033974 151405.000000 0 0 1
-10.555673 -6.649533 -27.206006 29.930006 0.562150 2.711645 0.068900 -0.040834 123809.000000 0 0 1
-11.569373 -7.083033 -28.114016 31.215663 0.549358 2.692032 0.087138 -0.036790 41727.200000 0 0 1
-12.277973 -5.915333 -28.829236 31.888315 0.448969 2.699993 0.070459 -0.039654 -158642.000000 0 0 1
-11.406173 -5.020233 -29.496946 32.021451 0.414618 2.741852 0.039710 -0.030733 77567.400000 0 0 1
-12.029773 -4.455733 -30.634516 33.212085 0.354725 2.745021 0.065744 -0.037610 56643.100000 0 0 1
-11.129873 -3.444133 -31.395786 33.487781 0.300103 2.786256 0.056847 -0.033560 115007.000000 0 0 1
-10.220473 -4.030333 -32.309306 34.126132 0.375617 2.813819 0.050728 -0.024672 331655.000000 0 0 1
-9.513173 -3.038733 -33.052736 34.528506 0.309180 2.848169 0.049978 -0.017109 487971.000000 0 0 1
-8.375473 -3.575733 33.665875 34.875859 0.403503 0.264184 0.058255 -0.017551 -104780.000000 0 0 1
-7.185373 -3.779033 -33.334466 34.308852 0.484179 2.902696 0.064540 -0.023662 -313119.000000 0 0 1
-6.160973 -4.024433 33.356437 34.158536 0.578631 0.217136 0.069308 -0.027108 1340970.000000 0 0 1
-4.668173 -3.641733 33.655505 34.172315 0.662501 0.174137 0.094323 -0.039828 935576.000000 0 0 1
-4.594973 -2.180033 33.635475 34.017812 0.442990 0.150069 0.115090 -0.046320 535628.000000 0 0 1
-3.299473 -1.732933 -33.631666 33.837531 0.483616 3.031229 0.112381 -0.046476 443102.000000 0 0 1
-3.380073 -0.317333 -33.097966 33.271624 0.093609 3.039378 0.105699 -0.046495 -35262.000000 0 0 1
-3.893873 -0.276533 -31.767136 32.006088 0.070898 3.019321 0.101037 -0.047668 217844.000000 0 0 1
-4.436973 1.003367 -31.500126 31.826898 -0.222397 2.998172 0.133973 -0.045568 -635746.000000 0 0 1
-4.997273 1.051367 -30.041946 30.472883 -0.207364 2.973217 0.114399 -0.049460 312523.000000 0 0 1
-6.023173 0.152567 -29.700916 30.305879 -0.025325 2.941449 0.107099 -0.046899 -63358.100000 0 0 1
-7.307673 0.398967 -30.224436 31.097874 -0.054541 2.904025 0.117353 -0.047519 -592163.000000 0 0 1
-8.226973 -0.798833 -29.968196 31.087200 0.096796 2.872469 0.103297 -0.045157 -251949.000000 0 0 1
-8.534573 -1.053633 -28.610966 29.875349 0.122833 2.849620 0.088853 -0.045773 252141.000000 0 0 1
-9.330873 -2.243833 -28.569986 30.138747 0.235993 2.817527 0.044111 -0.026950 65271.500000 0 0 1
-9.667073 -2.753533 -27.200776 28.998560 0.277488 2.787624 0.035955 -0.030636 -363189.000000 0 0 1
-10.436973 -1.860333 -26.479806 28.523172 0.176392 2.760775 0.045376 -0.029209 -131462.000000 0 0 1
-10.624473 -2.337333 -25.167366 27.417857 0.216546 2.733599 0.043251 -0.031279 -152449.000000 0 0 1
-11.549173 -1.476133 -24.324976 26.967885 0.127124 2.695171 0.059119 -0.038353 135110.000000 0 0 1
-10.897773 -0.284733 -23.858776 26.231350 0.026122 2.713001 0.058727 -0.035815 733276.000000 0 0 1
-11.820573 0.486267 -23.089376 25.943818 -0.041114 2.668089 0.070753 -0.036012 621867.000000 0 0 1
-11.222573 1.908867 -22.850176 25.528816 -0.168479 2.679393 0.091367 -0.044402 259114.000000 0 0 1
-11.142073 2.805967 -23.922276 26.538548 -0.246705 2.693826 0.075480 -0.039360 -634882.000000 0 0 1
-10.355973 3.834167 -23.560276 26.019870 -0.354589 2.703288 0.096030 -0.036785 -1360220.000000 0 0 1
-10.407073 4.933167 -24.577776 27.142409 -0.442649 2.703381 0.124024 -0.044219 405784.000000 0 0 1
-11.596673 5.721867 -24.567776 27.763253 -0.458358 2.657081 0.110094 -0.047174 130098.000000 0 0 1
-12.669573 5.141167 -25.290766 28.750174 -0.385486 2.645972 0.089525 -0.049707 -719609.000000 0 0 1
-13.968673 5.916867 -25.201596 29.415193 -0.400668 2.599739 0.067920 -0.035715 -512228.000000 0 0 1
-14.062073 7.089467 -25.971366 30.372920 -0.466966 2.596507 0.083349 -0.041508 323209.000000 0 0 1
-15.391373 7.603267 -25.946816 31.111755 -0.458832 2.557092 0.076951 -0.031842 295641.000000 0 0 1
-15.407273 9.134667 -26.087706 31.644820 -0.535168 2.539922 0.087291 -0.024976 -91291.300000 0 0 1
-15.027273 9.757367 -24.859576 30.643493 -0.575890 2.517085 0.138215 -0.042246 326676.000000 0 0 1
-15.066973 11.131167 -24.939976 31.191649 -0.636281 2.497379 0.122157 -0.033717 -248049.000000 0 0 1
-14.651073 11.656267 -23.575276 30.105085 -0.672047 2.470431 0.138963 -0.037938 302767.000000 0 0 1
-15.633273 11.427167 -22.569076 29.737898 -0.631198 2.432469 0.159273 -0.042166 530139.000000 0 0 1
-15.147873 11.980167 -21.352376 28.790735 -0.669156 2.406309 0.153378 -0.042725 256253.000000 0 0 1
-16.254173 11.956467 -20.265276 28.597844 -0.634217 2.358350 0.154704 -0.048817 804208.000000 0 0 1
-17.364773 12.830667 -20.534176 29.796203 -0.636353 2.331117 0.135715 -0.048031 927955.000000 0 0 1
-18.264673 12.851567 -19.411176 29.589775 -0.613158 2.286316 0.132161 -0.041118 1014650.000000 0 0 1
-19.787273 13.007567 -19.751376 30.835853 -0.581539 2.265988 0.124256 -0.045095 719588.000000 0 0 1
-20.217873 14.298867 -20.185676 31.948106 -0.615568 2.254704 0.102984 -0.041147 244469.000000 0 0 1
-21.617273 14.397067 -20.341376 32.990205 -0.587540 2.235198 0.094310 -0.038547 23514.400000 0 0 1
-21.905773 15.795667 -20.892276 34.144592 -0.624730 2.229227 0.096447 -0.027357 -199591.000000 0 0 1
-21.711373 15.867867 -22.310476 34.941813 -0.631135 2.263349 0.091963 -0.023000 282586.000000 0 0 1
-21.726473 17.195067 -22.785576 35.873283 -0.669496 2.259023 0.087675 -0.006599 -162921.000000 0 0 1
-21.476173 17.232267 -24.344976 36.753978 -0.676197 2.294783 0.083639 0.000470 66693.200000 0 0 1
-20.123473 16.915767 -24.645576 36.034730 -0.699011 2.323945 0.086945 -0.018804 331091.000000 0 0 1
-19.902473 16.596167 -26.019936 36.722994 -0.695058 2.358232 0.075058 -0.021362 -208035.000000 0 0 1
-19.433373 17.822467 -26.831526 37.619504 -0.742186 2.364898 0.062346 -0.013232 28918.700000 0 0 1
-20.384673 18.897367 -26.819076 38.625228 -0.747554 2.338300 0.073017 -0.024308 609723.000000 0 0 1
-19.773373 20.164667 -27.208086 39.215813 -0.795195 2.337554 0.056737 -0.019186 -908149.000000 0 0 1
-20.661673 21.412667 -27.302496 40.383577 -0.803245 2.313225 0.093727 -0.017853 -352683.000000 0 0 1
-21.317373 21.774267 -26.099166 40.121261 -0.796001 2.279048 0.105766 -0.013783 598308.000000 0 0 1
-22.538973 21.025267 -26.027386 40.342186 -0.750666 2.272036 0.145471 -0.022330 -604150.000000 0 0 1
-23.413673 21.338367 -24.816476 40.241564 -0.739058 2.235324 0.147287 -0.004262 -103411.000000 0 0 1
-23.017073 20.637067 -23.653676 38.925192 -0.730932 2.223920 0.096657 0.002060 456329.000000 0 0 1
-23.883873 21.081267 -22.606676 39.063039 -0.723150 2.187958 0.092975 -0.011840 336888.000000 0 0 1
-23.545873 20.254967 -21.325476 37.675559 -0.710406 2.172478 0.077646 -0.008196 960970.000000 0 0 1
-22.220273 20.522667 -20.823776 36.722609 -0.745702 2.173724 0.080992 -0.011401 835765.000000 0 0 1
-21.674473 19.674467 -19.803276 35.341720 -0.737067 2.165589 0.082188 -0.016664 -410369.000000 0 0 1
-22.374773 19.475367 -18.483376 34.950759 -0.716228 2.128030 0.105186 -0.025032 -990971.000000 0 0 1
-23.377573 18.470767 -18.548876 35.096167 -0.668679 2.127648 0.137978 -0.031753 116694.000000 0 0 1
-23.998773 18.229367 -17.302276 34.750823 -0.649614 2.091967 0.104980 -0.029188 464655.000000 0 0 1
-25.077403 19.306467 -16.885276 35.870996 -0.656100 2.060906 0.080939 -0.022107 -277633.000000 0 0 1
-26.144403 19.341867 -17.795576 37.071824 -0.636947 2.071485 0.070676 -0.014669 315722.000000 0 0 1
-27.190513 20.231967 -17.448276 38.119533 -0.639703 2.046231 0.066898 -0.009881 1061350.000000 0 0 1
-28.617413 20.059367 -18.134276 39.372408 -0.611363 2.049449 0.039452 0.004819 1493990.000000 0 0 1
-29.347603 18.862267 -17.908476 39.214544 -0.571240 2.045055 0.042499 -0.006226 221476.000000 0 0 1
-29.936523 18.726067 -16.654676 39.041507 -0.558977 2.011514 0.044101 -0.016388 -702208.000000 0 0 1
-30.780343 17.453767 -16.389576 38.995919 -0.515834 2.004561 0.038726 -0.026968 14962.400000 0 0 1
-30.128273 16.234867 -16.025276 37.790121 -0.494249 2.008720 0.065181 -0.045513 24982.100000 0 0 1
-31.104543 15.245267 -15.717576 38.038835 -0.455720 1.996760 0.070110 -0.042514 141657.000000 0 0 1
-30.506443 13.879967 -15.255176 36.824135 -0.426992 1.997938 0.120573 -0.042063 -681554.000000 0 0 1
-29.727273 14.060167 -14.079176 35.771808 -0.441792 1.975322 0.133407 -0.045856 5534.250000 0 0 1
-30.442273 14.105667 -12.834976 35.922673 -0.433907 1.936166 0.095305 -0.029803 -167923.000000 0 0 1
-29.619653 14.582567 -11.643076 35.007661 -0.457491 1.909841 0.118409 -0.056643 -147354.000000 0 0 1
-29.468883 15.997167 -11.533476 35.459068 -0.497337 1.902085 0.102060 -0.044825 721653.000000 0 0 1
-30.693413 16.601867 -11.053276 36.604406 -0.495825 1.877550 0.066939 -0.031397 865347.000000 0 0 1
-30.792303 18.147867 -11.087176 37.422406 -0.532562 1.871582 0.136208 -0.010970 392294.000000 0 0 1
-29.828133 18.873667 -10.288876 36.766749 -0.564151 1.854426 0.061425 -0.033216 236344.000000 0 0 1
-29.722363 20.172067 -10.782376 37.504544 -0.596276 1.862407 0.020636 -0.028659 460645.000000 0 0 1
-28.462233 20.932467 -10.240676 36.785029 -0.634122 1.852916 0.105772 -0.033429 659703.000000 0 0 1
-28.428183 22.189867 -10.863276 37.663810 -0.662774 1.863380 0.092520 -0.035122 374310.000000 0 0 1
-27.186403 22.912767 -10.732276 37.138621 -0.700301 1.863956 0.089362 -0.021513 620145.000000 0 0 1
-27.241453 24.208767 -9.931576 37.772971 -0.726522 1.836852 0.114836 -0.005905 69608.800000 0 0 1
-27.252553 23.987667 -8.578076 37.305405 -0.721767 1.802814 0.107971 -0.015748 -340642.000000 0 0 1
-28.541373 24.146467 -8.054276 38.243081 -0.702177 1.782993 0.130798 -0.013195 -287504.000000 0 0 1
-28.635803 23.777167 -6.566576 37.795275 -0.692963 1.745423 0.139355 -0.016198 -107271.000000 0 0 1
-28.648093 22.413667 -6.339576 36.922567 -0.663904 1.743351 0.151930 -0.036617 7929.070000 0 0 1
-28.883473 22.197267 -4.974676 36.765760 -0.655243 1.706520 0.127654 -0.031020 -389024.000000 0 0 1
-29.059823 20.695767 -4.626276 35.974860 -0.618852 1.699751 0.138819 -0.039149 -92748.200000 0 0 1
-27.989763 19.797167 -4.799576 34.617779 -0.615609 1.709889 0.143114 -0.044370 -500507.000000 0 0 1
-27.366083 19.713367 -6.040876 34.263852 -0.624259 1.748027 0.130464 -0.040358 -990611.000000 0 0 1
-28.002883 19.009667 -7.233876 34.610083 -0.596388 1.781359 0.121247 -0.044098 -475692.000000 0 0 1
-27.602343 17.663067 -7.216176 33.555126 -0.569251 1.787544 0.120127 -0.043065 286108.000000 0 0 1
-27.853073 16.975367 -8.445476 33.693958 -0.547347 1.824151 0.087703 -0.047335 -108265.000000 0 0 1
-27.429843 15.505867 -8.460376 32.625238 -0.514508 1.833114 0.145427 -0.047818 -108364.000000 0 0 1
-28.324173 14.688467 -7.764376 32.837408 -0.478404 1.809506 0.146357 -0.043007 -127592.000000 0 0 1
-28.195543 13.323667 -8.186776 32.241775 -0.441443 1.827525 0.160504 -0.057836 -97007.800000 0 0 1
-29.251623 12.389567 -7.551576 32.652490 -0.400643 1.804180 0.138008 -0.056556 -546548.000000 0 0 1
-30.568173 12.870467 -7.758476 34.062532 -0.398513 1.800585 0.144287 -0.043294 -73692.200000 0 0 1
-31.501213 12.182267 -6.955576 34.483534 -0.369009 1.773897 0.154312 -0.049586 -216729.000000 0 0 1
-32.022833 10.823167 -7.489876 34.622262 -0.325929 1.788851 0.134065 -0.039009 -911153.000000 0 0 1
-31.019573 9.865967 -7.655776 33.438931 -0.307939 1.801793 0.150922 -0.035013 -134271.000000 0 0 1
-31.562463 8.643967 -8.132976 33.720210 -0.267314 1.814388 0.132341 -0.027968 45849.500000 0 0 1
-30.484483 7.546467 -8.376576 32.502614 -0.242672 1.831458 0.167110 -0.034812 386972.000000 0 0 1
-29.639903 7.753167 -9.512976 32.080090 -0.255846 1.871862 0.156049 -0.039685 505361.000000 0 0 1
-28.885063 6.579467 -9.759776 31.191176 -0.223960 1.889043 0.176995 -0.046377 -330968.000000 0 0 1
-28.299293 6.566767 -11.190676 31.132036 -0.228012 1.938484 0.155255 -0.029910 -369372.000000 0 0 1
-27.265653 7.502267 -11.355776 30.473817 -0.268510 1.952649 0.180026 -0.037477 203956.000000 0 0 1
-26.680493 7.444167 -12.627176 30.441910 -0.272092 1.998515 0.159546 -0.022608 -192954.000000 0 0 1
-32.699473 25.570367 33.784295 53.520817 -0.663657 0.887650 0.060480 -0.009320 -208241.000000 0 0 1
-33.200093 26.817267 33.531161 54.274771 -0.679447 0.904850 0.064271 -0.020284 409302.000000 0 0 1
-32.562413 27.432167 32.379788 53.490983 -0.700094 0.920614 0.076921 -0.030261 137016.000000 0 0 1
-33.149993 28.823067 32.195798 54.463388 -0.715692 0.938318 0.081190 -0.037637 -72187.200000 0 0 1
-32.943153 29.358567 30.929025 53.886746 -0.727926 0.959458 0.095233 -0.035268 148008.000000 0 0 1
-33.314633 30.710167 30.877595 54.830694 -0.744742 0.972610 0.099907 -0.030466 -317232.000000 0 0 1
-33.095663 31.398167 29.489795 54.321412 -0.759084 0.996938 0.109938 -0.030489 49513.000000 0 0 1
-31.726243 31.514667 29.179015 53.396102 -0.782053 0.992661 0.089076 -0.022615 -102480.000000 0 0 1
-31.437263 32.146567 27.971365 52.953759 -0.796553 1.014291 0.080305 -0.020320 -317315.000000 0 0 1
-30.009953 31.945367 27.469315 51.726850 -0.816627 1.010962 0.099497 -0.025583 -584868.000000 0 0 1
-29.762743 30.742667 26.772035 50.474492 -0.801592 1.011715 0.124371 -0.025091 631567.000000 0 0 1
-28.515553 30.768267 26.067835 49.389827 -0.823379 1.014791 0.090822 -0.018010 294366.000000 0 0 1
-28.631743 31.469567 24.677705 49.184342 -0.832580 1.045188 0.090794 -0.037402 -263102.000000 0 0 1
-28.755763 32.853467 24.672815 50.149696 -0.851812 1.056430 0.079263 -0.034407 328888.000000 0 0 1
-29.946503 33.306567 24.031035 50.829235 -0.838469 1.078354 0.091024 -0.027774 307035.000000 0 0 1
-30.288333 -32.886070 24.534905 50.998415 0.826495 1.068897 0.099014 -0.033324 7310.400000 0 0 1
-30.772293 -32.874570 25.877025 51.935458 0.818416 1.049213 0.102768 -0.038949 96010.700000 0 0 1
-31.031603 -31.587570 26.379305 51.542242 0.794276 1.033518 0.080739 -0.037442 -154122.000000 0 0 1
-31.443493 -31.709170 27.895195 52.652698 0.789605 1.012436 0.088889 -0.042950 634018.000000 0 0 1
-32.771163 -32.174070 28.168535 53.875656 0.776205 1.020613 0.093439 -0.044373 479288.000000 0 0 1
-32.878223 -32.447270 29.574505 54.849378 0.778801 1.001315 0.068539 -0.033870 -950905.000000 0 0 1
-34.310945 -32.771770 29.873265 56.068189 0.762458 1.008888 0.090247 -0.035342 -915756.000000 0 0 1
-34.531903 -33.345170 31.132615 57.215317 0.767916 0.995444 0.084285 -0.035050 -1376880.000000 0 0 1
-35.868366 -33.486170 31.394275 58.253445 0.751064 1.001635 0.094322 -0.039479 -1217990.000000 0 0 1
-36.216223 33.659467 32.877130 59.375755 -0.748824 0.983980 0.108551 -0.042125 -238428.000000 0 0 1
-35.768388 32.337867 33.053888 58.460882 -0.735071 0.969876 0.079888 -0.029876 5053.670000 0 0 1
-36.464173 31.722367 -33.554016 58.837203 -0.715968 2.177650 0.112887 -0.040334 32058.100000 0 0 1
-36.065783 30.306867 -33.097336 57.573262 -0.698849 2.183246 0.085899 -0.026969 157121.000000 0 0 1
-34.867645 30.399267 -32.348006 56.446980 -0.717042 2.181042 0.090339 -0.022214 -38205.000000 0 0 1
-34.422961 29.076867 -31.946906 55.235942 -0.701406 2.187528 0.065546 -0.022293 137333.000000 0 0 1
-33.671753 29.150567 -30.623856 54.049635 -0.713554 2.173155 0.054316 -0.015081 -271350.000000 0 0 1
-34.532843 29.509367 -29.583596 54.208017 -0.707118 2.148071 0.069649 -0.018841 -232870.000000 0 0 1
-34.695573 30.887967 -29.329656 54.937037 -0.727406 2.133976 0.069263 -0.015272 332792.000000 0 0 1
-35.924577 31.295067 -28.467396 55.500893 -0.716635 2.109377 0.073877 -0.019353 476846.000000 0 0 1
-35.635181 31.159067 -27.115106 54.552567 -0.718485 2.090987 0.064731 -0.029452 371438.000000 0 0 1
-36.873963 31.048467 -26.427676 54.973798 -0.699841 2.072286 0.114922 -0.033457 375061.000000 0 0 1
-36.703243 30.680667 -24.943976 53.950286 -0.696258 2.051441 0.113387 -0.034396 -282527.000000 0 0 1
-36.298493 31.719667 -24.147576 53.914964 -0.718182 2.035192 0.108951 -0.037169 -99046.800000 0 0 1
-36.186503 31.429067 -22.745276 53.052774 -0.715154 2.013882 0.100446 -0.035803 77207.500000 0 0 1
-37.494433 31.193367 -21.929776 53.476852 -0.693919 1.993338 0.085963 -0.032194 504678.000000 0 0 1
36.778936 32.234067 -21.707576 53.506486 0.719638 1.988541 0.087721 -0.035807 437190.000000 0 0 1
37.288096 33.380267 -20.982576 54.267051 0.730156 1.967797 0.090362 -0.039372 -110786.000000 0 0 1
37.315486 33.275167 -19.392176 53.625915 0.728225 1.940801 0.083708 -0.034290 -571546.000000 0 0 1
-36.986093 32.304567 -19.132476 52.703015 -0.717937 1.942308 0.069576 -0.037740 -612877.000000 0 0 1
-36.549533 32.235167 -17.789176 51.878986 -0.722757 1.920796 0.056382 -0.025320 400486.000000 0 0 1
-35.342766 31.248667 -17.585776 50.347292 -0.723995 1.927609 0.081243 -0.030370 387613.000000 0 0 1
-35.111489 31.031567 -16.266576 49.602181 -0.723793 1.904919 0.044799 -0.014370 -481637.000000 0 0 1
-33.934353 30.292367 -16.169776 48.276593 -0.728754 1.912338 0.073724 -0.020133 -624617.000000 0 0 1
-33.612093 30.000367 -14.707576 47.393118 -0.728682 1.886338 0.060092 -0.019077 290006.000000 0 0 1
-34.653970 29.282367 -14.012676 47.483784 -0.701580 1.870361 0.037338 -0.010630 672330.000000 0 0 1
-34.189022 29.000767 -12.707576 46.598457 -0.703476 1.846999 0.066535 -0.015470 57473.300000 0 0 1
-35.307946 28.347567 -11.890376 46.814706 -0.676486 1.827598 0.067162 -0.025115 -36958.400000 0 0 1
-34.918201 28.134167 -10.531976 46.062291 -0.678217 1.801483 0.087695 -0.019795 -238122.000000 0 0 1
-35.816780 27.295667 -9.952076 46.118749 -0.651195 1.788300 0.112052 -0.037998 -649709.000000 0 0 1
-35.059186 26.407867 -8.945676 44.794498 -0.645569 1.771853 0.131405 -0.026506 229611.000000 0 0 1
-34.475291 27.235967 -7.949776 44.649105 -0.668622 1.749801 0.129772 -0.019078 378248.000000 0 0 1
-33.391133 26.584467 -7.300876 43.301322 -0.672391 1.740212 0.115868 -0.023030 150645.000000 0 0 1
-32.730523 27.370067 -6.156176 43.108076 -0.696442 1.714094 0.136647 -0.021125 309735.000000 0 0 1
-31.655993 26.695167 -5.520176 41.775665 -0.700585 1.703322 0.150150 -0.014027 420452.000000 0 0 1
-31.196883 27.097767 -4.206876 41.535916 -0.715197 1.672253 0.154620 -0.010239 394225.000000 0 0 1
-30.311723 26.140867 -3.369876 40.168415 -0.711650 1.654789 0.149176 -0.012187 73321.200000 0 0 1
-30.978783 24.937467 -3.085776 39.888398 -0.677773 1.648234 0.133802 -0.014310 -81727.700000 0 0 1
-30.227683 24.142267 -2.226776 38.749457 -0.673936 1.628294 0.153729 -0.025195 480262.000000 0 0 1
-31.138603 22.954367 -1.742076 38.724029 -0.635238 1.615798 0.135310 -0.033857 509482.000000 0 0 1
-31.656963 22.117367 -2.773276 38.717338 -0.609824 1.642487 0.129582 -0.036558 -594661.000000 0 0 1
-32.518013 21.228067 -2.202076 38.896030 -0.578348 1.627441 0.121622 -0.036651 -654570.000000 0 0 1
-33.233783 20.373867 -3.264276 39.118209 -0.549958 1.654340 0.147544 -0.031805 306862.000000 0 0 1
-32.332573 19.459867 -3.958176 37.944023 -0.541790 1.675303 0.130129 -0.034194 201345.000000 0 0 1
-32.789153 18.797667 -5.101176 38.137945 -0.520548 1.704954 0.123303 -0.033917 -206194.000000 0 0 1
-31.690163 17.953667 -5.792676 36.880289 -0.515451 1.728516 0.103958 -0.051254 -57858.400000 0 0 1
-31.271853 16.877367 -4.967576 35.881069 -0.494900 1.709688 0.148968 -0.038625 -421445.000000 0 0 1
-30.636323 15.905467 -5.706576 34.987615 -0.478866 1.734631 0.144296 -0.057564 -689291.000000 0 0 1
-29.932033 14.936967 -4.776076 33.791278 -0.462871 1.712612 0.157347 -0.042743 -883954.000000 0 0 1
-30.834663 14.262767 -3.990776 34.207152 -0.433247 1.687728 0.171772 -0.044007 -334041.000000 0 0 1
-30.354043 13.039367 -3.492776 33.220363 -0.405740 1.676131 0.187777 -0.055326 2056.430000 0 0 1
-31.425313 12.207967 -2.738376 33.824303 -0.370532 1.651844 0.184059 -0.058519 346179.000000 0 0 1
-32.392093 11.515367 -3.520076 34.557811 -0.341566 1.672834 0.144916 -0.038308 369583.000000 0 0 1
-33.274633 10.775867 -2.700976 35.080134 -0.313188 1.647867 0.152170 -0.034885 -80326.500000 0 0 1
-34.404962 10.097467 -3.517376 36.028214 -0.285472 1.668580 0.114422 -0.026967 82455.600000 0 0 1
-33.943873 9.161467 -4.463976 35.440740 -0.263619 1.697088 0.123358 -0.029922 19814.600000 0 0 1
-35.038153 8.695267 -5.206976 36.474545 -0.243251 1.714042 0.130746 -0.026154 -64733.100000 0 0 1
-34.655283 7.707767 -6.351776 36.065820 -0.218850 1.747836 0.143831 -0.035623 -306229.000000 0 0 1
-33.966643 6.580567 -5.859676 35.090918 -0.191365 1.738568 0.151682 -0.033469 318750.000000 0 0 1
-33.696073 5.650567 -6.961076 34.868479 -0.166146 1.771785 0.148562 -0.032252 -451528.000000 0 0 1
-32.718383 4.566667 -6.514176 33.671673 -0.138679 1.765486 0.166591 -0.038741 -123118.000000 0 0 1
-31.393663 5.034867 -6.380376 32.428709 -0.159024 1.768839 0.161837 -0.042205 508155.000000 0 0 1
-30.464013 4.026967 -6.011476 31.311506 -0.131426 1.763985 0.166674 -0.041181 30085.700000 0 0 1
-29.026583 4.425167 -5.643776 29.899445 -0.151287 1.760694 0.212577 -0.048144 216769.000000 0 0 1
-28.189823 4.602767 -6.789876 29.359053 -0.161849 1.804179 0.202418 -0.042142 596783.000000 0 0 1
-26.786933 4.639067 -6.575076 27.969490 -0.171483 1.808098 0.230076 -0.052969 357573.000000 0 0 1
-26.074933 4.860167 -7.902376 27.676179 -0.184278 1.860356 0.224853 -0.046303 -374064.000000 0 0 1
-26.171593 3.862067 -8.886976 27.907816 -0.146510 1.894880 0.201433 -0.054896 43813.000000 0 0 1
-25.218453 4.155067 -9.859976 27.394417 -0.163296 1.938985 0.199509 -0.050252 -325181.000000 0 0 1
-25.506733 3.548967 -11.230776 28.094820 -0.138251 1.982035 0.171561 -0.050382 -966658.000000 0 0 1
-26.592713 4.112567 -11.831376 29.395018 -0.153435 1.985038 0.166794 -0.034594 -614882.000000 0 0 1
-26.982433 3.423867 -13.021076 30.154983 -0.126218 2.017289 0.151651 -0.038503 75954.100000 0 0 1
-27.935713 4.183167 -13.951176 31.504575 -0.148638 2.029549 0.133693 -0.026081 18916.900000 0 0 1
-27.237033 5.245467 -14.674376 31.380061 -0.190257 2.057408 0.104513 -0.019914 539995.000000 0 0 1
-27.995253 6.005867 -15.567576 32.590705 -0.211328 2.068796 0.143871 -0.021094 -282606.000000 0 0 1
-28.860183 5.419767 -16.709676 33.786052 -0.185632 2.088140 0.088079 -0.009553 -31065.600000 0 0 1
-30.077833 4.871267 -16.270776 34.541908 -0.160561 2.061271 0.104039 -0.017150 -186853.000000 0 0 1
-30.789343 4.266967 -17.337576 35.591884 -0.137709 2.079587 0.103501 -0.010522 -331520.000000 0 0 1
-32.068213 3.561167 -16.902276 36.424430 -0.110597 2.053343 0.099118 -0.017758 -667438.000000 0 0 1
-32.009833 2.497967 -15.959676 35.854993 -0.077880 2.032102 0.126590 -0.027023 157898.000000 0 0 1
-31.626723 1.262467 -16.490476 35.690044 -0.039897 2.051098 0.156308 -0.033264 -99861.100000 0 0 1
-31.581383 0.196167 -15.377576 35.126800 -0.006211 2.023917 0.160261 -0.029565 -229479.000000 0 0 1
-31.188613 -1.002033 -15.983776 35.060159 0.032117 2.044175 0.165223 -0.011064 290502.000000 0 0 1
-31.751263 -2.143033 -15.364176 35.338268 0.067392 2.020584 0.198392 -0.028091 45489.600000 0 0 1
-31.575133 -3.476733 -16.145076 35.633414 0.109668 2.041023 0.182202 -0.018058 382364.000000 0 0 1
-32.423873 -3.522333 -17.302276 36.919956 0.108210 2.058550 0.197418 -0.016848 626406.000000 0 0 1
-32.062403 -4.623133 -18.128276 37.121496 0.143205 2.080994 0.187668 -0.013575 251478.000000 0 0 1
-33.049983 -4.729733 -19.311576 38.569531 0.142143 2.095198 0.191123 -0.010884 155023.000000 0 0 1
-32.730403 -5.848533 -20.099476 38.851944 0.176822 2.114530 0.180852 -0.011743 822186.000000 0 0 1
-33.738213 -6.096233 -21.097576 40.255916 0.178763 2.122438 0.176269 -0.011578 385096.000000 0 0 1
-33.402503 -7.421933 -21.882076 40.615730 0.218645 2.139759 0.170804 -0.019404 -397436.000000 0 0 1
-32.256643 -7.095833 -22.602176 40.021247 0.216532 2.170932 0.152883 -0.017803 -504370.000000 0 0 1
-31.936733 -8.083633 -23.539976 40.489882 0.247907 2.191219 0.126354 -0.013428 -454979.000000 0 0 1
-30.652243 -7.897833 -24.346676 39.933650 0.252174 2.226451 0.093888 -0.007312 -835820.000000 0 0 1
-30.544033 -6.654133 -25.032376 40.047912 0.214502 2.246006 0.073715 -0.007415 47160.700000 0 0 1
-30.497273 -6.850133 -26.427426 40.931856 0.220948 2.272663 0.045102 -0.010144 294724.000000 0 0 1
-31.879383 -6.997933 -27.158146 42.459758 0.216086 2.264801 0.073074 -0.008139 476708.000000 0 0 1
-32.615073 -8.143033 -26.760426 42.967108 0.244669 2.243128 0.084831 -0.009853 729067.000000 0 0 1
-33.859403 -8.268733 -27.490956 44.391258 0.239520 2.238631 0.091419 -0.012536 1350190.000000 0 0 1
-34.851440 -9.303333 -26.864646 44.976484 0.260860 2.210932 0.094361 -0.010337 -197580.000000 0 0 1
-34.515045 -10.661533 -27.190046 45.213441 0.299597 2.216012 0.092810 -0.004890 -493907.000000 0 0 1
-35.435958 -11.612833 -26.788356 45.914933 0.316684 2.193747 0.071155 -0.008702 -546488.000000 0 0 1
-36.626923 -11.712433 -27.774426 47.435549 0.309500 2.196317 0.056643 -0.005924 -85473.200000 0 0 1
-37.583883 -10.666833 -27.547536 47.803727 0.276542 2.184945 0.065655 -0.011896 722236.000000 0 0 1
36.637976 -10.708633 -28.594186 47.693224 -0.284361 2.213728 0.064211 -0.021321 3518.600000 0 0 1
35.586566 -9.626233 -28.501656 46.598417 -0.264180 2.228934 0.088386 -0.013476 -501774.000000 0 0 1
34.712016 -9.892733 -27.424546 45.330960 -0.277634 2.220543 0.068353 -0.011153 6937.010000 0 0 1
33.672756 -8.924433 -27.359296 44.294820 -0.259078 2.236565 0.056206 -0.015728 383414.000000 0 0 1
32.441566 -9.412333 -26.552456 42.966035 -0.282379 2.236976 0.059170 -0.007492 192008.000000 0 0 1
32.656796 -9.414633 -25.166216 42.289952 -0.280680 2.208171 0.039241 0.013053 795566.000000 0 0 1
31.413656 -9.757733 -24.535576 41.036881 -0.301172 2.211664 0.016731 0.013558 713667.000000 0 0 1
31.629176 -9.850933 -23.017076 40.338957 -0.301929 2.178023 0.004367 0.011440 234864.000000 0 0 1
32.352086 -10.990833 -22.542576 40.934382 -0.327493 2.153999 -0.012791 0.007613 410140.000000 0 0 1
32.222586 -11.066133 -21.143076 40.097182 -0.330808 2.126211 -0.005900 -0.002091 -107526.000000 0 0 1
33.097186 -12.141233 -20.478176 40.769952 -0.351594 2.097037 0.026372 -0.010094 1018700.000000 0 0 1
34.522956 -11.934233 -20.538376 41.905671 -0.332830 2.083012 0.039604 -0.009753 1147930.000000 0 0 1
35.238796 -12.774133 -19.666776 42.328871 -0.347769 2.054000 0.083516 -0.015238 -410943.000000 0 0 1
36.719566 -12.910233 -20.017276 43.768619 -0.338091 2.045802 0.117720 -0.023774 -596182.000000 0 0 1
37.590786 -11.791433 -19.994076 44.179952 -0.303958 2.040430 0.155681 -0.024765 313597.000000 0 0 1
37.500816 -10.847933 -21.033576 44.344111 -0.281586 2.064995 0.153342 -0.011736 -781855.000000 0 0 1
-36.940033 -11.019033 -22.357076 44.562585 0.289892 2.096360 0.110241 -0.016477 -43995.700000 0 0 1
-37.420693 -12.069733 -23.188876 45.647680 0.312007 2.103654 0.091865 -0.016681 588813.000000 0 0 1
36.533116 -11.883333 -23.800176 45.192151 -0.314481 2.125444 0.102160 -0.009619 103244.000000 0 0 1
36.085356 -12.975733 -24.791576 45.663386 -0.345188 2.144707 0.067382 -0.020614 -311232.000000 0 0 1
36.050356 -14.330733 -24.324676 45.789605 -0.378367 2.130845 0.040975 -0.029061 577001.000000 0 0 1
35.115236 -14.680433 -23.305476 44.628916 -0.395982 2.120232 0.005317 -0.025450 -379674.000000 0 0 1
-30.533893 8.855367 -18.701176 36.884551 -0.282274 2.102519 0.067930 -0.001915 -524801.000000 0 0 1
-29.411973 8.059867 -18.805576 35.828415 -0.267467 2.123369 0.065606 0.001829 -570915.000000 0 0 1
-28.591513 8.575167 -19.845976 35.845095 -0.291383 2.157549 0.085722 -0.019221 -135752.000000 0 0 1
-27.374153 7.755667 -20.260676 34.928350 -0.276085 2.189604 0.078115 -0.010442 -48085.400000 0 0 1
-26.300983 7.745667 -19.329076 33.546240 -0.286404 2.184858 0.085253 -0.022050 418089.000000 0 0 1
-25.336623 6.753867 -19.622276 32.750464 -0.260508 2.213229 0.108224 -0.024636 111108.000000 0 0 1
-23.918473 6.987367 -19.069576 31.377785 -0.284224 2.224010 0.077063 -0.028144 -9011.370000 0 0 1
-23.266773 8.062767 -19.697776 31.533368 -0.333585 2.245498 0.074010 -0.020718 427694.000000 0 0 1
-22.008773 8.318367 -19.038876 30.266485 -0.361360 2.251116 0.075265 -0.019088 765259.000000 0 0 1
-21.228673 9.503067 -19.708076 30.485621 -0.420900 2.273746 0.084616 -0.016342 -300370.000000 0 0 1
-20.554273 9.065967 -20.836576 30.640379 -0.415407 2.318609 0.103843 -0.025424 -18308.000000 0 0 1
-20.048073 10.091967 -21.730276 31.240645 -0.466355 2.340019 0.088274 -0.023635 34685.100000 0 0 1
-19.126673 9.520067 -22.817676 31.258721 -0.461836 2.389063 0.106390 -0.020536 -1824.280000 0 0 1
-19.816573 8.781667 -23.823376 32.208190 -0.417141 2.403374 0.086863 -0.017188 138876.000000 0 0 1
-18.956273 8.334167 -24.839276 32.338650 -0.414215 2.446663 0.066981 -0.012991 -364440.000000 0 0 1
-19.622473 7.291867 -25.762966 33.195530 -0.355794 2.459250 0.041835 -0.007846 -120374.000000 0 0 1
-19.698373 5.963067 -25.239926 32.567437 -0.293949 2.457519 0.072647 -0.007878 217453.000000 0 0 1
-20.377073 5.095867 -26.155106 33.545231 -0.245053 2.464978 0.067777 -0.011433 -614956.000000 0 0 1
-20.701873 3.758167 -25.400716 32.983143 -0.179582 2.449813 0.074212 -0.009844 -126856.000000 0 0 1
-19.641273 2.892567 -25.088046 31.993071 -0.146219 2.472156 0.066234 -0.011405 159884.000000 0 0 1
-18.570873 3.433067 -24.315876 30.788392 -0.182799 2.481237 0.060150 -0.014039 345284.000000 0 0 1
-17.616173 2.291267 -23.715976 29.631520 -0.129340 2.498697 0.062820 -0.019019 472074.000000 0 0 1
-18.111273 1.499767 -22.635476 29.028129 -0.082620 2.465106 0.072447 -0.020661 190001.000000 0 0 1
-19.199773 0.645567 -22.975676 29.948785 -0.033611 2.445207 0.077173 -0.019728 120468.000000 0 0 1
-19.697973 -0.214933 -21.825376 29.400738 0.010911 2.407354 0.103945 -0.022539 -27275.500000 0 0 1
-18.945673 -1.358633 -21.573376 28.743607 0.071589 2.419683 0.113899 -0.029489 33478.200000 0 0 1
-19.610773 -2.021133 -20.547176 28.475495 0.102700 2.376869 0.105051 -0.023592 -103401.000000 0 0 1
-19.162473 -3.462133 -20.240776 28.086932 0.178744 2.375532 0.096619 -0.039077 -101089.000000 0 0 1
-19.441873 -4.342733 -21.303976 29.166850 0.219763 2.389729 0.112188 -0.045692 364508.000000 0 0 1
-19.274373 -5.650433 -20.794476 28.910882 0.285168 2.373535 0.109285 -0.039749 -73310.400000 0 0 1
-19.290373 -6.672733 -21.928376 29.958263 0.333027 2.391997 0.083849 -0.041970 -60832.000000 0 0 1
-18.082273 -6.625133 -22.664376 29.741132 0.351199 2.437277 0.085200 -0.035214 121996.000000 0 0 1
-18.186073 -7.209633 -23.962076 30.933689 0.377431 2.456922 0.100281 -0.037766 162912.000000 0 0 1
-16.795173 -7.304733 -24.629276 30.692641 0.410252 2.502184 0.085952 -0.037687 -524751.000000 0 0 1
-16.789573 -8.022133 -25.872386 31.868868 0.445734 2.518091 0.088747 -0.054987 154383.000000 0 0 1
-15.492273 -8.196533 -26.386566 31.677193 0.486634 2.555274 0.092185 -0.048479 310150.000000 0 0 1
-14.492373 -9.202833 -25.719176 30.922436 0.565767 2.553016 0.080590 -0.041520 -276945.000000 0 0 1
-14.162573 -8.772233 -24.451976 29.587661 0.554559 2.543524 0.070689 -0.036225 -89007.400000 0 0 1
-13.403473 -9.750533 -23.778976 28.985612 0.628921 2.532857 0.041215 -0.031161 69115.100000 0 0 1
-12.254673 -9.193633 -22.893476 27.546527 0.643638 2.551850 0.075672 -0.027733 -125972.000000 0 0 1
-12.682473 -8.714133 -21.659876 26.569371 0.602016 2.523905 0.063182 -0.028546 -233899.000000 0 0 1
-11.722773 -8.004233 -20.918976 25.280323 0.599084 2.545402 0.064520 -0.028463 -1282670.000000 0 0 1
-12.158373 -7.536633 -19.513676 24.195256 0.554903 2.509019 0.058129 -0.024422 215283.000000 0 1 0
-13.241173 -6.608033 -19.430476 24.424131 0.462889 2.490702 0.058418 -0.018068 160552.000000 0 1 0
-14.493973 -7.207633 -19.655176 25.462741 0.461473 2.452651 0.076561 -0.031968 -902262.000000 0 0 1
-15.592373 -6.124433 -19.494276 25.703260 0.374270 2.431706 0.080297 -0.024588 -307216.000000 0 0 1
-15.869173 -5.708633 -18.169176 24.789879 0.345317 2.393411 0.067681 -0.022603 290028.000000 0 1 0
-15.305373 -4.459233 -17.870776 23.947940 0.283503 2.413184 0.072812 -0.024977 -555284.000000 0 1 0
-15.122373 -4.240933 -16.324276 22.652895 0.273418 2.375502 0.079945 -0.022360 -264972.000000 0 1 0
-16.351673 -4.046933 -15.684676 23.016601 0.242618 2.320539 0.092429 -0.029982 -170451.000000 0 1 0
-16.823173 -2.680033 -15.822476 23.249784 0.157979 2.319300 0.056407 -0.031160 184941.000000 0 1 0
-18.014973 -2.349833 -14.868976 23.476529 0.129705 2.256677 0.058935 -0.032416 79754.900000 0 1 0
-17.929973 -2.733933 -13.482376 22.599398 0.151313 2.210031 0.089322 -0.031751 346507.000000 0 1 0
-18.802373 -2.016333 -12.628676 22.739355 0.106830 2.159600 0.079470 -0.036745 -228963.000000 0 1 0
-18.138973 -0.792733 -12.017776 21.773326 0.043676 2.155497 0.073186 -0.031435 -232694.000000 0 1 0
-17.981073 0.291667 -12.971476 22.173481 -0.016219 2.195676 0.102346 -0.035344 590285.000000 0 1 0
-17.157973 1.337567 -12.453276 21.243098 -0.077799 2.197190 0.100141 -0.028423 -896725.000000 0 1 0
-16.683173 2.284667 -13.599076 21.644464 -0.136098 2.250154 0.109289 -0.020518 102577.000000 0 1 0
-15.836873 1.701167 -14.575676 21.590527 -0.107008 2.311891 0.095422 -0.034404 -233146.000000 0 1 0
-14.556373 1.414767 -14.105676 20.318948 -0.096888 2.338122 0.084409 -0.034872 -1269430.000000 0 1 0
-13.688273 0.558767 -15.042276 20.345788 -0.040798 2.402873 0.069179 -0.039833 -203748.000000 0 1 0
-13.445173 1.224767 -16.268676 21.141016 -0.090843 2.448903 0.080344 -0.043410 194965.000000 0 1 0
-13.205073 0.231867 -17.271976 21.742789 -0.017557 2.488778 0.068496 -0.030093 -140024.000000 0 1 0
-12.622073 0.793767 -18.612976 22.503104 -0.062805 2.544777 0.077309 -0.033035 -905472.000000 0 1 0
-11.357573 1.289567 -18.334776 21.606051 -0.113058 2.584119 0.060831 -0.024218 -827631.000000 0 1 0
-10.962273 2.297367 -19.264176 22.283577 -0.206581 2.614953 0.066241 -0.027813 739490.000000 0 1 0
-9.485773 2.795267 -19.135576 21.539816 -0.286569 2.664604 0.050909 -0.026028 -243472.000000 0 1 0
-8.518873 1.848667 -19.489376 21.350048 -0.213695 2.721005 0.051825 -0.020387 -312834.000000 0 1 0
-7.195473 2.220567 -19.150076 20.577443 -0.299333 2.766939 0.040761 -0.019737 561690.000000 0 1 0
-6.567273 3.336867 -20.092876 21.400641 -0.470111 2.790191 0.043055 -0.016624 -849329.000000 0 1 0
-6.355573 2.918667 -21.426876 22.539364 -0.430503 2.826096 0.036142 -0.016244 104120.000000 0 1 0
-6.233373 4.022967 -22.321976 23.522538 -0.573129 2.820722 0.041241 -0.020145 -239602.000000 0 1 0
-5.659173 3.580867 -23.681876 24.610569 -0.564156 2.866001 0.060463 -0.032905 -864275.000000 0 1 0
-4.367173 3.092667 -23.556176 24.156370 -0.616183 2.918211 0.067455 -0.036513 -754348.000000 0 1 0
-3.892973 2.620367 -24.815676 25.255481 -0.592444 2.954697 0.099090 -0.035732 598599.000000 0 0 1
-2.510373 1.902367 -24.763976 24.963483 -0.648476 3.015081 0.081797 -0.035535 422529.000000 0 1 0
-1.348573 2.700067 -24.658876 24.842890 -1.107582 3.019804 0.068050 -0.036409 713253.000000 0 1 0
-0.083073 2.074567 -24.895976 24.982401 -1.530774 3.058389 0.064543 -0.027601 777236.000000 0 1 0
0.510627 1.205067 -23.805276 23.841227 1.169999 3.086669 0.057760 -0.026450 -834246.000000 0 1 0
0.033127 -0.127633 -23.824376 23.824741 -1.316852 3.136058 0.050146 -0.029381 65473.700000 0 1 0
0.476327 -0.827333 -22.671076 22.691167 -1.048408 3.099509 0.043683 -0.028486 -901422.000000 0 1 0
0.098527 -2.331333 -22.574376 22.694653 -1.528559 3.038593 0.049850 -0.031639 727757.000000 0 1 0
-1.118773 -2.698433 -21.885176 22.079269 1.177767 3.008900 0.038051 -0.028627 1003540.000000 0 1 0
-2.342873 -2.518733 -22.592076 22.852461 0.821556 2.990491 0.050880 -0.029177 187571.000000 0 1 0
-3.012073 -1.142433 -22.600576 22.829012 0.362522 3.000008 0.053661 -0.031101 -1825690.000000 0 1 0
-3.430673 -0.732233 -21.333476 21.619965 0.210282 2.978617 0.033760 -0.027121 529687.000000 0 1 0
-4.454073 0.270367 -21.364076 21.825114 -0.060627 2.935685 0.038770 -0.026024 1730150.000000 0 1 0
-5.854473 -0.088133 -22.023576 22.788605 0.015053 2.881746 0.041482 -0.025119 90925.600000 0 1 0
-6.640173 -1.062933 -21.386676 22.419002 0.158729 2.836946 0.054861 -0.023325 -864151.000000 0 1 0
-7.924373 -0.984733 -21.897276 23.307854 0.123633 2.791907 0.045327 -0.015989 -741016.000000 0 1 0
-8.761873 -2.189633 -21.454476 23.277875 0.244889 2.743155 0.038019 -0.013437 -227448.000000 0 1 0
-8.435073 -3.358033 -22.218876 24.002193 0.378870 2.753683 0.044280 -0.020798 192539.000000 0 1 0
-9.024773 -4.545333 -21.689476 23.927807 0.466564 2.705608 0.044637 -0.020073 -316872.000000 0 1 0
-9.968273 -5.229333 -22.673776 25.314275 0.483132 2.680780 0.050247 -0.029410 -256478.000000 0 0 1
-11.239773 -4.620233 -22.717776 25.763858 0.390005 2.650396 0.056358 -0.033844 116647.000000 0 0 1
-12.181573 -5.381133 -23.489176 27.001643 0.415967 2.625829 0.048389 -0.041654 247450.000000 0 0 1
-13.623573 -5.018733 -23.089776 27.275028 0.352959 2.580274 0.100591 -0.043810 -156823.000000 0 0 1
-14.128173 -3.778133 -23.578776 27.745959 0.261304 2.586420 0.084636 -0.048333 1784750.000000 0 0 1
-15.582373 -3.709533 -23.437776 28.388384 0.233709 2.542081 0.082100 -0.046829 1958030.000000 0 0 1
-16.233673 -2.366333 -23.906976 28.994399 0.144747 2.540181 0.087868 -0.044272 -208734.000000 0 0 1
-16.064773 -2.084833 -25.306836 30.047619 0.129055 2.572192 0.081523 -0.039512 135758.000000 0 0 1
-16.730173 -0.905033 -25.765606 30.734089 0.054043 2.565027 0.061612 -0.034717 -1170590.000000 0 0 1
-18.199373 -1.119733 -26.040286 31.789424 0.061448 2.530723 0.084700 -0.025768 -1298200.000000 0 0 1
-18.610173 -1.647333 -27.313196 33.091735 0.088288 2.541668 0.086769 -0.037631 70601.400000 0 0 1
-18.436473 -0.690333 -28.310206 33.791239 0.037426 2.564032 0.070008 -0.034533 -561150.000000 0 0 1
-18.474073 -1.282533 -29.712156 35.010691 0.069312 2.584242 0.064594 -0.033013 -141327.000000 0 0 1
-19.763473 -1.658033 -30.106256 36.051776 0.083698 2.559081 0.066642 -0.032253 -325378.000000 0 0 1
-19.801773 -2.319933 -31.368566 37.168256 0.116626 2.575422 0.064491 -0.039428 206207.000000 0 0 1
-21.173273 -3.040533 -31.725406 38.262955 0.142627 2.548367 0.038436 -0.030109 1398800.000000 0 0 1
-22.233273 -2.115733 -32.016016 39.036138 0.094875 2.532493 0.042414 -0.027626 763559.000000 0 0 1
-22.869773 -1.492433 -30.919536 38.487291 0.065165 2.503729 0.039082 -0.019419 -1012050.000000 0 0 1
-23.984573 -0.529733 -31.295166 39.432572 0.022083 2.487561 0.031117 -0.018320 -512529.000000 0 0 1
-23.582573 0.723467 -31.858096 39.643403 -0.030668 2.504144 0.036247 -0.019852 139368.000000 0 0 1
-24.699073 1.445467 -32.303646 40.689791 -0.058456 2.487994 0.040075 -0.019269 -280176.000000 0 0 1
-24.323573 2.755567 -33.059736 41.136061 -0.112807 2.504230 0.040450 -0.009889 -526405.000000 0 0 1
-23.828173 3.790167 -32.265216 40.288849 -0.157741 2.499505 0.038702 -0.011842 530760.000000 0 0 1
-24.645873 4.359767 -31.227776 40.020003 -0.175085 2.465948 0.038609 -0.016619 -548124.000000 0 0 1
-25.852743 5.220167 -31.563706 41.132493 -0.199240 2.445521 0.053093 -0.021101 -457990.000000 0 0 1
-26.831073 4.459167 -32.221796 42.166750 -0.164689 2.440522 0.079702 -0.028690 -138212.000000 0 0 1
-27.990233 5.137367 -32.672036 43.327908 -0.181521 2.425025 0.089934 -0.035952 242619.000000 0 0 1
-28.936263 4.164067 -33.393336 44.381997 -0.142924 2.422505 0.099482 -0.035902 -338437.000000 0 0 1
-28.230373 3.470267 33.288708 43.785098 -0.122313 0.707060 0.107881 -0.033070 318390.000000 0 0 1
-29.061893 2.784867 32.342418 43.570416 -0.095534 0.734297 0.115178 -0.030852 164969.000000 0 0 1
-29.206343 1.279467 32.554045 43.754010 -0.043780 0.731723 0.109460 -0.014555 168379.000000 0 0 1
-29.894903 0.869967 33.754495 45.097982 -0.029093 0.725044 0.109246 -0.005786 288777.000000 0 0 1
-30.357183 -0.453133 33.521366 45.226606 0.014926 0.735960 0.107570 -0.004484 -895133.000000 0 0 1
-30.200833 -1.351733 -32.945586 44.713858 0.044728 2.399135 0.070522 -0.003379 487264.000000 0 0 1
-28.829133 -1.688933 -32.686696 43.616413 0.058517 2.417971 0.064775 -0.011512 875859.000000 0 0 1
-28.026623 -0.659133 -32.196866 42.691501 0.023514 2.425193 0.058105 -0.006086 -1308460.000000 0 0 1
-28.262723 -0.267433 -30.710966 41.737471 0.009462 2.397663 0.076674 -0.011456 -336747.000000 0 0 1
-27.578263 -1.165233 -29.803976 40.622596 0.042227 2.394518 0.053109 -0.019825 621948.000000 0 0 1
-27.640663 -0.567433 -28.545336 39.738702 0.020526 2.372189 0.066455 -0.029455 624634.000000 0 0 1
-26.520683 -1.154633 -27.556956 38.263111 0.043510 2.374882 0.069785 -0.028180 748383.000000 0 0 1
-26.664603 -2.497133 -27.086146 38.090629 0.093377 2.361854 0.049742 -0.016081 -69195.300000 0 0 1
-25.630943 -2.828433 -26.198926 36.760427 0.109908 2.364127 0.066116 -0.021381 -106426.000000 0 0 1
-25.910083 -4.175433 -25.515396 36.603307 0.159777 2.342112 0.050991 -0.025205 -648067.000000 0 0 1
-26.932253 -4.085733 -24.621776 36.718814 0.150556 2.305745 0.056731 -0.017045 -867740.000000 0 0 1
-27.408373 -5.329933 -24.191776 36.944135 0.192067 2.284741 0.023294 -0.015871 -20584.300000 0 0 1
-28.174723 -5.181233 -22.884476 36.665507 0.181865 2.244829 0.061957 -0.014441 -76292.400000 0 0 1
-28.365563 -6.420133 -22.240276 36.612199 0.222585 2.223650 0.058884 -0.018988 142717.000000 0 0 1
-29.320763 -6.317133 -21.195676 36.726966 0.212205 2.185988 0.107833 -0.016502 68540.400000 0 0 1
-29.501893 -7.557233 -20.311276 36.606303 0.250769 2.158988 0.123779 -0.023244 -392157.000000 0 0 1
-28.373893 -7.774933 -19.511176 35.301748 0.267452 2.156394 0.119379 -0.031143 -24254.900000 0 0 1
-28.582543 -8.691333 -18.372776 35.072210 0.295194 2.122167 0.140602 -0.031041 -97032.300000 0 0 1
-29.230383 -8.114733 -17.063876 34.805747 0.270794 2.083185 0.143848 -0.031049 212329.000000 0 0 1
-28.413783 -7.140033 -16.426476 33.587978 0.246190 2.081806 0.119441 -0.036996 519644.000000 0 0 1
-28.995983 -6.834533 -15.152676 33.422769 0.231481 2.041332 0.135748 -0.034119 -214076.000000 0 0 1
-28.179603 -5.919733 -14.244576 32.125398 0.207061 2.030191 0.157490 -0.035211 -181767.000000 0 0 1
-28.085413 -4.611633 -14.739876 32.051857 0.162748 2.048652 0.153561 -0.029685 435829.000000 0 0 1
-26.955903 -3.953733 -14.182476 30.714741 0.145636 2.050761 0.136461 -0.039425 -75435.200000 0 0 1
-13.977673 20.858867 -4.871776 25.577370 -0.980416 1.762439 0.090164 -0.039558 -321600.000000 0 0 1
-14.182473 20.326267 -6.176976 25.543193 -0.961588 1.815042 0.105651 -0.039014 247600.000000 0 0 1
-15.170673 19.308567 -6.180576 25.321327 -0.904838 1.817373 0.105551 -0.045789 163775.000000 0 0 1
-15.322873 18.734867 -7.621476 25.374644 -0.885248 1.875864 0.115990 -0.045535 298332.000000 0 0 1
-14.156573 17.970267 -7.951476 24.219105 -0.903553 1.905315 0.094541 -0.039630 564587.000000 0 1 0
-14.422873 16.962367 -8.963076 24.001623 -0.866136 1.953507 0.082201 -0.040466 29821.100000 0 1 0
-15.159673 15.672767 -8.465076 23.390358 -0.802038 1.941106 0.099491 -0.036847 483999.000000 0 1 0
-16.562573 15.791467 -8.293276 24.340659 -0.761569 1.918476 0.100384 -0.028203 188364.000000 0 1 0
-17.043273 14.784367 -7.464176 23.764776 -0.714544 1.890290 0.119681 -0.021216 231150.000000 0 1 0
-18.541673 14.960267 -7.078576 24.853762 -0.678901 1.859604 0.139312 -0.027153 301947.000000 0 1 0
-19.413773 14.556167 -8.110476 25.584300 -0.643364 1.893371 0.131338 -0.031644 -121838.000000 0 0 1
-20.723573 14.955167 -7.745876 26.704346 -0.625109 1.865086 0.113953 -0.036642 -33871.600000 0 0 1
-21.853873 14.274167 -8.526076 27.459745 -0.578596 1.886509 0.116002 -0.028497 -183314.000000 0 0 1
-21.961973 12.939467 -8.086676 26.742333 -0.532423 1.877998 0.142726 -0.032692 755675.000000 0 0 1
-23.037273 12.273867 -8.789476 27.543033 -0.489529 1.895595 0.168100 -0.035537 789208.000000 0 0 1
-23.241873 10.814167 -8.260376 26.932595 -0.435495 1.882526 0.169343 -0.044408 418427.000000 0 0 1
-22.049573 10.009067 -8.327076 25.606743 -0.426121 1.902010 0.172521 -0.040996 625836.000000 0 0 1
-22.033773 9.084967 -7.308376 24.928621 -0.391082 1.868339 0.189667 -0.045229 16700.400000 0 1 0
-20.758873 8.211667 -7.125076 23.433502 -0.376685 1.879743 0.130995 -0.026598 -347139.000000 0 1 0
-20.568173 7.191767 -8.122976 23.254118 -0.336368 1.927635 0.133244 -0.029918 98112.400000 0 1 0
-19.601273 6.283767 -7.670476 21.966607 -0.310229 1.927501 0.090753 -0.014723 -333480.000000 0 1 0
-19.477073 5.051367 -8.654676 21.903792 -0.253759 1.976997 0.082885 -0.027411 -832118.000000 0 1 0
-20.477473 4.075667 -8.568476 22.568933 -0.196464 1.960223 0.105505 -0.030987 106747.000000 0 1 0
-20.511373 3.136867 -9.577576 22.853584 -0.151757 2.003233 0.110642 -0.024378 -213309.000000 0 1 0
-21.410973 1.903167 -9.451076 23.481368 -0.088654 1.985034 0.119770 -0.028816 -138645.000000 0 1 0
-20.913273 0.975467 -8.524376 22.604900 -0.046610 1.957463 0.100842 -0.031778 762027.000000 0 1 0
-21.905573 0.059667 -8.003876 23.322087 -0.002724 1.921106 0.123497 -0.032000 380350.000000 0 1 0
-22.021573 -1.298533 -8.802176 23.751088 0.058898 1.950452 0.106294 -0.040866 197767.000000 0 1 0
-20.900573 -2.117933 -8.493776 22.659740 0.100989 1.955020 0.090917 -0.026044 530438.000000 0 1 0
-20.962273 -3.461433 -8.952476 23.055265 0.163650 1.969588 0.081261 -0.022885 281318.000000 0 1 0
-21.958173 -4.501633 -8.298676 23.901759 0.202208 1.925379 0.093636 -0.023653 207670.000000 0 1 0
-21.730473 -4.764033 -6.881176 23.286478 0.215818 1.870776 0.101852 -0.024518 -217454.000000 0 1 0
-22.735173 -5.418233 -6.174876 24.173838 0.233955 1.829095 0.132223 -0.029729 -478665.000000 0 1 0
-22.850673 -6.909433 -6.517176 24.746052 0.293633 1.837302 0.127697 -0.031908 -332186.000000 0 1 0
-21.743973 -7.649733 -6.072076 23.836713 0.338286 1.828371 0.117801 -0.033335 179730.000000 0 1 0
-21.858073 -9.026033 -6.282876 24.468738 0.391610 1.830477 0.126850 -0.032839 463226.000000 0 1 0
-20.649373 -9.907933 -5.711876 23.604857 0.447372 1.815201 0.116896 -0.026853 452980.000000 0 1 0
-19.454573 -9.458133 -6.330376 22.539085 0.452518 1.855489 0.107442 -0.030759 -530850.000000 0 1 0
-18.363773 -9.841133 -5.545676 21.559930 0.491953 1.830942 0.101262 -0.030224 -527750.000000 0 1 0
-17.654373 -11.143233 -6.041376 21.733540 0.563037 1.852481 0.091155 -0.030636 -681144.000000 0 1 0
-16.705673 -11.011933 -7.076676 21.223137 0.582797 1.910748 0.099337 -0.033241 411170.000000 0 1 0
-17.192973 -10.633433 -8.348976 21.871754 0.553894 1.962457 0.098937 -0.034776 -55513.600000 0 1 0
-16.178373 -11.042833 -9.469576 21.756764 0.598930 2.021109 0.088883 -0.019956 552324.000000 0 1 0
-16.177373 -12.396633 -9.793776 22.611987 0.653848 2.018751 0.096816 -0.022660 1064170.000000 0 1 0
-14.994373 -12.705933 -10.579176 22.320191 0.702971 2.064594 0.079033 -0.012244 1114370.000000 0 1 0
-15.207973 -14.072033 -11.349476 23.624461 0.746622 2.071921 0.089100 -0.010949 69812.700000 0 1 0
-15.987273 -13.963733 -12.518776 24.643427 0.717939 2.103654 0.092636 -0.012828 18792.400000 0 1 0
-16.044173 -15.202333 -13.191976 25.740137 0.758463 2.108897 0.067084 -0.010410 191254.000000 0 0 1
-16.734873 -15.009733 -14.579076 26.793610 0.731107 2.146142 0.091471 -0.010393 97892.000000 0 0 1
-16.963073 -16.209733 -15.282976 28.001261 0.762692 2.148135 0.081942 -0.001655 150167.000000 0 0 1
-17.598973 -15.898933 -16.519876 28.903395 0.734691 2.179196 0.083407 -0.001659 -126201.000000 0 0 1
-18.220973 -17.130333 -17.149076 30.323967 0.754556 2.171871 0.103738 -0.017653 351901.000000 0 0 1
-19.366773 -17.697333 -16.478576 30.980816 0.740387 2.131634 0.080308 -0.003633 -178636.000000 0 0 1
-20.329773 -17.983833 -17.463076 32.275020 0.724245 2.142506 0.068180 0.003480 -577935.000000 0 0 1
-21.751873 -17.859133 -16.918376 32.837845 0.687439 2.112049 0.063948 -0.001667 -676645.000000 0 0 1
-22.131873 -16.552433 -16.413076 32.143303 0.642156 2.106704 0.053382 0.011764 273239.000000 0 0 1
-21.555473 -16.227433 -15.177276 30.956707 0.645305 2.083201 0.057058 0.003377 -641954.000000 0 0 1
-21.760573 -14.718033 -14.730576 30.118647 0.594685 2.081837 0.078858 -0.016000 234854.000000 0 0 1
-23.098973 -14.490133 -14.310776 30.794883 0.560256 2.054107 0.104048 -0.022112 693058.000000 0 0 1
-23.170673 -13.139433 -13.888876 30.040401 0.515856 2.051429 0.109180 -0.027561 1224690.000000 0 0 1
-24.690073 -12.644233 -13.905476 31.029641 0.473295 2.035475 0.131735 -0.037899 689042.000000 0 0 1
-25.300143 -13.139433 -12.797876 31.249441 0.479001 1.992745 0.157906 -0.035446 1188460.000000 0 0 1
-26.639863 -12.599833 -12.584576 32.043871 0.441790 1.974394 0.149621 -0.042594 1051260.000000 0 0 1
-27.251133 -12.948233 -11.252876 32.201059 0.443566 1.927788 0.183895 -0.047083 -48224.000000 0 0 1
-28.470783 -12.244533 -11.074876 32.911502 0.406160 1.913999 0.178349 -0.047288 205893.000000 0 0 1
-29.203173 -12.724033 -9.989976 33.384517 0.410905 1.874692 0.180186 -0.044549 -95044.800000 0 0 1
-30.051903 -11.712133 -9.250276 33.553816 0.371622 1.850098 0.163161 -0.045691 -549515.000000 0 0 1
-29.237563 -10.746433 -8.721576 32.347903 0.352228 1.843793 0.158350 -0.052262 51237.700000 0 0 1
-29.998703 -9.731333 -8.089476 32.558573 0.313682 1.821886 0.157385 -0.053719 498511.000000 0 0 1
-29.035333 -8.571933 -7.642776 31.224039 0.287070 1.818081 0.171569 -0.051640 817914.000000 0 0 1
-28.125443 -8.899333 -6.585076 30.225848 0.306448 1.790420 0.160610 -0.054390 309728.000000 0 0 1
-27.267103 -7.874833 -6.134776 29.036931 0.281153 1.783675 0.154670 -0.053734 -11862.300000 0 0 1
-27.875253 -6.640133 -5.395976 29.158835 0.233851 1.756924 0.166959 -0.055464 -352790.000000 0 0 1
-28.578603 -6.942733 -4.174476 29.704618 0.238318 1.711796 0.164997 -0.054375 788278.000000 0 0 1
-27.770823 -7.134933 -2.956776 28.824788 0.251483 1.673555 0.167890 -0.041165 737806.000000 0 0 1
-27.184513 -5.802933 -2.300476 27.892006 0.210308 1.653368 0.184199 -0.038067 -9311.180000 0 0 1
-28.231203 -5.103533 -1.731676 28.741009 0.178845 1.631084 0.191116 -0.043766 340573.000000 0 0 1
-27.634173 -3.961333 -1.048876 27.936353 0.142379 1.608350 0.186604 -0.043843 1011600.000000 0 0 1
-28.702943 -2.873633 -0.487376 28.850550 0.099784 1.587690 0.181161 -0.045662 921641.000000 0 0 1
-29.459513 -3.219633 0.690124 29.642962 0.108858 1.547513 0.168745 -0.033930 351800.000000 0 0 1
-28.810823 -3.387033 1.962124 29.075513 0.117024 1.503261 0.177365 -0.034149 -65435.000000 0 0 1
-29.847173 -3.572133 3.108224 30.220439 0.119114 1.467762 0.172690 -0.034193 226027.000000 0 0 1
-30.457153 -4.842433 2.980824 30.983425 0.157672 1.474440 0.181737 -0.037303 25867.100000 0 0 1
-31.414423 -5.066933 3.993724 32.070074 0.159916 1.445941 0.204740 -0.041729 -445971.000000 0 0 1
-32.160713 -6.356433 3.760924 32.997883 0.195131 1.456573 0.209634 -0.040114 25796.300000 0 0 1
-31.395503 -7.578033 3.773924 32.516868 0.236843 1.454474 0.198201 -0.033385 447617.000000 0 0 1
-32.298313 -8.597633 3.485324 33.604283 0.260162 1.466893 0.201598 -0.044991 -90225.200000 0 0 1
-31.672143 -9.972333 3.742824 33.415278 0.305035 1.458551 0.172547 -0.034009 31800.100000 0 0 1
-31.396843 -10.097733 5.105824 33.373574 0.311168 1.417203 0.158813 -0.022533 299274.000000 0 0 1
-30.682603 -11.307733 5.378324 33.139302 0.353094 1.407781 0.161504 -0.021290 -104334.000000 0 0 1
-30.466063 -11.608333 6.856624 33.315877 0.364042 1.363509 0.153283 -0.022220 -115195.000000 0 0 1
-29.306543 -11.054333 7.445424 32.194815 0.360695 1.337422 0.121584 -0.010803 321655.000000 0 0 1
-29.209353 -11.349033 8.840024 32.559682 0.370589 1.295843 0.151983 -0.015197 -146851.000000 0 0 1
-29.635303 -10.216533 9.887824 32.869405 0.331983 1.265242 0.161827 -0.022393 182541.000000 0 0 1
-28.597003 -9.290133 10.154824 31.736660 0.314109 1.245097 0.124329 -0.002041 585474.000000 0 0 1
-29.157883 -8.252333 10.927624 32.213291 0.275809 1.224701 0.148157 0.001933 136595.000000 0 0 1
-28.225233 -7.034133 11.115724 31.140041 0.244239 1.205786 0.153851 0.004702 -58484.400000 0 0 1
-28.165723 -6.168233 10.012524 30.522216 0.215594 1.236568 0.177199 -0.001167 471242.000000 0 0 1
-27.352243 -5.033733 10.313924 29.662446 0.181997 1.215669 0.160830 -0.011538 -9307.260000 0 0 1
-27.322883 -4.042433 9.147624 29.095708 0.146885 1.250974 0.188579 -0.029641 50876.100000 0 0 1
-26.760703 -4.616533 7.975724 28.303000 0.170830 1.285129 0.142247 -0.021755 149057.000000 0 0 1
-27.036283 -3.689933 6.909124 28.148041 0.135643 1.322806 0.162414 -0.040144 46188.000000 0 0 1
-26.308513 -4.068333 5.544624 27.192500 0.153424 1.365454 0.149130 -0.026667 1142530.000000 0 0 1
-24.899173 -3.732533 5.642624 25.801935 0.148798 1.350325 0.163991 -0.040217 1260550.000000 0 0 1
-24.290873 -3.942533 4.402724 24.999481 0.160902 1.393760 0.171130 -0.039979 132933.000000 0 1 0
-22.772973 -3.609033 4.323524 23.459034 0.157172 1.385436 0.165928 -0.039803 506924.000000 0 1 0
-22.431373 -2.214433 4.531724 22.991449 0.098402 1.372392 0.140076 -0.036136 -685098.000000 0 1 0
-21.055973 -2.122833 4.468324 21.629294 0.100479 1.362711 0.117008 -0.024693 -1222910.000000 0 1 0
-20.506973 -0.689433 4.717624 21.053913 0.033607 1.344804 0.090917 -0.031315 -479959.000000 0 1 0
-20.787073 0.360267 3.788224 21.132507 -0.017330 1.390562 0.111072 -0.026269 60834.100000 0 1 0
-22.133673 0.737867 3.782924 22.466741 -0.033325 1.401612 0.120707 -0.044926 -731514.000000 0 1 0
-22.365573 1.888267 2.791224 22.618031 -0.084228 1.447074 0.151581 -0.030007 -198279.000000 0 1 0
-21.838273 3.156567 3.208624 22.297295 -0.143549 1.426393 0.128215 -0.039467 281241.000000 0 1 0
-21.963173 4.213667 2.292024 22.480866 -0.189548 1.468664 0.144378 -0.025118 -108301.000000 0 1 0
-20.866873 4.325767 1.213924 21.345076 -0.204408 1.513894 0.121775 -0.009717 -273923.000000 0 1 0
-21.183673 5.109267 0.008224 21.791115 -0.236669 1.570419 0.146174 -0.005940 588239.000000 0 1 0
-22.104973 4.499667 -0.896376 22.576101 -0.200815 1.610511 0.182616 -0.018561 53495.900000 0 1 0
-21.570873 3.351267 -1.808076 21.904399 -0.154129 1.653434 0.163869 -0.018422 -133339.000000 0 1 0
-21.109373 2.220167 -1.040176 21.251276 -0.104789 1.619762 0.103993 -0.013189 524530.000000 0 1 0
-20.574973 1.256767 -1.900476 20.700744 -0.061007 1.662733 0.090587 -0.012627 -599898.000000 0 1 0
-19.845073 0.176767 -1.088976 19.875715 -0.008907 1.625613 0.095738 -0.013017 632417.000000 0 1 0
-20.705573 -0.787833 -0.348176 20.723481 0.038031 1.587598 0.121279 -0.015901 1594470.000000 0 1 0
-19.924873 -1.396233 0.659124 19.984606 0.069961 1.537809 0.095539 -0.016729 -174328.000000 0 1 0
-19.092873 -2.588333 0.257424 19.269238 0.134744 1.557437 0.063582 -0.015819 -113335.000000 0 1 0
-18.222273 -3.104033 1.279224 18.528968 0.168723 1.501702 0.048627 -0.014098 611925.000000 0 1 0
-17.557173 -4.291133 0.982624 18.100655 0.239710 1.516483 0.038341 -0.009417 -428239.000000 0 1 0
-18.424873 -5.530533 0.754624 19.251810 0.291610 1.531589 0.040973 -0.012369 -89514.700000 0 1 0
-19.192073 -5.971533 1.908224 20.190002 0.301651 1.476142 0.062983 -0.016695 898170.000000 0 1 0
-20.216673 -6.871033 1.509124 21.405663 0.327622 1.500237 0.081951 -0.026884 -452435.000000 0 1 0
-21.054573 -7.273733 2.696724 22.438239 0.332634 1.450321 0.100516 -0.023523 -547494.000000 0 1 0
-20.273173 -7.841433 3.688924 22.047625 0.369066 1.402689 0.082622 -0.019560 708659.000000 0 1 0
-21.158973 -8.420533 4.620424 23.236950 0.378751 1.370623 0.091073 -0.020535 636846.000000 0 1 0
-20.316573 -9.259933 5.644524 23.029767 0.427652 1.323177 0.075719 -0.005689 437827.000000 0 1 0
-19.918873 -10.537733 5.093224 23.102949 0.486603 1.348513 0.084106 -0.007183 265804.000000 0 1 0
-18.971873 -11.220733 5.873424 22.810829 0.534102 1.310379 0.082683 -0.011796 -107610.000000 0 1 0
-18.526173 -12.545633 5.227924 22.977014 0.595249 1.341258 0.075759 -0.007967 -89200.200000 0 1 0
-19.508073 -13.543633 5.290624 24.330754 0.606862 1.351599 0.101902 -0.009392 -399455.000000 0 1 0
-18.875673 -14.753833 5.127024 24.500061 0.663440 1.359972 0.098261 -0.010517 -124025.000000 0 1 0
-19.828173 -15.958533 5.088624 25.956219 0.677686 1.373472 0.110856 -0.014770 41493.200000 0 0 1
-19.073673 -17.129033 4.773124 26.076646 0.731734 1.386716 0.105223 -0.028814 550334.000000 0 0 1
-19.723573 -18.390933 5.048024 27.435894 0.750448 1.385749 0.104665 -0.030612 -184711.000000 0 0 1
-18.706573 -19.519233 5.005924 27.495374 0.806654 1.387711 0.093858 -0.040750 -704937.000000 0 0 1
-18.355573 -20.002733 3.701124 27.399539 0.828313 1.435302 0.100854 -0.037871 23364.700000 0 0 1
-17.566173 -21.140833 3.776624 27.744696 0.877489 1.434252 0.085961 -0.040788 136003.000000 0 0 1
-16.042973 -20.928333 4.019024 26.674420 0.916776 1.419551 0.084248 -0.037130 178855.000000 0 0 1
-15.354673 -22.188633 4.177524 27.304819 0.965455 1.417197 0.067672 -0.035647 394888.000000 0 0 1
-13.950673 -21.997933 4.013724 26.356030 1.005622 1.417913 0.066446 -0.031847 153086.000000 0 0 1
-13.127873 -23.239433 4.290224 27.033652 1.056588 1.411423 0.074732 -0.027968 -428564.000000 0 0 1
-13.126873 -24.227333 3.253124 27.746374 1.074254 1.453281 0.081987 -0.025750 17943.200000 0 0 1
-12.553273 -25.475933 3.584324 28.626128 1.112965 1.445255 0.091493 -0.021097 -67255.200000 0 0 1
19.846327 19.409667 -24.228376 36.845978 0.774275 2.288370 0.090295 -0.012116 -100667.000000 0 0 1
18.733627 19.513867 -25.080486 36.888624 0.805795 2.318419 0.070965 -0.016110 -22405.300000 0 0 1
19.060027 19.020967 -26.346366 37.672441 0.784372 2.345289 0.081431 -0.013466 21931.600000 0 0 1
17.840927 19.098167 -27.282736 37.780767 0.819421 2.377677 0.071659 -0.010091 40000.200000 0 0 1
17.688727 20.451467 -27.705756 38.713854 0.857708 2.368358 0.063544 -0.001365 -103807.000000 0 0 1
16.829227 20.561667 -28.791186 39.178277 0.884891 2.396281 0.064227 -0.002785 -395637.000000 0 0 1
16.589127 22.046967 -29.229946 40.195244 0.925732 2.385029 0.056602 0.007757 190594.000000 0 0 1
15.902827 22.852967 -28.192546 39.622943 0.962844 2.362456 0.064027 0.000144 787979.000000 0 0 1
15.917227 24.182467 -28.606526 40.699916 0.988669 2.350213 0.061399 0.005712 -187233.000000 0 0 1
15.188027 25.172067 -27.665026 40.369082 1.027904 2.325815 0.065626 -0.005969 -1342490.000000 0 0 1
13.843527 24.938167 -27.602156 39.691742 1.064035 2.339791 0.078926 -0.019214 -1361270.000000 0 0 1
13.241327 25.769067 -26.609346 39.337448 1.096134 2.313712 0.074910 -0.013577 -242057.000000 0 0 1
11.859127 25.186667 -26.176886 38.213040 1.130740 2.325434 0.106242 -0.020046 456206.000000 0 0 1
11.125227 25.912767 -25.229486 37.838725 1.165261 2.300654 0.097830 -0.028263 -296268.000000 0 0 1
10.581527 27.105967 -25.717396 38.834091 1.198614 2.294597 0.111990 -0.041900 -853647.000000 0 0 1
10.076027 28.084467 -24.637576 38.694622 1.226325 2.261031 0.130929 -0.047585 -143690.000000 0 0 1
11.034727 28.629867 -23.753876 38.803107 1.202916 2.229591 0.114296 -0.035752 117828.000000 0 0 1
10.391327 29.400967 -22.770176 38.611882 1.231065 2.201508 0.131775 -0.049747 200982.000000 0 0 1
11.440527 29.869867 -21.733676 38.671013 1.205020 2.167616 0.109477 -0.044401 162338.000000 0 0 1
12.475927 30.697467 -22.200076 39.885168 1.184772 2.161084 0.108822 -0.051634 1546.120000 0 0 1
13.241127 31.210667 -21.151276 39.960101 1.169561 2.128583 0.098997 -0.041781 57312.900000 0 0 1
14.527727 31.983667 -21.556676 41.215289 1.144436 2.121194 0.098271 -0.027056 594151.000000 0 0 1
15.594527 31.126967 -21.978576 41.172019 1.106351 2.133912 0.087459 -0.028996 -554019.000000 0 0 1
16.604827 31.904967 -22.470876 42.409757 1.090926 2.129222 0.086827 -0.029381 -808328.000000 0 0 1
17.837927 31.186667 -23.043076 42.682352 1.051240 2.141083 0.039743 -0.011690 303995.000000 0 0 1
18.807027 30.805867 -22.076576 42.309348 1.022691 2.119744 0.041099 -0.000349 531206.000000 0 0 1
20.000927 30.300767 -22.702076 42.820063 0.987368 2.129602 0.022152 0.003416 242640.000000 0 0 1
20.862127 29.548467 -21.696176 42.178956 0.956034 2.111085 0.032080 0.008490 -357359.000000 0 0 1
21.407027 30.431667 -20.747176 42.600381 0.957762 2.079469 0.025005 0.012649 416780.000000 0 0 1
22.237227 29.667067 -19.829876 42.045845 0.927577 2.061929 0.041420 0.006839 342990.000000 0 0 1
22.873327 30.554767 -18.730476 42.516039 0.928191 2.027008 0.046515 -0.002828 -356022.000000 0 0 1
23.943227 31.356767 -19.144276 43.852346 0.918664 2.022570 0.028950 -0.001230 -249219.000000 0 0 1
24.545827 31.936967 -18.014976 44.124900 0.915515 1.991357 0.044590 -0.002872 -707525.000000 0 0 1
25.683127 32.852667 -18.469676 45.607561 0.907272 1.987742 0.039783 -0.005160 -729491.000000 0 0 1
26.807927 32.111167 -18.821576 45.869856 0.875165 1.993607 0.040912 -0.002911 -1007480.000000 0 0 1
27.950727 32.755267 -18.337976 46.802051 0.864378 1.973405 0.045674 -0.014499 -295678.000000 0 0 1
29.294327 32.167167 -18.792076 47.392260 0.832106 1.978522 0.059052 -0.018921 97362.300000 0 0 1
29.762027 30.990367 -18.093976 46.621594 0.805614 1.969369 0.053758 -0.010858 40728.400000 0 0 1
30.990827 30.533667 -18.615276 47.320869 0.777968 1.975106 0.046724 -0.010457 -181129.000000 0 0 1
31.500327 29.354367 -17.791276 46.588399 0.750149 1.962628 0.046756 -0.019332 -351650.000000 0 0 1
32.176427 29.761767 -16.613576 46.873192 0.746433 1.933108 0.052583 -0.017394 183347.000000 0 0 1
32.305227 28.742167 -15.634176 45.980075 0.727099 1.917735 0.056072 -0.018703 -269302.000000 0 0 1
32.567227 29.270367 -14.176876 46.025672 0.732134 1.883909 0.058601 -0.028629 -541610.000000 0 0 1
33.831327 29.716467 -13.823076 47.103126 0.720736 1.868645 0.037035 -0.024276 -818011.000000 0 0 1
34.118527 31.002967 -14.327276 48.275549 0.737592 1.872117 0.044555 -0.017212 -139441.000000 0 0 1
35.633627 31.189667 -14.571376 49.546702 0.718993 1.869304 0.047346 -0.027455 324459.000000 0 0 1
36.416527 31.180067 -13.391176 49.776336 0.708086 1.843179 0.043577 -0.026941 677521.000000 0 0 1
-37.460372 31.625767 -13.667676 50.894734 -0.701144 1.842682 0.029484 -0.032191 954547.000000 0 0 1
-36.635472 31.890067 -12.409276 50.131072 -0.716258 1.820933 0.034213 -0.026933 -255215.000000 0 0 1
-37.131672 33.013167 -11.663176 51.035869 -0.726751 1.801363 0.048754 -0.033278 163098.000000 0 0 1
-36.311072 33.334067 -10.558276 50.409634 -0.742679 1.781808 0.038341 -0.027704 -142422.000000 0 0 1
-36.826572 -33.013470 -9.789976 50.417549 0.730855 1.766216 0.038994 -0.019302 -99829.400000 0 0 1
-35.901272 -32.352370 -8.978976 49.154849 0.733449 1.754495 0.039948 -0.018533 -407894.000000 0 0 1
-35.469572 -32.939570 -7.796576 49.029506 0.748432 1.730492 0.045188 -0.020668 76341.600000 0 0 1
-35.254772 -31.805970 -6.801776 47.966477 0.734015 1.713079 0.046048 -0.029849 -453981.000000 0 0 1
-36.479772 -31.213170 -6.511676 48.450363 0.707753 1.705603 0.043965 -0.017797 -494649.000000 0 0 1
-36.280272 -30.216870 -5.497876 47.534662 0.694467 1.686716 0.062702 -0.018372 733152.000000 0 0 1
37.581427 -29.590670 -5.006676 48.094056 -0.666995 1.675087 0.065570 -0.014404 501151.000000 0 0 1
36.781627 -30.668870 -4.457576 48.097169 -0.695019 1.663608 0.046162 -0.012794 -44316.200000 0 0 1
35.492827 -30.198370 -4.140576 46.784898 -0.704976 1.659415 0.046349 -0.009438 -381819.000000 0 0 1
35.270527 -29.253970 -2.890876 45.914725 -0.692422 1.633800 0.045495 -0.002361 -762904.000000 0 0 1
35.889327 -28.002470 -3.015176 45.620976 -0.662579 1.636936 0.073211 -0.012547 66287.300000 0 0 1
35.540127 -27.091670 -2.023476 44.734256 -0.651317 1.616045 0.055616 -0.009153 -337677.000000 0 0 1
36.125827 -25.731170 -2.320576 44.413439 -0.618910 1.623070 0.064631 -0.026659 -180570.000000 0 0 1
35.418727 -25.138170 -3.389176 43.564898 -0.617235 1.648671 0.074970 -0.024365 469629.000000 0 0 1
35.697027 -23.772870 -3.431776 43.025622 -0.587515 1.650642 0.084449 -0.034114 -292158.000000 0 0 1
35.198527 -23.170870 -4.754976 42.407963 -0.582182 1.683157 0.077393 -0.038933 -278337.000000 0 0 1
36.039927 -23.363370 -5.916576 43.355845 -0.575154 1.707689 0.071889 -0.033919 375261.000000 0 0 1
35.453827 -22.929970 -7.140276 42.822201 -0.574091 1.738321 0.068240 -0.035420 -542652.000000 0 0 1
36.437727 -22.708970 -8.264976 43.723164 -0.557323 1.760970 0.070685 -0.032484 -256665.000000 0 0 1
37.187027 -23.878170 -8.583876 45.019162 -0.570809 1.762643 0.062498 -0.019245 481686.000000 0 0 1
-36.861172 -23.525470 -9.318876 44.710572 0.568048 1.780762 0.061787 -0.018492 827437.000000 0 0 1
-36.123572 -24.698070 -10.068376 44.902999 0.599710 1.796944 0.052595 -0.022124 -183655.000000 0 0 1
-35.413072 -25.614570 -9.288476 44.681850 0.626198 1.780204 0.057522 -0.016056 -147468.000000 0 0 1
-36.220772 -26.622070 -8.731876 45.792190 0.633828 1.762656 0.046855 -0.014879 211983.000000 0 0 1
-35.371872 -27.892870 -8.367876 45.817059 0.667727 1.754464 0.049942 -0.018034 109640.000000 0 0 1
-34.832172 -28.548570 -9.478576 46.023304 0.686581 1.778232 0.046853 -0.020924 249600.000000 0 0 1
-34.053372 -29.692270 -9.081276 46.083974 0.717090 1.769154 0.039062 -0.020319 -73270.600000 0 0 1
-33.542572 -30.492670 -10.298476 46.486188 0.737806 1.794188 0.041657 -0.019047 -599307.000000 0 0 1
-32.308572 -30.098970 -10.821576 45.463154 0.750007 1.811133 0.041233 -0.006633 -184058.000000 0 0 1
-31.951272 -30.891770 -11.990176 46.032050 0.768540 1.834310 0.031502 -0.010204 30582.300000 0 0 1
-32.305872 -30.194570 -13.332076 46.185774 0.751630 1.863625 0.024640 -0.008866 -274658.000000 0 0 1
-31.446572 -29.145470 -13.703176 45.012469 0.747439 1.880137 0.028301 -0.002462 -23977.100000 0 0 1
-31.743172 -28.825470 -15.036576 45.438259 0.737264 1.908078 0.019890 0.011068 -83608.300000 0 0 1
-30.568272 -28.026670 -15.593476 44.306546 0.742050 1.930445 0.030730 -0.005366 267033.000000 0 0 1
-29.365172 -28.810170 -15.604276 43.998099 0.775858 1.933345 0.055357 -0.017464 677890.000000 0 0 1
-28.221672 -27.964470 -15.822076 42.764617 0.780821 1.949784 0.087793 -0.001657 967199.000000 0 0 1
-27.084272 -28.694870 -16.631576 42.820120 0.814265 1.969697 0.114211 -0.019727 104542.000000 0 0 1
-27.432772 -29.215570 -17.907376 43.895110 0.816859 1.991013 0.101764 -0.022707 -137680.000000 0 0 1
-27.607672 -28.292770 -18.999176 43.859242 0.797653 2.018820 0.075067 -0.001918 630673.000000 0 0 1
-26.330272 -27.515670 -19.495676 42.784071 0.807409 2.043928 0.092889 -0.003815 711344.000000 0 0 1
-25.939972 -26.448570 -18.678076 41.488306 0.795106 2.037787 0.097282 -0.009751 -121317.000000 0 0 1
-24.539772 -26.220270 -18.678476 40.479482 0.818493 2.050403 0.118399 -0.024801 470363.000000 0 0 1
-24.122772 -25.047370 -17.769676 39.051764 0.804200 2.043201 0.117005 -0.026670 -96753.300000 0 0 1
-24.241372 -25.294870 -16.366176 38.669449 0.806662 2.007807 0.130339 -0.030966 14420.300000 0 0 1
-23.709572 -24.252270 -15.562176 37.316186 0.796713 2.000978 0.136962 -0.028917 -104404.000000 0 0 1
-24.242772 -24.241370 -14.117676 37.076473 0.785369 1.961427 0.124404 -0.022160 555463.000000 0 0 1
-25.604072 -23.804470 -14.084276 37.690691 0.748991 1.953770 0.098756 0.001282 261102.000000 0 0 1
-26.147772 -23.947170 -12.795676 37.694858 0.741498 1.917133 0.099848 -0.003728 -740228.000000 0 0 1
-27.658072 -23.957770 -12.812176 38.769777 0.713831 1.907596 0.101370 0.014785 -1438160.000000 0 0 1
-28.258272 -25.138170 -13.358076 40.111043 0.727032 1.910309 0.099765 0.004117 700448.000000 0 0 1
-29.631072 -25.334170 -13.045476 41.109671 0.707382 1.893713 0.079091 0.004435 271754.000000 0 0 1
-30.735972 -24.352870 -13.506976 41.475302 0.670043 1.902509 0.082518 0.005921 -955331.000000 0 0 1
-30.842372 -23.190870 -12.735576 40.635739 0.644726 1.889576 0.101941 0.001615 152065.000000 0 0 1
-31.337572 -23.312770 -11.392076 40.685478 0.639601 1.854594 0.116197 -0.009092 264814.000000 0 0 1
-32.873072 -23.642870 -11.268076 42.030866 0.623507 1.842207 0.078509 -0.010298 438799.000000 0 0 1
-33.715072 -22.532470 -11.553676 42.165220 0.589147 1.848356 0.104463 -0.025449 96457.000000 0 0 1
-34.094172 -22.387970 -12.918776 42.784677 0.581037 1.877532 0.101847 -0.012748 6814.460000 0 0 1
-35.575972 -21.918770 -13.125376 43.799062 0.552182 1.875146 0.060667 -0.021572 484670.000000 0 0 1
-36.413972 -23.003670 -12.749376 44.918736 0.563422 1.858584 0.062402 -0.017779 291027.000000 0 0 1
37.454727 -22.619470 -13.014276 45.649407 -0.543293 1.859899 0.079333 -0.025047 448543.000000 0 0 1
36.415427 -23.691970 -12.631476 45.243198 -0.576799 1.853747 0.056837 -0.005419 -271147.000000 0 0 1
36.253227 -24.852170 -13.457576 45.967741 -0.600939 1.867910 0.027451 0.005193 241645.000000 0 0 1
35.506627 -25.912570 -12.835976 45.792403 -0.630444 1.854911 0.030138 -0.005848 252112.000000 0 0 1
35.426327 -27.084970 -13.841276 46.692624 -0.652744 1.871753 0.025431 -0.004709 186374.000000 0 0 1
34.614327 -26.816270 -14.959376 46.271448 -0.659133 1.900007 0.030703 -0.010574 -60226.500000 0 0 1
34.549127 -27.977970 -15.762076 47.168337 -0.680690 1.911517 0.029764 0.003259 25963.700000 0 0 1
33.722227 -27.826270 -17.088576 46.941552 -0.689896 1.943398 0.036094 -0.005083 1639860.000000 0 0 1
32.289827 -27.954170 -16.851176 45.913295 -0.713554 1.946602 0.080055 -0.007252 1190750.000000 0 0 1
31.549627 -27.505570 -17.958876 45.546203 -0.717026 1.976103 0.083677 -0.010386 -1305480.000000 0 0 1
30.077927 -27.623270 -17.748276 44.527835 -0.742883 1.980773 0.094289 -0.019040 -1508880.000000 0 0 1
29.644727 -26.761370 -16.772076 43.316086 -0.734325 1.968391 0.085164 -0.020968 1044880.000000 0 0 1
28.196427 -26.835370 -16.694576 42.354273 -0.760671 1.975956 0.114909 -0.025872 1211650.000000 0 0 1
27.568827 -25.899870 -15.690376 40.951574 -0.754195 1.963995 0.102154 -0.029029 -83176.900000 0 0 1
27.553627 -24.547670 -16.112576 40.266681 -0.727768 1.982473 0.105712 -0.032424 -7208.590000 0 0 1
26.887927 -23.743470 -15.168276 38.945983 -0.723373 1.970852 0.110639 -0.023968 -48387.800000 0 0 1
26.861527 -22.256670 -15.588876 38.208822 -0.691921 1.991049 0.108056 -0.018786 149886.000000 0 0 1
25.597627 -21.958970 -16.149776 37.393183 -0.709035 2.017385 0.114404 -0.016406 -33512.000000 0 0 1
25.458227 -20.562570 -16.229776 36.528704 -0.679418 2.031191 0.099598 -0.016131 -486712.000000 0 0 1
23.983327 -20.170870 -16.294276 35.320920 -0.699268 2.050280 0.090712 -0.014985 -360808.000000 0 0 1
23.301527 -20.330570 -15.044376 34.389337 -0.717412 2.023582 0.093000 -0.015283 -12496.600000 0 0 1
22.024527 -19.746970 -15.095576 33.209924 -0.730928 2.042663 0.077064 -0.012785 -181908.000000 0 0 1
21.847527 -18.409570 -14.284876 31.941891 -0.700205 2.034445 0.070053 -0.009030 -248131.000000 0 0 1
21.602227 -18.653270 -12.894876 31.318980 -0.712273 1.995145 0.069026 -0.024183 292000.000000 0 0 1
21.147027 -17.453770 -12.227676 30.022440 -0.690010 1.990275 0.067756 -0.038773 234113.000000 0 0 1
20.136427 -17.800770 -11.053976 29.060858 -0.723909 1.960996 0.080539 -0.033099 346468.000000 0 0 1
20.684327 -18.218270 -9.833676 29.265132 -0.722092 1.913485 0.086670 -0.041944 726355.000000 0 0 1
19.575927 -18.350270 -8.940376 28.282144 -0.753093 1.892427 0.071340 -0.041709 728219.000000 0 0 1
20.086327 -18.840470 -7.550376 28.555770 -0.753404 1.838386 0.076447 -0.043592 256388.000000 0 0 1
21.047527 -17.987870 -6.950976 28.546067 -0.707176 1.816769 0.078908 -0.046080 490051.000000 0 0 1
21.757627 -18.702070 -5.904976 29.292158 -0.710020 1.773776 0.082514 -0.039471 228006.000000 0 0 1
23.119227 -18.047370 -5.548176 29.849430 -0.662813 1.757756 0.089306 -0.038374 298563.000000 0 0 1
24.108127 -18.381470 -6.517576 31.009015 -0.651428 1.782559 0.090281 -0.044700 355978.000000 0 0 1
25.090727 -17.381170 -6.698276 31.249265 -0.605832 1.786823 0.112580 -0.035700 -370743.000000 0 0 1
26.092727 -17.714270 -7.795876 32.486943 -0.596422 1.813131 0.117949 -0.046668 -193966.000000 0 0 1
27.135027 -18.612170 -7.465776 33.741078 -0.601206 1.793909 0.140458 -0.058595 255988.000000 0 0 1
27.621727 -19.307170 -8.585776 34.777035 -0.610044 1.820256 0.137995 -0.063561 -289820.000000 0 0 1
28.616927 -20.411170 -8.307576 36.118696 -0.619567 1.802882 0.138179 -0.070344 -547690.000000 0 0 1
29.945927 -20.060670 -8.050476 36.932360 -0.590235 1.790539 0.125329 -0.045113 -298833.000000 0 0 1
30.652527 -21.288270 -7.983376 38.164147 -0.607027 1.781538 0.122149 -0.052294 -271915.000000 0 0 1
-31.305733 29.721867 4.535224 43.405144 -0.759451 1.466119 0.092115 -0.015724 241556.000000 0 0 1
-30.751913 30.448567 3.467124 43.414472 -0.780442 1.490850 0.079346 -0.015096 -652688.000000 0 0 1
-29.488013 30.946367 3.809724 42.915435 -0.809525 1.481906 0.079716 -0.010198 -209018.000000 0 0 1
-28.946393 31.907467 2.749924 43.168764 -0.834019 1.507051 0.073628 -0.013297 -684245.000000 0 0 1
-28.249133 31.264667 1.678224 42.170005 -0.836024 1.530989 0.080019 -0.017798 162791.000000 0 0 1
-27.763083 32.205367 0.736624 42.526663 -0.859340 1.553474 0.069294 -0.031485 -257368.000000 0 0 1
-26.691733 33.213367 1.175624 42.625796 -0.893837 1.543213 0.104231 -0.018272 -812947.000000 0 0 1
-25.442163 32.618067 1.465524 41.393112 -0.908369 1.535384 0.077950 -0.019400 -164397.000000 0 0 1
-24.604973 33.541667 2.116124 41.652444 -0.937897 1.519970 0.076302 -0.022822 6976.800000 0 0 1
-23.108273 33.181267 2.107224 40.489865 -0.962474 1.518730 0.078503 -0.035444 193658.000000 0 0 1
-22.450473 33.403067 0.869124 40.255981 -0.979036 1.549205 0.118758 -0.034794 -120482.000000 0 0 1
-21.070073 33.141367 0.950824 39.283613 -1.004494 1.546590 0.117768 -0.039791 -157427.000000 0 0 1
-20.171773 33.712167 -0.181676 39.286685 -1.031589 1.575421 0.130969 -0.042766 130707.000000 0 0 1
-19.909573 -32.524870 -0.219876 38.135373 1.021503 1.576562 0.124052 -0.037563 40843.500000 0 0 1
-18.924873 -32.073770 0.664924 37.246741 1.037731 1.552944 0.131831 -0.028162 -519824.000000 0 0 1
-18.678873 -30.564770 0.503324 35.823998 1.022237 1.556746 0.133540 -0.030205 -332096.000000 0 0 1
-17.911973 -30.163770 -0.590376 35.086185 1.034930 1.587624 0.145179 -0.025673 -60209.100000 0 0 1
-17.757373 -28.759670 -0.474276 33.803371 1.017652 1.584827 0.103867 -0.026111 -472670.000000 0 0 1
-16.636273 -28.252070 -1.369376 32.814939 1.038615 1.612539 0.086597 -0.024330 -589099.000000 0 0 1
-16.875873 -28.390370 -2.778876 33.144085 1.034488 1.654737 0.088601 -0.027924 186885.000000 0 0 1
-15.840573 -27.779870 -3.546976 32.174928 1.052564 1.681261 0.068091 -0.015397 165565.000000 0 0 1
-16.214973 -27.809470 -5.047476 32.584797 1.042916 1.726325 0.097257 -0.019830 -786193.000000 0 0 1
-17.291473 -27.040470 -5.375176 32.543426 1.001862 1.736726 0.097025 -0.013824 -1075320.000000 0 0 1
-17.302673 -26.657370 -6.734476 32.486167 0.995071 1.779613 0.114562 -0.022770 113061.000000 0 0 1
-18.155073 -25.400070 -6.993476 31.994983 0.950230 1.791156 0.104474 -0.015754 79640.800000 0 0 1
-17.551873 -24.236170 -6.485276 30.618932 0.944012 1.784219 0.054773 0.002593 -48468.100000 0 0 1
-18.073473 -23.097170 -7.110576 30.177641 0.906819 1.808657 0.040865 0.005773 625619.000000 0 0 1
-17.100473 -21.860770 -6.820576 28.580408 0.906976 1.811767 0.056820 0.010347 869491.000000 0 0 1
-15.853273 -22.024570 -7.455576 28.142380 0.946905 1.838921 0.079303 0.004718 -718866.000000 0 0 1
-14.910173 -21.049170 -7.058476 26.743278 0.954489 1.837895 0.093232 -0.018913 529740.000000 0 0 1
-13.884673 -20.960370 -8.267976 26.466596 0.985736 1.888507 0.082842 -0.019418 102848.000000 0 0 1
-14.426273 -20.298770 -9.410376 26.621657 0.952927 1.932091 0.106432 -0.016609 143406.000000 0 0 1
-13.496773 -20.347070 -10.489676 26.574414 0.985109 1.976569 0.105489 -0.011949 349422.000000 0 0 1
-14.000973 -19.553470 -11.714876 26.750771 0.949389 2.024087 0.122759 -0.008677 78983.400000 0 0 1
-15.178173 -20.107170 -12.300476 28.035280 0.924190 2.025003 0.100730 0.010085 118992.000000 0 0 1
-15.532473 -19.205570 -13.352076 28.078276 0.890744 2.066363 0.123870 -0.012390 450596.000000 0 0 1
-16.830573 -19.592070 -14.127476 29.439820 0.861072 2.071310 0.127072 -0.013764 559814.000000 0 0 1
-18.045773 -19.366270 -13.411376 29.674355 0.820680 2.039748 0.109845 -0.010142 -569124.000000 0 0 1
-19.029573 -19.890370 -14.235576 30.990371 0.807512 2.048065 0.099482 -0.012689 -798412.000000 0 0 1
-20.406173 -19.645270 -13.562776 31.405373 0.766402 2.017352 0.072407 -0.005260 481827.000000 0 0 1
-21.464473 -20.307370 -14.311176 32.831732 0.757705 2.021828 0.078885 -0.015297 439921.000000 0 0 1
-22.714573 -19.808070 -13.860676 33.172727 0.717152 2.001856 0.067492 -0.008639 18094.200000 0 0 1
-23.834273 -20.404470 -14.752876 34.670771 0.708024 2.010325 0.085084 -0.014895 -321934.000000 0 0 1
-23.904673 -19.823970 -16.007676 34.938072 0.692349 2.046735 0.083000 -0.023132 46288.300000 0 0 1
-24.824473 -20.519370 -16.829176 36.338962 0.690738 2.052305 0.094499 -0.025902 -67019.100000 0 0 1
-25.148323 -19.829270 -18.182776 36.827319 0.667685 2.087171 0.090806 -0.018568 929436.000000 0 0 1
-23.971973 -19.754970 -19.030976 36.429279 0.689256 2.120470 0.067241 -0.017757 1083630.000000 0 0 1
-24.381573 -19.429170 -20.356676 37.233695 0.672835 2.149247 0.088154 -0.022008 100899.000000 0 0 1
-23.310573 -18.699270 -21.227976 36.656139 0.676069 2.188434 0.050592 -0.012831 45707.200000 0 0 1
-22.240973 -19.561270 -21.503176 36.601786 0.721381 2.198750 0.035279 -0.006641 -109787.000000 0 0 1
-21.229873 -18.889570 -22.251976 36.092573 0.727131 2.235118 0.029012 -0.004176 1038070.000000 0 0 1
-19.878173 -19.669770 -22.443776 35.857561 0.780129 2.247100 0.036721 0.003192 586291.000000 0 0 1
-19.958573 -20.786270 -23.326976 37.075079 0.805710 2.251297 0.016707 0.007731 253623.000000 0 0 1
-18.644173 -21.317870 -23.459476 36.775043 0.852205 2.262589 0.023267 0.005257 408810.000000 0 0 1
-18.569773 -22.671970 -24.234876 38.028725 0.884539 2.261757 0.032527 0.002460 -254895.000000 0 0 1
-18.515673 -22.564670 -25.640236 38.851206 0.883644 2.291562 0.033939 -0.001559 119679.000000 0 0 1
-18.631473 -23.811370 -26.261616 40.047292 0.906842 2.285992 0.052645 -0.002446 -124470.000000 0 0 1
-18.552373 -23.667370 -27.836996 40.978449 0.905962 2.317616 0.075425 0.003064 357516.000000 0 0 1
-17.201673 -23.743570 -28.274416 40.732018 0.943831 2.338044 0.053393 0.003906 401475.000000 0 0 1
-17.124073 -23.447470 -29.617496 41.475460 0.940012 2.366129 0.098698 -0.009689 524323.000000 0 0 1
-15.603573 -23.332770 -29.985376 41.073257 0.981359 2.389186 0.059508 -0.014579 462294.000000 0 0 1
-14.942373 -24.574570 -29.975726 41.541884 1.024484 2.376876 0.070131 -0.003757 -1064720.000000 0 0 1
-13.606373 -24.253270 -30.141616 41.010627 1.059538 2.396420 0.083830 -0.010711 -612843.000000 0 0 1
-12.650773 -25.472570 -29.885276 41.255589 1.109838 2.380950 0.099376 -0.015681 -392829.000000 0 0 1
-12.794173 -26.468170 -30.898726 42.649574 1.120533 2.381075 0.084431 -0.005697 380120.000000 0 0 1
-11.963373 -27.610670 -30.672476 42.968270 1.161927 2.365763 0.074757 -0.009423 425665.000000 0 0 1
-10.496173 -27.502070 -31.164166 42.868855 1.206208 2.384688 0.082996 -0.011670 -166791.000000 0 0 1
-9.740773 -26.514770 -30.534386 41.596447 1.218730 2.395081 0.118579 -0.030136 30771.800000 0 0 1
-8.683373 -26.082770 -31.421426 41.749466 1.249421 2.422826 0.107746 -0.026431 257229.000000 0 0 1
-7.870573 -25.010270 -30.623436 40.314444 1.265914 2.433516 0.168239 -0.041106 -228846.000000 0 0 1
-8.353873 -23.676370 -30.591466 39.575188 1.231597 2.454347 0.183123 -0.032845 405682.000000 0 0 1
-9.469273 -23.402270 -29.733106 39.005012 1.186304 2.437639 0.163865 -0.023767 212004.000000 0 0 1
-9.622173 -21.818470 -29.713166 38.098610 1.155443 2.465305 0.182312 -0.039181 -3607.810000 0 0 1
-10.246273 -21.165470 -30.819936 38.766373 1.119947 2.489832 0.172773 -0.035212 208616.000000 0 0 1
-10.616773 -19.800870 -30.490116 37.873969 1.078628 2.506542 0.190671 -0.041607 186710.000000 0 0 1
-11.229073 -19.214570 -31.774646 38.793297 1.041923 2.530594 0.172769 -0.049310 96570.700000 0 0 1
-11.944273 -18.021770 -31.522386 38.224477 0.985497 2.540406 0.160973 -0.047737 599186.000000 0 0 1
-12.964673 -17.778270 -32.506696 39.253470 0.940713 2.546547 0.148893 -0.045456 733181.000000 0 0 1
-13.893073 -16.510770 -32.262616 38.813650 0.871284 2.552092 0.167290 -0.048768 448101.000000 0 0 1
-13.240773 -15.242770 -32.302476 38.093439 0.855569 2.582959 0.174482 -0.047597 148265.000000 0 0 1
-12.183173 -14.965370 -31.401906 36.857451 0.887522 2.590557 0.164151 -0.042694 255146.000000 0 0 1
-11.727373 -13.475970 -31.486396 36.201190 0.854667 2.625515 0.144915 -0.037604 -215119.000000 0 0 1
-10.948473 -13.010370 -32.543696 36.718264 0.871247 2.660107 0.156160 -0.038508 386681.000000 0 0 1
-11.516873 -13.030470 33.748265 37.965470 0.846981 0.475814 0.159358 -0.042354 671466.000000 0 0 1
-12.495673 -11.936870 33.181341 37.411658 0.762531 0.480151 0.124199 -0.027042 1166040.000000 0 0 1
-13.738073 -11.697670 -33.835556 38.345990 0.705352 2.651683 0.113481 -0.024206 790522.000000 0 0 1
-14.742973 -11.197370 32.947534 37.792544 0.649557 0.511932 0.081581 -0.022993 1258500.000000 0 0 1
-15.885273 -10.360670 33.649635 38.626200 0.577933 0.513235 0.077338 -0.017222 669133.000000 0 0 1
-15.402173 -9.174170 -33.383716 37.892807 0.537208 2.648777 0.101046 -0.024690 110597.000000 0 0 1
-16.265173 -8.656470 -32.395316 37.268577 0.489082 2.624458 0.080364 -0.026505 -126201.000000 0 0 1
-15.512873 -7.588470 -31.628466 36.036009 0.454948 2.641818 0.077603 -0.039852 -13606.800000 0 0 1
-15.208673 -6.357870 -32.358346 36.315132 0.395963 2.670434 0.072336 -0.048306 231319.000000 0 0 1
-16.136973 -5.320470 -32.140836 36.355779 0.318483 2.655284 0.068073 -0.032607 -165095.000000 0 0 1
-16.237073 -4.593370 -30.761886 35.086111 0.275690 2.639867 0.071124 -0.042475 -27082.200000 0 0 1
-16.804073 -5.461170 -29.784906 34.631516 0.314224 2.606168 0.070863 -0.046148 48829.600000 0 0 1
-17.237973 -4.877170 -28.580866 33.731297 0.275725 2.581696 0.088694 -0.051225 408069.000000 0 0 1
-16.095373 -4.499070 -27.550466 32.223141 0.272569 2.596328 0.085733 -0.052741 183295.000000 0 0 1
-15.476073 -3.424370 -28.096946 32.259472 0.217760 2.627964 0.083499 -0.047818 -461374.000000 0 0 1
-14.221673 -3.078070 -27.545796 31.152871 0.213148 2.655604 0.069120 -0.041856 -43482.800000 0 0 1
-13.727373 -1.771470 -28.138976 31.358904 0.128337 2.684456 0.037708 -0.017228 -152236.000000 0 0 1
-13.751973 -1.813470 -29.558966 32.651767 0.131113 2.702833 0.045569 -0.022143 181330.000000 0 0 1
-13.746773 -0.524470 -30.147926 33.138290 0.038134 2.713504 0.042757 -0.025530 -83469.100000 0 0 1
-14.037873 -0.645470 -31.643356 34.623410 0.045948 2.723659 0.045982 -0.023861 -398110.000000 0 0 1
-15.283773 -1.177470 -31.997646 35.479987 0.076889 2.694830 0.037987 -0.027175 -43205.100000 0 0 1
-15.286273 -1.317470 -33.414216 36.768406 0.085974 2.711136 0.041021 -0.022124 168358.000000 0 0 1
-16.684273 -1.585470 33.638435 37.582217 0.094743 0.462225 0.037314 -0.019495 107792.000000 0 0 1
-16.626173 -1.396470 32.241249 36.302588 0.083796 0.477546 0.040672 -0.015202 850680.000000 0 0 1
-17.872873 -1.546470 31.521265 36.268738 0.086311 0.517411 0.038199 -0.014666 710625.000000 0 0 1
-17.900373 -1.358470 29.982495 34.945941 0.075745 0.539496 0.046977 -0.008143 15374.200000 0 0 1
-17.491373 -0.017470 29.578345 34.363163 0.000999 0.534041 0.052795 0.000687 172210.000000 0 0 1
-17.367973 0.105530 28.196845 33.116759 -0.006076 0.552076 0.054424 -0.010734 -424766.000000 0 0 1
-16.910373 1.509530 27.814755 32.586807 -0.089031 0.548018 0.060835 -0.013455 213032.000000 0 0 1
-17.818973 2.555530 28.200065 33.455795 -0.142445 0.568136 0.047191 -0.007404 897827.000000 0 0 1
-19.102473 2.609530 27.579705 33.650472 -0.135767 0.610095 0.045893 -0.016213 223670.000000 0 0 1
-19.112473 3.313530 26.164915 32.570982 -0.171664 0.637948 0.062862 -0.024398 -382506.000000 0 0 1
-18.731673 4.711530 26.156225 32.514954 -0.246416 0.636070 0.069095 -0.025430 314596.000000 0 0 1
-19.158173 5.272530 24.954075 31.898919 -0.268562 0.672469 0.074570 -0.028188 -784569.000000 0 0 1
-18.801473 6.810530 24.917155 31.949074 -0.347532 0.676287 0.072857 -0.024837 912914.000000 0 0 1
-17.405473 7.153530 24.885245 31.199341 -0.389947 0.647456 0.078259 -0.027786 466267.000000 0 0 1
-16.779773 6.803530 23.706795 29.830537 -0.385205 0.652257 0.069639 -0.028188 -991241.000000 0 0 1
-15.543273 7.688530 23.460375 29.173550 -0.459361 0.636525 0.071327 -0.018343 287817.000000 0 0 1
-14.493873 7.420530 24.404395 29.337879 -0.473183 0.588383 0.072971 -0.030340 -107964.000000 0 0 1
-13.369773 8.156530 24.083605 28.728032 -0.547793 0.576582 0.076825 -0.027855 -98360.900000 0 0 1
-11.983273 7.800530 24.734365 28.569843 -0.577044 0.524148 0.069399 -0.023827 530990.000000 0 0 1
-10.999373 8.468530 23.933315 27.667775 -0.656122 0.525596 0.050290 -0.024503 379146.000000 0 0 1
-9.806473 8.692530 24.705325 27.965695 -0.725254 0.487695 0.052097 -0.024627 326847.000000 0 0 1
-9.729473 9.983530 25.495345 29.057635 -0.798285 0.500368 0.050012 -0.033555 -950409.000000 0 0 1
-10.656473 10.119530 26.547965 30.344023 -0.759560 0.505568 0.045988 -0.036212 51076.800000 0 0 1
-10.716473 11.394530 27.147285 31.331345 -0.816055 0.522734 0.058483 -0.037191 -310246.000000 0 0 1
-11.283273 12.573530 26.253395 31.219331 -0.839429 0.571790 0.050643 -0.039102 -225680.000000 0 0 1
-12.671573 12.620530 26.047535 31.596212 -0.783380 0.601676 0.053313 -0.039360 -267365.000000 0 0 1
-12.989473 11.808530 24.907625 30.472243 -0.737812 0.613935 0.051317 -0.034733 397900.000000 0 0 1
-14.517173 11.533530 24.685835 30.873307 -0.671363 0.644192 0.064920 -0.036419 769724.000000 0 0 1
-15.342173 12.638530 24.359435 31.440369 -0.689072 0.684426 0.059718 -0.040158 545194.000000 0 0 1
-16.686873 12.362530 23.990155 31.730292 -0.637622 0.713517 0.071675 -0.027374 230364.000000 0 0 1
-16.861273 11.884530 22.508585 30.531639 -0.613968 0.741847 0.065112 -0.009254 -627588.000000 0 0 1
-16.625973 10.513530 22.277485 29.719415 -0.563871 0.723348 0.064808 -0.013276 104073.000000 0 0 1
-16.503173 10.302530 20.874085 28.534615 -0.558078 0.750225 0.074667 -0.017638 -16885.200000 0 0 1
-17.006673 8.899530 20.495985 28.080491 -0.482111 0.752619 0.075959 -0.019356 -368001.000000 0 0 1
-18.379873 8.689530 20.594885 28.939194 -0.441631 0.778937 0.084363 -0.009949 -666161.000000 0 0 1
-18.750773 7.346530 20.699585 28.879678 -0.373416 0.771662 0.083037 -0.010091 -634663.000000 0 0 1
-20.262673 7.208530 20.850285 29.954519 -0.341792 0.800894 0.088125 -0.015560 -537228.000000 0 0 1
-20.540273 7.675530 22.168085 31.180773 -0.357615 0.779943 0.081691 -0.021287 -589023.000000 0 0 1
-21.915473 7.686530 22.404285 32.269532 -0.337330 0.803369 0.075603 -0.017862 -650381.000000 0 0 1
-22.250273 8.347530 23.755195 33.601565 -0.358916 0.785596 0.078100 -0.024131 -727911.000000 0 0 1
-22.194273 9.756530 23.892305 34.038476 -0.414169 0.792706 0.079193 -0.023780 276044.000000 0 0 1
-21.124473 10.562530 23.355215 33.215606 -0.463659 0.790993 0.082842 -0.016403 974314.000000 0 0 1
-19.735473 10.324530 24.050385 32.779656 -0.481992 0.747047 0.083094 -0.025568 -242392.000000 0 0 1
-19.612373 10.841530 25.393445 33.867551 -0.504983 0.723056 0.098258 -0.030335 -48193.200000 0 0 1
-20.254873 10.127530 26.445185 34.816297 -0.463651 0.708155 0.072144 -0.028838 -99348.500000 0 0 1
-31.982423 -13.752033 20.426985 40.364037 0.406087 1.040175 0.080289 -0.007313 -48451.400000 0 0 1
-31.202213 -14.928833 20.344385 40.129069 0.446263 1.039126 0.090095 -0.012531 20794.500000 0 0 1
-31.740633 -15.960333 19.524985 40.539179 0.465914 1.068280 0.081215 -0.000205 -30238.000000 0 0 1
-31.559603 -15.671133 18.035485 39.583730 0.460889 1.097718 0.083967 0.006682 -15346.500000 0 0 1
-32.540923 -14.794233 17.564985 39.828504 0.426701 1.114067 0.078600 -0.004052 -48592.800000 0 0 1
-32.164703 -14.501233 16.237185 38.839414 0.423555 1.139488 0.075427 -0.006826 -797404.000000 0 0 1
-32.984543 -13.416333 15.514385 38.841656 0.386308 1.159905 0.072796 -0.012106 2179190.000000 0 0 1
-34.388608 -13.732233 15.139185 40.004319 0.379924 1.182687 0.082260 -0.011984 2046450.000000 0 0 1
-35.329233 -13.888233 16.126085 41.244252 0.374552 1.169089 0.081421 -0.012491 -916492.000000 0 0 1
-35.794679 -12.630133 16.933585 41.563513 0.339211 1.151175 0.086999 -0.008356 -854627.000000 0 0 1
-36.915753 -12.847233 17.712785 42.913483 0.334905 1.145319 0.057739 -0.013253 -448551.000000 0 0 1
-37.521283 -11.595333 18.043885 43.218980 0.299724 1.140105 0.059521 -0.008767 731367.000000 0 0 1
36.613366 -11.703933 19.176085 42.956290 -0.309397 1.108048 0.061006 -0.007523 395411.000000 0 0 1
37.229376 -12.152233 20.368285 44.142613 -0.315511 1.091201 0.055614 -0.001956 20509.000000 0 0 1
36.554956 -11.764033 21.540985 44.030345 -0.311351 1.059589 0.048466 -0.006580 -742444.000000 0 0 1
37.277536 -12.336433 22.787285 45.398928 -0.319590 1.044962 0.038557 -0.017041 -3668.250000 0 0 1
-36.698483 -11.769833 23.113905 44.939518 0.310353 1.030566 0.054842 -0.018511 -504607.000000 0 0 1
-35.663676 -12.503633 22.508685 43.987266 0.337208 1.033623 0.055188 -0.025539 -1095470.000000 0 0 1
-34.385086 -11.672733 22.539685 42.739025 0.327264 1.015283 0.074496 -0.018705 -599506.000000 0 0 1
-34.446524 -10.481833 21.730185 42.055116 0.295391 1.027796 0.092310 -0.018568 249081.000000 0 0 1
-33.139813 -9.929733 21.555985 40.761591 0.291119 1.013574 0.113120 -0.030528 25813.300000 0 0 1
-33.124803 -8.549533 20.919085 40.099317 0.252588 1.021975 0.113378 -0.013788 10211.800000 0 0 1
-33.331263 -8.447333 19.510485 39.534663 0.248210 1.054683 0.117363 -0.014877 708899.000000 0 0 1
-34.688202 -8.690133 19.115085 40.548443 0.245469 1.079903 0.102066 -0.013866 303802.000000 0 0 1
-34.960748 -8.470033 17.612085 40.052227 0.237693 1.115501 0.114521 -0.014169 109719.000000 0 0 1
-36.301523 -8.723933 17.228885 41.118634 0.235846 1.138448 0.044364 -0.007054 168962.000000 0 0 1
-36.501423 -8.560033 15.804685 40.686805 0.230350 1.171850 0.067438 0.003181 464162.000000 0 0 1
37.201066 -8.517233 15.478185 41.182967 -0.225072 1.185494 0.060391 -0.002788 662231.000000 0 0 1
36.546926 -9.793233 15.543885 40.904738 -0.261813 1.180998 0.051667 0.009112 -226281.000000 0 0 1
35.154926 -9.638833 15.486485 39.605645 -0.267605 1.169060 0.042596 0.008442 -275298.000000 0 0 1
34.335796 -10.922333 15.603185 39.264534 -0.307982 1.162130 0.036661 -0.009232 -111374.000000 0 0 1
34.100706 -11.460333 16.877185 39.737096 -0.324214 1.132142 0.025535 -0.018832 -489539.000000 0 0 1
32.945956 -12.233633 16.761085 38.936253 -0.355544 1.125777 0.046853 -0.018559 -351164.000000 0 0 1
32.392606 -12.579433 18.141185 39.199817 -0.370417 1.089659 0.042172 -0.016005 -342638.000000 0 0 1
33.233296 -13.483233 18.798785 40.492516 -0.385423 1.088005 0.031749 -0.008562 -327963.000000 0 0 1
33.317396 -13.382333 20.186585 41.190216 -0.381938 1.058612 0.041140 -0.007513 -426927.000000 0 0 1
33.957006 -14.626333 20.799385 42.421955 -0.406715 1.058365 0.036206 -0.006281 97791.700000 0 0 1
34.283936 -14.440433 22.163085 43.302618 -0.398649 1.033496 0.034086 -0.014299 -177964.000000 0 0 1
34.769436 -15.670633 22.674265 44.368961 -0.423437 1.034403 0.035890 -0.006242 92629.500000 0 0 1
35.212166 -15.608633 24.135185 45.453638 -0.417246 1.011034 0.051154 -0.012315 -535562.000000 0 0 1
36.507546 -15.152233 24.307115 46.402876 -0.393408 1.019458 0.052771 -0.011257 -734823.000000 0 0 1
36.786616 -14.973933 25.683725 47.298282 -0.386568 0.996772 0.053981 -0.015532 -343969.000000 0 0 1
-37.208863 -14.148333 26.091175 47.596473 0.363358 0.990616 0.052480 -0.014728 592997.000000 0 0 1
-35.942347 -14.689933 25.654845 46.538345 0.387991 0.986920 0.032823 -0.013362 404483.000000 0 0 1
-34.941613 -13.924933 26.244075 45.864709 0.379230 0.961603 0.048881 -0.021726 -243646.000000 0 0 1
-33.497323 -14.371233 25.923055 44.728154 0.405276 0.952597 0.049648 -0.019121 -585785.000000 0 0 1
-33.165323 -14.242133 24.537815 43.644947 0.405616 0.973735 0.053926 -0.017433 1763420.000000 0 0 1
-31.815943 -14.726533 24.187365 42.592883 0.433502 0.966876 0.065411 -0.027334 1822550.000000 0 0 1
-31.464793 -16.176833 24.498665 43.033797 0.474884 0.965156 0.067528 -0.022357 -757235.000000 0 0 1
-31.430983 -16.477533 25.888945 43.927819 0.482855 0.940540 0.066649 -0.021122 7567.120000 0 0 1
-31.011983 -17.822733 26.054885 44.252118 0.521612 0.941244 0.071851 -0.023643 -250850.000000 0 0 1
-30.494753 -18.042233 27.478605 44.838888 0.534257 0.911160 0.066216 -0.033563 -47783.700000 0 0 1
-29.394963 -17.211233 27.809585 43.973440 0.529702 0.886126 0.071918 -0.036716 -72286.600000 0 0 1
-28.754903 -17.726333 28.958815 44.493599 0.552437 0.862088 0.084174 -0.046006 -212417.000000 0 0 1
-27.535243 -16.872233 29.325805 43.621837 0.549742 0.833521 0.066130 -0.036011 -420518.000000 0 0 1
-27.748413 -15.543433 29.791735 43.578897 0.510607 0.818075 0.086305 -0.044903 -60609.400000 0 0 1
-26.582003 -14.843933 29.414725 42.334044 0.509285 0.802621 0.062165 -0.034751 -245683.000000 0 0 1
-26.381563 -13.541833 30.172305 42.305273 0.474236 0.776737 0.068043 -0.028501 -287863.000000 0 0 1
-25.892063 -13.613433 31.518135 43.001364 0.484055 0.748138 0.065534 -0.029511 341271.000000 0 0 1
-25.956323 -12.300633 31.988139 42.991596 0.442548 0.731676 0.071643 -0.026687 -389011.000000 0 0 1
-25.460213 -12.022733 33.477269 43.743526 0.441175 0.699277 0.069756 -0.021630 234877.000000 0 0 1
-24.065573 -12.083733 33.713035 43.147852 0.465340 0.673990 0.048807 -0.017467 116396.000000 0 0 1
-23.389373 -13.271333 33.699115 43.114051 0.516110 0.673526 0.046026 -0.012875 -912048.000000 0 0 1
-23.312373 -14.118633 -32.649566 42.529951 0.544548 2.446016 0.042940 -0.013743 -382393.000000 0 0 1
-22.379573 -13.752533 -31.650446 41.130623 0.551022 2.448871 0.019849 -0.011159 -13134.200000 0 0 1
-22.339273 -14.711833 -30.611496 40.651505 0.582372 2.423440 0.029338 -0.007975 1157590.000000 0 0 1
-20.933373 -14.807933 -29.859106 39.357937 0.615664 2.432043 0.026884 -0.006663 1431690.000000 0 0 1
-20.480373 -13.739033 -29.003726 38.071286 0.590886 2.436925 0.025315 -0.010556 434880.000000 0 0 1
-21.214973 -13.698133 -27.754936 37.523998 0.573334 2.403359 0.035035 -0.005507 135376.000000 0 0 1
-20.830273 -12.529633 -26.828436 36.202996 0.541530 2.405438 0.039168 -0.010804 -1005550.000000 0 0 1
-19.504273 -12.613833 -26.480926 35.224493 0.574067 2.421547 0.031170 -0.014333 -1141310.000000 0 0 1
-18.965173 -11.483133 -25.819466 34.032116 0.544443 2.432080 0.051777 -0.021138 222838.000000 0 0 1
-17.645273 -11.733533 -25.065476 32.822394 0.586825 2.439775 0.068746 -0.032600 -451355.000000 0 0 1
-17.761673 -12.586833 -23.939976 32.357810 0.616509 2.403646 0.070901 -0.034218 962278.000000 0 0 1
-16.522973 -12.618433 -23.184076 31.140566 0.652205 2.410578 0.076703 -0.035579 1242290.000000 0 0 1
-15.402673 -13.537933 -23.788576 31.407233 0.721054 2.430154 0.057727 -0.028282 -144109.000000 0 0 1
-14.590773 -12.877133 -24.748276 31.483144 0.723092 2.475238 0.062047 -0.032266 221184.000000 0 0 1
-14.090573 -13.717433 -25.781056 32.424914 0.771981 2.489969 0.083246 -0.037353 -142449.000000 0 0 1
-13.095873 -13.039033 -26.710276 32.480103 0.783223 2.536340 0.108249 -0.039042 135349.000000 0 0 1
-13.773473 -12.045033 -27.373906 32.926010 0.718552 2.552376 0.106925 -0.033465 237212.000000 0 0 1
-12.804373 -11.506433 -28.222206 33.058174 0.732059 2.593871 0.107756 -0.033203 262457.000000 0 0 1
-13.517773 -10.486733 -29.080516 33.739860 0.659793 2.609809 0.105265 -0.039179 35801.900000 0 0 1
-12.631073 -9.536833 -29.612476 33.576687 0.646712 2.650749 0.100703 -0.029616 148979.000000 0 0 1
-12.199673 -9.869733 -30.949406 34.700279 0.680214 2.672340 0.115087 -0.025355 428969.000000 0 0 1
-11.378873 -8.726233 -31.645686 34.742990 0.654217 2.716138 0.093575 -0.026675 -288238.000000 0 0 1
-10.105573 -8.426833 -31.183346 33.845756 0.695061 2.742302 0.100725 -0.027935 -666180.000000 0 0 1
-9.608773 -7.328133 -31.884956 34.098101 0.651548 2.779323 0.081174 -0.034661 -1141210.000000 0 0 1
-8.082873 -7.322133 -31.939736 33.750455 0.736056 2.812543 0.102068 -0.038420 -512512.000000 0 0 1
-7.412173 -7.209133 -30.674746 32.370541 0.771512 2.816475 0.082584 -0.029584 -68805.800000 0 0 1
-7.655073 -6.030833 -29.950006 31.495618 0.667271 2.827012 0.067718 -0.021647 -644235.000000 0 0 1
-6.933473 -4.735533 -30.407226 31.545169 0.599222 2.872177 0.065670 -0.027628 -46759.200000 0 0 1
-5.557273 -4.627533 -30.134616 30.990199 0.694364 2.906067 0.092361 -0.029563 -169214.000000 0 0 1
-5.040473 -3.361333 -30.390046 30.988059 0.588142 2.944816 0.090331 -0.045955 155984.000000 0 0 1
-3.547573 -3.226433 -29.994586 30.375489 0.738026 2.983061 0.076645 -0.030847 366483.000000 0 0 1
-2.641373 -3.993633 -30.817946 31.187686 0.986451 2.987458 0.098329 -0.034825 1228140.000000 0 0 1
-1.247373 -3.731933 -30.579396 30.831521 1.248227 3.013618 0.096236 -0.041134 1081220.000000 0 0 1
-0.639473 -2.449433 -31.278586 31.380863 1.315426 3.060834 0.101945 -0.041979 518717.000000 0 0 1
0.798527 -2.408833 -31.087266 31.190675 -1.250697 3.060140 0.109253 -0.025887 1000420.000000 0 0 1
1.292727 -1.147833 -31.532826 31.580180 -0.726099 3.086823 0.075089 -0.022993 -37297.600000 0 0 1
1.404627 -0.059733 -30.369376 30.401900 -0.042500 3.095332 0.078939 -0.025695 -1228980.000000 0 0 1
0.163827 0.156767 -29.826246 29.827108 0.763381 3.133990 0.092704 -0.027793 -1404880.000000 0 0 1
0.111527 1.090867 -28.770306 28.791195 1.468913 3.103497 0.106548 -0.043676 921586.000000 0 0 1
-1.308073 1.152267 -28.064146 28.118234 -0.722156 3.079557 0.097160 -0.039624 1512370.000000 0 0 1
-2.253573 2.142067 -28.551136 28.719930 -0.760036 3.033121 0.098702 -0.054296 640188.000000 0 0 1
-1.801973 3.519067 -28.355406 28.629705 -1.097547 3.003056 0.126489 -0.057395 469702.000000 0 0 1
-2.912873 4.513267 -28.887856 29.383033 -0.997660 2.957745 0.153073 -0.055432 876901.000000 0 0 1
-2.917573 4.482067 -30.281496 30.750124 -0.993758 2.966786 0.150505 -0.058926 80172.200000 0 0 1
-4.108273 5.112467 -30.683056 31.376188 -0.893877 2.931009 0.165545 -0.049477 -230426.000000 0 0 1
-4.059573 5.596867 -32.148916 32.884006 -0.943272 2.929754 0.157628 -0.039639 -72918.800000 0 0 1
-3.810373 4.722767 -33.250636 33.799826 -0.891917 2.961079 0.169516 -0.040592 521230.000000 0 0 1
-2.612273 3.950967 -33.260046 33.595606 -0.986607 3.000137 0.157802 -0.045192 -162031.000000 0 0 1
-2.396973 3.341867 32.988624 33.243990 -0.948583 0.124028 0.119821 -0.041639 329776.000000 0 0 1
-3.411773 2.421567 32.513087 32.781169 -0.617252 0.127977 0.124732 -0.049072 506804.000000 0 0 1
-3.162473 1.844067 31.255035 31.468699 -0.527907 0.116597 0.119503 -0.034499 -31530.200000 0 0 1
-2.849773 2.798667 30.063715 30.327887 -0.776351 0.132085 0.109095 -0.031277 -172815.000000 0 0 1
-3.960573 3.586967 29.734295 30.210607 -0.735938 0.177809 0.095329 -0.038748 52514.000000 0 0 1
-3.701173 4.448067 28.689305 29.267050 -0.876795 0.199026 0.089514 -0.042031 514792.000000 0 0 1
-4.935773 5.405867 28.687115 29.606348 -0.830823 0.249842 0.085718 -0.032571 588866.000000 0 0 1
-5.052473 6.158767 27.536855 28.665943 -0.883757 0.281599 0.084508 -0.027848 -947694.000000 0 0 1
-6.267473 6.792167 27.411125 28.927228 -0.825553 0.325193 0.071695 -0.028217 -1279500.000000 0 0 1
-6.356873 7.680467 26.143335 27.979875 -0.879411 0.364332 0.071121 -0.029429 -512988.000000 0 0 1
-5.514373 8.791667 26.168405 28.151148 -1.010597 0.377557 0.097677 -0.031515 -211793.000000 0 0 1
-5.645873 9.592967 25.036675 27.399562 -1.038844 0.418347 0.082641 -0.028549 187476.000000 0 0 1
-4.756973 10.886067 25.021975 27.698998 -1.158824 0.443272 0.082218 -0.030617 -473914.000000 0 0 1
-4.907173 11.650167 23.834275 26.979240 -1.172140 0.487663 0.094166 -0.036477 107529.000000 0 0 1
-4.257373 12.921367 23.891355 27.493341 -1.252515 0.517645 0.093852 -0.034659 1632790.000000 0 0 1
-2.641973 12.952967 23.937895 27.345607 -1.369590 0.504568 0.094439 -0.028502 1716210.000000 0 0 1
-2.015973 12.545167 25.149525 28.177012 -1.411461 0.467817 0.114124 -0.032519 -91127.500000 0 0 1
-2.286373 13.277167 26.315045 29.563360 -1.400265 0.473180 0.107977 -0.032481 -497375.000000 0 0 1
-1.491673 12.781467 27.588405 30.441930 -1.454616 0.436437 0.114529 -0.036693 26558.300000 0 0 1
-0.142373 13.138767 27.567345 30.538598 -1.559961 0.444781 0.119401 -0.031334 -842494.000000 0 0 1
0.464127 12.910367 28.799955 31.564702 1.534862 0.421662 0.112733 -0.032845 -321333.000000 0 0 1
1.996227 12.899167 28.771195 31.593593 1.417258 0.425904 0.102277 -0.023128 -191236.000000 0 0 1
2.583927 14.171767 28.682785 32.097006 1.390448 0.465431 0.093360 -0.018431 -181185.000000 0 0 1
3.980727 14.076767 28.487295 32.023859 1.295205 0.474405 0.095968 -0.019872 284062.000000 0 0 1
4.733127 15.428467 28.426505 32.688014 1.273132 0.516342 0.095517 -0.018376 -223174.000000 0 0 1
4.808927 16.102967 29.686105 34.112991 1.280591 0.515130 0.106406 -0.013425 61330.100000 0 0 1
3.680627 16.873467 30.048265 34.657743 1.356029 0.521646 0.086212 -0.012979 54344.000000 0 0 1
3.794227 18.352267 29.497585 34.947237 1.366924 0.565985 0.090131 -0.011412 -161464.000000 0 0 1
4.895527 19.039967 30.016655 35.881557 1.319129 0.579844 0.113846 -0.012540 -281781.000000 0 0 1
5.138127 20.154067 29.237965 35.880989 1.321171 0.618310 0.086844 -0.003394 -841189.000000 0 0 1
6.345027 20.960567 29.621795 36.838234 1.276853 0.636628 0.083040 -0.008092 -1069120.000000 0 0 1
6.261027 21.572967 30.875305 38.182166 1.288331 0.628974 0.097627 -0.029788 493512.000000 0 0 1
7.447027 22.282067 31.255115 39.100268 1.248251 0.644570 0.071196 -0.029000 469658.000000 0 0 1
7.594427 23.698167 30.706855 39.524542 1.260672 0.681060 0.062024 -0.020083 -76755.100000 0 0 1
7.845527 23.704367 29.277545 38.478877 1.251171 0.706139 0.030876 -0.014980 223295.000000 0 0 1
8.048527 25.005867 28.751285 38.944943 1.259402 0.740317 0.034751 -0.009306 -105930.000000 0 0 1
8.510527 24.994067 27.290005 37.972053 1.242608 0.768885 0.052072 -0.010591 -166346.000000 0 0 1
7.603527 24.393067 26.403605 36.742152 1.268633 0.768982 0.049195 -0.015305 326665.000000 0 0 1
8.127327 24.541367 25.113285 36.041771 1.250995 0.799894 0.056479 -0.022520 -282820.000000 0 0 1
28.227526 2.953667 7.473624 29.349147 0.104258 1.313315 0.235204 -0.015091 -453003.000000 0 0 1
29.015926 4.069767 7.859724 30.335824 0.139351 1.308716 0.224390 -0.042154 327971.000000 0 0 1
29.078626 4.148867 9.267324 30.800372 0.141721 1.265177 0.187373 -0.017037 -169725.000000 0 0 1
29.989726 5.309167 9.676124 31.956193 0.175217 1.263174 0.189219 -0.020907 26344.200000 0 0 1
29.370726 6.576967 9.427424 31.540012 0.220295 1.267253 0.192555 -0.029645 490591.000000 0 0 1
30.062826 7.227267 8.368424 32.031819 0.235928 1.306476 0.208174 -0.052105 -88385.500000 0 0 1
29.413326 8.575367 8.036024 31.674254 0.283684 1.314284 0.241090 -0.055852 357518.000000 0 0 1
28.113326 8.492767 7.464124 30.301804 0.293374 1.321909 0.184792 -0.060188 436490.000000 0 0 1
28.043026 9.566767 6.527524 30.340450 0.328765 1.353958 0.214181 -0.085949 -117310.000000 0 0 1
26.812626 9.471567 5.607024 28.983896 0.339567 1.376116 0.170642 -0.070093 942955.000000 0 0 1
25.549226 9.880967 6.176724 28.081104 0.369025 1.349023 0.142103 -0.062543 888152.000000 0 0 1
24.516126 9.811667 5.196924 26.913143 0.380690 1.376476 0.181920 -0.064787 23465.600000 0 0 1
23.243126 10.579667 5.539224 26.131500 0.427148 1.357201 0.085829 -0.051127 -350196.000000 0 0 1
23.439426 11.974167 5.666124 26.923825 0.472294 1.358761 0.081327 -0.044500 258226.000000 0 0 1
22.313326 12.594267 6.256824 26.375138 0.513853 1.331289 0.071253 -0.027912 -34506.300000 0 0 1
22.499426 14.088267 6.361524 27.297847 0.559434 1.335592 0.060999 -0.010887 13754.800000 0 0 1
22.606726 14.720967 5.079524 27.451275 0.577202 1.384686 0.068422 -0.014061 368475.000000 0 0 1
22.737826 16.156167 5.156124 28.365755 0.617766 1.388007 0.112521 -0.014922 -405069.000000 0 0 1
22.371626 16.922567 3.900924 28.321019 0.647604 1.432617 0.104109 -0.023634 594924.000000 0 0 1
20.956226 16.688267 3.817124 27.059788 0.672505 1.429262 0.111281 -0.008463 874802.000000 0 0 1
20.343926 17.229067 2.661224 26.791756 0.702686 1.471302 0.106810 -0.008846 287959.000000 0 0 1
18.816426 17.003167 2.502824 25.483911 0.734819 1.472426 0.083735 -0.014441 365882.000000 0 0 1
18.092726 17.806667 3.439224 25.617424 0.777430 1.436136 0.091641 -0.018355 573313.000000 0 0 1
16.688226 17.751267 3.291624 24.585344 0.816255 1.436507 0.068967 -0.030010 -87461.600000 0 1 0
15.814426 18.864067 3.838224 24.913471 0.873113 1.416118 0.092633 -0.034722 -1271540.000000 0 1 0
14.486226 18.512867 3.927824 23.832851 0.906821 1.405234 0.096018 -0.045630 -1008570.000000 0 1 0
13.776426 19.714267 4.184724 24.412172 0.960873 1.398526 0.073137 -0.044809 -567626.000000 0 1 0
12.264426 19.699567 4.065624 23.558828 1.013944 1.397355 0.062405 -0.035952 -680426.000000 0 1 0
11.561226 18.977367 5.029024 22.783623 1.023631 1.348234 0.049997 -0.041800 45490.400000 0 1 0
10.165726 19.149467 4.840224 22.214226 1.082765 1.351146 0.045679 -0.024642 163164.000000 0 1 0
9.358526 18.688267 6.047024 21.757753 1.106533 1.289163 0.032672 -0.015438 -717880.000000 0 1 0
9.587726 19.545167 7.159624 22.917205 1.114744 1.253065 0.054643 -0.020898 41516.100000 0 1 0
8.796526 19.084967 8.230624 22.568961 1.138904 1.197499 0.051148 -0.009318 90408.300000 0 1 0
7.675326 20.001867 8.830424 23.172434 1.204394 1.179838 0.052123 -0.008340 886743.000000 0 1 0
6.581826 20.085067 7.915924 22.569719 1.254127 1.212444 0.045121 -0.016917 -12093.500000 0 1 0
6.712026 21.190167 7.037424 23.315227 1.264043 1.264176 0.047589 -0.022303 -1089160.000000 0 1 0
5.501126 21.415567 6.128924 22.944555 1.319358 1.300394 0.041272 -0.020282 240425.000000 0 1 0
4.261326 21.757167 6.762524 23.178976 1.377386 1.274738 0.040265 -0.013941 493704.000000 0 1 0
4.213026 23.013067 7.428124 24.546443 1.389730 1.263361 0.044097 -0.020299 -738623.000000 0 1 0
3.989526 24.138167 6.408124 25.290937 1.406998 1.314627 0.050614 -0.029649 67161.300000 0 0 1
2.719926 24.153867 5.758424 24.979326 1.458660 1.338176 0.039354 -0.024727 424543.000000 0 1 0
2.706426 25.107067 4.774624 25.699934 1.463416 1.383927 0.055041 -0.028843 -1096370.000000 0 0 1
1.311926 25.206867 4.258024 25.597618 1.518797 1.403675 0.063999 -0.028143 -1510410.000000 0 0 1
0.318526 25.567967 5.159724 26.085344 1.558339 1.371682 0.077409 -0.037431 -212614.000000 0 0 1
-0.901074 25.751367 4.438424 26.146595 -1.535819 1.400219 0.096823 -0.041434 621996.000000 0 0 1
-2.038774 26.483467 5.236324 27.073044 -1.493965 1.376155 0.131985 -0.040453 153475.000000 0 0 1
-3.089474 26.692567 4.344124 27.219651 -1.455566 1.410516 0.161224 -0.047809 -934872.000000 0 0 1
-3.976274 27.652767 4.804324 28.347272 -1.427982 1.400493 0.160088 -0.048588 -245473.000000 0 0 1
-4.993074 28.162067 3.773824 28.849169 -1.395322 1.439608 0.170020 -0.051312 -113166.000000 0 0 1
-4.351674 28.927367 2.795924 29.386167 -1.421481 1.475508 0.163945 -0.044557 -196753.000000 0 0 1
-5.209374 29.285167 1.768124 29.797397 -1.394753 1.511423 0.166455 -0.051860 -364555.000000 0 0 1
-4.493374 30.276367 0.792124 30.618234 -1.423460 1.544922 0.150013 -0.041020 13018.300000 0 0 1
-4.041574 31.514667 1.318424 31.800107 -1.443248 1.529325 0.151847 -0.035985 -673128.000000 0 0 1
-2.822174 31.386067 1.966124 31.573969 -1.481119 1.508486 0.163342 -0.034683 -1342680.000000 0 0 1
-2.115274 32.752267 1.993924 32.881014 -1.506302 1.510119 0.143138 -0.040406 -1049450.000000 0 0 1
-1.405774 33.062567 0.849424 33.103339 -1.528303 1.545134 0.099555 -0.028915 -85543.900000 0 0 1
-0.568974 -33.454370 0.924224 33.471971 1.553791 1.543181 0.088323 -0.030066 476763.000000 0 0 1
0.793126 -33.639170 1.647524 33.688828 -1.547223 1.521873 0.068664 -0.020323 -423499.000000 0 0 1
0.638026 -33.715470 3.071424 33.861094 -1.551875 1.479965 0.068376 -0.023709 88669.300000 0 0 1
1.856126 33.673267 3.740424 33.931179 1.515730 1.460336 0.062471 -0.021632 126280.000000 0 0 1
1.717926 -33.726870 5.225924 34.172552 -1.519904 1.417266 0.060685 -0.022593 67817.500000 0 0 1
0.783326 33.052267 5.820024 33.569907 1.547101 1.396546 0.088707 -0.031203 -70759.700000 0 0 1
0.251626 33.412767 7.081624 34.155903 1.563266 1.361949 0.097332 -0.032611 710661.000000 0 0 1
1.246026 33.281967 8.328924 34.330932 1.533375 1.325744 0.081420 -0.025325 483853.000000 0 0 1
1.621526 31.928667 8.562024 33.096486 1.520054 1.309121 0.086569 -0.030695 156697.000000 0 0 1
2.743226 32.013567 9.442424 33.489597 1.485316 1.284969 0.093014 -0.033515 206509.000000 0 0 1
3.338326 30.554367 9.461924 32.159630 1.461969 1.272160 0.086888 -0.031821 -152233.000000 0 0 1
2.479426 29.684067 10.176924 31.477947 1.487463 1.241578 0.106762 -0.038757 256878.000000 0 0 1
2.913026 28.356667 10.146324 30.257795 1.468427 1.228842 0.081821 -0.040443 -287713.000000 0 0 1
2.246726 27.534867 11.242124 29.826197 1.489381 1.184326 0.067637 -0.047538 -571896.000000 0 0 1
2.595626 27.851967 12.581624 30.671919 1.477871 1.148123 0.072842 -0.042284 15218.400000 0 0 1
2.345726 26.861767 13.553924 30.178897 1.483691 1.105017 0.077892 -0.036209 301298.000000 0 0 1
0.819326 26.635267 13.787024 30.003179 1.540045 1.093343 0.051870 -0.039612 261816.000000 0 0 1
0.081226 27.575567 14.545424 31.176720 1.567851 1.085413 0.061190 -0.039152 241813.000000 0 0 1
-0.476574 28.659667 13.802924 31.813902 -1.554169 1.122019 0.087537 -0.045257 -324984.000000 0 0 1
-1.094174 29.790167 14.592024 33.190035 -1.534083 1.115587 0.073578 -0.041948 332851.000000 0 0 1
-2.323674 29.542567 15.257824 33.331125 -1.492303 1.095317 0.068076 -0.035278 138499.000000 0 0 1
-2.842174 30.655967 15.965224 34.680753 -1.478349 1.092409 0.073234 -0.037286 250517.000000 0 0 1
-4.218174 30.338167 16.623724 34.850331 -1.432644 1.073554 0.070504 -0.036276 469864.000000 0 0 1
-5.254474 29.994967 15.744624 34.281201 -1.397377 1.093613 0.075013 -0.030881 -272876.000000 0 0 1
-6.443474 29.600467 16.389424 34.442985 -1.356459 1.074875 0.075559 -0.028578 -755091.000000 0 0 1
-7.501274 29.262167 15.350524 33.884836 -1.319853 1.100646 0.060118 -0.039522 -747082.000000 0 0 1
-8.642874 28.742067 15.986024 34.005274 -1.278693 1.081387 0.059205 -0.031946 -390744.000000 0 0 1
-9.469874 28.104067 15.009924 33.238756 -1.245788 1.102262 0.062730 -0.031358 -444122.000000 0 0 1
-10.831274 27.796067 15.601324 33.665103 -1.199227 1.088937 0.052279 -0.023117 -340367.000000 0 0 1
-11.603774 28.888367 16.116224 35.055927 -1.188846 1.093106 0.046629 -0.033158 388269.000000 0 0 1
-11.751174 28.747767 17.554424 35.674669 -1.182754 1.056331 0.055570 -0.028604 -185630.000000 0 0 1
-12.432774 29.914467 18.280424 37.197085 -1.176905 1.057045 0.052170 -0.031324 459368.000000 0 0 1
-13.857674 29.870967 18.180224 37.614231 -1.136429 1.066338 0.069554 -0.027007 570863.000000 0 0 1
-14.577574 31.065967 18.380824 38.928841 -1.132053 1.079052 0.066017 -0.027536 316360.000000 0 0 1
-15.517974 30.962467 19.607224 39.798557 -1.106200 1.055651 0.077137 -0.027884 -147361.000000 0 0 1
-14.753774 30.851467 20.773124 40.012617 -1.124724 1.024923 0.065495 -0.031715 -310337.000000 0 0 1
-15.459374 30.436767 21.907424 40.562597 -1.100835 1.000253 0.076840 -0.031069 -388411.000000 0 0 1
-14.659274 30.539367 23.227124 41.073672 -1.123266 0.969758 0.051402 -0.020804 -1491600.000000 0 0 1
-13.461774 29.862667 23.258224 40.173912 -1.147286 0.953370 0.053127 -0.019721 -702030.000000 0 0 1
-12.986374 29.488467 24.542124 40.503475 -1.155964 0.919866 0.041542 -0.007719 -138157.000000 0 0 1
-12.499574 30.684767 25.417724 41.759490 -1.183966 0.916414 0.036792 0.000318 -493521.000000 0 0 1
-13.574774 31.498767 25.869124 42.961127 -1.163887 0.924603 0.040027 -0.006633 327130.000000 0 0 1
-13.203474 32.597967 26.646824 44.124964 -1.185953 0.922418 0.038112 -0.006372 -851028.000000 0 0 1
-14.417574 33.420567 27.018324 45.329798 -1.163519 0.932237 0.052501 -0.010940 -8972.560000 0 0 1
-15.339574 32.906067 28.007524 45.853388 -1.134583 0.913718 0.056498 -0.011491 614543.000000 0 0 1
-14.910174 32.913267 29.327524 46.537083 -1.145439 0.888990 0.071039 0.004584 -590986.000000 0 0 1
-15.750674 31.977967 30.197424 46.717861 -1.113128 0.867968 0.063925 -0.000493 448937.000000 0 0 1
-16.953874 32.559467 30.718524 47.866277 -1.090722 0.874009 0.077744 0.000304 275708.000000 0 0 1
-17.378374 31.811667 31.844224 48.249815 -1.070806 0.849996 0.068102 -0.002639 1190070.000000 0 0 1
-18.829574 32.230667 32.339124 49.388133 -1.042066 0.856884 0.064370 -0.004553 1100340.000000 0 0 1
-18.956874 33.620067 32.727024 50.603657 -1.057377 0.867504 0.078522 0.001276 -902049.000000 0 0 1
-20.316974 33.797467 32.923624 51.371327 -1.029540 0.875133 0.080821 -0.009061 -713699.000000 0 0 1
-20.771274 -32.418270 33.187824 50.831307 1.000967 0.859388 0.091480 -0.008945 -252605.000000 0 0 1
-20.545174 -31.810570 -33.213537 50.370186 0.997337 2.290802 0.102307 -0.005512 -257251.000000 0 0 1
-21.580974 -31.883470 -32.257637 50.227973 0.975763 2.268193 0.088725 -0.007714 -65586.800000 0 0 1
-21.341674 -31.065470 -30.934837 48.759559 0.968855 2.258075 0.104184 -0.016823 -112278.000000 0 0 1
-21.473174 -29.654170 -31.058437 48.011390 0.944065 2.274305 0.112079 -0.012428 124402.000000 0 0 1
-20.928574 -28.931870 -29.947637 46.603855 0.944554 2.268683 0.118218 -0.010289 162879.000000 0 0 1
-21.393374 -27.466470 -30.099037 46.022119 0.909060 2.283673 0.113642 -0.019979 132600.000000 0 0 1
-22.754874 -27.217770 -29.856937 46.368394 0.874469 2.270390 0.097080 -0.011582 -270416.000000 0 0 1
-23.196874 -25.872970 -30.049337 45.939832 0.839881 2.283791 0.097843 -0.016758 377800.000000 0 0 1
-24.453574 -25.524070 -29.205037 45.851823 0.806814 2.261324 0.088671 -0.017805 125641.000000 0 0 1
-24.296974 -25.809070 -27.800237 45.047799 0.815567 2.235883 0.100014 -0.019528 -42492.600000 0 0 1
-23.596474 -24.821370 -27.096937 43.670791 0.810691 2.240153 0.106224 -0.029226 -143648.000000 0 0 1
-23.385574 -25.198870 -25.603537 42.865012 0.822703 2.210934 0.110837 -0.024749 -124665.000000 0 0 1
-24.460874 -24.800470 -24.796337 42.758110 0.792292 2.189428 0.101931 -0.029942 -31318.100000 0 0 1
-24.272774 -25.219170 -23.451437 42.132458 0.804518 2.161099 0.106262 -0.017397 -222496.000000 0 0 1
-25.537374 -24.913170 -22.578837 42.221172 0.773026 2.135038 0.091945 -0.017818 750942.000000 0 0 1
-26.711774 -25.633270 -22.943237 43.554283 0.764797 2.125596 0.088987 -0.012885 17667.300000 0 0 1
-26.780374 -27.010970 -22.922837 44.409880 0.789685 2.113164 0.099534 0.000465 -533002.000000 0 0 1
-28.236074 -27.550270 -23.070037 45.700327 0.773105 2.099960 0.057290 0.000957 503005.000000 0 0 1
-29.012074 -27.247370 -21.937437 45.446350 0.754041 2.074544 0.060165 0.007683 -952038.000000 0 0 1
-30.253674 -26.772870 -22.311637 46.150629 0.724435 2.075391 0.056486 0.009900 -535460.000000 0 0 1
-31.219574 -26.227870 -21.240037 45.975017 0.698724 2.051035 0.070332 0.014029 149462.000000 0 0 1
-31.730274 -27.221470 -20.325937 46.486153 0.709064 2.023332 0.045736 0.018549 108924.000000 0 0 1
-32.176974 -26.553070 -19.156437 45.906342 0.689931 2.001262 0.049672 0.014246 -654309.000000 0 0 1
-32.913674 -27.438170 -18.163537 46.541134 0.694920 1.971719 0.035879 0.005351 -845557.000000 0 0 1
-34.143974 -28.098170 -18.501137 47.933393 0.688568 1.967062 0.037261 0.019746 1431080.000000 0 0 1
-35.312674 -27.273670 -18.634837 48.353854 0.657651 1.966421 0.019250 0.022351 99842.300000 0 0 1
-35.722074 -26.586970 -17.308537 47.775716 0.639826 1.941517 0.037764 0.008713 -1806700.000000 0 0 1
-34.873474 -25.602970 -16.818737 46.417036 0.633291 1.941573 0.031045 0.015417 -374403.000000 0 0 1
-35.252974 -25.078870 -15.577037 45.982236 0.618334 1.916397 0.040111 0.008850 -96440.900000 0 0 1
-34.876374 -25.874670 -14.261337 45.708268 0.638295 1.888102 0.052825 0.002257 372606.000000 0 0 1
-35.562574 -27.140770 -14.073937 46.897695 0.651885 1.875592 0.049885 -0.001840 641193.000000 0 0 1
-35.169274 -27.601170 -12.826937 46.510566 0.665409 1.850203 0.038256 -0.009644 193302.000000 0 0 1
-36.049374 -28.871970 -12.646037 47.886013 0.675290 1.838053 0.035245 -0.015462 28091.100000 0 0 1
-35.703274 -29.988370 -13.421637 48.519753 0.698621 1.851074 0.032897 -0.008810 234018.000000 0 0 1
-36.228974 -31.238170 -12.946637 49.557817 0.711559 1.835106 0.025882 -0.018681 -250201.000000 0 0 1
-35.766874 -32.349070 -13.842037 50.173037 0.735264 1.850308 0.024436 -0.012015 276280.000000 0 0 1
-34.385974 -32.678470 -13.701237 49.376123 0.759943 1.851974 0.033649 -0.011161 624296.000000 0 0 1
-33.889874 -33.408070 -14.836337 49.847163 0.778239 1.873012 0.064603 -0.032724 -566541.000000 0 0 1
-32.409674 -33.734270 -14.871337 49.087113 0.805421 1.878591 0.056243 -0.029689 -530137.000000 0 0 1
-32.142974 33.431467 -16.190337 49.121897 -0.805045 1.906671 0.086532 -0.031763 -752484.000000 0 0 1
-30.809474 33.023867 -16.269137 48.005044 -0.820074 1.916549 0.085629 -0.038052 -583303.000000 0 0 1
9.716527 19.413267 -9.172976 23.567548 1.106741 1.970582 0.088246 -0.036863 -433823.000000 0 1 0
8.362127 19.715267 -9.395576 23.385760 1.169650 1.984240 0.080346 -0.030539 -237687.000000 0 1 0
7.857427 19.765767 -10.706076 23.812702 1.192424 2.037108 0.092176 -0.034648 186623.000000 0 1 0
7.802827 18.541067 -11.620476 23.231245 1.172454 2.094636 0.080927 -0.023771 -940091.000000 0 1 0
9.094827 18.170167 -11.970876 23.583314 1.106720 2.103193 0.131249 -0.038702 -613627.000000 0 1 0
9.167927 17.053067 -12.811276 23.216089 1.077514 2.155350 0.127345 -0.046231 -436572.000000 0 1 0
10.619027 16.658267 -13.110676 23.709732 1.003285 2.156716 0.156663 -0.049664 -212736.000000 0 1 0
10.781627 15.358067 -13.670576 23.216338 0.958718 2.200412 0.173763 -0.059898 266648.000000 0 1 0
12.081027 15.014667 -14.139476 23.902222 0.893248 2.203782 0.195720 -0.070223 165269.000000 0 1 0
12.020627 13.780167 -15.059076 23.688905 0.853490 2.259713 0.166209 -0.063002 -271116.000000 0 1 0
12.024427 12.458367 -14.416276 22.530574 0.803121 2.265104 0.185274 -0.058296 364579.000000 0 1 0
13.208827 11.969467 -13.816676 22.553088 0.736215 2.230179 0.216547 -0.057771 -229784.000000 0 1 0
14.205827 11.273267 -14.755876 23.380076 0.670806 2.253806 0.227434 -0.057158 -139515.000000 0 1 0
14.740327 12.184067 -15.686876 24.734729 0.690740 2.257776 0.182378 -0.045360 -642205.000000 0 1 0
15.661027 11.568567 -16.477476 25.506994 0.636220 2.273127 0.171137 -0.052629 -602541.000000 0 0 1
16.197427 12.436467 -17.646876 26.989527 0.654799 2.283447 0.118793 -0.046836 204563.000000 0 0 1
17.143927 13.431267 -17.264476 27.791641 0.664563 2.241084 0.094214 -0.033299 13351.800000 0 0 1
17.741727 13.931567 -18.441576 29.136732 0.665678 2.256131 0.071831 -0.019722 -416087.000000 0 0 1
18.898327 14.886767 -18.170576 30.148506 0.667214 2.217680 0.059132 -0.008730 -676022.000000 0 0 1
18.651327 16.209967 -17.756976 30.429348 0.715482 2.193887 0.071141 -0.019043 -94021.400000 0 0 1
18.141827 17.024867 -18.756476 31.157300 0.753647 2.216791 0.073886 -0.013660 -49258.200000 0 0 1
17.824827 18.522067 -18.337176 31.575995 0.804579 2.190423 0.085934 -0.014203 -10488.300000 0 0 1
18.991227 19.304967 -18.226976 32.643087 0.793590 2.163218 0.088525 -0.016417 59063.800000 0 0 1
18.685127 20.584867 -17.636076 32.922665 0.833737 2.136111 0.077833 -0.016562 -94903.900000 0 0 1
19.795527 21.691067 -17.802876 34.341049 0.831057 2.115791 0.072868 -0.015108 626471.000000 0 0 1
20.956027 21.502267 -17.026976 34.516959 0.798263 2.086668 0.086587 -0.016507 -312618.000000 0 0 1
20.686627 21.730067 -15.644576 33.836151 0.809993 2.051454 0.082937 -0.015633 -452025.000000 0 0 1
21.732327 22.622967 -14.915976 34.735846 0.805475 2.014637 0.078808 -0.011756 580641.000000 0 0 1
22.940327 21.927267 -14.611376 34.936456 0.762823 2.002289 0.081388 -0.018338 -121472.000000 0 0 1
23.800427 22.808167 -13.939876 35.790962 0.764112 1.970864 0.066819 -0.020756 -536863.000000 0 0 1
25.280527 22.398967 -13.800776 36.486712 0.725036 1.958692 0.051734 -0.007168 -342022.000000 0 0 1
25.934827 22.467767 -14.985376 37.442987 0.713891 1.982552 0.073167 -0.001697 -519006.000000 0 0 1
26.754427 23.610967 -15.023476 38.716688 0.723066 1.969296 0.047151 0.000663 -572286.000000 0 0 1
26.965527 23.976667 -16.500376 39.677230 0.726794 1.999690 0.050558 -0.005220 -118749.000000 0 0 1
27.756827 23.092767 -17.290476 40.033460 0.693931 2.017395 0.055094 -0.011682 317867.000000 0 0 1
27.956727 23.609967 -18.635276 41.064372 0.701303 2.041829 0.062295 -0.019779 -477850.000000 0 0 1
28.611127 22.584467 -19.584676 41.378911 0.668219 2.063831 0.055379 -0.020696 206745.000000 0 0 1
30.022027 22.554467 -19.554676 42.336880 0.644310 2.050913 0.053644 -0.011928 -386915.000000 0 0 1
30.554127 21.636767 -20.393276 42.633204 0.616172 2.069563 0.067722 -0.013065 -49681.900000 0 0 1
32.069027 21.860167 -20.614576 43.945991 0.598311 2.059055 0.102529 -0.019572 -69766.100000 0 0 1
32.293527 23.009567 -21.375676 45.046993 0.619075 2.065214 0.096378 -0.010748 -541776.000000 0 0 1
33.631227 23.368167 -21.240576 46.133423 0.607251 2.049260 0.105316 -0.009819 -476200.000000 0 0 1
33.961427 24.854067 -21.719276 47.358527 0.631772 2.047231 0.099396 -0.008055 -107183.000000 0 0 1
33.989527 25.169667 -23.120476 48.201208 0.637401 2.071070 0.104596 -0.013513 114156.000000 0 0 1
32.795927 24.951867 -23.844376 47.610112 0.650391 2.095349 0.111250 -0.020650 -232219.000000 0 0 1
32.820727 25.417467 -25.328666 48.629097 0.658956 2.118648 0.110864 -0.024964 -208685.000000 0 0 1
32.480927 26.770767 -25.465806 49.195445 0.689324 2.114893 0.113419 -0.025194 232100.000000 0 0 1
31.168927 27.087567 -25.919996 48.755353 0.715454 2.131325 0.104515 -0.018343 375719.000000 0 0 1
30.838927 26.882467 -27.455636 49.269853 0.716961 2.161867 0.111289 -0.019159 -223510.000000 0 0 1
30.669527 25.505667 -27.680546 48.552771 0.693732 2.177439 0.110371 -0.032921 -50628.600000 0 0 1
30.365527 25.210967 -29.009966 48.981999 0.692916 2.204654 0.119965 -0.041727 -93805.600000 0 0 1
29.601027 23.858867 -29.130666 47.896368 0.678398 2.224590 0.128785 -0.046663 554830.000000 0 0 1
28.245627 23.955767 -28.692806 46.850521 0.703403 2.229931 0.127076 -0.044280 286459.000000 0 0 1
27.603127 22.713567 -28.855766 45.940113 0.688527 2.249927 0.139832 -0.051453 78942.600000 0 0 1
26.083027 22.780967 -28.550496 44.882375 0.717924 2.260253 0.121865 -0.039138 133700.000000 0 0 1
25.798727 23.027567 -27.151326 43.966324 0.728704 2.236418 0.099205 -0.030269 292417.000000 0 0 1
24.431527 22.912767 -26.810566 42.903390 0.753330 2.245807 0.070041 -0.019163 -90688.100000 0 0 1
24.168427 23.173467 -25.296266 41.964551 0.764385 2.217803 0.078814 -0.018839 -66769.100000 0 0 1
24.701827 22.067167 -24.579176 41.246527 0.729124 2.209193 0.076904 -0.024538 237038.000000 0 0 1
24.886227 22.447067 -23.218376 40.771167 0.733912 2.176670 0.081391 -0.017858 161406.000000 0 0 1
25.633727 21.245767 -22.501776 40.184580 0.692069 2.165134 0.073348 -0.018152 114040.000000 0 0 1
26.985127 21.001267 -22.791176 41.093649 0.661339 2.158697 0.072202 -0.020923 -290218.000000 0 0 1
27.418827 19.879167 -22.153576 40.469177 0.627321 2.150073 0.098053 -0.025633 216713.000000 0 0 1
28.653527 19.298567 -22.921276 41.458946 0.592728 2.156597 0.123717 -0.035738 43648.900000 0 0 1
29.462427 18.566567 -22.061676 41.224623 0.562314 2.135491 0.126751 -0.032119 -64392.200000 0 0 1
30.677027 18.279467 -22.735276 42.333340 0.537376 2.137737 0.117265 -0.027465 277960.000000 0 0 1
31.940527 17.789367 -22.024676 42.681907 0.508166 2.112993 0.091914 -0.012369 3096.720000 0 0 1
32.686727 18.751667 -21.348976 43.310806 0.520840 2.086245 0.091721 -0.007805 -696246.000000 0 0 1
33.960027 18.272367 -21.053676 43.936546 0.493626 2.070521 0.105731 -0.012230 -363255.000000 0 0 1
34.788427 19.284767 -20.261176 44.639132 0.506172 2.041920 0.065626 -0.019986 -103125.000000 0 0 1
34.286727 19.327967 -18.926276 43.673263 0.513312 2.019015 0.075985 -0.017235 197151.000000 0 0 1
34.686527 20.520667 -18.192776 44.217983 0.534223 1.994823 0.054172 -0.010789 -84782.500000 0 0 1
33.965927 20.762067 -16.850276 43.228225 0.548659 1.971209 0.050446 -0.013723 -34977.100000 0 0 1
34.040227 19.668167 -15.926376 42.417252 0.523930 1.955699 0.054297 -0.023456 46385.300000 0 0 1
33.772827 20.118767 -14.628376 41.944702 0.537258 1.927037 0.049687 -0.022399 -188109.000000 0 0 1
33.969327 18.959367 -13.625276 41.219181 0.509065 1.907690 0.058538 -0.024308 -544922.000000 0 0 1
35.308427 18.548067 -13.722976 42.178619 0.483694 1.902182 0.052732 -0.028403 -271892.000000 0 0 1
35.759227 17.470067 -12.902976 41.837929 0.454443 1.884311 0.051478 -0.009377 -1595.880000 0 0 1
35.745127 17.735067 -11.383576 41.494970 0.460566 1.848696 0.050964 -0.013582 -297083.000000 0 0 1
36.700627 18.684567 -10.913776 42.604689 0.470907 1.829848 0.049945 -0.024954 245959.000000 0 0 1
36.575127 19.134167 -9.541376 42.366191 0.481993 1.797957 0.056659 -0.017658 110978.000000 0 0 1
35.422727 20.183567 -9.188376 41.792011 0.517911 1.792467 0.055111 -0.013488 809386.000000 0 0 1
34.191227 19.574967 -9.502176 40.527900 0.519964 1.807459 0.065970 -0.025015 -25425.800000 0 0 1
33.036827 20.405667 -9.317076 39.932832 0.553307 1.806285 0.038427 -0.012066 231274.000000 0 0 1
31.732727 19.723767 -9.692676 38.599753 0.556121 1.824620 0.033434 -0.008650 -480889.000000 0 0 1
31.405827 19.629367 -11.065076 38.653252 0.558616 1.861123 0.041740 -0.014694 -248650.000000 0 0 1
30.328527 18.741267 -11.196576 37.368676 0.553508 1.875096 0.030341 -0.012078 -594278.000000 0 0 1
30.199427 18.074767 -12.591176 37.379678 0.539326 1.914361 0.039997 -0.004359 -385137.000000 0 0 1
31.203527 17.099067 -12.759876 37.800167 0.501295 1.915121 0.060830 -0.004078 -77946.000000 0 0 1
30.973427 16.293467 -13.880476 37.649673 0.484267 1.948379 0.045233 -0.007272 245896.000000 0 0 1
32.234427 15.755267 -14.647576 38.753557 0.454624 1.958396 0.061469 -0.013164 487005.000000 0 0 1
32.896327 14.730167 -13.909276 38.634364 0.421002 1.939089 0.051583 -0.013409 362433.000000 0 0 1
33.972227 14.192867 -14.676676 39.635268 0.395738 1.950121 0.058218 -0.009017 -364570.000000 0 0 1
34.907727 13.330167 -13.919176 39.874631 0.364779 1.927379 0.049707 -0.016454 -1136140.000000 0 0 1
35.752127 13.968367 -13.012776 40.529769 0.372464 1.897652 0.050445 -0.002123 -124978.000000 0 0 1
36.400727 12.933167 -12.282076 40.535529 0.341388 1.878630 0.051071 0.000609 -217549.000000 0 0 1
37.341427 13.368567 -11.168076 41.204692 0.343792 1.845269 0.081224 -0.003775 227729.000000 0 0 1
-36.644372 13.859267 -11.666676 40.877875 -0.361582 1.860223 0.062720 -0.011866 -7979.000000 0 0 1
-35.776472 14.277267 -10.650076 39.965240 -0.379703 1.840539 0.061712 -0.018524 122388.000000 0 0 1
-34.285472 14.492867 -11.112076 38.846043 -0.399931 1.860903 0.095758 -0.035117 828560.000000 0 0 1
-33.570872 13.351367 -11.546276 37.928603 -0.378528 1.880127 0.115548 -0.042299 80124.300000 0 0 1
-33.385272 12.341567 -10.629076 37.146574 -0.354091 1.860991 0.125308 -0.032261 -1398030.000000 0 0 1
-32.162372 11.483767 -10.918576 35.854015 -0.342947 1.880240 0.153804 -0.040423 -612598.000000 0 0 1
-32.146872 10.787867 -12.171476 36.026994 -0.323772 1.915421 0.144268 -0.029235 501260.000000 0 0 1
-31.213472 9.683467 -12.248976 34.901115 -0.300819 1.929395 0.156434 -0.032870 352103.000000 0 0 1
-31.141372 9.011667 -13.642476 35.172608 -0.281685 1.969118 0.149341 -0.033126 -407586.000000 0 0 1
-32.349072 8.432967 -14.022276 36.251919 -0.255011 1.967956 0.124283 -0.028503 -116135.000000 0 0 1
-32.187872 7.763767 -15.256176 36.456633 -0.236681 2.002561 0.116588 -0.027365 599587.000000 0 0 1
-33.548272 7.269167 -15.879776 37.821881 -0.213379 2.004084 0.105394 -0.029260 757896.000000 0 0 1
-34.192872 6.256967 -15.097776 37.897823 -0.180988 1.980547 0.110989 -0.028810 -436806.000000 0 0 1
-35.215172 5.667667 -15.812976 39.016420 -0.159575 1.988093 0.099556 -0.036843 -1233680.000000 0 0 1
-36.230872 5.108867 -14.851776 39.488630 -0.140085 1.956383 0.118654 -0.037728 -564928.000000 0 0 1
-37.332272 4.453167 -15.488776 40.662408 -0.118724 1.961578 0.117612 -0.032444 122071.000000 0 0 1
37.038427 4.137567 -14.419276 39.960982 0.111249 1.939958 0.116078 -0.036276 224631.000000 0 0 1
35.920627 3.076067 -14.692076 38.930845 0.085427 1.957772 0.111370 -0.033049 106995.000000 0 0 1
36.445727 1.799367 -14.798376 39.376651 0.049331 1.956074 0.135671 -0.039277 288147.000000 0 0 1
35.477727 0.750667 -14.919176 38.494343 0.021156 1.968788 0.132377 -0.029169 24401.700000 0 0 1
34.817027 0.329467 -13.612076 37.384790 0.009463 1.943470 0.121128 -0.036097 -752359.000000 0 0 1
35.626727 -0.230233 -12.645576 37.805122 -0.006462 1.911864 0.151756 -0.036928 -476580.000000 0 0 1
35.025327 -0.361133 -11.393176 36.833523 -0.010310 1.885269 0.129770 -0.030934 -331210.000000 0 0 1
35.049027 0.865167 -10.520776 36.604228 0.024679 1.862328 0.132603 -0.038629 270067.000000 0 0 1
34.127527 1.889367 -10.934776 35.886308 0.055306 1.880426 0.130127 -0.020268 741712.000000 0 0 1
34.586627 3.219267 -10.571476 36.309152 0.092811 1.866227 0.138305 -0.029819 -344048.000000 0 0 1
33.799927 4.385167 -11.155276 35.862305 0.129018 1.887103 0.146356 -0.037255 -400723.000000 0 0 1
33.908527 4.726167 -12.521576 36.454283 0.138488 1.921424 0.129899 -0.032081 468916.000000 0 0 1
32.935227 5.670767 -12.953276 35.842351 0.170508 1.940561 0.136078 -0.036310 -4462.940000 0 0 1
33.240927 6.315867 -14.326876 36.743826 0.187765 1.971333 0.096381 -0.028455 -313666.000000 0 0 1
33.031827 5.453067 -15.416176 36.857781 0.163610 2.002326 0.091542 -0.016637 -7147.950000 0 0 1
33.326427 6.158967 -16.571376 37.725245 0.182745 2.025577 0.079912 -0.016596 -464734.000000 0 0 1
32.252127 7.122867 -17.223176 37.250137 0.217360 2.051457 0.091154 -0.020073 257102.000000 0 0 1
31.096027 6.572967 -17.799476 36.427848 0.208310 2.081307 0.077137 -0.020931 269209.000000 0 0 1
30.179427 5.971667 -16.859576 35.081390 0.195349 2.072118 0.073026 -0.013893 -219301.000000 0 0 1
28.776227 5.991067 -17.556476 34.237318 0.205263 2.109225 0.072158 -0.014366 79414.400000 0 0 1
28.619327 5.004467 -18.508376 34.448085 0.173113 2.138009 0.082608 -0.011898 468974.000000 0 0 1
27.581627 5.354567 -19.434276 34.162971 0.191750 2.175927 0.070259 -0.010906 243103.000000 0 0 1
27.008627 4.145367 -20.181376 33.969662 0.152295 2.206943 0.065129 -0.002743 -403086.000000 0 0 1
26.286227 3.293267 -19.350876 32.806520 0.124635 2.201668 0.068548 -0.012172 59354.900000 0 0 1
25.730527 2.240267 -20.132076 32.747203 0.086847 2.232894 0.079109 -0.015950 366817.000000 0 0 1
24.530927 1.467867 -19.507076 31.375899 0.059766 2.241735 0.093847 -0.017624 1509580.000000 0 0 1
23.230027 2.104667 -19.417976 30.349985 0.090354 2.265037 0.100590 -0.027550 1477530.000000 0 0 1
22.325427 1.302267 -18.640376 29.113299 0.058265 2.265646 0.118303 -0.030542 866740.000000 0 0 1
20.985327 2.084667 -18.394276 27.983552 0.099014 2.288059 0.127712 -0.044310 207897.000000 0 0 1
20.215227 2.287367 -19.597676 28.248121 0.112671 2.337506 0.124773 -0.034911 1171840.000000 0 0 1
19.037327 3.119567 -19.533576 27.453818 0.162422 2.362436 0.121140 -0.034415 1564410.000000 0 0 1
17.803627 2.571967 -18.734576 25.972456 0.143471 2.376509 0.160705 -0.044064 -430048.000000 0 0 1
18.054027 2.568067 -17.349876 25.170639 0.141296 2.331305 0.170804 -0.049389 -500236.000000 0 0 1
17.017727 2.035167 -16.599776 23.859956 0.119026 2.340214 0.141557 -0.038141 -167083.000000 0 1 0
15.860627 3.031967 -16.274776 22.926418 0.188884 2.360110 0.135590 -0.039690 -236696.000000 0 1 0
15.059927 3.205667 -17.381476 23.220538 0.209731 2.416652 0.123391 -0.035463 -891796.000000 0 1 0
13.945727 4.002067 -17.189676 22.494106 0.279464 2.440574 0.125026 -0.040065 -401072.000000 0 1 0
-21.166373 -21.813833 -17.056476 34.853723 0.800461 2.082167 0.103546 -0.020277 -350899.000000 0 0 1
-20.926773 -22.421033 -18.269176 35.698674 0.819856 2.108029 0.108180 -0.025018 768614.000000 0 0 1
-21.989873 -22.191933 -19.222676 36.681708 0.789972 2.122384 0.111012 -0.020819 353577.000000 0 0 1
-21.755973 -22.917933 -20.534976 37.686062 0.811402 2.147061 0.093258 -0.010428 -2451.580000 0 0 1
-21.726473 -24.322333 -20.354476 38.443728 0.841710 2.128762 0.086509 -0.014632 37060.100000 0 0 1
-20.954273 -24.913133 -21.347576 38.928971 0.871496 2.151213 0.082535 -0.015522 -158575.000000 0 0 1
-20.689273 -26.426073 -21.047876 39.615608 0.906562 2.130934 0.088333 -0.004588 -401008.000000 0 0 1
-21.884373 -27.152663 -21.040776 40.729684 0.892423 2.113666 0.105843 0.007076 -156472.000000 0 0 1
-21.712173 -28.574933 -21.126076 41.644403 0.921032 2.102842 0.131001 -0.020931 -208041.000000 0 0 1
-23.113073 -29.146663 -21.386576 42.908364 0.900343 2.092577 0.119296 -0.017119 156206.000000 0 0 1
-23.671773 -28.924773 -22.692976 43.726039 0.884942 2.116455 0.106354 -0.011349 356697.000000 0 0 1
-23.163673 -29.844063 -23.664576 44.578425 0.910764 2.130403 0.098279 -0.017934 -189873.000000 0 0 1
-23.453173 -29.484203 -25.112946 45.277253 0.898837 2.158736 0.099427 -0.012764 -279042.000000 0 0 1
-24.823673 -29.648293 -25.387486 46.257545 0.873738 2.151759 0.090187 -0.007553 69672.900000 0 0 1
-25.340353 -28.808433 -26.396596 46.570802 0.849358 2.173420 0.086921 -0.004351 -206210.000000 0 0 1
-24.843373 -28.946713 -27.851186 47.231281 0.861535 2.201455 0.083537 -0.013240 -558035.000000 0 0 1
-25.330363 -30.092743 -28.493186 48.570177 0.871115 2.197699 0.068225 -0.003066 234650.000000 0 0 1
-24.773573 -30.228093 -29.769136 49.129105 0.884245 2.221739 0.089051 -0.007961 -200414.000000 0 0 1
-25.411823 -31.370603 -30.597246 50.656361 0.889956 2.219327 0.060292 -0.003693 -4176.130000 0 0 1
-24.886673 -32.603813 -30.215306 50.944282 0.918834 2.205706 0.064801 -0.015192 511921.000000 0 0 1
-25.758673 -33.688733 -30.584506 52.286250 0.918011 2.195607 0.055911 -0.010840 245710.000000 0 0 1
-24.988473 32.614574 -30.534446 51.190689 -0.917023 2.209910 0.064407 -0.014478 95060.700000 0 0 1
-23.991673 32.606885 -31.532866 51.314043 -0.936455 2.232558 0.085243 -0.023433 -396794.000000 0 0 1
-23.344573 31.375754 -31.458476 50.190066 -0.931126 2.248219 0.089443 -0.019443 -102267.000000 0 0 1
-22.086973 31.238464 -32.347816 50.100471 -0.955358 2.272682 0.078778 -0.015212 -28565.400000 0 0 1
-22.400173 30.882884 -33.647626 50.869274 -0.943274 2.293551 0.067628 -0.009501 193659.000000 0 0 1
-21.840673 29.651924 33.607725 49.857104 -0.935947 0.831077 0.053991 -0.000702 -6773.220000 0 0 1
-22.102373 29.430334 32.100699 48.837633 -0.926651 0.853573 0.049048 -0.001180 -359642.000000 0 0 1
-21.336473 30.298294 31.362515 48.547287 -0.957248 0.868438 0.046617 -0.005965 -41682.900000 0 0 1
-21.349273 30.019474 29.971495 47.489481 -0.952606 0.887802 0.055170 -0.003656 -121298.000000 0 0 1
-20.724373 31.111994 29.101265 47.374460 -0.983171 0.909321 0.061927 -0.021009 -186023.000000 0 0 1
-21.587973 32.185590 29.008885 48.409382 -0.979983 0.928244 0.058175 -0.018773 6011.420000 0 0 1
-20.845773 33.339836 28.682905 48.670319 -1.012016 0.940566 0.072147 -0.029852 46271.100000 0 0 1
-21.688973 -33.016493 28.675385 48.813708 0.989576 0.942898 0.073521 -0.037353 -100980.000000 0 0 1
-22.216373 -32.758953 29.969045 49.647355 0.974867 0.922740 0.068221 -0.022188 92325.900000 0 0 1
-23.385973 -31.954843 29.979115 49.666519 0.939016 0.922777 0.072101 -0.024688 107398.000000 0 0 1
-23.351373 -30.457543 29.657915 48.502995 0.916701 0.912885 0.074156 -0.015103 -799111.000000 0 0 1
-23.093373 -30.091353 28.296695 47.323317 0.916225 0.929863 0.056545 -0.013781 34191.500000 0 0 1
-23.268273 -28.683553 28.173845 46.453464 0.889260 0.919150 0.047992 -0.018899 875266.000000 0 0 1
-24.712273 -28.153013 27.794635 46.645796 0.850392 0.932453 0.040800 -0.014654 -19906.900000 0 0 1
-25.734893 -28.396923 28.718795 47.889865 0.834535 0.927690 0.061542 -0.003876 121603.000000 0 0 1
-26.582983 -29.520413 28.504935 48.894183 0.837708 0.948389 0.052411 -0.018864 68086.200000 0 0 1
-27.462873 -29.453123 27.182255 48.585706 0.820352 0.977050 0.024260 -0.002966 -174569.000000 0 0 1
-26.738593 -29.534543 25.919675 47.529687 0.835043 0.994006 0.026839 -0.013796 120557.000000 0 0 1
-27.654833 -29.495783 24.866985 47.467441 0.817599 1.019403 0.024328 -0.012399 95344.500000 0 0 1
-26.960813 -29.751323 23.469865 46.506572 0.834563 1.041812 0.018529 -0.012885 -849380.000000 0 0 1
-26.327823 -28.593803 23.022515 45.175171 0.826633 1.036044 0.010105 -0.015039 128712.000000 0 0 1
-25.661063 -28.727443 21.747485 44.234706 0.841718 1.056826 0.034416 -0.021131 204778.000000 0 0 1
-24.529673 -29.775483 21.647885 44.237034 0.881698 1.059439 0.046891 -0.032350 -1498270.000000 0 0 1
-24.995973 -31.079833 21.523585 45.321291 0.893469 1.075933 0.062861 -0.038081 614373.000000 0 0 1
-23.980773 -32.095553 21.306085 45.377872 0.929110 1.082043 0.059213 -0.031456 286707.000000 0 0 1
-23.040573 -32.485193 22.410985 45.699103 0.953880 1.058244 0.049776 -0.028258 -378797.000000 0 0 1
-22.107473 -31.486413 22.815635 44.729048 0.958644 1.035512 0.054746 -0.029832 -290159.000000 0 0 1
-21.134873 -32.120703 23.575135 45.102211 0.988830 1.020776 0.068739 -0.040179 -509271.000000 0 0 1
-20.778273 -31.393883 24.887545 45.129840 0.986131 0.986676 0.065802 -0.036458 -470580.000000 0 0 1
-19.950673 -30.239693 24.679385 43.835379 0.987597 0.972783 0.065131 -0.036853 296485.000000 0 0 1
-19.537973 -29.677733 25.924505 43.983863 0.988582 0.940469 0.077707 -0.029489 29689.700000 0 0 1
-18.288973 -30.298713 26.585135 44.263619 1.027718 0.926534 0.078634 -0.034666 -515915.000000 0 0 1
-18.524273 -31.653763 26.928635 45.500119 1.041319 0.937461 0.086731 -0.035807 -268525.000000 0 0 1
-17.729473 -32.176523 27.977445 46.177920 1.067181 0.919947 0.095212 -0.023958 -299470.000000 0 0 1
-18.034173 -31.658563 29.403385 46.819388 1.052995 0.891794 0.114547 -0.024238 -53964.500000 0 0 1
-17.660173 -30.286943 29.491045 45.813779 1.042900 0.871453 0.112347 -0.015719 187772.000000 0 0 1
-17.855573 -29.694693 30.753225 46.328794 1.029418 0.844903 0.136087 -0.012488 -31203.700000 0 0 1
-17.712873 -28.168463 30.803355 45.343741 1.009455 0.823947 0.132450 -0.021366 393232.000000 0 0 1
-18.732073 -27.416093 30.113165 44.825611 0.971400 0.834181 0.129880 -0.017587 624973.000000 0 0 1
-18.537273 -27.266383 28.643685 43.675472 0.973717 0.855515 0.110518 -0.016019 352267.000000 0 0 1
-17.192973 -26.648323 28.127295 42.389576 0.997817 0.845252 0.113664 -0.024345 467989.000000 0 0 1
-17.118573 -25.226383 28.174315 41.511540 0.974579 0.824791 0.114086 -0.021469 278574.000000 0 0 1
-16.015873 -24.820233 27.379335 40.276298 0.997750 0.823323 0.105959 -0.020102 -83302.100000 0 0 1
-16.389373 -23.500133 26.652725 39.131005 0.961807 0.821512 0.104956 -0.017168 621060.000000 0 0 1
-17.508873 -23.675933 25.740095 39.110906 0.934035 0.852463 0.109911 -0.026184 948412.000000 0 0 1
-17.637073 -22.599933 24.817345 37.917330 0.908119 0.857259 0.113569 -0.031053 39027.000000 0 0 1
-18.103573 -21.213433 25.342505 37.682777 0.864331 0.833185 0.089405 -0.022512 -492063.000000 0 0 1
-17.726573 -20.228933 24.417255 36.326897 0.851232 0.833683 0.100769 -0.023759 273658.000000 0 0 1
-18.125773 -18.965533 24.932575 36.192104 0.808035 0.810832 0.087867 -0.011918 -181621.000000 0 0 1
-17.620973 -17.783933 24.080445 34.736649 0.790001 0.804837 0.089585 -0.021635 -132210.000000 0 0 1
-16.205473 -17.799633 24.036565 34.017654 0.832244 0.786127 0.094621 -0.029675 -105456.000000 0 0 1
-15.748573 -16.633633 23.392035 32.739618 0.812723 0.774906 0.095909 -0.026692 347874.000000 0 0 1
-14.230873 -16.465133 23.679495 32.161108 0.858057 0.743244 0.108428 -0.033447 361132.000000 0 0 1
-13.334873 -17.350033 22.979545 31.731719 0.915510 0.760949 0.096500 -0.038170 379138.000000 0 0 1
-11.969373 -17.140133 23.246165 31.263945 0.961196 0.732439 0.097244 -0.034183 -212927.000000 0 0 1
-11.256573 -16.062133 22.380485 29.758842 0.959524 0.719612 0.106872 -0.022287 -289519.000000 0 0 1
-10.935173 -16.478033 21.036785 28.872996 0.984905 0.754525 0.119211 -0.028186 -557144.000000 0 0 1
-9.614573 -16.925333 21.016585 28.646182 1.054195 0.747102 0.113317 -0.027968 -723006.000000 0 0 1
-9.218873 -18.189933 20.225985 28.721973 1.101714 0.789502 0.108978 -0.027639 86090.600000 0 0 1
-9.143373 -17.972033 18.847485 27.601140 1.100169 0.819137 0.103367 -0.027836 -244279.000000 0 0 1
-8.984073 -19.133533 18.099085 27.827730 1.131807 0.862689 0.093127 -0.025621 197751.000000 0 0 1
-8.842973 -18.863433 16.562085 26.614469 1.132428 0.899124 0.082255 -0.023299 -928275.000000 0 0 1
-7.636773 -18.308733 16.220885 25.625127 1.175627 0.885365 0.088854 -0.020256 -1201800.000000 0 0 1
-7.575173 -17.896433 14.905585 24.491673 1.170385 0.916504 0.115758 -0.027545 -143956.000000 0 1 0
-6.383173 -16.957233 14.712985 23.340192 1.210775 0.888765 0.082024 -0.022130 -133142.000000 0 1 0
-6.565073 -15.764633 15.498785 23.061574 1.176196 0.833808 0.090534 -0.024380 -159493.000000 0 1 0
-5.455673 -14.892233 15.586285 22.236800 1.219636 0.794105 0.055627 -0.008154 -132766.000000 0 1 0
-5.502273 -13.813533 16.693485 22.355338 1.191735 0.727659 0.032306 0.002263 -301155.000000 0 1 0
-5.283373 -14.289633 18.039885 23.612393 1.216650 0.701305 0.045519 0.009604 -71196.800000 0 1 0
-6.342173 -14.977033 18.691385 24.777057 1.170231 0.716083 0.091358 -0.012072 541029.000000 0 1 0
-7.553273 -14.113533 19.193185 24.992441 1.079403 0.695147 0.111640 -0.029018 306834.000000 0 1 0
-7.322973 -13.224433 20.271585 25.287323 1.065082 0.640746 0.097307 -0.027793 144334.000000 0 0 1
-8.523973 -12.575033 20.661985 25.645803 0.975092 0.633995 0.098966 -0.022193 603211.000000 0 0 1
-8.181173 -11.713633 21.892585 26.142419 0.961124 0.578223 0.092411 -0.013989 -129062.000000 0 0 1
-7.756773 -10.427233 21.563385 25.176860 0.931213 0.542392 0.065643 -0.010223 -106285.000000 0 0 1
-7.522973 -9.626933 22.672495 25.754902 0.907469 0.494265 0.066067 -0.011675 349945.000000 0 0 1
-6.111973 -9.699433 23.339565 26.003279 1.008511 0.456587 0.069882 -0.008668 418068.000000 0 0 1
-5.828973 -10.951033 23.977295 26.996532 1.081662 0.477466 0.079262 -0.008350 -420722.000000 0 0 1
-4.467873 -11.067233 24.296465 27.069609 1.187102 0.456604 0.074595 -0.012734 -380600.000000 0 0 1
-4.267273 -12.329833 25.133205 28.318058 1.237606 0.478834 0.087928 -0.012132 -307180.000000 0 0 1
-2.958873 -12.482733 25.641905 28.671952 1.338055 0.463887 0.063643 -0.015685 -51166.700000 0 0 1
-2.820673 -13.668033 26.465085 29.919426 1.367283 0.485278 0.085132 -0.027680 58458.000000 0 0 1
-2.847373 -15.113733 25.934225 30.151559 1.384583 0.535274 0.095182 -0.031509 187571.000000 0 0 1
-1.580273 -15.526033 25.444875 29.849567 1.469363 0.550167 0.089367 -0.034139 281111.000000 0 0 1
-1.581973 -16.816533 24.869975 30.063501 1.477000 0.596604 0.094814 -0.029587 -278254.000000 0 0 1
-0.175773 -17.473333 24.835955 30.367300 1.560737 0.613128 0.093870 -0.029049 471081.000000 0 0 1
0.381927 -17.971033 26.056625 31.655199 -1.549547 0.603879 0.095305 -0.031293 102293.000000 0 0 1
0.861327 -17.006733 26.949145 31.878320 -1.520193 0.563529 0.115089 -0.038368 -649633.000000 0 0 1
1.511427 -17.706433 28.146395 33.286961 -1.485642 0.563168 0.101361 -0.032714 -751180.000000 0 0 1
2.644027 -18.407033 27.711915 33.373043 -1.428130 0.591028 0.094792 -0.036560 -71677.200000 0 0 1
3.726727 -18.483733 28.628555 34.280184 -1.371842 0.582420 0.108835 -0.044435 925035.000000 0 0 1
4.636327 -17.197433 28.829775 33.888098 -1.307463 0.553415 0.127829 -0.038386 -466191.000000 0 0 1
3.983227 -16.069433 29.372835 33.717298 -1.327818 0.513256 0.129742 -0.043636 -537188.000000 0 0 1
4.789427 -15.039133 29.810645 33.731124 -1.262487 0.486932 0.152373 -0.050027 -982064.000000 0 0 1
3.939927 -13.999133 30.450875 33.745437 -1.296452 0.445558 0.132439 -0.049054 -421163.000000 0 0 1
3.323127 -14.524433 31.588055 34.925743 -1.345872 0.440744 0.129881 -0.051337 -165833.000000 0 0 1
2.697727 -13.469733 32.309881 35.108971 -1.373131 0.402016 0.117412 -0.049487 -117328.000000 0 0 1
1.840627 -13.925633 33.501641 36.327278 -1.439383 0.397020 0.108235 -0.043264 411804.000000 0 0 1
2.622327 -14.383833 -33.077626 36.164908 -1.390466 2.725396 0.119074 -0.035832 127062.000000 0 0 1
1.758627 -14.957633 -32.127656 35.482528 -1.453760 2.703235 0.107340 -0.044157 400323.000000 0 0 1
2.550427 -15.512133 -30.906236 34.674578 -1.407839 2.671051 0.110321 -0.032504 539451.000000 0 0 1
1.776627 -16.358533 -29.999026 34.215487 -1.462615 2.639895 0.100962 -0.026392 186421.000000 0 0 1
2.157227 -16.289133 -28.630916 33.010889 -1.439129 2.620584 0.105724 -0.023107 -295052.000000 0 0 1
1.968627 -17.635433 -27.896426 33.061981 -1.459627 2.575050 0.094061 -0.029405 128404.000000 0 0 1
2.795027 -18.666333 -28.472656 34.160449 -1.422164 2.556205 0.081860 -0.017755 405405.000000 0 0 1
2.659027 -19.891533 -27.787166 34.276378 -1.437908 2.516109 0.065273 -0.025491 -787350.000000 0 0 1
3.877427 -20.824633 -28.068176 35.164219 -1.386710 2.495102 0.045294 -0.021681 236496.000000 0 0 1
5.110127 -20.391733 -27.531456 34.639821 -1.325255 2.489461 0.062307 -0.012972 43567.000000 0 0 1
5.174727 -20.357133 -26.119896 33.517751 -1.321871 2.464321 0.078045 -0.019177 -1385960.000000 0 0 1
6.242027 -21.245833 -25.487726 33.763479 -1.285037 2.426283 0.044638 -0.010587 -316844.000000 0 0 1
5.840527 -22.592333 -25.518596 34.579242 -1.317817 2.400860 0.054169 -0.007094 270386.000000 0 0 1
6.259827 -23.232333 -26.713626 35.951975 -1.307602 2.408392 0.040355 -0.007504 -355474.000000 0 0 1
5.792627 -24.661533 -27.018036 37.036738 -1.340093 2.388377 0.046594 -0.003590 292801.000000 0 0 1
6.358127 -25.673573 -26.120536 37.173116 -1.328028 2.349943 0.061295 -0.011485 240272.000000 0 0 1
5.811827 -26.928123 -26.453676 38.192906 -1.358229 2.335930 0.072016 -0.013069 -5596.860000 0 0 1
6.226127 -28.059253 -25.439076 38.382716 -1.352442 2.295314 0.093397 -0.016151 -29132.700000 0 0 1
7.612527 -28.291483 -25.500166 38.840920 -1.307947 2.287003 0.108079 -0.029052 -239856.000000 0 0 1
7.963927 -29.468963 -24.833676 39.351688 -1.306853 2.253728 0.118836 -0.037420 -582047.000000 0 0 1
9.488727 -29.567193 -24.782076 39.729160 -1.260258 2.244360 0.146265 -0.046887 -548515.000000 0 0 1
10.026927 -29.784323 -26.044806 40.816382 -1.246063 2.262820 0.154974 -0.050961 -329087.000000 0 0 1
11.419227 -29.977513 -26.100326 41.355496 -1.206840 2.253794 0.134823 -0.039823 -72937.600000 0 0 1
11.947527 -29.755463 -27.535356 42.264959 -1.188977 2.280348 0.134975 -0.058689 -249900.000000 0 0 1
11.663727 -30.769853 -28.428676 43.485814 -1.208468 2.283321 0.153826 -0.065084 7559.750000 0 0 1
11.596727 -30.263293 -29.776856 44.011500 -1.204861 2.313891 0.126195 -0.038351 -89716.800000 0 0 1
-35.890555 -5.024433 -5.792376 36.700524 0.139089 1.729287 0.229769 -0.046945 147965.000000 0 0 1
-35.565323 -4.528333 -4.470976 36.130149 0.126643 1.694861 0.225967 -0.052768 82587.400000 0 0 1
-34.898532 -3.296033 -4.488476 35.340031 0.094167 1.698149 0.238649 -0.062356 63900.700000 0 0 1
-35.750985 -2.066233 -4.964976 36.153191 0.057731 1.708563 0.211504 -0.047870 685823.000000 0 0 1
-36.762333 -1.612233 -4.043676 37.019181 0.043827 1.680247 0.167395 -0.045358 744278.000000 0 0 1
37.529296 -0.781633 -4.715276 37.832431 -0.020824 1.695757 0.173532 -0.048024 95583.700000 0 0 1
36.701566 0.014267 -3.712676 36.888875 0.000389 1.671612 0.150000 -0.038687 -473264.000000 0 0 1
37.483406 0.949067 -3.093976 37.622854 0.025314 1.653126 0.157692 -0.029114 -293098.000000 0 0 1
36.658486 1.689967 -2.250476 36.766360 0.046068 1.632045 0.144850 -0.034588 -311859.000000 0 0 1
37.422506 2.899867 -1.626476 37.569916 0.077335 1.614102 0.150723 -0.038413 162015.000000 0 0 1
-37.393643 3.895567 -2.549776 37.682374 -0.103803 1.638513 0.175807 -0.050747 -388518.000000 0 0 1
-36.236343 3.574667 -3.255876 36.557510 -0.098331 1.659976 0.152435 -0.032851 -1074890.000000 0 0 1
-35.324690 4.827667 -3.337976 35.808968 -0.135824 1.664148 0.145736 -0.037846 2677.860000 0 0 1
-34.822105 5.211467 -2.040476 35.268994 -0.148557 1.628683 0.152527 -0.040049 85417.600000 0 0 1
-34.238727 6.469267 -2.062276 34.905513 -0.186744 1.629912 0.163969 -0.050987 -303754.000000 0 0 1
-33.860913 7.072767 -0.690276 34.598583 -0.205916 1.590749 0.180686 -0.055343 -670202.000000 0 0 1
-32.515483 6.789567 -0.425376 33.219509 -0.205852 1.583602 0.189140 -0.048561 105939.000000 0 0 1
-31.938613 7.316567 0.790124 32.775470 -0.225197 1.546687 0.203521 -0.053131 293966.000000 0 0 1
-31.727073 8.881467 0.854724 32.957824 -0.272947 1.544860 0.212970 -0.052627 130289.000000 0 0 1
-32.977003 9.545567 0.984224 34.344858 -0.281760 1.542135 0.187622 -0.051024 601426.000000 0 0 1
-32.707903 10.949067 0.998824 34.506328 -0.323028 1.541846 0.199644 -0.036420 434062.000000 0 0 1
-34.021736 11.759467 1.216324 36.017260 -0.332790 1.537019 0.187702 -0.050029 726642.000000 0 0 1
-34.899611 11.629767 0.059424 36.786382 -0.321662 1.569181 0.152039 -0.036434 25064.200000 0 0 1
-36.173143 12.135267 0.245524 38.155226 -0.323679 1.564361 0.150223 -0.024970 -591221.000000 0 0 1
-37.298403 11.095767 0.351224 38.915425 -0.289149 1.561771 0.174775 -0.053621 -183744.000000 0 0 1
37.591216 10.459267 -0.870076 39.028872 0.271373 1.593091 0.173536 -0.050251 -927102.000000 0 0 1
36.542586 9.605367 -0.620576 37.789003 0.257040 1.587219 0.196303 -0.049304 -423477.000000 0 0 1
36.116616 8.665767 -1.748976 37.182851 0.235487 1.617851 0.184547 -0.057393 472120.000000 0 0 1
35.487836 9.391167 -2.852576 36.820072 0.258701 1.648347 0.173294 -0.054128 521483.000000 0 0 1
34.845036 8.503967 -3.792976 36.067723 0.239372 1.676154 0.145198 -0.055775 143698.000000 0 0 1
33.932906 9.259467 -4.773576 35.496012 0.266390 1.705687 0.133226 -0.050532 -3791.470000 0 0 1
32.555836 9.406467 -4.503576 34.185469 0.281273 1.702920 0.156005 -0.045480 342987.000000 0 0 1
31.931836 10.122067 -5.568976 33.957501 0.306970 1.735539 0.146582 -0.029739 -790068.000000 0 0 1
30.426566 10.271567 -5.577676 32.594347 0.325573 1.742767 0.168534 -0.035487 -721987.000000 0 0 1
29.631426 9.097267 -5.746276 31.524615 0.297879 1.754100 0.165004 -0.030913 41582.900000 0 0 1
28.328426 9.473967 -6.051976 30.477569 0.322740 1.770696 0.156198 -0.024760 -923658.000000 0 0 1
27.291526 8.352067 -6.253976 29.218087 0.296981 1.786510 0.166685 -0.015963 -230071.000000 0 0 1
27.511326 7.618367 -7.413776 29.493671 0.270148 1.824890 0.191506 -0.020287 -217286.000000 0 0 1
26.519826 6.734467 -7.811776 28.454843 0.248684 1.848900 0.195009 -0.012892 -453845.000000 0 0 1
27.024026 5.782067 -8.946076 29.047591 0.210782 1.883865 0.218639 -0.030447 182156.000000 0 0 1
28.136226 5.013267 -8.526376 29.824137 0.176328 1.860730 0.199656 -0.031549 385033.000000 0 0 1
28.441726 3.962767 -9.454276 30.232741 0.138438 1.888848 0.194712 -0.030754 165574.000000 0 0 1
29.575426 3.032367 -8.926376 31.041605 0.102173 1.862476 0.160502 -0.029322 -575533.000000 0 0 1
30.896096 3.469367 -9.030476 32.375218 0.111823 1.853478 0.147203 -0.023232 707618.000000 0 0 1
31.846736 2.960367 -8.047176 32.980834 0.092690 1.817280 0.118661 -0.022098 573655.000000 0 0 1
32.018596 1.444067 -7.812176 32.989482 0.045070 1.809875 0.099638 -0.026166 -455133.000000 0 0 1
30.911416 0.854367 -7.099376 31.727696 0.027632 1.796466 0.121211 -0.031530 620324.000000 0 0 1
31.008596 -0.531533 -6.750076 31.739236 -0.017140 1.785106 0.107366 -0.032701 -341041.000000 0 0 1
30.632746 -1.532833 -7.890876 31.669869 -0.049997 1.822609 0.097892 -0.028988 -107841.000000 0 0 1
31.664006 -1.835333 -8.821076 32.920952 -0.057898 1.842058 0.100720 -0.025552 420002.000000 0 0 1
31.346756 -3.057933 -9.394076 32.866681 -0.097244 1.860662 0.084781 -0.032812 -142053.000000 0 0 1
32.214766 -3.267533 -10.679676 34.095797 -0.101084 1.889384 0.098236 -0.035069 1512670.000000 0 0 1
33.617426 -3.522833 -10.393376 35.363314 -0.104411 1.869104 0.125016 -0.030099 1204850.000000 0 0 1
34.328406 -3.954533 -11.519476 36.424938 -0.114692 1.892573 0.143765 -0.044713 -500127.000000 0 0 1
35.796396 -4.217833 -11.190676 37.741268 -0.117288 1.871833 0.186910 -0.042389 -666585.000000 0 0 1
36.041246 -5.406533 -10.484176 37.922552 -0.148899 1.850908 0.177574 -0.046321 791741.000000 0 0 1
37.400586 -5.583833 -10.073676 39.133898 -0.148203 1.831143 0.208222 -0.045375 563210.000000 0 0 1
37.602646 -6.849033 -9.220176 39.317679 -0.180167 1.807505 0.200615 -0.054238 -147351.000000 0 0 1
36.987906 -6.734233 -7.964076 38.430217 -0.180093 1.779544 0.186142 -0.052165 316481.000000 0 0 1
36.997846 -8.033933 -7.343776 38.565733 -0.213826 1.762389 0.184420 -0.047568 -270918.000000 0 0 1
36.366816 -8.048833 -5.949776 37.719078 -0.217812 1.729197 0.182474 -0.039104 -676003.000000 0 0 1
37.254556 -7.714533 -4.892876 38.358261 -0.204190 1.698702 0.203931 -0.037607 361329.000000 0 0 1
37.449636 -8.803833 -3.979176 38.675788 -0.230892 1.673864 0.227255 -0.044166 550838.000000 0 0 1
-36.726733 -9.847933 -4.491476 38.288485 0.261978 1.688373 0.218198 -0.045619 -466252.000000 0 0 1
-37.407513 -10.608933 -5.434676 39.260759 0.276348 1.709667 0.193377 -0.042214 209690.000000 0 0 1
-36.596943 -11.486933 -6.195876 38.854533 0.304139 1.730943 0.156470 -0.039673 -227739.000000 0 0 1
-37.239663 -11.852933 -7.580976 39.808990 0.308149 1.762400 0.163455 -0.047415 172965.000000 0 0 1
-37.325283 -10.774033 -8.513176 39.770978 0.281014 1.786521 0.159059 -0.055590 34055.900000 0 0 1
37.424926 -11.437133 -9.677476 40.312363 -0.296588 1.813226 0.172604 -0.038908 -330882.000000 0 0 1
37.304566 -10.545833 -10.960576 40.286219 -0.275506 1.846337 0.149605 -0.043777 -30608.900000 0 0 1
36.252536 -9.590233 -11.027776 39.087476 -0.258616 1.856811 0.153594 -0.047327 463783.000000 0 0 1
36.435556 -8.780633 -12.150176 39.398934 -0.236482 1.884295 0.155799 -0.049373 25928.300000 0 0 1
35.177136 -7.952933 -12.500976 38.170073 -0.222344 1.904460 0.145461 -0.045579 -111217.000000 0 0 1
35.458986 -7.109933 -13.565676 38.625360 -0.197887 1.929661 0.149589 -0.035129 991438.000000 0 0 1
34.247506 -6.487633 -14.008876 37.566337 -0.187215 1.952940 0.124348 -0.034801 443626.000000 0 0 1
34.466206 -5.505933 -15.153976 38.050987 -0.158410 1.980409 0.123723 -0.030596 -79360.400000 0 0 1
35.182546 -4.379933 -14.673176 38.370528 -0.123854 1.963197 0.137720 -0.018946 368344.000000 0 0 1
35.695296 -3.543133 -15.728276 39.167418 -0.098936 1.984022 0.138431 -0.029142 -368163.000000 0 0 1
36.901946 -2.730733 -15.303676 40.042640 -0.073865 1.962955 0.160542 -0.035469 -118605.000000 0 0 1
-37.561163 -2.341833 -16.490376 41.088413 0.062267 1.983774 0.168910 -0.026617 -109650.000000 0 0 1
-36.253473 -1.924633 -16.261176 39.779949 0.053038 1.991911 0.199926 -0.021456 -519909.000000 0 0 1
-35.940470 -0.446233 -15.960976 39.327716 0.012415 1.988700 0.187482 -0.021351 -281829.000000 0 0 1
-36.011413 0.303667 -17.153076 39.889123 -0.008432 2.015310 0.152167 -0.012300 210012.000000 0 0 1
-35.798946 1.689667 -16.797476 39.579979 -0.047164 2.009088 0.148480 -0.032709 11516.100000 0 0 1
-36.133973 2.643867 -17.973176 40.443653 -0.073038 2.031301 0.126885 -0.026987 303890.000000 0 0 1
-35.162621 2.590567 -19.027876 40.064710 -0.073541 2.065679 0.111440 -0.018409 629233.000000 0 0 1
-35.245345 3.765567 -19.805376 40.603778 -0.106435 2.080332 0.097844 -0.023117 -632157.000000 0 0 1
-34.197175 3.752367 -20.950176 40.279485 -0.109290 2.117788 0.084976 -0.017524 -364071.000000 0 0 1
-32.915723 4.008167 -20.436476 38.950735 -0.121174 2.123130 0.092234 -0.018124 -170732.000000 0 0 1
-32.068983 4.369567 -21.522876 38.868329 -0.135421 2.157643 0.079973 -0.017827 241684.000000 0 0 1
-30.633053 4.833467 -21.185176 37.557396 -0.156496 2.170109 0.090108 -0.016757 351833.000000 0 0 1
-29.835833 3.842567 -20.544476 36.428255 -0.128085 2.169983 0.101739 -0.004496 217551.000000 0 0 1
-28.459393 4.156467 -20.696676 35.433962 -0.145024 2.194557 0.082243 0.004986 219416.000000 0 0 1
-27.507443 3.097567 -20.117576 34.219457 -0.112136 2.199255 0.106841 0.000534 -116560.000000 0 0 1
-27.434213 3.200467 -18.711876 33.361855 -0.116135 2.166240 0.102719 0.003262 102848.000000 0 0 1
-26.810733 2.076767 -18.092076 32.410671 -0.077306 2.163027 0.108781 0.000449 -644864.000000 0 0 1
-26.029903 2.404967 -16.855476 31.103807 -0.092131 2.143505 0.112232 -0.008265 -1129820.000000 0 0 1
-24.781173 2.895167 -17.187576 30.296886 -0.116302 2.174026 0.099487 -0.010201 -911218.000000 0 0 1
-24.108073 3.341067 -16.054776 29.156779 -0.137710 2.153922 0.114423 -0.024058 766268.000000 0 0 1
-22.883073 4.300667 -16.337276 28.443582 -0.185774 2.182636 0.123897 -0.028291 297516.000000 0 0 1
-21.719473 3.792667 -16.893976 27.776361 -0.172877 2.224605 0.140501 -0.039265 -25591.100000 0 0 1
-20.671873 4.775167 -16.799176 27.061797 -0.227016 2.240522 0.125008 -0.040058 478085.000000 0 0 1
-19.391773 4.218467 -17.492376 26.454103 -0.214202 2.293260 0.145384 -0.048154 -104464.000000 0 0 1
-18.875073 3.098967 -16.769876 25.438174 -0.162731 2.290605 0.160093 -0.049812 -384625.000000 0 0 1
-17.890173 2.442767 -17.494276 25.141104 -0.135703 2.340390 0.127707 -0.046685 -1183060.000000 0 0 1
-17.776773 0.894767 -17.132276 24.704841 -0.050291 2.337102 0.130760 -0.045955 -24219.100000 0 1 0
-18.767373 -0.020233 -17.557576 25.699867 0.001078 2.322902 0.088118 -0.038928 530004.000000 0 0 1
-20.067873 0.284867 -17.030976 26.322136 -0.014194 2.274467 0.107466 -0.044210 -355871.000000 0 0 1
-21.054373 -0.802933 -17.426176 27.342329 0.038118 2.261829 0.094426 -0.043736 -755168.000000 0 0 1
-20.858473 -2.111733 -16.872776 26.911445 0.100897 2.248459 0.080084 -0.043378 412657.000000 0 0 1
-21.956373 -2.889033 -17.310876 28.108633 0.130829 2.234269 0.084947 -0.028567 154746.000000 0 0 1
-22.205673 -4.188433 -16.419676 27.932788 0.186430 2.199168 0.093431 -0.030624 -4009.950000 0 0 1
-22.579673 -3.815133 -15.126376 27.444565 0.167382 2.154551 0.083911 -0.035958 180881.000000 0 0 1
-22.862973 -4.896133 -14.316676 27.416325 0.210965 2.120219 0.080224 -0.041141 -174842.000000 0 0 1
-23.047573 -4.351633 -12.892676 26.764686 0.186614 2.073395 0.087924 -0.044628 -206676.000000 0 0 1
-24.214273 -3.575733 -12.785176 27.614808 0.146611 2.052154 0.081990 -0.042733 102081.000000 0 0 1
-24.393173 -3.186533 -11.462676 27.139894 0.129897 2.006838 0.107665 -0.054516 -311260.000000 0 0 1
-25.264963 -1.916333 -11.353076 27.764780 0.075704 1.992047 0.163258 -0.052753 -219475.000000 0 0 1
-25.722893 -1.590933 -10.064176 27.667416 0.061770 1.943093 0.170032 -0.055756 545681.000000 0 0 1
-26.170553 -0.233933 -10.043676 28.032624 0.008939 1.937227 0.194903 -0.057651 -126777.000000 0 0 1
-26.601383 0.251867 -8.598976 27.957815 -0.009468 1.883434 0.211891 -0.053838 -31182.000000 0 0 1
-25.456403 0.503467 -7.818376 26.634732 -0.019775 1.868725 0.185863 -0.050621 373396.000000 0 0 1
-25.809313 0.786567 -6.489276 26.624238 -0.030467 1.817012 0.184444 -0.051564 -580653.000000 0 0 1
-24.624273 1.057567 -5.576376 25.269928 -0.042922 1.793300 0.147008 -0.043185 -600546.000000 0 0 1
-24.148373 2.341567 -5.851376 24.957273 -0.096664 1.807455 0.181577 -0.042819 555400.000000 0 1 0
-22.828973 2.559767 -5.351876 23.587221 -0.111662 1.799687 0.173152 -0.030551 463381.000000 0 1 0
-22.436073 4.100467 -5.515576 23.465140 -0.180767 1.808070 0.172234 -0.032350 13665.500000 0 1 0
-23.096373 4.927267 -4.566976 24.053642 -0.210184 1.761822 0.190294 -0.033803 644868.000000 0 1 0
-22.914073 6.302367 -4.907476 24.266394 -0.268407 1.774434 0.195364 -0.036191 -742902.000000 0 1 0
-23.339473 7.363967 -3.881076 24.779463 -0.305630 1.728069 0.197038 -0.036722 -112694.000000 0 1 0
-22.564973 7.259067 -2.712676 23.858556 -0.311241 1.684741 0.175389 -0.032366 1382800.000000 0 1 0
-21.142073 7.434867 -2.717676 22.575435 -0.338155 1.691471 0.164694 -0.034040 681165.000000 0 1 0
-20.486073 8.876067 -2.743476 22.494231 -0.408857 1.693064 0.144351 -0.038198 -357393.000000 0 1 0
-20.425873 9.467167 -4.007076 22.867011 -0.434015 1.746940 0.122408 -0.030926 617130.000000 0 1 0
-19.906973 10.806367 -3.972376 22.996628 -0.497332 1.744404 0.120094 -0.025242 -143743.000000 0 1 0
-19.856773 11.373867 -5.383876 23.508348 -0.520176 1.801867 0.117307 -0.026234 151021.000000 0 1 0
-18.812273 10.707867 -6.090976 22.486886 -0.517461 1.845091 0.091889 -0.023903 344750.000000 0 1 0
-18.763973 11.245667 -7.373976 23.085217 -0.539921 1.895918 0.098385 -0.025278 526007.000000 0 1 0
-17.457773 10.940567 -8.199276 22.174264 -0.559812 1.949553 0.081602 -0.017785 446512.000000 0 1 0
-17.267173 9.642067 -8.751976 21.626877 -0.509273 1.987426 0.082565 -0.016944 417668.000000 0 1 0
-18.306473 9.182267 -9.617776 22.626149 -0.464915 2.009839 0.101783 -0.015236 77122.300000 0 1 0
-18.293773 9.871567 -10.988776 23.513042 -0.494834 2.057085 0.111048 -0.020593 -222089.000000 0 1 0
-17.236173 9.388067 -11.760776 22.880938 -0.498744 2.110636 0.110410 -0.021698 -374917.000000 0 1 0
-17.002473 10.297167 -12.853476 23.671240 -0.544547 2.144802 0.104854 -0.031845 -838435.000000 0 1 0
-15.792773 10.002567 -13.682776 23.166385 -0.564591 2.202636 0.088235 -0.024130 -1111900.000000 0 1 0
-15.709173 8.738267 -14.435076 23.054432 -0.507631 2.247376 0.088221 -0.033291 170150.000000 0 1 0
-15.806073 7.521767 -13.631876 22.186414 -0.444165 2.232453 0.086353 -0.027504 -308524.000000 0 1 0
-15.954873 6.305267 -14.541376 22.489241 -0.376356 2.273905 0.105358 -0.027602 114979.000000 0 1 0
-14.791573 6.025467 -15.317876 22.129939 -0.386833 2.335300 0.101831 -0.034281 672047.000000 0 1 0
-14.888773 4.903767 -16.163876 22.516513 -0.318170 2.371531 0.106280 -0.032089 -263663.000000 0 1 0
33.970556 -15.885633 27.813565 46.689896 -0.437417 0.932649 0.059552 -0.015103 -179558.000000 0 0 1
33.065886 -14.814733 28.014805 45.800201 -0.421220 0.912621 0.055365 -0.013918 -117196.000000 0 0 1
32.107736 -14.932033 29.031595 45.789801 -0.435307 0.884057 0.064333 -0.017673 -201330.000000 0 0 1
32.532506 -15.024633 30.487585 47.048872 -0.432652 0.865843 0.052286 -0.019014 -381323.000000 0 0 1
32.932496 -13.795033 31.038765 47.310223 -0.396683 0.855198 0.048281 -0.020237 -30442.400000 0 0 1
32.757526 -13.722033 32.435144 48.097695 -0.396690 0.830699 0.048967 -0.027725 -301446.000000 0 0 1
33.279716 -12.400833 33.029507 48.500191 -0.356686 0.821644 0.051629 -0.018538 -66269.100000 0 0 1
32.837136 -12.224133 -33.342756 48.367823 -0.356371 2.331399 0.058200 -0.033250 64273.000000 0 0 1
33.088736 -10.878733 -32.997576 47.979697 -0.317642 2.329168 0.062700 -0.023890 -59080.300000 0 0 1
32.635086 -10.509633 -31.555926 46.596971 -0.311548 2.314760 0.069750 -0.018754 188971.000000 0 0 1
31.256616 -10.316933 -31.301976 45.422779 -0.318812 2.331077 0.107096 -0.023764 311883.000000 0 0 1
30.915206 -10.047933 -29.956876 44.205490 -0.314246 2.315390 0.114766 -0.029589 32206.700000 0 0 1
29.440826 -9.554833 -29.786036 42.956548 -0.313819 2.336992 0.110847 -0.020908 395879.000000 0 0 1
29.013326 -9.404233 -28.494936 41.739359 -0.313449 2.322231 0.103189 -0.026302 285437.000000 0 0 1
28.422126 -10.599433 -27.984376 41.270940 -0.356954 2.315923 0.132476 -0.026259 -871295.000000 0 0 1
27.761426 -10.417033 -26.609606 39.840714 -0.358976 2.302180 0.114505 -0.021229 -556264.000000 0 0 1
26.948826 -9.274533 -26.350966 38.815327 -0.331457 2.317033 0.101785 -0.021287 994306.000000 0 0 1
25.760926 -9.091233 -27.136606 38.505470 -0.339263 2.352862 0.098777 -0.021274 1147600.000000 0 0 1
24.571526 -10.120233 -26.990906 37.877276 -0.390696 2.363977 0.109260 -0.012934 -210694.000000 0 0 1
24.981626 -11.312633 -27.639296 38.935690 -0.425212 2.360111 0.117659 -0.020792 -37876.700000 0 0 1
24.174026 -12.444433 -27.510016 38.678785 -0.475406 2.362061 0.119581 -0.029051 -199214.000000 0 0 1
24.963826 -13.671733 -28.028506 39.946289 -0.501046 2.348514 0.130963 -0.020046 209279.000000 0 0 1
25.027726 -13.798933 -29.443136 41.032863 -0.503876 2.371075 0.124046 -0.025310 711659.000000 0 0 1
26.258726 -14.379833 -29.882956 42.300016 -0.501015 2.355270 0.121668 -0.018934 353785.000000 0 0 1
26.237926 -14.395533 -31.435836 43.403593 -0.501809 2.380769 0.122735 -0.024740 -450445.000000 0 0 1
25.287026 -15.221933 -32.045316 43.566538 -0.541864 2.397273 0.137080 -0.018707 -156831.000000 0 0 1
25.432226 -15.475833 -33.479466 44.801497 -0.546655 2.414763 0.141892 -0.017378 33037.800000 0 0 1
25.382126 -14.268033 33.195357 44.156096 -0.512108 0.720050 0.101567 -0.027232 695878.000000 0 0 1
24.069526 -13.725933 33.095822 43.163373 -0.518266 0.697022 0.100999 -0.022515 604788.000000 0 0 1
24.165626 -12.820833 32.019310 42.113982 -0.487780 0.707020 0.084719 -0.022560 -1011680.000000 0 0 1
23.325026 -11.510333 32.083728 41.302666 -0.458415 0.681235 0.089008 -0.022797 -525707.000000 0 0 1
21.948926 -11.670533 32.022736 40.539022 -0.488695 0.660112 0.078636 -0.009411 -610789.000000 0 0 1
21.443226 -12.151933 30.824415 39.466771 -0.515576 0.674496 0.065729 -0.016581 -256550.000000 0 0 1
19.876426 -12.372833 30.900255 38.768351 -0.556791 0.648404 0.071158 -0.011149 816534.000000 0 0 1
19.205626 -11.209833 31.088095 38.222848 -0.528329 0.620930 0.064980 -0.003414 -599020.000000 0 0 1
18.127126 -11.320233 31.986961 38.469547 -0.558233 0.589016 0.045947 0.003636 -641.374000 0 0 1
17.268826 -10.064433 32.220146 37.916263 -0.527683 0.555245 0.055868 0.004333 -677062.000000 0 0 1
16.403226 -9.795133 31.150505 36.542638 -0.538319 0.550157 0.093629 0.003791 -185556.000000 0 0 1
15.630426 -8.642233 31.258245 36.001060 -0.505075 0.519114 0.098864 0.006599 688945.000000 0 0 1
14.496126 -8.533133 32.356421 36.467657 -0.532032 0.479418 0.107466 0.000240 -523701.000000 0 0 1
13.468526 -9.460333 32.237797 36.196335 -0.612337 0.472052 0.112274 -0.006319 -68632.200000 0 0 1
12.274626 -9.250633 32.954261 36.362398 -0.645826 0.436415 0.112754 -0.014047 635131.000000 0 0 1
11.242526 -8.232133 32.400819 35.270037 -0.632032 0.406147 0.137885 -0.023125 -10313.700000 0 0 1
11.721426 -6.880833 32.554674 35.278102 -0.530828 0.395507 0.131979 -0.016458 438437.000000 0 0 1
10.664326 -6.074733 32.085825 34.353026 -0.517790 0.365339 0.153763 -0.019053 354667.000000 0 0 1
10.956426 -4.544833 32.299298 34.408479 -0.393208 0.351952 0.150389 -0.022755 58179.300000 0 0 1
10.951326 -4.229033 33.638775 35.628408 -0.368524 0.335773 0.149164 -0.039928 156761.000000 0 0 1
11.487226 -2.930633 -33.818756 35.836479 -0.249793 2.804428 0.110617 -0.027350 -347582.000000 0 0 1
11.017426 -2.202933 -32.529046 34.414756 -0.197347 2.809022 0.102375 -0.036850 374697.000000 0 0 1
9.622226 -1.948833 -32.437366 33.890528 -0.199831 2.847694 0.109389 -0.017372 134827.000000 0 0 1
9.301726 -1.098133 -31.366226 32.734815 -0.117513 2.851410 0.115112 -0.019436 1063980.000000 0 0 1
7.749526 -0.855433 -31.161086 32.121647 -0.109940 2.896423 0.112919 -0.021538 850282.000000 0 0 1
7.303926 -0.028833 -32.196586 33.014668 -0.003948 2.918513 0.104313 -0.023253 -209714.000000 0 0 1
5.906626 0.073967 -31.989246 32.530072 0.012522 2.958991 0.118475 -0.023684 182168.000000 0 0 1
5.177626 1.050467 -32.960716 33.381433 0.200169 2.982659 0.128312 -0.022434 28336.900000 0 0 1
5.701726 2.349767 -32.888506 33.461693 0.390907 2.956235 0.102447 -0.019750 44226.600000 0 0 1
5.137926 3.184067 33.732165 34.269455 0.554792 0.177311 0.105245 -0.017070 112429.000000 0 0 1
5.737926 4.578067 33.592891 34.385532 0.673435 0.215131 0.094007 -0.015417 -12240.300000 0 0 1
5.369126 5.249167 32.393049 33.251931 0.774101 0.227778 0.112296 -0.034358 -128706.000000 0 0 1
6.218626 6.319567 32.134554 33.335234 0.793449 0.269209 0.110659 -0.037633 2649.330000 0 0 1
5.493926 7.292367 31.148745 32.459300 0.925135 0.285132 0.115721 -0.038687 623337.000000 0 0 1
4.453326 8.077267 31.778455 33.089947 1.066924 0.282485 0.134699 -0.039290 495647.000000 0 0 1
4.239526 9.332167 31.092225 32.738195 1.144379 0.318445 0.148749 -0.050767 121279.000000 0 0 1
3.771426 9.317367 29.565225 31.227224 1.186181 0.327725 0.148636 -0.053098 -900388.000000 0 0 1
2.485926 8.839067 29.454945 30.852921 1.296635 0.302183 0.137683 -0.048104 -1136400.000000 0 0 1
2.110926 8.839767 28.079305 29.513469 1.336387 0.313025 0.111562 -0.038630 267758.000000 0 0 1
0.720526 8.273467 27.750465 28.966493 1.483927 0.290784 0.123477 -0.039169 569827.000000 0 0 1
-0.442374 8.967567 28.209845 29.604194 -1.521506 0.308137 0.120985 -0.036734 701919.000000 0 0 1
-1.610074 8.505267 27.498585 28.828876 -1.383707 0.304971 0.115361 -0.033081 1725240.000000 0 0 1
-2.943974 8.779167 28.302785 29.778993 -1.247244 0.316187 0.099682 -0.029616 674335.000000 0 0 1
-3.272074 10.133267 28.412475 30.342352 -1.258461 0.358579 0.101458 -0.036268 23494.300000 0 0 1
-4.571674 10.174067 28.985575 31.057614 -1.148487 0.367345 0.074794 -0.024434 20922.800000 0 0 1
-4.910274 11.472467 29.796135 32.303838 -1.166383 0.396622 0.062144 -0.021782 -117768.000000 0 0 1
-5.083774 12.632167 29.025005 32.060370 -1.188183 0.438656 0.062476 -0.026730 548561.000000 0 0 1
-6.304374 12.730567 28.280835 31.648351 -1.110984 0.465503 0.067701 -0.030248 389083.000000 0 0 1
-6.525274 14.118767 27.626405 31.703896 -1.137868 0.512771 0.060095 -0.028693 174273.000000 0 0 1
-5.462174 14.394967 26.733455 30.850090 -1.208130 0.522529 0.063102 -0.026503 -58806.100000 0 0 1
-5.580674 15.728267 26.379995 31.215804 -1.229836 0.564073 0.051704 -0.021561 269739.000000 0 0 1
-4.345574 16.378667 25.694815 30.779348 -1.311452 0.583014 0.086540 -0.027460 283566.000000 0 0 1
-3.957074 15.899467 24.419165 29.406583 -1.326871 0.590975 0.079088 -0.017323 -395058.000000 0 0 1
-2.995374 16.655167 23.745955 29.158828 -1.392852 0.619161 0.089592 -0.017515 -192498.000000 0 0 1
-2.879274 16.443867 22.223085 27.794901 -1.397456 0.644270 0.091894 -0.019192 76373.700000 0 0 1
-2.236074 15.224067 21.947685 26.804349 -1.424961 0.611460 0.087216 -0.029578 103065.000000 0 0 1
-2.465674 14.999867 20.541285 25.554255 -1.407874 0.637090 0.085433 -0.032887 57428.400000 0 0 1
-1.717074 13.764667 20.016385 24.353030 -1.446692 0.606012 0.073090 -0.033491 -204636.000000 0 1 0
-2.201374 12.509067 20.368885 24.004464 -1.396598 0.557566 0.069372 -0.021033 -239074.000000 0 1 0
-1.416074 11.583867 19.689185 22.887884 -1.449155 0.535047 0.058473 -0.021956 -374529.000000 0 1 0
-2.101874 10.192067 19.487385 22.091951 -1.367421 0.490487 0.049789 -0.014910 -249128.000000 0 1 0
-2.414074 9.498067 20.698685 22.901454 -1.321902 0.442193 0.084374 -0.029568 -310439.000000 0 1 0
-3.294774 9.976167 21.680685 24.092147 -1.251810 0.451241 0.090587 -0.030391 204322.000000 0 1 0
-4.788374 9.940367 21.202285 23.901387 -1.121888 0.479830 0.067285 -0.020111 213607.000000 0 1 0
-5.343474 8.631867 21.231685 23.533939 -1.016494 0.446016 0.048880 -0.023881 -170582.000000 0 1 0
-6.736874 8.634367 21.051985 23.730231 -0.908221 0.479690 0.044018 -0.024618 -103039.000000 0 1 0
-7.446974 7.291867 21.257585 23.675170 -0.774875 0.455854 0.041923 -0.016213 -122855.000000 0 1 0
-7.387774 6.789267 22.525085 24.658727 -0.743207 0.419057 0.044585 -0.017816 229242.000000 0 1 0
-8.065774 5.536567 22.582785 24.610820 -0.601559 0.408807 0.043725 -0.018405 225858.000000 0 1 0
-8.095074 4.943167 24.025555 25.830068 -0.548206 0.376005 0.047571 -0.023367 -145160.000000 0 0 1
-8.937274 5.627367 24.910055 27.056477 -0.561937 0.401006 0.053554 -0.022002 -17362.000000 0 0 1
-9.238674 4.858367 26.103615 28.113263 -0.484131 0.380400 0.048452 -0.019388 396451.000000 0 0 1
-10.147974 5.682967 27.084315 29.476052 -0.510496 0.405619 0.064874 -0.021479 193942.000000 0 0 1
-9.330374 6.543067 27.792765 30.038399 -0.611575 0.389125 0.056366 -0.027509 -210264.000000 0 0 1
-10.105774 7.477767 28.522435 31.170065 -0.637038 0.415143 0.060585 -0.025647 624147.000000 0 0 1
-9.202874 8.496267 29.334295 31.896400 -0.745496 0.403546 0.069142 -0.023812 756728.000000 0 0 1
-8.334874 7.957467 30.332505 32.447685 -0.762238 0.363065 0.093001 -0.024815 127752.000000 0 0 1
-7.811974 8.989767 31.171735 33.369446 -0.855383 0.364954 0.092081 -0.031756 -162262.000000 0 0 1
-6.790574 8.306567 32.103734 33.849087 -0.885479 0.322528 0.107037 -0.033890 176904.000000 0 0 1
-5.593774 7.927067 31.427895 32.891356 -0.956285 0.299425 0.093801 -0.034733 330692.000000 0 0 1
-4.696374 7.257467 32.351037 33.486062 -0.996456 0.261108 0.103755 -0.027024 -134757.000000 0 0 1
-3.234874 7.461767 32.004906 33.022059 -1.161726 0.248844 0.084321 -0.024593 -685872.000000 0 0 1
-2.845674 8.804567 32.166426 33.470842 -1.258189 0.280098 0.078984 -0.031469 443394.000000 0 0 1
-1.469874 8.979067 31.781175 33.057938 -1.408535 0.278830 0.077220 -0.029745 853417.000000 0 0 1
-1.215274 10.437067 31.335805 33.050597 -1.454880 0.323539 0.080160 -0.032023 -146954.000000 0 0 1
-1.401674 11.376467 32.396976 34.364993 -1.448206 0.340068 0.085579 -0.039753 152089.000000 0 0 1
-1.783374 12.645167 31.850418 34.315154 -1.430688 0.381322 0.083372 -0.040519 -254899.000000 0 0 1
-1.863874 13.698467 32.962785 35.744471 -1.435562 0.397120 0.084632 -0.036877 -320337.000000 0 0 1
-0.597374 14.047267 33.460404 36.294369 -1.528296 0.397795 0.120279 -0.043125 -237010.000000 0 0 1
-0.760574 14.987467 -33.206226 36.439760 -1.520092 2.717138 0.113547 -0.048331 637380.000000 0 0 1
0.571926 15.368667 -32.478116 35.935373 1.533600 2.699346 0.097897 -0.046890 199421.000000 0 0 1
1.534226 16.029567 -33.239306 36.934433 1.475375 2.690461 0.122358 -0.043754 242778.000000 0 0 1
2.681426 16.353067 -32.448366 36.435001 1.408272 2.669420 0.141721 -0.044870 358580.000000 0 0 1
3.758126 17.113967 -33.257976 37.591280 1.354633 2.656702 0.144370 -0.029033 -738125.000000 0 0 1
3.468026 18.464867 -33.533166 38.437634 1.385142 2.630897 0.129631 -0.026555 -277273.000000 0 0 1
4.458726 19.129467 33.392872 38.741459 1.341803 0.531710 0.107572 -0.011821 77820.600000 0 0 1
4.299026 20.689567 33.345873 39.477678 1.365924 0.564836 0.118006 -0.030856 22786.300000 0 0 1
4.417726 21.293167 -33.066486 39.576606 1.366227 2.559849 0.141318 -0.052175 147962.000000 0 0 1
4.213926 22.639967 -33.167626 40.378419 1.386774 2.534692 0.136829 -0.043596 51941.000000 0 0 1
4.037126 23.326967 -31.802696 39.646655 1.399427 2.501689 0.158594 -0.048193 -85322.200000 0 0 1
3.614026 24.645767 -31.971076 40.529307 1.425195 2.479713 0.158914 -0.052393 131753.000000 0 0 1
3.254326 25.153667 -30.720616 39.837844 1.442133 2.451429 0.158490 -0.057990 39130.100000 0 0 1
2.785926 26.621967 -30.530526 40.602999 1.466528 2.421778 0.155139 -0.057306 -226859.000000 0 0 1
3.845426 27.513667 -30.601036 41.330528 1.431932 2.404458 0.161131 -0.059734 -104079.000000 0 0 1
3.401226 28.846467 -30.337736 42.000776 1.453430 2.377938 0.147588 -0.059339 -166662.000000 0 0 1
4.597326 29.798067 -30.149546 42.638660 1.417721 2.356177 0.171794 -0.071096 269946.000000 0 0 1
5.567526 29.419667 -29.194646 41.819152 1.383763 2.343560 0.153426 -0.076800 45902.600000 0 0 1
6.258126 30.563067 -28.717486 42.402349 1.368827 2.314831 0.178410 -0.084248 -145552.000000 0 0 1
7.314726 30.282267 -27.615466 41.630936 1.333785 2.296070 0.177720 -0.080241 -459339.000000 0 0 1
8.515426 29.689967 -28.041486 41.717281 1.291482 2.307944 0.176201 -0.068119 -160139.000000 0 0 1
9.688826 30.443867 -27.890126 42.409451 1.262680 2.288477 0.172995 -0.068671 -118327.000000 0 0 1
9.812526 31.845467 -28.608806 43.919053 1.271898 2.280223 0.187304 -0.070295 -1164790.000000 0 0 1
9.106326 32.938867 -27.978746 44.166779 1.301072 2.256838 0.191326 -0.075846 391042.000000 0 0 1
9.211626 -33.469170 -28.685576 45.032229 -1.302219 2.261398 0.174241 -0.068705 -111057.000000 0 0 1
8.137826 -33.347170 -29.800216 45.456692 -1.331441 2.285739 0.158583 -0.052124 -149094.000000 0 0 1
8.157526 33.263467 -30.720626 46.008264 1.330303 2.301938 0.140409 -0.038283 -442645.000000 0 0 1
6.925126 33.097067 -31.359446 46.117112 1.364535 2.318553 0.130512 -0.040223 -419893.000000 0 0 1
6.809526 32.120167 -32.585076 46.258642 1.361888 2.352389 0.144048 -0.058276 -80188.700000 0 0 1
6.908826 32.818367 -33.790056 47.608245 1.363309 2.359943 0.132475 -0.041540 185976.000000 0 0 1
6.941926 31.953567 32.789492 46.307360 1.356870 0.784015 0.118558 -0.034895 -116254.000000 0 0 1
6.290326 32.505067 31.514645 45.709085 1.379641 0.810051 0.108441 -0.031483 181572.000000 0 0 1
7.092126 33.508767 30.876475 46.113907 1.362224 0.837167 0.103419 -0.033524 324113.000000 0 0 1
6.512426 -33.634470 29.715125 45.350611 -1.379539 0.856308 0.084070 -0.044459 -230962.000000 0 0 1
19.066227 -21.965033 28.323335 40.597968 -0.855930 0.798679 0.125664 -0.021503 -47018.400000 0 0 1
18.230327 -20.859033 28.654145 39.856042 -0.852546 0.768519 0.105571 -0.021816 254810.000000 0 0 1
16.875127 -21.205433 28.836215 39.572308 -0.898626 0.754379 0.089508 -0.016287 180975.000000 0 0 1
16.467627 -21.415433 30.337635 40.622354 -0.915270 0.727527 0.055666 -0.019992 -244730.000000 0 0 1
16.850327 -22.671633 30.911975 41.874654 -0.931640 0.740394 0.098518 -0.024997 366388.000000 0 0 1
16.367927 -22.770233 32.240957 42.730222 -0.947544 0.715869 0.091404 -0.021895 412248.000000 0 0 1
17.228627 -23.839133 33.010434 44.213331 -0.944995 0.727834 0.117672 -0.031835 252409.000000 0 0 1
16.798827 -25.172803 32.733374 44.579641 -0.982327 0.746210 0.127750 -0.037285 -191496.000000 0 0 1
17.667227 -26.104543 33.296266 45.849966 -0.975820 0.758017 0.131013 -0.039850 -314098.000000 0 0 1
17.266527 -27.544793 33.117770 46.407276 -1.010866 0.776125 0.115895 -0.039518 -128220.000000 0 0 1
17.589227 -28.106503 31.867955 45.988292 -1.011617 0.805213 0.121581 -0.041844 79045.400000 0 0 1
17.294327 -29.502903 31.831132 46.719760 -1.040593 0.821231 0.125793 -0.041795 -148117.000000 0 0 1
18.019427 -30.258263 30.694595 46.716383 -1.033677 0.853909 0.153671 -0.045315 547972.000000 0 0 1
19.396627 -30.455983 30.997115 47.587994 -1.003704 0.861415 0.156207 -0.051410 314488.000000 0 0 1
20.118427 -31.139133 30.033865 47.711946 -0.997180 0.889908 0.137083 -0.041032 88132.900000 0 0 1
21.575327 -31.594143 30.374315 48.849602 -0.971646 0.899767 0.121692 -0.039041 801516.000000 0 0 1
22.507527 -30.509653 30.389415 48.589549 -0.935202 0.895112 0.109515 -0.035376 -684953.000000 0 0 1
23.789727 -31.004833 30.292565 49.445832 -0.916321 0.911398 0.096496 -0.031616 -988367.000000 0 0 1
24.864927 -29.905043 30.253455 49.273195 -0.877163 0.909685 0.079472 -0.029344 17208.900000 0 0 1
26.185327 -30.301833 29.975605 50.024087 -0.858145 0.928266 0.067450 -0.027181 -319634.000000 0 0 1
27.012427 -29.228283 29.702175 49.660678 -0.824777 0.929665 0.050051 -0.022708 1260040.000000 0 0 1
28.269027 -29.509043 28.722945 49.949265 -0.806857 0.958140 0.038864 -0.013432 1049500.000000 0 0 1
29.259627 -30.290263 29.305745 51.307431 -0.802704 0.962854 0.041003 -0.015711 -280906.000000 0 0 1
30.484227 -30.139393 28.593535 51.529228 -0.779710 0.982554 0.037160 -0.026218 148968.000000 0 0 1
31.557727 -31.038973 29.207875 53.032141 -0.777111 0.987524 0.028480 -0.026191 -245434.000000 0 0 1
31.148627 -32.380753 29.074545 53.517093 -0.804790 0.996462 0.018652 -0.027877 627788.000000 0 0 1
32.124727 -33.285853 29.617195 54.928356 -0.803148 1.001313 0.044373 -0.024857 75395.100000 0 0 1
31.378827 33.110441 30.117325 54.662468 0.812243 0.987271 0.050668 -0.016097 545074.000000 0 0 1
30.505327 33.130194 31.285385 54.835755 0.826623 0.963647 0.064416 -0.015474 74185.600000 0 0 1
29.388327 -33.726083 31.272555 54.581088 -0.854019 0.960688 0.050112 -0.009112 -348103.000000 0 0 1
28.178827 33.527465 30.330535 53.273620 0.871861 0.965100 0.059219 -0.014788 488040.000000 0 0 1
27.673527 32.199958 30.608695 52.340745 0.860855 0.946167 0.044558 -0.008401 732020.000000 0 0 1
26.234727 32.234980 30.619375 51.622679 0.887662 0.935845 0.060093 -0.006023 990755.000000 0 0 1
25.554627 30.871854 30.580695 50.411202 0.879354 0.918988 0.097040 -0.012351 -260783.000000 0 0 1
25.474327 30.413144 29.234445 49.280356 0.873540 0.935735 0.085131 -0.011810 70623.000000 0 0 1
24.923827 29.122364 29.261115 48.223668 0.862927 0.918794 0.123285 -0.030149 -84104.900000 0 0 1
24.321027 28.702294 27.871555 46.820483 0.867840 0.933175 0.121278 -0.039454 854857.000000 0 0 1
23.075227 29.357254 27.558835 46.409093 0.904642 0.934993 0.137219 -0.037095 496409.000000 0 0 1
22.299227 28.625894 26.665715 45.030631 0.909000 0.937049 0.136689 -0.022739 394778.000000 0 0 1
20.990927 29.396474 26.288645 44.675100 0.950695 0.941667 0.142166 -0.018485 439579.000000 0 0 1
21.216227 30.565814 25.522445 45.119757 0.964030 0.969563 0.128833 -0.023748 -921389.000000 0 0 1
20.030627 31.188014 25.213305 44.828886 0.999886 0.973469 0.126000 -0.027594 -937693.000000 0 0 1
20.242027 32.660944 24.798425 45.732251 1.015972 0.997681 0.130066 -0.028474 -26851.500000 0 0 1
20.686127 32.885808 23.506035 45.408435 1.009305 1.026685 0.137922 -0.028334 -69357.200000 0 0 1
22.085927 32.972817 23.353495 46.047590 0.980612 1.038910 0.137286 -0.024461 -176424.000000 0 0 1
22.537727 33.133091 21.932385 45.681292 0.973471 1.070008 0.125523 -0.025439 -113378.000000 0 0 1
22.075227 -33.287163 21.439185 45.331992 -0.985215 1.078175 0.119269 -0.019849 223397.000000 0 0 1
22.507527 -33.149023 20.075485 44.815975 -0.974317 1.106321 0.114224 -0.024300 85995.600000 0 0 1
22.269327 -31.793823 19.304385 43.352386 -0.959782 1.109298 0.105270 -0.021904 193403.000000 0 0 1
23.130427 -30.713233 19.709385 43.206240 -0.925308 1.097110 0.093024 -0.014211 406098.000000 0 0 1
22.681927 -29.499343 19.180285 41.863640 -0.915311 1.094871 0.097316 -0.024378 -101984.000000 0 0 1
23.393127 -29.047483 17.891185 41.365313 -0.892807 1.123514 0.079882 -0.024236 -157462.000000 0 0 1
22.957227 -29.785573 16.766985 41.174585 -0.914147 1.151392 0.067594 -0.023319 455575.000000 0 0 1
23.542727 -29.178403 15.589085 40.603679 -0.891890 1.176745 0.060244 -0.018031 186861.000000 0 0 1
23.065327 -29.707633 14.230585 40.212713 -0.910605 1.209077 0.051903 -0.026987 -419597.000000 0 0 1
23.751927 -30.890373 13.929485 41.381152 -0.915302 1.227477 0.083157 -0.019453 13006.000000 0 0 1
23.560527 -31.322343 12.566185 41.159405 -0.925892 1.260537 0.082781 -0.026019 -13307.100000 0 0 1
22.154527 -31.671033 12.021485 40.477074 -0.960392 1.269252 0.085010 -0.025644 -517218.000000 0 0 1
21.520727 -32.773483 12.461185 41.140297 -0.989760 1.263068 0.094508 -0.035952 -1149670.000000 0 0 1
20.309927 -32.989073 11.800385 40.497175 -1.018944 1.275119 0.100627 -0.033545 -754381.000000 0 0 1
19.289427 -33.492823 12.797185 40.713869 -1.048266 1.251056 0.097761 -0.023058 -669496.000000 0 0 1
19.160027 -32.548173 13.883785 40.239902 -1.038752 1.218531 0.089654 -0.019555 215427.000000 0 0 1
19.716227 -33.090763 15.074085 41.363707 -1.033454 1.197778 0.080158 -0.022891 -547885.000000 0 0 1
19.575127 -32.124613 16.323685 41.007793 -1.023530 1.161392 0.086121 -0.025497 651137.000000 0 0 1
18.280427 -31.830133 16.852985 40.390029 -1.049479 1.140372 0.108104 -0.028778 1319750.000000 0 0 1
17.274727 -32.834943 17.174385 40.884094 -1.086481 1.137268 0.099127 -0.028408 747218.000000 0 0 1
17.600127 -33.707603 18.436185 42.259435 -1.089593 1.119356 0.090551 -0.034564 -210069.000000 0 0 1
18.456927 32.837994 18.214285 41.841991 1.058741 1.120412 0.088508 -0.026433 126846.000000 0 0 1
18.852227 32.237590 19.486885 42.123715 1.041636 1.089859 0.082990 -0.025122 181149.000000 0 0 1
19.804727 31.062554 19.379985 41.625633 1.003205 1.086509 0.085353 -0.020020 221978.000000 0 0 1
19.066927 29.899444 18.986685 40.224603 1.003115 1.079219 0.072258 -0.023893 183069.000000 0 0 1
19.929527 28.813054 18.752885 39.737248 0.965673 1.079327 0.070157 -0.025515 -7356.880000 0 0 1
19.159627 27.534864 18.426985 38.272887 0.962873 1.068473 0.078621 -0.027551 -31544.700000 0 0 1
18.609027 26.912124 19.569385 38.125046 0.965816 1.031777 0.085083 -0.030627 -122027.000000 0 0 1
18.044927 25.667374 19.195485 36.781791 0.958040 1.021749 0.094842 -0.037068 -476173.000000 0 0 1
17.688727 24.848054 20.476285 36.736836 0.952144 0.979573 0.094752 -0.034702 60652.700000 0 0 1
16.537127 25.266164 21.190285 36.890159 0.991252 0.958906 0.095315 -0.029710 221582.000000 0 0 1
15.556727 24.222094 21.085085 35.683363 0.999886 0.938630 0.102508 -0.035175 156756.000000 0 0 1
14.212627 24.533324 21.776885 35.750741 1.045722 0.915832 0.106790 -0.052598 -163751.000000 0 0 1
13.534627 25.524734 21.010785 35.723260 1.083238 0.942022 0.118587 -0.049090 -148161.000000 0 0 1
12.333327 25.807964 21.705085 35.906444 1.124994 0.921671 0.106281 -0.050856 -422469.000000 0 0 1
11.537127 26.961584 21.122985 36.141567 1.166464 0.946593 0.106349 -0.055193 -370808.000000 0 0 1
12.077227 28.266714 21.379685 37.442723 1.167013 0.963076 0.109123 -0.052896 81600.200000 0 0 1
11.726727 29.108064 20.314385 37.382747 1.187819 0.996295 0.112795 -0.055869 32789.200000 0 0 1
12.105527 30.626004 20.520985 38.802149 1.194375 1.013537 0.116908 -0.052386 -18113.500000 0 0 1
11.510127 31.375434 21.575985 39.779694 1.219189 0.997521 0.114166 -0.049767 -423530.000000 0 0 1
11.991527 31.098244 22.890875 40.433769 1.202764 0.968990 0.096827 -0.047257 -194246.000000 0 0 1
11.378727 31.885507 24.025995 41.513967 1.228021 0.953608 0.075352 -0.044834 -650016.000000 0 0 1
10.046827 31.599844 24.299965 41.109332 1.262964 0.938367 0.082786 -0.041045 -903465.000000 0 0 1
9.728127 32.469817 25.374465 42.341339 1.279702 0.928191 0.077793 -0.037447 511007.000000 0 0 1
8.319827 32.134232 26.012605 42.172077 1.317451 0.906099 0.119003 -0.048717 1304310.000000 0 0 1
7.203427 32.947400 25.544935 42.307969 1.355549 0.922555 0.113454 -0.043076 1205420.000000 0 0 1
6.555327 32.517414 24.339015 41.142948 1.371868 0.937789 0.118867 -0.047995 -250909.000000 0 0 1
5.641027 31.302704 24.401515 40.088832 1.392501 0.916393 0.111182 -0.044052 -360701.000000 0 0 1
6.394027 30.138464 24.655855 39.460383 1.361741 0.895888 0.090821 -0.042119 -871480.000000 0 0 1
5.562927 29.082154 24.670425 38.540209 1.381796 0.876140 0.083388 -0.036815 -1100400.000000 0 0 1
6.347527 27.738384 24.845635 37.775847 1.345834 0.853019 0.075747 -0.037947 233947.000000 0 0 1
7.291627 27.405854 23.836245 37.046123 1.310760 0.871838 0.084488 -0.043751 341892.000000 0 0 1
8.476727 28.141274 23.743005 37.782490 1.278220 0.891285 0.095962 -0.052602 -767430.000000 0 0 1
9.654127 27.884594 24.692195 38.476711 1.237495 0.874026 0.077424 -0.049359 -1015290.000000 0 0 1
9.465027 28.189894 26.068195 39.545008 1.246864 0.851038 0.073104 -0.039227 194672.000000 0 0 1
10.620227 27.969344 26.862145 40.207565 1.207903 0.839162 0.082455 -0.027565 83494.700000 0 0 1
11.719527 29.046124 26.714425 41.166554 1.187294 0.864612 0.081799 -0.035821 -272240.000000 0 0 1
11.499927 30.226924 27.441485 42.414035 1.207253 0.867165 0.077831 -0.041168 225073.000000 0 0 1
12.749327 30.871174 27.590245 43.322008 1.179146 0.880372 0.079941 -0.029538 -58887.200000 0 0 1
12.607027 32.125316 28.456445 44.729659 1.196830 0.881250 0.051442 -0.030623 -91296.600000 0 0 1
12.341527 31.935865 29.847535 45.421230 1.202028 0.853795 0.049501 -0.044301 -76393.700000 0 0 1
10.968127 31.837324 30.130795 45.186058 1.239025 0.840868 0.075466 -0.040727 -405812.000000 0 0 1
10.705427 31.775390 31.674919 46.125721 1.245831 0.813845 0.095226 -0.037171 -102707.000000 0 0 1
10.928827 30.473524 32.267053 45.708179 1.226451 0.787052 0.087922 -0.039922 252166.000000 0 0 1
11.280527 30.465334 33.629635 46.758307 1.216175 0.768113 0.113887 -0.036755 -47276.900000 0 0 1
11.516927 29.086254 -33.414356 45.773016 1.193780 2.389120 0.114020 -0.033496 263643.000000 0 0 1
12.728527 28.461644 -33.829566 46.005653 1.150259 2.396957 0.109653 -0.030817 271256.000000 0 0 1
12.622827 27.066624 -33.581696 44.940719 1.134420 2.414702 0.121973 -0.036424 200720.000000 0 0 1
13.873727 26.196184 33.741335 44.913228 1.083743 0.720833 0.126556 -0.036239 231952.000000 0 0 1
13.856227 24.844314 -33.513826 43.959203 1.062044 2.437787 0.088609 -0.038019 -287319.000000 0 0 1
14.140827 24.618044 -32.155586 42.895137 1.049406 2.418303 0.080581 -0.033303 -188787.000000 0 0 1
14.077727 23.101934 -31.921076 41.843002 1.023512 2.438548 0.064268 -0.043083 133565.000000 0 0 1
15.103327 22.329504 -32.565896 42.275937 0.976096 2.450135 0.046850 -0.022209 350546.000000 0 0 1
14.962227 20.937304 -32.401126 41.377191 0.950325 2.470379 0.043207 -0.022011 -553130.000000 0 0 1
16.081827 20.059204 -32.952586 41.795571 0.895009 2.479037 0.063875 -0.036005 345159.000000 0 0 1
17.310827 20.338504 -32.244506 41.869173 0.865643 2.449834 0.088561 -0.041083 988086.000000 0 0 1
18.411027 19.783604 -33.025556 42.673695 0.821319 2.455787 0.109771 -0.045538 832885.000000 0 0 1
19.694927 20.050604 -32.176026 42.722518 0.794347 2.423618 0.097920 -0.038861 -10426.000000 0 0 1
20.141827 21.411204 -32.070526 43.504615 0.815937 2.399677 0.097273 -0.030726 689069.000000 0 0 1
21.322427 21.587804 -31.283236 43.581189 0.791583 2.371455 0.091200 -0.021096 730453.000000 0 0 1
20.909527 21.922104 -29.832946 42.518133 0.809035 2.348510 0.067938 -0.016076 95903.400000 0 0 1
20.197227 23.114994 -29.677496 42.696425 0.852662 2.339330 0.046306 -0.006014 -129460.000000 0 0 1
19.855927 23.495924 -28.342196 41.828177 0.869166 2.315272 0.046744 0.013880 212130.000000 0 0 1
21.010527 24.074494 -27.439256 42.118123 0.853254 2.280334 0.037126 0.007005 18741.500000 0 0 1
21.766227 25.122474 -27.963506 43.438060 0.856855 2.270193 0.035952 0.005206 -490146.000000 0 0 1
21.140427 26.402524 -28.088036 43.965313 0.895630 2.263822 0.030185 0.010448 -161094.000000 0 0 1
22.026627 27.535154 -28.787296 45.519945 0.896089 2.255458 0.030056 0.004329 207191.000000 0 0 1
22.246827 27.430804 -30.221676 46.483546 0.889374 2.278589 0.045186 -0.000425 218969.000000 0 0 1
22.809727 26.238634 -30.817836 46.459537 0.855193 2.296051 0.061022 -0.010398 -218532.000000 0 0 1
24.135227 25.685324 -30.262926 46.455245 0.816502 2.280281 0.085579 -0.026382 -351872.000000 0 0 1
25.205627 26.500044 -30.694956 47.746794 0.810427 2.269035 0.077217 -0.021983 -637771.000000 0 0 1
26.458627 25.978914 -30.361236 47.924603 0.776250 2.256892 0.118019 -0.037474 44099.100000 0 0 1
27.625627 26.912314 -30.842926 49.383540 0.772320 2.245363 0.107316 -0.018962 29714.000000 0 0 1
27.753227 28.082264 -30.032366 49.606433 0.791291 2.221081 0.074135 -0.012929 162796.000000 0 0 1
28.860827 28.921694 -30.322456 50.880871 0.786452 2.209245 0.074000 -0.023895 189999.000000 0 0 1
28.956227 30.247104 -29.440726 51.186978 0.807199 2.183597 0.052193 -0.002634 -298883.000000 0 0 1
29.479327 30.123464 -28.183336 50.702606 0.796205 2.160188 0.074496 -0.008796 61966.800000 0 0 1
29.155627 31.133274 -27.286656 50.634898 0.818189 2.139916 0.048347 0.002091 -405803.000000 0 0 1
29.584227 30.734144 -25.820856 49.865125 0.804460 2.115090 0.068331 -0.007633 95604.900000 0 0 1
28.980927 29.601944 -25.193076 48.485671 0.795998 2.117177 0.061245 -0.002174 667514.000000 0 0 1
27.566027 29.602114 -24.996076 47.549709 0.820999 2.124314 0.042511 0.000099 453517.000000 0 0 1
27.183027 29.261614 -23.512376 46.346422 0.822207 2.102866 0.044859 -0.000252 -252768.000000 0 0 1
27.213427 30.351154 -22.647176 46.633226 0.839852 2.077897 0.047203 0.007271 68543.900000 0 0 1
26.768527 30.132194 -21.340276 45.606036 0.844444 2.057740 0.035700 0.006446 -78258.400000 0 0 1
3.841727 -26.079103 -19.441476 32.754381 -1.424538 2.206263 0.084674 -0.008353 -177884.000000 0 0 1
3.685627 -27.249043 -18.636276 33.217540 -1.436355 2.166435 0.099180 -0.007566 309768.000000 0 0 1
3.486027 -26.985963 -17.260076 32.222737 -1.442329 2.136072 0.088659 -0.011128 -75133.000000 0 0 1
3.333827 -28.175293 -16.340176 32.740844 -1.453019 2.093329 0.081293 -0.009079 -176831.000000 0 0 1
4.548327 -28.685423 -15.848976 33.086716 -1.413547 2.070327 0.076702 -0.011521 -295895.000000 0 0 1
4.441727 -29.416253 -14.675476 33.172496 -1.420933 2.029068 0.082199 -0.018784 -695152.000000 0 0 1
5.790327 -29.911783 -14.218276 33.621452 -1.379581 2.007432 0.100037 -0.021075 -952982.000000 0 0 1
6.745927 -28.941083 -13.843876 32.783330 -1.341794 2.006760 0.098730 -0.018878 354718.000000 0 0 1
8.092427 -29.411553 -13.930376 33.534791 -1.302296 1.999180 0.096397 -0.025755 703339.000000 0 0 1
8.561427 -30.231353 -12.719076 33.897015 -1.294826 1.955438 0.092935 -0.028113 -921006.000000 0 0 1
8.664827 -29.369873 -11.573476 32.735516 -1.283911 1.932154 0.092982 -0.027391 -21963.800000 0 0 1
8.852827 -29.962643 -10.315676 32.902062 -1.283508 1.889701 0.101377 -0.025020 699126.000000 0 0 1
9.989527 -31.023473 -10.034576 34.101895 -1.259281 1.869470 0.090173 -0.020090 982260.000000 0 0 1
11.325327 -30.525093 -10.091976 34.086541 -1.215522 1.871371 0.097213 -0.021097 502260.000000 0 0 1
12.239027 -31.526763 -9.623876 35.161763 -1.200494 1.848037 0.088386 -0.019774 256821.000000 0 0 1
13.314627 -30.931703 -8.697676 34.780729 -1.164316 1.823551 0.087737 -0.028762 178682.000000 0 0 1
14.384227 -30.233553 -9.345776 34.760858 -1.126720 1.843005 0.099514 -0.028937 722108.000000 0 0 1
15.314727 -29.821163 -8.358476 34.550061 -1.096366 1.815144 0.091639 -0.026968 8249.820000 0 0 1
16.574527 -28.999983 -8.656476 34.505775 -1.051569 1.824376 0.109383 -0.035801 -8385.660000 0 0 1
16.381427 -27.641073 -8.916376 33.344892 -1.035800 1.841489 0.105946 -0.029856 156559.000000 0 0 1
15.887627 -27.291123 -10.220376 33.191538 -1.043603 1.883804 0.094249 -0.028148 -175066.000000 0 0 1
15.771227 -25.757813 -10.281676 31.904692 -1.021390 1.898915 0.089699 -0.026563 -1326240.000000 0 0 1
14.784227 -25.182503 -9.483676 30.702963 -1.039929 1.884817 0.070521 -0.024639 -90930.700000 0 0 1
14.163727 -24.015033 -10.081276 29.647345 -1.037921 1.917755 0.047422 -0.011877 663375.000000 0 0 1
13.490227 -24.182633 -11.484976 29.978169 -1.061948 1.963959 0.036658 -0.010752 -294197.000000 0 0 1
14.384527 -23.829433 -12.525276 30.522762 -1.027701 1.993644 0.028717 0.000901 -28864.800000 0 0 1
13.686727 -24.021733 -13.725376 30.866747 -1.052906 2.031597 0.045292 -0.003296 79031.800000 0 0 1
14.287627 -23.388633 -15.026576 31.256398 -1.022416 2.072308 0.047234 0.001674 764971.000000 0 0 1
15.602127 -23.890033 -15.316476 32.384479 -0.992258 2.063441 0.043782 0.001303 601530.000000 0 0 1
16.185227 -23.200133 -16.368876 32.682531 -0.961659 2.095371 0.035292 -0.002104 -632887.000000 0 0 1
17.175227 -23.989333 -17.257676 34.180461 -0.949444 2.100061 0.051925 -0.010104 -384246.000000 0 0 1
18.359927 -24.296833 -16.606376 34.687097 -0.923688 2.070024 0.088094 -0.020963 -446630.000000 0 0 1
19.381427 -23.337433 -16.923276 34.737196 -0.877740 2.079654 0.089216 -0.022297 -355598.000000 0 0 1
20.765327 -23.663733 -16.345776 35.473306 -0.850543 2.049682 0.084983 -0.019872 -239669.000000 0 0 1
21.316627 -24.661633 -17.150276 36.833771 -0.858022 2.055123 0.108399 -0.021944 -475077.000000 0 0 1
22.530227 -25.147313 -16.616376 37.631136 -0.840235 2.028132 0.125424 -0.026592 147217.000000 0 0 1
23.322527 -26.013193 -17.630976 39.134100 -0.839882 2.038152 0.133653 -0.029532 -141187.000000 0 0 1
23.994627 -25.228253 -18.635476 39.490351 -0.810455 2.062240 0.136878 -0.023214 187983.000000 0 0 1
24.795527 -26.039093 -19.493276 40.900371 -0.809856 2.067584 0.113958 -0.023811 -28337.900000 0 0 1
25.894927 -25.130013 -20.116076 41.312484 -0.770408 2.079362 0.114062 -0.027510 -55281.500000 0 0 1
25.482027 -24.066433 -20.984576 40.851919 -0.756836 2.110258 0.127612 -0.022286 -90267.800000 0 0 1
25.372227 -22.878533 -20.232776 39.705697 -0.733762 2.105480 0.133087 -0.016762 -351522.000000 0 0 1
24.696927 -21.812833 -21.068776 39.110500 -0.723467 2.139688 0.168870 -0.024383 -304652.000000 0 0 1
25.344527 -21.377333 -22.289076 39.951700 -0.700690 2.162650 0.134383 -0.015420 114604.000000 0 0 1
25.311427 -22.206933 -23.443376 41.029356 -0.720158 2.178983 0.120949 -0.019461 -146948.000000 0 0 1
24.513027 -21.690433 -24.679376 40.993109 -0.724383 2.216846 0.120317 -0.024453 224791.000000 0 0 1
25.116127 -20.595333 -25.392586 41.228279 -0.686820 2.234327 0.113931 -0.015847 715663.000000 0 0 1
24.149427 -20.000033 -26.260396 40.899933 -0.691688 2.267984 0.097021 -0.007826 345689.000000 0 0 1
24.845427 -19.344833 -27.472446 41.788193 -0.661560 2.288188 0.104886 -0.004082 -289447.000000 0 0 1
23.913627 -18.652933 -28.249536 41.446710 -0.662434 2.320726 0.113536 -0.007708 218187.000000 0 0 1
24.407127 -18.019133 -29.453646 42.283735 -0.635954 2.341404 0.119535 -0.020150 -410349.000000 0 0 1
23.365927 -17.030933 -29.992546 41.660197 -0.629846 2.374502 0.132154 -0.020590 -266086.000000 0 0 1
22.240327 -17.729533 -30.466356 41.679339 -0.673019 2.390539 0.107357 -0.019159 -320139.000000 0 0 1
21.295727 -16.898533 -31.044436 41.265305 -0.670776 2.422363 0.103758 -0.020935 -384786.000000 0 0 1
20.049627 -17.541833 -31.664436 41.380429 -0.718785 2.442153 0.083239 -0.017738 -65803.900000 0 0 1
20.261027 -18.186833 -32.872306 42.683236 -0.731502 2.449866 0.087563 -0.013834 1568720.000000 0 0 1
18.964527 -18.711833 -33.295356 42.642311 -0.778691 2.466751 0.075251 -0.019786 1260470.000000 0 0 1
19.061827 -19.596233 33.157075 42.973913 -0.799221 0.689502 0.124768 -0.025708 -66361.500000 0 0 1
19.929227 -20.680933 33.450508 44.088678 -0.803906 0.709466 0.124231 -0.025863 301112.000000 0 0 1
20.153027 -21.565433 32.398139 43.827523 -0.819241 0.738886 0.108479 -0.028408 -287459.000000 0 0 1
21.114927 -22.728833 32.736202 45.100986 -0.822192 0.758538 0.106597 -0.017930 -130108.000000 0 0 1
20.635927 -23.761033 33.611195 46.044985 -0.855672 0.752527 0.114743 -0.025157 86902.800000 0 0 1
20.741727 -23.402033 -32.685886 45.235401 -0.845590 2.378314 0.117664 -0.029737 -506841.000000 0 0 1
19.788727 -24.218333 -31.839576 44.630482 -0.885717 2.365141 0.117215 -0.034215 -527281.000000 0 0 1
20.003227 -25.623973 -31.855616 45.513705 -0.907969 2.346071 0.121849 -0.042627 102534.000000 0 0 1
20.988227 -25.970023 -30.901206 45.495410 -0.891093 2.317490 0.122133 -0.039189 86.701700 0 0 1
21.102527 -27.506283 -30.819906 46.387270 -0.916385 2.297493 0.107277 -0.037343 -1125290.000000 0 0 1
19.910727 -28.086493 -30.520866 46.008819 -0.954117 2.296110 0.105375 -0.032669 -1226020.000000 0 0 1
20.108927 -29.428163 -30.227536 46.734245 -0.971351 2.274173 0.100030 -0.026729 981617.000000 0 0 1
18.758327 -30.041723 -29.611516 46.165158 -1.012622 2.267151 0.110039 -0.028209 1556290.000000 0 0 1
17.660827 -30.221313 -30.514616 46.436778 -1.041939 2.287790 0.118415 -0.038449 170114.000000 0 0 1
17.910527 -31.011533 -31.658966 47.799501 -1.047052 2.294719 0.128096 -0.044114 -421059.000000 0 0 1
16.616427 -31.440553 -32.421496 48.122421 -1.084607 2.310040 0.136200 -0.050797 858625.000000 0 0 1
15.751027 -30.331713 -32.788486 47.362353 -1.091834 2.335454 0.135982 -0.048273 1338970.000000 0 0 1
14.570227 -30.940963 -33.410386 47.810967 -1.130695 2.344517 0.093145 -0.036397 1950120.000000 0 0 1
13.437827 -29.913373 33.765085 47.068737 -1.148587 0.770795 0.086704 -0.023172 926742.000000 0 0 1
12.620727 -29.432483 -32.870276 45.891272 -1.165709 2.369230 0.100714 -0.031532 -199856.000000 0 0 1
11.819627 -28.426283 -33.442286 45.454853 -1.176745 2.397533 0.099653 -0.036242 108759.000000 0 0 1
10.811427 -27.659193 -32.535596 44.050913 -1.198177 2.401774 0.122077 -0.045642 -29220.500000 0 0 1
9.710627 -28.376563 -32.102076 43.932549 -1.241082 2.390162 0.111078 -0.035217 -706788.000000 0 0 1
8.790127 -27.570293 -31.446666 42.734999 -1.262159 2.397721 0.085074 -0.040695 254395.000000 0 0 1
7.670727 -28.331603 -30.657496 42.442924 -1.306387 2.377952 0.082193 -0.043815 739858.000000 0 0 1
6.554427 -28.935903 -31.298656 43.126011 -1.348040 2.382919 0.090407 -0.042926 415120.000000 0 0 1
6.887527 -30.157073 -31.906796 44.440192 -1.346259 2.371680 0.094017 -0.037476 -84720.400000 0 0 1
5.627227 -30.949003 -32.309816 45.093577 -1.390939 2.369577 0.130581 -0.047007 212198.000000 0 0 1
4.919227 -31.458323 -31.199796 44.578606 -1.415680 2.346030 0.144178 -0.065680 -359331.000000 0 0 1
3.802827 -32.202153 -31.550486 45.242384 -1.453248 2.342512 0.165688 -0.085059 -1310580.000000 0 0 1
2.956027 -32.707253 -30.312296 44.691585 -1.480663 2.316182 0.146948 -0.093095 730575.000000 0 0 1
1.841127 -31.848713 -30.017956 43.804200 -1.513052 2.325779 0.127096 -0.082082 974878.000000 0 0 1
0.717527 -32.090043 -30.875836 44.537658 -1.548440 2.336788 0.100852 -0.047586 -808582.000000 0 0 1
-0.297973 -30.981873 -30.899406 43.757725 1.561179 2.354839 0.072810 -0.032432 -435581.000000 0 0 1
-1.165073 -30.960713 -29.778946 42.973349 1.533183 2.336387 0.053661 -0.037035 165395.000000 0 0 1
-1.881573 -29.748203 -29.664066 42.052975 1.507630 2.353780 0.103268 -0.031461 506052.000000 0 0 1
-2.764473 -29.610143 -28.380826 41.108079 1.477704 2.332832 0.108122 -0.035334 240278.000000 0 0 1
-1.895473 -29.577453 -27.255676 40.265251 1.506799 2.314344 0.092309 -0.035843 278837.000000 0 0 1
-2.574173 -29.599123 -26.024756 39.497118 1.484047 2.290155 0.109922 -0.036514 -147550.000000 0 0 1
-1.593773 -29.701463 -24.822676 38.741222 1.517188 2.266245 0.080134 -0.036526 74725.500000 0 0 1
-2.039873 -30.222283 -23.583376 38.389101 1.503403 2.232326 0.106081 -0.039268 413432.000000 0 0 1
-0.889773 -30.348043 -22.716876 37.919017 1.541486 2.213159 0.086837 -0.021092 721977.000000 0 0 1
-1.171573 -30.570753 -21.247076 37.247574 1.532492 2.177824 0.049463 -0.009453 -82731.000000 0 0 1
-1.405773 -29.346293 -20.543976 35.850189 1.522930 2.181020 0.045290 -0.008008 -11930.600000 0 0 1
-0.262373 -28.937993 -19.826576 35.079472 1.561730 2.171460 0.069845 -0.013277 -158549.000000 0 0 1
-0.308273 -27.597133 -19.072076 33.547591 1.559626 2.175488 0.076204 -0.013226 -148559.000000 0 0 1
-1.203473 -27.562293 -17.993976 32.937995 1.527160 2.148735 0.071450 -0.013382 -117435.000000 0 0 1
-1.034073 -26.350303 -17.278076 31.526809 1.531573 2.150820 0.074309 -0.010604 129926.000000 0 0 1
-1.999873 -26.103653 -16.095876 30.732351 1.494333 2.122036 0.057176 -0.005191 31059.600000 0 0 1
-1.725673 -24.879433 -15.471376 29.348383 1.501546 2.126055 0.046880 0.001077 792536.000000 0 0 1
-2.767773 -24.696833 -14.478276 28.761339 1.459192 2.098318 0.048052 0.002577 626123.000000 0 0 1
-2.683473 -23.423633 -13.680176 27.258298 1.456731 2.096558 0.044999 0.009139 -224264.000000 0 0 1
-1.633073 -23.444333 -12.745376 26.734777 1.501251 2.067732 0.039823 0.001512 -407332.000000 0 0 1
-1.563573 -22.419833 -11.822676 25.394278 1.501168 2.055069 0.046293 0.003329 375239.000000 0 0 1
-0.164773 -22.469333 -11.141376 25.080437 1.563463 2.031106 0.052946 -0.003670 420578.000000 0 0 1
0.289227 -21.298133 -10.482576 23.739809 -1.557217 2.028134 0.046526 -0.002071 -1058160.000000 0 1 0
1.620027 -21.454233 -10.136876 23.783710 -1.495429 2.011096 0.046242 0.001632 -717792.000000 0 1 0
2.208527 -20.066333 -9.879876 22.475481 -1.461176 2.025932 0.052121 -0.003111 -702611.000000 0 1 0
2.755227 -19.414033 -11.017176 22.491645 -1.429818 2.082696 0.052394 0.005112 -7636.190000 0 1 0
3.375627 -18.193033 -10.629076 21.339132 -1.387338 2.092205 0.037081 0.002586 1775470.000000 0 1 0
4.901727 -18.302933 -10.144776 21.492807 -1.309126 2.062363 0.065910 -0.019496 1307490.000000 0 1 0
4.962827 -18.895933 -8.850676 21.448086 -1.313957 1.996164 0.059737 -0.016109 117056.000000 0 1 0
6.057327 -19.786333 -8.730776 22.459221 -1.273719 1.970059 0.068691 -0.007008 -114760.000000 0 1 0
5.774127 -20.737733 -7.530676 22.805815 -1.299239 1.907321 0.068243 -0.024812 813234.000000 0 1 0
4.762427 -21.735633 -7.857776 23.597947 -1.355098 1.910264 0.075423 -0.028273 805847.000000 0 1 0
4.687227 -22.730533 -6.880676 24.207249 -1.367438 1.859010 0.093086 -0.034233 14852.900000 0 1 0
3.606027 -23.783233 -7.189576 25.106485 -1.420322 1.861225 0.083887 -0.026693 97961.900000 0 0 1
3.924727 -24.578533 -8.342976 26.250962 -1.412452 1.894221 0.099667 -0.025452 943826.000000 0 0 1
2.750327 -24.866133 -9.142776 26.636051 -1.460639 1.921169 0.076915 -0.019116 1125790.000000 0 0 1
3.208827 -25.725703 -10.335676 27.909399 -1.446705 1.950160 0.083630 -0.022350 7461.300000 0 0 1
3.609027 -26.990813 -10.018176 29.015391 -1.437872 1.923324 0.072039 -0.028173 -217166.000000 0 0 1
4.311327 -27.539683 -11.124276 30.012850 -1.415507 1.950506 0.094861 -0.027833 194136.000000 0 0 1
4.401327 -29.074573 -10.987176 31.391408 -1.420556 1.928374 0.092393 -0.030405 -174471.000000 0 0 1
3.400827 -29.683373 -11.741276 32.101804 -1.456724 1.945236 0.101562 -0.029061 -321294.000000 0 0 1
3.436127 -31.057843 -11.435776 33.274217 -1.460608 1.921632 0.092573 -0.025802 -43217.700000 0 0 1
2.308327 -31.890673 -12.087576 34.182640 -1.498540 1.932232 0.068388 -0.035577 -39409.900000 0 0 1
2.307527 -31.878613 -13.520676 34.704169 -1.498538 1.970991 0.074660 -0.032222 268860.000000 0 0 1
1.226327 -32.700453 -13.900876 35.553591 -1.533312 1.972496 0.069995 -0.027294 56081.700000 0 0 1
0.687127 -32.451743 -15.349276 35.905265 -1.549626 2.012515 0.067187 -0.025135 -1775.840000 0 0 1
-0.270573 -31.426353 -15.403076 34.999195 1.562187 2.026504 0.069416 -0.020275 -22906.800000 0 0 1
-0.876273 -31.352223 -16.711276 35.538662 1.542854 2.060345 0.042839 -0.016901 823365.000000 0 0 1
-2.010473 -30.265013 -16.834276 34.690141 1.504465 2.077475 0.050650 -0.001475 1404240.000000 0 0 1
-3.233373 -30.608803 -16.136776 34.752684 1.465551 2.053676 0.064036 -0.011016 759564.000000 0 0 1
-4.332473 -29.971333 -16.754676 34.608818 1.427237 2.076149 0.069153 -0.003716 769101.000000 0 0 1
-5.763673 -30.097273 -16.163276 34.645595 1.381586 2.056162 0.064335 -0.008812 407668.000000 0 0 1
-6.001573 -29.337703 -14.936076 33.463503 1.369012 2.033467 0.052886 -0.008071 268497.000000 0 0 1
-7.379773 -29.049633 -14.726776 33.394912 1.322019 2.027496 0.071164 -0.008094 465088.000000 0 0 1
-8.040873 -30.061473 -13.756176 34.023230 1.309434 1.987028 0.059717 -0.015745 -201122.000000 0 0 1
-8.229573 -31.328423 -14.391876 35.444634 1.313913 1.988911 0.067161 -0.017452 -122565.000000 0 0 1
-8.939973 -32.236843 -13.569776 36.100914 1.300273 1.956147 0.065555 -0.012163 365865.000000 0 0 1
-9.165173 -33.640603 -14.202276 37.648309 1.304808 1.957606 0.103337 -0.028493 -181864.000000 0 0 1
-7.980173 33.284422 -14.144576 37.035186 -1.335481 1.962672 0.096807 -0.029928 -374904.000000 0 0 1
-8.183073 32.028182 -14.732576 36.191379 -1.320652 1.990045 0.120629 -0.034816 -314032.000000 0 0 1
-8.741973 -21.947033 -3.195276 23.839130 1.191738 1.705236 0.118963 -0.032715 57531.600000 0 1 0
-8.219473 -20.829533 -3.886476 22.727382 1.194948 1.742645 0.086680 -0.035828 587791.000000 0 1 0
-6.998173 -21.147933 -4.582276 22.742180 1.251224 1.773673 0.090302 -0.023639 638112.000000 0 1 0
-6.636873 -20.129333 -5.659076 21.937713 1.252309 1.831708 0.087139 -0.029386 97036.000000 0 1 0
-7.428773 -20.101133 -6.861176 22.501510 1.216795 1.880651 0.082859 -0.032572 -4176.200000 0 1 0
-6.898373 -19.273733 -7.857876 21.927393 1.227087 1.937306 0.048747 -0.021324 -217476.000000 0 1 0
-7.765873 -19.291133 -9.154276 22.721298 1.188083 1.985473 0.044512 -0.027408 86479.800000 0 1 0
-7.259673 -20.095233 -10.145276 23.652650 1.224123 2.014102 0.047585 -0.012412 -211747.000000 0 1 0
-8.184273 -20.271033 -11.211476 24.568156 1.187068 2.044676 0.074443 -0.013859 101749.000000 0 1 0
-7.632973 -21.179633 -12.291176 25.649798 1.224894 2.070530 0.071160 -0.002060 394775.000000 0 0 1
-6.582773 -20.607133 -13.084476 25.282214 1.261600 2.114766 0.068627 0.013678 285170.000000 0 0 1
-6.428473 -21.301433 -14.295976 26.447140 1.277702 2.141886 0.052440 0.015297 225299.000000 0 0 1
-5.480273 -20.556833 -15.304576 26.207763 1.310264 2.194408 0.040406 0.015262 -536996.000000 0 0 1
-4.123173 -20.604733 -14.971276 25.801060 1.373297 2.189842 0.035818 0.012016 -487244.000000 0 0 1
-3.345373 -19.932033 -15.951476 25.747370 1.404507 2.238950 0.048333 0.020074 -95101.300000 0 0 1
-3.427373 -18.365033 -16.019576 24.609919 1.386294 2.279618 0.061978 0.023478 -197850.000000 0 1 0
-4.654373 -17.822133 -16.565276 24.772969 1.315345 2.303233 0.068762 0.025268 653315.000000 0 1 0
-4.781573 -17.912933 -17.978676 25.825751 1.309944 2.340821 0.094018 0.006214 13915.300000 0 0 1
-6.248073 -17.794033 -18.457776 26.388549 1.233112 2.345440 0.105412 0.005878 709232.000000 0 0 1
-7.036773 -18.976533 -18.186176 27.209593 1.215700 2.302817 0.096417 0.016728 210245.000000 0 0 1
-8.383273 -18.918333 -18.591776 27.817921 1.153671 2.302769 0.099249 0.009890 95673.600000 0 0 1
-9.177073 -20.098133 -17.996976 28.496399 1.142456 2.254350 0.107931 -0.004822 47903.300000 0 0 1
-8.624273 -21.361533 -18.443976 29.510565 1.187079 2.245922 0.112480 -0.000521 581335.000000 0 0 1
-9.320673 -22.492933 -17.977976 30.265733 1.177953 2.206824 0.133415 -0.001128 131601.000000 0 0 1
-8.793273 -23.723033 -18.802376 31.521949 1.215833 2.209911 0.150652 -0.013096 -628664.000000 0 0 1
-9.088773 -23.607333 -20.165376 32.350492 1.203289 2.243804 0.137730 -0.014590 281607.000000 0 0 1
-8.455473 -24.624033 -20.971276 33.431010 1.240029 2.248878 0.156209 -0.037082 891757.000000 0 0 1
-6.892373 -24.500433 -21.045676 33.025694 1.296567 2.261723 0.151429 -0.022387 72557.700000 0 0 1
-6.373873 -23.345733 -21.775476 32.554890 1.304271 2.303504 0.190611 -0.039908 281197.000000 0 0 1
-6.151973 -22.132333 -21.059076 31.163626 1.299677 2.312789 0.150191 -0.032509 -429709.000000 0 0 1
-5.171973 -22.098433 -19.887776 30.176376 1.340892 2.290353 0.129030 -0.008981 1235290.000000 0 0 1
-3.808673 -22.537233 -20.194576 30.500062 1.403383 2.294435 0.117168 -0.016364 1139140.000000 0 0 1
-3.091873 -22.631833 -18.977976 29.697190 1.435021 2.264058 0.064352 -0.008855 -87147.500000 0 0 1
-1.673273 -23.151133 -19.298776 30.186380 1.498646 2.264411 0.093781 -0.011580 -301756.000000 0 0 1
-0.859273 -22.164033 -19.850876 29.766424 1.532047 2.300821 0.127494 -0.022739 -238192.000000 0 0 1
0.485427 -22.636533 -19.880976 30.131403 -1.549355 2.291361 0.078879 -0.022547 405305.000000 0 0 1
1.423127 -21.571733 -20.490676 29.786452 -1.504920 2.329415 0.071858 -0.022031 35706.500000 0 0 1
1.219727 -21.540033 -21.858876 30.712721 -1.514231 2.362741 0.073112 -0.026333 -548378.000000 0 0 1
2.294827 -20.947433 -22.515076 30.838123 -1.461680 2.389272 0.064637 -0.026640 -664248.000000 0 0 1
2.203727 -20.945133 -24.080476 31.991004 -1.465968 2.422990 0.104672 -0.042273 37237.400000 0 0 1
1.415327 -19.999033 -24.753376 31.854263 -1.500144 2.460813 0.113222 -0.042712 -324148.000000 0 0 1
0.019427 -20.057133 -24.572276 31.718854 -1.569828 2.457021 0.139370 -0.045961 -433600.000000 0 0 1
-0.717673 -18.907633 -25.216616 31.526043 1.532858 2.497869 0.158776 -0.041480 -432331.000000 0 0 1
-0.300773 -17.683333 -24.750176 30.419762 1.553789 2.521151 0.099649 -0.030992 -382253.000000 0 0 1
-1.031173 -16.600133 -25.267726 30.250384 1.508758 2.559449 0.129070 -0.040452 -208074.000000 0 0 1
-0.579473 -15.223233 -24.799976 29.105350 1.532750 2.590736 0.114515 -0.021925 -115565.000000 0 0 1
0.678327 -14.859233 -25.316086 29.362581 -1.525178 2.610371 0.113223 -0.025956 -635950.000000 0 0 1
1.064427 -13.560733 -24.970076 28.434683 -1.492464 2.642789 0.093936 -0.022098 -10152.900000 0 0 1
0.343827 -12.377833 -25.638286 28.471928 -1.543026 2.691659 0.098324 -0.016700 -200215.000000 0 0 1
0.674527 -11.122833 -25.084366 27.448093 -1.510227 2.723546 0.091248 -0.018265 -54730.900000 0 0 1
0.266527 -10.094433 -25.944536 27.840394 -1.544399 2.770420 0.085247 -0.019027 -671654.000000 0 0 1
1.135127 -8.816233 -25.804156 27.292287 -1.442747 2.809844 0.065515 -0.029244 948276.000000 0 0 1
2.525227 -8.896433 -26.169886 27.755832 -1.294224 2.801911 0.089939 -0.026911 745133.000000 0 0 1
2.893127 -9.260233 -27.467206 29.130216 -1.267980 2.802062 0.089013 -0.027201 -587962.000000 0 0 1
4.364227 -8.918033 -27.784636 29.505318 -1.115688 2.798392 0.117159 -0.039063 -331913.000000 0 0 1
4.616727 -7.514033 -28.011386 29.366862 -1.019846 2.836581 0.108349 -0.035343 1241830.000000 0 0 1
5.941927 -7.225033 -28.533176 30.027483 -0.882540 2.824787 0.144922 -0.040295 1300180.000000 0 0 1
7.198327 -7.258233 -27.581696 29.415095 -0.789542 2.786665 0.157687 -0.042105 387155.000000 0 0 1
7.620127 -8.562233 -27.291046 29.600327 -0.843551 2.743971 0.120446 -0.037054 473013.000000 0 0 1
8.466427 -9.192233 -28.261796 30.901564 -0.826477 2.725252 0.119886 -0.046513 -376756.000000 0 0 1
9.042727 -10.575933 -27.868906 31.149594 -0.863390 2.678510 0.109546 -0.034252 74335.700000 0 0 1
8.071427 -11.602033 -27.574066 30.985226 -0.962968 2.667944 0.117124 -0.038865 368636.000000 0 0 1
8.561927 -12.671633 -26.781066 30.839948 -0.976582 2.622740 0.108133 -0.031496 145966.000000 0 0 1
9.672327 -13.582433 -27.411046 32.084293 -0.951982 2.595085 0.094581 -0.040228 120745.000000 0 0 1
9.285827 -14.046033 -28.646966 33.228998 -0.986658 2.610210 0.115023 -0.050287 -55202.100000 0 0 1
10.113527 -15.098233 -29.055056 34.270050 -0.980594 2.582669 0.090228 -0.047393 84293.000000 0 0 1
9.482727 -15.641933 -30.354716 35.440104 -1.025803 2.599261 0.087332 -0.047976 91743.600000 0 0 1
9.553227 -14.745433 -31.428136 36.005828 -0.995915 2.631834 0.108779 -0.045824 326096.000000 0 0 1
8.931427 -15.286633 -32.606296 37.102858 -1.042028 2.644155 0.125846 -0.042972 -130992.000000 0 0 1
7.613327 -14.552633 -32.932706 36.800883 -1.088794 2.678979 0.136113 -0.039181 -79209.200000 0 0 1
7.758627 -13.336933 -33.618126 36.989843 -1.043912 2.711309 0.142763 -0.042581 -102595.000000 0 0 1
6.515827 -12.712333 -33.833126 36.725193 -1.097152 2.742081 0.135852 -0.051374 -84107.900000 0 0 1
6.493027 -11.580633 32.849421 35.430988 -1.059791 0.384094 0.162405 -0.040440 -157308.000000 0 0 1
6.797127 -12.038133 31.555505 34.450943 -1.056788 0.412916 0.162000 -0.036691 308569.000000 0 0 1
6.854427 -10.921033 30.680575 33.279871 -1.010304 0.397851 0.160493 -0.037908 -516537.000000 0 0 1
7.480527 -11.307233 29.322525 32.305143 -0.986330 0.433089 0.158620 -0.034885 170609.000000 0 0 1
6.622027 -12.038633 28.444555 31.589122 -1.067903 0.449984 0.144432 -0.032148 800501.000000 0 0 1
7.250727 -12.075833 27.173165 30.606857 -1.030059 0.478225 0.127449 -0.029086 939230.000000 0 0 1
6.209127 -12.775433 26.191715 29.795484 -1.118394 0.496931 0.109854 -0.042954 522580.000000 0 0 1
6.156227 -14.185633 26.396845 30.592887 -1.161347 0.529930 0.111850 -0.033788 -194561.000000 0 0 1
5.606427 -14.820933 25.294435 29.847957 -1.209155 0.559647 0.079388 -0.029062 -489347.000000 0 0 1
4.084627 -14.875733 25.150845 29.504858 -1.302818 0.550180 0.071951 -0.033750 -657029.000000 0 0 1
3.408227 -13.704833 24.660955 28.418324 -1.327053 0.520072 0.063978 -0.038614 542769.000000 0 0 1
2.013927 -14.019333 24.692625 28.466179 -1.428119 0.520768 0.062223 -0.031208 471265.000000 0 0 1
1.084027 -12.811833 24.602145 27.759390 -1.486386 0.481581 0.060482 -0.035476 -621530.000000 0 0 1
1.302427 -12.004233 23.464815 26.389306 -1.462722 0.475249 0.033311 -0.025217 234064.000000 0 0 1
0.314127 -10.980633 23.296115 25.756202 -1.542197 0.440624 0.044658 -0.020705 904950.000000 0 0 1
-1.111873 -11.410633 22.854115 25.568523 1.473661 0.464964 0.041838 -0.015240 -327591.000000 0 0 1
-1.199573 -11.913633 21.565685 24.666828 1.470445 0.506848 0.031646 -0.012445 59264.300000 0 1 0
-2.261773 -12.859833 21.425685 25.090853 1.396698 0.547316 0.055403 -0.013097 481596.000000 0 0 1
-2.451773 -13.544733 20.044885 24.316011 1.391722 0.601745 0.060565 -0.018381 439598.000000 0 1 0
-1.420173 -14.518733 19.808085 24.600218 1.473290 0.634784 0.079857 -0.018424 49029.500000 0 1 0
-1.428273 -15.313433 18.596685 24.132507 1.477796 0.691003 0.084609 -0.020619 -104466.000000 0 1 0
-2.655473 -16.217433 18.372585 24.649717 1.408495 0.729742 0.080656 -0.025806 -83963.600000 0 1 0
-2.540373 -17.126933 17.296685 24.473673 1.423544 0.785907 0.064761 -0.028352 500220.000000 0 1 0
-3.581673 -18.169933 17.309985 25.349762 1.376171 0.819145 0.084387 -0.024835 904788.000000 0 0 1
-3.256673 -19.529633 16.693185 25.897392 1.405561 0.870310 0.082434 -0.029408 280195.000000 0 0 1
-2.232573 -20.308433 17.332885 26.792643 1.461303 0.867249 0.087219 -0.027855 235893.000000 0 0 1
-2.304973 -21.719433 16.943085 27.642627 1.465067 0.911029 0.088022 -0.048738 -703531.000000 0 0 1
-1.355673 -22.630233 17.650485 28.731601 1.510962 0.909269 0.099447 -0.033434 -290109.000000 0 0 1
-0.030873 -22.503333 17.185185 28.314864 1.569424 0.918602 0.082693 -0.040255 -60908.100000 0 0 1
0.911527 -23.256033 17.945685 29.389140 -1.531621 0.913949 0.104503 -0.026434 -664149.000000 0 0 1
2.322427 -23.300433 17.469785 29.214675 -1.471451 0.929818 0.112296 -0.033305 -1113670.000000 0 0 1
2.978027 -22.053633 17.581985 28.361198 -1.436573 0.902142 0.110389 -0.029835 -153231.000000 0 0 1
4.163327 -22.075733 16.805385 28.055164 -1.384393 0.928529 0.104550 -0.022707 380143.000000 0 0 1
4.985027 -20.730033 16.936485 27.229199 -1.334804 0.899506 0.084747 -0.017231 -910593.000000 0 0 1
5.669627 -20.715833 18.114385 28.096643 -1.303652 0.870143 0.084351 -0.011406 -486826.000000 0 0 1
6.320127 -19.501533 18.484685 27.603213 -1.257394 0.837049 0.084912 -0.001855 1067810.000000 0 0 1
7.401827 -18.886233 17.472485 26.772459 -1.197278 0.859747 0.096348 -0.018324 402242.000000 0 0 1
6.801227 -18.344133 16.288285 25.457261 -1.215750 0.876521 0.082543 -0.019004 93586.200000 0 0 1
7.773427 -17.622333 15.564885 24.763651 -1.155358 0.891125 0.124024 -0.029982 220478.000000 0 1 0
7.167827 -16.677633 14.475785 23.217871 -1.164878 0.897616 0.081744 -0.024428 -24898.100000 0 1 0
6.453927 -17.349633 13.497585 22.909556 -1.214665 0.940767 0.078296 -0.027583 -10023.000000 0 1 0
5.654327 -16.492333 12.698885 21.569194 -1.240509 0.941284 0.051693 -0.020037 119424.000000 0 1 0
6.102227 -16.556933 11.217085 20.909142 -1.217683 1.004550 0.050317 -0.025625 -214455.000000 0 1 0
7.374827 -15.989333 11.084785 20.806713 -1.138639 1.008949 0.068878 -0.029956 -599068.000000 0 1 0
8.081327 -16.519233 10.025185 20.945101 -1.115820 1.071690 0.078854 -0.025171 -281378.000000 0 1 0
9.453327 -15.865633 9.840885 20.926699 -1.033444 1.081217 0.077592 -0.023169 -47829.900000 0 1 0
10.327227 -16.564533 8.974485 21.484337 -1.013309 1.139859 0.080719 -0.016945 85343.100000 0 1 0
11.552327 -15.888133 8.744485 21.502443 -0.942110 1.151986 0.072927 -0.022223 677520.000000 0 1 0
12.617527 -16.655333 7.907985 22.341404 -0.922470 1.208993 0.096361 -0.031697 415725.000000 0 1 0
13.193427 -17.767733 8.568485 23.731367 -0.932080 1.201390 0.128279 -0.041068 248372.000000 0 1 0
14.084827 -18.497833 7.726485 24.500015 -0.920019 1.249953 0.131581 -0.037448 362843.000000 0 1 0
14.681427 -19.737133 8.440085 26.006417 -0.931244 1.240272 0.134612 -0.039621 -18112.500000 0 0 1
13.699527 -20.742333 8.616785 26.309131 -0.987101 1.237118 0.123803 -0.036387 207480.000000 0 0 1
14.218227 -21.934433 9.177385 27.703821 -0.995677 1.233149 0.095200 -0.023854 494640.000000 0 0 1
13.068927 -22.792633 9.829185 28.051985 -1.050177 1.212807 0.111993 -0.029866 698075.000000 0 0 1
12.719227 -22.168033 11.082885 27.857329 -1.049891 1.161630 0.123460 -0.033601 -32996.300000 0 0 1
11.757127 -22.840733 11.902485 28.312511 -1.095423 1.136914 0.160904 -0.036958 223135.000000 0 0 1
12.094827 -24.320033 12.389585 29.853822 -1.109295 1.142844 0.132149 -0.031202 -71798.600000 0 0 1
13.103427 -24.375933 13.363585 30.732252 -1.077557 1.120937 0.120501 -0.028706 -382575.000000 0 0 1
13.316227 -25.653853 13.950985 32.094736 -1.092007 1.121112 0.112385 -0.039794 19305.600000 0 0 1
14.652927 -25.832413 14.696685 33.136300 -1.054821 1.111272 0.093452 -0.032532 -78012.800000 0 0 1
14.899727 -25.005743 15.800685 33.120246 -1.033432 1.073478 0.099685 -0.031761 514533.000000 0 0 1
15.847427 -25.662073 16.676285 34.464205 -1.017578 1.065722 0.101297 -0.028551 290014.000000 0 0 1
15.723127 -25.215233 18.137585 34.813743 -1.013236 1.022787 0.123397 -0.028032 -83279.400000 0 0 1
16.158527 -23.956333 18.451185 34.284838 -0.977391 1.002528 0.106416 -0.022475 822775.000000 0 0 1
17.559227 -23.819833 18.797285 35.057793 -0.935558 1.004891 0.105334 -0.027717 950629.000000 0 0 1
17.889027 -22.357833 19.164385 34.455241 -0.895980 0.980977 0.107024 -0.032907 -306861.000000 0 0 1
17.875027 -21.523033 18.002985 33.269581 -0.877728 0.999023 0.106601 -0.031828 320770.000000 0 0 1
16.643527 -20.841333 17.739585 32.032187 -0.896920 0.983869 0.115849 -0.028270 -452574.000000 0 0 1
16.685427 -19.731433 16.592285 30.708905 -0.868847 0.999993 0.122914 -0.024053 -324943.000000 0 0 1
17.524927 -18.634633 16.763185 30.583933 -0.816078 0.990700 0.121978 -0.027766 559815.000000 0 0 1
18.920827 -19.007433 16.652185 31.568584 -0.787682 1.015150 0.114782 -0.029684 377055.000000 0 0 1
19.825927 -17.784133 16.819685 31.499914 -0.731163 1.007519 0.116486 -0.034084 -330095.000000 0 0 1
19.977527 -17.393333 18.219585 32.149384 -0.716358 0.968281 0.109126 -0.031395 115313.000000 0 0 1
20.652927 -16.155133 18.276985 31.962164 -0.663805 0.962059 0.112662 -0.033258 -360266.000000 0 0 1
21.098627 -15.908433 19.693885 32.955719 -0.646058 0.930309 0.100755 -0.027801 -384073.000000 0 0 1
22.289527 -16.609133 19.924485 34.200459 -0.640393 0.948898 0.082715 -0.029842 -403042.000000 0 0 1
22.795227 -16.379333 21.217385 35.186394 -0.623062 0.923540 0.079692 -0.022671 278891.000000 0 0 1
34.738846 -1.751133 -7.824276 35.652113 -0.050366 1.792059 0.139328 -0.033617 -90591.600000 0 0 1
36.029736 -1.418833 -8.293376 36.999122 -0.039359 1.796868 0.161443 -0.036932 353047.000000 0 0 1
36.943386 -2.522633 -8.292476 37.946576 -0.068178 1.791104 0.206886 -0.049590 231880.000000 0 0 1
-36.836103 -2.037233 -8.509876 37.861152 0.055249 1.797499 0.200813 -0.052213 -173220.000000 0 0 1
-35.834318 -3.056833 -8.510276 36.957643 0.085099 1.803153 0.239756 -0.049808 1111360.000000 0 0 1
-34.567703 -2.361333 -8.676176 35.718035 0.068204 1.816158 0.311788 -0.058892 245164.000000 0 0 1
-33.329073 -3.220333 -8.712376 34.599178 0.096323 1.825345 0.283355 -0.050109 -496107.000000 0 0 1
-32.851333 -3.653533 -7.428876 33.878409 0.110759 1.791873 0.268065 -0.052692 -300161.000000 0 0 1
-31.692323 -4.401233 -7.492676 32.862051 0.137991 1.800823 0.245209 -0.057364 -561986.000000 0 0 1
-30.951053 -4.544133 -6.125076 31.876847 0.145775 1.764147 0.227538 -0.068085 -80111.400000 0 0 1
-30.524533 -3.269433 -5.696176 31.223112 0.106702 1.754258 0.219258 -0.059926 339628.000000 0 0 1
-30.272423 -3.382933 -4.314676 30.764919 0.111288 1.711507 0.208919 -0.055154 -224531.000000 0 0 1
-30.148383 -1.997833 -3.575976 30.425383 0.066170 1.688601 0.209240 -0.052254 -570519.000000 0 0 1
-28.988413 -1.294633 -3.923476 29.281356 0.044631 1.705193 0.200870 -0.045342 208675.000000 0 0 1
-28.946983 0.041867 -3.456176 29.152611 -0.001446 1.689630 0.219872 -0.057836 -341973.000000 0 0 1
-27.511783 0.439867 -3.057576 27.684661 -0.015987 1.681465 0.230873 -0.035632 -80103.200000 0 0 1
-27.049553 -0.028433 -1.814976 27.110390 0.001051 1.637794 0.207640 -0.040110 -187096.000000 0 0 1
-25.733933 0.284267 -1.484676 25.778293 -0.011046 1.628422 0.212443 -0.034782 -522094.000000 0 0 1
-25.217763 -0.421333 -0.227676 25.222310 0.016706 1.579823 0.213950 -0.038290 -90972.300000 0 0 1
-25.006373 -1.791633 -0.367476 25.073167 0.071525 1.585453 0.193201 -0.040663 -11817.600000 0 0 1
-24.205273 -2.281433 0.648524 24.321200 0.093976 1.544128 0.168940 -0.036737 -342402.000000 0 1 0
-24.080673 -3.815733 0.631224 24.389282 0.157150 1.544912 0.158706 -0.027754 873664.000000 0 1 0
-25.310693 -4.518733 0.980924 25.729601 0.176669 1.532663 0.158811 -0.036317 1172120.000000 0 0 1
-25.152313 -5.894333 0.939124 25.850802 0.230192 1.534460 0.130525 -0.029303 -240410.000000 0 0 1
-26.416553 -6.606533 1.466124 27.269582 0.245064 1.517006 0.145529 -0.026444 -5118.980000 0 0 1
-26.602603 -6.506133 2.844924 27.534013 0.239859 1.467288 0.156006 -0.024511 -229556.000000 0 0 1
-27.785233 -7.127533 3.248424 28.868203 0.251108 1.458031 0.158791 -0.015442 -372231.000000 0 0 1
-27.776223 -7.375233 4.765824 29.131181 0.259535 1.406459 0.154521 -0.018712 -68172.500000 0 0 1
-26.860663 -8.402533 5.161824 28.613672 0.303176 1.389406 0.152574 -0.003893 280013.000000 0 0 1
-26.770023 -8.563033 6.587224 28.867823 0.309589 1.340583 0.136570 -0.008420 -56548.800000 0 0 1
-26.053963 -7.369833 7.283624 28.038805 0.275666 1.308013 0.114629 0.011340 -735028.000000 0 0 1
-24.691973 -7.269033 6.994324 26.673075 0.286301 1.305470 0.130968 -0.008977 -267984.000000 0 0 1
-24.087773 -6.133133 7.637324 26.003170 0.249318 1.272693 0.125423 -0.017342 -4612.120000 0 0 1
-22.615873 -5.885533 7.246324 24.466843 0.254592 1.270117 0.098608 -0.017189 55794.100000 0 1 0
-21.641173 -6.595533 7.953524 23.981242 0.295825 1.232738 0.106054 -0.026341 565839.000000 0 1 0
-20.325673 -6.218433 7.516024 22.545344 0.296897 1.230917 0.092440 -0.023178 1150290.000000 0 1 0
-19.164773 -6.458733 8.530024 21.949147 0.325056 1.171656 0.089934 -0.027917 283560.000000 0 1 0
-19.352873 -5.650933 9.716324 22.380208 0.284096 1.121704 0.104186 -0.020320 313482.000000 0 1 0
-18.247573 -5.760433 10.580424 21.865541 0.305781 1.065707 0.101410 -0.033659 -311359.000000 0 1 0
-18.206573 -4.513533 11.528524 22.017224 0.243008 1.019709 0.120114 -0.028741 -337323.000000 0 1 0
-19.289273 -4.453033 12.407324 23.363374 0.226881 1.010947 0.141881 -0.029373 29127.700000 0 1 0
-19.267573 -3.343433 13.268024 23.631724 0.171816 0.974660 0.137287 -0.023429 120345.000000 0 1 0
-20.479873 -3.338733 14.228224 25.159783 0.161603 0.969739 0.137858 -0.025909 215687.000000 0 0 1
-20.353573 -4.186233 15.342124 25.829697 0.202847 0.934809 0.151521 -0.033578 -421812.000000 0 0 1
-21.635873 -4.221633 15.847524 27.149166 0.192701 0.947493 0.145332 -0.020487 -815427.000000 0 0 1
-21.634873 -5.060133 17.130924 28.056038 0.229758 0.913982 0.145666 -0.021410 75833.500000 0 0 1
-22.657673 -4.820733 18.099624 29.397381 0.209638 0.907537 0.125272 -0.019506 641449.000000 0 0 1
-22.416173 -5.418233 19.352424 30.105787 0.237162 0.872630 0.138417 -0.013812 -29010.700000 0 0 1
-23.475473 -4.985233 20.403324 31.499937 0.209251 0.866201 0.116244 -0.022618 -80225.900000 0 0 1
-23.372473 -3.630933 20.637324 31.390370 0.154119 0.853378 0.135963 -0.028102 275624.000000 0 0 1
-24.024273 -3.351933 21.853624 32.649380 0.138628 0.837473 0.121270 -0.030225 -129141.000000 0 0 1
-24.035273 -1.855533 22.228424 32.790855 0.077048 0.825915 0.101079 -0.019632 -400827.000000 0 0 1
-24.957673 -1.089633 21.513424 32.968169 0.043632 0.859850 0.106689 -0.023073 -215460.000000 0 0 1
-24.885173 0.314267 21.741024 33.046070 -0.012628 0.852769 0.101122 -0.023576 286372.000000 0 0 1
-26.167333 0.987867 21.130024 33.647929 -0.037734 0.891849 0.109777 -0.027862 1309730.000000 0 0 1
-27.281723 0.737967 22.018824 35.066588 -0.027043 0.891925 0.112207 -0.026653 -39877.700000 0 0 1
-28.482823 1.310767 21.596224 35.768509 -0.045987 0.922565 0.105238 -0.023885 -152267.000000 0 0 1
-29.443613 1.444867 22.830224 37.285830 -0.049033 0.911826 0.089335 -0.020561 36741.400000 0 0 1
-28.923593 2.252267 23.894224 37.584317 -0.077713 0.881817 0.091023 -0.023693 284960.000000 0 0 1
-29.623793 2.060667 25.124924 38.898294 -0.069449 0.868577 0.090974 -0.025300 -242690.000000 0 0 1
-29.219373 3.047767 26.159424 39.336702 -0.103931 0.843285 0.110852 -0.026125 532340.000000 0 0 1
-27.949793 2.658867 26.715724 38.755521 -0.094845 0.810219 0.103169 -0.027849 826841.000000 0 0 1
-27.464633 3.579567 27.661124 39.144057 -0.129603 0.786045 0.089802 -0.026142 764137.000000 0 0 1
-26.086963 3.124167 28.283724 38.603874 -0.119192 0.748566 0.072172 -0.024308 583278.000000 0 0 1
-26.341813 2.097267 29.220724 39.397213 -0.079450 0.735202 0.074433 -0.023386 467649.000000 0 0 1
-25.214023 1.690067 29.988824 39.216487 -0.066929 0.700222 0.050089 -0.024948 71421.200000 0 0 1
-25.524913 0.560167 31.002424 40.161988 -0.021942 0.688918 0.058570 -0.023244 -106416.000000 0 0 1
-25.725913 -0.709233 30.450524 39.869287 0.027562 0.701680 0.051313 -0.020753 -194740.000000 0 0 1
-26.066583 -1.697833 31.375124 40.825823 0.065043 0.694284 0.069536 -0.017065 -68876.700000 0 0 1
-27.096733 -2.751833 30.801224 41.115945 0.101209 0.724047 0.046461 -0.012564 1678090.000000 0 0 1
-28.462883 -2.351033 30.521524 41.799839 0.082413 0.752207 0.085063 -0.013680 1168900.000000 0 0 1
-28.640243 -1.360533 29.520124 41.152792 0.047469 0.770834 0.079419 -0.011111 -783360.000000 0 0 1
-30.100643 -1.173833 29.076124 41.867023 0.038977 0.803089 0.128188 -0.022348 366413.000000 0 0 1
-30.953633 -0.548933 30.052624 43.146135 0.017732 0.800245 0.147680 -0.023115 -181726.000000 0 0 1
-32.251003 -0.479533 29.504124 43.713276 0.014868 0.829904 0.149723 -0.033958 -281214.000000 0 0 1
-33.319703 -0.174933 30.539724 45.198539 0.005250 0.828910 0.155822 -0.031890 -248080.000000 0 0 1
-33.483343 -1.300933 31.383524 45.910263 0.038834 0.818134 0.157794 -0.034369 59745.400000 0 0 1
-34.543901 -1.068133 32.296724 47.302224 0.030911 0.819244 0.162414 -0.033571 318969.000000 0 0 1
-35.004140 -2.255433 33.215324 48.307707 0.064344 0.812648 0.155886 -0.031544 433457.000000 0 0 1
-35.801729 -3.262833 32.556724 48.501033 0.090885 0.834891 0.144636 -0.047431 161550.000000 0 0 1
-36.106973 -4.277233 33.502224 49.440947 0.117911 0.826273 0.124512 -0.037352 246174.000000 0 0 1
-37.321683 -5.166633 33.095424 50.148871 0.137561 0.850053 0.117070 -0.028661 533946.000000 0 0 1
36.643756 -4.637933 33.476624 49.849370 -0.125899 0.834490 0.114673 -0.036488 -543210.000000 0 0 1
35.557816 -5.311133 32.935724 48.757854 -0.148270 0.829159 0.108051 -0.033016 -825946.000000 0 0 1
34.269456 -4.900433 33.668124 48.290293 -0.142034 0.799308 0.098048 -0.034077 -783103.000000 0 0 1
34.043176 -5.412233 -32.715237 47.523855 -0.157662 2.330072 0.088739 -0.031930 272135.000000 0 0 1
33.610226 -6.776833 -32.600337 47.311254 -0.198962 2.330989 0.083890 -0.030844 -553541.000000 0 0 1
32.253026 -7.161733 -33.203937 46.840682 -0.218503 2.358691 0.087500 -0.030597 -27959.900000 0 0 1
31.143756 -6.552233 -32.544137 45.519075 -0.207363 2.367358 0.105536 -0.033374 137968.000000 0 0 1
29.912226 -7.065633 -32.976937 45.079295 -0.231960 2.391362 0.089247 -0.024077 199324.000000 0 0 1
28.745326 -6.776233 -31.980137 43.530912 -0.231507 2.395952 0.100495 -0.030310 282876.000000 0 0 1
27.477226 -7.193433 -32.430437 43.110053 -0.256050 2.422298 0.093333 -0.031307 -1023980.000000 0 0 1
26.484626 -6.750033 -31.636637 41.807597 -0.249553 2.429077 0.107878 -0.035912 -1022870.000000 0 0 1
25.069826 -7.124033 -32.160237 41.394793 -0.276869 2.460547 0.099070 -0.038253 249130.000000 0 0 1
24.675726 -8.496233 -32.254337 41.489995 -0.331602 2.461319 0.099869 -0.041983 97163.200000 0 0 1
24.402926 -9.072933 -30.993037 40.477021 -0.355960 2.442917 0.099688 -0.038708 -415748.000000 0 0 1
24.043826 -10.563533 -31.006637 40.633795 -0.413958 2.438854 0.105233 -0.041065 -144597.000000 0 0 1
22.838426 -10.863433 -31.662637 40.523209 -0.443991 2.467616 0.113460 -0.046110 -114692.000000 0 0 1
22.735926 -12.260633 -31.779737 40.953597 -0.494562 2.459085 0.106624 -0.029759 -335825.000000 0 0 1
21.356626 -12.691633 -32.354737 40.792304 -0.536197 2.486773 0.095637 -0.021387 175369.000000 0 0 1
20.244726 -12.516933 -31.529037 39.504464 -0.553753 2.494954 0.069936 -0.017026 -328010.000000 0 0 1
19.731826 -11.173533 -31.587937 38.884323 -0.515248 2.518978 0.063524 -0.027486 -26666.400000 0 0 1
18.245226 -11.021633 -31.098037 37.702156 -0.543416 2.540706 0.056427 -0.025986 541967.000000 0 0 1
17.335226 -11.555833 -32.028937 38.208640 -0.587963 2.564888 0.031820 -0.004966 -223697.000000 0 0 1
16.020326 -11.471633 -31.524237 37.175620 -0.621428 2.582962 0.068595 -0.023845 -580799.000000 0 0 1
14.892226 -11.662133 -32.484437 37.590190 -0.664352 2.614301 0.067257 -0.015216 -1782930.000000 0 0 1
14.755426 -12.972833 -32.950337 38.363286 -0.721199 2.603920 0.072752 -0.014672 978531.000000 0 0 1
13.535226 -13.209133 -33.702337 38.646229 -0.773206 2.630219 0.077508 -0.016722 1831890.000000 0 0 1
12.208026 -13.214033 -32.852037 37.455345 -0.824950 2.640584 0.086246 -0.023218 -154677.000000 0 0 1
11.942726 -11.974533 -32.213537 36.383102 -0.786728 2.658147 0.163379 -0.028110 -747589.000000 0 0 1
10.858826 -11.847733 -31.344837 35.224731 -0.828922 2.667819 0.155640 -0.039840 -950054.000000 0 0 1
9.638626 -11.192833 -31.908037 35.161135 -0.859869 2.708043 0.154868 -0.030082 -1110270.000000 0 0 1
9.730426 -9.747033 -31.909537 34.754919 -0.786251 2.734132 0.155851 -0.033377 2593.410000 0 0 1
8.532926 -9.082133 -32.207837 34.534631 -0.816566 2.772415 0.155063 -0.024890 -211241.000000 0 0 1
8.763826 -7.543433 -32.206137 34.219049 -0.710700 2.796889 0.170157 -0.025455 34283.100000 0 0 1
9.071826 -7.032733 -30.927537 32.988936 -0.659452 2.786207 0.176211 -0.039570 139750.000000 0 0 1
9.715726 -5.802633 -31.020137 33.019915 -0.538389 2.791781 0.156485 -0.034388 -190119.000000 0 0 1
9.425826 -4.846333 -29.845837 31.671866 -0.474907 2.800367 0.145650 -0.030913 118088.000000 0 0 1
8.078126 -4.406833 -29.742337 31.133309 -0.499402 2.841544 0.174783 -0.039082 249796.000000 0 0 1
8.068026 -3.522533 -28.671637 29.992733 -0.411658 2.843685 0.161484 -0.033663 1071600.000000 0 0 1
6.588426 -3.157633 -28.281437 29.209890 -0.446926 2.888787 0.129013 -0.031445 283199.000000 0 0 1
5.862226 -2.366533 -29.206937 29.883295 -0.383685 2.928430 0.110722 -0.021280 322447.000000 0 0 1
4.590126 -1.840933 -28.849437 29.270263 -0.381423 2.971817 0.117369 -0.030515 819251.000000 0 0 1
3.468426 -2.934933 -28.865237 29.220638 -0.702276 2.985468 0.101758 -0.040774 -527234.000000 0 0 1
3.588826 -3.832233 -27.742337 28.234782 -0.818186 2.954552 0.110550 -0.040128 158515.000000 0 0 1
2.621626 -4.888333 -27.673537 28.223986 -1.078530 2.943772 0.093715 -0.036492 319309.000000 0 0 1
2.760426 -5.684933 -26.352137 27.099327 -1.118760 2.906221 0.070004 -0.039936 -166654.000000 0 0 1
2.421926 -5.025233 -25.156637 25.767714 -1.121690 2.923376 0.060162 -0.040432 -3062.190000 0 0 1
2.685326 -5.914433 -24.080937 24.941592 -1.144597 2.878127 0.063702 -0.048206 -10547.900000 0 1 0
2.789326 -5.207033 -22.720637 23.475964 -1.079010 2.887237 0.078264 -0.050483 58855.300000 0 1 0
3.869026 -4.305733 -22.679237 23.406334 -0.838769 2.891687 0.086814 -0.044355 -51654.600000 0 1 0
3.652726 -3.582533 -21.477637 22.078629 -0.775697 2.907734 0.074180 -0.038560 387757.000000 0 1 0
4.694626 -2.438633 -21.283837 21.931442 -0.479088 2.897974 0.080026 -0.042893 -48284.100000 0 1 0
6.004026 -2.821433 -20.979537 22.003404 -0.439298 2.835333 0.078863 -0.041118 -574157.000000 0 1 0
6.751926 -1.760033 -20.490537 21.645977 -0.254997 2.813383 0.088700 -0.037169 -7393.260000 0 1 0
8.240526 -2.040833 -20.192537 21.904562 -0.242773 2.743602 0.106918 -0.041269 -365408.000000 0 1 0
9.012326 -2.310533 -21.348837 23.288053 -0.250969 2.730611 0.117822 -0.052382 870480.000000 0 1 0
10.350026 -2.802833 -21.176937 23.736924 -0.264461 2.672882 0.105716 -0.045187 1561680.000000 0 1 0
11.422226 -1.904533 -20.463837 23.513041 -0.165219 2.626645 0.100629 -0.039969 -394007.000000 0 1 0
11.329326 -1.842233 -19.030837 22.224316 -0.161197 2.598873 0.101668 -0.034113 150308.000000 0 1 0
12.555626 -1.445133 -18.468137 22.378656 -0.114594 2.541453 0.105626 -0.030658 -217047.000000 0 1 0
12.989926 0.063967 -18.531637 22.631037 0.004924 2.530217 0.106588 -0.033750 -190046.000000 0 1 0
13.326126 0.495567 -19.791437 23.864874 0.037171 2.548672 0.113787 -0.042097 -28702.700000 0 1 0
13.297826 1.870367 -19.835637 23.953767 0.139735 2.546471 0.122139 -0.052853 -108174.000000 0 1 0
13.807326 2.655767 -21.083437 25.341797 0.190024 2.553433 0.123811 -0.052861 -1175680.000000 0 0 1
15.182526 2.773067 -21.134037 26.169572 0.180657 2.510834 0.134824 -0.054352 -832129.000000 0 0 1
15.475526 3.681267 -22.139137 27.261420 0.233536 2.518547 0.125529 -0.049573 141378.000000 0 0 1
16.915226 3.602267 -22.723837 28.556505 0.209826 2.491041 0.113783 -0.038373 356422.000000 0 0 1
17.091526 2.444467 -23.498837 29.159750 0.142059 2.507932 0.096037 -0.031564 -51622.900000 0 0 1
18.396526 1.967167 -23.282137 29.738188 0.106527 2.470116 0.103604 -0.031497 -299311.000000 0 0 1
10.193427 26.765267 3.672024 28.875062 1.206911 1.443282 0.021127 -0.016234 56724.200000 0 0 1
9.949427 27.133967 5.024424 29.334077 1.219342 1.398665 0.027611 -0.025276 -755657.000000 0 0 1
11.024227 27.830267 5.495524 30.434489 1.193636 1.389231 0.023631 -0.013435 -946774.000000 0 0 1
10.751027 28.374067 6.915024 31.120569 1.208608 1.346725 0.039334 -0.023192 89750.300000 0 0 1
10.751627 27.292667 7.833424 30.361978 1.195526 1.309844 0.034290 -0.029147 -51720.200000 0 0 1
10.718327 27.748067 9.117324 31.112109 1.202179 1.273384 0.048789 -0.020708 -568541.000000 0 0 1
11.003127 26.631567 10.109824 30.537153 1.178996 1.233363 0.076085 -0.020024 -9905.300000 0 0 1
12.309227 26.137467 10.239024 30.651621 1.130664 1.230204 0.071080 -0.021872 -80893.700000 0 0 1
12.885927 25.413067 9.149124 29.926202 1.101517 1.260099 0.076377 -0.026974 -189027.000000 0 0 1
14.187127 24.710267 9.593724 30.065119 1.049609 1.246019 0.106051 -0.031171 -527455.000000 0 0 1
15.289127 25.530167 9.751224 31.315063 1.031212 1.254140 0.095217 -0.027925 -4495.960000 0 0 1
16.395527 24.754067 10.273324 31.418439 0.985797 1.237686 0.114816 -0.027887 1159200.000000 0 0 1
17.650327 25.602067 10.656924 32.872023 0.967213 1.240636 0.104850 -0.029589 -17158.700000 0 0 1
18.368927 26.186667 9.576424 33.389623 0.959090 1.279903 0.098981 -0.027081 1279420.000000 0 0 1
19.789727 26.291067 9.827324 34.342827 0.925559 1.280586 0.108254 -0.037405 1318680.000000 0 0 1
20.409227 27.062867 11.012424 35.639989 0.924650 1.256665 0.108701 -0.039784 -883490.000000 0 0 1
20.458927 28.503467 10.972024 36.761401 0.948244 1.267711 0.119065 -0.046688 -407584.000000 0 0 1
19.252127 29.190967 11.112724 36.691274 0.987755 1.263093 0.087124 -0.027604 -494223.000000 0 0 1
19.325627 30.721967 11.097624 37.953608 1.009291 1.274061 0.084973 -0.012902 -697738.000000 0 0 1
19.395827 31.402367 9.828824 38.195714 1.017496 1.310540 0.109859 -0.038334 -645885.000000 0 0 1
18.235927 31.564967 9.097224 37.572006 1.046915 1.326238 0.100512 -0.042768 241279.000000 0 0 1
17.000927 32.320867 9.755424 37.799977 1.086562 1.309762 0.087616 -0.033402 127820.000000 0 0 1
17.160927 33.649267 9.936324 39.057664 1.099185 1.313568 0.078500 -0.028257 156700.000000 0 0 1
15.987527 -33.302470 10.343624 38.362040 -1.123219 1.297786 0.074004 -0.020048 382366.000000 0 0 1
16.201527 -31.767070 10.413324 37.149341 -1.099173 1.286680 0.074725 -0.009783 178689.000000 0 0 1
16.625127 -31.244970 9.135624 36.552738 -1.081808 1.318188 0.077413 -0.019679 144764.000000 0 0 1
16.916327 -29.838670 9.111824 35.489910 -1.055051 1.311144 0.080217 -0.023798 -209701.000000 0 0 1
17.595427 -29.400970 7.836224 35.148578 -1.031507 1.345961 0.073845 -0.014595 -620526.000000 0 0 1
16.868127 -29.552270 6.669124 34.674884 -1.052132 1.377257 0.076752 -0.009795 -177112.000000 0 0 1
17.522927 -28.896170 5.554024 34.247464 -1.025677 1.407904 0.079032 -0.010759 319054.000000 0 0 1
16.965827 -29.278870 4.172024 34.095415 -1.045619 1.448126 0.083568 -0.016709 -22556.800000 0 0 1
17.275927 -30.589270 3.820124 35.337720 -1.056684 1.462481 0.087457 -0.018740 -158269.000000 0 0 1
17.136927 -30.854070 2.448924 35.378597 -1.063802 1.501520 0.086777 -0.022276 -108094.000000 0 0 1
17.623527 -32.245470 1.962224 36.799584 -1.070611 1.517449 0.090026 -0.024797 1294150.000000 0 0 1
19.071627 -32.376670 2.023624 37.630716 -1.038464 1.516995 0.083435 -0.014902 1191810.000000 0 0 1
19.412627 -33.579270 1.413024 38.812551 -1.046625 1.534382 0.101442 -0.023968 -874929.000000 0 0 1
20.828127 33.629767 1.679524 39.592839 1.016280 1.528364 0.118761 -0.023368 -844127.000000 0 0 1
21.048627 33.077367 2.952224 39.317586 1.004080 1.495639 0.110344 -0.038548 -120358.000000 0 0 1
22.388127 32.668167 3.070124 39.722324 0.969991 1.493430 0.086942 -0.022570 -127835.000000 0 0 1
22.703627 32.226367 4.510524 39.677931 0.957053 1.456872 0.103044 -0.021742 -111123.000000 0 0 1
21.922427 31.098667 4.830024 38.354257 0.956768 1.444529 0.113137 -0.035934 62342.000000 0 0 1
22.465627 30.250767 5.844124 38.130920 0.932018 1.416925 0.093362 -0.036529 692633.000000 0 0 1
21.328827 29.538267 6.662524 37.038052 0.945408 1.389929 0.103856 -0.050342 -157846.000000 0 0 1
20.651727 28.562367 5.972524 35.748758 0.944774 1.402940 0.113765 -0.046095 638536.000000 0 0 1
19.465927 28.097867 6.666724 34.826106 0.964926 1.378179 0.122664 -0.047918 989269.000000 0 0 1
18.126327 28.701567 6.211824 34.509860 1.007504 1.389808 0.104153 -0.043656 -661106.000000 0 0 1
17.961727 30.138467 6.340224 35.653180 1.033343 1.392015 0.095865 -0.044774 -62009.400000 0 0 1
18.333027 30.780267 5.153324 36.195047 1.033611 1.427934 0.108250 -0.043787 -403298.000000 0 0 1
18.114327 32.315367 5.321224 37.426290 1.059891 1.428134 0.105743 -0.042372 -800151.000000 0 0 1
16.817827 32.765167 5.459124 37.231673 1.096578 1.423640 0.069269 -0.037739 -955130.000000 0 0 1
16.831427 -33.506570 5.531424 37.902293 -1.105285 1.424334 0.069830 -0.034119 -259710.000000 0 0 1
15.429127 -32.895070 5.613224 36.764819 -1.132221 1.417518 0.075856 -0.029662 29892.600000 0 0 1
14.704627 -32.958170 4.372824 36.353661 -1.151140 1.450219 0.082604 -0.025833 434097.000000 0 0 1
13.490427 -32.199970 4.495324 35.199967 -1.174055 1.442738 0.078697 -0.024574 894179.000000 0 0 1
12.606527 -32.308270 3.173524 34.825567 -1.198771 1.479543 0.078455 -0.022531 -229906.000000 0 0 1
11.428427 -31.585270 3.237824 33.744951 -1.223624 1.474699 0.072319 -0.019641 -709730.000000 0 0 1
10.928327 -31.239470 1.973524 33.154602 -1.234278 1.511236 0.081495 -0.018432 -826935.000000 0 0 1
10.048927 -30.003070 2.027224 31.706069 -1.247610 1.506815 0.077839 -0.016254 -299550.000000 0 0 1
9.410727 -29.568270 0.845824 31.041260 -1.262662 1.543545 0.086944 -0.010483 143896.000000 0 0 1
8.424827 -30.463470 0.324924 31.608643 -1.300985 1.560517 0.065598 -0.010621 -772616.000000 0 0 1
8.735427 -31.055470 -1.115876 32.279949 -1.296597 1.605372 0.088578 -0.011559 543694.000000 0 0 1
9.971327 -31.768470 -0.980976 33.311040 -1.266659 1.600250 0.088683 -0.020402 304072.000000 0 0 1
10.139527 -32.682170 -2.099576 34.283268 -1.269966 1.632077 0.087449 -0.007891 -292656.000000 0 0 1
11.448627 -33.464570 -1.987276 35.424537 -1.241166 1.626925 0.088437 -0.014776 -437292.000000 0 0 1
11.523127 33.380267 -0.797476 35.322240 1.238397 1.593375 0.081351 -0.010835 -506595.000000 0 0 1
12.564527 32.476967 -0.865376 34.833455 1.201656 1.595642 0.092294 -0.018269 -715214.000000 0 0 1
12.792127 31.680467 0.453124 34.168638 1.187030 1.557535 0.079149 -0.021928 -489870.000000 0 0 1
13.215427 32.283167 1.706124 34.925080 1.182247 1.521926 0.064458 -0.023047 119274.000000 0 0 1
14.506027 32.854167 1.669324 35.952855 1.155010 1.524349 0.075445 -0.024984 -202962.000000 0 0 1
15.689927 31.866967 1.694524 35.560495 1.113282 1.523126 0.069403 -0.028953 -749819.000000 0 0 1
16.161927 31.458967 0.422024 35.370222 1.096212 1.558864 0.080515 -0.030969 -108328.000000 0 0 1
17.094027 30.432467 0.613324 34.910127 1.059012 1.553227 0.079700 -0.024797 1187.250000 0 0 1
17.736527 29.756067 -0.693276 34.648067 1.033276 1.590807 0.080849 -0.021575 813756.000000 0 0 1
18.809227 30.548867 -1.241876 35.896553 1.018906 1.605399 0.070440 -0.015791 696486.000000 0 0 1
18.383627 31.669367 -2.060676 36.676327 1.044849 1.627011 0.081538 -0.027037 537538.000000 0 0 1
19.645427 32.397667 -2.615776 37.978861 1.025696 1.639725 0.080505 -0.021604 784151.000000 0 0 1
20.400927 33.324667 -1.833576 39.116406 1.021464 1.617688 0.066697 -0.013797 829001.000000 0 0 1
21.539227 33.815867 -2.578276 40.175847 1.003645 1.635015 0.065975 -0.006106 -4438.430000 0 0 1
22.559827 -33.064070 -1.640376 40.060821 -0.972044 1.611755 0.075369 -0.002969 -29268.000000 0 0 1
23.463427 33.788767 -0.822276 41.144736 0.963829 1.590783 0.074428 -0.008591 974222.000000 0 0 1
24.305027 32.875767 -1.516176 40.912702 0.934179 1.607864 0.073809 -0.004671 92797.500000 0 0 1
25.229727 33.446467 -2.683376 41.981017 0.924529 1.634759 0.071150 -0.011771 -551225.000000 0 0 1
24.494527 -33.810670 -3.835176 41.926744 -0.943841 1.662398 0.066419 -0.027896 175039.000000 0 0 1
25.375327 -33.315970 -4.844976 42.158450 -0.919877 1.685974 0.064054 -0.031198 223949.000000 0 0 1
24.626227 -32.814770 -6.134976 41.483709 -0.927000 1.719230 0.072697 -0.039903 -186791.000000 0 0 1
23.715627 -31.781570 -5.827676 40.080681 -0.929727 1.716712 0.084913 -0.034055 64582.600000 0 0 1
23.097127 -31.341670 -7.036976 39.563829 -0.935702 1.749612 0.096737 -0.036882 42857.000000 0 0 1
22.083327 -30.217270 -6.705076 38.022556 -0.939685 1.748068 0.113048 -0.037545 1418470.000000 0 0 1
20.786227 -30.564470 -6.141676 37.469644 -0.973566 1.735450 0.120916 -0.038736 977799.000000 0 0 1
20.033427 -29.390670 -5.943576 36.062110 -0.972509 1.736367 0.110741 -0.042709 -196810.000000 0 0 1
18.901827 -29.499070 -4.948076 35.383014 -1.000944 1.711099 0.097424 -0.034919 -533479.000000 0 0 1
17.689927 -30.023470 -5.393976 35.262406 -1.038353 1.724366 0.098125 -0.038238 -458870.000000 0 0 1
16.682827 -29.793370 -4.428976 34.432215 -1.060345 1.699783 0.081485 -0.031173 -424564.000000 0 0 1
15.306827 -30.331970 -4.756876 34.306781 -1.103441 1.709902 0.076962 -0.026161 -723080.000000 0 0 1
15.296827 -31.739870 -4.894976 35.572083 -1.121698 1.708842 0.079324 -0.014108 83443.100000 0 0 1
14.009527 -32.306170 -5.098476 35.580190 -1.161623 1.714587 0.080077 -0.004497 215860.000000 0 0 1
14.059627 33.751267 -5.286876 36.942823 1.176091 1.714399 0.081128 -0.015842 -132397.000000 0 0 1
14.406727 32.990567 -4.131576 36.235359 1.159064 1.685065 0.094272 -0.025620 95692.000000 0 0 1
14.770127 31.613667 -4.352876 35.164302 1.133726 1.694901 0.097433 -0.027849 634498.000000 0 0 1
13.596927 30.639267 -4.819076 33.865389 1.153132 1.713582 0.096322 -0.023178 1207650.000000 0 0 1
12.606027 30.333267 -3.796976 33.067144 1.176928 1.685876 0.082876 -0.017873 332496.000000 0 0 1
13.024227 29.358367 -2.851476 32.243993 1.153253 1.659346 0.091492 -0.023957 -125924.000000 0 0 1
11.931427 28.507767 -2.122276 30.976697 1.174416 1.639362 0.063207 -0.015454 390458.000000 0 0 1
11.172427 29.216067 -1.163376 31.301041 1.205548 1.607972 0.056071 -0.016971 -299865.000000 0 0 1
10.276127 28.376167 -0.487176 30.183489 1.223348 1.586938 0.033979 -0.005918 -97141.700000 0 0 1
9.160827 29.074067 0.294524 30.484568 1.265557 1.561135 0.023655 0.009368 274713.000000 0 0 1
8.258627 28.174867 0.951624 29.375732 1.285663 1.538396 0.022418 -0.003116 543718.000000 0 0 1
7.109227 28.907767 1.384624 29.801297 1.329654 1.524318 0.040357 0.002489 367166.000000 0 0 1
5.977327 28.111367 2.047824 28.812688 1.361286 1.499663 0.043454 -0.013057 201353.000000 0 0 1
5.363227 27.155467 1.201024 27.706065 1.375805 1.527434 0.050434 -0.022812 -621658.000000 0 0 1
4.167527 26.674267 1.712524 27.052126 1.415812 1.507449 0.052399 -0.036354 -634347.000000 0 0 1
3.304727 25.979067 0.674824 26.197109 1.444269 1.545034 0.063116 -0.041707 450155.000000 0 0 1
2.103027 25.384967 1.213324 25.500812 1.488140 1.523199 0.067150 -0.043725 675879.000000 0 0 1
1.451827 24.693567 0.163824 24.736752 1.512070 1.564174 0.052046 -0.036905 307012.000000 0 1 0
0.119927 23.988167 0.565824 23.995139 1.565797 1.547213 0.044679 -0.032099 632198.000000 0 1 0
-0.929873 24.890167 0.850224 24.922038 -1.533455 1.536674 0.057690 -0.037189 -994642.000000 0 1 0
-2.120973 24.214867 1.050424 24.330263 -1.483430 1.527609 0.055387 -0.029794 -601687.000000 0 1 0
-3.288273 25.145967 1.425324 25.400078 -1.440767 1.514652 0.099965 -0.046325 6480.050000 0 0 1
-4.562173 24.543467 1.315524 24.998516 -1.387012 1.518148 0.095478 -0.036715 -479002.000000 0 1 0
-5.596673 25.184067 1.950924 25.872110 -1.352119 1.495318 0.102876 -0.044183 91560.700000 0 0 1
-6.899573 25.307967 1.108524 26.255021 -1.304640 1.528562 0.112224 -0.042937 224358.000000 0 0 1
-6.827273 26.352467 0.183324 27.223111 -1.317295 1.564062 0.117435 -0.041130 -335565.000000 0 0 1
-7.973973 26.579067 -0.575376 27.755398 -1.279331 1.591528 0.116157 -0.036449 -652433.000000 0 0 1
-7.716773 27.783867 -1.594076 28.879628 -1.299882 1.626022 0.107058 -0.029125 80491.400000 0 0 1
-7.815273 29.052467 -0.931876 30.099713 -1.308012 1.601761 0.134220 -0.045897 -46400.300000 0 0 1
-7.749773 30.112267 -1.858276 31.149010 -1.318900 1.630489 0.136030 -0.040434 19033.400000 0 0 1
-7.296573 31.446967 -1.184576 32.304101 -1.342803 1.607474 0.115759 -0.039750 -533514.000000 0 0 1
-7.560673 32.603367 -2.011576 33.528939 -1.342926 1.630828 0.113112 -0.019292 -460376.000000 0 0 1
-6.814173 32.778367 -3.160876 33.628045 -1.365829 1.664931 0.098413 -0.023575 -318670.000000 0 0 1
-5.272173 32.865367 -3.116376 33.431123 -1.411734 1.664150 0.116688 -0.028051 -268926.000000 0 0 1
-4.878873 -33.573370 -2.488176 34.017137 1.426487 1.644006 0.123796 -0.030646 49810.900000 0 0 1
-4.413173 -33.648570 -1.121376 33.955263 1.440386 1.603827 0.129649 -0.036246 21594.600000 0 0 1
-4.104773 -32.175170 -0.649976 32.442460 1.443906 1.590832 0.128344 -0.035135 630108.000000 0 0 1
-5.278973 -31.383670 -0.407076 31.827159 1.404149 1.583587 0.136192 -0.036614 336470.000000 0 0 1
-5.499073 -30.503370 -1.477376 31.030276 1.392435 1.618425 0.147668 -0.033642 330229.000000 0 0 1
-6.905273 -29.845370 -1.434476 30.667355 1.343429 1.617589 0.158936 -0.040878 326828.000000 0 0 1
-7.159373 -29.018770 -0.298676 29.890381 1.328912 1.580789 0.147024 -0.027293 420153.000000 0 0 1
-8.500873 -28.503770 -0.294576 29.745866 1.280958 1.580700 0.101949 -0.018467 962866.000000 0 0 1
-8.798173 -27.845570 1.094824 29.222975 1.264760 1.533323 0.109330 -0.016435 359218.000000 0 0 1
-7.887373 -26.812970 1.481324 27.988218 1.284704 1.517845 0.117963 -0.027249 -151757.000000 0 0 1
-7.897573 -26.511770 2.842224 27.808701 1.281277 1.468411 0.121573 -0.019902 106114.000000 0 0 1
-8.850973 -25.412570 3.329824 27.115055 1.235645 1.447682 0.104100 -0.016952 232070.000000 0 0 1
-8.274373 -24.153870 2.986724 25.705938 1.240757 1.454345 0.110589 -0.020142 292848.000000 0 0 1
-9.109473 -23.090570 3.520624 25.070934 1.195031 1.429904 0.103978 -0.021371 365864.000000 0 0 1
-8.436273 -21.742070 3.691824 23.611817 1.200663 1.413797 0.067781 -0.010654 27184.200000 0 1 0
-7.704573 -21.746470 4.896024 23.584751 1.230304 1.361683 0.059992 -0.006445 -357707.000000 0 1 0
-7.131173 -20.517570 5.398524 22.382323 1.236293 1.327198 0.043645 -0.005669 555074.000000 0 1 0
-8.105273 -19.522670 6.127424 22.008531 1.177279 1.288657 0.052135 -0.005905 434390.000000 0 1 0
-8.719873 -20.135870 7.258624 23.112271 1.162126 1.251331 0.059089 -0.007848 32573.800000 0 1 0
-9.666873 -19.332870 7.922424 23.021145 1.107131 1.219477 0.049882 -0.002797 -439213.000000 0 1 0
-27.933143 28.732167 -5.825576 40.493644 -0.799498 1.715161 0.155943 0.002427 -289685.000000 0 0 1
-27.330843 29.715067 -5.060176 40.688642 -0.827169 1.695483 0.128696 -0.005661 -199560.000000 0 0 1
-26.359013 29.185267 -4.181176 39.548194 -0.836237 1.676718 0.105372 0.003913 -33534.300000 0 0 1
-25.407763 30.194067 -3.558576 39.621958 -0.871268 1.660731 0.085095 -0.006058 -623015.000000 0 0 1
-25.873763 30.838367 -2.375876 40.324946 -0.872716 1.629749 0.062553 -0.010156 -7963.470000 0 0 1
-24.943273 31.766667 -1.850576 40.431580 -0.905143 1.616583 0.054171 -0.012392 293152.000000 0 0 1
-23.740073 31.131367 -1.094476 39.165686 -0.919294 1.598745 0.055463 -0.010048 -569624.000000 0 0 1
-22.831773 30.351367 -1.757576 38.020842 -0.925858 1.617039 0.085579 -0.025016 -776896.000000 0 0 1
-21.773473 30.134567 -0.854276 37.187445 -0.945102 1.593771 0.083845 -0.022175 786494.000000 0 0 1
-20.511073 29.455767 -1.568876 35.927812 -0.962535 1.614478 0.097610 -0.020680 498003.000000 0 0 1
-19.358773 29.479767 -0.780576 35.276452 -0.989739 1.592926 0.106796 -0.023549 178466.000000 0 0 1
-18.271773 28.931167 -1.567576 34.253867 -1.007493 1.616576 0.105719 -0.018559 -69466.100000 0 0 1
-16.884373 29.163167 -1.023576 33.713797 -1.045989 1.601162 0.114380 -0.026798 -832622.000000 0 0 1
-16.615873 28.447667 0.153124 32.945113 -1.042161 1.566148 0.098432 -0.033853 -391834.000000 0 0 1
-15.556673 29.102167 0.787124 33.008571 -1.079889 1.546948 0.103373 -0.041910 -367533.000000 0 0 1
-14.935273 28.413567 1.963524 32.159736 -1.086849 1.509703 0.093830 -0.041628 -348833.000000 0 0 1
-15.798373 28.325567 3.086324 32.579928 -1.062028 1.475923 0.072007 -0.040740 -75327.900000 0 0 1
-15.207073 27.749367 4.249624 31.927132 -1.069478 1.437296 0.066046 -0.047577 545964.000000 0 0 1
-14.034973 28.527167 4.939424 32.174177 -1.113580 1.416665 0.088695 -0.041874 371557.000000 0 0 1
-14.323273 29.697567 5.718824 33.463511 -1.121405 1.399056 0.067559 -0.041270 -270343.000000 0 0 1
-14.420573 30.889067 4.935024 34.444765 -1.134018 1.427028 0.082550 -0.040861 -241512.000000 0 0 1
-14.229073 32.081967 5.850824 35.580209 -1.153342 1.405606 0.089789 -0.034657 334268.000000 0 0 1
-15.344373 32.414767 6.678324 36.479678 -1.128674 1.386688 0.079494 -0.033504 291231.000000 0 0 1
-15.051573 33.602267 7.294524 37.534948 -1.149662 1.375212 0.114269 -0.043899 -190523.000000 0 0 1
-16.164273 -33.652370 8.244924 38.232768 1.123007 1.353438 0.087646 -0.040626 -277456.000000 0 0 1
-16.322573 33.245967 9.422124 38.216451 -1.114404 1.321681 0.062808 -0.045703 -190014.000000 0 0 1
-17.402373 33.657767 10.221624 39.244993 -1.093611 1.307301 0.073187 -0.044749 -568492.000000 0 0 1
-17.405573 32.963867 11.628624 39.048629 -1.084985 1.268411 0.063428 -0.034203 505613.000000 0 0 1
-16.421973 33.412367 12.557024 39.290537 -1.113977 1.245495 0.068793 -0.042791 690005.000000 0 0 1
-15.069673 32.991467 12.372324 38.322400 -1.142323 1.242059 0.078120 -0.040323 332182.000000 0 0 1
-14.161573 33.153667 13.618424 38.537998 -1.167106 1.209618 0.080053 -0.036728 -188588.000000 0 0 1
-14.417773 32.325767 14.753924 38.347173 -1.151261 1.175864 0.063718 -0.032389 -147494.000000 0 0 1
-13.946473 30.973067 14.556424 36.955710 -1.147712 1.165938 0.047896 -0.032853 -495715.000000 0 0 1
-14.816673 29.867667 13.959724 36.145335 -1.110292 1.174276 0.050500 -0.031945 -355316.000000 0 0 1
-14.765973 29.772167 12.543024 35.521027 -1.110381 1.209897 0.050230 -0.028728 88765.000000 0 0 1
-16.011673 29.505767 11.930324 35.627189 -1.073604 1.229334 0.031261 -0.026223 -60635.100000 0 0 1
-15.910873 29.340667 10.389524 34.956728 -1.073899 1.269026 0.031449 -0.021093 -125559.000000 0 0 1
-15.403873 28.125967 9.960424 33.579151 -1.069740 1.269639 0.023936 -0.014256 -100805.000000 0 0 1
-15.460373 27.965567 8.555224 33.080023 -1.065778 1.309201 0.020049 -0.016058 -315308.000000 0 0 1
-14.766973 26.633567 8.169024 31.530039 -1.064543 1.308719 0.024197 -0.023714 -570899.000000 0 0 1
-13.403373 26.817267 7.955224 31.017766 -1.107306 1.311425 0.056279 -0.026698 -1005970.000000 0 0 1
-12.882473 25.541767 7.846924 29.663348 -1.103660 1.303077 0.062850 -0.036294 725106.000000 0 0 1
-11.484073 25.429967 7.121524 28.797279 -1.146616 1.320905 0.109429 -0.047857 710614.000000 0 0 1
-11.647373 25.772667 5.723524 28.855682 -1.146341 1.371122 0.112845 -0.050504 885780.000000 0 0 1
-10.560573 25.217667 4.953524 27.784777 -1.174209 1.391556 0.157321 -0.041514 411973.000000 0 0 1
-10.839073 25.419467 3.465924 27.850448 -1.167733 1.446025 0.136198 -0.041065 31391.200000 0 0 1
-10.740773 26.785167 3.049824 29.019146 -1.189431 1.465505 0.145081 -0.037635 135946.000000 0 0 1
-11.235073 27.002867 1.713024 29.297033 -1.176514 1.512292 0.142214 -0.040908 169922.000000 0 0 1
-10.923473 28.457367 1.203224 30.505602 -1.204286 1.531343 0.175316 -0.029767 318780.000000 0 0 1
-11.719173 29.452467 1.804824 31.749712 -1.192101 1.513920 0.150599 -0.031148 -138467.000000 0 0 1
-11.018873 30.664867 1.696424 32.628630 -1.225832 1.518781 0.148634 -0.035413 -29537.300000 0 0 1
-11.358773 31.765067 2.694524 33.842306 -1.227379 1.491092 0.129583 -0.032873 1420620.000000 0 0 1
-12.666773 32.398067 2.520024 34.877391 -1.198096 1.498480 0.130149 -0.034217 1158370.000000 0 0 1
-12.673973 33.311567 1.456624 35.670882 -1.207241 1.529950 0.133414 -0.030878 -964789.000000 0 0 1
-14.031373 -33.692670 1.190024 36.517005 1.176188 1.538202 0.130557 -0.032224 276412.000000 0 0 1
-14.999673 33.027267 0.654224 36.279727 -1.144488 1.552763 0.110086 -0.030445 225546.000000 0 0 1
-15.314773 32.979267 -0.694476 36.368346 -1.136052 1.589893 0.112781 -0.027734 45519.500000 0 0 1
-14.154073 32.735267 -1.702476 35.704816 -1.162691 1.618496 0.123546 -0.028208 119907.000000 0 0 1
-13.638273 31.422967 -1.752776 34.299819 -1.161308 1.621920 0.119644 -0.027885 -973033.000000 0 0 1
-12.304473 31.493367 -2.076676 33.875431 -1.198332 1.632138 0.113651 -0.021460 -951168.000000 0 0 1
-11.599973 30.157967 -2.437276 32.403745 -1.203601 1.646083 0.079135 -0.032102 72291.900000 0 0 1
-11.940173 29.644667 -3.700676 32.172489 -1.187899 1.686078 0.083431 -0.031651 -138661.000000 0 0 1
-10.804473 29.492467 -4.540376 31.735741 -1.219633 1.714357 0.067589 -0.031816 199861.000000 0 0 1
-10.982073 28.837567 -5.917976 31.420274 -1.206928 1.760277 0.075007 -0.023669 -198386.000000 0 0 1
-11.247873 27.482367 -5.815476 30.259129 -1.182319 1.764189 0.065459 -0.015995 -157071.000000 0 0 1
-11.102773 26.897967 -7.077276 29.947622 -1.179327 1.809375 0.047577 -0.014241 17880.600000 0 0 1
-11.421773 25.441567 -7.278076 28.821878 -1.148823 1.826079 0.060172 -0.018023 -67.184200 0 0 1
-10.685073 24.514267 -6.536276 27.528948 -1.159753 1.810519 0.034032 -0.010035 -342986.000000 0 0 1
-11.267473 23.250067 -6.594776 26.664820 -1.119527 1.820711 0.071400 -0.024886 -134673.000000 0 0 1
-10.570473 22.272167 -5.647576 25.291885 -1.127671 1.795991 0.079707 -0.033126 -940628.000000 0 0 1
-9.305673 21.851167 -6.064476 24.512179 -1.168192 1.820799 0.082595 -0.030256 -387654.000000 0 1 0
-8.841673 20.682767 -5.405676 23.133814 -1.166819 1.806647 0.082885 -0.027347 -264188.000000 0 1 0
-8.578173 20.713067 -3.843576 22.746193 -1.178157 1.740588 0.078729 -0.033832 571937.000000 0 1 0
-9.729773 20.672067 -2.944876 23.036387 -1.130885 1.698983 0.097758 -0.037215 992698.000000 0 1 0
-10.535773 19.484967 -3.037276 22.358254 -1.075111 1.707064 0.105704 -0.037055 1006400.000000 0 1 0
-11.871973 19.587267 -2.178176 23.007591 -1.025899 1.665610 0.099561 -0.031041 704103.000000 0 1 0
-11.821473 19.390567 -0.740576 22.722011 -1.023311 1.603395 0.106672 -0.039284 24251.000000 0 1 0
-11.465873 18.059567 -0.324076 21.394374 -1.005115 1.585945 0.092019 -0.033208 -47235.100000 0 1 0
-11.305273 17.985267 1.180524 21.276106 -1.009623 1.515282 0.097913 -0.041396 702804.000000 0 1 0
-12.536473 18.263767 1.883424 22.232311 -0.969248 1.485979 0.121301 -0.037440 1027080.000000 0 1 0
-12.267573 18.559667 3.226724 22.480355 -0.986741 1.426764 0.113175 -0.025510 614485.000000 0 1 0
-13.586573 18.384567 4.050424 23.216227 -0.934359 1.395434 0.101053 -0.035130 586551.000000 0 1 0
-13.936773 17.014167 4.250324 22.400464 -0.884501 1.379896 0.069175 -0.032624 61401.400000 0 1 0
-15.038073 16.941267 5.115724 23.223282 -0.844841 1.348690 0.088722 -0.039703 -167210.000000 0 1 0
-15.450873 15.585767 5.689124 22.671827 -0.789744 1.317152 0.068301 -0.033087 -369324.000000 0 1 0
-14.594673 15.131967 6.719724 22.071149 -0.803471 1.261428 0.063902 -0.029349 4750.720000 0 1 0
-15.025973 15.521167 7.980724 23.029947 -0.801608 1.216920 0.050433 -0.027873 -450530.000000 0 1 0
-13.830673 15.490967 8.959724 22.617123 -0.841961 1.163479 0.033429 -0.017777 589436.000000 0 1 0
-12.801773 16.472567 8.791524 22.638943 -0.910140 1.171971 0.036137 -0.024597 776177.000000 0 1 0
-11.883873 16.148167 7.716124 21.483210 -0.936363 1.203418 0.038309 -0.025251 -154831.000000 0 1 0
-10.789273 17.218967 7.463624 21.647331 -1.011053 1.218789 0.060668 -0.031500 860974.000000 0 1 0
-9.710873 17.159367 8.414524 21.437098 -1.055811 1.167425 0.060854 -0.027390 84079.000000 0 1 0
-8.961573 18.342567 8.334124 22.050333 -1.116337 1.183205 0.066546 -0.033421 751880.000000 0 1 0
-7.881773 18.472367 9.528424 22.229295 -1.167504 1.127806 0.073381 -0.024817 1539190.000000 0 1 0
-6.744873 17.585967 9.279724 20.996972 -1.204562 1.113019 0.056018 -0.020342 1635400.000000 0 1 0
-5.484273 18.046367 9.835824 21.271861 -1.275766 1.090111 0.048061 -0.013917 1451640.000000 0 1 0
-4.728673 19.053167 8.958624 21.578704 -1.327528 1.142677 0.048850 -0.020100 -936851.000000 0 1 0
-5.095073 20.401167 9.133524 22.925720 -1.326058 1.161028 0.065355 -0.024312 61191.400000 0 1 0
-4.427773 21.289167 8.253324 23.258357 -1.365737 1.208038 0.064336 -0.036440 825631.000000 0 1 0
-2.981073 21.818067 8.595524 23.638906 -1.435004 1.198648 0.065398 -0.027718 900921.000000 0 1 0
-2.006873 20.808567 8.323624 22.501260 -1.474649 1.191875 0.047380 -0.014453 -47707.200000 0 1 0
-0.753073 21.462967 8.159124 22.973841 -1.535724 1.207723 0.038806 -0.015479 35541.200000 0 1 0
0.431727 20.514367 8.032524 22.035133 1.549754 1.197666 0.024245 -0.007788 -66383.800000 0 1 0
0.848327 19.878767 9.214024 21.926771 1.528147 1.137111 0.021854 -0.009206 -991208.000000 0 1 0
2.235027 19.717267 9.164524 21.857595 1.457924 1.138141 0.015038 -0.000528 -281388.000000 0 1 0
2.742027 18.959667 10.429224 21.811841 1.427168 1.072255 0.006544 -0.022629 580578.000000 0 1 0
4.167527 18.822267 10.482624 21.943824 1.352897 1.072758 0.030530 0.000126 716038.000000 0 1 0
4.640027 18.374767 11.784224 22.316582 1.323446 1.014496 0.031867 -0.006171 1104650.000000 0 1 0
6.201927 18.563067 11.814924 22.861404 1.248356 1.027680 0.051948 -0.011968 1220840.000000 0 1 0
6.992027 17.688367 10.998624 21.971265 1.194357 1.046515 0.043415 -0.012683 506678.000000 0 1 0
7.825527 16.797567 11.771724 21.953829 1.134821 1.004863 0.051027 -0.012265 9420.250000 0 1 0
9.021727 16.169667 11.058124 21.566914 1.061877 1.032428 0.048649 -0.018981 -94755.100000 0 1 0
10.071827 17.097467 10.900924 22.640566 1.038443 1.068457 0.061913 -0.023803 -1058460.000000 0 1 0
11.119327 16.590667 10.199624 22.425922 0.980341 1.098633 0.060768 -0.029452 -1274190.000000 0 1 0
12.096727 17.627967 9.719224 23.484875 0.969376 1.144117 0.060385 -0.022272 -139308.000000 0 1 0
13.098327 17.046267 8.866024 23.253984 0.915624 1.179628 0.063690 -0.022342 -27067.800000 0 1 0
13.962827 18.107267 8.475324 24.385749 0.913917 1.215837 0.077658 -0.020501 -32237.000000 0 1 0
14.896027 17.520267 7.404424 24.159405 0.866176 1.259301 0.087878 -0.024839 359242.000000 0 1 0
16.025927 16.762467 7.873724 24.490940 0.807858 1.243488 0.100735 -0.032796 380721.000000 0 1 0
16.992827 16.664067 6.851624 24.766753 0.775630 1.290494 0.103273 -0.021774 -213001.000000 0 1 0
18.393427 16.375967 7.416824 25.719637 0.727439 1.278270 0.094835 -0.032030 -263428.000000 0 0 1
18.521027 15.161067 8.119124 25.274623 0.685972 1.243762 0.092239 -0.029504 315333.000000 0 0 1
19.599127 15.300067 9.038524 26.455864 0.662831 1.222129 0.107451 -0.031591 50675.800000 0 0 1
19.870727 14.071167 9.913024 26.289001 0.616165 1.184156 0.088300 -0.033553 -31186.100000 0 0 1
20.691927 13.104667 9.287124 26.194251 0.564562 1.208366 0.106036 -0.044533 300683.000000 0 0 1
20.909927 12.071967 10.277224 26.240784 0.523585 1.168371 0.106993 -0.049553 -615263.000000 0 0 1
21.890427 11.053167 9.728324 26.381880 0.467585 1.193132 0.094415 -0.042167 -891921.000000 0 0 1
23.227727 11.501467 9.879624 27.738385 0.459769 1.206629 0.099324 -0.050391 886490.000000 0 0 1
24.185627 10.803167 9.070224 27.998606 0.420087 1.240892 0.119740 -0.054712 -365941.000000 0 0 1
24.499127 9.277467 9.322524 27.806260 0.361998 1.228908 0.141021 -0.062345 -785857.000000 0 0 1
23.360727 8.442067 9.243724 26.503556 0.346775 1.214535 0.135434 -0.056851 212261.000000 0 0 1
23.552027 7.090467 9.410224 26.334863 0.292425 1.205389 0.121009 -0.051307 -398710.000000 0 0 1
24.466227 6.393767 8.398224 26.645951 0.255614 1.250152 0.129163 -0.054390 135850.000000 0 0 1
23.879827 6.205467 7.148824 25.687733 0.254239 1.288776 0.112843 -0.037674 585152.000000 0 0 1
24.932427 5.781967 6.299124 26.357845 0.227877 1.329476 0.142033 -0.044111 298040.000000 0 0 1
24.458327 5.438367 4.867224 25.524017 0.218793 1.378929 0.151992 -0.051208 -321800.000000 0 0 1
23.639927 4.299567 4.824224 24.507255 0.179911 1.372654 0.131121 -0.042289 300575.000000 0 1 0
23.358027 3.848267 3.507724 23.931375 0.163285 1.423692 0.157155 -0.044936 -341966.000000 0 1 0
22.500327 2.579067 3.394724 22.900665 0.114125 1.422011 0.150313 -0.031786 -442202.000000 0 1 0
23.035827 1.361967 3.801524 23.387087 0.059055 1.407524 0.168724 -0.030812 587572.000000 0 1 0
22.232527 0.283467 3.308824 22.479189 0.012749 1.423065 0.156277 -0.023841 316283.000000 0 1 0
22.918827 -1.008433 3.803024 23.254087 -0.043972 1.406516 0.175356 -0.028755 -254302.000000 0 1 0
22.793427 -1.283633 5.142224 23.401506 -0.056257 1.349249 0.150590 -0.024532 588262.000000 0 1 0
22.953427 -2.665433 5.422024 23.735262 -0.115606 1.340324 0.146569 -0.027855 -583833.000000 0 1 0
22.656927 -3.110633 6.834424 23.868844 -0.136440 1.280400 0.168827 -0.037036 -155940.000000 0 1 0
22.715627 -4.497333 6.927424 24.170538 -0.195456 1.280114 0.157083 -0.040674 531909.000000 0 1 0
22.893227 -4.879933 8.308024 24.838213 -0.210017 1.229737 0.192770 -0.046363 19202.600000 0 1 0
22.592527 -6.403333 8.569724 24.997302 -0.276184 1.220873 0.193015 -0.052327 613971.000000 0 1 0
21.196327 -6.691333 8.620824 23.840655 -0.305783 1.200811 0.188322 -0.051800 892418.000000 0 1 0
21.036527 -8.001633 9.018924 24.246703 -0.363469 1.189671 0.193076 -0.048271 -254285.000000 0 1 0
-27.465583 -33.144370 5.290524 43.369312 0.878819 1.448504 0.065941 -0.006742 286047.000000 0 0 1
-28.591333 33.798767 5.798324 44.647974 -0.868671 1.440561 0.064701 -0.011142 251458.000000 0 0 1
-28.454903 33.448467 7.164724 44.495109 -0.865891 1.409070 0.068433 -0.012406 253210.000000 0 0 1
-29.386383 32.258167 7.600724 44.293565 -0.831951 1.398344 0.088244 -0.028305 1900470.000000 0 0 1
-30.808833 32.577267 7.590624 45.476149 -0.813290 1.403097 0.082432 -0.017109 1096130.000000 0 0 1
-31.560473 31.424767 7.828724 45.220221 -0.783244 1.396795 0.098019 -0.034432 253951.000000 0 0 1
-33.100843 31.558267 7.741524 46.384493 -0.761546 1.403113 0.090189 -0.030200 94587.600000 0 0 1
-33.558583 31.709167 6.437224 46.616388 -0.757070 1.432264 0.072562 -0.023767 829260.000000 0 0 1
-34.993202 31.863067 6.501724 47.770824 -0.738613 1.434270 0.064649 -0.025396 901027.000000 0 0 1
-35.673235 31.726067 5.121724 48.014113 -0.726901 1.463922 0.036760 -0.016586 -355573.000000 0 0 1
-35.624228 30.471567 4.598624 47.103603 -0.707598 1.473013 0.051083 -0.021750 316072.000000 0 0 1
-36.309163 30.475167 3.348224 47.521592 -0.698264 1.500281 0.056800 -0.015016 -133155.000000 0 0 1
-35.941455 29.252167 2.542424 46.410574 -0.683150 1.515988 0.068027 -0.021116 -90100.100000 0 0 1
-36.431733 28.043467 3.109024 46.080074 -0.656024 1.503275 0.092923 -0.024712 201062.000000 0 0 1
-35.760521 26.863067 2.685724 44.806834 -0.644264 1.510820 0.106371 -0.024467 -189826.000000 0 0 1
-36.234423 25.590967 3.436324 44.493138 -0.614916 1.493487 0.122870 -0.025422 -655502.000000 0 0 1
-37.476553 25.099367 3.080224 45.210154 -0.590124 1.502612 0.113776 -0.023519 -873970.000000 0 0 1
37.250436 24.139867 3.976424 44.566132 0.574998 1.481452 0.110275 -0.011603 642445.000000 0 0 1
35.709676 23.906067 3.770024 43.138082 0.589931 1.483290 0.128112 -0.011381 343000.000000 0 0 1
35.309886 22.916267 2.886724 42.193323 0.575675 1.502326 0.117996 -0.029142 134711.000000 0 0 1
35.675816 21.607467 3.282024 41.837999 0.544572 1.492270 0.112270 -0.024589 -1111320.000000 0 0 1
35.088146 20.552667 2.323224 40.730670 0.529871 1.513727 0.124948 -0.022619 -29604.700000 0 0 1
33.704686 20.283167 2.344224 39.406955 0.541735 1.511274 0.126205 -0.033050 119289.000000 0 0 1
33.175516 19.744867 3.519424 38.766751 0.536856 1.479887 0.108234 -0.032385 -816389.000000 0 0 1
33.200416 18.259767 3.663024 38.067105 0.502833 1.474422 0.136281 -0.039180 -495094.000000 0 0 1
32.603196 17.571967 2.564424 37.125715 0.494331 1.501667 0.122467 -0.053525 167157.000000 0 0 1
32.592006 16.184467 2.532324 36.477233 0.460906 1.501318 0.125858 -0.047331 -257888.000000 0 0 1
31.757326 15.334267 3.549824 35.443882 0.449840 1.470475 0.151897 -0.047031 -452540.000000 0 0 1
30.399596 15.574167 3.321624 34.317974 0.473451 1.473855 0.141096 -0.045353 -514953.000000 0 0 1
29.593426 14.815067 4.217024 33.362260 0.464144 1.444056 0.129011 -0.053939 -252422.000000 0 0 1
28.123526 15.223767 4.094824 32.240710 0.496153 1.443444 0.113812 -0.043514 -291739.000000 0 0 1
27.516026 14.831067 2.848324 31.387978 0.494357 1.479926 0.114050 -0.040634 -358880.000000 0 0 1
26.194026 15.276267 2.791024 30.451291 0.527972 1.479012 0.085690 -0.019983 -515534.000000 0 0 1
25.475126 14.707767 1.517524 29.455107 0.523590 1.519254 0.088942 -0.028153 -315035.000000 0 0 1
25.870626 15.085767 0.206724 29.948496 0.527918 1.563894 0.109818 -0.029984 84755.400000 0 0 1
27.051226 14.398467 -0.157576 30.644894 0.489127 1.575938 0.110556 -0.032205 -928872.000000 0 0 1
27.820326 14.981767 -1.356976 31.626971 0.493986 1.613715 0.134953 -0.034330 260233.000000 0 0 1
28.444826 16.258067 -1.095576 32.781598 0.519249 1.604223 0.107344 -0.033051 1248580.000000 0 0 1
29.472626 16.303467 -0.062976 33.681489 0.505276 1.572666 0.117106 -0.038875 -46747.200000 0 0 1
30.065226 17.646367 0.265424 34.862337 0.530758 1.563183 0.138923 -0.033404 -541963.000000 0 0 1
30.818626 18.125167 -0.789476 35.762168 0.531641 1.592874 0.140908 -0.035311 -427301.000000 0 0 1
31.314976 19.401067 -0.461876 36.840772 0.554668 1.583334 0.132167 -0.020227 -126629.000000 0 0 1
32.528996 19.686367 -1.365076 38.046709 0.544230 1.606683 0.122628 -0.017585 -221364.000000 0 0 1
33.044786 21.012567 -1.511676 39.188915 0.566386 1.609380 0.066685 -0.010647 474764.000000 0 0 1
32.189746 21.956867 -2.176876 39.025922 0.598616 1.626606 0.094011 -0.015657 -115148.000000 0 0 1
32.905916 23.300967 -2.521576 40.399167 0.616147 1.633253 0.098748 -0.017114 55139.400000 0 0 1
33.189316 24.197167 -1.463776 41.099589 0.629967 1.606419 0.118805 -0.017279 -49923.300000 0 0 1
34.217586 23.818467 -0.596576 41.695545 0.608096 1.585105 0.129610 -0.005869 -855837.000000 0 0 1
34.509536 24.849367 0.455424 42.527715 0.624071 1.560087 0.125551 -0.030937 -199006.000000 0 0 1
35.081146 26.039767 -0.117876 43.689474 0.638537 1.573494 0.141657 -0.020782 -728990.000000 0 0 1
36.354766 26.293667 0.361924 44.868217 0.626162 1.562730 0.132398 -0.025438 -751549.000000 0 0 1
36.977536 27.540367 -0.293876 46.107444 0.640156 1.577170 0.110094 -0.032875 -266163.000000 0 0 1
37.286246 27.377567 -1.632776 46.286729 0.633347 1.606079 0.119501 -0.030592 233074.000000 0 0 1
36.336426 27.971367 -2.499776 45.923655 0.656046 1.625257 0.108489 -0.020828 23900.000000 0 0 1
36.488826 27.457667 -3.961776 45.837251 0.645096 1.657336 0.117233 -0.020835 521073.000000 0 0 1
-37.603453 27.912167 -4.734676 47.069373 -0.638540 1.671556 0.104264 -0.019866 649587.000000 0 0 1
-37.326013 27.298367 -5.996876 46.630404 -0.631458 1.699758 0.096890 -0.014054 -650640.000000 0 0 1
36.777066 27.345567 -7.045076 46.367723 0.639360 1.723326 0.070069 -0.002162 -516930.000000 0 0 1
35.796216 26.467767 -6.551576 44.998166 0.636683 1.716912 0.081869 -0.010789 -1097590.000000 0 0 1
34.607386 26.663167 -7.270876 44.288388 0.656459 1.735714 0.054402 -0.019855 -127397.000000 0 0 1
33.426756 25.846667 -6.680876 42.778877 0.658205 1.727611 0.057212 -0.015603 -258877.000000 0 0 1
33.394456 24.435567 -6.897776 41.950756 0.631702 1.735972 0.052321 -0.009260 110190.000000 0 0 1
34.466436 23.703467 -6.275576 42.298610 0.602441 1.719710 0.057425 -0.011342 466340.000000 0 0 1
34.580516 22.185867 -6.369876 41.576437 0.570427 1.724611 0.058415 -0.007566 327647.000000 0 0 1
33.550266 21.546567 -5.614376 40.266563 0.570885 1.710682 0.052203 -0.001277 446667.000000 0 0 1
33.799426 20.182767 -5.607376 39.764154 0.538309 1.712284 0.061280 -0.007274 8459.350000 0 0 1
32.609086 19.422867 -5.013876 38.284974 0.537198 1.702136 0.086082 -0.012474 170141.000000 0 0 1
31.506856 19.237567 -5.874876 37.380210 0.548165 1.728616 0.067278 -0.013459 888662.000000 0 0 1
30.450536 18.379067 -5.355376 35.968115 0.543041 1.720244 0.123438 -0.028905 1021980.000000 0 0 1
29.178926 18.312667 -6.225776 35.007482 0.560466 1.749589 0.080492 -0.025684 -114574.000000 0 0 1
29.311226 17.302267 -7.207676 34.791766 0.533253 1.779474 0.061147 -0.017679 429702.000000 0 0 1
28.168926 17.268767 -8.052876 34.008051 0.549955 1.809860 0.078787 -0.023367 164504.000000 0 0 1
28.370726 16.222267 -9.169376 33.943151 0.519423 1.844334 0.063807 -0.020244 -403796.000000 0 0 1
27.440526 16.284167 -10.198176 33.498647 0.535578 1.880142 0.037926 -0.015100 -85525.500000 0 0 1
27.769126 15.373367 -11.193076 33.656347 0.505613 1.909823 0.041654 -0.003843 -288507.000000 0 0 1
27.037626 15.737067 -12.454476 33.671983 0.527111 1.949672 0.047649 0.001195 -747541.000000 0 0 1
25.658826 15.475967 -12.480576 32.459909 0.542728 1.965454 0.055168 -0.005217 -100363.000000 0 0 1
25.092326 15.617767 -13.749176 32.597229 0.556736 2.006215 0.042156 -0.008554 -442916.000000 0 0 1
25.125726 14.222067 -14.419976 32.272357 0.515072 2.034005 0.045105 -0.015978 -456807.000000 0 0 1
26.389026 13.803867 -14.891676 33.296989 0.481949 2.034471 0.067071 -0.022411 248839.000000 0 0 1
26.875926 14.402167 -16.091876 34.477330 0.491935 2.056395 0.078404 -0.026112 703668.000000 0 0 1
28.297326 13.870067 -16.542976 35.591958 0.455740 2.054200 0.107698 -0.020665 1009260.000000 0 0 1
28.315126 12.567067 -17.026276 35.349280 0.417710 2.073342 0.112406 -0.028264 940201.000000 0 0 1
29.699826 12.187967 -17.161476 36.402506 0.389415 2.061715 0.110272 -0.017139 1104250.000000 0 0 1
29.828226 10.712167 -17.586276 36.245699 0.344784 2.077384 0.082497 -0.013808 -193735.000000 0 0 1
29.297726 10.483967 -18.855576 36.384104 0.343644 2.115584 0.098526 -0.022214 -35600.100000 0 0 1
29.446826 9.209067 -19.470276 36.483066 0.303099 2.133742 0.105328 -0.022629 188860.000000 0 0 1
30.772506 8.873067 -20.228876 37.879887 0.280729 2.134153 0.097432 -0.021194 -485309.000000 0 0 1
30.945066 9.768067 -21.331176 38.833379 0.305760 2.152323 0.103892 -0.023530 1315990.000000 0 0 1
31.801036 9.275667 -22.473576 40.030058 0.283805 2.166894 0.077907 -0.022460 1332530.000000 0 0 1
33.119686 8.490067 -22.189576 40.759933 0.250941 2.146466 0.060265 -0.019824 377408.000000 0 0 1
34.223256 9.353067 -21.913076 41.700048 0.266781 2.124091 0.057863 -0.024080 766943.000000 0 0 1
35.528506 8.796767 -22.012676 42.710839 0.242716 2.112257 0.025154 -0.020667 51397.000000 0 0 1
36.612666 9.837267 -22.060976 43.862807 0.262486 2.097810 0.045105 -0.024020 -831776.000000 0 0 1
36.862246 10.329267 -20.766376 43.551823 0.273206 2.067830 0.026399 -0.019886 235587.000000 0 0 1
37.594376 11.536667 -20.734576 44.456208 0.297750 2.056018 0.016823 -0.009841 -189314.000000 0 0 1
37.392746 12.358667 -19.407976 43.904711 0.319207 2.028677 0.030639 -0.015588 -164254.000000 0 0 1
-37.582983 11.611767 -18.263576 43.369021 -0.299660 2.005476 0.029905 -0.012903 361247.000000 0 0 1
37.219276 12.341967 -17.118176 42.785869 0.320191 1.982411 0.036558 -0.004853 -104656.000000 0 0 1
-37.504343 11.580467 -15.847876 42.330109 -0.299489 1.954533 0.032656 -0.000703 -486182.000000 0 0 1
37.132606 10.317367 -15.610376 41.580793 0.271016 1.955649 0.025778 -0.004345 -2441.170000 0 0 1
-37.577673 9.653167 -14.509176 41.421991 -0.251449 1.928663 0.023027 -0.015101 -52271.400000 0 0 1
36.798436 8.387967 -14.177876 40.317429 0.224114 1.930136 0.075759 -0.019762 -295904.000000 0 0 1
35.600806 8.537667 -13.493976 39.017900 0.235372 1.923931 0.095392 -0.020595 -85555.900000 0 0 1
35.741356 8.219067 -12.088176 38.615044 0.226030 1.889192 0.107908 -0.023886 -228749.000000 0 0 1
34.600186 8.763067 -11.186876 37.404684 0.248051 1.874521 0.136431 -0.027371 -67763.500000 0 0 1
34.464286 10.172367 -11.033176 37.589826 0.287008 1.868698 0.132169 -0.028374 409177.000000 0 0 1
33.604326 10.576867 -9.959776 36.610353 0.304931 1.846317 0.114601 -0.024518 92032.500000 0 0 1
34.251856 10.305767 -8.542176 36.774546 0.292266 1.805223 0.142321 -0.026369 634401.000000 0 0 1
35.412426 11.086667 -8.229976 38.009033 0.303407 1.789052 0.133566 -0.024156 434995.000000 0 0 1
35.235916 12.465467 -7.989976 38.220379 0.340031 1.781400 0.134343 -0.022995 -531999.000000 0 0 1
34.956726 12.826267 -6.552976 37.807768 0.351667 1.745000 0.127815 -0.026459 -393556.000000 0 0 1
36.079296 12.591267 -5.769876 38.646437 0.335774 1.720656 0.141652 -0.028019 32670.700000 0 0 1
35.784506 12.953767 -4.433276 38.314291 0.347319 1.686764 0.150595 -0.038183 -227513.000000 0 0 1
37.083156 12.812667 -3.668676 39.405381 0.332671 1.664032 0.147483 -0.032528 127264.000000 0 0 1
-37.216283 13.907667 -3.806576 39.911965 -0.357629 1.666316 0.146631 -0.029761 739693.000000 0 0 1
-36.039763 13.695967 -3.038776 38.673999 -0.363168 1.649452 0.143078 -0.037236 787121.000000 0 0 1
-34.969429 14.828967 -2.971276 38.099708 -0.401070 1.648862 0.129903 -0.033952 403944.000000 0 0 1
-35.478988 15.842967 -2.130476 38.913971 -0.419977 1.625572 0.162481 -0.029872 271124.000000 0 0 1
-34.596958 16.917167 -1.915576 38.559169 -0.454792 1.620496 0.130981 -0.032323 76017.200000 0 0 1
-35.289684 17.955267 -1.010176 39.607750 -0.470660 1.596304 0.144962 -0.025138 255646.000000 0 0 1
-36.439843 18.568667 -1.557976 40.927800 -0.471275 1.608872 0.123658 -0.023171 484490.000000 0 0 1
-37.110983 19.500067 -0.679176 41.927783 -0.483802 1.586996 0.120281 -0.022211 318364.000000 0 0 1
37.052936 20.279967 -1.436776 42.264186 0.500787 1.604798 0.120287 -0.017855 -27194.600000 0 0 1
-37.508723 21.444867 -1.824276 43.244822 -0.519373 1.612994 0.108462 -0.017180 461286.000000 0 0 1
36.885216 22.244767 -2.657876 43.155685 0.542682 1.632423 0.099726 -0.010618 25007.500000 0 0 1
-37.606143 23.507067 -3.179576 44.462500 -0.558661 1.642369 0.112726 -0.021416 219243.000000 0 0 1
-36.421313 23.150967 -3.886676 43.331116 -0.566216 1.660614 0.126338 -0.021408 141140.000000 0 0 1
-35.702966 24.310167 -4.246576 43.401837 -0.597792 1.668796 0.138837 -0.022256 -132526.000000 0 0 1
-34.196281 24.051367 -4.413176 42.039624 -0.612959 1.675967 0.149913 -0.037792 -59152.400000 0 0 1
-34.021283 23.312267 -5.597076 41.620148 -0.600742 1.705685 0.113867 -0.023353 -560249.000000 0 0 1
-32.677493 23.401967 -5.987576 40.636458 -0.621482 1.718680 0.129210 -0.021502 -259915.000000 0 0 1
-32.279253 22.482167 -7.176676 39.986281 -0.608366 1.751253 0.128017 -0.039862 -159013.000000 0 0 1
-32.928353 22.848967 -8.363576 40.942657 -0.606620 1.776520 0.120426 -0.047270 -295137.000000 0 0 1
-32.353093 22.257767 -9.437176 40.388007 -0.602602 1.806639 0.062366 -0.034614 80786.000000 0 0 1
-33.352573 22.017467 -10.649276 41.359038 -0.583473 1.831213 0.089537 -0.023917 391080.000000 0 0 1
-33.948223 23.215767 -11.113076 42.602279 -0.599810 1.834706 0.068206 -0.024460 -48653.400000 0 0 1
-34.450363 23.055867 -12.415576 43.272937 -0.589788 1.861799 0.035396 -0.017658 -786634.000000 0 0 1
-34.984567 24.425267 -12.976976 44.597259 -0.609498 1.866049 0.045833 -0.013129 472856.000000 0 0 1
-34.018980 25.468967 -13.183076 44.494413 -0.642649 1.871598 0.038808 -0.013863 -21310.500000 0 0 1
-32.998623 25.215367 -14.109676 43.861222 -0.652486 1.898309 0.042778 -0.018526 -409170.000000 0 0 1
-31.761863 26.091067 -13.826276 43.367334 -0.687689 1.895278 0.067639 -0.020136 346591.000000 0 0 1
-30.714103 25.593867 -12.971976 42.031825 -0.694715 1.884541 0.057381 -0.020642 559352.000000 0 0 1
-31.014653 25.421067 -11.607976 41.747868 -0.686607 1.852559 0.074460 -0.019524 -297553.000000 0 0 1
-31.233403 26.759867 -10.831176 42.531522 -0.708412 1.828295 0.099525 -0.012184 294883.000000 0 0 1
-30.092593 27.612567 -10.849476 42.257889 -0.742447 1.830448 0.110869 -0.005581 -161909.000000 0 0 1
-30.154963 28.710167 -9.974376 42.814526 -0.760859 1.805924 0.089949 -0.007511 861836.000000 0 0 1
-28.815623 29.500067 -9.692476 42.361990 -0.797134 1.801642 0.106539 -0.004945 987750.000000 0 0 1
-29.074883 30.869067 -9.436176 43.442946 -0.815320 1.789750 0.098572 -0.035525 -1319590.000000 0 0 1
-27.913883 31.550167 -9.221776 43.123533 -0.846473 1.786306 0.144009 -0.019469 -994712.000000 0 0 1
35.793916 -24.859133 33.306730 54.849970 -0.607030 0.918223 0.055052 -0.007300 270113.000000 0 0 1
35.247666 -23.494833 33.359364 53.918942 -0.587932 0.903716 0.048535 -0.008014 -3377.030000 0 0 1
34.317726 -23.435433 -33.291196 53.246874 -0.599154 2.246214 0.033649 -0.001439 -329969.000000 0 0 1
34.033216 -21.977433 -32.809906 52.132114 -0.573392 2.251527 0.026966 -0.004412 112916.000000 0 0 1
33.336366 -21.221733 -33.779166 51.987569 -0.566893 2.278058 0.020357 -0.000045 66133.200000 0 0 1
33.318576 -19.858733 -33.527676 51.269892 -0.537492 2.283583 0.016851 -0.001414 182433.000000 0 0 1
33.090436 -18.944033 32.903448 50.363581 -0.519948 0.858837 0.027686 -0.005912 640650.000000 0 0 1
34.260956 -18.953133 32.082494 50.619372 -0.505296 0.884342 0.043940 -0.019486 722686.000000 0 0 1
33.944536 -18.555333 30.793315 49.444516 -0.500257 0.898499 0.057243 -0.015792 -212002.000000 0 0 1
35.226396 -18.370833 29.971735 49.766368 -0.480705 0.924481 0.050147 -0.021605 -291594.000000 0 0 1
35.909666 -17.180133 30.229465 49.984814 -0.446240 0.921316 0.047122 -0.029677 -283425.000000 0 0 1
37.174956 -17.233133 29.632345 50.567125 -0.434080 0.944682 0.040211 -0.026019 -711060.000000 0 0 1
-37.252793 -15.958833 29.906835 50.367388 0.404741 0.935055 0.043231 -0.028130 668205.000000 0 0 1
-35.902267 -16.086633 29.414295 49.121821 0.421246 0.928791 0.047305 -0.024652 826249.000000 0 0 1
-35.016471 -15.100033 29.900075 48.458010 0.407133 0.905833 0.061929 -0.032661 677944.000000 0 0 1
-33.550683 -15.497533 29.478755 47.273871 0.432717 0.897490 0.081822 -0.037238 542650.000000 0 0 1
-32.606023 -14.710333 30.173965 46.797594 0.423813 0.870066 0.086572 -0.033036 -138366.000000 0 0 1
-31.573623 -15.505933 30.729615 46.707996 0.456506 0.852757 0.087827 -0.040728 -7789.060000 0 0 1
-30.544253 -14.554533 31.382625 46.148185 0.444677 0.822979 0.081880 -0.037667 97252.500000 0 0 1
-31.156773 -13.805233 32.424200 47.038896 0.417092 0.810265 0.091335 -0.033107 206072.000000 0 0 1
-30.169823 -13.006433 32.972839 46.546682 0.407032 0.783593 0.081165 -0.032684 -367760.000000 0 0 1
-30.534103 -12.332533 -33.360806 46.876073 0.383859 2.362684 0.068085 -0.013842 -231002.000000 0 0 1
-30.464043 -13.223133 -32.297266 46.325183 0.409517 2.342261 0.079658 -0.014606 405652.000000 0 0 1
-30.535913 -12.627133 -31.028716 45.328442 0.392105 2.324756 0.080683 -0.007938 -516928.000000 0 0 1
-30.566333 -13.697033 -29.895356 44.895899 0.421280 2.299471 0.092437 -0.013665 155934.000000 0 0 1
-31.848913 -14.286333 -29.739286 45.857144 0.421661 2.276435 0.094805 -0.016866 208989.000000 0 0 1
-31.956253 -15.224733 -28.642446 45.534430 0.444610 2.251099 0.112552 -0.018362 12370.900000 0 0 1
-33.305163 -15.948333 -28.592826 46.702601 0.446589 2.229677 0.101826 -0.023760 -76577.500000 0 0 1
-33.248313 -16.949733 -29.603346 47.635091 0.471451 2.241402 0.106817 -0.031165 -148204.000000 0 0 1
-34.382761 -17.770933 -29.704386 48.788635 0.477041 2.225392 0.076999 -0.030197 -381123.000000 0 0 1
-34.301245 -18.971333 -30.582836 49.717167 0.505205 2.233355 0.090883 -0.029920 586367.000000 0 0 1
-35.451597 -19.834233 -30.404156 50.740765 0.510088 2.213305 0.054401 -0.025080 837908.000000 0 0 1
-35.233825 -21.095533 -30.964046 51.431664 0.539485 2.216853 0.059124 -0.026968 444705.000000 0 0 1
-36.590703 -21.857133 -31.131746 52.780673 0.538462 2.201647 0.064125 -0.025799 535358.000000 0 0 1
-37.166843 -22.450233 -30.013646 52.784525 0.543384 2.175608 0.039818 -0.020862 -553358.000000 0 0 1
37.199866 -23.509533 -30.281406 53.418084 -0.563602 2.173504 0.049615 -0.020676 -325782.000000 0 0 1
-37.447303 -24.891533 -30.760366 54.480171 0.586646 2.170764 0.054388 -0.017198 93158.300000 0 0 1
-36.807563 -24.947233 -32.017076 54.792831 0.595653 2.194850 0.069929 -0.019345 -337075.000000 0 0 1
-35.981098 -26.076133 -32.127326 54.834015 0.627123 2.196788 0.051209 -0.015115 -146402.000000 0 0 1
-36.417553 -27.089323 -33.170026 56.216725 0.639556 2.201903 0.071170 -0.019054 -609343.000000 0 0 1
37.549096 -27.571223 -32.832366 56.991852 -0.633359 2.184732 0.076088 -0.014798 -977972.000000 0 0 1
37.172356 -28.842573 -33.334526 57.661674 -0.659881 2.187201 0.081807 -0.022802 18064.600000 0 0 1
-37.342973 -30.083523 -32.677366 58.028667 0.678147 2.168958 0.092326 -0.030387 285106.000000 0 0 1
37.384136 -30.302323 -31.366126 57.442478 -0.681151 2.148431 0.101355 -0.037397 318501.000000 0 0 1
-36.987203 -31.243973 -30.730546 57.346364 0.701423 2.136341 0.085048 -0.037734 -50041.100000 0 0 1
37.602486 -31.875773 -29.519876 57.458115 -0.703160 2.110362 0.080173 -0.035079 240667.000000 0 0 1
36.541386 -32.772733 -29.858526 57.453081 -0.731081 2.117299 0.105764 -0.032720 465242.000000 0 0 1
36.029936 -33.397243 -28.687886 56.890482 -0.747496 2.099327 0.106520 -0.035130 126383.000000 0 0 1
34.892566 33.234514 -29.012206 56.247064 0.761065 2.112737 0.115761 -0.044765 -264913.000000 0 0 1
33.734856 -33.815923 -29.479446 56.130160 -0.786598 2.123744 0.127617 -0.042185 -460097.000000 0 0 1
32.560156 33.185742 -28.997406 54.793310 0.794913 2.128471 0.127153 -0.040475 1220780.000000 0 0 1
31.252136 33.714344 -29.717966 54.740392 0.823280 2.144670 0.084900 -0.024411 696804.000000 0 0 1
31.101486 33.321211 -31.019806 55.134689 0.819840 2.168346 0.103778 -0.027777 430245.000000 0 0 1
29.795526 33.573744 -31.541816 54.862153 0.844950 2.183313 0.075934 -0.018639 520150.000000 0 0 1
29.529826 32.845208 -32.891376 55.069601 0.838501 2.210888 0.083011 -0.025463 33101.600000 0 0 1
29.442126 31.429364 -32.699886 54.073342 0.818033 2.220226 0.068090 -0.017627 -419.244000 0 0 1
29.151226 30.944514 33.697635 54.248388 0.815230 0.900558 0.077165 -0.021205 -30486.400000 0 0 1
29.140026 29.373224 33.671715 53.345214 0.789384 0.887692 0.080876 -0.035250 268658.000000 0 0 1
30.431876 28.827354 -33.813416 53.855942 0.758328 2.249583 0.091242 -0.033690 57113.000000 0 0 1
30.320096 27.458234 -33.419366 52.821557 0.735907 2.255811 0.075863 -0.039175 1452040.000000 0 0 1
31.766436 26.789774 -33.323596 53.265941 0.700612 2.246707 0.093271 -0.038829 1304360.000000 0 0 1
32.473826 27.103754 -32.149596 53.129647 0.695505 2.220708 0.102297 -0.036221 -880605.000000 0 0 1
33.777556 26.620154 -32.326606 53.801165 0.667444 2.215364 0.118694 -0.037432 -540743.000000 0 0 1
34.591816 27.116474 -31.144256 53.868930 0.664846 2.187254 0.122940 -0.038104 -1162020.000000 0 0 1
35.047056 28.410024 -31.018656 54.750184 0.681186 2.173108 0.103582 -0.037248 239982.000000 0 0 1
34.103616 29.453694 -30.786646 54.574667 0.712367 2.170163 0.124685 -0.034554 355141.000000 0 0 1
33.290976 29.574594 -29.444446 53.384652 0.726351 2.155021 0.143865 -0.032389 623397.000000 0 0 1
34.077186 29.843554 -28.288966 53.405598 0.719262 2.129044 0.127168 -0.033156 742435.000000 0 0 1
33.137376 29.972674 -27.219156 52.319493 0.735294 2.117939 0.121723 -0.029566 396808.000000 0 0 1
33.838566 30.404634 -25.885036 52.340476 0.731997 2.088115 0.124156 -0.027409 37810.200000 0 0 1
34.182246 31.773742 -25.871356 53.360320 0.748898 2.076980 0.125973 -0.031075 91230.100000 0 0 1
34.563856 32.205110 -24.629776 53.277154 0.750086 2.051378 0.100210 -0.041714 -84853.000000 0 0 1
34.827886 33.747204 -24.706276 54.426607 0.769640 2.041976 0.102852 -0.036802 -94730.800000 0 0 1
33.645716 -33.185613 -24.966276 53.447489 -0.778514 2.056825 0.095227 -0.026592 323920.000000 0 0 1
33.890736 -31.755763 -24.894076 52.694644 -0.752887 2.062832 0.089036 -0.023049 -1049710.000000 0 0 1
34.532596 -31.076003 -26.119566 53.295871 -0.732762 2.082985 0.082791 -0.034101 -497383.000000 0 0 1
35.872766 -31.374683 -26.363286 54.463280 -0.718609 2.076081 0.105770 -0.040352 -807987.000000 0 0 1
36.711016 -30.661463 -25.506626 54.207121 -0.695846 2.060699 0.101211 -0.046787 -520985.000000 0 0 1
-36.988033 -30.752363 -25.905056 54.634187 0.693604 2.064800 0.073273 -0.033952 897613.000000 0 0 1
-36.281253 -31.997573 -25.891336 54.868345 0.722742 2.062219 0.067010 -0.032243 144246.000000 0 0 1
-36.236743 -32.641683 -24.622976 54.633982 0.733251 2.038334 0.070373 -0.017826 -86536.500000 0 0 1
-35.143735 -32.151233 -23.597076 53.156428 0.740959 2.030762 0.040818 -0.012696 293796.000000 0 0 1
-35.171932 -30.757233 -23.386376 52.249352 0.718537 2.034867 0.012674 -0.006332 -58068.500000 0 0 1
-34.643423 -30.449293 -22.080876 51.136008 0.721054 2.017291 0.037573 -0.001766 74428.400000 0 0 1
-34.128816 -28.999673 -22.001276 49.898029 0.704327 2.027425 0.039475 0.008103 -151900.000000 0 0 1
-35.183105 -28.102043 -22.234876 50.219174 0.673970 2.029467 0.018419 0.019474 -15935.900000 0 0 1
-35.077835 -27.732443 -23.574876 50.550150 0.668981 2.055975 0.001942 0.004873 -642670.000000 0 0 1
-36.376563 -27.097433 -24.000676 51.318200 0.640239 2.057465 0.010069 0.003321 -663616.000000 0 0 1
-36.676033 -25.867413 -23.350076 50.591309 0.614271 2.050530 0.005431 0.009667 645367.000000 0 0 1
37.427836 -25.105473 -23.883776 51.005514 -0.590838 2.058115 0.026756 0.001306 804721.000000 0 0 1
-37.593363 -24.485033 -25.315526 51.513626 0.577297 2.084531 0.036739 -0.008034 -428443.000000 0 0 1
-36.520653 -23.574233 -25.330046 50.310176 0.573208 2.098415 0.020171 -0.011874 -194909.000000 0 0 1
-36.306723 -23.121433 -26.687976 50.646094 0.567065 2.125805 0.035792 -0.019440 395310.000000 0 0 1
-35.106651 -22.142733 -26.879396 49.449767 0.562707 2.145480 0.048956 -0.037611 58036.700000 0 0 1
-35.304532 -21.043433 -26.061826 48.666773 0.537514 2.135915 0.039531 -0.022707 160414.000000 0 0 1
-36.128673 -20.065333 -26.688176 49.195095 0.506968 2.144203 0.038885 -0.024450 346080.000000 0 0 1
-37.404733 -19.718633 -25.857436 49.563550 0.485146 2.119642 0.032878 -0.024985 -213340.000000 0 0 1
-37.253053 -19.034833 -24.615876 48.539223 0.472377 2.102652 0.032940 -0.032511 -74424.600000 0 0 1
-36.503343 -19.738733 -23.587976 47.733680 0.495704 2.087662 0.024549 -0.028702 54740.100000 0 0 1
-37.136053 -20.920833 -22.804876 48.340770 0.513040 2.062074 0.024156 -0.011050 -139965.000000 0 0 1
37.131726 -20.541233 -21.831976 47.721510 -0.505296 2.045964 0.030849 -0.015903 -145681.000000 0 0 1
36.828896 -21.704333 -21.083776 47.665200 -0.532536 2.028992 0.041262 0.000852 -447855.000000 0 0 1
35.639676 -21.491533 -20.147276 46.238352 -0.542639 2.021642 0.040201 -0.006858 -197794.000000 0 0 1
34.435636 -21.206133 -20.833276 45.492181 -0.551970 2.046487 0.054911 -0.008758 172588.000000 0 0 1
33.342526 -21.132233 -19.941976 44.226437 -0.564897 2.038577 0.063509 -0.009477 -307430.000000 0 0 1
32.026066 -20.592333 -20.468476 43.228134 -0.571429 2.064055 0.050722 -0.012741 -884320.000000 0 0 1
31.565816 -21.268133 -21.667776 43.797565 -0.592905 2.088315 0.051142 -0.003116 -472858.000000 0 0 1
30.369466 -20.826433 -22.198676 42.997977 -0.601111 2.113289 0.094906 -0.008242 -585724.000000 0 0 1
30.197026 -19.423333 -22.755676 42.508200 -0.571594 2.135688 0.068587 -0.016452 -286100.000000 0 0 1
30.500276 -18.434633 -21.794976 41.774675 -0.543655 2.119670 0.064972 -0.008233 47625.300000 0 0 1
30.168326 -17.154433 -22.277376 41.239349 -0.517029 2.141468 0.052078 -0.013074 -9245.530000 0 0 1
30.721266 -16.052333 -21.331476 40.700190 -0.481497 2.122469 0.054497 -0.024852 -382581.000000 0 0 1
30.182026 -16.073933 -19.990376 39.609862 -0.489360 2.099810 0.048146 -0.016671 -284733.000000 0 0 1
31.016846 -15.696633 -18.965376 39.599426 -0.468490 2.070232 0.030626 -0.011048 -512837.000000 0 0 1
32.231186 -16.613533 -18.657376 40.779364 -0.475930 2.046001 0.042212 -0.022644 582000.000000 0 0 1
33.286776 -16.538333 -19.642176 42.039755 -0.461120 2.056950 0.024833 -0.025770 808472.000000 0 0 1
34.291286 -17.505233 -19.320376 43.076704 -0.472001 2.035895 0.029664 -0.030518 -501721.000000 0 0 1
35.271126 -17.764633 -20.396176 44.448155 -0.466571 2.047526 0.039578 -0.035180 -39543.200000 0 0 1
36.398446 -16.872633 -20.362876 44.990881 -0.434068 2.040475 0.047311 -0.044713 1018390.000000 0 0 1
37.356766 -17.109333 -21.406976 46.330507 -0.429485 2.051101 0.067642 -0.041358 99830.200000 0 0 1
-37.122173 -15.850433 -21.796476 45.873503 0.403547 2.065923 0.099779 -0.042986 -710676.000000 0 0 1
-36.034423 -15.554433 -20.950076 44.489614 0.407494 2.061105 0.124868 -0.050634 60560.800000 0 0 1
-35.481996 -14.319633 -21.342376 43.812338 0.383584 2.079599 0.147779 -0.050595 -767182.000000 0 0 1
-34.279662 -13.817633 -20.545576 42.286439 0.383163 2.078151 0.148972 -0.054036 460740.000000 0 0 1
-32.985573 -14.404133 -20.617776 41.480354 0.411722 2.090991 0.171834 -0.062822 646002.000000 0 0 1
-32.913273 -15.696733 -20.028076 41.602822 0.445007 2.073061 0.152272 -0.060869 -698987.000000 0 0 1
-31.557653 -16.390733 -20.175676 40.885199 0.479039 2.086873 0.133437 -0.060382 -194065.000000 0 0 1
-31.720203 -17.643033 -19.528776 41.216756 0.507597 2.064405 0.142771 -0.064890 332200.000000 0 0 1
-30.794113 -18.547933 -20.107076 41.189777 0.542124 2.080773 0.130471 -0.064297 -215568.000000 0 0 1
-30.904693 -20.010033 -19.590376 41.704728 0.574599 2.059792 0.103383 -0.020316 13229.300000 0 0 1
-32.033953 -20.715933 -20.100676 43.120311 0.574043 2.055734 0.091679 -0.018472 468984.000000 0 0 1
-32.095803 -22.021133 -19.636776 43.596718 0.601340 2.038031 0.065022 0.007096 424119.000000 0 0 1
-33.184723 -22.889033 -20.362876 45.163928 0.603811 2.038532 0.037301 -0.000724 353469.000000 0 0 1
-32.829003 -23.120133 -21.683376 45.633900 0.613579 2.065941 0.035405 -0.002139 317789.000000 0 0 1
-33.883653 -23.704933 -22.431776 47.044770 0.610456 2.067827 0.028318 0.007075 112001.000000 0 0 1
-33.456063 -23.973633 -23.906476 47.597929 0.621761 2.097005 0.036131 0.009333 -142405.000000 0 0 1
-32.417813 -24.886333 -24.123776 47.457357 0.654717 2.104035 0.050522 -0.010709 -326693.000000 0 0 1
-32.194183 -25.167973 -25.517666 48.177210 0.663517 2.128999 0.042910 -0.004449 -328080.000000 0 0 1
-30.751093 -25.576403 -25.805826 47.599609 0.693787 2.143782 0.048684 -0.010418 -235322.000000 0 0 1
-29.815053 -24.506033 -25.764986 46.403853 0.687974 2.159440 0.058172 -0.022699 -504163.000000 0 0 1
-28.518223 -25.021723 -25.720326 45.835694 0.720184 2.166561 0.062099 -0.016770 35571.500000 0 0 1
-27.415263 -23.922133 -25.867086 44.642706 0.717460 2.188819 0.073126 -0.021954 98247.700000 0 0 1
-27.519533 -23.353633 -27.132306 45.153947 0.703693 2.215403 0.071059 -0.031068 -23078.800000 0 0 1
-26.479923 -22.419933 -27.271906 44.131582 0.702562 2.236952 0.088861 -0.031239 -106171.000000 0 0 1
-26.454983 -21.708033 -28.632276 44.619637 0.687155 2.267505 0.051109 -0.022308 -78894.900000 0 0 1
-25.892783 -22.543833 -29.609096 45.336069 0.716367 2.282470 0.059731 -0.009844 149030.000000 0 0 1
-25.597803 -21.845933 -30.822976 45.634944 0.706482 2.312337 0.054324 -0.003178 -52693.700000 0 0 1
-25.024123 -22.766833 -31.981936 46.555125 0.738201 2.328106 0.058669 -0.017291 134996.000000 0 0 1
-26.024573 -23.495633 -32.658166 47.915331 0.734374 2.320717 0.024962 -0.016166 -190815.000000 0 0 1
-25.519913 -24.596133 -33.336906 48.657836 0.766967 2.325577 0.061567 0.001076 54791.200000 0 0 1
-19.714873 -14.825633 -11.181876 27.083389 0.644781 1.996398 0.073377 0.001069 53648.900000 0 0 1
-19.989873 -14.032833 -10.032976 26.404091 0.612065 1.960569 0.084100 -0.007560 197071.000000 0 0 1
-19.412173 -14.552833 -8.822076 25.815624 0.643293 1.919558 0.070017 -0.014497 -267255.000000 0 0 1
-20.016873 -13.908333 -7.596476 25.530832 0.607248 1.872913 0.116350 -0.037366 -197947.000000 0 0 1
-21.353573 -14.324633 -7.393176 26.754985 0.590880 1.850769 0.127481 -0.032787 27544.100000 0 0 1
-21.825873 -13.729033 -6.193076 26.518093 0.561489 1.806515 0.134870 -0.043377 -652903.000000 0 0 1
-23.069873 -14.402633 -5.652876 27.777867 0.558099 1.775731 0.129951 -0.038728 -918652.000000 0 0 1
-23.035473 -15.803033 -5.216276 28.417924 0.601289 1.755399 0.105300 -0.034177 94694.100000 0 0 1
-22.432873 -16.028033 -3.967976 27.854559 0.620384 1.713736 0.114528 -0.035333 -155304.000000 0 0 1
-22.066873 -17.468133 -3.585976 28.371496 0.669598 1.697529 0.088069 -0.023657 73115.400000 0 0 1
-23.219573 -18.239233 -3.313576 29.711916 0.665844 1.682552 0.096764 -0.010379 353304.000000 0 0 1
-22.952073 -19.227933 -2.366776 30.035191 0.697335 1.649678 0.077546 -0.003882 -74170.400000 0 0 1
-24.196073 -20.108033 -2.139976 31.533513 0.693386 1.638712 0.102503 -0.020758 28738.700000 0 0 1
-24.406273 -20.912033 -3.281276 32.307059 0.708446 1.672537 0.086930 -0.030838 652315.000000 0 0 1
-25.508213 -21.814733 -3.014076 33.699201 0.707508 1.660357 0.104310 -0.026141 859042.000000 0 0 1
-25.667193 -22.828733 -4.181976 34.604115 0.726935 1.691944 0.119879 -0.028496 745631.000000 0 0 1
-24.488673 -23.664533 -4.095876 34.299875 0.768285 1.690496 0.126075 -0.030598 251769.000000 0 0 1
-24.269773 -24.506033 -5.165776 34.874816 0.790242 1.719467 0.140685 -0.036571 -763695.000000 0 0 1
-22.800673 -24.597133 -5.580476 34.000461 0.823282 1.735672 0.122882 -0.024260 -188132.000000 0 0 1
-22.200073 -23.433633 -6.094276 32.849941 0.812423 1.757396 0.091348 -0.012822 40168.500000 0 0 1
-22.023873 -22.390233 -5.161976 31.827967 0.793647 1.733700 0.070938 -0.014887 -1158920.000000 0 0 1
-21.893573 -21.022733 -5.901076 30.920973 0.765109 1.762818 0.070963 -0.007545 -275204.000000 0 0 1
-20.725773 -20.785033 -6.637476 30.093710 0.786826 1.793185 0.028839 0.001306 -286380.000000 0 0 1
-20.722973 -19.500733 -7.281576 29.372462 0.755021 1.821313 0.021203 -0.002782 30276.600000 0 0 1
-19.395973 -19.115433 -7.972876 28.375523 0.778114 1.855609 0.026709 0.000571 -472899.000000 0 0 1
-19.291073 -19.781233 -9.207676 29.124285 0.797942 1.892466 0.035752 0.005346 974971.000000 0 0 1
-18.042473 -19.531933 -9.920176 28.380224 0.825018 1.927882 0.047652 0.002362 1102070.000000 0 0 1
-17.762873 -18.049433 -10.285976 27.333185 0.793400 1.956616 0.054499 0.005303 -427821.000000 0 0 1
-17.474573 -17.152533 -9.206476 26.159688 0.776098 1.930432 0.067946 -0.008880 88972.600000 0 0 1
-16.100273 -17.171933 -8.853476 25.149118 0.817596 1.930545 0.100044 -0.010726 70265.200000 0 0 1
-15.682173 -15.918333 -8.075376 23.759957 0.792871 1.917579 0.077500 -0.015009 278244.000000 0 1 0
-16.299473 -16.063533 -6.751276 23.859791 0.778108 1.857671 0.057930 -0.019677 568414.000000 0 1 0
-16.597873 -14.784133 -6.205876 23.077540 0.727667 1.843062 0.090428 -0.023633 -508123.000000 0 1 0
-17.372173 -14.993633 -4.938776 23.473239 0.712041 1.782781 0.101809 -0.027920 -560337.000000 0 1 0
-18.029873 -13.887033 -4.448576 23.188701 0.656319 1.763835 0.115264 -0.026055 229496.000000 0 1 0
-18.807873 -14.209233 -3.305576 23.802631 0.647008 1.710121 0.123354 -0.019415 -108713.000000 0 1 0
-19.555073 -13.070633 -2.656576 23.670651 0.589202 1.683264 0.131541 -0.021741 -436027.000000 0 1 0
-20.804973 -12.720133 -3.202876 24.594859 0.548759 1.701393 0.156924 -0.039517 348380.000000 0 1 0
-21.407273 -11.604733 -2.518976 24.480327 0.496752 1.673877 0.154439 -0.028040 1295460.000000 0 1 0
-22.987073 -11.674233 -2.647676 25.917242 0.469916 1.673134 0.134120 -0.027842 999489.000000 0 0 1
-23.531373 -11.269233 -3.908676 26.381791 0.446628 1.719502 0.152869 -0.046643 544696.000000 0 0 1
-24.927473 -11.508233 -4.030876 27.750069 0.432515 1.716568 0.144678 -0.036832 228987.000000 0 0 1
-25.406663 -10.958933 -5.363976 28.184552 0.407229 1.762281 0.152773 -0.049461 -227886.000000 0 0 1
-24.775273 -11.581433 -6.459676 28.101088 0.437278 1.802743 0.142396 -0.051817 173073.000000 0 0 1
-25.307733 -11.148433 -7.711376 28.709480 0.414938 1.842736 0.158249 -0.052569 512208.000000 0 0 1
-24.338873 -11.496733 -8.922576 28.357856 0.441293 1.890876 0.158158 -0.060132 307620.000000 0 0 1
-23.171173 -10.721433 -8.851876 27.022363 0.433370 1.904533 0.157279 -0.054900 -219281.000000 0 0 1
-22.153673 -11.281033 -9.629576 26.660376 0.470994 1.940345 0.138967 -0.053732 27252.300000 0 0 1
-20.838073 -10.457933 -9.744776 25.269632 0.465140 1.966689 0.142759 -0.047944 138987.000000 0 0 1
-21.020073 -9.268833 -10.525176 25.269232 0.415304 2.000412 0.138380 -0.047616 590329.000000 0 0 1
-20.240273 -8.251533 -9.926676 24.006152 0.387109 1.997097 0.134931 -0.037921 -148900.000000 0 1 0
-20.045773 -7.012833 -10.808876 23.829491 0.336533 2.041588 0.103800 -0.034199 -13620.200000 0 1 0
-19.500973 -7.293733 -12.110676 24.086406 0.357910 2.097633 0.108706 -0.025260 471464.000000 0 1 0
-19.288273 -6.051033 -12.748476 23.899291 0.303992 2.133441 0.100600 -0.030052 -3256.230000 0 1 0
-18.577473 -6.169233 -14.135176 24.145085 0.320623 2.196203 0.111437 -0.027701 489554.000000 0 1 0
-19.487773 -6.756633 -15.073676 25.546841 0.333742 2.201906 0.119393 -0.038845 796589.000000 0 0 1
-18.916673 -6.785633 -16.371476 25.921238 0.344415 2.254393 0.124176 -0.045604 9433.060000 0 0 1
-19.697973 -7.664033 -17.388076 27.369558 0.371055 2.259202 0.119440 -0.043097 21739.300000 0 0 1
-20.927473 -7.069933 -17.795376 28.365798 0.325792 2.248946 0.106670 -0.048324 487990.000000 0 0 1
-21.604773 -8.007033 -18.597376 29.609816 0.354920 2.249882 0.097962 -0.045198 -1011990.000000 0 0 1
-22.999473 -7.591533 -19.011776 30.790498 0.318814 2.236301 0.095153 -0.042798 -1359190.000000 0 0 1
-23.184673 -6.487533 -19.855076 31.206429 0.272842 2.260423 0.098204 -0.045568 724837.000000 0 0 1
-24.501973 -6.293633 -20.383376 32.487513 0.251427 2.249034 0.072783 -0.040114 1763000.000000 0 0 1
-25.675313 -5.853533 -19.391576 32.703498 0.224152 2.205515 0.083609 -0.034463 450083.000000 0 0 1
-25.733923 -4.484833 -19.118076 32.370501 0.172544 2.202601 0.096134 -0.035217 -483935.000000 0 0 1
-26.857403 -4.306833 -18.338476 32.805009 0.159006 2.163993 0.119972 -0.027693 -858287.000000 0 0 1
-26.944303 -2.909333 -17.730076 32.385418 0.107559 2.150135 0.114596 -0.022743 -11759.300000 0 0 1
-27.407663 -1.884333 -18.587176 33.169471 0.068644 2.165629 0.121778 -0.019408 395003.000000 0 0 1
-28.752323 -1.798433 -19.034776 34.529019 0.062468 2.154681 0.125550 -0.008598 189199.000000 0 0 1
-29.003753 -0.602233 -20.028676 35.252351 0.020761 2.175054 0.122771 -0.007655 -655.875000 0 0 1
-28.331323 -0.650333 -21.284676 35.441843 0.022951 2.214988 0.114412 -0.008625 139877.000000 0 0 1
-28.888253 -1.540733 -22.209976 36.471743 0.053284 2.225550 0.106329 0.001937 -91597.400000 0 0 1
-28.277263 -1.412733 -23.638276 36.883160 0.049919 2.266461 0.095505 -0.006830 -504875.000000 0 0 1
-28.473723 -0.181033 -24.311076 37.440808 0.006358 2.277487 0.105865 -0.006720 485144.000000 0 0 1
-27.832263 1.053167 -23.816676 36.646665 -0.037822 2.278249 0.106739 -0.003701 770655.000000 0 0 1
-26.278193 1.039967 -23.677776 35.387315 -0.039555 2.303798 0.109076 -0.005236 323397.000000 0 0 1
-25.458983 0.795167 -24.812776 35.559330 -0.031223 2.343097 0.093145 -0.013446 816330.000000 0 0 1
-24.123673 0.589767 -24.294976 34.242449 -0.024443 2.359583 0.090751 -0.014255 748045.000000 0 0 1
-23.101573 0.232467 -25.389076 34.326985 -0.010062 2.403308 0.084543 -0.019891 -225283.000000 0 0 1
-22.846173 1.109567 -26.417836 34.943967 -0.048529 2.427985 0.064479 -0.018991 372766.000000 0 0 1
-21.945273 0.489667 -27.341906 35.063009 -0.022309 2.465132 0.055993 -0.021524 143427.000000 0 0 1
-21.926573 1.395167 -28.575866 36.045821 -0.063543 2.486128 0.051881 -0.013994 -244154.000000 0 0 1
-21.080073 2.527767 -28.465556 35.511223 -0.119343 2.500752 0.057215 -0.010207 235278.000000 0 0 1
-21.081473 3.300867 -29.631686 36.515217 -0.155316 2.517492 0.037896 -0.010437 82056.100000 0 0 1
-20.287073 2.779767 -30.855606 37.031890 -0.136174 2.555697 0.030181 -0.006233 1207040.000000 0 0 1
-18.850573 2.645167 -30.724266 36.143070 -0.139413 2.586921 0.020732 -0.003073 1064670.000000 0 0 1
-18.296873 2.183867 -31.917206 36.854482 -0.118795 2.618010 0.020770 -0.002299 770206.000000 0 0 1
-16.723873 2.212067 -31.851636 36.043139 -0.131507 2.654524 0.030168 -0.010013 853041.000000 0 0 1
-16.185973 3.534167 -31.936466 35.977964 -0.214974 2.663051 0.033015 -0.004440 478099.000000 0 0 1
-14.778773 3.408867 -32.149006 35.547026 -0.226695 2.700786 0.035431 -0.005354 385417.000000 0 0 1
-14.090573 4.726167 -32.478946 35.717822 -0.323621 2.712444 0.061978 -0.008099 -326810.000000 0 0 1
-13.976073 5.603967 -31.415086 34.837375 -0.381341 2.694629 0.068593 -0.024098 149578.000000 0 0 1
-13.581273 6.900667 -31.834086 35.291348 -0.470108 2.695261 0.112278 -0.021284 -288301.000000 0 0 1
-13.179973 7.799867 -30.624116 34.240124 -0.534366 2.677868 0.110264 -0.035861 -669662.000000 0 0 1
-12.055373 7.508767 -29.862716 33.068042 -0.557056 2.697658 0.151564 -0.050843 -200669.000000 0 0 1
-12.280473 6.459267 -28.984876 32.134953 -0.484214 2.695115 0.135279 -0.046513 438824.000000 0 0 1
-10.887673 5.841867 -28.564616 31.122438 -0.492464 2.733336 0.147931 -0.047728 418089.000000 0 0 1
-10.210073 5.076667 -29.544336 31.668374 -0.461422 2.773259 0.125994 -0.056394 69892.300000 0 0 1
-10.947273 3.948067 -30.037746 32.213292 -0.346125 2.771972 0.124625 -0.051636 -537252.000000 0 0 1
-10.341573 3.080167 -31.156586 32.972237 -0.289477 2.808189 0.104901 -0.034731 -128580.000000 0 0 1
-11.012173 1.837167 -31.357656 33.285819 -0.165308 2.799553 0.105326 -0.024452 317898.000000 0 0 1
-10.537773 1.167767 -32.522546 34.207080 -0.110367 2.826458 0.086885 -0.019674 -136790.000000 0 0 1
-11.057073 1.661967 33.766485 35.569601 -0.149191 0.319771 0.086483 -0.015047 273145.000000 0 0 1
-12.444373 1.467867 33.555580 35.818906 -0.117412 0.357393 0.050165 -0.004362 79947.100000 0 0 1
-12.753873 1.951267 32.272635 34.756175 -0.151817 0.380325 0.053606 0.001087 2097410.000000 0 0 1
-14.259373 1.667367 31.729194 34.826019 -0.116403 0.424907 0.051316 0.000580 1703420.000000 0 0 1
-15.218473 2.556267 32.185630 35.693854 -0.166418 0.447080 0.050472 0.005601 349947.000000 0 0 1
-16.514573 2.083267 31.759296 35.856994 -0.125484 0.482751 0.040756 0.017243 759911.000000 0 0 1
-17.459473 3.191267 31.257635 35.945196 -0.180786 0.516422 0.045656 0.013956 -339774.000000 0 0 1
-17.945173 4.050267 32.291334 37.164017 -0.221983 0.517847 0.039911 0.006171 546463.000000 0 0 1
-17.080373 5.168967 32.522862 37.097088 -0.293864 0.501846 0.046890 0.003179 -255443.000000 0 0 1
-17.541773 6.068867 33.692295 38.467073 -0.333077 0.503553 0.034626 0.002640 -142648.000000 0 0 1
-18.842473 6.621167 33.614755 39.100261 -0.337918 0.536101 0.037167 -0.001574 -488446.000000 0 0 1
-19.657373 5.829367 -33.250606 39.064007 -0.288287 2.589031 0.023336 0.002469 178533.000000 0 0 1
-21.175273 6.248467 -33.267206 39.926714 -0.286940 2.555678 0.026082 0.002772 828847.000000 0 0 1
-21.415973 7.552767 -32.780466 39.877903 -0.339051 2.535747 0.035801 -0.009460 -16909.700000 0 0 1
-21.199273 8.612467 -33.670816 40.710043 -0.385893 2.544704 0.031262 -0.005291 -451523.000000 0 0 1
-21.346873 10.031167 -33.077616 40.625632 -0.439289 2.522156 0.042487 -0.007729 -478214.000000 0 0 1
-20.392073 10.382867 -32.086036 39.410078 -0.470950 2.522074 0.039890 -0.003202 155223.000000 0 0 1
-20.278273 11.795467 -31.792686 39.510964 -0.526840 2.505890 0.057744 -0.012712 384838.000000 0 0 1
-19.406273 12.532167 -32.871346 40.176909 -0.573402 2.529009 0.056206 -0.022600 22058.700000 0 0 1
-20.137773 12.607167 33.590238 41.143343 -0.559351 0.615613 0.074935 -0.026805 72631.800000 0 0 1
-19.366773 12.950267 32.509280 39.995432 -0.589398 0.621811 0.068949 -0.026322 -211463.000000 0 0 1
-20.081273 12.471267 31.196755 39.141124 -0.555746 0.648430 0.068109 -0.023975 -66594.200000 0 0 1
-20.249073 11.096567 31.004385 38.657867 -0.501309 0.640127 0.057075 -0.010048 560651.000000 0 0 1
-19.027973 10.418367 30.717565 37.605517 -0.500944 0.614890 0.058900 -0.012095 349411.000000 0 0 1
-19.203873 8.913267 30.759845 37.341708 -0.434550 0.602821 0.072035 -0.007971 -236061.000000 0 0 1
-19.837173 8.371767 29.662735 36.653482 -0.399347 0.627880 0.065841 -0.020321 -87413.200000 0 0 1
-19.749073 6.983867 29.662705 36.313584 -0.339905 0.614869 0.052528 -0.013291 -181144.000000 0 0 1
-20.363373 6.283367 28.473135 35.564970 -0.299293 0.642509 0.043410 -0.013666 -1030530.000000 0 0 1
-21.675373 6.579267 28.173175 36.150192 -0.294698 0.677190 0.057561 -0.021271 -961463.000000 0 0 1
-22.210473 5.549567 27.336685 35.656657 -0.244849 0.697167 0.055407 -0.020730 828360.000000 0 0 1
-23.761273 5.623767 27.087355 36.468475 -0.232401 0.733612 0.066438 -0.019921 637758.000000 0 0 1
-24.174673 6.495467 26.050635 36.128126 -0.262489 0.765462 0.072362 -0.023338 -187880.000000 0 0 1
-25.570703 6.416867 26.009925 37.034487 -0.245869 0.792150 0.078862 -0.024854 -455044.000000 0 0 1
-26.295633 7.153867 24.807555 36.851770 -0.265627 0.832307 0.074610 -0.019531 51873.600000 0 0 1
-26.239473 6.448967 23.564875 35.852510 -0.240997 0.853602 0.072935 -0.018725 683783.000000 0 0 1
-26.944023 5.180667 23.474805 36.109364 -0.189957 0.863076 0.069299 -0.018387 2613.000000 0 0 1
-26.893353 4.630467 22.064085 35.092984 -0.170507 0.890875 0.083395 -0.021816 370012.000000 0 0 1
-27.674603 5.388167 21.087985 35.208225 -0.192292 0.928606 0.081448 -0.014784 556885.000000 0 0 1
-27.670313 4.785767 19.812685 34.367023 -0.171262 0.956354 0.099130 -0.024526 114386.000000 0 0 1
-28.693433 5.513867 18.878385 34.786625 -0.189850 0.997159 0.123163 -0.026539 1308560.000000 0 0 1
-30.104793 5.300667 19.133585 36.062303 -0.174287 1.011523 0.136029 -0.023916 770531.000000 0 0 1
-30.759293 6.083467 18.202985 36.255915 -0.195257 1.044806 0.149501 -0.022212 203334.000000 0 0 1
-32.307413 6.150667 18.433385 37.701317 -0.188128 1.059931 0.154131 -0.014768 717013.000000 0 0 1
-32.721583 7.009867 19.478485 38.720171 -0.211038 1.043663 0.158152 -0.027390 -280213.000000 0 0 1
-34.091329 6.897267 19.744285 39.995347 -0.199623 1.054498 0.166001 -0.019495 -25305.200000 0 0 1
-34.678018 7.893167 20.829285 41.215606 -0.223800 1.040981 0.169933 -0.019401 232362.000000 0 0 1
-34.286109 7.519867 22.164585 41.513305 -0.215908 1.007572 0.139121 -0.025042 249109.000000 0 0 1
-34.731288 8.392867 23.212645 42.609031 -0.237106 0.994667 0.161644 -0.021943 46379.000000 0 0 1
0.163227 32.446067 12.289524 34.695912 1.565766 1.208731 0.103761 -0.035862 -56609.900000 0 0 1
-0.334973 32.695467 13.555724 35.395811 -1.560551 1.177781 0.102171 -0.040869 -166278.000000 0 0 1
-0.166673 -33.583270 13.917324 36.353208 1.565833 1.177932 0.101566 -0.041639 -29102.500000 0 0 1
-0.299273 -33.430070 15.440524 36.824842 1.561844 1.138126 0.104477 -0.043103 292573.000000 0 0 1
-1.620273 -33.585070 15.934924 37.208924 1.522590 1.128235 0.093189 -0.039171 -29876.600000 0 0 1
-1.696373 -33.259870 17.303924 37.530287 1.519837 1.091601 0.082354 -0.037877 -537735.000000 0 0 1
-3.123573 -32.995270 17.751324 37.597262 1.476410 1.079075 0.091169 -0.030789 -417913.000000 0 0 1
-3.924673 33.476267 17.908724 38.167865 -1.454092 1.082401 0.086788 -0.028341 499847.000000 0 0 1
-4.920173 33.763567 18.900224 39.005192 -1.426091 1.064940 0.079914 -0.026066 211223.000000 0 0 1
-5.872873 32.662967 19.392324 38.437251 -1.392895 1.041972 0.066127 -0.033270 476779.000000 0 0 1
-6.885973 32.314967 18.443124 37.839431 -1.360847 1.061681 0.067213 -0.036631 -517906.000000 0 0 1
-7.996373 31.731567 19.014924 37.847083 -1.323936 1.044407 0.055790 -0.050269 -508423.000000 0 0 1
-9.111373 31.603667 17.953024 37.471589 -1.290107 1.071156 0.049887 -0.047806 -267359.000000 0 0 1
-9.770373 32.784567 17.539224 38.443626 -1.281159 1.097040 0.047849 -0.042150 -318325.000000 0 0 1
-10.732673 32.510967 16.540724 38.023004 -1.251936 1.120737 0.049492 -0.039369 3230.400000 0 0 1
-11.698573 33.697167 16.327724 39.229456 -1.236647 1.141522 0.068405 -0.045671 -341214.000000 0 0 1
-12.674673 33.791867 17.323524 40.033013 -1.211955 1.123276 0.058634 -0.038539 -89006.500000 0 0 1
-13.611773 -32.817670 17.064224 39.414053 1.177623 1.123036 0.043309 -0.037005 -127666.000000 0 0 1
-14.936973 -32.895870 17.811724 40.280379 1.144564 1.112753 0.067041 -0.041321 -331734.000000 0 0 1
-14.859073 -32.317070 19.084424 40.365831 1.139831 1.078346 0.056304 -0.030086 129465.000000 0 0 1
-15.829273 -32.825870 20.000424 41.570670 1.121474 1.068866 0.060271 -0.041962 161111.000000 0 0 1
-15.759273 -32.276470 21.440324 41.830763 1.116586 1.032645 0.062526 -0.041042 -155333.000000 0 0 1
-16.331973 -30.991570 21.558224 41.133536 1.085798 1.019134 0.069479 -0.039355 -85883.500000 0 0 1
-16.301073 -30.558170 22.920724 41.531751 1.080753 0.986174 0.068214 -0.042930 236583.000000 0 0 1
-16.413773 -29.023470 22.935724 40.470004 1.056105 0.968260 0.082123 -0.050025 7546.730000 0 0 1
-16.303473 -28.527970 24.234624 40.828487 1.051603 0.935307 0.087626 -0.049028 -238865.000000 0 0 1
-16.305773 -27.121870 24.339324 39.923386 1.029492 0.915176 0.090927 -0.048377 391652.000000 0 0 1
-17.609173 -26.330770 23.991024 39.736151 0.981340 0.922589 0.110075 -0.041279 157290.000000 0 0 1
-18.684173 -26.639970 24.825224 40.927718 0.959159 0.919066 0.099317 -0.028457 -120199.000000 0 0 1
-19.897673 -26.041270 24.396924 40.856763 0.918343 0.930874 0.104513 -0.021885 -132614.000000 0 0 1
-20.953073 -25.907070 25.534624 41.978859 0.890726 0.916913 0.083995 -0.015179 115617.000000 0 0 1
-21.696273 -27.086270 25.851824 43.274832 0.895442 0.930557 0.069824 -0.013659 425273.000000 0 0 1
-22.559973 -27.660370 24.884324 43.511815 0.886612 0.961979 0.077432 -0.021480 -177169.000000 0 0 1
-23.905673 -26.967870 24.544924 43.602758 0.845518 0.972880 0.067004 -0.002499 -201408.000000 0 0 1
-23.788873 -25.742470 23.853924 42.398054 0.824819 0.973247 0.071380 -0.005985 -1995.140000 0 0 1
-25.035043 -25.407870 23.292224 42.600950 0.792789 0.992314 0.053180 -0.004648 -356518.000000 0 0 1
-25.226603 -23.919570 22.933424 41.646960 0.758810 0.987638 0.037854 0.007303 -179618.000000 0 0 1
-25.453053 -23.152270 24.037224 41.972297 0.738097 0.961010 0.029118 0.007216 64880.200000 0 0 1
-25.792283 -21.835370 23.664524 41.255726 0.702508 0.959895 0.034271 0.007706 -138232.000000 0 0 1
-26.361093 -21.154770 24.894924 41.978432 0.676263 0.935966 0.035462 0.011512 -56328.300000 0 0 1
-27.592123 -21.702570 25.327524 43.287530 0.666485 0.945793 0.020980 0.016177 238755.000000 0 0 1
-27.991473 -21.014670 26.530924 43.920711 0.643983 0.922205 0.026861 0.003382 -337341.000000 0 0 1
-29.171283 -21.636070 27.346124 45.463104 0.638162 0.925417 0.032105 -0.002396 1984430.000000 0 0 1
-30.541833 -21.611970 26.827424 46.039022 0.615821 0.948736 0.042768 -0.003444 1913850.000000 0 0 1
-30.712433 -22.254970 25.623324 45.772175 0.627062 0.976650 0.038459 -0.004229 90787.600000 0 0 1
-32.254233 -22.603170 25.541624 46.942661 0.611250 0.995477 0.075546 -0.011202 937258.000000 0 0 1
-32.880263 -23.268970 24.481524 47.137052 0.615867 1.024684 0.062163 -0.007961 36252.800000 0 0 1
-32.447613 -24.547170 24.147024 47.312683 0.647659 1.035180 0.055216 -0.006466 -352413.000000 0 0 1
-33.187243 -25.046970 22.844424 47.440611 0.646513 1.068388 0.070171 -0.007599 258520.000000 0 0 1
-34.558628 -25.334070 22.964024 48.615433 0.632581 1.078829 0.088342 -0.013927 -218924.000000 0 0 1
-35.080802 -25.713170 21.709924 48.612248 0.632512 1.107842 0.082746 -0.012553 126892.000000 0 0 1
-36.430773 -26.464070 21.646824 49.961317 0.628239 1.122677 0.089163 -0.011602 -66680.000000 0 0 1
-36.587123 -27.645070 22.414524 51.041928 0.647073 1.116156 0.086721 -0.009742 -383974.000000 0 0 1
-35.633493 -28.641170 22.234724 50.837441 0.677036 1.118125 0.071126 -0.011489 -712953.000000 0 0 1
-35.904667 -29.761970 21.166324 51.214581 0.692126 1.144735 0.072836 -0.011710 -107486.000000 0 0 1
-36.085303 -29.215970 19.869124 50.502516 0.680589 1.166439 0.062114 -0.008860 322954.000000 0 0 1
-36.393833 -30.137670 18.851924 50.874211 0.691641 1.191185 0.071466 -0.005715 -192709.000000 0 0 1
-36.874243 -29.611470 17.492224 50.423476 0.676591 1.216526 0.074627 -0.004307 -843140.000000 0 0 1
-35.809696 -29.411370 16.634924 49.234985 0.687609 1.226146 0.098007 -0.008937 -396217.000000 0 0 1
-36.128973 -28.895370 15.325124 48.735044 0.674609 1.250911 0.104385 -0.019493 89616.100000 0 0 1
-36.954843 -29.821670 14.376224 49.615202 0.678980 1.276826 0.093599 -0.021273 173334.000000 0 0 1
-36.216303 -30.958270 13.976324 49.652520 0.707283 1.285457 0.092888 -0.030593 -83630.900000 0 0 1
-36.740993 -31.753870 12.927724 50.252710 0.712716 1.310617 0.081184 -0.029125 -83241.300000 0 0 1
-36.799083 -31.140570 11.498924 49.559388 0.702303 1.336639 0.078629 -0.030936 40380.500000 0 0 1
37.331726 -30.297270 11.244624 49.376350 -0.681755 1.341047 0.073649 -0.032968 89230.500000 0 0 1
37.574756 -29.559870 10.018524 48.846894 -0.666575 1.364230 0.047244 -0.024609 660732.000000 0 0 1
36.393756 -28.528070 9.869824 47.283926 -0.664830 1.360515 0.084236 -0.022260 651790.000000 0 0 1
36.607566 -27.516270 8.921124 46.656677 -0.644560 1.378404 0.093006 -0.059086 -641874.000000 0 0 1
35.576616 -26.623470 9.001924 45.338057 -0.642439 1.370917 0.083665 -0.051304 -693334.000000 0 0 1
35.619146 -25.550770 7.935924 44.548225 -0.622264 1.391698 0.065179 -0.048626 281144.000000 0 0 1
36.229876 -24.302370 8.269124 44.402562 -0.590847 1.383472 0.073682 -0.054239 171715.000000 0 0 1
35.896866 -23.337270 7.264124 43.427879 -0.576460 1.402738 0.072520 -0.051220 -138148.000000 0 0 1
36.273846 -21.910170 7.578024 43.049668 -0.543371 1.393845 0.081291 -0.055498 -364520.000000 0 0 1
35.500586 -21.239870 8.529124 42.239433 -0.539166 1.367475 0.063706 -0.049076 -473274.000000 0 0 1
35.581746 -19.815270 8.436924 41.591914 -0.508121 1.366529 0.088934 -0.043559 -51772.000000 0 0 1
34.889836 -19.117270 9.636324 40.934453 -0.501254 1.333157 0.089038 -0.032280 -59005.800000 0 0 1
35.452096 -19.325770 10.891324 41.820539 -0.499092 1.307329 0.073685 -0.046801 -242533.000000 0 0 1
34.910236 -18.447570 11.820024 41.215900 -0.486131 1.279929 0.072973 -0.032497 -217690.000000 0 0 1
35.670796 -18.536170 13.151124 42.295950 -0.479240 1.254624 0.056856 -0.049058 53085.400000 0 0 1
36.947246 -17.920570 13.165724 43.122872 -0.451601 1.260535 0.033804 -0.041590 106164.000000 0 0 1
37.555066 -18.192470 14.370024 44.134415 -0.451107 1.239153 0.025734 -0.021578 -837660.000000 0 0 1
-36.367543 -17.476970 14.696824 42.942279 0.447979 1.221490 0.057828 -0.036713 -261798.000000 0 0 1
-35.234308 -17.918170 13.950824 41.918287 0.470459 1.231514 0.052312 -0.034935 416018.000000 0 0 1
-34.111813 -17.163570 14.394024 40.809213 0.466169 1.210325 0.050424 -0.030416 55055.200000 0 0 1
-32.928453 -17.297270 13.397224 39.534342 0.483681 1.225075 0.099574 -0.029824 -314064.000000 0 0 1
-32.392183 -18.578070 13.326324 39.648318 0.520733 1.228009 0.103210 -0.034105 39409.100000 0 0 1
-31.321073 -18.549170 12.404124 38.457036 0.534684 1.242379 0.087086 -0.024189 -192306.000000 0 0 1
-30.732733 -19.952770 12.079524 38.581457 0.575837 1.252350 0.094332 -0.025362 184674.000000 0 0 1
-31.417513 -20.768870 11.152724 39.278357 0.584111 1.282895 0.122292 -0.034344 1729.320000 0 0 1
-30.486803 -21.660470 10.531524 38.852724 0.617729 1.296299 0.129735 -0.035384 26299.500000 0 0 1
-31.162373 -22.713770 9.609924 39.741156 0.629850 1.326563 0.147738 -0.046996 500436.000000 0 0 1
-32.052233 -23.631470 10.238324 41.117093 0.635310 1.319145 0.137676 -0.044263 390336.000000 0 0 1
-33.357853 -23.116970 10.487424 41.918096 0.606012 1.317921 0.119727 -0.052222 33616.300000 0 0 1
-34.398778 -24.265170 10.642324 43.420427 0.614346 1.323174 0.134736 -0.046829 14155.800000 0 0 1
-34.595815 -24.919470 9.393624 43.658797 0.624223 1.353941 0.106048 -0.037600 -276522.000000 0 0 1
-35.208028 -26.162170 9.625424 44.907830 0.639054 1.354783 0.107525 -0.030266 23941.900000 0 0 1
-35.189947 -27.178470 8.445324 45.258426 0.657644 1.383094 0.087534 -0.027536 296998.000000 0 0 1
-33.872743 -27.563670 8.084324 44.412554 0.683064 1.387748 0.092979 -0.028918 96750.300000 0 0 1
-33.961103 -28.352270 6.898124 44.774902 0.695630 1.416118 0.075285 -0.022369 -167023.000000 0 0 1
-32.703853 -28.413770 6.028724 43.740483 0.715319 1.432527 0.099291 -0.020311 -15517.100000 0 0 1
-32.220493 -27.288970 5.287824 42.553603 0.702718 1.446212 0.114920 -0.015079 680047.000000 0 0 1
-30.950973 -27.526770 4.657624 41.681882 0.726909 1.458820 0.108430 -0.018809 1032270.000000 0 0 1
-30.273203 -26.182070 4.184624 40.242747 0.713058 1.466623 0.118514 -0.012407 358925.000000 0 0 1
-30.773103 -25.757870 2.945124 40.238359 0.696913 1.497539 0.103360 -0.011668 59491.600000 0 0 1
-29.884343 -24.785370 2.456624 38.902745 0.692399 1.507606 0.123903 -0.025127 51801.700000 0 0 1
-30.168673 -24.257170 1.060924 38.725763 0.677207 1.543397 0.123727 -0.019658 -147086.000000 0 0 1
-29.573483 -25.006170 0.003224 38.728536 0.701911 1.570713 0.116208 -0.022149 -165248.000000 0 0 1
-29.810243 -24.529970 -1.307476 38.627445 0.688532 1.604651 0.111668 -0.033609 741500.000000 0 0 1
-31.233163 -24.330470 -1.962776 39.640065 0.661801 1.620332 0.104975 -0.024566 636731.000000 0 0 1
-31.964113 -23.239970 -1.490876 39.547736 0.628660 1.608503 0.110282 -0.014194 -291135.000000 0 0 1
-33.226113 -23.238570 -2.148776 40.603239 0.610328 1.623742 0.102391 -0.015221 200144.000000 0 0 1
-33.980503 -21.909870 -2.006276 40.481380 0.572695 1.620377 0.089707 -0.014546 -253278.000000 0 0 1
-34.384820 -21.694470 -0.689476 40.662529 0.562853 1.587753 0.085270 -0.022688 -465864.000000 0 0 1
-35.171364 -20.571270 -0.542776 40.749192 0.529233 1.584117 0.088779 -0.015915 -592330.000000 0 0 1
-35.403330 -20.168870 0.912324 40.755508 0.517833 1.548409 0.086376 -0.027489 -108099.000000 0 0 1
-36.303063 -20.977670 1.669424 41.961435 0.523972 1.531001 0.080381 -0.035531 389725.000000 0 0 1
-36.458393 -20.561970 3.023324 41.966052 0.513516 1.498692 0.092491 -0.034730 -748756.000000 0 0 1
-37.450053 -21.505170 3.705524 43.344085 0.521260 1.485201 0.086463 -0.026347 -518765.000000 0 0 1
36.402456 -21.458470 3.471624 42.398785 -0.532647 1.488824 0.074948 -0.020222 -23200.400000 0 0 1
35.721316 -20.276970 3.995624 41.269031 -0.516288 1.473825 0.089141 -0.028394 1257780.000000 0 0 1
34.384136 -19.851570 3.225024 39.834086 -0.523596 1.489746 0.081074 -0.011291 702506.000000 0 0 1
33.322346 -20.713770 3.309324 39.375000 -0.556164 1.486651 0.067147 -0.012486 -1568900.000000 0 0 1
32.211286 -20.231970 2.649224 38.130276 -0.560827 1.501262 0.112046 -0.019658 -906845.000000 0 0 1
30.982556 -21.071670 2.916024 37.582406 -0.597255 1.493128 0.110058 -0.006077 -535967.000000 0 0 1
30.814956 -22.190370 2.013424 38.026674 -0.624100 1.517824 0.098275 -0.007050 -840068.000000 0 0 1
29.730826 -22.963770 2.356624 37.640543 -0.657677 1.508147 0.106805 -0.003824 -626756.000000 0 0 1
29.351326 -24.078470 1.332124 37.987467 -0.687029 1.535722 0.096992 -0.001231 53847.400000 0 0 1
28.750726 -23.534570 0.159124 37.155155 -0.685964 1.566514 0.099951 -0.006728 205534.000000 0 0 1
28.319726 -24.555970 -0.732776 37.490526 -0.714337 1.590343 0.087207 -0.013868 153162.000000 0 0 1
27.412326 -24.034870 -1.883376 36.505585 -0.719843 1.622411 0.100110 -0.015636 281631.000000 0 0 1
28.123626 -23.730870 -3.118076 36.929865 -0.700887 1.655329 0.082094 -0.039840 350496.000000 0 0 1
28.318126 -24.854970 -4.002176 37.890675 -0.720360 1.676618 0.077692 -0.038804 -644581.000000 0 0 1
27.037126 -25.500270 -4.604776 37.449619 -0.756154 1.694068 0.081928 -0.036705 336231.000000 0 0 1
26.387426 -24.705270 -5.587376 36.576842 -0.752486 1.724154 0.082635 -0.048968 421957.000000 0 0 1
25.698626 -23.543970 -5.105476 35.225045 -0.741670 1.716247 0.103692 -0.050653 -577990.000000 0 0 1
24.981226 -22.700370 -6.194976 34.318307 -0.737599 1.752307 0.105001 -0.057161 -404432.000000 0 0 1
23.953526 -23.361870 -6.900876 34.163877 -0.772894 1.774189 0.079236 -0.050441 173511.000000 0 0 1
22.859626 -22.585370 -7.339776 32.962612 -0.779363 1.795348 0.082632 -0.046515 5386.790000 0 0 1
23.075526 -21.284370 -8.052076 32.408953 -0.745042 1.821878 0.078258 -0.041104 -902747.000000 0 0 1
23.644826 -21.262970 -9.368676 33.150623 -0.732409 1.857310 0.080278 -0.037915 384777.000000 0 0 1
23.608126 -19.956570 -9.871276 32.450738 -0.701774 1.879887 0.075426 -0.033042 -176594.000000 0 0 1
24.253026 -19.774270 -11.258976 33.256512 -0.684020 1.916171 0.070209 -0.034292 -990982.000000 0 0 1
25.607526 -20.032670 -11.312076 34.424066 -0.663852 1.905627 0.101942 -0.038286 -760674.000000 0 0 1
26.135626 -19.626270 -12.590876 35.025585 -0.644102 1.938503 0.094345 -0.042222 915158.000000 0 0 1
27.703726 -19.747470 -12.630776 36.290433 -0.619271 1.926283 0.087568 -0.029752 720114.000000 0 0 1
28.058526 -21.114270 -12.767776 37.364547 -0.645104 1.919530 0.057769 -0.024502 -115117.000000 0 0 1
28.896826 -21.626370 -11.768176 37.963356 -0.642476 1.885976 0.087465 -0.032245 -204042.000000 0 0 1
29.302826 -23.109270 -12.035876 39.211686 -0.667773 1.882779 0.072241 -0.021248 -161796.000000 0 0 1
30.307246 -23.187470 -13.032376 40.324072 -0.653083 1.899896 0.056882 -0.025192 298024.000000 0 0 1
30.577666 -24.561370 -13.388176 41.442705 -0.676717 1.899750 0.050716 -0.019403 -79156.900000 0 0 1
-3.069073 -8.746733 -27.349936 28.878081 1.233336 2.814819 0.039839 -0.026094 -196361.000000 0 0 1
-3.482273 -7.470333 -26.970486 28.201759 1.134596 2.845009 0.062069 -0.020635 -149145.000000 0 0 1
-4.782073 -7.186733 -27.460326 28.785185 0.983669 2.837017 0.057865 -0.022212 168257.000000 0 0 1
-5.167273 -5.757033 -26.994846 28.081415 0.839332 2.862503 0.056638 -0.019421 -175324.000000 0 0 1
-5.445473 -5.659733 -25.622986 26.799686 0.804689 2.844162 0.041493 -0.021524 127723.000000 0 0 1
-5.205373 -4.383833 -25.110746 26.016600 0.699933 2.876933 0.044509 -0.018593 37196.100000 0 0 1
-5.560973 -4.247533 -23.586476 24.602597 0.652282 2.853187 0.034708 -0.020548 -77299.900000 0 1 0
-4.754373 -5.095533 -22.807076 23.848087 0.820020 2.845035 0.020745 -0.027139 354368.000000 0 1 0
-5.184873 -4.942533 -21.484176 22.646884 0.761474 2.819766 0.012995 -0.023131 -195669.000000 0 1 0
-4.619273 -5.962133 -20.518276 21.860566 0.911631 2.789339 0.017499 -0.024666 -503423.000000 0 1 0
-5.241073 -7.242933 -20.604276 22.460301 0.944399 2.732204 0.024898 -0.026738 364909.000000 0 1 0
-4.470073 -8.192833 -19.940576 22.016599 1.071332 2.703840 0.029950 -0.031802 -819094.000000 0 1 0
-5.136373 -9.635533 -20.066576 22.844984 1.081047 2.643258 0.047627 -0.026888 956045.000000 0 1 0
-6.267073 -9.964733 -19.247376 22.561773 1.009379 2.592688 0.047592 -0.020255 212322.000000 0 1 0
-7.398273 -9.181033 -19.453476 22.747825 0.892516 2.596694 0.044616 -0.024965 -1287880.000000 0 1 0
-8.525173 -9.403433 -18.426876 22.375274 0.834346 2.538415 0.039186 -0.016650 120052.000000 0 1 0
-9.306073 -10.605033 -18.600176 23.346012 0.850544 2.492640 0.068405 -0.016974 123304.000000 0 1 0
-10.011873 -10.819933 -17.422876 22.822470 0.824168 2.439371 0.064077 -0.017566 -196458.000000 0 1 0
-10.816973 -12.197333 -17.381176 23.830382 0.845305 2.388198 0.057808 -0.011900 190521.000000 0 1 0
-11.980973 -12.225733 -18.184776 24.973953 0.795509 2.386415 0.076467 -0.032309 -134740.000000 0 1 0
-11.815973 -12.071533 -19.589776 25.866937 0.796096 2.430009 0.080659 -0.033953 -2041690.000000 0 0 1
-13.061073 -11.735133 -20.371676 26.894426 0.731976 2.430223 0.078339 -0.033386 -335984.000000 0 0 1
-14.069673 -12.726633 -20.424676 27.876339 0.735320 2.393060 0.076505 -0.025238 230883.000000 0 0 1
-14.832873 -12.983733 -19.248976 27.552033 0.719020 2.344292 0.070715 -0.019965 -396705.000000 0 0 1
-16.138173 -13.773933 -19.557076 28.855521 0.706523 2.315506 0.069227 -0.011397 236184.000000 0 0 1
-15.957773 -15.099233 -19.827276 29.593213 0.757761 2.304997 0.080673 -0.011756 -295281.000000 0 0 1
-17.009073 -15.609133 -20.609676 30.946928 0.742506 2.299588 0.073837 -0.011567 -266117.000000 0 0 1
-16.792973 -17.008833 -21.031476 31.837514 0.791784 2.292398 0.053654 -0.001944 -31085.400000 0 0 1
-16.820673 -17.958733 -19.991976 31.703789 0.818109 2.253105 0.078717 0.002206 8649.640000 0 0 1
-16.543673 -19.212933 -20.527676 32.622314 0.859911 2.251387 0.065439 0.003173 -376326.000000 0 0 1
-17.125973 -20.407233 -19.755176 33.166566 0.872599 2.208853 0.080983 -0.006811 -8090.940000 0 0 1
-16.778073 -21.640233 -20.384076 34.136695 0.911287 2.210716 0.076137 -0.007326 145609.000000 0 0 1
-17.572873 -22.696333 -19.893676 34.924028 0.911948 2.176849 0.095209 -0.007415 144703.000000 0 0 1
-17.035273 -24.116433 -20.267476 35.813035 0.955804 2.172351 0.104780 -0.011495 64970.700000 0 0 1
-17.314673 -24.548633 -21.605476 37.003106 0.956508 2.194300 0.060535 -0.004060 355074.000000 0 0 1
-16.602273 -25.780773 -21.872276 37.665371 0.998666 2.190384 0.064408 -0.002557 207011.000000 0 0 1
-17.033373 -26.529903 -23.138676 39.107159 1.000034 2.203930 0.061437 -0.001477 -714900.000000 0 0 1
-18.297473 -27.098393 -23.191876 40.087199 0.976893 2.187729 0.093116 -0.011770 -783015.000000 0 0 1
-18.221973 -28.513033 -23.222476 41.040428 1.002139 2.172253 0.105940 -0.005803 -111687.000000 0 0 1
-18.993673 -29.172223 -24.387076 42.503031 0.993657 2.181901 0.121090 -0.014322 -303914.000000 0 0 1
-18.522073 -28.843303 -25.703876 42.844983 0.999951 2.214207 0.119297 -0.014244 228250.000000 0 0 1
-18.946573 -27.614693 -26.318236 42.593350 0.969457 2.236860 0.130349 -0.021155 343219.000000 0 0 1
-17.887573 -27.162973 -27.383306 42.516324 0.988450 2.270598 0.131315 -0.022954 245404.000000 0 0 1
-17.912773 -27.925263 -28.576886 43.787283 1.000452 2.281846 0.142555 -0.021875 -376206.000000 0 0 1
-16.970873 -27.484393 -29.478106 43.730551 1.017628 2.310522 0.103589 -0.013654 -557524.000000 0 0 1
-17.247773 -27.892933 -30.966406 45.104542 1.016989 2.327526 0.116147 -0.007076 -16774.300000 0 0 1
-17.004573 -29.240103 -31.281426 46.072408 1.044054 2.317145 0.105994 -0.008755 20261.500000 0 0 1
-17.418473 -29.469583 -32.575836 47.255101 1.036972 2.331403 0.112380 -0.002200 32148.700000 0 0 1
-17.322973 -30.903583 -33.125316 48.501581 1.059890 2.322623 0.096789 -0.003452 6407.210000 0 0 1
-16.017773 -31.172683 -33.574746 48.534202 1.096138 2.334741 0.094781 -0.002388 -106310.000000 0 0 1
-16.086673 -32.383203 33.372098 49.205181 1.109744 0.825454 0.081640 -0.001391 522535.000000 0 0 1
-14.739373 -32.821413 32.707991 48.624140 1.148709 0.832985 0.060528 -0.001935 291972.000000 0 0 1
-13.832773 -33.420053 33.595803 49.365206 1.178359 0.822275 0.072818 -0.008235 -497218.000000 0 0 1
-12.746073 33.764484 32.830784 48.788966 -1.209836 0.832655 0.074050 -0.007783 -5640.570000 0 0 1
-11.758673 32.927016 33.715645 48.571592 -1.227799 0.803567 0.075079 -0.013882 63693.200000 0 0 1
-11.008373 33.686404 -33.064826 48.468968 -1.254946 2.321544 0.084006 -0.013127 -491874.000000 0 0 1
-10.373773 32.867288 -32.148786 47.131924 -1.265066 2.321430 0.079836 -0.023102 194663.000000 0 0 1
-9.538973 33.775334 -31.150846 46.926969 -1.295541 2.296705 0.069232 -0.022446 215782.000000 0 0 1
-10.410273 -33.062153 -30.395046 46.101394 1.265754 2.290695 0.081694 -0.022856 -28563.500000 0 0 1
-9.803673 -31.912723 -29.838306 44.775645 1.272745 2.300161 0.077216 -0.026825 -34094.300000 0 0 1
-10.761473 -31.105273 -28.893576 43.797101 1.237717 2.291235 0.089794 -0.022376 404745.000000 0 0 1
-10.718973 -31.474643 -27.516176 43.158886 1.242557 2.262117 0.115624 -0.032886 -3429.040000 0 0 1
-11.199973 -32.792663 -27.270586 44.096292 1.241679 2.237543 0.107955 -0.029046 -194941.000000 0 0 1
-11.707673 -33.076933 -25.857716 43.586404 1.230604 2.205889 0.122494 -0.034335 -308838.000000 0 0 1
-10.701873 -32.947223 -24.900776 42.662609 1.256728 2.194034 0.126616 -0.053770 -652881.000000 0 0 1
-11.103973 -33.173153 -23.604076 42.200814 1.247791 2.164371 0.135083 -0.063194 -111100.000000 0 0 1
-9.930973 -33.141293 -22.611376 41.330907 1.279656 2.149670 0.131736 -0.070491 332514.000000 0 0 1
-9.042673 33.401287 -22.648076 41.356393 -1.306406 2.150328 0.103768 -0.058162 465546.000000 0 0 1
-8.212273 33.221959 -21.479276 40.404199 -1.328460 2.131297 0.120486 -0.056790 672273.000000 0 0 1
-7.354573 31.911178 -21.411476 39.126262 -1.344281 2.149860 0.117907 -0.055602 116984.000000 0 0 1
-6.250373 31.944229 -22.308676 39.461094 -1.377572 2.171634 0.093656 -0.061763 97208.300000 0 0 1
-5.524773 30.755094 -22.111576 38.279508 -1.393054 2.186625 0.078120 -0.052924 -1114030.000000 0 0 1
-4.090773 30.742584 -22.558776 38.350219 -1.438508 2.199666 0.091163 -0.062604 -1001420.000000 0 0 1
-3.978873 30.716794 -23.967576 39.163728 -1.441979 2.229363 0.115007 -0.059998 375125.000000 0 0 1
-2.682973 30.283014 -24.377476 38.968200 -1.482430 2.246663 0.103544 -0.064677 200522.000000 0 0 1
-2.342473 30.669124 -25.855326 40.181840 -1.494565 2.269803 0.106936 -0.035270 323495.000000 0 0 1
-1.388073 31.754166 -25.968446 41.044050 -1.527111 2.255827 0.111920 -0.057424 555390.000000 0 0 1
-1.926973 33.041413 -25.712816 41.911778 -1.512542 2.231280 0.109418 -0.047786 -106064.000000 0 0 1
-1.214973 -33.390953 -26.452476 42.616492 1.534426 2.240444 0.052243 -0.029188 -232350.000000 0 0 1
0.090627 -33.189533 -25.983016 42.150569 -1.568066 2.235001 0.093900 -0.041397 -323558.000000 0 0 1
0.655727 -32.119473 -26.775186 41.821060 -1.550384 2.265597 0.070050 -0.026345 1021050.000000 0 0 1
2.056727 -31.655933 -26.209326 41.149204 -1.505916 2.261311 0.084350 -0.025066 508223.000000 0 0 1
2.015127 -30.881433 -25.040676 39.809033 -1.505635 2.251088 0.067007 -0.017054 -190530.000000 0 0 1
3.288627 -30.551533 -24.570176 39.343421 -1.463567 2.245294 0.058431 -0.015505 -580165.000000 0 0 1
3.254927 -29.871653 -23.217876 37.973411 -1.462261 2.228656 0.064198 -0.011714 -176185.000000 0 0 1
3.120627 -30.707793 -22.072476 37.946028 -1.469521 2.191590 0.072192 -0.015961 593179.000000 0 0 1
3.404327 -29.936043 -20.896076 36.666089 -1.457563 2.177183 0.067685 -0.005302 -395448.000000 0 0 1
3.610427 -30.756303 -19.577676 36.637013 -1.453943 2.134557 0.062495 -0.002907 -1100310.000000 0 0 1
2.459227 -31.273873 -18.983476 36.667087 -1.492323 2.114986 0.062680 -0.005412 -350033.000000 0 0 1
1.986027 -32.451723 -19.531676 37.928156 -1.509673 2.111763 0.062131 -0.010867 -466420.000000 0 0 1
2.379027 -33.797213 -18.812376 38.753282 -1.500521 2.077662 0.044893 -0.015477 44189.700000 0 0 1
3.722527 33.424984 -18.884676 38.570945 1.459884 2.082437 0.052603 -0.006958 -46014.900000 0 0 1
4.127827 32.431984 -17.983476 37.313241 1.444201 2.073686 0.060666 -0.032813 1224070.000000 0 0 1
5.449627 31.662684 -18.432676 37.040350 1.400351 2.091670 0.075510 -0.031670 2368140.000000 0 0 1
6.655127 32.499938 -18.511376 37.989574 1.368815 2.079763 0.089153 -0.036363 840544.000000 0 0 1
7.615927 31.815290 -19.262976 37.964158 1.335838 2.102960 0.092702 -0.051390 357071.000000 0 0 1
8.974927 32.528714 -19.591476 39.019130 1.301586 2.096821 0.101239 -0.053100 484325.000000 0 0 1
9.686427 32.618705 -18.381476 38.674093 1.282132 2.066092 0.102918 -0.043842 61172.500000 0 0 1
10.917627 33.303202 -18.603376 39.678501 1.254011 2.058788 0.110948 -0.037394 451136.000000 0 0 1
11.780827 33.478181 -17.319276 39.490934 1.232434 2.024796 0.106758 -0.037615 262443.000000 0 0 1
12.542727 32.315858 -16.958076 38.590297 1.200565 2.025770 0.103517 -0.043523 -287121.000000 0 0 1
13.338327 32.643706 -15.869576 38.669962 1.182895 1.993673 0.099305 -0.043128 699004.000000 0 0 1
14.637827 31.731493 -15.785076 38.344782 1.138583 1.995073 0.100541 -0.045323 1053990.000000 0 0 1
14.424327 30.428634 -15.224776 36.956147 1.128133 1.995410 0.107756 -0.046234 -284235.000000 0 0 1
15.636827 29.696924 -15.236576 36.858797 1.086137 1.996956 0.105452 -0.042961 199825.000000 0 0 1
15.552427 28.338154 -14.550476 35.449194 1.068863 1.993755 0.112932 -0.043874 -275332.000000 0 0 1
15.527827 28.243714 -13.112376 34.795908 1.068122 1.957175 0.111349 -0.049215 -503829.000000 0 0 1
14.304527 28.490014 -12.473076 34.232704 1.105479 1.943743 0.115997 -0.051664 -235041.000000 0 0 1
13.488427 27.292764 -12.051276 32.742417 1.111789 1.947721 0.114527 -0.044761 -275843.000000 0 0 1
12.773327 26.528774 -13.013876 32.191532 1.122066 1.986970 0.097486 -0.044061 431116.000000 0 0 1
12.196727 25.247684 -12.550476 30.720029 1.120774 1.991654 0.112448 -0.039851 1079570.000000 0 0 1
11.070527 25.285384 -11.446676 29.881995 1.158115 1.963906 0.118840 -0.042512 117293.000000 0 0 1
9.881927 25.932194 -11.819976 30.163604 1.206716 1.973451 0.095205 -0.044371 -575207.000000 0 0 1
9.029727 26.082694 -10.750476 29.621203 1.237514 1.942209 0.066681 -0.032424 -615014.000000 0 0 1
8.063627 27.260774 -10.841876 30.425617 1.283201 1.935145 0.080890 -0.040639 -167146.000000 0 0 1
8.716827 28.463044 -11.157276 31.790136 1.273615 1.929399 0.081879 -0.036006 -837872.000000 0 0 1
7.820427 29.502244 -11.131376 32.487675 1.311677 1.920515 0.064907 -0.028623 -722363.000000 0 0 1
8.314927 30.885914 -11.425276 33.964903 1.307817 1.913872 0.082791 -0.029732 -1190020.000000 0 0 1
9.277927 31.296694 -10.506776 34.292205 1.282599 1.882194 0.076684 -0.026760 -780002.000000 0 0 1
9.797727 32.511191 -10.911576 35.665607 1.278088 1.881723 0.085264 -0.029932 -278976.000000 0 0 1
11.010727 32.399607 -11.837876 36.209197 1.243200 1.903850 0.075148 -0.038891 -941460.000000 0 0 1
12.220727 32.026286 -11.227876 36.070686 1.206266 1.887330 0.074524 -0.026724 -141294.000000 0 0 1
13.306127 32.318476 -12.095776 36.984385 1.180228 1.903977 0.092547 -0.032394 657569.000000 0 0 1
14.738527 32.201346 -11.515176 37.239095 1.141558 1.885172 0.097036 -0.030537 449033.000000 0 0 1
15.007127 33.159947 -10.538476 37.892683 1.145809 1.852626 0.091808 -0.019609 680419.000000 0 0 1
16.425927 33.426380 -10.514876 38.700085 1.114047 1.845957 0.108109 -0.028725 1124230.000000 0 0 1
16.883527 -33.272763 -9.375976 38.471277 -1.101224 1.816989 0.105453 -0.028433 55150.600000 0 0 1
17.014927 33.769814 -8.151076 38.682659 1.104073 1.783104 0.106343 -0.034701 -12920.600000 0 0 1
17.408727 -32.917973 -7.177976 37.923344 -1.084335 1.761221 0.099766 -0.033029 -699926.000000 0 0 1
17.840127 -33.551723 -5.863276 38.449529 -1.082096 1.723886 0.107148 -0.034496 -8977.690000 0 0 1
18.929827 33.210890 -5.898776 38.679415 1.052736 1.723898 0.102440 -0.039735 79932.000000 0 0 1
20.229327 33.773974 -5.957476 39.817063 1.031140 1.720981 0.105633 -0.036369 -285958.000000 0 0 1
21.224827 33.014018 -6.869576 39.844821 0.999426 1.744070 0.073053 -0.032744 89246.600000 0 0 1
21.564327 31.738051 -6.395476 38.900208 0.973998 1.735953 0.073107 -0.020958 -379287.000000 0 0 1
22.662327 31.772517 -5.523676 39.415542 0.951221 1.711399 0.070768 -0.021602 -759735.000000 0 0 1
22.919827 30.412774 -4.917076 38.398346 0.924979 1.699203 0.051513 -0.018315 -192649.000000 0 0 1
23.589327 29.515064 -5.756576 38.219544 0.896525 1.721990 0.047428 -0.020635 -275894.000000 0 0 1
23.947127 28.414044 -5.059876 37.502335 0.870502 1.706131 0.039019 -0.014357 -374232.000000 0 0 1
24.895727 27.537794 -5.869076 37.584217 0.835744 1.727596 0.035221 -0.006438 481098.000000 0 0 1
26.212527 28.093334 -6.120676 38.907514 0.820018 1.728766 0.050348 -0.011688 285713.000000 0 0 1
27.073127 27.124994 -6.529276 38.876098 0.786355 1.739547 0.033558 -0.007102 -352589.000000 0 0 1
27.761427 26.168424 -5.483176 38.542814 0.755868 1.713543 0.034702 0.007656 -756341.000000 0 0 1
28.824927 26.810204 -4.849676 39.663369 0.749201 1.693374 0.061594 -0.003288 -87586.300000 0 0 1
29.576227 25.879074 -4.047176 39.507712 0.718828 1.673416 0.072319 -0.002876 10068.000000 0 0 1
30.925927 26.388564 -3.542776 40.808339 0.706397 1.657721 0.087152 -0.010785 -414745.000000 0 0 1
30.855427 27.405534 -2.553676 41.347817 0.726253 1.632596 0.096702 -0.008824 -317847.000000 0 0 1
32.052027 27.693104 -1.880976 42.400219 0.712569 1.615173 0.122692 -0.023470 -107953.000000 0 0 1
31.944227 28.970924 -1.043476 43.137419 0.736626 1.594988 0.131794 -0.019932 179797.000000 0 0 1
31.774427 30.112854 -1.780876 43.812894 0.758556 1.611455 0.108851 -0.010890 17312.100000 0 0 1
31.004227 31.057254 -1.079276 43.897380 0.786253 1.595385 0.116285 -0.016710 27313.900000 0 0 1
34.352826 22.617967 19.115285 45.355079 0.582259 1.135743 0.139865 -0.037547 -42485.200000 0 0 1
34.771576 22.188567 20.357385 45.998023 0.567981 1.112333 0.129089 -0.043803 -192574.000000 0 0 1
35.756876 23.058767 20.845485 47.379269 0.572765 1.115230 0.135160 -0.037912 -59028.200000 0 0 1
35.747466 22.956667 22.401385 48.028241 0.570865 1.085556 0.106396 -0.029852 356662.000000 0 0 1
34.634116 23.593267 23.027345 47.816554 0.598007 1.068343 0.091830 -0.024159 443517.000000 0 0 1
34.725266 23.671667 24.457615 48.624756 0.598327 1.043745 0.087944 -0.023865 628533.000000 0 0 1
33.421326 24.366667 25.027805 48.343671 0.629974 1.026629 0.100193 -0.032481 841587.000000 0 0 1
33.255256 25.744267 24.814665 48.830799 0.658773 1.037730 0.083713 -0.030800 715769.000000 0 0 1
31.942556 26.145067 25.226375 48.376249 0.685922 1.022233 0.071645 -0.033706 642503.000000 0 0 1
31.760036 27.674667 25.427435 49.205097 0.716769 1.027729 0.070270 -0.025449 -198204.000000 0 0 1
31.673456 28.355267 24.234015 48.933797 0.730178 1.052684 0.069954 -0.030295 248771.000000 0 0 1
31.343626 29.692767 24.522145 49.652985 0.758358 1.054261 0.070994 -0.024894 -242643.000000 0 0 1
31.329696 30.626767 23.298905 49.622452 0.774053 1.082045 0.077949 -0.022546 -837737.000000 0 0 1
32.621726 30.900067 22.891865 50.428451 0.758301 1.099606 0.052159 -0.020356 -877546.000000 0 0 1
32.708066 31.785467 21.760485 50.533674 0.771094 1.125624 0.050645 -0.013025 514589.000000 0 0 1
34.177716 32.204767 21.470385 51.635654 0.755686 1.141968 0.043096 -0.030218 508570.000000 0 0 1
34.760746 33.131467 22.324685 52.956540 0.761405 1.135625 0.042211 -0.009734 -266949.000000 0 0 1
36.166026 33.174567 22.267185 53.892123 0.742283 1.144852 0.052321 -0.009829 66675.000000 0 0 1
36.728926 -33.259970 23.025975 54.639136 -0.735874 1.135787 0.056575 -0.003923 123711.000000 0 0 1
36.151526 -32.030470 22.541685 53.301139 -0.725030 1.134140 0.045768 0.000329 122724.000000 0 0 1
36.465486 -31.027170 23.435545 53.307052 -0.704995 1.115606 0.059341 -0.001885 -1202090.000000 0 0 1
35.527276 -29.818170 23.432415 51.965264 -0.698251 1.102995 0.057019 -0.002812 -169372.000000 0 0 1
34.185416 -30.075570 23.772785 51.364656 -0.721530 1.089618 0.046184 0.000239 -71095.800000 0 0 1
33.459346 -30.495270 22.632265 50.613326 -0.739085 1.107208 0.043200 0.007063 -794106.000000 0 0 1
32.668016 -31.840970 22.765205 50.983343 -0.772578 1.107921 0.033117 0.005131 176699.000000 0 0 1
31.630426 -31.849970 23.725955 50.772290 -0.788857 1.084561 0.032173 -0.002973 77965.600000 0 0 1
31.080746 -33.144570 23.890795 51.335615 -0.817521 1.086727 0.030545 -0.003713 69036.100000 0 0 1
30.009326 -33.269470 24.994505 51.304411 -0.836873 1.061938 0.026798 -0.008117 -9483.410000 0 0 1
29.919026 33.027067 25.396285 51.292364 0.834734 1.052814 0.039391 -0.015850 89200.200000 0 0 1
29.077626 32.900467 26.517925 51.294731 0.847001 1.027487 0.044725 -0.008403 -401837.000000 0 0 1
28.546326 31.461367 26.791345 50.224362 0.833938 1.008142 0.052797 -0.012322 483190.000000 0 0 1
27.806626 30.805167 25.759045 48.843579 0.836513 1.015284 0.053028 -0.007968 557474.000000 0 0 1
26.454526 31.274767 25.692755 48.353600 0.868702 1.010601 0.060015 -0.004178 25690.700000 0 0 1
25.769126 31.029767 24.357245 47.118677 0.877753 1.027531 0.094937 -0.015729 -179036.000000 0 0 1
26.025526 31.920267 23.274105 47.306611 0.886778 1.056429 0.085850 -0.025654 506250.000000 0 0 1
27.371026 32.195767 22.874685 48.051969 0.866219 1.074649 0.069055 -0.018843 279038.000000 0 0 1
27.602526 32.918067 21.535585 48.054969 0.873004 1.106107 0.069708 -0.023705 -618951.000000 0 0 1
28.913526 33.120767 21.122985 48.776610 0.853116 1.122916 0.070222 -0.024848 -603287.000000 0 0 1
28.955326 33.745067 19.865885 48.701066 0.861641 1.150627 0.061568 -0.025077 -44515.800000 0 0 1
30.356906 -33.480370 19.359885 49.165863 -0.834288 1.166070 0.065109 -0.028416 61211.000000 0 0 1
31.196556 33.114567 19.024185 49.312466 0.815213 1.174734 0.072757 -0.037709 -279600.000000 0 0 1
32.279516 33.564067 18.229385 50.008242 0.804905 1.197671 0.065034 -0.028493 280186.000000 0 0 1
33.159696 32.448967 17.544885 49.601652 0.774566 1.209256 0.056484 -0.027386 265946.000000 0 0 1
34.027336 31.864367 18.496785 50.153051 0.752584 1.193071 0.052900 -0.031031 -267513.000000 0 0 1
34.877746 30.959967 17.856285 49.938198 0.725962 1.205134 0.075017 -0.033773 155928.000000 0 0 1
35.822966 30.159167 18.807785 50.463779 0.699770 1.188881 0.095917 -0.041149 1161990.000000 0 0 1
36.915886 30.955167 19.335485 51.912099 0.697799 1.189132 0.097259 -0.037708 1467270.000000 0 0 1
-37.201963 30.232667 19.923885 51.913018 -0.682415 1.176895 0.112358 -0.028268 1348800.000000 0 0 1
-36.088753 31.173767 20.492385 51.905103 -0.712456 1.164941 0.123876 -0.024726 3500.010000 0 0 1
-35.267322 31.733167 19.513985 51.298865 -0.732699 1.180570 0.131565 -0.030391 -445316.000000 0 0 1
-34.167053 32.487667 19.939485 51.190029 -0.760208 1.170687 0.116090 -0.014086 -133247.000000 0 0 1
-34.297746 33.744467 20.801685 52.418838 -0.777267 1.162729 0.095258 -0.018980 -497619.000000 0 0 1
-34.425781 33.550967 22.218385 52.957138 -0.772530 1.137842 0.102764 -0.016782 152782.000000 0 0 1
-34.133446 -32.928070 22.944615 52.685912 0.767426 1.120205 0.102118 -0.013718 -63721.900000 0 0 1
-34.231718 -33.084470 24.457125 53.521432 0.768357 1.096222 0.112409 -0.026630 -630039.000000 0 0 1
-35.523282 -33.074170 24.965215 54.580823 0.749711 1.095728 0.095846 -0.007658 -775038.000000 0 0 1
-35.529214 -33.636470 26.220725 55.509131 0.758040 1.078821 0.109743 -0.016520 199810.000000 0 0 1
-36.942713 33.682967 26.739045 56.694646 -0.739276 1.079655 0.081714 -0.022527 -77548.100000 0 0 1
-36.955363 33.025967 28.018395 56.933679 -0.729308 1.056269 0.102585 -0.020568 -491526.000000 0 0 1
36.938636 32.751367 28.381985 56.944288 0.725386 1.049025 0.106107 -0.035347 -562432.000000 0 0 1
36.706926 31.810767 29.582535 56.872223 0.714061 1.023761 0.116585 -0.031293 -119566.000000 0 0 1
36.829226 30.444367 29.311635 56.057322 0.690773 1.020562 0.103034 -0.033258 974281.000000 0 0 1
-37.085723 29.963067 28.921815 55.763856 -0.679564 1.025527 0.098386 -0.029243 751515.000000 0 0 1
-37.119583 28.433567 28.632705 54.828487 -0.653662 1.021341 0.107710 -0.020818 -96624.200000 0 0 1
37.185216 28.218767 27.541555 54.199413 0.649154 1.037758 0.099968 -0.014429 626018.000000 0 0 1
37.083146 26.880867 27.133995 53.235274 0.627230 1.035961 0.105169 -0.026560 -83897.400000 0 0 1
36.434196 25.895467 28.060415 52.777010 0.617902 1.010215 0.097532 -0.028391 -456988.000000 0 0 1
37.381036 25.490467 29.036105 53.760591 0.598481 1.000240 0.094119 -0.027486 159683.000000 0 0 1
37.230406 24.141067 29.363585 53.208217 0.575266 0.986201 0.088944 -0.021126 -386102.000000 0 0 1
-37.569833 23.051767 28.398165 52.434074 -0.550339 0.998460 0.088832 -0.012916 -627191.000000 0 0 1
36.931756 23.026167 27.221995 51.334160 0.557505 1.011854 0.086943 -0.017975 -428811.000000 0 0 1
37.312536 22.008567 26.338305 50.698212 0.532918 1.024517 0.088568 -0.026468 -279795.000000 0 0 1
36.931176 20.522367 26.616815 49.935300 0.507203 1.008623 0.088060 -0.024271 -1260140.000000 0 0 1
35.592786 20.255967 26.330185 48.687054 0.517391 0.999403 0.103330 -0.021226 -442816.000000 0 0 1
35.254266 18.936567 26.674625 48.093580 0.492918 0.982866 0.113613 -0.016907 -469636.000000 0 0 1
35.039226 18.720767 28.198905 48.717479 0.490694 0.953509 0.098868 -0.007760 -898592.000000 0 0 1
33.900996 19.282067 28.778285 48.469221 0.517144 0.935093 0.089243 -0.017400 -114439.000000 0 0 1
33.698886 20.682667 28.652595 48.829897 0.550468 0.943715 0.086804 -0.028027 -176216.000000 0 0 1
32.310546 21.173667 29.185705 48.415916 0.580104 0.923775 0.067653 -0.035711 541007.000000 0 0 1
31.114866 20.967267 28.456605 47.090759 0.592971 0.921918 0.086889 -0.040840 452448.000000 0 0 1
30.842616 21.953867 27.455335 46.765742 0.618604 0.943347 0.110037 -0.035078 -555122.000000 0 0 1
30.802476 23.474167 27.900155 47.730993 0.651192 0.946497 0.118128 -0.034853 -394996.000000 0 0 1
32.050396 24.143867 27.904465 48.875489 0.645616 0.963159 0.094774 -0.034206 -82282.900000 0 0 1
32.118996 25.289867 28.706015 49.952403 0.666999 0.958599 0.082881 -0.027918 -35303.600000 0 0 1
32.447606 25.216267 30.195875 50.995080 0.660644 0.937093 0.076453 -0.037113 789557.000000 0 0 1
33.851446 25.023067 30.480115 51.972220 0.636555 0.944103 0.051168 -0.029660 894850.000000 0 0 1
34.189036 24.761867 31.865591 52.890984 0.626825 0.924196 0.064810 -0.032582 102554.000000 0 0 1
33.654826 23.536667 32.712050 52.504288 0.610293 0.898178 0.077068 -0.033035 -338525.000000 0 0 1
34.109376 23.624567 -33.629276 53.408781 0.605750 2.251909 0.074711 -0.042935 221531.000000 0 0 1
33.786886 22.523967 -32.812596 52.206793 0.587990 2.250435 0.071112 -0.035879 -164507.000000 0 0 1
34.377126 22.718267 -31.374206 51.790417 0.583968 2.221557 0.068046 -0.039973 65411.000000 0 0 1
33.678366 23.653467 -30.505776 51.228129 0.612291 2.208670 0.057689 -0.043268 213127.000000 0 0 1
34.118946 23.815067 -29.145666 50.800883 0.609383 2.181841 0.067721 -0.041122 -332634.000000 0 0 1
35.547336 24.193967 -28.741096 51.720516 0.597595 2.160001 0.083725 -0.022526 -283196.000000 0 0 1
35.963326 23.561167 -27.557866 51.067851 0.579983 2.140797 0.070585 -0.018668 -866519.000000 0 0 1
37.128996 24.148767 -27.114956 51.932130 0.576658 2.120135 0.088450 -0.002441 -648591.000000 0 0 1
-37.449033 23.467367 -25.861216 51.204979 -0.559784 2.100239 0.062844 0.003817 -133244.000000 0 0 1
-36.796443 22.255467 -26.244896 50.379347 -0.543961 2.118755 0.034997 0.011521 387260.000000 0 0 1
-37.119573 21.252067 -25.261426 49.675474 -0.519976 2.104272 0.027932 0.008205 241631.000000 0 0 1
-36.143523 20.010067 -25.455746 48.525787 -0.505624 2.123020 0.027060 0.022273 385631.000000 0 0 1
-34.836897 20.416467 -25.072516 47.529702 -0.530105 2.126466 0.030623 0.015045 149669.000000 0 0 1
-34.001193 19.235467 -25.221526 46.499567 -0.514839 2.144092 0.005808 0.019213 -152206.000000 0 0 1
-32.641403 19.508067 -24.589676 45.284413 -0.538688 2.144808 0.016582 0.011068 -560495.000000 0 0 1
-32.740643 19.566667 -23.173576 44.629797 -0.538672 2.116758 0.039448 0.007376 389685.000000 0 0 1
-31.482973 19.728067 -22.535476 43.453675 -0.559768 2.116020 0.069416 0.003660 237132.000000 0 0 1
-31.697513 20.101367 -21.066576 43.041816 -0.565161 2.082249 0.060443 -0.002002 45259.800000 0 0 1
-32.342923 19.083767 -20.340076 42.708003 -0.533067 2.067192 0.049221 -0.011483 -128908.000000 0 0 1
-32.869963 19.718367 -19.186076 42.864367 -0.540339 2.034876 0.048369 -0.012696 -531050.000000 0 0 1
-33.785173 18.736467 -18.394476 42.788431 -0.506350 2.015171 0.044689 -0.014084 447281.000000 0 0 1
-34.540994 19.134467 -17.232076 43.083089 -0.505881 1.982284 0.062405 -0.020426 -49801.800000 0 0 1
-35.436710 20.152967 -17.439176 44.339907 -0.517089 1.975022 0.048945 -0.016968 -971597.000000 0 0 1
-36.667293 20.000567 -16.509476 44.911868 -0.499351 1.947220 0.043971 -0.021908 15319.800000 0 0 1
-36.304763 20.349167 -15.148876 44.290099 -0.510876 1.919881 0.050721 -0.025192 -114508.000000 0 0 1
-37.351473 20.116367 -14.261676 44.757080 -0.494025 1.895097 0.049180 -0.019552 -1144460.000000 0 0 1
-37.279913 21.014467 -12.987276 44.722132 -0.513296 1.865440 0.046115 -0.020785 -242192.000000 0 0 1
-37.503913 22.415367 -13.177676 45.635987 -0.538712 1.863724 0.055517 -0.032418 905911.000000 0 0 1
36.383076 22.701267 -13.646776 45.003447 0.557845 1.878886 0.048991 -0.019786 579170.000000 0 0 1
36.024236 24.145767 -14.185476 45.628844 0.590489 1.886924 0.055952 -0.027247 96050.500000 0 0 1
36.144366 25.192167 -13.223276 45.999082 0.608701 1.862379 0.060268 -0.028315 273127.000000 0 0 1
35.631476 26.440767 -13.676176 46.430098 0.638401 1.869785 0.040400 -0.011364 51100.100000 0 0 1
36.776546 27.237267 -14.301776 47.947094 0.637468 1.873689 0.060371 -0.004867 250530.000000 0 0 1
37.235966 26.843067 -15.598776 48.480813 0.624610 1.898375 0.061791 -0.003801 -319012.000000 0 0 1
-36.804743 27.487767 -15.964876 48.631715 -0.641485 1.905280 0.076081 -0.007356 -803100.000000 0 0 1
-36.511573 27.526967 -17.487776 48.955604 -0.646008 1.936083 0.090894 -0.007578 325077.000000 0 0 1
-35.788346 26.368367 -18.016276 47.965432 -0.634991 1.955851 0.090003 -0.014515 448872.000000 0 0 1
-34.406689 26.386567 -17.746176 46.850805 -0.654231 1.959275 0.103834 -0.011300 -403156.000000 0 0 1
-33.806533 25.014467 -18.186876 45.818857 -0.637025 1.978966 0.093186 -0.014488 -26151.700000 0 0 1
-33.863773 24.800967 -19.587576 46.319717 -0.632125 2.007415 0.072865 -0.010235 589641.000000 0 0 1
-32.610203 24.242767 -19.976776 45.279230 -0.639270 2.027721 0.068973 -0.006837 288076.000000 0 0 1
-32.463073 24.110967 -21.513176 45.804002 -0.638825 2.059723 0.059887 -0.002382 -402744.000000 0 0 1
-33.405023 23.196467 -21.970476 46.224165 -0.606958 2.066105 0.071702 0.007695 -84789.600000 0 0 1
-33.328963 22.898967 -23.354776 46.697195 -0.601988 2.094548 0.053137 0.003797 252559.000000 0 0 1
-34.176485 23.794267 -24.382676 48.256753 -0.608183 2.100491 0.037507 0.007921 -60059.200000 0 0 1
-33.675723 25.117967 -24.631676 48.699959 -0.640858 2.101087 0.039074 0.001229 -52247.200000 0 0 1
-34.617361 25.867967 -25.366816 50.109767 -0.641741 2.101598 0.054068 -0.005776 -259319.000000 0 0 1
-34.149054 27.247567 -25.726396 50.699460 -0.673460 2.102995 0.054221 -0.003175 87773.100000 0 0 1
-32.974163 27.263967 -26.511146 50.333490 -0.690887 2.125522 0.029141 -0.005282 -206305.000000 0 0 1
-32.478333 28.595867 -26.562636 50.775381 -0.721914 2.121328 0.044562 -0.015062 -602051.000000 0 0 1
-31.189943 28.737167 -27.341106 50.459621 -0.744492 2.143423 0.059733 -0.008638 -448424.000000 0 0 1
-30.097693 28.192167 -26.573566 49.059391 -0.752719 2.143208 0.053694 -0.004571 399279.000000 0 0 1
-28.852753 28.226767 -27.243376 48.697364 -0.774432 2.164509 0.075801 0.001747 562687.000000 0 0 1
-28.041993 29.591767 -27.227726 49.024230 -0.812282 2.159632 0.058177 -0.010874 -260785.000000 0 0 1
-27.354443 29.877567 -25.975686 48.121418 -0.829456 2.140990 0.056716 -0.014832 199527.000000 0 0 1
-28.094803 30.095667 -24.776276 48.051337 -0.819769 2.112529 0.059614 -0.013691 -180618.000000 0 0 1
-27.247693 30.676767 -23.598976 47.332996 -0.844528 2.092749 0.027221 -0.012906 156055.000000 0 0 1
-27.040473 32.074867 -23.756676 48.211658 -0.870355 2.086053 0.032677 -0.011023 -237076.000000 0 0 1
-25.879213 32.542567 -23.150076 47.588637 -0.898963 2.078832 0.041968 -0.005376 -501806.000000 0 0 1
-25.808163 -33.526170 -23.121776 48.214955 0.914748 2.070945 0.038641 0.017184 -47774.000000 0 0 1
-26.667703 -32.904070 -22.192676 47.815887 0.889705 2.053446 0.032127 0.000284 38601.100000 0 0 1
-26.620363 -31.464070 -22.275076 46.848804 0.868596 2.066292 0.056961 -0.000222 -92789.600000 0 0 1
17.512627 8.367367 -24.735076 31.440880 0.445723 2.476269 0.099127 -0.035242 404058.000000 0 0 1
16.176027 7.872167 -24.560576 30.444322 0.452916 2.509406 0.082320 -0.035220 748519.000000 0 0 1
16.078327 6.526867 -25.025276 30.452866 0.385618 2.535308 0.077975 -0.032194 275007.000000 0 0 1
14.636527 5.945767 -25.075736 29.637351 0.385864 2.579395 0.091443 -0.038134 380518.000000 0 0 1
13.948827 6.038267 -23.830776 28.265462 0.408532 2.573829 0.130821 -0.054419 301994.000000 0 0 1
12.585327 5.719667 -24.044776 27.735470 0.426566 2.619811 0.139281 -0.049196 -160091.000000 0 0 1
11.628027 5.852267 -22.862876 26.309145 0.466276 2.623992 0.155904 -0.051921 -328373.000000 0 0 1
11.690927 4.798967 -21.956876 25.334014 0.389514 2.619336 0.129189 -0.044025 -216835.000000 0 0 1
11.210527 5.089367 -20.698876 24.083626 0.426160 2.605006 0.133572 -0.041046 -663509.000000 0 1 0
11.874627 6.211667 -19.827976 23.931991 0.481960 2.547244 0.138994 -0.047098 -23924.300000 0 1 0
11.397727 6.284167 -18.460676 22.587507 0.503881 2.527499 0.125548 -0.040259 60179.900000 0 1 0
11.522727 7.607467 -17.912776 22.616683 0.583522 2.484901 0.122777 -0.042909 833987.000000 0 1 0
12.945527 8.017567 -17.379776 23.106810 0.554512 2.422114 0.119152 -0.047099 547424.000000 0 1 0
13.394727 7.385067 -16.182776 22.267469 0.503872 2.384368 0.127349 -0.051567 -161187.000000 0 1 0
14.692027 7.891567 -16.042676 23.140872 0.492911 2.336801 0.110550 -0.046675 -835018.000000 0 1 0
15.296427 7.492967 -14.711976 22.507054 0.455495 2.283208 0.108914 -0.048321 -204246.000000 0 1 0
16.713127 7.532867 -14.713276 23.506450 0.423449 2.247113 0.095655 -0.051139 321194.000000 0 1 0
17.208227 7.406167 -13.429776 23.050667 0.406423 2.192745 0.084385 -0.050204 -547626.000000 0 1 0
18.142927 8.505867 -13.012576 23.892315 0.438398 2.146749 0.123187 -0.051575 -232627.000000 0 1 0
17.420427 9.752167 -12.855176 23.745138 0.510345 2.142876 0.155253 -0.044318 1133980.000000 0 1 0
18.298627 10.907467 -12.785576 24.845191 0.537533 2.111349 0.193121 -0.055245 148330.000000 0 1 0
17.614127 12.262167 -12.435376 24.804370 0.608141 2.095941 0.235631 -0.046957 -377622.000000 0 1 0
17.169527 12.275167 -11.071476 23.833799 0.620682 2.053898 0.299578 -0.033438 67913.200000 0 1 0
16.515727 13.434067 -10.658076 23.808359 0.682865 2.034944 0.192288 -0.024573 936820.000000 0 1 0
14.956927 13.394067 -10.997976 22.892492 0.730329 2.071928 0.143916 -0.047935 973854.000000 0 1 0
14.082327 14.343167 -10.410976 22.636846 0.794574 2.048693 0.170515 -0.059795 266824.000000 0 1 0
14.455827 15.709667 -10.424976 23.758045 0.826940 2.025057 0.179076 -0.059500 -411394.000000 0 1 0
13.357727 16.655967 -9.830776 23.505196 0.894850 2.002301 0.163066 -0.047356 367103.000000 0 1 0
13.311127 16.553767 -8.426676 22.852181 0.893551 1.948457 0.153153 -0.043172 127951.000000 0 1 0
12.220927 17.192467 -7.817376 22.495407 0.952839 1.925710 0.124333 -0.022911 -198862.000000 0 1 0
12.200627 17.050967 -6.282876 21.887560 0.949718 1.861945 0.093267 -0.017851 757697.000000 0 1 0
13.184727 17.904767 -5.649576 22.942001 0.936069 1.819610 0.102077 -0.023240 497592.000000 0 1 0
13.684727 17.395867 -4.438176 22.573997 0.904239 1.768691 0.106456 -0.026462 -337000.000000 0 1 0
14.816327 18.335567 -3.995276 23.909805 0.891157 1.738682 0.091585 -0.027696 -206034.000000 0 1 0
15.994127 18.218167 -4.767476 24.707135 0.850314 1.764974 0.100594 -0.039091 150465.000000 0 1 0
16.829927 19.364567 -4.654176 26.074782 0.855312 1.750251 0.079128 -0.029401 -361703.000000 0 0 1
18.080127 19.215367 -5.498876 26.951047 0.815828 1.776271 0.067184 -0.019327 -82646.800000 0 0 1
19.135627 18.412367 -4.922576 27.007762 0.766138 1.754086 0.079152 -0.036444 630628.000000 0 0 1
19.837727 17.786067 -5.992676 27.309188 0.730921 1.792035 0.106178 -0.035135 53041.500000 0 0 1
20.882527 16.776867 -5.391776 27.324246 0.676806 1.769426 0.115308 -0.046927 281598.000000 0 0 1
22.148527 17.372567 -5.177676 28.621175 0.665135 1.752702 0.089801 -0.046880 40113.600000 0 0 1
23.044727 16.423867 -4.642476 28.676740 0.619196 1.733402 0.112512 -0.052526 -589535.000000 0 0 1
24.522927 16.654567 -4.916076 30.048566 0.596590 1.735139 0.122474 -0.051093 -433222.000000 0 0 1
25.034927 17.783167 -4.185776 30.992085 0.617628 1.706270 0.129098 -0.051567 -648249.000000 0 0 1
26.391127 17.593467 -3.975176 31.965977 0.587986 1.695476 0.118896 -0.040349 -942941.000000 0 0 1
27.122727 18.680067 -3.161276 33.084451 0.603118 1.666494 0.129101 -0.034934 -222794.000000 0 0 1
27.195727 19.903367 -3.848576 33.919952 0.631788 1.684502 0.123424 -0.039897 140032.000000 0 0 1
27.273727 21.071667 -3.024176 34.597933 0.657809 1.658317 0.143815 -0.021747 -109700.000000 0 0 1
27.175627 22.458867 -3.795976 35.458777 0.690653 1.678055 0.091494 -0.021049 660050.000000 0 0 1
28.401027 22.764267 -4.493376 36.674523 0.675673 1.693625 0.096358 -0.007183 853386.000000 0 0 1
28.647427 22.099967 -5.682176 36.624728 0.657086 1.726571 0.076618 -0.005528 214470.000000 0 0 1
29.712127 22.815767 -6.578476 38.034801 0.654855 1.744630 0.058501 -0.006985 321161.000000 0 0 1
29.153627 23.852667 -7.395576 38.387214 0.685723 1.764666 0.029014 0.001195 422735.000000 0 0 1
30.106327 24.635367 -8.125476 39.740604 0.685788 1.776711 0.025245 0.001897 152069.000000 0 0 1
31.027827 24.003967 -9.186876 40.290385 0.658452 1.800836 0.027003 -0.011263 41034.800000 0 0 1
30.503327 23.821867 -10.491576 40.099968 0.663023 1.835513 0.022165 0.001547 143790.000000 0 0 1
31.567627 23.410567 -11.339276 40.904143 0.638104 1.851691 0.008193 -0.006195 245251.000000 0 0 1
31.202727 22.720767 -12.673776 40.625952 0.629380 1.888054 0.012498 0.000470 -91787.300000 0 0 1
31.124827 23.577767 -13.749976 41.397195 0.648298 1.909376 0.027408 -0.009331 131018.000000 0 0 1
30.822427 22.912367 -14.956776 41.215333 0.639242 1.942168 0.034531 -0.007620 -7529.160000 0 0 1
30.853127 23.849067 -16.169976 42.215655 0.658051 1.963873 0.041147 -0.003657 1175410.000000 0 0 1
32.195827 24.358967 -16.432176 43.588381 0.647704 1.957336 0.040743 -0.001707 1275610.000000 0 0 1
32.285827 24.941467 -17.724476 44.481552 0.657759 1.980642 0.058327 -0.002622 464483.000000 0 0 1
33.714227 25.551267 -17.906876 45.936614 0.648524 1.971229 0.056213 -0.003912 451325.000000 0 0 1
34.673427 24.541367 -17.908676 46.100389 0.615932 1.969768 0.064301 0.004662 312.585000 0 0 1
36.034927 24.977467 -18.049376 47.414869 0.606111 1.961316 0.076810 0.001131 555180.000000 0 0 1
36.949327 23.762167 -17.750776 47.381256 0.571510 1.954802 0.063153 -0.007894 -153381.000000 0 0 1
37.110627 22.861767 -18.826276 47.479340 0.552133 1.978514 0.062221 -0.010343 -244856.000000 0 0 1
-37.075272 23.172767 -19.710476 47.958897 -0.558613 1.994333 0.076062 0.000707 -376449.000000 0 0 1
-36.935272 22.265367 -20.948376 47.945754 -0.542491 2.022966 0.079990 -0.003470 199703.000000 0 0 1
-36.663472 20.861867 -20.656476 46.969327 -0.517321 2.026157 0.058217 -0.001085 273486.000000 0 0 1
-36.304272 20.117567 -21.807276 46.885754 -0.506014 2.054561 0.054596 0.002149 153319.000000 0 0 1
-35.941572 18.574767 -21.645476 45.884041 -0.477001 2.062063 0.047579 -0.002941 464642.000000 0 0 1
-37.071472 17.718267 -21.473876 46.361173 -0.445852 2.052384 0.057387 -0.010232 426766.000000 0 0 1
-36.798472 16.422167 -21.889576 45.858136 -0.419750 2.068413 0.038783 -0.017336 63449.500000 0 0 1
37.187727 15.499367 -21.750776 45.784863 0.394894 2.065834 0.029294 -0.008913 -82977.400000 0 0 1
36.119927 15.849567 -22.613276 45.466671 0.413504 2.091349 0.064173 -0.004369 358887.000000 0 0 1
35.128027 14.852767 -22.839576 44.454799 0.400021 2.110371 0.104873 -0.020699 -42651.700000 0 0 1
35.626827 13.451567 -23.229576 44.607495 0.361021 2.118531 0.065414 -0.020853 -985587.000000 0 0 1
35.877327 13.376267 -24.559076 45.489068 0.356870 2.141102 0.074115 -0.015439 296877.000000 0 0 1
36.389927 12.112367 -25.001376 45.782147 0.321315 2.148491 0.032853 -0.009764 -300981.000000 0 0 1
36.717427 12.141667 -26.490976 46.876021 0.319359 2.171385 0.019847 -0.003874 983528.000000 0 0 1
35.503627 12.140267 -27.297666 46.401036 0.329480 2.199750 0.025078 -0.002698 1459340.000000 0 0 1
34.904327 13.409367 -27.639296 46.497891 0.366790 2.207341 0.048423 -0.001606 53239.400000 0 0 1
35.008127 13.710667 -29.111106 47.550056 0.373281 2.229662 0.053504 -0.000071 -746006.000000 0 0 1
36.321827 14.086067 -29.360976 48.782777 0.369956 2.216639 0.039307 0.005983 -670138.000000 0 0 1
36.518527 13.961467 -30.778726 49.757968 0.365166 2.237716 0.054154 0.003428 -598621.000000 0 0 1
-37.206072 14.141367 -31.094746 50.508943 -0.363219 2.233980 0.060425 0.001072 6146.700000 0 0 1
-36.327272 13.089367 -30.761636 49.368821 -0.345837 2.243494 0.049047 0.004278 -81617.400000 0 0 1
-36.069272 12.914167 -29.368146 48.272726 -0.343818 2.224814 0.022329 0.005358 -1121720.000000 0 0 1
-34.934972 11.908667 -29.186106 47.054197 -0.328528 2.239878 0.022817 -0.005675 -383294.000000 0 0 1
-35.259672 10.590667 -29.482276 47.165785 -0.291789 2.246027 0.022360 -0.005455 -28580.900000 0 0 1
-34.262972 9.660467 -29.098926 45.978510 -0.274817 2.256065 0.024676 -0.010921 76557.900000 0 0 1
-34.598272 8.278867 -29.681466 46.331086 -0.234869 2.266126 0.034098 -0.008280 -753907.000000 0 0 1
-34.397372 8.231167 -31.086996 47.088562 -0.234880 2.291857 0.039661 -0.009629 -70761.200000 0 0 1
-34.799272 7.030367 -31.704446 47.598186 -0.199343 2.299744 0.052030 -0.013615 -196992.000000 0 0 1
-36.256972 6.521367 -31.478286 48.455946 -0.177962 2.277890 0.065746 -0.002058 -21638.500000 0 0 1
-36.367772 5.827267 -30.213046 47.638220 -0.158881 2.257794 0.069272 -0.007320 207101.000000 0 0 1
37.555227 5.308667 -30.023346 48.373322 0.140426 2.240379 0.061818 0.005141 -103016.000000 0 0 1
37.271927 4.797167 -28.550616 47.194777 0.128004 2.220503 0.066265 -0.013108 -39153.900000 0 0 1
-37.154372 3.668467 -28.261886 46.825626 -0.098417 2.218750 0.090227 -0.010412 387385.000000 0 0 1
-37.489772 3.149467 -27.007836 46.312259 -0.083812 2.193420 0.113299 -0.011908 56663.300000 0 0 1
-36.901872 1.696967 -26.763626 45.617097 -0.045954 2.197776 0.154572 -0.018363 -120348.000000 0 0 1
-35.502372 1.641467 -26.679976 44.440229 -0.046203 2.214743 0.135863 -0.012736 -408714.000000 0 0 1
-35.089272 0.341667 -26.443086 43.938714 -0.009737 2.216571 0.155141 -0.017261 -28753.700000 0 0 1
-33.790172 0.299267 -25.596616 42.391651 -0.008856 2.219072 0.136788 -0.015781 -111631.000000 0 0 1
-33.980572 0.694367 -24.264576 41.760401 -0.020431 2.190806 0.136624 -0.007198 110502.000000 0 0 1
-32.847772 0.554967 -23.410476 40.340234 -0.016894 2.189925 0.145982 -0.005293 -17919.900000 0 0 1
-33.082872 0.373667 -21.950976 39.704677 -0.011294 2.156584 0.138699 0.004315 -797191.000000 0 0 1
-33.410372 -0.958533 -21.704376 39.852876 0.028682 2.146723 0.152445 -0.004263 255685.000000 0 0 1
-33.695572 -1.229433 -20.348576 39.382326 0.036470 2.113780 0.145283 -0.001308 -142043.000000 0 0 1
-35.211772 -1.063333 -20.119676 40.568472 0.030189 2.089718 0.151892 -0.002141 -828798.000000 0 0 1
-35.980572 -2.188533 -20.378876 41.408814 0.060751 2.085341 0.147673 -0.007251 -276641.000000 0 0 1
-37.270272 -1.926033 -19.854676 42.272816 0.051632 2.059724 0.142748 -0.005237 190568.000000 0 0 1
37.047327 -3.203733 -19.877976 42.165178 -0.086262 2.061709 0.131355 -0.009615 -53469.800000 0 0 1
36.690427 -3.785933 -21.109576 42.498646 -0.102822 2.090602 0.124339 -0.007908 678173.000000 0 0 1
-37.475172 -4.466333 -21.782576 43.575421 0.118622 2.094259 0.126868 -0.013036 329525.000000 0 0 1
37.067127 -5.358033 -22.822476 43.858247 -0.143555 2.118079 0.125715 -0.009022 -266967.000000 0 0 1
36.538327 -6.583033 -22.333276 43.326215 -0.178256 2.112350 0.136494 -0.008632 216597.000000 0 0 1
36.163427 -7.467833 -23.370276 43.700478 -0.203640 2.135047 0.137881 -0.005721 672006.000000 0 0 1
34.736127 -7.172733 -23.963776 42.805481 -0.203630 2.164976 0.104107 0.003303 87294.200000 0 0 1
34.501427 -5.997933 -24.708576 42.858341 -0.172126 2.185256 0.119659 -0.007317 -347428.000000 0 0 1
33.181527 -5.880633 -25.165246 42.058117 -0.175405 2.212230 0.092941 -0.007020 -189684.000000 0 0 1
32.932627 -4.608233 -25.999916 42.211247 -0.139026 2.234385 0.123585 -0.035574 -9772.620000 0 0 1
33.478627 -4.687433 -27.304326 43.454766 -0.139108 2.250213 0.137785 -0.043137 262335.000000 0 0 1
33.148727 -3.572033 -28.134016 43.624768 -0.107344 2.271701 0.125320 -0.047128 -173031.000000 0 0 1
32.391327 -3.993533 -29.384246 43.915604 -0.122671 2.303803 0.130722 -0.043169 107296.000000 0 0 1
31.869927 -2.936033 -30.227866 44.023135 -0.091866 2.327648 0.100632 -0.043416 174682.000000 0 0 1
31.366627 -3.411833 -31.436326 44.539291 -0.108347 2.354364 0.092534 -0.048311 -982392.000000 0 0 1
30.992427 -2.241533 -32.388166 44.883720 -0.072199 2.376909 0.092731 -0.051155 -152145.000000 0 0 1
29.929527 -1.378733 -31.960146 43.807858 -0.046033 2.388464 0.088089 -0.045475 758695.000000 0 0 1
28.641127 -1.963933 -31.813616 42.851807 -0.068463 2.407457 0.108551 -0.044851 118925.000000 0 0 1
27.817927 -2.208233 -33.132576 43.318367 -0.079216 2.441624 0.110868 -0.051217 -512730.000000 0 0 1
28.379327 -3.224033 33.791065 44.244962 -0.113120 0.701730 0.104991 -0.052969 -309529.000000 0 0 1
27.678427 -3.322333 32.566822 42.868766 -0.119462 0.707965 0.089385 -0.040907 -264491.000000 0 0 1
28.151227 -4.503733 31.648937 42.596131 -0.158639 0.733254 0.064888 -0.042140 957275.000000 0 0 1
29.411427 -4.470233 30.940925 42.922673 -0.150835 0.765764 0.064588 -0.039310 794058.000000 0 0 1
29.639527 -3.338633 30.053585 42.342248 -0.112168 0.781614 0.078943 -0.042974 -443223.000000 0 0 1
30.302227 -2.039033 30.638045 43.140149 -0.067189 0.781017 0.076086 -0.046485 -718284.000000 0 0 1
31.584827 -2.298833 31.096185 44.383090 -0.072655 0.794514 0.075263 -0.044518 -666267.000000 0 0 1
32.273727 -1.201933 31.644867 45.215437 -0.037225 0.795583 0.074149 -0.042957 660715.000000 0 0 1
33.745127 -1.475133 32.088746 46.589669 -0.043686 0.811030 0.062406 -0.041387 907994.000000 0 0 1
34.685127 -1.666833 31.021135 46.563367 -0.048019 0.841677 0.080100 -0.041878 93978.900000 0 0 1
35.956627 -1.915533 31.574995 47.890799 -0.053223 0.850893 0.098284 -0.039843 -136401.000000 0 0 1
36.991527 -2.459533 30.587895 48.062893 -0.066391 0.880956 0.121556 -0.036224 -266853.000000 0 0 1
37.549327 -1.529133 29.660895 47.875452 -0.040701 0.902636 0.120807 -0.026253 138689.000000 0 0 1
-36.704472 -2.186633 28.860715 46.743347 0.059504 0.905326 0.140160 -0.022837 111712.000000 0 0 1
-36.449572 -1.374333 27.576195 45.726433 0.037687 0.923453 0.127287 -0.021858 151346.000000 0 0 1
-37.563272 -1.187133 26.731065 46.118961 0.031593 0.952545 0.115252 -0.024106 -256557.000000 0 0 1
-37.097872 -0.697533 25.533695 45.041184 0.018800 0.968063 0.112127 -0.023897 -110457.000000 0 0 1
-27.172673 14.917667 11.364224 33.015701 -0.502071 1.219403 0.140326 -0.025284 340712.000000 0 0 1
-28.114953 14.201167 12.162524 33.764637 -0.467728 1.202298 0.110353 -0.012571 233319.000000 0 0 1
-28.883563 15.090567 12.948524 35.066361 -0.481455 1.192586 0.126333 -0.020307 252024.000000 0 0 1
-30.212813 14.441867 13.427724 36.078877 -0.445897 1.189443 0.133596 -0.016285 112679.000000 0 0 1
-31.062173 15.224067 14.209224 37.396963 -0.455709 1.181047 0.140176 -0.021419 -295878.000000 0 0 1
-32.260903 14.534767 14.523124 38.248483 -0.423301 1.181319 0.160236 -0.028239 -23339.800000 0 0 1
-33.242973 15.339667 15.352724 39.700211 -0.432327 1.173728 0.122019 -0.031491 -361601.000000 0 0 1
-32.801843 15.756167 16.591824 39.993829 -0.447799 1.143008 0.107752 -0.024741 -476565.000000 0 0 1
-33.903353 16.078867 17.408624 41.364568 -0.442841 1.136405 0.134263 -0.046007 -14777.500000 0 0 1
-33.622923 16.314267 18.899024 41.878746 -0.451748 1.102598 0.166219 -0.029672 -40667.300000 0 0 1
-32.992483 15.220067 19.514024 41.242594 -0.432227 1.077931 0.156369 -0.029566 -112833.000000 0 0 1
-32.100933 15.603867 20.568524 41.194839 -0.452456 1.048007 0.125281 -0.024317 456129.000000 0 0 1
-32.664843 16.181867 21.897524 42.524656 -0.459954 1.029862 0.116100 -0.040878 -721011.000000 0 0 1
-33.560793 17.272867 21.818624 43.597375 -0.475318 1.046669 0.136992 -0.040611 -71396.600000 0 0 1
-34.158847 17.457567 23.071024 44.764558 -0.472464 1.029338 0.154829 -0.051253 -118223.000000 0 0 1
-35.383433 16.531567 23.395424 45.526101 -0.437075 1.031083 0.145723 -0.054286 60354.800000 0 0 1
-36.624093 16.742367 22.755024 46.253888 -0.428776 1.056458 0.126682 -0.048788 456788.000000 0 0 1
-37.315053 18.011867 22.953324 47.367664 -0.449710 1.064916 0.119346 -0.047586 -930857.000000 0 0 1
36.408146 17.792567 23.056824 46.623446 0.454565 1.053499 0.140244 -0.047152 -665464.000000 0 0 1
36.136866 17.247967 24.315624 46.846718 0.445320 1.025061 0.124216 -0.049910 47894.100000 0 0 1
35.931416 15.824067 24.314224 46.180616 0.414839 1.016315 0.118565 -0.049501 -262809.000000 0 0 1
35.299986 15.314267 25.634024 46.235473 0.409328 0.983126 0.122217 -0.037426 -382882.000000 0 0 1
33.948436 15.727967 25.773624 45.432862 0.433851 0.967585 0.115930 -0.031775 279331.000000 0 0 1
33.428526 15.276667 26.982624 45.595010 0.428656 0.937520 0.110273 -0.023811 -251762.000000 0 0 1
32.748206 13.909367 26.922524 44.617685 0.401648 0.923032 0.100935 -0.027544 -717266.000000 0 0 1
33.633336 12.867267 26.676624 44.815289 0.365395 0.933211 0.109491 -0.026036 -86431.700000 0 0 1
32.880246 11.691267 26.554224 43.851147 0.341629 0.920335 0.114178 -0.024520 36915.700000 0 0 1
33.759366 10.494267 26.189724 43.996887 0.301386 0.933203 0.107563 -0.013888 19857.600000 0 0 1
34.622336 10.070067 27.281824 45.215156 0.283046 0.923066 0.127673 -0.017294 425878.000000 0 0 1
35.291736 8.859567 26.974424 45.294791 0.245955 0.932871 0.123178 -0.011973 -101955.000000 0 0 1
36.186126 8.428867 28.161524 46.621379 0.228850 0.922226 0.108918 -0.004919 1585860.000000 0 0 1
37.500546 9.082367 28.192024 47.786720 0.237617 0.939793 0.113586 -0.009718 1506510.000000 0 0 1
-36.701453 8.196467 28.648724 47.275026 -0.219723 0.919772 0.116719 -0.017135 515323.000000 0 0 1
-35.340906 8.922467 28.735924 46.414905 -0.247301 0.903188 0.110471 -0.020122 54243.000000 0 0 1
-34.670004 9.306767 27.569924 45.262852 -0.262256 0.915862 0.097884 -0.020257 467243.000000 0 0 1
-33.357743 9.782167 27.882424 44.562982 -0.285253 0.894786 0.087770 -0.010308 754723.000000 0 0 1
-32.533493 10.324967 26.691624 43.329850 -0.307310 0.907129 0.070637 -0.007946 -25268.500000 0 0 1
-32.019663 9.358167 25.808424 42.177113 -0.284344 0.912328 0.075531 -0.008480 29711.400000 0 0 1
-31.312333 9.980767 24.797024 41.170017 -0.308568 0.924407 0.074388 -0.005556 -661176.000000 0 0 1
-30.574013 9.057567 23.896524 39.847882 -0.288013 0.927678 0.077427 -0.009297 -357815.000000 0 0 1
-29.620763 9.672567 23.067124 38.769065 -0.315630 0.933546 0.074545 -0.014386 -454285.000000 0 0 1
-28.901063 8.714667 22.436724 37.611480 -0.292864 0.931614 0.061653 -0.004578 -12.621300 0 0 1
-27.697233 9.223167 21.567324 36.295358 -0.321450 0.934504 0.050446 -0.001701 -297707.000000 0 0 1
-26.531543 9.597567 22.278524 35.949530 -0.347097 0.902415 0.053650 -0.008046 691526.000000 0 0 1
-25.474763 10.131967 21.484924 34.831340 -0.378544 0.906091 0.044139 -0.000128 812748.000000 0 0 1
-24.820573 9.220567 20.348124 33.393500 -0.355689 0.915564 0.037929 -0.001286 -707796.000000 0 0 1
-25.691873 9.083867 19.252724 33.365497 -0.339851 0.955715 0.032311 -0.002985 225635.000000 0 0 1
-25.129483 8.354867 18.181024 32.122334 -0.320976 0.969159 0.037456 -0.013984 -150120.000000 0 0 1
-25.062263 6.766467 18.354024 31.792646 -0.263699 0.955373 0.042932 -0.013702 -591516.000000 0 0 1
-23.811073 6.378867 18.885324 31.053383 -0.261749 0.917060 0.061437 -0.015121 335067.000000 0 0 1
-23.636473 5.063567 19.343524 30.959562 -0.211037 0.895921 0.081283 -0.023092 -207921.000000 0 0 1
-23.655873 3.897267 18.347524 30.189744 -0.163282 0.917584 0.092565 -0.026744 178964.000000 0 0 1
-24.995173 3.695967 17.888924 30.958560 -0.146803 0.954723 0.112828 -0.028953 804321.000000 0 0 1
-25.033043 2.762667 16.831524 30.291678 -0.109916 0.981654 0.110316 -0.028715 -56467.400000 0 0 1
-24.918873 1.246867 17.146024 30.273603 -0.049995 0.968703 0.115676 -0.028212 966599.000000 0 0 1
-23.568973 0.895367 17.547524 29.397513 -0.037971 0.931158 0.113208 -0.021746 1283310.000000 0 0 1
-23.557773 -0.185833 18.449624 29.923099 0.007888 0.906420 0.129413 -0.026435 569166.000000 0 0 1
-22.207173 -1.008333 18.515824 28.931143 0.045375 0.876303 0.142751 -0.016373 766389.000000 0 0 1
-21.197673 -0.422033 19.310824 28.677995 0.019907 0.832042 0.123416 -0.019212 63725.200000 0 0 1
-20.365573 -1.455333 19.826024 28.459547 0.071339 0.800095 0.123360 -0.015959 268181.000000 0 0 1
-19.446773 -0.954533 20.971424 28.616232 0.049045 0.748294 0.133573 -0.017313 621781.000000 0 0 1
-20.096273 -0.865333 22.246924 29.992243 0.043033 0.735112 0.117270 -0.017375 143047.000000 0 0 1
-19.078473 -0.575733 23.184324 30.030526 0.030168 0.688775 0.111871 -0.019069 -151639.000000 0 0 1
-19.438873 -0.511133 24.708624 31.442760 0.026288 0.666761 0.104638 -0.011898 153625.000000 0 0 1
-20.249973 0.570667 25.130224 32.278712 -0.028174 0.678462 0.093902 -0.024837 392832.000000 0 0 1
-21.651673 0.365767 24.976424 33.056777 -0.016892 0.714286 0.093049 -0.026027 91043.600000 0 0 1
-22.492573 1.532367 25.529824 34.059300 -0.068023 0.723384 0.080069 -0.030390 -576223.000000 0 0 1
-22.212873 2.785367 24.942324 33.515512 -0.124743 0.731456 0.066102 -0.029768 537117.000000 0 0 1
-23.192173 3.083567 23.946524 33.478669 -0.132182 0.773776 0.069886 -0.030275 -562263.000000 0 0 1
-22.719373 4.229867 23.014124 32.614592 -0.184071 0.787472 0.072961 -0.028611 291449.000000 0 0 1
-21.990773 3.908867 21.827124 31.229740 -0.175913 0.796908 0.090049 -0.022848 199299.000000 0 0 1
-20.780273 3.238667 22.027924 30.455511 -0.154609 0.762253 0.098740 -0.024024 -1112190.000000 0 0 1
-20.244073 2.532867 20.777924 29.119753 -0.124470 0.776267 0.102847 -0.023915 -82625.800000 0 0 1
-19.753673 3.385767 19.739524 28.130408 -0.169750 0.792995 0.096446 -0.015240 327786.000000 0 0 1
-19.504473 2.609967 18.563224 27.052351 -0.133024 0.814549 0.120687 -0.027611 181215.000000 0 0 1
-18.894873 3.502367 17.425224 25.940726 -0.183281 0.834252 0.087611 -0.025748 484941.000000 0 0 1
-17.512873 3.852867 17.493324 25.051182 -0.216552 0.797772 0.111098 -0.036738 358143.000000 0 0 1
-17.185273 4.574867 16.311824 24.131693 -0.260175 0.828543 0.111404 -0.034534 -387562.000000 0 1 0
-15.736873 4.997167 16.064624 23.036775 -0.307474 0.799107 0.117935 -0.035498 -492555.000000 0 1 0
-15.197273 6.023467 16.872524 23.493006 -0.377357 0.769594 0.108339 -0.043779 329803.000000 0 1 0
-15.717873 7.397667 16.660724 24.069831 -0.439896 0.806287 0.109731 -0.045183 -371557.000000 0 1 0
-15.454073 8.202067 15.352124 23.276383 -0.487935 0.850566 0.068525 -0.041815 -566098.000000 0 1 0
-15.951673 7.755967 14.119824 22.671134 -0.452560 0.898466 0.097548 -0.034208 1190450.000000 0 1 0
-17.395173 7.806667 14.052924 23.685877 -0.421842 0.935639 0.077674 -0.036781 968720.000000 0 1 0
-17.925473 6.771667 12.960624 23.133436 -0.361195 0.976103 0.084409 -0.042088 60697.800000 0 1 0
-17.577173 5.430667 13.337724 22.723205 -0.299658 0.943491 0.084072 -0.033448 366141.000000 0 1 0
-17.952873 4.612667 12.280624 22.235019 -0.251492 0.985664 0.069945 -0.043148 29572.400000 0 1 0
-17.675973 3.141467 12.554724 21.907303 -0.175889 0.960532 0.075176 -0.023247 -193935.000000 0 1 0
-18.383673 2.650767 13.671124 23.062646 -0.143204 0.936287 0.093275 -0.034844 225264.000000 0 1 0
-18.093873 1.289167 13.945124 22.880487 -0.071129 0.915396 0.090293 -0.024855 582485.000000 0 1 0
-19.249173 0.615167 14.817924 24.299794 -0.031947 0.914993 0.123121 -0.028406 905207.000000 0 1 0
-20.466873 0.655467 14.093824 24.858769 -0.032015 0.967991 0.133872 -0.028044 -231547.000000 0 1 0
-21.518773 0.152567 14.863924 26.153721 -0.007090 0.966322 0.139025 -0.034254 -1255040.000000 0 0 1
-22.827573 0.110667 14.141424 26.853123 -0.004848 1.016175 0.134215 -0.029264 -1105550.000000 0 0 1
-22.804873 -0.887633 13.126724 26.327951 0.038903 1.048831 0.148243 -0.035023 271341.000000 0 0 1
-24.119173 -1.123133 12.696824 27.280126 0.046532 1.086683 0.140257 -0.026855 -173427.000000 0 0 1
-24.233773 -2.388033 11.812824 27.065130 0.098224 1.119137 0.145132 -0.038173 -154273.000000 0 0 1
-23.835073 -3.502633 12.516124 27.148343 0.145909 1.091644 0.130887 -0.028915 305071.000000 0 0 1
-23.698573 -4.634933 11.689324 26.828069 0.193141 1.119967 0.119075 -0.020304 -105830.000000 0 0 1
-23.468373 -5.893133 12.496924 27.233558 0.246023 1.094063 0.111541 -0.017477 -424072.000000 0 0 1
-24.625673 -6.405633 13.082824 28.611470 0.254481 1.095887 0.104919 -0.010537 -158050.000000 0 0 1
-24.702673 -7.852633 13.348924 29.156126 0.307784 1.095229 0.112185 -0.015978 -410883.000000 0 0 1
-25.761443 -8.090033 14.422824 30.612390 0.304284 1.080210 0.130837 -0.010460 61440.400000 0 0 1
-27.086233 -7.790233 14.005124 31.472135 0.280050 1.109621 0.143639 -0.007772 180496.000000 0 0 1
-27.909253 -7.847533 15.140024 32.706735 0.274103 1.089530 0.143561 -0.004812 -468124.000000 0 0 1
-29.355103 -7.316233 14.941624 33.741687 0.244256 1.112051 0.154644 -0.017001 804869.000000 0 0 1
-30.348823 -8.001433 14.131224 34.420423 0.257783 1.147742 0.151136 -0.001943 1146060.000000 0 0 1
-30.577553 -9.379933 14.306624 35.037828 0.297646 1.150184 0.136025 -0.004530 -538118.000000 0 0 1
-31.166033 -9.861333 15.630224 36.233568 0.306446 1.124781 0.133878 -0.016965 -12575.400000 0 0 1
-30.164373 -9.723933 16.637324 35.794480 0.311847 1.087386 0.138331 -0.001041 566037.000000 0 0 1
-30.608443 -10.315933 17.810424 36.885044 0.325073 1.066875 0.123525 -0.002157 -529690.000000 0 0 1
-29.456883 -10.567833 18.767524 36.491191 0.344454 1.030602 0.151061 -0.020272 -288099.000000 0 0 1
-28.542453 -11.430733 18.145024 35.701193 0.380922 1.037648 0.148471 -0.019902 -220952.000000 0 0 1
-27.325043 -11.575833 18.839024 35.150629 0.400714 1.005162 0.146100 -0.033369 -47423.200000 0 0 1
-26.398093 -12.693733 18.331824 34.554970 0.448217 1.011592 0.137722 -0.027583 -646366.000000 0 0 1
-25.615973 -12.284533 17.297924 33.261179 0.447167 1.023871 0.127274 -0.027344 -580718.000000 0 0 1
-24.836273 -13.337233 16.848124 32.841765 0.492812 1.032110 0.118365 -0.028526 -235619.000000 0 0 1
-24.157473 -13.138133 15.441124 31.537634 0.498112 1.059155 0.118740 -0.024750 215350.000000 0 0 1
-23.218173 -12.087333 15.387624 30.363896 0.479990 1.039358 0.101709 -0.034491 -132742.000000 0 0 1
-22.727073 -11.891733 14.078624 29.259884 0.482067 1.068821 0.096866 -0.012932 955842.000000 0 0 1
-21.486473 -10.895633 14.022624 27.875031 0.469306 1.043668 0.087318 -0.015911 592546.000000 0 0 1
-21.779473 -9.523133 13.778124 27.474938 0.412203 1.045488 0.087433 -0.024065 220141.000000 0 0 1
-20.622473 -8.700733 13.664524 26.224194 0.399247 1.022697 0.084525 -0.021339 167928.000000 0 0 1
-20.064973 -8.524333 12.250424 25.006805 0.401732 1.058840 0.101271 -0.014488 -258521.000000 0 0 1
-19.482273 -9.718333 11.768724 24.748896 0.462711 1.075235 0.091815 -0.019859 244745.000000 0 1 0
-19.180073 -9.677833 10.420724 23.877335 0.467303 1.119172 0.101755 -0.011650 -856211.000000 0 1 0
-18.697673 -11.111633 9.918324 23.904906 0.536202 1.142955 0.094846 -0.007162 -198783.000000 0 1 0
-17.332173 -11.400833 9.922324 22.996429 0.581828 1.124672 0.109108 -0.018836 -116756.000000 0 1 0
-16.639173 -11.306833 11.152724 23.001952 0.596856 1.064593 0.095847 -0.018702 -91401.700000 0 1 0
-15.135973 -11.702833 11.026124 22.082332 0.658172 1.047984 0.110729 -0.023083 418253.000000 0 1 0
-14.864473 -13.042233 10.879924 22.570449 0.720193 1.067811 0.099975 -0.021047 331561.000000 0 1 0
-13.482773 -13.388133 10.851924 21.881306 0.781876 1.051874 0.117037 -0.025265 494521.000000 0 1 0
-13.216673 -14.914233 10.896224 22.712166 0.845670 1.070423 0.128186 -0.024098 -141168.000000 0 1 0
-13.387773 -15.544033 9.619924 22.658163 0.859790 1.132312 0.099713 -0.028636 224847.000000 0 1 0
-13.062973 -16.907233 9.706124 23.467097 0.912971 1.144386 0.075247 -0.021698 -107436.000000 0 1 0
-13.277473 -17.794433 8.418624 23.744607 0.929758 1.208365 0.061077 -0.018085 -480671.000000 0 1 0
-12.449373 -17.626733 7.300724 22.781334 0.955869 1.244571 0.069731 -0.028349 -69814.700000 0 1 0
-12.919973 -18.443033 6.274524 23.376074 0.959712 1.299047 0.055611 -0.022893 376088.000000 0 1 0
-11.930373 -18.191533 5.075724 22.338949 0.990341 1.341580 0.050818 -0.023255 426891.000000 0 1 0
-12.170273 -19.028533 3.981124 22.935779 1.001781 1.396336 0.062130 -0.023485 -146715.000000 0 1 0
-11.205773 -18.953133 2.977624 22.218390 1.036846 1.436376 0.068363 -0.026358 -41261.900000 0 1 0
-11.684773 -19.731133 1.686924 22.993417 1.036132 1.497365 0.081329 -0.031976 58014.800000 0 1 0
-11.503673 -21.136833 1.943224 24.142832 1.072380 1.490221 0.080220 -0.035230 -124318.000000 0 1 0
-11.862073 -22.043933 0.867524 25.047881 1.077127 1.536155 0.084633 -0.033617 -351180.000000 0 0 1
-11.072973 -22.012533 -0.451876 24.644807 1.104727 1.589133 0.102706 -0.032574 -253402.000000 0 1 0
-11.254173 -20.805933 -1.204076 23.685292 1.074957 1.621655 0.100885 -0.053060 613937.000000 0 1 0
-12.431273 -20.792933 -2.064376 24.313458 1.031951 1.655805 0.107453 -0.044948 1291040.000000 0 1 0
-13.580073 -19.885433 -1.492476 24.126258 0.971629 1.632697 0.125601 -0.041631 167312.000000 0 1 0
-14.197773 -20.563533 -0.440276 24.992589 0.966519 1.588413 0.113045 -0.029905 -272415.000000 0 1 0
-15.316273 -19.900433 0.121224 25.112351 0.914840 1.565969 0.132332 -0.012316 210103.000000 0 0 1
26.777527 -19.660233 -4.383776 33.507883 -0.633316 1.702001 0.122087 -0.031837 42235.900000 0 0 1
25.677327 -19.761433 -3.493976 32.589066 -0.655932 1.678216 0.114845 -0.036535 83746.300000 0 0 1
25.683227 -20.943133 -2.751876 33.253809 -0.684085 1.653645 0.108867 -0.030550 -536188.000000 0 0 1
24.371327 -21.200533 -2.016276 32.364943 -0.715932 1.633135 0.094654 -0.022162 -395423.000000 0 0 1
23.352027 -21.663733 -2.880076 31.983266 -0.747911 1.660968 0.098107 -0.026989 -425599.000000 0 0 1
22.275427 -22.088933 -2.105476 31.441193 -0.781195 1.637812 0.062134 -0.017666 45387.900000 0 0 1
21.089527 -22.793233 -2.848976 31.183590 -0.824203 1.662285 0.066516 -0.024448 364032.000000 0 0 1
20.394927 -21.935233 -3.697276 30.179088 -0.821770 1.693616 0.067457 -0.033523 -378146.000000 0 0 1
19.463227 -22.668933 -4.507276 30.216109 -0.861339 1.720523 0.069638 -0.031368 277088.000000 0 0 1
18.491027 -21.608633 -5.105276 28.894895 -0.862989 1.748413 0.063921 -0.026809 -158846.000000 0 0 1
17.429427 -21.113233 -4.322376 27.717079 -0.880686 1.727382 0.068258 -0.020541 -23769.400000 0 0 1
17.782127 -20.263833 -3.219676 27.151303 -0.850535 1.689659 0.063537 -0.023314 -1211200.000000 0 0 1
16.675027 -19.780233 -2.333776 25.976155 -0.870372 1.660761 0.070696 -0.010356 -826863.000000 0 0 1
16.187627 -20.811433 -1.499276 26.408386 -0.909725 1.627600 0.074908 -0.018064 -49018.300000 0 0 1
15.252527 -20.254633 -0.607376 25.362544 -0.925353 1.594746 0.078321 -0.006414 -261271.000000 0 0 1
14.885427 -21.083333 0.638224 25.816471 -0.956036 1.546072 0.078119 -0.009668 234564.000000 0 0 1
13.938727 -22.126233 0.421924 26.154088 -1.008635 1.554663 0.070737 -0.014799 169209.000000 0 0 1
13.330227 -22.476633 1.670624 26.185587 -1.035488 1.506954 0.067571 -0.012409 -88416.000000 0 0 1
12.349727 -23.614533 1.540624 26.693360 -1.088941 1.513049 0.077358 -0.018714 52621.500000 0 0 1
12.980427 -24.901433 1.660524 28.130592 -1.090276 1.511733 0.087945 -0.016286 -55614.100000 0 0 1
12.040127 -25.890793 1.466224 28.591041 -1.135510 1.519491 0.084131 -0.015086 -267927.000000 0 0 1
12.367127 -27.153323 2.252724 29.921958 -1.143415 1.495438 0.090132 -0.013017 -42109.300000 0 0 1
12.417427 -26.981243 3.681324 29.928784 -1.139472 1.447481 0.088944 -0.015498 87971.300000 0 0 1
12.447627 -28.337383 4.222124 31.237430 -1.156905 1.435219 0.086512 -0.013717 1141.550000 0 0 1
12.499227 -28.425503 5.764624 31.582761 -1.156525 1.387243 0.091222 -0.013440 -25154.400000 0 0 1
12.701027 -29.728893 6.294324 32.935417 -1.167040 1.378502 0.077987 -0.013872 -221760.000000 0 0 1
12.888227 -29.763553 7.696124 33.334754 -1.162152 1.337821 0.092194 -0.013662 263416.000000 0 0 1
12.707127 -31.196913 8.210524 34.671763 -1.183996 1.331718 0.073439 -0.015020 56222.000000 0 0 1
12.718827 -31.280243 9.607324 35.107305 -1.184606 1.293604 0.075048 -0.013481 -180426.000000 0 0 1
11.914727 -32.330093 10.100724 35.905713 -1.217707 1.285635 0.076626 -0.010973 194561.000000 0 0 1
11.757027 -32.338563 11.619624 36.318398 -1.222092 1.245133 0.080024 -0.015113 564325.000000 0 0 1
12.911927 -33.001163 12.173824 37.469943 -1.197850 1.239895 0.080711 -0.019527 761774.000000 0 0 1
12.732727 -33.331943 13.578824 38.177549 -1.205905 1.207159 0.087882 -0.021751 -458140.000000 0 0 1
11.653427 33.332232 13.948724 37.965866 1.234465 1.194583 0.091997 -0.023418 -469229.000000 0 0 1
11.816227 32.027055 13.418224 36.679752 1.217345 1.196282 0.101745 -0.027090 364667.000000 0 0 1
10.595027 31.279864 13.475524 35.668954 1.244208 1.183384 0.105584 -0.024576 479581.000000 0 0 1
10.538727 30.082374 12.483824 34.232439 1.233828 1.197509 0.112180 -0.021243 -136411.000000 0 0 1
10.589527 30.343544 11.109524 34.004269 1.235024 1.237976 0.092492 -0.020242 40679.100000 0 0 1
11.686227 30.986034 10.477924 34.734552 1.210146 1.264366 0.063159 -0.013715 -129324.000000 0 0 1
11.341127 31.352234 9.037124 34.543500 1.223708 1.306100 0.046473 -0.016292 310535.000000 0 0 1
10.201227 32.202361 8.946524 34.944204 1.264012 1.311890 0.066476 -0.017750 286906.000000 0 0 1
9.698127 32.312426 7.612624 34.584659 1.279215 1.348863 0.061470 -0.015867 101935.000000 0 0 1
10.147927 33.578627 6.839824 35.739164 1.277310 1.378227 0.056567 -0.009527 -55720.600000 0 0 1
9.420627 -32.941713 7.256924 35.022387 -1.292252 1.362076 0.062985 -0.012035 122388.000000 0 0 1
9.738727 -31.917073 6.374324 33.973142 -1.274643 1.382049 0.079293 -0.016124 -394241.000000 0 0 1
8.796127 -30.756683 6.613924 32.666334 -1.292241 1.366918 0.084653 -0.011843 -114224.000000 0 0 1
8.908927 -30.227073 7.934324 32.496129 -1.284178 1.324141 0.098100 -0.014768 -88873.100000 0 0 1
8.211327 -29.043843 7.979624 31.219307 -1.295266 1.312329 0.111353 -0.014630 36577.400000 0 0 1
9.161927 -27.916023 7.500124 30.323211 -1.253676 1.320863 0.110782 -0.019796 404155.000000 0 0 1
9.919227 -27.282583 8.523824 30.255346 -1.222081 1.285200 0.116089 -0.024020 281128.000000 0 0 1
10.698827 -26.121803 8.187924 29.391420 -1.182063 1.288479 0.102775 -0.025749 829216.000000 0 0 1
9.872327 -24.947733 7.471924 27.851066 -1.193985 1.299188 0.096958 -0.025534 527849.000000 0 0 1
9.537827 -25.261273 6.119424 27.686629 -1.209777 1.347931 0.082355 -0.023192 -478745.000000 0 0 1
8.941627 -24.209533 5.419024 26.370817 -1.216994 1.363829 0.083633 -0.026694 175582.000000 0 0 1
8.618527 -24.556433 3.916924 26.318049 -1.233259 1.421411 0.072111 -0.021607 -226452.000000 0 0 1
7.779227 -25.625863 3.675624 27.031675 -1.276068 1.434399 0.062425 -0.019189 -565696.000000 0 0 1
8.342327 -26.974323 3.805324 28.490156 -1.270858 1.436830 0.076895 -0.023650 665705.000000 0 0 1
7.319827 -28.135163 3.500724 29.281775 -1.316272 1.450957 0.072061 -0.020130 366842.000000 0 0 1
6.217127 -28.318013 4.354324 29.317617 -1.354678 1.421722 0.067392 -0.016397 -45168.200000 0 0 1
5.188527 -29.154253 3.820924 29.857842 -1.394672 1.442474 0.055419 -0.011005 472899.000000 0 0 1
5.209727 -30.703403 4.034124 31.402458 -1.402718 1.441975 0.067058 -0.009541 303921.000000 0 0 1
6.274127 -31.419193 3.390124 32.218369 -1.373698 1.465378 0.062748 -0.007834 241405.000000 0 0 1
6.164827 -32.797213 3.654824 33.571119 -1.384996 1.461712 0.060537 -0.008640 345100.000000 0 0 1
7.247927 -33.619523 2.892124 34.513318 -1.358459 1.486901 0.056805 -0.008032 320429.000000 0 0 1
7.274527 -33.518043 1.452724 34.329118 -1.357078 1.528466 0.063897 -0.010061 -92761.400000 0 0 1
8.245827 33.190955 0.987224 34.214146 1.327290 1.541938 0.052044 -0.010511 -333883.000000 0 0 1
7.921127 32.461645 -0.322176 33.415662 1.331459 1.580438 0.064970 -0.005627 252225.000000 0 0 1
6.828127 31.561684 -0.230776 32.292669 1.357738 1.577943 0.048414 -0.002535 368048.000000 0 0 1
5.569927 32.228676 -0.396576 32.708851 1.399662 1.582921 0.047605 -0.008575 419429.000000 0 0 1
4.328527 31.352554 -0.042676 31.649971 1.433604 1.572145 0.047899 -0.008982 422926.000000 0 0 1
4.106727 30.302414 -0.985576 30.595308 1.436092 1.603015 0.053962 -0.001771 -1158830.000000 0 0 1
2.851327 29.779694 -0.826276 29.927295 1.475340 1.598409 0.056089 -0.015780 -821462.000000 0 0 1
2.438627 28.795354 -1.924176 28.962420 1.486310 1.637282 0.051564 -0.015522 -112895.000000 0 0 1
2.272827 29.354294 -3.222276 29.617957 1.493523 1.679807 0.062473 -0.021104 -22684.100000 0 0 1
1.978727 28.264344 -4.070676 28.624446 1.500902 1.713490 0.071773 -0.028629 -190232.000000 0 0 1
1.828327 28.775204 -5.499976 29.353107 1.507343 1.759283 0.075718 -0.032071 723992.000000 0 0 1
0.639927 29.575384 -5.700076 30.126462 1.549163 1.761149 0.090791 -0.031938 724894.000000 0 0 1
0.627327 30.332704 -6.906476 31.115364 1.550118 1.794624 0.087208 -0.035429 -180274.000000 0 0 1
0.414827 29.564544 -8.211276 30.686470 1.556766 1.841683 0.097870 -0.043004 394394.000000 0 0 1
-0.924273 29.098764 -8.497876 30.328308 -1.539044 1.854795 0.100310 -0.040540 943688.000000 0 0 1
-1.148273 28.709994 -9.831576 30.368441 -1.530822 1.900479 0.107315 -0.042424 -110788.000000 0 0 1
-1.302973 29.926824 -10.797576 31.841800 -1.527285 1.916757 0.085757 -0.041360 -331426.000000 0 0 1
-0.114773 30.609534 -11.160476 32.580868 -1.567047 1.920423 0.088383 -0.041332 -5667.100000 0 0 1
-0.382273 31.901614 -11.753176 33.999945 -1.558814 1.923762 0.080729 -0.040219 133595.000000 0 0 1
-0.514173 32.978531 -10.638676 34.655870 -1.555206 1.882815 0.078362 -0.039383 1070590.000000 0 0 1
0.727027 33.181463 -9.916276 34.639149 1.548889 1.861132 0.073667 -0.039198 701214.000000 0 0 1
0.527827 -33.426193 -9.029576 34.628344 -1.555007 1.834602 0.061662 -0.028117 -600051.000000 0 0 1
1.495427 -33.045393 -7.907676 34.011257 -1.525573 1.805445 0.057328 -0.019929 -1058120.000000 0 0 1
2.662127 -32.518333 -8.398076 33.690601 -1.489113 1.822723 0.055941 -0.016507 -1079740.000000 0 0 1
3.573427 -32.179653 -7.361876 33.203865 -1.460203 1.794372 0.052798 -0.013934 101772.000000 0 0 1
4.888227 -31.538833 -7.944576 32.889345 -1.417029 1.814764 0.053516 -0.013432 654621.000000 0 0 1
5.589327 -32.470813 -8.782676 34.098822 -1.400333 1.831298 0.059093 -0.013614 335137.000000 0 0 1
6.423127 -33.360223 -8.041176 34.911625 -1.380585 1.803213 0.071348 0.004423 -943964.000000 0 0 1
6.817627 33.018542 -8.746576 34.831118 1.367179 1.824627 0.065215 -0.008680 -9240.730000 0 0 1
5.774627 32.127568 -9.074276 33.880222 1.392955 1.841941 0.050712 -0.015697 -86181.500000 0 0 1
4.792527 32.525275 -10.041376 34.375734 1.424501 1.867225 0.067326 -0.022215 236879.000000 0 0 1
3.857827 31.332884 -10.283876 33.202268 1.448289 1.885710 0.058597 -0.036542 -69036.300000 0 0 1
4.469727 30.234404 -10.897576 32.447725 1.424024 1.913304 0.040936 -0.038192 -26265.200000 0 0 1
3.578327 29.126364 -10.824176 31.277984 1.448554 1.924169 0.043010 -0.039780 226250.000000 0 0 1
4.030027 27.917794 -11.655076 30.520242 1.427433 1.962626 0.054825 -0.043913 -390685.000000 0 0 1
4.028727 28.148394 -13.067476 31.294116 1.428637 2.001565 0.055049 -0.046155 662139.000000 0 0 1
5.346327 28.226204 -13.636276 31.800155 1.383604 2.013973 0.058441 -0.052182 608424.000000 0 0 1
5.302127 28.735314 -15.122076 32.901490 1.388333 2.048360 0.061984 -0.048444 -278412.000000 0 0 1
4.532627 27.953264 -15.975176 32.513627 1.410045 2.084421 0.067521 -0.042400 -125628.000000 0 0 1
4.334427 28.737424 -17.143176 33.741892 1.421096 2.103737 0.100281 -0.040044 -143923.000000 0 0 1
3.384627 28.028954 -18.111276 33.542455 1.450624 2.141175 0.088794 -0.038860 -222207.000000 0 0 1
3.919227 26.828324 -18.593076 32.875854 1.425737 2.171901 0.099689 -0.027635 -426985.000000 0 0 1
3.095427 26.249154 -19.545376 32.872808 1.453414 2.207534 0.115091 -0.037461 -46205.000000 0 0 1
3.731927 24.969664 -20.202176 32.334801 1.422436 2.245648 0.120939 -0.038546 303217.000000 0 0 1
3.841227 23.993544 -19.195976 30.966606 1.412049 2.239402 0.114853 -0.041361 295079.000000 0 0 1
4.794727 23.000044 -19.574876 30.580504 1.365274 2.265437 0.106023 -0.038590 370513.000000 0 0 1
4.921727 21.904304 -18.497676 29.089276 1.349775 2.259962 0.114872 -0.034022 112693.000000 0 0 1
3.982327 20.863604 -18.644776 28.262636 1.382191 2.291212 0.131677 -0.035614 -75930.900000 0 0 1
4.481927 19.673704 -18.031276 27.060473 1.346806 2.300076 0.113511 -0.030720 -192091.000000 0 0 1
3.475227 18.532804 -17.840276 25.957995 1.385431 2.328527 0.098395 -0.038539 2870.340000 0 0 1
2.692127 18.788204 -16.635876 25.238790 1.428477 2.290470 0.106997 -0.032170 557619.000000 0 0 1
1.750627 17.730204 -16.369776 24.194925 1.472378 2.313903 0.081254 -0.021271 462037.000000 0 1 0
2.277127 16.595804 -15.421776 22.769216 1.434437 2.314894 0.058336 -0.025418 366328.000000 0 1 0
3.359227 15.759404 -15.854776 22.605688 1.360782 2.348103 0.073775 -0.034017 58581.800000 0 1 0
3.201327 14.722604 -16.880176 22.626178 1.356686 2.412901 0.085028 -0.035868 -240223.000000 0 1 0
3.125527 15.136704 -18.366976 24.004886 1.367171 2.442047 0.078297 -0.033429 -8487.990000 0 1 0
4.418927 15.424304 -18.878276 24.775500 1.291779 2.437151 0.107479 -0.035719 -37304.400000 0 1 0
4.510727 15.968604 -20.199176 26.140958 1.295494 2.453884 0.098321 -0.041013 -372475.000000 0 0 1
4.654727 14.865904 -21.284676 26.376107 1.267352 2.509797 0.099616 -0.048818 402410.000000 0 0 1
3.550927 14.003504 -21.504076 25.906225 1.322457 2.550036 0.087362 -0.040363 -206486.000000 0 0 1
2.398327 14.515904 -22.119576 26.565750 1.407055 2.554645 0.090316 -0.044113 -236782.000000 0 0 1
1.554227 13.398004 -22.751776 26.449300 1.455308 2.606465 0.083060 -0.028536 -268351.000000 0 0 1
0.812727 12.722904 -21.733376 25.196675 1.507004 2.611083 0.075741 -0.018065 239330.000000 0 0 1
0.036127 11.741504 -22.464476 25.347917 1.567719 2.659972 0.035816 -0.009576 62985.100000 0 0 1
-0.583373 10.624404 -21.539876 24.024665 -1.515943 2.682767 0.012235 -0.008377 -678344.000000 0 1 0
-1.608373 11.224304 -20.797076 23.687343 -1.428471 2.642428 0.022944 -0.007696 -372371.000000 0 1 0
-2.005273 10.413204 -19.718876 22.389507 -1.380555 2.648176 0.011259 -0.001581 98946.200000 0 1 0
-3.059973 9.315104 -19.892676 22.177763 -1.253406 2.683652 0.010881 -0.010347 -323168.000000 0 1 0
-2.524673 8.183204 -20.593976 22.303602 -1.271542 2.747506 0.013475 -0.011637 -212923.000000 0 1 0
-3.501073 7.198604 -20.860576 22.343703 -1.118125 2.775190 0.018547 -0.010876 -343854.000000 0 1 0
-3.039673 6.040704 -21.746976 22.774123 -1.104593 2.840114 0.022923 -0.022630 -625563.000000 0 1 0
-2.233173 5.143804 -21.060176 21.793962 -1.161203 2.881362 0.027708 -0.014437 -206713.000000 0 1 0
-1.883873 3.979404 -21.792676 22.232979 -1.128650 2.942245 0.047334 -0.024246 -569895.000000 0 1 0
-1.203373 2.867904 -20.973576 21.202921 -1.173508 2.994377 0.040073 -0.025595 666408.000000 0 1 0
0.178427 3.242204 -20.869376 21.120478 1.515819 2.987238 0.033385 -0.021539 667938.000000 0 1 0
0.989527 2.238404 -20.225076 20.372612 1.154558 3.021171 0.034383 -0.013412 -607437.000000 0 1 0
2.469027 2.359704 -20.435676 20.719101 0.762762 2.975998 0.025200 -0.013828 -872203.000000 0 1 0
2.979927 2.127904 -21.754176 22.060193 0.620113 2.974835 0.049898 -0.004193 -2075710.000000 0 1 0
4.318427 2.216404 -21.695976 22.232333 0.474186 2.921489 0.064289 -0.004605 -2048050.000000 0 1 0
5.064027 1.309804 -22.750176 23.343746 0.253102 2.915602 0.078422 -0.016774 -37717.900000 0 1 0
6.425327 1.182904 -22.397376 23.330807 0.182062 2.857768 0.088885 -0.033316 -171399.000000 0 1 0
7.115327 0.682304 -23.541676 24.602925 0.095600 2.846809 0.094233 -0.032302 739884.000000 0 1 0
8.649927 0.465104 -23.297476 24.855783 0.053718 2.785615 0.101509 -0.044491 875254.000000 0 1 0
9.355227 1.687604 -23.091876 24.972045 0.178472 2.751067 0.101953 -0.056605 -1234500.000000 0 1 0
10.693827 1.585304 -23.330276 25.713282 0.147173 2.707671 0.112389 -0.046509 -1341050.000000 0 0 1
13.561927 -20.177333 22.151085 32.889530 -0.979016 0.831863 0.125229 -0.018666 -821894.000000 0 0 1
12.834927 -21.379233 22.097785 33.318449 -1.030123 0.845670 0.113321 -0.010067 155107.000000 0 0 1
11.492327 -21.108733 21.688985 32.373821 -1.072236 0.836649 0.085924 -0.000392 542934.000000 0 0 1
11.303327 -20.835633 20.123085 31.093848 -1.073730 0.866927 0.125031 -0.021851 -643271.000000 0 0 1
11.702827 -19.542233 19.818985 30.193496 -1.031224 0.854761 0.153822 -0.025618 -271915.000000 0 0 1
11.459727 -19.270633 18.441485 29.030519 -1.034303 0.882471 0.156490 -0.026698 134511.000000 0 0 1
11.546527 -17.793233 18.037985 27.844036 -0.995175 0.866074 0.186486 -0.045158 433686.000000 0 0 1
10.408627 -17.013733 18.398285 27.134913 -1.021762 0.825717 0.212607 -0.051136 -64174.100000 0 0 1
10.443627 -15.685633 18.018885 26.072757 -0.983388 0.807786 0.231628 -0.050755 55162.600000 0 0 1
9.287427 -14.841533 18.595785 25.540764 -1.011642 0.755276 0.197380 -0.049592 234964.000000 0 0 1
8.042527 -15.164833 18.018585 24.886217 -1.083172 0.761157 0.158206 -0.043181 -899779.000000 0 1 0
7.009527 -14.367133 18.490585 24.442785 -1.116887 0.712875 0.115298 -0.033441 -285848.000000 0 1 0
5.637427 -14.950133 18.113785 24.153597 -1.210202 0.722823 0.039999 -0.015929 -525775.000000 0 1 0
5.345927 -14.769233 16.742785 22.957135 -1.223503 0.753489 0.018275 -0.023262 586413.000000 0 1 0
4.003527 -15.139233 16.366785 22.651628 -1.312267 0.763322 -0.005470 -0.013869 1043710.000000 0 1 0
3.337127 -16.511833 16.701585 23.721720 -1.371377 0.789694 -0.011707 0.003099 -723209.000000 0 1 0
2.069127 -16.614833 16.136685 23.253528 -1.446899 0.803842 -0.010544 0.005931 -738189.000000 0 1 0
1.578627 -17.961633 15.981285 24.093854 -1.483133 0.845586 0.008562 -0.002901 792047.000000 0 1 0
0.124227 -17.927633 15.424885 23.650424 -1.563867 0.860309 0.031464 -0.003795 198921.000000 0 1 0
0.059827 -17.685333 14.002585 22.557637 -1.567413 0.901101 0.024069 -0.004564 -1009720.000000 0 1 0
-1.237173 -17.696133 13.519785 22.303998 1.500998 0.919573 0.034097 -0.004935 -848997.000000 0 1 0
-1.646173 -18.980933 12.821385 22.964617 1.484285 0.978448 0.036117 0.009098 -983448.000000 0 1 0
-3.027873 -19.049733 12.673685 23.079918 1.413169 0.989483 0.042484 -0.008078 -643738.000000 0 1 0
-3.391373 -20.223833 11.989485 23.754001 1.404650 1.041721 0.056212 -0.011487 212756.000000 0 1 0
-4.899973 -20.566633 11.997585 24.309220 1.336908 1.054640 0.055867 -0.016212 316302.000000 0 1 0
-5.415273 -20.992033 13.245585 25.405436 1.318333 1.022343 0.054863 -0.018323 922698.000000 0 0 1
-6.853373 -21.083833 13.175685 25.789444 1.256516 1.034571 0.057488 -0.025876 984678.000000 0 0 1
-7.523973 -21.857033 14.324285 27.194213 1.239266 1.016035 0.052560 -0.020069 -179444.000000 0 0 1
-8.922873 -21.772133 14.307985 27.538371 1.181845 1.024454 0.051995 -0.024911 -578764.000000 0 0 1
-9.516373 -22.470233 15.349285 28.828342 1.170188 1.009319 0.058349 -0.022721 496633.000000 0 0 1
-11.022973 -22.139133 15.547485 29.212522 1.108834 1.009576 0.074574 -0.024841 516503.000000 0 0 1
-11.251073 -20.829033 16.077185 28.616624 1.075537 0.974221 0.081260 -0.018086 241110.000000 0 0 1
-12.553173 -20.265933 15.854085 28.629394 1.016218 0.983912 0.067158 -0.020675 488135.000000 0 0 1
-12.859873 -18.993633 16.671485 28.356178 0.975631 0.942297 0.079981 -0.019251 -395490.000000 0 0 1
-13.203873 -19.315733 18.012785 29.527957 0.971175 0.914704 0.086411 -0.025696 16642.100000 0 0 1
-13.395473 -18.187433 18.852785 29.421912 0.935976 0.875291 0.088205 -0.025512 -87552.200000 0 0 1
-13.781773 -18.689733 20.285985 30.834471 0.935409 0.852770 0.093927 -0.038830 -196657.000000 0 0 1
-15.074973 -19.222433 20.159885 31.672981 0.905740 0.880843 0.091740 -0.031856 -263542.000000 0 0 1
-15.524073 -19.738033 21.387685 32.985146 0.904338 0.865311 0.102106 -0.030820 -52619.700000 0 0 1
-16.874873 -20.487233 21.297785 34.030629 0.881784 0.894586 0.111371 -0.033922 -534545.000000 0 0 1
-16.869773 -21.560833 20.363985 34.119652 0.906863 0.931239 0.120741 -0.040087 107638.000000 0 0 1
-18.089673 -21.863533 19.729085 34.561353 0.879576 0.963265 0.104311 -0.030027 375429.000000 0 0 1
-19.253073 -22.485133 20.578685 36.051967 0.862680 0.963309 0.106984 -0.028486 298886.000000 0 0 1
-19.964473 -21.479333 21.333285 36.263632 0.821934 0.941862 0.115519 -0.026493 380663.000000 0 0 1
-20.850373 -21.973833 22.325885 37.630208 0.811626 0.935648 0.083407 -0.020420 134738.000000 0 0 1
-21.425573 -20.779533 23.169245 37.784363 0.770092 0.910695 0.079610 -0.006122 -169805.000000 0 0 1
-22.498773 -20.128133 22.556185 37.684453 0.729842 0.929101 0.079859 -0.004731 -41307.100000 0 0 1
-22.914073 -18.968133 23.251705 37.755617 0.691460 0.907335 0.075679 -0.006765 324565.000000 0 0 1
-23.835673 -18.044633 22.412085 37.363748 0.647994 0.927501 0.091910 -0.002960 135888.000000 0 0 1
-23.120473 -17.308933 21.439685 35.969647 0.642631 0.932224 0.099226 -0.001701 187827.000000 0 0 1
-23.956473 -16.415633 20.656585 35.638183 0.600743 0.952535 0.103331 -0.014684 203136.000000 0 0 1
-23.345073 -15.673133 19.412485 34.168467 0.591250 0.966552 0.116448 -0.010780 -387858.000000 0 0 1
-22.190773 -14.950433 19.658085 33.202201 0.592872 0.937169 0.120996 -0.008145 -420260.000000 0 0 1
-21.564173 -14.575933 18.419885 31.886730 0.594390 0.954930 0.123964 -0.021196 -47239.400000 0 0 1
-20.581473 -13.399733 18.413485 30.695379 0.577119 0.927448 0.111642 -0.024561 -56403.400000 0 0 1
-20.063973 -13.473333 17.099685 29.605624 0.591354 0.955032 0.117979 -0.021748 127065.000000 0 0 1
-19.219173 -12.362633 16.785485 28.354256 0.571612 0.937268 0.104444 -0.033287 -240926.000000 0 0 1
-18.320473 -12.486533 15.529185 27.068595 0.598244 0.959783 0.075994 -0.032999 -10391.700000 0 0 1
-17.786973 -11.299333 14.967585 25.847242 0.565943 0.953198 0.071360 -0.031421 942254.000000 0 0 1
-16.644873 -10.783733 15.678285 25.281403 0.574877 0.901861 0.064501 -0.038542 78548.200000 0 0 1
-16.268473 -9.361933 15.235585 24.175030 0.522183 0.888960 0.073006 -0.038601 -515773.000000 0 1 0
-17.288273 -8.428933 15.447385 24.668867 0.453640 0.894140 0.102448 -0.040024 97781.700000 0 1 0
-16.999873 -7.130033 14.886985 23.695050 0.397132 0.891464 0.100681 -0.040953 -811589.000000 0 1 0
-17.010673 -5.987733 15.932285 24.063534 0.338454 0.847189 0.108412 -0.031272 106891.000000 0 1 0
-16.024373 -5.978533 16.931585 24.066615 0.357095 0.790444 0.087190 -0.022380 163445.000000 0 1 0
-14.684173 -5.856333 16.479985 22.836626 0.379488 0.764618 0.082829 -0.023489 -479430.000000 0 1 0
-13.678973 -6.022433 17.645585 23.124677 0.414733 0.702757 0.062321 -0.014112 -129533.000000 0 1 0
-13.811573 -7.203533 18.477985 24.167879 0.480745 0.700426 0.052857 -0.023033 29827.700000 0 1 0
-13.595173 -8.387733 17.728185 23.863599 0.552800 0.733409 0.060408 -0.020715 -634741.000000 0 1 0
-13.484473 -9.553733 18.713885 24.966264 0.616407 0.723389 0.062137 -0.024694 540960.000000 0 1 0
-14.701873 -10.030233 19.265085 26.227736 0.598708 0.745821 0.069326 -0.027395 497770.000000 0 0 1
-15.583573 -9.206033 20.034785 26.999841 0.533592 0.734698 0.066368 -0.026530 -1137240.000000 0 0 1
-16.956173 -9.788933 20.274385 28.184849 0.523567 0.767950 0.075472 -0.019255 -567612.000000 0 0 1
-17.953273 -9.643233 19.298585 28.066837 0.492908 0.812626 0.090349 -0.026284 212600.000000 0 0 1
-18.438373 -8.341233 18.966985 27.736191 0.424835 0.817790 0.095470 -0.028795 220787.000000 0 0 1
-19.614773 -8.367233 17.904185 27.844385 0.403207 0.872376 0.114433 -0.040077 37655.700000 0 0 1
-20.831673 -8.823233 18.373385 29.144285 0.400641 0.888691 0.124037 -0.044391 -966395.000000 0 0 1
-21.774173 -8.767533 17.354485 29.191821 0.382795 0.934155 0.136303 -0.037318 -640145.000000 0 0 1
-23.214873 -9.147133 17.684385 30.583294 0.375341 0.954230 0.135804 -0.031539 -420789.000000 0 0 1
-23.893273 -8.097433 18.347185 31.194168 0.326752 0.942014 0.141814 -0.025752 1143020.000000 0 0 1
-25.313813 -8.336733 18.261085 32.307236 0.318148 0.970082 0.150319 -0.025482 918960.000000 0 0 1
-26.243923 -7.362633 19.017785 33.235945 0.273515 0.961604 0.139350 -0.016829 -125874.000000 0 0 1
-26.203353 -7.464433 20.420285 34.048811 0.277515 0.927626 0.133756 -0.023105 -271823.000000 0 0 1
-26.977833 -6.470833 20.933485 34.754654 0.235410 0.924390 0.122429 -0.024099 -1144010.000000 0 0 1
-27.026883 -6.358633 22.483185 35.726436 0.231068 0.890125 0.120949 -0.023744 294352.000000 0 0 1
-25.967383 -5.995033 23.377695 35.450840 0.226892 0.850723 0.115775 -0.029179 49744.100000 0 0 1
-24.854573 -6.862133 23.347175 34.784037 0.269381 0.834965 0.114798 -0.030319 -632178.000000 0 0 1
-23.812373 -6.539433 24.400805 34.715884 0.268016 0.791370 0.105824 -0.023230 -320046.000000 0 0 1
-23.105973 -5.315433 24.154885 33.846688 0.226112 0.776093 0.094251 -0.026128 681373.000000 0 0 1
-22.338773 -4.945833 25.340375 34.141129 0.217887 0.734413 0.080026 -0.017791 170959.000000 0 0 1
-21.648373 -3.571333 25.148715 33.374606 0.163497 0.717383 0.076329 -0.019717 767937.000000 0 0 1
-20.523673 -3.344933 26.054865 33.335653 0.161559 0.673583 0.072012 -0.020298 962996.000000 0 0 1
-20.847973 -3.307333 27.468815 34.642636 0.157329 0.655211 0.065472 -0.027963 70263.700000 0 0 1
-21.608673 -2.019133 27.994145 35.421516 0.093170 0.659474 0.056483 -0.030067 505287.000000 0 0 1
-22.823573 -1.826433 27.308065 35.636804 0.079854 0.697752 0.055508 -0.029107 -879067.000000 0 0 1
-23.733773 -1.064333 28.029385 36.743315 0.044815 0.703097 0.051217 -0.016508 -630740.000000 0 0 1
-25.014493 -0.857033 27.229015 36.984843 0.034248 0.743327 0.053910 -0.019251 -1160580.000000 0 0 1
-24.862773 -0.263533 25.945305 35.935857 0.010599 0.764123 0.050946 -0.019999 84844.400000 0 0 1
-26.092753 0.160467 25.349675 36.379438 -0.006150 0.799851 0.084014 -0.027795 464756.000000 0 0 1
-27.078513 -0.964533 24.860895 36.772820 0.035605 0.828384 0.079187 -0.021894 -71375.700000 0 0 1
-27.813923 -1.501033 25.949835 38.069166 0.053915 0.820781 0.068935 -0.013078 25718.000000 0 0 1
-28.468573 -2.733133 25.741365 38.477884 0.095712 0.837946 0.059433 -0.016785 417389.000000 0 0 1
-27.541303 -4.013933 25.765475 37.927493 0.144723 0.823940 0.071245 -0.022204 466532.000000 0 0 1
-27.039833 -4.432333 27.026135 38.486493 0.162474 0.792280 0.047517 -0.013528 -178428.000000 0 0 1
-26.121023 -5.481833 26.898515 37.893119 0.206861 0.781508 0.070187 -0.023348 -477053.000000 0 0 1
-25.755843 -6.031533 28.306325 38.742624 0.230036 0.751560 0.032728 -0.018431 -747034.000000 0 0 1
-26.819903 -6.436033 29.087305 40.084923 0.235519 0.758829 0.055678 -0.016529 -573155.000000 0 0 1
-26.393613 -7.059633 30.229025 40.746229 0.261357 0.734919 0.041850 -0.014216 -772320.000000 0 0 1
-27.597933 -7.380433 31.092805 42.224155 0.261312 0.743100 0.061901 -0.016911 -428444.000000 0 0 1
-28.394173 -8.423333 30.576385 42.568732 0.288387 0.769465 0.073369 -0.017869 1176900.000000 0 0 1
-29.695103 -8.408133 31.223955 43.902520 0.275926 0.779577 0.080576 -0.016486 1009710.000000 0 0 1
-30.855163 -8.977033 30.388655 44.227803 0.283125 0.813315 0.078324 -0.019237 -242311.000000 0 0 1
-30.676493 -10.359533 30.130125 44.228855 0.325678 0.821352 0.072333 -0.021974 419839.000000 0 0 1
-31.588463 -10.878933 29.159675 44.344885 0.331673 0.853213 0.077919 -0.027266 57735.000000 0 0 1
-31.076393 -12.221933 28.590145 43.960371 0.374706 0.862736 0.072820 -0.030279 779179.000000 0 0 1
-29.950053 -11.973633 27.708305 42.522038 0.380322 0.861075 0.080616 -0.032528 541823.000000 0 0 1
-29.279453 -13.164233 27.412885 42.214330 0.422527 0.864035 0.082892 -0.034286 -1448440.000000 0 0 1
-28.069143 -12.903233 26.566195 40.744729 0.430887 0.860557 0.085979 -0.030796 -455624.000000 0 0 1
-26.922013 -12.279533 27.176615 40.176487 0.427927 0.827891 0.074533 -0.034111 646942.000000 0 0 1
-27.021643 -10.988333 27.721705 40.241839 0.386225 0.810857 0.075437 -0.040865 -1066910.000000 0 0 1
-27.211963 -9.807133 26.751825 39.399631 0.345908 0.824415 0.082922 -0.036337 405736.000000 0 0 1
-25.997763 -9.422833 26.101215 38.025608 0.347721 0.814253 0.071102 -0.026581 461210.000000 0 0 1
-25.547343 -10.211633 24.978515 37.160065 0.380260 0.833638 0.068989 -0.029626 66894.300000 0 0 1
-26.400063 -10.201133 23.671075 36.896426 0.368732 0.874273 0.094960 -0.029773 -477102.000000 0 0 1
-27.627283 -10.852333 23.771355 38.027848 0.374295 0.895532 0.097825 -0.028689 -627626.000000 0 0 1
-28.332943 -10.711533 22.564185 37.770823 0.361450 0.930545 0.120700 -0.027258 -263513.000000 0 0 1
-29.647183 -11.519633 22.517485 38.970432 0.370603 0.954754 0.114470 -0.032351 495561.000000 0 0 1
-30.806113 -10.951133 23.135425 40.052363 0.341553 0.954975 0.105286 -0.029199 82248.100000 0 0 1
-30.790003 -10.956933 24.583185 40.895130 0.341886 0.925885 0.104971 -0.029626 35857.300000 0 0 1
-32.178093 -10.681933 25.268475 42.285094 0.320517 0.930324 0.082265 -0.027720 429713.000000 0 0 1
-32.642953 -9.374033 24.906685 42.116242 0.279644 0.938028 0.091754 -0.030834 -1335140.000000 0 0 1
-33.955663 -9.086633 25.168685 43.232125 0.261476 0.949394 0.078297 -0.023796 -1243770.000000 0 0 1
-34.436231 -8.915033 26.636275 44.438980 0.253324 0.928058 0.075325 -0.020858 -422537.000000 0 0 1
-34.827117 -10.149433 27.238735 45.363948 0.283570 0.926734 0.076172 -0.032472 81746.000000 0 0 1
-35.328817 -10.094133 28.527945 46.517314 0.278305 0.910595 0.084268 -0.032113 -753895.000000 0 0 1
-35.808430 -11.467033 29.031295 47.503185 0.309914 0.913291 0.069944 -0.025700 632138.000000 0 0 1
-37.023843 -11.943133 28.439475 48.189284 0.312041 0.939537 0.046818 -0.030883 2025800.000000 0 0 1
36.959986 -11.440933 29.042365 48.377624 -0.300194 0.926887 0.055176 -0.022177 908425.000000 0 0 1
35.676876 -11.958433 28.396365 47.140186 -0.323418 0.924315 0.050083 -0.023193 -188024.000000 0 0 1
35.494976 -11.494933 27.048465 46.083037 -0.313188 0.943509 0.046956 -0.018320 -141432.000000 0 0 1
34.371306 -12.061033 26.386105 44.978681 -0.337480 0.943898 0.067622 -0.015293 135079.000000 0 0 1
34.124556 -11.620533 24.927575 43.828143 -0.328216 0.965802 0.060499 -0.014241 -27841.300000 0 0 1
33.661246 -10.305633 24.861365 43.097251 -0.297096 0.955909 0.068573 -0.022587 -55733.900000 0 0 1
34.104816 -9.758633 23.669565 42.645254 -0.278690 0.982393 0.057330 -0.014363 -438139.000000 0 0 1
33.529736 -8.355333 23.356735 41.708415 -0.244218 0.976410 0.073351 -0.002131 505228.000000 0 0 1
32.123216 -8.299433 23.181585 40.474282 -0.252834 0.960941 0.081610 -0.008915 211606.000000 0 0 1
31.489466 -7.066133 22.888015 39.564857 -0.220740 0.953916 0.101761 0.001397 314517.000000 0 0 1
29.958326 -6.993133 22.993145 38.406900 -0.229322 0.928954 0.109372 0.007476 220872.000000 0 0 1
29.257826 -7.719333 21.990485 37.405747 -0.257960 0.942348 0.109217 0.010392 -241462.000000 0 0 1
27.861626 -7.654833 22.050885 36.347052 -0.268129 0.918924 0.094630 -0.006100 -282187.000000 0 0 1
15.242727 -17.313433 25.473055 34.365276 -0.848917 0.735875 0.124519 -0.019918 39866.100000 0 0 1
14.663827 -18.576333 25.199225 34.570347 -0.902563 0.754044 0.115530 -0.015303 183145.000000 0 0 1
15.571427 -19.623233 25.493865 35.741821 -0.900019 0.776632 0.112559 -0.018623 -406174.000000 0 0 1
14.962327 -21.141433 25.359085 36.247960 -0.954904 0.795958 0.098788 -0.022212 189992.000000 0 0 1
14.046627 -21.500633 26.332175 36.782719 -0.992096 0.772906 0.088845 -0.026570 527645.000000 0 0 1
12.792227 -20.795933 26.382955 35.946797 -1.019325 0.746685 0.092011 -0.021698 318400.000000 0 0 1
12.049127 -21.045733 27.737655 36.844021 -1.050827 0.718430 0.082300 -0.015193 -63899.500000 0 0 1
12.681227 -20.413433 28.829085 37.531825 -1.014920 0.694891 0.078831 -0.026147 -244634.000000 0 0 1
12.031127 -19.338833 29.448935 37.228729 -1.014269 0.658310 0.080838 -0.021799 -273338.000000 0 0 1
12.219927 -17.924433 28.853675 36.099120 -0.972426 0.644683 0.103586 -0.019738 203824.000000 0 0 1
13.436627 -17.324933 29.229075 36.538132 -0.911133 0.643566 0.089269 -0.005722 -215763.000000 0 0 1
13.439627 -16.055133 28.750825 35.566850 -0.873844 0.629435 0.106347 -0.005962 151592.000000 0 0 1
14.195327 -14.931133 29.497365 35.979725 -0.810655 0.609677 0.095290 -0.007220 -12943.100000 0 0 1
13.794127 -13.682233 29.027045 34.929225 -0.781326 0.589849 0.130144 -0.010319 136908.000000 0 0 1
14.397727 -12.687233 29.791315 35.437027 -0.722329 0.572253 0.117576 -0.005788 -36846.400000 0 0 1
13.788127 -11.319533 29.413945 34.400937 -0.687393 0.545181 0.117679 -0.008816 75708.300000 0 0 1
13.856727 -10.876333 27.991745 33.073272 -0.665474 0.561691 0.149224 -0.017379 228230.000000 0 0 1
15.182827 -10.683633 27.527795 33.202978 -0.613182 0.593343 0.142960 -0.012002 -141599.000000 0 0 1
15.365127 -9.831933 26.223145 31.943816 -0.569232 0.607786 0.137620 -0.015707 -92094.000000 0 0 1
15.534027 -8.418933 26.483945 31.836830 -0.496655 0.588337 0.131889 -0.013141 322313.000000 0 0 1
16.897927 -8.162933 26.797095 32.714794 -0.450015 0.610934 0.121337 -0.019205 -1954.100000 0 0 1
17.300627 -6.693333 26.548565 32.387323 -0.369148 0.609873 0.108473 -0.014115 1046890.000000 0 0 1
18.699027 -6.517233 26.881395 33.387682 -0.335368 0.634903 0.103260 -0.018988 1314770.000000 0 0 1
19.216527 -5.209633 26.559805 33.193952 -0.264738 0.643268 0.106916 -0.018436 2006560.000000 0 0 1
20.810927 -5.041233 26.709485 34.233102 -0.237662 0.675773 0.103198 -0.017755 911700.000000 0 0 1
21.459127 -5.797733 25.746685 34.014697 -0.263876 0.712197 0.098968 -0.006159 1092690.000000 0 0 1
22.895527 -5.645033 25.653385 34.844910 -0.241735 0.743334 0.094524 -0.006810 1309840.000000 0 0 1
23.794927 -5.916233 26.857705 36.366697 -0.243693 0.739917 0.096877 -0.016329 -1044960.000000 0 0 1
24.031527 -4.889333 27.762985 37.043261 -0.200715 0.723528 0.101678 -0.015807 -360613.000000 0 0 1
25.175727 -5.070933 28.532315 38.387818 -0.198762 0.732859 0.099590 -0.028666 -379944.000000 0 0 1
25.805227 -3.712533 28.948475 38.957757 -0.142887 0.733145 0.108584 -0.040019 -326953.000000 0 0 1
26.338227 -2.922733 27.919575 38.493470 -0.110517 0.759316 0.103070 -0.032384 162828.000000 0 0 1
26.649827 -1.570233 28.334455 38.929683 -0.058853 0.755634 0.096814 -0.040364 -409820.000000 0 0 1
27.640127 -0.975133 27.315305 38.872270 -0.035265 0.791620 0.097773 -0.041157 95983.700000 0 0 1
28.998927 -1.292933 27.559425 40.026633 -0.044556 0.811340 0.092081 -0.040530 -237789.000000 0 0 1
29.818327 -0.609433 26.644945 39.993214 -0.020435 0.841645 0.095712 -0.024449 528521.000000 0 0 1
31.347827 -0.651033 26.941535 41.339526 -0.020765 0.860955 0.083007 -0.026485 541096.000000 0 0 1
31.687427 0.266667 27.950785 42.254118 0.008415 0.847989 0.064337 -0.017593 337758.000000 0 0 1
33.096227 0.291367 28.165745 43.459801 0.008803 0.865726 0.073040 -0.027373 529529.000000 0 0 1
33.630727 1.296367 29.228055 44.575616 0.038528 0.855692 0.094756 -0.029092 36677.300000 0 0 1
33.678127 2.623967 28.761325 44.365699 0.077756 0.865475 0.087440 -0.017089 28063.700000 0 0 1
34.052027 3.512467 29.774395 45.369511 0.102786 0.854939 0.085636 -0.013688 3406.650000 0 0 1
34.230327 4.974867 29.150465 45.235099 0.144325 0.870530 0.090174 -0.004838 -107864.000000 0 0 1
34.434627 5.985067 30.058415 46.098513 0.172090 0.860515 0.089091 0.000311 1048920.000000 0 0 1
33.210227 6.493767 30.660285 45.663347 0.193099 0.834643 0.082036 0.004238 1015930.000000 0 0 1
33.491027 7.238567 31.983095 46.871784 0.212860 0.819820 0.082206 0.000442 173528.000000 0 0 1
33.936227 6.320567 32.981623 47.743110 0.184139 0.808182 0.071099 0.003038 171244.000000 0 0 1
34.438327 6.925967 -33.531896 48.562902 0.198465 2.332954 0.059588 -0.012258 5724.760000 0 0 1
34.694527 5.780867 -32.525446 47.906505 0.165105 2.317109 0.078447 -0.002501 179185.000000 0 0 1
33.445227 5.257567 -32.090666 46.648002 0.155923 2.329433 0.065335 0.003309 541770.000000 0 0 1
33.192627 3.941867 -32.522076 46.636619 0.118204 2.342491 0.086121 -0.013307 -141209.000000 0 0 1
33.554027 2.950767 -31.411446 46.057124 0.087715 2.321305 0.079764 -0.020831 -182936.000000 0 0 1
33.613527 1.607967 -31.903876 46.371457 0.047800 2.329535 0.083376 -0.018944 229480.000000 0 0 1
34.094127 0.637467 -30.982796 46.073306 0.018695 2.308334 0.067556 -0.021900 -50473.700000 0 0 1
34.254827 -0.745533 -31.748766 46.711167 -0.021761 2.318126 0.064452 -0.047297 -151690.000000 0 0 1
35.524227 -0.926033 -32.409306 48.095648 -0.026062 2.310205 0.085516 -0.038401 789681.000000 0 0 1
36.251427 -2.086333 -31.985306 48.389860 -0.057488 2.292936 0.100211 -0.034757 548317.000000 0 0 1
37.080127 -1.738833 -30.721536 48.184771 -0.046860 2.262146 0.106478 -0.029784 -965166.000000 0 0 1
36.232727 -1.697933 -29.613866 46.826003 -0.046828 2.255474 0.100753 -0.030565 -2771.220000 0 0 1
36.898727 -1.411433 -28.370886 46.566247 -0.038233 2.225922 0.129064 -0.031069 169678.000000 0 0 1
35.916627 -1.229733 -27.181976 45.059695 -0.034225 2.218358 0.129940 -0.032773 252206.000000 0 0 1
35.104027 -0.046433 -27.218586 44.420111 -0.001323 2.230337 0.108482 -0.029916 1188130.000000 0 0 1
34.067627 -0.154033 -26.198426 42.976557 -0.004521 2.226350 0.098557 -0.028630 824704.000000 0 0 1
33.302427 1.182167 -26.019126 42.278175 0.035483 2.233724 0.061467 -0.018675 18653.000000 0 0 1
32.557527 1.656467 -27.129316 42.411510 0.050834 2.264864 0.092436 -0.038814 343988.000000 0 0 1
31.915827 2.880567 -26.853116 41.809180 0.090011 2.268263 0.074237 -0.015781 26290.400000 0 0 1
31.370227 3.618967 -28.097286 42.268730 0.114855 2.297928 0.092789 -0.015817 295209.000000 0 0 1
30.391127 4.608467 -27.786086 41.435795 0.150492 2.305789 0.072853 -0.008515 261442.000000 0 0 1
29.701827 4.977167 -28.927876 41.758744 0.166029 2.336075 0.069622 -0.012931 363653.000000 0 0 1
28.605527 6.113267 -28.698166 40.978445 0.210542 2.346647 0.075419 -0.010239 69931.500000 0 0 1
27.529827 5.638567 -27.954596 39.637662 0.202023 2.353577 0.099404 -0.013725 -761524.000000 0 0 1
26.672527 6.670367 -27.655776 38.996916 0.245058 2.359129 0.120783 -0.015200 -603315.000000 0 0 1
25.286027 6.131567 -27.237916 37.668068 0.237896 2.379081 0.132435 -0.014380 208480.000000 0 0 1
24.531827 5.474867 -28.268996 37.827514 0.219576 2.414805 0.140039 -0.012750 89293.200000 0 0 1
23.311327 4.912467 -27.879686 36.671885 0.207694 2.434489 0.131792 -0.007117 -157864.000000 0 0 1
22.476227 4.529867 -29.138986 37.078039 0.198876 2.474918 0.106502 -0.003906 -106791.000000 0 0 1
23.005927 3.444867 -29.924796 37.902944 0.148634 2.480808 0.084537 -0.009743 -100283.000000 0 0 1
22.282227 2.991667 -31.029586 38.318180 0.133464 2.514586 0.050599 -0.014194 -452372.000000 0 0 1
22.303327 3.900467 -32.263506 39.415553 0.173132 2.529674 0.086183 -0.013771 -996007.000000 0 0 1
23.466227 3.812467 -32.971346 40.648596 0.161059 2.516880 0.082774 -0.020347 -1146200.000000 0 0 1
23.465927 4.147867 33.311007 40.957023 0.174954 0.620967 0.098238 -0.025666 -238618.000000 0 0 1
24.739427 3.762867 32.533747 41.044404 0.150943 0.655657 0.087749 -0.012068 114708.000000 0 0 1
25.043527 2.380767 32.568195 41.152565 0.094780 0.657698 0.102195 -0.027619 -800475.000000 0 0 1
26.394827 2.091767 32.498637 41.919253 0.079084 0.683658 0.084933 -0.031696 -1101710.000000 0 0 1
26.681027 0.593967 32.418707 41.990506 0.022258 0.688738 0.076280 -0.028433 -547010.000000 0 0 1
26.250027 -0.111733 31.265615 40.824197 -0.004256 0.698419 0.087265 -0.029276 1035220.000000 0 0 1
24.844927 -0.233433 31.002895 39.730396 -0.009395 0.675600 0.106318 -0.041711 782949.000000 0 0 1
23.923627 -1.105233 31.896143 39.886406 -0.046166 0.644043 0.103081 -0.041643 -4723.410000 0 0 1
24.130527 -2.502033 31.576095 39.819496 -0.103318 0.655110 0.107520 -0.045658 705924.000000 0 0 1
23.212227 -3.303133 32.347258 39.950761 -0.141352 0.627193 0.110657 -0.033145 502133.000000 0 0 1
23.188727 -4.716533 31.794512 39.633997 -0.200660 0.639820 0.109866 -0.035766 107012.000000 0 0 1
24.367827 -5.418533 32.122075 40.681436 -0.218804 0.660639 0.102236 -0.027157 122477.000000 0 0 1
24.134727 -6.828033 31.921681 40.596808 -0.275708 0.665983 0.102713 -0.025505 470705.000000 0 0 1
25.488427 -7.595533 31.810620 41.464052 -0.289620 0.696355 0.094141 -0.029230 628216.000000 0 0 1
26.244127 -7.326333 30.641865 41.004308 -0.272230 0.726831 0.088649 -0.030486 553870.000000 0 0 1
27.465527 -8.088333 30.572235 41.886010 -0.286394 0.752633 0.078291 -0.030510 976005.000000 0 0 1
28.031127 -8.018433 29.127535 41.212288 -0.278614 0.785877 0.080745 -0.027679 896525.000000 0 0 1
27.073527 -8.616433 28.247195 40.063984 -0.308124 0.788300 0.066011 -0.023969 899027.000000 0 0 1
27.724827 -8.413033 26.991655 39.597912 -0.294617 0.820790 0.085335 -0.014585 641518.000000 0 0 1
27.026027 -9.232233 25.894355 38.550718 -0.329177 0.834301 0.072851 -0.027929 320648.000000 0 0 1
25.800827 -8.719033 25.374695 37.223371 -0.325887 0.820730 0.067730 -0.031178 292417.000000 0 0 1
25.396527 -9.546933 24.285815 36.413299 -0.359573 0.840690 0.065694 -0.029061 992436.000000 0 0 1
23.986027 -9.120033 23.722575 34.946603 -0.363342 0.824637 0.078123 -0.018089 1443550.000000 0 0 1
22.828027 -9.482733 24.467515 34.780747 -0.393710 0.790516 0.070772 -0.012705 110403.000000 0 0 1
21.645827 -8.913633 23.998105 33.524673 -0.390633 0.772978 0.076680 -0.014258 261812.000000 0 0 1
20.479627 -8.756333 25.011455 33.491213 -0.404040 0.727549 0.093309 -0.010242 143005.000000 0 0 1
19.764127 -9.882733 25.453965 33.707469 -0.463675 0.714924 0.110537 -0.015455 204839.000000 0 0 1
20.462327 -10.685033 26.422695 35.086116 -0.481234 0.718064 0.079804 -0.019387 -54175.100000 0 0 1
19.611227 -11.689033 27.288315 35.579290 -0.537501 0.696688 0.089285 -0.021322 451006.000000 0 0 1
18.903227 -12.705633 26.525045 34.962024 -0.591783 0.709509 0.113152 -0.024172 580415.000000 0 0 1
18.121627 -13.547833 27.364225 35.506872 -0.641967 0.690898 0.098213 -0.019519 -229815.000000 0 0 1
18.771227 -14.805533 27.889515 36.734014 -0.667835 0.708669 0.102707 -0.006217 -961784.000000 0 0 1
17.838327 -15.796533 28.130185 36.865210 -0.724768 0.702770 0.084778 -0.010159 -302093.000000 0 0 1
18.400027 -16.893933 28.782675 38.110476 -0.742751 0.714771 0.076295 -0.006124 -181746.000000 0 0 1
18.768927 -18.037233 27.818605 38.098414 -0.765521 0.752215 0.087986 -0.013287 98232.000000 0 0 1
19.953227 -17.742133 27.108125 38.049507 -0.726808 0.777822 0.087277 -0.014437 333322.000000 0 0 1
20.470527 -18.686433 26.159205 38.112062 -0.739867 0.814302 0.086138 -0.008483 277439.000000 0 0 1
21.702727 -18.076533 25.438215 38.011474 -0.694492 0.837632 0.084896 -0.024820 -329338.000000 0 0 1
22.804627 -17.866733 26.262455 39.102272 -0.664580 0.834383 0.081529 -0.025492 -349373.000000 0 0 1
23.853227 -17.248933 25.530115 38.965227 -0.626080 0.856346 0.061091 -0.026729 -173730.000000 0 0 1
25.151427 -17.085033 26.333855 40.223930 -0.596689 0.857035 0.065547 -0.027069 -119999.000000 0 0 1
25.844727 -18.251533 26.726055 41.416789 -0.614875 0.869387 0.065077 -0.025359 186259.000000 0 0 1
26.918527 -18.607533 25.872175 41.715906 -0.604832 0.901800 0.067645 -0.029879 -579572.000000 0 0 1
27.535727 -19.916333 26.205875 42.914152 -0.626187 0.913905 0.059033 -0.029923 90823.100000 0 0 1
28.433527 -19.858833 27.353765 44.170886 -0.609672 0.902982 0.062854 -0.024908 641457.000000 0 0 1
28.987727 -21.106733 27.628925 45.267427 -0.629354 0.914295 0.050252 -0.016965 -146858.000000 0 0 1
28.017227 -21.966833 28.458425 45.578380 -0.664938 0.896453 0.063262 0.001951 66830.500000 0 0 1
27.864427 -21.678933 29.802525 46.201655 -0.661191 0.869703 0.076715 -0.004254 -245070.000000 0 0 1
27.392927 -22.819233 30.418315 46.865379 -0.694561 0.864452 0.101517 -0.007903 -345769.000000 0 0 1
27.055727 -22.582533 31.898161 47.533944 -0.695525 0.835158 0.098839 -0.007361 -60286.600000 0 0 1
26.679727 -23.808333 32.451094 48.287867 -0.728587 0.833844 0.098960 -0.008837 157835.000000 0 0 1
26.476227 -23.708233 -33.790506 49.039466 -0.730298 2.330970 0.127483 -0.016361 -675377.000000 0 0 1
26.148927 -25.083533 -33.177856 49.129626 -0.764606 2.312185 0.114410 -0.019954 1364990.000000 0 0 1
24.779327 -25.570893 -33.235746 48.708320 -0.801118 2.321758 0.139992 -0.027198 1196370.000000 0 0 1
24.162727 -25.773913 33.183059 48.469035 -0.817652 0.816709 0.124183 -0.029499 -35699.900000 0 0 1
22.755027 -26.395463 33.313459 48.210977 -0.859330 0.807934 0.147075 -0.042734 172551.000000 0 0 1
22.825927 -27.752893 33.572517 49.176823 -0.882503 0.819359 0.145401 -0.037861 239806.000000 0 0 1
21.525227 -28.326493 33.599006 48.934843 -0.920991 0.813985 0.156061 -0.040819 328234.000000 0 0 1
21.520027 -29.844553 33.678425 49.880309 -0.946069 0.829581 0.128460 -0.041164 -169347.000000 0 0 1
22.019727 -30.387493 -32.821936 49.855266 -0.943730 2.289413 0.093181 -0.039725 201841.000000 0 0 1
23.065427 -31.305023 -33.108296 51.070321 -0.935799 2.276131 0.067505 -0.023160 -146198.000000 0 0 1
23.541227 -32.110883 -31.905556 51.022178 -0.938184 2.246347 0.048158 -0.015952 26741.700000 0 0 1
24.669327 -32.965903 -32.204776 52.273072 -0.928366 2.234562 0.035911 -0.012456 668842.000000 0 0 1
25.302727 -33.602283 -31.183076 52.361490 -0.925374 2.208727 0.027899 -0.001500 145389.000000 0 0 1
26.284427 -32.664463 -30.393556 51.784230 -0.893208 2.198054 0.028057 -0.007781 -472561.000000 0 0 1
26.772827 -33.138133 -29.190646 51.643140 -0.891247 2.171518 0.035463 0.006665 -410624.000000 0 0 1
27.746427 -32.246703 -28.736896 51.337347 -0.860271 2.164900 0.041202 0.004260 -388839.000000 0 0 1
28.154227 -32.489273 -27.295226 50.923891 -0.856761 2.136489 0.029395 0.009412 78154.700000 0 0 1
29.163227 -33.468783 -27.112166 52.016563 -0.854034 2.119078 0.028912 0.010448 73051.400000 0 0 1
29.780827 -33.229893 -25.861776 51.574750 -0.840081 2.096062 0.032400 0.005565 236595.000000 0 0 1
-28.019223 -31.174770 8.782024 42.826010 0.838656 1.364268 0.094802 -0.019678 -47135.500000 0 0 1
-27.871833 -32.003070 9.963824 43.592584 0.854287 1.340191 0.087066 -0.028613 1106320.000000 0 0 1
-26.552093 -32.010370 10.585024 42.915268 0.878334 1.321575 0.070083 -0.029674 1198090.000000 0 0 1
-26.455113 -32.940470 11.797624 43.864924 0.894157 1.298490 0.072715 -0.034503 -68054.300000 0 0 1
-26.553533 33.304767 11.574424 44.139154 -0.897710 1.305468 0.077553 -0.021413 -396873.000000 0 0 1
-27.853463 32.787967 11.497524 44.531553 -0.866591 1.309650 0.061204 -0.034089 -435564.000000 0 0 1
-27.809163 31.254467 11.123024 43.288716 -0.843664 1.310932 0.077919 -0.027307 -73354.300000 0 0 1
-27.339673 30.851867 9.893024 42.393011 -0.845681 1.335260 0.106220 -0.037691 -140530.000000 0 0 1
-27.428963 29.426567 9.768524 41.396799 -0.820518 1.332577 0.127194 -0.032786 -111244.000000 0 0 1
-27.006803 28.953167 8.366724 40.467955 -0.820166 1.362545 0.107984 -0.020247 1268300.000000 0 0 1
-25.563503 28.949367 8.171524 39.475718 -0.847430 1.362287 0.089828 -0.011395 1341370.000000 0 0 1
-25.229893 28.960067 6.803524 39.006678 -0.854125 1.395480 0.089762 -0.005539 -632252.000000 0 0 1
-23.836373 28.436167 6.506724 37.671285 -0.873168 1.397202 0.097798 -0.002350 -482422.000000 0 0 1
-23.556573 27.081367 6.871524 36.544910 -0.854894 1.381641 0.107389 -0.009039 185191.000000 0 0 1
-23.969973 26.243267 5.786624 36.010466 -0.830640 1.409404 0.090776 -0.015171 -240605.000000 0 0 1
-24.284173 24.751967 6.076424 35.203748 -0.794938 1.397320 0.105846 -0.006615 -280501.000000 0 0 1
-25.474003 24.518167 6.791924 36.002716 -0.766281 1.381009 0.124912 -0.013256 23376.000000 0 0 1
-25.774803 23.169167 7.048524 35.367110 -0.732211 1.370157 0.131777 -0.023725 -13007.400000 0 0 1
-26.330773 22.251367 5.911124 34.976769 -0.701625 1.400980 0.126579 -0.034862 -78734.900000 0 0 1
-27.714473 22.385967 5.644124 36.070482 -0.679440 1.413676 0.132212 -0.036947 344714.000000 0 0 1
-28.237363 21.890967 4.364224 35.994577 -0.659465 1.449251 0.124101 -0.029905 286211.000000 0 0 1
-27.911573 22.764667 3.104024 36.151362 -0.684181 1.484829 0.105700 -0.031413 -233264.000000 0 0 1
-26.534603 23.013867 2.949224 35.247995 -0.714461 1.487028 0.106674 -0.030078 -62738.800000 0 0 1
-26.290243 23.968967 1.892424 35.626809 -0.739245 1.517653 0.092117 -0.020252 -112687.000000 0 0 1
-24.781873 24.187567 1.717124 34.671720 -0.773262 1.521251 0.083427 -0.008522 -96520.500000 0 0 1
-24.365273 25.054667 0.664624 34.954894 -0.799347 1.551781 0.058847 -0.013644 -745168.000000 0 0 1
-23.099173 25.608167 0.849524 34.497416 -0.836864 1.546168 0.077854 -0.022429 -648122.000000 0 0 1
-22.537173 26.462967 -0.327976 34.760903 -0.865345 1.580232 0.093637 -0.020002 31596.600000 0 0 1
-22.112873 25.680267 -1.455176 33.920094 -0.859902 1.613710 0.092631 -0.015184 303566.000000 0 0 1
-20.874473 24.989867 -1.365076 32.589884 -0.874888 1.612695 0.088564 -0.025375 35213.400000 0 0 1
-20.491473 24.001967 -2.479176 31.656614 -0.864134 1.649191 0.109540 -0.041253 -208719.000000 0 0 1
-21.434173 22.985367 -2.662276 31.541062 -0.820305 1.655304 0.110661 -0.039341 -211201.000000 0 0 1
-20.934673 21.972967 -3.499676 30.550279 -0.809592 1.685603 0.123282 -0.046535 416162.000000 0 0 1
-22.082473 21.255867 -4.295176 30.949896 -0.766327 1.710024 0.119877 -0.039014 795384.000000 0 0 1
-22.839873 22.142367 -5.158176 32.226557 -0.769893 1.731548 0.107694 -0.031226 621152.000000 0 0 1
-24.078473 21.581067 -5.578276 32.812078 -0.730756 1.741633 0.110163 -0.030023 579567.000000 0 0 1
-24.564473 22.208667 -6.918176 33.830451 -0.735074 1.776745 0.118330 -0.017727 94302.200000 0 0 1
-23.909273 21.591367 -7.987376 33.190942 -0.734500 1.813831 0.130287 -0.033251 236814.000000 0 0 1
-23.394373 22.488367 -9.003776 33.676272 -0.765655 1.841451 0.130442 -0.038594 210455.000000 0 0 1
-23.050373 21.757267 -10.308076 33.330989 -0.756547 1.885215 0.133359 -0.043292 61209.300000 0 0 1
-24.161973 21.492767 -11.145476 34.204702 -0.727000 1.902703 0.090016 -0.034866 -76002.500000 0 0 1
-23.868173 20.842567 -12.334576 34.003589 -0.717830 1.942006 0.085450 -0.029532 -374662.000000 0 0 1
-25.125283 20.687967 -13.199576 35.121228 -0.688843 1.956088 0.062510 -0.039015 -112073.000000 0 0 1
-25.939163 19.648067 -12.702376 34.931892 -0.648263 1.942961 0.064183 -0.035900 31588.900000 0 0 1
-27.096123 19.475267 -13.501576 35.996923 -0.623198 1.955275 0.075682 -0.036017 45362.300000 0 0 1
-27.470223 17.997967 -13.622276 35.554274 -0.580009 1.963990 0.139993 -0.046385 -300568.000000 0 0 1
-26.647283 17.260167 -14.509976 34.907456 -0.574776 1.999475 0.127267 -0.045985 -60393.300000 0 0 1
-27.190053 16.037167 -14.907976 34.910421 -0.532899 2.012008 0.135075 -0.064194 -754661.000000 0 0 1
-26.518333 15.402667 -16.106176 34.639184 -0.526205 2.054397 0.144405 -0.053709 110594.000000 0 0 1
-25.287413 14.761367 -15.786876 33.265247 -0.528381 2.065278 0.148752 -0.055226 131613.000000 0 0 1
-24.627973 14.564567 -16.998876 33.281007 -0.534059 2.106874 0.140435 -0.063193 106569.000000 0 0 1
-23.697173 13.282367 -17.018576 32.056344 -0.510872 2.130454 0.145389 -0.062548 368509.000000 0 0 1
-22.499373 13.426067 -16.282976 30.848280 -0.538012 2.126852 0.145245 -0.065993 385034.000000 0 0 1
-21.688173 12.236867 -16.456276 29.848397 -0.513694 2.154752 0.140637 -0.056883 657921.000000 0 0 1
-20.316673 12.316467 -15.728576 28.492993 -0.544984 2.155576 0.131137 -0.056924 -260622.000000 0 0 1
-19.298273 13.052067 -16.308276 28.438348 -0.594665 2.181520 0.125496 -0.047362 -30560.800000 0 0 1
-18.156773 13.055667 -15.465576 27.190125 -0.623399 2.175835 0.130429 -0.030239 279752.000000 0 0 1
-17.175273 14.244767 -15.634476 27.245921 -0.692399 2.181969 0.113428 -0.023650 -77282.800000 0 0 1
-16.283373 14.134267 -16.708376 27.278115 -0.714862 2.230040 0.132621 -0.031601 -51772.500000 0 0 1
-15.724973 15.369167 -17.031176 27.812713 -0.773956 2.229829 0.101195 -0.014319 -448395.000000 0 0 1
-14.782073 15.303767 -18.222976 28.014136 -0.802737 2.279029 0.107083 -0.021081 -241605.000000 0 0 1
-13.690473 14.435967 -18.113476 26.905840 -0.811897 2.309347 0.097353 -0.023303 -329810.000000 0 0 1
-12.790373 14.647167 -19.173276 27.308381 -0.852969 2.349142 0.119120 -0.029056 -62810.800000 0 0 1
-11.739673 13.545367 -19.355676 26.380657 -0.856691 2.394558 0.107443 -0.033250 -183168.000000 0 0 1
-12.221473 12.317967 -19.865476 26.376767 -0.789330 2.423623 0.127365 -0.035138 -319000.000000 0 0 1
-11.217373 11.335567 -19.996076 25.576700 -0.790639 2.468357 0.087845 -0.009382 -343098.000000 0 0 1
-11.609273 10.042167 -20.704376 25.773853 -0.713145 2.503627 0.108730 -0.032384 -223922.000000 0 0 1
-11.574173 10.194167 -22.074476 26.928888 -0.722088 2.531740 0.123295 -0.043532 -136531.000000 0 0 1
-11.910473 8.978267 -22.685976 27.149994 -0.645937 2.559983 0.113786 -0.022301 -34364.000000 0 0 1
-11.587273 8.951467 -24.184576 28.271671 -0.657762 2.597186 0.104326 -0.035115 239996.000000 0 0 1
-10.204773 8.888967 -24.505276 27.993922 -0.716594 2.637014 0.112150 -0.036509 -45770.300000 0 0 1
-9.990573 8.351467 -25.812646 28.911092 -0.696272 2.674383 0.095022 -0.052156 -208313.000000 0 0 1
-9.829373 9.270067 -27.056676 30.242593 -0.756123 2.678454 0.141011 -0.053308 -172085.000000 0 0 1
-8.675973 10.067667 -27.164136 30.241043 -0.859511 2.686576 0.114264 -0.057362 -207062.000000 0 0 1
-8.365773 11.049567 -26.200756 29.640491 -0.922758 2.655043 0.089190 -0.046615 -919508.000000 0 0 1
-6.883973 11.381667 -26.260866 29.437468 -1.026833 2.672746 0.073180 -0.042535 -726845.000000 0 0 1
-6.579573 12.118867 -27.413126 30.686107 -1.073405 2.675520 0.056611 -0.047266 801671.000000 0 0 1
-5.158973 12.200367 -27.608896 30.622134 -1.170745 2.694249 0.076906 -0.041321 455156.000000 0 0 1
-4.674273 12.780267 -29.001706 32.035652 -1.220167 2.702869 0.084504 -0.036288 255576.000000 0 0 1
-3.257373 12.782367 -28.887186 31.756399 -1.321274 2.713235 0.102793 -0.046617 144249.000000 0 0 1
-2.577073 12.933467 -30.084846 32.848346 -1.374116 2.728468 0.111738 -0.045010 934887.000000 0 0 1
-1.017573 12.758467 -29.913406 32.536530 -1.491208 2.737296 0.131626 -0.053002 898979.000000 0 0 1
-0.677673 11.386767 -29.552276 31.677353 -1.511352 2.773221 0.107925 -0.026691 -107121.000000 0 0 1
0.685327 11.066667 -29.667696 31.671959 1.508948 2.783931 0.109604 -0.031412 8072.300000 0 0 1
1.232527 10.541167 -31.017306 32.782748 1.454400 2.811916 0.117421 -0.036878 -116458.000000 0 0 1
1.491627 11.552267 -32.019426 34.072327 1.442387 2.792691 0.125741 -0.047049 242107.000000 0 0 1
1.688227 10.909767 -33.253556 35.038152 1.417270 2.821058 0.137472 -0.045667 -10523.700000 0 0 1
2.027727 11.842867 33.244359 35.349011 1.401221 0.346813 0.135988 -0.048724 -148172.000000 0 0 1
3.417027 12.013767 33.119686 35.396614 1.293688 0.360632 0.144299 -0.053306 -352366.000000 0 0 1
3.740627 12.962567 32.108537 34.827842 1.289857 0.397784 0.142629 -0.043887 358116.000000 0 0 1
5.268027 13.197067 31.946247 34.963944 1.190996 0.418521 0.144026 -0.037828 212782.000000 0 0 1
5.927727 12.145667 31.332765 34.123267 1.116752 0.407226 0.156108 -0.041940 -476384.000000 0 0 1
7.324227 12.203667 31.314295 34.397076 1.030255 0.426603 0.125271 -0.026113 -74984.500000 0 0 1
8.081027 10.953467 30.776665 33.652408 0.935175 0.416413 0.100300 -0.023268 8156.960000 0 0 1
7.822527 10.628767 29.419305 32.243730 0.936331 0.421677 0.107593 -0.033010 -160562.000000 0 0 1
8.666027 9.624367 28.932025 31.698431 0.837746 0.420886 0.093215 -0.026845 -195518.000000 0 0 1
8.095827 8.790867 27.758395 30.221685 0.826534 0.406545 0.098784 -0.033413 -149020.000000 0 0 1
7.088327 7.952067 28.253555 30.195084 0.842763 0.360557 0.104672 -0.036364 -388807.000000 0 0 1
6.583527 7.187767 27.175605 28.870752 0.829247 0.344380 0.109957 -0.037658 -228240.000000 0 0 1
5.731427 6.014467 27.729955 28.947772 0.809490 0.291094 0.123937 -0.041851 -132185.000000 0 0 1
6.438527 5.032067 28.375945 29.529148 0.663393 0.280392 0.096463 -0.035379 -426963.000000 0 0 1
5.482627 4.222167 29.004895 29.818951 0.656241 0.234201 0.107873 -0.034241 -415972.000000 0 0 1
5.927427 3.039867 29.853845 30.588025 0.473873 0.219540 0.111883 -0.025900 -157734.000000 0 0 1
6.251727 1.785167 29.276685 29.989918 0.278146 0.218528 0.102421 -0.018691 177677.000000 0 0 1
7.517927 1.722967 28.630895 29.651577 0.225291 0.263142 0.106258 -0.018711 -131025.000000 0 0 1
7.820527 0.346367 28.010395 29.083721 0.044261 0.272521 0.094422 -0.018870 -184256.000000 0 0 1
8.222827 -0.683533 28.931595 30.085201 -0.082936 0.277821 0.064304 -0.023932 41844.100000 0 0 1
8.170727 -1.924433 28.311085 29.529337 -0.231312 0.288245 0.087813 -0.022385 -205013.000000 0 0 1
8.670627 -3.129833 29.168675 30.590640 -0.346414 0.306099 0.082611 -0.018638 616727.000000 0 0 1
10.074327 -3.045633 29.410365 31.236798 -0.293580 0.343655 0.073671 -0.019240 293096.000000 0 0 1
10.825127 -4.045233 28.780225 31.013685 -0.357621 0.381829 0.089095 -0.016886 -759210.000000 0 0 1
12.340227 -3.829433 28.925165 31.679819 -0.300899 0.420103 0.066089 -0.008784 208734.000000 0 0 1
13.104427 -4.874433 28.264275 31.533401 -0.356110 0.459379 0.092846 -0.011853 347256.000000 0 0 1
13.273627 -6.094833 28.985475 32.457571 -0.430452 0.466770 0.106417 -0.008268 -764344.000000 0 0 1
12.532727 -7.318733 28.475925 31.961092 -0.528549 0.471350 0.134040 -0.012829 690149.000000 0 0 1
11.107127 -7.143833 28.569175 31.473805 -0.571563 0.432996 0.123085 -0.010104 632513.000000 0 0 1
10.392627 -8.354333 28.365515 31.343325 -0.677097 0.439431 0.121472 -0.014830 -433634.000000 0 0 1
8.908927 -8.044033 28.250985 30.695172 -0.734425 0.401765 0.126803 -0.021110 -591603.000000 0 0 1
8.324927 -7.705533 29.504625 31.610165 -0.746779 0.367049 0.137837 -0.026027 547949.000000 0 0 1
6.958327 -7.310033 29.416585 31.099685 -0.810043 0.330499 0.131666 -0.039363 459558.000000 0 0 1
6.376327 -6.607133 30.637555 31.983926 -0.803173 0.291184 0.120270 -0.042087 -31654.700000 0 0 1
6.128427 -7.544933 31.713446 33.169659 -0.888626 0.297412 0.128810 -0.037552 56882.400000 0 0 1
5.239327 -6.898733 32.616953 33.747721 -0.921267 0.259597 0.134026 -0.042358 -384760.000000 0 0 1
5.763127 -5.915833 33.694365 34.691800 -0.798473 0.240375 0.144949 -0.035888 -594106.000000 0 0 1
6.311227 -4.884633 32.948469 33.901222 -0.658660 0.237640 0.134476 -0.030080 -397946.000000 0 0 1
6.771127 -3.880333 33.795425 34.684808 -0.520383 0.226946 0.124627 -0.018810 60417.000000 0 0 1
7.035927 -2.628433 32.908781 33.755012 -0.357519 0.224389 0.113781 -0.026768 136568.000000 0 0 1
5.834927 -2.106633 32.365276 32.954444 -0.346475 0.189377 0.121348 -0.037228 18315.000000 0 0 1
5.981127 -0.903033 31.636465 32.209553 -0.149849 0.188921 0.103377 -0.018874 -473647.000000 0 0 1
4.748727 -0.433633 30.848245 31.214623 -0.091063 0.153365 0.129275 -0.026278 525463.000000 0 0 1
3.726527 0.086967 31.726836 31.945057 0.023333 0.116952 0.115144 -0.025334 925684.000000 0 0 1
2.580727 0.681467 31.060225 31.174703 0.258167 0.085725 0.120047 -0.032724 1277930.000000 0 0 1
1.451727 0.924767 32.118912 32.165000 0.567190 0.053539 0.111496 -0.034980 72109.500000 0 0 1
1.803027 1.857667 33.066064 33.167249 0.800323 0.078132 0.096630 -0.026538 -483054.000000 0 0 1
0.935327 1.966367 -33.530156 33.600786 1.126808 3.076743 0.075025 -0.030314 -488016.000000 0 0 1
1.261427 3.085967 -32.514396 32.684864 1.182759 3.039416 0.070620 -0.023880 645677.000000 0 0 1
2.292227 2.722967 -31.554316 31.754428 0.871075 3.029267 0.058465 -0.007120 626079.000000 0 0 1
2.684727 3.834367 -30.763506 31.117574 0.959953 2.990596 0.053572 -0.000844 -67050.100000 0 0 1
3.776027 3.451167 -29.715226 30.152340 0.740479 2.971111 0.061934 0.002891 -136595.000000 0 0 1
3.395727 2.634667 -28.620776 28.941687 0.659858 2.992537 0.069096 -0.011799 804092.000000 0 0 1
4.418027 2.360167 -27.582706 28.033819 0.490642 2.961954 0.093507 -0.021474 588127.000000 0 0 1
4.068227 1.555867 -26.310616 26.668703 0.365280 2.977535 0.080455 -0.026033 -233167.000000 0 0 1
3.817127 0.167567 -26.552206 26.825700 0.043871 2.998676 0.093315 -0.024134 136518.000000 0 0 1
3.336427 -0.575933 -25.429856 25.654259 -0.170935 3.009230 0.093291 -0.021518 -369545.000000 0 0 1
3.955327 -1.927133 -25.117166 25.499617 -0.453375 2.968180 0.101489 -0.035629 -144623.000000 0 0 1
5.340327 -1.870133 -24.854376 25.490321 -0.336845 2.917749 0.095456 -0.042576 -218271.000000 0 0 1
5.852327 -3.180233 -24.676576 25.559675 -0.497772 2.877959 0.103009 -0.048870 -1430430.000000 0 0 1
7.285727 -3.174033 -24.263276 25.531605 -0.410857 2.825069 0.124836 -0.051533 -1077310.000000 0 0 1
8.128127 -2.767933 -25.332196 26.747861 -0.328220 2.814790 0.122242 -0.045502 16585.800000 0 0 1
9.488427 -3.008433 -24.967576 26.878630 -0.307037 2.762229 0.109180 -0.040139 466440.000000 0 0 1
-30.877453 -3.822033 17.622385 35.757146 0.123154 1.055451 0.164071 -0.014278 150264.000000 0 0 1
-32.284473 -3.736233 17.638785 36.978012 0.115216 1.073550 0.149578 -0.001682 -93153.900000 0 0 1
-32.822493 -4.877833 18.376585 37.931625 0.147533 1.065044 0.121171 -0.011286 445786.000000 0 0 1
-34.321821 -4.742933 18.726485 39.384820 0.137320 1.075293 0.115098 -0.006650 457821.000000 0 0 1
-35.250361 -4.766433 17.614985 39.693760 0.134401 1.110993 0.108373 -0.003589 506224.000000 0 0 1
-36.534033 -4.658733 18.209085 41.085401 0.126833 1.111630 0.077899 0.008010 18760.800000 0 0 1
37.562916 -4.985533 17.193285 41.610543 -0.131954 1.144836 0.067253 0.003149 251452.000000 0 0 1
36.264476 -5.040133 17.749685 40.688653 -0.138098 1.119390 0.053562 0.015444 260252.000000 0 0 1
35.269166 -5.089333 16.732585 39.367433 -0.143311 1.131794 0.054578 0.008959 837916.000000 0 0 1
33.795286 -5.285533 17.194485 38.284573 -0.155142 1.105013 0.067306 0.013216 449893.000000 0 0 1
33.216176 -4.266033 18.004285 38.021937 -0.127733 1.077509 0.083840 0.011115 1652130.000000 0 0 1
31.992256 -4.791633 18.635685 37.333001 -0.148670 1.048150 0.103840 0.006416 1413420.000000 0 0 1
31.541016 -4.015833 19.898885 37.509042 -0.126640 1.011595 0.116876 0.005364 -66595.900000 0 0 1
30.608726 -2.975533 19.704485 36.524165 -0.096907 1.000963 0.125702 0.001071 297982.000000 0 0 1
31.204826 -1.731133 19.248785 36.704955 -0.055420 1.018763 0.118588 0.008187 534415.000000 0 0 1
30.200926 -0.539333 19.443585 35.922692 -0.017856 0.998859 0.133911 0.001560 530152.000000 0 0 1
30.597666 0.723667 18.866685 35.954036 0.023647 1.018381 0.118739 0.002873 386834.000000 0 0 1
29.518326 1.645667 19.002285 35.144368 0.055693 0.999537 0.109045 -0.003967 259550.000000 0 0 1
29.780426 3.040567 18.370585 35.122603 0.101747 1.020381 0.116160 0.001685 55442.900000 0 0 1
29.695326 3.022767 16.965285 34.333226 0.101443 1.053956 0.118472 -0.001037 22993.000000 0 0 1
29.380026 4.278667 16.437785 33.936613 0.144615 1.065157 0.123443 -0.005555 -19157.000000 0 0 1
28.623726 4.227667 15.101485 32.638102 0.146638 1.089764 0.136513 -0.004455 -210971.000000 0 0 1
28.350926 5.459067 14.470585 32.295112 0.190225 1.106187 0.159954 -0.021468 243691.000000 0 0 1
27.793626 5.254167 13.185085 31.207986 0.186837 1.134605 0.133581 -0.016378 -531330.000000 0 0 1
27.196326 6.564367 12.601785 30.684459 0.236840 1.147586 0.153135 -0.019055 -160051.000000 0 0 1
26.012026 6.860967 13.304785 30.011926 0.257888 1.111501 0.091659 -0.012540 -58422.400000 0 0 1
25.496126 8.116567 12.974885 29.736825 0.308201 1.119287 0.132673 -0.041265 -386926.000000 0 0 1
24.251526 8.594067 13.781585 29.187782 0.340565 1.079046 0.122184 -0.045493 216948.000000 0 0 1
23.004726 8.082867 13.375085 27.810844 0.337883 1.069081 0.127209 -0.032355 503862.000000 0 0 1
22.837626 6.626467 13.649985 27.418777 0.282401 1.049697 0.130709 -0.030311 -1551800.000000 0 0 1
21.456926 6.002467 13.429885 26.015209 0.272772 1.028351 0.134787 -0.025323 -719127.000000 0 0 1
21.180126 5.940467 12.059485 25.086213 0.273448 1.069319 0.139810 -0.037037 43714.300000 0 0 1
20.034026 5.238367 11.727485 23.797828 0.255748 1.055496 0.123153 -0.030114 -745115.000000 0 1 0
19.765326 5.153067 10.217585 22.839029 0.255035 1.106970 0.133706 -0.035572 -143805.000000 0 1 0
20.816826 4.471367 9.561985 23.340200 0.211581 1.148694 0.144565 -0.036219 550839.000000 0 1 0
20.608326 4.261367 8.206985 22.587983 0.203905 1.198952 0.171654 -0.036709 140293.000000 0 1 0
21.764426 3.467967 7.518285 23.286083 0.158013 1.242040 0.163871 -0.030196 -747393.000000 0 1 0
21.804626 2.128767 7.959585 23.309405 0.097321 1.222310 0.148884 -0.029433 714486.000000 0 1 0
22.609226 1.330667 7.098685 23.734766 0.058787 1.267064 0.132769 -0.017040 1343460.000000 0 1 0
24.173126 1.596567 6.961285 25.206121 0.065951 1.290985 0.125207 -0.026638 1231710.000000 0 0 1
25.007426 1.272567 8.099085 26.317028 0.050844 1.257968 0.150517 -0.003114 826043.000000 0 0 1
25.159426 2.314967 9.057085 26.840018 0.091754 1.226593 0.143612 -0.007567 -669523.000000 0 0 1
25.802226 1.714267 10.338085 27.849050 0.066341 1.190475 0.132121 -0.000626 -395042.000000 0 0 1
27.201426 1.680667 10.294185 29.132670 0.061708 1.209641 0.143526 -0.012886 -94159.800000 0 0 1
27.700526 0.906767 11.389585 29.964379 0.032723 1.180887 0.129843 -0.006950 511816.000000 0 0 1
29.240026 0.668367 11.458585 31.412179 0.022854 1.197398 0.192579 -0.011955 586166.000000 0 0 1
29.962126 1.815867 11.829285 32.263886 0.060531 1.195400 0.183874 -0.009101 -254036.000000 0 0 1
31.355846 1.702367 11.721485 33.518358 0.054239 1.213542 0.201748 -0.016348 -370720.000000 0 0 1
32.014486 2.996267 12.138085 34.369144 0.093319 1.209841 0.177279 -0.024117 293437.000000 0 0 1
33.141656 3.392467 11.325185 35.187185 0.102007 1.243108 0.200719 -0.043552 779256.000000 0 0 1
33.622126 4.694367 11.686085 35.903329 0.138725 1.239269 0.181183 -0.039072 230885.000000 0 0 1
35.121406 4.752667 11.288185 37.195754 0.134504 1.262453 0.185374 -0.029186 103781.000000 0 0 1
35.985806 3.911767 12.022485 38.142107 0.108278 1.250126 0.172023 -0.036230 1100460.000000 0 0 1
37.366106 4.094767 11.653485 39.354755 0.109150 1.270175 0.168960 -0.023038 843142.000000 0 0 1
-36.864793 3.388067 12.589985 39.102426 -0.091648 1.242982 0.185914 -0.017662 -608674.000000 0 0 1
-36.690613 1.996467 12.466185 38.801968 -0.054360 1.243719 0.176300 -0.025811 293439.000000 0 0 1
37.471096 1.115267 12.800985 39.613029 0.029755 1.241739 0.167393 -0.021017 -86008.000000 0 0 1
37.110136 0.931067 14.272185 39.770898 0.025084 1.203750 0.167847 -0.014108 -202186.000000 0 0 1
-37.245213 0.075867 15.000285 40.152462 -0.002037 1.187927 0.131114 -0.006897 280563.000000 0 0 1
37.533196 -0.183233 16.302585 40.921250 -0.004882 1.161036 0.122209 -0.003920 189544.000000 0 0 1
-36.665433 -1.104433 17.071885 40.460141 0.030113 1.135209 0.110132 0.005621 751024.000000 0 0 1
-35.389756 -0.475133 17.170285 39.338013 0.013425 1.119113 0.124119 -0.006573 378219.000000 0 0 1
-34.401808 -1.191033 17.884285 38.791115 0.034607 1.091629 0.111411 -0.000491 150280.000000 0 0 1
-34.360129 -0.994733 19.443985 39.492740 0.028942 1.056016 0.098156 -0.007378 43464.400000 0 0 1
-35.424691 -1.632733 20.165185 40.794721 0.046058 1.053757 0.083140 -0.007058 540426.000000 0 0 1
-35.327970 -1.411133 21.601285 41.432744 0.039923 1.022355 0.073160 -0.002964 108038.000000 0 0 1
-35.956452 -2.615733 22.309185 42.395852 0.072619 1.016657 0.068445 0.002950 349119.000000 0 0 1
-35.214769 -3.831333 22.066885 41.733757 0.108373 1.013665 0.085693 -0.005492 629060.000000 0 0 1
-35.776195 -5.010133 22.751485 42.692712 0.139136 1.008757 0.089947 -0.013457 232896.000000 0 0 1
-35.769390 -5.025033 24.297655 43.532474 0.139571 0.978642 0.094471 -0.019190 -714063.000000 0 0 1
-34.532469 -4.856633 24.881515 42.838862 0.139723 0.951065 0.104299 -0.017147 -1239340.000000 0 0 1
-34.579385 -4.605933 26.292995 43.683751 0.132419 0.924925 0.119016 -0.030688 224094.000000 0 0 1
-33.313293 -3.861333 26.785315 42.920141 0.115395 0.896851 0.130905 -0.030230 165438.000000 0 0 1
-33.263943 -2.461733 26.484765 42.590995 0.073871 0.899707 0.130919 -0.024663 47948.000000 0 0 1
-32.744193 -2.135733 25.193705 41.369872 0.065133 0.916014 0.112578 -0.019563 -36257.800000 0 0 1
-32.594693 -0.554333 25.041945 41.107424 0.017005 0.915766 0.099451 -0.025328 43100.000000 0 0 1
-33.851833 0.082467 25.008465 42.087727 -0.002436 0.934528 0.108682 -0.033675 -152650.000000 0 0 1
-33.771433 1.380267 24.432715 41.705784 -0.040848 0.944886 0.094560 -0.025223 319215.000000 0 0 1
-35.117425 2.121367 24.203035 42.702701 -0.060335 0.968204 0.116710 -0.019096 521300.000000 0 0 1
-36.079043 1.678667 23.255175 42.957170 -0.046494 0.998746 0.105696 -0.008639 444209.000000 0 0 1
-37.064933 2.648567 22.878525 43.637726 -0.071336 1.018923 0.113798 -0.003430 511486.000000 0 0 1
-36.544523 3.802367 21.984685 42.816896 -0.103674 1.031586 0.115601 0.001447 -414157.000000 0 0 1
-36.150253 3.540667 20.639985 41.777818 -0.097632 1.054064 0.111523 -0.016213 562059.000000 0 0 1
-37.251743 3.459967 19.707985 42.285558 -0.092615 1.085954 0.126306 -0.015678 808789.000000 0 0 1
-36.760983 2.755767 18.410485 41.205705 -0.074825 1.107617 0.138335 -0.012264 23058.900000 0 0 1
-35.895265 3.584467 17.680585 40.173643 -0.099529 1.115082 0.175418 -0.024195 -226431.000000 0 0 1
-35.463118 2.886067 16.517585 39.227449 -0.081203 1.136169 0.188219 -0.018061 -54175.400000 0 0 1
-34.274421 3.550867 15.773685 37.896619 -0.103233 1.141502 0.169964 -0.020473 268176.000000 0 0 1
-34.653825 4.830667 15.200385 38.148062 -0.138505 1.160962 0.189496 -0.026561 642625.000000 0 0 1
-33.684223 5.223367 14.218485 36.933396 -0.153843 1.175614 0.200575 -0.031591 271385.000000 0 0 1
-34.107322 6.523767 13.499285 37.257209 -0.188989 1.200033 0.224598 -0.033448 -120458.000000 0 0 1
-33.243713 7.073967 12.543285 36.228711 -0.209664 1.217252 0.236689 -0.033445 -118486.000000 0 0 1
-33.684413 8.356867 12.176985 36.779830 -0.243183 1.233351 0.216838 -0.030658 -331442.000000 0 0 1
-32.833163 9.029767 11.119685 35.821791 -0.268385 1.255165 0.235086 -0.029460 -189105.000000 0 0 1
-33.076313 10.431267 10.946185 36.368569 -0.305497 1.265077 0.212277 -0.013580 -103836.000000 0 0 1
-32.110193 11.058767 10.153485 35.446496 -0.331678 1.280282 0.201290 -0.023042 -108218.000000 0 0 1
-32.391713 12.569967 10.151485 36.197787 -0.370172 1.286539 0.175324 -0.018806 263571.000000 0 0 1
-31.431283 13.312567 9.411485 35.407994 -0.400638 1.301761 0.161825 -0.012504 205366.000000 0 0 1
-31.794333 14.648667 9.254985 36.209361 -0.431743 1.312332 0.152256 -0.017837 401748.000000 0 0 1
-30.879163 15.411967 8.235285 35.480577 -0.462932 1.336553 0.140684 -0.014038 510742.000000 0 0 1
-29.504943 15.609067 8.479985 34.439727 -0.486603 1.322011 0.170148 -0.008165 51600.300000 0 0 1
-28.871113 16.457967 7.560785 34.081833 -0.518106 1.347093 0.149440 -0.026760 -976192.000000 0 0 1
-27.360103 16.462967 7.674385 32.840535 -0.541679 1.334929 0.158432 -0.011893 -799896.000000 0 0 1
-26.798503 16.909867 8.912985 32.917240 -0.562903 1.296604 0.156921 -0.017718 273083.000000 0 0 1
-26.841123 18.332267 9.164885 33.771482 -0.599220 1.295970 0.145075 -0.031174 -351408.000000 0 0 1
-26.892543 18.674767 10.688585 34.441278 -0.606972 1.255243 0.153897 -0.015780 170339.000000 0 0 1
-25.615013 18.457567 11.258685 33.519676 -0.624402 1.228254 0.141664 -0.012355 369422.000000 0 0 1
-25.537253 18.987267 12.589285 34.222182 -0.639336 1.194080 0.146324 -0.019653 -4179.820000 0 0 1
-26.104133 18.032367 13.677585 34.549506 -0.604515 1.163766 0.119861 -0.008136 -55708.800000 0 0 1
-25.210443 16.980267 13.949285 33.443661 -0.592747 1.140546 0.130597 -0.012875 -100570.000000 0 0 1
-25.634413 16.165467 15.057185 33.840276 -0.562627 1.109679 0.121296 -0.011192 -559895.000000 0 0 1
-24.714373 15.042167 15.456285 32.801887 -0.546749 1.080144 0.115663 -0.005534 -110355.000000 0 0 1
-23.605673 15.552767 16.202885 32.582969 -0.582577 1.050335 0.109290 -0.005965 616165.000000 0 0 1
-22.658773 14.568967 16.676085 31.682276 -0.571419 1.016490 0.095315 -0.019538 572984.000000 0 0 1
-23.124673 13.727967 17.906885 32.308886 -0.535737 0.983346 0.088856 -0.006068 -288509.000000 0 0 1
-23.075873 14.316867 19.197085 33.256528 -0.555303 0.955448 0.099509 -0.011247 -135192.000000 0 0 1
-23.463573 13.329667 20.125585 33.663904 -0.516634 0.929994 0.090056 -0.012581 -636292.000000 0 0 1
-23.097673 13.769167 21.554085 34.462604 -0.537567 0.895109 0.081887 -0.010317 585681.000000 0 0 1
-21.704573 13.785167 21.849285 33.741823 -0.565849 0.866440 0.094234 -0.014698 -40688.100000 0 0 1
-21.005073 14.914967 21.458485 33.528136 -0.617449 0.876280 0.106242 -0.001893 -28258.100000 0 0 1
-19.492773 14.793367 21.913785 32.848530 -0.649183 0.840465 0.106973 -0.021625 951072.000000 0 0 1
-18.698373 14.200567 20.904785 31.437164 -0.649525 0.843342 0.100416 -0.024586 -224868.000000 0 0 1
-18.027473 15.213167 20.202485 31.057538 -0.700935 0.862573 0.091704 -0.021034 -1242260.000000 0 0 1
-16.751173 14.736967 19.471885 29.613077 -0.721518 0.853243 0.079033 -0.010187 1142070.000000 0 0 1
-15.591873 14.435667 20.297185 29.384872 -0.746912 0.808290 0.078879 -0.016792 925920.000000 0 0 1
-14.982173 15.517167 20.995485 30.100804 -0.802938 0.798885 0.063169 -0.016549 -1217790.000000 0 0 1
-13.947473 15.226067 22.038885 30.200622 -0.829197 0.752841 0.032051 -0.016516 -140823.000000 0 0 1
-12.705673 14.777667 21.494985 29.014616 -0.860647 0.736487 0.024895 -0.003925 -106917.000000 0 0 1
-11.948573 14.232467 22.541085 29.213559 -0.872413 0.689449 0.039969 -0.013657 -58708.000000 0 0 1
-10.667973 13.542767 22.018885 27.965041 -0.903585 0.664262 0.034386 -0.010935 -835210.000000 0 0 1
-10.043073 12.712667 23.031595 28.159006 -0.902180 0.613023 0.036643 -0.020926 -177241.000000 0 0 1
-8.922073 11.981967 22.644475 27.128273 -0.930744 0.583175 0.038876 -0.002900 461197.000000 0 0 1
-7.616073 12.861767 22.599385 27.095421 -1.036170 0.584358 0.038669 -0.002600 -439054.000000 0 0 1
-7.670973 13.725567 21.474185 26.615327 -1.061159 0.632021 0.023083 -0.002108 180039.000000 0 0 1
-6.694873 14.796667 21.556285 26.989556 -1.145900 0.645681 0.037602 -0.007308 295675.000000 0 0 1
-7.184273 16.005067 22.323985 28.392539 -1.148878 0.666060 0.051397 -0.015723 -348416.000000 0 0 1
-8.241073 16.698067 21.749185 28.631587 -1.112334 0.708065 0.012273 -0.015243 -865160.000000 0 0 1
-7.911073 17.486567 20.574485 28.136712 -1.145941 0.750669 0.025326 -0.010467 -503159.000000 0 0 1
-9.011273 17.358567 19.439785 27.575862 -1.091966 0.788434 0.025136 -0.004909 1669700.000000 0 0 1
-10.201573 18.143767 19.620685 28.604889 -1.058587 0.814928 0.009751 -0.003441 353681.000000 0 0 1
-11.002373 17.849967 20.722885 29.480697 -1.018419 0.791287 0.024604 -0.010029 -63572.600000 0 0 1
-12.336073 18.696967 20.901585 30.637094 -0.987570 0.819986 0.023898 -0.010604 995282.000000 0 0 1
-13.283173 18.434567 19.900685 30.204523 -0.946406 0.851488 0.019129 -0.004815 -407586.000000 0 0 1
-14.340673 19.372567 19.978785 31.306599 -0.933560 0.878683 0.009965 -0.013147 320640.000000 0 0 1
-15.099473 19.333667 18.587585 30.777964 -0.907752 0.922380 0.024359 -0.010894 266720.000000 0 0 1
-15.852573 18.159767 18.298585 30.264161 -0.853128 0.921496 0.049616 -0.005858 103025.000000 0 0 1
-16.411373 18.247967 17.007985 29.859555 -0.838339 0.964778 0.077681 -0.015752 -707408.000000 0 0 1
-17.089073 16.943567 16.560985 29.212790 -0.781123 0.968048 0.086728 -0.020534 675627.000000 0 0 1
-18.193973 16.473067 17.361785 30.063502 -0.735798 0.955129 0.090733 -0.013519 1374010.000000 0 0 1
-19.423973 17.208267 17.111185 31.083884 -0.724987 0.987852 0.107267 -0.020839 563649.000000 0 0 1
35.934416 -9.371333 11.583224 38.900838 -0.255108 1.268448 0.073473 -0.014199 1672260.000000 0 0 1
34.557806 -9.899433 11.617924 37.778524 -0.278989 1.258203 0.073535 -0.006393 1939840.000000 0 0 1
34.432296 -11.253033 11.993524 38.158333 -0.315874 1.251067 0.063438 -0.016249 -131489.000000 0 0 1
32.962466 -11.726233 12.112724 37.023598 -0.341784 1.237497 0.112404 -0.016127 -195617.000000 0 0 1
32.291586 -10.958233 13.062924 36.516700 -0.327158 1.204966 0.119748 -0.006296 -573146.000000 0 0 1
30.902086 -11.122333 12.974624 35.312690 -0.345486 1.194562 0.135628 -0.016231 -329718.000000 0 0 1
30.253426 -11.931633 14.090124 35.442422 -0.375660 1.161951 0.109483 -0.016538 -794939.000000 0 0 1
29.929526 -11.212033 15.242724 35.409418 -0.358433 1.125782 0.126972 -0.020100 -53637.400000 0 0 1
28.850326 -11.779033 15.951624 35.007731 -0.387625 1.097683 0.113733 -0.025710 255468.000000 0 0 1
27.469126 -11.159833 15.611324 33.508330 -0.385898 1.086152 0.116279 -0.044424 -109032.000000 0 0 1
27.376726 -9.872733 16.093224 33.255794 -0.346109 1.065665 0.101745 -0.028616 -290321.000000 0 0 1
26.483926 -9.137033 15.296024 31.919462 -0.332216 1.071046 0.134399 -0.031519 227907.000000 0 0 1
26.278126 -7.705633 15.896924 31.664316 -0.285238 1.044834 0.161657 -0.031642 901789.000000 0 0 1
27.451626 -6.930333 15.573824 32.313546 -0.247289 1.067906 0.132188 -0.018807 658352.000000 0 0 1
27.347826 -5.579933 15.985624 32.164879 -0.201273 1.050670 0.138604 -0.012611 136703.000000 0 0 1
28.646826 -4.762433 15.786724 33.053624 -0.164740 1.072865 0.134595 -0.006539 124143.000000 0 0 1
28.966626 -4.380333 14.477424 32.677952 -0.150083 1.111817 0.148809 -0.006204 -488161.000000 0 0 1
29.979026 -3.448133 14.444024 33.455365 -0.114515 1.124375 0.138602 0.001412 -556664.000000 0 0 1
30.269856 -2.859933 13.014324 33.072890 -0.094202 1.166356 0.147639 -0.006193 -165772.000000 0 0 1
30.780456 -3.756533 12.098524 33.285467 -0.121442 1.198798 0.134220 -0.005029 13334.900000 0 0 1
31.081746 -3.049333 10.913524 33.082902 -0.097794 1.234615 0.144270 -0.018683 -33886.000000 0 0 1
31.716866 -3.945433 9.860024 33.447662 -0.123760 1.271561 0.178060 -0.022596 -522319.000000 0 0 1
32.985216 -4.484033 10.058024 34.774917 -0.135112 1.277372 0.161462 -0.027415 -295522.000000 0 0 1
33.319836 -5.404533 9.036024 34.943815 -0.160801 1.309237 0.164255 -0.035004 -429374.000000 0 0 1
34.729956 -5.993133 9.107224 36.400948 -0.170881 1.317918 0.138328 -0.032441 -979493.000000 0 0 1
35.730816 -5.062233 8.913724 37.172193 -0.140740 1.328641 0.142330 -0.034694 337859.000000 0 0 1
36.958836 -5.788633 8.605524 38.386441 -0.155362 1.344693 0.138753 -0.036715 802302.000000 0 0 1
-37.127093 -4.842733 8.218724 38.333021 0.129704 1.354716 0.150207 -0.038548 -185928.000000 0 0 1
-37.318863 -4.221933 6.985424 38.201026 0.112652 1.386902 0.150073 -0.047976 170095.000000 0 0 1
-36.097953 -3.636933 6.576124 36.871872 0.100413 1.391486 0.162484 -0.034244 124223.000000 0 0 1
-36.085133 -3.096733 5.125224 36.578607 0.085608 1.430218 0.157387 -0.045191 -155364.000000 0 0 1
-35.583575 -3.950633 4.146824 36.041566 0.110571 1.455484 0.178434 -0.058133 -83493.200000 0 0 1
-35.733017 -3.473133 2.863024 36.015387 0.096892 1.491218 0.192385 -0.051454 -135891.000000 0 0 1
-35.101875 -4.242333 1.702424 35.398266 0.120274 1.522684 0.234066 -0.054381 -269465.000000 0 0 1
-35.686076 -5.455433 1.395324 36.127617 0.151698 1.532165 0.214638 -0.043187 76980.900000 0 0 1
-36.891043 -5.460333 0.645824 37.298544 0.146946 1.553480 0.182258 -0.036775 27438.300000 0 0 1
-36.588803 -5.564233 -0.849476 37.019222 0.150918 1.593745 0.236773 -0.043424 -506553.000000 0 0 1
-35.829590 -6.702633 -1.201976 36.470941 0.184932 1.603759 0.241451 -0.059362 1082450.000000 0 0 1
-34.842439 -6.446233 -2.242476 35.504622 0.182942 1.633999 0.210344 -0.050005 1087810.000000 0 0 1
-33.451133 -5.863733 -1.856176 34.011866 0.173529 1.625398 0.198081 -0.056496 -84720.400000 0 0 1
-32.564293 -6.840733 -1.395076 33.304280 0.207058 1.612697 0.208303 -0.051639 -327487.000000 0 0 1
-31.362413 -6.239533 -0.949876 31.991171 0.196385 1.600493 0.200021 -0.054810 40755.900000 0 0 1
-30.549853 -7.173033 -0.052876 31.380706 0.230620 1.572481 0.178872 -0.052687 -294411.000000 0 0 1
-30.182183 -8.377733 -0.694976 31.331032 0.270756 1.592980 0.164163 -0.046192 304407.000000 0 0 1
-29.536813 -9.188333 0.256124 30.934033 0.301591 1.562517 0.183621 -0.043629 -223232.000000 0 0 1
-29.116243 -10.579933 -0.284476 30.980179 0.348535 1.579979 0.143773 -0.033355 -471929.000000 0 0 1
-28.072643 -10.639133 -1.217276 30.045735 0.362260 1.611322 0.140636 -0.037568 151866.000000 0 0 1
-27.473293 -11.917033 -1.328976 29.976052 0.409274 1.615145 0.124362 -0.021386 -397612.000000 0 0 1
-28.217983 -12.942933 -2.168976 31.120388 0.430046 1.640549 0.122523 -0.021042 -636635.000000 0 0 1
-29.168593 -13.705433 -1.488176 32.262368 0.439254 1.616940 0.144552 -0.029795 -36074.600000 0 0 1
-29.810523 -14.614533 -2.351476 33.283349 0.455815 1.641505 0.135484 -0.019746 -183631.000000 0 0 1
-31.003843 -15.268733 -1.643776 34.598764 0.457613 1.618324 0.152218 -0.019453 -207670.000000 0 0 1
-30.502143 -16.064333 -0.592876 34.478907 0.484749 1.587992 0.116692 -0.011535 857959.000000 0 0 1
-31.538603 -16.664233 0.216024 35.671092 0.486090 1.564740 0.139682 -0.010056 606125.000000 0 0 1
-31.849123 -18.170933 -0.126376 36.668316 0.518470 1.574243 0.137016 -0.005892 -368374.000000 0 0 1
-30.862143 -19.063533 0.305424 36.276486 0.553332 1.562377 0.162656 -0.017267 -166801.000000 0 0 1
-31.054393 -20.422333 0.065524 37.167880 0.581721 1.569033 0.146310 -0.017214 -173703.000000 0 0 1
-31.941163 -21.173633 1.104224 38.337709 0.585387 1.541990 0.130275 -0.021733 -645128.000000 0 0 1
-31.400433 -21.395733 2.376024 38.071119 0.598122 1.508346 0.149543 -0.023893 914337.000000 0 0 1
-32.449233 -21.847433 3.297324 39.257297 0.592567 1.486705 0.144369 -0.022908 1194310.000000 0 0 1
-31.823703 -22.241633 4.678024 39.106550 0.609988 1.450887 0.153829 -0.031562 230978.000000 0 0 1
-31.253043 -21.118033 5.270424 38.085449 0.594238 1.431967 0.147848 -0.031097 124507.000000 0 0 1
-30.366813 -21.350633 6.352924 37.661021 0.612797 1.401299 0.166179 -0.035085 369180.000000 0 0 1
-29.700153 -20.047633 6.907024 36.492652 0.593750 1.380376 0.179114 -0.032124 -110816.000000 0 0 1
-28.609563 -20.394833 7.709224 35.970661 0.619310 1.354801 0.176828 -0.043128 -120721.000000 0 0 1
-27.722853 -19.267333 7.801524 34.650404 0.607361 1.343700 0.175009 -0.040824 1448880.000000 0 0 1
-26.606423 -19.406533 8.931924 34.121761 0.630182 1.305945 0.171976 -0.036881 949162.000000 0 0 1
-27.287873 -19.485733 10.143224 35.031512 0.620113 1.277044 0.155996 -0.035433 114884.000000 0 0 1
-26.389883 -19.623433 11.223824 34.748803 0.639390 1.241900 0.136048 -0.022549 23342.100000 0 0 1
-26.185883 -18.293833 12.007324 34.125366 0.609795 1.211240 0.118575 -0.027895 -101668.000000 0 0 1
-25.339433 -17.328833 11.380124 32.739617 0.599817 1.215791 0.118615 -0.031399 393628.000000 0 0 1
-24.993873 -16.124433 12.147824 32.128814 0.572948 1.183056 0.119422 -0.023663 380052.000000 0 0 1
-24.222173 -16.303233 13.509524 32.171669 0.592423 1.137439 0.111465 -0.029282 -15974.300000 0 0 1
-24.986273 -16.931433 14.549024 33.506139 0.595554 1.121625 0.101563 -0.036929 60686.500000 0 0 1
-24.278873 -17.272233 15.732624 33.694349 0.618343 1.084990 0.117282 -0.032807 -242394.000000 0 0 1
-25.170123 -17.903833 16.796724 35.159810 0.618278 1.072733 0.111118 -0.016616 27902.500000 0 0 1
-25.987503 -16.903733 17.421824 35.561306 0.576696 1.058810 0.117346 -0.018355 98281.200000 0 0 1
-26.949133 -17.529333 18.230124 36.957688 0.576699 1.054951 0.101039 -0.003932 -144845.000000 0 0 1
-27.856623 -16.536233 18.986924 37.549191 0.535715 1.040656 0.101401 -0.006835 121151.000000 0 0 1
-27.140113 -15.898333 20.038524 37.294573 0.529903 1.003559 0.099671 -0.011230 358803.000000 0 0 1
-28.034313 -15.096333 20.746324 38.003052 0.493967 0.993319 0.105791 -0.015874 -442958.000000 0 0 1
-27.342743 -14.408033 21.918324 37.889708 0.484968 0.953936 0.104580 -0.020439 -440818.000000 0 0 1
-26.363763 -13.520733 21.482524 36.597228 0.473877 0.943450 0.108161 -0.019810 31565.200000 0 0 1
-25.170023 -13.679133 22.233524 36.262630 0.497815 0.910786 0.103044 -0.022898 51171.100000 0 0 1
-23.929473 -12.956333 21.676424 34.790137 0.496246 0.898145 0.116803 -0.024655 -66136.900000 0 0 1
-24.030273 -11.537633 21.826824 34.452594 0.447625 0.884687 0.126276 -0.025360 318313.000000 0 0 1
-23.097873 -10.863633 20.991224 33.047871 0.439632 0.882560 0.134156 -0.031794 -514313.000000 0 0 1
-22.947673 -9.380033 21.421524 32.763736 0.388033 0.858177 0.137879 -0.027510 111968.000000 0 0 1
-22.282373 -9.190733 22.671224 33.090152 0.391207 0.816007 0.121304 -0.029286 651669.000000 0 0 1
-20.887873 -9.480333 22.631524 32.223684 0.426066 0.792137 0.094903 -0.021159 114320.000000 0 0 1
-20.245773 -9.532033 24.063124 32.860081 0.440029 0.749117 0.073960 -0.018723 263294.000000 0 0 1
-20.579773 -10.706733 24.831924 33.982137 0.479720 0.751399 0.088217 -0.014940 124495.000000 0 0 1
-19.796673 -10.790233 26.019724 34.429107 0.499037 0.714001 0.080414 -0.014333 -618472.000000 0 0 1
-20.130173 -12.078333 26.813324 35.637962 0.540428 0.719127 0.078919 -0.030419 330489.000000 0 0 1
-21.340573 -12.112933 27.558124 36.899775 0.516256 0.727503 0.072723 -0.020310 -269351.000000 0 0 1
-22.388673 -12.567033 26.722924 37.058031 0.511487 0.765393 0.070174 -0.018903 -300800.000000 0 0 1
-23.673973 -12.939833 27.497324 38.522709 0.500217 0.775894 0.063673 -0.018703 -245342.000000 0 0 1
-23.610273 -14.050233 28.365724 39.490104 0.536801 0.769441 0.056582 -0.011590 -301297.000000 0 0 1
-22.679673 -14.092833 29.437224 39.743247 0.555996 0.736707 0.047619 -0.010464 -197441.000000 0 0 1
-22.967373 -15.134333 30.497724 41.068960 0.582641 0.733855 0.034394 -0.014935 -538010.000000 0 0 1
-22.827873 -16.486433 30.057224 41.186782 0.625475 0.752799 0.040414 -0.013203 -156737.000000 0 0 1
-23.059573 -17.404433 31.098724 42.447483 0.646540 0.748604 0.042544 -0.007948 6663.950000 0 0 1
-24.434673 -17.722633 31.747524 43.806966 0.627509 0.760177 0.051208 -0.016945 186523.000000 0 0 1
-24.960073 -16.652333 32.547424 44.267824 0.588343 0.744777 0.059185 -0.016696 522561.000000 0 0 1
-26.321893 -16.940933 32.883224 45.399820 0.571867 0.760773 0.065839 -0.021923 463340.000000 0 0 1
-27.059203 -15.811733 33.641624 45.977932 0.528824 0.749997 0.066576 -0.019839 191502.000000 0 0 1
-26.613903 -15.619633 -32.649037 44.924741 0.530730 2.384374 0.075583 -0.015734 391075.000000 0 0 1
-27.286263 -14.460633 -32.153937 44.581675 0.487327 2.376382 0.081945 -0.017251 50665.200000 0 0 1
-26.696563 -13.898633 -30.813737 43.073946 0.480003 2.367947 0.085764 -0.009413 -70315.800000 0 0 1
-26.812383 -14.836633 -29.759237 42.715826 0.505412 2.341555 0.100483 -0.004135 262167.000000 0 0 1
-26.357283 -14.230933 -28.562937 41.389216 0.495075 2.332432 0.103301 0.000866 -158716.000000 0 0 1
-26.481493 -15.150033 -27.300037 40.940017 0.519651 2.300743 0.097616 -0.006221 215198.000000 0 0 1
-27.743273 -15.315433 -26.663337 41.414795 0.504409 2.270266 0.105612 -0.014334 208807.000000 0 0 1
-28.059963 -14.335433 -25.682237 40.650258 0.472318 2.254651 0.114568 -0.014146 288381.000000 0 0 1
-27.105313 -14.165233 -24.401637 39.125333 0.481564 2.244236 0.104050 -0.025830 -600763.000000 0 0 1
-25.947063 -13.469833 -24.754237 38.307424 0.478832 2.273390 0.070935 -0.016309 88146.300000 0 0 1
-24.898273 -13.545633 -23.792737 37.006790 0.498255 2.269113 0.057613 -0.013420 573642.000000 0 0 1
-24.099073 -14.900133 -23.819337 37.015404 0.553757 2.269856 0.040442 -0.008154 -802794.000000 0 0 1
-23.470973 -15.249333 -25.026737 37.546855 0.576172 2.300363 0.037187 -0.001618 76059.700000 0 0 1
-23.112273 -16.598333 -25.015137 37.887187 0.622811 2.291952 0.054822 -0.003909 256312.000000 0 0 1
-22.167073 -16.936733 -26.244537 38.301537 0.652432 2.325686 0.029774 -0.004079 6157.960000 0 0 1
-22.818373 -16.989233 -27.462937 39.541435 0.639999 2.338571 0.042874 -0.004240 -371439.000000 0 0 1
-23.666373 -18.103233 -27.515337 40.557589 0.652991 2.316415 0.057103 -0.008013 -410592.000000 0 0 1
-24.456473 -18.112833 -28.844637 41.930978 0.637468 2.329398 0.056340 -0.005142 -62363.300000 0 0 1
-23.649373 -18.281033 -30.001837 42.350906 0.658061 2.358040 0.053257 -0.001461 221559.000000 0 0 1
-24.331573 -17.824933 -31.134837 43.348953 0.632262 2.372062 0.050637 -0.004933 -415218.000000 0 0 1
-23.563773 -18.169433 -32.418637 44.003951 0.656853 2.399005 0.048685 -0.006522 136609.000000 0 0 1
-22.267273 -17.540133 -32.566137 43.174541 0.667201 2.425369 0.040543 -0.006705 1154650.000000 0 0 1
-21.174673 -18.369033 -32.171637 42.670861 0.714566 2.424849 0.047466 -0.016522 91288.600000 0 0 1
-20.985673 -19.642133 -33.142037 43.870337 0.752341 2.427144 0.060407 -0.019459 -911565.000000 0 0 1
-20.377073 -19.355733 33.276524 43.556820 0.759699 0.701338 0.059708 -0.019383 72929.800000 0 0 1
-20.127273 -20.405633 32.387324 43.248535 0.792266 0.724448 0.064632 -0.021063 -169440.000000 0 0 1
-21.362273 -21.012833 31.693124 43.615823 0.777152 0.757374 0.065202 -0.016619 -585155.000000 0 0 1
-22.169773 -21.779933 32.490824 44.961294 0.776528 0.763182 0.067916 -0.011517 -804659.000000 0 0 1
-23.352973 -22.169433 31.841124 45.284681 0.759405 0.791003 0.065858 -0.006472 -328315.000000 0 0 1
-23.256073 -23.361033 30.871524 45.162305 0.787650 0.818156 0.065323 -0.002929 -607261.000000 0 0 1
-23.094773 -24.591633 31.485824 46.146225 0.816778 0.819885 0.076711 0.003457 47250.200000 0 0 1
-22.975073 -25.597313 30.499824 45.970813 0.839332 0.845362 0.065974 0.005621 103949.000000 0 0 1
-22.368073 -26.881523 31.119324 46.811957 0.876787 0.843606 0.087252 -0.007104 313363.000000 0 0 1
-23.255373 -27.442263 32.103224 48.213143 0.867797 0.842150 0.082647 0.001827 64398.600000 0 0 1
-22.756073 -28.463403 32.893024 49.091295 0.896369 0.836537 0.098843 -0.006795 -1187640.000000 0 0 1
-23.817973 -28.986773 33.808624 50.502989 0.882972 0.837344 0.076822 -0.004216 -511767.000000 0 0 1
-24.916873 -29.686163 33.265224 51.075375 0.872522 0.861504 0.056816 -0.002762 1290170.000000 0 0 1
-26.031803 -28.865143 32.775524 50.843743 0.836964 0.870254 0.051836 0.002994 852358.000000 0 0 1
-27.073993 -28.345943 33.799324 51.757974 0.808345 0.859223 0.019367 0.006137 -580242.000000 0 0 1
-28.018613 -27.444613 33.340224 51.476402 0.775049 0.866261 0.018380 0.002492 -458599.000000 0 0 1
-28.727643 -26.816663 -33.265037 51.487606 0.751007 2.273232 0.015525 0.008055 603575.000000 0 0 1
-30.069243 -26.208613 -33.815837 52.293036 0.716906 2.273994 0.019875 0.002923 620123.000000 0 0 1
-31.033813 -27.171093 33.467224 53.117049 0.719131 0.889159 0.018495 -0.000255 -478421.000000 0 0 1
-32.221103 -26.547903 33.086524 53.270148 0.689162 0.900640 0.042351 -0.014514 -401374.000000 0 0 1
