# x y z rho theta phi s1 s2 stress_xx np intf bulk
-0.690133 -10.821131 -14.424570 18.045536 1.507106 2.496997 -0.002348 0.001823 -653847.000000 1 0 0
2.103267 -13.489131 -13.118670 18.933565 -1.416119 2.336271 0.003279 0.007289 -264506.000000 1 0 0
2.210267 -11.241731 -14.732970 18.663392 -1.376660 2.480635 0.000282 0.006275 873036.000000 1 0 0
-5.555933 -6.138731 -16.200470 18.193616 0.835191 2.669125 0.015061 -0.016521 249182.000000 1 0 0
4.496567 -14.013531 -11.651970 18.771430 -1.260301 2.240468 0.002893 0.002564 1368320.000000 1 0 0
14.066567 -10.781831 -7.988470 19.440469 -0.653969 1.994259 0.028109 -0.009836 231237.000000 1 0 0
7.153967 10.864269 -10.831170 16.927074 0.988479 2.265129 0.017946 -0.007302 1011650.000000 1 0 0
5.786667 -4.184531 -12.624770 14.504504 -0.626083 2.626818 0.004791 -0.002847 1663160.000000 1 0 0
13.702167 0.520969 -9.974570 16.956204 0.038003 2.199696 0.014242 0.004052 380775.000000 1 0 0
14.280767 5.139569 -10.287070 18.335193 0.345462 2.166457 0.018446 -0.000886 -1666090.000000 1 0 0
4.211267 4.368869 -13.426370 14.733947 0.803764 2.717115 0.003068 0.004169 1294410.000000 1 0 0
10.439267 -5.046831 -13.633470 17.897494 -0.450318 2.436811 0.020486 -0.008150 -951650.000000 1 0 0
2.655867 -7.535731 -11.997770 14.414831 -1.231953 2.554079 0.002424 -0.002563 2253720.000000 1 0 0
-5.438533 -1.963431 -15.190270 16.253523 0.346460 2.777882 0.009909 -0.008373 733538.000000 1 0 0
10.702667 0.003569 -9.566470 14.354945 0.000333 2.300198 0.008303 0.002595 2311360.000000 1 0 0
-1.615433 -9.385731 -16.869670 19.372334 1.400350 2.627649 0.011219 -0.007030 668588.000000 1 0 0
8.689967 1.786169 -17.970170 20.040782 0.202720 2.683008 0.023927 -0.006649 -1082370.000000 1 0 0
16.365567 -6.013931 -8.805370 19.532887 -0.352157 2.038455 0.054939 -0.007206 -1024180.000000 1 0 0
10.205867 7.629569 -9.866670 16.115869 0.641942 2.229678 0.015232 -0.002883 1476260.000000 1 0 0
13.954567 -2.288431 -10.543670 17.639043 -0.162545 2.211483 0.033175 -0.002780 -1863720.000000 1 0 0
7.317667 -1.862131 -13.737270 15.675726 -0.249182 2.639008 0.009218 -0.001762 1542170.000000 1 0 0
-2.759033 6.715269 -13.755470 15.553780 -1.180963 2.655963 0.005414 -0.003695 450221.000000 1 0 0
11.402067 1.888969 -13.885570 18.066112 0.164178 2.447442 0.017234 -0.002564 -697555.000000 1 0 0
-2.264633 10.830969 -12.873270 16.975263 -1.364677 2.431582 0.007723 -0.001116 276818.000000 1 0 0
2.878167 -1.008131 -15.303270 15.604174 -0.336914 2.944891 0.011630 -0.006673 738261.000000 1 0 0
-9.057833 0.512569 -15.284670 17.774370 -0.056528 2.605924 0.016165 -0.003812 -576349.000000 1 0 0
2.457167 -1.739431 -18.118070 18.366485 -0.616009 2.976935 0.016908 -0.011137 482273.000000 1 0 0
1.151767 7.926169 -13.084370 15.341169 1.426494 2.592297 0.009693 -0.003959 -516981.000000 1 0 0
9.419867 -9.119431 -9.942570 16.454562 -0.769194 2.219613 0.018024 -0.006940 -446755.000000 1 0 0
4.039667 7.337769 -13.539870 15.921365 1.067546 2.587582 0.003668 0.000303 1203240.000000 1 0 0
-2.632233 9.169869 -15.447070 18.155636 -1.291260 2.588329 0.006252 -0.004010 1583690.000000 1 0 0
5.636767 -7.517931 -15.300270 17.955241 -0.927438 2.590846 0.013101 -0.005136 1163460.000000 1 0 0
4.264967 7.269869 -16.409970 18.447983 1.040241 2.667104 0.013553 0.000750 68909.700000 1 0 0
-0.132833 5.173869 -13.394670 14.359797 -1.545128 2.772873 0.009641 -0.003314 3789660.000000 1 0 0
8.912967 4.334069 -16.610270 19.342343 0.452600 2.603625 0.024407 -0.002777 -1335150.000000 1 0 0
5.388767 0.336069 -14.344470 15.326956 0.062284 2.781597 0.004740 -0.000974 535910.000000 1 0 0
6.361667 7.953969 -11.616170 15.449008 0.896171 2.421742 0.004415 0.000139 461604.000000 1 0 0
2.886167 -8.452131 -15.040070 17.492061 -1.241739 2.605719 0.007574 -0.002618 -335802.000000 1 0 0
4.083767 11.521569 -13.760370 18.405746 1.230167 2.415257 0.019343 -0.009157 -2001350.000000 1 0 0
0.678767 -4.557231 -13.765070 14.515724 -1.422940 2.818591 0.007011 -0.004236 -438582.000000 1 0 0
8.636467 -0.092331 -11.647270 14.500207 -0.010690 2.503526 0.001029 0.001628 546799.000000 1 0 0
-0.928833 -5.003631 -16.259070 17.036913 1.387254 2.838251 0.008065 -0.011065 338990.000000 1 0 0
4.673367 0.890969 -11.639470 12.574238 0.188388 2.753573 0.000433 0.000185 2003410.000000 1 0 0
-2.897433 -7.114631 -15.518270 17.315594 1.184056 2.681930 0.006514 -0.010027 1554140.000000 1 0 0
11.446867 -3.783331 -11.277370 16.508284 -0.319210 2.322842 0.016136 -0.006489 1214140.000000 1 0 0
6.624167 -6.964231 -12.569170 15.822899 -0.810419 2.488759 0.010661 -0.006053 68306.900000 1 0 0
3.472467 -3.967231 -14.647170 15.567162 -0.851804 2.796079 0.012018 -0.005703 3153690.000000 1 0 0
-0.449233 -1.499531 -18.328070 18.394797 1.279723 3.056391 0.020430 -0.017259 -104455.000000 1 0 0
14.996767 2.943569 -8.481070 17.478449 0.193816 2.077423 0.014667 0.000789 -1731300.000000 1 0 0
7.071167 4.340169 -14.299570 16.532277 0.550493 2.615844 0.009917 0.002747 2442510.000000 1 0 0
10.320967 -9.639231 -14.063870 19.930619 -0.751257 2.354124 0.044349 -0.017349 830855.000000 1 0 0
9.256867 -3.169831 -15.487670 18.319535 -0.329915 2.578144 0.024932 -0.009519 -1770660.000000 1 0 0
-5.129833 -2.006231 -18.101470 18.920977 0.372803 2.846200 -0.000402 -0.001415 -180047.000000 1 0 0
5.128667 -9.026531 -11.099770 15.198236 -1.054105 2.389605 0.001757 -0.000677 2062470.000000 1 0 0
-2.320533 4.020669 -17.215870 17.830784 -1.047347 2.878207 0.007485 0.000258 1316820.000000 1 0 0
9.530667 9.526169 -14.481370 19.781092 0.785162 2.392169 0.044161 -0.005617 544789.000000 1 0 0
9.925267 10.126869 -11.525270 18.272829 0.795452 2.253293 0.027448 -0.006782 -27694.600000 1 0 0
12.082167 -5.971231 -9.613870 16.554784 -0.459012 2.190422 0.023843 -0.008977 -760175.000000 1 0 0
8.313567 6.959069 -13.688770 17.462144 0.696942 2.471737 0.018502 0.002292 508686.000000 1 0 0
4.188067 -4.140031 -17.538170 18.500464 -0.779630 2.817642 0.023708 -0.012879 -823566.000000 1 0 0
9.472067 -7.507331 -12.395770 17.312862 -0.670198 2.368832 0.022226 -0.011958 194774.000000 1 0 0
12.062467 -8.795831 -8.870470 17.365339 -0.630049 2.106929 0.024030 -0.007551 -166610.000000 1 0 0
-2.795833 -2.451031 -13.933370 14.420924 0.719777 2.880821 0.008103 -0.008120 -2276170.000000 1 0 0
-0.193433 6.067469 -17.704870 18.716678 -1.538927 2.811280 0.014118 -0.001435 1335230.000000 1 0 0
1.111467 -8.376331 -17.421470 19.362487 -1.438876 2.690001 0.014326 -0.011039 1466900.000000 1 0 0
0.223167 8.481669 -15.933870 18.052056 1.544491 2.652293 0.011663 -0.005533 241264.000000 1 0 0
1.849767 3.408869 -14.903870 15.400240 1.073626 2.887011 0.012722 -0.000523 3332740.000000 1 0 0
-1.826933 -0.383031 -15.815070 15.924850 0.206664 3.024106 0.012403 -0.008613 1441830.000000 1 0 0
14.198967 -4.326731 -8.381070 17.046220 -0.295783 2.084800 0.035696 -0.006644 -148847.000000 1 0 0
0.653367 0.676269 -14.540870 14.571244 0.802621 3.077014 0.007460 -0.004179 1311160.000000 1 0 0
8.960767 2.758169 -12.536770 15.654822 0.298602 2.499468 0.003641 0.003391 2211610.000000 1 0 0
6.009467 1.117369 -17.143270 18.200383 0.183836 2.799093 0.015785 -0.002503 -1109770.000000 1 0 0
15.351267 1.565369 -12.302970 19.735117 0.101619 2.243886 0.030428 -0.005857 -1567590.000000 1 0 0
8.800467 -11.166331 -12.055170 18.640340 -0.903338 2.274079 0.027216 -0.010599 510222.000000 1 0 0
-4.553133 0.821169 -15.138970 15.830154 -0.178434 2.844999 0.012276 -0.007439 1353900.000000 1 0 0
2.455367 5.128569 -17.223070 18.137398 1.124283 2.822718 0.012527 -0.003267 183456.000000 1 0 0
5.918867 -11.599631 -12.492270 18.045532 -1.098972 2.335418 0.013719 -0.003658 723457.000000 1 0 0
12.957167 7.295769 -8.601270 17.178425 0.512821 2.095206 0.025968 -0.003518 547389.000000 1 0 0
-4.927733 3.681869 -15.798270 16.953585 -0.641689 2.770287 0.010773 -0.003003 706330.000000 1 0 0
-0.591133 -4.314231 -19.030670 19.522511 1.434625 2.916648 0.018350 -0.015523 -693474.000000 1 0 0
9.924767 4.504569 -10.251370 14.962712 0.426069 2.325576 0.000594 0.006216 55046.400000 1 0 0
13.419467 3.769869 -12.705070 18.860350 0.273867 2.309918 0.017726 -0.007180 163378.000000 1 0 0
-6.056533 5.863369 -17.247670 19.197469 -0.769194 2.686988 0.005200 0.000944 -1073510.000000 1 0 0
-10.049833 3.258869 -15.410170 18.684023 -0.313572 2.540606 0.015073 -0.004794 515106.000000 1 0 0
10.821167 13.487469 -8.336770 19.196646 0.894647 2.020038 0.032413 -0.010257 -81937.100000 1 0 0
7.511467 13.412969 -12.344670 19.716003 1.060296 2.247369 0.034477 -0.010214 139176.000000 1 0 0
5.507367 15.203269 -11.111070 19.619541 1.223251 2.172838 0.025096 -0.017075 -190814.000000 1 0 0
14.340967 9.579469 -9.809370 19.840698 0.588911 2.087948 0.063195 -0.015594 -719716.000000 1 0 0
8.372567 -17.219231 -2.129870 19.264946 -1.118222 1.681580 0.038223 -0.004619 -790778.000000 1 0 0
0.647667 -16.040531 -0.033970 16.053637 -1.530441 1.572912 0.014813 -0.010364 2928470.000000 1 0 0
-9.235033 -11.701031 7.442530 16.661068 0.902645 1.107721 0.011898 -0.014104 -1523400.000000 1 0 0
2.013867 -15.947531 -2.620870 16.286447 -1.445180 1.732422 0.016704 -0.011671 2222110.000000 1 0 0
-1.271833 -11.088131 -9.410770 14.598863 1.456593 2.271327 0.004795 -0.002224 193969.000000 1 0 0
-4.739433 -12.591231 -12.976170 18.691771 1.210792 2.338130 0.019561 -0.005744 -545005.000000 1 0 0
-8.281833 -17.703531 -1.695770 19.618343 1.133233 1.657342 0.010498 -0.006985 321196.000000 1 0 0
-11.317633 -7.079731 -8.939970 16.066564 0.558994 2.160883 0.021489 -0.007798 1311640.000000 1 0 0
-13.563533 -11.595631 -4.669570 18.445405 0.707339 1.826738 0.014552 -0.006000 -181505.000000 1 0 0
-5.658133 -13.454431 9.584130 17.461149 1.172709 0.989769 0.002609 -0.016363 -25839.100000 1 0 0
0.099367 -14.065531 -3.733670 14.552983 -1.563732 1.830255 0.013015 -0.007329 41033.800000 1 0 0
-14.761433 -11.543631 1.865530 18.831769 0.663677 1.471571 0.008654 0.000383 226468.000000 1 0 0
-3.973133 -16.431231 -7.406870 18.456242 1.333547 1.983755 0.011969 -0.015829 -1235380.000000 1 0 0
0.568567 -15.282331 -9.225170 17.859918 -1.533609 2.113589 0.007050 0.001723 2760550.000000 1 0 0
4.490267 -14.210231 -2.656170 15.137648 -1.264737 1.747177 0.010553 -0.003114 -387422.000000 1 0 0
-3.580533 -18.152131 -2.442970 18.662480 1.376045 1.702076 0.013787 -0.012639 1340880.000000 1 0 0
-1.018233 -13.626531 0.593030 13.677384 1.496211 1.527424 0.013918 -0.006985 684396.000000 1 0 0
-8.444633 -11.419331 -10.474470 17.647308 0.934047 2.206253 0.013967 -0.011792 2565680.000000 1 0 0
-3.781233 -14.199131 -0.488370 14.702093 1.310536 1.604020 0.007026 -0.004156 4823240.000000 1 0 0
-1.554833 -14.943631 -7.324270 16.714501 1.467123 2.024390 0.003993 -0.005795 196486.000000 1 0 0
-14.284333 -7.842331 -1.935370 16.410057 0.502088 1.689010 0.011208 -0.003001 1578000.000000 1 0 0
-10.539133 -7.338431 -11.700970 17.373503 0.608240 2.309723 0.021791 -0.011501 -1229200.000000 1 0 0
-9.489133 -14.705531 6.909430 18.815858 0.997749 1.194785 0.000043 -0.009694 1256260.000000 1 0 0
-2.463833 -14.282231 -12.326270 19.026022 1.399967 2.275573 0.016153 -0.001505 670688.000000 1 0 0
2.343167 -17.891531 -4.798570 18.671464 -1.440572 1.830713 0.022120 -0.014426 120024.000000 1 0 0
-6.616333 -9.666431 -9.316970 14.967354 0.970573 2.242712 0.008169 -0.011057 -566919.000000 1 0 0
-11.091733 -15.231231 0.513130 18.848879 0.941379 1.543570 0.012646 0.003877 -317365.000000 1 0 0
-12.671933 -10.973331 4.009030 17.235550 0.713684 1.336044 0.013035 -0.004430 1930500.000000 1 0 0
-17.042033 -8.952231 -1.716570 19.326664 0.483684 1.659732 0.011799 -0.006467 -986208.000000 1 0 0
-1.230033 -19.148931 -3.836470 19.568164 1.506649 1.768131 0.025075 -0.021294 49955.800000 1 0 0
3.403967 -14.219231 -8.957670 17.146818 -1.335827 2.120471 0.009426 0.002111 1188060.000000 1 0 0
-4.144733 -7.989831 -12.959670 15.778760 1.092261 2.534546 0.002909 -0.006773 246326.000000 1 0 0
5.541967 -16.610631 1.262430 17.556201 -1.248770 1.498826 0.031468 -0.008234 3670070.000000 1 0 0
-2.806833 -13.792931 -3.249070 14.445751 1.370040 1.797652 0.003569 -0.007471 -860496.000000 1 0 0
-0.480133 -14.020331 3.591330 14.480948 1.536564 1.320177 0.010716 -0.004036 -2247510.000000 1 0 0
1.116967 -16.205431 6.944630 17.666111 -1.501980 1.166791 0.025928 -0.012652 1497770.000000 1 0 0
-5.514633 -10.246531 -14.495970 18.588591 1.077062 2.465193 0.017383 -0.011626 -1216750.000000 1 0 0
-0.321133 -17.294031 -5.849270 18.259260 1.552229 1.896890 0.019399 -0.012973 -402368.000000 1 0 0
-6.588933 -13.327731 -1.316670 14.925685 1.111657 1.659126 0.000941 -0.004538 3318810.000000 1 0 0
-1.796233 -17.833131 -0.112570 17.923718 1.470410 1.577077 0.014665 -0.009412 3269600.000000 1 0 0
-9.521533 -9.755631 -4.885470 14.481013 0.797541 1.914919 0.016065 -0.007535 1278280.000000 1 0 0
-0.914533 -16.715831 4.787930 17.412054 1.516140 1.292230 0.030551 -0.015673 1909910.000000 1 0 0
-6.806533 -9.845631 -6.384270 13.565554 0.965916 2.060794 0.009119 -0.007807 2888300.000000 1 0 0
-6.065633 -14.595031 -8.528970 17.959682 1.176918 2.065642 0.014687 -0.012265 -561888.000000 1 0 0
-5.685533 -12.278531 -10.268770 16.986325 1.137146 2.219974 0.010457 -0.009292 1352540.000000 1 0 0
-10.703033 -12.189831 -8.721570 18.417727 0.850253 2.064104 0.026706 -0.024930 -703761.000000 1 0 0
3.922767 -17.052431 6.525530 18.675011 -1.344689 1.213838 0.035126 -0.014014 1182590.000000 1 0 0
-6.727133 -14.394931 -4.177470 16.429230 1.133627 1.827890 0.007119 -0.011318 209485.000000 1 0 0
-2.865433 -12.198331 -7.097670 14.400934 1.340076 2.086172 0.005451 -0.005718 2192140.000000 1 0 0
-7.168333 -12.822231 4.330330 15.314906 1.061028 1.284134 -0.000886 -0.002312 2470670.000000 1 0 0
2.559567 -16.362431 2.301630 16.720587 -1.415624 1.432705 0.020995 -0.012506 4098070.000000 1 0 0
-6.281033 -12.009931 7.101630 15.301077 1.088929 1.088149 0.002159 -0.009201 2031000.000000 1 0 0
-11.287133 -12.888731 -1.108270 17.168198 0.851549 1.635395 0.011762 0.003804 382768.000000 1 0 0
-14.296233 -8.633531 4.656030 17.337784 0.543284 1.298911 0.012432 -0.000513 607182.000000 1 0 0
-8.149633 -15.571031 4.400330 18.117296 1.088617 1.325463 0.002416 0.002636 631357.000000 1 0 0
-16.442333 -9.150331 1.119630 18.850264 0.507828 1.511365 -0.002872 0.000810 -55353.700000 1 0 0
-6.798233 -17.019731 2.246530 18.464401 1.190779 1.448826 0.000520 0.003287 1098680.000000 1 0 0
-11.550633 -14.939431 -4.779570 19.479425 0.912634 1.818693 0.029131 -0.006492 -1059530.000000 1 0 0
-10.016833 -10.078231 -12.601170 18.992029 0.788454 2.296281 0.017368 -0.009073 -22994.100000 1 0 0
-4.348733 -16.030531 -4.483570 17.204412 1.305894 1.834446 0.006548 -0.012431 -698510.000000 1 0 0
-11.862733 -8.228831 -0.093270 14.437686 0.606465 1.577257 0.004163 -0.000739 1196300.000000 1 0 0
-9.679833 -11.096431 3.353130 15.102100 0.853476 1.346900 0.003719 -0.001114 2431190.000000 1 0 0
-14.253533 -12.931131 -0.682070 19.257273 0.736791 1.606223 0.021188 0.006683 2586590.000000 1 0 0
5.620967 -14.904231 -7.196970 17.479352 -1.210152 1.995160 0.015506 -0.004346 158494.000000 1 0 0
-7.422133 -10.447931 -1.418170 12.894127 0.953129 1.681005 0.005109 -0.000688 733912.000000 1 0 0
-11.657733 -8.208731 -6.108070 15.511110 0.613502 1.975544 0.018825 -0.010706 1376870.000000 1 0 0
-14.366033 -6.652731 -9.269070 18.345501 0.433684 2.100468 0.040344 -0.012255 1881770.000000 1 0 0
-4.044833 -16.467131 1.379230 17.012623 1.329934 1.489636 0.010565 -0.006417 1840380.000000 1 0 0
-8.106633 -15.351431 0.185730 17.361406 1.084946 1.560098 0.008127 0.004421 -142989.000000 1 0 0
0.896667 -18.566831 3.549330 18.924295 -1.522540 1.382125 0.022729 -0.019036 1597540.000000 1 0 0
-14.088933 -8.691631 -4.673570 17.201300 0.552762 1.845954 0.016162 -0.011462 584089.000000 1 0 0
-3.234333 -14.590831 10.963530 18.535162 1.352655 0.937880 -0.000451 -0.013065 135358.000000 1 0 0
-10.782333 -12.192731 -3.907670 16.738915 0.846709 1.806419 0.017696 -0.009501 518501.000000 1 0 0
-10.014333 -10.722631 0.381030 14.676746 0.819541 1.544832 0.004138 0.002068 2898380.000000 1 0 0
-0.080533 -13.203231 -11.158470 17.287083 1.564697 2.272448 0.006500 -0.000447 1471360.000000 1 0 0
-5.924133 -12.653231 -6.390270 15.363436 1.132918 1.999773 0.005027 -0.013236 1997740.000000 1 0 0
1.709467 -15.895131 9.836530 18.770583 -1.463662 1.019209 0.032233 -0.011265 729789.000000 1 0 0
-8.987733 -15.693431 -5.614370 18.936321 1.050687 1.871808 0.027159 -0.013462 -635026.000000 1 0 0
-3.374633 -15.486531 5.834930 16.889855 1.356243 1.218057 0.008770 -0.008229 -321260.000000 1 0 0
-17.398433 -5.655831 -6.515470 19.420228 0.314302 1.912931 0.030843 -0.009678 472650.000000 1 0 0
18.821167 5.756769 -2.796470 19.879561 0.296830 1.711935 0.017594 -0.004759 -167381.000000 1 0 0
12.821967 -12.536531 -5.875070 18.870185 -0.774143 1.887401 0.026560 -0.002089 495158.000000 1 0 0
11.048967 -13.514731 -1.614270 17.530929 -0.885445 1.663008 0.034035 -0.002312 2627090.000000 1 0 0
18.890567 -2.821731 4.337730 19.586515 -0.148276 1.347480 0.071683 -0.020124 -93873.400000 1 0 0
8.587667 -16.838331 4.987530 19.548730 -1.099175 1.312811 0.035901 -0.020002 -403780.000000 1 0 0
18.184467 -1.095231 6.652230 19.393982 -0.060156 1.220682 0.076714 -0.022228 -185845.000000 1 0 0
18.028167 -4.156631 -5.010970 19.167739 -0.226603 1.835297 0.054044 -0.010062 1011680.000000 1 0 0
5.754167 -11.684231 14.650330 19.602649 -1.113189 0.726709 0.024290 -0.007676 958117.000000 1 0 0
16.005867 -8.829931 -0.860170 18.300146 -0.504123 1.617817 0.036420 -0.000616 297788.000000 1 0 0
13.874167 -12.550731 -1.315470 18.754834 -0.735357 1.640994 0.034249 0.002529 -183598.000000 1 0 0
11.206667 -2.186031 13.802130 17.912758 -0.192646 0.691141 0.035289 -0.002689 -1665010.000000 1 0 0
16.862167 -6.100031 -1.457370 17.990747 -0.347111 1.651892 0.030197 -0.005254 -349528.000000 1 0 0
17.731467 3.778969 -0.876670 18.150870 0.209981 1.619114 0.023446 -0.009592 791092.000000 1 0 0
9.813967 -11.101931 9.413030 17.554827 -0.846899 1.004859 0.016382 -0.006762 -387343.000000 1 0 0
9.039767 -11.089131 4.340430 14.950770 -0.886861 1.276241 0.012559 -0.008849 -890862.000000 1 0 0
14.035967 -9.929331 6.724030 18.461109 -0.615689 1.197994 0.045575 -0.016558 -919082.000000 1 0 0
16.258267 -0.476431 -4.570370 16.895162 -0.029296 1.844723 0.020340 -0.003333 -316106.000000 1 0 0
15.813767 -0.445531 -1.589270 15.899670 -0.028166 1.670920 0.020564 -0.004915 2106070.000000 1 0 0
12.887767 -5.085031 -0.202970 13.856164 -0.375810 1.585445 0.017544 -0.006694 687554.000000 1 0 0
14.347067 -7.430631 1.120430 16.195924 -0.477880 1.501561 0.028838 -0.004254 1852660.000000 1 0 0
15.535467 2.408069 3.686130 16.147355 0.153781 1.340485 0.033670 -0.015005 1199510.000000 1 0 0
15.934367 -6.979931 4.953830 18.087673 -0.412866 1.293373 0.054318 -0.015916 -777494.000000 1 0 0
13.696467 -12.057831 3.374130 18.557188 -0.721858 1.387956 0.035748 -0.006463 2464670.000000 1 0 0
13.927967 -0.898331 9.102430 16.662818 -0.064409 0.992889 0.048994 -0.019849 1849610.000000 1 0 0
14.199167 -2.797431 -1.494870 14.549110 -0.194522 1.673724 0.017938 -0.004973 1360660.000000 1 0 0
15.090967 1.899669 9.056130 17.701964 0.125223 1.033763 0.055902 -0.017761 -1332990.000000 1 0 0
14.375767 -10.133731 -2.975170 17.838352 -0.614019 1.738364 0.031103 0.002330 686499.000000 1 0 0
7.319867 -12.589531 6.146530 15.806852 -1.044147 1.171411 0.007183 -0.007294 -936991.000000 1 0 0
12.421467 -4.526931 6.919630 14.922038 -0.349484 1.088608 0.025241 -0.012478 2252390.000000 1 0 0
14.950867 -9.090031 -5.711570 18.405953 -0.546276 1.886317 0.042254 -0.004890 -930618.000000 1 0 0
14.349167 -4.439631 4.599230 15.708655 -0.300058 1.273660 0.033337 -0.016993 1533160.000000 1 0 0
17.119667 -4.176931 0.937030 17.646750 -0.239309 1.517672 0.032812 -0.015215 -1209070.000000 1 0 0
10.199867 -14.462431 1.179530 17.736699 -0.956545 1.504245 0.034833 -0.006695 1118770.000000 1 0 0
16.432267 -2.582331 8.486730 18.673843 -0.155875 1.099017 0.076526 -0.021770 861921.000000 1 0 0
16.171867 -2.541931 3.209230 16.682022 -0.155907 1.377213 0.043136 -0.015401 1154190.000000 1 0 0
7.764467 -15.216531 2.718830 17.298028 -1.098970 1.412966 0.020214 -0.008892 1413000.000000 1 0 0
16.621367 -7.009231 7.824730 19.662796 -0.399072 1.161520 0.067593 -0.014667 -2331480.000000 1 0 0
10.217967 -8.540931 5.146630 14.277330 -0.696236 1.202019 0.013349 -0.007637 1360770.000000 1 0 0
10.946567 -11.888731 2.280430 16.320833 -0.826634 1.430613 0.025539 -0.008144 -460025.000000 1 0 0
12.159767 -7.285331 12.010930 18.579516 -0.539783 0.867860 0.039953 -0.012119 148500.000000 1 0 0
15.314367 -9.855731 4.288130 18.709712 -0.571835 1.339548 0.043055 -0.010203 279453.000000 1 0 0
7.346067 -10.306431 7.888630 14.913675 -0.951554 1.013430 0.003885 -0.006699 430863.000000 1 0 0
15.274667 -3.244431 -4.285170 16.192729 -0.209295 1.838622 0.031602 -0.001927 2810780.000000 1 0 0
11.775967 -8.947231 9.743730 17.710635 -0.649736 0.988237 0.036710 -0.014040 -1325360.000000 1 0 0
17.030367 -6.629931 2.387230 18.430633 -0.371249 1.440906 0.054761 -0.012647 817666.000000 1 0 0
17.545267 4.050769 2.091930 18.127915 0.226900 1.455140 0.031467 -0.013856 993508.000000 1 0 0
14.740467 -4.904731 8.749230 17.829379 -0.321216 1.057881 0.063029 -0.017969 766910.000000 1 0 0
12.772367 -12.428431 6.160630 18.856103 -0.771751 1.237967 0.035507 -0.011393 1170950.000000 1 0 0
18.297567 0.858869 -0.899170 18.339769 0.046905 1.619844 0.034000 -0.013346 742178.000000 1 0 0
11.660967 -2.155031 10.938430 16.132934 -0.182745 0.825733 0.029734 -0.009137 2640920.000000 1 0 0
5.716567 -12.588131 10.485930 17.352086 -1.144519 0.921905 0.008521 -0.001413 -1386020.000000 1 0 0
10.616567 -4.957031 11.050930 16.106107 -0.436831 0.814637 0.028455 -0.007704 -298520.000000 1 0 0
17.949467 1.288469 5.004230 18.678486 0.071660 1.299569 0.052891 -0.016158 -890437.000000 1 0 0
12.252467 -7.630031 7.171530 16.117418 -0.556968 1.109672 0.033155 -0.012871 -233845.000000 1 0 0
10.580067 -8.035531 14.277530 19.502703 -0.649552 0.749427 0.040225 -0.009596 167360.000000 1 0 0
14.267467 -0.262831 3.773930 14.760496 -0.018420 1.312248 0.025417 -0.013939 2610920.000000 1 0 0
11.695167 -7.673331 2.600530 14.227427 -0.580659 1.386980 0.013418 -0.006271 2309340.000000 1 0 0
9.252567 6.081269 3.571630 11.633932 0.581456 1.258756 0.004572 0.000804 1657720.000000 1 0 0
-4.002933 14.836369 -9.741970 18.194706 -1.307266 2.135812 0.001057 -0.005214 277635.000000 1 0 0
8.763967 -6.466631 9.304930 14.325018 -0.635690 0.863793 0.007294 -0.003780 -1051290.000000 1 0 0
5.840967 -10.619131 -8.530070 14.820423 -1.067921 2.184087 0.001879 -0.000919 293348.000000 1 0 0
5.343167 1.011869 0.547130 5.465589 0.187160 1.470524 -0.000862 0.001574 2466070.000000 1 0 0
-0.577933 9.880169 10.950530 14.760280 -1.512369 0.734909 -0.008959 0.003361 152965.000000 1 0 0
-6.313533 -5.144531 1.085830 8.216199 0.683726 1.438251 0.007159 -0.004352 3375820.000000 1 0 0
-0.979133 4.029069 -10.780670 11.550539 -1.332400 2.774425 0.011029 -0.001641 1590140.000000 1 0 0
10.904167 5.808469 1.238030 12.416597 0.489451 1.470923 0.005977 0.000937 1458720.000000 1 0 0
-10.097633 -1.661131 -13.604370 17.023526 0.163047 2.496678 0.013801 -0.002317 1972460.000000 1 0 0
7.452667 10.882769 -5.990170 14.486513 0.970336 1.997091 0.003395 -0.002745 35037.500000 1 0 0
-12.394933 -2.891531 -9.616170 15.951992 0.229184 2.217826 0.015296 -0.000206 107605.000000 1 0 0
-3.981733 -8.762131 2.501830 9.944259 1.144268 1.316478 0.006197 -0.002514 -1491600.000000 1 0 0
8.054167 -6.653631 -5.883770 11.989961 -0.690460 2.083718 0.004087 -0.002722 2845730.000000 1 0 0
14.291867 3.181369 -4.169570 15.223793 0.219029 1.848227 0.018055 0.002441 1443490.000000 1 0 0
-2.569233 -4.900231 9.755030 11.214893 1.087892 0.515942 0.001563 -0.000440 3181690.000000 1 0 0
3.504667 -1.942331 -4.562870 6.072489 -0.506072 2.420978 -0.004156 0.001689 -1264730.000000 1 0 0
-3.994733 8.401169 -3.411470 9.908363 -1.126942 1.922292 0.004581 -0.002280 1256270.000000 1 0 0
5.747367 0.092169 11.731930 13.064413 0.016035 0.455579 0.000977 -0.002941 545869.000000 1 0 0
7.076067 4.725769 12.299930 14.956333 0.588823 0.605198 0.002425 0.004619 1444720.000000 1 0 0
1.178867 -14.450331 12.401930 19.079037 -1.489396 0.863174 0.018962 -0.009868 -106982.000000 1 0 0
3.066267 8.853169 -9.093870 13.056764 1.237380 2.341287 0.005355 -0.000683 586671.000000 1 0 0
-4.456633 -8.883131 -4.642670 10.969320 1.105793 2.007816 0.008169 -0.003522 2025860.000000 1 0 0
5.723867 -6.687431 -4.084870 9.704151 -0.862879 2.005278 0.001030 -0.002737 2493100.000000 1 0 0
-3.156633 3.453169 8.704730 9.882359 -0.830231 0.493173 0.002685 0.000797 2221010.000000 1 0 0
-3.752333 3.214869 -11.105370 12.155025 -0.708409 2.722957 0.006800 -0.003763 664139.000000 1 0 0
2.999267 -6.082131 8.534530 10.900739 -1.112662 0.671433 -0.000846 -0.001250 524546.000000 1 0 0
-5.126433 -8.721631 10.456530 14.549439 1.039408 0.768880 0.004883 -0.004478 1768170.000000 1 0 0
-13.276433 -2.539731 6.496530 14.997293 0.189013 1.122778 0.012824 -0.003626 1644080.000000 1 0 0
4.034167 -5.967031 -8.351170 11.028237 -0.976308 2.429894 0.000071 -0.001146 1965280.000000 1 0 0
2.872867 -0.618531 12.389530 12.733279 -0.212064 0.232888 -0.001686 -0.000184 1270650.000000 1 0 0
1.515967 -1.530631 -7.535270 7.837173 -0.790211 2.863126 0.000830 -0.001186 -1934210.000000 1 0 0
3.615167 -3.537631 3.524230 6.164776 -0.774559 0.962254 -0.000795 -0.001153 2290560.000000 1 0 0
1.664467 0.424469 -11.785870 11.910389 0.249696 2.996866 0.007791 -0.003142 324244.000000 1 0 0
4.215467 3.558969 -10.581870 11.933667 0.701155 2.661007 -0.002350 0.001357 2368000.000000 1 0 0
2.772067 3.217969 3.398230 5.439453 0.859702 0.896001 -0.006352 0.004775 -961282.000000 1 0 0
-5.387033 0.915969 2.565830 6.036771 -0.168421 1.131797 0.004948 -0.005145 1249360.000000 1 0 0
-9.572333 -9.276631 5.606130 14.460779 0.769711 1.172685 0.008077 -0.007333 -1110250.000000 1 0 0
-3.091633 3.802669 -0.600170 4.937478 -0.888169 1.692652 0.003334 -0.004863 -543695.000000 1 0 0
-15.944233 -6.412331 4.958130 17.886296 0.382378 1.289915 0.023139 -0.004119 -322141.000000 1 0 0
1.107367 6.784569 -8.100270 10.624077 1.409005 2.437879 0.005700 -0.001051 927514.000000 1 0 0
-1.552533 6.643369 -9.478070 11.678122 -1.341220 2.517698 0.009626 -0.002265 856152.000000 1 0 0
2.092867 -0.370331 5.222830 5.638722 -0.175136 0.386475 0.000695 -0.001320 3040830.000000 1 0 0
-3.343133 -0.517931 -6.234270 7.093019 0.153702 2.644411 0.007328 -0.005076 28578.000000 1 0 0
1.829167 -1.203831 -2.511270 3.331897 -0.582070 2.424479 0.002588 0.002151 2762450.000000 1 0 0
2.420367 -8.656231 -7.676370 11.820117 -1.298149 2.277634 -0.000981 0.000125 2244490.000000 1 0 0
-2.491133 14.055869 -5.544470 15.313862 -1.395387 1.941269 0.006753 -0.000964 2681790.000000 1 0 0
6.922667 -5.165231 -8.208270 11.915479 -0.641022 2.330732 0.003455 -0.004416 2827650.000000 1 0 0
-14.228533 -4.968631 -2.141870 15.222551 0.335964 1.711969 0.008282 -0.002765 1375660.000000 1 0 0
-2.677933 6.993669 -6.827370 10.133890 -1.205111 2.310023 0.009663 -0.003341 -1578030.000000 1 0 0
-5.592133 -1.024331 -8.133970 9.923844 0.181165 2.531577 0.014730 -0.006738 183492.000000 1 0 0
-5.779333 -10.657331 3.404030 12.592331 1.073894 1.297065 0.002483 -0.004170 -3843370.000000 1 0 0
8.037867 -7.609231 6.686030 12.930997 -0.758011 1.027390 0.006115 -0.006874 1309420.000000 1 0 0
8.717967 -5.999831 13.162130 16.889126 -0.602772 0.677207 0.024670 -0.002336 -11161.200000 1 0 0
-4.714333 9.478569 -0.732570 10.611544 -1.109257 1.639887 -0.000124 0.000539 1073610.000000 1 0 0
2.761267 6.598569 12.221430 14.160828 1.174474 0.529529 -0.005246 0.003929 585857.000000 1 0 0
5.969867 -2.823231 11.036130 12.861030 -0.441745 0.539226 0.002361 -0.003654 -293839.000000 1 0 0
-9.691833 -6.544431 -1.033170 11.740044 0.593923 1.658914 0.010205 -0.004352 -1066770.000000 1 0 0
0.791067 -13.377931 6.260330 14.791435 -1.511733 1.133778 0.007588 -0.006519 1205220.000000 1 0 0
-0.604433 -3.119331 8.724430 9.285001 1.379398 0.349260 0.000233 -0.002107 1367880.000000 1 0 0
4.189767 0.720169 3.418030 5.454880 0.170224 0.893613 -0.003122 0.002177 1216650.000000 1 0 0
-10.270733 5.496569 8.276230 14.289724 -0.491385 0.953082 -0.001324 -0.005273 383970.000000 1 0 0
9.427167 7.961969 -0.020270 12.339564 0.701337 1.572439 0.002440 0.001985 -734466.000000 1 0 0
4.217367 2.796469 8.190230 9.627372 0.585518 0.553436 -0.006629 0.002763 2373040.000000 1 0 0
1.407667 2.597169 -9.756870 10.194279 1.074116 2.847594 0.008727 -0.001243 3196200.000000 1 0 0
-1.427933 -10.198231 3.039030 10.736787 1.431683 1.283825 0.008614 -0.003323 -443328.000000 1 0 0
-9.963433 9.504769 9.035130 16.469493 -0.761843 0.990110 0.002288 -0.010185 1581240.000000 1 0 0
9.817667 -2.016131 -7.638570 12.601552 -0.202542 2.222021 0.009986 0.000590 1652200.000000 1 0 0
-5.249533 -1.814931 6.594730 8.622182 0.332867 0.699978 0.003314 -0.003083 96052.500000 1 0 0
3.120167 -7.865831 -4.950870 9.803971 -1.193161 2.100162 -0.001581 -0.001909 2612870.000000 1 0 0
-5.017033 4.919569 -13.102170 14.867402 -0.775590 2.649335 0.003812 -0.006455 1728990.000000 1 0 0
-5.642933 9.505069 5.535530 12.362489 -1.035040 1.106529 -0.001717 -0.001173 1530150.000000 1 0 0
-0.386033 -1.796631 -9.384870 9.563090 1.359149 2.948231 0.005910 -0.004708 894585.000000 1 0 0
-16.814033 0.186869 6.275730 17.948020 -0.011113 1.213587 0.025286 -0.007593 -1003140.000000 1 0 0
-6.021833 -2.858231 4.031830 7.790225 0.443158 1.026811 -0.000596 -0.003094 1400050.000000 1 0 0
0.987167 -5.757431 -5.188170 7.812786 -1.400988 2.297034 0.000109 -0.000975 376238.000000 1 0 0
-6.932333 1.434769 -8.471870 11.040308 -0.204086 2.445507 0.008421 -0.003270 738966.000000 1 0 0
7.875967 1.895369 4.834430 9.433716 0.236162 1.032746 0.000430 -0.000611 542507.000000 1 0 0
0.535167 -8.144531 -0.476770 8.176007 -1.505182 1.629143 0.002230 0.001577 1997100.000000 1 0 0
5.430167 5.572669 -3.402670 8.492321 0.798349 1.983051 -0.006204 0.004926 -129966.000000 1 0 0
-0.836133 -0.386831 -1.249970 1.552798 0.433318 2.506437 0.004634 -0.002555 679318.000000 1 0 0
9.145767 6.351769 -6.326770 12.806953 0.607028 2.087493 -0.000596 0.002313 -6351.310000 1 0 0
-15.007933 -7.118231 2.449030 16.790027 0.442875 1.424412 0.001478 -0.000632 622419.000000 1 0 0
-6.530833 6.740969 9.003330 13.005860 -0.801230 0.806192 0.003352 -0.001249 1145170.000000 1 0 0
-9.409133 -3.196731 -9.625770 13.834968 0.327512 2.340269 0.010928 -0.003028 2192010.000000 1 0 0
14.867867 3.526369 -1.175970 15.325523 0.232877 1.647605 0.009920 -0.002790 1158130.000000 1 0 0
12.105467 1.737069 -5.798970 13.534689 0.142522 2.013576 0.013532 0.002778 -1092650.000000 1 0 0
1.680467 -9.403331 12.738230 15.921969 -1.393953 0.643433 -0.002606 -0.001012 -803775.000000 1 0 0
-3.697633 6.291669 7.916330 10.766888 -1.039468 0.744764 0.002306 0.001478 1909820.000000 1 0 0
-4.058233 13.125469 -12.263370 18.415685 -1.270932 2.299522 0.001310 -0.004005 621425.000000 1 0 0
-10.216733 7.777369 6.445830 14.367248 -0.650655 1.105545 -0.002489 -0.006485 -233684.000000 1 0 0
8.087267 -9.282431 -7.174870 14.249427 -0.854097 2.098464 0.006388 -0.001673 508033.000000 1 0 0
5.860367 -3.895831 -0.350470 7.045866 -0.586692 1.620558 0.003582 -0.000148 -1700790.000000 1 0 0
-1.646933 -4.419231 4.141330 6.276352 1.214066 0.850203 0.003654 -0.002357 757045.000000 1 0 0
9.863267 -2.069531 -2.569370 10.400416 -0.206822 1.820426 0.005636 -0.000780 -2073860.000000 1 0 0
13.554267 7.049869 1.496730 15.351189 0.479615 1.473142 0.006808 0.000783 102475.000000 1 0 0
5.424167 -3.805631 -3.279970 7.393417 -0.611803 2.030446 0.003058 -0.001522 -1603360.000000 1 0 0
-12.326533 -6.031231 1.929030 13.857861 0.455042 1.431142 0.004467 -0.001353 952466.000000 1 0 0
3.778167 -5.748731 -0.200670 6.882058 -0.989364 1.599959 0.002867 -0.001366 -674748.000000 1 0 0
-5.177333 3.681269 -8.668370 10.746961 -0.618094 2.509153 0.006775 -0.004680 48313.600000 1 0 0
-1.766333 -9.274031 7.123430 11.826700 1.382590 0.924395 0.000063 -0.003015 2860280.000000 1 0 0
-7.439633 -7.424831 2.568430 10.820032 0.784402 1.331131 0.010640 -0.005868 -4088680.000000 1 0 0
-5.808833 13.169069 -8.438770 16.684717 -1.155371 2.101080 0.004749 -0.007919 1442740.000000 1 0 0
9.190867 -13.888431 -4.175970 17.169720 -0.986195 1.816478 0.021776 -0.001160 1654960.000000 1 0 0
-6.466233 -5.161231 -6.742070 10.672675 0.673631 2.254558 0.011432 -0.003562 -165728.000000 1 0 0
3.423267 0.350469 -6.213870 7.103082 0.102023 2.635847 -0.001803 -0.001581 736872.000000 1 0 0
-3.613233 5.795769 4.996830 8.462547 -1.013330 0.939163 0.002116 0.001084 624751.000000 1 0 0
-2.671933 -10.752531 -2.887570 11.449638 1.327236 1.825747 0.007877 -0.001997 409834.000000 1 0 0
-12.574233 -0.481331 1.672630 12.694121 0.038260 1.438648 0.006607 -0.003611 -4378.900000 1 0 0
8.409667 -12.005931 -6.144970 15.894198 -0.959762 1.967757 0.010002 -0.002539 -601302.000000 1 0 0
6.103167 3.890469 0.973930 7.302940 0.567503 1.437037 -0.002162 0.003744 -734704.000000 1 0 0
3.457267 -4.801831 -10.971570 12.465377 -0.946780 2.647003 0.003110 -0.002587 -172281.000000 1 0 0
-7.678633 4.124769 8.628430 12.264784 -0.492943 0.790468 0.003618 -0.001686 1655480.000000 1 0 0
8.119667 8.796869 4.140630 12.667230 0.825409 1.237799 0.004280 0.001122 1087140.000000 1 0 0
0.287267 10.626169 -6.291570 12.352403 1.543769 2.105214 0.008882 -0.001652 2399800.000000 1 0 0
5.382967 8.061569 3.260430 10.227201 0.982057 1.246333 -0.001130 0.003148 2885590.000000 1 0 0
8.045967 6.683469 -3.765670 11.116952 0.693159 1.916366 -0.000692 0.002566 107550.000000 1 0 0
10.520067 2.551469 -8.249670 13.610249 0.237939 2.221991 0.001183 0.004422 666819.000000 1 0 0
3.248167 -12.588131 -0.315870 13.004284 -1.318271 1.595088 0.006477 -0.000356 -2158350.000000 1 0 0
0.579167 2.067069 5.277330 5.697229 1.297614 0.386331 0.000824 0.001266 1418430.000000 1 0 0
-4.772833 13.241169 1.489430 14.153689 -1.224839 1.465369 -0.010034 0.001810 1431580.000000 1 0 0
8.253767 4.081069 -8.039370 12.223390 0.459197 2.288563 -0.003362 0.004203 -89584.100000 1 0 0
-13.927933 -0.572531 -3.620270 14.402134 0.041084 1.824892 0.009192 -0.002331 -160286.000000 1 0 0
-8.571433 0.014869 -0.472970 8.584485 -0.001735 1.625920 0.007097 -0.005113 1150730.000000 1 0 0
1.789767 -3.833131 -1.163370 4.387435 -1.133961 1.839166 0.001697 0.000503 -2196800.000000 1 0 0
8.115367 -5.733831 -0.323770 9.941872 -0.615102 1.603368 0.007558 -0.001165 2216800.000000 1 0 0
-2.376033 -1.105231 7.366930 7.819125 0.435388 0.341755 0.004129 -0.002602 3092330.000000 1 0 0
-5.842333 8.851569 -11.663870 15.764803 -0.987400 2.403670 0.001471 -0.001192 -1364630.000000 1 0 0
-6.150433 9.238369 -8.836870 14.186810 -0.983429 2.243232 0.001937 -0.004609 538612.000000 1 0 0
-1.506533 13.987469 -8.347670 16.358562 -1.463504 2.106323 0.022790 -0.006602 -322494.000000 1 0 0
-1.489133 7.177669 9.801330 12.239384 -1.366231 0.642162 -0.001209 0.000602 2777470.000000 1 0 0
10.029367 2.301069 -3.967870 11.028468 0.225530 1.938833 0.004010 0.003865 -1055650.000000 1 0 0
-2.947333 -7.502731 -6.993570 10.671821 1.196482 2.285416 0.006949 -0.002397 645270.000000 1 0 0
-5.469933 -4.978231 -1.590270 7.565177 0.738372 1.782585 0.009473 -0.003223 1291230.000000 1 0 0
5.716767 7.499969 -8.820270 12.912325 0.919508 2.322781 -0.000892 0.001756 -192097.000000 1 0 0
-9.506733 5.278369 -7.404470 13.155430 -0.506845 2.168620 0.003135 -0.000380 666752.000000 1 0 0
-0.344233 6.191969 -5.406670 8.227458 -1.515260 2.287827 0.005249 -0.000243 -1226760.000000 1 0 0
-8.130533 2.866769 -6.324670 10.692305 -0.338983 2.203734 0.007798 -0.003003 2625670.000000 1 0 0
3.631767 1.335569 -2.060170 4.383809 0.352396 2.060030 -0.002896 0.002596 1459560.000000 1 0 0
-6.877533 12.533869 -3.424070 14.701109 -1.068940 1.805868 -0.002456 0.002798 1787510.000000 1 0 0
-6.570333 3.140469 -2.372170 7.658917 -0.445875 1.885702 0.007280 -0.004538 -644752.000000 1 0 0
12.059367 4.020469 -0.706670 12.731531 0.321801 1.626330 0.008162 0.002273 934138.000000 1 0 0
2.285867 12.501169 -5.512170 13.852380 1.389942 1.980047 0.011562 -0.004873 607390.000000 1 0 0
-9.141933 -1.490231 -4.314070 10.217971 0.161589 2.006672 0.011869 -0.001504 -355892.000000 1 0 0
-1.256233 5.724269 3.416530 6.783661 -1.354764 1.042988 0.003203 0.001423 1490070.000000 1 0 0
11.529867 2.598669 11.940730 16.800951 0.221682 0.780279 0.033988 -0.003754 1156280.000000 1 0 0
-6.967033 -2.296231 -5.771270 9.333798 0.318373 2.237399 0.015306 -0.003769 936518.000000 1 0 0
7.382567 -7.391231 10.879530 15.082995 -0.785985 0.765103 0.007742 -0.002705 -728964.000000 1 0 0
-5.426133 -1.876031 -11.007070 12.414427 0.332875 2.660815 0.012145 -0.006225 -765448.000000 1 0 0
0.715467 -6.166831 4.491730 7.662723 -1.455294 0.944461 0.001244 -0.001359 1308200.000000 1 0 0
-4.856533 -9.311931 7.322530 12.803023 1.090067 0.961930 -0.000852 -0.004857 2290070.000000 1 0 0
-8.751933 9.285469 1.473630 12.844760 -0.814969 1.455817 0.004697 -0.003037 -69884.700000 1 0 0
-8.055433 7.209469 -9.038670 14.091274 -0.730036 2.267167 0.000560 -0.002864 -247286.000000 1 0 0
-1.283633 -10.749931 -0.097670 10.826738 1.451951 1.579818 0.006889 -0.001380 938322.000000 1 0 0
-4.019633 10.215369 7.793130 13.462692 -1.195916 0.953456 0.000760 0.000129 1870320.000000 1 0 0
-7.422233 12.014169 1.931030 14.253374 -1.017399 1.434900 -0.002934 -0.005073 1052450.000000 1 0 0
-8.130733 -8.158431 -2.860170 11.867998 0.787099 1.814191 0.014331 -0.003732 -1149110.000000 1 0 0
5.483267 4.682569 -8.089970 10.836987 0.706797 2.413605 -0.003267 0.003849 -194479.000000 1 0 0
-8.824033 -0.114331 -10.233570 13.513053 0.012956 2.429980 0.010590 -0.003347 -716827.000000 1 0 0
-15.306233 -2.197531 -1.513870 15.537108 0.142597 1.668387 0.008719 -0.002883 -170534.000000 1 0 0
-7.188133 -5.772431 8.661230 12.649392 0.676598 0.816584 0.006927 -0.003687 -1238260.000000 1 0 0
8.109567 3.332169 -0.943570 8.818092 0.389862 1.678005 -0.001550 0.006091 798069.000000 1 0 0
11.948167 7.355469 -5.788870 15.178032 0.551822 1.962104 0.011229 -0.000387 1534660.000000 1 0 0
3.831767 13.423669 -9.488270 16.879118 1.292742 2.167756 0.011023 -0.009161 591868.000000 1 0 0
-9.797633 5.412869 -0.496370 11.204425 -0.504735 1.615112 0.006486 -0.003623 630670.000000 1 0 0
11.260867 -1.247931 -5.119370 12.432715 -0.110370 1.995188 0.014568 -0.001271 794141.000000 1 0 0
10.632067 1.701669 -1.174170 10.831214 0.158705 1.679416 0.006844 0.001759 67089.000000 1 0 0
14.605667 5.035869 4.786930 16.174059 0.332025 1.270332 0.029514 -0.013087 1188300.000000 1 0 0
0.804667 -0.871331 10.351530 10.419255 -0.825153 0.114079 0.002530 -0.001331 2000050.000000 1 0 0
-7.873533 1.380669 -12.654070 14.967440 -0.173591 2.578185 0.004149 -0.005773 -9544.320000 1 0 0
3.159967 -11.566931 -7.863570 14.339282 -1.304114 2.151238 0.000754 0.000251 -274139.000000 1 0 0
2.989167 4.988869 -6.780470 8.933013 1.030989 2.432626 -0.002003 0.003129 -1173020.000000 1 0 0
6.546067 8.042569 0.536530 10.383727 0.887621 1.519103 0.001502 0.000186 -441520.000000 1 0 0
-9.045233 -5.371131 6.748030 12.498047 0.535854 1.000446 0.005823 -0.002204 -1278550.000000 1 0 0
-0.222733 -6.861731 -11.833370 13.680702 1.538348 2.615883 0.002508 -0.002111 2996450.000000 1 0 0
6.368467 -13.360331 -4.730170 15.538028 -1.125986 1.880131 0.009821 -0.002360 3074070.000000 1 0 0
-3.327233 -0.354531 10.067930 10.609401 0.106154 0.320865 0.004277 0.000746 -178459.000000 1 0 0
8.528567 8.476669 7.005230 13.916308 0.782346 1.043287 0.003462 0.001481 418770.000000 1 0 0
-7.959933 5.655869 -2.662970 10.121304 -0.617766 1.837036 0.008984 -0.005594 596966.000000 1 0 0
-5.302533 5.821369 -6.366070 10.125811 -0.832006 2.250673 0.005922 -0.002818 -1023960.000000 1 0 0
3.294267 -13.584231 2.566530 14.211636 -1.332883 1.389206 0.014283 -0.006731 -861901.000000 1 0 0
-11.329433 -6.990431 6.591630 14.855025 0.552837 1.111039 0.013550 -0.004646 -477290.000000 1 0 0
-12.949433 -3.741231 -6.817670 15.105140 0.281252 2.039071 0.016369 -0.003179 -464366.000000 1 0 0
6.102767 0.325369 -7.324870 9.539568 0.053265 2.446260 -0.004032 0.005182 1441850.000000 1 0 0
-1.408133 2.219769 -2.541570 3.656473 -1.005494 2.339339 0.003501 -0.003931 3166430.000000 1 0 0
7.485467 0.934169 -4.924870 9.008842 0.124156 2.149179 -0.001444 0.005328 783292.000000 1 0 0
3.606867 -4.564231 10.893530 12.349521 -0.902031 0.490492 -0.002888 0.001125 1058810.000000 1 0 0
6.003567 -2.613731 2.114430 6.880786 -0.410615 1.258447 0.005118 -0.003056 -660549.000000 1 0 0
-6.303633 7.695669 1.153230 10.014442 -0.884508 1.455384 0.000411 -0.003229 1240350.000000 1 0 0
6.016967 -3.506731 8.038030 10.635364 -0.527682 0.713947 0.003769 -0.006595 526530.000000 1 0 0
6.747167 -2.351331 -7.806870 10.583017 -0.335330 2.400423 0.002636 -0.001605 1290750.000000 1 0 0
12.110967 -8.214331 -5.890470 15.774929 -0.595983 1.953475 0.021527 -0.003734 1456900.000000 1 0 0
5.492767 -9.694431 9.982230 14.959859 -1.055305 0.840262 0.000307 -0.004032 2466910.000000 1 0 0
-6.623933 7.559169 -4.438170 10.987033 -0.851243 1.986623 0.003609 -0.002560 356798.000000 1 0 0
-1.397833 -7.527131 9.616130 12.291525 1.387182 0.672385 -0.001929 -0.001104 -1324330.000000 1 0 0
10.053967 -9.370431 0.782130 13.765862 -0.750223 1.513949 0.011190 -0.002921 2046950.000000 1 0 0
11.037667 6.106569 9.807130 15.978112 0.505334 0.909950 0.024518 -0.003407 1607860.000000 1 0 0
-15.281433 -4.269331 -5.003270 16.636769 0.272434 1.876260 0.015438 -0.007499 1635160.000000 1 0 0
-4.743733 -4.634831 7.752430 10.202197 0.773787 0.707670 0.002423 -0.003211 -1249570.000000 1 0 0
3.024867 11.004969 -11.095670 15.917697 1.302557 2.342092 0.009142 -0.003549 -681204.000000 1 0 0
9.902967 -1.426531 1.662230 10.142325 -0.143067 1.406163 0.008242 -0.004347 -1101990.000000 1 0 0
-1.654333 -2.581631 0.749330 3.156443 1.000909 1.331111 0.003359 -0.004345 1372130.000000 1 0 0
1.550667 3.016469 0.856130 3.498087 1.095959 1.323542 -0.002144 0.002254 269729.000000 1 0 0
-9.002433 -2.387131 4.311630 10.263155 0.259200 1.137232 0.003493 -0.004323 2809270.000000 1 0 0
9.897767 4.850869 -2.653470 11.337444 0.455694 1.807032 0.001161 0.004829 1861040.000000 1 0 0
2.530967 8.481069 2.493530 9.195217 1.280785 1.296181 -0.004597 0.001934 1157260.000000 1 0 0
-8.205433 -0.114431 2.452530 8.564878 0.013945 1.280384 0.004111 -0.006343 1489320.000000 1 0 0
6.785567 2.093369 13.713430 15.442936 0.299240 0.477804 0.006999 0.000082 -1392850.000000 1 0 0
6.778467 4.308669 3.712330 8.848369 0.566214 1.137847 -0.003932 0.003667 130973.000000 1 0 0
-0.340733 3.381469 7.796930 8.505442 -1.470371 0.411057 -0.001069 0.001647 1300790.000000 1 0 0
2.587367 -10.251831 9.249930 14.048334 -1.323578 0.852057 0.005982 -0.005948 880194.000000 1 0 0
1.290767 -4.431931 6.852830 8.262528 -1.287393 0.592788 -0.000737 -0.002355 484532.000000 1 0 0
-0.109233 10.811169 -1.988870 10.993130 -1.560693 1.752718 0.006888 -0.002961 2390280.000000 1 0 0
8.726567 5.514769 7.986930 13.052076 0.563583 0.912300 0.001606 0.000333 -1133760.000000 1 0 0
2.645767 11.413169 -2.848070 12.057032 1.343003 1.809267 0.007892 -0.007007 1852300.000000 1 0 0
1.609267 2.444169 -6.673670 7.287083 0.988531 2.728346 -0.000488 0.000308 1028100.000000 1 0 0
-13.661833 -2.270231 3.507030 14.286318 0.164669 1.322780 0.009070 -0.003243 534686.000000 1 0 0
-0.985633 -10.631231 -5.270670 11.906910 1.478349 2.029355 0.004183 -0.001873 698920.000000 1 0 0
-5.746633 2.878869 0.423230 6.441335 -0.464420 1.505044 0.008105 -0.005861 -97481.000000 1 0 0
3.796067 7.354769 -5.062570 9.702184 1.094323 2.119752 -0.002320 0.002324 -2753980.000000 1 0 0
3.060867 9.891669 -6.493870 12.222290 1.270703 2.130947 0.004766 -0.000389 974788.000000 1 0 0
-12.287933 1.682869 -2.502870 12.652656 -0.136106 1.769923 0.008698 -0.002558 1016970.000000 1 0 0
-2.486333 9.654569 -5.716570 11.492247 -1.318744 2.091428 0.008255 -0.001176 1859740.000000 1 0 0
-1.356733 3.331269 1.754930 4.002232 -1.184037 1.116881 -0.000002 -0.001226 988139.000000 1 0 0
12.878267 3.760669 9.599330 16.496652 0.284117 0.949739 0.041844 -0.008661 1116060.000000 1 0 0
-2.562033 -9.552731 11.512330 15.177365 1.308764 0.709758 -0.000277 -0.005456 -1058060.000000 1 0 0
-0.457233 -8.977631 -7.513670 11.715893 1.519910 2.267017 0.005137 -0.002129 1215430.000000 1 0 0
2.397867 7.643369 -0.480870 8.025092 1.266802 1.630753 -0.002370 0.002089 775783.000000 1 0 0
-11.835533 -1.342731 -5.501670 13.120638 0.112966 2.003486 0.007998 0.002267 -289129.000000 1 0 0
-6.118433 -7.147931 -10.941970 14.431038 0.862845 2.431382 0.006059 -0.006530 273738.000000 1 0 0
-4.714433 -2.235331 -1.424170 5.408405 0.442752 1.837264 0.004581 -0.003818 -962259.000000 1 0 0
-10.622233 3.740069 4.432830 12.102476 -0.338543 1.195794 0.000072 -0.003349 3129930.000000 1 0 0
6.789967 9.353769 -3.531070 12.085740 0.942894 1.867290 -0.001137 0.001555 775138.000000 1 0 0
1.339067 -2.703231 -11.546770 11.934340 -1.110869 2.886044 0.006544 -0.003936 -1420650.000000 1 0 0
1.273067 8.766769 7.579630 11.658805 1.426589 0.863053 -0.009938 0.006354 727846.000000 1 0 0
10.273567 0.369469 10.400330 14.623595 0.035948 0.779590 0.021624 -0.006791 944470.000000 1 0 0
-5.206733 -0.856631 -3.876770 6.547766 0.163063 2.204428 0.009821 -0.005293 -230278.000000 1 0 0
11.671167 5.667069 5.456830 14.075113 0.452030 1.172668 0.011327 -0.003198 4054020.000000 1 0 0
9.882167 -3.510431 3.727530 11.129907 -0.341325 1.229285 0.013784 -0.011182 -1365020.000000 1 0 0
7.242067 -1.660831 -3.429070 8.183179 -0.225433 2.003183 0.001560 0.002388 -3222690.000000 1 0 0
2.348967 9.249869 10.477530 14.172380 1.322107 0.738778 -0.010585 0.006945 3054080.000000 1 0 0
2.422267 -10.905031 6.359230 12.854061 -1.352221 1.053278 0.000864 -0.003712 1797180.000000 1 0 0
5.890367 -7.625431 -1.256870 9.717167 -0.913073 1.700505 0.002140 -0.001566 1402610.000000 1 0 0
-0.230033 -5.694531 -2.322970 6.154412 1.530423 1.957835 0.001725 0.001780 2148360.000000 1 0 0
7.695467 -5.145131 2.657130 9.630832 -0.589335 1.291272 0.005878 -0.005888 1519120.000000 1 0 0
-2.791033 -12.460731 4.625530 13.581429 1.350447 1.223265 0.005418 -0.003996 -717918.000000 1 0 0
4.862467 -10.409331 -1.163870 11.547829 -1.133792 1.671755 0.005133 -0.004408 1244610.000000 1 0 0
0.943567 0.176669 1.014730 1.396856 0.185092 0.757671 -0.000704 0.000065 -1913390.000000 1 0 0
-1.655433 8.604669 2.466630 9.103024 -1.380731 1.296398 -0.000762 0.001920 811225.000000 1 0 0
-7.555533 0.613969 -3.089370 8.185795 -0.081083 1.957790 0.006738 -0.003595 -1180020.000000 1 0 0
4.343067 -6.373831 12.929530 15.055254 -0.972670 0.537864 0.005073 -0.001397 -639012.000000 1 0 0
-5.076233 13.020269 8.420630 16.315715 -1.199052 1.028499 0.002640 -0.007638 1882630.000000 1 0 0
0.653167 6.064769 8.289730 10.292117 1.463511 0.634371 -0.005141 0.006304 854534.000000 1 0 0
7.913167 -0.623431 -0.658370 7.964944 -0.078622 1.653549 0.004298 0.000676 4938610.000000 1 0 0
2.414867 -9.279631 -2.439370 9.894122 -1.316210 1.819912 -0.000521 -0.000564 1474200.000000 1 0 0
-7.105133 12.009969 4.827330 14.765683 -1.036574 1.237744 -0.005512 -0.005271 -247363.000000 1 0 0
-15.036633 0.313869 0.172330 15.040896 -0.020871 1.559339 0.018850 -0.006607 880947.000000 1 0 0
6.828067 -0.572831 3.964230 7.916170 -0.083698 1.046301 0.002196 -0.001400 -559166.000000 1 0 0
-4.236733 -5.030731 4.992030 8.257028 0.870865 0.921559 0.003366 -0.004579 241675.000000 1 0 0
2.876567 5.049369 6.850530 8.983347 1.052963 0.703503 -0.009581 0.004787 188230.000000 1 0 0
2.012367 -7.142831 1.836930 7.644865 -1.296182 1.328139 0.001896 -0.000496 1612920.000000 1 0 0
-2.364633 6.456269 -1.733670 7.090875 -1.219716 1.817793 0.004000 -0.002143 3554820.000000 1 0 0
2.740867 -3.896731 -6.579870 8.123519 -0.957808 2.514911 -0.001518 -0.002688 -1468690.000000 1 0 0
-5.036733 0.977669 -12.226370 13.259285 -0.191724 2.744266 0.007792 -0.001992 -1035020.000000 1 0 0
-7.392033 6.378769 -11.814670 15.327012 -0.711950 2.450955 -0.000919 -0.005846 2399920.000000 1 0 0
-1.030633 11.261569 -9.014770 14.462062 -1.479533 2.243802 0.009920 -0.000490 1990560.000000 1 0 0
4.692467 5.982269 -0.632770 7.629364 0.905643 1.653831 -0.002645 0.002642 -691790.000000 1 0 0
-2.580733 13.362669 3.583330 14.073428 -1.380015 1.313345 -0.009193 0.002391 820364.000000 1 0 0
1.389267 -7.871531 10.202030 12.960419 -1.396103 0.664592 -0.003264 -0.001125 -383179.000000 1 0 0
12.944267 -0.297131 -0.983870 12.985004 -0.022951 1.646639 0.019359 -0.005626 1057540.000000 1 0 0
-0.929333 3.181469 -5.454770 6.382784 -1.286595 2.595590 0.004259 -0.003503 1207290.000000 1 0 0
6.455667 0.986169 7.293330 9.789833 0.151588 0.730276 0.000247 -0.001338 2029810.000000 1 0 0
5.430967 -6.140531 6.898630 10.714131 -0.846641 0.871236 0.000010 -0.003959 805855.000000 1 0 0
12.195567 -4.864531 2.620830 13.388960 -0.379538 1.373779 0.016792 -0.010468 244859.000000 1 0 0
4.388867 -9.182131 13.862230 17.196950 -1.124920 0.633287 0.008817 0.000275 1308100.000000 1 0 0
-2.700733 -4.281931 -1.359870 5.241959 1.008089 1.833218 0.005917 -0.003155 2440490.000000 1 0 0
-9.277733 -5.173431 -7.557270 13.036604 0.508673 2.189152 0.013269 -0.003304 713374.000000 1 0 0
-10.650933 -3.143531 7.862130 13.606515 0.286993 0.954740 0.005683 -0.001187 29140.900000 1 0 0
12.045467 -0.696231 1.768930 12.194553 -0.057736 1.425224 0.014035 -0.008653 -262665.000000 1 0 0
-7.689933 4.579669 4.386730 9.967539 -0.537134 1.115085 0.005220 -0.005224 1793180.000000 1 0 0
-1.104533 10.529669 6.991430 12.687554 -1.466281 0.987179 -0.008894 0.004862 2162060.000000 1 0 0
7.347067 -9.997831 1.888830 12.550047 -0.937051 1.419718 0.004689 -0.003948 1832400.000000 1 0 0
-4.408833 -1.718131 1.652330 5.011983 0.371597 1.234836 0.000029 -0.002606 583927.000000 1 0 0
6.687067 -15.028631 -0.995470 16.479307 -1.152146 1.631240 0.028020 -0.006670 -870829.000000 1 0 0
-10.550833 1.708569 2.330230 10.939344 -0.160543 1.356138 0.002681 -0.002803 849246.000000 1 0 0
-3.006333 8.356969 -11.357970 14.418060 -1.225471 2.477960 0.002957 0.000088 -262058.000000 1 0 0
-1.254733 -5.160431 -6.955170 8.750931 1.332280 2.489461 0.000047 -0.001850 459068.000000 1 0 0
12.796867 -0.408531 6.358830 14.295503 -0.031913 1.109831 0.026416 -0.014553 1334520.000000 1 0 0
5.929567 -13.268531 3.773930 15.015200 -1.150532 1.316731 0.010834 -0.006900 139281.000000 1 0 0
-5.448833 3.508769 -4.891270 8.119468 -0.572110 2.217317 0.009027 -0.004228 2006790.000000 1 0 0
-4.412533 8.056869 3.423430 9.803237 -1.069741 1.214064 0.001880 0.000268 64654.200000 1 0 0
13.985667 6.192769 -3.870870 15.777608 0.416845 1.818666 0.024723 -0.002402 1864310.000000 1 0 0
-6.767433 -8.502531 5.252330 12.069720 0.898541 1.120574 0.008830 -0.005830 482987.000000 1 0 0
1.706167 11.288469 2.688330 11.728924 1.420789 1.339535 -0.001459 -0.001618 1342280.000000 1 0 0
-7.407633 7.109069 6.034130 11.908930 -0.764834 1.039456 0.001233 -0.004036 -1919560.000000 1 0 0
-17.420133 -3.991031 5.068030 18.576175 0.225218 1.294469 0.020511 -0.002148 -1809310.000000 1 0 0
7.594467 -13.161731 -8.718970 17.519347 -1.047452 2.091714 0.012097 -0.000269 -525193.000000 1 0 0
-2.327833 12.802869 -2.767370 13.303782 -1.390940 1.780340 0.002649 0.000122 2004410.000000 1 0 0
-5.540133 13.942869 -5.736370 16.062460 -1.192581 1.935989 0.005940 0.000996 2628630.000000 1 0 0
-5.651633 2.358569 7.471330 9.660464 -0.395352 0.686621 0.005684 -0.002198 1412670.000000 1 0 0
-7.479033 5.097469 1.469730 9.169527 -0.598248 1.409818 0.005457 -0.003291 1090150.000000 1 0 0
10.803467 -5.683831 -5.019070 13.198935 -0.484318 1.960877 0.010301 -0.002311 3615760.000000 1 0 0
-9.635733 -0.739231 6.821530 11.829078 0.076568 0.956144 0.001420 -0.002671 162240.000000 1 0 0
-11.279433 -4.563431 -2.521570 12.426135 0.384448 1.775140 0.007169 -0.003540 1376550.000000 1 0 0
6.442367 -4.311331 13.650230 15.697784 -0.589765 0.516477 0.012720 -0.004030 -432550.000000 1 0 0
0.265067 10.290269 -11.674270 15.564334 1.545043 2.418957 0.011066 -0.000513 -965135.000000 1 0 0
-11.811533 -3.289431 1.420330 12.343014 0.271611 1.455469 0.005501 -0.004001 3787050.000000 1 0 0
5.190467 5.941469 5.388530 9.553965 0.852760 0.971563 -0.005848 0.005912 -4669340.000000 1 0 0
-7.212233 -0.073731 8.100530 10.846212 0.010223 0.727479 0.001068 -0.000643 787509.000000 1 0 0
1.652467 1.985469 9.668130 10.007271 0.876680 0.261085 -0.003128 0.000359 3119360.000000 1 0 0
10.578467 -4.940731 -2.038970 11.852096 -0.436946 1.743691 0.007152 -0.001636 2145260.000000 1 0 0
-9.649533 -2.402931 -1.699270 10.088364 0.244056 1.740042 0.009426 -0.003511 318279.000000 1 0 0
-2.028333 -5.181831 -9.964870 11.413332 1.197698 2.632302 0.004877 -0.004962 1944250.000000 1 0 0
7.611467 -1.654931 6.593230 10.205092 -0.214094 0.868369 0.005046 -0.006782 1864960.000000 1 0 0
1.500167 -11.898331 -2.664770 12.285022 -1.445376 1.789446 0.006303 -0.000451 -2240810.000000 1 0 0
-0.855933 -1.458431 4.796030 5.085424 1.040075 0.338983 0.005778 -0.004647 2918670.000000 1 0 0
7.573867 1.515469 9.920730 12.573026 0.197484 0.661537 0.003317 -0.001571 1744050.000000 1 0 0
-3.856233 10.835469 -7.921770 13.965399 -1.228884 2.173950 0.006605 -0.000304 2640400.000000 1 0 0
-9.503333 12.579969 6.396330 17.014171 -0.923827 1.185384 0.000443 -0.007546 1219070.000000 1 0 0
-2.494533 -2.386731 -11.082870 11.608152 0.763317 2.839611 0.009736 -0.006896 -1241160.000000 1 0 0
1.047167 -11.829931 11.082130 16.243689 -1.482508 0.819971 0.003376 -0.004751 934404.000000 1 0 0
1.437067 3.470369 -1.956370 4.235093 1.178197 2.050981 -0.003271 0.001422 2606390.000000 1 0 0
-1.808733 -9.432931 -12.046370 15.406711 1.381349 2.468490 0.002937 -0.003345 30319.300000 1 0 0
1.284867 -2.723131 1.564630 3.393286 -1.129934 1.091567 0.005238 -0.001956 2557570.000000 1 0 0
-1.019233 -2.248231 -6.557470 7.006696 1.145161 2.781562 0.002255 -0.005084 11518.400000 1 0 0
1.754067 5.831769 4.004330 7.288411 1.278626 0.989138 -0.009683 0.006238 -433102.000000 1 0 0
-10.930633 8.570569 3.573330 14.342318 -0.664962 1.318998 -0.005452 -0.003315 1868310.000000 1 0 0
-16.393033 -1.486031 3.834230 16.900921 0.090403 1.341939 0.016416 -0.001775 -665955.000000 1 0 0
-12.352433 0.253769 6.856430 14.130026 -0.020541 1.064161 0.002778 -0.000673 -104502.000000 1 0 0
-5.155133 3.043969 4.675730 7.596288 -0.533385 0.907740 0.005320 -0.002309 1866830.000000 1 0 0
5.223667 -6.075731 3.992330 8.952089 -0.860664 1.108543 -0.002517 -0.003104 2311390.000000 1 0 0
9.838767 3.418669 6.324230 12.185422 0.334419 1.025116 0.008006 -0.001063 304662.000000 1 0 0
-12.338833 5.886069 3.109830 14.020116 -0.445108 1.347124 -0.000035 -0.005621 1357730.000000 1 0 0
-4.926233 12.300369 -1.301670 13.313948 -1.189864 1.668720 -0.005031 0.002086 1224260.000000 1 0 0
-1.820433 -12.159131 10.249030 16.006281 1.422183 0.875891 0.004090 -0.009371 571304.000000 1 0 0
5.172167 6.404069 13.852630 16.113931 0.891416 0.536177 0.000569 0.004341 -97582.400000 1 0 0
12.978867 -3.713431 -5.887670 14.727702 -0.278669 1.982061 0.012424 -0.000841 1090570.000000 1 0 0
3.526667 -2.499431 6.461530 7.774053 -0.616557 0.589595 -0.001843 -0.001276 2458810.000000 1 0 0
7.297167 -11.920531 -0.678170 13.993127 -1.021490 1.619280 0.011823 0.000478 -1282150.000000 1 0 0
-6.050133 -6.576331 -4.116370 9.838533 0.827048 2.002471 0.012286 -0.003308 463369.000000 1 0 0
0.335467 -8.964531 5.024030 10.281839 -1.533392 1.060276 0.005858 -0.002996 1761680.000000 1 0 0
-10.285433 2.507269 -0.388070 10.593731 -0.239106 1.607437 0.007367 -0.003414 -603453.000000 1 0 0
-1.816533 9.019069 -0.359970 9.207224 -1.372045 1.609903 0.004821 -0.001591 1549010.000000 1 0 0
-3.448733 2.326269 -6.589170 7.792461 -0.593426 2.578452 0.009916 -0.006356 -935947.000000 1 0 0
-12.839833 3.051369 6.393630 14.664606 -0.233321 1.119658 -0.000292 -0.002661 -1115340.000000 1 0 0
11.339667 1.683669 7.958930 13.955907 0.147399 0.963936 0.021369 -0.012873 -1793180.000000 1 0 0
5.968467 2.629769 -3.217670 7.272667 0.415018 2.029107 -0.005428 0.005172 2130660.000000 1 0 0
10.486467 -2.317331 6.305130 12.453541 -0.217488 1.039917 0.015375 -0.010446 3206990.000000 1 0 0
-0.916533 10.970069 4.100630 11.747239 -1.487441 1.214216 -0.001705 0.002657 1268210.000000 1 0 0
-1.721633 -12.237531 7.364730 14.386119 1.431029 1.033363 0.000934 -0.004734 -1574360.000000 1 0 0
8.117067 8.658169 -7.822270 14.214028 0.817643 2.153544 0.002300 -0.000017 3314030.000000 1 0 0
-4.689833 -5.964831 -8.775070 11.600672 0.904498 2.428631 0.008080 -0.005961 675453.000000 1 0 0
-8.423133 -5.281331 -11.705870 15.358028 0.560038 2.437499 0.007181 -0.006198 1429920.000000 1 0 0
6.195067 -0.740731 -9.962670 11.755098 -0.119003 2.582090 -0.001188 0.003010 -1478030.000000 1 0 0
-11.213333 -5.447631 -5.388170 13.581160 0.452237 1.978757 0.009159 -0.006768 628806.000000 1 0 0
3.900967 8.941469 -2.740370 10.132968 1.159412 1.844647 0.001600 -0.000985 1815560.000000 1 0 0
11.707767 -10.460531 -4.003170 16.202465 -0.729195 1.820453 0.017961 0.000352 -1176600.000000 1 0 0
3.965767 -11.235931 3.932330 12.547377 -1.231492 1.252027 0.002899 -0.003789 -230536.000000 1 0 0
-0.976233 0.861869 3.161330 3.419043 -0.723260 0.390749 0.003627 -0.001562 -1699560.000000 1 0 0
-10.630433 -5.147331 4.507430 12.641916 0.450934 1.206228 0.008406 -0.006857 3166790.000000 1 0 0
4.572467 -8.621531 2.827530 10.160373 -1.083161 1.288783 0.000202 -0.001547 7242390.000000 1 0 0
-3.691733 -5.738331 2.557430 7.286822 0.999113 1.212193 0.003487 -0.002139 2850550.000000 1 0 0
9.976567 5.067969 12.301830 16.629829 0.470017 0.738105 0.018594 -0.001222 1640790.000000 1 0 0
1.587767 -12.356031 -5.332270 13.550853 -1.442995 1.975233 0.005486 -0.002997 1943910.000000 1 0 0
9.853467 -10.800831 -1.726970 14.721793 -0.831234 1.688374 0.014175 -0.000649 1011910.000000 1 0 0
9.637267 -4.532731 -9.154670 14.043879 -0.439634 2.280833 0.010565 -0.004302 2753610.000000 1 0 0
-7.353533 -2.988831 -13.191070 15.395191 0.386053 2.599887 0.006193 -0.003326 1471670.000000 1 0 0
0.550567 6.200969 -2.583070 6.739985 1.482241 1.964104 -0.000356 -0.000011 2205630.000000 1 0 0
-5.968633 -9.531331 0.946730 11.285705 1.011326 1.486810 0.009329 -0.005211 1129840.000000 1 0 0
-8.962233 -4.142031 0.567030 9.889366 0.432924 1.513428 0.005312 -0.004961 2792020.000000 1 0 0
1.828967 3.703969 12.197230 12.877768 1.112133 0.326552 -0.002959 -0.000869 102233.000000 1 0 0
6.601767 4.277469 9.553930 12.375688 0.574917 0.688827 -0.005302 0.005033 2924150.000000 1 0 0
-8.318833 9.899669 -3.689770 13.446964 -0.871952 1.848756 -0.002534 -0.001862 985773.000000 1 0 0
16.438867 2.200569 -5.949570 17.620336 0.133073 1.915219 0.030259 -0.003861 -1104670.000000 1 0 0
-10.883633 2.604669 -5.052970 12.278855 -0.234902 1.994915 0.006959 0.000001 1065820.000000 1 0 0
-13.907333 4.047969 1.477330 14.559618 -0.283242 1.469154 0.011386 0.000168 -255606.000000 1 0 0
-17.463933 10.560769 3.273930 20.669722 -0.543882 1.411734 0.048221 -0.009943 489728.000000 1 0 0
-14.369933 2.903369 -1.121570 14.703144 -0.199361 1.647151 0.010787 -0.001954 632557.000000 1 0 0
-14.495133 5.133569 5.168330 16.222640 -0.340374 1.246557 0.005801 -0.002748 866961.000000 1 0 0
-17.446733 7.639869 3.104830 19.297566 -0.412743 1.409202 0.032383 -0.001088 -2518330.000000 1 0 0
-14.630133 12.438969 -3.381470 19.498797 -0.704627 1.745097 0.029123 -0.011942 -71348.700000 1 0 0
-8.502233 12.514769 -9.625270 17.931906 -0.974047 2.137398 0.014734 -0.014345 805831.000000 1 0 0
-12.460933 8.877669 -9.955570 18.253801 -0.619026 2.147659 0.018005 -0.003882 -2746110.000000 1 0 0
-13.818233 -3.533731 -12.293770 18.829966 0.250364 2.282181 0.028086 0.004090 -694775.000000 1 0 0
-14.695833 5.657869 -7.738470 17.546023 -0.367507 2.027552 0.025623 0.000053 -43422.800000 1 0 0
-10.906933 13.552469 -8.443570 19.337127 -0.893140 2.022669 0.024543 -0.017306 889943.000000 1 0 0
-10.849133 13.501069 3.916630 17.757324 -0.893879 1.348403 0.006464 -0.010240 132402.000000 1 0 0
-15.338033 3.352769 3.063130 15.996221 -0.215207 1.378115 0.015154 0.002518 -66583.700000 1 0 0
-11.075533 9.544969 -12.468570 19.215596 -0.711309 2.276905 0.018190 -0.006759 -498553.000000 1 0 0
-13.133033 11.655569 -9.075770 19.766094 -0.725866 2.047844 0.035009 -0.015159 -945586.000000 1 0 0
-8.921533 14.716369 -3.392870 17.540720 -1.025807 1.765451 0.001616 -0.002548 2518940.000000 1 0 0
-16.717333 8.200369 -4.301170 19.110608 -0.456044 1.797808 0.037051 -0.003881 -1697540.000000 1 0 0
-16.915833 6.683269 0.288330 18.190509 -0.376266 1.554945 0.036256 0.001647 -360595.000000 1 0 0
-10.349733 2.900969 -12.519970 16.500977 -0.273281 2.432175 0.006647 -0.006712 -304089.000000 1 0 0
-16.975433 1.013169 2.328430 17.164307 -0.059614 1.434721 0.018098 -0.003326 894519.000000 1 0 0
-12.656733 1.218569 -6.963970 14.497403 -0.095983 2.071861 0.012037 -0.002113 2640020.000000 1 0 0
-12.302433 8.890169 -5.500270 16.144285 -0.625756 1.918452 0.017942 -0.003646 -544568.000000 1 0 0
-9.534033 13.965269 1.229330 16.953990 -0.971778 1.498223 0.010791 -0.008482 1012030.000000 1 0 0
-12.130533 11.158569 2.684030 16.699327 -0.743688 1.409369 0.003204 -0.005240 -958792.000000 1 0 0
-12.540733 6.794269 -3.615570 14.714089 -0.496507 1.819060 0.004405 0.000231 944780.000000 1 0 0
-15.714633 3.530169 -9.487870 18.693086 -0.220974 2.103147 0.021415 -0.002396 -583686.000000 1 0 0
-15.054933 5.723869 -4.763870 16.796075 -0.363321 1.858374 0.019038 0.001247 1527140.000000 1 0 0
-17.895133 5.367069 7.398730 20.094338 -0.291381 1.193724 0.017132 -0.009266 -2095780.000000 1 0 0
-15.863233 10.014569 -2.288270 18.898940 -0.563122 1.692173 0.038023 -0.004167 -1144760.000000 1 0 0
-8.800433 9.935569 -8.446570 15.732378 -0.845910 2.137544 0.001373 -0.004509 62097.800000 1 0 0
-17.118533 4.214269 -1.250170 17.673912 -0.241382 1.641591 0.028519 -0.001976 920077.000000 1 0 0
-10.209033 5.358669 -4.548870 12.394834 -0.483365 1.946575 0.005762 -0.002305 -65317.000000 1 0 0
-18.220433 2.820069 6.073230 19.411880 -0.153557 1.252592 0.029835 -0.008003 -1478460.000000 1 0 0
-10.351133 10.038869 -5.897170 15.578879 -0.770085 1.959011 0.000268 -0.004158 2025190.000000 1 0 0
-15.367633 0.464369 -5.930770 16.478890 -0.030208 1.938958 0.015960 -0.001196 -810867.000000 1 0 0
-16.374733 -4.270231 -8.893770 19.117163 0.255100 2.054684 0.037244 -0.011539 -1385550.000000 1 0 0
-10.021933 9.602569 -1.185670 13.930337 -0.764032 1.656014 -0.003671 -0.000436 161380.000000 1 0 0
-17.352133 -3.004331 -3.255170 17.908620 0.171439 1.753578 0.018768 -0.006816 -828634.000000 1 0 0
-11.860233 5.076469 -11.557570 17.320886 -0.404430 2.301323 0.011385 -0.004607 284250.000000 1 0 0
-16.288933 7.279969 5.837230 18.772334 -0.420296 1.254605 0.019730 -0.005704 275685.000000 1 0 0
-12.019433 6.069969 -8.890170 16.135254 -0.467650 2.154332 0.012976 -0.001180 2549670.000000 1 0 0
-14.598133 8.409969 -0.195170 16.848477 -0.522660 1.582380 0.025850 -0.003078 372097.000000 1 0 0
-14.822133 11.874069 3.796130 19.367492 -0.675414 1.373514 0.014780 -0.012638 642782.000000 1 0 0
-17.370833 4.156569 -4.085870 18.322588 -0.234868 1.795683 0.027105 -0.002871 -1460690.000000 1 0 0
-13.737133 13.370969 -0.784770 19.186128 -0.771891 1.611711 0.029998 -0.007648 -651285.000000 1 0 0
-10.017733 6.890669 -13.089970 17.865711 -0.602523 2.393058 0.004147 -0.009395 785044.000000 1 0 0
-15.811233 -1.235131 -8.386370 17.940230 0.077959 2.057214 0.016262 -0.005183 111370.000000 1 0 0
-11.341233 11.927569 -0.082770 16.458959 -0.810591 1.575825 0.011835 -0.004080 303925.000000 1 0 0
-12.017233 7.378969 -0.928570 14.132421 -0.550674 1.636549 0.000173 0.000242 1649580.000000 1 0 0
-11.409733 0.243169 -11.639470 16.300871 -0.021309 2.366048 0.010009 -0.005975 -170108.000000 1 0 0
-19.027333 -1.187831 -4.787270 19.656253 0.062347 1.816820 0.016273 -0.003721 -1784000.000000 1 0 0
-17.951133 1.458769 -5.166270 18.736636 -0.081085 1.850146 0.014125 0.000360 -861128.000000 1 0 0
-13.275533 -0.116931 -9.503770 16.327128 0.008808 2.192086 0.014825 -0.002976 403683.000000 1 0 0
-6.007233 11.172769 -13.279170 18.364476 -1.077471 2.379062 -0.004207 -0.004559 -3289400.000000 1 0 0
16.350467 5.797869 6.981230 18.700017 0.340767 1.188203 0.045784 -0.017638 -792870.000000 1 0 0
14.869267 10.215169 -5.375370 18.823905 0.601947 1.860388 0.046107 -0.010526 1267630.000000 1 0 0
2.298067 16.888469 4.390730 17.600569 1.435554 1.318668 0.003767 -0.015015 2450480.000000 1 0 0
-3.828833 18.318869 -5.829670 19.601683 -1.364752 1.872772 -0.001915 -0.006177 1955820.000000 1 0 0
5.373267 14.535969 5.660030 16.498556 1.216722 1.220621 0.004932 -0.014529 -1477560.000000 1 0 0
9.815367 5.958969 15.120730 18.986501 0.545628 0.649488 0.022452 -0.001584 -259666.000000 1 0 0
4.667367 12.711069 -1.054770 13.581905 1.218891 1.648535 0.008112 -0.008560 1561620.000000 1 0 0
3.314867 13.708769 12.884630 19.103203 1.333544 0.830543 -0.000181 -0.004386 87933.100000 1 0 0
-0.811733 12.354369 9.175830 15.410555 -1.505187 0.933002 -0.010910 0.000484 -452557.000000 1 0 0
-7.670033 13.906269 8.362230 17.948276 -1.066762 1.086137 0.008915 -0.013103 1877480.000000 1 0 0
11.415967 12.909569 -4.122070 17.719276 0.846722 1.805579 0.012596 -0.005404 341911.000000 1 0 0
-5.774433 16.052269 0.869730 17.081448 -1.225483 1.519858 -0.005632 -0.000117 -885838.000000 1 0 0
3.164667 10.638069 6.755130 12.992899 1.281648 1.024051 -0.009339 0.004917 1264860.000000 1 0 0
-1.257533 15.582569 2.390430 15.814930 -1.490270 1.419065 -0.002879 -0.001784 -1364740.000000 1 0 0
9.794967 8.777669 9.573330 16.267683 0.730679 0.941609 0.024662 -0.006232 1299420.000000 1 0 0
7.191967 12.279569 6.245830 15.540997 1.040969 1.157212 0.008321 -0.009305 845257.000000 1 0 0
11.876167 13.981169 -1.479370 18.403939 0.866627 1.651266 0.005411 -0.009078 -193712.000000 1 0 0
9.761267 15.948769 -0.967170 18.723808 1.021572 1.622474 0.004605 -0.005275 366907.000000 1 0 0
10.150867 13.726569 3.087730 17.349146 0.934046 1.391867 0.013422 -0.009892 2371790.000000 1 0 0
-5.962133 14.425269 6.193330 16.792640 -1.178867 1.193066 -0.008013 -0.009096 -968563.000000 1 0 0
-0.824933 18.243269 -6.087870 19.249923 -1.525609 1.892575 0.031873 -0.011075 1297810.000000 1 0 0
-3.566333 15.681469 5.349530 16.948294 -1.347176 1.249667 -0.007123 -0.006105 1065090.000000 1 0 0
7.025767 12.324169 10.699030 17.768393 1.052667 0.924620 0.007965 -0.003011 3168180.000000 1 0 0
1.434467 14.638569 6.220130 15.969828 1.473116 1.170716 -0.005056 -0.007433 1493380.000000 1 0 0
17.468567 7.846069 -1.272070 19.191920 0.422150 1.637127 0.029750 -0.004117 1232410.000000 1 0 0
2.178167 16.271269 -3.285970 16.742049 1.437722 1.768349 0.020317 -0.010287 1036730.000000 1 0 0
6.749867 11.204869 0.638430 13.096465 1.028610 1.522029 0.008569 -0.006011 2137080.000000 1 0 0
12.629167 9.311169 3.268630 16.027404 0.635307 1.365415 0.013673 -0.001219 -1502250.000000 1 0 0
6.062267 14.312869 -3.334570 15.897442 1.170151 1.782121 0.005785 -0.006787 -538060.000000 1 0 0
3.076067 16.433169 1.536030 16.789003 1.385751 1.479178 0.015770 -0.021016 -68046.500000 1 0 0
2.752167 18.934569 -2.351170 19.277457 1.426456 1.693066 0.024476 -0.020586 -413928.000000 1 0 0
3.899467 11.943469 10.680630 16.490244 1.255214 0.866243 -0.003151 -0.001324 2391880.000000 1 0 0
8.011767 11.561369 3.433230 14.478976 0.964799 1.331398 0.004514 -0.002988 1114620.000000 1 0 0
0.791767 12.520769 0.220530 12.547717 1.507644 1.553220 0.005398 -0.006239 -1586480.000000 1 0 0
12.013967 9.951569 -4.503070 16.237203 0.691780 1.851811 0.011311 -0.003068 275178.000000 1 0 0
-1.389433 16.390669 9.874130 19.185489 -1.486229 1.030178 -0.005405 -0.004870 -401912.000000 1 0 0
8.270067 14.780769 -7.913070 18.694433 1.060677 2.007864 0.009506 -0.004665 1602370.000000 1 0 0
14.506367 7.673969 -1.271570 16.460297 0.486583 1.648124 0.012896 0.001487 642955.000000 1 0 0
12.427967 8.325169 6.073330 16.144601 0.590220 1.185123 0.024313 -0.007797 -908127.000000 1 0 0
-3.039133 14.162369 10.281530 17.762851 -1.359410 0.953513 0.000044 -0.008697 3300640.000000 1 0 0
-4.575233 17.102969 -3.181370 17.987925 -1.309406 1.748593 0.003232 -0.007381 -3018.990000 1 0 0
-7.043733 16.527169 -1.726670 18.048349 -1.167917 1.666612 -0.005393 0.000555 1007270.000000 1 0 0
8.387267 11.273369 -1.786070 14.164221 0.931153 1.697230 0.007616 -0.004097 7271.880000 1 0 0
8.505767 12.947469 -4.106770 16.026559 0.989555 1.829935 0.010201 -0.005309 2249130.000000 1 0 0
2.662867 14.953669 -7.296370 16.850522 1.394569 2.018621 0.011897 -0.007576 -441241.000000 1 0 0
11.236967 11.249169 9.874230 18.716668 0.785941 1.015066 0.043748 -0.010310 392568.000000 1 0 0
8.603267 15.722769 1.631530 17.996765 1.070117 1.480015 0.007301 -0.012392 -154554.000000 1 0 0
5.947067 9.959369 7.764830 13.958840 1.032488 0.980911 0.002532 0.006426 2575480.000000 1 0 0
14.452667 11.330269 2.570730 18.543550 0.664882 1.431716 0.028332 -0.003368 1767850.000000 1 0 0
12.159767 12.618769 1.195930 17.564838 0.803920 1.502657 0.016055 -0.004027 2333860.000000 1 0 0
4.967367 15.831869 8.160030 18.490779 1.266766 1.113747 0.014656 -0.016315 -639447.000000 1 0 0
11.635467 15.028469 5.168930 19.696619 0.911969 1.305260 0.040043 -0.015969 823287.000000 1 0 0
5.914567 16.679769 1.761830 17.784849 1.230034 1.471570 0.007007 -0.024845 860859.000000 1 0 0
-0.597533 16.120969 -4.203670 16.670739 -1.533748 1.825707 0.013080 -0.007403 1394850.000000 1 0 0
16.056967 6.404369 2.602230 17.481811 0.379517 1.421388 0.015865 -0.009271 -1589850.000000 1 0 0
7.874867 16.667869 -3.069170 18.688264 1.129424 1.735774 0.012074 -0.012216 -733269.000000 1 0 0
14.815067 8.163969 7.530830 18.516209 0.503656 1.151940 0.048939 -0.014142 788596.000000 1 0 0
2.042867 12.960969 8.606630 15.691848 1.414466 0.990254 -0.005175 -0.000919 1327560.000000 1 0 0
15.965167 7.492069 -5.706470 18.535951 0.438768 1.883739 0.029077 -0.002701 -1995390.000000 1 0 0
-3.117733 17.119469 0.713830 17.415684 -1.390654 1.529797 -0.000074 0.002614 691139.000000 1 0 0
-2.936133 18.565669 4.668030 19.367381 -1.413947 1.327374 -0.000027 -0.000705 1188670.000000 1 0 0
-1.005533 19.113769 0.891130 19.160934 -1.518237 1.524272 0.001837 -0.004310 947253.000000 1 0 0
7.124967 16.752569 -5.889270 19.133668 1.168667 1.883672 0.016216 -0.009958 -812779.000000 1 0 0
11.021667 10.102569 0.867330 14.976358 0.741916 1.512851 0.003946 -0.000207 -1842610.000000 1 0 0
9.056567 8.709469 14.458230 19.155069 0.765864 0.715448 0.024080 -0.001026 627131.000000 1 0 0
6.412067 12.389469 -8.337470 16.251983 1.093214 2.109487 0.017747 -0.007284 866442.000000 1 0 0
6.277267 9.114969 13.416230 17.392009 0.967710 0.689755 0.008090 -0.000862 527503.000000 1 0 0
16.705867 9.428669 2.868830 19.396288 0.513826 1.422346 0.027326 -0.006664 -1338340.000000 1 0 0
2.625767 14.787869 -0.731570 15.036985 1.395066 1.619467 0.012869 -0.010871 806311.000000 1 0 0
9.010167 12.794669 8.392430 17.757239 0.957249 1.078535 0.027946 -0.014870 1650900.000000 1 0 0
7.120267 9.374169 10.602030 15.842231 0.921203 0.837630 0.004886 -0.001177 1511430.000000 1 0 0
4.436667 15.910069 -5.161570 17.304801 1.298846 1.873680 0.019434 -0.009521 2450950.000000 1 0 0
0.288767 16.412869 -8.067070 18.290525 1.553204 2.027567 0.022767 -0.009875 476105.000000 1 0 0
-2.477033 15.664469 -1.982570 15.982549 -1.413964 1.695163 -0.000617 0.001133 -1182550.000000 1 0 0
13.266867 10.408769 7.852330 18.601379 0.665261 1.134995 0.051671 -0.011973 1950240.000000 1 0 0
-1.064833 15.906669 6.998230 17.410664 -1.503954 1.157150 -0.002350 -0.006965 2797450.000000 1 0 0
13.327367 13.184469 6.752530 19.926003 0.780008 1.225070 0.054872 -0.017978 -54124.500000 1 0 0
5.309167 17.356669 4.473230 18.693609 1.273948 1.329160 0.013322 -0.019867 604278.000000 1 0 0
10.867367 9.495769 -1.846670 14.549209 0.718143 1.698065 0.002939 0.000243 504440.000000 1 0 0
3.228367 12.785269 4.700030 13.999134 1.323460 1.228409 -0.002960 -0.001390 1314710.000000 1 0 0
-0.244333 18.049969 3.503130 18.388393 -1.557261 1.379117 0.003271 -0.008010 2389220.000000 1 0 0
-7.740733 15.916369 -5.775470 18.617353 -1.118138 1.886220 0.023116 -0.013193 -538342.000000 1 0 0
-12.458833 -9.105731 8.254930 17.500878 0.631142 1.079594 0.014327 -0.008947 -335929.000000 1 0 0
-13.302833 -11.662631 6.790830 18.949873 0.719794 1.204288 0.019964 -0.008035 -1860260.000000 1 0 0
-6.494333 -12.334431 12.155730 18.495305 1.086158 0.853654 0.007389 -0.015476 -1272220.000000 1 0 0
-1.826033 -10.705931 14.246930 17.914418 1.401859 0.651331 0.005490 -0.010092 1021870.000000 1 0 0
-8.964233 2.789569 10.985630 14.450717 -0.301690 0.707155 0.007329 -0.003158 1806680.000000 1 0 0
0.556367 9.993069 15.156130 18.162578 1.515178 0.583626 -0.004539 0.000497 -843644.000000 1 0 0
0.852767 -6.813631 16.595630 17.960170 -1.446288 0.392321 0.012233 -0.016315 1401960.000000 1 0 0
5.982467 2.207169 17.806330 18.913669 0.353447 0.343882 0.020170 -0.007418 -106335.000000 1 0 0
-5.310033 -3.008831 17.658030 18.683028 0.515522 0.332781 0.021538 -0.010059 -1361020.000000 1 0 0
-4.225833 8.166069 13.050130 15.963967 -1.093257 0.613785 0.004913 -0.001228 -91799.800000 1 0 0
-0.111233 -4.973031 18.649630 19.301609 1.548433 0.260654 0.009798 -0.020291 141899.000000 1 0 0
-11.817733 2.090869 11.214630 16.425543 -0.175114 0.819269 0.007438 -0.006157 1328610.000000 1 0 0
-3.447533 -6.109431 14.288730 15.917865 1.057043 0.456380 0.010555 -0.008171 1080350.000000 1 0 0
-7.623733 -2.330531 14.638230 16.668247 0.296673 0.498689 0.013573 -0.000112 1498460.000000 1 0 0
-6.207633 -1.125331 10.579730 12.317945 0.179334 0.537703 0.004808 -0.000317 1258260.000000 1 0 0
-4.027633 2.422369 11.166230 12.115048 -0.541476 0.398401 0.004408 0.001235 1218140.000000 1 0 0
-6.433533 6.298769 13.540130 16.260380 -0.774814 0.586818 0.001456 -0.000054 815316.000000 1 0 0
-9.017533 5.387869 12.548730 16.365074 -0.538571 0.696956 0.003563 -0.004105 363861.000000 1 0 0
-12.365533 -2.221431 15.779530 20.170144 0.177751 0.672413 0.014216 0.001278 695621.000000 1 0 0
-3.496533 -7.701431 16.950330 18.943375 1.144612 0.462837 0.019564 -0.011021 13733.300000 1 0 0
-0.637833 -5.382631 14.409230 15.394981 1.452848 0.359794 0.004444 -0.004148 2076270.000000 1 0 0
-14.387533 -2.131231 13.638030 19.938383 0.147061 0.817552 0.020590 -0.000938 -1305790.000000 1 0 0
-6.546333 1.472269 12.220530 13.941427 -0.221219 0.502124 0.007284 0.000170 2007780.000000 1 0 0
2.236367 -2.282331 14.591330 14.937111 -0.795570 0.215587 0.003217 -0.000840 -114105.000000 1 0 0
-12.720633 3.989169 9.188030 16.190981 -0.303885 0.967356 -0.000872 -0.006006 -1189800.000000 1 0 0
-9.172133 -3.039731 12.552730 15.841055 0.320018 0.656034 0.004849 0.003388 981917.000000 1 0 0
-7.260233 -7.434431 15.326830 18.517382 0.797252 0.595800 0.016474 -0.002591 -423487.000000 1 0 0
-3.406733 5.953769 19.491130 20.662946 -1.051071 0.338394 0.040388 -0.005699 -544019.000000 1 0 0
0.734767 5.294669 16.252630 17.109102 1.432902 0.317751 0.006277 0.000554 103168.000000 1 0 0
3.376167 1.403969 16.839830 17.232223 0.394093 0.213812 0.009453 -0.006056 1303840.000000 1 0 0
-11.737733 11.456069 7.770530 18.149298 -0.773255 1.128357 0.000477 -0.012143 319331.000000 1 0 0
0.587567 -9.516831 15.421030 18.130732 -1.509135 0.553773 0.004251 -0.005795 -468425.000000 1 0 0
-2.691733 -3.683531 18.697030 19.245590 0.939731 0.239331 0.023025 -0.028261 1622450.000000 1 0 0
-13.014033 2.283669 13.832330 19.128867 -0.173709 0.762498 0.008140 -0.010112 -427810.000000 1 0 0
-5.525833 -0.616431 15.797430 16.747346 0.111095 0.338422 0.014640 0.002103 1904290.000000 1 0 0
-4.564833 -6.035231 11.578330 13.831827 0.923234 0.578875 0.005683 0.000294 -1200470.000000 1 0 0
2.379267 1.682169 14.042430 14.341563 0.615416 0.204601 -0.001628 -0.002350 1173610.000000 1 0 0
0.071767 3.199269 14.423230 14.773965 1.548368 0.218333 0.008854 -0.002771 163582.000000 1 0 0
-13.044233 7.098069 12.086530 19.147292 -0.498344 0.887646 -0.004095 -0.009681 806441.000000 1 0 0
0.835867 1.286769 18.363430 18.427425 0.994712 0.083365 0.013854 -0.005783 1149530.000000 1 0 0
-1.956933 6.316469 12.541130 14.177704 -1.270360 0.485231 0.006961 -0.000378 2679650.000000 1 0 0
-13.565733 -2.714831 10.881830 17.601524 0.197515 0.904305 0.019718 -0.002479 1092100.000000 1 0 0
-2.579333 3.572069 13.563430 14.261110 -0.945402 0.314089 0.004886 0.000580 322318.000000 1 0 0
3.569967 6.007969 16.373130 17.802240 1.034649 0.403422 0.006068 0.000951 1171850.000000 1 0 0
-3.765733 12.261769 12.366930 17.817763 -1.272828 0.803657 0.005572 -0.010210 55017.100000 1 0 0
3.664367 -1.509731 17.164130 17.615738 -0.390811 0.226923 0.015935 -0.007418 -483727.000000 1 0 0
-15.923133 0.412669 9.094630 18.341994 -0.025911 1.051999 0.020086 -0.006711 50440.200000 1 0 0
-4.756133 4.617369 15.309030 16.682544 -0.770595 0.408626 0.016057 0.000557 947065.000000 1 0 0
-8.020833 -8.189431 10.366230 15.455072 0.795798 0.835599 0.007963 -0.010036 3143790.000000 1 0 0
-2.753733 -0.475931 14.819730 15.080913 0.171140 0.186382 0.015207 -0.001986 1699170.000000 1 0 0
-1.921133 0.883669 17.326330 17.454894 -0.431116 0.121446 0.020302 -0.006117 1449720.000000 1 0 0
-0.766033 -2.508531 14.464130 14.700020 1.274419 0.179388 0.009603 -0.001784 1500000.000000 1 0 0
4.980167 -8.398331 16.584130 19.244931 -1.035544 0.532107 0.017313 0.000921 402437.000000 1 0 0
-4.550333 9.950669 10.673830 15.285679 -1.141897 0.797791 0.004374 -0.005295 -511352.000000 1 0 0
-6.303233 2.096869 15.292730 16.673188 -0.321150 0.409789 0.015880 0.001036 435623.000000 1 0 0
-4.953433 6.866169 17.285330 19.247426 -0.945835 0.455459 0.022789 0.001477 118474.000000 1 0 0
-4.095933 9.161369 15.734530 18.662336 -1.150367 0.567743 0.010869 -0.002259 -946046.000000 1 0 0
-4.697933 -9.924131 18.378330 21.408455 1.128667 0.538534 0.033405 -0.017029 -951304.000000 1 0 0
-6.898333 -4.112231 11.091630 13.693856 0.537561 0.626693 0.007963 0.001649 1286690.000000 1 0 0
-2.485733 -0.925931 19.614930 19.793476 0.356575 0.134418 0.020281 -0.012092 -969952.000000 1 0 0
-5.859533 -4.668031 15.256830 16.996926 0.672698 0.456450 0.015503 -0.005279 3506040.000000 1 0 0
-12.983433 -0.027431 9.760330 16.242978 0.002113 0.926176 0.006466 -0.003459 2051180.000000 1 0 0
-14.394133 8.786869 10.209830 19.713974 -0.548066 1.026404 -0.013624 -0.011809 -1655990.000000 1 0 0
-8.481733 10.551869 12.806030 18.635346 -0.893735 0.813182 0.011764 -0.014798 -765300.000000 1 0 0
-10.494233 7.071069 10.734830 16.594141 -0.592928 0.867278 0.005579 -0.006947 -812648.000000 1 0 0
-9.934333 -6.648831 14.713530 18.957476 0.589808 0.682286 0.017209 -0.006306 -648658.000000 1 0 0
-0.759233 -13.430531 14.453430 19.744802 1.514326 0.749526 0.010547 -0.007991 1298780.000000 1 0 0
3.608767 -5.691531 17.041030 18.325213 -1.005709 0.376594 0.018825 -0.011050 1549430.000000 1 0 0
-7.429933 9.285569 10.415730 15.808641 -0.895958 0.851490 0.002711 -0.008386 553492.000000 1 0 0
-10.346233 -6.712231 11.666630 16.976714 0.575504 0.813150 0.016689 -0.008187 787503.000000 1 0 0
-10.974733 -3.938631 10.681030 15.812716 0.344565 0.829193 0.013957 -0.001120 351422.000000 1 0 0
-10.048733 -10.225031 9.690230 17.304012 0.794094 0.976412 0.010867 -0.016962 1096350.000000 1 0 0
-9.991833 -3.739131 15.217630 18.584781 0.358086 0.611440 0.014704 -0.003850 2121030.000000 1 0 0
5.550467 -3.483931 16.281230 17.550610 -0.560526 0.382664 0.019662 -0.000509 146072.000000 1 0 0
-11.358133 0.484069 15.277130 19.042904 -0.042593 0.639745 0.009193 -0.005345 -728014.000000 1 0 0
-3.292933 3.110069 18.782030 19.320470 -0.756847 0.236640 0.026461 -0.003178 -175960.000000 1 0 0
0.502967 7.215169 14.061530 15.812598 1.501199 0.475069 -0.001904 0.000324 465065.000000 1 0 0
-13.166133 -7.392031 12.183830 19.401930 0.511586 0.891854 0.016048 -0.004655 380155.000000 1 0 0
-1.605433 -1.105331 12.188730 12.343594 0.602962 0.158571 0.007658 -0.001124 812992.000000 1 0 0
1.980967 -4.890431 13.170930 14.188514 -1.185927 0.381033 0.001843 -0.003486 1047030.000000 1 0 0
-14.769633 -4.105831 8.581230 17.568079 0.271145 1.060477 0.024839 -0.009342 -1915670.000000 1 0 0
7.908967 0.786269 16.018630 17.882015 0.099089 0.460578 0.018560 -0.005321 371354.000000 1 0 0
-1.298733 11.277969 13.397130 17.560250 -1.456145 0.702973 -0.004708 -0.001998 1168890.000000 1 0 0
2.854067 -12.373831 -13.901770 18.828611 -1.344107 2.401390 0.002725 0.007473 -1096320.000000 1 0 0
0.855467 -10.733031 -14.074870 17.720941 -1.491260 2.488570 -0.002566 0.006468 -1680170.000000 1 0 0
3.181367 -14.416831 -12.466070 19.322759 -1.353607 2.272015 0.003543 0.006435 -1017880.000000 1 0 0
-5.120233 -10.064131 -16.027270 19.605533 1.100165 2.527831 0.017474 -0.011255 -243410.000000 1 0 0
-1.197533 -12.234831 -15.008070 19.400189 1.473228 2.455306 0.003741 0.000984 -285161.000000 1 0 0
5.740467 -14.895431 -12.237470 20.114236 -1.202953 2.224837 0.009635 0.003160 1155760.000000 1 0 0
1.974467 -11.875031 -16.161470 20.152121 -1.406033 2.501388 0.003225 0.003225 -413242.000000 1 0 0
1.261567 -14.369631 -14.145270 20.203131 -1.483227 2.346407 0.007588 0.010298 -1012890.000000 1 0 0
-1.104133 -10.591231 -15.954170 19.181471 1.466922 2.553047 0.004417 -0.003702 -198042.000000 1 0 0
-5.685533 -5.592531 -14.670370 16.697948 0.777152 2.643663 0.010760 -0.015104 -683143.000000 1 0 0
-6.530033 -7.423031 -16.392170 19.142778 0.849311 2.598880 0.018805 -0.011724 842936.000000 1 0 0
4.901467 -12.455531 -11.685270 17.768235 -1.195891 2.288491 0.004997 0.001459 -684205.000000 1 0 0
-1.780533 -15.450831 -13.192270 20.394471 1.456064 2.274250 0.012037 0.001686 234891.000000 1 0 0
15.524767 -7.405731 -8.892270 19.363257 -0.445101 2.047929 0.024019 -0.002540 318341.000000 1 0 0
19.442367 -3.741431 -4.304070 20.261514 -0.190113 1.784853 0.065063 -0.016569 1333280.000000 1 0 0
14.918767 -11.792431 -8.825970 20.964942 -0.668886 2.005330 0.034956 -0.013285 -37711.700000 1 0 0
18.080867 -3.474531 -6.458370 19.511552 -0.189852 1.908162 0.076726 -0.008228 817323.000000 1 0 0
9.725767 -9.079831 -15.450270 20.389819 -0.751064 2.430646 0.052311 -0.024096 473082.000000 1 0 0
1.331167 1.924269 -15.284470 15.462531 0.965610 2.989686 0.009737 -0.004977 183477.000000 1 0 0
4.880467 -4.331631 -13.937770 15.389718 -0.725891 2.703718 0.005803 -0.003748 489812.000000 1 0 0
13.128967 -5.504931 -8.546870 16.604910 -0.397030 2.111477 0.026218 -0.005514 -1261100.000000 1 0 0
3.117667 0.977769 -12.138570 12.570631 0.303907 2.878650 0.004391 -0.001160 -231041.000000 1 0 0
0.791167 6.386469 -12.869270 14.388574 1.447543 2.677904 0.013597 -0.003723 281858.000000 1 0 0
3.159867 -1.077831 -16.880070 17.207070 -0.328724 2.946327 0.017792 -0.006954 -157141.000000 1 0 0
13.311167 4.345169 -11.245170 17.958884 0.315525 2.247417 0.005471 -0.001473 507405.000000 1 0 0
-3.761733 9.444969 -16.585470 19.453429 -1.191774 2.591686 0.002834 -0.003691 250241.000000 1 0 0
-0.224233 -5.121031 -17.671770 18.400182 1.527038 2.859277 0.012720 -0.010563 403689.000000 1 0 0
-0.485733 -8.447231 -17.524470 19.460183 1.513358 2.691782 0.010532 -0.007430 -650710.000000 1 0 0
5.512767 -10.071431 -12.287970 16.817209 -1.069977 2.390111 0.005603 -0.001946 631900.000000 1 0 0
1.707867 -9.690231 -18.126470 20.624895 -1.396342 2.644271 0.011910 -0.005960 -298386.000000 1 0 0
10.978467 8.851369 -14.698670 20.369693 0.678539 2.376900 0.046158 -0.012344 -284130.000000 1 0 0
11.070367 -3.775031 -12.812570 17.348367 -0.328637 2.401708 0.016596 -0.008581 912492.000000 1 0 0
5.095967 7.406269 -12.370370 15.292082 0.968128 2.513142 -0.000315 0.001475 -1488440.000000 1 0 0
9.730267 -5.982431 -12.572470 16.986306 -0.551250 2.404095 0.017336 -0.010922 -1530800.000000 1 0 0
-3.249433 0.334469 -15.934870 16.266247 -0.102570 2.939397 0.012818 -0.006893 -1272890.000000 1 0 0
-0.649033 10.760269 -12.834770 16.761145 -1.510552 2.442996 0.008716 -0.000985 -775572.000000 1 0 0
6.838067 -5.383831 -12.488970 15.222325 -0.666969 2.532973 0.010448 -0.003213 334919.000000 1 0 0
17.799867 -6.347731 -8.146670 20.579047 -0.342557 1.977814 0.045591 -0.012236 408108.000000 1 0 0
13.299867 4.999769 -13.714270 19.747541 0.359582 2.338493 0.024779 -0.012381 312009.000000 1 0 0
14.231767 0.833969 -11.428770 18.271713 0.058532 2.246555 0.014956 0.003786 71916.900000 1 0 0
15.197067 6.191169 -11.069070 19.794083 0.386863 2.164230 0.039979 -0.012568 219489.000000 1 0 0
8.524367 1.502369 -11.623670 14.492469 0.174453 2.501514 -0.001271 0.005692 689461.000000 1 0 0
9.943067 1.215169 -8.884970 13.389694 0.121610 2.296374 -0.001525 0.003393 261362.000000 1 0 0
0.003767 -5.806031 -13.026470 14.261800 -1.570148 2.722312 0.005773 -0.004850 302907.000000 1 0 0
10.632067 -5.810631 -9.003370 15.095196 -0.500167 2.209854 0.016310 -0.007710 -736721.000000 1 0 0
10.273567 8.620169 -11.131070 17.428546 0.698110 2.263563 0.023914 -0.009149 674199.000000 1 0 0
8.435467 8.294969 -14.532470 18.739165 0.777001 2.458324 0.033174 -0.003899 1336100.000000 1 0 0
8.745667 10.716269 -10.618770 17.437987 0.886308 2.225526 0.026666 -0.006888 -145786.000000 1 0 0
7.126167 1.869169 -17.997070 19.446609 0.256518 2.753046 0.020797 0.000463 -2322720.000000 1 0 0
12.229267 2.734669 -12.846170 17.945960 0.219997 2.368601 0.011946 -0.002242 -1704090.000000 1 0 0
2.741467 -0.884631 -19.477870 19.689735 -0.312137 2.994763 0.023264 -0.010364 -370971.000000 1 0 0
10.509167 -2.176731 -15.405870 18.775558 -0.204239 2.533130 0.031009 -0.005978 203377.000000 1 0 0
8.421867 -0.835131 -13.090570 15.588083 -0.098839 2.567675 0.004209 -0.000521 1549200.000000 1 0 0
0.545567 4.350969 -14.588570 15.233350 1.446058 2.849603 0.009705 -0.002020 1216190.000000 1 0 0
4.071067 -7.594931 -15.643870 17.860214 -1.078746 2.638107 0.015513 -0.008742 -676134.000000 1 0 0
11.649367 -5.814131 -14.353970 19.379069 -0.462923 2.404900 0.036576 -0.014410 -458256.000000 1 0 0
-5.699433 4.319369 -17.016970 18.458542 -0.648512 2.743758 0.011405 -0.004656 -316907.000000 1 0 0
11.539867 7.893569 -9.044070 16.651492 0.599925 2.144967 0.024973 -0.005333 -498958.000000 1 0 0
9.769667 6.292569 -13.545570 17.847277 0.572211 2.432528 0.025991 0.004994 -246168.000000 1 0 0
12.124167 0.572569 -10.121270 15.803904 0.047190 2.265852 0.010259 0.006572 -650129.000000 1 0 0
5.668167 -7.186531 -13.761770 16.527573 -0.902971 2.554682 0.010779 -0.004959 -885785.000000 1 0 0
8.634167 -10.167831 -10.820770 17.176225 -0.866787 2.252331 0.020242 -0.006450 188614.000000 1 0 0
10.287067 4.783869 -16.000870 19.614714 0.435288 2.524836 0.037349 -0.001132 -1020390.000000 1 0 0
9.979367 -0.552131 -10.877170 14.771779 -0.055271 2.398453 0.002838 0.003635 -27464.400000 1 0 0
-1.654733 5.541969 -13.928170 15.081296 -1.280641 2.748006 0.005281 -0.004506 2309120.000000 1 0 0
1.357467 -0.709231 -14.957970 15.036176 -0.481459 3.039556 0.008637 -0.005664 -1013500.000000 1 0 0
11.709567 -10.468431 -14.254270 21.210522 -0.729494 2.307753 0.054822 -0.023274 953902.000000 1 0 0
9.421667 -7.772731 -10.805270 16.307575 -0.689791 2.295071 0.019197 -0.010154 55054.600000 1 0 0
14.069267 -0.986531 -9.625970 17.075621 -0.070005 2.169686 0.016200 0.003850 942310.000000 1 0 0
4.086967 11.254069 -12.206670 17.098543 1.222451 2.365850 0.016750 -0.008059 -1409980.000000 1 0 0
-1.239933 2.842269 -16.948470 17.229816 -1.159438 2.960630 0.007294 -0.005696 125886.000000 1 0 0
6.042967 -0.437531 -17.534470 18.551726 -0.072277 2.808900 0.008840 -0.005348 248355.000000 1 0 0
6.481667 -6.407231 -16.131970 18.528494 -0.779623 2.627334 0.019072 -0.005545 211510.000000 1 0 0
-1.762833 -5.115431 -19.770670 20.497673 1.238931 2.874463 0.018710 -0.016424 -351019.000000 1 0 0
0.015267 -4.277931 -15.206170 15.796472 -1.567228 2.867351 0.008773 -0.009554 -311387.000000 1 0 0
0.659967 0.715569 -12.945170 12.981719 0.825798 3.066536 0.007872 -0.005025 34041.700000 1 0 0
15.705067 0.564369 -13.553670 20.752581 0.035920 2.282477 0.042114 -0.009926 753805.000000 1 0 0
0.017267 6.945269 -16.387170 17.798214 1.568310 2.740718 0.011640 -0.000772 -718531.000000 1 0 0
-4.826733 -0.445531 -18.390870 19.018937 0.092044 2.883885 0.007001 -0.006490 -58360.900000 1 0 0
10.588267 -8.467931 -13.042570 18.812918 -0.674586 2.336823 0.026710 -0.021599 822793.000000 1 0 0
4.340467 8.322369 -17.595970 19.942910 1.090064 2.651559 0.027979 -0.007328 -251817.000000 1 0 0
9.213867 0.718869 -16.890670 19.253749 0.077863 2.640934 0.016541 -0.002901 -203947.000000 1 0 0
3.483267 4.690969 -18.410170 19.315090 0.932082 2.834279 0.017021 -0.003801 -48662.200000 1 0 0
1.600867 -8.177031 -15.900670 17.951544 -1.377466 2.658915 0.006492 -0.007911 -435688.000000 1 0 0
4.435867 7.886769 -14.955970 17.480249 1.058449 2.597491 0.010216 0.003544 596724.000000 1 0 0
-5.600533 -0.416131 -15.231870 16.234193 0.074166 2.788358 0.007405 -0.006063 85267.600000 1 0 0
3.034767 3.366969 -13.813170 14.537880 0.837244 2.824514 0.007318 0.000902 422241.000000 1 0 0
-2.418033 -10.051431 -18.076870 20.824298 1.334716 2.622090 0.021717 -0.004700 -87995.000000 1 0 0
6.351467 -8.933831 -15.483470 18.970828 -0.952762 2.525552 0.019279 -0.008138 184883.000000 1 0 0
-1.660633 5.423169 -17.592870 18.484522 -1.273651 2.829725 0.005085 0.002130 381554.000000 1 0 0
10.045267 -12.129731 -11.845670 19.706792 -0.879123 2.215668 0.037473 -0.013895 -286636.000000 1 0 0
10.914967 3.637969 -9.371970 14.839311 0.321721 2.254365 0.001019 0.003997 -1994260.000000 1 0 0
4.980867 -0.492931 -10.915870 12.008674 -0.098644 2.711672 0.002782 -0.002705 -495738.000000 1 0 0
6.403067 9.570469 -11.489370 16.266493 0.981150 2.355084 0.011025 -0.004647 533079.000000 1 0 0
10.922167 -9.562031 -9.631270 17.420894 -0.719096 2.156586 0.027553 -0.010997 -1091650.000000 1 0 0
3.299567 -2.374231 -14.602270 15.157520 -0.623732 2.870086 0.011077 -0.005231 132292.000000 1 0 0
9.415467 -4.547031 -14.720770 18.056234 -0.449900 2.523998 0.028804 -0.007843 -21428.800000 1 0 0
-4.023533 -6.499231 -16.479870 18.166313 1.016467 2.707297 0.006073 -0.011658 -509921.000000 1 0 0
6.021667 -7.688331 -11.293370 14.930208 -0.906370 2.428605 0.007058 -0.005848 482536.000000 1 0 0
5.545567 6.338169 -16.618370 18.630511 0.851996 2.672541 0.015915 -0.014182 -940773.000000 1 0 0
9.217967 1.228969 -19.402270 21.515794 0.132542 2.694641 0.039590 -0.007756 665083.000000 1 0 0
13.293667 5.876069 -9.277770 17.243167 0.416198 2.138924 0.017282 -0.001331 833382.000000 1 0 0
-1.265033 -0.600731 -17.299870 17.356460 0.443345 3.060819 0.013749 -0.010921 448499.000000 1 0 0
-0.333733 -0.657131 -19.668270 19.682074 1.100877 3.104138 0.020547 -0.015559 -449633.000000 1 0 0
2.846967 6.549869 -16.611870 18.082042 1.160772 2.735558 0.010508 0.002547 -1411680.000000 1 0 0
7.759367 3.805469 -15.623470 17.854473 0.455967 2.636325 0.014668 0.000896 271409.000000 1 0 0
3.248367 -10.013731 -14.965170 18.297077 -1.257115 2.528547 0.005590 0.002076 898080.000000 1 0 0
9.066467 -10.455231 -13.459270 19.304524 -0.856418 2.342292 0.035021 -0.015281 948950.000000 1 0 0
3.869567 0.141169 -14.779570 15.278389 0.036466 2.885359 0.009551 -0.005356 -1294560.000000 1 0 0
-1.124933 -2.841931 -18.717770 18.965679 1.193886 2.979729 0.022293 -0.016034 -489897.000000 1 0 0
9.454867 10.274669 -13.040470 19.105423 0.826926 2.322047 0.042034 -0.010280 151470.000000 1 0 0
4.905267 2.139969 -10.683270 11.948781 0.411369 2.677189 -0.005115 0.002382 341176.000000 1 0 0
-0.177833 7.047069 -18.987070 20.253436 -1.545567 2.786097 0.017775 -0.001294 -101404.000000 1 0 0
0.946767 -1.864431 -17.698670 17.821768 -1.100924 3.023991 0.022276 -0.013251 -3497900.000000 1 0 0
-4.327933 -2.227231 -14.107470 14.923548 0.475273 2.809359 0.010160 -0.008293 -3627220.000000 1 0 0
10.134067 6.111569 -10.377070 15.739574 0.542675 2.290681 0.008552 0.002619 167022.000000 1 0 0
8.390867 5.603969 -17.418870 20.130280 0.588832 2.616559 0.037516 -0.009762 -383754.000000 1 0 0
11.726667 0.348069 -13.644670 17.994802 0.029673 2.431431 0.016468 0.008207 653900.000000 1 0 0
6.888967 12.038869 -11.876970 18.260741 1.051048 2.278921 0.028495 -0.010752 -399962.000000 1 0 0
-0.848033 0.598269 -15.042970 15.078728 -0.614394 3.072711 0.010759 -0.006223 -747222.000000 1 0 0
-4.154433 -2.848431 -19.039670 19.694718 0.601021 2.882957 0.005305 -0.009206 -242716.000000 1 0 0
5.731667 -11.897931 -14.070870 19.297724 -1.121866 2.387870 0.012791 -0.003895 -183682.000000 1 0 0
2.203567 -4.785731 -14.066970 15.021271 -1.139290 2.783223 0.007710 -0.002690 -1479160.000000 1 0 0
11.944567 2.194069 -15.348070 19.571660 0.181663 2.472200 0.035658 -0.005575 437510.000000 1 0 0
9.874567 2.270369 -13.723570 17.058664 0.225993 2.505617 0.011670 -0.001683 -1066960.000000 1 0 0
-2.260433 -4.125531 -16.418670 17.079294 1.069557 2.862552 0.007931 -0.011973 -1120070.000000 1 0 0
-2.820633 10.245669 -14.261970 17.785767 -1.302151 2.501224 0.007788 -0.005263 252016.000000 1 0 0
3.672867 5.783469 -13.703870 15.321049 1.004993 2.677990 0.003789 0.003538 -234999.000000 1 0 0
-4.872933 -2.462331 -16.605870 17.480374 0.467885 2.823943 0.004595 -0.008048 322287.000000 1 0 0
-4.221133 6.179469 -13.549970 15.479196 -0.971510 2.636990 0.003195 -0.003597 -1467330.000000 1 0 0
6.059567 -1.110531 -14.351870 15.618189 -0.181258 2.736131 0.008502 0.004990 -456361.000000 1 0 0
6.694667 -2.915931 -12.695270 14.645515 -0.410781 2.619619 0.005006 -0.003725 709044.000000 1 0 0
3.162267 -3.160531 -18.291370 18.829846 -0.785124 2.901867 0.020489 -0.014978 293222.000000 1 0 0
7.448667 -11.992431 -12.134070 18.615496 -1.014996 2.280787 0.021908 -0.005447 -65268.900000 1 0 0
-6.141133 -5.134131 -17.263770 19.029203 0.696324 2.707436 0.032151 -0.018272 356164.000000 1 0 0
0.566167 8.736769 -11.840870 14.726096 1.506084 2.504913 0.010646 -0.003177 178107.000000 1 0 0
0.650767 8.569369 -14.453770 16.815739 1.495001 2.605162 0.012775 -0.003566 385062.000000 1 0 0
7.930967 -2.554731 -14.984970 17.145735 -0.311626 2.634122 0.015875 -0.009784 -1637050.000000 1 0 0
14.213467 1.614769 -8.877770 16.835823 0.113123 2.126233 0.005477 0.004639 544017.000000 1 0 0
2.856767 10.841469 -14.502070 18.330538 1.313149 2.483471 0.020697 -0.003163 -860039.000000 1 0 0
6.135267 1.151769 -15.538770 16.745789 0.185569 2.759593 0.008392 -0.001333 824195.000000 1 0 0
16.632567 -5.415831 -10.268370 20.283317 -0.314789 2.101624 0.072843 -0.020386 260330.000000 1 0 0
4.929267 -4.249831 -11.237870 12.986472 -0.711513 2.616649 0.004518 -0.002842 -667255.000000 1 0 0
9.149567 -3.606631 -17.027970 19.664031 -0.375484 2.617833 0.030498 -0.010705 355404.000000 1 0 0
13.403567 -9.651131 -8.906570 18.765045 -0.624051 2.065347 0.033873 -0.010852 -11235.400000 1 0 0
2.450367 -7.911231 -13.560070 15.889222 -1.270435 2.593295 0.003373 -0.001270 648980.000000 1 0 0
-6.676733 -2.300131 -18.482670 19.785815 0.331766 2.776631 0.005659 -0.004980 341483.000000 1 0 0
-1.481533 -6.385431 -15.688470 17.002846 1.342812 2.745814 0.005602 -0.011664 291790.000000 1 0 0
1.684967 -7.134031 -18.246470 19.663855 -1.338860 2.759588 0.022859 -0.018320 -517713.000000 1 0 0
5.387667 10.998169 -14.552170 19.019788 1.115286 2.442004 0.029998 -0.012769 -420956.000000 1 0 0
5.587667 -3.451031 -17.341470 18.543415 -0.553272 2.779569 0.023209 -0.009594 -1221780.000000 1 0 0
3.988267 13.106269 -14.071970 19.639270 1.275397 2.369600 0.030616 -0.011593 111615.000000 1 0 0
9.155667 10.531969 -15.728070 21.026669 0.855192 2.415849 0.050535 -0.012056 322085.000000 1 0 0
2.568767 3.944769 -16.213370 16.882925 0.993590 2.859020 0.010403 -0.002305 411764.000000 1 0 0
16.630667 1.727669 -11.396170 20.234540 0.103513 2.169054 0.043280 -0.007595 -631245.000000 1 0 0
10.041267 -3.755631 -10.476770 14.989814 -0.357911 2.344691 0.012103 -0.003664 743087.000000 1 0 0
14.856467 -2.114931 -11.824670 19.105245 -0.141407 2.238167 0.055782 -0.007422 22340.800000 1 0 0
-2.685433 -8.612531 -16.020570 18.386025 1.268544 2.628733 0.007773 -0.002931 -572276.000000 1 0 0
14.134167 8.331869 -8.877470 18.654871 0.532651 2.066760 0.049992 -0.007577 524019.000000 1 0 0
-8.342933 0.125869 -16.672570 18.643899 -0.015086 2.677581 0.011752 -0.001550 -138394.000000 1 0 0
-3.390333 4.085569 -16.027270 16.883709 -0.878128 2.821716 0.007741 -0.000362 -492000.000000 1 0 0
15.217767 4.081469 -9.592870 18.446192 0.262037 2.117701 0.024969 -0.004243 166933.000000 1 0 0
5.561767 1.086469 -12.939070 14.125622 0.192917 2.728790 0.002500 0.001521 227667.000000 1 0 0
8.017267 -7.738031 -12.971970 17.100459 -0.767677 2.431919 0.024765 -0.009279 -788285.000000 1 0 0
3.325667 -6.089331 -11.920770 13.792925 -1.070916 2.614488 0.003726 -0.004039 -1001910.000000 1 0 0
-3.103433 3.594069 -18.523870 19.122824 -0.858524 2.890649 0.005388 -0.003109 -618580.000000 1 0 0
1.024867 5.061469 -17.832270 18.564986 1.371013 2.859706 0.012519 -0.007538 -2443740.000000 1 0 0
6.412867 7.284569 -10.233270 14.103533 0.848952 2.382676 -0.000750 0.003237 -127875.000000 1 0 0
9.826467 3.855869 -11.707270 15.763482 0.373934 2.407864 0.008687 0.004201 264158.000000 1 0 0
4.592867 1.711769 -17.539370 18.211373 0.356754 2.869088 0.013864 -0.003245 -808642.000000 1 0 0
2.716367 8.113769 -13.076370 15.627007 1.247740 2.562172 0.006973 -0.004013 -1499760.000000 1 0 0
14.459667 -3.518931 -9.731970 17.781341 -0.238721 2.149947 0.040789 -0.003706 33822.900000 1 0 0
-1.167233 9.274369 -16.102370 18.618880 -1.445599 2.615630 0.014183 -0.008373 -224302.000000 1 0 0
-5.114533 2.128269 -15.845670 16.786103 -0.394327 2.805273 0.012871 -0.006634 348440.000000 1 0 0
4.645967 4.278869 -11.930270 13.499077 0.744289 2.654685 0.000128 0.001494 571669.000000 1 0 0
9.327567 3.237169 -17.718570 20.283750 0.334048 2.633215 0.027621 -0.002355 1068520.000000 1 0 0
-4.419133 14.362269 -13.205270 20.004566 -1.272299 2.291765 0.013999 -0.008693 -131744.000000 1 0 0
15.579767 -4.974031 -7.921770 18.172082 -0.309034 2.021869 0.047084 -0.005079 -344214.000000 1 0 0
1.353567 9.232869 -16.800670 19.218235 1.425230 2.634592 0.017100 -0.003269 -95439.400000 1 0 0
0.523867 -3.300331 -12.783370 13.212917 -1.413378 2.885908 0.006973 -0.004869 333436.000000 1 0 0
7.611667 3.562469 -13.001070 15.480843 0.437744 2.567742 0.003983 0.005341 1005340.000000 1 0 0
-2.875533 7.652169 -15.026770 17.106379 -1.211342 2.643365 0.005021 -0.004030 638574.000000 1 0 0
12.244367 -5.151031 -10.988570 17.239673 -0.398211 2.261916 0.031093 -0.010453 -328800.000000 1 0 0
0.776967 -4.375031 -19.901770 20.391788 -1.395038 2.921925 0.033306 -0.018832 300236.000000 1 0 0
3.519667 -4.479931 -16.151470 17.126816 -0.904866 2.802484 0.017097 -0.008925 560800.000000 1 0 0
-5.530633 4.223169 -14.422470 16.013454 -0.652146 2.692053 0.005588 -0.004134 395053.000000 1 0 0
12.390467 -7.536531 -9.823070 17.516155 -0.546465 2.166149 0.025701 -0.009246 526768.000000 1 0 0
-1.949033 -1.797631 -15.117270 15.348031 0.745010 2.967966 0.012218 -0.005452 402446.000000 1 0 0
7.248767 5.920369 -14.259570 17.056692 0.684866 2.560768 0.015032 0.001827 -36534.100000 1 0 0
4.457167 -5.480831 -18.400170 19.709696 -0.888041 2.775015 0.025735 -0.014368 175600.000000 1 0 0
7.745267 7.430069 -12.263770 16.297090 0.764631 2.422666 0.013475 -0.001857 390399.000000 1 0 0
12.451967 -2.595131 -10.957470 16.788459 -0.205470 2.281911 0.019162 -0.002594 -711470.000000 1 0 0
7.548667 -0.801331 -10.757370 13.166075 -0.105759 2.527076 0.000115 -0.000323 -2024860.000000 1 0 0
5.492167 4.091769 -14.333170 15.885410 0.640306 2.695837 0.000568 0.002055 -472475.000000 1 0 0
14.806067 2.963369 -12.875070 19.843604 0.197536 2.276839 0.022585 -0.011802 669043.000000 1 0 0
-6.250333 6.674569 -15.884470 18.328473 -0.818210 2.619255 0.001464 0.002079 335280.000000 1 0 0
-11.032433 3.927369 -16.541670 20.267355 -0.341996 2.525553 0.029225 -0.016083 791499.000000 1 0 0
-4.969233 6.536069 -18.183970 19.951698 -0.920749 2.717469 0.006486 0.014024 -657362.000000 1 0 0
-9.988533 1.712769 -15.637570 18.634323 -0.169822 2.566572 0.024915 -0.009663 -527057.000000 1 0 0
-7.469333 5.857669 -18.026370 20.372856 -0.665050 2.656910 0.005162 -0.004073 -28371.200000 1 0 0
-8.542133 3.819269 -15.450270 18.062827 -0.420448 2.597047 0.006092 -0.003198 -362318.000000 1 0 0
9.113667 13.428469 -12.218570 20.314433 0.974521 2.216139 0.052611 -0.012090 -367182.000000 1 0 0
13.800267 9.181569 -11.243870 20.029309 0.587068 2.166838 0.039281 -0.015702 367261.000000 1 0 0
8.592667 15.982269 -8.958470 20.236626 1.077494 2.029388 0.034965 -0.011155 -97207.700000 1 0 0
7.118667 13.681669 -13.867970 20.740880 1.091035 2.303161 0.043381 -0.010813 -189124.000000 1 0 0
4.999767 16.065869 -12.337670 20.864514 1.269092 2.203495 0.042801 -0.020001 258068.000000 1 0 0
11.225267 11.027169 -11.356170 19.405352 0.776496 2.195933 0.056118 -0.014003 -288406.000000 1 0 0
15.947667 9.745169 -9.715270 21.063781 0.548521 2.050178 0.072732 -0.006865 805934.000000 1 0 0
13.556067 10.840769 -9.216170 19.652660 0.674557 2.058901 0.086605 -0.013662 265924.000000 1 0 0
10.580967 11.903969 -8.282970 17.951851 0.844170 2.050368 0.022148 -0.002680 425416.000000 1 0 0
5.736867 16.123569 -9.812370 19.727233 1.228958 2.091398 0.024993 -0.023691 -290253.000000 1 0 0
6.948667 14.607969 -11.445570 19.816100 1.126796 2.186569 0.029884 -0.009577 -22487.300000 1 0 0
10.874667 13.930669 -9.892170 20.252826 0.907980 2.081091 0.044342 -0.007500 49976.000000 1 0 0
8.364467 -18.662431 -1.406270 20.499469 -1.149442 1.639451 0.059158 -0.006167 126758.000000 1 0 0
7.468267 -17.372031 -3.487770 19.228287 -1.164781 1.753193 0.045015 -0.008600 260437.000000 1 0 0
4.633467 -18.051531 5.519130 19.436758 -1.319541 1.282882 0.040743 -0.012202 241443.000000 1 0 0
9.916367 -17.066431 -2.491770 19.894882 -1.044431 1.696373 0.044127 -0.009230 -911708.000000 1 0 0
-9.693233 -12.366031 -9.921670 18.582708 0.905975 2.134026 0.023350 -0.016785 1105470.000000 1 0 0
-4.954433 -6.965731 -12.038270 14.764409 0.952554 2.524143 0.000189 -0.007766 361048.000000 1 0 0
-10.802133 -9.500431 -5.733170 15.485913 0.721371 1.950040 0.014817 -0.009373 -1450510.000000 1 0 0
-4.550433 -11.387431 -13.949970 18.573683 1.190634 2.420464 0.016190 -0.008645 349860.000000 1 0 0
-2.984333 -15.489131 7.367630 17.409807 1.380456 1.133835 0.006417 -0.004135 65351.900000 1 0 0
-4.694933 -12.046431 -11.507970 17.308734 1.199169 2.298109 0.010951 -0.007403 632243.000000 1 0 0
-14.443433 -12.796631 -4.137570 19.735400 0.725016 1.782016 0.033883 -0.009465 -660440.000000 1 0 0
-3.183633 -12.246531 -3.238270 13.061372 1.316464 1.821336 0.004656 -0.005680 640129.000000 1 0 0
-2.518133 -17.416031 -1.488870 17.660007 1.427204 1.655204 0.007832 -0.009632 -163607.000000 1 0 0
-5.907933 -12.259031 3.520230 14.056298 1.121713 1.317664 -0.001664 -0.002456 303145.000000 1 0 0
-8.735733 -10.744231 -11.893970 18.254261 0.888141 2.280452 0.012334 -0.010524 813826.000000 1 0 0
-9.875433 -12.053131 -7.312870 17.212792 0.884382 2.009594 0.020768 -0.018906 236973.000000 1 0 0
-10.920433 -15.275331 6.342930 19.819797 0.950136 1.245035 0.022217 -0.007475 481530.000000 1 0 0
-9.553933 -15.398631 0.779830 18.138456 1.015483 1.527790 0.011505 0.005228 -3251210.000000 1 0 0
-14.741933 -7.567331 -8.016970 18.408175 0.474247 2.021403 0.025927 -0.019539 -371833.000000 1 0 0
-2.468433 -16.570131 5.113530 17.516009 1.422915 1.274547 0.018769 -0.011786 -743956.000000 1 0 0
4.343567 -15.558931 6.124930 17.276043 -1.298559 1.208382 0.029338 -0.011269 -615043.000000 1 0 0
4.291367 -14.574331 -10.189670 18.293614 -1.284442 2.161574 0.010972 0.003182 -163310.000000 1 0 0
-7.642833 -13.888231 -0.259070 15.854431 1.067715 1.587138 0.000838 -0.001935 455678.000000 1 0 0
2.944867 -14.907431 9.556330 17.950687 -1.375764 1.009404 0.030520 -0.011731 -116045.000000 1 0 0
2.390467 -17.332331 10.218730 20.261946 -1.433741 1.042189 0.056837 -0.011128 -71005.600000 1 0 0
-8.275733 -17.117231 -5.900570 19.907387 1.120457 1.871718 0.031610 -0.013885 -164409.000000 1 0 0
-6.435233 -9.129531 -7.776370 13.610014 0.956802 2.178972 0.008308 -0.008275 342257.000000 1 0 0
-6.137633 -13.055631 -4.846570 15.218715 1.131342 1.894902 0.003554 -0.011860 524834.000000 1 0 0
2.126267 -19.503331 -4.762970 20.188779 -1.462204 1.808963 0.018451 -0.016505 -269545.000000 1 0 0
-5.507133 -12.987431 8.107830 16.270795 1.169743 1.049153 0.004716 -0.008655 790044.000000 1 0 0
2.024967 -17.442031 3.354230 17.876683 -1.455217 1.382046 0.019224 -0.015827 211358.000000 1 0 0
-17.622633 -10.133131 -2.702370 20.507080 0.521839 1.702958 0.027625 -0.014765 784632.000000 1 0 0
-3.716233 -15.419331 2.568530 16.067467 1.334295 1.410248 0.009897 -0.008235 87148.600000 1 0 0
-9.944233 -10.421731 -14.198970 20.226493 0.808840 2.348996 0.026612 -0.014036 -358786.000000 1 0 0
6.022567 -14.576231 -5.703370 16.770994 -1.178982 1.917791 0.009035 -0.005957 443384.000000 1 0 0
-7.219433 -12.414131 -10.743570 17.934747 1.044054 2.213094 0.015000 -0.013841 -634547.000000 1 0 0
-7.497633 -14.281231 3.788930 16.568767 1.087350 1.340076 0.001593 -0.000118 702069.000000 1 0 0
3.203067 -14.983231 -3.157870 15.643816 -1.360190 1.774054 0.011494 -0.009782 -295790.000000 1 0 0
-7.698033 -11.470231 7.673330 15.802085 0.979709 1.063759 0.003729 -0.014196 -1534750.000000 1 0 0
-12.774533 -12.382331 -1.155470 17.828234 0.769809 1.635653 0.015538 0.004844 -85944.400000 1 0 0
-1.975333 -13.665031 3.985130 14.370674 1.427237 1.289803 0.007507 -0.003760 -2071690.000000 1 0 0
-3.232733 -13.943331 5.236030 15.240835 1.342974 1.220099 0.002526 -0.005714 99377.800000 1 0 0
-14.379433 -10.260331 -4.425270 18.210588 0.619757 1.816259 0.012576 -0.009145 914190.000000 1 0 0
-6.325133 -8.657131 -10.508370 15.012630 0.939810 2.346150 0.007136 -0.008182 375167.000000 1 0 0
0.967567 -19.568631 2.306730 19.727861 -1.521392 1.453601 0.033382 -0.018811 -31902.500000 1 0 0
6.596867 -14.301431 -8.290570 17.798402 -1.138607 2.055340 0.011144 0.004050 -1741720.000000 1 0 0
-3.872733 -16.674131 -5.864170 18.094562 1.342583 1.900840 0.006263 -0.015591 -273820.000000 1 0 0
-3.593333 -13.608331 -13.198270 19.294897 1.312635 2.324068 0.023142 -0.001338 -2284750.000000 1 0 0
-8.223833 -14.733131 -4.599470 17.488616 1.061690 1.836925 0.010385 -0.009374 -1235960.000000 1 0 0
-4.521033 -14.507931 10.026830 18.205963 1.268709 0.987541 0.005487 -0.010700 -399507.000000 1 0 0
-0.321433 -12.236431 -9.933870 15.764369 1.544534 2.252539 0.006441 -0.002119 245334.000000 1 0 0
2.329167 -17.202331 6.661230 18.593471 -1.436216 1.204397 0.028940 -0.015017 -671754.000000 1 0 0
-2.747133 -19.191831 -3.295070 19.665467 1.428621 1.739147 0.017985 -0.018187 158817.000000 1 0 0
0.607967 -15.432631 -3.129870 15.758547 -1.531422 1.770740 0.013250 -0.010010 -806484.000000 1 0 0
6.103567 -17.964631 0.681830 18.985425 -1.243278 1.534875 0.037425 -0.011414 -67325.100000 1 0 0
-7.147733 -16.653631 3.772730 18.511267 1.165374 1.365551 0.000614 0.000015 379106.000000 1 0 0
-5.197133 -13.601631 -9.472870 17.370948 1.205819 2.147577 0.008381 -0.010202 563556.000000 1 0 0
5.661367 -15.151031 -2.208470 16.324281 -1.213199 1.706500 0.022824 -0.005929 -816056.000000 1 0 0
-8.857133 -10.301231 -0.696270 13.603270 0.860633 1.622003 0.003945 -0.001441 893521.000000 1 0 0
-7.432233 -17.953931 -3.003870 19.662272 1.178313 1.724170 0.016189 -0.019156 -77423.200000 1 0 0
7.895867 -16.055731 -1.187670 17.931586 -1.113747 1.637078 0.029778 -0.001401 -119226.000000 1 0 0
-8.092033 -10.199231 -9.489170 16.110545 0.900095 2.200622 0.012457 -0.012036 -1428370.000000 1 0 0
-9.127733 -15.007231 -7.071970 18.935291 1.024353 1.953555 0.026996 -0.017084 -584507.000000 1 0 0
-11.409133 -10.626631 -12.005370 19.677970 0.749903 2.226973 0.035046 -0.006264 11553.100000 1 0 0
6.556467 -16.198531 2.454530 17.646653 -1.186196 1.431251 0.030647 -0.010401 -189058.000000 1 0 0
-2.290733 -11.171731 -6.053870 12.911405 1.368552 2.058816 0.005987 -0.005468 163632.000000 1 0 0
-12.190533 -15.344031 -3.371470 19.885049 0.899430 1.741167 0.022587 -0.002770 -131339.000000 1 0 0
-0.163533 -19.391831 -2.671270 19.575636 1.562363 1.707682 0.032433 -0.031941 -532501.000000 1 0 0
-5.838433 -15.628731 -4.745770 17.345514 1.213279 1.847932 0.004300 -0.011431 -2464690.000000 1 0 0
1.919667 -16.071231 -1.029470 16.218181 -1.451912 1.634315 0.018696 -0.012173 1115460.000000 1 0 0
-13.310033 -11.901731 5.163430 18.586801 0.729597 1.289292 0.021645 -0.006273 512722.000000 1 0 0
2.159167 -15.265931 -8.868370 17.786473 -1.430291 2.092782 0.011502 0.003988 1244150.000000 1 0 0
-11.809133 -16.674531 0.441730 20.437483 0.954579 1.549181 0.040349 0.002921 649551.000000 1 0 0
-7.863333 -16.360031 -1.026470 18.180656 1.122754 1.627286 0.009167 -0.002598 206813.000000 1 0 0
-3.034733 -14.495731 -1.851670 14.925297 1.364423 1.695179 0.006036 -0.007804 141505.000000 1 0 0
-1.690333 -10.464531 -13.269970 16.983985 1.410650 2.467578 0.004882 -0.001612 -231223.000000 1 0 0
1.371267 -19.442131 4.781030 20.068260 -1.500382 1.330245 0.033889 -0.021571 -56073.300000 1 0 0
-17.361533 -9.498831 2.410630 19.936443 0.500629 1.449584 0.013802 -0.004769 -164544.000000 1 0 0
-2.737433 -15.652131 -8.057070 17.815699 1.397655 2.040078 0.010306 -0.008316 -1055440.000000 1 0 0
-10.458233 -12.158331 0.023830 16.037463 0.860428 1.569310 0.005937 0.002511 163679.000000 1 0 0
-6.910133 -11.428131 -6.637070 14.913176 1.026957 2.032024 0.008993 -0.012594 330571.000000 1 0 0
-2.170933 -13.628631 -6.668270 15.327047 1.412831 2.020907 -0.001147 -0.005372 973755.000000 1 0 0
-14.403433 -14.511531 -1.029470 20.472011 0.789137 1.621104 0.045288 0.007659 11529.100000 1 0 0
-9.581633 -11.324531 -4.475770 15.494683 0.868573 1.863831 0.014549 -0.009849 537106.000000 1 0 0
9.536367 -15.150031 -5.128470 18.621679 -1.008995 1.849805 0.021607 -0.003693 303693.000000 1 0 0
-5.643933 -10.934531 -9.413070 15.492703 1.094307 2.223808 0.007339 -0.009178 -1181560.000000 1 0 0
-10.430233 -16.056431 -5.084870 19.810468 0.994703 1.830378 0.027957 -0.009454 -1359680.000000 1 0 0
2.211867 -17.380131 -3.259870 17.821000 -1.444213 1.754755 0.021838 -0.015251 218470.000000 1 0 0
-0.282833 -14.476731 -8.132170 16.606864 1.551262 2.082527 0.006153 -0.004087 -92319.100000 1 0 0
-0.815833 -18.264731 -7.090870 19.609855 1.526159 1.940777 0.015089 -0.010192 266850.000000 1 0 0
-1.674933 -10.068031 -10.576970 14.698399 1.405945 2.374023 0.004930 -0.003988 329782.000000 1 0 0
-5.276933 -17.378131 1.936030 18.264547 1.275991 1.464597 0.008991 -0.002736 -71492.000000 1 0 0
0.226067 -12.870131 -2.719270 13.156208 -1.553233 1.778988 0.005713 -0.004079 -1334610.000000 1 0 0
2.573667 -14.931831 3.023030 15.450632 -1.400112 1.373869 0.020817 -0.008185 -867927.000000 1 0 0
-9.444833 -13.105231 6.720030 17.496021 0.946318 1.176575 0.001719 -0.012248 -886372.000000 1 0 0
-0.956833 -17.701831 -4.464170 18.281115 1.516796 1.817487 0.017504 -0.020515 -356100.000000 1 0 0
-9.861833 -17.508531 -2.088270 20.203101 1.057831 1.674345 0.034417 -0.008360 848236.000000 1 0 0
1.277667 -16.040531 1.413430 16.153292 -1.491312 1.483183 0.018251 -0.015369 -57634.600000 1 0 0
-0.590933 -18.007731 3.919430 18.438804 1.537993 1.356598 0.032697 -0.019389 1181260.000000 1 0 0
-17.386933 -9.203031 -0.176870 19.673142 0.486818 1.579787 0.004982 -0.004918 984498.000000 1 0 0
-14.789533 -7.386831 -10.657970 19.669466 0.463218 2.143437 0.055253 -0.014869 766948.000000 1 0 0
2.905367 -12.715631 -8.997170 15.845425 -1.346165 2.174638 0.002737 0.001065 634044.000000 1 0 0
-11.713433 -14.379731 1.738530 18.628034 0.887228 1.477332 0.018969 0.000570 143189.000000 1 0 0
-2.186433 -15.667931 10.454530 18.962113 1.432143 0.986829 0.008794 -0.007300 -499489.000000 1 0 0
-7.107533 -15.766631 1.306630 17.343902 1.147281 1.495388 -0.000892 0.002405 -1868030.000000 1 0 0
-12.641433 -15.075531 -5.892070 20.537623 0.872993 1.861777 0.030683 -0.015261 -589223.000000 1 0 0
0.985967 -13.799531 -5.066870 14.733376 -1.499468 1.921868 0.009435 -0.006406 434541.000000 1 0 0
5.893067 -16.497731 -7.259170 18.963093 -1.227718 1.963627 0.025077 -0.007775 277877.000000 1 0 0
-6.681533 -12.873431 5.865230 15.645096 1.092051 1.186515 0.003485 -0.006852 -357490.000000 1 0 0
-2.607533 -13.678031 0.483730 13.932758 1.382420 1.536070 0.011888 -0.006705 -238968.000000 1 0 0
-4.408033 -15.577531 0.087930 16.189439 1.295032 1.565365 0.005637 -0.005935 265360.000000 1 0 0
-17.663433 -7.557431 -2.118470 19.328723 0.404288 1.680619 0.005407 -0.004145 -10548.600000 1 0 0
1.247867 -12.755531 -11.951870 17.524495 -1.473277 2.321303 0.002508 0.005024 324366.000000 1 0 0
1.253167 -17.241931 -5.777770 18.227376 -1.498243 1.893343 0.019186 -0.008055 -1426300.000000 1 0 0
-12.756033 -6.467731 -9.175070 16.992052 0.469258 2.141189 0.028812 -0.004344 232484.000000 1 0 0
-11.641233 -13.490331 -8.664570 19.813685 0.858843 2.023393 0.037296 -0.026951 190138.000000 1 0 0
-4.342933 -9.983631 3.512530 11.439922 1.160482 1.258714 0.005974 -0.005546 -4688540.000000 1 0 0
-7.016233 -14.278131 9.511530 18.535419 1.114055 1.031940 0.001241 -0.019204 -1647230.000000 1 0 0
-5.323833 -15.785031 -7.796370 18.392764 1.245506 2.008524 0.014619 -0.024396 -2080800.000000 1 0 0
-0.397933 -13.522731 2.044630 13.682219 1.541378 1.420797 0.013932 -0.006376 361102.000000 1 0 0
-10.966333 -13.472031 -4.779570 18.016669 0.887572 1.839297 0.024653 -0.010458 -1288970.000000 1 0 0
-9.767233 -10.560631 6.512230 15.790342 0.824408 1.145689 0.013004 -0.009316 -167578.000000 1 0 0
-15.619333 -8.240631 -5.041470 18.365402 0.485477 1.848876 0.030026 -0.008289 1362690.000000 1 0 0
-14.632933 -7.236431 5.424330 17.202093 0.459262 1.249992 0.017637 -0.003555 -156309.000000 1 0 0
-1.703133 -19.429431 0.059030 19.504023 1.483362 1.567770 0.025691 -0.012105 -442022.000000 1 0 0
-15.397633 -12.110531 -1.507370 19.647499 0.666467 1.647593 0.024223 0.001985 495989.000000 1 0 0
-4.426333 -12.214931 -6.791470 14.660185 1.223144 2.052466 0.004063 -0.008517 -536502.000000 1 0 0
-7.783633 -18.220031 1.901030 19.903979 1.167062 1.475140 0.012560 0.000839 -131718.000000 1 0 0
-2.509633 -11.768631 -8.608670 14.795544 1.360696 2.191788 0.002889 -0.003481 511824.000000 1 0 0
-0.923033 -20.239631 -4.957770 20.858431 1.525223 1.810780 0.025083 -0.016775 -228241.000000 1 0 0
-5.241833 -8.838431 -13.760670 17.174129 1.035486 2.500168 0.007716 -0.008905 505010.000000 1 0 0
-8.206033 -19.049131 -0.751170 20.755062 1.164038 1.606996 0.007634 0.004085 206958.000000 1 0 0
-17.116633 -7.169931 5.760230 19.431091 0.396681 1.269829 0.031635 -0.004707 -326650.000000 1 0 0
-3.602533 -14.651631 -4.283170 15.684198 1.329700 1.847398 0.003756 -0.010908 -2616500.000000 1 0 0
-3.083733 -14.964431 -11.002270 18.827999 1.367570 2.194884 0.014838 -0.004838 -214427.000000 1 0 0
-0.150533 -16.774831 6.202030 17.885267 1.561823 1.216674 0.035030 -0.013888 -1214560.000000 1 0 0
-11.186633 -11.535931 3.721830 16.494559 0.800769 1.343197 0.010207 -0.001718 223057.000000 1 0 0
-0.324133 -14.778431 -0.261370 14.784295 1.548867 1.588476 0.008546 -0.005366 522413.000000 1 0 0
-7.220133 -9.402131 -2.592770 12.134778 0.915921 1.786121 0.010947 -0.002799 -782203.000000 1 0 0
-11.295533 -14.474631 -0.820470 18.378715 0.908142 1.615454 0.019412 0.003153 -78370.900000 1 0 0
0.255067 -14.668731 -10.651870 18.130060 -1.553410 2.198794 0.006208 0.000760 151421.000000 1 0 0
-1.430833 -14.088031 -3.959370 14.703622 1.469580 1.843440 0.004507 -0.007148 -3844340.000000 1 0 0
-11.338433 -8.075431 -7.693570 15.904832 0.618879 2.075703 0.019665 -0.009792 689593.000000 1 0 0
-0.274233 -17.309831 -0.084070 17.312207 1.554955 1.575652 0.017918 -0.017167 129291.000000 1 0 0
-12.868633 -9.419131 4.492930 16.568288 0.631845 1.296181 0.008052 -0.002471 517477.000000 1 0 0
3.964867 -16.816331 1.555130 17.347264 -1.339250 1.481029 0.026655 -0.015358 2406100.000000 1 0 0
-4.028533 -17.871831 -8.032670 20.003880 1.349089 1.984011 0.021584 -0.017046 74012.600000 1 0 0
-13.399033 -11.179031 2.596530 17.642188 0.695318 1.423082 0.007640 0.000484 -357484.000000 1 0 0
-8.598933 -12.062631 4.066830 15.361895 0.951493 1.302867 0.005769 -0.006498 968317.000000 1 0 0
-8.279833 -9.413631 -5.872370 13.844017 0.849391 2.008854 0.012400 -0.009577 809829.000000 1 0 0
3.861067 -17.641731 -5.283770 18.816395 -1.355334 1.855431 0.010917 0.001864 219875.000000 1 0 0
-2.658833 -13.106031 11.205030 17.446780 1.370642 0.873379 0.006198 -0.010854 -7994.030000 1 0 0
0.088367 -16.792831 -9.366170 19.228420 -1.565534 2.079563 0.014962 -0.003055 -355082.000000 1 0 0
-7.040433 -10.654631 -14.598470 19.395984 0.986876 2.422880 0.022532 -0.003542 -1798670.000000 1 0 0
-4.646233 -18.964631 -1.549670 19.586888 1.330534 1.649997 0.019395 -0.010803 -245786.000000 1 0 0
-2.673833 -17.262131 1.130030 17.504500 1.417122 1.506195 0.022087 -0.014173 716733.000000 1 0 0
4.110767 -14.569731 -7.569470 16.925494 -1.295800 2.034454 0.013753 -0.002278 -810090.000000 1 0 0
-0.934033 -15.887631 -6.197770 17.079274 1.512074 1.942156 0.008268 -0.008635 -171105.000000 1 0 0
-9.484933 -15.205231 8.448130 19.812468 1.013065 1.130282 0.003960 -0.013279 -685482.000000 1 0 0
-7.158033 -11.951731 -1.949070 14.066989 1.031177 1.709800 0.002497 -0.001439 906027.000000 1 0 0
-7.250933 -15.284331 -9.378970 19.343006 1.127835 2.077018 0.019271 -0.012073 -145805.000000 1 0 0
-5.079833 -13.192031 -0.643270 14.150907 1.203228 1.616270 0.003794 -0.003117 3552500.000000 1 0 0
-6.589233 -13.689831 -7.370670 16.886570 1.122201 2.022480 0.012543 -0.014026 -102293.000000 1 0 0
5.724567 -15.474531 0.205830 16.500731 -1.216474 1.558322 0.023430 -0.005961 460715.000000 1 0 0
-14.405233 -12.737331 0.909130 19.250373 0.724026 1.523552 0.006543 0.002532 799068.000000 1 0 0
0.915967 -15.314831 11.113930 18.944721 -1.511058 0.943880 0.030410 -0.011837 16398.400000 1 0 0
-9.298733 -10.721531 1.822830 14.308751 0.856347 1.443057 0.003743 -0.000238 347922.000000 1 0 0
-9.397133 -8.731931 -3.606570 13.325167 0.748722 1.844873 0.013988 -0.006363 -858975.000000 1 0 0
-12.016933 -7.380831 -12.264370 18.689519 0.550797 2.286590 0.037763 -0.011642 -1103220.000000 1 0 0
-13.301733 -8.302831 -0.754370 15.698477 0.558018 1.618869 0.005600 -0.004981 -743282.000000 1 0 0
-11.250533 -9.678631 0.272730 14.843341 0.710433 1.552421 0.001880 0.001823 1063900.000000 1 0 0
-15.824133 -12.051931 2.957630 20.109694 0.650895 1.423186 0.028474 0.000455 -51874.500000 1 0 0
-10.407433 -12.638231 -2.426570 16.550764 0.881897 1.717941 0.017380 -0.005687 1029080.000000 1 0 0
-3.283833 -8.882131 -12.016270 15.299234 1.216669 2.474165 0.001428 -0.004637 -1750430.000000 1 0 0
-0.335833 -15.574231 3.875330 16.052652 1.549236 1.326974 0.025590 -0.013450 -901848.000000 1 0 0
-15.682433 -7.707731 1.115130 17.509750 0.456815 1.507067 -0.003420 -0.001916 721654.000000 1 0 0
-6.087933 -13.425031 -13.301570 19.855129 1.145055 2.304912 0.024512 -0.008708 148899.000000 1 0 0
-15.296633 -10.267131 1.050530 18.452766 0.591136 1.513835 0.006538 -0.001366 163745.000000 1 0 0
-9.735333 -8.518331 -12.449970 17.953842 0.718825 2.337053 0.010251 -0.011560 744402.000000 1 0 0
-13.346433 -11.788031 -6.269470 18.878326 0.723475 1.909324 0.031790 -0.010778 -5022.550000 1 0 0
-12.176933 -11.456431 -3.867070 17.160470 0.754921 1.798096 0.013726 -0.006103 -1463060.000000 1 0 0
-11.619533 -10.941931 -8.968070 18.307531 0.755374 2.082722 0.029527 -0.028564 -187298.000000 1 0 0
-13.229133 -8.463731 -5.912470 16.781001 0.569157 1.930857 0.022437 -0.012605 -1660470.000000 1 0 0
-13.545533 -7.951631 -3.365570 16.063529 0.530828 1.781877 0.014272 -0.008922 492571.000000 1 0 0
-4.352033 -17.060031 -3.230870 17.900373 1.321022 1.752283 0.008393 -0.012342 -222717.000000 1 0 0
-15.485033 -8.889031 -1.920070 17.957945 0.521113 1.677921 0.015460 -0.004888 -2374610.000000 1 0 0
-9.602133 -15.683331 3.708430 18.759538 1.021417 1.371803 0.010792 0.004652 -316525.000000 1 0 0
4.590267 -17.295831 7.963330 19.586499 -1.311379 1.152097 0.042546 -0.020738 232005.000000 1 0 0
-8.386033 -15.494631 5.990430 18.608987 1.074718 1.243050 0.003543 -0.001213 213034.000000 1 0 0
0.772167 -16.033431 8.512630 18.169535 -1.522674 1.083192 0.024399 -0.011649 670079.000000 1 0 0
-10.696433 -7.809231 -10.205270 16.719608 0.630629 2.227333 0.021764 -0.010746 900992.000000 1 0 0
-4.900533 -16.020431 5.772430 17.719773 1.273942 1.238979 0.005391 -0.007546 -158396.000000 1 0 0
-1.319333 -13.141331 -12.153870 17.948587 1.470736 2.314678 0.004072 -0.000239 -54003.600000 1 0 0
-6.553733 -14.364431 -2.554870 15.994238 1.142759 1.731220 0.006390 -0.007904 355158.000000 1 0 0
-17.581633 -7.117431 -7.130170 20.263538 0.384656 1.930367 0.038875 -0.014743 31423.300000 1 0 0
-17.314033 -4.016631 -10.173970 20.479715 0.227955 2.090684 0.053411 -0.015835 781765.000000 1 0 0
-15.217333 -5.345631 -9.181270 18.559060 0.337820 2.088292 0.030524 -0.011373 -89125.900000 1 0 0
-16.082433 -5.522331 -5.586070 17.898183 0.330762 1.888202 0.024327 -0.009820 598079.000000 1 0 0
-15.199733 -4.357631 -12.418870 20.105949 0.279203 2.236575 0.050903 -0.005857 -36815.400000 1 0 0
-18.689233 -5.328431 -5.596170 20.223668 0.277738 1.851169 0.037417 -0.013687 374977.000000 1 0 0
-17.395033 -4.601731 -7.730770 19.583869 0.258618 1.976594 0.036956 -0.011306 799488.000000 1 0 0
12.284367 -7.784531 8.763630 16.979570 -0.564827 1.028472 0.042054 -0.014932 230794.000000 1 0 0
16.082867 -3.303131 1.780530 16.514829 -0.202565 1.462772 0.037285 -0.015675 -1358.280000 1 0 0
12.039767 -2.191531 12.434230 17.446170 -0.180053 0.777428 0.046483 -0.009374 641050.000000 1 0 0
9.715167 -10.026631 5.247730 14.914974 -0.801174 1.211257 0.011640 -0.007934 -107426.000000 1 0 0
17.064667 -2.164231 7.066030 18.596116 -0.126152 1.181029 0.072765 -0.021020 508151.000000 1 0 0
4.939167 -12.833631 9.076030 16.476400 -1.203408 0.987414 0.013776 -0.003997 2555.470000 1 0 0
15.160767 -8.952231 -2.189770 17.742220 -0.533395 1.694533 0.024573 0.000335 452454.000000 1 0 0
11.088067 -8.413431 6.495230 15.359657 -0.649098 1.134180 0.019989 -0.011440 -2726940.000000 1 0 0
20.248767 -2.866531 3.480430 20.744709 -0.140631 1.402225 0.079170 -0.023558 779738.000000 1 0 0
13.619067 -8.379131 6.698930 17.336795 -0.551557 1.174072 0.045311 -0.015840 -403996.000000 1 0 0
8.310767 -11.046331 8.943030 16.464144 -0.925789 0.996574 0.004987 -0.006269 -1710300.000000 1 0 0
16.926667 0.135369 -0.586970 16.937382 0.007997 1.605459 0.026920 -0.010055 -715887.000000 1 0 0
12.422567 -12.374831 2.421430 17.700845 -0.783473 1.433569 0.028169 -0.007527 -1465410.000000 1 0 0
10.294367 -11.717731 3.685130 16.026833 -0.849971 1.338785 0.020006 -0.007774 -1070420.000000 1 0 0
16.331867 3.046569 2.472530 16.796573 0.184422 1.423055 0.029214 -0.012062 136884.000000 1 0 0
18.299267 -3.211131 0.321630 18.581657 -0.173710 1.553486 0.039161 -0.013554 1096410.000000 1 0 0
13.525767 -11.600631 -0.065870 17.819241 -0.708929 1.574493 0.035489 0.002090 -349436.000000 1 0 0
16.961267 -7.545031 -0.813270 18.581536 -0.418554 1.614578 0.037067 -0.003435 302698.000000 1 0 0
10.115467 -5.815631 9.774530 15.221224 -0.521778 0.873478 0.020471 -0.005980 -981029.000000 1 0 0
11.235267 -13.018231 6.157430 18.265254 -0.858780 1.226949 0.031841 -0.013205 1019020.000000 1 0 0
13.040667 -1.672931 10.189730 16.633950 -0.127589 0.911468 0.046966 -0.013786 1567090.000000 1 0 0
15.621867 -1.982631 -1.412470 15.810396 -0.126239 1.660254 0.018359 -0.009052 1163460.000000 1 0 0
10.525167 -12.467231 9.045830 18.655777 -0.869664 1.064569 0.033229 -0.016324 -70132.300000 1 0 0
14.574467 1.238369 3.313030 14.997494 0.084765 1.348053 0.028741 -0.013911 499009.000000 1 0 0
14.821567 -5.851231 5.110030 16.734042 -0.375997 1.260472 0.044764 -0.017030 -393204.000000 1 0 0
14.355167 -3.400731 -2.962770 15.047053 -0.232611 1.768992 0.017793 -0.003037 1423280.000000 1 0 0
14.191767 0.617969 9.490530 17.083860 0.043517 0.981801 0.050770 -0.015597 908081.000000 1 0 0
15.568267 -3.405631 4.380030 16.527369 -0.215362 1.302575 0.045008 -0.016999 -238347.000000 1 0 0
18.443067 5.048869 -4.167070 19.570444 0.267208 1.785366 0.010883 -0.007365 506260.000000 1 0 0
17.959867 -5.719531 -5.091870 19.524267 -0.308307 1.834644 0.040650 -0.008106 615177.000000 1 0 0
17.423067 0.013269 5.812130 18.366935 0.000762 1.248816 0.064722 -0.017444 1101440.000000 1 0 0
17.116267 -6.633031 3.959630 18.778774 -0.369709 1.358345 0.064665 -0.017886 152988.000000 1 0 0
9.736267 -6.659731 14.154330 18.425307 -0.599915 0.694771 0.036020 -0.005981 -621606.000000 1 0 0
8.546867 -12.296531 5.230730 15.862350 -0.963391 1.234750 0.013325 -0.009730 -2606920.000000 1 0 0
16.921967 -10.170131 -0.533070 19.750157 -0.541156 1.597790 0.044759 0.004674 866630.000000 1 0 0
15.009667 -8.698131 0.350930 17.351390 -0.525211 1.550570 0.038199 -0.003765 -71601.500000 1 0 0
10.001667 -12.925931 1.556230 16.417517 -0.912257 1.475863 0.026371 -0.007407 177155.000000 1 0 0
16.898367 -8.288831 8.702930 20.736454 -0.456027 1.137690 0.066155 -0.017162 126778.000000 1 0 0
19.196467 -0.027931 -1.929970 19.293261 -0.001455 1.670997 0.050680 -0.014357 365577.000000 1 0 0
13.339467 -1.157731 7.636930 15.414422 -0.086573 1.052454 0.032645 -0.017234 61061.700000 1 0 0
12.814667 -9.793031 -3.082170 16.420077 -0.652530 1.759624 0.020540 0.002158 -1314760.000000 1 0 0
8.787167 -15.191531 1.481530 17.612264 -1.046392 1.486578 0.032202 -0.005395 167843.000000 1 0 0
11.341167 -8.232231 11.069030 17.858194 -0.627879 0.902271 0.035660 -0.013007 -713138.000000 1 0 0
13.910367 -3.869931 -0.373070 14.443471 -0.271343 1.596629 0.020845 -0.007585 -711918.000000 1 0 0
7.093067 -13.400331 10.401830 18.386912 -1.083969 0.969491 0.016733 -0.002790 -301981.000000 1 0 0
15.492367 -6.624531 1.897330 16.955757 -0.404071 1.458663 0.034333 -0.009367 -440723.000000 1 0 0
15.741867 -6.037931 -2.641370 17.065750 -0.366253 1.726197 0.035070 -0.002427 494954.000000 1 0 0
11.197267 -8.501031 3.866830 14.580764 -0.649367 1.302384 0.015192 -0.008531 816313.000000 1 0 0
10.637067 -14.477831 -0.376670 17.969325 -0.937150 1.591760 0.043280 -0.005040 760322.000000 1 0 0
13.421567 -12.829631 4.753930 19.166057 -0.762853 1.320141 0.033969 -0.007713 423293.000000 1 0 0
12.799167 -10.875331 6.381030 17.966887 -0.704314 1.207716 0.034571 -0.013500 -398131.000000 1 0 0
10.890967 -10.542531 1.437930 15.225825 -0.769143 1.476215 0.018717 -0.005648 326635.000000 1 0 0
13.773167 -7.465831 11.766130 19.592870 -0.496724 0.926631 0.055199 -0.019440 1166470.000000 1 0 0
15.341867 -1.761831 -4.811870 16.175012 -0.114337 1.872857 0.024300 -0.000381 32305.000000 1 0 0
12.930567 -11.500231 -7.058470 18.688951 -0.726918 1.958087 0.029618 -0.004583 808476.000000 1 0 0
17.762067 -5.307131 1.894830 18.634566 -0.290346 1.468937 0.062846 -0.014929 394830.000000 1 0 0
10.667567 -9.843231 9.031730 17.095564 -0.745229 1.014189 0.022147 -0.009507 -1003500.000000 1 0 0
16.457667 1.990969 9.888130 19.302691 0.120390 1.032974 0.069257 -0.016784 131927.000000 1 0 0
18.169667 3.731169 0.680930 18.561306 0.202536 1.534103 0.024326 -0.015251 446896.000000 1 0 0
13.389967 -3.898331 5.761230 15.089068 -0.283307 1.179037 0.031693 -0.016043 -364899.000000 1 0 0
12.027167 -6.060731 6.742030 15.061214 -0.466779 1.106670 0.025154 -0.010365 -24091.600000 1 0 0
16.729167 -10.341331 3.631830 19.999958 -0.553667 1.388191 0.045154 -0.002375 855777.000000 1 0 0
16.306667 -8.253731 -5.614270 19.119401 -0.468561 1.868832 0.047147 -0.001416 198067.000000 1 0 0
14.014567 -0.447031 5.348630 15.007190 -0.031887 1.206380 0.030250 -0.014184 357396.000000 1 0 0
18.537267 -4.315231 4.814730 19.632450 -0.228714 1.323026 0.087841 -0.022810 68312.100000 1 0 0
13.660967 -13.232831 7.248030 20.353471 -0.769480 1.206697 0.054351 -0.013304 505574.000000 1 0 0
14.972467 -13.583931 -0.786570 20.231575 -0.736812 1.609684 0.035566 0.002238 175784.000000 1 0 0
17.738367 -5.933731 7.936030 20.318449 -0.322813 1.169532 0.070133 -0.014798 -1895380.000000 1 0 0
14.358067 3.304869 9.187830 17.363538 0.226235 1.013204 0.047492 -0.015998 -37724.300000 1 0 0
18.766467 4.020769 3.179030 19.453871 0.211062 1.406646 0.044174 -0.015630 629916.000000 1 0 0
14.669067 -10.349631 8.099130 19.694981 -0.614435 1.146995 0.039984 -0.018326 -532762.000000 1 0 0
14.833467 -4.819631 10.331630 18.708371 -0.314156 0.985740 0.065524 -0.017878 314808.000000 1 0 0
17.864867 -7.921331 2.005730 19.644946 -0.417354 1.468519 0.069743 -0.011960 -304131.000000 1 0 0
18.365667 -5.815331 -1.992670 19.367151 -0.306653 1.673868 0.036058 -0.006858 734132.000000 1 0 0
14.317367 -12.980631 -5.377470 20.059934 -0.736469 1.842186 0.042496 -0.006019 683994.000000 1 0 0
15.443067 -1.495731 9.100130 17.987159 -0.096553 1.040344 0.077614 -0.024767 1240980.000000 1 0 0
12.993667 -9.911831 10.203030 19.266073 -0.651656 1.012685 0.041508 -0.018716 -982856.000000 1 0 0
16.617767 2.115069 4.812830 17.429487 0.126597 1.291030 0.044718 -0.016043 -549591.000000 1 0 0
14.989967 2.491069 0.039130 15.195594 0.164678 1.568221 0.014791 -0.006917 -1166720.000000 1 0 0
15.077767 -9.993831 -7.017270 19.402520 -0.585334 1.940853 0.044564 -0.005623 1093060.000000 1 0 0
16.027367 0.040569 -3.099070 16.324288 0.002531 1.761800 0.013891 -0.001579 217553.000000 1 0 0
12.053467 2.547469 13.412530 18.211854 0.208282 0.742955 0.042916 -0.007583 -358041.000000 1 0 0
17.589967 -2.990231 9.500930 20.214254 -0.168387 1.081493 0.065397 -0.020884 -167046.000000 1 0 0
7.833967 -18.125231 4.347730 20.218748 -1.162832 1.354069 0.046559 -0.020053 -82755.400000 1 0 0
6.798167 -11.213631 6.714030 14.732236 -1.025800 1.097596 0.007982 -0.007791 -21416.100000 1 0 0
17.967167 2.315169 -1.487770 18.176704 0.128149 1.652738 0.022006 -0.008641 485407.000000 1 0 0
17.688967 -2.168131 3.496730 18.161153 -0.121961 1.377047 0.052856 -0.016433 -994031.000000 1 0 0
12.625867 -13.383931 -1.919270 18.499344 -0.814535 1.674731 0.034236 0.001939 404426.000000 1 0 0
15.207267 -8.265831 4.206430 17.812327 -0.497874 1.332392 0.041421 -0.012411 -354430.000000 1 0 0
11.767367 -3.392131 14.680530 19.117935 -0.280657 0.695251 0.049454 -0.008136 244812.000000 1 0 0
11.982967 -13.827331 -6.396470 19.383018 -0.856735 1.907104 0.012713 -0.008447 182442.000000 1 0 0
10.677467 -12.021731 -1.107470 16.116972 -0.844550 1.639565 0.029579 -0.002153 -881292.000000 1 0 0
13.227667 -7.854931 2.178630 15.537617 -0.535867 1.430116 0.023512 -0.007851 -618307.000000 1 0 0
8.636067 -7.909631 10.040430 15.425762 -0.741521 0.862044 0.004786 -0.006362 -1278380.000000 1 0 0
15.584167 -3.839431 8.050830 17.956151 -0.241557 1.105866 0.072131 -0.023125 -1531690.000000 1 0 0
10.068267 -17.265431 5.441130 20.714029 -1.042862 1.304999 0.041592 -0.012435 -255133.000000 1 0 0
15.249667 -6.355331 8.259630 18.470627 -0.394864 1.107190 0.063917 -0.014936 -841251.000000 1 0 0
16.519567 -4.975731 -0.317870 17.255580 -0.292559 1.589219 0.022397 -0.010174 -721353.000000 1 0 0
14.108767 -10.507531 3.488930 17.934273 -0.640134 1.375008 0.037559 -0.007994 -143.311000 1 0 0
14.912667 -10.110131 -4.458970 18.560302 -0.595778 1.813412 0.039283 -0.003095 -83490.100000 1 0 0
13.696967 -6.477831 0.022430 15.151558 -0.441765 1.569316 0.020848 -0.005741 264846.000000 1 0 0
17.847667 -0.770331 -4.597270 18.446342 -0.043135 1.822675 0.039678 -0.007621 272682.000000 1 0 0
14.399467 0.239869 -1.348470 14.464458 0.016657 1.664158 0.016610 -0.003063 -1291740.000000 1 0 0
4.795967 -12.983431 11.705130 18.126799 -1.216952 0.868809 0.011922 -0.000630 -469167.000000 1 0 0
11.944667 -7.677231 13.559030 19.633192 -0.571250 0.808454 0.039127 -0.007403 -155061.000000 1 0 0
11.810367 -5.697431 11.727830 17.592256 -0.449476 0.841095 0.038674 -0.006982 -926776.000000 1 0 0
13.225067 -4.567231 8.311730 16.274116 -0.332523 1.034759 0.043471 -0.016706 -207184.000000 1 0 0
15.524567 -1.091331 3.179430 15.884330 -0.070182 1.369274 0.037524 -0.014125 504306.000000 1 0 0
15.233967 -10.317031 5.786830 19.287360 -0.595286 1.266070 0.044641 -0.013026 -506172.000000 1 0 0
13.726067 -8.095731 -5.905970 16.994889 -0.532891 1.925715 0.034715 -0.003195 -178597.000000 1 0 0
9.655467 -2.324931 13.563030 16.810387 -0.236291 0.632039 0.025045 -0.002241 -1606470.000000 1 0 0
9.794767 -9.290431 13.534730 19.116445 -0.758979 0.784113 0.041626 -0.007908 232841.000000 1 0 0
20.305567 6.363069 -2.889570 21.474504 0.303673 1.705764 0.049189 -0.016965 -204380.000000 1 0 0
11.090567 -3.542631 10.456830 15.649160 -0.309183 0.839004 0.026876 -0.007200 815233.000000 1 0 0
10.188967 -14.014731 -2.911670 17.570018 -0.942166 1.737282 0.021867 -0.001420 1230340.000000 1 0 0
14.934367 -12.895331 2.742230 19.920961 -0.712260 1.432702 0.036393 0.005505 605426.000000 1 0 0
11.489267 -0.734631 14.396430 18.433668 -0.063854 0.674554 0.048986 -0.000470 515368.000000 1 0 0
19.133467 -1.912531 5.636830 20.037993 -0.099626 1.285640 0.079216 -0.022483 986459.000000 1 0 0
19.105067 -0.486231 7.809330 20.645233 -0.025445 1.182877 0.081083 -0.020784 253255.000000 1 0 0
19.204567 0.868369 0.439730 19.229218 0.045186 1.547927 0.053066 -0.020216 306233.000000 1 0 0
18.601567 0.953969 3.617030 18.973963 0.051239 1.378991 0.050097 -0.022030 169531.000000 1 0 0
16.806267 -3.729031 -4.089470 17.694068 -0.218346 1.804026 0.037024 -0.006363 311528.000000 1 0 0
10.862367 -8.467731 15.790230 20.952919 -0.662145 0.717267 0.054772 -0.009520 390830.000000 1 0 0
16.616467 -7.441431 6.297830 19.265112 -0.421052 1.237771 0.062085 -0.015097 493908.000000 1 0 0
19.023567 2.141269 5.836230 20.013563 0.112087 1.274883 0.064401 -0.017096 526945.000000 1 0 0
15.459967 1.679769 7.515930 17.271983 0.108228 1.120590 0.058234 -0.018902 345208.000000 1 0 0
8.653267 -15.664931 3.923630 18.321134 -1.066114 1.354966 0.027035 -0.016010 35115.100000 1 0 0
11.310967 -15.159531 2.141530 19.035112 -0.929777 1.458053 0.037984 -0.000625 283002.000000 1 0 0
7.746367 -16.191731 6.175430 18.981946 -1.124565 1.239434 0.028595 -0.011257 -339342.000000 1 0 0
14.570067 -11.646231 -2.426270 18.809793 -0.674330 1.700146 0.031950 0.001608 663448.000000 1 0 0
13.698167 -4.699231 3.150930 14.820624 -0.330475 1.356557 0.025195 -0.010869 -980401.000000 1 0 0
-1.020433 10.245769 -5.468970 11.658761 -1.471528 2.059053 0.008698 0.000491 -650019.000000 1 0 0
8.257667 -1.775431 -7.944170 11.595303 -0.211780 2.325564 0.001473 0.000139 -1453390.000000 1 0 0
2.887067 -10.261931 7.730030 13.167981 -1.296548 0.943408 0.004417 -0.005027 696465.000000 1 0 0
-6.315233 1.186669 8.260030 10.465106 -0.185740 0.661140 0.002605 -0.000806 -1093890.000000 1 0 0
7.324167 -6.319031 -7.244870 12.085600 -0.711858 2.213626 0.003364 -0.003498 -122425.000000 1 0 0
-11.430533 -4.509731 -4.100570 12.954128 0.375785 1.892882 0.007542 -0.003558 22591.700000 1 0 0
2.127567 -3.173831 2.896630 4.794810 -0.980250 0.922138 0.001044 -0.001757 2406400.000000 1 0 0
-3.680733 -4.242831 8.838230 10.472044 0.856220 0.566130 0.001455 -0.001563 -1994360.000000 1 0 0
-4.909133 -1.002631 -2.345670 5.532362 0.201467 2.008644 0.004534 -0.004170 -795354.000000 1 0 0
4.994167 -5.352431 -3.550870 8.136271 -0.820011 2.022418 0.004027 -0.001715 254986.000000 1 0 0
2.867867 14.465269 -8.791270 17.168434 1.375076 2.108378 0.014434 -0.009562 -508517.000000 1 0 0
5.297967 -5.374131 13.752230 15.686732 -0.792535 0.501881 0.011772 -0.002365 -1200600.000000 1 0 0
-4.815533 -0.819631 9.861730 11.005220 0.168590 0.459903 0.007822 -0.000259 -3299210.000000 1 0 0
-1.001933 11.925469 -2.689970 12.266076 -1.486977 1.791895 0.003906 -0.002265 -235140.000000 1 0 0
3.277567 9.521769 -10.491570 14.542338 1.239282 2.376690 0.009768 -0.002441 128013.000000 1 0 0
-10.764133 2.691869 1.125730 11.152578 -0.245052 1.469685 0.003587 -0.002880 251935.000000 1 0 0
5.603067 -9.095131 -0.718670 10.706645 -1.018658 1.637971 0.001579 -0.002125 411312.000000 1 0 0
-7.020533 5.282169 9.455330 12.907070 -0.645028 0.748707 0.004225 -0.000252 -67776.900000 1 0 0
-5.391433 -1.757231 5.000630 7.560536 0.315073 0.848096 0.004756 -0.006444 901977.000000 1 0 0
6.662667 -3.874731 -7.319570 10.629242 -0.526749 2.330389 0.001970 -0.002654 385495.000000 1 0 0
6.204067 4.794069 10.968230 13.482419 0.657890 0.620615 -0.004513 0.005881 289565.000000 1 0 0
3.680267 -9.847931 3.251130 11.004360 -1.213157 1.270880 0.000113 -0.002297 1250200.000000 1 0 0
-6.558133 6.542369 -5.686670 10.869679 -0.784195 2.121361 0.004623 -0.004404 -671282.000000 1 0 0
-10.921733 8.494569 5.193730 14.778931 -0.661037 1.211700 -0.002648 -0.004814 188227.000000 1 0 0
-9.199633 -5.523931 5.160330 11.906975 0.540751 1.122549 0.004395 -0.004175 -902297.000000 1 0 0
3.449567 9.956369 -8.004270 13.232428 1.237271 2.220434 0.006877 -0.001638 731437.000000 1 0 0
-8.187233 -8.588931 5.980830 13.287996 0.809338 1.103927 0.005895 -0.004630 -1315290.000000 1 0 0
-7.783533 -5.668131 -7.417970 12.154726 0.629416 2.227229 0.008964 -0.004960 -2086340.000000 1 0 0
9.187767 -1.648831 6.980330 11.655844 -0.177569 0.928708 0.009737 -0.010529 1565270.000000 1 0 0
-3.972633 -0.401931 -4.738270 6.196335 0.100832 2.441355 0.007471 -0.006266 -772894.000000 1 0 0
8.990167 1.170769 -4.407770 10.080786 0.129499 2.023329 0.000420 0.004709 -1167130.000000 1 0 0
-1.998633 -10.627231 10.515830 15.083608 1.384901 0.799355 -0.001519 -0.005730 55151.400000 1 0 0
-13.003533 0.252869 -2.664670 13.276155 -0.019444 1.772880 0.008746 -0.003180 -791333.000000 1 0 0
-9.801933 -5.128031 -6.073370 12.619842 0.482008 2.072883 0.011657 -0.003550 -333939.000000 1 0 0
-5.565733 8.212769 -0.174270 9.922567 -0.975199 1.588360 0.000835 -0.000823 725724.000000 1 0 0
6.289267 9.647869 0.370130 11.522728 0.993100 1.538669 0.005214 -0.003345 694129.000000 1 0 0
-0.639833 -12.220531 -0.072670 12.237485 1.518487 1.576735 0.011109 -0.003932 -73139.700000 1 0 0
6.104967 4.686869 2.330130 8.041571 0.654742 1.276820 -0.001192 0.002459 457996.000000 1 0 0
3.493367 -7.499631 -8.251870 11.685095 -1.134877 2.354896 -0.000888 -0.003067 1802490.000000 1 0 0
-6.566233 -9.862431 4.511730 12.678275 0.983406 1.206959 0.004855 -0.003893 -2272640.000000 1 0 0
0.009667 6.651869 -9.239070 11.384546 1.569343 2.517588 0.009255 -0.001786 -1552260.000000 1 0 0
-17.360633 -2.679531 4.128330 18.044793 0.153137 1.339970 0.027004 -0.002906 -22604.200000 1 0 0
-8.288933 0.988469 -9.229670 12.444689 -0.118691 2.406331 0.006966 -0.002146 1150780.000000 1 0 0
-9.882733 -5.880131 -11.929570 16.569822 0.536728 2.374538 0.013682 -0.003854 -516661.000000 1 0 0
2.183367 9.433769 6.435930 11.626878 1.343359 0.984189 -0.007992 0.005177 -212893.000000 1 0 0
-11.410333 1.662669 -1.157070 11.588744 -0.144698 1.670807 0.006582 -0.004159 -1113510.000000 1 0 0
-5.919033 -5.365231 -3.091870 8.566231 0.736360 1.940069 0.015019 -0.003952 760359.000000 1 0 0
-6.932233 -8.332831 1.356830 10.923960 0.876894 1.446268 0.008517 -0.003498 -411583.000000 1 0 0
0.000567 10.964869 -7.813170 13.463803 1.570745 2.189905 0.012395 -0.001102 911399.000000 1 0 0
-2.892233 9.273069 -4.216270 10.589229 -1.268462 1.980313 0.007521 -0.003014 505518.000000 1 0 0
3.373767 -4.755731 9.303730 10.979921 -0.953782 0.559840 0.001315 -0.001958 -1404160.000000 1 0 0
-8.992233 1.580369 -0.466970 9.141985 -0.173972 1.621898 0.006219 -0.004382 -1627910.000000 1 0 0
2.590367 3.482769 -10.446070 11.311944 0.931297 2.747786 0.003774 0.000108 1457090.000000 1 0 0
-13.736133 0.403369 1.069130 13.783581 -0.029357 1.493153 0.010638 -0.003476 -842984.000000 1 0 0
9.458067 -12.621931 -5.095670 16.575102 -0.927720 1.883287 0.019952 -0.001485 -1338820.000000 1 0 0
-4.706333 9.534469 -8.241270 13.452666 -1.112272 2.230158 0.004761 -0.002763 -941511.000000 1 0 0
-2.378833 7.060469 8.431930 11.251956 -1.245819 0.723679 0.000785 0.002038 -176699.000000 1 0 0
-10.692233 -1.326131 -4.406670 11.640499 0.123397 1.959040 0.009414 -0.003020 -2976050.000000 1 0 0
2.693567 -7.179831 9.616830 12.299947 -1.211888 0.673154 -0.001657 -0.000707 -746222.000000 1 0 0
-16.185533 -6.529231 3.363630 17.774036 0.383433 1.380404 0.016997 0.000353 -332429.000000 1 0 0
-10.902033 0.025269 6.255430 12.569223 -0.002318 1.049876 0.002466 -0.002145 -1658790.000000 1 0 0
-8.463433 9.918669 9.369130 16.055849 -0.864399 0.947723 0.001440 -0.007992 -306605.000000 1 0 0
0.194967 -6.154631 -3.804170 7.238039 -1.539129 2.124193 -0.001135 0.002147 812286.000000 1 0 0
4.889267 1.438169 -3.012470 5.920155 0.286080 2.104645 -0.004374 0.004761 -315935.000000 1 0 0
0.261067 5.331469 3.728330 6.511003 1.521868 0.961098 -0.002939 0.004218 -1055210.000000 1 0 0
6.029167 -11.428431 -1.481170 13.005912 -1.085346 1.684928 0.004547 -0.002627 -2414730.000000 1 0 0
6.229267 -13.453831 5.351230 15.762138 -1.137176 1.224412 0.012472 -0.010229 -250325.000000 1 0 0
8.273167 -8.230231 -5.982570 13.113853 -0.782797 2.044519 0.006149 -0.002760 594913.000000 1 0 0
-13.130633 -1.379431 -4.654670 13.999368 0.104670 1.909740 0.008390 0.001100 -3482800.000000 1 0 0
-6.746733 -1.397831 -7.113370 9.903150 0.204296 2.372143 0.013083 -0.004254 -349973.000000 1 0 0
-5.852233 12.921269 -4.583670 14.906974 -1.145521 1.883345 0.001213 0.000758 619021.000000 1 0 0
-4.224233 6.946169 -6.620570 10.484530 -1.024414 2.254232 0.008319 -0.003140 -2960090.000000 1 0 0
-9.311633 -3.645431 -8.112070 12.876388 0.373151 2.252344 0.010371 -0.001678 678317.000000 1 0 0
-2.165833 -6.245231 9.032330 11.192708 1.236977 0.631770 -0.000718 0.001783 -210779.000000 1 0 0
7.420767 -5.997231 10.083130 13.881789 -0.679702 0.757790 0.006752 -0.001473 216294.000000 1 0 0
9.558967 -4.997531 12.245630 16.318842 -0.481729 0.722132 0.023019 -0.003228 -636017.000000 1 0 0
-6.421033 2.802269 -9.081370 11.469685 -0.411504 2.484500 0.004702 -0.004376 -962972.000000 1 0 0
7.348067 5.455269 8.768430 12.674360 0.638625 0.806784 -0.002569 0.002369 -420398.000000 1 0 0
12.673367 3.347869 11.105830 17.180277 0.258266 0.867902 0.040640 -0.006536 42950.000000 1 0 0
-7.475733 -7.206931 -3.865470 11.080086 0.767093 1.927158 0.013994 -0.005558 -1451580.000000 1 0 0
2.371067 1.363569 -5.767470 6.383181 0.521899 2.698761 -0.003906 0.002199 -900218.000000 1 0 0
12.880967 6.944469 -7.053970 16.245106 0.494457 2.019970 0.020100 0.000367 346217.000000 1 0 0
0.750067 -7.633831 1.026730 7.739002 -1.472855 1.437734 0.003795 0.000265 122321.000000 1 0 0
-10.188933 -6.044931 -8.592370 14.635039 0.535467 2.198280 0.012883 -0.002868 63731.000000 1 0 0
-6.752733 0.259969 3.071830 7.423148 -0.038479 1.144153 0.004150 -0.005295 20202.100000 1 0 0
10.753567 -8.008031 1.310630 13.471656 -0.640091 1.473354 0.011029 -0.004250 861911.000000 1 0 0
6.184167 1.039469 10.567330 12.287916 0.166529 0.535571 0.001407 0.000175 -17561.100000 1 0 0
-13.140933 5.422669 1.812130 14.330851 -0.391368 1.444007 0.004881 -0.001420 90480.900000 1 0 0
2.029667 7.366869 3.593330 8.444071 1.301953 1.131233 -0.008557 0.005500 49063.900000 1 0 0
10.046967 -9.503031 -0.816470 13.853366 -0.757583 1.629767 0.010606 -0.000585 908339.000000 1 0 0
6.851667 -11.751131 -9.080170 16.354935 -1.042922 2.159393 0.003516 -0.003423 241262.000000 1 0 0
10.201867 3.537669 11.879830 16.053770 0.333792 0.737722 0.020606 -0.001786 192653.000000 1 0 0
-11.064033 -3.088931 -1.914870 11.645645 0.272254 1.735974 0.006543 -0.001438 -433235.000000 1 0 0
12.386167 1.071569 6.869130 14.203885 0.086299 1.066023 0.021551 -0.013402 699757.000000 1 0 0
-9.493633 8.947069 2.903330 13.364447 -0.755768 1.351807 0.000006 -0.004856 1375540.000000 1 0 0
-6.575333 7.700169 -8.709370 13.355925 -0.864031 2.281145 0.001231 -0.004930 -737929.000000 1 0 0
8.450367 5.510669 12.048730 15.714581 0.577865 0.697076 0.010025 0.000277 -1151620.000000 1 0 0
1.430167 4.844169 -2.737770 5.745149 1.283717 2.067507 -0.003592 0.001031 579623.000000 1 0 0
1.309767 0.447269 9.521830 9.621891 0.329071 0.144343 0.001301 -0.000977 540799.000000 1 0 0
2.652967 12.627269 -3.908070 13.481809 1.363710 1.864895 0.011019 -0.006933 544316.000000 1 0 0
2.026367 0.589369 12.998830 13.169020 0.283042 0.160944 -0.000453 -0.004018 103497.000000 1 0 0
-12.204933 -1.846031 0.815230 12.370643 0.150115 1.504848 0.004726 -0.003246 30433.800000 1 0 0
3.261267 8.764769 -1.256170 9.435836 1.214581 1.704320 0.002163 -0.000432 -10322.300000 1 0 0
3.648567 -2.924431 -5.774370 7.430188 -0.675672 2.460921 -0.002941 -0.000547 -1439140.000000 1 0 0
-7.731433 -7.182031 9.154730 13.970172 0.748575 0.856209 0.004581 -0.005127 -89746.400000 1 0 0
-7.130333 10.932269 -3.596270 13.538439 -0.992856 1.839658 -0.002022 0.001163 -270144.000000 1 0 0
0.377767 0.469569 2.470430 2.542877 0.893319 0.239277 -0.000940 0.000195 -2671070.000000 1 0 0
-7.157733 4.533369 -1.980270 8.700922 -0.564583 1.800402 0.010521 -0.005517 -1378860.000000 1 0 0
-6.752633 -3.835031 -5.989570 9.807164 0.516506 2.227784 0.011311 -0.002507 391550.000000 1 0 0
2.852267 -6.194831 13.430330 15.062706 -1.139305 0.469868 0.002502 -0.002447 -1677660.000000 1 0 0
-5.402533 -0.467431 -11.750670 12.941565 0.086306 2.709232 0.010303 -0.007279 -809779.000000 1 0 0
11.859367 2.443969 -0.506770 12.119174 0.203234 1.612624 0.009124 0.000654 -1155180.000000 1 0 0
5.978967 -11.009831 10.737330 16.500141 -1.073299 0.862236 0.006527 -0.003009 369777.000000 1 0 0
-7.914833 6.280569 -10.324170 14.445713 -0.670777 2.366974 -0.001498 -0.004473 617740.000000 1 0 0
2.862767 7.915769 11.247330 14.048390 1.223778 0.642478 -0.008099 0.007110 950736.000000 1 0 0
-6.232933 -10.138831 -0.480470 11.911179 1.019596 1.611145 0.011872 -0.003048 -833510.000000 1 0 0
11.187067 4.221169 5.971630 13.365220 0.360808 1.107607 0.011380 -0.005708 460080.000000 1 0 0
-7.850733 10.606469 1.347530 13.264503 -0.933607 1.469032 -0.000859 -0.001012 850922.000000 1 0 0
4.313667 -2.748731 -3.483270 6.188410 -0.567335 2.168650 -0.000411 -0.000496 -4881230.000000 1 0 0
6.375567 6.372969 6.235630 10.961098 0.785194 0.965644 -0.003401 0.004691 -5475950.000000 1 0 0
-0.394733 10.363769 -10.174870 14.528989 -1.532727 2.346635 0.007536 -0.001858 198057.000000 1 0 0
14.009367 6.625769 -2.346770 15.673880 0.441777 1.721086 0.012179 0.001498 723226.000000 1 0 0
1.513367 9.579569 -6.178670 11.499321 1.414113 2.138038 0.003539 -0.000145 128137.000000 1 0 0
0.656467 7.312269 7.337530 10.379767 1.481260 0.785681 -0.006840 0.008000 198647.000000 1 0 0
12.238467 6.321869 1.934130 13.909959 0.476806 1.431298 0.004075 -0.002206 -1337310.000000 1 0 0
-6.811033 6.725669 -3.090070 10.058496 -0.779092 1.883056 0.003475 -0.002977 940631.000000 1 0 0
1.009467 9.866669 11.138730 14.914472 1.468840 0.727498 -0.011088 0.004660 -266638.000000 1 0 0
-3.731833 13.628069 -10.799370 17.784185 -1.303514 2.223386 0.003213 -0.004771 -228459.000000 1 0 0
-10.064233 -5.579531 -2.234670 11.722359 0.506209 1.762603 0.008772 -0.004604 410840.000000 1 0 0
-3.944933 3.966369 -12.479970 13.676412 -0.788108 2.720194 0.007825 -0.005855 -730787.000000 1 0 0
-3.257533 8.581969 2.467130 9.505180 -1.208017 1.308234 0.001837 0.003949 -1607770.000000 1 0 0
6.968567 8.921969 7.085930 13.355630 0.907713 1.011538 0.006901 0.004227 572369.000000 1 0 0
-1.241233 -2.309831 -8.128370 8.540865 1.077702 2.829533 0.004973 -0.005144 -2037990.000000 1 0 0
0.756467 -1.269331 4.904630 5.122386 -1.033355 0.292627 0.002374 -0.002837 1545560.000000 1 0 0
2.723667 -8.885531 -6.107370 11.120746 -1.273361 2.152188 -0.001984 -0.002052 487213.000000 1 0 0
5.240067 3.829769 8.791130 10.927461 0.631140 0.635965 -0.005067 0.004477 -4116.240000 1 0 0
6.113967 -7.650731 -2.856170 10.201568 -0.896583 1.854563 0.001893 -0.002887 800718.000000 1 0 0
1.874267 2.203069 -8.228770 8.722331 0.865865 2.803576 0.002333 0.000318 266162.000000 1 0 0
-5.487233 10.892369 -0.761270 12.220187 -1.104138 1.633133 -0.001797 0.000162 758580.000000 1 0 0
-5.292133 3.333569 -3.321070 7.081586 -0.562123 2.058924 0.007134 -0.003588 671783.000000 1 0 0
2.013067 13.871069 -6.291770 15.363768 1.426676 1.992724 0.008101 -0.006045 673515.000000 1 0 0
-5.431533 -2.527431 2.580330 6.522849 0.435525 1.164094 -0.004051 -0.003916 -83607.400000 1 0 0
10.401167 -3.392831 -1.836170 11.093561 -0.315314 1.737078 0.006990 -0.001377 133348.000000 1 0 0
2.248467 -3.237531 7.094030 8.115569 -0.963771 0.507163 -0.001892 -0.002929 -1667510.000000 1 0 0
-2.836733 9.889869 -11.712770 15.589918 -1.291463 2.420832 0.003372 0.001489 -2150050.000000 1 0 0
0.472967 -2.084331 9.325330 9.567126 -1.347659 0.225304 0.002644 -0.003146 205283.000000 1 0 0
9.291867 2.648969 5.051630 10.902972 0.277718 1.089052 0.002540 -0.004089 91299.400000 1 0 0
13.473767 2.110369 -5.101470 14.560943 0.155366 1.928744 0.017181 0.000050 -2175910.000000 1 0 0
-6.572633 3.676169 7.602630 10.701108 -0.509966 0.780655 0.004552 -0.001509 -222669.000000 1 0 0
10.615667 -0.030831 2.052930 10.812394 -0.002904 1.379768 0.008678 -0.000823 1064850.000000 1 0 0
15.402967 6.673569 -4.492370 17.377264 0.408850 1.832286 0.027224 -0.006180 780700.000000 1 0 0
8.099767 -5.005731 -9.277670 13.294312 -0.553556 2.343212 0.007538 -0.003415 433613.000000 1 0 0
4.455867 5.612869 -2.155270 7.483598 0.899807 1.862933 -0.002971 0.001898 49751.300000 1 0 0
-1.624733 -10.591631 1.467630 10.815560 1.418585 1.434680 0.008656 -0.003021 -590509.000000 1 0 0
-2.769433 12.323269 -12.754970 17.950543 -1.349737 2.361093 0.010084 -0.004929 -83120.200000 1 0 0
8.463167 4.286769 -9.607770 13.502253 0.468851 2.362524 0.000296 0.004486 -861682.000000 1 0 0
4.180067 7.737969 -9.099470 12.655018 1.075507 2.373217 0.004186 -0.000908 -2013470.000000 1 0 0
-1.676333 -4.949031 -2.426070 5.760973 1.244206 2.005478 0.003267 -0.000372 926959.000000 1 0 0
-3.356833 -9.182231 6.821930 11.921427 1.220310 0.961560 -0.000042 -0.003062 -236833.000000 1 0 0
1.162867 7.242169 -1.443070 7.475542 1.411586 1.765055 0.000300 -0.000421 473574.000000 1 0 0
0.246067 -0.988531 -2.249470 2.469384 -1.326833 2.716363 0.005272 0.002249 214132.000000 1 0 0
4.008367 -6.630931 7.369130 10.693003 -1.027078 0.810475 0.003356 -0.002447 -965335.000000 1 0 0
-14.067433 3.919969 6.050730 15.807282 -0.271762 1.177991 -0.000971 0.000153 -1785010.000000 1 0 0
4.284367 6.372269 12.543630 14.707286 0.978872 0.549309 -0.002620 0.003769 -2247510.000000 1 0 0
8.279267 10.087269 -7.119470 14.865602 0.883522 2.070223 0.010927 -0.005093 -98380.600000 1 0 0
12.371467 5.284369 9.440330 16.434646 0.403683 0.958905 0.033188 -0.004437 186893.000000 1 0 0
7.523167 3.954369 0.328330 8.505462 0.483937 1.532185 0.000681 0.005246 -2358330.000000 1 0 0
-10.905833 -7.494231 -1.072170 13.275927 0.602068 1.651645 0.009503 -0.005035 -2654910.000000 1 0 0
10.481967 6.806869 0.147730 12.499077 0.575945 1.558977 0.004254 0.002161 -910915.000000 1 0 0
14.547067 3.548669 4.237730 15.561766 0.239271 1.294996 0.027835 -0.012764 872280.000000 1 0 0
2.166667 5.512469 8.225330 10.135966 1.196297 0.624083 -0.009674 0.007411 95719.800000 1 0 0
4.179467 0.053869 11.742930 12.464640 0.012888 0.341959 -0.000395 -0.001207 -1840430.000000 1 0 0
-1.646833 -1.423731 -0.383070 2.210387 0.712867 1.744980 0.006771 -0.005157 -1407040.000000 1 0 0
3.105367 -5.250131 -9.459570 11.255694 -1.036662 2.568864 0.000721 -0.001308 997473.000000 1 0 0
-3.903033 -5.330231 -1.290870 6.731372 0.938756 1.763761 0.005433 -0.003570 271051.000000 1 0 0
-1.326733 -8.584831 8.456830 12.123428 1.417465 0.798809 -0.001090 0.000797 104343.000000 1 0 0
4.012267 8.692669 -5.984070 11.290256 1.138363 2.129421 0.001811 0.001666 -59943.700000 1 0 0
-14.346633 -1.719531 -2.648270 14.689997 0.119287 1.752065 0.007022 -0.002632 -1138440.000000 1 0 0
8.856367 -10.599131 -6.743170 15.370334 -0.874737 2.024963 -0.000312 -0.002863 321089.000000 1 0 0
14.842367 6.110669 1.662330 16.136898 0.390556 1.467599 0.009546 -0.002968 -1371050.000000 1 0 0
-5.683633 0.459169 -8.582770 10.304294 -0.080613 2.555180 0.011688 -0.006635 -197715.000000 1 0 0
-7.914133 -4.477531 -13.020670 15.881424 0.514865 2.531977 0.007555 -0.004775 686086.000000 1 0 0
0.802167 -10.599331 12.069030 16.082623 -1.495259 0.722070 0.001827 -0.001771 -97627.600000 1 0 0
0.297967 11.664569 3.300430 12.126162 1.545257 1.295144 -0.001371 0.000837 -1052780.000000 1 0 0
5.111267 -13.215231 -3.742370 14.655126 -1.201746 1.829019 0.008798 -0.002972 465203.000000 1 0 0
-7.393933 1.622069 -6.989570 10.303177 -0.215957 2.316365 0.008269 -0.002080 735469.000000 1 0 0
1.452667 2.668969 4.062330 5.073082 1.072355 0.642231 -0.003348 0.002077 -1950920.000000 1 0 0
17.227667 5.570769 2.053330 18.222024 0.312749 1.457873 0.023058 -0.016178 -1262100.000000 1 0 0
2.552467 -8.200231 -3.539270 9.288988 -1.269035 1.961693 -0.001632 0.000402 402029.000000 1 0 0
-0.180933 -9.607431 -0.529470 9.623710 1.551966 1.625841 0.008461 0.001126 52298.100000 1 0 0
0.815067 11.899769 -5.592170 13.173504 1.502409 2.009207 0.011198 -0.002260 -1054840.000000 1 0 0
5.983867 -5.080231 7.889330 11.129103 -0.703906 0.782871 0.001608 -0.004073 -1390240.000000 1 0 0
-5.960833 -1.855531 -9.459170 11.333597 0.301780 2.558227 0.014102 -0.006097 -136075.000000 1 0 0
1.966967 -1.373431 11.341130 11.592088 -0.609549 0.208459 -0.001052 -0.000950 -414106.000000 1 0 0
18.017167 2.226569 -5.634670 19.008562 0.122957 1.871747 0.030606 -0.006129 -110150.000000 1 0 0
-8.950033 4.732769 7.822930 12.794547 -0.486421 0.912934 0.003419 -0.004867 -254388.000000 1 0 0
11.456767 -7.127731 -4.899070 14.354893 -0.556541 1.919077 0.013833 -0.002950 440938.000000 1 0 0
10.856567 0.516469 8.915030 14.057366 0.047536 0.883837 0.018525 -0.010420 176634.000000 1 0 0
-8.439433 -7.426531 -1.475670 11.338209 0.721643 1.701317 0.012144 -0.005153 -582752.000000 1 0 0
10.320967 -10.481931 -3.249170 15.064871 -0.793136 1.788183 0.017414 0.001013 -360535.000000 1 0 0
7.620067 -13.860131 -3.854370 16.279583 -1.068120 1.809827 0.020022 -0.004842 -1041970.000000 1 0 0
1.879667 -1.188831 -11.660070 11.870287 -0.563952 2.953115 0.006319 -0.003405 674676.000000 1 0 0
-11.878233 -2.626431 -6.412270 13.751646 0.217612 2.055890 0.009763 -0.002015 295098.000000 1 0 0
2.698467 -12.210931 -6.451270 14.071512 -1.353304 2.047062 0.004234 0.000421 569654.000000 1 0 0
-5.611333 1.468669 1.143730 5.912036 -0.255990 1.376111 0.004115 -0.005505 510739.000000 1 0 0
0.255067 6.748669 -4.041270 7.870290 1.533019 2.110037 0.004595 -0.000885 608892.000000 1 0 0
5.450767 -11.743231 3.654930 13.452615 -1.136228 1.295649 0.000097 -0.007068 -2364120.000000 1 0 0
-4.379533 -9.273531 1.063530 10.310663 1.129585 1.467464 0.010047 -0.002357 92122.800000 1 0 0
7.118667 -6.169631 -4.676370 10.517043 -0.714100 2.031576 0.004630 -0.003164 -64368.900000 1 0 0
-6.999033 -5.969031 2.238530 9.467144 0.706138 1.332083 0.006898 -0.005241 -16618.300000 1 0 0
-6.475333 -0.968431 7.037730 9.612358 0.148457 0.749317 0.002708 -0.003179 -2535210.000000 1 0 0
4.077467 -5.084731 3.352030 7.329142 -0.894895 1.095776 -0.002599 0.000430 -51033.400000 1 0 0
-2.507233 10.673769 -8.781770 14.047600 -1.340082 2.246112 0.003862 -0.000369 188495.000000 1 0 0
-2.257233 -4.925031 2.730330 6.066773 1.141046 1.103979 0.003861 -0.001549 1394080.000000 1 0 0
15.068467 5.106369 6.293630 17.109748 0.326732 1.194112 0.039852 -0.016646 349997.000000 1 0 0
6.730167 0.235069 0.175630 6.736561 0.034914 1.544722 -0.000086 0.000559 3336140.000000 1 0 0
-9.675133 9.140669 0.251730 13.312528 -0.757001 1.551886 -0.001615 -0.002881 -2476200.000000 1 0 0
7.222067 10.446269 -2.456070 12.935033 0.965897 1.761834 0.002172 -0.002966 -412410.000000 1 0 0
1.695767 -4.324931 -5.412170 7.132478 -1.197126 2.432275 -0.000366 -0.001291 -49390.300000 1 0 0
0.891767 -8.294731 -7.955670 11.527814 -1.463698 2.332463 0.001324 -0.000877 -1012920.000000 1 0 0
-10.350733 0.318969 -10.442570 14.706689 -0.030806 2.360374 0.010220 -0.005917 -2176100.000000 1 0 0
5.799367 -2.574031 0.530730 6.367100 -0.417725 1.487344 0.002644 0.000405 -79958.100000 1 0 0
-3.261333 5.288269 -1.135870 6.316034 -1.018180 1.751619 0.005486 -0.004708 864775.000000 1 0 0
-0.265533 4.596069 -5.181770 6.931458 -1.513087 2.415197 0.004104 -0.001536 -813783.000000 1 0 0
3.881167 -9.717931 9.974330 14.456448 -1.190823 0.809366 0.003482 -0.004294 -1526500.000000 1 0 0
7.326667 -13.572531 -0.731170 15.441122 -1.075806 1.618166 0.019819 -0.004094 679052.000000 1 0 0
12.911067 -0.108331 0.575330 12.924333 -0.008390 1.526266 0.011312 -0.009553 599013.000000 1 0 0
9.303467 2.340169 -0.578670 9.610710 0.246425 1.631044 0.003921 0.003619 -461885.000000 1 0 0
-0.829133 -5.751131 4.580630 7.398995 1.427614 0.903215 0.001105 -0.000394 -280718.000000 1 0 0
11.395367 -3.815231 3.440330 12.499850 -0.323075 1.291968 0.016009 -0.012585 -2462640.000000 1 0 0
1.690367 -8.137031 11.747330 14.389870 -1.365972 0.615714 -0.003607 -0.000732 208582.000000 1 0 0
9.464467 -5.853531 -5.885670 12.588927 -0.553893 2.057288 0.003476 -0.004079 232862.000000 1 0 0
3.238467 6.321469 -0.171870 7.104800 1.097360 1.594989 -0.004468 0.003121 -1739120.000000 1 0 0
6.374467 -1.321731 11.420330 13.145521 -0.204451 0.518099 0.002375 -0.002964 440990.000000 1 0 0
-4.868433 -7.616531 -3.767870 9.793366 1.002056 1.965719 0.010721 -0.003329 428324.000000 1 0 0
-3.406133 -8.501131 -5.834270 10.858622 1.189714 2.138021 0.008824 -0.002069 33308.200000 1 0 0
9.723567 5.412969 2.209430 11.345905 0.507962 1.374810 0.004960 -0.000554 -271995.000000 1 0 0
8.770067 -1.453031 0.470530 8.902066 -0.164189 1.517915 0.005658 -0.001379 1417270.000000 1 0 0
-3.941333 9.577869 9.263030 13.895086 -1.180412 0.841104 0.002116 -0.001324 161150.000000 1 0 0
-14.403333 -3.575831 -6.181070 16.076324 0.243344 1.965444 0.017065 -0.001806 -216522.000000 1 0 0
10.666567 6.347069 -5.961170 13.769404 0.536767 2.018536 0.005396 0.001138 -1052650.000000 1 0 0
-1.971833 4.522669 2.638730 5.595137 -1.159655 1.079679 0.005856 -0.000055 489887.000000 1 0 0
6.884267 -3.780731 2.724430 8.313217 -0.502217 1.236904 0.005026 -0.005214 -1745450.000000 1 0 0
8.332667 -11.266631 -1.675870 14.113074 -0.933992 1.689823 0.015484 -0.002441 -1762120.000000 1 0 0
4.490267 0.428369 1.823330 4.865237 0.095112 1.186651 0.000119 0.001652 653830.000000 1 0 0
-10.968133 2.372569 3.690530 11.813088 -0.213033 1.253067 0.002089 -0.002819 207451.000000 1 0 0
-0.889933 -3.030531 4.442530 5.450887 1.285170 0.618049 0.003171 -0.002711 312566.000000 1 0 0
8.658967 -8.798831 -8.586970 15.037726 -0.793410 2.178555 0.009795 -0.004929 -371899.000000 1 0 0
12.002167 -4.738031 1.058130 12.946837 -0.375985 1.488976 0.013213 -0.006621 -9726.670000 1 0 0
2.857567 4.783769 3.507530 6.584292 1.032330 1.008995 -0.007660 0.004226 -501572.000000 1 0 0
6.077967 7.425669 1.955230 9.793118 0.884872 1.369792 -0.001930 0.001426 206933.000000 1 0 0
-1.629133 -1.313031 -10.279670 10.490460 0.678370 2.940789 0.008504 -0.005069 1449930.000000 1 0 0
-0.924833 -8.649931 5.955630 10.542587 1.464283 0.970470 0.000409 -0.001879 -579866.000000 1 0 0
-4.314533 -0.260831 2.282730 4.888157 0.060381 1.084910 0.003072 -0.004433 871630.000000 1 0 0
-8.375133 6.362369 -7.740270 13.058881 -0.649664 2.205229 0.000129 -0.002198 -465239.000000 1 0 0
6.453067 11.191769 -9.442670 16.001931 1.047768 2.201974 0.012943 -0.005212 139902.000000 1 0 0
-11.207133 -5.872331 3.137830 13.035723 0.482648 1.327699 0.007452 -0.003075 996181.000000 1 0 0
1.526767 -6.254231 3.069530 7.132211 -1.331362 1.125887 0.001066 -0.001537 687044.000000 1 0 0
10.031867 2.242669 7.319330 12.619053 0.219938 0.952041 0.014881 -0.006144 -1401860.000000 1 0 0
-4.030933 -2.496931 -10.737970 11.738275 0.554593 2.725766 0.010107 -0.009651 -3220530.000000 1 0 0
-8.245133 11.740169 5.853330 15.494362 -0.958528 1.183408 -0.000375 -0.005003 -589528.000000 1 0 0
6.890967 5.975569 -2.952170 9.586875 0.714372 1.883822 -0.002204 0.004342 -3225680.000000 1 0 0
3.889567 -9.977131 -2.389770 10.971913 -1.199072 1.790364 -0.000568 -0.003117 130286.000000 1 0 0
8.551267 -12.941231 -7.450170 17.207692 -0.986882 2.018566 0.011227 -0.001660 691409.000000 1 0 0
-1.141433 9.445769 3.735730 10.221600 -1.450539 1.196654 -0.001938 0.002713 -277285.000000 1 0 0
0.406267 -13.218031 4.667830 14.023909 -1.540070 1.231474 0.011928 -0.006518 -923598.000000 1 0 0
-11.182833 -6.989531 -5.185070 14.170189 0.558616 1.945411 0.012600 -0.008382 149468.000000 1 0 0
3.659467 10.337569 -3.396070 11.479997 1.230565 1.871115 0.006521 -0.005100 -323757.000000 1 0 0
11.591467 -8.251431 -7.430470 16.051794 -0.618637 2.052067 0.025111 -0.005321 311263.000000 1 0 0
11.846967 -4.807231 -5.947770 14.100924 -0.385477 2.006226 0.011159 -0.001952 261012.000000 1 0 0
1.305467 -10.327731 -2.787170 10.776576 -1.445059 1.832402 -0.000459 0.001667 -1494890.000000 1 0 0
2.451267 -12.124931 -3.985370 12.996378 -1.371318 1.882470 0.005097 -0.000479 -338758.000000 1 0 0
-7.593933 -5.768131 7.135830 11.910467 0.649598 0.928392 0.004439 -0.002364 -2844190.000000 1 0 0
-7.310933 -0.860931 9.456230 11.983790 0.117220 0.661478 0.003610 -0.001186 -22557.900000 1 0 0
16.202867 2.596369 -7.476870 18.032682 0.158891 1.998331 0.026372 -0.001167 132910.000000 1 0 0
-1.905133 6.461169 -5.558970 8.733750 -1.284063 2.260739 0.006869 -0.002079 -892208.000000 1 0 0
7.555567 1.048669 8.428030 11.367409 0.137913 0.735612 0.003345 -0.005280 -149719.000000 1 0 0
7.927267 8.247369 -3.645870 12.006375 0.805186 1.879329 0.001380 0.002279 -184026.000000 1 0 0
8.000767 0.464369 4.188130 9.042585 0.057976 1.089243 0.002327 -0.000324 168666.000000 1 0 0
-7.099833 5.664969 5.409630 10.571830 -0.673460 1.033631 0.003948 -0.006129 95984.400000 1 0 0
-5.917633 -2.089831 -4.531370 7.740742 0.339481 2.196160 0.012053 -0.004041 224089.000000 1 0 0
-15.171633 -2.138231 3.036830 15.619629 0.140014 1.375126 0.010341 -0.002381 -1569060.000000 1 0 0
1.165267 1.205969 -10.486670 10.619909 0.802561 2.983021 0.007655 -0.003647 571980.000000 1 0 0
1.372967 -9.245731 9.382630 13.243954 -1.423376 0.783502 0.000978 -0.003102 -776478.000000 1 0 0
-0.198733 -6.944831 -1.305570 7.069277 1.542188 1.756545 0.002868 0.001982 480967.000000 1 0 0
-0.404233 -10.376431 -8.321570 13.307226 1.531859 2.246366 0.004738 -0.002521 -677414.000000 1 0 0
-4.408833 6.495069 3.808630 8.725216 -0.974443 1.119082 0.004085 -0.000129 -335610.000000 1 0 0
10.847467 -1.150331 -8.486570 13.820734 -0.105651 2.231973 0.010317 0.001853 496117.000000 1 0 0
3.132967 -0.962031 6.245430 7.053111 -0.297928 0.483258 -0.002649 -0.001760 326871.000000 1 0 0
1.865067 -12.328031 6.744030 14.175357 -1.420648 1.074972 0.004032 -0.005792 -90652.800000 1 0 0
2.902867 -4.977531 -1.263670 5.899094 -1.042826 1.786684 0.005150 -0.000362 -1372660.000000 1 0 0
-0.961333 9.480669 -1.629170 9.667546 -1.469742 1.740124 0.005781 -0.003320 331078.000000 1 0 0
4.549367 -2.571731 2.736330 5.898986 -0.514510 1.088444 0.001131 -0.000135 -2018810.000000 1 0 0
17.715267 6.894369 -2.505170 19.173912 0.371141 1.701826 0.020094 -0.001830 719355.000000 1 0 0
-7.000233 3.517869 -5.386770 9.507679 -0.465674 2.173134 0.006880 -0.003837 107576.000000 1 0 0
-13.862233 -6.023231 2.321430 15.291496 0.409895 1.418395 -0.003068 -0.000301 -789968.000000 1 0 0
6.661467 -6.191531 3.256930 9.660113 -0.748852 1.226906 0.003117 -0.004931 349437.000000 1 0 0
-4.707733 1.999969 3.546430 6.224130 -0.401724 0.964549 0.005797 -0.004915 567369.000000 1 0 0
6.902667 -12.075831 -5.610670 14.998404 -1.051513 1.954206 0.010820 -0.000468 -334319.000000 1 0 0
2.915567 -12.275731 3.388630 13.064337 -1.337610 1.308416 0.007111 -0.007152 -914917.000000 1 0 0
3.289467 11.425369 -6.158070 13.389604 1.290469 2.048695 0.006760 -0.000386 -1026040.000000 1 0 0
-5.700233 -8.307931 6.400130 11.936332 0.969447 1.004881 0.005074 -0.004274 -831120.000000 1 0 0
-4.002833 6.541369 6.370830 9.969938 -1.021654 0.877594 0.003659 0.000064 340016.000000 1 0 0
4.481067 4.461669 -6.930270 9.381636 0.783229 2.401945 -0.004680 0.003501 -1883730.000000 1 0 0
-0.306833 -2.599631 1.627030 3.082118 1.453310 1.014678 0.003353 -0.002604 -809272.000000 1 0 0
-13.225033 -1.016131 6.658530 14.841497 0.076683 1.105550 0.006363 -0.000916 -520885.000000 1 0 0
-0.513133 -9.268631 -5.962270 11.032656 1.515490 2.141733 0.003175 -0.000012 206163.000000 1 0 0
2.039667 -1.664231 -3.945070 4.742730 -0.684381 2.553165 -0.000435 0.002235 -124056.000000 1 0 0
11.318367 -2.010631 1.194830 11.557495 -0.175809 1.467230 0.014020 -0.006762 249552.000000 1 0 0
0.599467 -4.375131 -1.969070 4.835118 -1.434627 1.990230 0.000960 0.001023 -2526400.000000 1 0 0
1.216267 -7.260731 -11.275670 13.466189 -1.404824 2.563181 0.001147 -0.001002 302691.000000 1 0 0
-4.416133 4.146969 -9.981170 11.675759 -0.753976 2.596082 0.004890 -0.003855 89133.300000 1 0 0
-0.920733 5.781769 -2.130370 6.230175 -1.412875 1.919781 0.003875 -0.002503 190848.000000 1 0 0
-11.420733 1.696869 -3.845470 12.169641 -0.147499 1.892295 0.007164 -0.000709 32717.700000 1 0 0
-1.813433 -11.285131 4.127730 12.152402 1.411466 1.224237 0.010103 -0.003705 -513372.000000 1 0 0
-3.610333 -5.404531 -9.746170 11.714576 0.981858 2.553444 0.003357 -0.002033 -981165.000000 1 0 0
-13.002933 -3.734831 -8.403270 15.926085 0.279700 2.126619 0.020883 -0.001114 -85969.500000 1 0 0
11.381667 4.472669 0.607830 12.244042 0.374433 1.521133 0.008695 0.001461 -43708.400000 1 0 0
-8.802933 -2.371131 -3.052570 9.614160 0.263112 1.893896 0.013151 -0.003408 266282.000000 1 0 0
-2.430033 -6.123431 -6.407770 9.190266 1.193016 2.342329 0.003138 -0.001864 193425.000000 1 0 0
0.023467 2.709069 -1.957270 3.342232 1.562134 2.196438 0.000877 -0.001144 164639.000000 1 0 0
8.055867 6.105269 -5.231670 11.381638 0.648516 2.048407 -0.002138 0.004089 -453154.000000 1 0 0
-9.760033 -0.983031 -0.929070 9.853312 0.100381 1.665227 0.007427 -0.003939 146683.000000 1 0 0
6.325667 0.489069 -8.906870 10.935520 0.077162 2.522646 -0.001785 0.003238 480341.000000 1 0 0
-4.156433 2.450669 7.965130 9.312626 -0.532744 0.544658 0.002311 0.000953 -1183790.000000 1 0 0
-10.171133 -3.427331 1.372930 10.820512 0.325017 1.443571 0.005090 -0.005619 2121100.000000 1 0 0
-1.786733 -8.147831 -7.875170 11.471611 1.354924 2.327450 0.005987 -0.004370 -130324.000000 1 0 0
-9.488933 -9.721431 4.077930 14.183638 0.797500 1.279171 0.007071 -0.005777 -222550.000000 1 0 0
-1.232633 -10.731831 7.301330 13.038443 1.456440 0.976429 0.001740 -0.003849 104200.000000 1 0 0
9.483767 3.744869 -3.748770 10.863662 0.376077 1.923114 -0.000392 0.005286 -531671.000000 1 0 0
12.978367 -0.904831 3.026130 13.357177 -0.069606 1.342258 0.018413 -0.010463 334503.000000 1 0 0
6.562267 11.959169 -6.807470 15.245548 1.068934 2.033671 0.006446 -0.002062 321800.000000 1 0 0
-11.870933 -0.107931 -6.501270 13.535037 0.009092 2.071826 0.008653 0.000763 698453.000000 1 0 0
-7.476033 -6.581531 -11.463870 15.186439 0.721852 2.426261 0.011543 -0.007357 -1954550.000000 1 0 0
4.062867 6.014069 6.481930 9.730947 0.976662 0.841809 -0.008676 0.006853 -2677370.000000 1 0 0
-4.200833 -1.282731 -7.387570 8.594684 0.296359 2.605187 0.007921 -0.006437 -391753.000000 1 0 0
9.636867 9.289769 0.834730 13.411405 0.767061 1.508516 0.004271 -0.000291 -1182480.000000 1 0 0
-9.065933 3.856669 4.835230 10.974720 -0.402211 1.114553 0.003589 -0.004690 841950.000000 1 0 0
-7.011333 7.886769 -12.091170 16.048561 -0.844092 2.424031 0.001245 -0.004854 -1156050.000000 1 0 0
11.265267 -3.431631 7.217830 13.812291 -0.295690 1.020939 0.018166 -0.011737 277038.000000 1 0 0
11.787467 6.867069 6.460630 15.094395 0.527508 1.128501 0.021380 -0.005891 385205.000000 1 0 0
-10.034033 -0.639331 -14.808670 17.899365 0.063630 2.545133 0.017377 -0.001990 93935.100000 1 0 0
1.599467 -12.967931 12.066330 17.785439 -1.448076 0.825161 0.013787 -0.006587 343488.000000 1 0 0
2.880767 2.919569 13.095230 13.722527 0.792088 0.303531 -0.006063 0.000600 -1118430.000000 1 0 0
-2.699233 -1.463731 11.084530 11.501964 0.496894 0.270237 0.008468 -0.001042 -195199.000000 1 0 0
2.612367 -10.123331 -8.284870 13.339616 -1.318252 2.240907 -0.001482 0.001553 -826873.000000 1 0 0
14.009567 3.678969 -7.508170 16.314883 0.256806 2.049021 0.017817 0.000194 -2476670.000000 1 0 0
7.318267 -1.646631 5.045430 9.040176 -0.221317 0.978688 0.001777 -0.004799 527628.000000 1 0 0
-1.222933 8.706569 10.139530 13.420506 -1.431248 0.714341 -0.002707 0.001921 -381586.000000 1 0 0
-12.261733 -4.756831 0.929730 13.184913 0.370068 1.500223 0.004920 -0.003197 16294.100000 1 0 0
-4.796633 4.858469 -5.258270 8.617530 -0.791803 2.227088 0.010155 -0.004536 -440181.000000 1 0 0
-11.269833 0.328369 1.951130 11.442197 -0.029129 1.399438 0.002244 -0.002443 -2779070.000000 1 0 0
-1.384433 2.329769 -4.163270 4.967625 -1.034626 2.564552 0.004074 -0.004258 867609.000000 1 0 0
3.118967 -9.815731 13.153930 16.706358 -1.263134 0.664280 0.007227 -0.001237 -2728180.000000 1 0 0
8.848867 4.598269 -1.437170 10.075316 0.479240 1.713927 -0.000036 0.003308 -646746.000000 1 0 0
3.974567 2.249869 3.848630 5.972524 0.515095 0.870572 -0.006663 0.005877 157792.000000 1 0 0
-5.495433 -3.297831 7.261430 9.685238 0.540496 0.723124 0.002528 -0.003698 -35891.400000 1 0 0
1.729467 -5.648131 7.709230 9.712088 -1.273660 0.653803 -0.002835 -0.001031 -1181700.000000 1 0 0
-5.985033 -6.333431 -9.606670 12.970007 0.813673 2.404883 0.005367 -0.006569 -252139.000000 1 0 0
-11.718433 -5.806231 5.549830 14.206850 0.460024 1.169465 0.009647 -0.004970 -1160780.000000 1 0 0
10.502967 6.233169 4.513230 13.020521 0.535602 1.216826 0.006553 -0.001550 -821536.000000 1 0 0
1.413167 -3.739931 0.369930 4.015093 -1.209521 1.478531 0.007690 0.000015 -598545.000000 1 0 0
8.707967 4.349669 6.921730 11.943980 0.463251 0.952661 0.002953 0.001797 -225915.000000 1 0 0
-7.903133 11.983469 3.440930 14.761539 -0.987770 1.335531 -0.000591 -0.004824 321148.000000 1 0 0
-6.302133 13.191569 -6.908170 16.169638 -1.125115 2.012224 0.011552 -0.006129 658624.000000 1 0 0
4.486867 -6.962731 -0.947270 8.337201 -0.998359 1.684662 0.004027 -0.001623 -466966.000000 1 0 0
-1.948433 -8.127331 10.999430 13.814389 1.335499 0.649759 -0.001950 -0.001112 -555803.000000 1 0 0
11.626267 8.922069 -5.698970 15.724238 0.654548 1.941673 0.012697 -0.002200 506519.000000 1 0 0
-3.310933 -2.913731 -1.865670 4.788823 0.721674 1.970981 0.006360 -0.003941 -1871390.000000 1 0 0
-2.034933 5.987169 4.768230 7.919796 -1.243163 0.924712 0.000239 0.001995 -142342.000000 1 0 0
0.325667 -11.440131 -5.659370 12.767581 -1.542337 2.030030 0.002946 -0.003376 -87081.800000 1 0 0
-8.934133 6.221969 -1.563970 10.998983 -0.608324 1.713472 0.005261 -0.002732 -867985.000000 1 0 0
2.892267 -0.112331 3.895330 4.852980 -0.038819 0.639042 -0.002274 0.000024 -160265.000000 1 0 0
-10.050533 3.922869 -1.086970 10.843598 -0.372129 1.671206 0.012659 -0.004548 -290690.000000 1 0 0
6.426567 5.558069 13.531330 15.977790 0.713057 0.560699 0.009157 0.003331 -1635180.000000 1 0 0
-8.868633 -1.542131 5.628630 10.616604 0.172165 1.011993 0.003179 -0.003624 141826.000000 1 0 0
12.939867 -1.818231 -1.480370 13.150575 -0.139600 1.683606 0.016325 -0.005119 -1160170.000000 1 0 0
5.420767 -5.502431 5.458930 9.458402 -0.792874 0.955560 -0.002594 -0.004421 72804.100000 1 0 0
-9.056333 -1.297831 3.140630 9.672905 0.142337 1.240120 0.002873 -0.003774 433421.000000 1 0 0
1.921167 5.383769 5.547530 7.965610 1.228037 0.800379 -0.005918 0.004726 -335284.000000 1 0 0
9.252067 3.042769 -7.422770 12.245681 0.317732 2.222013 0.000557 0.003212 -1321310.000000 1 0 0
2.280467 -2.413831 -1.580570 3.677677 -0.813800 2.015039 -0.000012 0.001900 -94241.400000 1 0 0
-6.257333 0.324369 -3.938470 7.400742 -0.051792 2.131961 0.005941 -0.002961 -1906570.000000 1 0 0
-4.061633 4.240569 5.019830 7.725152 -0.806948 0.863471 0.005300 -0.001524 1302170.000000 1 0 0
-6.347333 1.765869 -12.489470 14.120687 -0.271345 2.656175 0.006543 -0.004307 -3141690.000000 1 0 0
-0.127233 3.021069 6.286630 6.976013 -1.528706 0.448317 -0.000809 0.000634 964582.000000 1 0 0
-8.848233 9.410669 -2.248570 13.111369 -0.816192 1.743146 -0.000289 -0.001976 -212243.000000 1 0 0
-1.199333 -3.777531 -6.152470 7.318540 1.263371 2.569314 -0.001263 -0.001753 6657.720000 1 0 0
-3.265233 7.021069 -2.962370 8.290525 -1.135488 1.936193 0.006791 -0.001263 1487410.000000 1 0 0
6.924967 -0.390631 -4.312670 8.167428 -0.056349 2.127079 -0.000908 0.004099 -698824.000000 1 0 0
-5.330333 -10.782931 6.815530 13.825176 1.111694 1.055285 -0.000320 -0.005872 -35817.900000 1 0 0
9.772667 8.370969 -1.521070 12.957307 0.708296 1.688459 0.003321 0.001072 330504.000000 1 0 0
13.659167 4.646769 -4.191270 15.024382 0.327913 1.853512 0.010895 0.000013 623401.000000 1 0 0
4.697967 1.052269 -6.932270 8.440055 0.220347 2.534576 -0.005254 0.003981 899366.000000 1 0 0
8.929067 -4.804831 3.617330 10.765673 -0.493670 1.228123 0.009569 -0.007904 88269.900000 1 0 0
-8.704533 -3.341731 -0.776770 9.356251 0.366557 1.653914 0.007611 -0.003619 895155.000000 1 0 0
-8.524133 -4.288031 -10.434270 14.139379 0.466081 2.400836 0.006904 -0.007885 266263.000000 1 0 0
10.424967 -1.163731 10.615130 14.923645 -0.111169 0.779456 0.021277 -0.006914 1216030.000000 1 0 0
2.143367 -11.620031 9.945430 15.444439 -1.388392 0.871148 0.006455 -0.006056 96175.100000 1 0 0
-6.424233 -10.559831 2.001730 12.521490 1.024249 1.410244 0.008600 -0.003119 -1586680.000000 1 0 0
-3.866033 -1.107331 6.787830 7.889678 0.278957 0.534854 0.006635 -0.001293 -1224360.000000 1 0 0
4.753367 -7.614331 4.042630 9.844561 -1.012725 1.147634 -0.002083 -0.001372 331433.000000 1 0 0
11.611867 -9.578431 -5.319170 15.964816 -0.689730 1.910471 0.018489 -0.001012 277519.000000 1 0 0
11.289967 1.125769 11.422830 16.100054 0.099386 0.782022 0.028684 -0.005161 626229.000000 1 0 0
-10.215233 -3.503531 4.415730 11.667235 0.330399 1.182651 0.007386 -0.004292 1068580.000000 1 0 0
2.055267 8.859769 8.955030 12.763706 1.342851 0.793154 -0.012984 0.005701 -741415.000000 1 0 0
6.517567 8.853069 4.063030 11.720227 0.936190 1.216780 0.000420 0.002433 -237332.000000 1 0 0
-4.302333 3.497069 0.370230 5.556675 -0.682516 1.504119 0.006025 -0.005674 -1901860.000000 1 0 0
4.790767 6.945969 4.273230 9.458247 0.967004 1.102015 -0.003460 0.004859 -839770.000000 1 0 0
-8.130433 13.174969 1.114230 15.521767 -1.017889 1.498950 -0.004160 -0.001800 439214.000000 1 0 0
8.873967 8.251769 -9.188170 15.207283 0.749083 2.219552 0.004174 -0.001487 -655409.000000 1 0 0
6.912167 1.932369 6.095230 9.416153 0.272601 0.866738 -0.002698 0.000104 -597896.000000 1 0 0
11.547267 -6.229831 3.127130 13.488110 -0.494751 1.336824 0.013887 -0.007975 364699.000000 1 0 0
11.342967 4.639569 -1.987970 12.415334 0.388263 1.731611 0.007808 0.004462 -180105.000000 1 0 0
-4.011733 14.409369 -5.877870 16.070883 -1.299261 1.945231 -0.000027 0.001256 -351367.000000 1 0 0
7.119067 -3.068431 6.980830 10.432083 -0.406955 0.837706 0.005261 -0.006225 -586080.000000 1 0 0
-7.994333 -0.509131 0.930130 8.064348 0.063601 1.455201 0.006965 -0.004822 321214.000000 1 0 0
-3.339233 1.013069 10.839030 11.386894 -0.294558 0.311462 0.005961 0.001083 -395109.000000 1 0 0
7.076267 -1.338931 -1.872070 7.441165 -0.187003 1.825112 0.005453 0.001566 -1731580.000000 1 0 0
-7.828733 5.286369 2.983430 9.906342 -0.593923 1.264884 0.006500 -0.002866 757618.000000 1 0 0
9.418667 -2.212531 2.915230 10.104709 -0.230726 1.278134 0.006583 -0.007162 -1980850.000000 1 0 0
0.218667 3.524869 1.572230 3.865802 1.508840 1.151955 -0.000409 0.001337 -2155450.000000 1 0 0
-7.590133 -3.086831 4.067130 9.147688 0.386260 1.110060 0.002414 -0.003791 -1119460.000000 1 0 0
-2.229933 8.509069 -6.776170 11.103754 -1.314495 2.227184 0.006947 -0.002007 -535838.000000 1 0 0
4.391767 9.839869 7.441130 13.095078 1.151004 0.966433 -0.008328 0.006376 -560867.000000 1 0 0
-11.823333 -3.216031 6.778930 14.003141 0.265582 1.065461 0.012866 -0.006460 51172.300000 1 0 0
-4.670533 2.345969 -5.610270 7.667632 -0.465479 2.391583 0.009867 -0.005514 -1076990.000000 1 0 0
-2.719233 2.883169 -1.877570 4.385449 -0.814652 2.013226 0.004609 -0.002903 965311.000000 1 0 0
2.344767 5.130869 11.602030 12.900808 1.142143 0.452571 -0.004434 0.001108 454729.000000 1 0 0
-0.742133 1.586269 4.537230 4.863483 -1.133199 0.368364 0.003010 -0.001856 -7918.980000 1 0 0
4.966967 1.491469 7.668630 9.257598 0.291712 0.594621 -0.005695 0.001151 631121.000000 1 0 0
3.272767 -8.168931 1.914830 9.006054 -1.189742 1.356545 0.001418 0.000391 3652830.000000 1 0 0
5.036167 6.516669 -4.635370 9.450747 0.912854 2.083433 -0.001072 0.002098 -3337620.000000 1 0 0
-4.038233 2.814369 -7.948470 9.349127 -0.608663 2.587129 0.010645 -0.006212 -31035.700000 1 0 0
-8.666833 -2.127031 -12.986370 15.757032 0.240665 2.539520 0.010213 -0.003911 36623.200000 1 0 0
-7.804233 8.145869 1.082530 11.332833 -0.806814 1.475129 0.002527 -0.002208 -2784550.000000 1 0 0
7.375967 0.899269 -6.500570 9.872740 0.121320 2.289536 -0.003894 0.004896 1020370.000000 1 0 0
8.900167 8.961969 5.527830 13.787196 0.788858 1.158254 0.007488 0.000309 541130.000000 1 0 0
9.353867 -1.112631 -1.351970 9.516333 -0.118392 1.713347 0.005736 -0.000230 1539560.000000 1 0 0
5.397467 0.057469 4.206530 6.843307 0.010647 0.908800 -0.002633 0.001037 -2287180.000000 1 0 0
-4.154933 -7.251031 -7.983370 11.557470 1.050457 2.333328 0.007558 -0.007097 -766894.000000 1 0 0
-2.143133 7.479969 -0.518670 7.798204 -1.291755 1.637357 0.005179 -0.002127 160875.000000 1 0 0
13.575167 -3.348331 -7.295670 15.770963 -0.241824 2.051724 0.023754 -0.003547 1059910.000000 1 0 0
-4.762433 -4.987631 1.600930 7.079562 0.808491 1.342689 0.005761 -0.003464 1646040.000000 1 0 0
-9.020833 1.254669 2.475930 9.438212 -0.138199 1.305360 0.003288 -0.003738 -812081.000000 1 0 0
-1.073833 11.219569 10.207730 15.206235 -1.475376 0.834854 -0.009791 -0.000962 338152.000000 1 0 0
-8.627333 0.317569 7.415830 11.380960 -0.036793 0.861105 0.000680 -0.002628 -76714.800000 1 0 0
-6.154333 12.961269 -2.068370 14.496499 -1.127491 1.713966 -0.004854 0.002151 360522.000000 1 0 0
-13.098433 -0.822331 3.174730 13.502744 0.062699 1.333457 0.008579 -0.003889 430162.000000 1 0 0
-6.633333 12.674669 8.750830 16.769775 -1.088641 1.021811 0.005509 -0.009252 1274220.000000 1 0 0
-7.972033 0.824869 -14.142970 16.255994 -0.103103 2.626031 0.006233 -0.005079 -143971.000000 1 0 0
7.184467 2.803969 3.752130 8.576554 0.372101 1.117994 -0.001189 0.002639 -352698.000000 1 0 0
-1.628233 0.695169 -2.106470 2.751658 -0.403519 2.442657 0.002792 -0.003473 361171.000000 1 0 0
-6.173133 9.678669 -10.363970 15.465966 -1.003040 2.305160 0.001111 -0.002999 -178487.000000 1 0 0
-10.068933 13.643769 5.325430 17.773465 -0.935028 1.266493 0.000140 -0.006803 918235.000000 1 0 0
-5.687033 8.313669 2.514530 10.381826 -0.970850 1.326158 -0.000758 -0.001473 -905838.000000 1 0 0
-2.462633 -10.706231 -1.237670 11.055305 1.344710 1.682984 0.007602 -0.000322 617248.000000 1 0 0
-2.385533 -12.362031 8.787030 15.353256 1.380167 0.961460 0.000220 -0.006633 143575.000000 1 0 0
-14.870233 -6.397031 -1.673170 16.274069 0.406259 1.673790 0.018423 -0.004639 556434.000000 1 0 0
-2.778033 -9.351931 3.330330 10.308597 1.282044 1.241832 0.005552 -0.003390 76397.300000 1 0 0
4.660967 -2.720931 7.616530 9.334859 -0.528400 0.616472 -0.001457 -0.001053 -226582.000000 1 0 0
-15.112333 -1.265131 -0.218870 15.166775 0.083520 1.585228 0.007843 -0.005914 55889.500000 1 0 0
5.494267 8.734869 -2.817170 10.696792 1.009323 1.837306 -0.001150 0.000724 -716024.000000 1 0 0
-5.630733 -5.696831 8.464530 11.653639 0.791233 0.757811 0.004380 -0.001583 -3526970.000000 1 0 0
3.449367 3.538969 6.996430 8.565773 0.798219 0.614973 -0.007788 0.004115 230667.000000 1 0 0
3.228167 2.338769 9.410430 10.219936 0.626973 0.400692 -0.003749 -0.000395 1406560.000000 1 0 0
9.849067 -3.266331 5.243430 11.626117 -0.320225 1.102906 0.016140 -0.011006 -592780.000000 1 0 0
6.566667 9.979769 -5.003770 12.952012 0.988819 1.967447 0.004456 -0.001271 -28493.900000 1 0 0
-4.621733 12.095969 -8.431970 15.452217 -1.205825 2.147997 0.002969 -0.004052 -811691.000000 1 0 0
-3.425533 -7.287931 2.184430 8.343857 1.131412 1.305909 0.004418 -0.005145 1034280.000000 1 0 0
-7.441133 -4.010031 1.147630 8.530408 0.494282 1.435853 0.007182 -0.004501 2217950.000000 1 0 0
-1.972733 -3.922231 -10.958270 11.805052 1.104782 2.760529 0.007462 -0.005140 -688540.000000 1 0 0
-5.272833 8.316069 -4.305570 10.746986 -1.005713 1.983001 0.005555 -0.003526 -2712710.000000 1 0 0
-10.947533 -3.300031 -10.119570 15.269066 0.292778 2.295281 0.018594 -0.000058 -309237.000000 1 0 0
4.709767 -11.379331 -7.712070 14.530902 -1.178375 2.130265 0.003419 -0.002094 -2574790.000000 1 0 0
-9.412333 -3.933731 7.298430 12.543258 0.395870 0.949782 0.003906 -0.002612 -917180.000000 1 0 0
-5.788033 -9.649131 -5.169170 12.382543 1.030487 2.001441 0.009837 -0.007735 292009.000000 1 0 0
4.858067 4.509969 -9.526470 11.605786 0.748257 2.533673 -0.003058 0.004537 -209381.000000 1 0 0
-3.283733 -7.101731 -13.963770 16.006385 1.137691 2.630862 0.000336 -0.006195 -461015.000000 1 0 0
0.726767 -0.860531 -8.745870 8.818104 -0.869471 3.013509 0.004210 -0.005187 -196869.000000 1 0 0
-7.741433 2.194169 -2.896570 8.551859 -0.276188 1.916338 0.008318 -0.005145 -205548.000000 1 0 0
-2.304333 7.546369 -12.520370 14.799234 -1.274433 2.579262 0.004761 -0.003132 88409.600000 1 0 0
-9.800633 8.816769 7.579330 15.206382 -0.732601 1.049009 -0.001484 -0.008985 -124753.000000 1 0 0
-10.743033 -3.046131 -14.226970 18.085861 0.276293 2.476136 0.020654 0.003709 108714.000000 1 0 0
-3.366033 4.761369 7.938530 9.849927 -0.955424 0.633521 0.003302 -0.000175 -35531.700000 1 0 0
8.650967 -2.312131 -3.547470 9.631704 -0.261164 1.947989 0.003273 0.001581 -4565390.000000 1 0 0
1.988067 -8.465731 -1.125970 8.768627 -1.340139 1.699561 0.000727 0.001778 57682.000000 1 0 0
-13.633933 -2.888731 4.996330 14.805141 0.208790 1.226566 0.018406 -0.005022 418214.000000 1 0 0
7.120167 2.674269 -2.055570 7.878697 0.359289 1.834753 -0.002666 0.003684 1111340.000000 1 0 0
-11.231133 4.404069 8.872630 14.975237 -0.373704 0.936654 -0.002953 -0.003352 -2277160.000000 1 0 0
-1.861533 -2.420831 8.003530 8.566342 0.915268 0.364507 0.002289 -0.002253 -343140.000000 1 0 0
3.049267 12.152769 -10.014070 16.039621 1.324960 2.245074 0.008864 -0.004873 578626.000000 1 0 0
3.697367 -5.084831 -7.031070 9.431966 -0.942089 2.412008 -0.002071 -0.002995 -119418.000000 1 0 0
8.443167 -13.721231 -9.920870 18.920436 -1.019177 2.122744 0.012522 0.001623 -244254.000000 1 0 0
-6.302033 -5.714531 -0.411570 8.517093 0.736546 1.619138 0.010428 -0.004493 -186497.000000 1 0 0
-1.207033 -3.993831 9.892730 10.736560 1.277300 0.399113 -0.000619 -0.000076 1672320.000000 1 0 0
2.813667 3.214569 1.787230 4.630806 0.851804 1.174566 -0.007540 0.004218 -288582.000000 1 0 0
-9.026433 13.290869 7.757730 17.841134 -0.974204 1.120955 0.000841 -0.015219 137465.000000 1 0 0
4.019767 -11.202131 -0.048370 11.901622 -1.226268 1.574861 0.003380 -0.001823 -3885.720000 1 0 0
-12.450833 -1.418131 -9.149570 15.516088 0.113410 2.201462 0.013995 -0.000477 -289131.000000 1 0 0
-4.196733 1.049769 -13.596570 14.268192 -0.245110 2.833550 0.008697 -0.005847 406210.000000 1 0 0
3.887767 -3.123731 5.035230 7.087028 -0.676857 0.780609 -0.001973 0.000342 -246834.000000 1 0 0
1.699067 -1.261931 1.097930 2.384271 -0.638825 1.092251 0.002956 -0.000190 432454.000000 1 0 0
8.108167 -9.043331 7.269530 14.155220 -0.839868 1.031470 0.009065 -0.006851 -1391700.000000 1 0 0
0.057267 2.366169 -6.378870 6.803824 1.546599 2.786292 0.002116 -0.003484 -1281260.000000 1 0 0
-3.821433 -9.783331 -3.465070 11.060001 1.198414 1.889460 0.009787 -0.003661 244179.000000 1 0 0
-9.372333 2.330469 -5.405170 11.067411 -0.243712 2.081036 0.006369 -0.001042 -170044.000000 1 0 0
8.906367 -7.611331 5.334330 12.872871 -0.707155 1.143529 0.007826 -0.006921 1194690.000000 1 0 0
-5.582933 -4.301331 4.553930 8.390999 0.656457 0.997129 0.001797 -0.003998 -664491.000000 1 0 0
-0.257733 -12.417031 10.366130 16.177321 1.550043 0.875280 0.006233 -0.006921 -1385600.000000 1 0 0
-14.292733 -8.297531 3.156330 16.825387 0.525989 1.382085 0.004957 -0.001334 -1431750.000000 1 0 0
10.858967 -1.333131 -3.558570 11.504687 -0.122156 1.885269 0.011687 -0.000224 -669298.000000 1 0 0
-13.780333 3.086769 2.754230 14.387894 -0.220361 1.378181 0.005244 -0.002239 -1303180.000000 1 0 0
-6.306733 6.099069 1.145230 8.847886 -0.768660 1.440997 0.005556 -0.002803 198969.000000 1 0 0
7.134667 -6.972631 -0.452070 9.986262 -0.773913 1.616081 0.004032 -0.002001 170980.000000 1 0 0
-7.004033 7.765969 10.122630 14.554532 -0.836939 0.801685 0.003383 -0.003038 363437.000000 1 0 0
-12.646433 -5.018631 -1.853970 13.731574 0.377781 1.706225 0.003931 -0.004454 -907398.000000 1 0 0
-9.450633 -5.615231 0.230430 10.995380 0.536118 1.549838 0.008449 -0.003765 -988091.000000 1 0 0
-1.768533 1.868969 2.203730 3.387799 -0.813002 0.862567 0.004659 -0.002074 -208317.000000 1 0 0
-7.253233 7.210669 7.626230 12.757842 -0.782455 0.930082 0.003079 -0.004576 -306258.000000 1 0 0
5.639467 7.223469 -0.470370 9.176238 0.907926 1.622078 -0.000497 0.000659 -1902100.000000 1 0 0
-0.163433 -4.025731 7.435130 8.456617 1.530221 0.496598 0.000143 -0.002722 234374.000000 1 0 0
6.303567 0.676169 13.129830 14.580281 0.106859 0.449833 0.002833 -0.000415 569894.000000 1 0 0
5.780967 6.234469 -7.933270 11.628627 0.823124 2.321590 -0.004933 0.003069 -219774.000000 1 0 0
9.897767 5.292069 9.029130 14.404755 0.491000 0.893336 0.009045 -0.001137 -1634090.000000 1 0 0
-1.255733 -4.980531 -8.546270 9.971022 1.323816 2.600431 0.003968 -0.004659 866525.000000 1 0 0
10.040467 -3.551931 -7.959070 13.295638 -0.340022 2.212577 0.012163 -0.005654 688843.000000 1 0 0
8.334467 -5.542531 1.250630 10.086975 -0.586857 1.446492 0.008205 -0.004648 982729.000000 1 0 0
15.735967 3.190469 -4.887670 16.783595 0.200039 1.866295 0.022234 0.000702 168167.000000 1 0 0
-6.941533 3.625569 1.143230 7.914329 -0.481329 1.425839 0.006293 -0.004784 215528.000000 1 0 0
-1.856433 3.769669 0.339230 4.215664 -1.113194 1.490240 0.002406 -0.002874 -1547140.000000 1 0 0
-2.626233 9.981969 7.003330 12.473309 -1.313529 0.974641 -0.003185 0.004038 953218.000000 1 0 0
5.562767 -5.838431 -8.741370 11.892990 -0.809572 2.396466 0.001385 -0.003311 -991918.000000 1 0 0
-1.263333 -0.797331 6.226230 6.402943 0.562997 0.235485 0.004294 -0.005428 740151.000000 1 0 0
-5.595133 4.942969 -7.733670 10.749331 -0.723591 2.373815 0.005492 -0.003850 72685.700000 1 0 0
6.821467 -1.334831 2.552230 7.404597 -0.193239 1.218897 0.002564 -0.000909 -1963930.000000 1 0 0
8.687967 7.575169 3.306730 11.991598 0.717080 1.291422 0.004108 0.000332 -125345.000000 1 0 0
-5.247033 -4.839631 -7.732770 10.523741 0.745030 2.396158 0.010683 -0.007160 1227110.000000 1 0 0
-2.208633 7.988669 -10.056970 13.032250 -1.301063 2.452304 0.008236 -0.001225 133770.000000 1 0 0
-2.956433 -2.334131 1.690030 4.128542 0.668311 1.149052 0.000447 -0.000280 -413651.000000 1 0 0
6.019467 -2.153731 -9.225870 11.224492 -0.343602 2.535607 0.001238 -0.000461 1171450.000000 1 0 0
1.144567 -7.598931 5.088530 9.216665 -1.421298 0.985914 0.000392 -0.001521 590114.000000 1 0 0
1.839267 11.771369 1.164730 11.970991 1.415800 1.473346 0.002886 -0.004151 343326.000000 1 0 0
-1.175233 7.094269 2.569330 7.636183 -1.406628 1.227633 0.001254 0.002324 545878.000000 1 0 0
8.775167 7.862669 -6.653470 13.531215 0.730608 2.084852 0.005398 -0.001261 67839.600000 1 0 0
3.764067 -11.052831 5.493130 12.903788 -1.242563 1.131062 0.006653 -0.003323 729235.000000 1 0 0
7.802567 -7.106031 12.413630 16.293371 -0.738712 0.704582 0.015658 -0.002385 509509.000000 1 0 0
-8.700933 -0.020531 -3.959670 9.559584 0.002360 1.997870 0.009341 -0.003865 -1026510.000000 1 0 0
-3.395333 -5.084531 11.133930 12.702170 0.982025 0.502175 0.003547 -0.000931 7167.260000 1 0 0
-8.173133 0.177369 -11.630370 14.216085 -0.021698 2.528919 0.006409 -0.003843 -1845930.000000 1 0 0
1.413567 -5.027731 5.404630 7.515735 -1.296718 0.768278 0.000218 -0.000849 -279772.000000 1 0 0
6.726867 3.776369 -7.784670 10.959598 0.511543 2.360729 -0.004992 0.005198 -1851180.000000 1 0 0
16.238467 4.323969 -1.162270 16.844447 0.260241 1.639851 0.015979 -0.003170 -487513.000000 1 0 0
7.946667 7.529569 0.102530 10.947805 0.758454 1.561431 0.002112 -0.001559 -3990130.000000 1 0 0
5.602967 -10.266231 13.940230 18.196668 -1.071209 0.698066 0.014398 -0.004133 1043460.000000 1 0 0
-5.032333 -9.261531 8.952330 13.829119 1.073066 0.866689 -0.002347 -0.005615 432696.000000 1 0 0
-12.631533 -3.244231 2.813230 13.341474 0.251402 1.358338 0.008107 -0.004166 -32566.900000 1 0 0
-2.092733 -1.335031 -5.851370 6.356129 0.567848 2.740378 0.004239 -0.005196 -1889270.000000 1 0 0
-2.480433 13.006669 -4.353970 13.938546 -1.382354 1.888482 0.007203 0.000448 587584.000000 1 0 0
4.026067 -0.482831 -4.999670 6.437317 -0.119356 2.460158 -0.004282 0.002326 -475595.000000 1 0 0
-8.794333 3.830269 -7.407670 12.119605 -0.410763 2.228390 0.006096 -0.001855 617672.000000 1 0 0
-4.566533 7.985569 -11.323370 14.589080 -1.051334 2.459339 0.001537 -0.001095 -1680680.000000 1 0 0
-10.090333 -6.378931 7.419730 14.055532 0.563748 1.014686 0.006310 -0.002127 -1064070.000000 1 0 0
8.107567 5.117969 4.079430 10.419597 0.563087 1.168519 0.000048 0.002514 -1160100.000000 1 0 0
-6.774233 -7.514931 3.996530 10.878266 0.837188 1.194599 0.008185 -0.005255 -491817.000000 1 0 0
-4.138333 11.748469 8.168530 14.895543 -1.232123 0.990362 0.000674 -0.003727 -182499.000000 1 0 0
-7.268633 9.995369 -7.967370 14.704401 -0.942048 2.143416 0.000885 -0.005801 -474205.000000 1 0 0
13.088467 5.501969 4.655530 14.941673 0.397941 1.253941 0.015009 -0.008107 924120.000000 1 0 0
5.428267 4.033769 -3.769770 7.742645 0.639073 2.079315 -0.004646 0.005352 473256.000000 1 0 0
-2.944733 -4.122231 4.995530 7.114742 0.950501 0.792401 0.002646 -0.003884 -2020380.000000 1 0 0
12.391567 -2.380031 -5.139070 13.624446 -0.189758 1.957562 0.013345 -0.000412 -952208.000000 1 0 0
-5.295933 9.639169 7.054630 13.066304 -1.068400 1.000466 -0.001507 -0.000000 -682140.000000 1 0 0
1.805467 3.773469 -0.461670 4.208553 1.124526 1.680716 -0.003947 0.001087 502743.000000 1 0 0
-0.084633 9.589569 7.735430 12.320871 -1.561971 0.892032 -0.008655 0.003942 -687109.000000 1 0 0
-5.490833 2.061869 5.926130 8.337839 -0.359219 0.780231 0.004759 -0.003222 772508.000000 1 0 0
8.819267 0.894869 10.716130 13.907397 0.101121 0.691117 0.012188 -0.002178 -1349420.000000 1 0 0
0.489367 -2.902031 -10.229270 10.644211 -1.403739 2.861454 0.005216 -0.003369 -1328550.000000 1 0 0
1.222667 10.654869 -2.831970 11.092394 1.456544 1.828962 0.006251 -0.004139 -996268.000000 1 0 0
2.217167 -4.388331 11.671730 12.665013 -1.102964 0.398684 -0.001324 -0.000049 -215421.000000 1 0 0
6.501367 -3.105131 9.520630 11.939514 -0.445577 0.647814 0.002589 -0.004765 467386.000000 1 0 0
-10.738233 -8.200431 5.714830 14.670242 0.652191 1.170651 0.008523 -0.004467 -1195830.000000 1 0 0
-2.857533 0.862469 -6.864970 7.485798 -0.293128 2.731455 0.008587 -0.006151 880570.000000 1 0 0
11.021567 2.578869 -5.095870 12.413436 0.229849 1.993812 0.007672 0.003847 -2978220.000000 1 0 0
-1.931533 -4.005231 0.038630 4.446817 1.121447 1.562109 0.002411 -0.001273 1210290.000000 1 0 0
-1.326833 -6.433131 -10.665670 12.526060 1.367398 2.589595 0.004162 -0.003554 2076660.000000 1 0 0
0.416067 6.886569 -6.657270 9.587346 1.510453 2.338356 0.005845 0.000377 -2563330.000000 1 0 0
2.245767 3.808169 -6.094670 7.529318 1.037967 2.514026 -0.002363 0.001266 -1311730.000000 1 0 0
1.506367 -14.801331 6.354930 16.178185 -1.469373 1.167113 0.018432 -0.009818 -376656.000000 1 0 0
-1.609233 5.480169 -10.531370 11.980469 -1.285178 2.644651 0.009608 -0.001333 51991.000000 1 0 0
13.639167 4.380269 -0.619370 14.338663 0.310749 1.614006 0.011144 -0.000233 370651.000000 1 0 0
-2.322233 3.348969 -6.214870 7.431889 -0.964502 2.561193 0.008315 -0.004954 -842490.000000 1 0 0
5.688967 7.916969 14.231630 17.250566 0.947710 0.600603 0.006286 0.005578 469815.000000 1 0 0
16.030267 0.661569 -5.705070 17.028064 0.041247 1.912443 0.022560 -0.001460 314537.000000 1 0 0
6.083667 -8.334131 10.653230 14.831050 -0.940238 0.769432 0.002263 -0.001140 846138.000000 1 0 0
0.102267 -5.888931 -6.485270 8.760633 -1.553432 2.404274 0.000978 -0.001199 -734644.000000 1 0 0
8.749567 5.510269 -7.585470 12.824093 0.562027 2.203716 -0.003128 0.004346 -226746.000000 1 0 0
-16.012033 -0.652531 5.181830 16.842279 0.040730 1.258055 0.018391 -0.008403 -51653.300000 1 0 0
-0.284533 4.077769 -12.206370 12.872631 -1.501133 2.818450 0.008302 -0.002961 722554.000000 1 0 0
-11.519133 3.681369 5.766030 13.397388 -0.309329 1.125877 -0.000083 -0.003059 -610904.000000 1 0 0
5.310267 -9.594831 -9.629270 14.593922 -1.065308 2.291367 0.000792 -0.000772 -2583.860000 1 0 0
1.578567 11.161669 -11.736470 16.273275 1.430301 2.376346 0.012680 -0.002846 -2034560.000000 1 0 0
5.812367 2.348869 1.233430 6.389221 0.384049 1.376528 -0.001625 0.003421 -484149.000000 1 0 0
5.683067 4.567169 4.810130 8.734623 0.676960 0.987597 -0.005531 0.004806 -479928.000000 1 0 0
0.451667 -1.640531 -6.363970 6.587523 -1.302135 2.880328 0.000693 -0.003158 -947052.000000 1 0 0
12.671767 6.906669 -4.455970 15.104020 0.499030 1.870272 0.012859 -0.002998 300071.000000 1 0 0
7.260567 3.187569 12.701330 14.973316 0.413690 0.558097 0.003827 0.002554 -431318.000000 1 0 0
-2.507433 -0.143631 8.681630 9.037618 0.057219 0.281606 0.002724 -0.001572 946614.000000 1 0 0
2.454767 -15.094931 13.149130 20.168848 -1.409586 0.860640 0.037580 -0.011722 346756.000000 1 0 0
18.769067 4.681169 -1.671770 19.416128 0.244422 1.657005 0.011988 -0.010450 440346.000000 1 0 0
-0.515033 -13.263631 7.174930 15.088697 1.531985 1.075245 0.005751 -0.006558 -1012050.000000 1 0 0
4.293767 1.455369 -0.595270 4.572623 0.326796 1.701348 -0.001824 0.003005 725755.000000 1 0 0
2.777767 -0.553631 -7.365170 7.891022 -0.196730 2.774461 -0.001457 0.000634 189919.000000 1 0 0
7.249167 -11.308931 0.892230 13.462482 -1.000765 1.504472 0.004365 -0.000357 225230.000000 1 0 0
-11.937633 -7.438431 1.264230 14.122167 0.557237 1.481155 0.008179 -0.000316 252187.000000 1 0 0
0.079967 -7.075731 9.868530 12.143321 -1.559495 0.622074 -0.003049 -0.001288 -2932380.000000 1 0 0
-4.693633 -7.182331 10.479430 13.543800 0.991967 0.686067 0.006309 0.000206 -1219920.000000 1 0 0
11.862567 0.739269 -1.615970 11.994931 0.062239 1.705928 0.012823 -0.002254 725016.000000 1 0 0
6.556167 -9.687731 -7.443270 13.864982 -0.975846 2.137483 0.000021 -0.002447 -389572.000000 1 0 0
-11.058333 4.964769 3.470230 12.608654 -0.421990 1.291972 0.000163 -0.004736 1100430.000000 1 0 0
6.002067 -9.100831 2.052130 11.093294 -0.987766 1.384736 0.000591 -0.002777 3777710.000000 1 0 0
11.493267 -1.171231 5.814530 12.933512 -0.101555 1.104511 0.022515 -0.013482 291555.000000 1 0 0
-6.569333 3.538369 4.176230 8.550853 -0.494064 1.060542 0.003924 -0.004404 -2056780.000000 1 0 0
9.470967 6.279269 -3.200070 11.805460 0.585461 1.845298 0.004666 0.003788 -328172.000000 1 0 0
-2.262633 6.452269 10.992830 12.945794 -1.233523 0.556436 0.002419 -0.000352 262805.000000 1 0 0
1.777467 9.743969 3.003830 10.350233 1.390363 1.276341 -0.004800 0.000291 -838502.000000 1 0 0
2.938667 6.180969 -5.688570 8.899437 1.126991 2.264261 -0.003405 0.002644 -2184260.000000 1 0 0
11.928167 0.131669 -5.634670 13.192726 0.011038 2.012084 0.015031 0.000840 601784.000000 1 0 0
-2.694033 -12.476031 6.208830 14.193616 1.358125 1.118048 0.003548 -0.004062 -1166020.000000 1 0 0
10.890167 1.769969 -2.730070 11.365818 0.161120 1.813368 0.009421 0.001956 659043.000000 1 0 0
-8.873133 5.345469 0.733130 10.384797 -0.542207 1.500141 0.006529 -0.004135 -676362.000000 1 0 0
1.243867 -10.140331 5.572130 11.637102 -1.448741 1.071481 0.001704 -0.003274 -183428.000000 1 0 0
9.467467 -5.791831 -1.182870 11.161425 -0.549023 1.676974 0.007613 -0.002337 1111630.000000 1 0 0
-7.768533 8.688569 -4.547270 12.510756 -0.841245 1.942785 -0.000335 -0.003190 -168796.000000 1 0 0
-7.401533 0.021569 -1.605170 7.573621 -0.002914 1.784358 0.006661 -0.005275 -886972.000000 1 0 0
4.111067 8.817069 2.636730 10.079381 1.134501 1.306121 -0.000999 -0.001307 507256.000000 1 0 0
-1.398133 -10.404131 -3.749670 11.147230 1.437214 1.913863 0.005900 0.001342 -1464460.000000 1 0 0
3.116667 7.922569 -3.740770 9.299144 1.196000 1.984792 0.002768 -0.000084 36961.600000 1 0 0
-4.271333 1.716469 -11.085670 12.003443 -0.382107 2.748010 0.007186 -0.004869 -462606.000000 1 0 0
1.240267 2.759069 11.021630 11.429219 1.148339 0.267866 -0.000306 -0.000217 523675.000000 1 0 0
2.219267 5.611569 -8.055470 10.065061 1.194192 2.498658 0.001411 0.001719 329055.000000 1 0 0
15.613067 5.990969 4.040430 17.204204 0.366389 1.333731 0.027644 -0.014072 -495322.000000 1 0 0
-4.411633 9.054969 4.644030 11.091528 -1.117436 1.138782 -0.001606 0.001379 -429565.000000 1 0 0
-0.805533 -8.253131 -12.393970 14.912195 1.473501 2.551933 0.000518 -0.003733 -85381.200000 1 0 0
14.314767 -4.206631 -5.163870 15.788409 -0.285820 1.903995 0.027230 -0.001643 1311080.000000 1 0 0
-5.952633 -6.206731 -5.700070 10.317371 0.806292 2.156125 0.011537 -0.003764 338353.000000 1 0 0
-8.822133 2.631369 -12.313870 15.374835 -0.289868 2.499611 0.006472 -0.005458 -1495880.000000 1 0 0
10.477767 5.394769 13.775830 18.128999 0.475479 0.707671 0.025296 0.000161 829288.000000 1 0 0
-0.446133 10.854969 5.604030 12.224342 -1.529720 1.094566 -0.009068 0.004681 330772.000000 1 0 0
0.353167 11.298169 -0.594670 11.319319 1.539548 1.623356 0.006124 -0.003524 -508736.000000 1 0 0
-1.469633 -0.596131 3.586430 3.921437 0.385352 0.416352 0.002885 -0.003193 -221635.000000 1 0 0
-4.921433 6.682469 8.863830 12.142626 -0.936011 0.752509 0.005037 -0.000962 11892.700000 1 0 0
3.552667 -8.704931 -11.328270 14.721650 -1.183309 2.448850 0.000102 0.000548 1048450.000000 1 0 0
6.660967 -3.742231 12.146130 14.349259 -0.511869 0.561488 0.010591 -0.000868 -151805.000000 1 0 0
-2.388133 -1.805231 -12.553570 12.905587 0.647277 2.907494 0.008849 -0.008082 1012710.000000 1 0 0
-16.131233 -4.852731 5.291130 17.656776 0.292216 1.266454 0.015235 -0.003952 -579416.000000 1 0 0
-8.915633 7.272469 5.780930 12.876198 -0.684240 1.105192 -0.002424 -0.003282 -5570380.000000 1 0 0
-13.016733 1.520169 6.070730 14.442992 -0.116259 1.136994 0.002932 -0.001873 484278.000000 1 0 0
-3.578233 3.616469 10.224730 11.420495 -0.790713 0.461700 0.004211 0.000951 351287.000000 1 0 0
1.997667 -12.293931 -1.185670 12.511484 -1.409712 1.665705 0.008167 -0.001775 -3098990.000000 1 0 0
10.384167 -5.108331 -3.593370 12.117684 -0.457174 1.871863 0.009662 -0.000389 605525.000000 1 0 0
3.028367 -13.443531 0.986430 13.815664 -1.349229 1.499336 0.008136 -0.002729 350357.000000 1 0 0
10.025367 -1.664231 -6.096170 11.850778 -0.164502 2.111117 0.010334 0.001653 995376.000000 1 0 0
12.045467 -5.297431 -1.530770 13.247615 -0.414328 1.686606 0.016023 -0.004342 -1022720.000000 1 0 0
1.495867 0.919569 5.909030 6.164402 0.551187 0.288847 -0.000566 -0.001886 579984.000000 1 0 0
-10.690033 11.543369 6.571630 17.050293 -0.823760 1.175127 -0.002378 -0.008165 -630183.000000 1 0 0
4.740567 -14.041531 3.087330 15.138334 -1.245201 1.365414 0.011532 -0.006673 -2998070.000000 1 0 0
5.291567 -3.573931 -1.742870 6.619007 -0.594025 1.837251 0.003014 0.001092 -1704560.000000 1 0 0
2.041567 -3.079831 -7.745170 8.581434 -0.985418 2.696451 -0.000314 -0.000973 -225973.000000 1 0 0
-2.709733 14.914069 -8.802870 17.528909 -1.391067 2.096928 0.011136 -0.005350 -1027030.000000 1 0 0
-2.214733 6.178469 -8.115570 10.437481 -1.226605 2.461542 0.010919 -0.003736 -312207.000000 1 0 0
2.679567 -3.501031 -11.374570 12.199104 -0.917534 2.771822 0.005377 -0.002553 -1792590.000000 1 0 0
14.574867 2.822769 -2.611370 15.073620 0.191305 1.744916 0.013775 0.000516 731147.000000 1 0 0
-3.388633 13.040969 2.226930 13.656827 -1.316573 1.407001 -0.009338 0.002701 -1017430.000000 1 0 0
7.803167 -5.052731 14.026030 16.827032 -0.574632 0.585309 0.021114 -0.003547 -706956.000000 1 0 0
-11.639633 7.312669 2.921030 14.053064 -0.560937 1.361413 -0.005525 -0.002116 1265080.000000 1 0 0
-2.195833 11.933569 4.229330 12.849863 -1.388827 1.235410 -0.008059 0.002947 -58846.600000 1 0 0
1.780167 1.458769 0.719530 2.411374 0.686493 1.267791 -0.004212 0.002236 -1608450.000000 1 0 0
-6.840633 8.449169 5.303430 12.095829 -0.890216 1.116922 -0.003719 -0.000526 -788664.000000 1 0 0
-1.092733 9.138469 1.084730 9.267272 -1.451786 1.453478 0.000773 0.000942 407029.000000 1 0 0
4.967267 12.997169 -8.450670 16.279250 1.205745 2.116602 0.011491 -0.015305 -1875260.000000 1 0 0
8.854967 6.880469 7.138930 13.293443 0.660570 1.003888 -0.001334 0.001867 -1616490.000000 1 0 0
7.166467 -13.688831 2.869430 15.715469 -1.088505 1.387180 0.021107 -0.008757 -258407.000000 1 0 0
4.087867 -13.500231 -1.279170 14.163445 -1.276773 1.661234 0.005533 0.003044 -2527680.000000 1 0 0
12.126867 -11.894631 -4.566370 17.589624 -0.775731 1.833410 0.019642 0.001802 -934821.000000 1 0 0
2.862967 -0.067731 -1.969970 3.475910 -0.023653 2.173352 -0.002424 0.002174 1466570.000000 1 0 0
-13.489033 -3.168731 -10.745970 17.534844 0.230728 2.230440 0.023366 -0.002731 458720.000000 1 0 0
-6.544133 13.510169 5.028830 15.831597 -1.119718 1.247551 -0.001804 -0.007516 146978.000000 1 0 0
7.321467 -4.380431 -0.673670 8.558381 -0.539168 1.649593 0.003388 -0.000441 -1518650.000000 1 0 0
11.769367 2.126369 -7.300270 14.011902 0.178742 2.118824 0.016236 0.002490 -268201.000000 1 0 0
-7.525333 -4.543831 9.670930 13.069197 0.543212 0.737757 0.008288 -0.001300 309427.000000 1 0 0
0.929067 2.847869 8.568830 9.077355 1.255450 0.336310 -0.002198 0.000856 -1757460.000000 1 0 0
1.706467 8.134869 -8.685970 12.022238 1.364023 2.378196 0.006453 -0.001827 -810245.000000 1 0 0
-8.534233 -2.038631 -5.632570 10.426648 0.234483 2.141482 0.015459 -0.003042 -457907.000000 1 0 0
6.546367 -0.539331 7.074230 9.653524 -0.082201 0.748349 0.002240 -0.004205 594522.000000 1 0 0
-10.942833 6.441869 7.161730 14.578534 -0.532057 1.057270 0.000553 -0.005956 1042640.000000 1 0 0
-5.951533 10.928669 4.870130 13.363185 -1.072124 1.197761 -0.008078 -0.001034 -274411.000000 1 0 0
6.064867 -1.225931 -6.920170 9.283010 -0.199449 2.412030 -0.002103 0.002243 -728239.000000 1 0 0
4.479667 -5.795731 11.439830 13.584094 -0.912784 0.569540 0.001778 -0.002795 -1014780.000000 1 0 0
-9.003333 -7.285531 2.676230 11.887017 0.680328 1.343711 0.010144 -0.006281 -3085850.000000 1 0 0
-1.233633 12.793269 -9.386170 15.915080 -1.474665 2.201565 0.021896 -0.002218 632095.000000 1 0 0
-4.657033 9.287269 -2.294970 10.639935 -1.105995 1.788199 0.002381 -0.002588 727463.000000 1 0 0
-3.246933 9.756969 -0.200970 10.285009 -1.249543 1.590338 0.003816 -0.000955 -903370.000000 1 0 0
-3.392033 10.812269 -6.375970 13.002463 -1.266800 2.083306 0.007455 -0.000516 541664.000000 1 0 0
4.978067 -4.959531 0.412630 7.039060 -0.783533 1.512143 0.001957 -0.001106 -1787430.000000 1 0 0
-2.205433 3.005769 -10.783670 11.409914 -0.937787 2.808740 0.010927 -0.001991 -623522.000000 1 0 0
-3.650433 12.056169 -2.242570 12.794765 -1.276786 1.746979 -0.000477 0.000892 -71895.300000 1 0 0
-0.161433 0.418769 -0.061870 0.453052 -1.202857 1.707788 -0.002934 -0.001410 -2065390.000000 1 0 0
-4.859733 -1.706931 0.090230 5.151578 0.337779 1.553280 -0.000075 -0.002685 230323.000000 1 0 0
2.593867 2.461869 -2.476070 4.349698 0.759296 2.176391 -0.010103 0.002258 735547.000000 1 0 0
6.052867 -9.757131 8.541730 14.310833 -1.015546 0.931200 0.002201 -0.004022 -1517080.000000 1 0 0
-4.157733 -5.411831 6.507130 9.429602 0.915706 0.809204 0.006236 -0.004281 28342.200000 1 0 0
-6.258033 5.269869 -12.096470 14.603393 -0.699888 2.546922 0.001017 -0.002984 920544.000000 1 0 0
-12.926233 3.064569 7.951130 15.482233 -0.232784 1.031462 -0.002126 -0.005240 521029.000000 1 0 0
4.708267 -7.491631 -5.031070 10.178604 -1.009705 2.087802 -0.000930 -0.002870 1525410.000000 1 0 0
-6.057233 2.416669 -1.066570 6.608172 -0.379620 1.732907 0.007668 -0.005217 -689878.000000 1 0 0
-6.794433 -2.618231 -14.633370 16.344876 0.367813 2.679873 0.007256 -0.005050 202096.000000 1 0 0
2.740167 -6.078431 0.921430 6.730889 -1.147276 1.433469 0.000938 0.000098 -53413.500000 1 0 0
4.825367 -7.838731 13.063430 15.980709 -1.019000 0.613827 0.008723 0.000772 -294588.000000 1 0 0
-10.117533 -1.706331 8.028130 13.027928 0.167079 0.906856 0.006786 -0.003039 -254362.000000 1 0 0
-4.467533 13.156369 -0.047970 13.894287 -1.243442 1.574249 -0.007838 0.001335 386952.000000 1 0 0
6.740467 2.258469 -4.560970 8.446125 0.323305 2.141242 -0.004359 0.006356 -938417.000000 1 0 0
5.063567 4.579569 0.004130 6.827311 0.735249 1.570191 -0.004025 0.003477 -803346.000000 1 0 0
-5.828033 12.096369 1.876230 13.557594 -1.121814 1.431961 -0.008913 -0.001574 -496128.000000 1 0 0
6.446667 -7.343131 6.680530 11.836831 -0.850316 0.971108 0.001469 -0.003315 -21860.700000 1 0 0
-0.341633 4.966869 7.807430 9.259723 -1.502122 0.567662 -0.002902 0.002537 -1254350.000000 1 0 0
-5.788033 -3.402031 -1.628070 6.908383 0.531378 1.808700 0.007649 -0.003246 -486024.000000 1 0 0
2.279667 -6.606931 -5.283570 8.761537 -1.238545 2.218105 -0.000520 -0.000449 -1831120.000000 1 0 0
-14.360633 -4.774931 -3.771470 15.596530 0.321002 1.815032 0.009532 -0.007639 -278517.000000 1 0 0
-12.419633 -5.142531 -6.401570 14.888687 0.392572 2.015247 0.017336 -0.008058 -777219.000000 1 0 0
-14.864333 -3.731231 -1.286770 15.379410 0.245938 1.654563 0.006162 -0.003401 405886.000000 1 0 0
11.854567 2.921169 8.712230 14.998898 0.241604 0.951014 0.024255 -0.009284 -1119130.000000 1 0 0
8.768967 -6.671631 7.704630 13.444953 -0.650392 0.960574 0.010148 -0.008312 -140567.000000 1 0 0
-8.776933 -1.686831 -9.790570 13.256516 0.189874 2.401710 0.007769 -0.001968 66287.200000 1 0 0
-8.732333 5.188469 -3.964370 10.903673 -0.536120 1.942906 0.008344 -0.003402 -1169550.000000 1 0 0
-3.994333 -6.308931 4.050830 8.495088 1.006377 1.073736 0.008700 -0.003029 -1232460.000000 1 0 0
-0.149233 -9.336331 3.513330 9.976614 1.554814 1.210922 0.004559 -0.003032 650484.000000 1 0 0
7.945467 -10.376931 3.362430 13.495076 -0.917332 1.318984 0.006396 -0.005912 658360.000000 1 0 0
-0.014533 6.424069 9.706530 11.639828 -1.568534 0.584648 -0.005601 0.002424 1950080.000000 1 0 0
0.096167 3.545969 -9.714370 10.341767 1.543683 2.791479 0.011511 -0.001985 220043.000000 1 0 0
4.433967 -3.185231 11.144030 12.409478 -0.622949 0.455535 0.002124 -0.001832 -1735130.000000 1 0 0
8.525667 -9.145931 1.298730 12.570670 -0.820483 1.467297 0.006936 -0.002857 187575.000000 1 0 0
-0.388733 -0.485631 11.344530 11.361571 0.895769 0.054778 0.007327 -0.000326 -1623890.000000 1 0 0
10.852867 6.020369 11.371330 16.832608 0.506465 0.829081 0.033200 -0.005432 100830.000000 1 0 0
-6.332033 -2.845731 -11.947970 13.818351 0.422370 2.615240 0.011038 -0.004862 242213.000000 1 0 0
-1.710433 2.805869 8.478230 9.092792 -1.023354 0.369765 0.003452 0.000028 528599.000000 1 0 0
-1.788633 13.502669 -6.855370 15.248521 -1.439098 2.037087 0.012463 -0.004207 598205.000000 1 0 0
7.656267 3.060569 9.725330 12.750198 0.380288 0.703227 0.003360 0.000768 706802.000000 1 0 0
6.482767 8.524069 -7.926670 13.323593 0.920593 2.207981 0.005085 -0.000680 1178120.000000 1 0 0
6.648667 -3.030131 -3.954970 8.308324 -0.427625 2.066926 0.004147 0.000439 -1459660.000000 1 0 0
2.029467 8.147969 0.989530 8.455017 1.326687 1.453493 -0.002140 0.002637 524379.000000 1 0 0
-17.567133 6.436569 6.265430 19.730413 -0.351208 1.247650 0.024470 -0.007194 -304760.000000 1 0 0
-14.464133 3.071469 -10.441870 18.101871 -0.209243 2.185650 0.023026 -0.002086 458246.000000 1 0 0
-18.195433 0.081069 -4.383870 18.716268 -0.004455 1.807221 0.020103 -0.002932 -565287.000000 1 0 0
-13.084733 8.053269 0.020930 15.364434 -0.551717 1.569434 0.003256 0.000530 -1884850.000000 1 0 0
-12.701233 -4.558731 -12.793870 18.595334 0.344599 2.329547 0.034227 0.005856 -487079.000000 1 0 0
-17.324033 -0.661931 -8.600970 19.352957 0.038190 2.031330 0.023144 -0.011250 866947.000000 1 0 0
-16.791333 -2.049431 -2.076070 17.042861 0.121452 1.692914 0.017897 -0.004777 -290450.000000 1 0 0
-15.502133 4.079769 1.657530 16.115460 -0.257339 1.467761 0.021559 -0.000964 -1206620.000000 1 0 0
-13.281433 5.869469 4.373930 15.165039 -0.416123 1.278218 -0.003811 -0.002980 -97819.100000 1 0 0
-9.898433 14.097669 2.789530 17.450064 -0.958641 1.410250 0.011093 -0.012085 -260878.000000 1 0 0
-11.786633 2.476869 -6.378770 13.628951 -0.207128 2.057858 0.009056 0.001755 974361.000000 1 0 0
-15.919733 10.760869 3.687830 19.566152 -0.594399 1.381182 0.021299 -0.005843 -323700.000000 1 0 0
-12.856233 1.137369 -8.563970 15.489284 -0.088239 2.156633 0.013104 -0.000798 688128.000000 1 0 0
-12.210633 14.412769 3.995630 19.307836 -0.867925 1.362347 0.022210 -0.014224 1009500.000000 1 0 0
-10.445733 11.179469 -1.160470 15.344073 -0.819315 1.646498 -0.000192 -0.001293 74889.900000 1 0 0
-16.986133 5.591969 8.679830 19.878085 -0.318033 1.118921 0.009748 -0.018031 -96054.200000 1 0 0
-11.782833 12.453469 -9.227370 19.469679 -0.813062 2.064551 0.024377 -0.015284 -1026480.000000 1 0 0
-17.183233 -0.456431 2.920730 17.435667 0.026556 1.402488 0.015658 -0.002984 716100.000000 1 0 0
-13.067433 14.839269 -0.748070 19.786898 -0.848804 1.608612 0.033330 -0.010920 -101384.000000 1 0 0
-16.636933 4.491769 -10.428570 20.142458 -0.263700 2.115004 0.054973 -0.007836 784701.000000 1 0 0
-11.845733 7.658069 -9.107270 16.790169 -0.573899 2.144108 0.010060 -0.001242 -38920.000000 1 0 0
-14.747533 13.223969 -2.025270 19.911424 -0.730984 1.672687 0.047320 -0.018679 807568.000000 1 0 0
-11.896733 10.497069 -5.588970 16.821335 -0.722977 1.909490 0.019566 -0.006689 2053610.000000 1 0 0
-17.830433 2.835169 -0.853370 18.074589 -0.157687 1.618028 0.035075 -0.005118 65859.300000 1 0 0
-9.217133 15.418969 0.634730 17.975067 -1.032012 1.535477 0.003274 -0.008406 -227886.000000 1 0 0
-8.257033 13.327069 -3.595970 16.084787 -1.016112 1.796265 -0.002319 0.002647 -640616.000000 1 0 0
-17.931933 11.707769 2.265830 21.535089 -0.578412 1.465386 0.078284 0.004514 -59723.100000 1 0 0
-8.102433 15.616069 -7.345470 19.064810 -1.092181 1.966318 0.042001 -0.026795 -163209.000000 1 0 0
-6.347333 15.260669 -5.362270 17.376151 -1.176635 1.884517 0.000687 -0.004751 -813222.000000 1 0 0
-17.443433 5.242969 -0.106470 18.214648 -0.291979 1.576642 0.041839 0.000386 595721.000000 1 0 0
-5.363533 12.221669 -12.229870 18.102663 -1.157250 2.312553 -0.006299 -0.006565 -311777.000000 1 0 0
-10.933533 3.767169 -11.308070 16.174244 -0.331813 2.344991 0.002222 -0.006370 626955.000000 1 0 0
-11.588333 11.072569 1.205530 16.073100 -0.762642 1.495723 0.003309 -0.004686 -42461.600000 1 0 0
-12.884533 0.198169 -11.020670 16.955991 -0.015379 2.278325 0.013433 -0.005663 476498.000000 1 0 0
-13.878133 -2.217431 -13.235770 19.305574 0.158440 2.326215 0.019808 0.004507 180472.000000 1 0 0
-18.696333 -2.276631 -3.681070 19.190784 0.121172 1.763807 0.015375 -0.002868 477664.000000 1 0 0
-18.263333 4.810969 -5.256470 19.604215 -0.257571 1.842247 0.040728 -0.007583 50824.300000 1 0 0
-8.272733 15.624069 -2.255270 17.822343 -1.083839 1.697678 0.003360 0.000004 295941.000000 1 0 0
-16.149733 9.172669 -5.457070 19.357979 -0.516540 1.856573 0.034229 0.000507 -214366.000000 1 0 0
-18.397733 1.750869 2.181130 18.609123 -0.094882 1.453319 0.042650 -0.008069 100125.000000 1 0 0
-15.725733 -2.788131 -8.710670 18.191980 0.175474 2.070106 0.023236 -0.005400 -199685.000000 1 0 0
-9.790033 10.446869 -7.316670 16.078417 -0.817844 2.043238 0.003647 -0.009364 -64943.300000 1 0 0
-13.934233 12.116369 -7.751270 20.026269 -0.715729 1.968232 0.037829 -0.014778 119337.000000 1 0 0
-10.987733 6.474469 -3.799370 13.307300 -0.532474 1.860335 0.004225 -0.002166 -1325250.000000 1 0 0
-12.975733 4.879769 -12.722570 18.816099 -0.359707 2.313325 0.027283 -0.011783 202919.000000 1 0 0
-17.705033 9.127669 2.646730 20.094470 -0.476003 1.438698 0.042787 -0.004233 845034.000000 1 0 0
-13.465633 8.574869 -6.568970 17.262764 -0.567037 1.961164 0.016461 -0.005182 -271601.000000 1 0 0
-15.790133 6.924269 -4.004570 17.700576 -0.413265 1.799012 0.019453 0.001426 -521283.000000 1 0 0
-14.839633 -0.497531 -9.407270 17.577229 0.033515 2.135537 0.019289 -0.006570 98476.700000 1 0 0
-10.083933 5.761169 -6.020070 13.081209 -0.519066 2.049025 0.004437 -0.002169 394527.000000 1 0 0
-12.734533 12.161469 -0.804070 17.627144 -0.762384 1.616428 0.019630 -0.007264 -1546360.000000 1 0 0
-10.676133 3.545669 -13.948170 17.919348 -0.320651 2.462887 0.014911 -0.006049 324765.000000 1 0 0
-11.019633 6.347869 -12.020170 17.498921 -0.522624 2.328024 0.012828 -0.005631 -1062500.000000 1 0 0
-5.656833 11.584169 -14.798270 19.626042 -1.116533 2.424945 -0.001922 -0.008272 -65953.500000 1 0 0
-15.460133 13.288769 3.403930 20.668668 -0.710013 1.405352 0.017962 -0.013566 219847.000000 1 0 0
-15.082033 10.923269 -3.328270 18.917265 -0.626821 1.747655 0.037025 -0.005218 505066.000000 1 0 0
-18.100433 7.701769 -4.865570 20.263679 -0.402296 1.813278 0.037484 -0.003904 -1036040.000000 1 0 0
-4.064533 16.234269 -10.524170 19.769423 -1.325472 2.132166 0.017892 -0.007229 -8294.610000 1 0 0
-15.827233 4.351969 -4.323870 16.974593 -0.268336 1.828361 0.020766 -0.001027 -729097.000000 1 0 0
-18.642233 -1.790031 -6.221970 19.734487 0.095727 1.891552 0.027566 -0.004281 384411.000000 1 0 0
-10.793133 8.520869 -5.924470 14.973185 -0.668288 1.977596 0.001705 -0.002791 477147.000000 1 0 0
-11.304133 13.634569 -6.898870 19.007349 -0.878574 1.942237 0.022079 -0.009555 207899.000000 1 0 0
-9.426633 10.506969 -4.640170 14.858970 -0.839542 1.888389 -0.007325 -0.000696 -697998.000000 1 0 0
-11.112533 6.260069 -0.181770 12.755779 -0.513023 1.585047 0.002332 0.000095 -418958.000000 1 0 0
-14.747233 9.139369 -1.611270 17.424269 -0.554804 1.663401 0.030987 -0.002218 -153685.000000 1 0 0
-18.585133 3.616769 4.700230 19.508469 -0.192203 1.327469 0.028121 -0.005154 439641.000000 1 0 0
-14.694733 13.205669 0.481330 19.762504 -0.732078 1.546438 0.024211 -0.004202 -293315.000000 1 0 0
-16.669133 2.342269 -9.104070 19.137145 -0.139601 2.066588 0.023107 -0.009640 137584.000000 1 0 0
-9.106633 8.457569 -9.050870 15.374638 -0.748461 2.200232 0.004054 -0.002000 -1360360.000000 1 0 0
-17.748533 4.725669 -2.629670 18.554179 -0.260220 1.713004 0.034807 0.000360 992385.000000 1 0 0
-13.511433 5.788369 -4.435170 15.353657 -0.404751 1.863840 0.008509 0.002698 -1003220.000000 1 0 0
-12.028433 9.689669 3.228030 15.779514 -0.678124 1.364771 -0.003748 0.000613 1187390.000000 1 0 0
-17.619533 2.587169 -4.127470 18.280520 -0.145793 1.798545 0.030011 -0.003081 1001740.000000 1 0 0
-11.242733 1.568669 -12.540670 16.915324 -0.138632 2.405920 0.015676 -0.004149 593544.000000 1 0 0
-11.131133 11.955369 3.600730 16.727170 -0.821085 1.353836 0.004805 -0.008755 -250100.000000 1 0 0
-15.643433 13.138969 -4.410770 20.899866 -0.698603 1.783438 0.018018 -0.004858 245261.000000 1 0 0
-11.044433 4.044869 -4.455370 12.577392 -0.351065 1.932894 0.006386 -0.002235 -139218.000000 1 0 0
-11.248533 15.012969 -9.098970 20.849700 -0.927773 2.022399 0.040992 -0.026183 483566.000000 1 0 0
-15.478833 7.062169 -0.312270 17.016639 -0.428037 1.589148 0.028517 0.000539 -244331.000000 1 0 0
-12.700333 8.319369 -4.049770 15.713402 -0.579918 1.831465 0.009955 -0.002118 718511.000000 1 0 0
-19.231133 1.815769 -6.079770 20.250854 -0.094139 1.875723 0.048994 -0.008706 561260.000000 1 0 0
-12.775233 10.090269 -8.964370 18.584403 -0.668509 2.074143 0.025566 -0.010182 846107.000000 1 0 0
-16.663233 10.911469 -1.187570 19.953291 -0.579758 1.630349 0.040579 -0.004891 579210.000000 1 0 0
-10.628933 6.519269 -14.544270 19.157528 -0.550179 2.432869 0.021094 -0.014921 167523.000000 1 0 0
-13.127933 12.603469 -3.987870 18.630437 -0.765019 1.786517 0.015706 -0.018886 815018.000000 1 0 0
-17.929733 7.763469 -0.323470 19.541019 -0.408622 1.587350 0.053320 -0.003614 -74580.200000 1 0 0
-12.734033 6.609969 -2.093570 14.499322 -0.478794 1.715694 0.002441 -0.000187 -17958.900000 1 0 0
-13.760433 8.398669 -10.690870 19.343781 -0.547994 2.156370 0.026647 -0.006880 -1491870.000000 1 0 0
-15.008833 1.431269 -0.949970 15.106821 -0.095074 1.633721 0.016566 -0.003977 -868244.000000 1 0 0
-13.427433 2.794869 -2.400670 13.923738 -0.205216 1.744078 0.005407 0.001056 -179234.000000 1 0 0
-11.325733 9.287869 -10.940570 18.282036 -0.686858 2.212340 0.019379 -0.007418 -898412.000000 1 0 0
-15.197933 4.211669 -8.151170 17.752659 -0.270337 2.047837 0.017428 -0.001510 730397.000000 1 0 0
-18.317333 10.684969 4.673130 21.714774 -0.528069 1.353894 0.058968 -0.019432 1000910.000000 1 0 0
-15.344933 6.003069 -6.313670 17.645573 -0.372905 1.936712 0.023258 0.002782 686321.000000 1 0 0
-7.559233 11.195269 -13.172370 18.867628 -0.976898 2.343602 -0.002939 -0.004946 -2642470.000000 1 0 0
-16.906833 9.126469 -3.073370 19.457108 -0.494986 1.729417 0.041177 0.000464 336470.000000 1 0 0
-20.577133 -0.812731 -4.750470 21.133999 0.039476 1.797512 0.036919 -0.011035 -202137.000000 1 0 0
-15.581833 4.480169 4.190330 16.745874 -0.279973 1.317878 0.016222 0.001404 -127263.000000 1 0 0
-6.930133 12.577169 -9.394670 17.160180 -1.067179 2.150133 0.009167 -0.009992 -970798.000000 1 0 0
-17.259133 1.624469 5.698930 18.248133 -0.093846 1.253181 0.026116 -0.007589 66145.000000 1 0 0
-10.493333 14.437969 -2.960970 18.092328 -0.942318 1.735195 0.022790 -0.009743 1679670.000000 1 0 0
-9.978933 8.486969 -12.968170 18.433155 -0.704778 2.351141 0.003683 -0.007446 106688.000000 1 0 0
-13.621033 11.652169 2.778030 18.138992 -0.707652 1.417039 0.015622 -0.008511 -1024720.000000 1 0 0
-16.832333 6.794069 1.877230 18.248584 -0.383634 1.467744 0.028784 0.002193 847888.000000 1 0 0
-9.352933 13.232669 -8.493570 18.295399 -0.955517 2.053580 0.030419 -0.018802 -1042110.000000 1 0 0
-5.615633 9.663769 -12.998770 17.143273 -1.044389 2.431411 0.004236 -0.002529 -66485.800000 1 0 0
-15.976933 1.920169 3.231030 16.413074 -0.119610 1.372645 0.013825 0.000009 -226158.000000 1 0 0
-18.705633 -4.828131 4.568330 19.851478 0.252598 1.338590 0.040067 -0.002589 307628.000000 1 0 0
-5.296033 14.604769 -8.895770 17.902011 -1.222920 2.090836 0.002812 -0.007271 -1063320.000000 1 0 0
-15.453633 -0.795731 -6.882370 16.935613 0.051446 1.989290 0.019342 -0.002440 719433.000000 1 0 0
-8.954133 10.997469 -9.643770 17.150019 -0.887457 2.167983 0.006199 -0.009177 431273.000000 1 0 0
-16.710033 1.275869 -6.114670 17.839345 -0.076206 1.920653 0.014680 -0.002622 -1454300.000000 1 0 0
-11.161433 8.620569 -1.579170 14.191039 -0.657654 1.682307 0.000383 -0.003153 -1706950.000000 1 0 0
-10.690833 11.097569 -12.597070 19.903169 -0.804064 2.256112 0.012546 -0.004519 -208683.000000 1 0 0
-14.063533 11.769769 -10.357870 21.061717 -0.696839 2.084937 0.048891 -0.015413 -133252.000000 1 0 0
-13.111633 5.837569 -7.743670 16.308175 -0.418872 2.065571 0.011995 0.001833 -395704.000000 1 0 0
-8.902533 15.514069 -4.764070 18.510478 -1.049837 1.831097 0.019328 -0.009686 149141.000000 1 0 0
-8.614933 6.164869 -12.844870 16.649726 -0.621121 2.451955 0.002413 -0.008851 -180175.000000 1 0 0
-16.431333 7.653469 4.329330 18.636185 -0.435903 1.336347 0.029978 0.003115 100162.000000 1 0 0
-12.634833 5.505469 -10.227270 17.162350 -0.410930 2.209199 0.015389 -0.001901 382798.000000 1 0 0
-12.418433 9.398969 -13.319070 20.492822 -0.647875 2.278300 0.032919 -0.007622 -753399.000000 1 0 0
-10.629633 5.313569 -8.484870 14.601923 -0.463554 2.190850 0.003731 0.000363 -527882.000000 1 0 0
-17.749933 -4.434331 -2.647470 18.486009 0.244811 1.714505 0.017044 -0.008468 529675.000000 1 0 0
-8.774533 13.275469 -11.002170 19.346273 -0.986756 2.175717 0.029128 -0.016181 315537.000000 1 0 0
-15.016433 6.306569 6.095130 17.390132 -0.397609 1.212698 0.006976 -0.007083 -59787.400000 1 0 0
-16.299733 -3.177531 -4.469170 17.197427 0.192529 1.833688 0.014209 -0.006105 -375492.000000 1 0 0
-11.067733 -1.067331 -12.457070 16.697680 0.096139 2.412886 0.011771 -0.001329 460238.000000 1 0 0
-15.327633 6.853869 -8.638970 18.882364 -0.420488 2.045995 0.022983 -0.001814 291151.000000 1 0 0
-15.056133 9.351569 1.052630 17.755197 -0.555800 1.511476 0.028152 -0.006283 6768.220000 1 0 0
-19.392433 5.528369 7.888530 21.653134 -0.277712 1.197901 0.052977 -0.022414 -923773.000000 1 0 0
-16.369633 0.825369 0.878630 16.413961 -0.050378 1.517241 0.017663 -0.005757 -9222.840000 1 0 0
-17.544533 3.860869 7.017630 19.286370 -0.216609 1.198383 0.018585 -0.005013 401425.000000 1 0 0
-15.518133 3.984369 -1.353870 16.078576 -0.251327 1.655100 0.019280 -0.002002 -102262.000000 1 0 0
-10.640833 13.310869 0.285830 17.043716 -0.896416 1.554025 0.011299 -0.010865 -676171.000000 1 0 0
-13.508333 3.383969 0.115230 13.926219 -0.245458 1.562522 0.009637 -0.000295 -602118.000000 1 0 0
-15.160433 0.096969 -4.391370 15.783924 -0.006396 1.852735 0.015716 -0.001220 -306136.000000 1 0 0
-18.811333 6.964169 3.547230 20.370291 -0.354566 1.395767 0.035028 -0.001181 -221919.000000 1 0 0
-14.154933 1.338569 -6.385470 15.586152 -0.094285 1.992909 0.014016 0.000237 -695767.000000 1 0 0
-14.165533 11.975369 5.244930 19.276439 -0.701810 1.295232 0.012336 -0.015769 292239.000000 1 0 0
17.601467 5.430769 6.083730 19.398883 0.299274 1.251801 0.035405 -0.020910 -1145290.000000 1 0 0
18.609067 7.610469 -0.140870 20.105633 0.388211 1.577803 0.041279 -0.007641 673383.000000 1 0 0
16.647167 5.176269 8.405430 19.353893 0.301463 1.121533 0.054262 -0.015171 415626.000000 1 0 0
11.480367 12.303869 11.054630 20.134271 0.820008 0.989575 0.053729 -0.012670 529929.000000 1 0 0
-2.412333 16.418069 -0.563870 16.603924 -1.424909 1.604763 -0.002908 0.003827 56012.900000 1 0 0
15.138567 12.570269 3.307330 19.953103 0.692973 1.404273 0.037651 -0.008646 428225.000000 1 0 0
13.395367 11.580669 6.784730 18.962603 0.712868 1.204891 0.047579 -0.013022 802492.000000 1 0 0
-0.747633 15.841369 8.524630 18.004923 -1.523636 1.077580 -0.006905 -0.004540 213199.000000 1 0 0
0.647167 12.908169 9.385230 15.972545 1.520702 0.942725 -0.011925 -0.002343 -1348520.000000 1 0 0
0.885367 15.594869 -3.956670 16.113319 1.514084 1.818886 0.017972 -0.005875 -248683.000000 1 0 0
5.353067 10.342869 13.788330 18.048499 1.093199 0.701368 0.008817 0.001671 -208604.000000 1 0 0
-1.280933 16.304269 -2.762570 16.586192 -1.492393 1.738135 0.002385 -0.007473 -680589.000000 1 0 0
8.584567 10.110169 3.342130 13.677724 0.866824 1.323949 0.005420 -0.000924 547679.000000 1 0 0
12.484767 13.855269 -4.814770 19.261877 0.837382 1.823439 0.025897 -0.008457 -460308.000000 1 0 0
2.304667 11.658769 7.678630 14.149196 1.375636 0.997160 -0.007149 0.002491 275973.000000 1 0 0
-0.239633 14.918069 -8.423270 17.133526 -1.554734 2.084751 0.021996 -0.011206 -1869770.000000 1 0 0
2.365167 15.970469 0.234630 16.146360 1.423769 1.556264 0.015528 -0.012602 -970578.000000 1 0 0
1.901267 13.430169 5.288630 14.558635 1.430164 1.199027 -0.002245 -0.001866 -254189.000000 1 0 0
17.502067 9.378769 -1.725370 19.931396 0.491927 1.657470 0.019233 -0.001351 476987.000000 1 0 0
-7.116333 14.843069 7.161130 17.951063 -1.123733 1.160452 0.005106 -0.013359 -1822200.000000 1 0 0
8.559767 15.891569 0.047330 18.050314 1.076720 1.568174 0.008264 -0.013885 -949580.000000 1 0 0
15.696967 10.427569 2.049530 18.955990 0.586366 1.462464 0.026907 -0.003758 1410160.000000 1 0 0
14.140567 7.395069 8.768030 18.207719 0.481853 1.068367 0.048257 -0.013309 -766314.000000 1 0 0
4.213967 18.457669 -1.861470 19.023884 1.346339 1.668802 0.027003 -0.022143 -471851.000000 1 0 0
-0.375533 17.585169 -4.750770 18.219468 -1.549444 1.834598 0.020648 -0.011423 277857.000000 1 0 0
1.354267 13.768869 -0.696970 13.852854 1.472755 1.621130 0.005997 -0.008657 744189.000000 1 0 0
10.287267 14.730769 4.335830 18.483042 0.961177 1.334006 0.021117 -0.017819 551073.000000 1 0 0
-1.544633 15.294169 -5.157970 16.214258 -1.470143 1.894535 0.010348 -0.004370 281187.000000 1 0 0
15.066867 8.741769 -6.008470 18.426360 0.525732 1.902950 0.038733 -0.009823 -393225.000000 1 0 0
-2.498633 18.524869 1.036930 18.721356 -1.436726 1.515380 0.004704 -0.000091 -516875.000000 1 0 0
-3.933433 19.366069 3.683730 20.101900 -1.370413 1.386502 0.011785 -0.006435 362371.000000 1 0 0
1.822067 17.665469 -2.545370 17.940670 1.468017 1.713154 0.022149 -0.014718 -241795.000000 1 0 0
2.959367 12.097969 3.280630 12.879489 1.330891 1.313241 -0.001254 -0.002749 539334.000000 1 0 0
-2.665733 16.103469 1.843430 16.426384 -1.406746 1.458336 -0.002384 -0.004172 -1242050.000000 1 0 0
11.856967 12.784469 -2.552570 17.622314 0.823020 1.716156 0.001964 -0.002476 546823.000000 1 0 0
7.104367 11.620369 4.796330 14.439868 1.022057 1.232205 0.005521 -0.004385 437059.000000 1 0 0
7.122767 15.683669 2.106030 17.353578 1.144495 1.449136 0.007825 -0.017866 -2082810.000000 1 0 0
5.441067 12.287469 10.316630 16.941663 1.153934 0.916060 0.001665 0.002922 1155430.000000 1 0 0
-1.329633 14.181269 3.080630 14.572803 -1.477310 1.357793 -0.008236 -0.001513 -914802.000000 1 0 0
4.575867 15.826369 1.609530 16.553039 1.289342 1.473408 0.009576 -0.022120 -647620.000000 1 0 0
7.275767 13.247269 11.932930 19.256732 1.068546 0.902467 0.017724 -0.004547 289966.000000 1 0 0
0.437567 17.219469 -9.455770 19.649763 1.545391 2.072837 0.028940 -0.010831 460248.000000 1 0 0
9.686067 9.600369 15.618430 20.734568 0.780955 0.717798 0.033137 -0.002099 -336922.000000 1 0 0
13.528267 7.619569 0.002330 15.526489 0.512946 1.570646 0.001564 0.002208 289370.000000 1 0 0
12.416067 13.600169 -0.030270 18.415326 0.830881 1.572440 0.009536 -0.007286 397642.000000 1 0 0
9.370467 12.390869 3.495630 15.923527 0.923314 1.349468 0.009371 -0.004495 479629.000000 1 0 0
-0.618533 12.837069 0.838030 12.879256 -1.522650 1.505682 0.002278 -0.003094 -1391510.000000 1 0 0
16.005167 7.460669 -0.743370 17.674263 0.436196 1.612868 0.020993 -0.002173 -435701.000000 1 0 0
-4.203033 18.434569 -2.334270 19.051185 -1.346631 1.693631 0.000962 -0.002767 -259269.000000 1 0 0
11.597767 9.190969 -3.168370 15.133429 0.670137 1.781719 0.005689 -0.000527 -671342.000000 1 0 0
14.703267 9.689869 7.994830 19.339000 0.582696 1.144606 0.049570 -0.011478 566009.000000 1 0 0
4.468367 13.794669 4.601230 15.212841 1.257542 1.263527 0.003739 -0.003007 -372095.000000 1 0 0
2.154967 15.964069 5.683630 17.082126 1.436619 1.231606 -0.003318 -0.007313 166171.000000 1 0 0
6.061067 18.403369 5.385730 20.110361 1.252639 1.299678 0.021217 -0.026755 -570921.000000 1 0 0
10.811567 17.065669 -0.537370 20.209300 1.006089 1.597390 0.005225 -0.010329 -1340450.000000 1 0 0
9.976467 13.615869 -4.298070 17.418243 0.938454 1.820128 0.010234 -0.009111 1062580.000000 1 0 0
16.620867 7.884669 2.383030 18.549934 0.442945 1.441975 0.020774 -0.008208 436652.000000 1 0 0
4.000067 14.037069 -0.504570 14.604603 1.293190 1.605352 0.010797 -0.011333 -440395.000000 1 0 0
5.596067 13.153169 -2.329770 14.482737 1.168541 1.732364 0.008302 -0.008512 -260169.000000 1 0 0
-6.131133 16.936169 -2.981570 18.256900 -1.223459 1.734843 0.000266 -0.003244 -1680270.000000 1 0 0
18.177967 9.998669 2.765230 20.929844 0.502876 1.438290 0.036782 -0.005671 -705070.000000 1 0 0
7.812667 12.917869 9.477930 17.825270 1.026858 1.010174 0.026472 -0.009401 263699.000000 1 0 0
-2.634633 15.693869 6.686430 17.261146 -1.404471 1.173020 -0.003472 -0.006223 685732.000000 1 0 0
11.334367 16.053669 6.397330 20.666737 0.956035 1.256080 0.046299 -0.017911 -170635.000000 1 0 0
13.577367 11.841369 1.319630 18.063896 0.717208 1.497678 0.025480 -0.004262 39173.800000 1 0 0
17.472567 7.962669 -5.468470 19.964941 0.427604 1.848246 0.028225 0.007193 -312546.000000 1 0 0
9.365167 9.261469 8.110230 15.467934 0.779831 1.018874 0.018725 -0.003342 -383383.000000 1 0 0
-2.150433 14.128469 -1.861370 14.411895 -1.419750 1.700313 -0.000730 0.000871 455137.000000 1 0 0
10.950467 11.668969 0.793030 16.022062 0.817152 1.521280 0.008295 0.002388 -216798.000000 1 0 0
11.752767 9.823969 -0.522570 15.326806 0.696243 1.604898 0.000749 0.002662 -1637620.000000 1 0 0
-0.290833 16.125469 11.012830 19.529408 -1.552763 0.971683 -0.003088 -0.009107 -383444.000000 1 0 0
2.072067 19.821669 -1.236570 19.968003 1.466639 1.632764 0.030599 -0.029034 -760707.000000 1 0 0
9.213167 14.319769 1.966030 17.140697 0.999083 1.455844 0.006215 -0.011509 -353567.000000 1 0 0
8.418167 11.709569 -5.064070 15.284775 0.947489 1.908493 0.011676 -0.003183 -964948.000000 1 0 0
10.536267 9.942069 10.416230 17.842520 0.756390 0.947411 0.031061 -0.007982 397024.000000 1 0 0
-5.107933 15.681869 5.699530 17.449832 -1.255911 1.238067 -0.011067 -0.006348 -788286.000000 1 0 0
14.381467 9.191869 -1.788670 17.161480 0.568708 1.675212 0.024406 0.002601 -445493.000000 1 0 0
12.123167 9.471569 7.135030 16.958492 0.663221 1.136541 0.029785 -0.005991 -754711.000000 1 0 0
3.178167 12.921369 9.696130 16.464430 1.329622 0.941082 -0.001512 -0.004230 -1221990.000000 1 0 0
8.471367 12.603569 -2.556770 15.399711 0.979014 1.737596 0.009864 -0.005503 -934965.000000 1 0 0
9.459567 16.962969 2.232830 19.550224 1.062091 1.456337 0.011354 -0.015291 151865.000000 1 0 0
9.703267 14.229269 -7.432270 18.758042 0.972306 1.978190 0.021477 -0.015711 369360.000000 1 0 0
6.281367 11.475769 7.307030 14.984710 1.069983 1.061421 0.004494 -0.001187 -1000480.000000 1 0 0
5.628067 16.946869 -5.445270 18.668757 1.250156 1.866777 0.017561 -0.008558 -1714450.000000 1 0 0
-4.013333 17.288069 -4.664270 18.350466 -1.342692 1.827793 -0.004479 -0.001372 240390.000000 1 0 0
-0.453333 18.615469 -0.545770 18.628985 -1.546449 1.600097 -0.003178 -0.002256 -958823.000000 1 0 0
6.773967 15.583269 -2.586270 17.187603 1.160743 1.721843 0.009130 -0.009818 1017650.000000 1 0 0
-0.943433 20.684969 1.054630 20.733313 -1.525218 1.519908 0.006264 -0.003483 76612.200000 1 0 0
-1.402133 18.893069 4.260530 19.418191 -1.496718 1.349587 0.004772 -0.005926 426521.000000 1 0 0
7.174667 13.745369 -4.288570 16.087351 1.089728 1.840639 0.011652 -0.003688 -1725100.000000 1 0 0
-1.032233 11.916969 7.718430 14.235653 -1.484393 0.997755 -0.009534 0.003658 319911.000000 1 0 0
7.650467 10.842269 10.902130 17.173843 0.956312 0.883034 0.013838 -0.003576 290678.000000 1 0 0
1.690167 16.245469 -7.329570 17.902361 1.467130 1.992614 0.021052 -0.007525 -235204.000000 1 0 0
8.849567 7.241169 14.913530 18.792624 0.685771 0.654119 0.021304 0.001965 557910.000000 1 0 0
11.443767 11.406069 -4.774770 16.848046 0.783748 1.858136 0.016679 -0.004980 -31171.000000 1 0 0
-3.324233 17.051269 4.542830 17.956436 -1.378256 1.315025 -0.005162 -0.000844 -577099.000000 1 0 0
4.004367 15.417469 -6.601770 17.242873 1.316682 1.963697 0.021695 -0.012113 -848529.000000 1 0 0
-4.458233 14.053269 9.467830 17.521701 -1.263601 0.999945 0.007206 -0.008229 574873.000000 1 0 0
6.168767 17.553869 0.442630 18.611500 1.232858 1.547011 0.008537 -0.029060 -537369.000000 1 0 0
9.854567 10.692769 -2.105370 14.692869 0.826169 1.714583 0.002316 -0.001551 -122792.000000 1 0 0
7.276067 18.095969 -2.583370 19.674325 1.188496 1.702483 0.016937 -0.015957 354014.000000 1 0 0
3.506467 10.408269 10.426430 15.143904 1.245846 0.811391 -0.007158 0.004401 911007.000000 1 0 0
0.004867 18.603569 2.027030 18.713676 1.570535 1.462265 0.006870 -0.008484 673622.000000 1 0 0
-0.855633 17.195869 -7.303870 18.702314 -1.521079 1.972007 0.030254 -0.010377 -256721.000000 1 0 0
10.064267 8.686769 13.200530 18.735085 0.712067 0.788953 0.033328 -0.006545 131246.000000 1 0 0
3.687867 11.490769 5.516630 13.269188 1.260239 1.142032 -0.005708 0.000490 417562.000000 1 0 0
13.073267 13.752369 8.243930 20.688169 0.810708 1.160932 0.056500 -0.025248 2989.820000 1 0 0
-0.470433 17.386669 6.712630 18.643416 -1.543746 1.202471 -0.003911 -0.009575 -443359.000000 1 0 0
12.140667 13.630169 5.771530 19.143873 0.843132 1.264550 0.039969 -0.016525 -129240.000000 1 0 0
4.924667 14.680069 -4.329470 16.077969 1.247127 1.843441 0.013542 -0.008452 -1589130.000000 1 0 0
3.729467 17.568669 4.672530 18.558006 1.361622 1.316278 0.008898 -0.016881 -81505.100000 1 0 0
7.128867 11.772669 2.095930 13.921545 1.026310 1.419669 0.008908 -0.003606 696864.000000 1 0 0
6.354267 8.807069 11.867130 16.086328 0.945789 0.741116 0.000840 0.001272 287558.000000 1 0 0
-5.325833 14.753369 1.772830 15.785098 -1.224364 1.458249 -0.006786 0.002341 -214665.000000 1 0 0
6.671367 13.714169 6.004330 16.390166 1.118041 1.195727 0.008613 -0.011941 -948102.000000 1 0 0
5.831567 15.899769 5.012230 17.661605 1.219260 1.283049 0.007063 -0.018834 813640.000000 1 0 0
1.152967 18.033269 4.294130 18.573306 1.506948 1.337486 0.005481 -0.011416 306354.000000 1 0 0
7.500467 17.971169 -6.829270 20.636348 1.175414 1.908090 0.021641 -0.010034 230847.000000 1 0 0
-2.310133 18.846069 -5.931170 19.891954 -1.448826 1.873570 0.017188 -0.003424 -218363.000000 1 0 0
13.584267 10.161569 -4.384070 17.521697 0.642245 1.823691 0.027091 -0.004753 -522979.000000 1 0 0
-1.660333 17.977469 9.761830 20.524118 -1.478701 1.075119 0.007522 -0.006382 -630060.000000 1 0 0
3.473867 11.756769 -1.512570 12.352216 1.283493 1.693558 0.007923 -0.007842 114596.000000 1 0 0
4.366067 14.141569 -10.800670 18.322145 1.271341 2.201220 0.019891 -0.016977 -75469.800000 1 0 0
11.588967 13.362669 2.464030 17.858794 0.856364 1.432382 0.021693 -0.008696 273513.000000 1 0 0
15.936567 6.515169 -7.008170 18.588600 0.388086 1.957367 0.021929 0.001093 -128736.000000 1 0 0
2.401767 16.063369 2.971830 16.511574 1.422378 1.389825 0.007122 -0.014189 -32984.700000 1 0 0
13.520567 10.570569 3.626030 17.541116 0.663553 1.362579 0.026361 -0.001243 -708585.000000 1 0 0
-4.877233 19.545169 -5.766470 20.953597 -1.326254 1.849596 -0.006504 -0.010092 252050.000000 1 0 0
5.495767 12.061069 0.135630 13.254857 1.143244 1.560564 0.009627 -0.007983 39201.100000 1 0 0
4.247467 15.493369 9.536530 18.682368 1.303223 1.035081 0.004991 -0.004096 -444805.000000 1 0 0
7.711267 9.451469 14.029230 18.590675 0.886447 0.715694 0.013966 -0.003855 -1256970.000000 1 0 0
-4.921333 13.477969 6.961130 15.947806 -1.220699 1.119098 -0.008556 -0.004477 -875119.000000 1 0 0
-4.683233 17.175469 0.620630 17.813326 -1.304598 1.535949 0.004796 0.001116 -2574500.000000 1 0 0
-0.739133 16.569469 3.474530 16.945973 -1.526218 1.364296 0.003244 -0.006352 -1772800.000000 1 0 0
8.070867 16.653069 -4.634270 19.077213 1.119506 1.816173 0.016128 -0.013921 -188370.000000 1 0 0
3.188767 16.610469 -4.452270 17.489958 1.381131 1.828191 0.021486 -0.009418 -501964.000000 1 0 0
9.478367 14.307469 8.223330 19.030667 0.985700 1.123966 0.035953 -0.019102 218258.000000 1 0 0
12.676367 10.934869 9.256830 19.129834 0.711774 1.065696 0.052354 -0.013873 254642.000000 1 0 0
3.630167 12.300469 12.192530 17.695690 1.283819 0.810672 0.001658 -0.001092 638587.000000 1 0 0
-3.149433 19.094069 6.145930 20.304553 -1.407325 1.263285 0.007328 -0.006305 -144573.000000 1 0 0
-2.762133 15.715069 10.301430 18.992426 -1.396810 0.997509 0.001510 -0.008205 -441891.000000 1 0 0
1.924067 14.315869 7.720230 16.378281 1.437196 1.079953 -0.003638 -0.004740 -522824.000000 1 0 0
4.446067 17.280869 7.761030 19.458405 1.318975 1.160531 0.021114 -0.020558 149345.000000 1 0 0
-1.929033 13.396169 9.414930 16.486947 -1.427781 0.963008 -0.003559 -0.004823 -1756280.000000 1 0 0
5.755767 17.652769 2.982030 18.805361 1.255611 1.411551 0.004232 -0.025606 224118.000000 1 0 0
7.416667 15.438469 -6.757670 18.412479 1.122950 1.946595 0.017410 -0.006674 -101733.000000 1 0 0
10.877267 7.646869 9.407930 16.287992 0.612746 0.955012 0.024451 -0.006865 -143931.000000 1 0 0
9.242167 16.413069 -2.378670 18.985904 1.057953 1.696413 0.014487 -0.010312 -1650940.000000 1 0 0
14.563567 11.262169 -6.565370 19.545793 0.658254 1.913354 0.056376 -0.013909 535751.000000 1 0 0
11.027567 6.324269 16.138730 20.544153 0.520704 0.667191 0.037504 -0.014721 475069.000000 1 0 0
8.416267 8.430869 10.340030 15.774325 0.786265 0.855955 0.009359 -0.000262 835572.000000 1 0 0
16.284367 9.451069 4.375830 19.330060 0.525866 1.342443 0.033568 -0.013835 -343413.000000 1 0 0
-3.407033 14.296669 4.538830 15.381924 -1.336850 1.271262 -0.009686 0.000044 -1901280.000000 1 0 0
4.576367 14.708269 12.850930 20.060476 1.269149 0.875505 0.008683 0.005457 -465978.000000 1 0 0
16.182267 10.817969 -4.652970 20.013604 0.589276 1.805434 0.050877 -0.009856 818265.000000 1 0 0
14.730067 13.729669 6.178530 21.063070 0.750261 1.273083 0.053056 -0.016293 -265445.000000 1 0 0
6.094567 9.555469 9.352930 14.694490 1.003039 0.880855 -0.001758 0.002304 767373.000000 1 0 0
10.336267 11.974669 8.769030 18.086653 0.858702 1.064623 0.040920 -0.017810 473006.000000 1 0 0
8.038167 11.580869 -0.274870 14.099795 0.964048 1.590292 0.008116 -0.005309 578104.000000 1 0 0
7.483667 13.542669 -8.624570 17.714186 1.065960 2.079303 0.017754 -0.006323 -239286.000000 1 0 0
2.765267 15.216969 -2.222970 15.625122 1.391035 1.713550 0.013791 -0.011696 378985.000000 1 0 0
12.289667 13.649869 -7.732770 19.928637 0.837788 1.969282 0.042182 -0.021528 -196451.000000 1 0 0
-7.999233 14.659469 9.745130 19.335339 -1.071284 1.042565 0.020132 -0.019406 114317.000000 1 0 0
11.476767 9.691169 2.316930 15.198786 0.701244 1.417758 0.012486 0.001773 -2399280.000000 1 0 0
12.009667 8.828669 4.667230 15.619236 0.633916 1.267348 0.018252 -0.003005 330161.000000 1 0 0
13.987567 8.034669 6.173230 17.271847 0.521395 1.205297 0.030411 -0.011218 -2140810.000000 1 0 0
16.247567 7.429369 7.252530 19.281549 0.428875 1.185171 0.054100 -0.016998 1163890.000000 1 0 0
13.533867 8.225369 2.555730 16.042257 0.546107 1.410802 0.008915 -0.000303 -1196680.000000 1 0 0
-4.077633 17.480269 -7.159270 19.324649 -1.341624 1.950315 0.003270 -0.013771 -225057.000000 1 0 0
2.736067 19.736369 -3.782470 20.280962 1.433044 1.758398 0.018608 -0.016756 373259.000000 1 0 0
-0.188333 14.784869 6.220430 16.041246 -1.558059 1.172577 -0.007301 -0.004753 1238460.000000 1 0 0
6.566367 15.982469 8.415230 19.219068 1.180973 1.117581 0.025354 -0.019023 189956.000000 1 0 0
12.798367 15.214569 -2.043370 19.986412 0.871438 1.673213 0.019713 -0.014527 21968.800000 1 0 0
12.761667 15.677069 4.227830 20.652002 0.887556 1.364621 0.038803 -0.016429 36097.100000 1 0 0
3.096667 18.010569 1.356830 18.325145 1.400525 1.496687 0.021615 -0.020158 -1215350.000000 1 0 0
10.410667 14.491069 -1.172170 17.881472 0.947815 1.636396 0.003525 -0.004447 -1381520.000000 1 0 0
-6.313133 15.684469 -0.550770 16.916311 -1.188129 1.603361 -0.006403 -0.001043 -391004.000000 1 0 0
-3.897533 15.805369 -2.607870 16.486402 -1.329024 1.729647 0.000873 -0.003767 -2097120.000000 1 0 0
-6.840233 16.807669 1.746130 18.230071 -1.184295 1.474866 0.000466 -0.005519 -1302330.000000 1 0 0
0.158767 19.442169 -6.297670 20.437314 1.562630 1.884040 0.031583 -0.018732 -486804.000000 1 0 0
4.674067 14.697269 7.080530 16.970284 1.262888 1.140400 0.012203 -0.015719 -1047520.000000 1 0 0
8.643667 12.303469 6.921330 16.552738 0.958368 1.139402 0.021949 -0.010925 -361200.000000 1 0 0
-7.527633 17.512369 -5.730170 19.904351 -1.164828 1.862814 0.024694 -0.016623 483598.000000 1 0 0
-7.703033 17.868569 -1.169570 19.493342 -1.163775 1.630831 0.016682 -0.003781 32352.600000 1 0 0
-13.722433 -9.284831 9.249830 18.975579 0.594860 1.061618 0.022525 -0.009440 284308.000000 1 0 0
-12.580233 -12.891531 7.450330 19.492594 0.797619 1.178606 0.017498 -0.013372 -527535.000000 1 0 0
-3.804733 -15.099031 12.355430 19.877459 1.323950 0.900038 0.006257 -0.014307 -166073.000000 1 0 0
-2.134633 -14.204431 14.829730 20.645663 1.421633 0.769444 0.022865 -0.007449 -393884.000000 1 0 0
-7.099533 -13.767431 12.555430 19.939517 1.094687 0.889661 0.010241 -0.020329 243191.000000 1 0 0
-9.979633 -11.578531 8.832130 17.653950 0.859429 1.046860 0.012831 -0.015230 331767.000000 1 0 0
-10.608533 -10.636431 11.172130 18.721408 0.786711 0.931343 0.018652 -0.018279 448270.000000 1 0 0
-5.887633 -12.310231 10.635930 17.301127 1.124682 0.908723 0.006132 -0.012965 796164.000000 1 0 0
-12.602833 -10.288631 7.172730 17.780196 0.684646 1.155555 0.013565 -0.009508 -274945.000000 1 0 0
-7.725633 -11.346231 12.279430 18.417566 0.973005 0.840992 0.009498 -0.017463 -581744.000000 1 0 0
-14.818333 -11.688631 7.303530 20.237308 0.667871 1.201570 0.025808 -0.000910 -398624.000000 1 0 0
-11.115333 -9.182431 9.078830 17.037981 0.690457 1.008822 0.013255 -0.014451 -707120.000000 1 0 0
-5.384533 -11.879531 13.191530 18.550819 1.145234 0.779732 0.010122 -0.016208 -787384.000000 1 0 0
4.320867 -12.415231 14.872530 19.849433 -1.235878 0.723841 0.020291 -0.006214 174126.000000 1 0 0
6.768067 -12.676631 13.847530 19.956397 -1.080397 0.803920 0.036784 -0.011584 317564.000000 1 0 0
6.524067 -8.451131 16.127930 19.341540 -0.913379 0.584751 0.014150 -0.002674 -301692.000000 1 0 0
0.716567 -1.876831 14.424730 14.563955 -1.206081 0.138383 0.006654 -0.004599 -1446920.000000 1 0 0
-0.246233 -6.404631 15.514430 16.786228 1.532369 0.391768 0.009177 -0.009983 -353177.000000 1 0 0
-1.608733 -4.735531 18.129130 18.806345 1.243313 0.269177 0.017583 -0.029898 -528051.000000 1 0 0
-5.254933 12.520169 12.861130 18.702343 -1.173409 0.812515 0.015379 -0.017029 -652281.000000 1 0 0
-3.969733 8.881469 11.664530 15.188829 -1.150467 0.695134 0.003662 0.000795 -76237.500000 1 0 0
-0.709033 -3.958431 15.101930 15.628185 1.393556 0.260247 0.008777 -0.004510 259531.000000 1 0 0
-4.416733 9.261269 14.193030 17.513444 -1.125796 0.625949 0.009498 -0.003418 241386.000000 1 0 0
-13.551833 -2.233331 16.820030 21.715279 0.163331 0.684759 0.019645 0.001261 -948222.000000 1 0 0
-0.326133 0.759469 17.381230 17.400871 -1.165186 0.047517 0.016908 -0.004738 -235609.000000 1 0 0
-3.368233 -7.299331 15.369830 17.345227 1.138466 0.481906 0.011953 -0.010318 176883.000000 1 0 0
-7.434433 5.613769 12.531430 15.614798 -0.646760 0.639263 0.004072 -0.001274 -1013470.000000 1 0 0
-9.939433 10.279369 13.443230 19.625957 -0.802209 0.816231 0.016750 -0.009653 88039.000000 1 0 0
-5.619133 2.214569 11.143330 12.674887 -0.375420 0.496687 0.007048 -0.000135 -867041.000000 1 0 0
-7.251633 -7.682031 16.941330 19.965180 0.814211 0.557569 0.014337 -0.005086 -174117.000000 1 0 0
-4.843233 2.798269 18.525630 19.351645 -0.523913 0.293229 0.020138 -0.004368 -426514.000000 1 0 0
0.875567 -8.415331 16.566730 18.602176 -1.467125 0.472177 0.013434 -0.010891 655049.000000 1 0 0
-15.172433 -3.479331 13.932530 20.890760 0.225422 0.840725 0.030578 -0.007992 -201009.000000 1 0 0
-14.452433 2.115069 13.160030 19.660435 -0.145315 0.837441 0.012040 -0.006865 -1084930.000000 1 0 0
-5.569633 0.929369 16.132930 17.092570 -0.165340 0.336681 0.014443 -0.000794 526684.000000 1 0 0
4.449467 5.586069 15.050630 16.659033 0.898175 0.443042 0.001407 0.003045 645200.000000 1 0 0
-1.158633 -12.050631 13.748030 18.318528 1.474944 0.721980 0.006488 -0.007866 -327761.000000 1 0 0
-6.059433 -4.095231 16.749230 18.276333 0.594329 0.411695 0.016841 -0.008293 108699.000000 1 0 0
-13.051533 -1.630231 9.826330 16.418189 0.124264 0.929166 0.010170 -0.001547 -792930.000000 1 0 0
-14.550833 10.369469 10.128930 20.538935 -0.619157 1.055081 -0.001517 -0.008689 522563.000000 1 0 0
-3.795733 -3.322731 17.617330 18.325349 0.719048 0.278882 0.019377 -0.017947 -3101880.000000 1 0 0
-8.066033 9.291169 11.893730 17.112788 -0.855865 0.802349 0.005374 -0.007112 197381.000000 1 0 0
-4.277233 10.605969 16.424430 20.013575 -1.187461 0.608223 0.010666 -0.007060 301731.000000 1 0 0
-12.308533 12.921269 8.142830 19.615424 -0.809680 1.142717 0.004483 -0.013505 -197923.000000 1 0 0
-12.765933 3.191869 10.567630 16.876963 -0.245007 0.894182 0.003740 -0.003376 307118.000000 1 0 0
-10.241733 -3.482731 13.671030 17.433289 0.327786 0.669405 0.012018 0.000918 -1268850.000000 1 0 0
-4.261533 -6.513231 17.724830 19.358523 0.991412 0.413777 0.026822 -0.013981 -443325.000000 1 0 0
0.785567 -3.725631 18.215830 18.609511 -1.362986 0.206057 0.008268 -0.010164 -1058050.000000 1 0 0
-6.019633 1.813169 13.686630 15.061454 -0.292566 0.430591 0.011232 0.002768 -714923.000000 1 0 0
-10.559433 8.602169 10.227830 17.032541 -0.683606 0.926686 0.005468 -0.013525 -378466.000000 1 0 0
4.501467 2.447969 17.309330 18.051832 0.498083 0.287808 0.014174 -0.007975 -939992.000000 1 0 0
0.456067 -5.328831 13.252230 14.290767 -1.485420 0.383587 0.000757 -0.002143 -1106490.000000 1 0 0
-4.312133 5.574369 20.736230 21.901126 -0.912384 0.327619 0.052627 -0.010950 -686688.000000 1 0 0
-10.975833 10.765969 9.001230 17.815643 -0.775746 1.041133 0.008300 -0.012551 836725.000000 1 0 0
0.633667 4.035169 13.171130 13.789952 1.415032 0.300714 0.004449 -0.000666 -2900930.000000 1 0 0
-3.079033 7.148169 13.339030 15.443655 -1.164070 0.528187 0.006488 0.002676 -1039670.000000 1 0 0
0.686267 8.763869 14.152230 16.660191 1.492649 0.555828 -0.005888 0.002490 374303.000000 1 0 0
-4.260133 -6.691831 13.022830 15.248719 1.003887 0.547117 0.011110 -0.002591 142643.000000 1 0 0
-5.137533 8.205169 16.470430 19.104819 -1.011382 0.531380 0.023902 -0.001780 36550.700000 1 0 0
1.552067 -10.807031 15.632530 19.067690 -1.428155 0.609658 0.008770 -0.004974 -114994.000000 1 0 0
-15.224333 -0.866731 14.135930 20.793173 0.056869 0.823259 0.019909 -0.001188 336373.000000 1 0 0
-13.735533 -5.364031 8.467130 17.003822 0.372309 1.049558 0.023971 -0.007198 180068.000000 1 0 0
-14.349933 -1.958431 12.055430 18.843816 0.135639 0.876617 0.022733 -0.003493 793959.000000 1 0 0
9.197967 1.134769 16.894230 19.269284 0.122751 0.501746 0.027587 -0.002200 -1002790.000000 1 0 0
4.651667 -6.891331 17.110530 19.023635 -0.977045 0.452320 0.016035 0.000034 -8871.310000 1 0 0
-6.135133 -2.677031 11.025130 12.898055 0.411440 0.545650 0.005972 0.000513 488948.000000 1 0 0
0.452667 -6.354731 18.091230 19.180201 -1.499683 0.338589 0.019239 -0.021335 -527774.000000 1 0 0
-8.552433 11.940069 11.975730 18.950659 -0.949228 0.886739 0.013263 -0.016099 -17216.200000 1 0 0
-6.746533 -5.969431 14.911730 17.421524 0.724362 0.543436 0.014543 -0.001077 -682184.000000 1 0 0
-4.322333 -9.058731 17.099530 19.827685 1.125599 0.530791 0.025671 -0.014780 -122516.000000 1 0 0
2.334667 -6.296131 16.276730 17.607494 -1.215704 0.391283 0.008766 -0.009586 -693353.000000 1 0 0
2.281067 5.049169 16.182930 17.105104 1.146471 0.329860 0.007596 0.000058 -1938670.000000 1 0 0
0.886367 -8.855031 13.995730 16.585465 -1.471031 0.566368 0.002441 -0.005026 -351920.000000 1 0 0
-9.985533 -2.783031 11.206930 15.266021 0.271809 0.746442 0.004182 -0.000799 -134135.000000 1 0 0
-1.246733 10.057669 12.403530 16.017447 -1.447467 0.685068 -0.005811 0.000504 -450847.000000 1 0 0
-12.439333 -3.754631 11.356430 17.256962 0.293140 0.852533 0.016874 0.000635 252591.000000 1 0 0
-2.105333 6.565969 20.198130 21.342653 -1.260510 0.328975 0.031407 -0.000249 -613826.000000 1 0 0
0.125267 -13.331531 15.806330 20.678140 -1.561400 0.700689 0.014267 -0.009079 -474484.000000 1 0 0
4.003767 -8.735131 15.338830 18.100065 -1.141018 0.559640 0.013462 -0.002883 89305.800000 1 0 0
4.319667 -4.509031 16.239230 17.398375 -0.806844 0.367089 0.015079 -0.002583 -641585.000000 1 0 0
7.838367 1.833069 14.835230 16.878512 0.229730 0.497158 0.007963 0.002239 -554148.000000 1 0 0
-6.441833 -0.107131 11.828030 13.468889 0.016629 0.498765 0.006406 0.001010 270854.000000 1 0 0
-3.633133 -11.066631 18.539030 21.894419 1.253586 0.560956 0.038875 -0.013762 -981540.000000 1 0 0
3.187467 -1.546231 13.596630 14.050591 -0.451654 0.254890 0.001465 -0.001858 -169212.000000 1 0 0
-2.591633 8.695169 15.949130 18.349312 -1.281125 0.517224 0.008738 0.002712 -1569950.000000 1 0 0
-3.350633 4.010869 14.902330 15.792189 -0.874847 0.337299 0.013351 0.000312 -415957.000000 1 0 0
-4.703033 -9.093531 19.743130 22.239649 1.093496 0.478374 0.046255 -0.024425 -103342.000000 1 0 0
-5.973333 -3.104731 19.108330 20.259524 0.479334 0.338729 0.021637 -0.014680 -1024140.000000 1 0 0
-6.631533 -8.599231 11.030930 15.479193 0.913879 0.777557 0.010874 -0.010362 -535432.000000 1 0 0
-11.858133 2.421969 12.749430 17.579227 -0.201474 0.759391 0.009377 -0.009192 -117227.000000 1 0 0
-11.677933 -7.542331 11.592230 18.100847 0.573461 0.875745 0.016633 -0.006394 -870638.000000 1 0 0
-11.262833 -7.369031 15.175330 20.284099 0.579377 0.725543 0.039849 -0.024222 -887907.000000 1 0 0
0.290767 5.620369 17.742530 18.613717 1.519108 0.307159 0.008123 0.000102 -17197.500000 1 0 0
-2.304533 -0.173931 13.295930 13.495291 0.075330 0.172100 0.011094 -0.002270 255164.000000 1 0 0
-6.161133 -10.587031 18.213630 21.949512 1.043754 0.592053 0.036872 -0.014675 -61184.400000 1 0 0
0.342867 2.468669 19.354730 19.514544 1.432792 0.128068 0.031175 -0.009914 -360943.000000 1 0 0
-0.709933 10.882869 14.786430 18.373333 -1.505655 0.635497 0.002052 -0.000838 -402107.000000 1 0 0
-12.947233 -2.198131 14.288730 19.406968 0.168173 0.743258 0.019086 -0.002930 -970774.000000 1 0 0
-13.740433 8.430269 11.608230 19.865043 -0.550314 0.946712 -0.003519 -0.015070 366351.000000 1 0 0
-18.135133 -0.574031 6.694630 19.339871 0.031642 1.217325 0.043402 -0.015073 -800208.000000 1 0 0
-2.118233 -7.983331 17.779830 19.604663 1.311440 0.434885 0.014067 -0.014777 -860476.000000 1 0 0
5.539267 2.718169 14.481430 15.741148 0.456187 0.402785 0.006599 0.000317 -2501950.000000 1 0 0
-14.238133 -6.913131 11.081530 19.321390 0.452010 0.959979 0.031531 -0.008757 876578.000000 1 0 0
3.196967 7.549369 16.324730 18.267741 1.170218 0.465411 0.003982 -0.000855 -493625.000000 1 0 0
0.949267 1.963669 14.749330 14.909723 1.120505 0.146813 0.005641 -0.004520 -1154690.000000 1 0 0
-14.471933 0.565869 9.671630 17.415438 -0.039081 0.982015 0.012672 -0.005155 -2003480.000000 1 0 0
-9.615033 -5.256931 15.464430 18.953437 0.500337 0.616483 0.011259 -0.000655 -214342.000000 1 0 0
-2.730533 -0.099831 18.303230 18.506053 0.036545 0.148188 0.020208 -0.008235 434407.000000 1 0 0
6.791167 3.593369 17.747030 19.338803 0.486674 0.408569 0.030295 -0.000089 -300155.000000 1 0 0
-4.282233 -0.937831 14.847530 15.481156 0.215601 0.287093 0.016463 0.002194 -247720.000000 1 0 0
4.732667 -9.465631 17.751030 20.666285 -1.107161 0.537607 0.025647 -0.001491 -314337.000000 1 0 0
1.969767 6.822469 13.603530 15.345426 1.289722 0.481097 0.000994 0.005661 -1582550.000000 1 0 0
-3.907933 -1.068831 20.326430 20.726266 0.266974 0.196742 0.026655 -0.014781 -1230860.000000 1 0 0
-10.783433 1.620569 16.280430 19.594924 -0.149167 0.590164 0.016992 -0.007939 -290220.000000 1 0 0
-4.073933 7.117969 18.590230 20.318933 -1.050960 0.415483 0.032983 0.002662 -175068.000000 1 0 0
-12.753433 0.981869 14.730630 19.509115 -0.076837 0.715045 0.014370 -0.008022 -632946.000000 1 0 0
-16.217233 -4.661331 8.483030 18.886197 0.279886 1.104965 0.029069 -0.005346 -2591780.000000 1 0 0
-2.456733 0.710069 15.856730 16.061619 -0.281362 0.159898 0.019079 -0.000932 52572.900000 1 0 0
-13.576633 -8.840531 12.667630 20.565719 0.577189 0.907194 0.014721 -0.010697 383064.000000 1 0 0
6.076167 -3.241831 14.742230 16.271527 -0.490112 0.437027 0.014268 -0.002200 947454.000000 1 0 0
-15.843133 0.447569 7.514430 17.540577 -0.028243 1.128072 0.021153 -0.008166 498396.000000 1 0 0
-14.228233 6.033169 12.343930 19.779139 -0.401047 0.896832 0.012201 -0.013295 195179.000000 1 0 0
0.515767 9.551869 16.678430 19.226914 1.516852 0.520738 -0.000222 0.003090 -437206.000000 1 0 0
-10.426233 -5.464631 10.682430 15.896000 0.482759 0.833863 0.013729 -0.006736 142430.000000 1 0 0
-3.221433 -11.064331 14.999330 18.914992 1.287474 0.655101 0.020277 -0.010611 -439059.000000 1 0 0
-3.620933 2.796969 12.683530 13.483550 -0.657711 0.346206 0.007588 -0.000302 -1547500.000000 1 0 0
-12.475033 -7.697031 7.452130 16.443995 0.552822 1.100464 0.016084 -0.006401 -90805.500000 1 0 0
-8.324533 -1.870831 13.231230 15.743675 0.221064 0.572747 0.009874 0.002471 -215473.000000 1 0 0
-9.785133 6.299569 9.535430 15.045193 -0.571997 0.884359 -0.000975 -0.005260 -966553.000000 1 0 0
-17.953033 -3.457531 6.490030 19.400680 0.190258 1.229694 0.032325 -0.006860 720923.000000 1 0 0
-1.531033 -0.206331 20.648130 20.705842 0.133959 0.074680 0.024268 -0.008059 -1023690.000000 1 0 0
-2.789033 2.586069 20.183230 20.538481 -0.747656 0.186263 0.033193 -0.008923 -561779.000000 1 0 0
-3.826133 11.274769 11.151030 16.312731 -1.243637 0.818142 0.002488 -0.007854 -615629.000000 1 0 0
-4.245333 -4.866931 14.941830 16.277842 0.853508 0.407979 0.012241 -0.005730 2451420.000000 1 0 0
-0.062433 -14.407831 13.394430 19.672321 1.566463 0.821837 0.015861 -0.006137 -745258.000000 1 0 0
-12.216533 0.448869 8.430830 14.850052 -0.036726 0.967050 0.003917 -0.000943 -389889.000000 1 0 0
-7.894233 2.080769 15.523030 17.538899 -0.257719 0.484167 0.009330 0.001855 -450778.000000 1 0 0
3.462067 -2.206231 18.587230 19.035190 -0.567366 0.217376 0.018725 -0.009101 -283828.000000 1 0 0
-2.130833 4.747769 12.618630 13.649600 -1.148935 0.391156 0.004063 0.002201 -516487.000000 1 0 0
-10.227433 -6.227831 13.179730 17.807064 0.546963 0.737517 0.004361 -0.008939 19648.200000 1 0 0
2.368467 -3.823431 14.267630 14.959730 -1.016190 0.305370 -0.000359 -0.002260 -312781.000000 1 0 0
6.679867 1.046669 17.029130 18.322320 0.155426 0.377958 0.015407 -0.001913 -985269.000000 1 0 0
-2.023833 -5.760831 13.755030 15.049382 1.232956 0.417777 0.002408 -0.003013 -2828410.000000 1 0 0
-13.060233 3.597869 14.702730 19.992114 -0.268815 0.744500 0.004454 -0.005021 -21016.000000 1 0 0
-13.252633 -6.311931 13.334830 19.831551 0.444490 0.833343 0.012719 -0.013572 -484587.000000 1 0 0
-9.613633 6.767769 12.026730 16.818646 -0.613390 0.774053 0.006111 -0.003921 -517229.000000 1 0 0
-1.222233 -2.517231 12.922230 13.221737 1.118778 0.213254 0.005745 0.000174 450185.000000 1 0 0
0.212867 6.576469 15.471330 16.812415 1.538440 0.402122 0.003684 0.000787 248575.000000 1 0 0
-16.619133 -0.943131 9.600530 19.216015 0.056689 1.047647 0.028235 -0.006004 180044.000000 1 0 0
-1.312733 2.689569 13.898230 14.216815 -1.116728 0.212100 0.008783 -0.001093 -2198770.000000 1 0 0
-11.372333 -3.475831 16.026730 19.956639 0.296622 0.638354 0.018476 -0.003060 1192830.000000 1 0 0
-5.318533 -1.487331 17.155530 18.022518 0.272685 0.311437 0.025333 -0.000670 633252.000000 1 0 0
-11.960633 6.546669 11.035430 17.541275 -0.500807 0.890386 -0.000152 -0.005296 -1396960.000000 1 0 0
-2.963533 4.652869 18.722130 19.517937 -1.003667 0.286542 0.033326 -0.003186 143127.000000 1 0 0
5.106767 -2.005031 16.730530 17.607096 -0.374130 0.316871 0.020209 0.000630 -497331.000000 1 0 0
-8.131433 -4.155931 12.100930 15.159962 0.472484 0.646468 0.012648 -0.000014 -1748400.000000 1 0 0
-11.590333 -0.878331 16.092930 19.851692 0.075637 0.625522 0.015377 -0.003525 149518.000000 1 0 0
2.000967 1.884569 17.480530 17.695321 0.755450 0.155968 0.009350 -0.007916 -1500460.000000 1 0 0
-8.991633 -7.499731 11.445830 16.373834 0.695178 0.796754 0.013150 -0.010274 -126467.000000 1 0 0
-7.173733 6.977469 14.792230 17.859384 -0.771530 0.594799 0.007260 -0.002676 -597559.000000 1 0 0
-5.737633 3.498469 15.870230 17.234382 -0.547551 0.400549 0.012084 0.002521 282468.000000 1 0 0
-9.392833 4.199069 11.566730 15.480527 -0.420398 0.726988 0.000654 -0.004976 23353.100000 1 0 0
-10.321433 0.170969 14.074630 17.454409 -0.016563 0.632816 0.007748 -0.001735 -235326.000000 1 0 0
7.872667 -0.765231 15.565530 17.459959 -0.096897 0.470154 0.017879 -0.005000 62160.300000 1 0 0
-8.715933 -7.658031 14.807930 18.811903 0.720879 0.664610 0.019702 -0.001013 -2833300.000000 1 0 0
-0.117233 4.052669 15.768030 16.280928 -1.541877 0.251674 0.006033 -0.002477 53903.700000 1 0 0
-8.143733 2.933369 9.605830 12.930468 -0.345732 0.733429 0.002353 -0.000769 -137622.000000 1 0 0
-2.055033 -9.679131 13.058930 16.384272 1.361587 0.648417 0.002101 -0.004258 310005.000000 1 0 0
-6.116833 10.138569 10.511430 15.833395 -1.027937 0.844805 0.008228 -0.011160 -2203700.000000 1 0 0
-8.738533 -2.853131 15.656130 18.155349 0.315588 0.530918 0.015191 -0.004867 -379348.000000 1 0 0
4.327567 5.698969 17.719430 19.109795 0.921332 0.383814 0.014577 0.002650 -195853.000000 1 0 0
-6.966633 -1.012731 15.210830 16.760935 0.144358 0.433463 0.010895 0.003345 308040.000000 1 0 0
-0.902733 -10.009831 15.355230 18.351968 1.480855 0.579553 0.000363 -0.008762 -1713720.000000 1 0 0
-4.329133 5.752569 16.279130 17.800099 -0.925661 0.416395 0.018893 -0.000038 258874.000000 1 0 0
3.736467 0.028669 17.505530 17.899876 0.007673 0.210295 0.016749 -0.007462 -967150.000000 1 0 0
1.369867 0.066569 19.269230 19.317976 0.048557 0.071055 0.012985 -0.009502 -258299.000000 1 0 0
-6.437733 6.440769 17.746830 19.946876 -0.785634 0.474098 0.027566 -0.005489 -204733.000000 1 0 0
-12.299433 0.570669 11.082030 16.565419 -0.046365 0.837953 0.012325 -0.002962 -127138.000000 1 0 0
-5.455133 5.156469 13.981430 15.869090 -0.757261 0.492723 0.008204 0.001164 -751801.000000 1 0 0
-8.621333 -9.581431 9.894230 16.248907 0.838094 0.916102 0.011309 -0.009222 -803503.000000 1 0 0
6.792167 -3.990731 17.140830 18.864451 -0.531214 0.430802 0.026658 0.001894 -378720.000000 1 0 0
-16.730333 1.679269 9.667630 19.395542 -0.100038 1.048991 0.026474 -0.011732 404539.000000 1 0 0
-4.109833 -9.467031 11.425030 15.396321 1.161226 0.734655 0.000136 -0.006644 -2376390.000000 1 0 0
-11.215833 -3.878431 9.151030 14.985943 0.332928 0.913927 0.012343 -0.002295 -354031.000000 1 0 0
3.287167 -5.350831 18.559430 19.593093 -1.019908 0.326273 0.008004 -0.014671 -793990.000000 1 0 0
2.518467 -1.962431 16.142230 16.454950 -0.661939 0.195270 0.007620 -0.007340 -39387.800000 1 0 0
-3.296633 -4.434531 19.979430 20.729459 0.931532 0.269823 0.026824 -0.030207 -1065390.000000 1 0 0
-6.443733 -3.453531 14.412230 16.160474 0.491994 0.469445 0.015540 0.000151 942190.000000 1 0 0
-9.563333 4.998069 13.994730 17.671743 -0.481586 0.656838 0.009992 -0.005090 411683.000000 1 0 0
-5.936633 -5.281931 11.669630 14.118168 0.727105 0.597813 0.009542 0.002598 -1080370.000000 1 0 0
5.891967 1.737769 19.371930 20.322568 0.286807 0.307073 0.030907 -0.013471 348360.000000 1 0 0
-2.820133 11.783869 13.547230 18.175262 -1.335893 0.729712 0.008277 -0.012714 -297066.000000 1 0 0
3.386867 1.290469 15.217430 15.643093 0.364039 0.233817 0.003883 -0.001986 -894890.000000 1 0 0
-5.598233 7.418069 12.762430 15.787577 -0.924310 0.629394 -0.001765 -0.005322 -598656.000000 1 0 0
-1.773733 -1.609731 15.303930 15.490243 0.736964 0.155254 0.013593 -0.002643 -96854.600000 1 0 0
-7.422333 10.672169 13.990830 19.097894 -0.963107 0.748684 0.029823 -0.017782 -233093.000000 1 0 0
-10.310533 2.035769 10.646430 14.959877 -0.194938 0.778930 0.002804 -0.003211 -620743.000000 1 0 0
-13.705333 5.181369 9.095330 17.245514 -0.361446 1.015256 0.001371 -0.010289 -1163430.000000 1 0 0
-0.073733 -5.119231 20.237930 20.875482 1.556394 0.247780 0.009490 -0.021485 -487094.000000 1 0 0
-14.475233 -3.019431 7.451830 16.558354 0.205644 1.103992 0.017629 -0.005615 731741.000000 1 0 0
-2.397633 2.346769 17.674830 17.990430 -0.774678 0.187586 0.018357 -0.003336 394135.000000 1 0 0
-6.403233 -8.600231 14.538630 18.064803 0.930797 0.635451 0.012397 -0.004719 307863.000000 1 0 0
-8.052333 2.034669 12.072330 14.653364 -0.247500 0.602607 0.004870 -0.001517 600158.000000 1 0 0
-14.727333 -3.509631 10.051230 18.172481 0.233944 0.984714 0.025621 -0.007006 1467690.000000 1 0 0
-0.460233 6.841169 12.894530 14.604188 -1.503624 0.488722 -0.000351 0.000950 -679497.000000 1 0 0
-1.950433 -2.392831 19.192630 19.439312 0.886906 0.159479 0.019349 -0.022934 -246387.000000 1 0 0
-12.864133 10.450069 7.210530 18.074336 -0.682221 1.160439 -0.002450 -0.013178 -83574.300000 1 0 0
-19.603633 2.309569 6.721430 20.852198 -0.117273 1.242599 0.053527 -0.015000 786309.000000 1 0 0
-16.172233 8.591969 6.691430 19.497135 -0.488357 1.220474 0.018198 -0.004778 420191.000000 1 0 0
-12.360833 7.411069 13.499530 19.747188 -0.540096 0.818088 0.004599 -0.009544 99171.200000 1 0 0
-15.867033 8.183369 10.186230 20.554550 -0.476165 1.052305 0.006154 -0.018927 -953229.000000 1 0 0
1.916767 10.773269 14.948230 18.525304 1.394720 0.631897 -0.003275 -0.004842 -706369.000000 1 0 0
2.051167 14.391069 12.131630 18.933742 1.429219 0.875333 -0.004196 -0.012222 -216815.000000 1 0 0
-3.113933 13.602769 11.771030 18.256206 -1.345755 0.870076 -0.010188 -0.009342 63409.900000 1 0 0
8.942967 4.784069 15.744730 18.728601 0.491218 0.572262 0.020698 0.000633 93440.200000 1 0 0
-0.373933 12.442969 12.787530 17.846238 -1.540754 0.771968 -0.009479 -0.004309 -61409.500000 1 0 0
2.920667 13.509569 14.412130 19.968681 1.357881 0.764488 -0.010584 -0.000444 54254.200000 1 0 0
-2.766133 -4.050831 -13.749370 14.598147 0.971669 2.798912 0.006694 -0.010161 -273541.000000 1 0 0
6.462367 -11.492531 16.073130 20.789082 -1.058551 0.687000 0.043389 -0.016623 271608.000000 1 0 0
7.880467 -13.544031 7.309630 17.290842 -1.043836 1.134323 0.005819 -0.007818 93.066800 1 0 0
-0.180333 15.665569 1.244930 15.715993 -1.559285 1.491499 -0.001709 -0.006028 -2365660.000000 1 0 0
-13.539333 8.247469 8.942630 18.201783 -0.547119 1.057209 -0.018509 -0.004091 549959.000000 1 0 0
-15.468533 -9.650231 5.076030 18.925341 0.557781 1.299258 0.019162 -0.001132 -624889.000000 1 0 0
9.679667 -11.142431 11.021930 18.420984 -0.855533 0.929374 0.023977 -0.008905 166303.000000 1 0 0
-5.718633 -10.575431 -16.559170 20.463348 1.075085 2.513605 0.030538 -0.007487 59204.800000 1 0 0
-2.050533 -12.413631 -14.629970 19.296086 1.407091 2.431319 0.011189 -0.000765 -303244.000000 1 0 0
5.362167 -15.639831 -12.690570 20.842450 -1.240502 2.225445 0.014043 0.001534 236687.000000 1 0 0
2.497067 -11.476031 -16.847270 20.536921 -1.356546 2.532803 0.010333 -0.003401 164786.000000 1 0 0
0.367467 -14.062831 -14.238870 20.016085 -1.544672 2.362244 0.006547 0.007736 265075.000000 1 0 0
-6.281133 -6.175031 -14.213970 16.721860 0.776880 2.586826 0.005939 -0.011599 -132600.000000 1 0 0
-6.129533 -8.024831 -17.008670 19.780393 0.918508 2.605822 0.013727 -0.012700 64548.200000 1 0 0
-2.424633 -16.144531 -13.272270 21.039912 1.421727 2.253398 0.020676 -0.004739 463196.000000 1 0 0
15.979367 -8.194331 -9.164070 20.161037 -0.473841 2.042656 0.034100 -0.009405 -15641.300000 1 0 0
19.231267 -3.747731 -3.377870 19.882080 -0.192465 1.741520 0.062272 -0.020980 336606.000000 1 0 0
15.812167 -11.513831 -8.989570 21.526851 -0.629378 2.001597 0.045548 -0.017083 115893.000000 1 0 0
18.484367 -2.614731 -6.477770 19.760317 -0.140524 1.904788 0.144698 -0.005282 -227823.000000 1 0 0
8.884867 -9.460931 -15.674370 20.350331 -0.816788 2.449993 0.048019 -0.016745 181100.000000 1 0 0
-4.590733 9.474369 -16.122570 19.255539 -1.119591 2.563114 0.002245 -0.009446 299738.000000 1 0 0
2.483967 -9.549831 -18.656070 21.104936 -1.316329 2.655077 0.016505 0.002578 112055.000000 1 0 0
10.958467 8.052869 -15.212970 20.405175 0.633737 2.412148 0.041061 -0.027843 441698.000000 1 0 0
18.536367 -6.094931 -8.690870 21.360625 -0.317673 1.989815 0.053684 -0.008710 120117.000000 1 0 0
12.425767 5.166169 -14.047170 19.452814 0.394021 2.377651 0.021541 -0.003963 89504.700000 1 0 0
16.032667 6.271569 -10.624270 20.230030 0.372875 2.123715 0.038163 -0.016751 38035.200000 1 0 0
3.268767 -0.094431 -19.476170 19.748797 -0.028881 2.975240 0.026876 -0.003207 50063.900000 1 0 0
10.464567 -1.572631 -14.674070 18.091674 -0.149165 2.516818 0.018963 -0.003639 104162.000000 1 0 0
12.328267 -6.005531 -13.717570 19.396502 -0.453303 2.356353 0.037734 -0.016252 198054.000000 1 0 0
10.178967 6.625869 -12.755770 17.613154 0.577034 2.380697 0.024405 -0.007409 468135.000000 1 0 0
10.732867 5.291069 -16.669070 20.519448 0.458014 2.518975 0.038881 -0.003697 151750.000000 1 0 0
12.300967 -10.061131 -14.876270 21.767948 -0.685569 2.323210 0.074850 -0.029440 331051.000000 1 0 0
-1.170933 2.164969 -17.611070 17.782238 -1.075002 3.002731 0.007993 -0.007606 338071.000000 1 0 0
6.539067 -1.041231 -16.994270 18.238662 -0.157907 2.770059 0.016857 -0.000473 -52711.300000 1 0 0
7.198567 -6.127931 -15.574670 18.219255 -0.705231 2.596052 0.016108 -0.010581 184085.000000 1 0 0
-2.184733 -4.516731 -20.375770 20.984421 1.120275 2.900154 0.025291 -0.022625 335678.000000 1 0 0
15.784767 -0.315931 -13.205370 20.582529 -0.020012 2.267355 0.033824 -0.003912 -46503.700000 1 0 0
-3.896533 -0.362131 -18.565070 18.973032 0.092670 2.933844 0.007829 -0.011660 175769.000000 1 0 0
3.622767 8.944469 -17.614170 20.084496 1.185962 2.640386 0.026574 -0.016866 11661.100000 1 0 0
9.169067 -0.191631 -17.158070 19.455279 -0.020897 2.650724 0.023431 -0.008618 -18364.000000 1 0 0
4.320267 4.339069 -18.130670 19.136704 0.787569 2.815899 0.018809 -0.009514 494665.000000 1 0 0
-2.247733 -10.986031 -18.072970 21.269166 1.368982 2.586262 0.025803 -0.007355 168440.000000 1 0 0
6.088767 -9.325331 -16.308270 19.748280 -0.992366 2.542428 0.023335 -0.003318 217581.000000 1 0 0
10.257167 -12.409631 -10.962870 19.478012 -0.880075 2.168606 0.019013 -0.001603 139412.000000 1 0 0
6.341667 6.856069 -16.600870 19.047607 0.824355 2.629143 0.028549 -0.020631 361042.000000 1 0 0
8.579467 1.292869 -20.102770 21.895208 0.149568 2.734146 0.041132 -0.011636 143375.000000 1 0 0
-0.958233 -0.820731 -20.365270 20.404314 0.708258 3.079720 0.023715 -0.014558 140581.000000 1 0 0
-0.759733 6.772669 -19.686170 20.832464 -1.459087 2.808316 0.011033 -0.004812 52193.600000 1 0 0
8.763467 5.876969 -18.248970 21.079897 0.590736 2.617353 0.043373 -0.011988 59855.500000 1 0 0
12.244767 0.289669 -12.850570 17.752616 0.023652 2.380190 0.011155 -0.001121 -270028.000000 1 0 0
-4.006933 -2.451531 -19.890070 20.437231 0.549067 2.909674 -0.003593 -0.012863 297753.000000 1 0 0
5.879267 -11.139231 -14.623170 19.299880 -1.085158 2.430550 0.015215 -0.010793 163236.000000 1 0 0
11.267467 2.351769 -15.995470 19.706387 0.205768 2.517835 0.028360 -0.001205 -204460.000000 1 0 0
-2.821033 -4.406131 -17.132370 17.913412 1.001305 2.845209 0.006733 -0.012453 152857.000000 1 0 0
-6.930033 -4.661231 -17.026270 18.964343 0.592108 2.685555 0.023682 -0.019119 46538.000000 1 0 0
3.029567 10.390769 -15.320370 18.757935 1.287097 2.526536 0.013863 -0.012773 200094.000000 1 0 0
16.917167 -6.193631 -10.733670 20.970534 -0.350959 2.108128 0.063473 -0.025818 -81454.800000 1 0 0
9.808267 -3.197031 -17.576570 20.380356 -0.315093 2.610841 0.029187 -0.009384 -191461.000000 1 0 0
-7.052233 -1.598531 -19.001570 20.330985 0.222904 2.777961 0.000791 0.003568 442336.000000 1 0 0
1.701167 -7.236631 -19.190770 20.580293 -1.339911 2.772023 0.021792 -0.020123 186516.000000 1 0 0
5.982367 10.744969 -13.855970 18.526494 1.062778 2.415690 0.026670 -0.008678 209722.000000 1 0 0
6.279167 -4.090631 -17.217770 18.777987 -0.577401 2.731070 0.031174 -0.027981 455310.000000 1 0 0
4.547067 13.468569 -14.749470 20.484752 1.245206 2.374630 0.038261 -0.011828 106891.000000 1 0 0
9.553867 11.394469 -15.717370 21.636683 0.873037 2.383898 0.069646 -0.012259 40023.600000 1 0 0
17.003667 0.868969 -11.234670 20.398471 0.051060 2.154071 0.056815 -0.007993 -3626.450000 1 0 0
14.728867 -2.748331 -12.520970 19.526073 -0.184473 2.266914 0.053576 -0.003253 65722.600000 1 0 0
-8.943633 0.176669 -17.406770 19.570780 -0.019751 2.666885 0.033004 -0.010034 483876.000000 1 0 0
-3.201333 4.346069 -19.096170 19.844409 -0.935924 2.866113 0.009768 -0.004112 55135.800000 1 0 0
3.933567 1.795469 -16.860570 17.406191 0.428203 2.890549 0.007550 -0.004813 491104.000000 1 0 0
-5.262533 14.293369 -13.637170 20.444243 -1.218018 2.301028 0.017082 -0.015481 304701.000000 1 0 0
1.038467 9.826369 -17.472270 20.072772 1.465505 2.626905 0.019246 -0.002582 253152.000000 1 0 0
1.466467 -4.990231 -19.681270 20.356948 -1.284975 2.883226 0.027848 -0.009188 607409.000000 1 0 0
3.790167 -6.156031 -18.358370 19.730480 -1.018925 2.766455 0.022268 -0.007495 -360058.000000 1 0 0
-6.901533 7.365769 -15.858170 18.798066 -0.817925 2.574761 0.001097 -0.002557 57612.500000 1 0 0
-11.737233 3.333669 -16.772370 20.740984 -0.276737 2.512664 0.045480 -0.020908 186685.000000 1 0 0
-4.178033 6.795169 -17.726470 19.438571 -1.019527 2.718741 0.003749 0.018663 409153.000000 1 0 0
-8.101633 5.353969 -17.527370 20.037718 -0.583965 2.635652 0.014497 -0.017071 402932.000000 1 0 0
-8.215733 4.273269 -14.682270 17.358806 -0.479624 2.578880 -0.007546 -0.026582 477079.000000 1 0 0
9.467167 14.252169 -11.903870 20.843553 0.984461 2.178648 0.052251 -0.024659 360687.000000 1 0 0
14.437167 9.484469 -11.880370 20.964974 0.581244 2.173264 0.082673 -0.022761 176139.000000 1 0 0
8.549867 15.761269 -9.881370 20.473381 1.073760 2.074468 0.015377 -0.010358 3668.350000 1 0 0
7.861467 13.707969 -14.459570 21.419390 1.050093 2.311855 0.053360 -0.022730 221652.000000 1 0 0
4.814867 15.545369 -13.110570 20.898050 1.270437 2.248953 0.034558 -0.016001 159422.000000 1 0 0
10.939067 11.913369 -11.168370 19.655128 0.828007 2.175133 0.048886 -0.017071 155571.000000 1 0 0
16.096767 10.289969 -8.951470 21.097824 0.568786 2.008967 0.071482 -0.046463 399591.000000 1 0 0
13.114067 11.403569 -9.840970 19.971601 0.715745 2.086041 0.066854 -0.018932 -82011.500000 1 0 0
10.939067 11.464069 -7.520870 17.539999 0.808828 2.013943 0.025584 -0.011961 172567.000000 1 0 0
5.688967 17.052069 -10.007570 20.573985 1.248785 2.078782 0.051835 -0.013643 -171760.000000 1 0 0
11.687667 13.840269 -10.375270 20.875844 0.869523 2.090933 0.064113 -0.026901 -34444.700000 1 0 0
8.629767 -19.391631 -1.954370 21.314966 -1.152087 1.662615 0.057560 -0.011361 252101.000000 1 0 0
7.864567 -17.234931 -4.340270 19.435334 -1.142703 1.796014 0.047207 -0.001221 93507.100000 1 0 0
4.012967 -18.384231 4.881430 19.439964 -1.355884 1.316977 0.048957 -0.033224 299854.000000 1 0 0
10.451667 -17.684731 -2.008370 20.640266 -1.037021 1.668254 0.044906 -0.022471 275101.000000 1 0 0
-3.683333 -14.985931 7.768330 17.276921 1.329788 1.104438 0.025050 -0.030234 99036.900000 1 0 0
-15.289233 -12.796431 -4.570070 20.454702 0.696873 1.796122 0.031584 -0.003835 -83996.500000 1 0 0
-9.047733 -12.519131 -7.329970 17.097326 0.944989 2.013872 0.014250 -0.016184 -4033.120000 1 0 0
-11.455133 -15.513731 7.091130 20.547020 0.934769 1.218433 0.020271 -0.007895 99566.400000 1 0 0
-14.677333 -7.101831 -7.191370 17.820660 0.450656 1.986180 0.050485 -0.038707 -249139.000000 1 0 0
4.910467 -15.152331 6.769730 17.307081 -1.257403 1.168911 0.035231 -0.017145 206870.000000 1 0 0
2.600367 -14.066831 9.278530 17.050770 -1.388002 0.995396 0.018709 -0.007690 403756.000000 1 0 0
3.292667 -17.438331 9.940930 20.341070 -1.384176 1.060183 0.051062 -0.011621 108010.000000 1 0 0
-7.357133 -17.004331 -6.115070 19.510734 1.162454 1.889590 -0.019764 -0.010051 44667.000000 1 0 0
2.069367 -19.820131 -3.869070 20.299989 -1.466766 1.762564 0.035712 -0.021199 -64491.700000 1 0 0
-17.324933 -9.959431 -3.587670 20.303077 0.521730 1.748435 -0.043918 -0.032732 -42071.400000 1 0 0
-4.359233 -14.737031 2.721830 15.607413 1.283196 1.395507 0.006554 -0.003657 184114.000000 1 0 0
-10.742133 -10.136131 -14.628270 20.787517 0.756381 2.351395 0.037980 -0.008009 246006.000000 1 0 0
1.244567 -20.427231 2.604330 20.630154 -1.509945 1.444220 0.045345 -0.016403 158111.000000 1 0 0
5.931867 -18.044731 -0.249070 18.996352 -1.253193 1.583908 0.035964 -0.019543 152135.000000 1 0 0
-7.701433 -18.728931 -3.482870 20.547878 1.180668 1.741119 0.018157 -0.020263 111495.000000 1 0 0
-9.478233 -15.608831 -7.718170 19.825303 1.025074 1.970678 0.035594 -0.017929 42700.500000 1 0 0
-11.730233 -11.441231 -12.373870 20.533212 0.772926 2.217585 0.026513 -0.002685 415861.000000 1 0 0
-13.124733 -15.195931 -3.282570 20.345766 0.858402 1.732844 0.027151 -0.001177 194251.000000 1 0 0
0.124967 -20.291231 -2.569470 20.453651 -1.564638 1.696753 0.041876 -0.025926 405904.000000 1 0 0
-11.473933 -17.209731 -0.267970 20.685690 0.982762 1.583751 0.020328 0.017546 -5366.540000 1 0 0
0.807167 -20.198631 4.890630 20.797944 -1.530856 1.333424 0.045993 -0.022682 88575.100000 1 0 0
-18.305633 -9.484931 2.305830 20.745529 0.478056 1.459418 0.039563 0.004533 -47663.600000 1 0 0
-15.019633 -14.973331 -0.473170 21.213531 0.783854 1.593103 0.049370 0.003858 97048.300000 1 0 0
10.323467 -15.583631 -4.820370 19.304390 -0.985715 1.823170 0.027259 -0.002527 -73283.200000 1 0 0
-0.338533 -19.086131 -7.090770 20.363546 1.553061 1.926456 0.020532 -0.011042 220286.000000 1 0 0
-9.978233 -17.476831 -3.030570 20.351636 1.052018 1.720263 0.025499 0.017900 544975.000000 1 0 0
-14.495133 -6.984231 -11.466570 19.757798 0.449009 2.189963 0.048156 -0.013805 -6857.130000 1 0 0
-12.396233 -14.831931 2.220030 19.457166 0.874616 1.456449 0.031776 -0.006055 159233.000000 1 0 0
-2.460633 -16.260731 9.764630 19.126267 1.420612 1.034989 0.007559 -0.020499 267691.000000 1 0 0
-12.521133 -14.408531 -6.557770 20.183877 0.855370 1.901704 0.028917 -0.017757 215570.000000 1 0 0
6.446567 -16.804331 -6.550470 19.153392 -1.204485 1.919841 0.042383 -0.016726 22426.100000 1 0 0
-17.557033 -7.344331 -3.038070 19.272220 0.396193 1.729097 0.000820 -0.009594 -65177.700000 1 0 0
-12.409833 -13.380031 -9.211970 20.442348 0.823000 2.038269 0.056001 -0.037763 40032.700000 1 0 0
-7.770033 -13.791731 9.824230 18.630640 1.057736 1.015358 0.018042 -0.017543 441918.000000 1 0 0
-16.051033 -8.701731 -5.750970 19.142347 0.496780 1.875942 0.049292 -0.000106 401062.000000 1 0 0
-0.799433 -19.722131 0.073830 19.738465 1.530284 1.567056 0.029581 -0.014823 324592.000000 1 0 0
-14.998833 -11.492831 -2.108970 19.013098 0.653819 1.681947 0.017472 0.002465 171722.000000 1 0 0
-7.394033 -19.061331 1.693730 20.515233 1.200758 1.488143 0.019566 -0.004100 211836.000000 1 0 0
-1.537933 -20.936731 -4.761670 21.526389 1.497472 1.793843 0.016173 -0.016161 171101.000000 1 0 0
-8.907833 -19.657631 -0.950270 21.602661 1.145327 1.614799 0.012326 0.005326 248179.000000 1 0 0
-17.922833 -7.127731 5.259430 19.992351 0.378513 1.304591 0.044382 -0.001989 54236.800000 1 0 0
-2.628933 -15.708731 -10.625970 19.146455 1.404978 2.159140 0.017297 -0.006630 81101.400000 1 0 0
-3.169833 -18.195231 -8.278970 20.239951 1.398315 1.992199 0.017142 -0.010456 128302.000000 1 0 0
4.118267 -17.890431 -6.163770 19.365425 -1.344544 1.894719 0.018627 0.023797 414648.000000 1 0 0
0.775167 -17.444331 -9.285970 19.777128 -1.526389 2.059556 0.016662 0.001955 -395469.000000 1 0 0
-7.621933 -9.914831 -14.729470 19.322397 0.915409 2.437656 0.022711 -0.012183 313138.000000 1 0 0
-5.059233 -19.713931 -1.962670 20.447175 1.319585 1.666932 0.017210 -0.007476 453028.000000 1 0 0
-9.346433 -16.143431 8.502330 20.500141 1.045990 1.143134 -0.007701 -0.009205 279688.000000 1 0 0
-7.912233 -14.681031 -9.697070 19.291689 1.076482 2.097464 0.060936 -0.028408 275480.000000 1 0 0
-12.410933 -8.177131 -12.600670 19.485215 0.582582 2.274018 0.040653 -0.010024 273082.000000 1 0 0
-15.798933 -12.993631 3.080630 20.686493 0.688273 1.421320 0.037478 0.000081 145252.000000 1 0 0
-5.983633 -14.367031 -13.236670 20.430978 1.176161 2.275585 0.004062 -0.000559 288051.000000 1 0 0
-13.955933 -11.350831 -6.852470 19.250085 0.682819 1.934749 0.035875 -0.024741 254452.000000 1 0 0
-11.297933 -10.243631 -9.526170 17.981190 0.736494 2.129144 0.018536 -0.010966 -19611.700000 1 0 0
-9.976433 -14.875231 3.377830 18.226668 0.980024 1.384395 0.003749 0.000402 333298.000000 1 0 0
5.113867 -18.073031 8.119530 20.462474 -1.295049 1.162767 0.053791 -0.024745 226602.000000 1 0 0
-5.062833 -16.525931 4.984730 17.988502 1.273518 1.290015 0.007339 -0.007743 307999.000000 1 0 0
-18.373733 -7.579531 -6.882070 21.033455 0.391253 1.904131 0.043768 -0.014004 205458.000000 1 0 0
-17.215633 -4.544731 -10.957470 20.906907 0.258100 2.122463 0.065442 -0.000927 -210457.000000 1 0 0
-15.640833 -4.347631 -13.260170 20.961147 0.271122 2.255711 0.047094 -0.002377 333739.000000 1 0 0
-19.212633 -4.601631 -5.912870 20.621889 0.235082 1.861606 0.036732 -0.014063 240136.000000 1 0 0
5.400767 -13.453331 8.523430 16.816933 -1.189045 1.039286 0.028800 -0.010540 263872.000000 1 0 0
20.129567 -2.975831 2.544330 20.506795 -0.146771 1.446403 0.074136 -0.020331 38382.300000 1 0 0
18.142867 -2.274031 0.318330 18.287596 -0.124690 1.553389 0.039277 -0.023364 142276.000000 1 0 0
14.276167 -11.236731 0.388930 18.172075 -0.666824 1.549392 0.037560 0.001374 63876.700000 1 0 0
11.263567 -13.849031 5.697530 18.738341 -0.887992 1.261848 0.040271 0.001937 537365.000000 1 0 0
9.958867 -13.159031 8.724530 18.666991 -0.922952 1.084474 0.026766 -0.016416 43528.600000 1 0 0
18.994067 4.298169 -4.354970 19.955315 0.222542 1.790803 0.074390 -0.000225 27008.200000 1 0 0
18.832067 -6.096031 -5.097070 20.439874 -0.313060 1.822825 0.049489 -0.006744 -96589.900000 1 0 0
17.737567 -9.944331 -0.101370 20.335222 -0.510973 1.575781 0.051712 0.002165 205796.000000 1 0 0
17.498767 -8.928631 8.338630 21.341510 -0.471809 1.169379 0.087799 -0.020675 101313.000000 1 0 0
20.105267 0.225669 -2.041070 20.209865 0.011224 1.671963 0.075644 -0.017891 7409.050000 1 0 0
7.354767 -13.831431 11.207030 19.261324 -1.082078 0.949806 0.017351 0.002382 271524.000000 1 0 0
16.059267 -6.386531 -3.466070 17.626726 -0.378509 1.768723 0.036154 -0.002505 305547.000000 1 0 0
14.391967 -6.946231 12.265630 20.145086 -0.449669 0.916168 0.061621 -0.020341 502240.000000 1 0 0
17.226867 1.538869 9.561930 19.762681 0.089093 1.065762 0.121074 -0.033670 437692.000000 1 0 0
16.893967 -10.039331 2.746330 19.842797 -0.536185 1.431946 0.047722 -0.008396 182182.000000 1 0 0
16.368167 -7.565931 -6.266670 19.090085 -0.432981 1.905266 0.050390 0.006520 273837.000000 1 0 0
17.940067 -4.306331 5.553430 19.267358 -0.235583 1.278418 0.088581 -0.026591 -28354.800000 1 0 0
13.158867 -13.535731 7.995530 20.501226 -0.799515 1.170162 0.046033 -0.012665 184037.000000 1 0 0
15.473867 -13.867331 -1.542170 20.835588 -0.730699 1.644880 0.048273 -0.006838 102318.000000 1 0 0
18.598667 -6.323131 8.039630 21.225646 -0.327718 1.182330 0.085777 -0.020122 295012.000000 1 0 0
19.536367 3.601569 2.812830 20.063722 0.182305 1.430138 0.047347 -0.016531 283565.000000 1 0 0
15.217367 -11.125231 8.117530 20.523969 -0.631287 1.164168 0.042485 -0.019177 202772.000000 1 0 0
14.009867 -4.546831 10.718730 18.216509 -0.313820 0.941709 0.055166 -0.014459 -111031.000000 1 0 0
18.776667 -7.724831 2.186230 20.420966 -0.390300 1.463533 0.071592 -0.010686 -64557.800000 1 0 0
18.998267 -5.766731 -1.285670 19.895785 -0.294701 1.635462 0.046183 -0.014074 84809.500000 1 0 0
14.725667 -13.471031 -6.081270 20.863743 -0.740932 1.866565 0.051901 -0.015595 423494.000000 1 0 0
13.790267 -9.412731 10.340130 19.638973 -0.598927 1.016305 0.045760 -0.020178 408807.000000 1 0 0
14.148167 2.209069 0.377330 14.324559 0.154888 1.544452 0.008787 -0.010599 -359175.000000 1 0 0
12.998567 2.507269 13.499730 18.907455 0.190548 0.775616 0.047620 -0.011950 -150524.000000 1 0 0
18.451267 -3.073931 9.108930 20.805550 -0.165081 1.117632 0.083332 -0.023842 191784.000000 1 0 0
7.580867 -18.758731 5.008930 20.843438 -1.186739 1.328109 0.053817 -0.019726 317756.000000 1 0 0
12.716167 -3.387831 14.728630 19.751224 -0.260371 0.729201 0.054896 -0.000814 402763.000000 1 0 0
11.915567 -13.758031 -7.341570 19.625565 -0.857040 1.954203 0.030285 -0.001927 235272.000000 1 0 0
10.645667 -17.509631 4.727330 21.030098 -1.024523 1.344070 0.034586 -0.011647 557181.000000 1 0 0
18.304567 0.025069 -4.350270 18.814427 0.001370 1.804128 0.052332 -0.020007 168111.000000 1 0 0
4.042867 -13.500531 11.444530 18.154514 -1.279835 0.888733 0.012953 -0.012382 -84404.100000 1 0 0
9.267867 -2.571231 14.394630 17.312133 -0.270629 0.589036 0.032296 -0.000463 420563.000000 1 0 0
8.901667 -9.321031 13.857230 18.924696 -0.808407 0.749206 0.028424 -0.014102 352247.000000 1 0 0
20.961167 5.757969 -2.563170 21.888229 0.268084 1.688168 0.054979 -0.018030 572904.000000 1 0 0
14.597867 -13.556531 2.148730 20.037322 -0.748428 1.463353 0.029560 0.000286 231069.000000 1 0 0
10.992767 -0.096831 13.897230 17.719574 -0.008808 0.669250 0.035255 -0.024560 121482.000000 1 0 0
19.705667 0.137369 7.418430 21.056241 0.006971 1.210753 0.104771 -0.024905 -9396.380000 1 0 0
19.944667 1.463869 0.438330 20.003119 0.073265 1.548882 0.059093 -0.018560 425367.000000 1 0 0
18.208767 0.205669 3.183230 18.486061 0.011295 1.397738 0.049595 -0.019666 50255.100000 1 0 0
10.168967 -8.875531 16.295630 21.159643 -0.717586 0.691755 0.043996 0.002577 35554.100000 1 0 0
19.259267 2.983269 5.464630 20.240589 0.153679 1.297420 0.062819 -0.013417 192237.000000 1 0 0
14.876067 2.006169 6.841430 16.496280 0.134050 1.143155 0.038123 -0.022717 -189827.000000 1 0 0
11.563867 -16.019031 1.825630 19.841000 -0.945534 1.478653 0.028369 -0.000180 274594.000000 1 0 0
7.833967 -16.449931 7.085430 19.549286 -1.126344 1.199912 0.017049 -0.000134 347386.000000 1 0 0
6.063367 6.749569 7.050030 11.490171 0.838902 0.910222 -0.002407 0.005178 -948140.000000 1 0 0
18.616867 2.480769 -6.326270 19.818266 0.132473 1.895696 0.042948 -0.006331 377225.000000 1 0 0
14.191667 4.563869 -7.214470 16.561428 0.311143 2.021522 0.021482 0.001019 128365.000000 1 0 0
-10.544533 -3.842831 -13.749070 17.747999 0.349479 2.457010 0.018377 -0.002881 -149674.000000 1 0 0
8.036867 -13.985531 -10.737970 19.377572 -1.049221 2.158131 0.009458 0.002859 -85517.600000 1 0 0
2.149567 -15.835031 13.660530 21.023294 -1.435873 0.863501 0.033664 -0.012624 620043.000000 1 0 0
-9.462333 -8.061531 2.376830 12.655961 0.705631 1.381871 0.011857 -0.004577 489304.000000 1 0 0
-13.654933 3.122669 -9.946770 17.179828 -0.224818 2.188273 0.018658 -0.003255 201192.000000 1 0 0
-12.989833 -5.379631 -13.174970 19.268005 0.392638 2.323719 0.041981 0.002876 -20289.500000 1 0 0
-17.886033 -1.230531 -9.114170 20.111999 0.068690 2.041115 0.051103 -0.020133 413463.000000 1 0 0
-12.209733 14.959469 4.772630 19.890734 -0.886263 1.328490 0.025045 -0.021358 433406.000000 1 0 0
-17.210033 6.381469 9.158530 20.513095 -0.355083 1.107977 0.006948 -0.020899 116441.000000 1 0 0
-13.453333 15.471969 -0.153770 20.503601 -0.855073 1.578296 0.039670 -0.019355 159976.000000 1 0 0
-16.139933 5.280169 -10.612970 20.025303 -0.316175 2.129371 0.049880 -0.012113 162508.000000 1 0 0
-18.388633 2.822669 -0.084870 18.604206 -0.152312 1.575358 0.057444 -0.004567 22682.700000 1 0 0
-9.760033 15.591669 -0.125470 18.394949 -1.011494 1.577617 0.007245 -0.008443 22983.600000 1 0 0
-18.686433 12.216569 2.538230 22.469311 -0.579019 1.457590 0.102582 -0.017846 -211498.000000 1 0 0
-8.772233 16.256669 -7.553970 19.957300 -1.075966 1.958979 0.060417 -0.036861 73381.100000 1 0 0
-14.277933 -1.526331 -12.720870 19.183576 0.106497 2.295766 0.001269 -0.021147 30534.400000 1 0 0
-19.192033 4.814469 -5.056670 20.422614 -0.245786 1.821000 0.081377 -0.012483 -30177.700000 1 0 0
-16.815333 9.661469 -5.926570 20.278650 -0.521506 1.867382 0.044964 0.011475 -115367.000000 1 0 0
-19.150133 1.176169 2.103130 19.301143 -0.061341 1.461616 0.048783 -0.010530 432495.000000 1 0 0
-14.165733 11.348469 -7.241970 19.542310 -0.675424 1.950429 0.040875 -0.019010 124782.000000 1 0 0
-12.879833 5.117469 -13.637370 19.443674 -0.378198 2.348126 0.041459 -0.019399 -261656.000000 1 0 0
-13.961333 9.377769 -6.678970 18.096133 -0.591476 1.948818 0.021258 -0.007365 129383.000000 1 0 0
-6.337233 11.238669 -15.364070 20.062973 -1.057361 2.443069 -0.002297 -0.028866 124622.000000 1 0 0
-14.971133 13.885569 2.849730 20.617100 -0.747797 1.432131 0.029677 -0.023698 -126993.000000 1 0 0
-18.640433 8.368469 -5.273370 21.102262 -0.421974 1.823369 0.062753 -0.007362 196471.000000 1 0 0
-3.503133 16.905169 -10.153770 20.028873 -1.366466 2.102447 0.010283 -0.007409 107815.000000 1 0 0
-19.268333 -1.532631 -6.888470 20.519957 0.079374 1.913140 0.033924 -0.007750 -133716.000000 1 0 0
-10.538933 13.638469 -6.335970 18.363591 -0.912902 1.923066 0.020916 -0.021904 110168.000000 1 0 0
-19.405333 3.315369 4.327530 20.156541 -0.169215 1.354416 0.053173 -0.006348 47093.600000 1 0 0
-15.285633 12.481469 0.311130 19.736627 -0.684751 1.555032 0.031588 -0.005464 39725.100000 1 0 0
-17.139133 2.474369 -8.289070 19.198465 -0.143379 2.017236 0.010847 -0.015616 125975.000000 1 0 0
-16.414133 12.592969 -4.512570 21.174747 -0.654420 1.785554 0.029097 -0.000141 84610.100000 1 0 0
-10.442533 15.515769 -9.095070 20.796776 -0.978403 2.023425 0.034378 -0.025013 249534.000000 1 0 0
-19.093233 1.590069 -6.992170 20.395350 -0.083087 1.920726 0.047161 -0.017160 264742.000000 1 0 0
-17.047233 10.363469 -0.513170 19.956778 -0.546228 1.596513 0.039334 -0.002822 -101106.000000 1 0 0
-11.566233 6.376969 -14.605470 19.691705 -0.503874 2.406408 0.030745 -0.022064 179147.000000 1 0 0
-13.070433 12.724269 -4.928370 18.895293 -0.771979 1.834673 0.032901 -0.010443 372768.000000 1 0 0
-18.823533 7.779569 -0.001670 20.367796 -0.391910 1.570878 0.056120 -0.004912 76560.600000 1 0 0
-14.441133 9.061469 -10.693470 20.124782 -0.560378 2.130999 0.032325 0.000191 422700.000000 1 0 0
-17.974433 11.311269 5.299730 21.888632 -0.561684 1.326244 0.027526 -0.025261 43586.700000 1 0 0
-7.960733 11.996869 -13.486770 19.727927 -0.984942 2.323533 -0.010395 -0.006749 440673.000000 1 0 0
-21.096733 -1.468431 -5.200470 21.777817 0.069493 1.811923 0.047489 -0.017241 210540.000000 1 0 0
-10.802933 13.685069 -3.450670 17.773340 -0.902555 1.766186 0.011532 0.004439 395754.000000 1 0 0
-18.915833 -4.750531 3.645130 19.840949 0.246052 1.386029 0.045053 -0.005246 -39774.800000 1 0 0
-11.299933 11.704469 -12.192970 20.331050 -0.802982 2.213949 0.023901 -0.012182 123315.000000 1 0 0
-14.918333 11.377169 -10.225170 21.367048 -0.651535 2.069797 0.049736 -0.014464 193638.000000 1 0 0
-12.556733 10.046769 -13.999970 21.321545 -0.674808 2.287113 0.041919 -0.007360 293871.000000 1 0 0
-18.202333 -5.081931 -3.175270 19.163332 0.272259 1.737259 0.001806 -0.008908 -236929.000000 1 0 0
-8.965633 12.626469 -11.669070 19.390139 -0.953346 2.216555 0.016600 -0.011222 -118531.000000 1 0 0
-15.584633 7.570569 -8.070770 19.113651 -0.452200 2.006724 0.021916 -0.002675 40526.600000 1 0 0
-14.807833 9.027969 1.910630 17.447827 -0.547503 1.461071 0.026395 -0.002288 -89435.500000 1 0 0
-19.724533 6.406969 8.030830 22.239620 -0.314071 1.201344 0.061653 -0.017733 207845.000000 1 0 0
-18.694733 6.097569 3.918630 20.050662 -0.315285 1.374094 0.024192 -0.002088 99313.300000 1 0 0
-14.524933 12.750869 5.659630 20.139259 -0.720448 1.285935 0.021511 -0.018793 67879.800000 1 0 0
17.787567 6.193669 5.549130 19.635476 0.335072 1.284285 0.022229 -0.021362 164236.000000 1 0 0
18.430467 8.100469 0.653230 20.142652 0.414101 1.538360 0.044185 -0.002941 -65952.200000 1 0 0
17.216767 4.422569 8.305430 19.620304 0.251439 1.133703 0.067190 -0.018263 -14878.400000 1 0 0
12.322367 12.725269 10.928730 20.813706 0.801482 1.017995 0.078267 -0.021148 165182.000000 1 0 0
15.091867 12.529869 4.255330 20.071619 0.692910 1.357168 0.033136 -0.008345 147029.000000 1 0 0
4.883167 10.183769 14.598530 18.457290 1.123679 0.658460 0.010398 0.000176 362545.000000 1 0 0
13.300267 13.420269 -5.034270 19.553634 0.789889 1.831189 0.050454 -0.004004 149927.000000 1 0 0
17.649667 9.431669 -2.662370 20.188000 0.490774 1.703060 0.018740 -0.008902 -87652.100000 1 0 0
14.705467 7.420469 9.531430 19.030562 0.467326 1.046217 0.058232 -0.013450 122739.000000 1 0 0
4.831467 19.164569 -1.715270 19.838496 1.323838 1.657366 0.021673 -0.018821 635921.000000 1 0 0
-3.624633 19.469169 2.791330 19.999451 -1.386731 1.430769 -0.028978 0.003840 -7624.770000 1 0 0
6.546867 13.251869 12.542230 19.385072 1.111933 0.867147 0.016032 0.009498 -237121.000000 1 0 0
-0.399633 17.183969 -9.903270 19.837421 -1.547544 2.093497 0.029123 -0.004962 77377.900000 1 0 0
10.625467 9.737269 15.582830 21.225917 0.741807 0.746395 0.039533 -0.001526 215283.000000 1 0 0
-1.291633 12.171269 0.759730 12.263168 -1.465071 1.508804 -0.003159 0.001290 401719.000000 1 0 0
-4.787433 19.180169 -2.405170 19.914398 -1.326191 1.691867 0.006050 0.007605 195674.000000 1 0 0
6.280167 18.026369 6.229730 20.079841 1.235558 1.255342 0.027080 -0.035298 29948.000000 1 0 0
11.375267 17.318369 -1.259070 20.758321 0.989633 1.631487 0.009714 -0.009359 336063.000000 1 0 0
18.589167 10.481369 3.472730 21.621195 0.513409 1.409481 0.045431 -0.003857 263576.000000 1 0 0
11.942267 16.777269 6.493730 21.593125 0.952187 1.265337 0.061527 -0.009421 14489.100000 1 0 0
18.088067 7.278369 -5.703770 20.314670 0.382561 1.855394 0.023510 0.007882 384580.000000 1 0 0
0.561967 15.833769 10.712630 19.125493 1.535320 0.976262 -0.010362 -0.001634 411988.000000 1 0 0
1.328767 20.344869 -1.512770 20.444261 1.505577 1.644859 0.021621 -0.010881 263853.000000 1 0 0
14.339967 9.818069 -1.075370 17.412224 0.600360 1.632595 0.024330 -0.004837 -43458.300000 1 0 0
10.207667 17.349169 1.792630 20.208999 1.038975 1.481975 0.031417 -0.018168 310245.000000 1 0 0
0.177667 17.910069 -0.462970 17.916933 1.560877 1.596639 0.002637 0.000737 113756.000000 1 0 0
-0.202633 21.061069 1.515330 21.116485 -1.561175 1.498974 0.015222 -0.000807 281707.000000 1 0 0
6.237267 17.111669 -0.395370 18.217273 1.221259 1.592501 0.013981 -0.034889 -45369.100000 1 0 0
7.897967 18.769469 -2.334070 20.496798 1.172499 1.684919 0.019537 -0.019951 54157.600000 1 0 0
10.151467 9.547669 12.808530 18.927987 0.754757 0.827528 0.039014 -0.009655 148424.000000 1 0 0
12.456767 14.475069 8.236030 20.797376 0.860199 1.163626 0.048564 -0.026881 263813.000000 1 0 0
0.393367 17.600669 7.045030 18.962351 1.548451 1.190143 -0.005754 -0.008073 341267.000000 1 0 0
7.210367 17.888169 -7.730070 20.778113 1.187637 1.951991 0.023318 -0.014828 17448.800000 1 0 0
-1.506733 18.470869 8.964730 20.586637 -1.489403 1.120243 0.036626 -0.021136 123574.000000 1 0 0
16.173767 6.984069 -7.799570 19.266584 0.407629 1.987582 0.053601 0.003418 -78982.900000 1 0 0
-4.777233 20.154969 -6.487970 21.705725 -1.338066 1.874342 -0.020169 -0.008254 320745.000000 1 0 0
3.328367 15.723269 9.467430 18.652921 1.362192 1.038449 0.005706 -0.009776 157623.000000 1 0 0
8.794967 14.909269 7.952330 19.049339 1.037837 1.140148 0.027363 -0.011996 53541.900000 1 0 0
-2.358633 19.312669 6.624830 20.553119 -1.449269 1.242609 0.008256 -0.008291 46484.200000 1 0 0
4.946067 17.926569 8.246330 20.342749 1.301587 1.153413 0.021327 -0.021817 -53163.300000 1 0 0
14.331067 12.136769 -6.276370 19.800845 0.702683 1.893334 0.010020 -0.008472 -125218.000000 1 0 0
11.557167 7.064769 15.867330 20.862675 0.548679 0.706620 0.042159 -0.010911 177016.000000 1 0 0
16.985467 9.626769 4.992330 20.152025 0.515623 1.320456 0.040293 -0.017222 20009.400000 1 0 0
4.766467 15.046469 11.983730 19.817296 1.264014 0.921394 0.000046 -0.010158 524268.000000 1 0 0
16.203167 11.767369 -4.679270 20.564756 0.628120 1.800345 0.061978 0.025647 83765.500000 1 0 0
15.448867 13.457069 6.736730 21.567191 0.716601 1.253120 0.059307 -0.010454 359718.000000 1 0 0
12.744267 14.389069 -8.119370 20.865901 0.845943 1.970474 0.068068 -0.028117 208654.000000 1 0 0
-8.669433 15.244169 9.411330 19.902686 -1.053706 1.078254 0.038908 -0.021268 120423.000000 1 0 0
-4.941433 17.084969 -7.165170 19.174295 -1.289252 1.953776 0.003201 0.003534 166778.000000 1 0 0
2.222667 19.319869 -4.464670 19.953217 1.456254 1.796464 0.018209 -0.033454 55250.800000 1 0 0
6.826567 16.268769 9.282930 19.936089 1.173498 1.086445 0.022574 -0.022239 483043.000000 1 0 0
13.533367 15.347669 -1.456470 20.514002 0.848136 1.641855 0.041333 -0.017979 126532.000000 1 0 0
12.468967 16.565069 4.059830 21.127207 0.925553 1.377432 0.039603 -0.024476 442373.000000 1 0 0
2.433067 18.438269 0.828330 18.616544 1.439597 1.526287 0.015667 -0.018808 -33677.400000 1 0 0
-6.709733 17.683769 2.089730 19.029009 -1.208148 1.460756 -0.026172 0.018358 106712.000000 1 0 0
0.067267 20.112669 -5.630970 20.886163 1.567452 1.843777 0.033182 -0.003201 197767.000000 1 0 0
-7.877933 17.949669 -6.497270 20.651077 -1.157220 1.890854 0.054324 -0.024266 60395.700000 1 0 0
-7.100133 18.342369 -0.608670 19.678030 -1.201469 1.601733 0.014545 -0.007258 59859.700000 1 0 0
-14.406633 -9.845131 8.902830 19.589233 0.599481 1.099013 0.024815 0.005454 232002.000000 1 0 0
-13.163833 -13.616531 7.640930 20.422542 0.802301 1.187325 0.017253 -0.007487 21887.500000 1 0 0
-4.018233 -16.020431 12.265930 20.573124 1.325047 0.932023 0.033405 -0.013167 188421.000000 1 0 0
-2.408833 -14.672131 14.049630 20.456441 1.408071 0.813709 0.028949 -0.047789 8931.920000 1 0 0
-7.396233 -13.670831 13.452730 20.556552 1.074871 0.857374 -0.005766 -0.015110 166883.000000 1 0 0
-10.588033 -11.559431 11.396430 19.380544 0.829231 0.942170 0.047447 -0.007205 110312.000000 1 0 0
-7.577333 -10.511431 12.708030 18.149385 0.946203 0.795132 0.012775 -0.015916 428200.000000 1 0 0
-15.312033 -12.363431 6.852630 20.839177 0.679256 1.235728 0.030478 -0.012839 154913.000000 1 0 0
-4.599233 -12.413931 13.205530 18.698787 1.215986 0.786646 0.014795 -0.017808 367921.000000 1 0 0
3.879167 -12.437331 14.031730 19.147443 -1.268461 0.748331 0.019294 -0.000750 552356.000000 1 0 0
7.401367 -13.161031 14.364130 20.840374 -1.058506 0.810349 0.068467 -0.017005 233017.000000 1 0 0
7.074367 -8.985231 16.688730 20.231034 -0.903827 0.600758 0.031094 -0.003256 521941.000000 1 0 0
-5.237033 13.145069 13.576430 19.609661 -1.191668 0.806078 0.010050 -0.014226 452775.000000 1 0 0
-13.642633 -1.475231 17.385330 22.148305 0.107715 0.668180 0.028909 -0.014837 195931.000000 1 0 0
-10.344133 9.504369 13.071630 19.188581 -0.743115 0.821370 0.013082 -0.009766 455278.000000 1 0 0
-7.326433 -8.605931 17.149230 20.538616 0.865534 0.582709 0.014223 -0.006037 -106570.000000 1 0 0
-4.920633 1.898169 18.231830 18.979338 -0.368168 0.281591 0.016563 -0.006393 489861.000000 1 0 0
-16.105433 -3.336631 14.040030 21.624997 0.204284 0.864198 0.052801 -0.016308 27965.300000 1 0 0
-14.713533 2.891669 12.679230 19.637023 -0.194058 0.868883 0.016377 -0.002600 274172.000000 1 0 0
-13.817133 10.888469 10.436730 20.454761 -0.667406 1.035339 -0.051167 0.032334 -49596.200000 1 0 0
-4.535733 11.329569 15.865830 20.016407 -1.189993 0.655667 0.020046 -0.001385 236667.000000 1 0 0
-13.028133 13.129869 7.558730 19.981494 -0.789287 1.182852 0.005465 -0.030433 36129.700000 1 0 0
-4.122133 -6.556231 18.663630 20.206613 1.009516 0.393325 0.029061 -0.015149 249932.000000 1 0 0
0.320867 -2.992731 17.829230 18.081505 -1.463989 0.167240 0.004402 -0.022180 98979.600000 1 0 0
-4.437833 6.281469 21.358030 22.700587 -0.955724 0.345642 0.047322 -0.001606 307056.000000 1 0 0
2.133867 -10.823231 16.383430 19.751265 -1.376137 0.592607 0.015491 -0.010318 395572.000000 1 0 0
-15.124533 -0.159231 13.509830 20.280344 0.010528 0.841756 0.011753 -0.008393 -23333.600000 1 0 0
-13.989633 -5.906231 7.729530 17.039338 0.399485 1.099964 0.018844 -0.005086 -133348.000000 1 0 0
9.903367 0.594669 16.557730 19.302557 0.059975 0.539823 0.026624 0.009929 458102.000000 1 0 0
-7.793433 12.510569 12.007430 19.011321 -1.013674 0.887189 0.019876 -0.006353 122432.000000 1 0 0
-1.820133 7.434469 19.939630 21.358208 -1.330696 0.366516 0.038229 -0.018940 522305.000000 1 0 0
0.707167 -14.082331 15.815830 21.188501 -1.520622 0.728108 0.006741 0.008656 534698.000000 1 0 0
-3.547233 -11.768331 17.904430 21.717391 1.278036 0.601605 0.032932 -0.013666 308969.000000 1 0 0
-2.153833 8.975169 16.744430 19.119848 -1.335273 0.503785 0.006810 -0.001172 628715.000000 1 0 0
-5.465633 -9.247831 20.288230 22.956650 1.037008 0.486953 0.087919 -0.039416 246291.000000 1 0 0
-6.858233 -3.449931 19.091530 20.577266 0.466073 0.382332 0.020791 -0.015328 -328825.000000 1 0 0
-11.021333 -8.213531 15.537430 20.744724 0.640447 0.724272 0.054753 -0.018039 311399.000000 1 0 0
-0.603933 5.905969 17.885430 18.844994 -1.468892 0.320490 0.013842 -0.005849 145386.000000 1 0 0
-6.174833 -11.449331 18.611930 22.707260 1.076191 0.610002 0.047045 -0.023673 400129.000000 1 0 0
0.114367 3.222969 18.824330 19.098586 1.535326 0.169674 0.020263 -0.007416 124681.000000 1 0 0
-18.793933 -0.060231 7.146830 20.107032 0.003205 1.207412 0.050804 -0.013955 274338.000000 1 0 0
-1.565933 -8.736131 17.604730 19.715441 1.393432 0.466959 0.016062 -0.014332 388578.000000 1 0 0
5.737667 3.553569 14.887830 16.346136 0.554519 0.425613 0.006279 0.000813 380170.000000 1 0 0
-13.868433 -6.940831 10.206830 18.565773 0.464029 0.988712 0.022914 -0.008078 171097.000000 1 0 0
3.832367 8.112869 16.750430 19.002173 1.129487 0.491765 0.008856 0.001247 160892.000000 1 0 0
6.443367 4.236369 17.140330 18.795071 0.581614 0.422763 0.035683 -0.030261 205504.000000 1 0 0
3.823367 -9.740131 17.765130 20.617665 -1.196740 0.532292 -0.009448 -0.010662 230163.000000 1 0 0
-4.639433 -0.716031 19.833530 20.381510 0.153128 0.232411 0.020395 -0.012721 749654.000000 1 0 0
-11.158533 1.750069 17.143630 20.529969 -0.155570 0.582566 0.029941 -0.007842 73966.800000 1 0 0
-16.843633 -3.952431 8.569330 19.307074 0.230484 1.110912 0.026230 -0.012930 244809.000000 1 0 0
-13.144433 -9.530431 12.177830 20.295437 0.627344 0.927260 0.024020 -0.018384 121594.000000 1 0 0
-15.074233 6.455469 12.436230 20.580704 -0.404616 0.921951 0.021384 -0.027623 20225.200000 1 0 0
1.159667 8.909969 16.953730 19.187531 1.441370 0.487342 0.001955 -0.010146 155578.000000 1 0 0
-3.799333 -10.310531 15.017530 18.608282 1.217745 0.631683 0.019442 -0.013100 679203.000000 1 0 0
-18.398233 -4.130231 6.991730 20.110646 0.220830 1.215719 0.075232 -0.000023 -154559.000000 1 0 0
-0.907533 -0.774831 21.084630 21.118371 0.706683 0.056536 0.028595 -0.017636 368075.000000 1 0 0
-1.912233 2.224369 20.130230 20.342827 -0.860713 0.144699 0.026922 -0.019885 -99857.400000 1 0 0
-8.234233 1.676069 16.312430 18.349582 -0.200806 0.475681 0.011878 0.005101 458522.000000 1 0 0
2.580367 -2.140331 18.934930 19.229427 -0.692453 0.175238 0.008112 -0.009093 -21336.600000 1 0 0
-12.574633 4.353169 14.392630 19.601512 -0.333274 0.746219 0.000634 -0.007229 162822.000000 1 0 0
-13.824133 -5.569731 13.176930 19.893718 0.383003 0.846823 0.048926 -0.008447 10831.800000 1 0 0
-17.529033 -0.954531 9.873530 20.141120 0.054401 1.058457 0.037998 -0.014081 232654.000000 1 0 0
-7.640933 7.764069 14.536430 18.165143 -0.793391 0.643105 0.018135 -0.010768 60856.300000 1 0 0
-9.529433 0.682069 14.193430 17.109318 -0.071453 0.592454 0.012045 0.001087 127918.000000 1 0 0
7.063167 -0.976631 15.115430 16.712820 -0.137400 0.440775 0.014734 -0.000786 37526.300000 1 0 0
4.088767 6.280269 18.431930 19.897131 0.993684 0.386163 0.019792 0.006052 182473.000000 1 0 0
1.735467 0.310569 20.111430 20.188559 0.177080 0.087440 0.016966 -0.005954 154315.000000 1 0 0
-7.169733 7.003969 17.524230 20.188098 -0.773704 0.519540 0.028804 -0.009595 760064.000000 1 0 0
7.376367 -3.253031 17.271430 19.060306 -0.415350 0.436714 0.020619 0.018509 278666.000000 1 0 0
-16.291833 2.452869 9.333330 18.935454 -0.149436 1.055374 0.015291 -0.011228 231979.000000 1 0 0
3.586567 -6.037231 19.143930 20.391215 -1.034745 0.351573 0.021087 -0.020423 109716.000000 1 0 0
-4.010533 -3.948631 20.375430 21.138453 0.777621 0.269502 0.027887 -0.028072 226093.000000 1 0 0
-9.630833 5.758669 14.559930 18.382241 -0.538904 0.656612 0.008870 -0.004204 -102723.000000 1 0 0
6.317767 2.376269 19.931830 21.043732 0.359756 0.326526 0.039284 -0.008796 31374.900000 1 0 0
-7.534733 11.378569 14.616130 19.996882 -0.985902 0.751127 0.036699 -0.021569 326391.000000 1 0 0
-14.593633 4.899869 8.910730 17.787185 -0.323927 1.046085 0.004649 -0.017489 96156.600000 1 0 0
0.422167 -5.909531 20.416830 21.259062 -1.499479 0.282425 0.012023 -0.021496 64787.600000 1 0 0
-5.969233 -8.433931 13.710130 17.167719 0.954879 0.645832 0.005329 -0.001148 358279.000000 1 0 0
-12.917233 10.306069 6.273030 17.675431 -0.673431 1.207988 -0.012317 -0.014454 47029.900000 1 0 0
-19.495433 2.460069 7.653130 21.087775 -0.125524 1.199399 0.032895 -0.017569 -139979.000000 1 0 0
-15.809533 9.315569 6.194130 19.367199 -0.532468 1.245251 0.007748 -0.007445 69538.200000 1 0 0
-12.702933 6.778569 14.120430 20.166805 -0.490182 0.795144 -0.004459 -0.021383 191192.000000 1 0 0
-16.512533 8.810169 10.491130 21.455690 -0.490122 1.059891 0.015623 -0.024512 152283.000000 1 0 0
2.055467 11.046869 14.049130 17.989895 1.386832 0.674618 -0.013142 -0.038274 394108.000000 1 0 0
1.251767 14.407169 12.644630 19.209896 1.484129 0.852324 -0.002464 -0.024313 412561.000000 1 0 0
8.916267 4.956669 16.678530 19.551004 0.507372 0.548940 0.024683 -0.000370 185450.000000 1 0 0
-0.571233 13.197069 13.330630 18.766849 -1.527538 0.780831 -0.010041 0.005933 174335.000000 1 0 0
3.673667 13.664669 14.970230 20.599194 1.308162 0.757234 0.005343 0.019457 196942.000000 1 0 0
-3.518633 -4.446131 -13.325170 14.481334 0.901326 2.739290 0.004007 -0.012749 109777.000000 1 0 0
6.134467 -11.943231 16.842430 21.539264 -1.096300 0.673023 0.014502 -0.000297 169860.000000 1 0 0
8.660667 -13.920731 6.919830 17.795447 -1.014255 1.171409 0.014113 -0.010625 180566.000000 1 0 0
-0.474833 15.184069 0.480730 15.199096 -1.539535 1.539162 -0.000687 -0.004887 -38626.900000 1 0 0
-14.053533 8.073469 8.163030 18.147114 -0.521443 1.104227 -0.011671 -0.005476 9424.750000 1 0 0
-16.334833 -9.586031 4.691430 19.512259 0.530691 1.327982 0.038684 -0.000226 367894.000000 1 0 0
8.914667 -10.681631 11.345930 17.952678 -0.875323 0.886677 0.005301 0.000480 175299.000000 1 0 0
-25.918793 6.093469 30.994502 40.860413 -0.230905 0.709718 0.080370 -0.027947 729392.000000 0 0 1
-24.779533 5.251569 30.680242 39.785443 -0.208842 0.690163 0.070501 -0.023473 1208170.000000 0 0 1
-23.752533 5.303869 31.690292 39.957333 -0.219693 0.654909 0.073124 -0.019867 1085160.000000 0 0 1
-22.436233 4.645869 31.132292 38.654732 -0.204184 0.634456 0.063110 -0.019905 224735.000000 0 0 1
-22.326833 3.226269 31.290282 38.574319 -0.143509 0.624648 0.051252 -0.025053 -92636.900000 0 0 1
-21.199833 2.648469 30.680602 37.386450 -0.124285 0.608276 0.045214 -0.020955 -3996.850000 0 0 1
-20.631633 1.395669 31.408752 37.604812 -0.067544 0.582241 0.041937 -0.019798 144153.000000 0 0 1
-21.470333 0.252769 31.335752 37.986425 -0.011772 0.600736 0.047519 -0.005436 178818.000000 0 0 1
-21.355433 -0.511231 32.548429 38.932199 0.023935 0.580792 0.042658 -0.008008 159983.000000 0 0 1
-22.059233 -1.904431 32.574858 39.387282 0.086119 0.596975 0.040283 -0.027631 -146950.000000 0 0 1
-21.347033 -2.803131 31.737172 38.351030 0.130565 0.596077 0.071446 -0.038180 274322.000000 0 0 1
-21.610833 -4.188231 31.961592 38.808669 0.191429 0.603123 0.077323 -0.045126 60978.200000 0 0 1
-23.035433 -4.819231 31.761542 39.530390 0.206235 0.637693 0.051695 -0.033636 830342.000000 0 0 1
-24.098533 -4.460331 32.644232 40.820090 0.183016 0.643984 0.036169 -0.020289 474496.000000 0 0 1
-23.909333 -4.912931 34.001022 41.855258 0.202661 0.622630 0.030519 -0.015355 -285543.000000 0 0 1
-25.241323 -4.735031 -33.480770 42.196053 0.185435 2.487265 0.023017 0.000196 281344.000000 0 0 1
-25.207373 -5.091331 -32.129500 41.153835 0.199297 2.466609 0.027617 -0.004450 -400184.000000 0 0 1
-26.360343 -4.706731 -31.452250 41.306961 0.176691 2.436308 0.034101 0.000046 -651962.000000 0 0 1
-26.365883 -5.233231 -30.030890 40.303857 0.195938 2.411499 0.024351 0.001756 -631544.000000 0 0 1
-26.509833 -6.622031 -30.070740 40.630924 0.244786 2.404008 0.021082 0.006840 451395.000000 0 0 1
-26.338403 -7.069331 -28.753370 39.628818 0.262224 2.382655 0.008235 0.002640 -171976.000000 0 0 1
-26.551223 -8.567331 -28.497700 39.880892 0.312125 2.366806 0.013999 -0.000101 -1158650.000000 0 0 1
-27.858003 -8.951731 -28.676470 40.970011 0.310913 2.346107 0.034071 -0.002993 -1138980.000000 0 0 1
-27.977923 -10.376131 -28.535090 41.287766 0.355144 2.333844 0.038902 -0.000282 890532.000000 0 0 1
-29.471923 -10.790831 -28.295450 42.257174 0.350980 2.304468 0.068850 -0.003356 931155.000000 0 0 1
-29.724933 -11.480631 -27.071770 41.812167 0.368579 2.275045 0.077351 -0.012906 -230031.000000 0 0 1
-31.075593 -11.429231 -26.656910 42.507772 0.352433 2.248630 0.084020 -0.011671 -30931.400000 0 0 1
-31.298963 -12.018931 -25.213940 41.950239 0.366641 2.215603 0.090309 -0.008421 -127757.000000 0 0 1
-30.853803 -11.320031 -24.076370 40.740298 0.351644 2.203059 0.102485 -0.007738 151848.000000 0 0 1
-31.029243 -11.978831 -22.848670 40.353043 0.368423 2.172708 0.115255 -0.011941 -369676.000000 0 0 1
-30.576733 -11.127031 -21.675170 39.096808 0.349008 2.158435 0.124136 -0.020137 -104718.000000 0 0 1
-30.489053 -11.782831 -20.394270 38.527182 0.368781 2.128628 0.120132 -0.022789 487197.000000 0 0 1
-29.341893 -12.615431 -20.257570 37.821488 0.406053 2.136026 0.103007 -0.035254 -93684.800000 0 0 1
-29.051623 -13.144231 -18.833370 37.033275 0.424884 2.104299 0.122199 -0.040066 -52333.800000 0 0 1
-28.466943 -12.033331 -18.210770 35.871995 0.399931 2.103263 0.120927 -0.040556 9697.760000 0 0 1
-27.912833 -12.386231 -16.968670 34.935379 0.417642 2.077978 0.107378 -0.036763 -97434.700000 0 0 1
-27.439473 -11.316131 -16.013070 33.725330 0.391153 2.065543 0.106695 -0.033303 695651.000000 0 0 1
-26.252573 -10.650031 -16.523370 32.796989 0.385390 2.098797 0.105165 -0.034149 1065920.000000 0 0 1
-26.027653 -9.485131 -15.748970 31.865914 0.349467 2.087741 0.095948 -0.028089 -559688.000000 0 0 1
-24.678133 -8.767431 -15.942370 30.660027 0.341363 2.117615 0.090942 -0.024061 104086.000000 0 0 1
-23.676633 -9.457031 -15.195870 29.680513 0.380010 2.108286 0.075717 -0.032160 329603.000000 0 0 1
-22.390833 -8.870931 -15.328670 28.548397 0.377214 2.137598 0.108297 -0.052125 185826.000000 0 0 1
-21.449633 -9.131031 -14.140070 27.265437 0.402460 2.116018 0.099271 -0.022549 -542996.000000 0 0 1
-20.727833 -10.288331 -14.306270 27.205922 0.460726 2.124512 0.090130 -0.022712 60369.100000 0 0 1
-19.724933 -10.456431 -13.317370 25.995428 0.487446 2.108653 0.098809 -0.025110 313846.000000 0 0 1
-18.631033 -11.505931 -13.665470 25.811759 0.553237 2.128723 0.085628 -0.020769 90954.800000 0 0 1
-17.759833 -11.243931 -14.724170 25.663960 0.564410 2.181848 0.088850 -0.022544 522197.000000 0 0 1
-18.386833 -11.402031 -16.018070 26.919519 0.555082 2.208106 0.075821 -0.031623 234487.000000 0 0 1
-17.602133 -10.549231 -17.103870 26.714486 0.539916 2.265616 0.077132 -0.036825 241598.000000 0 0 1
-17.941133 -10.958331 -18.424470 27.954076 0.548318 2.290415 0.045929 -0.023987 471242.000000 0 0 1
-17.431833 -10.077631 -19.437470 27.986473 0.524173 2.338564 0.044287 -0.036021 -281846.000000 0 0 1
-17.770133 -10.627731 -20.792670 29.343848 0.538997 2.358290 0.032196 -0.032241 -431439.000000 0 0 1
-19.105833 -10.275531 -21.029570 30.213610 0.493445 2.340649 0.049923 -0.042507 -328154.000000 0 0 1
-19.638833 -11.073431 -22.050270 31.535996 0.513417 2.345088 0.036768 -0.030032 -138885.000000 0 0 1
-21.099833 -10.740131 -22.395270 32.589899 0.470834 2.328403 0.047186 -0.027858 72884.700000 0 0 1
-21.053833 -9.534231 -23.170970 32.727042 0.425222 2.357468 0.043746 -0.023870 659.164000 0 0 1
-22.317033 -9.168231 -23.652370 33.786699 0.389797 2.346263 0.040390 -0.029260 -278927.000000 0 0 1
-22.161733 -8.145631 -24.802170 34.243851 0.352227 2.380787 0.033395 -0.030440 449126.000000 0 0 1
-21.379633 -8.856031 -25.818560 34.671545 0.392711 2.410824 0.041953 -0.022632 684879.000000 0 0 1
-20.951533 -7.932431 -26.819620 34.945418 0.361931 2.445684 0.031054 -0.016840 -181611.000000 0 0 1
-19.710433 -8.307631 -27.654480 34.961238 0.398889 2.483245 0.067608 -0.026151 -166670.000000 0 0 1
-19.784333 -9.329631 -28.599860 36.005748 0.440643 2.488673 0.061857 -0.026522 292965.000000 0 0 1
-18.511333 -9.644531 -29.139260 35.843869 0.480311 2.519996 0.039093 -0.021907 118024.000000 0 0 1
-18.583633 -10.798031 -30.138410 37.017194 0.526370 2.522100 0.037608 -0.021826 153161.000000 0 0 1
-19.371233 -10.550731 -31.319900 38.307946 0.498734 2.527996 0.044588 -0.016311 621159.000000 0 0 1
-19.277833 -11.654131 -32.221360 39.315006 0.543748 2.531455 0.024806 -0.010190 60101.200000 0 0 1
-19.940533 -11.453331 -33.597080 40.713234 0.521364 2.541375 0.020004 -0.011578 -520349.000000 0 0 1
-19.153933 -10.731231 33.804858 40.308819 0.510688 0.576002 0.035415 -0.018510 -364481.000000 0 0 1
-19.527833 -10.897431 32.442892 39.403446 0.509000 0.603505 0.041161 -0.027625 -434874.000000 0 0 1
-18.980633 -12.074831 31.626502 38.811102 0.566588 0.618269 0.046075 -0.023404 419963.000000 0 0 1
-17.637033 -11.901331 31.136502 37.711913 0.593607 0.599459 0.046364 -0.026226 946504.000000 0 0 1
-17.219933 -12.818731 30.153132 37.014286 0.639915 0.618697 0.052035 -0.028110 -182889.000000 0 0 1
-17.306733 -14.371931 30.394702 37.814195 0.693019 0.637156 0.051285 -0.019653 -1158940.000000 0 0 1
-18.558233 -14.975731 30.285572 38.547327 0.678970 0.667014 0.041938 -0.017711 -635148.000000 0 0 1
-18.535833 -16.266331 30.833492 39.482590 0.720279 0.674629 0.047425 -0.017336 -314933.000000 0 0 1
-18.985933 -16.346131 32.332087 40.902635 0.710823 0.659229 0.017144 -0.018874 -910065.000000 0 0 1
-18.042933 -15.776331 33.200768 40.947906 0.718477 0.625270 0.040721 -0.016304 145406.000000 0 0 1
-18.567733 -15.576031 -33.758310 41.557153 0.698001 2.518940 0.018611 -0.008204 151620.000000 0 0 1
-17.407533 -15.123931 -32.864250 40.147409 0.715316 2.529747 0.033434 -0.012756 11774.200000 0 0 1
-16.814833 -13.882231 -33.207180 39.726210 0.690154 2.560569 0.033635 -0.015064 266140.000000 0 0 1
-15.566833 -13.689731 -32.531520 38.575055 0.721326 2.574247 0.039121 -0.013774 613084.000000 0 0 1
-15.618733 -13.256331 -31.064420 37.211199 0.703765 2.558591 0.044159 -0.014241 -443642.000000 0 0 1
-15.961133 -14.294631 -30.183100 37.015048 0.730373 2.524264 0.032488 -0.016798 -373122.000000 0 0 1
-16.208133 -13.830431 -28.873050 35.883665 0.706408 2.505847 0.031917 -0.022139 -521233.000000 0 0 1
-16.379033 -15.029631 -27.903490 35.675864 0.742462 2.468888 0.025798 -0.008104 12432.000000 0 0 1
-15.248533 -15.809131 -27.552600 35.236234 0.803446 2.468567 0.038326 -0.023667 -18612.900000 0 0 1
-14.611833 -16.381431 -28.679970 36.116445 0.842432 2.488317 0.043547 -0.028575 -1114730.000000 0 0 1
-13.247033 -16.995531 -28.428640 35.672392 0.908717 2.493003 0.050071 -0.021890 -450006.000000 0 0 1
-12.184133 -16.061431 -28.301250 34.747423 0.921817 2.522637 0.042110 -0.029090 -498723.000000 0 0 1
-11.204833 -16.599731 -27.453130 33.981962 0.977046 2.511331 0.061529 -0.038166 -397181.000000 0 0 1
-9.860533 -15.897931 -27.691860 33.418759 1.015627 2.547456 0.050065 -0.040104 -316036.000000 0 0 1
-9.816533 -14.515431 -27.433650 32.552530 0.976166 2.573168 0.057890 -0.039771 -961583.000000 0 0 1
-8.546133 -14.125831 -27.035980 31.678379 1.026708 2.593370 0.079362 -0.042371 -656562.000000 0 0 1
-8.157333 -12.686431 -27.409410 31.285194 0.999360 2.638539 0.069881 -0.042452 -211491.000000 0 0 1
-7.602233 -12.501431 -28.689050 32.204679 1.024436 2.669976 0.077739 -0.040640 173287.000000 0 0 1
-7.494633 -11.094931 -28.879190 31.831975 0.976703 2.707468 0.065999 -0.039641 -448837.000000 0 0 1
-6.683833 -10.775131 -30.118500 32.678757 1.015583 2.743118 0.064890 -0.026644 -368452.000000 0 0 1
-5.297733 -10.892331 -29.831690 32.196872 1.118110 2.755905 0.073933 -0.025820 492154.000000 0 0 1
-4.436433 -10.486931 -30.902850 32.933931 1.170584 2.788560 0.066973 -0.021719 173649.000000 0 0 1
-4.313533 -9.041231 -31.291800 32.856159 1.125639 2.831770 0.043560 -0.020762 -1425890.000000 0 0 1
-3.189233 -8.681831 -31.994620 33.304671 1.218753 2.860182 0.043521 -0.019689 -829963.000000 0 0 1
-3.276733 -7.337131 -32.369080 33.351579 1.150777 2.898263 0.033219 -0.016954 664367.000000 0 0 1
-1.928433 -6.743731 -32.912270 33.651364 1.292270 2.931621 0.059864 -0.028576 655828.000000 0 0 1
-1.416633 -7.239631 -34.112443 34.900973 1.377560 2.928619 0.063936 -0.030293 -293749.000000 0 0 1
-0.228933 -6.563931 33.804034 34.436178 1.535933 0.191903 0.077985 -0.020642 151632.000000 0 0 1
0.476867 -7.227531 32.577766 33.373275 -1.504913 0.218778 0.060191 -0.013832 -98178.900000 0 0 1
-0.006833 -6.837331 31.297812 32.035952 1.569797 0.215081 0.049470 -0.009622 89634.100000 0 0 1
0.735967 -7.488931 30.305512 31.225788 -1.472837 0.243383 0.045419 -0.017906 -168239.000000 0 0 1
0.343067 -7.151531 28.868082 29.742701 -1.522862 0.243111 0.047832 -0.013588 -229026.000000 0 0 1
0.820567 -5.908431 28.467032 29.085302 -1.432798 0.206557 0.052952 -0.014753 43910.400000 0 0 1
0.489067 -5.516531 27.115702 27.675488 -1.482373 0.201471 0.046032 -0.015481 286120.000000 0 0 1
-0.745933 -4.548831 26.960922 27.352141 1.408259 0.169336 0.050917 -0.008371 571959.000000 0 0 1
-1.963633 -5.179431 27.238492 27.796004 1.208417 0.200622 0.037680 -0.005476 -1197130.000000 0 0 1
-3.043833 -4.420131 26.841052 27.372332 0.967742 0.197345 0.033372 -0.009087 -1283920.000000 0 0 1
-4.409233 -4.980431 27.097842 27.902313 0.846156 0.240713 0.033175 -0.003670 -740754.000000 0 0 1
-4.912633 -6.080831 26.353592 27.488585 0.891264 0.288364 0.029323 -0.006111 -75877.500000 0 0 1
-6.276333 -6.314931 26.639272 28.087747 0.788464 0.322549 0.030114 -0.009454 468585.000000 0 0 1
-6.450433 -7.838131 26.603792 28.474658 0.882214 0.364514 0.038380 -0.016132 442070.000000 0 0 1
-5.573433 -8.469231 27.530312 29.337845 0.988762 0.352857 0.047969 -0.018078 98029.900000 0 0 1
-5.833033 -9.845731 27.515752 29.800660 1.035952 0.394141 0.046589 -0.022085 390848.000000 0 0 1
-4.975033 -10.491231 28.645522 30.909268 1.127994 0.385098 0.044628 -0.023692 340888.000000 0 0 1
-5.238433 -11.901331 28.658532 31.470531 1.156159 0.425950 0.070452 -0.027354 131844.000000 0 0 1
-4.759133 -12.481331 29.859912 32.711578 1.206514 0.420649 0.071898 -0.027889 35815.800000 0 0 1
-4.818433 -13.991931 29.777832 33.252229 1.239144 0.461212 0.079122 -0.035023 -113810.000000 0 0 1
-6.133833 -14.478031 29.657252 33.567691 1.170057 0.487502 0.097927 -0.036682 -302516.000000 0 0 1
-6.203833 -15.871831 29.576852 34.134920 1.198185 0.522711 0.091884 -0.032171 103764.000000 0 0 1
-6.441233 -16.492631 30.971542 35.675381 1.198461 0.519336 0.105782 -0.031511 279349.000000 0 0 1
-7.629233 -16.126731 31.669962 36.349184 1.128916 0.513012 0.113252 -0.037362 83376.400000 0 0 1
-7.532833 -16.478331 33.006616 37.652565 1.142024 0.502025 0.106682 -0.029770 386157.000000 0 0 1
-8.935333 -16.592931 33.732614 38.640067 1.076823 0.509485 0.111498 -0.030657 1460010.000000 0 0 1
-9.802433 -17.697231 33.399869 39.049084 1.064967 0.544608 0.111890 -0.024256 750982.000000 0 0 1
-10.320133 -17.672531 32.061742 38.036546 1.042251 0.568110 0.108851 -0.029985 -705131.000000 0 0 1
-10.820133 -19.082131 31.573292 38.445751 1.054973 0.607211 0.108767 -0.026024 541522.000000 0 0 1
-12.074433 -19.436631 32.169592 39.477300 1.014919 0.618260 0.105148 -0.025633 660408.000000 0 0 1
-12.503333 -20.735231 31.776902 39.950653 1.028174 0.651123 0.089200 -0.015873 -102903.000000 0 0 1
-12.047333 -21.884531 32.728298 41.172958 1.067573 0.651957 0.079900 -0.016364 52007.900000 0 0 1
-10.643233 -22.090931 32.687694 40.862856 1.121821 0.643607 0.065377 -0.018238 105183.000000 0 0 1
-10.105033 -22.596931 33.900812 41.976161 1.150285 0.630690 0.043607 -0.024922 -18141.700000 0 0 1
-10.444933 -24.078831 -33.952410 42.914483 1.161512 2.483507 0.059432 -0.014264 -344381.000000 0 0 1
-9.883533 -25.041431 33.486997 42.966690 1.194878 0.677135 0.064580 -0.014353 -187561.000000 0 0 1
-10.064733 -26.388691 33.804821 44.050287 1.206424 0.695998 0.070993 -0.019813 -340362.000000 0 0 1
-9.362633 -27.314651 32.708240 43.630013 1.240577 0.723229 0.053988 -0.020495 359309.000000 0 0 1
-7.966533 -27.168391 32.618512 43.192065 1.285564 0.714842 0.050132 -0.024806 -184283.000000 0 0 1
-7.204033 -27.985111 33.493595 44.236698 1.318843 0.711865 0.050841 -0.027505 -515047.000000 0 0 1
-5.728733 -27.592731 33.527502 43.798066 1.366087 0.698975 0.053741 -0.033975 -396592.000000 0 0 1
-5.434733 -26.483081 -33.957570 43.405143 1.368391 2.469210 0.065954 -0.023805 -194561.000000 0 0 1
-5.105333 -25.359691 33.486102 42.314269 1.372135 0.657755 0.096659 -0.029841 -23168.700000 0 0 1
-4.687733 -24.117631 -33.985060 41.935895 1.378820 2.515639 0.097661 -0.028745 -664846.000000 0 0 1
-3.455933 -24.342231 -33.407080 41.479160 1.429766 2.507137 0.099236 -0.036244 -811075.000000 0 0 1
-2.909833 -23.135331 -32.873090 40.303235 1.445679 2.524638 0.089615 -0.030133 51944.100000 0 0 1
34.489913 -15.362631 2.501330 37.839413 -0.419042 1.504644 0.106579 -0.034603 79211.500000 0 0 1
35.341933 -15.686931 3.573630 38.831725 -0.417738 1.478637 0.100667 -0.038591 454713.000000 0 0 1
34.554913 -16.239231 4.612430 38.458148 -0.439323 1.450573 0.091207 -0.039451 -24295.600000 0 0 1
35.374583 -16.612631 5.811130 39.510883 -0.439050 1.423184 0.088992 -0.024920 -31715.900000 0 0 1
36.374583 -17.601131 5.648330 40.802129 -0.450673 1.431918 0.098207 -0.029249 572160.000000 0 0 1
-35.840602 -17.676131 6.800930 40.536983 0.458183 1.402228 0.092986 -0.023649 29861.800000 0 0 1
-34.531174 -18.452331 6.652230 39.713255 0.490762 1.402496 0.077146 -0.024378 -390671.000000 0 0 1
-34.716325 -19.823131 6.615230 40.520871 0.518825 1.406807 0.079677 -0.027722 -143940.000000 0 0 1
-33.611643 -20.457731 7.177930 39.997300 0.546756 1.390358 0.054739 -0.018256 -314775.000000 0 0 1
-33.853583 -21.942931 7.278930 40.994391 0.575089 1.392291 0.066924 -0.022481 -271918.000000 0 0 1
-33.610613 -22.540231 6.051930 40.918958 0.590740 1.422351 0.084360 -0.022106 188353.000000 0 0 1
-33.635843 -23.953631 6.235030 41.761489 0.618831 1.420935 0.094950 -0.026052 112729.000000 0 0 1
-32.964553 -24.714931 5.073330 41.511784 0.643336 1.448276 0.093316 -0.022864 434020.000000 0 0 1
-33.714183 -24.554831 3.858030 41.886397 0.629483 1.478559 0.096248 -0.023480 688817.000000 0 0 1
-33.125183 -25.374291 2.831530 41.822840 0.653670 1.503042 0.090755 -0.020249 541373.000000 0 0 1
-33.718643 -24.912331 1.447230 41.948368 0.636314 1.536289 0.084916 -0.025134 -170625.000000 0 0 1
-34.900628 -25.543961 1.032930 43.262163 0.631820 1.546918 0.084831 -0.023332 -3807.750000 0 0 1
-35.499578 -24.914331 -0.095070 43.369955 0.611947 1.572988 0.076008 -0.020247 272707.000000 0 0 1
-36.455253 -23.693831 0.182530 43.478919 0.576335 1.566598 0.084930 -0.026518 386682.000000 0 0 1
35.228063 -24.056331 0.251130 42.658956 -0.599139 1.564909 0.062435 -0.011266 581933.000000 0 0 1
34.426853 -22.929531 0.642430 41.368881 -0.587566 1.555266 0.073735 -0.024378 -14072.500000 0 0 1
32.950953 -23.313531 0.506530 40.367593 -0.615757 1.558248 0.043263 -0.013422 -314973.000000 0 0 1
32.582513 -23.418431 -0.855070 40.134451 -0.623194 1.592103 0.046650 -0.019756 -840365.000000 0 0 1
31.203703 -23.450031 -1.009270 39.046045 -0.644470 1.596647 0.043406 -0.009923 -527349.000000 0 0 1
30.759843 -23.408931 -2.469670 38.732999 -0.650518 1.634601 0.036978 -0.001045 -28569.700000 0 0 1
31.108603 -22.122731 -2.976670 38.288653 -0.618167 1.648618 0.056348 -0.010636 279605.000000 0 0 1
30.651643 -22.048931 -4.316670 38.004108 -0.623588 1.684626 0.059166 -0.031860 41677.600000 0 0 1
30.765843 -20.619931 -4.870070 37.355538 -0.590460 1.701539 0.061673 -0.037688 83643.700000 0 0 1
29.824203 -19.737731 -4.300470 36.021593 -0.584628 1.690468 0.076660 -0.025282 -46997.200000 0 0 1
30.042043 -18.327531 -4.605270 35.491284 -0.547786 1.700921 0.078905 -0.029701 12624.600000 0 0 1
29.332733 -17.542331 -3.465970 34.353392 -0.538982 1.671860 0.093667 -0.024186 20442.600000 0 0 1
29.931323 -17.463631 -2.166170 34.721100 -0.528166 1.633225 0.095209 -0.022471 106520.000000 0 0 1
30.440173 -18.633531 -1.518470 35.722799 -0.549295 1.613316 0.073582 -0.008651 206646.000000 0 0 1
29.420703 -19.795131 -1.220170 35.481175 -0.592257 1.605192 0.062775 -0.002755 538773.000000 0 0 1
28.423133 -19.456731 -0.249370 34.445624 -0.600274 1.578036 0.058332 0.009808 347282.000000 0 0 1
27.714463 -20.563231 0.266130 34.510994 -0.638340 1.563085 0.058705 0.001395 10862.800000 0 0 1
26.495663 -20.130331 1.126930 33.294449 -0.649718 1.536942 0.043941 0.005866 -414923.000000 0 0 1
25.833263 -21.237631 1.671830 33.484167 -0.688074 1.520847 0.035011 0.009683 645672.000000 0 0 1
24.911363 -21.037431 2.783530 32.724571 -0.701287 1.485634 0.044548 0.005443 788909.000000 0 0 1
23.526063 -20.434731 2.448430 31.257778 -0.715194 1.492386 0.031640 0.004024 -432652.000000 0 0 1
23.454063 -19.062931 2.078430 30.295350 -0.682484 1.502137 0.055607 -0.007820 214391.000000 0 0 1
23.291363 -18.163031 3.143330 29.702926 -0.662313 1.464772 0.071865 -0.007194 -163586.000000 0 0 1
23.140863 -16.705031 2.612130 28.659742 -0.625263 1.479527 0.075649 0.000334 1724860.000000 0 0 1
21.840463 -16.494131 1.952830 27.438581 -0.646827 1.499565 0.072735 -0.006020 1531880.000000 0 0 1
21.856663 -15.183031 1.589430 26.660165 -0.607136 1.511143 0.082246 -0.014603 124818.000000 0 0 1
20.493663 -14.712031 1.056430 25.249755 -0.622627 1.528945 0.067347 -0.008299 3141.620000 0 0 1
19.422463 -14.673731 1.985430 24.423193 -0.647014 1.489414 0.065830 -0.005477 764394.000000 0 1 0
18.327863 -13.805631 1.744730 23.011955 -0.645584 1.494905 0.065062 -0.007551 337627.000000 0 1 0
18.706063 -12.345031 2.129730 22.513381 -0.583337 1.476056 0.072523 -0.010045 -544093.000000 0 1 0
19.684463 -11.693531 1.360130 22.936144 -0.536032 1.511461 0.076876 -0.012886 307081.000000 0 1 0
19.883763 -10.386031 1.816430 22.506290 -0.481357 1.490001 0.076606 -0.017704 -343704.000000 0 1 0
20.846763 -9.537731 0.963830 22.945256 -0.429087 1.528778 0.080424 -0.014545 2207.070000 0 1 0
20.233663 -9.180531 -0.266970 22.220588 -0.425948 1.582811 0.087947 -0.012153 601908.000000 0 1 0
21.196863 -8.683031 -1.162170 22.935838 -0.388787 1.621489 0.090472 -0.007300 -531097.000000 0 1 0
20.671863 -8.212631 -2.563370 22.390714 -0.378164 1.685532 0.098914 -0.005989 -10261.000000 0 1 0
21.601563 -7.707631 -3.539870 23.207020 -0.342728 1.723929 0.115568 -0.009417 264236.000000 0 1 0
22.553363 -8.582531 -4.075970 24.472996 -0.363622 1.738126 0.108543 -0.010651 -891762.000000 0 1 0
22.114563 -9.764431 -4.959270 24.677771 -0.415795 1.773135 0.092180 -0.014950 -445406.000000 0 1 0
21.522263 -9.448331 -6.220870 24.314152 -0.413671 1.829527 0.082647 -0.016899 987592.000000 0 1 0
20.119163 -9.160531 -6.103970 22.933698 -0.427264 1.840201 0.077397 -0.010212 449886.000000 0 1 0
19.466563 -9.022231 -7.526570 22.737568 -0.434002 1.908180 0.074594 -0.011414 -278746.000000 0 1 0
19.338263 -10.242631 -8.268970 23.393498 -0.487090 1.932078 0.068766 -0.012113 331088.000000 0 1 0
20.481763 -10.654331 -8.979670 24.771997 -0.479666 1.941738 0.063961 -0.012607 -349491.000000 0 1 0
20.327863 -12.057731 -9.677370 25.539428 -0.535377 1.959424 0.047969 -0.017827 -34011.000000 0 0 1
19.257863 -12.120631 -10.604770 25.104504 -0.561747 2.006915 0.074808 -0.024052 321763.000000 0 0 1
19.127863 -13.443431 -11.008270 25.841497 -0.612616 2.010854 0.080364 -0.022439 -470514.000000 0 0 1
17.985763 -13.749931 -11.967970 25.608213 -0.652710 2.057086 0.081309 -0.025760 -371389.000000 0 0 1
17.937263 -15.137231 -12.118570 26.414786 -0.700941 2.047418 0.080592 -0.022690 331970.000000 0 0 1
17.098563 -15.448731 -13.216670 26.565099 -0.734751 2.091534 0.084046 -0.027718 -187718.000000 0 0 1
17.033363 -16.924531 -13.575870 27.584043 -0.782193 2.085370 0.074279 -0.021075 -220406.000000 0 0 1
16.231663 -17.597131 -12.616570 27.061111 -0.825740 2.055815 0.068592 -0.014198 431419.000000 0 0 1
16.121263 -18.988631 -12.950270 28.074414 -0.866886 2.050238 0.069913 -0.013642 -424898.000000 0 0 1
15.249063 -19.718831 -11.943970 27.640995 -0.912534 2.017628 0.061082 -0.010078 -732019.000000 0 0 1
13.898263 -19.457231 -12.129670 26.811834 -0.950539 2.040251 0.052243 -0.003498 -794306.000000 0 0 1
13.053263 -20.349031 -11.431170 26.742146 -1.000442 2.012476 0.031192 0.002074 636709.000000 0 0 1
11.556163 -20.203731 -11.810570 26.100291 -1.051233 2.040371 0.017025 -0.004463 668953.000000 0 0 1
10.616563 -20.897231 -11.016470 25.899195 -1.100740 2.010155 0.017151 0.001089 322512.000000 0 0 1
9.248563 -20.665031 -11.310670 25.308312 -1.149985 2.034110 0.001399 0.005110 601454.000000 0 0 1
8.321563 -21.581031 -10.461770 25.385782 -1.202768 1.995567 0.002810 0.013276 -232438.000000 0 0 1
8.524463 -22.977031 -10.586070 26.695979 -1.215538 1.978543 0.013268 0.001837 41333.100000 0 0 1
7.828863 -23.747931 -9.590370 26.781160 -1.252351 1.937030 0.021572 -0.010468 366450.000000 0 0 1
8.048763 -25.279601 -9.781270 28.275679 -1.262555 1.924021 0.035582 -0.008822 27624.000000 0 0 1
9.363663 -25.600261 -9.427970 28.843338 -1.220147 1.903784 0.014008 -0.002990 -559264.000000 0 0 1
9.697363 -26.913291 -9.868770 30.261472 -1.224959 1.902989 0.034017 -0.005026 -49.186000 0 0 1
11.087563 -27.344601 -9.391570 30.965510 -1.185579 1.878941 0.028661 0.000450 -140050.000000 0 0 1
11.011363 -27.420581 -7.987570 30.609470 -1.188935 1.834803 0.031794 -0.007927 1507800.000000 0 0 1
12.363063 -27.477831 -7.412070 31.029265 -1.148002 1.812002 0.042529 -0.009728 1227420.000000 0 0 1
12.522263 -27.691841 -5.883970 30.955875 -1.146114 1.762036 0.046607 -0.010127 -231039.000000 0 0 1
12.089963 -28.924971 -5.399070 31.811493 -1.174890 1.741343 0.051080 -0.010525 512623.000000 0 0 1
10.670363 -29.056521 -5.343370 31.411616 -1.218857 1.741736 0.047030 -0.015859 140186.000000 0 0 1
10.205363 -30.191001 -4.404770 32.172161 -1.244828 1.708140 0.058384 -0.025547 -89884.600000 0 0 1
10.469963 -31.503471 -4.870770 33.553140 -1.249937 1.716477 0.077445 -0.022644 81020.000000 0 0 1
9.525363 -32.014031 -5.802570 33.901335 -1.281601 1.742804 0.084641 -0.022867 210017.000000 0 0 1
9.866263 -33.472591 -6.208570 35.444376 -1.284157 1.746868 0.090090 -0.023642 -99205.800000 0 0 1
9.575163 33.818488 -5.195770 35.529845 1.294884 1.717559 0.078763 -0.020095 -130667.000000 0 0 1
9.974163 32.508627 -5.389070 34.428721 1.273098 1.727971 0.089196 -0.016650 15677.100000 0 0 1
9.474063 31.519253 -4.266570 33.187720 1.278807 1.699712 0.091896 -0.019657 70984.500000 0 0 1
8.133963 31.113763 -4.345770 32.451707 1.315093 1.705115 0.090146 -0.020864 -612877.000000 0 0 1
7.696963 30.149423 -3.354970 31.296753 1.320841 1.678201 0.070637 -0.015948 -772701.000000 0 0 1
6.227563 29.824613 -3.500770 30.668313 1.364948 1.685195 0.061177 -0.017127 -671665.000000 0 0 1
6.019663 29.148433 -4.648770 30.124384 1.367142 1.725735 0.064630 -0.028019 -161093.000000 0 0 1
5.511763 30.054353 -5.614370 31.067101 1.389419 1.752512 0.060112 -0.032103 -635883.000000 0 0 1
5.523863 29.528713 -7.047370 30.856496 1.385866 1.801222 0.063527 -0.038260 -381230.000000 0 0 1
4.678763 28.482133 -7.377770 29.791848 1.407980 1.821044 0.064022 -0.042676 -584302.000000 0 0 1
5.043063 27.213863 -6.899270 28.524143 1.387563 1.815094 0.063089 -0.036735 -238467.000000 0 0 1
4.193163 26.022283 -7.466170 27.394990 1.411032 1.846826 0.056117 -0.040028 -782075.000000 0 0 1
2.864963 25.904373 -7.067170 27.003508 1.460646 1.835593 0.044829 -0.033766 -788801.000000 0 0 1
1.914663 26.471273 -7.960170 27.708456 1.498592 1.862185 0.051125 -0.035922 195035.000000 0 0 1
1.561863 25.513413 -9.100970 27.133030 1.509655 1.912848 0.066613 -0.045827 -1059900.000000 0 0 1
2.572063 25.338203 -10.057570 27.382380 1.469634 1.946902 0.061070 -0.044287 -278592.000000 0 0 1
2.257863 24.507863 -11.154970 27.021596 1.478928 1.996341 0.081868 -0.043060 -690104.000000 0 0 1
2.012063 23.036463 -10.968570 25.593682 1.483675 2.013701 0.087860 -0.039279 575523.000000 0 0 1
0.749563 22.718563 -10.363670 24.982005 1.537815 1.998569 0.083299 -0.041299 556876.000000 0 1 0
0.669663 21.264563 -10.312770 23.642828 1.539315 2.022157 0.053811 -0.037541 -838959.000000 0 1 0
-0.419237 20.630963 -9.495770 22.715238 -1.550478 2.002078 0.060288 -0.026064 -289317.000000 0 1 0
-1.720437 20.970563 -9.970170 23.283657 -1.488939 2.013301 0.077559 -0.030533 -138367.000000 0 1 0
-2.622837 20.206963 -9.200270 22.357227 -1.441719 1.994909 0.055533 -0.025707 -426785.000000 0 1 0
-4.060937 20.797663 -9.224670 23.111221 -1.377963 1.981378 0.066853 -0.024155 193921.000000 0 1 0
-5.011937 19.880563 -8.744470 22.289505 -1.323840 1.973942 0.041817 -0.036145 -15637.400000 0 1 0
-5.638837 19.270263 -9.906670 22.389319 -1.286125 2.029151 0.031064 -0.030581 -878870.000000 0 1 0
-6.534237 18.086563 -9.426970 21.416997 -1.224112 2.026577 0.029934 -0.033795 -845389.000000 0 1 0
-7.626337 18.472363 -8.695370 21.794464 -1.179261 1.981191 0.056964 -0.031874 -439046.000000 0 1 0
-8.806437 18.791763 -9.430970 22.795326 -1.132556 1.997337 0.065696 -0.036317 -468326.000000 0 1 0
-9.961337 19.077863 -8.502070 23.140404 -1.089593 1.947022 0.076993 -0.044700 -572869.000000 0 1 0
-10.357237 17.908063 -7.765970 22.097089 -1.046444 1.929913 0.071608 -0.038226 223872.000000 0 1 0
-11.395737 18.247963 -6.815770 22.567802 -1.012561 1.877600 0.074165 -0.028147 609098.000000 0 1 0
-11.712937 17.125663 -5.825370 21.550317 -0.970930 1.844516 0.050519 -0.027434 30125.600000 0 1 0
-12.558237 17.520563 -4.739370 22.071272 -0.948903 1.787212 0.061116 -0.019705 161501.000000 0 1 0
-13.147137 16.334563 -4.227970 21.390205 -0.893095 1.769766 0.054591 -0.015534 -115831.000000 0 1 0
-14.283037 16.722163 -3.263970 22.232620 -0.863905 1.718139 0.045016 -0.015787 54223.500000 0 1 0
-15.543637 16.972763 -3.858070 23.335896 -0.829321 1.736887 0.085393 -0.026843 -90542.400000 0 1 0
-16.494537 17.277563 -2.888470 24.060906 -0.808580 1.691135 0.081492 -0.019152 -1183030.000000 0 1 0
-17.902137 17.396663 -3.410570 25.194491 -0.771079 1.706583 0.086443 -0.034677 -1045370.000000 0 0 1
-17.965937 18.439163 -4.299370 26.101000 -0.798396 1.736271 0.085418 -0.034980 256203.000000 0 0 1
-19.258337 18.706863 -4.833670 27.279931 -0.770873 1.748925 0.059743 -0.035325 379097.000000 0 0 1
-19.135637 19.558263 -6.132670 28.041182 -0.796320 1.791281 0.045809 -0.019675 -118844.000000 0 0 1
-18.780437 20.928563 -5.949370 28.742035 -0.839442 1.779296 0.046268 -0.037164 100211.000000 0 0 1
-18.874037 21.610563 -7.200370 29.581937 -0.852890 1.816670 0.036225 -0.018867 -43501.200000 0 0 1
-18.743237 23.137023 -7.092770 30.609445 -0.889929 1.804640 0.051926 -0.021999 -525024.000000 0 0 1
-17.489337 23.596723 -6.722470 30.130945 -0.932966 1.795799 0.053601 -0.026224 -557466.000000 0 0 1
-17.294637 23.777903 -5.303670 29.876781 -0.941956 1.749260 0.064037 -0.028297 -118833.000000 0 0 1
-16.093237 24.702903 -5.047370 29.911563 -0.993387 1.740351 0.058968 -0.027747 -421780.000000 0 0 1
-15.920537 25.252813 -3.740770 30.085900 -1.008290 1.695455 0.050686 -0.026032 1017890.000000 0 0 1
-14.585737 25.764383 -3.503070 29.813062 -1.055661 1.688570 0.050587 -0.023341 1019260.000000 0 0 1
-14.060237 26.988793 -4.369970 30.743810 -1.090517 1.713421 0.049920 -0.020057 -772993.000000 0 0 1
-14.738837 28.172683 -4.187170 32.069702 -1.088792 1.701735 0.063489 -0.015919 -400993.000000 0 0 1
-14.412637 29.170363 -5.138370 32.939900 -1.111892 1.727428 0.040468 -0.018698 -339042.000000 0 0 1
-15.010537 30.522823 -4.814570 34.353151 -1.113746 1.711409 0.028843 -0.015673 400974.000000 0 0 1
-16.412137 30.729843 -4.933570 35.185531 -1.080259 1.711476 0.058371 -0.015723 365082.000000 0 0 1
-16.881637 31.937303 -4.347570 36.385194 -1.084542 1.690570 0.049294 -0.012582 -34866.300000 0 0 1
12.917267 -8.764131 18.815632 24.447777 -0.596138 0.692542 0.087318 -0.012526 47990.000000 0 1 0
13.502267 -9.928631 19.357732 25.604897 -0.634046 0.713590 0.071778 -0.014317 -153847.000000 0 0 1
13.772567 -10.876231 18.370132 25.405467 -0.668430 0.762549 0.071610 -0.015337 -204565.000000 0 0 1
14.221467 -12.163431 18.939332 26.625129 -0.707555 0.779403 0.093510 -0.027455 -1285260.000000 0 0 1
15.481567 -12.135431 19.514832 27.708776 -0.664824 0.789383 0.079769 -0.026580 -491966.000000 0 0 1
15.656667 -13.235031 20.401132 28.922370 -0.701776 0.787844 0.067634 -0.023389 -256672.000000 0 0 1
16.216467 -14.477931 19.683432 29.326128 -0.728818 0.834982 0.054056 -0.017312 -804894.000000 0 0 1
15.387067 -14.872031 18.614732 28.362782 -0.768379 0.854881 0.065633 -0.022308 142643.000000 0 0 1
15.732267 -16.082331 17.981632 28.800776 -0.796401 0.896503 0.067972 -0.025787 -376497.000000 0 0 1
15.180667 -16.152231 16.552232 27.664483 -0.816396 0.929393 0.054914 -0.024568 -435138.000000 0 0 1
13.776667 -16.056431 16.540632 26.855131 -0.861667 0.907242 0.072844 -0.020571 -270895.000000 0 0 1
13.290167 -15.942231 15.245732 25.752973 -0.875874 0.937259 0.092386 -0.026273 -282288.000000 0 0 1
12.722467 -17.239531 14.631832 25.945194 -0.935031 0.971633 0.062030 -0.014393 -408049.000000 0 0 1
13.669167 -18.138631 14.115932 26.741645 -0.924999 1.014714 0.058282 -0.014582 -11838.000000 0 0 1
13.049967 -19.339231 13.790032 27.101153 -0.977189 1.036965 0.054271 -0.017816 8995.570000 0 0 1
14.030067 -20.315931 13.051032 27.926856 -0.966411 1.084529 0.058411 -0.023263 217184.000000 0 0 1
14.888167 -20.969731 13.947932 29.256315 -0.953401 1.073843 0.039694 -0.021811 100541.000000 0 0 1
15.523867 -22.156931 13.376132 30.180142 -0.959646 1.111620 0.028475 -0.029518 229895.000000 0 0 1
16.241467 -23.041731 14.432632 31.670293 -0.956808 1.097621 0.026330 -0.025878 871441.000000 0 0 1
17.593067 -22.598931 14.664832 32.175845 -0.909309 1.097558 0.010843 -0.021686 586742.000000 0 0 1
18.167767 -23.220231 15.786732 33.443501 -0.906873 1.079191 0.019003 -0.019731 -428399.000000 0 0 1
19.571867 -22.667331 16.043232 33.974272 -0.858552 1.078992 0.012865 -0.011736 -309555.000000 0 0 1
20.543467 -23.237031 15.217232 34.547906 -0.846845 1.114677 0.007949 -0.019512 -612286.000000 0 0 1
21.828067 -22.694031 15.408832 35.055893 -0.804846 1.115698 0.005679 -0.011995 -428830.000000 0 0 1
22.902767 -23.556031 14.795432 36.032321 -0.799458 1.147667 -0.000892 -0.019003 -596462.000000 0 0 1
23.297467 -24.578131 15.674632 37.316894 -0.812142 1.137306 0.002050 -0.012095 517348.000000 0 0 1
24.355267 -25.370031 15.088232 38.268424 -0.805803 1.165519 0.001989 -0.016792 457419.000000 0 0 1
24.904767 -26.473661 15.998832 39.712275 -0.815925 1.156147 0.015878 -0.009497 -139881.000000 0 0 1
25.619467 -25.999521 17.144132 40.326833 -0.792761 1.131691 0.006521 0.003673 186972.000000 0 0 1
25.919167 -27.050971 18.089232 41.602627 -0.806762 1.120969 0.024230 0.003133 91968.600000 0 0 1
26.280667 -26.695711 19.580932 42.269934 -0.793233 1.089154 0.015643 -0.000077 -804567.000000 0 0 1
25.225167 -26.185121 20.302332 41.643178 -0.804068 1.061537 0.017457 0.002531 -750547.000000 0 0 1
25.522767 -25.798981 21.590432 42.227311 -0.790780 1.034110 0.019356 0.008703 -671430.000000 0 0 1
24.288567 -25.774631 22.474032 41.944585 -0.815073 1.005338 0.014580 0.009765 -375232.000000 0 0 1
23.798667 -27.062231 22.794532 42.641899 -0.849477 1.006813 0.021477 0.007884 -366366.000000 0 0 1
22.592367 -27.002031 23.508322 42.333981 -0.874080 0.982065 0.040377 0.001614 -433871.000000 0 0 1
22.043067 -28.451221 23.355212 42.904950 -0.911632 0.995185 0.084055 -0.010283 -280646.000000 0 0 1
22.899967 -29.446601 23.922482 44.314737 -0.909815 1.000560 0.081456 -0.019386 226232.000000 0 0 1
22.676767 -30.784791 23.516222 44.888215 -0.935912 1.019392 0.096044 -0.024363 -393708.000000 0 0 1
23.811167 -31.747531 23.899982 46.325873 -0.927285 1.028727 0.078507 -0.016435 -208564.000000 0 0 1
23.955467 -31.730881 25.361642 47.158521 -0.924130 1.002976 0.079945 -0.024771 695062.000000 0 0 1
25.154167 -32.348191 25.862762 48.456373 -0.909860 1.007788 0.091104 -0.026917 22156.700000 0 0 1
25.012367 -32.858691 27.294922 49.500756 -0.920159 0.986750 0.085513 -0.041222 -55408.100000 0 0 1
24.249067 -33.996341 27.576602 50.042356 -0.951210 0.987156 0.074917 -0.030612 -309859.000000 0 0 1
22.889267 -34.009661 27.259922 49.230874 -0.978406 0.983976 0.077693 -0.026686 -1011250.000000 0 0 1
22.095367 32.996165 27.769412 48.457119 0.980742 0.960547 0.113693 -0.042287 -324029.000000 0 0 1
21.588267 33.128000 29.066692 49.075353 0.993253 0.936902 0.086146 -0.027184 -22659.800000 0 0 1
21.083967 31.931343 29.584642 48.367296 0.987221 0.912631 0.092990 -0.033851 -30915.100000 0 0 1
20.748867 31.977863 31.093382 49.192455 0.995229 0.886567 0.074580 -0.034078 226686.000000 0 0 1
21.953767 32.212154 31.804822 50.310411 0.972570 0.886443 0.065801 -0.025749 267490.000000 0 0 1
21.838367 32.852349 33.066620 51.474192 0.984127 0.873181 0.041981 -0.024784 67142.300000 0 0 1
23.141467 32.587642 33.863102 52.385032 0.953304 0.867904 0.011557 -0.009425 250259.000000 0 0 1
23.282967 31.184243 34.054394 51.713202 0.929458 0.851940 0.013720 -0.011082 1203420.000000 0 0 1
24.430467 30.948933 -33.312430 51.617847 0.902565 2.272299 0.007617 0.004033 1167710.000000 0 0 1
24.697467 29.462043 -33.055710 50.701645 0.873145 2.280970 0.020286 0.004118 -74854.100000 0 0 1
25.072667 28.794453 34.006678 51.129378 0.854381 0.843155 0.023181 -0.006159 91312.500000 0 0 1
24.592267 27.483263 34.034814 50.184439 0.840857 0.825493 0.043312 -0.022076 -209486.000000 0 0 1
24.891067 26.739703 32.727324 49.047474 0.821188 0.840275 0.072849 -0.030110 -470310.000000 0 0 1
26.235767 26.391373 32.593979 49.469056 0.788355 0.851473 0.065290 -0.032029 -172821.000000 0 0 1
26.464467 25.583473 31.468922 48.427009 0.768473 0.863446 0.102305 -0.051093 428087.000000 0 0 1
27.841667 24.844533 31.501092 48.833677 0.728573 0.869683 0.089219 -0.042054 293084.000000 0 0 1
27.740667 23.792453 32.408323 48.845929 0.708932 0.845335 0.109376 -0.048428 -132719.000000 0 0 1
28.837067 23.692283 33.255485 49.988278 0.687768 0.842947 0.115151 -0.051662 -1331700.000000 0 0 1
28.533667 22.871663 -33.740900 49.756723 0.675696 2.315994 0.096522 -0.047058 258383.000000 0 0 1
27.595067 23.501723 -32.791170 48.878211 0.705459 2.306184 0.101051 -0.041259 1864350.000000 0 0 1
26.224967 23.667383 -33.176400 48.462020 0.734181 2.324831 0.101683 -0.038893 234599.000000 0 0 1
25.413967 22.381663 -33.401520 47.565430 0.722040 2.349311 0.099146 -0.045664 -1035660.000000 0 0 1
25.189967 21.692063 -32.208470 46.286775 0.710925 2.340394 0.087419 -0.048196 502645.000000 0 0 1
24.581767 20.402763 -32.387320 45.491477 0.692765 2.363057 0.081879 -0.033849 -29548.000000 0 0 1
24.782667 19.641963 -31.040160 44.311159 0.670193 2.346900 0.077927 -0.035716 -643973.000000 0 0 1
23.739867 19.823263 -30.149450 43.191809 0.695733 2.343448 0.066040 -0.025182 -251945.000000 0 0 1
23.810167 18.842563 -29.146110 42.088739 0.669454 2.335734 0.082517 -0.018141 249064.000000 0 0 1
22.559367 18.883063 -28.199960 40.752090 0.696921 2.335036 0.090703 -0.020184 412715.000000 0 0 1
22.474367 18.053563 -27.072800 39.546995 0.676747 2.324814 0.090094 -0.007514 283035.000000 0 0 1
23.208667 18.575763 -25.936520 39.451290 0.674973 2.288201 0.072399 0.000547 179926.000000 0 0 1
23.214167 17.717063 -24.673270 38.230382 0.651896 2.272322 0.075887 0.006328 -156947.000000 0 0 1
24.214767 16.728363 -24.768670 38.466610 0.604547 2.270382 0.060584 -0.005946 276612.000000 0 0 1
24.038667 15.734163 -23.778570 37.293991 0.579557 2.262172 0.059487 -0.000069 31870.400000 0 0 1
25.114667 14.629263 -23.911870 37.636941 0.527452 2.259232 0.083122 -0.012097 512886.000000 0 0 1
26.428167 15.021063 -23.490770 38.417400 0.516840 2.228703 0.119525 -0.024580 24645.800000 0 0 1
27.256167 13.958863 -23.243670 38.444983 0.473309 2.220054 0.121015 -0.039470 -543481.000000 0 0 1
27.048567 13.143463 -21.901770 37.202999 0.452321 2.200258 0.120484 -0.021176 -288350.000000 0 0 1
25.752367 12.574663 -21.845070 36.034895 0.454237 2.222095 0.096406 -0.015070 -43811.100000 0 0 1
25.437567 12.146063 -20.565370 34.893138 0.445474 2.201089 0.083859 -0.032542 -938960.000000 0 0 1
24.034067 11.590363 -20.484170 33.638878 0.449345 2.225524 0.072179 -0.021191 -222830.000000 0 0 1
23.078167 12.663563 -20.544770 33.392442 0.501864 2.233502 0.092255 -0.017718 -300205.000000 0 0 1
21.792967 12.250663 -20.936070 32.608759 0.512115 2.267950 0.080035 -0.021132 -402068.000000 0 0 1
20.867667 13.435563 -20.735870 32.341153 0.572037 2.266806 0.068668 -0.017533 -1154110.000000 0 0 1
21.280467 14.554463 -21.455270 33.541307 0.599863 2.264861 0.057100 -0.007719 165767.000000 0 0 1
20.360967 15.644363 -21.470170 33.470633 0.655142 2.267200 0.055157 -0.005899 383869.000000 0 0 1
19.188567 15.459363 -22.497370 33.366520 0.678180 2.310745 0.046466 0.010063 427453.000000 0 0 1
18.191267 14.552863 -22.034370 32.065893 0.674736 2.328368 0.039387 -0.000175 82108.100000 0 0 1
17.066167 14.531763 -22.870370 32.023117 0.705362 2.366253 0.053160 -0.012337 -261348.000000 0 0 1
15.852867 13.803363 -22.302070 30.646836 0.716399 2.385777 0.027938 -0.008709 -296917.000000 0 0 1
14.678467 13.837663 -23.071270 30.646726 0.755921 2.423122 0.033124 -0.008258 -793839.000000 0 0 1
13.616767 13.261963 -22.368170 29.353552 0.772199 2.437232 0.046448 -0.014397 -1357150.000000 0 0 1
12.358567 13.556563 -23.150070 29.537101 0.831593 2.471497 0.034254 -0.013520 -1133950.000000 0 0 1
12.063767 14.945063 -23.080270 30.026459 0.891676 2.447547 0.049080 -0.009400 -282692.000000 0 0 1
11.388167 15.333263 -24.229570 30.852413 0.931977 2.474038 0.035358 -0.001402 -762039.000000 0 0 1
11.188667 16.893563 -24.353770 31.680986 0.985820 2.447632 0.039111 -0.001458 -96872.700000 0 0 1
12.326867 17.737863 -24.313370 32.522660 0.963470 2.415211 0.039916 -0.001982 -165149.000000 0 0 1
13.327067 17.566263 -25.299470 33.559611 0.921767 2.424724 0.037116 0.001619 -331602.000000 0 0 1
12.954967 17.615763 -26.775630 34.569938 0.936693 2.456776 0.039767 -0.003739 -566280.000000 0 0 1
14.062567 17.462063 -27.648840 35.596879 0.892819 2.460239 0.029410 -0.009093 184133.000000 0 0 1
13.592667 17.245663 -28.963570 36.346415 0.903305 2.492902 0.028595 -0.014714 448039.000000 0 0 1
14.671867 17.430263 -30.127500 37.772265 0.871113 2.494117 0.042664 -0.026513 450984.000000 0 0 1
15.555367 16.360963 -30.372090 37.843287 0.810634 2.502396 0.030389 -0.025377 -8710.370000 0 0 1
16.337467 16.647063 -31.524640 39.215309 0.794784 2.504597 0.034523 -0.027059 220996.000000 0 0 1
17.658767 15.860263 -31.720030 39.617424 0.731793 2.499190 0.030788 -0.021465 781151.000000 0 0 1
18.780467 16.475263 -31.046400 39.849958 0.720106 2.463997 0.043190 -0.023903 894386.000000 0 0 1
19.963767 15.690563 -31.189650 40.218653 0.666116 2.458306 0.056441 -0.027802 557553.000000 0 0 1
21.224367 16.466263 -31.623680 41.492996 0.659821 2.437416 0.061859 -0.024043 -44177.500000 0 0 1
21.129367 16.852463 -32.938450 42.607478 0.673267 2.454459 0.063017 -0.027391 321236.000000 0 0 1
22.219567 17.686663 -33.302620 43.767473 0.672294 2.435494 0.074620 -0.030875 77741.600000 0 0 1
22.279367 18.022363 33.473525 44.064188 0.680160 0.708016 0.058811 -0.018047 -768827.000000 0 0 1
23.425367 18.739563 33.185965 44.735079 0.674722 0.734996 0.076753 -0.022947 -339947.000000 0 0 1
23.310267 19.337963 31.900412 43.988199 0.692525 0.759466 0.092401 -0.024301 -871576.000000 0 0 1
24.312667 20.470063 31.801062 44.960392 0.699802 0.785107 0.094399 -0.026106 -675994.000000 0 0 1
25.579067 19.890863 31.578992 45.245639 0.660947 0.798272 0.073586 -0.030547 -314449.000000 0 0 1
26.510367 20.975063 31.447342 46.170208 0.669353 0.821508 0.081505 -0.043775 -234889.000000 0 0 1
27.926967 20.495363 31.130302 46.573287 0.633112 0.838720 0.063985 -0.042769 -666146.000000 0 0 1
28.496867 19.845063 32.197422 47.355802 0.608302 0.823164 0.064915 -0.042966 -99737.400000 0 0 1
29.881167 19.603063 32.011942 47.978419 0.580605 0.840332 0.044209 -0.029974 155023.000000 0 0 1
30.573567 18.980463 33.213336 48.970671 0.555583 0.825446 0.048639 -0.029453 -157789.000000 0 0 1
30.621167 19.944763 -33.991560 49.908673 0.577316 2.320026 0.049127 -0.031509 176349.000000 0 0 1
29.866867 19.414163 -32.907280 48.495655 0.576392 2.316599 0.066947 -0.041851 -221869.000000 0 0 1
30.271767 19.918163 -31.518990 48.026657 0.581963 2.286676 0.066370 -0.030885 106495.000000 0 0 1
31.491767 19.312263 -31.129210 48.308618 0.550104 2.271011 0.064413 -0.036100 -167979.000000 0 0 1
31.881567 19.724263 -29.823040 47.905058 0.554037 2.242787 0.060760 -0.028917 149260.000000 0 0 1
33.319867 19.291663 -29.415680 48.452699 0.524823 2.223204 0.057052 -0.014074 -165366.000000 0 0 1
34.262367 19.998463 -30.144860 49.825304 0.528338 2.220576 0.034123 -0.015778 -1217410.000000 0 0 1
35.502267 19.818063 -29.537130 50.255434 0.509132 2.199059 0.017971 0.002420 -1089180.000000 0 0 1
-36.411529 20.500263 -30.243920 51.582506 -0.512781 2.197306 0.002250 0.003319 -538280.000000 0 0 1
-35.990929 19.885763 -31.412450 51.744879 -0.504777 2.223157 -0.001246 -0.004529 -341110.000000 0 0 1
-34.926829 20.686563 -31.863620 51.605305 -0.534726 2.236291 0.001227 -0.002935 -15112.900000 0 0 1
-34.072629 20.027163 -33.004590 51.491109 -0.531385 2.266566 -0.000857 -0.010572 20738.800000 0 0 1
-33.145529 19.060063 -32.521690 50.195343 -0.521866 2.275624 0.016543 -0.010762 134875.000000 0 0 1
-32.436229 18.556163 -33.626970 50.271396 -0.519638 2.303536 0.034101 -0.011705 -346451.000000 0 0 1
-31.594129 17.365663 -33.229360 49.030048 -0.502573 2.315474 0.029308 -0.004909 -257210.000000 0 0 1
-32.447429 16.293963 -32.940320 49.024418 -0.465378 2.307590 0.029271 -0.004960 -6607.140000 0 0 1
-31.793029 15.090563 -33.184300 48.370648 -0.443163 2.326831 0.029023 -0.000665 -352646.000000 0 0 1
-32.732929 13.879463 -33.220340 48.658762 -0.401041 2.322276 0.031832 -0.002714 -325059.000000 0 0 1
-32.161229 12.584163 -33.451620 48.080315 -0.372970 2.340252 0.034655 -0.007790 9322.190000 0 0 1
-33.087829 11.558763 -33.127240 48.226792 -0.336083 2.328019 0.041933 -0.012370 123275.000000 0 0 1
-32.591029 10.113263 -33.588220 47.881330 -0.300887 2.348281 0.043544 -0.005756 26939.800000 0 0 1
-32.758729 10.003463 33.292261 47.765869 -0.296374 0.799607 0.045208 -0.015036 63792.500000 0 0 1
-32.863029 8.682663 32.784466 47.224872 -0.258305 0.803460 0.054018 -0.024837 -394465.000000 0 0 1
-31.606829 8.226063 32.021372 45.738693 -0.254614 0.795268 0.069015 -0.016355 -289615.000000 0 0 1
-30.537429 7.978863 32.876211 45.574577 -0.255568 0.765015 0.050829 -0.014748 -1466710.000000 0 0 1
-29.498229 7.432763 32.172002 44.276734 -0.246835 0.757419 0.055932 -0.014112 -820709.000000 0 0 1
20.611967 -4.409031 -31.279590 37.718769 -0.210731 2.548622 0.050414 -0.030080 194758.000000 0 0 1
21.723767 -4.566531 -32.177550 39.091815 -0.207192 2.537693 0.048009 -0.028062 779844.000000 0 0 1
22.852067 -3.778331 -31.803260 39.343870 -0.163856 2.512125 0.045524 -0.025574 303849.000000 0 0 1
22.772067 -2.332031 -32.298540 39.587891 -0.102052 2.525027 0.042366 -0.025257 -1159030.000000 0 0 1
23.757667 -1.475331 -31.831130 39.747002 -0.062020 2.499499 0.046909 -0.017505 -393475.000000 0 0 1
23.596167 -0.060131 -32.001200 39.760024 -0.002548 2.506234 0.038829 -0.020557 209221.000000 0 0 1
24.743467 0.816869 -31.378070 39.968609 0.033002 2.473602 0.040820 -0.016910 1231100.000000 0 0 1
25.957267 0.905269 -32.151340 41.331682 0.034861 2.462091 0.047654 -0.021702 -315796.000000 0 0 1
26.997167 1.259869 -31.332200 41.378026 0.046633 2.429840 0.052279 -0.017633 -928656.000000 0 0 1
28.395767 1.144069 -31.942690 42.754695 0.040268 2.414508 0.054468 -0.023586 -338994.000000 0 0 1
28.645467 1.957569 -33.049540 43.779755 0.068232 2.426305 0.052901 -0.017421 -142724.000000 0 0 1
28.627567 1.036669 34.125812 44.555396 0.036196 0.698327 0.048626 -0.022008 -73124.000000 0 0 1
29.441567 1.482069 32.856472 44.142385 0.050297 0.731266 0.045040 -0.030239 317885.000000 0 0 1
28.850167 2.535769 32.063802 43.207056 0.087669 0.734604 0.037931 -0.014428 241249.000000 0 0 1
28.796067 3.811169 32.614433 43.674246 0.131586 0.727610 0.034269 -0.006109 93352.200000 0 0 1
28.419867 4.785069 31.483792 42.682724 0.166806 0.741252 0.042655 -0.002882 -38453.900000 0 0 1
28.329167 6.197169 31.846942 43.071735 0.215363 0.738628 0.049338 -0.010124 592019.000000 0 0 1
27.613867 6.992169 30.834272 41.978190 0.248000 0.745821 0.036485 -0.005713 157324.000000 0 0 1
27.882567 8.481669 31.097542 42.619636 0.295299 0.752982 0.040013 -0.002698 216235.000000 0 0 1
29.232367 8.874369 30.958102 43.493561 0.294738 0.778759 0.046585 -0.000753 -27976.400000 0 0 1
29.398367 10.175369 31.310822 44.138076 0.333214 0.782173 0.050666 -0.006075 -334194.000000 0 0 1
30.671867 10.825869 30.781092 44.782123 0.339307 0.812959 0.041208 0.005639 -408837.000000 0 0 1
31.844467 10.395269 31.456972 45.952941 0.315533 0.816814 0.054342 -0.011101 125462.000000 0 0 1
33.059667 10.645069 30.794082 46.416964 0.311512 0.845412 0.060428 -0.018617 103990.000000 0 0 1
33.615467 12.061969 30.799802 47.160561 0.344512 0.859147 0.074089 -0.021182 -722430.000000 0 0 1
34.040267 12.456769 32.109302 48.424355 0.350806 0.845868 0.070839 -0.014364 186997.000000 0 0 1
34.506567 13.845169 32.188202 49.177965 0.381569 0.857242 0.080106 -0.009743 -129215.000000 0 0 1
33.466067 14.965069 32.139622 48.753321 0.420499 0.851003 0.074341 -0.018010 -655806.000000 0 0 1
32.966567 15.274069 30.819132 47.643579 0.433875 0.867325 0.062396 -0.024907 -322484.000000 0 0 1
31.922267 16.176769 30.822782 47.230953 0.469037 0.859789 0.047699 -0.025260 428606.000000 0 0 1
30.478067 15.593569 31.061472 46.226476 0.472910 0.833970 0.045987 -0.014844 454670.000000 0 0 1
29.925367 14.912769 29.929402 44.874128 0.462312 0.840670 0.040690 -0.017881 -280308.000000 0 0 1
28.597767 14.581369 30.248772 44.107106 0.471519 0.815090 0.028852 -0.019453 -228247.000000 0 0 1
27.852667 13.833469 29.120852 42.604694 0.460977 0.818232 0.021084 -0.004652 -110802.000000 0 0 1
28.015767 12.446269 28.951522 42.166141 0.418070 0.813986 0.031189 -0.008697 157422.000000 0 0 1
27.119567 11.990469 27.940792 40.742240 0.416293 0.815102 0.022683 -0.013481 134460.000000 0 0 1
26.904767 10.472869 27.842042 40.108937 0.371211 0.803543 0.021297 0.002160 459387.000000 0 0 1
28.126467 9.818169 27.455542 40.512978 0.335848 0.826169 0.033149 -0.000028 602674.000000 0 0 1
27.918767 8.397069 27.234322 39.895822 0.292161 0.819433 0.046024 0.002737 339702.000000 0 0 1
29.097367 7.571169 26.630362 40.164108 0.254556 0.845925 0.052089 0.000944 109526.000000 0 0 1
29.398967 7.812169 25.260322 39.540019 0.259727 0.877788 0.065351 -0.000810 347017.000000 0 0 1
30.470067 6.970769 24.825892 39.916682 0.224904 0.899575 0.075430 0.005849 470567.000000 0 0 1
30.962867 7.185169 23.360872 39.446878 0.228022 0.936996 0.095160 0.006599 -206105.000000 0 0 1
31.526767 8.437969 23.106632 39.988159 0.261515 0.954721 0.101339 -0.006000 109241.000000 0 0 1
30.660267 9.577669 23.022932 39.520111 0.302776 0.948919 0.099532 -0.013763 66007.300000 0 0 1
30.153767 9.888169 21.581832 38.377090 0.316875 0.973556 0.097725 -0.000855 466580.000000 0 0 1
31.234267 10.256269 20.732132 38.866333 0.317273 1.008156 0.111030 -0.019339 779950.000000 0 0 1
30.697567 10.137469 19.447232 37.726698 0.318961 1.029233 0.104858 -0.024191 -807870.000000 0 0 1
31.487867 10.868869 18.307232 38.010168 0.332371 1.068271 0.113934 -0.049752 -101210.000000 0 0 1
32.722167 10.386869 17.873132 38.704988 0.307366 1.090797 0.105161 -0.039659 586080.000000 0 0 1
33.753967 10.367769 18.892732 40.046926 0.298010 1.079505 0.120096 -0.026028 -1182180.000000 0 0 1
35.099367 9.883369 18.426432 40.855599 0.274476 1.102896 0.155722 -0.035334 -788420.000000 0 0 1
35.071767 8.507569 18.156432 40.398807 0.237979 1.104669 0.147034 -0.019644 580917.000000 0 0 1
36.322467 8.206369 17.552032 41.167219 0.222200 1.130332 0.151311 -0.019411 116222.000000 0 0 1
-36.504929 6.711469 17.224332 40.918593 -0.181821 1.136313 0.146002 -0.024132 -265691.000000 0 0 1
35.463667 6.301269 16.446732 39.596372 0.175847 1.142458 0.107609 -0.024916 174432.000000 0 0 1
35.646067 5.020269 15.899432 39.352727 0.139916 1.154885 0.115230 -0.021846 -731910.000000 0 0 1
34.425267 4.150169 15.695432 38.061391 0.119977 1.145741 0.088570 -0.017967 -859848.000000 0 0 1
34.306067 3.279569 16.810732 38.344003 0.095308 1.116958 0.095633 -0.009387 113865.000000 0 0 1
33.237567 2.349269 16.780632 37.307433 0.070564 1.104262 0.049938 -0.000438 -20099.600000 0 0 1
32.987267 1.579869 18.132132 37.675323 0.047857 1.068689 0.037119 -0.006426 141522.000000 0 0 1
33.766667 0.396069 18.271332 38.395133 0.011729 1.074836 0.042137 -0.008444 90438.400000 0 0 1
33.616367 -0.265531 19.496532 38.861876 -0.007899 1.045247 0.027493 -0.008450 261253.000000 0 0 1
34.167367 -1.713631 19.550032 39.402402 -0.050112 1.051622 0.037538 -0.009903 139264.000000 0 0 1
33.716967 -2.401531 20.706832 39.640562 -0.071106 1.021175 0.032266 -0.001386 95013.200000 0 0 1
34.045867 -3.789531 20.732232 40.041317 -0.110850 1.026553 0.026468 0.000616 -353641.000000 0 0 1
33.535567 -4.591531 21.986732 40.362517 -0.136069 0.994727 0.014361 0.008681 176392.000000 0 0 1
34.290767 -4.344031 23.196432 41.626936 -0.126011 0.979731 0.022721 -0.000350 671150.000000 0 0 1
33.687567 -4.991531 24.306112 41.839630 -0.147101 0.950919 0.026354 -0.006695 161024.000000 0 0 1
34.175067 -4.386931 25.639852 42.948602 -0.127668 0.931053 0.017449 -0.008062 145076.000000 0 0 1
33.364567 -4.735231 26.756872 43.029606 -0.140982 0.899726 0.028857 -0.006779 95814.500000 0 0 1
33.797667 -4.133731 27.941032 44.046241 -0.121704 0.883620 0.035393 -0.006691 -106216.000000 0 0 1
32.833967 -4.393331 29.115402 44.103032 -0.133014 0.849754 0.056406 -0.017794 44072.300000 0 0 1
32.897267 -5.788131 29.451902 44.532541 -0.174163 0.848170 0.063388 -0.018032 -78592.400000 0 0 1
31.975767 -5.995331 30.486492 44.584974 -0.185344 0.817860 0.075186 -0.024423 -124307.000000 0 0 1
31.981667 -7.480931 30.852932 45.063231 -0.229782 0.816661 0.081559 -0.021592 160459.000000 0 0 1
33.052067 -7.848031 31.699532 46.463868 -0.233127 0.819974 0.089407 -0.024115 -8387.040000 0 0 1
33.648167 -9.076131 31.326222 46.860511 -0.263466 0.838607 0.090321 -0.021730 41243.400000 0 0 1
34.892767 -9.504231 32.122342 48.370244 -0.265932 0.844516 0.085606 -0.018148 142319.000000 0 0 1
34.671367 -9.922631 33.440846 49.181831 -0.278740 0.823111 0.074796 -0.026636 605956.000000 0 0 1
35.969467 -10.112031 34.021712 50.532491 -0.274055 0.832182 0.052277 -0.022002 651616.000000 0 0 1
36.043567 -10.401631 -32.742140 49.793377 -0.280952 2.288372 0.066215 -0.019489 -352060.000000 0 0 1
35.775367 -9.314131 -31.845380 48.793013 -0.254696 2.281890 0.052392 -0.025058 603875.000000 0 0 1
-36.370229 -8.230731 -31.867200 49.051574 0.222555 2.277943 0.064013 -0.017080 237964.000000 0 0 1
35.963667 -7.036731 -31.230760 48.148326 -0.193221 2.276588 0.059698 -0.028663 122515.000000 0 0 1
35.715667 -7.190431 -29.875250 47.115197 -0.198669 2.257627 0.054276 -0.022504 121658.000000 0 0 1
35.061167 -6.051731 -29.345220 46.119961 -0.170921 2.260463 0.057257 -0.025609 -81035.300000 0 0 1
35.507367 -5.709931 -27.869670 45.498296 -0.159445 2.230070 0.057006 -0.019941 1031550.000000 0 0 1
-36.199329 -5.233831 -27.799250 45.941079 0.143589 2.220696 0.056978 -0.017860 824057.000000 0 0 1
-35.872629 -4.817131 -26.478860 44.846185 0.133486 2.202397 0.057735 -0.018259 519364.000000 0 0 1
-34.343329 -4.693231 -26.205220 43.453472 0.135815 2.218133 0.080751 -0.011331 -572803.000000 0 0 1
-34.049229 -4.437731 -24.863270 42.393698 0.129602 2.197509 0.092839 -0.014279 -830671.000000 0 0 1
-32.734829 -4.591431 -24.480270 41.133124 0.139352 2.208245 0.113765 -0.016983 -472018.000000 0 0 1
-31.675729 -3.588631 -25.045730 40.540334 0.112812 2.236735 0.109059 -0.008605 -497750.000000 0 0 1
-31.459429 -3.684531 -26.435620 41.256678 0.116589 2.266284 0.101640 -0.002090 -116966.000000 0 0 1
-30.381229 -2.899331 -26.883030 40.670905 0.095144 2.292933 0.096911 -0.001187 433026.000000 0 0 1
-29.564029 -3.505931 -28.084900 40.927802 0.118036 2.327057 0.087313 0.002913 72804.100000 0 0 1
-30.445729 -3.557231 -29.157790 42.305709 0.116311 2.331203 0.097295 0.003953 -17034.800000 0 0 1
-30.019029 -4.413831 -30.253560 42.847426 0.145988 2.354739 0.078475 0.005714 -914594.000000 0 0 1
-31.179129 -4.755031 -31.232390 44.387054 0.151341 2.351300 0.054508 0.002969 -693410.000000 0 0 1
-32.139129 -5.634831 -30.709550 44.807939 0.173562 2.325894 0.055444 -0.005681 50031.700000 0 0 1
-33.130029 -5.030031 -29.909030 44.916034 0.150676 2.299479 0.069905 -0.011254 -1087510.000000 0 0 1
-34.233329 -4.236931 -30.570850 46.091748 0.123140 2.295964 0.097135 -0.017169 -1240980.000000 0 0 1
-33.802529 -3.033731 -31.212070 46.108652 0.089509 2.314372 0.108809 -0.004059 6494.430000 0 0 1
-33.550629 -1.904331 -30.355650 45.285060 0.056699 2.305441 0.104343 0.000034 -201439.000000 0 0 1
-33.231929 -0.560031 -31.039000 45.476305 0.016851 2.322017 0.098113 0.000367 158656.000000 0 0 1
-34.324229 0.100569 -31.666790 46.700625 -0.002930 2.315944 0.116082 -0.003302 82452.700000 0 0 1
-34.016029 1.419269 -32.060920 46.765448 -0.041699 2.326181 0.115216 0.002443 -1033540.000000 0 0 1
-35.262729 2.181769 -32.342130 47.898158 -0.061793 2.312069 0.098449 0.000780 -1023030.000000 0 0 1
-35.790829 1.724269 -33.566490 49.098532 -0.048139 2.323556 0.096436 -0.004645 110735.000000 0 0 1
35.974967 2.269669 -33.729510 49.366279 0.063007 2.323001 0.075373 -0.003088 153645.000000 0 0 1
35.140567 1.633169 33.385082 48.498355 0.046442 0.811549 0.062044 -0.006007 -164773.000000 0 0 1
35.397667 1.883969 32.036202 47.779310 0.053173 0.835909 0.057375 -0.006375 -45304.500000 0 0 1
-36.403429 1.435469 31.605482 48.230454 -0.039412 0.856215 0.063088 -0.007700 -275339.000000 0 0 1
-36.114629 1.501269 30.110732 47.044409 -0.041546 0.876234 0.061347 -0.013582 -276739.000000 0 0 1
-35.783829 2.772969 29.602252 46.523812 -0.077338 0.881127 0.056473 -0.013338 3916.970000 0 0 1
-35.335929 2.755569 28.253922 45.326650 -0.077825 0.897789 0.050484 -0.014392 113014.000000 0 0 1
-34.806929 4.167269 27.870332 44.784415 -0.119158 0.899091 0.054998 -0.009421 146989.000000 0 0 1
-34.139429 4.162869 26.593282 43.474507 -0.121338 0.912591 0.065478 -0.002890 375687.000000 0 0 1
-33.787729 5.506669 26.187932 43.101529 -0.161558 0.917777 0.075992 -0.006248 -226121.000000 0 0 1
-33.008529 5.502669 24.865272 41.690816 -0.165185 0.931762 0.087902 -0.003723 -523757.000000 0 0 1
-31.754729 4.871169 25.010602 40.713896 -0.152213 0.909296 0.065580 0.001430 -12245.100000 0 0 1
-30.874029 5.112369 23.940932 39.401906 -0.164099 0.917750 0.066262 0.007293 -23788.600000 0 0 1
-31.299229 4.605469 22.548932 38.849793 -0.146095 0.951560 0.086896 -0.002789 -483236.000000 0 0 1
-31.391729 3.191869 22.498732 38.753344 -0.101330 0.951377 0.079564 -0.003590 -186945.000000 0 0 1
-32.201829 2.744669 21.461532 38.795468 -0.085028 0.984599 0.101769 -0.009827 -179677.000000 0 0 1
-31.794529 1.274169 21.086332 38.172621 -0.040054 0.985563 0.105214 -0.018570 1190770.000000 0 0 1
-30.525529 1.073769 20.393732 36.726900 -0.035162 0.982096 0.113413 -0.013899 1076280.000000 0 0 1
-30.422729 1.430369 19.015232 35.904978 -0.046982 1.012669 0.121587 -0.022540 -560207.000000 0 0 1
-29.077929 1.104769 18.369332 34.411900 -0.037975 1.007699 0.120756 -0.022899 -648955.000000 0 0 1
-28.857429 -0.300131 18.275432 34.158933 0.010400 1.006275 0.136989 -0.025660 179206.000000 0 0 1
-27.778629 -0.661231 17.429632 32.800633 0.023799 1.010566 0.136558 -0.027134 -171163.000000 0 0 1
-27.899129 -0.234431 15.928732 32.126949 0.008403 1.052034 0.142414 -0.024935 -404208.000000 0 0 1
-27.513029 1.071769 15.609532 31.650797 -0.038935 1.055055 0.135396 -0.020204 239842.000000 0 0 1
-27.605529 1.265269 14.237632 31.086594 -0.045802 1.095053 0.131978 -0.017576 -40343.200000 0 0 1
-27.005829 2.582369 13.705032 30.394265 -0.095333 1.103013 0.124479 -0.013105 -1166790.000000 0 0 1
-25.667529 2.590469 13.401432 29.071136 -0.100583 1.091689 0.108920 -0.024898 -1035180.000000 0 0 1
-25.281629 3.899369 12.993332 28.691332 -0.153031 1.100819 0.110520 -0.025840 -127929.000000 0 0 1
-23.798829 4.024769 12.610032 27.232259 -0.167531 1.089357 0.099869 -0.033704 -200326.000000 0 0 1
-22.937429 4.046169 13.718332 27.031274 -0.174604 1.038517 0.067650 -0.024322 438734.000000 0 0 1
-21.605729 4.457469 13.429032 25.826643 -0.203455 1.023983 0.059667 -0.025756 348545.000000 0 0 1
-20.873729 4.961169 14.684532 25.999255 -0.233346 0.970598 0.038225 -0.017170 -190385.000000 0 0 1
-21.334429 6.206669 15.214632 26.928900 -0.283108 0.970372 0.039589 -0.015109 156640.000000 0 0 1
-20.523829 6.611169 16.269532 27.011716 -0.311626 0.924400 0.028439 -0.009137 -375360.000000 0 0 1
-20.680729 8.061269 16.764332 27.815813 -0.371679 0.923928 0.031288 -0.010807 -553112.000000 0 0 1
-19.905529 8.931669 16.000232 27.055725 -0.421775 0.938026 0.031247 -0.024605 301318.000000 0 0 1
-20.378629 10.297469 16.006432 27.884266 -0.467884 0.959376 0.033990 -0.019587 -139454.000000 0 0 1
-20.133529 11.144569 17.285732 28.781191 -0.505552 0.926556 0.045254 -0.019272 139507.000000 0 0 1
-20.858829 10.650969 18.447032 29.813200 -0.472109 0.903641 0.058784 -0.024355 706853.000000 0 0 1
-20.490729 11.294769 19.652632 30.555977 -0.503775 0.872168 0.054420 -0.016249 -678634.000000 0 0 1
-12.329433 -33.640524 -20.409670 41.234141 1.219494 2.088597 0.094300 -0.041157 -781492.000000 0 0 1
-13.379833 -33.975424 -19.606370 41.445858 1.195638 2.063557 0.127942 -0.039680 -533955.000000 0 0 1
-14.517833 -33.119624 -19.778870 41.217480 1.157677 2.071298 0.117252 -0.057834 396864.000000 0 0 1
-15.744533 -33.667724 -19.045870 41.763035 1.133366 2.044344 0.107796 -0.046818 -1206350.000000 0 0 1
-16.063533 33.147069 -19.453270 41.655672 -1.119533 2.056693 0.109365 -0.054451 5346.100000 0 0 1
-17.031733 32.500269 -18.661170 41.165358 -1.088095 2.041285 0.119483 -0.046266 190700.000000 0 0 1
-18.430833 33.102369 -18.428570 42.131635 -1.062760 2.023507 0.116057 -0.039168 -859781.000000 0 0 1
-18.529833 -33.949424 -17.537570 42.467452 1.071178 1.996504 0.115626 -0.037076 152151.000000 0 0 1
-19.844233 -33.768924 -17.025970 42.708518 1.039509 1.980846 0.089288 -0.031792 243025.000000 0 0 1
-20.104133 33.815969 -15.590870 42.317504 -1.034419 1.948112 0.095765 -0.031709 -275375.000000 0 0 1
-19.913833 32.427269 -15.403770 41.053193 -1.020068 1.955425 0.100553 -0.036747 126521.000000 0 0 1
-20.404733 32.015569 -14.152670 40.517254 -1.003374 1.927620 0.095084 -0.027916 35743.800000 0 0 1
-20.543133 30.462469 -14.149870 39.372594 -0.977476 1.938404 0.089745 -0.028400 201458.000000 0 0 1
-19.465333 29.730569 -13.590370 38.046079 -0.991107 1.936073 0.103274 -0.042951 61906.600000 0 0 1
-19.559033 28.350569 -13.884870 37.136238 -0.966882 1.953996 0.095985 -0.039561 329323.000000 0 0 1
-18.336633 27.515469 -13.383470 35.671423 -0.982970 1.955395 0.087691 -0.036914 2476860.000000 0 0 1
-17.041333 27.875269 -14.022970 35.553922 -1.022079 1.976227 0.114984 -0.040878 1342000.000000 0 0 1
-16.016333 27.019269 -13.648670 34.246898 -1.035707 1.980718 0.116016 -0.044378 -8115.440000 0 0 1
-14.635433 27.440669 -14.211970 34.193074 -1.080827 1.999441 0.105667 -0.043542 65023.600000 0 0 1
-14.569833 27.358669 -15.640570 34.718932 -1.081450 2.038112 0.109342 -0.045516 -429850.000000 0 0 1
-13.383833 27.956469 -16.059970 34.908649 -1.124302 2.048856 0.119356 -0.048103 -569514.000000 0 0 1
-13.311233 28.041169 -17.623870 35.694494 -1.127590 2.087184 0.139068 -0.056258 -71949.400000 0 0 1
-13.132533 26.826669 -18.232670 34.993769 -1.115558 2.118849 0.103467 -0.047403 -127380.000000 0 0 1
-13.488633 26.901469 -19.605870 35.916882 -1.106022 2.148221 0.093361 -0.048080 61334.200000 0 0 1
-12.730733 25.864169 -20.471170 35.356691 -1.113396 2.188286 0.068938 -0.030609 -414553.000000 0 0 1
-11.445133 26.235769 -20.858970 35.417556 -1.159443 2.200548 0.041999 -0.026452 -1085100.000000 0 0 1
-10.787433 25.150869 -21.359670 34.715565 -1.165619 2.233533 0.049023 -0.027484 -388839.000000 0 0 1
-9.547033 25.571769 -22.150470 35.152590 -1.213479 2.252508 0.050185 -0.026600 -246042.000000 0 0 1
-9.877933 26.176569 -23.378570 36.460169 -1.209960 2.266868 0.049303 -0.025207 -181917.000000 0 0 1
-8.727333 26.390169 -24.144570 36.818034 -1.251414 2.286013 0.032255 -0.028104 -330787.000000 0 0 1
-9.065333 27.041269 -25.485580 38.248207 -1.247330 2.300060 0.019927 -0.021674 -11764.200000 0 0 1
-10.072833 26.365969 -26.207230 38.515519 -1.205869 2.319150 0.023565 -0.017132 -232423.000000 0 0 1
-10.331933 27.095469 -27.425970 39.913621 -1.206500 2.328332 0.024304 -0.012187 -133596.000000 0 0 1
-11.504933 26.408769 -28.147670 40.275029 -1.159941 2.344636 0.030912 -0.008694 -26607.600000 0 0 1
-11.768833 26.844869 -29.428990 41.535743 -1.157629 2.358198 0.031140 -0.004624 -632599.000000 0 0 1
-12.940333 26.210069 -29.839760 41.771177 -1.112188 2.366509 0.035414 -0.003224 -523383.000000 0 0 1
-13.311633 26.466669 -31.328530 43.117989 -1.104785 2.384123 0.022529 -0.001469 -67111.200000 0 0 1
-12.482733 26.038469 -32.419070 43.414475 -1.123768 2.413935 0.030616 -0.002408 -42083.300000 0 0 1
-12.454633 24.612369 -32.577470 42.686979 -1.102335 2.439003 0.045585 -0.004950 -98180.600000 0 0 1
-11.657333 24.186869 -33.774300 43.146279 -1.121677 2.469927 0.042427 -0.011148 -15197.900000 0 0 1
-12.350933 24.537969 33.284878 43.157161 -1.104481 0.689997 0.046390 -0.013976 478220.000000 0 0 1
-11.905033 23.639669 32.223656 41.700453 -1.104270 0.687648 0.051045 -0.017348 -363192.000000 0 0 1
-12.678733 23.836369 30.839842 40.988031 -1.081950 0.719082 0.060530 -0.012036 232189.000000 0 0 1
-13.902833 23.129669 30.787722 40.940862 -1.029581 0.719698 0.063857 -0.013123 8403.550000 0 0 1
-14.454933 22.985869 29.477092 40.077353 -1.009425 0.744385 0.077508 -0.017165 -471188.000000 0 0 1
-15.675933 22.103469 29.447062 40.017842 -0.953918 0.743878 0.061037 -0.009593 -594981.000000 0 0 1
-15.428433 20.681269 29.550162 39.229626 -0.929854 0.717790 0.063861 -0.011184 519730.000000 0 0 1
-16.629333 19.936869 29.766912 39.497880 -0.875606 0.717224 0.052573 -0.008347 538887.000000 0 0 1
-16.198733 18.503169 30.098802 38.867778 -0.851707 0.685047 0.049920 -0.017470 -14141.700000 0 0 1
-15.838033 17.849369 28.880782 37.463888 -0.845033 0.690549 0.062412 -0.019790 -19116.500000 0 0 1
-15.358333 16.535969 29.021382 36.763532 -0.822304 0.660954 0.054710 -0.028464 34262.800000 0 0 1
-14.847233 15.937969 27.692342 35.232443 -0.820814 0.666501 0.056607 -0.026375 420670.000000 0 0 1
-13.711533 16.596769 27.149322 34.648876 -0.880308 0.670428 0.056408 -0.021752 -259799.000000 0 0 1
-13.052033 15.816369 26.234052 33.297727 -0.880864 0.663465 0.043431 -0.015317 374803.000000 0 0 1
-11.873633 16.551269 25.511822 32.646298 -0.948498 0.673792 0.052186 -0.008099 624336.000000 0 0 1
-12.369933 17.482069 24.561992 32.587259 -0.955002 0.717077 0.044765 -0.010643 78778.000000 0 0 1
-12.909833 18.751369 25.054612 33.852788 -0.967848 0.737570 0.032924 -0.008439 463350.000000 0 0 1
-11.877333 19.806269 25.585372 34.466950 -1.030616 0.734276 0.024684 -0.005651 346678.000000 0 0 1
-11.397533 19.654069 26.902032 35.212293 -1.045282 0.701313 0.047714 -0.012275 567065.000000 0 0 1
-12.392933 19.938369 27.933952 36.488752 -1.014673 0.698901 0.069041 -0.018365 789776.000000 0 0 1
-11.893633 19.566169 29.367562 37.239055 -1.024612 0.662231 0.071327 -0.020110 -380214.000000 0 0 1
-10.768633 20.245869 29.800572 37.602298 -1.081961 0.655866 0.062982 -0.026653 -664758.000000 0 0 1
-10.527333 20.238269 31.212802 38.660721 -1.091144 0.631146 0.066839 -0.026018 217328.000000 0 0 1
-9.280933 20.963269 31.774782 39.182026 -1.154010 0.625017 0.043336 -0.025337 -256518.000000 0 0 1
-8.026233 20.363569 31.729352 38.546688 -1.195346 0.603876 0.046899 -0.027234 -321235.000000 0 0 1
-7.115133 21.211769 32.401463 39.375362 -1.247157 0.604323 0.035510 -0.031899 -87366.300000 0 0 1
-5.901833 20.544369 33.064119 39.371801 -1.291057 0.573897 0.052401 -0.025489 -524263.000000 0 0 1
-6.242233 19.743269 -34.105232 39.898985 -1.264571 2.595941 0.048058 -0.027620 542980.000000 0 0 1
-5.107533 19.318069 -33.340110 38.869495 -1.312319 2.601663 0.041858 -0.022801 1219680.000000 0 0 1
-4.045033 18.345769 -33.992940 38.838763 -1.353780 2.636712 0.032705 -0.016286 221095.000000 0 0 1
-4.557033 17.011569 -34.044557 38.330039 -1.309063 2.664198 0.041450 -0.021640 384292.000000 0 0 1
-4.709933 16.504569 32.885375 37.094908 -1.292814 0.481028 0.017303 -0.010596 -251214.000000 0 0 1
-5.472633 15.173869 32.880461 36.624046 -1.224655 0.456086 0.032576 -0.006347 -130285.000000 0 0 1
-4.762433 14.001869 33.316180 36.451351 -1.242943 0.417784 0.037707 -0.008530 -290632.000000 0 0 1
-5.440133 12.825069 32.999005 35.819154 -1.169621 0.399471 0.055947 -0.014672 -330466.000000 0 0 1
-4.848533 11.452969 33.476945 35.712528 -1.170330 0.355707 0.069149 -0.008038 -320318.000000 0 0 1
-4.811033 11.182469 -33.430220 35.577708 -1.164504 2.792372 0.067819 -0.010379 72108.800000 0 0 1
-4.083033 9.967469 -33.158590 34.864218 -1.182011 2.827503 0.083547 -0.018149 454128.000000 0 0 1
-3.928033 9.597369 -31.663850 33.318739 -1.182314 2.825096 0.069991 -0.011521 -206402.000000 0 0 1
-5.092533 8.994769 -31.193680 32.861611 -1.055626 2.821619 0.076740 -0.015268 -500531.000000 0 0 1
-4.944833 8.424669 -29.883300 31.439435 -1.040030 2.825649 0.085063 -0.000083 585212.000000 0 0 1
-6.021833 7.334369 -29.487920 30.977296 -0.883355 2.830241 0.068234 -0.008163 523298.000000 0 0 1
-5.741333 6.670069 -28.248940 29.588095 -0.860088 2.839581 0.058672 -0.006132 662542.000000 0 0 1
-6.655033 5.555869 -28.036110 29.345879 -0.695625 2.841699 0.069322 -0.024701 178363.000000 0 0 1
-6.372933 4.894769 -26.670190 27.854481 -0.654957 2.848943 0.055880 -0.025581 -141176.000000 0 0 1
-6.640733 5.796969 -25.576560 27.052997 -0.717663 2.809691 0.040897 -0.017443 -656523.000000 0 0 1
-5.589333 6.584669 -25.183330 26.623273 -0.866976 2.811197 0.026907 -0.014002 -1069290.000000 0 0 1
-6.073533 7.684069 -24.228570 26.133433 -0.901933 2.757423 0.002754 -0.007312 -162854.000000 0 0 1
-6.311533 7.254169 -22.879170 24.817632 -0.854773 2.743731 0.002518 -0.009308 -239103.000000 0 1 0
-7.547633 7.759669 -22.433070 24.908269 -0.799249 2.692007 0.014469 -0.004106 -111179.000000 0 1 0
-7.676833 7.915269 -20.895470 23.626382 -0.800689 2.656030 0.015447 -0.009130 -128124.000000 0 1 0
-6.906133 9.007969 -20.466470 23.403303 -0.916712 2.635225 -0.005608 -0.003413 -128812.000000 0 1 0
-6.741733 9.235669 -19.091670 22.253998 -0.940240 2.601962 -0.002277 -0.000878 -799305.000000 0 1 0
-7.980033 9.532169 -18.242670 22.075738 -0.873799 2.543422 -0.002934 0.002719 -834357.000000 0 1 0
-7.761933 9.585669 -16.872470 20.900070 -0.890142 2.510346 -0.010173 0.001745 345255.000000 0 1 0
-8.903133 9.859269 -16.044770 20.830401 -0.836314 2.450041 -0.003524 -0.003883 259482.000000 0 1 0
-9.557233 11.251169 -16.070370 21.821694 -0.866625 2.398589 0.003831 -0.008410 49322.300000 0 1 0
-8.653633 12.325169 -15.715670 21.766430 -0.958655 2.377505 -0.011154 -0.007636 496541.000000 0 1 0
-9.159233 13.611269 -16.001670 22.917497 -0.978480 2.343718 0.005378 -0.014468 290168.000000 0 1 0
-8.010433 14.642269 -15.778670 22.968011 -1.070201 2.328128 0.021852 -0.014925 495178.000000 0 1 0
-7.490333 14.842669 -14.452470 22.029158 -1.103437 2.286384 0.022940 -0.013671 314563.000000 0 1 0
-8.383933 15.500369 -13.553070 22.231453 -1.074977 2.226396 0.018984 -0.021154 -147272.000000 0 1 0
-7.585233 16.160969 -12.365170 21.716586 -1.131964 2.176558 0.026453 -0.028608 551211.000000 0 1 0
-7.009933 17.430269 -12.594770 22.618172 -1.188421 2.161376 0.034157 -0.026483 -340705.000000 0 1 0
-5.984833 17.513169 -13.532170 22.927036 -1.241505 2.202137 0.028187 -0.017067 -728206.000000 0 1 0
-5.967733 18.886869 -14.245270 24.397856 -1.264751 2.194289 0.060079 -0.005931 27705.300000 0 1 0
-5.491433 19.820769 -13.320070 24.503939 -1.300521 2.145503 0.070100 -0.018194 -83449.400000 0 1 0
-5.675033 21.131569 -13.714570 25.823219 -1.308430 2.130688 0.080701 -0.017520 49992.700000 0 0 1
-5.236433 22.110069 -12.571870 25.967813 -1.338246 2.076168 0.093775 -0.016823 -390615.000000 0 0 1
-5.385533 23.533869 -12.715470 27.286080 -1.345828 2.055567 0.092354 -0.022808 243345.000000 0 0 1
-6.692433 24.092869 -12.796570 28.089272 -1.299851 2.043806 0.080200 -0.020379 364909.000000 0 0 1
-7.530833 24.068469 -11.500970 27.717810 -1.267554 1.998663 0.040285 -0.023349 -336981.000000 0 0 1
-7.820133 22.772569 -10.981270 26.463800 -1.240012 1.998689 0.050054 -0.023683 -339809.000000 0 0 1
-8.293433 22.676169 -9.688670 26.016534 -1.220174 1.952395 0.060221 -0.032640 98043.000000 0 0 1
-7.388033 23.145569 -8.483270 25.734535 -1.261821 1.906724 0.061674 -0.035872 197807.000000 0 0 1
-7.234733 24.565869 -8.467070 26.972478 -1.284390 1.890110 0.057463 -0.030587 -222739.000000 0 0 1
-6.527133 25.063169 -7.348370 26.921450 -1.316028 1.847261 0.052247 -0.028967 -171730.000000 0 0 1
-6.650933 26.631669 -7.132670 28.361165 -1.326065 1.825020 0.036731 -0.033812 -149683.000000 0 0 1
-6.197933 27.580769 -8.070370 29.398029 -1.349749 1.848888 0.040562 -0.034189 -310078.000000 0 0 1
-6.572433 27.468269 -9.421770 29.773687 -1.335938 1.892777 0.045152 -0.031820 -118593.000000 0 0 1
-5.978233 28.565569 -10.297170 30.947742 -1.364493 1.909991 0.040237 -0.024025 103653.000000 0 0 1
-6.512733 29.889969 -10.078470 32.208718 -1.356259 1.889053 0.041039 -0.026537 -89001.600000 0 0 1
-7.385433 30.191369 -11.156670 33.023245 -1.330887 1.915420 0.056167 -0.028951 195832.000000 0 0 1
-8.539933 31.138069 -10.731070 34.024487 -1.303118 1.891667 0.056717 -0.033347 844615.000000 0 0 1
-9.617033 30.568069 -9.945470 33.553041 -1.265990 1.871728 0.053262 -0.029551 501844.000000 0 0 1
-10.644133 31.518169 -9.764170 34.670327 -1.245108 1.856288 0.047008 -0.029931 159555.000000 0 0 1
-11.797833 30.963869 -8.894370 34.308306 -1.206759 1.833040 0.051654 -0.027018 74227.700000 0 0 1
-12.321433 29.799469 -9.479870 33.610921 -1.178725 1.856724 0.064166 -0.036627 -762042.000000 0 0 1
-13.617033 29.597069 -8.993670 33.797873 -1.139591 1.840143 0.069802 -0.025182 -87204.800000 0 0 1
-14.395833 28.465969 -9.677270 33.334681 -1.102583 1.865343 0.074220 -0.026249 -155966.000000 0 0 1
-14.210433 27.184169 -9.120270 32.001481 -1.089117 1.859798 0.069432 -0.027822 11409.200000 0 0 1
-15.114933 26.281469 -9.728070 31.840417 -1.048874 1.881287 0.086885 -0.032710 -189430.000000 0 0 1
-15.245433 24.904169 -9.092070 30.582783 -1.021481 1.872653 0.082790 -0.034286 323775.000000 0 0 1
-14.105933 24.052269 -9.199070 29.361742 -1.040385 1.889464 0.074671 -0.032750 471162.000000 0 0 1
-14.519433 22.760969 -8.816870 28.400931 -1.002968 1.886455 0.082020 -0.035612 18069.300000 0 0 1
-13.514833 21.637869 -9.161570 27.106871 -1.012491 1.915566 0.086180 -0.038747 -155194.000000 0 0 1
-13.591033 21.150369 -10.460570 27.230091 -0.999647 1.965089 0.079103 -0.035464 131538.000000 0 0 1
-12.857733 19.951069 -10.623670 26.004400 -0.998323 1.991643 0.080292 -0.040450 -301734.000000 0 0 1
-12.967333 19.307269 -12.000970 26.171467 -0.979366 2.047161 0.079472 -0.039961 -240387.000000 0 0 1
-14.332333 19.126969 -12.275470 26.869014 -0.927727 2.045262 0.089191 -0.031800 -428997.000000 0 0 1
-14.581133 18.840469 -13.608170 27.436381 -0.912157 2.089771 0.088741 -0.027794 289019.000000 0 0 1
-16.063233 18.547169 -13.977870 28.238375 -0.857044 2.088626 0.081322 -0.016912 315170.000000 0 0 1
-16.743833 19.744369 -14.276770 29.563867 -0.867447 2.074774 0.051991 -0.012872 -931227.000000 0 0 1
-17.944733 19.410469 -14.883970 30.336650 -0.824616 2.083605 0.039471 -0.006283 -870221.000000 0 0 1
-18.540033 20.559769 -15.716770 31.834789 -0.837008 2.087133 0.045873 -0.010697 -532634.000000 0 0 1
-19.207833 21.466769 -14.951370 32.454684 -0.840878 2.049563 0.049473 -0.013637 -62506.600000 0 0 1
-19.586033 22.606169 -15.675670 33.769487 -0.856857 2.053523 0.051795 -0.014405 -126359.000000 0 0 1
-20.115333 23.807769 -14.912170 34.551546 -0.869267 2.017053 0.043019 -0.005270 -133059.000000 0 0 1
-21.364333 23.538369 -14.328470 34.868247 -0.833777 1.994272 0.043157 -0.006762 -163724.000000 0 0 1
-21.892733 24.537969 -13.524170 35.557093 -0.842308 1.960972 0.051480 -0.016956 -293988.000000 0 0 1
-25.817513 -0.995931 3.280230 26.044112 0.038557 1.444512 0.127158 -0.046479 -384390.000000 0 0 1
-26.286643 -0.649731 4.584630 26.691358 0.024712 1.398176 0.143273 -0.046048 -23582.300000 0 0 1
-27.669473 -0.824131 4.751530 28.086580 0.029776 1.400804 0.141236 -0.048805 -41313.300000 0 0 1
-28.210773 0.018869 5.991030 28.839912 -0.000669 1.361538 0.145165 -0.038328 -138834.000000 0 0 1
-28.605763 1.346569 5.645730 29.188648 -0.047039 1.376147 0.157335 -0.044458 7275.270000 0 0 1
-29.161623 2.001369 6.758130 30.001301 -0.068523 1.343585 0.169693 -0.026398 -32267.800000 0 0 1
-28.149773 2.828969 7.640930 29.305232 -0.100161 1.307012 0.183737 -0.033055 256675.000000 0 0 1
-27.353393 1.955269 8.418430 28.686254 -0.071360 1.272946 0.166053 -0.041999 373830.000000 0 0 1
-26.270163 2.653469 9.016230 27.900802 -0.100666 1.241737 0.160500 -0.048166 275940.000000 0 0 1
-25.398733 1.713069 9.903530 27.315017 -0.067345 1.199775 0.137329 -0.035044 -685947.000000 0 0 1
-24.503633 0.776869 9.398030 26.255562 -0.031694 1.204731 0.138172 -0.036784 -141299.000000 0 0 1
-24.932633 -0.334931 8.695830 26.407685 0.013433 1.235243 0.121042 -0.031608 -313879.000000 0 0 1
-23.749733 -1.129431 8.068530 25.108298 0.047520 1.243642 0.103562 -0.036858 502432.000000 0 0 1
-22.824233 -1.690731 9.007330 24.595450 0.073941 1.195853 0.100688 -0.044542 48143.800000 0 1 0
-21.754733 -2.318631 8.369030 23.424029 0.106180 1.205438 0.109802 -0.025346 -266595.000000 0 1 0
-20.443133 -2.225931 9.175530 22.518144 0.108457 1.151111 0.074705 -0.020283 -17678.000000 0 1 0
-19.858733 -0.942431 9.358530 21.973610 0.047421 1.130841 0.062722 -0.026532 703729.000000 0 1 0
-20.526133 -0.239131 10.421530 23.021460 0.011650 1.101019 0.083153 -0.031347 -546323.000000 0 1 0
-20.088533 1.245169 10.598630 22.747100 -0.061905 1.086107 0.051768 -0.023267 -216775.000000 0 1 0
-20.394633 2.295469 9.666930 22.686114 -0.112081 1.130601 0.061941 -0.020477 -290380.000000 0 1 0
-21.738733 2.496169 9.365630 23.801647 -0.114325 1.166375 0.096428 -0.034167 -1286080.000000 0 1 0
-22.117233 3.913969 8.880230 24.152632 -0.175151 1.194293 0.090954 -0.037967 -533917.000000 0 1 0
-22.176733 4.861869 9.926630 24.778685 -0.215818 1.158612 0.084115 -0.038339 562357.000000 0 1 0
-22.428033 6.209169 9.522930 25.144714 -0.270084 1.182378 0.072409 -0.031697 -315731.000000 0 0 1
-22.404933 7.307969 10.637930 25.856392 -0.315296 1.146781 0.072820 -0.035042 526904.000000 0 0 1
-23.357633 6.936469 11.668430 27.015660 -0.288673 1.124183 0.074863 -0.035707 865023.000000 0 0 1
-23.514733 7.910669 12.720730 27.880788 -0.324520 1.097015 0.077612 -0.033261 236165.000000 0 0 1
-24.392733 7.435069 13.935330 29.059922 -0.295861 1.070668 0.086337 -0.028953 440919.000000 0 0 1
-25.780443 7.352669 13.672530 30.093705 -0.277827 1.099174 0.093889 -0.030303 200142.000000 0 0 1
-26.505233 6.937769 14.845330 31.161576 -0.256007 1.074242 0.090459 -0.027166 330807.000000 0 0 1
-28.005973 6.836869 14.467230 32.254892 -0.239439 1.105678 0.117483 -0.022473 31675.800000 0 0 1
-28.285673 5.673069 13.668030 31.923002 -0.197937 1.128345 0.126783 -0.020254 -428253.000000 0 0 1
-29.446853 5.822769 12.920930 32.679844 -0.195220 1.164316 0.146539 -0.025111 -750722.000000 0 0 1
-29.987523 4.559269 12.184730 32.688012 -0.150883 1.188816 0.164292 -0.025119 -538117.000000 0 0 1
-30.685303 3.646169 12.924630 33.495200 -0.118270 1.174651 0.150731 -0.030818 27235.900000 0 0 1
-31.302963 2.708069 12.031830 33.644822 -0.086297 1.205086 0.148573 -0.018831 -312849.000000 0 0 1
-32.318813 1.770769 12.661830 34.755765 -0.054736 1.197906 0.126075 -0.006779 -65280.500000 0 0 1
-31.781923 0.574069 13.229530 34.430229 -0.018061 1.176410 0.130583 -0.016915 -84913.400000 0 0 1
-32.858263 -0.085931 13.831230 35.650747 0.002615 1.172374 0.116471 -0.013828 -86828.700000 0 0 1
-32.498503 -1.272031 14.686630 35.685681 0.039121 1.146636 0.121861 -0.020218 -195988.000000 0 0 1
-32.519373 -2.538231 14.097530 35.534386 0.077895 1.162845 0.128759 -0.026254 174985.000000 0 0 1
-33.024163 -3.536331 14.970930 36.431164 0.106677 1.147314 0.141568 -0.029433 -85658.100000 0 0 1
-33.100273 -4.958531 14.370130 36.424109 0.148698 1.165248 0.145379 -0.031459 -104220.000000 0 0 1
-34.137631 -5.057031 13.435330 37.033222 0.147067 1.199535 0.099675 -0.033976 -71879.400000 0 0 1
-34.092468 -6.383531 12.933130 37.017721 0.185098 1.213891 0.112835 -0.034607 -1117980.000000 0 0 1
-35.174651 -6.657531 11.883630 37.720014 0.187058 1.250289 0.121027 -0.020462 446797.000000 0 0 1
-36.490593 -6.917831 12.366230 39.145158 0.187355 1.249384 0.090823 -0.015338 595714.000000 0 0 1
35.924603 -5.739831 12.859030 38.585974 -0.158435 1.231041 0.090150 -0.023745 -97522.100000 0 0 1
34.379033 -5.672931 12.619530 37.058772 -0.163538 1.223318 0.074365 -0.020872 948111.000000 0 0 1
33.536713 -6.517631 13.406730 36.700559 -0.191950 1.196841 0.066809 -0.013528 439072.000000 0 0 1
32.176543 -6.273331 13.078130 35.294788 -0.192550 1.191206 0.061336 -0.007673 64760.200000 0 0 1
31.208023 -7.408731 13.403830 34.763381 -0.233084 1.174967 0.034458 -0.014167 -188558.000000 0 0 1
30.919213 -7.463631 14.800130 35.082009 -0.236860 1.135287 0.052923 -0.006947 113037.000000 0 0 1
29.947723 -8.444331 15.111630 34.590955 -0.274834 1.118684 0.056143 -0.001503 33595.200000 0 0 1
29.578023 -8.487331 16.589530 34.958643 -0.279439 1.076347 0.027808 -0.002872 -269874.000000 0 0 1
30.561683 -8.948631 17.473030 36.323563 -0.284843 1.068958 0.016297 0.000560 -484311.000000 0 0 1
30.041303 -9.242631 18.755730 36.601687 -0.298473 1.032786 0.008191 -0.001207 -659888.000000 0 0 1
31.027533 -9.593231 19.868730 38.072356 -0.299861 1.021757 0.008981 0.005174 117518.000000 0 0 1
31.974833 -8.579431 20.216630 38.790575 -0.262144 1.022571 0.014545 -0.000702 113139.000000 0 0 1
33.224723 -8.807131 19.598230 39.566885 -0.259118 1.052594 0.010676 0.012016 -278060.000000 0 0 1
34.417573 -8.152031 20.314030 40.788292 -0.232571 1.049464 0.008150 -0.004934 22622.800000 0 0 1
34.652003 -8.687931 21.638730 41.766925 -0.245656 1.026188 0.023568 -0.009993 81022.000000 0 0 1
35.914063 -8.268231 22.141130 42.993176 -0.226280 1.029798 0.016231 -0.007417 183265.000000 0 0 1
36.170133 -8.823631 23.563230 44.060876 -0.239275 1.006539 0.029760 -0.007281 -317758.000000 0 0 1
35.597363 -8.161131 24.666930 44.070781 -0.225368 0.976759 0.034694 -0.006886 107168.000000 0 0 1
35.638243 -9.089531 25.762230 44.904303 -0.249726 0.959763 0.041430 -0.011287 49327.900000 0 0 1
35.256583 -8.351331 27.089330 45.239398 -0.232586 0.928795 0.052124 -0.008797 -480747.000000 0 0 1
36.368733 -7.884931 27.772130 46.434341 -0.213501 0.929675 0.050874 -0.024426 -786498.000000 0 0 1
36.124213 -7.076531 28.821930 46.751895 -0.193445 0.906523 0.044326 -0.027247 -357165.000000 0 0 1
-35.679137 -6.505931 29.459030 46.724323 0.180364 0.888617 0.058601 -0.016942 -44465.700000 0 0 1
-35.135334 -7.269731 30.515030 47.101037 0.204028 0.866020 0.054082 -0.012494 427070.000000 0 0 1
-33.710333 -7.176831 30.597330 46.087851 0.209765 0.844786 0.059599 -0.018620 743682.000000 0 0 1
-33.160083 -7.792631 31.883830 46.657205 0.230812 0.818437 0.046643 -0.009574 -202819.000000 0 0 1
-33.324173 -9.197431 31.881330 47.026720 0.269295 0.825839 0.041281 -0.008842 410767.000000 0 0 1
-32.669393 -9.766431 33.013530 47.461200 0.290491 0.801556 0.037704 -0.006045 -90516.700000 0 0 1
-32.672533 -11.280531 33.018430 47.801271 0.332446 0.808279 0.032883 -0.006423 -147786.000000 0 0 1
-34.003403 -11.737131 33.111530 48.891360 0.332370 0.826782 0.034099 -0.014049 117278.000000 0 0 1
-34.132966 -13.129131 33.244830 49.423194 0.367201 0.833003 0.036212 -0.012480 -101563.000000 0 0 1
-35.592180 -13.612231 33.280730 50.593508 0.365286 0.852894 0.029226 -0.013317 -140333.000000 0 0 1
-35.875225 -14.996231 33.316030 51.204263 0.395936 0.862357 0.028830 -0.020188 79186.000000 0 0 1
35.811563 -15.211931 33.536630 51.367075 -0.401682 0.859414 0.012993 -0.013894 67694.900000 0 0 1
35.357223 -16.670131 33.745830 51.641141 -0.440570 0.858639 0.013698 -0.015727 -287234.000000 0 0 1
35.741393 -17.149131 -33.306973 51.777353 -0.447367 2.269562 0.016132 -0.024938 -275483.000000 0 0 1
35.229453 -18.404931 -33.169373 51.769326 -0.481430 2.266225 0.012127 -0.030759 -262661.000000 0 0 1
35.754403 -19.266831 -32.007273 51.711252 -0.494255 2.238216 0.019042 -0.031084 -166021.000000 0 0 1
35.177743 -18.930531 -30.785473 50.433956 -0.493692 2.227376 0.020525 -0.028290 -435704.000000 0 0 1
35.678803 -19.665731 -29.739673 50.439727 -0.503755 2.201370 0.022473 -0.026157 -1057030.000000 0 0 1
34.656363 -19.848831 -28.574573 49.107492 -0.520129 2.191832 0.035922 -0.020367 693737.000000 0 0 1
33.500933 -20.637831 -28.891373 48.815407 -0.552128 2.204148 0.026462 -0.020929 286973.000000 0 0 1
32.505283 -19.925931 -29.578373 48.254702 -0.549928 2.230602 0.025701 -0.021216 -1885140.000000 0 0 1
31.200263 -20.703231 -29.559473 47.705792 -0.585848 2.239055 0.027156 -0.018472 -862179.000000 0 0 1
30.224243 -20.015231 -30.296573 47.244012 -0.584921 2.266960 0.040316 -0.016603 -239196.000000 0 0 1
28.994103 -20.701931 -30.266873 46.747316 -0.620063 2.275039 0.038156 -0.011907 -162848.000000 0 0 1
27.893763 -20.169931 -31.185373 46.447988 -0.626061 2.306898 0.038570 -0.007045 -31670.500000 0 0 1
28.193603 -20.282431 -32.555273 47.603593 -0.623627 2.323868 0.031007 -0.007095 125448.000000 0 0 1
27.022263 -19.962231 -33.293773 47.298717 -0.636251 2.351676 0.054161 0.000538 385607.000000 0 0 1
27.176463 -19.944631 33.425630 47.472320 -0.633113 0.789630 0.042520 -0.005989 -14766.900000 0 0 1
28.059613 -18.956231 32.927730 47.232573 -0.594141 0.799395 0.033920 -0.003604 133476.000000 0 0 1
28.231703 -19.022031 31.555730 46.418001 -0.592913 0.823284 0.024795 -0.006125 -60760.500000 0 0 1
27.061763 -18.535031 30.650130 44.892280 -0.600530 0.819279 0.024204 -0.000943 -168313.000000 0 0 1
26.910663 -17.094431 30.804630 44.332026 -0.565921 0.802569 0.032432 -0.001848 159689.000000 0 0 1
26.083063 -16.482831 29.848430 42.929461 -0.563572 0.801973 0.029622 0.000118 -161904.000000 0 0 1
25.754163 -15.040531 30.233930 42.468635 -0.528575 0.778579 0.042800 -0.003353 174250.000000 0 0 1
26.943263 -14.292731 30.423930 43.079427 -0.487729 0.786639 0.056442 -0.004981 370465.000000 0 0 1
26.637963 -12.981331 30.794130 42.736102 -0.453456 0.766180 0.078717 -0.010213 564588.000000 0 0 1
27.938263 -12.120131 31.009830 43.463245 -0.409316 0.776355 0.081941 -0.013335 1175720.000000 0 0 1
28.638003 -11.701431 29.815830 42.965595 -0.387896 0.803840 0.079347 -0.012409 113682.000000 0 0 1
29.988353 -11.356431 29.971430 43.892555 -0.362006 0.819158 0.085166 -0.010723 -252248.000000 0 0 1
30.618863 -10.896231 28.704830 43.361387 -0.341892 0.847325 0.083886 -0.010599 -360602.000000 0 0 1
30.534433 -9.497131 28.484730 42.824373 -0.301545 0.843099 0.074870 -0.013156 97678.500000 0 0 1
30.928333 -9.142131 27.164130 42.166696 -0.287407 0.870809 0.064672 -0.011107 129368.000000 0 0 1
31.038723 -7.589931 27.034730 41.855537 -0.239825 0.868587 0.062729 -0.008307 47782.100000 0 0 1
29.732093 -7.088231 26.961630 40.757451 -0.234035 0.847960 0.077813 -0.009976 -296684.000000 0 0 1
29.816043 -5.688931 26.804730 40.495109 -0.188535 0.847412 0.073870 -0.012192 -626965.000000 0 0 1
28.517483 -4.961131 26.589830 39.304945 -0.172244 0.827796 0.084954 -0.013361 -774226.000000 0 0 1
27.870863 -5.278831 25.379730 38.062865 -0.187186 0.840911 0.070601 -0.008738 61073.400000 0 0 1
26.574863 -4.689131 25.424130 37.075567 -0.174652 0.815179 0.089247 -0.012539 179715.000000 0 0 1
25.723363 -5.110631 24.229530 35.705462 -0.196123 0.824949 0.079585 -0.004116 -230741.000000 0 0 1
26.104763 -4.421031 23.037130 35.095776 -0.167765 0.854750 0.081831 -0.000364 446628.000000 0 0 1
25.327463 -4.846931 21.891030 33.825882 -0.189084 0.866933 0.084668 -0.002004 403163.000000 0 0 1
25.625563 -4.085131 20.563230 33.108974 -0.158086 0.900680 0.084324 -0.003996 351220.000000 0 0 1
24.949663 -2.811931 20.559430 32.451237 -0.112231 0.884665 0.093513 -0.003623 279229.000000 0 0 1
25.423763 -1.973931 19.529530 32.119568 -0.077486 0.917225 0.086856 -0.005012 -411547.000000 0 0 1
24.333063 -1.010731 19.058530 30.924862 -0.041513 0.906780 0.071991 -0.006830 -329322.000000 0 0 1
23.233663 -1.618131 18.465330 29.721875 -0.069534 0.900433 0.078571 -0.009406 23726.000000 0 0 1
22.229263 -0.713131 17.985230 28.602748 -0.032070 0.890795 0.077707 -0.010498 559608.000000 0 0 1
21.068663 -1.377931 17.255030 27.267624 -0.065309 0.885629 0.081082 -0.012397 -73652.800000 0 0 1
21.546963 -2.020131 16.069430 26.955131 -0.093482 0.932093 0.077403 -0.012221 390997.000000 0 0 1
20.523463 -2.793131 15.458830 25.845493 -0.135263 0.929637 0.093771 -0.021892 -67382.800000 0 0 1
20.879563 -3.145931 14.043030 25.358622 -0.149545 0.983902 0.093665 -0.029445 -240126.000000 0 0 1
20.066663 -4.146931 13.473630 24.523595 -0.203789 0.989132 0.115463 -0.030056 571284.000000 0 1 0
20.395563 -4.324931 12.094030 24.102895 -0.208957 1.045156 0.111303 -0.031407 -255547.000000 0 1 0
19.368163 -5.288831 11.497330 23.136250 -0.266569 1.050727 0.127398 -0.037292 -199313.000000 0 1 0
19.473963 -6.577731 12.041530 23.822263 -0.325739 1.040865 0.111695 -0.040860 68539.200000 0 1 0
18.214363 -7.145531 12.229430 23.073374 -0.373853 1.012168 0.112109 -0.025097 -671999.000000 0 1 0
18.261463 -8.642531 12.625130 23.823691 -0.442033 1.012266 0.112648 -0.034792 -407520.000000 0 1 0
18.814263 -9.439131 11.590130 24.029248 -0.465007 1.067479 0.098615 -0.043144 375307.000000 0 1 0
18.437363 -10.782231 11.620530 24.315212 -0.529171 1.072520 0.105693 -0.045627 -444841.000000 0 1 0
18.920063 -11.522531 10.374630 24.461611 -0.547019 1.132808 0.091448 -0.041030 963.415000 0 1 0
18.316063 -11.106431 9.172230 23.301518 -0.545095 1.166217 0.086934 -0.034160 405507.000000 0 1 0
19.049563 -11.692831 8.113030 23.778759 -0.550513 1.222616 0.098894 -0.043932 103229.000000 0 1 0
18.891163 -10.984631 6.746330 22.870311 -0.526683 1.271360 0.103150 -0.032072 -181702.000000 0 1 0
19.392863 -9.663331 6.686430 22.675349 -0.462281 1.271470 0.109330 -0.024252 499901.000000 0 1 0
19.621763 -9.265931 5.332630 22.345201 -0.441184 1.329823 0.075686 -0.025125 -124153.000000 0 1 0
20.431663 -7.932531 5.307930 22.551098 -0.370334 1.333194 0.125079 -0.021182 -104145.000000 0 1 0
20.762763 -7.534631 4.035030 22.453161 -0.348113 1.390106 0.095961 -0.020676 349213.000000 0 1 0
21.278663 -6.255131 4.111430 22.556862 -0.285909 1.387502 0.113520 -0.023560 -342144.000000 0 1 0
21.798263 -5.766931 2.717430 22.711367 -0.258634 1.450858 0.110372 -0.029206 306368.000000 0 1 0
20.735963 -5.535531 1.799330 21.537406 -0.260870 1.487154 0.070961 -0.033865 764787.000000 0 1 0
21.276463 -5.229531 0.545630 21.916514 -0.241012 1.545898 0.081568 -0.019100 58773.300000 0 1 0
-26.357243 -15.474731 0.609430 30.570295 0.530891 1.550860 0.071757 -0.012401 -354036.000000 0 0 1
-25.471813 -14.833931 -0.275570 29.477698 0.527353 1.580145 0.076916 -0.010130 -166548.000000 0 0 1
-24.126833 -15.240031 -0.211070 28.537820 0.563376 1.578193 0.075432 -0.005328 753027.000000 0 0 1
-23.222733 -14.675831 0.971430 27.488525 0.563588 1.535450 0.096380 -0.027540 -4164.970000 0 0 1
-23.503633 -15.274931 2.233630 28.119982 0.576303 1.491280 0.076009 -0.010958 363131.000000 0 0 1
-22.785633 -14.634331 3.318830 27.283023 0.570916 1.448850 0.089306 -0.008751 439994.000000 0 0 1
-23.179733 -15.280131 4.641030 28.148207 0.582817 1.405162 0.082689 0.003328 -411475.000000 0 0 1
-22.974933 -16.686631 4.698530 28.781372 0.628158 1.406813 0.102227 -0.007544 243320.000000 0 0 1
-23.520933 -17.349031 5.825930 29.802091 0.635517 1.374042 0.106894 -0.013899 -160811.000000 0 0 1
-23.492933 -18.812331 5.624030 30.617828 0.675208 1.386063 0.076703 -0.008914 98435.900000 0 0 1
-24.198833 -19.523931 6.620330 31.789875 0.678881 1.361008 0.075519 -0.014724 189776.000000 0 0 1
-24.429833 -20.878431 6.277130 32.743365 0.707175 1.377895 0.076004 -0.020208 83325.800000 0 0 1
-25.097673 -21.859831 7.277830 34.069227 0.716555 1.355518 0.065392 -0.015096 74501.200000 0 0 1
-24.246833 -22.134331 8.364830 33.879314 0.739883 1.321316 0.068332 -0.011761 -281637.000000 0 0 1
-24.929533 -22.870931 9.325730 35.093166 0.742358 1.301823 0.069997 -0.016740 -491648.000000 0 0 1
-24.123833 -23.318731 10.491430 35.153842 0.768430 1.267735 0.055333 -0.024958 -362631.000000 0 0 1
-24.007133 -22.320431 11.494830 34.737230 0.749006 1.233531 0.078798 -0.024710 -115702.000000 0 0 1
-23.014533 -22.640231 12.423730 34.591875 0.777200 1.203438 0.089095 -0.027150 -386352.000000 0 0 1
-23.093533 -21.820531 13.725130 34.609623 0.757063 1.163019 0.065392 -0.021001 269315.000000 0 0 1
-24.175533 -22.213531 14.579130 35.922811 0.743129 1.152892 0.057856 -0.017568 299387.000000 0 0 1
-24.596633 -21.164331 15.410230 35.922116 0.710533 1.127422 0.052396 -0.008664 -753757.000000 0 0 1
-26.026393 -21.240431 15.975130 37.198573 0.684488 1.126907 0.032498 -0.008086 -76629.300000 0 0 1
-27.039883 -21.127931 14.966130 37.437011 0.663272 1.159532 0.030014 -0.001590 428635.000000 0 0 1
-27.312233 -22.363731 14.301030 38.086927 0.686110 1.185877 0.019407 -0.012455 -385437.000000 0 0 1
-28.563653 -23.161931 14.790230 39.637207 0.681345 1.188405 0.022090 -0.014876 249239.000000 0 0 1
-28.297013 -23.777431 16.074130 40.304650 0.698824 1.160571 0.023229 -0.009670 116993.000000 0 0 1
-29.183233 -24.846631 16.396230 41.687558 0.705307 1.166565 0.012853 -0.009127 -161031.000000 0 0 1
-28.897883 -26.223201 15.715530 42.068061 0.736912 1.187937 0.023691 -0.009728 -20203.100000 0 0 1
-29.435793 -26.380871 14.415130 42.073890 0.730721 1.221098 0.020032 -0.019899 -491256.000000 0 0 1
-30.680473 -27.008411 14.395230 43.335532 0.721831 1.232182 0.041229 -0.020577 -513394.000000 0 0 1
-31.319363 -27.282271 13.024730 43.530086 0.716616 1.266929 0.058933 -0.029079 12186.900000 0 0 1
-30.639393 -28.232711 12.217730 43.418099 0.744541 1.285547 0.050278 -0.037141 269185.000000 0 0 1
-31.460913 -28.596531 11.114030 43.943967 0.737740 1.315106 0.058984 -0.025046 183215.000000 0 0 1
-30.857953 -29.746001 10.307530 44.082684 0.767052 1.334789 0.047254 -0.024705 47744.500000 0 0 1
-30.955403 -30.969801 11.051630 45.160869 0.785631 1.323569 0.038473 -0.014623 -35302.900000 0 0 1
-30.418643 -32.048061 10.308230 45.372146 0.811477 1.341602 0.061535 -0.021717 -85175.500000 0 0 1
-30.476673 -33.424791 11.048530 46.563014 0.831501 1.331230 0.062735 -0.014179 725410.000000 0 0 1
-31.823473 -33.928491 11.150830 47.835310 0.817402 1.335523 0.040322 -0.001150 774217.000000 0 0 1
-31.911953 33.073748 11.952430 47.487958 -0.803274 1.316366 0.058677 -0.008531 -142460.000000 0 0 1
-33.318633 32.600951 12.369230 48.228115 -0.774511 1.311425 0.055501 -0.001860 437443.000000 0 0 1
-34.273469 32.231357 11.372430 48.403132 -0.754702 1.333627 0.024923 0.004051 584312.000000 0 0 1
-35.147550 33.288146 10.978930 49.638572 -0.758235 1.347775 0.047922 0.005943 -37630.100000 0 0 1
-36.515253 32.823550 10.456330 50.200438 -0.732207 1.360968 0.030158 0.013466 -117967.000000 0 0 1
-36.437123 32.189787 9.174430 49.477434 -0.723587 1.384290 0.006748 0.016809 708339.000000 0 0 1
35.322973 31.977193 8.618330 48.420335 0.735725 1.391853 -0.003021 0.018036 751199.000000 0 0 1
35.367663 31.390663 7.153830 47.827006 0.725895 1.420656 -0.010913 0.014898 -17182.700000 0 0 1
35.561343 29.979813 7.074930 47.047347 0.700442 1.419845 0.014237 0.008763 -24845.200000 0 0 1
35.370853 29.575773 5.746730 46.463410 0.696405 1.446796 0.030995 -0.000901 -99345.600000 0 0 1
35.511333 28.027413 5.578830 45.581948 0.668153 1.448097 0.032125 -0.003889 141569.000000 0 0 1
34.574703 27.250393 6.318030 44.473717 0.667480 1.428252 0.040420 -0.002936 233580.000000 0 0 1
35.064183 26.899653 7.641230 44.849488 0.654390 1.399586 0.020707 0.006663 561206.000000 0 0 1
34.166093 25.778273 8.346630 43.606278 0.646374 1.378199 0.027946 0.003368 414576.000000 0 0 1
34.266223 24.528413 7.726930 42.842998 0.621264 1.389449 0.030268 -0.003017 188005.000000 0 0 1
33.137993 23.666363 7.865030 41.473871 0.620177 1.380003 0.025826 -0.003647 -380618.000000 0 0 1
32.966313 22.564663 6.821530 40.527460 0.600231 1.401673 0.045804 -0.008624 415928.000000 0 0 1
33.846243 21.441863 6.881030 40.653047 0.564694 1.400715 0.066420 -0.007718 -91804.100000 0 0 1
35.232793 21.627963 6.901030 41.913514 0.550548 1.405394 0.084608 -0.010733 -333606.000000 0 0 1
36.090433 20.310663 6.835530 41.973406 0.512596 1.407214 0.072988 -0.010732 224760.000000 0 0 1
36.178063 19.569163 5.623930 41.514250 0.495839 1.434909 0.095098 -0.020426 -167368.000000 0 0 1
-36.204853 18.369963 5.758830 41.005012 -0.469542 1.429888 0.098992 -0.017265 -325070.000000 0 0 1
-36.428323 17.282063 4.743930 40.597996 -0.442969 1.453677 0.097342 -0.030444 -180450.000000 0 0 1
-35.814674 17.484763 3.459330 40.004684 -0.454164 1.484215 0.097151 -0.026119 93191.300000 0 0 1
-36.268823 16.476763 2.570530 39.918903 -0.426420 1.506358 0.110917 -0.028190 -772721.000000 0 0 1
-35.238187 15.860763 1.568030 38.674957 -0.422938 1.530241 0.121707 -0.016474 -778331.000000 0 0 1
-34.203701 15.175663 2.101730 37.478142 -0.417590 1.514688 0.115091 -0.026036 -862686.000000 0 0 1
-33.161103 15.992463 2.601530 36.907798 -0.449360 1.500251 0.114094 -0.023759 -20612.700000 0 0 1
-31.786383 15.241463 2.815430 35.363865 -0.447111 1.491099 0.084112 -0.020858 610249.000000 0 0 1
-31.699493 14.473463 3.967930 35.072545 -0.428315 1.457419 0.109936 -0.027430 -143242.000000 0 0 1
-30.438483 13.894663 4.152930 33.716609 -0.428232 1.447311 0.080045 -0.020016 -774827.000000 0 0 1
-30.211413 13.205563 5.493630 33.425983 -0.412079 1.405695 0.098513 -0.016110 -143967.000000 0 0 1
-30.816223 11.931463 5.477730 33.496342 -0.369407 1.406526 0.113034 -0.019819 420367.000000 0 0 1
-30.573703 11.227063 6.658530 33.243560 -0.351926 1.369137 0.109076 -0.017600 -78122.400000 0 0 1
-30.754153 9.688963 6.548830 32.902600 -0.305202 1.370421 0.134387 -0.031760 -794740.000000 0 0 1
-32.088993 9.350763 6.494330 34.048738 -0.283549 1.378884 0.136315 -0.022694 -954229.000000 0 0 1
-32.459523 8.029163 6.483030 34.060501 -0.242492 1.379289 0.150984 -0.026390 -976427.000000 0 0 1
-33.951143 7.815263 6.382030 35.418763 -0.226250 1.389619 0.145521 -0.022231 -644079.000000 0 0 1
-34.660762 7.890163 7.627830 36.356662 -0.223825 1.359420 0.131238 -0.015428 -59788.300000 0 0 1
-35.959058 7.369263 7.467530 37.458295 -0.202136 1.370096 0.097128 -0.016911 222420.000000 0 0 1
36.475413 6.619563 8.712330 38.081216 0.179526 1.339969 0.092321 -0.018062 302474.000000 0 0 1
35.885593 7.438863 9.736430 37.919790 0.204399 1.311124 0.087897 -0.014586 371999.000000 0 0 1
-36.247253 7.987463 10.642330 38.612460 -0.216894 1.291563 0.109744 -0.021303 -70003.000000 0 0 1
36.161633 8.947263 11.659030 39.033962 0.242553 1.267477 0.100482 -0.026236 -274105.000000 0 0 1
35.315543 8.281863 12.554930 38.384933 0.230348 1.237585 0.083183 -0.023470 632519.000000 0 0 1
34.778423 9.175963 13.577930 38.446029 0.257962 1.209841 0.105657 -0.032421 62447.200000 0 0 1
33.997753 8.635763 14.805930 38.074127 0.248749 1.171390 0.100689 -0.035368 -370123.000000 0 0 1
32.703393 8.139463 14.595730 36.725986 0.243931 1.162090 0.071824 -0.030529 54941.800000 0 0 1
32.191063 7.622363 15.826530 36.672114 0.232503 1.124566 0.077026 -0.024102 338585.000000 0 0 1
30.670713 7.317763 15.846630 35.289629 0.234212 1.105100 0.044396 -0.009815 -251.311000 0 0 1
29.828063 8.448463 16.059030 34.913927 0.276009 1.092846 0.051076 -0.018981 1482230.000000 0 0 1
28.402093 8.274063 16.163230 33.710369 0.283473 1.070742 0.056177 -0.011116 1215670.000000 0 0 1
27.845763 7.396063 17.306530 33.609585 0.259614 1.029872 0.055420 -0.014825 -716444.000000 0 0 1
27.972163 8.118863 18.522830 34.517431 0.282486 1.004367 0.072754 -0.022822 114551.000000 0 0 1
27.209163 7.669063 19.624130 34.413072 0.274729 0.963984 0.072874 -0.013918 -222830.000000 0 0 1
27.838163 6.614563 20.582430 35.247016 0.233282 0.947213 0.079791 -0.001346 -235322.000000 0 0 1
27.187863 6.570563 21.805230 35.465761 0.237126 0.908633 0.060827 0.012526 -279963.000000 0 0 1
27.468363 5.357763 22.493530 35.905090 0.192633 0.893778 0.074334 0.009121 -506978.000000 0 0 1
26.609263 5.252963 23.787230 36.076014 0.194905 0.850824 0.086962 0.010462 770761.000000 0 0 1
25.216263 5.031163 23.640730 34.929309 0.196935 0.827367 0.036157 0.012194 77208.500000 0 0 1
24.483163 6.187563 23.265430 34.336444 0.247544 0.826339 0.049384 0.018992 -269199.000000 0 0 1
22.937563 6.031363 23.242330 33.207153 0.257126 0.795512 0.059773 0.001421 275821.000000 0 0 1
22.592863 5.194363 22.208730 32.103684 0.225984 0.806843 0.059308 0.009858 489166.000000 0 0 1
21.216363 5.332563 21.843130 30.914278 0.246241 0.786156 0.042417 0.007106 -48905.600000 0 0 1
20.374663 4.016563 22.094330 30.321924 0.194639 0.754435 0.057564 0.003148 547666.000000 0 0 1
19.233663 3.743663 21.288530 28.933550 0.192238 0.743989 0.051415 -0.001788 588551.000000 0 0 1
18.156463 4.648263 21.484530 28.510498 0.250628 0.717327 0.047661 -0.009442 -543764.000000 0 0 1
16.977863 4.326563 20.538630 26.996338 0.249525 0.706262 0.075109 -0.021116 -235505.000000 0 0 1
16.078763 3.340063 20.958630 26.626055 0.204818 0.664626 0.077469 -0.017978 440292.000000 0 0 1
15.100863 3.068463 19.918930 25.183631 0.200468 0.658440 0.087389 -0.024388 686835.000000 0 0 1
14.027863 2.054063 20.468930 24.899341 0.145394 0.605764 0.092891 -0.027112 -71709.900000 0 1 0
14.491163 0.720663 20.627030 25.218793 0.049690 0.613005 0.071272 -0.010074 133947.000000 0 0 1
13.730563 -0.064237 21.521630 25.528671 -0.004678 0.567890 0.073595 -0.016999 -183009.000000 0 0 1
14.231563 -1.511037 21.698930 25.993541 -0.105779 0.583060 0.050470 -0.003241 -46801.400000 0 0 1
13.793563 -2.307637 20.601830 24.900260 -0.165763 0.596380 0.061102 -0.002729 288343.000000 0 1 0
14.061663 -3.668337 20.749830 25.332637 -0.255188 0.610965 0.062760 0.008099 -180691.000000 0 0 1
13.764663 -4.473637 19.447230 24.241991 -0.314240 0.639804 0.067892 0.001443 198720.000000 0 1 0
12.381563 -4.673637 19.199130 23.318503 -0.360932 0.603520 0.064560 -0.001362 228818.000000 0 1 0
12.212163 -5.237237 17.922230 22.310802 -0.405131 0.637984 0.075893 -0.004023 -471508.000000 0 1 0
10.722063 -5.330837 17.631430 21.313089 -0.461392 0.596586 0.072204 -0.002373 -361258.000000 0 1 0
10.050363 -6.300837 18.454030 21.937674 -0.559983 0.571293 0.070461 0.001751 178532.000000 0 1 0
8.719163 -6.522537 18.010030 21.045866 -0.642264 0.543795 0.059367 -0.012842 523183.000000 0 1 0
7.808063 -7.299637 19.015930 21.814127 -0.751757 0.512084 0.048969 -0.016316 -92012.200000 0 1 0
7.906263 -8.692937 19.026330 22.362410 -0.832755 0.553257 0.046817 -0.010533 -168726.000000 0 1 0
9.035063 -9.115137 19.761630 23.563533 -0.789810 0.575991 0.071612 -0.013566 133226.000000 0 1 0
9.469563 -10.574237 19.435230 24.066892 -0.840455 0.630809 0.081735 -0.022201 156772.000000 0 1 0
9.842063 -10.587437 18.054030 23.128079 -0.821867 0.675154 0.081223 -0.006054 -69191.800000 0 1 0
10.136663 -11.847037 17.439430 23.393117 -0.863044 0.729521 0.067510 -0.016431 183760.000000 0 1 0
10.025963 -11.755737 15.858030 22.140334 -0.864646 0.772382 0.063502 -0.024721 299246.000000 0 1 0
10.575063 -12.921337 15.163130 22.554676 -0.884925 0.833508 0.056605 -0.024127 296389.000000 0 1 0
10.259863 -12.963737 13.768530 21.515011 -0.901304 0.876363 0.048060 -0.017681 -872733.000000 0 1 0
10.755563 -14.231337 13.130330 22.149913 -0.923615 0.936273 0.046889 -0.018410 221629.000000 0 1 0
12.117163 -14.076837 12.755030 22.531617 -0.860073 0.969036 0.033043 -0.017571 123658.000000 0 1 0
12.334163 -13.385637 11.536730 21.550011 -0.826257 1.005878 0.019514 -0.013913 -960094.000000 0 1 0
13.781463 -13.108737 11.108830 22.026661 -0.760386 1.042184 0.054137 -0.020201 -207092.000000 0 1 0
14.542463 -14.213337 10.708730 22.982147 -0.773953 1.086079 0.067025 -0.015425 82180.100000 0 1 0
15.773863 -13.838937 10.114530 23.294520 -0.720150 1.121644 0.063295 -0.028595 674741.000000 0 1 0
16.777363 -15.030637 9.880330 24.597172 -0.730539 1.157440 0.074067 -0.034637 368942.000000 0 1 0
17.131263 -15.836537 10.969730 25.780051 -0.746146 1.131268 0.067417 -0.024722 237829.000000 0 0 1
16.179663 -16.831937 11.364930 25.966464 -0.805155 1.117783 0.081637 -0.017524 268215.000000 0 0 1
16.593863 -17.670637 12.630430 27.333779 -0.816813 1.090456 0.056212 -0.017218 196072.000000 0 0 1
17.654563 -18.601537 12.421130 28.495355 -0.811511 1.119758 0.071017 -0.028382 135392.000000 0 0 1
18.120063 -19.173137 13.591030 29.675949 -0.813628 1.095073 0.050251 -0.024974 -667017.000000 0 0 1
19.443363 -19.896337 13.517730 30.929559 -0.796912 1.118481 0.015929 -0.030288 -109984.000000 0 0 1
20.561563 -19.048237 13.272530 31.012469 -0.747211 1.128546 0.020323 -0.035805 751628.000000 0 0 1
21.755563 -19.762137 12.877830 32.088707 -0.737421 1.157839 0.011884 -0.037092 997171.000000 0 0 1
22.595263 -19.057237 11.820730 31.834790 -0.700660 1.190372 0.029433 -0.033403 -477820.000000 0 0 1
22.207663 -19.321937 10.476930 31.245537 -0.716024 1.228862 0.031064 -0.033555 886771.000000 0 0 1
20.967463 -18.752337 9.977830 29.846972 -0.729687 1.229934 0.040531 -0.035458 793645.000000 0 0 1
20.789563 -17.238737 9.976630 28.790852 -0.692295 1.216937 0.086245 -0.033880 -171817.000000 0 0 1
21.611663 -16.535737 9.037430 28.673502 -0.653114 1.250146 0.087250 -0.026662 84787.000000 0 0 1
21.591863 -15.126437 9.135030 27.901011 -0.611103 1.237237 0.102705 -0.035984 -63872.900000 0 0 1
-35.032566 24.414569 8.596630 43.557478 -0.608650 1.372129 0.076567 0.004168 497740.000000 0 0 1
-33.984223 23.765869 9.351830 42.511183 -0.610270 1.348997 0.090162 -0.017543 1219880.000000 0 0 1
-33.027503 24.791469 9.786730 42.440700 -0.643905 1.338104 0.091777 -0.005499 466671.000000 0 0 1
-31.759443 24.082369 10.332830 41.175115 -0.648776 1.317136 0.114500 -0.033388 -9374.880000 0 0 1
-31.055743 23.451269 9.283430 40.007540 -0.646779 1.336620 0.106687 -0.029875 -501376.000000 0 0 1
-29.977093 22.713169 9.764830 38.856995 -0.648401 1.316771 0.108003 -0.032126 144305.000000 0 0 1
-29.189553 21.990769 8.593130 37.542853 -0.645660 1.339861 0.092642 -0.036991 217927.000000 0 0 1
-29.996223 20.994169 8.032930 37.484083 -0.610655 1.354819 0.088673 -0.033370 -130053.000000 0 0 1
-29.372523 20.202869 7.057730 36.341610 -0.602501 1.375349 0.081811 -0.032689 -278414.000000 0 0 1
-30.337973 19.334469 6.238930 36.512170 -0.567397 1.399081 0.077782 -0.023472 -242780.000000 0 0 1
-30.944283 18.216169 6.842330 36.554000 -0.532052 1.382501 0.093282 -0.024838 -98586.000000 0 0 1
-31.830413 17.657869 5.949830 36.883276 -0.506481 1.408773 0.081404 -0.021484 -534029.000000 0 0 1
-32.659753 16.483669 6.459230 37.149596 -0.467408 1.396037 0.087171 -0.020046 86959.300000 0 0 1
-33.637393 16.674169 7.490730 38.283327 -0.460204 1.373860 0.083421 -0.025106 657030.000000 0 0 1
-34.353374 15.479069 7.732930 38.464972 -0.423339 1.368379 0.091913 -0.025200 63643.000000 0 0 1
-35.379602 15.626269 8.884330 39.684101 -0.415909 1.345006 0.101580 -0.026079 784031.000000 0 0 1
-36.469113 16.545869 8.617430 40.963668 -0.425923 1.358845 0.107131 -0.029453 832732.000000 0 0 1
35.800053 16.733669 9.775730 40.709021 0.437246 1.328290 0.113951 -0.026469 13695.100000 0 0 1
34.934023 17.999069 9.802330 40.502322 0.475758 1.326350 0.100101 -0.027101 -167154.000000 0 0 1
33.744003 17.827769 9.071330 39.227237 0.486049 1.337433 0.092402 -0.028704 -204779.000000 0 0 1
32.952703 18.992869 9.192430 39.129407 0.522861 1.333656 0.073370 -0.019972 -429531.000000 0 0 1
31.602543 18.967869 8.479030 37.820560 0.540567 1.344683 0.051690 -0.017521 -605919.000000 0 0 1
30.848623 20.115369 8.890530 37.885447 0.577827 1.333919 0.041000 -0.009006 134387.000000 0 0 1
29.534493 20.255469 8.400630 36.785063 0.601148 1.340393 0.027668 -0.008060 145722.000000 0 0 1
29.255803 20.203269 6.866730 36.210856 0.604371 1.380009 0.021190 -0.006123 -1102290.000000 0 0 1
29.491443 18.961969 6.194530 35.604405 0.571414 1.395924 0.041095 -0.005761 15868.200000 0 0 1
29.139963 18.910369 4.837430 35.073355 0.575636 1.432432 0.047741 -0.014081 982334.000000 0 0 1
27.610263 19.120269 4.500730 33.884626 0.605679 1.437578 0.073033 -0.014236 -744233.000000 0 0 1
26.659463 18.235469 5.034630 32.689552 0.599917 1.416167 0.073001 -0.013393 207314.000000 0 0 1
25.325163 18.509769 4.658130 31.712357 0.631155 1.423376 0.083959 -0.012931 199648.000000 0 0 1
24.734063 19.929069 5.002830 32.155403 0.678227 1.414579 0.097676 -0.014637 -1514870.000000 0 0 1
25.349363 21.049469 4.416630 33.244202 0.692990 1.437548 0.086886 -0.015228 -366819.000000 0 0 1
24.733363 22.227869 4.720730 33.587240 0.732096 1.429778 0.085066 -0.017596 -103984.000000 0 0 1
25.660163 23.432469 4.288230 35.013047 0.740052 1.448013 0.051767 -0.006136 -391040.000000 0 0 1
26.794463 23.417769 5.071130 35.945118 0.718251 1.429244 0.051674 -0.012361 -804592.000000 0 0 1
27.619863 24.556469 4.907330 37.282152 0.726753 1.438786 0.052263 -0.011386 201270.000000 0 0 1
29.043573 24.371269 5.551030 38.318427 0.698148 1.425419 0.033593 -0.012930 772802.000000 0 0 1
29.858673 23.277569 5.077830 38.199083 0.662172 1.437471 0.028846 -0.012792 445827.000000 0 0 1
30.228283 23.358569 3.673030 38.377897 0.657896 1.474943 0.029304 -0.021132 -148273.000000 0 0 1
31.219673 24.469369 3.189630 39.794368 0.664772 1.490557 0.061232 -0.027654 -436511.000000 0 0 1
30.619953 25.720069 3.083930 40.107532 0.698647 1.493829 0.037014 -0.029706 -208988.000000 0 0 1
31.458153 26.781869 2.633430 41.398295 0.705277 1.507141 0.075604 -0.022529 -11228.500000 0 0 1
30.766433 28.148169 2.925330 41.802516 0.740986 1.500759 0.064050 -0.018929 399442.000000 0 0 1
29.506813 28.441569 2.384130 41.051905 0.767018 1.512688 0.095432 -0.027933 383147.000000 0 0 1
28.367053 27.992169 3.152730 39.977380 0.778747 1.491852 0.068966 -0.012378 576334.000000 0 0 1
27.075363 28.587369 2.547530 39.456341 0.812555 1.506186 0.032797 -0.009355 -102902.000000 0 0 1
26.900763 29.970569 2.741430 40.365846 0.839324 1.502829 0.030336 -0.018657 591775.000000 0 0 1
25.581363 30.431269 2.407430 39.827930 0.871769 1.510314 0.036283 0.000657 711950.000000 0 0 1
25.345663 31.845269 2.998730 40.810736 0.898560 1.497251 0.047520 -0.012108 -126369.000000 0 0 1
25.215463 31.883069 4.433430 40.890157 0.901645 1.462160 0.038747 -0.037988 -374579.000000 0 0 1
26.450763 31.878969 5.058930 41.731335 0.878192 1.449271 0.034014 -0.035414 -614857.000000 0 0 1
26.285263 31.509669 6.537030 41.551258 0.875549 1.412816 0.051021 -0.047688 145709.000000 0 0 1
25.905163 30.173469 6.928230 40.367265 0.861365 1.398312 0.053106 -0.045682 485986.000000 0 0 1
26.856263 29.174169 6.594230 40.197946 0.826743 1.406008 0.048390 -0.044335 255649.000000 0 0 1
26.305863 27.842469 7.157830 38.967115 0.813768 1.386058 0.062453 -0.038603 357538.000000 0 0 1
25.175063 27.387069 6.426030 37.750884 0.827457 1.399741 0.055888 -0.040337 73294.800000 0 0 1
24.618963 26.216169 6.943430 36.627750 0.816807 1.380075 0.070017 -0.035206 205009.000000 0 0 1
23.218863 25.914869 6.295330 35.359966 0.840214 1.391807 0.081850 -0.022955 468348.000000 0 0 1
23.205463 25.675169 4.887630 34.951348 0.835880 1.430496 0.054069 -0.020807 124912.000000 0 0 1
23.385463 26.856769 4.069030 35.843032 0.854380 1.457027 0.049901 -0.014977 -322488.000000 0 0 1
23.363763 26.468369 2.581230 35.399191 0.847619 1.497814 0.048475 -0.005083 -357745.000000 0 0 1
24.477263 25.762969 2.116930 35.599837 0.810984 1.511297 0.044305 0.008000 -170507.000000 0 0 1
24.434063 25.775569 0.739130 35.523932 0.812110 1.549988 0.058528 0.002713 -133358.000000 0 0 1
25.674963 25.121569 0.115230 35.920889 0.774504 1.567588 0.060512 -0.003497 -898389.000000 0 0 1
26.825263 25.933369 0.148030 37.311611 0.768495 1.566829 0.056435 -0.001556 767320.000000 0 0 1
28.032063 25.530369 -0.521370 37.919232 0.738726 1.584546 0.062128 0.007531 1082110.000000 0 0 1
28.742973 24.344369 0.150830 37.667354 0.702731 1.566792 0.065870 -0.001185 -727300.000000 0 0 1
27.974163 23.159469 -0.104470 36.317017 0.691516 1.573673 0.065954 -0.001423 277702.000000 0 0 1
28.404943 22.019469 0.646930 35.946020 0.659434 1.552798 0.067737 -0.011768 -199574.000000 0 0 1
27.273063 21.175869 1.303430 34.553384 0.660208 1.533065 0.060800 -0.010438 148505.000000 0 0 1
26.563163 20.386169 0.390130 33.486560 0.654582 1.559146 0.083006 -0.027530 280837.000000 0 0 1
25.393663 19.818369 0.930830 32.225337 0.662703 1.541907 0.078308 -0.019165 -39185.100000 0 0 1
24.846463 18.549369 0.195530 31.007484 0.641296 1.564490 0.092016 -0.019573 -61964.900000 0 0 1
23.524963 18.241169 0.599130 29.774538 0.659558 1.550673 0.091704 -0.017401 44322.300000 0 0 1
22.966563 17.441969 -0.402070 28.841757 0.649522 1.584737 0.105613 -0.029142 -545623.000000 0 0 1
21.578163 16.951369 -0.003070 27.440227 0.665886 1.570908 0.093572 -0.008654 -605710.000000 0 0 1
20.997163 16.123969 -1.038170 26.494170 0.654866 1.609991 0.090617 -0.014760 205130.000000 0 0 1
19.687563 15.710669 -0.722270 25.198153 0.673520 1.599464 0.091063 -0.011893 333550.000000 0 0 1
18.546263 16.647169 -1.231670 24.952137 0.731489 1.620178 0.087276 -0.012573 -127590.000000 0 1 0
18.329163 17.777669 -0.441770 25.538185 0.770125 1.588096 0.084375 -0.013247 73727.800000 0 0 1
17.314263 18.581269 -0.999570 25.417443 0.820681 1.610133 0.055621 -0.015866 21787.700000 0 0 1
17.377363 20.005569 -0.469270 26.503127 0.855588 1.588503 0.059354 -0.014106 -75878.600000 0 0 1
16.936463 20.149269 0.873630 26.336288 0.871814 1.537618 0.063299 -0.010649 87790.000000 0 0 1
17.031063 21.480469 1.441230 27.450771 0.900423 1.518270 0.078751 -0.011425 -249142.000000 0 0 1
15.913163 22.477869 1.080230 27.561753 0.954756 1.531593 0.061538 -0.014393 348850.000000 0 0 1
14.701963 22.137669 1.775230 26.634105 0.984562 1.504094 0.046722 -0.010256 443769.000000 0 0 1
13.708063 23.089269 1.439130 26.890453 1.035023 1.517253 0.046836 -0.010440 86576.400000 0 0 1
12.339063 22.944869 2.115730 26.138015 1.077391 1.489763 0.038483 -0.012700 92886.300000 0 0 1
12.453963 23.389369 3.457530 26.722992 1.081517 1.441049 0.039718 -0.005911 443842.000000 0 0 1
11.155463 23.503869 4.038630 26.328440 1.127656 1.416794 0.034246 -0.002345 576036.000000 0 0 1
11.178663 23.697169 5.566530 26.786276 1.130019 1.361458 0.042793 -0.010850 -89203.300000 0 0 1
11.752163 22.570669 6.253630 26.204128 1.090740 1.329820 0.040335 -0.037005 -9037.940000 0 0 1
11.046163 22.164869 7.411230 25.850057 1.108459 1.280015 0.037263 -0.038611 -1140940.000000 0 0 1
11.691963 20.977969 8.228930 25.386856 1.062332 1.240692 0.042882 -0.035268 -172821.000000 0 0 1
12.861363 21.343769 8.898830 26.460543 1.028481 1.227805 0.050003 -0.035427 -39706.600000 0 0 1
13.980563 21.436769 8.006830 26.816050 0.992892 1.267588 0.068164 -0.034320 -1254680.000000 0 0 1
15.317863 21.541269 8.728430 27.836104 0.952664 1.251851 0.080803 -0.036513 -659875.000000 0 0 1
15.657863 20.332769 9.487030 27.360444 0.914567 1.216700 0.084134 -0.040533 676140.000000 0 0 1
16.945163 20.408669 10.126130 28.393500 0.877855 1.206132 0.075712 -0.042653 779533.000000 0 0 1
17.063563 21.369969 11.319230 29.596718 0.896981 1.178351 0.064450 -0.034924 -1119610.000000 0 0 1
16.249663 21.098869 12.373930 29.365421 0.914512 1.135833 0.059040 -0.030743 -626644.000000 0 0 1
16.511263 21.757369 13.632530 30.526231 0.921635 1.107852 0.053461 -0.021683 -7173.080000 0 0 1
17.770263 21.292569 14.408530 31.253183 0.875325 1.091645 0.056126 -0.022191 494995.000000 0 0 1
19.034663 21.663269 13.879230 32.003885 0.849897 1.122231 0.062860 -0.025247 324916.000000 0 0 1
20.081163 21.167569 14.735230 32.687094 0.811730 1.103139 0.047926 -0.024990 -85229.700000 0 0 1
21.404263 21.756469 14.281230 33.696290 0.793558 1.133135 0.050515 -0.027604 -698761.000000 0 0 1
22.054563 21.067269 13.222430 33.242536 0.762507 1.161726 0.049744 -0.025498 136390.000000 0 0 1
23.322163 21.698269 13.044630 34.422384 0.749344 1.182127 0.061178 -0.022956 156365.000000 0 0 1
24.125763 20.952469 11.974130 34.123865 0.715119 1.212262 0.063439 -0.016825 -38256.000000 0 0 1
23.674663 21.396769 10.676430 33.649629 0.734901 1.247934 0.083002 -0.024801 765444.000000 0 0 1
24.626563 21.011269 9.681730 33.788710 0.706346 1.280186 0.080497 -0.029140 25179.700000 0 0 1
24.766363 22.058869 8.515730 34.241555 0.727641 1.319463 0.080693 -0.031901 236311.000000 0 0 1
25.414763 23.290769 8.882830 35.598803 0.741817 1.318606 0.074401 -0.026850 -269862.000000 0 0 1
26.809663 23.326869 8.803930 36.611611 0.716043 1.327948 0.059598 -0.029578 -815962.000000 0 0 1
27.306963 24.714269 9.188530 37.959115 0.735600 1.326304 0.062238 -0.028154 -5002.390000 0 0 1
28.645033 25.027069 8.805830 39.044010 0.718091 1.343303 0.046923 -0.022501 653540.000000 0 0 1
29.118183 26.162769 9.513930 40.284909 0.731987 1.332378 0.057058 -0.020003 158041.000000 0 0 1
30.409173 26.822069 8.980830 41.530669 0.722803 1.352829 0.044731 -0.018539 172477.000000 0 0 1
30.184423 27.671069 7.885630 41.700967 0.741984 1.380551 0.057375 -0.020627 243417.000000 0 0 1
31.445253 28.080169 7.397930 42.802210 0.728926 1.397084 0.040118 -0.008504 2627.870000 0 0 1
31.287583 28.976269 6.180130 43.089802 0.747064 1.426876 0.044564 -0.009501 135362.000000 0 0 1
31.190623 30.342369 6.534630 44.002451 0.771614 1.421739 0.045511 -0.013046 43618.100000 0 0 1
30.917323 31.181569 5.468030 44.250090 0.789653 1.446909 0.053440 -0.020922 67359.700000 0 0 1
30.828453 32.664069 5.854230 45.294668 0.814301 1.441186 0.036480 -0.015577 -777409.000000 0 0 1
29.633043 33.031469 6.412930 44.836602 0.839577 1.427275 0.040555 -0.023658 -1065130.000000 0 0 1
29.704433 -33.820224 6.826230 45.527555 -0.850098 1.420293 0.040910 -0.013728 86653.200000 0 0 1
28.335373 -33.359024 7.366930 44.384564 -0.866647 1.404045 0.075142 -0.031308 214303.000000 0 0 1
27.291063 -33.394024 6.417430 43.602137 -0.885629 1.423078 0.071642 -0.036052 -31973.700000 0 0 1
26.282663 -32.419524 6.679530 42.266062 -0.889562 1.412096 0.059692 -0.041669 565020.000000 0 0 1
24.987863 -32.586024 5.857630 41.479562 -0.916612 1.429105 0.070166 -0.030905 61126.700000 0 0 1
25.243763 -32.103024 4.561030 41.093244 -0.904443 1.459575 0.045593 -0.015139 237926.000000 0 0 1
24.193763 -32.352524 3.627830 40.560882 -0.928694 1.481235 0.043124 -0.020260 249750.000000 0 0 1
24.526963 -31.671124 2.273630 40.122330 -0.911845 1.514099 0.041272 -0.002197 -88223.500000 0 0 1
24.575863 -30.276124 2.371430 39.067127 -0.888947 1.510058 0.045668 0.004306 165487.000000 0 0 1
25.131563 -29.700524 1.184930 38.924551 -0.868533 1.540350 0.034667 0.007962 -191986.000000 0 0 1
25.428163 -28.202724 1.359930 37.997822 -0.837086 1.534999 0.038715 0.002171 368913.000000 0 0 1
24.261163 -27.391724 1.400730 36.617927 -0.845932 1.532534 0.033376 -0.001196 246240.000000 0 0 1
23.522263 -27.224324 0.225030 35.979318 -0.858221 1.564542 0.033237 -0.002613 -491991.000000 0 0 1
22.489463 -26.091024 0.233730 34.446656 -0.859399 1.564011 0.029107 0.003080 -745100.000000 0 0 1
22.861063 -24.752024 0.307930 33.695485 -0.825092 1.561658 0.030371 -0.001878 -338314.000000 0 0 1
23.140163 -24.262424 1.633230 33.567839 -0.809069 1.522123 0.021212 0.004966 -488431.000000 0 0 1
21.909563 -23.832924 2.409330 32.462934 -0.827421 1.496510 0.017288 0.001998 -592785.000000 0 0 1
22.116163 -23.091124 3.611530 32.177132 -0.806961 1.458320 0.014759 0.000097 119804.000000 0 0 1
20.861563 -23.011724 4.287030 31.354790 -0.834367 1.433640 0.014533 0.003095 451047.000000 0 0 1
20.847863 -22.180524 5.612130 30.953272 -0.816360 1.388478 0.011803 -0.007610 -258873.000000 0 0 1
20.898763 -20.733124 5.583230 29.963197 -0.781420 1.383365 0.039334 -0.009874 50878.900000 0 0 1
19.806463 -20.049024 4.980830 28.619364 -0.791484 1.395869 0.031279 -0.003506 -438141.000000 0 0 1
19.775063 -18.527724 5.332930 27.618287 -0.752844 1.376482 0.047399 -0.004783 155731.000000 0 0 1
19.351263 -18.210124 6.656330 27.393187 -0.755027 1.325347 0.070871 -0.018835 401580.000000 0 0 1
17.952163 -18.284224 6.922330 26.542638 -0.794562 1.306945 0.052629 -0.008431 479237.000000 0 0 1
18.816267 -25.940481 -11.830770 34.160322 -0.943250 1.924453 0.105610 -0.027388 29178.700000 0 0 1
18.959067 -24.599931 -12.123370 33.340350 -0.914181 1.942952 0.129598 -0.026512 -127135.000000 0 0 1
17.776067 -23.962931 -12.568170 32.375446 -0.932554 1.969475 0.101412 -0.027009 -33505.300000 0 0 1
18.055167 -22.527731 -12.999970 31.662074 -0.895163 1.993892 0.095086 -0.025404 -158.681000 0 0 1
18.141867 -21.527731 -12.017270 30.610216 -0.870543 1.974243 0.096310 -0.024163 479511.000000 0 0 1
19.318367 -21.405731 -11.181470 30.926201 -0.836610 1.940730 0.094672 -0.028002 -192124.000000 0 0 1
19.548067 -22.421931 -9.989170 31.379188 -0.853766 1.894772 0.089943 -0.020035 457058.000000 0 0 1
18.585067 -22.439131 -8.905370 30.466784 -0.879069 1.867425 0.090654 -0.020023 1428680.000000 0 0 1
17.194767 -22.466931 -9.266670 29.770693 -0.917552 1.887324 0.082354 -0.003109 569991.000000 0 0 1
16.176567 -21.939631 -8.225370 28.472538 -0.935459 1.863861 0.060510 -0.007557 -369079.000000 0 0 1
16.135267 -20.485731 -8.238770 27.347566 -0.903641 1.876812 0.050759 -0.014486 -11759.600000 0 0 1
15.321967 -19.915131 -7.257370 26.154245 -0.915018 1.851970 0.043910 -0.018688 935504.000000 0 0 1
13.775567 -19.858231 -7.596870 25.334325 -0.964314 1.875347 0.027914 -0.003967 1159810.000000 0 0 1
13.167667 -21.169731 -7.422170 26.012181 -1.014354 1.860152 0.025387 -0.002467 -198094.000000 0 0 1
11.806967 -21.139231 -7.788570 25.434885 -1.061425 1.882012 0.018324 -0.004766 -403017.000000 0 0 1
11.179467 -22.491131 -7.616970 26.245946 -1.109503 1.865248 0.020009 -0.000335 -338355.000000 0 0 1
11.161567 -22.723731 -6.238370 26.074236 -1.114225 1.812394 0.031406 -0.010349 48071.100000 0 0 1
10.432167 -23.868731 -5.940070 26.717613 -1.158752 1.794998 0.025857 -0.010725 -111699.000000 0 0 1
10.907767 -24.559931 -4.583770 27.261338 -1.152836 1.739741 0.039646 -0.013110 -443774.000000 0 0 1
10.046867 -25.451801 -3.981870 27.651202 -1.194832 1.715302 0.041624 -0.018580 -753786.000000 0 0 1
10.705667 -26.097361 -2.939470 28.360607 -1.181511 1.674629 0.042627 -0.013917 -204190.000000 0 0 1
9.794267 -27.019481 -2.103270 28.816727 -1.223039 1.643849 0.050758 -0.012412 31733.100000 0 0 1
8.906867 -26.251691 -1.345070 27.754149 -1.243697 1.619279 0.050168 -0.008423 -610864.000000 0 0 1
8.160067 -27.019131 -0.463770 28.228270 -1.277496 1.587226 0.052824 -0.017325 -108234.000000 0 0 1
7.454967 -26.207991 0.652830 27.255486 -1.293662 1.546842 0.054953 -0.012288 773524.000000 0 0 1
6.266167 -25.516311 0.219030 26.275367 -1.329987 1.562460 0.057846 -0.017548 488750.000000 0 0 1
5.548467 -25.106121 1.374930 25.748655 -1.353292 1.517373 0.063971 -0.019346 49580.400000 0 0 1
4.051267 -24.821531 1.123230 25.175043 -1.409007 1.526165 0.042008 -0.022561 17784.300000 0 0 1
3.356467 -25.951351 0.687630 26.176541 -1.442173 1.544524 0.042131 -0.026662 60943.500000 0 0 1
2.018767 -25.574891 0.374930 25.657183 -1.492024 1.556183 0.037775 -0.022958 678411.000000 0 0 1
1.059167 -26.605191 -0.275770 26.627693 -1.531007 1.581153 0.045122 -0.022977 380750.000000 0 0 1
0.429167 -27.599801 0.550530 27.608627 -1.555248 1.550855 0.044921 -0.013142 21699.300000 0 0 1
1.212667 -28.759311 0.687730 28.793081 -1.528655 1.546909 0.028562 -0.015051 -270672.000000 0 0 1
0.599267 -29.802221 1.615230 29.851976 -1.550691 1.516662 0.055636 -0.016169 98304.000000 0 0 1
0.906267 -29.544301 2.935830 29.703638 -1.540131 1.471797 0.037910 -0.013235 -12270.200000 0 0 1
0.341367 -30.570361 3.736230 30.799722 -1.559630 1.449190 0.060837 -0.019147 131348.000000 0 0 1
0.416067 -30.262821 5.313830 30.728622 -1.557049 1.396995 0.058686 -0.016919 887259.000000 0 0 1
1.807567 -30.380901 5.733230 30.969927 -1.511370 1.384600 0.029342 -0.003148 1359710.000000 0 0 1
1.878067 -30.539691 7.129830 31.417102 -1.509378 1.341861 0.035484 0.001277 30400.900000 0 0 1
3.325267 -30.830291 7.568730 31.919428 -1.463355 1.331396 0.031920 -0.004157 145334.000000 0 0 1
3.654067 -32.163811 7.240430 33.170571 -1.457673 1.350746 0.026708 -0.008709 597989.000000 0 0 1
5.022967 -32.504461 7.524630 33.740039 -1.417477 1.345887 0.022888 -0.009679 892615.000000 0 0 1
5.295667 -34.018771 7.407630 35.216386 -1.416367 1.358867 0.009911 0.000537 -240929.000000 0 0 1
5.388167 33.698136 6.070630 34.661928 1.412243 1.394750 0.006512 0.003021 -64381.400000 0 0 1
5.103367 32.368447 5.999330 33.312950 1.414419 1.389718 0.002160 0.000179 -471153.000000 0 0 1
5.350967 31.861873 4.525530 32.623491 1.404406 1.431628 0.020805 -0.002466 -5037.400000 0 0 1
6.618067 31.617593 3.959930 32.544616 1.364459 1.448817 0.030936 -0.000582 -199171.000000 0 0 1
7.303567 30.446573 4.426930 31.621726 1.335363 1.430338 0.028419 -0.003175 -272366.000000 0 0 1
8.681467 30.399063 3.773730 31.838843 1.292618 1.451991 0.029619 -0.004686 12338.900000 0 0 1
9.719867 31.070343 4.514330 32.866718 1.267607 1.433008 0.028649 -0.006557 216978.000000 0 0 1
10.925867 31.051563 3.781030 33.134126 1.232464 1.456434 0.035040 -0.014980 869680.000000 0 0 1
12.180067 31.603903 4.583230 34.178453 1.202941 1.436294 0.037798 -0.013043 725002.000000 0 0 1
12.441667 30.721143 5.652830 33.623476 1.185998 1.401873 0.044020 -0.019860 -77732.700000 0 0 1
13.540467 31.163563 6.416830 34.578716 1.160909 1.384143 0.072338 -0.019699 -52298.300000 0 0 1
14.358167 30.210303 7.283730 34.232617 1.127125 1.356386 0.063864 -0.029098 -211091.000000 0 0 1
13.851967 29.873863 8.599330 34.033412 1.136623 1.315354 0.055921 -0.022168 50.095100 0 0 1
14.632367 28.906913 9.236830 33.690277 1.102210 1.293071 0.051770 -0.024427 -125983.000000 0 0 1
14.439267 28.864323 10.759030 34.020556 1.106952 1.249021 0.040275 -0.016772 1032.960000 0 0 1
15.078467 29.920923 11.451530 35.408464 1.103999 1.241463 0.044793 -0.019280 292024.000000 0 0 1
14.664367 29.915473 12.822230 35.698582 1.115025 1.203407 0.041165 -0.015755 -103370.000000 0 0 1
15.490267 30.952443 13.633830 37.200583 1.106786 1.195557 0.041121 -0.016500 -410258.000000 0 0 1
16.746467 30.438173 13.938130 37.432579 1.067815 1.189253 0.024821 -0.020693 -525272.000000 0 0 1
17.381367 31.360903 14.804830 38.791766 1.064706 1.179217 0.033305 -0.017309 447922.000000 0 0 1
18.624367 30.887283 15.655530 39.319040 1.028190 1.161279 0.028020 -0.014501 399038.000000 0 0 1
19.760867 30.603153 14.908730 39.361339 0.997440 1.182334 0.029009 -0.009893 -470225.000000 0 0 1
19.970067 29.202323 14.642830 38.288271 0.970990 1.178365 0.025723 -0.003425 -1030150.000000 0 0 1
21.357167 28.961323 14.106330 38.650683 0.935384 1.197196 0.056510 -0.007056 -282040.000000 0 0 1
22.371667 29.096563 15.124730 39.697089 0.915323 1.179915 0.064068 -0.009673 -222524.000000 0 0 1
23.643867 28.990443 14.573430 40.148014 0.886631 1.199319 0.071255 -0.010575 -382439.000000 0 0 1
24.808467 29.119343 15.593530 41.310462 0.865166 1.183732 0.092879 -0.017362 64983.600000 0 0 1
24.995667 27.931993 16.346530 40.892403 0.840819 1.159558 0.072653 -0.011548 42043.300000 0 0 1
25.732867 28.114793 17.536230 41.954039 0.829604 1.139568 0.070600 -0.018042 -652728.000000 0 0 1
26.589867 26.940093 17.934230 41.885871 0.791941 1.128331 0.042658 -0.018111 -760194.000000 0 0 1
26.007967 25.790563 18.448130 41.010986 0.781201 1.104217 0.035715 -0.011839 -129709.000000 0 0 1
25.357167 25.853543 19.726030 41.237214 0.795091 1.072016 0.047396 -0.011880 313078.000000 0 0 1
24.679467 24.496243 20.010330 40.119263 0.781672 1.048616 0.046008 -0.017275 -208467.000000 0 0 1
25.710667 23.551773 20.098030 40.244940 0.741602 1.047899 0.030445 -0.015341 79677.400000 0 0 1
25.227167 22.209163 20.288230 39.259000 0.721862 1.027712 0.034252 -0.017373 -835068.000000 0 0 1
26.286367 21.126563 20.433430 39.431330 0.676998 1.026048 0.006128 -0.016228 -763313.000000 0 0 1
25.825867 19.791463 20.652130 38.538135 0.653879 1.005237 -0.002113 -0.005322 -563134.000000 0 0 1
26.773467 18.758463 20.743830 38.716985 0.611153 1.005364 0.000077 -0.011409 -612716.000000 0 0 1
27.216367 18.389763 22.167630 39.627236 0.594222 0.977130 0.004114 -0.002465 -468124.000000 0 0 1
26.169767 17.922763 22.950530 39.151104 0.600496 0.944431 0.003779 0.005031 -536479.000000 0 0 1
26.687867 17.535463 24.182330 40.056457 0.581321 0.922654 0.022953 0.006633 218812.000000 0 0 1
25.668367 16.757363 25.099230 39.618753 0.578370 0.884704 0.013551 0.005631 319571.000000 0 0 1
25.331867 15.485963 24.541630 38.520256 0.548704 0.880054 0.014450 -0.000115 -154084.000000 0 0 1
24.297167 14.899963 25.255030 38.081199 0.550097 0.845725 0.025642 -0.001749 -405810.000000 0 0 1
23.556367 13.804863 24.437630 36.642522 0.530088 0.840729 0.014702 0.000897 230325.000000 0 0 1
22.364867 13.298563 25.028730 36.103689 0.536453 0.804813 -0.000375 0.001318 225398.000000 0 0 1
21.932867 12.195363 24.317330 34.944385 0.507462 0.801143 -0.000746 0.004208 -452177.000000 0 0 1
20.630767 11.553663 24.847830 34.300587 0.510504 0.760612 0.001518 -0.001982 -408855.000000 0 0 1
19.542567 12.385463 24.540130 33.727282 0.564880 0.755973 0.005130 -0.007507 -677016.000000 0 0 1
18.371067 11.595463 24.615430 32.830934 0.563032 0.723092 0.009409 -0.008055 -172223.000000 0 0 1
17.152667 12.510463 24.872630 32.701275 0.630160 0.706558 0.012325 -0.008948 -288423.000000 0 0 1
17.124167 13.018563 26.187930 33.889935 0.650026 0.687658 0.028107 -0.003418 58229.300000 0 0 1
15.984867 13.793163 26.476830 33.864285 0.711929 0.673167 0.047716 -0.005340 -279189.000000 0 0 1
15.803667 14.133363 27.994230 35.116730 0.729662 0.648192 0.038602 -0.005859 -171627.000000 0 0 1
15.467967 12.932463 28.673530 35.052502 0.696357 0.612842 0.060570 -0.004570 150037.000000 0 0 1
15.745967 13.059963 30.098530 36.392576 0.692422 0.596955 0.050858 -0.012114 -76270.200000 0 0 1
17.218867 12.766463 30.470230 37.254622 0.637989 0.613060 0.045325 -0.006495 189052.000000 0 0 1
18.051767 13.900563 30.216830 37.843741 0.656203 0.646058 0.048823 -0.014497 548066.000000 0 0 1
19.402167 13.550363 29.935830 38.160324 0.609647 0.668947 0.036841 -0.005668 -36718.200000 0 0 1
20.243667 14.711263 29.454730 38.649818 0.628428 0.704258 0.039932 -0.007198 -621869.000000 0 0 1
19.987067 15.333463 28.207830 37.819037 0.654399 0.728966 0.052206 -0.010935 158485.000000 0 0 1
20.100267 14.548663 27.001930 36.671358 0.626524 0.743178 0.042371 -0.007174 -146579.000000 0 0 1
19.742967 15.472363 25.846030 36.016607 0.664716 0.770426 0.026907 -0.005599 -361590.000000 0 0 1
20.829667 16.328663 25.674430 36.873793 0.664855 0.800597 0.037429 -0.000530 52507.400000 0 0 1
20.772967 16.858563 24.329730 36.161624 0.681752 0.832802 0.037903 -0.009738 193770.000000 0 0 1
22.067467 17.581563 23.830630 36.932145 0.672737 0.869440 0.037967 -0.010903 -96984.000000 0 0 1
22.108667 17.984263 22.503530 36.313024 0.682888 0.902424 0.049313 -0.013349 185827.000000 0 0 1
23.310667 18.703563 22.241930 37.254716 0.676179 0.931011 0.031310 -0.016324 -518884.000000 0 0 1
23.540167 20.115963 22.920430 38.524505 0.707123 0.933584 0.053654 -0.025018 -646394.000000 0 0 1
22.626867 21.104563 22.518630 38.268347 0.750602 0.941668 0.044131 -0.022833 -18486.100000 0 0 1
22.661867 22.182863 23.395530 39.407999 0.774717 0.935179 0.063809 -0.025728 -4435.650000 0 0 1
21.656867 23.285083 23.003530 39.247641 0.821612 0.944544 0.054911 -0.025996 -232814.000000 0 0 1
21.973967 24.113653 21.926630 39.307767 0.831791 0.979040 0.059275 -0.023922 -222280.000000 0 0 1
20.981767 25.080153 21.599530 39.189135 0.874140 0.987041 0.059022 -0.020362 -322389.000000 0 0 1
21.254767 26.107663 20.488030 39.409828 0.887505 1.024096 0.054763 -0.020042 -508734.000000 0 0 1
21.245567 25.656143 19.129230 38.412748 0.879161 1.049515 0.043338 -0.022280 44290.700000 0 0 1
21.518467 26.781323 18.331030 38.939829 0.893932 1.080653 0.043542 -0.010950 -626366.000000 0 0 1
21.586367 26.412463 16.854330 38.048099 0.885607 1.111883 0.040195 -0.009969 282598.000000 0 0 1
20.286867 26.135493 16.336030 36.898331 0.910725 1.112154 0.043773 -0.014173 261031.000000 0 0 1
20.393167 25.578253 15.060330 36.013078 0.897713 1.139344 0.051425 -0.017016 -649277.000000 0 0 1
19.120567 24.889633 14.544530 34.592387 0.915740 1.136850 0.043581 -0.019182 249653.000000 0 0 1
18.077167 25.729823 14.048630 34.440844 0.958343 1.150637 0.034766 -0.012299 465009.000000 0 0 1
17.239567 26.203693 15.106730 34.814501 0.988883 1.121956 0.042294 -0.012320 -355875.000000 0 0 1
15.728167 26.425183 14.706330 34.087265 1.033917 1.124717 0.051082 -0.013976 535927.000000 0 0 1
14.997667 25.193323 14.453230 32.688367 1.033837 1.112800 0.047558 -0.020264 459388.000000 0 0 1
14.878267 24.288883 15.571930 32.462249 1.021197 1.070491 0.051640 -0.020814 -764739.000000 0 0 1
13.867667 24.833873 16.571130 32.918623 1.061514 1.043271 0.065442 -0.029845 -424887.000000 0 0 1
14.541467 25.827703 17.295530 34.317049 1.058013 1.042581 0.046306 -0.024682 930174.000000 0 0 1
13.582267 26.514093 18.139830 34.878769 1.097384 1.023849 0.056504 -0.031497 695450.000000 0 0 1
14.155367 27.840183 18.726930 36.416316 1.100411 1.030669 0.057718 -0.031780 -177854.000000 0 0 1
14.336067 28.908733 17.846130 36.874408 1.110428 1.065610 0.054682 -0.028429 235256.000000 0 0 1
14.922867 29.973353 18.595230 38.299822 1.108853 1.063841 0.040897 -0.027812 -107318.000000 0 0 1
15.076667 31.250663 17.734030 38.966724 1.121293 1.098304 0.051237 -0.025685 -451064.000000 0 0 1
13.788167 31.606663 17.322030 38.589472 1.159442 1.105285 0.054560 -0.022471 -366857.000000 0 0 1
13.664167 32.893473 16.807330 39.384976 1.177079 1.129906 0.051640 -0.020385 -440031.000000 0 0 1
12.267767 33.488448 17.037530 39.525329 1.219650 1.125136 0.060174 -0.022619 -385533.000000 0 0 1
12.061467 -33.372281 16.582430 39.168419 -1.223983 1.133643 0.059406 -0.015376 -282674.000000 0 0 1
12.563867 -32.202111 17.149430 38.586651 -1.198804 1.110248 0.049284 -0.016602 -371898.000000 0 0 1
12.386367 -32.084741 18.683230 39.139695 -1.202372 1.073163 0.052244 -0.029366 217939.000000 0 0 1
13.334867 -32.804501 19.477830 40.414599 -1.184703 1.067917 0.063829 -0.027937 664045.000000 0 0 1
12.938367 -32.705831 20.843130 40.884089 -1.194090 1.035832 0.060579 -0.032746 142834.000000 0 0 1
14.063267 -33.239951 21.772530 42.151072 -1.170550 1.027996 0.065044 -0.038439 243629.000000 0 0 1
15.224667 -32.456951 21.683730 41.897831 -1.132195 1.026825 0.059848 -0.033070 -375492.000000 0 0 1
16.332967 -32.954671 22.398930 43.063769 -1.110660 1.023789 0.068187 -0.031807 131350.000000 0 0 1
17.545567 -32.017051 22.185030 42.721353 -1.069485 1.024769 0.093973 -0.036082 -41973.500000 0 0 1
17.558467 -30.713101 22.774130 42.074402 -1.051451 0.998835 0.102499 -0.043829 -596676.000000 0 0 1
18.712467 -30.154991 22.269430 41.897582 -1.015409 1.010402 0.097705 -0.037792 -828370.000000 0 0 1
-4.994733 13.036269 18.837332 23.446466 -1.204907 0.637781 0.026150 -0.000679 -130638.000000 0 1 0
-4.547933 14.228169 18.254432 23.587047 -1.261417 0.685792 0.024308 -0.007103 -72412.700000 0 1 0
-5.642333 14.814069 17.588132 23.677732 -1.206884 0.733534 0.027697 -0.016436 40005.700000 0 1 0
-5.434633 16.314369 17.247532 24.355107 -1.249238 0.783895 0.027649 -0.019425 -139855.000000 0 1 0
-5.234433 17.018469 18.481232 25.662882 -1.272406 0.766772 0.016052 -0.007629 246240.000000 0 0 1
-4.823933 18.357269 18.256032 26.335193 -1.313826 0.804852 0.008931 0.000918 285053.000000 0 0 1
-4.019933 19.071369 19.417832 27.512346 -1.363054 0.787264 0.000644 -0.004219 388136.000000 0 0 1
-4.862033 19.361669 20.530132 28.635641 -1.324767 0.771389 -0.015348 -0.002730 392729.000000 0 0 1
-4.134333 19.914669 21.586332 29.659004 -1.366102 0.755663 -0.013164 0.002541 -84690.000000 0 0 1
-5.141833 20.259569 22.704132 30.860431 -1.322247 0.744091 -0.004556 0.012300 282123.000000 0 0 1
-5.860133 19.144269 23.176032 30.626340 -1.273749 0.712492 0.003323 0.003756 -166650.000000 0 0 1
-6.497833 19.268569 24.445892 31.797818 -1.245548 0.693847 0.003736 0.003770 331418.000000 0 0 1
-5.704833 19.896469 25.665982 32.972068 -1.291562 0.678658 -0.000938 -0.000642 -823916.000000 0 0 1
-5.438433 21.289669 25.565652 33.710965 -1.320695 0.709975 0.010418 -0.003851 -298943.000000 0 0 1
-4.552933 21.756769 26.545052 34.622623 -1.364508 0.697116 0.025886 -0.000707 130706.000000 0 0 1
-3.081033 21.387169 26.246232 33.996595 -1.427721 0.688775 0.032830 0.004116 -909253.000000 0 0 1
-2.632633 20.048969 26.369742 33.230336 -1.440233 0.654185 0.030417 0.005201 276950.000000 0 0 1
-1.229433 20.046369 26.103992 32.936102 -1.509544 0.655793 0.028523 0.006104 523293.000000 0 0 1
-0.480533 18.879369 26.791772 32.778965 -1.545349 0.614006 0.023193 0.005768 -238559.000000 0 0 1
-0.954633 17.557469 26.457562 31.767572 -1.516478 0.586563 0.023395 0.002732 -63330.700000 0 0 1
-0.237333 16.499169 27.057522 31.692088 -1.556413 0.547627 0.023538 -0.000447 310696.000000 0 0 1
1.200667 16.200969 26.517152 31.097787 1.496821 0.549660 0.038371 -0.004061 -220294.000000 0 0 1
1.267567 15.881769 25.132552 29.757058 1.491152 0.564995 0.029596 -0.005068 -176893.000000 0 0 1
0.790367 14.585569 24.776352 28.761626 1.516661 0.532702 0.027596 -0.006025 -154797.000000 0 0 1
0.809667 14.358769 23.232412 27.323521 1.514468 0.554295 0.034460 -0.017572 -389085.000000 0 0 1
2.141867 14.215069 22.845732 26.992282 1.421246 0.561645 0.039412 -0.017409 -727249.000000 0 0 1
2.304167 13.756569 21.503032 25.630700 1.404841 0.575434 0.026545 -0.011790 52392.800000 0 0 1
3.743567 13.631269 20.971432 25.290844 1.302773 0.593103 0.023693 -0.009330 296593.000000 0 0 1
4.255367 14.805369 20.289032 25.474535 1.290920 0.649405 0.032657 -0.007960 180568.000000 0 0 1
5.663267 14.833169 20.149132 25.653129 1.206080 0.667381 0.055406 -0.012211 102920.000000 0 0 1
6.191967 15.875769 19.193232 25.666334 1.198917 0.726057 0.063218 -0.018146 -22470.800000 0 0 1
5.868167 15.532769 17.831332 24.365113 1.209580 0.749780 0.053042 -0.019086 239058.000000 0 1 0
6.473567 16.490469 16.984232 24.541940 1.196717 0.806472 0.059296 -0.013012 -58109.200000 0 1 0
6.411967 15.923269 15.546532 23.159415 1.187983 0.834857 0.044002 -0.008621 1023610.000000 0 1 0
7.400467 14.951369 15.017032 22.445971 1.111181 0.837893 0.040769 -0.013469 1039590.000000 0 1 0
7.570667 13.733069 15.721032 22.205023 1.066976 0.784142 0.044577 -0.011267 -224450.000000 0 1 0
8.632667 12.801869 15.113932 21.606521 0.977508 0.796088 0.041418 -0.014284 1109140.000000 0 1 0
9.985867 13.272269 15.320432 22.596157 0.925770 0.825744 0.057026 -0.014158 732701.000000 0 1 0
10.882367 12.747069 14.381432 22.084820 0.864149 0.861644 0.054920 -0.012459 516020.000000 0 1 0
12.255067 13.514169 14.387832 23.234224 0.834220 0.903007 0.059334 -0.007832 -176943.000000 0 1 0
13.038667 13.116369 15.499332 24.130381 0.788369 0.873280 0.066131 -0.014746 1088600.000000 0 1 0
14.330467 13.769769 15.527832 25.220674 0.765447 0.907549 0.057693 -0.012308 1318180.000000 0 0 1
15.407567 13.386569 14.480532 25.025570 0.715325 0.953749 0.050574 -0.018417 -1300320.000000 0 0 1
16.639467 13.987469 14.645332 26.210817 0.699023 0.977917 0.049781 -0.022363 69673.000000 0 0 1
17.615067 13.511569 13.692532 26.083300 0.654322 1.018135 0.047540 -0.017782 937327.000000 0 0 1
19.061767 14.008069 13.980432 27.477799 0.633752 1.037018 0.028477 -0.018128 662219.000000 0 0 1
19.756967 13.639969 15.173132 28.400888 0.604246 1.007178 0.007590 -0.019458 806782.000000 0 0 1
21.132367 14.024969 15.134832 29.535400 0.585927 1.032784 0.015061 -0.023804 617653.000000 0 0 1
21.931667 13.691069 16.429632 30.632927 0.558067 1.004703 0.029629 -0.019505 -147390.000000 0 0 1
22.137167 12.295069 16.461032 30.202458 0.506983 0.994380 0.039356 -0.020842 314634.000000 0 0 1
23.205467 11.918469 17.299032 31.301759 0.474473 0.985251 0.028242 -0.020451 -260351.000000 0 0 1
23.339767 10.360969 17.153032 30.762330 0.417786 0.979306 0.043405 -0.012837 77615.700000 0 0 1
22.269367 9.610369 17.734432 30.046531 0.407406 0.939450 0.027185 -0.002503 696847.000000 0 0 1
22.261567 8.243369 17.393832 29.429168 0.354640 0.938448 0.039559 0.001345 -613196.000000 0 0 1
21.129967 7.459569 18.026932 28.759189 0.339374 0.893327 0.047162 -0.001744 -527365.000000 0 0 1
21.049867 6.221569 17.391032 28.004515 0.287382 0.900768 0.069722 -0.009478 295669.000000 0 0 1
20.230167 5.313669 18.082032 27.648773 0.256859 0.857949 0.062413 -0.012794 -323971.000000 0 0 1
19.927267 3.977069 17.353532 26.721866 0.196991 0.863984 0.095775 -0.004436 177163.000000 0 0 1
18.910967 4.018769 16.310932 25.294697 0.209395 0.869988 0.084663 -0.016388 915176.000000 0 0 1
18.782667 2.836469 15.516932 24.527726 0.149883 0.885854 0.086327 -0.024645 -568901.000000 0 1 0
17.954867 1.745369 16.143532 24.208205 0.096904 0.840807 0.090560 -0.016034 -448022.000000 0 1 0
18.575767 1.225969 17.323932 25.429918 0.065903 0.821338 0.095688 -0.016236 304628.000000 0 0 1
17.578267 0.875869 18.270832 25.368996 0.049786 0.766701 0.087472 -0.011557 -51328.500000 0 0 1
18.022267 0.147769 19.586032 26.616473 0.008199 0.743859 0.094936 -0.014233 -106695.000000 0 0 1
18.526367 -1.121131 19.355532 26.816410 -0.060442 0.764427 0.095577 -0.013674 226218.000000 0 0 1
17.551867 -2.114731 19.678932 26.453743 -0.119907 0.731909 0.077665 -0.001778 183661.000000 0 0 1
17.708567 -3.484131 18.974932 26.187412 -0.194267 0.760368 0.060716 -0.000463 -227850.000000 0 0 1
17.427367 -3.474831 17.651632 25.047309 -0.196808 0.788751 0.072762 -0.015415 286631.000000 0 0 1
17.570067 -4.786331 17.082432 24.968494 -0.265960 0.817346 0.090803 -0.014252 -187981.000000 0 1 0
17.287067 -4.788831 15.569532 23.752598 -0.270241 0.855968 0.081419 -0.021578 27394.700000 0 1 0
15.928167 -4.638031 15.183232 22.488850 -0.283349 0.829635 0.078836 -0.025556 395621.000000 0 1 0
15.680967 -4.602931 13.770832 21.370904 -0.285516 0.870593 0.075090 -0.021956 4892.310000 0 1 0
15.981467 -3.302031 12.985932 20.855338 -0.203749 0.898650 0.070346 -0.021557 -23579.500000 0 1 0
15.149867 -2.238131 13.403832 20.351669 -0.146672 0.851825 0.071054 -0.016304 266346.000000 0 1 0
15.634967 -0.998531 12.916832 20.305019 -0.063779 0.881311 0.066623 -0.018704 -256855.000000 0 1 0
14.658867 0.143669 13.161732 19.701122 0.009801 0.839184 0.077769 -0.011955 -654611.000000 0 1 0
14.896567 1.434169 12.609432 19.569423 0.095979 0.870632 0.071574 -0.016447 463420.000000 0 1 0
15.904467 2.171669 13.320632 20.859230 0.135705 0.878123 0.085855 -0.022622 -108147.000000 0 1 0
16.095867 3.569169 12.664032 20.789267 0.218214 0.915793 0.078193 -0.023448 72317.000000 0 1 0
14.950867 4.399969 12.820632 20.180604 0.286215 0.882406 0.061418 -0.020959 624832.000000 0 1 0
15.131167 5.621769 12.179232 20.221034 0.355730 0.924411 0.078438 -0.027453 879732.000000 0 1 0
13.998467 6.695669 12.556432 19.961289 0.446149 0.890480 0.063466 -0.020417 830089.000000 0 1 0
14.278067 7.963569 11.916032 20.230508 0.508773 0.940959 0.054467 -0.025131 106607.000000 0 1 0
13.376367 8.953469 12.319032 20.269444 0.589858 0.917555 0.052011 -0.014369 -429301.000000 0 1 0
13.477167 9.623069 13.763932 21.533307 0.620079 0.877348 0.048431 -0.016874 -102041.000000 0 1 0
13.262167 8.748469 14.873432 21.763267 0.583133 0.818360 0.061726 -0.021147 628709.000000 0 1 0
13.849867 9.388569 16.003532 23.153339 0.595727 0.807651 0.072275 -0.025007 -155369.000000 0 1 0
13.296867 8.895869 17.367632 23.613086 0.589630 0.744379 0.057134 -0.027571 -167431.000000 0 1 0
12.005067 9.383269 17.673932 23.335279 0.663426 0.711488 0.045414 -0.025600 -156715.000000 0 1 0
11.366267 8.675369 18.714132 23.551493 0.651931 0.652440 0.046119 -0.017106 -144652.000000 0 1 0
11.825267 8.854769 20.187632 25.015683 0.642733 0.631744 0.052652 -0.019133 387805.000000 0 0 1
13.105167 8.206169 20.318732 25.533067 0.559446 0.650500 0.067303 -0.024626 652190.000000 0 0 1
13.707667 8.451969 21.578332 26.925088 0.552527 0.641129 0.051566 -0.017175 -35730.700000 0 0 1
15.224067 8.176469 21.460032 27.552856 0.492866 0.677938 0.038724 -0.010693 -5734.550000 0 0 1
15.888767 9.109369 20.654632 27.605205 0.520572 0.725429 0.040720 -0.014765 498221.000000 0 0 1
17.004567 8.625969 19.896632 27.557914 0.469450 0.764117 0.031442 -0.008402 412623.000000 0 0 1
17.716367 9.700469 19.063032 27.773512 0.500955 0.814304 0.042042 -0.016274 -258652.000000 0 0 1
18.453167 10.642969 19.807732 29.088459 0.523153 0.821740 0.026628 -0.015112 206798.000000 0 0 1
19.113867 11.526069 18.886032 29.238201 0.542638 0.868546 0.036491 -0.018912 -375573.000000 0 0 1
20.214567 12.339269 19.515232 30.687629 0.548042 0.881581 0.024045 -0.014390 -1165510.000000 0 0 1
19.697767 13.353369 20.395632 31.341607 0.595748 0.862221 0.017197 -0.014024 411738.000000 0 0 1
20.498767 13.891269 21.462232 32.768800 0.595577 0.856667 0.019590 -0.014055 -72615.200000 0 0 1
21.734367 14.740569 21.067432 33.667548 0.595955 0.894705 0.002570 -0.014329 45070.600000 0 0 1
22.852667 13.978169 20.665832 33.833567 0.548952 0.913715 -0.013849 -0.002045 464347.000000 0 0 1
24.059267 14.753469 20.816332 35.068973 0.550079 0.935293 -0.009487 -0.009573 629739.000000 0 0 1
25.341167 13.919669 20.684132 35.549476 0.502299 0.949806 0.000359 -0.012007 -330530.000000 0 0 1
25.784867 13.565469 19.431532 35.020933 0.484310 0.982608 0.016952 -0.027079 427927.000000 0 0 1
26.962267 12.764869 19.507132 35.643147 0.442170 0.991674 0.052139 -0.027062 388455.000000 0 0 1
27.298567 12.011569 18.185132 34.931198 0.414513 1.023244 0.073078 -0.036007 -197341.000000 0 0 1
27.537567 12.795769 17.023332 34.811538 0.434983 1.059837 0.075751 -0.043889 430612.000000 0 0 1
27.851767 12.063569 15.829832 34.232064 0.408741 1.090066 0.088154 -0.041708 652957.000000 0 0 1
26.556967 11.573169 15.062932 32.651228 0.410971 1.091305 0.073724 -0.045282 753413.000000 0 0 1
26.014567 12.553669 14.234232 32.201951 0.449601 1.112936 0.093318 -0.047068 528370.000000 0 0 1
24.738767 12.221669 13.660332 30.789292 0.458859 1.111105 0.086380 -0.040666 758530.000000 0 0 1
24.263467 13.388169 12.762032 30.509480 0.504211 1.139226 0.071728 -0.033225 -201522.000000 0 0 1
23.881267 14.533769 13.510232 31.049505 0.546708 1.120626 0.042207 -0.033530 167273.000000 0 0 1
24.181667 15.768069 12.859132 31.602885 0.577827 1.151741 0.028488 -0.024437 -5081.390000 0 0 1
23.264167 16.938869 13.370932 31.732138 0.629344 1.135842 0.022686 -0.025534 -26224.800000 0 0 1
21.927367 16.772369 13.002032 30.515154 0.652973 1.130636 0.035382 -0.034659 -119051.000000 0 0 1
21.097667 17.921369 13.231532 30.681598 0.704173 1.124915 0.033168 -0.033850 -871434.000000 0 0 1
20.409767 18.503769 11.949632 30.029016 0.736457 1.161530 0.047849 -0.023622 664729.000000 0 0 1
19.319867 17.747569 11.382632 28.597164 0.743006 1.161424 0.058193 -0.024822 431903.000000 0 0 1
18.234967 17.571069 12.244632 28.128056 0.766859 1.120406 0.056976 -0.018089 -1740210.000000 0 0 1
17.006067 16.915869 11.656032 26.668634 0.782739 1.118459 0.066759 -0.021512 -523874.000000 0 0 1
17.226867 15.566369 11.264332 25.806239 0.734806 1.119095 0.075149 -0.023776 42412.600000 0 0 1
16.039967 15.103369 10.657832 24.474103 0.755333 1.120232 0.084323 -0.026351 946.085000 0 1 0
15.952767 13.721069 10.035732 23.312538 0.710332 1.125765 0.082967 -0.027122 -159014.000000 0 1 0
16.149767 12.647569 10.940832 23.248178 0.664377 1.080814 0.095544 -0.017705 706281.000000 0 1 0
16.830367 11.622369 10.160932 22.838241 0.604362 1.109724 0.096548 -0.016356 169610.000000 0 1 0
17.196967 10.316469 10.935232 22.841728 0.540346 1.071578 0.096438 -0.026197 -1415710.000000 0 1 0
18.144667 9.669869 10.139832 22.924910 0.489645 1.112628 0.120282 -0.022446 47613.800000 0 1 0
18.702567 8.564169 10.816832 23.240802 0.429416 1.086682 0.140174 -0.019424 401161.000000 0 1 0
19.792267 8.907169 11.895032 24.750016 0.422881 1.069449 0.083408 -0.021404 -633744.000000 0 1 0
19.246167 9.697169 12.971232 25.153586 0.466722 1.028994 0.057886 -0.021007 258920.000000 0 0 1
20.157467 9.840469 14.051332 26.468817 0.454147 1.011177 0.054777 -0.010867 -778603.000000 0 0 1
19.396767 10.042169 15.389032 26.718946 0.477726 0.957019 0.032656 -0.018111 419944.000000 0 0 1
18.641667 8.943369 15.908732 26.087993 0.447318 0.914975 0.047080 -0.015876 258727.000000 0 0 1
17.651867 8.402169 15.100732 24.702570 0.444258 0.913091 0.068956 -0.021421 -1168420.000000 0 1 0
16.953667 7.108869 15.615432 24.120626 0.397043 0.866642 0.073812 -0.021419 -435685.000000 0 1 0
16.150267 7.283569 16.766132 24.392308 0.423675 0.812958 0.078093 -0.019608 188446.000000 0 1 0
15.624267 6.088769 17.370832 24.144081 0.371595 0.767764 0.077928 -0.004320 189078.000000 0 1 0
14.546967 5.357569 16.532432 22.663608 0.352879 0.753249 0.083414 -0.033251 -577541.000000 0 1 0
14.014767 4.177069 17.101532 22.501645 0.289665 0.707464 0.086919 -0.015206 111594.000000 0 1 0
13.504567 3.435969 16.025032 21.236310 0.249144 0.715744 0.082175 -0.018924 -424635.000000 0 1 0
13.242867 2.054969 16.536432 21.284972 0.153948 0.681059 0.073838 -0.012324 49217.400000 0 1 0
14.409167 1.285869 16.821232 22.186289 0.089004 0.710277 0.073124 -0.008598 302568.000000 0 1 0
14.284367 -0.165831 16.654632 21.941910 -0.011609 0.708970 0.075448 -0.002340 -323890.000000 0 1 0
13.363367 -0.956531 17.595532 22.115544 -0.071457 0.650769 0.072159 -0.005295 1147500.000000 0 1 0
11.953067 -0.686731 17.445032 21.158369 -0.057389 0.601482 0.060531 -0.003294 1014610.000000 0 1 0
11.161367 -1.465731 18.297232 21.482858 -0.130575 0.551550 0.054174 -0.006302 -31821.900000 0 1 0
-25.566243 13.820769 28.411172 40.642849 -0.495587 0.796735 0.067487 -0.012364 -343198.000000 0 0 1
-24.758533 13.741469 29.564332 40.937302 -0.506689 0.763839 0.066952 -0.013667 136677.000000 0 0 1
-24.254033 12.411769 29.738622 40.332317 -0.472996 0.741672 0.056340 -0.015506 -252470.000000 0 0 1
-23.133533 12.367469 30.792612 40.451201 -0.490952 0.705591 0.052623 -0.021639 -281508.000000 0 0 1
-23.537833 12.703369 32.063202 41.754690 -0.494901 0.695248 0.050591 -0.022561 423911.000000 0 0 1
-22.402233 12.743969 32.932267 41.818692 -0.517216 0.664052 0.051860 -0.020555 115163.000000 0 0 1
-22.842333 13.114769 -33.898670 42.928885 -0.521190 2.481030 0.065503 -0.018426 75239.500000 0 0 1
-23.532533 12.070869 -33.263650 42.496546 -0.473949 2.469849 0.055235 -0.019361 282840.000000 0 0 1
-24.160433 12.385069 -31.995970 41.962586 -0.473691 2.437946 0.035250 -0.011229 474234.000000 0 0 1
-25.070213 11.262469 -31.408290 41.735351 -0.422219 2.422735 0.028847 -0.016416 -137973.000000 0 0 1
-24.388633 10.241269 -30.745390 40.558206 -0.397560 2.431123 0.037780 -0.016501 18402.600000 0 0 1
-23.865933 9.198869 -31.545250 40.611633 -0.367891 2.460292 0.040725 -0.020709 -6817.160000 0 0 1
-23.036033 8.249969 -30.649450 39.218741 -0.343902 2.467863 0.041271 -0.011281 176414.000000 0 0 1
-23.799533 7.388169 -29.753980 38.811109 -0.301001 2.444381 0.036283 -0.012734 451566.000000 0 0 1
-23.005933 6.656569 -28.835600 37.484326 -0.281650 2.448496 0.032480 -0.001751 -81991.000000 0 0 1
-23.849833 5.833069 -27.832080 37.114201 -0.239866 2.418713 0.033867 0.002621 -54729.800000 0 0 1
-24.485033 4.676969 -28.316540 37.725553 -0.188740 2.419756 0.032353 -0.001531 143529.000000 0 0 1
-24.978233 3.879569 -27.246330 37.166190 -0.154087 2.393657 0.043237 -0.004880 -615597.000000 0 0 1
-25.788473 2.718769 -27.774790 37.998369 -0.105038 2.390505 0.047083 -0.004120 449357.000000 0 0 1
-27.126483 2.926869 -28.236820 39.264878 -0.107481 2.373356 0.048487 -0.004092 705709.000000 0 0 1
-27.309433 3.703869 -29.402390 40.299185 -0.134803 2.388537 0.048677 0.000504 -934003.000000 0 0 1
-28.706273 3.679969 -30.039230 41.712680 -0.127499 2.374809 0.071157 -0.008673 -783348.000000 0 0 1
-29.724323 4.078969 -29.139670 41.824559 -0.136375 2.341600 0.066488 -0.005425 139247.000000 0 0 1
-30.979303 4.132069 -29.803260 43.185941 -0.132599 2.332444 0.074892 -0.015345 190940.000000 0 0 1
-31.304093 5.430669 -30.616840 44.122889 -0.171772 2.337686 0.063596 -0.034203 -962531.000000 0 0 1
-30.437673 5.694969 -31.703940 44.317315 -0.184964 2.367971 0.066603 -0.026600 34252.400000 0 0 1
-30.606463 7.012069 -32.242540 45.005623 -0.225217 2.369441 0.064277 -0.025424 -401911.000000 0 0 1
-30.020123 8.176969 -31.370850 44.183717 -0.265932 2.360308 0.043119 -0.034251 -862099.000000 0 0 1
-28.642643 8.234769 -31.172200 43.126772 -0.279950 2.378648 0.033210 -0.037826 -398677.000000 0 0 1
-28.148443 7.385169 -30.131640 41.890229 -0.256582 2.373590 0.023273 -0.034608 -755239.000000 0 0 1
-28.129243 8.090969 -28.717200 41.004825 -0.280075 2.346666 0.007315 -0.026737 224788.000000 0 0 1
-29.391883 8.441669 -28.136420 41.554816 -0.279683 2.314600 0.015862 -0.031019 617898.000000 0 0 1
-30.015773 7.346469 -27.509490 41.372567 -0.240035 2.298184 0.015405 -0.021846 -312620.000000 0 0 1
-31.361923 7.574369 -26.787630 41.934692 -0.236977 2.263726 0.011652 -0.021864 15012.400000 0 0 1
-31.384063 8.372069 -25.670140 41.400568 -0.260691 2.239594 -0.007496 -0.016117 -297681.000000 0 0 1
-31.085523 7.733169 -24.445870 40.295313 -0.243821 2.222659 0.002236 -0.011800 -299679.000000 0 0 1
-30.526753 8.697069 -23.421970 39.447565 -0.277547 2.206507 -0.001021 -0.003038 -671835.000000 0 0 1
-31.352283 9.708269 -22.902670 40.021850 -0.300287 2.180048 0.002584 -0.001572 35448.500000 0 0 1
-30.620063 10.550169 -21.992970 39.148245 -0.331812 2.167340 0.009439 -0.011695 84003.400000 0 0 1
-31.481863 11.381269 -21.011870 39.523913 -0.346899 2.131313 0.001184 0.000203 -78880.500000 0 0 1
-32.045583 10.632069 -19.955770 39.219804 -0.320352 2.104608 -0.000280 -0.009972 478989.000000 0 0 1
-32.924893 11.348169 -19.100970 39.719977 -0.331917 2.072467 -0.008048 0.004474 131082.000000 0 0 1
-32.179333 12.237669 -18.086270 38.889371 -0.363406 2.054510 0.010166 -0.001657 -115301.000000 0 0 1
-31.634363 11.614069 -16.917370 37.706988 -0.351857 2.036054 0.052615 -0.003791 847418.000000 0 0 1
-32.578403 11.334769 -15.868170 37.968779 -0.334823 2.001958 0.042224 -0.000269 153467.000000 0 0 1
-33.022143 12.546169 -15.025270 38.387850 -0.363088 1.972956 0.017745 0.000279 -194593.000000 0 0 1
-33.413443 13.681869 -15.773570 39.401234 -0.388645 1.982675 0.011500 -0.003376 164806.000000 0 0 1
-34.246749 14.535169 -15.049970 40.132438 -0.401383 1.955201 -0.006576 -0.000851 -320775.000000 0 0 1
-34.801339 15.725469 -15.822870 41.337475 -0.424403 1.963592 -0.004391 -0.007243 -160475.000000 0 0 1
-35.708530 15.457169 -16.846170 42.400668 -0.408518 1.979379 -0.008570 -0.007888 119044.000000 0 0 1
36.505873 16.569069 -17.032770 43.558330 0.426071 1.972551 -0.001856 -0.005095 -147942.000000 0 0 1
35.814573 16.756669 -18.417170 43.619511 0.437617 2.006693 0.009562 -0.006822 272571.000000 0 0 1
34.931273 15.721969 -18.797370 42.669840 0.422923 2.026986 0.033880 -0.008877 256582.000000 0 0 1
33.592243 15.959669 -18.399270 41.493168 0.443530 2.030217 0.072534 -0.020117 -281171.000000 0 0 1
32.640663 14.839669 -18.834470 40.501431 0.426704 2.054467 0.094717 -0.031246 -206643.000000 0 0 1
32.160673 14.773669 -20.166270 40.733876 0.430619 2.088716 0.097903 -0.031374 862907.000000 0 0 1
31.194503 13.737069 -20.477970 39.763694 0.414815 2.111794 0.084061 -0.025418 664572.000000 0 0 1
31.630563 12.190569 -20.311270 39.517720 0.367861 2.110613 0.069617 -0.009327 -137480.000000 0 0 1
31.899413 11.880769 -18.980470 38.974138 0.356529 2.079450 0.073900 -0.007112 -9484.730000 0 0 1
32.624873 10.680269 -18.941670 39.207619 0.316370 2.075002 0.052908 0.001195 -182482.000000 0 0 1
33.023503 10.277069 -17.505470 38.763532 0.301704 2.039350 0.037997 0.010252 -663.079000 0 0 1
31.866673 10.012369 -16.697170 37.343378 0.304429 2.034345 0.044838 0.002259 626058.000000 0 0 1
32.164913 9.874969 -15.319270 36.969943 0.297876 1.998048 0.014168 0.002691 -357946.000000 0 0 1
31.510223 10.950469 -14.398770 36.333614 0.334465 1.978272 0.037854 -0.005879 -183394.000000 0 0 1
30.100323 10.818469 -14.346270 35.055444 0.345036 1.992423 0.056180 -0.006612 167880.000000 0 0 1
29.625643 11.776569 -13.449970 34.601561 0.378360 1.970027 0.059177 -0.006777 -443346.000000 0 0 1
28.100333 11.903269 -13.454370 33.351711 0.400683 1.986035 0.092222 -0.003849 -412764.000000 0 0 1
27.387463 10.912369 -12.705570 32.102717 0.379164 1.977712 0.073843 -0.001124 903541.000000 0 0 1
25.982763 10.785369 -12.916670 30.955913 0.393453 2.001225 0.078413 0.001334 409343.000000 0 0 1
25.503063 10.131669 -14.221570 30.908090 0.378153 2.048932 0.075819 -0.017302 -778368.000000 0 0 1
25.883363 8.749369 -14.459370 30.912349 0.325972 2.057544 0.072775 -0.011214 1268490.000000 0 0 1
27.254863 8.577969 -14.876870 32.213823 0.304917 2.050838 0.073394 -0.017169 435051.000000 0 0 1
28.010563 7.692869 -13.888870 32.197400 0.268033 2.016803 0.079534 -0.011916 -663658.000000 0 0 1
27.777763 6.290869 -13.758970 31.630498 0.222715 2.020824 0.070978 -0.026213 115092.000000 0 0 1
26.612463 5.918669 -13.070470 30.233938 0.218840 2.017851 0.080561 -0.023045 -434404.000000 0 0 1
26.344663 4.422469 -12.930570 29.678260 0.166319 2.021603 0.079817 -0.026743 42057.900000 0 0 1
25.498863 3.960869 -11.862370 28.400639 0.154104 2.001686 0.079564 -0.027349 748445.000000 0 0 1
25.221163 2.579469 -11.937570 28.022603 0.101920 2.010861 0.078685 -0.028648 -217966.000000 0 0 1
24.301563 2.129769 -10.797670 26.677548 0.087416 1.987499 0.093485 -0.029239 -14893.700000 0 0 1
25.044963 2.057469 -9.586770 26.895901 0.081967 1.935251 0.095771 -0.019255 678703.000000 0 0 1
24.150663 1.915769 -8.514070 25.679059 0.079160 1.908750 0.096210 -0.016397 -592863.000000 0 0 1
24.811563 1.467869 -7.153270 25.863827 0.059092 1.851024 0.102937 -0.017262 -137442.000000 0 0 1
25.049363 0.114769 -6.937870 25.992649 0.004582 1.840988 0.085327 -0.022452 341570.000000 0 0 1
25.892163 -0.554031 -7.834570 27.057190 -0.021394 1.864559 0.077162 -0.017913 -718469.000000 0 0 1
26.143163 -2.014331 -7.406670 27.246674 -0.076898 1.846098 0.078627 -0.025481 -389783.000000 0 0 1
27.192863 -2.108931 -6.475870 28.032771 -0.077400 1.803913 0.086606 -0.032574 55099.700000 0 0 1
27.319263 -3.412431 -5.963270 28.169973 -0.124266 1.784099 0.091216 -0.039666 -1561680.000000 0 0 1
28.527873 -3.772231 -5.183870 29.239387 -0.131467 1.749029 0.092901 -0.035321 -1989390.000000 0 0 1
29.603583 -3.952231 -6.027470 30.468388 -0.132720 1.769937 0.065141 -0.027226 -558840.000000 0 0 1
30.710393 -4.485131 -5.324570 31.489612 -0.145021 1.740702 0.072039 -0.025917 -473420.000000 0 0 1
31.802743 -4.913831 -6.285470 32.788219 -0.153297 1.763689 0.066801 -0.022498 -426479.000000 0 0 1
31.342093 -5.979831 -7.115770 32.691273 -0.188527 1.790219 0.068539 -0.024024 213466.000000 0 0 1
32.179113 -6.094931 -8.233170 33.770232 -0.187189 1.817078 0.059594 -0.024493 -952185.000000 0 0 1
31.557063 -6.970131 -9.320670 33.634890 -0.217384 1.851585 0.058206 -0.023074 508015.000000 0 0 1
30.370643 -6.377931 -9.892370 32.571658 -0.206995 1.879382 0.046885 -0.024095 1558250.000000 0 0 1
29.207183 -6.812331 -9.120970 31.347400 -0.229145 1.866031 0.058076 -0.019743 -63587.400000 0 0 1
28.113173 -5.722731 -9.120070 30.104415 -0.200817 1.878581 0.060395 -0.017487 -625531.000000 0 0 1
27.368063 -5.627631 -10.338970 29.792204 -0.202801 1.925205 0.038389 -0.016080 258789.000000 0 0 1
26.247863 -4.812431 -10.093270 28.530403 -0.181332 1.932398 0.058744 -0.016946 94326.200000 0 0 1
24.923363 -5.582331 -9.878970 27.384859 -0.220343 1.939864 0.091293 -0.019405 -1019880.000000 0 0 1
24.977663 -6.308131 -8.642770 27.173031 -0.247378 1.894483 0.091564 -0.024272 1095960.000000 0 0 1
23.760963 -6.859131 -8.099570 26.023721 -0.281032 1.887292 0.088233 -0.025907 565885.000000 0 0 1
22.709263 -5.865631 -7.507670 24.626842 -0.252768 1.880585 0.102327 -0.016914 -49711.900000 0 1 0
22.253863 -4.882931 -8.376770 24.274425 -0.215997 1.923127 0.108302 -0.017085 297107.000000 0 1 0
22.166263 -3.575731 -7.811870 23.772976 -0.159936 1.905620 0.119802 -0.020014 -80220.600000 0 1 0
22.057263 -2.563031 -8.952470 23.942404 -0.115680 1.954025 0.126911 -0.013495 1117350.000000 0 1 0
23.351263 -2.410731 -9.607770 25.365377 -0.102873 1.959269 0.104997 -0.015376 1772850.000000 0 0 1
23.236363 -1.751631 -10.846770 25.703097 -0.075241 2.006449 0.112638 -0.021536 -238466.000000 0 0 1
24.555563 -1.856531 -11.629170 27.233435 -0.075462 2.011989 0.079425 -0.018851 -159333.000000 0 0 1
25.644063 -1.203031 -11.017170 27.936415 -0.046878 1.976174 0.071989 -0.021454 -99387.900000 0 0 1
26.824163 -1.386331 -11.725570 29.307791 -0.051636 1.982405 0.048950 -0.016055 -849132.000000 0 0 1
27.878063 -0.337231 -11.382770 30.114242 -0.012096 1.958417 0.031477 -0.006742 91606.500000 0 0 1
29.208303 -0.642531 -11.858270 31.530245 -0.021995 1.956371 0.027211 -0.009948 1011820.000000 0 0 1
30.102453 0.417469 -11.708370 32.301980 0.013867 1.941709 0.043434 -0.005447 -468889.000000 0 0 1
29.876183 1.642369 -12.622270 32.474688 0.054917 1.969995 0.043520 -0.006126 -702222.000000 0 0 1
30.185713 1.395869 -13.987570 33.298316 0.046210 2.004317 0.037192 -0.006947 367734.000000 0 0 1
30.034933 2.536569 -14.781770 33.571299 0.084254 2.026740 0.037320 -0.008027 -293354.000000 0 0 1
30.317503 2.265269 -16.238370 34.466899 0.074580 2.061367 0.033969 -0.010632 -377669.000000 0 0 1
29.338553 1.570269 -16.959170 33.923884 0.053471 2.094301 0.037139 -0.014452 -470848.000000 0 0 1
29.736123 1.501169 -18.274070 34.934684 0.050440 2.121272 0.034488 -0.015738 236102.000000 0 0 1
28.632893 0.962469 -19.278070 34.531332 0.033601 2.163105 0.034311 -0.007717 370179.000000 0 0 1
28.356433 -0.403331 -18.994670 34.132792 -0.014223 2.160956 0.037141 -0.010000 203965.000000 0 0 1
28.112823 -1.113831 -20.196370 34.633290 -0.039599 2.193396 0.045065 -0.012593 -94020.200000 0 0 1
27.899763 -2.646631 -19.905770 34.375007 -0.094579 2.188392 0.047664 -0.022617 44411.900000 0 0 1
26.695963 -3.055531 -19.270470 33.066021 -0.113961 2.192951 0.043399 -0.016373 300750.000000 0 0 1
26.437163 -4.454431 -19.103370 32.919664 -0.166923 2.189897 0.044554 -0.021572 -147532.000000 0 0 1
27.375763 -5.220231 -18.152370 33.259461 -0.188426 2.148117 0.041038 -0.023263 96983.500000 0 0 1
28.739123 -5.238731 -18.551670 34.605577 -0.180306 2.136594 0.036995 -0.022485 -119317.000000 0 0 1
29.479353 -5.427131 -17.389870 34.653911 -0.182061 2.096493 0.033775 -0.018511 61502.100000 0 0 1
31.008663 -5.167231 -17.591770 36.023712 -0.165121 2.080981 0.037373 -0.014579 453184.000000 0 0 1
31.611003 -6.175931 -18.418470 37.103068 -0.192942 2.090259 0.024643 -0.013101 -608773.000000 0 0 1
32.905733 -5.740331 -18.691870 38.276947 -0.172710 2.080974 0.037323 -0.017794 -563478.000000 0 0 1
33.784073 -6.901731 -19.256170 39.494272 -0.201517 2.080099 0.025714 -0.003824 -456086.000000 0 0 1
34.145733 -7.819531 -18.272070 39.508793 -0.225123 2.051588 0.029071 -0.010134 40327.800000 0 0 1
34.364223 -9.038031 -18.907770 40.250337 -0.257183 2.059809 0.023940 -0.000852 -113611.000000 0 0 1
35.045873 -10.079431 -17.995570 40.665079 -0.280048 2.029216 0.039207 -0.009579 91665.400000 0 0 1
34.119323 -10.647631 -17.060770 39.605178 -0.302493 2.016143 0.030913 -0.016163 706316.000000 0 0 1
34.731173 -11.487331 -16.044070 39.945279 -0.319424 1.984116 0.043370 -0.022600 423022.000000 0 0 1
35.838173 -10.949731 -15.049170 40.382530 -0.296525 1.952676 0.063506 -0.028753 -31276.400000 0 0 1
36.369343 -11.674031 -13.948470 40.664135 -0.310597 1.920923 0.056427 -0.025201 393441.000000 0 0 1
-36.053933 -12.873731 -14.289870 40.863424 0.342958 1.928045 0.047229 -0.018808 124279.000000 0 0 1
-34.628763 -12.764431 -14.943270 39.816871 0.353155 1.955517 0.056208 -0.024940 109900.000000 0 0 1
-34.628403 -12.335731 -16.294470 40.209530 0.342216 1.988037 0.058953 -0.017403 6393.320000 0 0 1
-33.280733 -12.367731 -16.706070 39.238511 0.355803 2.010595 0.088640 -0.027723 -88932.200000 0 0 1
-33.083373 -11.363331 -17.879770 39.285125 0.330851 2.043313 0.104561 -0.023382 92220.000000 0 0 1
-33.051113 -10.015931 -17.486370 38.710052 0.294247 2.039496 0.089354 -0.021969 406133.000000 0 0 1
-33.767303 -9.216431 -18.439970 39.562683 0.266450 2.055668 0.078603 -0.016359 143351.000000 0 0 1
-34.484007 -8.072831 -17.727170 39.605175 0.229962 2.034873 0.082456 -0.019155 -80179.200000 0 0 1
-35.306073 -7.269331 -18.554770 40.541848 0.203057 2.046169 0.081583 -0.015355 -188144.000000 0 0 1
-36.063863 -6.356331 -17.858470 40.742240 0.174460 2.024534 0.076096 -0.018534 -741566.000000 0 0 1
24.510167 26.405669 -26.999740 45.022146 0.822609 2.213921 0.058329 0.001557 209081.000000 0 0 1
25.417167 26.158769 -25.936550 44.755092 0.799776 2.188938 0.073756 -0.009606 591696.000000 0 0 1
26.658967 25.594869 -26.360580 45.394692 0.765037 2.190381 0.058661 -0.011607 669662.000000 0 0 1
27.367867 24.719669 -25.244560 44.691722 0.734601 2.171060 0.057490 -0.020822 -109036.000000 0 0 1
27.998567 25.404669 -24.205070 44.891006 0.736864 2.140279 0.066454 -0.017463 134577.000000 0 0 1
28.485367 24.522069 -23.212470 44.176541 0.710768 2.124038 0.064651 -0.021373 -23314.100000 0 0 1
29.042867 25.321669 -21.992870 44.366219 0.717056 2.089451 0.036040 -0.007867 -238522.000000 0 0 1
28.097167 25.975169 -21.191670 43.740680 0.746175 2.076570 0.053730 -0.012777 76406.700000 0 0 1
28.733967 26.614269 -20.069170 44.008315 0.747119 2.044327 0.032933 -0.006484 -113283.000000 0 0 1
27.829667 27.633169 -19.425270 43.765552 0.781855 2.030685 0.048507 -0.004286 -1144500.000000 0 0 1
26.827667 27.095669 -18.657070 42.449797 0.790368 2.025848 0.053176 -0.007009 -692102.000000 0 0 1
25.912167 28.165469 -18.473970 42.497313 0.827042 2.020512 0.057779 -0.004698 -273283.000000 0 0 1
24.797267 27.928169 -17.468570 41.231518 0.844710 2.008290 0.047268 0.002480 -388514.000000 0 0 1
23.750767 27.127569 -17.940070 40.272200 0.851671 2.032496 0.061669 -0.000496 80852.900000 0 0 1
22.564467 27.233969 -17.139570 39.301516 0.878893 2.022062 0.050161 0.002055 434735.000000 0 0 1
21.540367 26.219069 -17.667370 38.256542 0.883051 2.050835 0.055261 -0.005014 -423267.000000 0 0 1
20.967567 26.555769 -18.932670 38.772332 0.902449 2.080941 0.057187 -0.004631 31968.400000 0 0 1
20.218667 25.434669 -19.411270 37.848571 0.899157 2.109317 0.063663 -0.001258 316143.000000 0 0 1
19.331067 25.830269 -20.637370 38.298747 0.928328 2.139871 0.045430 0.005764 508291.000000 0 0 1
18.274867 26.726669 -20.352470 38.242760 0.971047 2.131983 0.033099 0.008398 -495416.000000 0 0 1
17.297367 26.741169 -21.350670 38.342407 0.996643 2.161376 0.020276 0.004078 -880882.000000 0 0 1
16.245267 27.741369 -21.009270 38.404189 1.041034 2.149640 0.024222 0.005712 -633537.000000 0 0 1
15.468267 27.348469 -19.870270 37.175714 1.056056 2.134708 0.038211 0.007271 113750.000000 0 0 1
14.607767 28.430469 -19.514770 37.450029 1.096164 2.118922 0.026003 0.000886 284524.000000 0 0 1
13.997167 28.377769 -18.085870 36.446086 1.112568 2.090055 0.027654 0.005786 -99494.800000 0 0 1
13.137867 27.288069 -17.935770 35.198496 1.122098 2.105470 0.033060 0.009481 -436416.000000 0 0 1
12.609567 27.335069 -16.639070 34.395724 1.138588 2.075735 0.046602 0.007652 -277506.000000 0 0 1
11.681267 26.189669 -16.347470 33.008947 1.151252 2.088912 0.058551 0.004093 -614960.000000 0 0 1
12.406667 25.008369 -16.171270 32.262267 1.110273 2.095832 0.063863 -0.002184 -14092.300000 0 0 1
11.562767 23.868869 -16.092970 31.022640 1.119683 2.116184 0.061515 -0.005088 -26256.200000 0 0 1
12.395467 22.602069 -16.164570 30.426871 1.069166 2.130883 0.065207 -0.008339 76828.200000 0 0 1
12.860367 22.451669 -17.496670 31.234596 1.050615 2.165387 0.059051 -0.006293 296907.000000 0 0 1
13.836667 21.394569 -17.711470 31.030261 0.996718 2.178253 0.061677 -0.002634 501712.000000 0 0 1
13.297367 19.987669 -18.008270 30.010410 0.983755 2.214382 0.065458 -0.010019 58649.100000 0 0 1
12.702167 19.478269 -16.793970 28.684237 0.992932 2.196265 0.068735 -0.016835 149118.000000 0 0 1
12.149167 18.155269 -16.957470 27.654509 0.981055 2.230889 0.068939 -0.019794 -3015.140000 0 0 1
13.192967 17.028769 -17.121170 27.516683 0.911645 2.242360 0.066126 -0.021662 11750.800000 0 0 1
13.830767 16.666269 -15.899470 26.867225 0.878108 2.204061 0.066697 -0.024860 -704236.000000 0 0 1
14.933067 15.889469 -16.129870 27.122766 0.816418 2.207687 0.065354 -0.024917 -1378560.000000 0 0 1
15.547167 15.215869 -14.907470 26.371760 0.774629 2.171571 0.104656 -0.018661 -755348.000000 0 0 1
16.399467 15.936069 -14.025370 26.825582 0.771068 2.120970 0.081930 -0.011984 2061500.000000 0 0 1
17.762267 16.270769 -14.457970 28.093931 0.741601 2.111372 0.064756 -0.008658 1574700.000000 0 0 1
18.672667 15.033469 -14.793670 28.169600 0.677846 2.123705 0.052849 -0.013300 -741032.000000 0 0 1
19.277867 14.154269 -13.881970 27.653003 0.633328 2.096713 0.084073 -0.021313 681723.000000 0 0 1
20.159267 14.742169 -12.921270 28.119154 0.631416 2.048249 0.083387 -0.016387 -167025.000000 0 0 1
21.031367 13.668869 -12.213570 27.898525 0.576324 2.023930 0.101212 -0.022045 58941.900000 0 0 1
20.312667 12.852269 -11.299870 26.560729 0.564133 2.010239 0.148415 -0.029958 677166.000000 0 0 1
21.154567 11.783569 -10.903870 26.556781 0.508219 1.993894 0.160480 -0.011606 -81966.800000 0 0 1
21.094367 10.471469 -11.773170 26.329290 0.460772 2.034374 0.126224 -0.016990 -761877.000000 0 0 1
21.956567 10.372369 -12.856270 27.476546 0.441328 2.057709 0.099066 -0.004451 38490.700000 0 0 1
21.948267 9.070669 -13.521670 27.328356 0.391898 2.088384 0.084511 -0.008966 -294344.000000 0 0 1
22.621167 7.839369 -12.844470 27.168977 0.333598 2.063219 0.081925 0.006237 -243955.000000 0 0 1
21.967167 7.323069 -11.682770 25.935900 0.321778 2.038063 0.084435 -0.009514 520321.000000 0 0 1
22.572167 6.112869 -11.247170 25.949349 0.264471 2.019089 0.078612 0.009105 -1086020.000000 0 0 1
22.186467 4.770969 -11.930670 25.638689 0.211814 2.054813 0.071493 -0.003978 248399.000000 0 0 1
20.835567 4.304369 -11.791370 24.324573 0.203722 2.076875 0.055387 -0.021385 1460580.000000 0 1 0
19.910667 5.133569 -12.548870 24.088635 0.252334 2.118755 0.014039 -0.033759 -563536.000000 0 1 0
18.776367 4.304169 -13.185670 23.343944 0.225340 2.171040 0.011843 -0.037925 -215917.000000 0 1 0
19.218467 3.268869 -14.073670 24.043776 0.168478 2.196090 0.024179 -0.039450 267922.000000 0 1 0
19.260067 1.995469 -13.498170 23.603658 0.103238 2.179577 0.068695 -0.046110 -231070.000000 0 1 0
20.286367 1.129369 -14.295070 24.842729 0.055614 2.183917 0.099079 -0.029007 353022.000000 0 1 0
21.620867 1.238269 -13.786470 25.672202 0.057209 2.137696 0.134114 -0.014487 640170.000000 0 0 1
22.621167 0.778869 -14.658370 26.966491 0.034417 2.145489 0.085352 -0.016047 -118208.000000 0 0 1
22.813967 -0.711131 -14.929170 27.273851 -0.031161 2.150027 0.075647 -0.021089 -271713.000000 0 0 1
21.712667 -1.301331 -15.635170 26.787906 -0.059863 2.194032 0.076726 -0.018092 643990.000000 0 0 1
22.211467 -2.292531 -16.487870 27.757068 -0.102850 2.206826 0.071063 -0.020935 -617108.000000 0 0 1
21.163267 -2.967331 -17.314870 27.504430 -0.139303 2.251745 0.064770 -0.014568 -592962.000000 0 0 1
20.418567 -3.968831 -16.649070 26.643217 -0.191980 2.245786 0.080373 -0.023662 1163770.000000 0 0 1
19.435767 -4.650931 -17.491470 26.558082 -0.234881 2.289769 0.081109 -0.022069 1073780.000000 0 0 1
18.659167 -5.845131 -16.819770 25.792145 -0.303575 2.281184 0.079825 -0.030670 -20661.900000 0 0 1
19.563367 -6.871031 -16.533670 26.519778 -0.337761 2.243940 0.077370 -0.027652 180904.000000 0 0 1
18.950167 -7.930431 -15.893370 25.973059 -0.396343 2.229279 0.078587 -0.027880 -960951.000000 0 0 1
19.904667 -8.890731 -15.247270 26.603009 -0.420078 2.181130 0.095972 -0.026224 -879293.000000 0 0 1
20.418567 -9.666231 -16.288870 27.851054 -0.442145 2.195499 0.078807 -0.025224 -411809.000000 0 0 1
21.280867 -10.582631 -15.785770 28.531700 -0.461472 2.157083 0.074735 -0.029623 -1136090.000000 0 0 1
22.065567 -11.423431 -16.829470 30.010250 -0.477710 2.166137 0.064178 -0.021889 179162.000000 0 0 1
23.053367 -10.681731 -17.549070 30.879232 -0.433898 2.175250 0.060066 -0.020845 328255.000000 0 0 1
23.469067 -11.235031 -18.803670 32.102976 -0.446476 2.196577 0.064006 -0.015698 -641076.000000 0 0 1
22.535067 -11.079131 -20.035870 32.124951 -0.456937 2.244245 0.065227 -0.009389 629765.000000 0 0 1
21.256667 -11.714231 -19.929070 31.404409 -0.503676 2.258280 0.062430 -0.021204 518256.000000 0 0 1
21.225067 -13.128931 -20.082370 32.033949 -0.553953 2.248376 0.054251 -0.007004 -1228590.000000 0 0 1
19.880067 -13.782231 -19.877870 31.309690 -0.606194 2.258648 0.054609 -0.002222 -814863.000000 0 0 1
19.058867 -13.556031 -20.989870 31.425802 -0.618251 2.302205 0.051534 0.006392 -598044.000000 0 0 1
17.758467 -14.030531 -20.791070 30.732516 -0.668660 2.313819 0.068523 0.002218 -253960.000000 0 0 1
16.736967 -13.566031 -21.847270 30.683326 -0.681137 2.363173 0.068206 -0.003714 -251202.000000 0 0 1
17.037167 -14.113331 -23.114070 31.995490 -0.691811 2.378087 0.049945 -0.000035 400354.000000 0 0 1
16.294067 -13.504631 -24.154970 32.114393 -0.692061 2.422121 0.066017 -0.014365 -79547.400000 0 0 1
16.419167 -14.227331 -25.536780 33.528095 -0.714000 2.436657 0.052292 -0.014691 56560.800000 0 0 1
15.503267 -15.332431 -25.525120 33.570322 -0.779858 2.434645 0.066400 -0.018106 594845.000000 0 0 1
15.392767 -15.992231 -26.767380 34.773285 -0.804496 2.449275 0.065241 -0.018170 -163002.000000 0 0 1
16.340767 -17.207531 -26.971210 35.924448 -0.811229 2.420032 0.054305 -0.014297 -133897.000000 0 0 1
17.709367 -16.865631 -26.971360 36.407766 -0.761000 2.405077 0.043085 -0.007301 -57109.600000 0 0 1
18.484167 -18.041031 -27.038730 37.392996 -0.773266 2.379070 0.042319 -0.005773 -1346120.000000 0 0 1
19.964267 -17.887931 -27.058430 38.088170 -0.730599 2.360885 0.024121 0.001166 -1349780.000000 0 0 1
20.491867 -17.458231 -25.828090 37.306791 -0.705630 2.335490 0.018936 0.006113 -19067.700000 0 0 1
21.874567 -17.165631 -25.935900 38.024025 -0.665360 2.321417 0.022604 0.012664 136688.000000 0 0 1
22.415167 -16.386031 -24.713570 37.171256 -0.631246 2.298099 0.024491 0.022494 -74944.700000 0 0 1
22.273567 -14.980231 -24.617670 36.421818 -0.592069 2.312988 0.028803 0.010426 -1073960.000000 0 0 1
20.993567 -14.472531 -24.481970 35.348987 -0.603562 2.335855 0.052086 0.005423 -759567.000000 0 0 1
20.787267 -13.115231 -23.737070 34.169698 -0.562849 2.338774 0.061223 0.007615 -91264.100000 0 0 1
21.220167 -11.952331 -24.412970 34.484008 -0.512962 2.357388 0.064223 -0.012478 113486.000000 0 0 1
20.944467 -10.794431 -23.718270 33.432720 -0.475878 2.359489 0.065974 -0.015739 -347724.000000 0 0 1
21.146967 -9.484631 -24.512770 33.734676 -0.421614 2.384206 0.080915 -0.019571 -452627.000000 0 0 1
20.603867 -8.339231 -23.925370 32.657089 -0.384587 2.392966 0.093287 -0.026210 -81117.800000 0 0 1
20.323067 -7.288631 -24.815870 32.893443 -0.344350 2.425585 0.072156 -0.020357 -508469.000000 0 0 1
19.818667 -6.049531 -24.111370 31.792052 -0.296261 2.431665 0.082234 -0.023440 -687963.000000 0 0 1
18.717967 -6.417031 -23.352570 30.608546 -0.330271 2.438649 0.080105 -0.018099 -659318.000000 0 0 1
18.326067 -5.433531 -22.394570 29.442907 -0.288235 2.435049 0.075270 -0.012589 -70287.000000 0 0 1
18.718367 -5.747331 -20.945270 28.672520 -0.297905 2.389850 0.075067 -0.025097 -112472.000000 0 0 1
18.103567 -6.818931 -20.136270 27.923222 -0.360227 2.376228 0.079286 -0.027925 416297.000000 0 0 1
18.249467 -8.136131 -20.616570 28.710323 -0.419379 2.371849 0.084159 -0.021719 -263660.000000 0 0 1
17.618267 -9.244931 -19.762470 28.043311 -0.483240 2.352814 0.067705 -0.024010 -849888.000000 0 0 1
16.237567 -9.248631 -19.705870 27.157266 -0.517753 2.382732 0.056605 -0.023026 -993930.000000 0 0 1
15.761967 -10.368531 -19.081070 26.833436 -0.581853 2.361848 0.066646 -0.018216 -126290.000000 0 0 1
14.341767 -10.286331 -18.465270 25.543318 -0.622196 2.378787 0.069361 -0.022925 91252.100000 0 0 1
14.268167 -9.765331 -17.123570 24.334316 -0.600189 2.351360 0.085837 -0.026895 304691.000000 0 1 0
14.407567 -8.347831 -17.118170 23.880871 -0.525139 2.370020 0.094514 -0.042426 276498.000000 0 1 0
13.042267 -7.616131 -16.879270 22.649855 -0.528540 2.411671 0.076798 -0.028999 110525.000000 0 1 0
12.023267 -7.793331 -17.816270 22.862949 -0.575100 2.464287 0.067712 -0.025134 -271906.000000 0 1 0
11.094467 -6.755831 -17.531770 21.819519 -0.546965 2.503931 0.049500 -0.020892 199617.000000 0 1 0
9.656967 -6.932331 -18.098070 21.653045 -0.622611 2.560423 0.043732 -0.012332 334966.000000 0 1 0
9.508467 -6.628031 -19.431370 22.625647 -0.608754 2.603759 0.041630 -0.016329 -657432.000000 0 1 0
8.148967 -6.592831 -19.727770 22.339561 -0.680228 2.653197 0.046479 -0.016236 -468436.000000 0 1 0
7.660967 -6.312731 -21.163470 23.375916 -0.689212 2.703008 0.046482 -0.022927 -34765.800000 0 1 0
7.669367 -7.411731 -22.055070 24.498552 -0.768316 2.691163 0.048614 -0.021847 -16273.300000 0 1 0
6.988567 -7.144231 -23.250870 25.307767 -0.796412 2.735635 0.051716 -0.021749 -305845.000000 0 0 1
6.889067 -8.335031 -24.259070 26.560016 -0.880093 2.722278 0.048528 -0.024800 -698051.000000 0 0 1
5.968167 -9.276331 -23.870870 26.296155 -0.999092 2.708734 0.045661 -0.025601 -411251.000000 0 0 1
5.742767 -10.177931 -24.956470 27.557124 -1.057088 2.703652 0.051044 -0.013201 -45905.800000 0 0 1
4.831767 -11.354731 -24.541770 27.469517 -1.168478 2.675694 0.053526 -0.020148 97372.700000 0 0 1
5.434667 -12.347831 -23.706670 27.276560 -1.156179 2.624222 0.056049 -0.019884 -79593.300000 0 0 1
4.592567 -13.446331 -23.514270 27.473922 -1.241671 2.598039 0.063455 -0.025554 -360057.000000 0 0 1
5.334167 -14.475031 -22.609770 27.371181 -1.217729 2.542846 0.075883 -0.028398 423682.000000 0 0 1
6.376667 -15.301331 -23.148570 28.471897 -1.175943 2.520138 0.107929 -0.031119 54022.800000 0 0 1
7.566167 -14.726531 -23.612970 28.839035 -1.096187 2.530088 0.099908 -0.030288 -192502.000000 0 0 1
8.514967 -14.061031 -22.592970 27.940286 -1.026290 2.512593 0.089963 -0.014781 -432974.000000 0 0 1
9.210667 -14.885631 -21.705870 27.884820 -1.016695 2.462928 0.092282 -0.015947 -91446.900000 0 0 1
8.331367 -15.469031 -20.800370 27.227890 -1.076760 2.440187 0.094634 -0.027561 -384725.000000 0 0 1
8.943867 -15.452031 -19.361270 26.336606 -1.046100 2.396679 0.079850 -0.027223 -104366.000000 0 0 1
10.036867 -16.309931 -19.272770 27.169693 -1.019142 2.359369 0.087115 -0.034708 -791943.000000 0 0 1
10.395567 -16.548531 -17.889870 26.494700 -1.009909 2.312065 0.065159 -0.022088 -44225.000000 0 0 1
9.455967 -17.333231 -16.890570 25.983602 -1.071384 2.278443 0.039411 -0.012890 -306873.000000 0 0 1
9.408567 -18.738331 -17.183970 27.109685 -1.105468 2.257341 0.034632 -0.014543 -62135.500000 0 0 1
8.764167 -19.220431 -18.350670 27.981828 -1.142979 2.286047 0.060809 -0.018567 48200.500000 0 0 1
7.213967 -19.219431 -18.283770 27.490436 -1.211721 2.298418 0.073439 -0.021650 65282.400000 0 0 1
6.608767 -17.980931 -18.005370 26.290360 -1.218579 2.325216 0.075315 -0.021790 -648877.000000 0 0 1
5.212967 -18.077831 -17.938670 25.995747 -1.290050 2.332371 0.067752 -0.013100 -19536.000000 0 0 1
4.504667 -16.774931 -17.443170 24.616143 -1.308450 2.358318 0.039206 0.000583 261070.000000 0 1 0
4.925567 -16.298831 -16.170370 23.481780 -1.277319 2.330401 0.018764 0.003671 122671.000000 0 1 0
4.505267 -14.938631 -16.058870 22.390789 -1.277886 2.370585 0.013651 0.011175 270070.000000 0 1 0
10.480467 29.872169 -18.317470 36.574806 1.233370 2.095345 0.042139 -0.007285 110914.000000 0 0 1
9.623167 29.260869 -19.305070 36.352298 1.253064 2.130642 0.065808 -0.016194 437420.000000 0 0 1
8.663867 28.377969 -18.684970 35.064225 1.274482 2.132795 0.052585 -0.015076 -92751.100000 0 0 1
7.676567 27.944469 -19.725970 35.056197 1.302702 2.168439 0.062489 -0.005002 -953562.000000 0 0 1
6.889967 28.938769 -20.272570 35.998627 1.337060 2.168987 0.069088 -0.008113 -401140.000000 0 0 1
6.314967 28.601569 -21.552270 36.365216 1.353492 2.205156 0.074409 -0.008614 33828.200000 0 0 1
5.263267 29.630669 -21.976870 37.264747 1.395001 2.201545 0.080250 -0.022996 -504415.000000 0 0 1
4.065267 29.498969 -21.261270 36.589031 1.433848 2.190855 0.073523 -0.013956 -548067.000000 0 0 1
3.093167 30.414569 -21.726670 37.505492 1.469445 2.188657 0.082044 -0.031353 1147480.000000 0 0 1
1.730767 30.227769 -20.891170 36.785250 1.513601 2.174776 0.108081 -0.026955 1587410.000000 0 0 1
0.929867 29.039269 -20.926270 35.805762 1.538786 2.194984 0.104181 -0.038385 427118.000000 0 0 1
0.560067 28.464269 -22.176170 36.087544 1.551123 2.232562 0.121555 -0.052942 -175452.000000 0 0 1
-0.192533 27.114569 -22.037670 34.941320 -1.563696 2.253258 0.118083 -0.050027 -45111.900000 0 0 1
-1.552733 27.255769 -21.731770 34.893521 -1.513889 2.243116 0.130619 -0.051555 -564846.000000 0 0 1
-2.272133 26.057469 -21.815270 34.059658 -1.483819 2.265948 0.125825 -0.059829 -310298.000000 0 0 1
-3.241833 25.879769 -20.652670 33.268675 -1.446180 2.240539 0.093261 -0.056388 -410453.000000 0 0 1
-4.491133 26.485869 -20.908570 34.041737 -1.402827 2.232173 0.072569 -0.054041 139824.000000 0 0 1
-5.428933 26.006969 -19.950870 33.224584 -1.365002 2.214904 0.056359 -0.050592 833639.000000 0 0 1
-6.813933 26.713469 -19.778270 33.929620 -1.321047 2.193115 0.042913 -0.054798 641984.000000 0 0 1
-7.602833 26.112469 -18.791070 33.057048 -1.287472 2.175409 0.051043 -0.046033 128244.000000 0 0 1
-8.754033 26.911469 -18.421470 33.767008 -1.256302 2.147837 0.051554 -0.053368 1489470.000000 0 0 1
-9.997533 26.109469 -17.906770 33.201016 -1.205110 2.140454 0.065492 -0.045110 78123.400000 0 0 1
-9.715833 25.223369 -16.807170 31.829181 -1.203121 2.127091 0.069606 -0.040054 -375581.000000 0 0 1
-10.845333 24.862469 -16.034870 31.510009 -1.159467 2.104682 0.037931 -0.023395 81204.900000 0 0 1
-10.453833 24.143369 -14.696470 30.135878 -1.162178 2.080219 0.037617 -0.018361 -52170.400000 0 0 1
-9.985033 22.821369 -14.846670 28.998955 -1.158361 2.108276 0.046984 -0.018158 -227804.000000 0 0 1
-10.015333 22.304769 -13.543370 27.950537 -1.148756 2.076642 0.063511 -0.023845 -398249.000000 0 0 1
-9.706233 20.742369 -13.516270 26.592225 -1.133122 2.103982 0.092500 -0.016673 13579.700000 0 0 1
-10.550333 19.829769 -14.199870 26.573776 -1.081842 2.134543 0.057968 -0.015825 -506095.000000 0 0 1
-10.656733 20.023369 -15.614070 27.537256 -1.081710 2.173675 0.066967 -0.012412 432961.000000 0 0 1
-9.414533 19.905569 -16.583570 27.565920 -1.129014 2.216295 0.051532 -0.010812 543547.000000 0 0 1
-8.819033 18.620769 -16.586570 26.450382 -1.128481 2.248598 0.048371 -0.011247 -133894.000000 0 0 1
-7.880233 18.617869 -17.658870 26.843227 -1.170399 2.288759 0.055716 -0.010294 414892.000000 0 0 1
-7.327133 17.230569 -18.193370 26.107051 -1.168722 2.341828 0.040179 -0.012847 303017.000000 0 0 1
-8.395133 16.431969 -18.688670 26.263173 -1.098465 2.362558 0.044508 -0.017592 -181683.000000 0 0 1
-8.217133 15.522369 -19.786470 26.456939 -1.083927 2.415651 0.049050 -0.019706 470320.000000 0 0 1
-6.966333 14.522969 -19.773170 25.503425 -1.123539 2.458009 0.038686 -0.015093 846243.000000 0 0 1
-6.991833 13.411069 -18.848170 24.166010 -1.090217 2.465375 0.009313 -0.013935 168681.000000 0 1 0
-5.768433 12.691769 -18.911670 23.494831 -1.144205 2.506352 0.011728 -0.004994 -16863.900000 0 1 0
-4.806333 13.058869 -17.803970 22.596820 -1.218132 2.478183 0.032379 0.000723 -641227.000000 0 1 0
-4.361333 14.350669 -17.859070 23.321864 -1.275755 2.443027 0.035382 -0.008162 -498281.000000 0 1 0
-3.989633 14.735769 -16.551970 22.517278 -1.306390 2.396579 0.043907 0.003977 43540.900000 0 1 0
-3.105833 16.004269 -16.436670 23.150528 -1.379116 2.360282 0.078625 -0.004166 212165.000000 0 1 0
-3.702333 17.284969 -16.652570 24.285500 -1.359791 2.326361 0.058706 -0.008471 -421529.000000 0 1 0
-2.725633 18.283969 -16.636070 24.869488 -1.422814 2.303571 0.079833 -0.015052 -77048.200000 0 1 0
-3.204933 19.664269 -17.155470 26.291924 -1.409234 2.281675 0.094717 -0.021484 251826.000000 0 0 1
-3.468333 19.680769 -18.587570 27.292119 -1.396358 2.320006 0.094449 -0.024033 -64080.700000 0 0 1
-4.149033 20.787669 -19.095570 28.530378 -1.373794 2.304071 0.102860 -0.025679 211551.000000 0 0 1
-3.198533 22.002469 -19.343670 29.470610 -1.426436 2.286796 0.104547 -0.035028 533129.000000 0 0 1
-2.249633 21.856769 -20.368870 29.961143 -1.468231 2.318345 0.107478 -0.028556 583393.000000 0 0 1
-1.035833 22.606669 -20.441170 30.495506 -1.525009 2.305411 0.108303 -0.031802 1350690.000000 0 0 1
0.136967 22.228469 -19.486170 29.560691 1.564635 2.290540 0.125414 -0.033377 65823.000000 0 0 1
-0.090733 22.615569 -18.123170 28.981399 -1.566784 2.246361 0.128060 -0.031831 -724484.000000 0 0 1
0.739867 21.977769 -17.191370 27.912595 1.537145 2.234324 0.130187 -0.028043 -250328.000000 0 0 1
0.423467 21.977369 -15.669870 26.994980 1.551530 2.190106 0.139315 -0.032781 381183.000000 0 0 1
-0.692133 21.187869 -15.255270 26.117583 -1.538141 2.194567 0.121434 -0.016832 199471.000000 0 0 1
-0.581833 21.109569 -13.878970 25.270106 -1.543241 2.152233 0.126553 -0.024141 353814.000000 0 0 1
-1.584333 20.106869 -13.288770 24.153420 -1.492163 2.153378 0.091245 -0.016748 167678.000000 0 1 0
-1.096533 18.791369 -13.474270 23.148950 -1.512509 2.192066 0.086793 -0.009291 473016.000000 0 1 0
-1.966633 17.800769 -12.870370 22.054058 -1.460762 2.193930 0.061725 -0.005581 465328.000000 0 1 0
-1.414033 16.376069 -12.945970 20.923032 -1.484662 2.237937 0.038859 0.000183 24657.600000 0 1 0
-0.305633 16.110969 -12.092270 20.146457 -1.551828 2.214570 0.035600 -0.003118 207548.000000 0 1 0
0.120567 14.771569 -11.977770 19.017907 1.562634 2.252112 0.033075 -0.005488 200119.000000 0 1 0
0.715167 13.968169 -13.167770 19.209669 1.519641 2.326054 0.029115 -0.008975 -458711.000000 0 1 0
-0.124133 13.809669 -14.275770 19.862527 -1.561808 2.372769 0.035236 -0.014810 -371743.000000 0 1 0
0.480567 12.989169 -15.252270 20.039491 1.533816 2.435820 0.034883 -0.012733 -729712.000000 0 1 0
-0.378133 12.651469 -16.439370 20.747423 -1.540917 2.485460 0.038951 -0.014979 -388679.000000 0 1 0
-0.628133 13.786869 -17.238570 22.082586 -1.525268 2.466487 0.053374 -0.018871 35730.900000 0 1 0
-0.569533 13.534669 -18.609770 23.018149 -1.528742 2.512365 0.058061 -0.022371 -141989.000000 0 1 0
-1.047333 14.732369 -19.414570 24.393957 -1.499825 2.491250 0.058261 -0.014308 -219813.000000 0 1 0
-0.196933 15.816169 -19.297270 24.951446 -1.558346 2.454972 0.068687 -0.023310 -181215.000000 0 1 0
-0.895433 16.973369 -19.700970 26.019710 -1.518090 2.429744 0.086721 -0.026236 417310.000000 0 0 1
0.077767 18.187669 -19.769170 26.862938 1.566521 2.397832 0.102218 -0.031994 500302.000000 0 0 1
0.636967 18.221669 -21.083070 27.873479 1.535854 2.428565 0.092054 -0.031418 372816.000000 0 0 1
1.721067 19.135469 -21.271270 28.663482 1.481096 2.406999 0.089665 -0.027649 754262.000000 0 0 1
2.289967 19.201269 -22.777570 29.878929 1.452096 2.437700 0.083841 -0.036548 -194822.000000 0 0 1
3.000267 18.074169 -23.102970 29.486004 1.406299 2.471112 0.074020 -0.029217 -457403.000000 0 0 1
3.489867 18.184769 -24.441970 30.663903 1.381190 2.493261 0.075758 -0.042384 743857.000000 0 0 1
4.430567 16.964569 -24.852570 30.415075 1.315337 2.527182 0.063847 -0.024867 287211.000000 0 0 1
5.690467 16.928469 -24.185770 30.065029 1.246515 2.505543 0.058766 -0.019870 231078.000000 0 0 1
6.526767 15.883269 -24.626970 30.022735 1.180911 2.532692 0.059407 -0.016268 340870.000000 0 0 1
7.121967 15.995669 -26.097260 31.426913 1.151905 2.550642 0.045830 -0.011307 -421148.000000 0 0 1
8.041667 17.108469 -26.208930 32.315262 1.131403 2.516722 0.044484 -0.004596 738680.000000 0 0 1
8.499167 17.395569 -27.543240 33.667072 1.116325 2.528906 0.037471 -0.006851 197530.000000 0 0 1
9.258367 16.353869 -28.438000 34.086453 1.055656 2.557641 0.015120 -0.008068 -500139.000000 0 0 1
10.444067 15.902869 -27.864240 33.740120 0.989697 2.542502 0.021206 -0.004567 -321232.000000 0 0 1
10.942067 14.650769 -28.377790 33.759041 0.929308 2.569183 0.012339 -0.006184 65085.300000 0 0 1
10.537867 13.525869 -27.410710 32.331762 0.908936 2.582610 0.021238 -0.011077 -676499.000000 0 0 1
9.182867 13.230469 -27.453010 31.828260 0.964062 2.611056 0.037289 -0.007607 -806851.000000 0 0 1
8.736067 12.523569 -26.307320 30.417655 0.961703 2.615688 0.041448 -0.005121 295163.000000 0 0 1
7.309567 11.967769 -26.537650 30.015065 1.022495 2.655456 0.055974 -0.012963 413633.000000 0 0 1
6.288267 12.940169 -26.627980 30.266146 1.118452 2.646225 0.054553 -0.012051 -450596.000000 0 0 1
5.017667 12.352369 -26.575270 29.732188 1.184947 2.676593 0.075130 -0.017683 421544.000000 0 0 1
3.816067 13.348369 -26.709010 30.101704 1.292341 2.662237 0.074476 -0.018364 37125.300000 0 0 1
3.425167 13.693669 -28.046360 31.398195 1.325697 2.675314 0.071109 -0.025756 653095.000000 0 0 1
4.371167 14.511569 -28.755330 32.504796 1.278221 2.656537 0.079220 -0.034064 310621.000000 0 0 1
4.200567 14.248369 -30.310130 33.754478 1.284107 2.685905 0.074871 -0.029695 -443341.000000 0 0 1
4.985967 13.187569 -30.662900 33.748856 1.209327 2.710623 0.077679 -0.029073 -489205.000000 0 0 1
5.071467 13.000569 -32.030870 34.938678 1.198857 2.730723 0.075971 -0.028726 -163135.000000 0 0 1
6.251367 12.084369 -32.485670 35.219744 1.093397 2.744970 0.082946 -0.018952 1617270.000000 0 0 1
7.619867 12.519669 -32.287710 35.458437 1.024054 2.715479 0.086886 -0.015561 1231220.000000 0 0 1
8.108567 12.727569 -30.952620 34.435513 1.003553 2.687952 0.075686 -0.016080 -496969.000000 0 0 1
8.129167 11.457169 -29.989610 33.116866 0.953705 2.703516 0.082430 -0.013185 -276124.000000 0 0 1
9.067067 10.481869 -30.364420 33.377827 0.857645 2.713402 0.059805 -0.009993 -152323.000000 0 0 1
8.816267 9.319969 -29.666040 32.321237 0.813164 2.733425 0.057795 -0.014106 366130.000000 0 0 1
9.893467 8.200969 -29.862730 32.510294 0.692133 2.735224 0.042489 -0.014761 650690.000000 0 0 1
11.155067 8.474469 -29.258700 32.439539 0.649678 2.695050 0.038138 -0.016877 708472.000000 0 0 1
11.992267 7.285169 -29.348940 32.530731 0.545908 2.695619 0.014586 -0.005186 12502.800000 0 0 1
13.436067 7.518469 -28.873930 32.722456 0.510164 2.651712 0.024133 -0.010829 227982.000000 0 0 1
14.247167 6.380069 -28.580260 32.565600 0.421034 2.641673 0.026234 -0.009770 214691.000000 0 0 1
14.956267 5.845469 -29.663140 33.730718 0.372583 2.645418 0.030227 -0.013267 -701437.000000 0 0 1
15.803067 4.624769 -29.245460 33.562216 0.284700 2.628805 0.047653 -0.016545 178566.000000 0 0 1
16.703167 5.046769 -28.226850 33.184646 0.293423 2.587921 0.040272 -0.014206 -173953.000000 0 0 1
17.546167 4.035569 -27.826510 33.143151 0.226066 2.567316 0.045364 -0.011817 -139011.000000 0 0 1
18.269467 4.269369 -26.422480 32.405993 0.229569 2.524143 0.044577 -0.006734 4870.420000 0 0 1
19.313567 5.192569 -26.473150 33.178371 0.262645 2.494606 0.060493 -0.011646 -35846.400000 0 0 1
19.717267 5.720869 -25.198040 32.502926 0.282391 2.457914 0.058928 -0.010658 211454.000000 0 0 1
20.919367 6.692769 -25.251220 33.466957 0.309641 2.425707 0.049269 -0.011557 -169610.000000 0 0 1
20.504367 7.962169 -25.766030 33.877921 0.370393 2.434964 0.062094 -0.011610 528541.000000 0 0 1
21.425667 8.594769 -26.657460 35.263997 0.381492 2.427885 0.078358 -0.016038 -652544.000000 0 0 1
21.281667 8.287669 -28.223430 36.306430 0.371359 2.461266 0.069772 -0.029407 547000.000000 0 0 1
20.095867 8.682969 -28.934370 36.282718 0.407850 2.493886 0.073712 -0.030209 742120.000000 0 0 1
18.893167 8.037169 -28.571110 35.183181 0.402210 2.518482 0.070838 -0.024240 -444458.000000 0 0 1
17.662067 8.472269 -29.366600 35.300498 0.447266 2.553325 0.057466 -0.025456 -485249.000000 0 0 1
17.622767 8.186769 -30.717590 36.347702 0.434893 2.577556 0.054648 -0.020776 -26584.900000 0 0 1
16.610367 8.889969 -31.377960 36.599348 0.491414 2.600869 0.039466 -0.016328 -679385.000000 0 0 1
16.273967 8.340569 -32.788930 37.543589 0.473605 2.632847 0.019670 -0.005457 167916.000000 0 0 1
15.407867 7.209069 -32.706840 36.866115 0.437625 2.661991 0.024605 0.001890 156921.000000 0 0 1
14.044167 7.478769 -32.917940 36.561748 0.489322 2.691342 0.015693 0.003911 324454.000000 0 0 1
13.115867 6.191669 -33.058840 36.100549 0.441059 2.728151 0.024253 -0.005945 456807.000000 0 0 1
12.672467 5.574869 -31.901780 34.776345 0.414440 2.732146 0.023824 -0.009838 -5300.760000 0 0 1
12.039667 4.369069 -32.367460 34.809407 0.348111 2.764796 0.017495 -0.014672 41063.200000 0 0 1
12.062467 3.160669 -31.422670 33.806466 0.256264 2.763816 0.030507 -0.015042 38510.100000 0 0 1
13.264467 2.428669 -31.232170 34.019009 0.181090 2.734006 0.025587 -0.018720 82050.400000 0 0 1
13.247667 1.472069 -30.211090 33.020867 0.110665 2.726079 0.034103 -0.019611 215319.000000 0 0 1
12.336567 0.193269 -30.400080 32.808431 0.015665 2.756047 0.028250 -0.013141 325379.000000 0 0 1
12.822167 -0.799331 -31.259250 33.796266 -0.062259 2.751653 0.022139 -0.014787 -108044.000000 0 0 1
13.959067 -1.514131 -30.819850 33.867556 -0.108047 2.714107 0.027033 -0.014302 123280.000000 0 0 1
14.316867 -2.835231 -31.596480 34.804436 -0.195505 2.708874 0.022090 -0.016193 656488.000000 0 0 1
13.357467 -3.906531 -31.412700 34.357541 -0.284525 2.724544 0.030863 -0.023727 804619.000000 0 0 1
13.712767 -5.027231 -32.259950 35.412108 -0.351394 2.716466 0.044065 -0.021608 84255.500000 0 0 1
12.838367 -6.261831 -31.999430 35.042799 -0.453794 2.721749 0.052323 -0.026877 -106819.000000 0 0 1
13.362267 -6.914231 -30.823980 34.299774 -0.477506 2.687511 0.062163 -0.018704 602806.000000 0 0 1
12.881967 -8.251331 -30.826730 34.413905 -0.569692 2.680943 0.077458 -0.033852 170007.000000 0 0 1
13.287567 -8.893131 -29.451560 33.511813 -0.589811 2.644224 0.071072 -0.036119 -690985.000000 0 0 1
14.624667 -9.255931 -29.395280 34.112104 -0.564259 2.609458 0.086494 -0.038386 -558024.000000 0 0 1
14.977267 -10.020031 -28.209260 33.473600 -0.589627 2.573134 0.098042 -0.037122 36180.800000 0 0 1
14.828667 -11.558731 -28.202190 33.894795 -0.662106 2.553591 0.086753 -0.029079 289360.000000 0 0 1
13.469267 -11.898831 -28.454670 33.655187 -0.723571 2.578253 0.080940 -0.034733 404106.000000 0 0 1
13.378267 -13.267031 -28.822170 34.434135 -0.781223 2.562616 0.087821 -0.033059 77706.300000 0 0 1
-10.041633 -3.215531 -17.335070 20.289867 0.309902 2.595135 0.014298 -0.002101 273271.000000 0 1 0
-10.846233 -2.710531 -18.374770 21.508601 0.244889 2.594996 0.022913 -0.009264 -539452.000000 0 1 0
-11.631433 -3.668031 -18.922370 22.512236 0.305484 2.569070 0.016913 -0.004751 -851970.000000 0 1 0
-12.332933 -3.277931 -20.261270 23.945044 0.259781 2.579529 0.025916 -0.009552 -775485.000000 0 1 0
-13.323133 -2.349031 -19.983570 24.132279 0.174519 2.546479 0.018735 -0.006011 -386137.000000 0 1 0
-14.073133 -2.033331 -21.138570 25.476002 0.143490 2.549446 0.019501 -0.005024 545213.000000 0 0 1
-14.970533 -0.710031 -21.021070 25.816785 0.047393 2.522216 0.027450 -0.012326 560468.000000 0 0 1
-14.340133 0.531969 -21.257670 25.647826 -0.037080 2.547808 0.032941 -0.014997 -455216.000000 0 0 1
-15.197433 1.550269 -20.916670 25.901205 -0.101657 2.510793 0.031305 -0.011201 -259569.000000 0 0 1
-14.758133 2.891969 -21.634070 26.347656 -0.193506 2.534133 0.064747 -0.021630 358232.000000 0 0 1
-13.643833 3.559269 -21.066370 25.349843 -0.255183 2.551745 0.068119 -0.023048 163277.000000 0 0 1
-13.471033 4.883069 -21.557470 25.885085 -0.347755 2.554969 0.085776 -0.031054 623115.000000 0 0 1
-12.165533 5.584869 -21.007470 24.909933 -0.430373 2.574259 0.066424 -0.028343 668354.000000 0 1 0
-12.260233 5.954369 -19.632270 23.899662 -0.452114 2.534737 0.069768 -0.034060 -119395.000000 0 1 0
-11.028233 6.432969 -19.184370 23.044415 -0.528063 2.554393 0.046699 -0.021529 -616919.000000 0 1 0
-11.032833 7.091969 -17.813470 22.121012 -0.571301 2.506933 0.044812 -0.018023 -132664.000000 0 1 0
-11.485933 8.457169 -17.652970 22.695324 -0.634680 2.461993 0.037747 -0.025861 -298426.000000 0 1 0
-12.743533 8.415069 -17.049570 22.888837 -0.583610 2.411160 0.062589 -0.009558 -561896.000000 0 1 0
-13.476333 9.807969 -17.064070 23.853518 -0.629136 2.367949 0.071936 -0.011797 -163697.000000 0 1 0
-12.898333 10.840769 -16.260170 23.415431 -0.698940 2.338411 0.037836 -0.000426 241510.000000 0 1 0
-13.497433 12.115069 -16.459170 24.492037 -0.731478 2.307731 0.048539 -0.010797 -350267.000000 0 1 0
-12.898533 13.254269 -15.665570 24.237531 -0.799000 2.273568 0.052415 -0.008491 -573370.000000 0 1 0
-13.397533 13.396569 -14.381970 23.786615 -0.785362 2.220091 0.068767 -0.009074 105493.000000 0 1 0
-12.787133 14.464069 -13.649070 23.643544 -0.846857 2.186196 0.068600 -0.018309 -549900.000000 0 1 0
-13.275033 14.621469 -12.160270 23.192370 -0.833626 2.122715 0.064954 -0.025368 -399673.000000 0 1 0
-14.599433 15.008669 -12.000770 24.133423 -0.799219 2.091243 0.069040 -0.024239 136025.000000 0 1 0
-15.585833 13.968169 -12.235470 24.243240 -0.730717 2.099826 0.061790 -0.023582 -528195.000000 0 1 0
-16.995233 14.354969 -11.815170 25.189310 -0.701378 2.059017 0.042020 -0.009707 69148.900000 0 0 1
-18.015533 13.515269 -12.392870 25.706131 -0.643630 2.073844 0.031176 -0.017029 2199580.000000 0 0 1
-19.349333 13.889969 -11.892370 26.622479 -0.622607 2.033874 0.059497 -0.025905 1717670.000000 0 0 1
-20.549733 13.233269 -12.615170 27.505517 -0.572120 2.047262 0.065826 -0.028045 -144362.000000 0 0 1
-20.788333 11.926569 -12.131570 26.862108 -0.520868 2.039381 0.081320 -0.028847 89494.400000 0 0 1
-21.819233 11.398769 -12.914970 27.799412 -0.481421 2.053953 0.115164 -0.030891 -400429.000000 0 0 1
-22.471133 10.187369 -12.203170 27.525473 -0.425639 2.030119 0.114464 -0.031657 -771199.000000 0 0 1
-21.632233 9.117269 -12.221670 26.465966 -0.398874 2.050806 0.110950 -0.033585 -252309.000000 0 0 1
-22.184133 7.990769 -11.638370 26.295243 -0.345734 2.029296 0.111815 -0.026968 -561081.000000 0 0 1
-21.174333 6.849669 -11.563570 25.079603 -0.312865 2.050002 0.126747 -0.028087 -265361.000000 0 0 1
-20.828033 6.292569 -12.835370 25.261633 -0.293401 2.103771 0.122841 -0.028385 410404.000000 0 0 1
-19.602033 5.594769 -12.803070 24.071970 -0.278026 2.131599 0.113457 -0.037001 -14714.300000 0 1 0
-19.612633 4.415369 -13.764470 24.364144 -0.221437 2.171166 0.124927 -0.047370 -180658.000000 0 1 0
-20.301633 3.325669 -13.176270 24.430114 -0.162371 2.140456 0.113931 -0.048548 420172.000000 0 1 0
-20.222433 2.217069 -14.085370 24.743885 -0.109198 2.176385 0.109583 -0.048606 -633749.000000 0 1 0
-21.042233 0.994369 -13.702570 25.130157 -0.047221 2.147500 0.101544 -0.041286 -1104490.000000 0 0 1
-22.398333 1.107469 -13.943870 26.407259 -0.049404 2.127077 0.093285 -0.041768 -711803.000000 0 0 1
-23.040533 -0.136531 -13.769970 26.842073 0.005926 2.109472 0.089448 -0.041474 -337365.000000 0 0 1
-24.200433 -0.355531 -14.756770 28.346951 0.014690 2.118323 0.102492 -0.031846 -129030.000000 0 0 1
-25.432853 0.157669 -14.261370 29.158902 -0.006199 2.081844 0.121845 -0.043777 -35508.600000 0 0 1
-26.448773 -0.521731 -14.951270 30.386679 0.019724 2.085221 0.119316 -0.026489 -630011.000000 0 0 1
-27.858003 -0.181031 -14.465370 31.390254 0.006498 2.049719 0.118962 -0.030380 -565935.000000 0 0 1
-28.234303 -0.812231 -13.277670 31.211090 0.028760 2.010217 0.125420 -0.027948 34413.500000 0 0 1
-29.507533 -0.342831 -12.888870 32.201475 0.011618 1.982594 0.150104 -0.028807 34785.200000 0 0 1
-29.972013 -0.777131 -11.476670 32.103574 0.025923 1.936374 0.135678 -0.030430 -311051.000000 0 0 1
-30.313883 -2.133931 -11.234970 32.399224 0.070279 1.924918 0.135746 -0.019875 436096.000000 0 0 1
-29.333783 -3.131331 -11.481970 31.656148 0.106346 1.941970 0.129897 -0.025889 -342573.000000 0 0 1
-29.590963 -4.532131 -10.895170 31.857025 0.151978 1.919843 0.131346 -0.026736 33448.100000 0 0 1
-30.783073 -5.094031 -11.441470 33.233326 0.163995 1.922265 0.114007 -0.018392 733393.000000 0 0 1
-31.136643 -6.382831 -10.864870 33.589827 0.202193 1.900177 0.107241 -0.019239 7163.700000 0 0 1
-30.408793 -7.672531 -11.422170 33.377064 0.247154 1.920071 0.101445 -0.021002 -227705.000000 0 0 1
-29.065803 -7.718431 -11.030670 32.032339 0.259560 1.922354 0.112961 -0.014914 -390764.000000 0 0 1
-28.430543 -8.812731 -11.650370 31.963904 0.300582 1.943876 0.114004 -0.016791 -98345.300000 0 0 1
-26.899183 -8.885131 -11.507270 30.576607 0.319029 1.956641 0.098465 -0.021671 -330504.000000 0 0 1
-26.220993 -7.722231 -12.099070 29.892488 0.286409 1.987505 0.084103 -0.014838 1707780.000000 0 0 1
-24.817133 -7.622531 -11.760670 28.500990 0.298002 1.996148 0.101231 -0.020384 994777.000000 0 0 1
-24.374233 -7.513531 -10.282470 27.500647 0.299015 1.954006 0.109636 -0.021523 -795797.000000 0 0 1
-24.594133 -6.260131 -9.615970 27.139040 0.249245 1.932986 0.108105 -0.012972 520208.000000 0 0 1
-25.931953 -6.019231 -9.223170 28.173821 0.228077 1.904312 0.113574 -0.022114 -165047.000000 0 0 1
-26.074633 -4.663231 -8.487470 27.814913 0.176971 1.880883 0.120268 -0.030457 -174433.000000 0 0 1
-25.808293 -4.652231 -7.088670 27.165428 0.178346 1.834797 0.115576 -0.022514 452833.000000 0 0 1
-26.172793 -3.340831 -6.646370 27.209382 0.126959 1.817561 0.153735 -0.032729 30497.600000 0 0 1
-25.984723 -3.164931 -5.158870 26.680265 0.121203 1.765381 0.146841 -0.027546 -143241.000000 0 0 1
-24.629833 -3.377931 -4.833970 25.326002 0.136298 1.762845 0.114688 -0.019949 139452.000000 0 0 1
-24.449033 -3.286131 -3.423570 24.905315 0.133607 1.708696 0.081806 -0.013673 888808.000000 0 1 0
-22.965633 -3.679131 -3.056070 23.458386 0.158852 1.701444 0.069382 -0.012792 904379.000000 0 1 0
-22.753633 -5.077431 -3.030970 23.509464 0.219551 1.700082 0.074050 -0.007031 -173863.000000 0 1 0
-21.441733 -5.381531 -2.679070 22.268503 0.245905 1.691396 0.055831 -0.008810 -589279.000000 0 1 0
-21.219433 -6.871531 -2.593470 22.454584 0.313175 1.686553 0.064666 -0.010743 -59407.600000 0 1 0
-21.973333 -7.380131 -1.480570 23.226833 0.324030 1.634584 0.069605 -0.001728 355982.000000 0 1 0
-22.613633 -8.527931 -1.865470 24.240090 0.360623 1.647831 0.081954 -0.016546 -383785.000000 0 1 0
-23.176733 -9.295831 -0.679970 24.980708 0.381441 1.598020 0.090572 -0.021320 212104.000000 0 1 0
-22.133733 -9.824331 0.142630 24.216522 0.417738 1.564907 0.077326 -0.016970 608748.000000 0 1 0
-22.616333 -10.761931 1.102230 25.070552 0.444140 1.526817 0.067500 -0.011870 105848.000000 0 0 1
-21.462233 -11.388631 1.915730 24.372082 0.487855 1.492112 0.063096 -0.007328 47860.700000 0 1 0
-20.636233 -12.208331 1.124130 24.003356 0.534218 1.523947 0.060148 -0.006522 610997.000000 0 1 0
-19.495733 -12.616131 1.891530 23.298675 0.574350 1.489521 0.045688 -0.007453 706381.000000 0 1 0
-18.687533 -13.776931 1.210530 23.248507 0.635275 1.518704 0.048901 -0.000875 -125091.000000 0 1 0
-19.581033 -14.873131 1.051230 24.611622 0.649597 1.528071 0.066510 -0.002846 657670.000000 0 1 0
-19.047933 -16.041831 0.430530 24.906815 0.699938 1.553510 0.063301 -0.001305 -266271.000000 0 1 0
-17.889733 -16.744331 1.173430 24.531451 0.752339 1.522944 0.077185 0.003669 -425095.000000 0 1 0
-16.730233 -15.942331 1.188930 23.140271 0.761288 1.519394 0.079276 0.000730 345760.000000 0 1 0
-15.620233 -16.541931 1.910330 22.831481 0.814048 1.487028 0.077665 -0.003605 834643.000000 0 1 0
-15.606933 -16.552031 3.478530 23.014045 0.814778 1.419067 0.089283 -0.004278 -431398.000000 0 1 0
-15.325233 -15.263231 4.069930 22.008937 0.783371 1.384804 0.066802 -0.008134 -211334.000000 0 1 0
-14.292933 -15.194331 5.007030 21.452878 0.815958 1.335227 0.034420 -0.005065 -222244.000000 0 1 0
-14.720233 -15.617331 6.439630 22.406586 0.814960 1.279286 0.050702 -0.007101 -828248.000000 0 1 0
-15.592833 -14.687731 7.053930 22.552689 0.755517 1.252683 0.045499 -0.003392 280161.000000 0 1 0
-15.819133 -14.958331 8.402230 23.336540 0.757437 1.202479 0.051757 -0.002093 -254170.000000 0 1 0
-16.691933 -16.203031 8.745530 24.852427 0.770537 1.211198 0.052971 -0.002689 -425784.000000 0 1 0
-16.041133 -17.439631 8.529930 25.183693 0.827144 1.225252 0.049822 -0.004287 -559196.000000 0 0 1
-16.804133 -18.506331 8.906830 26.536669 0.833567 1.228509 0.068654 -0.017175 -503796.000000 0 0 1
-16.580833 -18.944431 10.410830 27.243363 0.851833 1.178683 0.073576 -0.014518 -47933.700000 0 0 1
-15.260233 -19.404131 10.569530 26.853491 0.904377 1.166252 0.048429 -0.010873 -107689.000000 0 0 1
-15.022533 -19.867231 11.906230 27.606913 0.923373 1.124889 0.053333 -0.017307 -67791.600000 0 0 1
-13.670333 -20.502731 12.278130 27.531663 0.982731 1.108545 0.052225 -0.017489 199242.000000 0 0 1
-12.575633 -19.633331 12.049030 26.244873 1.001111 1.093814 0.049487 -0.015258 -101135.000000 0 0 1
-11.333933 -20.295531 12.135130 26.222662 1.061493 1.089676 0.052192 -0.019276 -241606.000000 0 0 1
-10.132033 -19.436731 12.433730 25.200044 1.090268 1.054801 0.040531 -0.018225 -574320.000000 0 0 1
-9.643533 -18.700831 11.337330 23.900917 1.094688 1.076574 0.034971 -0.020126 13282.300000 0 1 0
-8.561933 -17.930831 11.856130 23.138479 1.125312 1.032820 0.026728 -0.018143 729905.000000 0 1 0
-7.617033 -17.152731 10.857830 21.682431 1.152884 1.046313 0.012612 -0.023974 409731.000000 0 1 0
-6.660033 -17.959331 10.244330 21.721876 1.215678 1.079677 0.019784 -0.023901 -573020.000000 0 1 0
-5.953133 -17.323631 9.237130 20.515178 1.239797 1.103742 0.017986 -0.021288 102497.000000 0 1 0
-4.901333 -18.273031 8.584530 20.775487 1.308737 1.144826 0.017153 -0.013873 605791.000000 0 1 0
-3.580933 -18.196331 9.072530 20.645589 1.376485 1.115819 0.025040 -0.018194 164495.000000 0 1 0
-2.615033 -18.958431 8.350330 20.880338 1.433726 1.159374 0.038048 -0.015742 339674.000000 0 1 0
-1.180233 -18.863531 8.856530 20.872562 1.508311 1.132592 0.038287 -0.029972 -89360.500000 0 1 0
-0.244533 -19.629031 8.116430 21.242294 1.558339 1.178741 0.049780 -0.011302 943755.000000 0 1 0
1.015367 -19.852131 8.804030 21.740492 -1.519694 1.153861 0.055794 -0.018500 1460980.000000 0 1 0
2.196967 -20.305031 7.879030 21.890638 -1.463017 1.202607 0.056273 -0.025193 353077.000000 0 1 0
2.201567 -21.625831 7.358530 22.949323 -1.469343 1.244389 0.058682 -0.024593 -255512.000000 0 1 0
2.381867 -22.625531 8.385130 24.246615 -1.465909 1.217676 0.065153 -0.024846 -140309.000000 0 1 0
1.780567 -23.985531 8.056830 25.365106 -1.496697 1.247563 0.043186 -0.022799 -159457.000000 0 0 1
1.829367 -24.839331 9.154030 26.535546 -1.497281 1.218587 0.057715 -0.018725 -317922.000000 0 0 1
1.486167 -26.110961 8.724130 27.569937 -1.513940 1.248826 0.060558 -0.015913 -935987.000000 0 0 1
1.700067 -27.233591 9.764130 28.980975 -1.508452 1.227158 0.066029 -0.016516 -12626.000000 0 0 1
0.969567 -27.125001 10.973730 29.276756 -1.535067 1.186586 0.055364 -0.014914 -444211.000000 0 0 1
-0.404733 -27.340001 10.760530 29.384153 1.555994 1.195872 0.041313 -0.006832 -308548.000000 0 0 1
-1.177133 -27.388161 12.095430 29.963251 1.527843 1.155266 0.035930 -0.009564 425253.000000 0 0 1
-0.669133 -28.522401 12.851530 31.291163 1.547341 1.147566 0.041266 -0.009795 184411.000000 0 0 1
-1.170133 -28.423651 14.179530 31.785723 1.529652 1.108396 0.033178 -0.013740 -4771.420000 0 0 1
-0.637833 -29.564941 15.050330 33.181395 1.549226 1.100021 0.029048 -0.001595 117532.000000 0 0 1
-0.874033 -29.270811 16.397830 33.562376 1.540945 1.060337 0.033469 -0.006849 -62203.400000 0 0 1
-0.480833 -30.318911 17.275830 34.898737 1.554938 1.052930 0.028215 -0.004451 26701.800000 0 0 1
-0.693933 -29.989891 18.776030 35.389467 1.547662 1.011542 0.040989 -0.010778 -273870.000000 0 0 1
-2.063033 -30.100881 19.041830 35.677870 1.502366 1.007808 0.029195 -0.006580 -292994.000000 0 0 1
-2.415633 -30.041611 20.429930 36.410379 1.490559 0.975080 0.048812 -0.017008 139759.000000 0 0 1
-3.941533 -29.980461 20.672030 36.629176 1.440076 0.971139 0.068879 -0.028141 -156699.000000 0 0 1
-4.585933 -28.885241 20.017930 35.441578 1.413347 0.970587 0.048890 -0.024448 206674.000000 0 0 1
-5.940033 -28.669511 20.350330 35.656146 1.366497 0.963392 0.057208 -0.030716 191153.000000 0 0 1
-6.081833 -27.805841 21.624430 35.745901 1.355462 0.921095 0.068290 -0.032689 -562342.000000 0 0 1
-5.439033 -28.305731 22.764430 36.728963 1.380957 0.902315 0.069043 -0.033777 -86784.600000 0 0 1
-5.529733 -27.337981 23.811330 36.673186 1.371216 0.864153 0.061823 -0.029979 -258603.000000 0 0 1
-4.467533 -27.430651 24.937530 37.340057 1.409347 0.839481 0.069242 -0.029771 -44607.000000 0 0 1
-4.665033 -28.555841 25.755330 38.736747 1.408862 0.843462 0.075864 -0.025671 242402.000000 0 0 1
-4.163533 -29.799331 25.267530 39.291006 1.431976 0.872274 0.071055 -0.027330 -176751.000000 0 0 1
-4.522733 -30.927181 26.257930 40.821863 1.425587 0.872084 0.081682 -0.022150 -185682.000000 0 0 1
-3.946633 -30.796481 27.548530 41.508079 1.443339 0.845054 0.066387 -0.021962 122682.000000 0 0 1
-4.339333 -31.877641 28.370030 42.893733 1.435503 0.848109 0.055963 -0.021582 -403644.000000 0 0 1
-3.705233 -31.909571 29.732830 43.772030 1.455197 0.824035 0.076293 -0.026679 413926.000000 0 0 1
-2.278033 -32.023221 29.733830 43.758162 1.499779 0.823710 0.075146 -0.029558 776331.000000 0 0 1
-1.727833 -31.850671 31.028930 44.499945 1.516602 0.799200 0.087880 -0.038327 -65100.100000 0 0 1
-28.467663 2.656269 -10.143470 30.337330 -0.093039 1.911718 0.131379 -0.034208 160169.000000 0 0 1
-29.393973 2.416269 -11.212870 31.552694 -0.082018 1.934106 0.126993 -0.050816 407906.000000 0 0 1
-29.791963 3.660969 -11.771070 32.241617 -0.122271 1.944525 0.118287 -0.044988 -648195.000000 0 0 1
-30.669233 3.502869 -12.980270 33.486704 -0.113722 1.968850 0.113002 -0.029065 -1061930.000000 0 0 1
-31.824423 2.825669 -12.644270 34.360673 -0.088557 1.947639 0.117136 -0.031578 -805523.000000 0 0 1
-32.707753 2.695569 -13.703870 35.564860 -0.082228 1.966351 0.120439 -0.023831 -804989.000000 0 0 1
-33.875643 1.764069 -13.458770 36.493967 -0.052028 1.948508 0.111193 -0.023507 -496040.000000 0 0 1
-33.506363 0.381969 -13.382270 36.081954 -0.011399 1.950759 0.120643 -0.019157 407125.000000 0 0 1
-34.433085 -0.416031 -12.631270 36.679141 0.012082 1.922366 0.107764 -0.019270 237164.000000 0 0 1
-33.968483 -1.842031 -12.371970 36.198295 0.054175 1.919610 0.094718 -0.023256 -76455.000000 0 0 1
-34.079971 -2.747531 -13.435070 36.735466 0.080446 1.945208 0.102470 -0.019079 206404.000000 0 0 1
-33.909673 -4.080131 -12.871170 36.499047 0.119748 1.931191 0.109836 -0.018521 110169.000000 0 0 1
-34.172103 -5.190931 -13.932770 37.266613 0.150753 1.953972 0.096240 -0.018580 110148.000000 0 0 1
-33.893503 -6.508631 -13.466070 37.046820 0.189722 1.942805 0.087706 -0.023840 374921.000000 0 0 1
-34.625259 -7.570531 -14.085470 38.139507 0.215254 1.949068 0.086470 -0.018768 -768673.000000 0 0 1
-34.375606 -8.865231 -13.252870 37.893445 0.252394 1.928090 0.090893 -0.020499 -657092.000000 0 0 1
-33.052823 -9.326631 -13.132870 36.768838 0.275023 1.936037 0.079433 -0.020730 51504.000000 0 0 1
-32.434763 -9.647631 -14.343170 36.753465 0.289113 1.971703 0.068467 -0.028558 -1113980.000000 0 0 1
-31.136873 -10.427031 -14.183870 35.768841 0.323139 1.978544 0.072334 -0.029107 -473223.000000 0 0 1
-31.507573 -11.699331 -13.676370 36.285598 0.355539 1.957253 0.065490 -0.027599 554385.000000 0 0 1
-30.442503 -12.636531 -13.576070 35.647406 0.393451 1.961504 0.096883 -0.030332 -215446.000000 0 0 1
-30.726453 -14.044231 -14.147870 36.626733 0.428720 1.967382 0.106690 -0.032307 -419433.000000 0 0 1
-30.689873 -14.038131 -15.572070 37.167550 0.429006 2.003106 0.106565 -0.034508 45439.700000 0 0 1
-30.797673 -15.332731 -16.123870 37.994322 0.461929 2.009069 0.104777 -0.037175 -455777.000000 0 0 1
-29.632753 -16.303631 -15.942570 37.390827 0.502989 2.011279 0.101380 -0.034392 -1571260.000000 0 0 1
-28.405013 -15.818831 -16.240470 36.343267 0.508127 2.034052 0.111787 -0.036886 -1872740.000000 0 0 1
-27.407483 -16.801331 -16.183770 35.991239 0.549938 2.037179 0.108686 -0.038911 327469.000000 0 0 1
-25.969943 -16.358531 -16.550570 34.870630 0.562117 2.065337 0.118036 -0.046396 304016.000000 0 0 1
-25.838373 -16.133731 -17.881770 35.322464 0.558175 2.101620 0.122019 -0.043826 -295491.000000 0 0 1
-24.500333 -15.924531 -18.248170 34.450729 0.576356 2.129030 0.111720 -0.036626 -333889.000000 0 0 1
-24.418333 -15.513831 -19.734970 35.020037 0.565997 2.169453 0.118024 -0.036552 227623.000000 0 0 1
-24.906233 -16.517831 -20.692670 36.350320 0.585599 2.176398 0.098150 -0.040130 1042640.000000 0 0 1
-26.287353 -16.323331 -21.032670 37.414560 0.555687 2.167782 0.108545 -0.043752 403975.000000 0 0 1
-26.925003 -17.467131 -21.796570 38.796223 0.575484 2.167383 0.103330 -0.039527 -323467.000000 0 0 1
-26.457153 -17.603331 -23.129070 39.304098 0.587092 2.199955 0.093760 -0.028313 39717.400000 0 0 1
-26.894103 -18.820531 -23.685670 40.478589 0.610593 2.195850 0.074809 -0.022033 -766968.000000 0 0 1
-26.296793 -19.226231 -25.003770 41.065287 0.631311 2.225442 0.061153 -0.026379 -142600.000000 0 0 1
-24.916233 -19.509331 -25.044560 40.356693 0.664287 2.240279 0.058499 -0.026319 -182189.000000 0 0 1
-24.597433 -20.776331 -24.600470 40.520029 0.701382 2.223226 0.061088 -0.023775 -319261.000000 0 0 1
-23.078833 -21.076731 -24.593570 39.770653 0.740087 2.237482 0.062088 -0.018719 283904.000000 0 0 1
-22.493533 -21.135331 -25.885450 40.282971 0.754277 2.268671 0.055790 -0.021499 171292.000000 0 0 1
-21.095633 -21.390631 -25.787560 39.592715 0.792341 2.280120 0.049584 -0.019156 228384.000000 0 0 1
-20.500933 -21.499031 -27.198210 40.277031 0.809158 2.312138 0.044036 -0.015746 -385335.000000 0 0 1
-20.881433 -22.627631 -27.960900 41.591536 0.825511 2.308072 0.080047 -0.018503 -236190.000000 0 0 1
-21.392133 -22.277631 -29.225290 42.520980 0.805673 2.328582 0.086646 -0.010535 -163055.000000 0 0 1
-20.378333 -22.267831 -30.379690 42.825907 0.829676 2.359409 0.079910 -0.015000 89592.500000 0 0 1
-19.805433 -23.504431 -30.782400 43.500225 0.870599 2.356946 0.087162 -0.024713 84658.400000 0 0 1
-19.171833 -23.383831 -32.033660 44.051312 0.884053 2.385015 0.077502 -0.017599 -97161.900000 0 0 1
-18.843333 -24.839631 -32.563290 45.082661 0.921814 2.377921 0.088595 -0.020283 41924.200000 0 0 1
-18.253433 -24.855531 -33.881550 45.814241 0.937366 2.403186 0.077171 -0.020436 413958.000000 0 0 1
-19.156033 -24.685131 33.249529 45.627190 0.910852 0.754343 0.085251 -0.011007 506083.000000 0 0 1
-18.412033 -24.527831 31.868592 44.229228 0.926874 0.766227 0.083709 -0.010483 505950.000000 0 0 1
-17.577633 -23.369731 31.760562 43.172339 0.925918 0.744142 0.063469 -0.005352 31491.600000 0 0 1
-16.965533 -23.245231 30.502342 41.935223 0.940316 0.756317 0.069459 -0.005384 35915.900000 0 0 1
-16.277633 -21.885331 30.322832 40.784840 0.931295 0.732533 0.069223 -0.005352 298755.000000 0 0 1
-17.194233 -20.809431 30.082122 40.417919 0.880240 0.731345 0.058358 -0.010085 620925.000000 0 0 1
-16.536933 -19.510431 29.931612 39.370401 0.867700 0.707088 0.059239 -0.008969 205681.000000 0 0 1
-15.895233 -18.897531 31.233172 39.815652 0.871476 0.668996 0.064690 -0.014596 100785.000000 0 0 1
-15.407833 -17.624731 30.925082 38.786508 0.852410 0.647962 0.071784 -0.019048 -579542.000000 0 0 1
-14.610433 -17.139431 31.951122 39.090908 0.864884 0.613992 0.066715 -0.024074 -273491.000000 0 0 1
-13.967333 -15.809031 31.574522 37.973179 0.847170 0.589002 0.074600 -0.026980 -398530.000000 0 0 1
-12.953233 -15.909831 30.605472 36.845677 0.887477 0.590541 0.089755 -0.030942 -58450.000000 0 0 1
-12.435333 -14.642231 30.277112 35.857161 0.866721 0.565387 0.076014 -0.029593 -99985.500000 0 0 1
-10.912533 -14.508031 30.445702 35.447244 0.925907 0.537675 0.094722 -0.037981 -98739.800000 0 0 1
-10.470733 -13.205031 30.049962 34.453002 0.900378 0.511111 0.097146 -0.036918 77487.000000 0 0 1
-9.162533 -13.029131 30.584392 34.483551 0.957903 0.480147 0.082918 -0.034492 289730.000000 0 0 1
-8.746733 -11.564531 30.485922 33.758483 0.923249 0.443956 0.079163 -0.032608 70995.800000 0 0 1
-9.641033 -10.718631 31.233712 34.400339 0.838277 0.432435 0.079125 -0.027476 366420.000000 0 0 1
-9.237333 -9.372431 31.418352 34.062937 0.792658 0.396646 0.056484 -0.019374 250313.000000 0 0 1
-10.153333 -8.592031 32.459237 35.078701 0.702300 0.388902 0.043398 -0.017111 338330.000000 0 0 1
-11.403733 -8.260531 31.907142 34.876170 0.626896 0.415612 0.053358 -0.019802 -184117.000000 0 0 1
-12.357833 -7.666031 32.767246 35.849358 0.555240 0.417696 0.040499 -0.023061 73122.600000 0 0 1
-12.157733 -6.215731 33.261269 35.954941 0.472613 0.389545 0.028269 -0.014125 -465008.000000 0 0 1
-12.002533 -5.284031 32.232468 34.798187 0.414710 0.386408 0.030352 -0.013511 293078.000000 0 0 1
-12.112233 -3.942531 32.697840 35.091288 0.314684 0.371473 0.021156 -0.016230 -314495.000000 0 0 1
-11.590433 -2.965131 31.595432 33.784634 0.250454 0.361969 0.012565 -0.005166 276994.000000 0 0 1
-10.234233 -2.585431 31.812782 33.518310 0.247448 0.320378 0.012060 -0.005040 254094.000000 0 0 1
-9.838133 -1.632631 30.848532 32.420461 0.164451 0.312674 0.011548 0.003070 -212194.000000 0 0 1
-8.351233 -1.359131 31.123042 32.252660 0.161332 0.265445 0.021029 0.003422 -283762.000000 0 0 1
-8.259333 -0.760231 32.353663 33.399911 0.091786 0.250957 0.029759 -0.011749 -587282.000000 0 0 1
-6.918433 -0.519631 32.651261 33.380228 0.074967 0.209372 0.053773 -0.013781 -525320.000000 0 0 1
-6.682133 0.019869 34.057388 34.706729 -0.002973 0.193742 0.072689 -0.026982 -651136.000000 0 0 1
-7.053733 1.330269 -33.826540 34.579757 -0.186402 2.932492 0.068526 -0.017697 195826.000000 0 0 1
-6.461733 2.390069 33.605588 34.304548 -0.354275 0.202211 0.084106 -0.016793 299830.000000 0 0 1
-7.215033 3.726669 33.770915 34.733550 -0.476772 0.235982 0.074828 -0.014937 1164170.000000 0 0 1
-8.516333 3.779569 33.141209 34.426048 -0.417688 0.274066 0.043280 -0.003620 1128560.000000 0 0 1
-9.237233 4.992369 33.411279 35.022333 -0.495491 0.304492 0.038540 0.013066 309282.000000 0 0 1
-10.438433 5.275269 32.496390 34.537005 -0.467934 0.345474 0.023559 0.013725 84972.000000 0 0 1
-11.140333 6.485869 32.642708 35.095868 -0.527226 0.376108 0.022576 0.008913 -190189.000000 0 0 1
-12.239633 6.591169 31.790342 34.696945 -0.493979 0.412232 -0.004534 0.010365 -245784.000000 0 0 1
-13.127433 7.813269 32.065572 35.518694 -0.536873 0.444606 0.011771 -0.004067 -580079.000000 0 0 1
-14.010033 7.798069 33.108100 36.786373 -0.507901 0.451004 0.003992 -0.000539 -859382.000000 0 0 1
-14.534433 9.079269 33.185230 37.348927 -0.558364 0.476689 0.007364 0.002785 -147216.000000 0 0 1
-15.390533 9.429869 -33.834790 38.348194 -0.549710 2.651533 -0.001058 0.001533 810175.000000 0 0 1
-14.623633 9.438369 -32.617840 36.971029 -0.573148 2.651425 0.012412 -0.006326 589768.000000 0 0 1
-15.570333 9.777869 -31.624840 36.581041 -0.560740 2.614980 0.023792 -0.009558 -291121.000000 0 0 1
-14.918633 9.916969 -30.268380 35.172244 -0.586666 2.607195 0.049224 -0.017172 372614.000000 0 0 1
-14.017533 10.992069 -30.007630 34.896629 -0.665011 2.605871 0.057212 -0.018360 748791.000000 0 0 1
-12.682833 10.795069 -30.498650 34.749899 -0.705165 2.641757 0.053581 -0.024398 594238.000000 0 0 1
-11.877333 12.133169 -30.537000 34.939852 -0.796053 2.634145 0.054610 -0.025179 -330385.000000 0 0 1
-12.334933 13.007769 -31.500330 36.243944 -0.811941 2.624216 0.054483 -0.029659 -219962.000000 0 0 1
-11.659533 14.244569 -31.782110 36.728123 -0.884861 2.616614 0.060203 -0.033542 -98038.800000 0 0 1
-11.842133 15.401969 -30.762230 36.383672 -0.915327 2.578289 0.072090 -0.037224 -189659.000000 0 0 1
-13.193233 15.748569 -30.604940 36.861107 -0.873462 2.550401 0.070404 -0.036220 -163194.000000 0 0 1
-13.369433 16.918769 -29.741770 36.736350 -0.902052 2.514268 0.057572 -0.034931 -81303.000000 0 0 1
-14.835833 17.399169 -29.721060 37.498993 -0.864751 2.485830 0.052665 -0.038820 -187399.000000 0 0 1
-15.156233 18.037869 -30.940270 38.889285 -0.871993 2.490792 0.060448 -0.030910 -42888.900000 0 0 1
-16.527833 18.329069 -31.092570 39.697254 -0.837027 2.470660 0.053255 -0.031407 195216.000000 0 0 1
-16.929533 19.694869 -30.498510 40.058159 -0.860760 2.436198 0.027431 -0.018162 -230259.000000 0 0 1
-16.288333 20.781069 -31.201440 40.874106 -0.906008 2.439287 0.030138 -0.015181 22350.200000 0 0 1
-16.606533 22.025169 -30.719400 41.286397 -0.924753 2.409917 0.016876 -0.006363 383756.000000 0 0 1
-17.980733 22.597569 -31.211340 42.521814 -0.898687 2.395001 0.014359 -0.009626 1256390.000000 0 0 1
-19.131533 22.022769 -30.566860 42.253413 -0.855536 2.379536 0.023627 -0.017929 491863.000000 0 0 1
-20.239433 21.893869 -31.414640 43.311151 -0.824645 2.382302 0.045463 -0.021188 -544446.000000 0 0 1
-21.515833 21.312869 -30.777460 43.178948 -0.780659 2.364262 0.059072 -0.028074 -266038.000000 0 0 1
-22.272233 22.203169 -29.938370 43.420492 -0.783845 2.331593 0.101111 -0.027772 571375.000000 0 0 1
-23.140633 23.124369 -30.572120 44.775885 -0.785047 2.322358 0.105701 -0.020394 898840.000000 0 0 1
-24.491633 22.509469 -31.164620 45.582341 -0.743250 2.323616 0.113250 -0.035049 575558.000000 0 0 1
-24.305933 21.792369 -32.344160 45.954656 -0.730926 2.351568 0.101685 -0.029513 898537.000000 0 0 1
-25.577643 21.478769 -32.955610 46.921483 -0.698512 2.349499 0.113959 -0.032382 827105.000000 0 0 1
-25.475463 20.595369 34.009391 47.220834 -0.679866 0.766677 0.107786 -0.019399 62408.900000 0 0 1
-25.039653 19.220469 -34.058233 46.436773 -0.654671 2.394154 0.106539 -0.025718 248563.000000 0 0 1
-24.744833 18.569169 32.962319 45.206585 -0.643774 0.753719 0.096189 -0.038383 -161404.000000 0 0 1
-24.381633 17.119469 33.100467 44.532923 -0.612165 0.732835 0.067485 -0.016310 114326.000000 0 0 1
-25.477453 16.227069 33.302308 44.960673 -0.567124 0.736687 0.077463 -0.015301 598987.000000 0 0 1
-25.680163 15.321869 32.225298 43.962488 -0.537947 0.748048 0.079155 -0.017520 -476531.000000 0 0 1
-26.514023 14.064669 32.522097 44.254889 -0.487719 0.745304 0.063895 -0.013460 -163583.000000 0 0 1
-27.841613 14.409369 32.880868 45.430572 -0.477587 0.761559 0.063446 -0.006471 -68419.700000 0 0 1
-28.810053 13.410869 32.686441 45.588091 -0.435663 0.771314 0.057414 -0.000332 34364.100000 0 0 1
-28.980483 12.337669 33.826616 46.220412 -0.402483 0.749757 0.037796 -0.003704 -10493.900000 0 0 1
-27.873413 11.443869 33.944347 45.388413 -0.389581 0.725958 0.051121 -0.016165 54070.400000 0 0 1
-28.293443 10.104769 34.102322 45.448803 -0.343023 0.722211 0.053584 -0.014600 -138776.000000 0 0 1
-27.181423 9.088269 -33.716050 44.251536 -0.322671 2.437066 0.054437 -0.021972 733783.000000 0 0 1
-26.136133 8.724269 33.639805 43.483869 -0.322171 0.686269 0.066862 -0.015986 1235670.000000 0 0 1
-25.185253 9.734369 33.201392 42.794711 -0.368824 0.682768 0.064380 -0.030157 519782.000000 0 0 1
-23.960533 9.130969 32.450815 41.358641 -0.364094 0.668713 0.066243 -0.023265 350078.000000 0 0 1
-24.267433 8.807169 31.099052 40.418135 -0.348139 0.692843 0.057235 -0.019162 1032470.000000 0 0 1
-23.007133 8.622169 30.419092 39.102317 -0.358561 0.679422 0.053235 -0.018220 898958.000000 0 0 1
-23.021733 8.585369 28.878142 37.916433 -0.356950 0.704978 0.061780 -0.025028 -234843.000000 0 0 1
-23.319733 9.823169 28.310042 37.970556 -0.398680 0.729393 0.047441 -0.020382 211460.000000 0 0 1
-23.245933 9.718769 26.887192 36.847646 -0.395999 0.752934 0.042080 -0.015185 -704032.000000 0 0 1
-23.459933 11.100669 26.178032 36.863026 -0.441959 0.781095 0.037944 -0.013788 811704.000000 0 0 1
-24.798833 11.605769 26.253922 37.933421 -0.437719 0.806395 0.054400 -0.013463 577415.000000 0 0 1
-25.703723 11.090369 25.305692 37.736663 -0.407337 0.835797 0.053210 -0.005565 -101203.000000 0 0 1
-27.124433 11.677169 25.482342 39.005652 -0.406523 0.858863 0.082521 -0.009657 12575.400000 0 0 1
-27.214043 13.040669 25.099302 39.250964 -0.446861 0.877005 0.089798 -0.011237 239792.000000 0 0 1
-28.345753 13.699569 25.655042 40.612081 -0.450200 0.887040 0.100970 -0.017186 307215.000000 0 0 1
-28.273173 15.197769 25.349792 40.901791 -0.493221 0.902344 0.108735 -0.017114 378787.000000 0 0 1
-27.323313 15.915169 26.149862 41.032565 -0.527434 0.879813 0.133384 -0.019350 437573.000000 0 0 1
-27.362343 17.348069 25.945852 41.507115 -0.565054 0.895544 0.110002 -0.003762 -295361.000000 0 0 1
-22.655333 -9.024231 31.996592 40.230371 0.379063 0.651238 0.049745 -0.017076 -643035.000000 0 0 1
-21.883733 -8.806231 30.869682 38.850801 0.382582 0.652497 0.060177 -0.029974 -430417.000000 0 0 1
-22.548933 -8.956831 29.641472 38.305301 0.378105 0.685944 0.057935 -0.028512 -429016.000000 0 0 1
-21.691633 -8.646231 28.378702 36.750986 0.379297 0.688517 0.076356 -0.031931 127157.000000 0 0 1
-21.274333 -7.242131 28.303812 36.140718 0.328112 0.671072 0.079202 -0.033045 2209830.000000 0 0 1
-19.942633 -6.872331 28.843902 35.733853 0.331861 0.631425 0.070099 -0.033624 2249060.000000 0 0 1
-18.638433 -7.282031 28.065962 34.469079 0.372463 0.619385 0.075148 -0.029005 459716.000000 0 0 1
-18.155133 -8.625731 28.286672 34.700835 0.443540 0.617794 0.069350 -0.031860 250769.000000 0 0 1
-17.710433 -8.966431 29.576162 35.620299 0.468659 0.591119 0.072233 -0.033580 1495390.000000 0 0 1
-16.168133 -8.602731 29.888122 35.053036 0.488981 0.549752 0.068706 -0.030549 1689570.000000 0 0 1
-15.171733 -9.388331 29.288462 34.294843 0.554131 0.547133 0.058648 -0.027364 262651.000000 0 0 1
-13.901033 -9.141131 29.890152 34.208481 0.581690 0.507907 0.059836 -0.028234 614946.000000 0 0 1
-12.670333 -9.906531 29.400102 33.511829 0.663587 0.500578 0.060246 -0.025950 11990.000000 0 0 1
-12.280533 -9.601231 28.046932 32.087779 0.663560 0.507280 0.066333 -0.027568 307099.000000 0 0 1
-11.150633 -10.430131 27.730482 31.656025 0.752024 0.503304 0.071847 -0.029455 197869.000000 0 0 1
-10.618433 -10.150331 26.342082 30.160995 0.762863 0.508692 0.056770 -0.025685 -41252.000000 0 0 1
-11.431933 -10.592131 25.234062 29.658729 0.747286 0.553264 0.054097 -0.020129 176856.000000 0 0 1
-11.052633 -10.114831 23.963772 28.261863 0.741123 0.558749 0.030439 -0.021511 277024.000000 0 0 1
-12.182133 -10.496931 22.949532 28.022687 0.711228 0.611195 0.036491 -0.023690 -134642.000000 0 0 1
-12.207333 -11.888131 22.686332 28.372809 0.772152 0.644201 0.031053 -0.018460 1328730.000000 0 0 1
-13.454333 -12.441831 22.161432 28.756692 0.746320 0.690931 0.038512 -0.017172 2007830.000000 0 0 1
-14.762533 -12.291631 23.030132 29.990058 0.694319 0.695200 0.047591 -0.019588 449974.000000 0 0 1
-15.866233 -13.098231 22.612032 30.571310 0.690122 0.738248 0.047362 -0.009933 272412.000000 0 0 1
-16.900633 -12.948731 23.549522 31.747142 0.653769 0.735070 0.052161 -0.009213 -947048.000000 0 0 1
-18.243833 -13.546931 23.252512 32.512092 0.638715 0.773892 0.074717 -0.012767 -1528680.000000 0 0 1
-18.083733 -14.955131 23.065832 32.904558 0.690985 0.794009 0.064135 -0.014794 -99027.400000 0 0 1
-19.288433 -15.670731 22.966932 33.839259 0.682282 0.824796 0.066216 -0.012773 -167859.000000 0 0 1
-20.141733 -15.638931 24.240902 35.183617 0.660212 0.810712 0.064240 -0.017106 -330120.000000 0 0 1
-19.514133 -16.397731 25.317602 35.925867 0.698836 0.788771 0.055249 -0.010935 716483.000000 0 0 1
-20.416633 -16.378531 26.413102 37.185308 0.676090 0.780858 0.051680 -0.015420 84597.400000 0 0 1
-19.929133 -17.313431 27.544222 38.152450 0.715279 0.764178 0.046995 -0.013896 42461.100000 0 0 1
-20.195033 -18.687431 27.283372 38.748443 0.746644 0.789620 0.055211 -0.007128 351421.000000 0 0 1
-19.785333 -19.514831 28.416632 39.746610 0.778515 0.774251 0.049822 -0.008809 -343069.000000 0 0 1
-19.883733 -21.026231 28.065672 40.313114 0.813318 0.800717 0.055001 -0.003871 208716.000000 0 0 1
-21.185833 -21.569131 27.869892 41.119312 0.794363 0.826056 0.043654 0.000685 124633.000000 0 0 1
-21.152333 -22.906231 27.458092 41.545920 0.825185 0.848766 0.050584 0.007143 -690770.000000 0 0 1
-22.492933 -23.478631 27.059152 42.301015 0.806836 0.876713 0.052917 0.003237 -469705.000000 0 0 1
-23.389733 -23.659031 28.163282 43.588987 0.791122 0.868320 0.046765 0.007260 319856.000000 0 0 1
-24.506433 -24.388631 27.674032 44.285693 0.782989 0.895796 0.034036 0.009244 -32288.000000 0 0 1
-25.213303 -25.258881 28.703302 45.799577 0.786301 0.893465 0.013691 0.007100 -625933.000000 0 0 1
-25.997173 -24.589731 29.621642 46.453736 0.757583 0.879341 0.009674 0.011604 -138051.000000 0 0 1
-26.537363 -25.551261 30.535542 47.848907 0.766469 0.878683 0.007793 0.012864 -115703.000000 0 0 1
-27.585713 -24.849231 31.454502 48.660472 0.733257 0.867930 0.013610 0.009057 236562.000000 0 0 1
-28.810543 -24.824731 30.732582 48.895872 0.711221 0.891133 0.011775 0.006239 231686.000000 0 0 1
-29.745763 -23.946231 31.368142 49.418547 0.677800 0.883119 0.022250 -0.010652 504242.000000 0 0 1
-30.985413 -23.712031 30.437652 49.485421 0.653199 0.908305 0.025874 -0.020506 214381.000000 0 0 1
-32.026283 -24.650031 30.538832 50.654981 0.655979 0.923691 0.030865 -0.021158 272668.000000 0 0 1
-33.090933 -24.404631 29.611312 50.669771 0.635454 0.946658 0.033856 -0.023413 894139.000000 0 0 1
-34.401066 -25.148231 30.063292 52.150440 0.631250 0.956391 0.040753 -0.026476 413042.000000 0 0 1
-34.241380 -26.516761 30.153932 52.771871 0.658939 0.962584 0.044533 -0.025160 83486.700000 0 0 1
-35.132782 -27.124421 31.083102 54.186768 0.657467 0.959867 0.053054 -0.025117 231342.000000 0 0 1
-34.893951 -28.655871 31.248112 54.910757 0.687551 0.965421 0.057083 -0.022027 -211059.000000 0 0 1
-33.919423 -28.930851 32.223691 55.008069 0.706192 0.944930 0.052738 -0.011656 -183383.000000 0 0 1
-33.690863 -30.346991 32.317482 55.681539 0.733228 0.951578 0.048666 -0.016099 85362.300000 0 0 1
-32.734613 -30.820221 33.426018 56.024455 0.755285 0.931498 0.040417 -0.016616 166975.000000 0 0 1
-33.209183 -30.477571 -33.558810 56.195426 0.742533 2.210778 0.047244 -0.008980 232425.000000 0 0 1
-32.103043 -30.580021 -32.683080 55.081093 0.761106 2.206027 0.038465 -0.011616 439377.000000 0 0 1
-32.483443 -30.138881 -31.249350 54.222210 0.747976 2.185015 0.040769 -0.011834 194936.000000 0 0 1
-32.774503 -28.736221 -30.988770 53.481233 0.719841 2.188829 0.032493 -0.007138 625050.000000 0 0 1
-31.599313 -27.888171 -31.026340 52.334505 0.723094 2.205386 0.036096 -0.004680 563994.000000 0 0 1
-31.820463 -26.364471 -30.777210 51.525371 0.691902 2.210953 0.027958 -0.002107 -219445.000000 0 0 1
-31.979073 -26.010181 -29.455080 50.663521 0.682828 2.191228 0.025251 -0.006105 -222784.000000 0 0 1
-32.068083 -24.637331 -29.362850 49.975364 0.655099 2.198820 0.022593 -0.009400 376586.000000 0 0 1
-30.802013 -23.835531 -28.873040 48.482461 0.658579 2.208729 0.033876 -0.010789 180183.000000 0 0 1
-30.896273 -22.439631 -28.776090 47.814016 0.628153 2.216592 0.033367 -0.007795 -737170.000000 0 0 1
-29.843093 -21.907531 -28.087160 46.469761 0.633241 2.219831 0.053573 -0.008512 -900009.000000 0 0 1
-29.728593 -20.378131 -28.260740 45.800949 0.600909 2.235764 0.060986 -0.016793 -114017.000000 0 0 1
-29.290943 -20.071631 -29.581520 46.215755 0.600758 2.265391 0.077182 -0.007797 317315.000000 0 0 1
-28.897053 -18.726331 -29.661130 45.447748 0.574993 2.281863 0.060540 -0.012967 -242899.000000 0 0 1
-28.368683 -18.373731 -31.084030 45.919420 0.574740 2.314374 0.073063 -0.007967 333147.000000 0 0 1
-29.342663 -18.366131 -32.117230 47.221003 0.559260 2.318760 0.073152 -0.013900 829771.000000 0 0 1
-30.330953 -17.314731 -32.003710 47.370920 0.518717 2.312572 0.052830 -0.016166 80279.700000 0 0 1
-31.243313 -16.995331 -33.168450 48.632623 0.498200 2.321318 0.046049 -0.019323 215604.000000 0 0 1
-32.198913 -18.018931 -33.443810 49.798999 0.510194 2.307130 0.059176 -0.023760 1166870.000000 0 0 1
-33.489493 -17.527031 -33.839270 50.733018 0.482160 2.300980 0.062812 -0.027184 887434.000000 0 0 1
-34.252532 -18.196631 33.279399 51.106474 0.488333 0.861661 0.071042 -0.029637 -491393.000000 0 0 1
-34.793100 -19.435331 33.685256 52.182261 0.509420 0.869078 0.049061 -0.032266 186473.000000 0 0 1
-35.470827 -20.109431 32.643878 52.232093 0.515747 0.895694 0.049443 -0.034856 -282637.000000 0 0 1
-35.814364 -21.512731 33.073471 53.285277 0.540914 0.901178 0.029277 -0.030189 -793408.000000 0 0 1
-34.676077 -22.258731 33.280491 52.966711 0.570663 0.891394 0.052017 -0.031120 -900810.000000 0 0 1
-34.993644 -23.497131 33.795933 54.026248 0.591320 0.894964 0.049800 -0.031886 -1370320.000000 0 0 1
-33.748783 -24.382731 33.990935 53.748317 0.625653 0.886137 0.055855 -0.026343 146797.000000 0 0 1
-32.777013 -23.999031 -33.314790 52.537237 0.632006 2.257663 0.040877 -0.029123 72431.000000 0 0 1
-32.036513 -22.879731 -33.723830 51.837409 0.620177 2.279130 0.034161 -0.029525 -1472640.000000 0 0 1
-30.589443 -22.851631 -33.194080 50.594051 0.641606 2.286418 0.044458 -0.019409 -573073.000000 0 0 1
-29.686833 -23.870531 -33.612120 50.802411 0.677223 2.293780 0.042116 -0.017767 -191119.000000 0 0 1
-28.434753 -23.755731 -33.023440 49.632827 0.695984 2.298765 0.052054 -0.009845 -589783.000000 0 0 1
-28.360413 -24.091031 -31.538270 48.778615 0.704180 2.273862 0.049606 0.002276 -1228790.000000 0 0 1
-28.548423 -25.471871 -31.283470 49.421495 0.728508 2.256210 0.032961 -0.000389 17796.800000 0 0 1
-27.760973 -25.763161 -30.144720 48.405746 0.748090 2.243050 0.039442 -0.000405 29355.800000 0 0 1
-27.458813 -27.228911 -30.022670 48.956723 0.781194 2.230964 0.036165 -0.004662 -101812.000000 0 0 1
-28.595533 -28.031891 -29.810530 49.921530 0.775445 2.210737 0.029900 0.002856 -131375.000000 0 0 1
-28.212753 -29.286061 -29.226210 50.077981 0.804063 2.193968 0.032064 0.000287 -70246.100000 0 0 1
-28.862893 -30.582051 -29.740780 51.505751 0.814310 2.186369 0.031329 0.012661 -515712.000000 0 0 1
-28.591813 -30.890721 -31.088280 52.327904 0.824027 2.206949 0.042662 -0.009539 291242.000000 0 0 1
-28.790103 -32.288021 -31.327880 53.411819 0.842605 2.197570 0.055901 -0.004138 -261319.000000 0 0 1
-28.456953 -32.780101 -32.766600 54.387345 0.855878 2.217385 0.035564 -0.018613 619067.000000 0 0 1
-27.064873 -32.833251 -33.093510 53.904639 0.881405 2.231822 0.044903 -0.021855 401500.000000 0 0 1
-26.769093 -33.646611 34.043426 54.841897 0.898747 0.901090 0.050297 -0.023383 636436.000000 0 0 1
-25.250083 -33.560711 33.656872 53.820749 0.925780 0.895215 0.059915 -0.029301 779329.000000 0 0 1
-24.882033 33.911580 32.506677 53.158206 -0.937788 0.912831 0.046530 -0.015100 -386960.000000 0 0 1
-23.735633 33.143383 32.748974 52.291103 -0.949313 0.894021 0.049760 -0.011397 -486088.000000 0 0 1
-23.501833 32.212599 31.571652 50.860170 -0.940489 0.901092 0.048473 -0.016001 -600210.000000 0 0 1
-24.505333 31.259933 31.510192 50.700956 -0.905937 0.900152 0.075723 -0.038822 -497188.000000 0 0 1
-24.327633 30.311193 30.479012 49.392027 -0.894475 0.905765 0.070330 -0.021510 -174477.000000 0 0 1
-25.618703 29.638213 29.967742 49.323495 -0.858012 0.917792 0.066584 -0.020243 -102445.000000 0 0 1
-26.268873 28.786263 30.867532 49.714255 -0.831091 0.900907 0.067669 -0.023826 8109.910000 0 0 1
-27.551143 28.380723 30.450442 49.917535 -0.800229 0.914717 0.064382 -0.030863 117934.000000 0 0 1
-27.996523 27.095643 31.169232 49.894891 -0.769047 0.896052 0.059055 -0.050836 4601.930000 0 0 1
-27.275453 25.987593 30.682432 48.587210 -0.761224 0.887320 0.069339 -0.036793 312463.000000 0 0 1
-27.916463 24.768143 31.122562 48.594276 -0.725711 0.875703 0.075943 -0.036058 1431320.000000 0 0 1
-29.116403 24.284853 30.198272 48.471173 -0.695167 0.898205 0.075488 -0.036079 1101240.000000 0 0 1
-28.569343 24.016823 28.892282 47.199355 -0.699041 0.912041 0.080451 -0.029879 -126910.000000 0 0 1
-29.444633 23.364183 28.000402 46.871036 -0.670762 0.930551 0.087136 -0.021971 -226286.000000 0 0 1
-28.787483 23.043163 26.673112 45.510015 -0.675020 0.944568 0.105855 -0.028069 558814.000000 0 0 1
-27.627323 22.215963 26.910392 44.508282 -0.677254 0.921513 0.089657 -0.025358 663943.000000 0 0 1
-26.953253 21.912663 25.695332 43.207554 -0.682610 0.933910 0.070996 -0.014771 792372.000000 0 0 1
-25.518163 21.307863 25.927832 42.159864 -0.695726 0.908425 0.056371 -0.022811 514237.000000 0 0 1
-25.557613 20.034063 26.465572 41.892503 -0.664833 0.886988 0.098900 -0.026052 -99129.400000 0 0 1
-24.286133 19.568863 26.821782 41.135929 -0.678245 0.860540 0.051528 -0.016239 -600989.000000 0 0 1
-24.330233 18.647563 28.066102 41.561977 -0.653937 0.829448 0.083761 -0.017073 386004.000000 0 0 1
-23.156433 17.829563 28.271482 40.661904 -0.656155 0.801984 0.042111 -0.009568 993583.000000 0 0 1
-23.501533 16.786663 29.151312 41.035510 -0.620245 0.780741 0.056164 -0.015136 -149050.000000 0 0 1
-22.371833 15.751763 29.382352 40.148967 -0.613465 0.749788 0.039149 -0.017717 391297.000000 0 0 1
-21.289433 16.385663 30.099652 40.344999 -0.655966 0.728676 0.046674 -0.007507 562133.000000 0 0 1
-20.103033 15.618463 29.944942 39.303535 -0.660509 0.704571 0.035089 -0.005579 622653.000000 0 0 1
-18.897233 16.247563 30.736192 39.570219 -0.710148 0.681306 0.030242 -0.013657 -24275.600000 0 0 1
-19.007133 15.999263 32.144692 40.626700 -0.699685 0.657994 0.027746 -0.011956 349262.000000 0 0 1
-18.021033 16.629963 32.933826 41.060324 -0.745275 0.640020 0.038300 -0.018352 -326941.000000 0 0 1
-18.320333 16.322063 -33.817430 41.781131 -0.727779 2.513917 0.034951 -0.025513 769778.000000 0 0 1
-19.434133 17.019563 -33.187330 42.056509 -0.719258 2.480160 0.051730 -0.026116 928499.000000 0 0 1
-20.552633 16.152163 -33.208110 42.262059 -0.666079 2.474731 0.052736 -0.015743 -487565.000000 0 0 1
-21.832433 16.711963 -32.560450 42.616050 -0.653325 2.440351 0.057751 -0.032968 -240987.000000 0 0 1
-21.842433 16.951763 -31.157100 41.655960 -0.659993 2.415783 0.058906 -0.027071 -235457.000000 0 0 1
-23.048933 17.516063 -30.722020 42.212656 -0.649839 2.385893 0.060303 -0.030293 -693377.000000 0 0 1
-23.360933 17.661663 -29.189680 41.348579 -0.647352 2.354548 0.056715 -0.025890 110560.000000 0 0 1
-23.832533 16.479463 -28.571430 40.692615 -0.604978 2.349178 0.043541 -0.024811 -884621.000000 0 0 1
-25.085523 16.027663 -28.926150 41.507729 -0.568547 2.341842 0.053374 -0.023697 -1115680.000000 0 0 1
-25.723553 15.044363 -27.965260 40.866732 -0.529204 2.324445 0.055134 -0.013293 -174172.000000 0 0 1
-25.410553 13.676663 -28.210360 40.355566 -0.493760 2.344858 0.041414 -0.010236 4504.420000 0 0 1
-26.277153 12.764063 -27.574410 40.171609 -0.452181 2.327345 0.013632 -0.005229 -123290.000000 0 0 1
-25.806673 11.321863 -27.684940 39.504745 -0.413433 2.347315 0.029150 -0.010351 197122.000000 0 0 1
-24.634333 11.092163 -26.922060 38.140317 -0.423081 2.354445 0.030003 -0.002475 -88398.100000 0 0 1
-24.030933 9.908763 -27.335480 37.721318 -0.391093 2.381351 0.025521 0.006184 453166.000000 0 0 1
-22.925333 9.247463 -26.438560 36.195082 -0.383411 2.389771 0.056813 0.004066 510423.000000 0 0 1
-23.494633 8.526763 -25.378030 35.619487 -0.348142 2.363817 0.036359 -0.001566 193390.000000 0 0 1
-22.521633 7.723763 -24.696270 34.304318 -0.330379 2.374479 0.072507 -0.001501 -137622.000000 0 0 1
-23.022233 6.779463 -23.619670 33.673033 -0.286380 2.348215 0.059135 0.004312 -129629.000000 0 0 1
-23.774433 5.666163 -24.066870 34.300777 -0.233965 2.348496 0.045825 -0.007260 259868.000000 0 0 1
-23.811233 4.659763 -22.993170 33.427146 -0.193254 2.329332 0.048826 -0.007782 -247786.000000 0 0 1
35.913613 24.715569 -10.337570 44.805271 0.602759 1.803616 0.015375 -0.003501 -67217.100000 0 0 1
-36.369893 24.116469 -9.355570 44.630706 -0.585522 1.781985 0.035141 -0.005603 -389831.000000 0 0 1
-35.632111 23.055369 -9.861170 43.571092 -0.574291 1.799098 0.064978 -0.001483 19380.700000 0 0 1
-34.820879 22.313269 -8.730970 42.268256 -0.569882 1.778855 0.055749 -0.001321 353372.000000 0 0 1
-35.538809 21.369869 -7.945970 42.223414 -0.541383 1.760114 0.059166 -0.013279 383738.000000 0 0 1
-34.602223 20.950669 -6.955870 41.044226 -0.544433 1.741091 0.058698 -0.007612 432283.000000 0 0 1
-35.223344 20.128169 -5.760270 40.975699 -0.519158 1.711841 0.068173 -0.000468 -124227.000000 0 0 1
-35.668348 18.890569 -6.076070 40.816704 -0.487060 1.720214 0.069302 0.000034 28397.500000 0 0 1
-36.396903 18.272869 -5.059770 41.039415 -0.465282 1.694401 0.074993 -0.005853 14785.900000 0 0 1
35.798323 17.075269 -5.590570 40.054203 0.445067 1.710829 0.071838 0.004434 262403.000000 0 0 1
34.770873 17.490869 -6.464070 39.455396 0.466070 1.735371 0.080713 -0.007763 -231562.000000 0 0 1
34.090903 16.428169 -7.056570 38.495059 0.449057 1.755150 0.095095 -0.009540 -123370.000000 0 0 1
33.196723 16.816869 -8.227470 38.111950 0.468900 1.788386 0.067340 -0.012785 -66987.700000 0 0 1
32.726573 15.685269 -8.930570 37.373939 0.446937 1.812083 0.071565 -0.011977 62999.800000 0 0 1
32.008833 16.000469 -10.111470 37.186318 0.463549 1.846177 0.066295 -0.013068 -375998.000000 0 0 1
31.466673 14.759769 -10.907470 36.427671 0.438591 1.874890 0.064495 -0.012748 976331.000000 0 0 1
30.297863 14.049769 -10.405170 34.980338 0.434206 1.872825 0.065261 -0.003451 1293930.000000 0 0 1
30.320113 13.702969 -9.036670 34.478138 0.424469 1.835992 0.069878 -0.004150 -975478.000000 0 0 1
29.294693 12.611869 -8.743870 33.071038 0.406534 1.838375 0.059428 0.014285 -183586.000000 0 0 1
29.703403 11.418469 -9.378170 33.175649 0.367000 1.857386 0.064151 0.012271 566454.000000 0 0 1
28.641783 10.490269 -9.554270 31.963754 0.351084 1.874346 0.070115 0.006339 -243639.000000 0 0 1
29.041843 9.101569 -10.111870 32.070502 0.303700 1.891570 0.086720 0.008290 53784.900000 0 0 1
30.024053 8.567669 -9.210070 32.552636 0.277972 1.857642 0.086573 0.003270 716763.000000 0 0 1
30.178083 7.169869 -9.412470 32.414785 0.233261 1.865416 0.078646 0.000902 -986892.000000 0 0 1
31.202593 6.730869 -8.406670 33.008764 0.212460 1.828313 0.097118 -0.004576 -1270640.000000 0 0 1
32.451243 7.096769 -8.877470 34.383961 0.215301 1.831941 0.091956 -0.008787 -1062930.000000 0 0 1
33.485453 6.628569 -8.069770 35.076127 0.195427 1.802940 0.100094 -0.016372 172465.000000 0 0 1
34.930083 7.058169 -8.455870 36.625540 0.199381 1.803772 0.087665 -0.015526 451480.000000 0 0 1
35.383833 6.407369 -9.614070 37.222310 0.179141 1.832046 0.091171 -0.014381 664697.000000 0 0 1
-36.272943 6.412769 -9.822670 38.122629 -0.174984 1.831396 0.080010 -0.020935 -274189.000000 0 0 1
-35.864353 5.577769 -11.104270 37.956135 -0.154288 1.867694 0.075853 -0.017648 -594071.000000 0 0 1
-34.507312 5.330169 -11.287870 36.695794 -0.153254 1.883473 0.085882 -0.018748 -232794.000000 0 0 1
-33.720163 6.364169 -11.846670 36.302832 -0.186541 1.903214 0.070873 -0.020641 -220885.000000 0 0 1
-32.947103 7.350769 -10.902270 35.474003 -0.219513 1.883184 0.062581 -0.017316 -1060290.000000 0 0 1
-33.722893 8.188969 -10.090870 36.140260 -0.238220 1.853772 0.068520 -0.019162 -99600.400000 0 0 1
-34.047795 9.426869 -10.664270 36.903182 -0.270105 1.863957 0.062286 -0.018228 -799908.000000 0 0 1
-34.965299 10.286769 -9.811370 37.744572 -0.286127 1.833758 0.063111 -0.017273 -63608.500000 0 0 1
-34.351687 10.817869 -8.631870 37.034766 -0.305084 1.806035 0.047437 -0.012172 -160315.000000 0 0 1
-35.178783 11.782169 -8.096270 37.972567 -0.323180 1.785659 0.058643 -0.011695 -536864.000000 0 0 1
-34.477398 12.708169 -7.109270 37.426331 -0.353143 1.761911 0.077367 -0.010156 -79175.600000 0 0 1
-33.519843 13.520969 -7.772270 36.970322 -0.383410 1.782607 0.066895 -0.013415 -161687.000000 0 0 1
-33.137293 14.595169 -6.986270 36.876919 -0.414880 1.761397 0.079886 -0.016755 -161996.000000 0 0 1
-32.297993 15.697169 -7.702970 36.727336 -0.452394 1.782099 0.059697 -0.015351 -128790.000000 0 0 1
-32.874573 16.461269 -8.687370 37.778054 -0.464231 1.802831 0.042695 -0.011995 -327216.000000 0 0 1
-32.185893 17.698569 -8.738870 37.756310 -0.502756 1.804369 0.045104 -0.006351 199404.000000 0 0 1
-32.731393 18.598669 -9.866370 38.917860 -0.516725 1.827111 0.024515 -0.004839 4616.150000 0 0 1
-32.320153 18.444969 -11.203170 38.862838 -0.518593 1.863221 0.014325 -0.003922 64807.500000 0 0 1
-33.340343 18.946769 -12.082170 40.206186 -0.516772 1.876019 0.014094 -0.010132 303737.000000 0 0 1
-32.918783 18.973269 -13.568770 40.345294 -0.522860 1.913799 0.003461 -0.007113 99045.500000 0 0 1
-31.956903 19.958569 -13.954470 40.178544 -0.558273 1.925499 0.012020 -0.011940 374657.000000 0 0 1
-31.919953 20.197469 -15.329070 40.765200 -0.564156 1.956308 0.011195 -0.012964 -806001.000000 0 0 1
-30.913183 21.236669 -15.716170 40.664715 -0.601933 1.967610 0.025793 -0.018138 -888909.000000 0 0 1
-29.563863 20.947869 -15.378370 39.361523 -0.616450 1.972183 0.015415 -0.013749 765774.000000 0 0 1
-28.806003 22.171269 -15.212470 39.405206 -0.655975 1.967145 0.040306 -0.013318 158918.000000 0 0 1
-28.477853 23.040369 -16.444770 40.153172 -0.680243 1.992758 0.017913 -0.005998 -290429.000000 0 0 1
-29.593713 23.780469 -16.973570 41.586063 -0.676911 1.991229 0.036145 0.001309 737342.000000 0 0 1
-29.170573 24.492469 -18.147770 42.191764 -0.698442 2.015429 0.017039 0.005553 414548.000000 0 0 1
-28.255433 25.729369 -17.976570 42.231825 -0.738640 2.010492 0.023841 0.005973 152624.000000 0 0 1
-28.936453 26.816069 -17.425170 43.128372 -0.747384 1.986715 0.043156 0.007252 -142805.000000 0 0 1
-28.152713 28.008269 -17.350470 43.336788 -0.782826 1.982710 0.037604 0.007569 325109.000000 0 0 1
-28.892363 29.238869 -16.729770 44.379785 -0.791359 1.957317 0.029180 0.007047 -276888.000000 0 0 1
-29.246913 29.280369 -15.343770 44.137889 -0.785970 1.925841 0.024165 0.006085 486264.000000 0 0 1
-28.243303 29.505169 -14.297270 43.274139 -0.807246 1.907511 0.021062 0.011539 342995.000000 0 0 1
-28.652943 30.414569 -13.118270 43.796417 -0.815213 1.874995 0.016435 0.007963 -388853.000000 0 0 1
-28.744483 31.758169 -13.517870 44.917251 -0.835168 1.876486 0.012717 0.006210 104375.000000 0 0 1
-28.929063 32.643269 -12.461770 45.362644 -0.845648 1.849089 0.002328 0.000888 493990.000000 0 0 1
-27.998923 33.928569 -12.490570 45.728567 -0.880859 1.847458 -0.000248 -0.004104 557097.000000 0 0 1
-28.530453 -33.350824 -13.395870 45.888055 0.863138 1.867035 -0.012020 -0.017580 643986.000000 0 0 1
-27.454373 -32.470224 -13.790070 44.701500 0.868906 1.884404 0.017980 -0.019971 533648.000000 0 0 1
-27.689543 -31.710824 -15.138970 44.737854 0.852993 1.916005 -0.001427 -0.017963 -92436.800000 0 0 1
-27.425823 -32.456224 -16.293170 45.508786 0.869207 1.936945 0.006368 -0.024115 -165258.000000 0 0 1
-27.642543 -31.618224 -17.433670 45.472576 0.852386 1.964259 0.018784 -0.003993 46626.200000 0 0 1
-26.643543 -32.086724 -18.514370 45.631329 0.877815 1.988583 0.008960 0.001680 -74232.800000 0 0 1
-26.937933 -33.381824 -19.075270 46.945334 0.891823 1.989230 0.005867 0.004579 149979.000000 0 0 1
-26.376403 33.709669 -18.300670 46.550735 -0.906844 1.974834 0.008236 -0.001521 -454813.000000 0 0 1
-26.607033 32.259769 -18.926170 45.900183 -0.881131 1.995810 0.012956 -0.012141 541859.000000 0 0 1
-27.926263 31.714269 -18.947470 46.310665 -0.848827 1.992306 0.017790 -0.009883 190495.000000 0 0 1
-28.740233 32.316969 -19.926170 47.617641 -0.843911 2.002548 0.018090 -0.001459 -355015.000000 0 0 1
-30.187843 31.778269 -19.893570 48.134379 -0.811059 1.996863 0.029711 -0.004106 -1756.890000 0 0 1
-30.391223 30.478069 -20.425370 47.641735 -0.786825 2.013881 0.035576 -0.007175 580694.000000 0 0 1
-31.785453 30.171669 -20.402270 48.341465 -0.759357 2.006496 0.043788 -0.006356 376527.000000 0 0 1
-32.118123 28.958269 -21.237670 48.178769 -0.733708 2.027297 0.052670 -0.012423 362836.000000 0 0 1
-33.455553 28.443869 -21.149870 48.740586 -0.704609 2.019644 0.049334 -0.015095 681869.000000 0 0 1
-33.599923 27.328669 -21.993170 48.574793 -0.682831 2.040665 0.041176 -0.003209 123980.000000 0 0 1
-34.988328 26.659369 -22.189470 49.267409 -0.651106 2.037997 0.032422 -0.002999 271057.000000 0 0 1
-35.846775 27.359069 -23.048770 50.643418 -0.651910 2.043302 0.023507 0.002469 57265.500000 0 0 1
36.193783 26.538669 -23.608970 50.711679 0.632687 2.055056 0.016619 0.006295 631531.000000 0 0 1
35.310813 27.138569 -24.773470 50.961557 0.655276 2.078442 0.024836 -0.004264 747415.000000 0 0 1
36.088463 27.418069 -25.957490 52.229484 0.649709 2.090922 0.044080 -0.011746 -6015.840000 0 0 1
35.187693 27.329169 -27.007360 52.100429 0.660352 2.115741 0.054216 -0.015729 -133879.000000 0 0 1
35.780583 27.696569 -28.414330 53.429619 0.658727 2.131531 0.063269 -0.015813 136121.000000 0 0 1
-36.507513 26.609369 -28.882490 53.619542 -0.629843 2.139637 0.047688 0.002420 17016.800000 0 0 1
-35.899431 26.900769 -30.138030 54.043699 -0.643077 2.162361 0.015355 0.002283 -479469.000000 0 0 1
-35.638017 25.658769 -31.110500 53.817320 -0.624012 2.187165 -0.006621 0.005484 521120.000000 0 0 1
-34.621234 24.795969 -30.654860 52.470853 -0.621521 2.194723 0.000485 0.007557 -141482.000000 0 0 1
-33.282353 25.200569 -30.518880 51.712530 -0.648077 2.202058 -0.013739 0.017623 -507719.000000 0 0 1
-32.693123 24.296669 -29.458300 50.268876 -0.639118 2.196928 -0.028915 0.019724 -436939.000000 0 0 1
-32.454143 22.938969 -29.948990 49.763538 -0.615283 2.216582 -0.015353 0.007770 107805.000000 0 0 1
-32.379323 21.996069 -28.892690 48.652186 -0.596715 2.206647 -0.003401 0.017129 -114981.000000 0 0 1
-31.894243 20.631869 -29.345880 48.001015 -0.574181 2.228574 -0.002896 0.009181 1434920.000000 0 0 1
-30.459053 20.450569 -29.536050 47.099448 -0.591281 2.248621 0.039024 0.001512 1477950.000000 0 0 1
-30.209273 19.067269 -29.804080 46.523587 -0.563026 2.266106 0.034617 -0.010016 -235853.000000 0 0 1
-28.726263 18.689969 -29.955650 45.517624 -0.576813 2.289103 0.069443 -0.016088 -125139.000000 0 0 1
-28.170993 19.094869 -31.233460 46.192509 -0.595685 2.313332 0.085865 -0.022561 717039.000000 0 0 1
-27.063523 18.306169 -31.720950 45.538652 -0.594721 2.341405 0.085936 -0.029556 545049.000000 0 0 1
-27.436063 16.877269 -32.259450 45.587848 -0.551484 2.356938 0.076548 -0.031959 -118679.000000 0 0 1
-27.819103 15.928069 -31.280630 44.789326 -0.519998 2.343949 0.039821 -0.017306 168185.000000 0 0 1
-27.773403 14.674369 -31.871910 44.749499 -0.486078 2.363466 0.020181 -0.009086 -59440.200000 0 0 1
-28.277453 13.560369 -30.918360 44.039107 -0.447152 2.349091 0.024086 -0.005739 -158128.000000 0 0 1
-29.653503 13.632169 -30.616010 44.749373 -0.430904 2.324256 0.013190 -0.008192 64351.300000 0 0 1
-30.209563 12.338569 -30.281580 44.517773 -0.387755 2.318850 0.009786 0.000710 96748.100000 0 0 1
-29.851313 11.606469 -28.955260 43.176592 -0.370822 2.305846 0.002143 -0.020093 -488367.000000 0 0 1
-30.342843 12.343769 -27.866920 43.007232 -0.386363 2.275698 -0.002985 -0.010140 191131.000000 0 0 1
-30.420203 11.466969 -26.723710 42.083688 -0.360481 2.258822 -0.002339 -0.006079 34368.300000 0 0 1
-30.302693 12.183469 -25.385480 41.365599 -0.382280 2.231517 -0.006029 -0.010548 649564.000000 0 0 1
-28.935773 12.526269 -25.111820 40.308683 -0.408542 2.243353 -0.003774 -0.013314 620660.000000 0 0 1
-28.805683 13.432369 -24.072470 39.870788 -0.436334 2.219008 -0.003657 -0.001799 -530768.000000 0 0 1
-27.364343 13.558269 -23.594570 38.591938 -0.460019 2.228607 0.014038 0.003806 -1411350.000000 0 0 1
-26.548053 14.228969 -24.514770 38.836023 -0.492008 2.253945 0.019614 -0.002775 405804.000000 0 0 1
-25.141933 14.246869 -24.296070 37.754326 -0.515542 2.269899 0.038793 -0.015554 725855.000000 0 0 1
-24.708633 14.922369 -22.919570 36.857840 -0.543307 2.241883 0.040637 -0.009227 -1126370.000000 0 0 1
-25.101123 16.240169 -22.769870 37.580267 -0.574256 2.221693 0.053730 -0.011591 60572.500000 0 0 1
-25.152533 16.543869 -21.396070 36.934284 -0.581798 2.188667 0.046137 -0.001868 -391713.000000 0 0 1
-26.563613 16.952669 -20.953670 37.842765 -0.568029 2.157602 0.041250 -0.006238 -300380.000000 0 0 1
-27.432543 15.856069 -20.880770 37.946883 -0.524088 2.153476 0.042292 -0.006585 587282.000000 0 0 1
-28.627683 16.132569 -20.133770 38.537939 -0.513172 2.120507 0.040049 -0.004132 247556.000000 0 0 1
-29.742233 15.055269 -20.135870 38.945023 -0.468589 2.114178 0.012895 -0.009547 729514.000000 0 0 1
-30.483193 14.777469 -21.367870 40.052273 -0.451393 2.133529 0.008915 0.001614 990969.000000 0 0 1
-31.316493 15.851469 -21.831370 41.335222 -0.468571 2.127222 -0.004063 -0.001288 -182938.000000 0 0 1
-31.618923 15.857669 -23.324170 42.370260 -0.464867 2.153741 -0.014458 0.011279 -107569.000000 0 0 1
-32.455503 14.823469 -23.819070 42.900385 -0.428438 2.159422 -0.002784 0.000138 158413.000000 0 0 1
-32.819623 15.073069 -25.176340 44.024688 -0.430536 2.179578 0.003638 -0.004253 991903.000000 0 0 1
-34.166845 14.287469 -25.545670 44.989847 -0.396069 2.174639 -0.004976 -0.007085 1316230.000000 0 0 1
-33.970503 12.886269 -25.801840 44.562159 -0.362568 2.188308 0.000875 -0.010959 124971.000000 0 0 1
-34.101095 12.179569 -24.557170 43.752499 -0.343040 2.166721 -0.000513 -0.004059 -264061.000000 0 0 1
-34.106382 10.619569 -24.714470 43.437606 -0.301851 2.176043 0.011115 -0.011694 1067850.000000 0 0 1
-35.447212 10.186069 -25.035370 44.576122 -0.279819 2.167153 0.024691 -0.014972 873101.000000 0 0 1
-35.332930 9.097469 -25.912900 44.751070 -0.252005 2.188354 0.027136 -0.016014 -262423.000000 0 0 1
36.409643 8.654469 -26.544130 45.881944 0.233366 2.187723 0.044393 -0.011993 40145.300000 0 0 1
35.596883 7.956269 -25.608580 44.567249 0.219896 2.182918 0.046400 -0.013218 111541.000000 0 0 1
34.543503 7.205269 -26.181070 43.938798 0.205637 2.209124 0.058346 -0.010760 -22714.500000 0 0 1
33.784473 6.259569 -25.233560 42.629865 0.183202 2.204238 0.063367 -0.018508 -98417.200000 0 0 1
34.535793 5.208269 -24.684370 42.768741 0.149680 2.186042 0.054317 -0.020612 -96305.900000 0 0 1
33.783313 4.452269 -23.802070 41.565292 0.131034 2.180522 0.068434 -0.021869 -67428.200000 0 0 1
34.766703 3.514469 -23.099470 41.888670 0.100745 2.154897 0.055022 -0.021575 82797.800000 0 0 1
35.179733 2.351469 -23.812570 42.546228 0.066742 2.164804 0.059011 -0.026225 467693.000000 0 0 1
36.040123 1.624569 -22.924870 42.744349 0.045046 2.136873 0.067362 -0.024557 61436.800000 0 0 1
-36.504773 0.306569 -23.434170 43.380327 -0.008398 2.141474 0.095037 -0.024095 170004.000000 0 0 1
35.533953 -0.639631 -23.592570 42.657711 -0.017999 2.156837 0.055137 -0.031073 143191.000000 0 0 1
36.167253 -1.851131 -23.886770 43.382884 -0.051138 2.153883 0.072639 -0.031705 150094.000000 0 0 1
-23.266033 29.117269 27.065262 46.061395 -0.896637 0.942718 0.031185 -0.015241 -1199530.000000 0 0 1
-24.527933 29.430669 26.580282 46.629338 -0.876010 0.964250 0.020607 -0.015739 -213476.000000 0 0 1
-24.735833 28.931369 25.234392 45.669028 -0.863416 0.985376 0.014967 -0.005997 -294164.000000 0 0 1
-24.979433 27.386269 25.017492 44.719736 -0.831328 0.977100 0.019948 -0.013289 -772455.000000 0 0 1
-26.147413 26.881969 25.584502 45.397073 -0.799249 0.972093 0.036867 -0.020381 -415440.000000 0 0 1
-26.134783 26.618969 26.999372 46.049566 -0.794576 0.944299 0.048175 -0.020926 -764088.000000 0 0 1
-25.385773 25.313969 27.495642 45.180138 -0.783982 0.916529 0.038485 -0.014439 384268.000000 0 0 1
-24.023633 25.431769 27.826072 44.701232 -0.813863 0.898876 0.022100 -0.007587 -271717.000000 0 0 1
-23.825233 26.084369 29.068052 45.749183 -0.830632 0.882298 0.019424 -0.005696 -999796.000000 0 0 1
-22.553433 25.729669 29.798752 45.372226 -0.851087 0.854280 0.021384 0.000787 -1050640.000000 0 0 1
-21.384733 26.205269 29.171562 44.665456 -0.886347 0.859109 0.029961 -0.003900 -99567.600000 0 0 1
-20.251433 26.010669 29.989362 44.564979 -0.909252 0.832626 0.046722 -0.008789 153884.000000 0 0 1
-19.425733 24.705169 29.763822 43.284981 -0.904464 0.812584 0.046985 -0.003659 -203355.000000 0 0 1
-18.933533 24.618469 28.411262 42.092132 -0.915196 0.829861 0.052075 -0.009646 -75819.300000 0 0 1
-19.768133 23.946869 27.517842 41.490520 -0.880699 0.845667 0.046306 -0.010635 -209300.000000 0 0 1
-19.831333 22.404769 27.699482 40.773972 -0.846253 0.823930 0.043683 0.002059 462663.000000 0 0 1
-20.536233 21.995069 28.900032 41.722078 -0.819685 0.805599 0.024270 0.002098 381662.000000 0 0 1
-20.684533 20.567669 28.878182 41.046661 -0.782565 0.790422 0.032233 -0.003220 -172485.000000 0 0 1
-20.854533 19.970769 30.312032 41.863618 -0.763754 0.761117 0.031108 -0.000341 55017.400000 0 0 1
-19.785033 20.218769 31.212592 42.124483 -0.796240 0.736296 0.029752 -0.011281 104130.000000 0 0 1
-20.187533 19.873869 32.487467 43.103860 -0.777569 0.717119 0.027392 -0.009806 -65574.200000 0 0 1
-19.322633 20.415069 33.662166 43.855224 -0.812882 0.695747 0.043497 -0.013389 -371747.000000 0 0 1
-19.500233 21.823169 33.833092 44.734639 -0.841553 0.713148 0.023982 -0.001634 670203.000000 0 0 1
-18.680833 22.664169 32.966110 44.152039 -0.881446 0.727785 0.044723 0.004233 -265107.000000 0 0 1
-17.184833 22.741169 33.215792 43.769488 -0.923676 0.709205 0.049633 -0.001593 -667450.000000 0 0 1
-16.460033 21.560069 32.920671 42.656065 -0.918743 0.689176 0.066629 -0.022783 -46983.800000 0 0 1
-15.129933 21.614669 33.409392 42.571074 -0.960081 0.668438 0.061213 -0.021442 -92032.600000 0 0 1
-14.278633 20.326969 33.197938 41.462853 -0.958429 0.642389 0.066251 -0.030760 1491430.000000 0 0 1
-12.933433 20.302769 33.762470 41.465414 -1.003594 0.619391 0.050007 -0.026399 1429780.000000 0 0 1
-12.907233 20.359369 -33.083750 40.934522 -1.005773 2.511905 0.061812 -0.027286 -427823.000000 0 0 1
-11.442233 20.110869 -32.673510 40.036609 -1.053515 2.525411 0.058022 -0.028827 -254636.000000 0 0 1
-10.577333 21.149769 -32.885320 40.504778 -1.107056 2.518174 0.047219 -0.022615 -1175460.000000 0 0 1
-9.313433 20.870069 -32.379330 39.632321 -1.151059 2.526973 0.049060 -0.021313 -384819.000000 0 0 1
-8.227333 21.975369 -32.518080 40.100267 -1.212562 2.516518 0.036928 -0.029451 102200.000000 0 0 1
-8.209233 23.155769 -31.688040 40.096297 -1.230099 2.482092 0.025975 -0.023205 -92770.600000 0 0 1
-7.809833 22.880769 -30.374790 38.822042 -1.241868 2.469324 0.028057 -0.023859 -187940.000000 0 0 1
-7.663033 24.102769 -29.442490 38.813990 -1.262971 2.431887 0.013634 -0.023344 -315156.000000 0 0 1
-6.490633 24.828069 -29.646880 39.210953 -1.315096 2.428109 0.020293 -0.020859 -330008.000000 0 0 1
-6.281433 25.895569 -28.730540 39.185212 -1.332825 2.393810 0.017642 -0.010709 41107.300000 0 0 1
-5.001933 26.663369 -29.141640 39.814442 -1.385356 2.391956 0.033585 -0.018896 -298012.000000 0 0 1
-3.854833 25.858269 -29.091340 39.112861 -1.422811 2.409503 0.035497 -0.016641 -198499.000000 0 0 1
-2.669333 26.313869 -29.679920 39.754782 -1.469700 2.413695 0.045943 -0.020475 484502.000000 0 0 1
-1.904333 27.580269 -29.138160 40.166281 -1.501859 2.382467 0.057006 -0.028704 -184636.000000 0 0 1
-1.336033 27.412769 -27.836750 39.091298 -1.522097 2.363275 0.071428 -0.041246 633338.000000 0 0 1
-0.441933 28.525269 -27.674850 39.746492 -1.555305 2.341004 0.082343 -0.032072 -125682.000000 0 0 1
0.246767 28.868669 -26.291980 39.047781 1.562249 2.309498 0.098877 -0.053663 640068.000000 0 0 1
1.347067 28.124169 -25.789300 38.182083 1.522936 2.312343 0.134287 -0.064849 578009.000000 0 0 1
2.498067 28.055269 -26.615980 38.752405 1.481990 2.327903 0.141917 -0.065155 -188621.000000 0 0 1
3.819467 27.990369 -25.804370 38.261137 1.435177 2.310986 0.134576 -0.064604 34530.200000 0 0 1
4.135367 26.723569 -25.249210 36.996933 1.417268 2.321930 0.149717 -0.056905 29392.100000 0 0 1
5.284367 26.803169 -24.436970 36.653785 1.376138 2.300565 0.123252 -0.051633 54623.600000 0 0 1
6.064967 25.496169 -24.160670 35.645146 1.337259 2.315578 0.108322 -0.046204 166545.000000 0 0 1
7.273467 25.743269 -23.480670 35.594397 1.295435 2.291180 0.088861 -0.040037 -679657.000000 0 0 1
7.919367 24.639969 -22.977770 34.609571 1.259821 2.296837 0.072920 -0.020197 -71360.500000 0 0 1
9.341267 24.955369 -22.481170 34.863057 1.212623 2.271613 0.059956 -0.005529 -588678.000000 0 0 1
9.396667 25.880669 -21.435970 34.894229 1.222520 2.232311 0.064111 -0.012649 75929.700000 0 0 1
10.696767 26.329669 -21.066370 35.376041 1.184903 2.208682 0.060056 -0.012413 618731.000000 0 0 1
11.630867 25.306069 -20.312570 34.471361 1.139981 2.200938 0.039017 -0.002624 -240685.000000 0 0 1
12.307267 24.491469 -21.180070 34.639519 1.105141 2.228678 0.046161 -0.009647 -387644.000000 0 0 1
12.445067 23.167369 -20.620270 33.418591 1.077848 2.235759 0.033116 0.002492 -131713.000000 0 0 1
12.605467 22.033769 -21.669370 33.375836 1.051146 2.277399 0.031169 -0.004048 -905148.000000 0 0 1
11.382267 21.915469 -22.277770 33.258726 1.091772 2.304779 0.051055 -0.016157 -842135.000000 0 0 1
11.478967 21.130069 -23.432170 33.575484 1.073148 2.343251 0.049045 -0.010372 -388426.000000 0 0 1
10.690767 21.609969 -24.629970 34.466197 1.111386 2.366866 0.065955 -0.018339 -780499.000000 0 0 1
9.347567 21.267769 -24.512070 33.771832 1.156693 2.383013 0.065727 -0.023823 -468048.000000 0 0 1
8.699967 21.216369 -25.786940 34.507826 1.181648 2.414753 0.063428 -0.025602 -467985.000000 0 0 1
7.276967 20.675269 -25.899840 33.929673 1.232372 2.439262 0.072439 -0.031371 -659675.000000 0 0 1
6.219067 21.411769 -25.418250 33.811656 1.288123 2.421523 0.090494 -0.031814 -625266.000000 0 0 1
6.009467 21.410269 -24.024370 32.736580 1.297156 2.394797 0.088088 -0.029610 -1166720.000000 0 0 1
4.599367 21.797469 -23.623370 32.470717 1.362842 2.385509 0.107040 -0.038349 -769151.000000 0 0 1
4.048267 22.968469 -24.103370 33.539700 1.396335 2.372658 0.111150 -0.041816 -160526.000000 0 0 1
2.680467 23.049869 -23.736970 33.195258 1.455026 2.367522 0.123008 -0.040892 272067.000000 0 0 1
2.084667 24.446169 -24.093970 34.387213 1.485726 2.347128 0.123500 -0.043379 -412653.000000 0 0 1
0.686367 24.435869 -24.132470 34.350530 1.542715 2.349751 0.114238 -0.053608 -462718.000000 0 0 1
0.219267 25.220669 -25.224310 35.670661 1.562103 2.356248 0.100221 -0.037786 485320.000000 0 0 1
-1.265733 25.090369 -25.674000 35.920510 -1.520392 2.367056 0.097972 -0.033075 512371.000000 0 0 1
-1.507133 23.781969 -26.185360 35.405178 -1.507508 2.403259 0.104914 -0.043021 604467.000000 0 0 1
-2.768833 23.623069 -26.875800 35.889058 -1.454120 2.417133 0.099266 -0.030432 877273.000000 0 0 1
-3.126733 22.230969 -27.313000 35.355232 -1.431065 2.453613 0.081752 -0.026633 -755278.000000 0 0 1
-2.400433 21.800569 -28.394420 35.878545 -1.461129 2.483899 0.092069 -0.039159 62850.600000 0 0 1
-3.010733 20.576969 -28.926030 35.625713 -1.425512 2.518268 0.072485 -0.032842 160398.000000 0 0 1
-4.344133 20.708369 -29.678130 36.448587 -1.364018 2.522226 0.067779 -0.032010 -462521.000000 0 0 1
-4.277233 21.185969 -30.992970 37.784974 -1.371584 2.532637 0.062983 -0.030636 -125740.000000 0 0 1
-3.776733 22.469969 -31.152370 38.595769 -1.404274 2.510096 0.070034 -0.031037 -423245.000000 0 0 1
-3.340833 22.806169 -32.546990 39.882190 -1.425343 2.525389 0.056948 -0.019839 -577461.000000 0 0 1
-2.352033 21.923669 -32.932840 39.632705 -1.463922 2.551611 0.051295 -0.015119 -225019.000000 0 0 1
-1.793333 22.202269 34.054467 40.692303 -1.490199 0.579243 0.043208 -0.001389 -389493.000000 0 0 1
-0.846233 21.160569 33.486098 39.620760 -1.530827 0.563922 0.038556 0.012854 -308083.000000 0 0 1
-1.365133 19.903169 33.081857 38.631710 -1.502315 0.542657 0.033522 0.006646 301989.000000 0 0 1
-0.272633 19.047069 32.773278 37.907162 -1.556484 0.526508 0.028016 0.010130 344876.000000 0 0 1
-0.690733 17.578169 32.448377 36.910247 -1.531522 0.496793 0.016044 0.020279 150516.000000 0 0 1
-1.218133 17.454369 31.100532 35.684478 -1.501120 0.512457 0.006947 0.011046 67821.000000 0 0 1
-1.380133 16.095169 30.819692 34.796734 -1.485257 0.482783 0.007478 0.009130 58342.500000 0 0 1
-2.391233 15.976769 29.640022 33.756571 -1.422230 0.499020 0.017339 0.008416 258168.000000 0 0 1
-3.676833 16.553069 29.810802 34.295877 -1.352221 0.517165 0.003270 0.004008 267262.000000 0 0 1
-3.762933 17.920869 29.372682 34.613172 -1.363828 0.557466 0.003871 0.004840 645822.000000 0 0 1
-5.234533 18.446669 29.594222 35.263266 -1.294299 0.574919 0.012829 -0.005763 1716170.000000 0 0 1
-6.250433 17.757769 28.831532 34.433465 -1.232356 0.578449 0.008292 -0.001612 -299943.000000 0 0 1
-7.500233 18.308169 29.109502 35.196672 -1.181985 0.596952 0.046701 -0.018274 187567.000000 0 0 1
-8.687733 17.745269 28.199562 34.432348 -1.115519 0.611157 0.046262 -0.014163 1030710.000000 0 0 1
-9.144733 16.405969 28.457572 34.097146 -1.062287 0.583385 0.062188 -0.014999 -292011.000000 0 0 1
-9.985033 16.277769 29.549632 35.183056 -1.020571 0.573730 0.079777 -0.017733 -1040490.000000 0 0 1
-10.604633 14.906169 29.714842 34.894469 -0.952443 0.551837 0.079744 -0.018276 -202916.000000 0 0 1
-9.754433 13.777269 29.902742 34.338551 -0.954715 0.513926 0.061068 -0.007517 53136.800000 0 0 1
-8.976933 13.741269 31.113762 35.177749 -0.992117 0.485433 0.052031 -0.007533 -47856.400000 0 0 1
-9.630433 13.421969 32.471292 36.431845 -0.948413 0.470617 0.075457 -0.027426 -588583.000000 0 0 1
-9.961633 12.114869 32.514528 36.099844 -0.882626 0.449457 0.059661 -0.014730 25145.900000 0 0 1
-10.468533 11.874669 33.813245 37.335419 -0.848249 0.437859 0.054161 -0.004100 -206170.000000 0 0 1
-11.172033 10.501769 33.927603 37.231489 -0.754483 0.424461 0.060306 -0.011158 -332993.000000 0 0 1
-10.259233 9.414769 33.701681 36.464957 -0.742502 0.391806 0.054297 -0.004259 589642.000000 0 0 1
-9.812933 8.696469 -33.434490 35.913610 -0.725152 2.767857 0.083805 -0.016297 -211439.000000 0 0 1
-8.733733 9.333569 -32.555170 34.974744 -0.818586 2.767445 0.063345 -0.022935 -339415.000000 0 0 1
-9.282533 10.384569 -31.719250 34.642684 -0.841374 2.727823 0.054583 -0.021167 521899.000000 0 0 1
-8.280033 10.977869 -30.891580 33.813641 -0.924582 2.722807 0.059029 -0.014992 627996.000000 0 0 1
-7.331933 12.005169 -31.575300 34.567050 -1.022523 2.722481 0.052984 -0.016519 207362.000000 0 0 1
-7.942233 13.259969 -31.633810 35.208008 -1.031140 2.687099 0.061302 -0.017744 421975.000000 0 0 1
-6.973633 14.169169 -32.138610 35.809038 -1.113433 2.684864 0.049398 -0.018909 351970.000000 0 0 1
-7.535533 15.616769 -32.286580 36.648206 -1.121224 2.648740 0.051300 -0.026125 -99150.800000 0 0 1
-8.336933 15.737969 -33.417140 37.866785 -1.083646 2.651931 0.058614 -0.023079 -263895.000000 0 0 1
-8.610433 17.043869 -33.644590 38.685805 -1.103003 2.625367 0.076057 -0.030481 -936994.000000 0 0 1
-9.210033 17.144869 33.160155 38.449540 -1.077842 0.530739 0.083000 -0.035073 1271380.000000 0 0 1
-10.517633 16.606969 32.885351 38.312640 -1.006232 0.538767 0.080319 -0.031906 1126290.000000 0 0 1
-11.598633 17.041669 33.723964 39.525341 -0.973207 0.548661 0.069804 -0.047491 -1070330.000000 0 0 1
-12.886933 16.520069 33.126047 39.195927 -0.908322 0.563969 0.072646 -0.040077 -886171.000000 0 0 1
-13.025633 15.081769 32.887170 38.453776 -0.858421 0.544784 0.057765 -0.036161 254380.000000 0 0 1
-14.154133 14.555669 33.567986 39.230303 -0.799383 0.543962 0.046426 -0.032340 202137.000000 0 0 1
-14.475533 13.038069 33.424860 38.687900 -0.733200 0.527712 0.036316 -0.028194 101281.000000 0 0 1
-14.845733 12.557369 32.113852 37.541748 -0.702084 0.544441 0.021140 -0.027269 151816.000000 0 0 1
-13.719533 12.324369 31.307822 36.335869 -0.731880 0.532337 0.037454 -0.009836 -44863.400000 0 0 1
-14.188433 11.982169 29.902642 35.200171 -0.701294 0.555754 0.018650 -0.001478 -100693.000000 0 0 1
-14.542533 10.651469 29.728382 34.766590 -0.632165 0.545082 0.016057 0.002991 -32346.100000 0 0 1
-14.441933 10.318969 28.367792 33.463147 -0.620401 0.559101 0.009885 0.004580 234359.000000 0 0 1
-15.139533 8.904869 28.007702 33.059546 -0.531688 0.560123 0.016100 0.001861 438708.000000 0 0 1
-14.613333 7.712469 28.593282 33.024347 -0.485616 0.524001 0.006925 0.005516 -384297.000000 0 0 1
-15.289433 6.574769 28.185422 32.732436 -0.406115 0.533396 0.012281 0.013490 -347034.000000 0 0 1
-14.530233 5.253269 28.328872 32.268398 -0.346919 0.499309 0.011556 0.014035 26116.500000 0 0 1
-13.593233 4.859969 27.352902 30.928572 -0.343366 0.485612 0.014121 0.006795 -160379.000000 0 0 1
-14.193133 4.479569 26.161922 30.099132 -0.305720 0.517231 0.007556 0.010744 10122.400000 0 0 1
-13.221833 4.277869 24.936142 28.546948 -0.312916 0.508423 0.017904 0.009938 257195.000000 0 0 1
-12.337833 3.152769 24.970372 28.030012 -0.250183 0.471596 0.013939 0.005588 446272.000000 0 0 1
-11.798133 2.868669 23.676322 26.608146 -0.238518 0.473857 0.015973 -0.000940 302189.000000 0 0 1
-10.811133 1.623869 23.724882 26.122550 -0.149089 0.431798 0.011112 -0.006813 422561.000000 0 0 1
-9.450433 1.970869 23.893832 25.770336 -0.205601 0.383973 0.014791 -0.016035 -188152.000000 0 0 1
-8.771133 0.888269 24.396742 25.940756 -0.100928 0.346759 0.014689 -0.009171 -648422.000000 0 0 1
-7.244933 1.003769 24.343112 25.418177 -0.137671 0.291879 0.039406 -0.018199 -478805.000000 0 0 1
-6.665333 1.010769 23.023032 23.989755 -0.150499 0.284854 0.036875 -0.013014 -424349.000000 0 1 0
-5.319833 1.360769 22.918032 23.566683 -0.250422 0.235165 0.034652 -0.014068 -324987.000000 0 1 0
-4.877333 2.803069 23.290932 23.960658 -0.521619 0.236990 0.069823 -0.017534 -487169.000000 0 1 0
-4.621733 2.919369 24.663522 25.262076 -0.563375 0.218119 0.068676 -0.023560 -99830.600000 0 0 1
-4.133733 4.223669 24.855872 25.548807 -0.796159 0.233433 0.067797 -0.030860 -198313.000000 0 0 1
4.502567 -23.394931 13.131130 27.203354 -1.380662 1.067058 0.096529 -0.010322 229688.000000 0 0 1
3.965467 -24.561131 13.672730 28.388688 -1.410725 1.068287 0.092627 -0.016946 -698356.000000 0 0 1
2.581667 -24.615631 13.477430 28.182182 -1.466299 1.072164 0.068811 -0.010649 -449854.000000 0 0 1
1.911667 -25.722811 14.282030 29.483789 -1.496615 1.065116 0.046468 -0.010086 -176802.000000 0 0 1
1.947167 -25.639411 15.659530 30.106340 -1.494998 1.023781 0.072060 -0.017010 -24113.400000 0 0 1
1.977667 -26.978271 16.144630 31.502180 -1.497621 1.032711 0.063253 -0.013512 -115400.000000 0 0 1
1.952967 -27.129511 17.732430 32.469424 -1.498933 0.993062 0.049476 -0.009453 -4067.000000 0 0 1
3.072467 -26.578801 18.387730 32.465078 -1.455709 0.968684 0.075826 -0.019414 126360.000000 0 0 1
3.197367 -27.066521 19.760530 33.664495 -1.453211 0.943467 0.060996 -0.016169 219956.000000 0 0 1
4.155467 -26.276891 20.688530 33.701011 -1.413954 0.909824 0.064155 -0.009220 -324244.000000 0 0 1
3.541867 -25.154121 21.116730 33.033179 -1.430909 0.877263 0.084489 -0.013837 -103235.000000 0 0 1
4.386867 -24.333831 21.871030 33.010935 -1.392434 0.846593 0.091083 -0.029078 37220.200000 0 0 1
3.558567 -23.203231 22.556930 32.555620 -1.418617 0.805330 0.095394 -0.032025 537948.000000 0 0 1
2.727567 -22.422431 21.713030 31.331465 -1.449746 0.805140 0.110840 -0.025145 326972.000000 0 0 1
3.479567 -21.394131 21.077630 30.233800 -1.409567 0.799376 0.102100 -0.015187 105521.000000 0 0 1
2.623467 -20.344531 20.314530 28.869753 -1.442552 0.790259 0.083783 -0.014894 201415.000000 0 0 1
2.000567 -19.450831 21.240530 28.870351 -1.468304 0.744065 0.073670 -0.022173 171863.000000 0 0 1
1.212267 -18.528731 20.490830 27.652442 -1.505463 0.736218 0.070070 -0.016164 -249269.000000 0 0 1
1.030767 -17.121331 21.203430 27.272475 -1.510665 0.680169 0.066419 -0.021616 -572386.000000 0 0 1
2.165467 -16.366931 21.061730 26.761206 -1.439253 0.664825 0.043043 -0.004122 -996369.000000 0 0 1
1.793367 -15.017231 21.269030 26.097989 -1.451939 0.618122 0.044042 -0.008486 631630.000000 0 0 1
2.827967 -13.845331 20.999930 25.311808 -1.369314 0.592317 0.024278 -0.000159 -32717.900000 0 0 1
3.269567 -13.498831 19.675030 24.083507 -1.333162 0.614693 0.006265 -0.001851 -10523.300000 0 1 0
2.256667 -13.240731 18.701530 23.025132 -1.401985 0.622844 0.011125 0.001285 -122851.000000 0 1 0
1.386267 -12.007231 18.952730 22.478908 -1.455853 0.567711 0.007787 -0.010399 -371751.000000 0 1 0
2.075067 -10.750431 18.963830 21.897591 -1.380120 0.523602 0.014965 -0.007873 -373219.000000 0 1 0
1.650667 -9.869431 20.031030 22.391349 -1.405080 0.463288 0.015686 -0.015178 833130.000000 0 1 0
0.165167 -9.367631 19.898130 21.993530 -1.553166 0.440059 0.021435 -0.020855 766062.000000 0 1 0
-0.099333 -8.344431 20.859830 22.467129 1.558893 0.380551 0.018643 -0.033876 90300.500000 0 1 0
-1.461233 -7.928131 20.960530 22.457388 1.388532 0.367171 0.023882 -0.032133 404366.000000 0 1 0
-1.811533 -7.208231 22.285930 23.492614 1.324581 0.321901 0.029028 -0.029751 -222985.000000 0 1 0
-1.967533 -8.090231 23.351430 24.791375 1.332229 0.342502 0.029613 -0.024097 1980.550000 0 1 0
-2.136833 -7.357131 24.555230 25.722611 1.288130 0.302427 0.034351 -0.019906 -77496.500000 0 0 1
-2.145633 -8.406131 25.699230 27.124107 1.320886 0.325571 0.035434 -0.019947 312989.000000 0 0 1
-0.947833 -9.149531 25.853930 27.441537 1.467571 0.341821 0.026666 -0.016244 2199.760000 0 0 1
-1.143633 -10.114831 26.861630 28.725683 1.458209 0.362231 0.030265 -0.018424 -334095.000000 0 0 1
0.030667 -11.014031 27.226730 29.370131 -1.568012 0.384407 0.023103 -0.012662 371305.000000 0 0 1
1.122867 -10.340431 27.890030 29.766409 -1.462630 0.356961 0.018590 -0.012938 1093250.000000 0 0 1
2.204967 -11.260231 28.176630 30.423299 -1.377424 0.386715 0.026003 -0.015689 501963.000000 0 0 1
3.117667 -10.718231 29.266430 31.322903 -1.287732 0.364377 0.035286 -0.017702 -124974.000000 0 0 1
2.505267 -10.624531 30.533330 32.425935 -1.339226 0.343348 0.031023 -0.019864 -103820.000000 0 0 1
3.411467 -9.960231 31.366730 33.086493 -1.240811 0.323835 0.051677 -0.019703 -153042.000000 0 0 1
2.911867 -9.797931 32.816930 34.371926 -1.281918 0.301946 0.048202 -0.024586 -357842.000000 0 0 1
2.959467 -10.995131 33.572430 35.450802 -1.307866 0.326986 0.037158 -0.022479 276512.000000 0 0 1
2.389967 -10.990531 -33.375973 35.220155 -1.356673 2.816554 0.033208 -0.018317 -70065.200000 0 0 1
3.077767 -10.042931 -32.307573 33.972230 -1.273423 2.827249 0.036291 -0.014214 14310.400000 0 0 1
2.870167 -8.672531 -32.548873 33.806505 -1.251193 2.867973 0.050461 -0.019420 76986.600000 0 0 1
3.481467 -7.936631 -31.552873 32.721469 -1.157414 2.873533 0.062477 -0.019720 -215298.000000 0 0 1
2.784967 -6.579331 -31.283873 32.089318 -1.170375 2.917067 0.053771 -0.026167 90606.800000 0 0 1
3.010267 -5.734731 -32.366473 33.008142 -1.087413 2.944093 0.090210 -0.024136 123083.000000 0 0 1
2.733467 -4.378731 -32.049573 32.462598 -1.012729 2.981904 0.077781 -0.022078 75349.900000 0 0 1
2.949267 -3.435231 -33.283473 33.590007 -0.861368 3.006392 0.085836 -0.013560 280008.000000 0 0 1
1.927767 -3.576931 34.014230 34.256073 -1.076481 0.118897 0.094482 -0.019764 70508.100000 0 0 1
2.361767 -2.935031 32.820730 33.036232 -0.893207 0.114283 0.101908 -0.027905 244302.000000 0 0 1
1.501367 -3.390631 31.675130 31.891446 -1.153947 0.116538 0.108478 -0.021611 2773.730000 0 0 1
0.185367 -2.925331 31.468130 31.604353 -1.507515 0.092880 0.095767 -0.024916 -366607.000000 0 0 1
-0.361633 -3.653431 30.429930 30.650595 1.472133 0.120067 0.096064 -0.022063 -973572.000000 0 0 1
-1.848833 -3.878631 30.618530 30.918543 1.125985 0.139421 0.074993 -0.017043 -862488.000000 0 0 1
-2.603333 -2.737631 30.310330 30.544853 0.810538 0.123999 0.063224 -0.015358 -1355450.000000 0 0 1
-3.942633 -3.069231 30.335330 30.744052 0.661476 0.163242 0.056574 -0.013753 -996353.000000 0 0 1
-4.839733 -2.004231 29.728030 30.186018 0.392619 0.174418 0.046293 -0.010062 -431297.000000 0 0 1
-4.838033 -2.020731 28.302830 28.784372 0.395651 0.183173 0.034958 -0.008430 31194.800000 0 0 1
-5.864733 -1.286031 27.640730 28.285313 0.215865 0.213896 0.015402 -0.009433 242507.000000 0 0 1
-6.013033 0.260469 27.913030 28.554538 -0.043290 0.212371 0.041155 -0.009612 -158809.000000 0 0 1
-6.855233 0.576969 28.985830 29.791029 -0.083967 0.233027 0.032924 -0.005572 -399102.000000 0 0 1
-6.850533 1.984769 29.160330 30.019892 -0.282004 0.239878 0.039009 -0.007322 -886240.000000 0 0 1
-8.185033 2.540969 29.616830 30.831930 -0.301008 0.281681 0.023625 -0.008359 -6441.380000 0 0 1
-9.192733 2.263069 28.607230 30.133062 -0.241380 0.319593 0.012454 -0.000685 991790.000000 0 0 1
-10.469533 2.773869 29.037330 30.991482 -0.258996 0.357011 0.005096 0.007009 753150.000000 0 0 1
-11.634833 2.248969 28.161730 30.553399 -0.190941 0.398300 0.009226 0.014784 -68572.100000 0 0 1
-11.947433 0.905969 28.482430 30.900012 -0.075685 0.398198 0.009066 0.011153 -6741.070000 0 0 1
-12.237133 0.159369 27.295330 29.913339 -0.013023 0.421490 0.013701 0.010927 -875850.000000 0 0 1
-12.395833 -1.384231 27.513930 30.209090 0.111208 0.425619 0.014925 0.001879 85714.000000 0 0 1
-11.292933 -2.133831 28.037830 30.301872 0.186751 0.389013 0.017768 0.000619 1467310.000000 0 0 1
-9.975333 -1.967831 27.462330 29.284111 0.194769 0.354589 0.009318 0.000584 677840.000000 0 0 1
-9.804733 -2.650931 26.068930 27.977657 0.264059 0.371520 0.009578 -0.002532 -669467.000000 0 0 1
-10.603033 -2.019731 25.107430 27.329227 0.188231 0.406014 0.002079 0.001200 153922.000000 0 0 1
-10.556733 -2.768631 23.930330 26.301532 0.256486 0.427885 0.002348 0.000686 -136283.000000 0 0 1
-9.502233 -2.323631 22.897630 24.899661 0.239829 0.403745 0.005714 -0.003553 293023.000000 0 1 0
-8.184333 -2.704631 23.222630 24.770726 0.319166 0.355413 0.010682 -0.006404 415727.000000 0 1 0
-7.220933 -2.371631 22.194130 23.459452 0.317339 0.329935 0.013540 -0.008295 1319420.000000 0 1 0
-5.697633 -2.597731 22.497630 23.352828 0.427776 0.271464 0.016268 -0.015929 697381.000000 0 1 0
-5.132633 -3.846831 22.610130 23.502340 0.643171 0.276425 0.020969 -0.017506 -202029.000000 0 1 0
-5.766033 -4.660331 23.583130 24.721040 0.679744 0.304590 0.028220 -0.012689 -328353.000000 0 1 0
-5.658533 -6.127531 23.131030 24.588822 0.825170 0.346069 0.032140 -0.019022 -253014.000000 0 1 0
-6.540533 -6.577731 22.146130 24.010335 0.788234 0.396656 0.037435 -0.022284 -252017.000000 0 1 0
-6.154233 -6.214331 20.823830 22.585933 0.790257 0.397628 0.033781 -0.023707 -289216.000000 0 1 0
-7.326733 -6.344531 19.826230 22.068382 0.713677 0.454684 0.026268 -0.016238 -652077.000000 0 1 0
-8.314933 -5.452831 20.189430 22.505212 0.580433 0.457634 0.028767 -0.011444 -985276.000000 0 1 0
-9.188633 -5.180331 19.135530 21.850293 0.513358 0.503796 0.024218 -0.006070 22284.800000 0 1 0
-9.812333 -3.765931 19.251230 21.933398 0.366460 0.499728 0.015678 -0.008622 215738.000000 0 1 0
-8.914433 -2.802831 18.795930 20.990711 0.304628 0.461377 0.017598 -0.012022 -126454.000000 0 1 0
-9.640833 -1.584231 18.835830 21.218952 0.162870 0.478495 0.013136 -0.012610 501730.000000 0 1 0
-8.747933 -0.379431 18.419830 20.395108 0.043347 0.443747 0.015749 -0.005400 844792.000000 0 1 0
-7.669733 -0.018531 19.299030 20.767226 0.002416 0.378277 0.017624 0.004305 863508.000000 0 1 0
-8.157333 0.683269 20.442430 22.020488 -0.083566 0.380883 0.039716 0.004899 -192309.000000 0 1 0
-8.113233 2.214769 20.413330 22.077903 -0.266489 0.390800 0.034464 0.002484 -370598.000000 0 1 0
-8.983333 2.739969 19.485230 21.630577 -0.296043 0.449145 0.021644 -0.003412 -141035.000000 0 1 0
-8.644333 4.093969 19.183630 21.435875 -0.442307 0.462520 0.021749 -0.005887 243845.000000 0 1 0
-9.387233 4.511169 17.866830 20.680774 -0.447979 0.527766 0.017531 -0.003784 -529035.000000 0 1 0
-10.750933 4.609569 18.149130 21.592165 -0.405051 0.572513 0.015386 0.001195 -529075.000000 0 1 0
-11.498233 5.014069 16.990830 21.119625 -0.411212 0.635956 0.012731 0.005309 55151.700000 0 1 0
-11.758633 6.529369 16.856230 21.564568 -0.506890 0.673468 0.018427 0.004654 88774.800000 0 1 0
-10.509633 7.210669 16.704230 21.011364 -0.601337 0.651773 0.020582 0.001279 650072.000000 0 1 0
-10.704833 8.579369 16.465230 21.431351 -0.675623 0.694650 0.019585 -0.009110 127246.000000 0 1 0
-9.376633 9.376069 16.510630 21.176232 -0.785368 0.676646 0.025199 -0.012725 103336.000000 0 1 0
-8.909533 9.436569 17.847330 22.067075 -0.814118 0.628728 0.042598 -0.001959 287248.000000 0 1 0
-7.969333 10.521569 18.041230 22.353963 -0.922558 0.631622 0.046598 -0.009380 803860.000000 0 1 0
-8.616733 11.974669 17.868530 23.171645 -0.947050 0.690170 0.050118 -0.009698 283238.000000 0 1 0
-8.815133 12.377369 16.520930 22.446536 -0.951931 0.743635 0.056220 -0.022777 -189556.000000 0 1 0
-9.287933 13.678369 16.427230 23.307024 -0.974288 0.788629 0.049325 -0.022913 -197207.000000 0 1 0
-9.137133 14.256769 15.001230 22.622545 -1.000846 0.845831 0.049482 -0.021246 424606.000000 0 1 0
-7.788533 14.627169 14.768630 22.197472 -1.081511 0.842861 0.045398 -0.020872 83601.200000 0 1 0
-7.621633 15.009069 13.423330 21.530147 -1.100927 0.897627 0.030629 -0.026738 -204668.000000 0 1 0
-6.647433 16.169369 13.230530 21.924502 -1.180747 0.922965 0.008306 -0.016326 182806.000000 0 1 0
-5.321533 15.904069 13.677330 21.640875 -1.247904 0.886647 0.000433 -0.016967 -426607.000000 0 1 0
-4.568633 17.071069 13.463730 22.216342 -1.309300 0.919738 -0.001036 -0.015705 910607.000000 0 1 0
-3.022133 16.808369 13.623930 21.846419 -1.392898 0.897428 0.004841 -0.019628 905443.000000 0 1 0
-2.433533 16.257569 14.782330 22.107644 -1.422213 0.838401 0.007020 -0.018347 -120944.000000 0 1 0
-2.750433 14.880669 15.031230 21.329254 -1.388026 0.788763 0.001686 -0.018524 -377667.000000 0 1 0
-1.858233 14.261469 16.159430 21.632607 -1.441229 0.727267 -0.005287 -0.003928 -544587.000000 0 1 0
-0.543533 14.222169 15.738830 21.219715 -1.532598 0.735183 -0.004331 -0.004394 -932739.000000 0 1 0
0.356467 13.679969 16.717830 21.604501 1.544745 0.685958 -0.008844 0.015671 920458.000000 0 1 0
1.470867 14.635069 17.225730 22.651147 1.470630 0.706745 -0.004794 0.005670 279486.000000 0 1 0
0.830967 15.515769 18.110330 23.862390 1.517291 0.709099 -0.013268 0.003501 -179113.000000 0 1 0
1.651267 16.552969 18.581630 24.940017 1.471369 0.730182 0.011083 0.000306 -228328.000000 0 1 0
0.797467 17.723869 19.120630 26.083903 1.525833 0.748011 0.017538 -0.005501 495553.000000 0 0 1
0.329367 18.805169 18.245330 26.203720 1.553283 0.800584 0.003847 -0.005371 -103846.000000 0 0 1
-0.715633 18.394869 17.403230 25.332899 -1.531912 0.813469 0.006503 -0.002645 -844962.000000 0 0 1
-1.278533 19.599669 16.631930 25.737186 -1.505656 0.868173 -0.000359 0.004383 -426321.000000 0 0 1
-2.135333 20.426269 17.358430 26.890653 -1.466636 0.869094 -0.004273 0.007747 -121285.000000 0 0 1
-2.680433 21.485069 16.574930 27.267585 -1.446680 0.917431 0.003515 0.005208 -24690.700000 0 0 1
-3.694733 22.468769 17.205630 28.539978 -1.407816 0.923715 0.005720 0.012870 -208160.000000 0 0 1
-4.828333 21.941169 17.818830 28.674700 -1.354191 0.900251 0.013261 0.009561 -286670.000000 0 0 1
-5.333333 22.807969 18.820930 30.047883 -1.341087 0.893916 0.018262 0.009863 85083.700000 0 0 1
-6.438133 22.197669 19.719630 30.381736 -1.288505 0.864446 0.006178 0.010180 718750.000000 0 0 1
-7.717333 22.200969 19.045330 30.251692 -1.236250 0.889806 0.000494 0.010831 -135976.000000 0 0 1
-8.682533 21.682669 19.906530 30.688670 -1.189914 0.864973 -0.030496 0.012795 -1008100.000000 0 0 1
-10.011333 22.184169 19.381130 31.112575 -1.146876 0.898307 -0.012103 0.004753 -829185.000000 0 0 1
-10.377233 23.540769 19.778130 32.450411 -1.155603 0.915382 -0.007428 0.012894 294341.000000 0 0 1
-11.344533 24.079169 18.868530 32.627078 -1.130506 0.954142 -0.017632 0.011026 146557.000000 0 0 1
-11.697433 25.565669 19.133130 34.007500 -1.141686 0.973251 -0.008618 0.006093 2090.800000 0 0 1
-12.518233 25.724769 20.267230 35.060384 -1.117908 0.954439 -0.009630 0.014425 18847.800000 0 0 1
-13.098933 26.999469 20.414530 36.294716 -1.119095 0.973432 0.013119 -0.002294 24770.600000 0 0 1
-14.092233 27.109969 21.612830 37.425337 -1.091421 0.955143 0.045376 -0.011762 -668370.000000 0 0 1
-15.301933 26.438969 21.523630 37.368903 -1.046138 0.956997 0.036583 -0.012825 -767220.000000 0 0 1
-15.925433 26.716169 22.734630 38.525790 -1.033251 0.939596 0.026757 -0.006559 535389.000000 0 0 1
-17.441933 26.321669 22.843130 38.972553 -0.985583 0.944518 0.041591 -0.005531 702284.000000 0 0 1
-17.540933 24.918169 22.732530 38.017988 -0.957430 0.929866 0.055220 -0.012871 85710.000000 0 0 1
-18.843633 24.388669 22.912530 38.404085 -0.912963 0.931517 0.066254 -0.005532 41664.900000 0 0 1
27.191967 24.531669 23.424702 43.473239 0.734011 1.001748 0.071979 -0.027639 -32107.300000 0 0 1
27.178967 23.746469 24.592712 43.673706 0.718098 0.972663 0.069385 -0.027261 153021.000000 0 0 1
26.950767 22.393469 24.243872 42.609584 0.693302 0.965535 0.066732 -0.026105 -308513.000000 0 0 1
26.845467 21.587169 25.510792 42.865901 0.677252 0.933369 0.087192 -0.034644 -887747.000000 0 0 1
25.569667 21.785469 25.994742 42.475183 0.705657 0.912211 0.092068 -0.033628 -748095.000000 0 0 1
25.396967 20.989669 27.142182 42.688057 0.690670 0.881718 0.098605 -0.035566 -15552.200000 0 0 1
24.016067 21.107269 27.817952 42.380736 0.721024 0.854783 0.098856 -0.038343 -133387.000000 0 0 1
23.774767 22.415369 28.255632 43.198022 0.755976 0.857810 0.114267 -0.050913 -298137.000000 0 0 1
22.586167 22.323569 28.988712 42.997932 0.779551 0.830931 0.125027 -0.044416 -575270.000000 0 0 1
22.288967 23.567369 29.760372 44.021571 0.813269 0.828420 0.121493 -0.051164 -298113.000000 0 0 1
21.896167 24.695769 28.913402 43.878332 0.845414 0.851381 0.106332 -0.041952 161541.000000 0 0 1
21.466767 25.882069 29.542722 44.760206 0.878380 0.849948 0.108863 -0.036275 340297.000000 0 0 1
20.047367 25.889769 30.169802 44.524084 0.911902 0.826293 0.097940 -0.029046 198836.000000 0 0 1
18.952367 26.220369 29.272432 43.629981 0.944925 0.835341 0.094217 -0.032248 1969290.000000 0 0 1
17.696567 26.452969 29.975372 43.720144 0.981192 0.815342 0.089659 -0.022160 1484670.000000 0 0 1
16.958367 25.321169 30.779142 43.314010 0.980675 0.780439 0.053001 -0.016894 -701069.000000 0 0 1
17.551167 24.847969 31.954322 44.119653 0.955827 0.760828 0.066667 -0.017341 -275592.000000 0 0 1
16.662967 24.060769 32.687887 43.875655 0.965097 0.730244 0.050775 -0.017382 -176369.000000 0 0 1
17.073367 23.813069 -34.106291 44.964444 0.948769 2.431831 0.066543 -0.021929 -338970.000000 0 0 1
17.209467 25.052869 -33.414730 45.170302 0.968899 2.403495 0.063714 -0.025220 246574.000000 0 0 1
17.628467 24.759369 -32.088350 44.197867 0.952067 2.383307 0.055323 -0.018793 -235422.000000 0 0 1
17.849767 26.061069 -31.227220 44.417708 0.970263 2.350453 0.051550 -0.015206 -404089.000000 0 0 1
16.732167 26.827269 -30.897140 44.207478 1.013132 2.344672 0.049635 -0.027659 -46865.600000 0 0 1
17.207067 28.013969 -30.269790 44.689214 1.019978 2.314937 0.059506 -0.029707 77932.900000 0 0 1
16.626567 28.275969 -28.897370 43.715343 1.039239 2.292994 0.066294 -0.027175 -195872.000000 0 0 1
17.365767 27.606769 -27.872120 42.901733 1.009297 2.277951 0.049074 -0.019025 377412.000000 0 0 1
16.975567 28.031169 -26.547170 42.174264 1.026272 2.251659 0.030715 -0.012230 -220347.000000 0 0 1
17.552567 27.206269 -25.385630 41.142483 0.997827 2.235743 0.024859 -0.006336 -212749.000000 0 0 1
18.939667 27.405169 -25.352810 41.863102 0.966070 2.221331 0.046466 -0.005741 -640868.000000 0 0 1
19.594767 26.611569 -24.399570 41.078821 0.936105 2.206781 0.050786 -0.001437 268074.000000 0 0 1
21.137767 26.599569 -24.437170 41.851136 0.899316 2.194329 0.060143 -0.002078 320754.000000 0 0 1
21.778267 25.757269 -23.507670 41.113749 0.868909 2.179460 0.065723 -0.003130 783446.000000 0 0 1
23.208567 25.913669 -23.420270 41.936439 0.840411 2.163337 0.073278 -0.003033 1109680.000000 0 0 1
23.564367 25.806069 -21.928770 41.256558 0.830773 2.131193 0.072712 -0.007570 -55617.700000 0 0 1
23.507867 24.470369 -21.406170 40.120355 0.805457 2.133587 0.078620 -0.008666 43953.000000 0 0 1
23.991167 24.407869 -20.113070 39.697050 0.794008 2.102107 0.061621 -0.009301 -687594.000000 0 0 1
23.634167 23.235869 -19.208670 38.307342 0.776900 2.096054 0.057074 -0.007249 -908421.000000 0 0 1
24.179967 21.992869 -19.553070 38.087789 0.738066 2.109902 0.066382 0.004327 4652.020000 0 0 1
23.849367 20.909769 -18.687270 36.813378 0.719816 2.103218 0.072128 0.006805 -797325.000000 0 0 1
23.832867 19.551169 -19.483470 36.467237 0.687024 2.134444 0.074339 -0.004813 -226534.000000 0 0 1
22.953067 19.355169 -20.538070 36.376891 0.700562 2.170734 0.057376 -0.002091 384400.000000 0 0 1
21.568267 19.528369 -20.221970 35.432689 0.735802 2.178173 0.062669 0.001578 225202.000000 0 0 1
20.599067 19.503769 -21.441070 35.558938 0.758093 2.218019 0.050367 0.006146 169408.000000 0 0 1
20.711067 20.601769 -22.386470 36.804011 0.782753 2.224665 0.051450 0.010081 -222620.000000 0 0 1
20.503267 21.935869 -21.846770 37.132838 0.819142 2.199802 0.050062 0.014753 -129499.000000 0 0 1
19.983667 22.885069 -22.899870 38.045728 0.852976 2.216679 0.064310 -0.001521 -348773.000000 0 0 1
18.725967 22.509169 -23.369470 37.462737 0.876889 2.244399 0.052614 0.009249 -922013.000000 0 0 1
18.470467 23.136069 -24.584470 38.481580 0.897068 2.263816 0.057330 -0.001247 -1511510.000000 0 0 1
17.029767 23.273869 -24.928170 38.119544 0.939103 2.283587 0.041840 0.000632 -1473550.000000 0 0 1
16.355067 24.062769 -23.994370 37.712530 0.973836 2.260416 0.031464 -0.011078 -135107.000000 0 0 1
14.966767 24.153169 -24.227370 37.340932 1.016046 2.276823 0.026738 -0.009840 59691.200000 0 0 1
14.277267 25.346569 -23.562270 37.436206 1.057813 2.251575 0.028617 -0.004520 -122519.000000 0 0 1
14.450667 26.612569 -24.176570 38.749931 1.073342 2.244536 0.024317 -0.009160 589428.000000 0 0 1
13.428467 27.492869 -23.679970 38.690084 1.116444 2.229437 0.036931 -0.017691 531546.000000 0 0 1
13.598667 28.800269 -24.463770 40.160370 1.129658 2.225787 0.039921 -0.020718 39329.000000 0 0 1
13.649267 28.593769 -25.820960 40.873318 1.125431 2.254581 0.045276 -0.028935 -28994.700000 0 0 1
13.115867 29.675669 -26.565880 41.933487 1.154637 2.256896 0.069326 -0.036250 172548.000000 0 0 1
14.032767 30.948769 -26.578330 43.141077 1.145103 2.234552 0.075929 -0.036404 825550.000000 0 0 1
15.246167 30.815869 -27.323560 43.916288 1.111357 2.242313 0.055183 -0.021971 231672.000000 0 0 1
15.912567 32.043369 -27.608630 45.190970 1.109877 2.228034 0.068085 -0.032472 -564757.000000 0 0 1
17.387267 31.789569 -27.795260 45.666949 1.070299 2.225156 0.060356 -0.015538 -979632.000000 0 0 1
18.215867 31.277969 -26.784240 45.028043 1.043429 2.207856 0.027910 -0.004448 -646720.000000 0 0 1
19.495367 31.146069 -27.294710 45.772789 1.011526 2.209691 0.037694 -0.001769 -697999.000000 0 0 1
20.523867 30.375269 -26.404980 45.178635 0.976582 2.195007 0.028703 0.005953 -175779.000000 0 0 1
21.032867 31.027669 -25.235440 45.187666 0.975075 2.163323 0.039677 0.005501 551772.000000 0 0 1
21.961867 32.129469 -25.343110 46.442434 0.971201 2.148007 0.037922 -0.002940 485037.000000 0 0 1
23.379867 31.770669 -25.868220 47.171585 0.936384 2.151229 0.035749 -0.000162 -217632.000000 0 0 1
23.380967 31.229769 -27.215790 47.567503 0.928143 2.179922 0.028957 0.007407 182576.000000 0 0 1
24.562067 31.533969 -27.964300 48.782050 0.909049 2.181263 0.017079 0.020297 -294237.000000 0 0 1
24.549767 30.958869 -29.435260 49.270450 0.900350 2.211079 0.012184 0.020943 527234.000000 0 0 1
23.505467 31.489469 -30.263670 49.598220 0.929568 2.227080 0.028409 0.002393 -1141.660000 0 0 1
22.214667 31.053469 -29.989050 48.550515 0.949830 2.236595 0.027959 0.000172 -925729.000000 0 0 1
21.091967 31.699069 -30.822540 48.987050 0.983684 2.251317 0.018609 -0.003171 -934432.000000 0 0 1
20.704067 33.037369 -30.495610 49.498570 1.010985 2.234566 0.036771 -0.013147 368807.000000 0 0 1
19.662867 33.599469 -31.293000 49.948018 1.041320 2.247865 0.054283 -0.021862 989697.000000 0 0 1
18.214367 33.033769 -30.987970 48.818515 1.066889 2.258492 0.078532 -0.029578 -4.540900 0 0 1
17.966767 31.639369 -31.279760 47.982057 1.054344 2.280891 0.090340 -0.038453 -46334.900000 0 0 1
18.009567 31.245169 -32.639290 48.640810 1.047914 2.306389 0.096352 -0.039480 -378167.000000 0 0 1
17.033167 31.894969 -33.663990 49.403260 1.080290 2.320487 0.110776 -0.045018 -227086.000000 0 0 1
17.507467 33.145469 -34.092110 50.669572 1.084843 2.308827 0.097367 -0.034660 -71232.800000 0 0 1
17.269467 33.513969 32.869424 50.018194 1.094990 0.853766 0.091576 -0.032269 -646692.000000 0 0 1
15.903567 -34.030724 32.604903 49.740259 -1.133625 0.855947 0.115253 -0.038310 -1232900.000000 0 0 1
14.961467 33.112269 32.486052 48.740245 1.146413 0.841274 0.116551 -0.036586 -634411.000000 0 0 1
13.616267 33.523369 32.450982 48.603346 1.184980 0.839722 0.091898 -0.036859 164098.000000 0 0 1
13.083367 -33.835524 31.218992 47.860659 -1.201829 0.860196 0.081088 -0.031987 -1283490.000000 0 0 1
13.606067 -32.567224 31.154062 47.077858 -1.175053 0.847638 0.108489 -0.029436 73278.700000 0 0 1
13.014367 -31.787524 30.147062 45.701923 -1.182198 0.850450 0.098733 -0.035633 -334041.000000 0 0 1
13.467467 -30.288924 30.188032 44.834238 -1.152414 0.832099 0.094582 -0.041944 -207941.000000 0 0 1
13.122567 -29.464424 31.254742 44.913394 -1.151799 0.801139 0.095881 -0.021975 67409.700000 0 0 1
13.488567 -28.084224 31.152432 44.058360 -1.123041 0.785447 0.106903 -0.021810 -982849.000000 0 0 1
12.875167 -27.237224 32.243120 44.127714 -1.129222 0.751483 0.078676 -0.016959 -321066.000000 0 0 1
11.497367 -27.111624 31.971002 43.466937 -1.169709 0.744356 0.053341 -0.011023 -28220.500000 0 0 1
10.953667 -26.261224 30.951202 42.042974 -1.175632 0.743388 0.034224 -0.016217 -531723.000000 0 0 1
11.249167 -24.795924 31.086702 41.325109 -1.144895 0.719330 0.021958 -0.009337 -160521.000000 0 0 1
10.419967 -24.121724 32.022292 41.422946 -1.163033 0.687150 0.043021 -0.007801 314769.000000 0 0 1
10.969067 -22.856824 32.364668 41.112365 -1.123355 0.664501 0.035963 -0.005097 2066.950000 0 0 1
10.308467 -22.222824 33.580315 41.566284 -1.136469 0.630261 0.033700 -0.002612 -517994.000000 0 0 1
10.317567 -22.825224 -33.394470 41.744864 -1.146260 2.498035 0.027994 0.003197 502719.000000 0 0 1
11.597067 -23.091524 -32.809950 41.763660 -1.105373 2.474478 0.043900 -0.003502 867837.000000 0 0 1
12.437767 -21.917124 -32.189880 40.880885 -1.054624 2.477387 0.044837 -0.012852 226165.000000 0 0 1
12.938867 -21.031924 -33.152990 41.338564 -1.019274 2.501411 0.040926 -0.014537 242124.000000 0 0 1
13.822267 -20.013824 -32.710550 40.762585 -0.966383 2.502211 0.050489 -0.024974 -10609.400000 0 0 1
14.083567 -18.942324 -33.805140 41.230402 -0.931470 2.532047 0.045866 -0.019403 -603755.000000 0 0 1
14.948867 -19.338024 33.420891 41.405118 -0.912718 0.631457 0.045453 0.000502 324432.000000 0 0 1
14.891367 -18.534524 32.242199 40.060464 -0.893962 0.635393 0.037840 0.000909 -417140.000000 0 0 1
15.649367 -17.178724 32.390220 39.863989 -0.831951 0.622337 0.044341 0.000096 -1084850.000000 0 0 1
15.232067 -16.375124 33.453824 40.240762 -0.821547 0.589279 0.046879 -0.015520 793038.000000 0 0 1
16.060467 -15.189224 33.622537 40.238367 -0.757525 0.581601 0.040202 -0.017034 1850960.000000 0 0 1
17.612767 -15.307124 33.975162 41.216857 -0.715474 0.601827 0.035340 -0.006031 1285680.000000 0 0 1
18.316867 -15.905524 32.908002 40.883125 -0.715053 0.635241 0.041552 -0.004455 231039.000000 0 0 1
19.725567 -15.994924 33.116698 41.733096 -0.681336 0.654199 0.051129 -0.001703 355363.000000 0 0 1
20.454367 -16.700124 31.949712 41.449480 -0.684696 0.690683 0.073780 -0.005173 -411200.000000 0 0 1
20.541267 -15.938724 30.799762 40.306475 -0.659895 0.701090 0.052407 0.006653 399251.000000 0 0 1
21.423067 -16.585524 29.896192 40.346124 -0.658804 0.736249 0.055474 -0.001474 -221786.000000 0 0 1
21.641367 -15.771224 28.560382 39.150680 -0.629764 0.753207 0.040125 0.003348 101238.000000 0 0 1
22.548967 -14.667124 28.764012 39.382088 -0.576696 0.751914 0.026352 -0.001509 718080.000000 0 0 1
22.827867 -13.980924 27.540482 38.406457 -0.549524 0.771193 0.018844 -0.002438 -247420.000000 0 0 1
23.484467 -12.641324 27.792152 38.519177 -0.493804 0.764809 0.020638 0.000618 -237415.000000 0 0 1
22.639567 -11.566324 28.137132 37.921340 -0.472321 0.734767 0.018354 -0.002252 -36268.700000 0 0 1
23.351567 -10.397824 28.437802 38.237665 -0.418916 0.732191 0.035496 -0.011631 -179027.000000 0 0 1
22.393167 -9.203124 28.626432 37.491653 -0.389935 0.702017 0.036624 -0.009429 -108272.000000 0 0 1
21.461167 -9.424724 29.646072 37.792813 -0.413797 0.669009 0.025226 -0.015694 -532852.000000 0 0 1
20.492267 -8.407024 29.471352 36.866946 -0.389314 0.644504 0.036709 -0.014328 -620310.000000 0 0 1
19.333667 -8.408024 30.438722 37.027036 -0.410218 0.605764 0.023857 -0.011607 -732176.000000 0 0 1
19.539567 -7.962324 31.782812 38.148925 -0.386953 0.586063 0.032671 -0.019586 35769.700000 0 0 1
19.938967 -8.948224 32.727959 39.354192 -0.421840 0.588768 0.038454 -0.023211 -552621.000000 0 0 1
20.012667 -8.241924 34.113694 40.400251 -0.390667 0.565365 0.037333 -0.025058 -1076260.000000 0 0 1
18.770167 -8.117324 -33.589760 39.325337 -0.408171 2.594712 0.030942 -0.032782 -764974.000000 0 0 1
18.955267 -7.508424 -32.331030 38.222691 -0.377151 2.578971 0.036726 -0.030445 574889.000000 0 0 1
17.553867 -7.291924 -31.693390 36.956480 -0.393714 2.601356 0.043758 -0.032121 418304.000000 0 0 1
17.692467 -6.458824 -30.566200 35.903097 -0.350028 2.589355 0.052562 -0.027046 288477.000000 0 0 1
16.453567 -6.121724 -29.970690 34.733811 -0.356191 2.611713 0.058095 -0.018971 -78119.400000 0 0 1
16.570167 -5.042624 -28.830340 33.633124 -0.295415 2.600606 0.051646 -0.019255 74080.400000 0 0 1
17.303367 -5.429324 -27.630720 33.050579 -0.304044 2.560773 0.050260 -0.015557 421477.000000 0 0 1
16.807467 -6.473724 -26.780080 32.273406 -0.367656 2.549524 0.066814 -0.019338 409542.000000 0 0 1
15.402967 -6.250224 -26.119040 30.959990 -0.385480 2.574821 0.062801 -0.020089 672800.000000 0 0 1
15.407567 -5.165524 -25.255070 30.031556 -0.323483 2.569835 0.060554 -0.021018 737886.000000 0 0 1
14.080967 -4.986524 -24.712370 28.876293 -0.340351 2.597894 0.033521 -0.019782 827326.000000 0 0 1
13.952367 -3.674524 -23.851270 27.875684 -0.257515 2.597563 0.046341 -0.016313 17456.100000 0 0 1
13.983567 -2.467424 -24.538570 28.350833 -0.174654 2.617009 0.037205 -0.019625 251533.000000 0 0 1
13.594567 -1.455424 -23.598670 27.273206 -0.106653 2.616484 0.042834 -0.016254 -46781.800000 0 0 1
14.075967 -0.077424 -24.014170 27.835575 -0.005500 2.611411 0.039224 -0.013925 -580730.000000 0 0 1
13.296667 0.538576 -24.989070 28.311571 0.040482 2.652257 0.038071 -0.014784 -98713.600000 0 0 1
13.901367 1.715576 -25.477820 29.074225 0.122790 2.638929 0.039391 -0.003785 -380428.000000 0 0 1
13.155767 2.349576 -26.647370 29.810687 0.176733 2.676737 0.028528 -0.006215 -717402.000000 0 0 1
11.926767 2.910576 -26.344710 29.064807 0.239359 2.705509 0.039038 -0.023222 -591530.000000 0 0 1
11.320267 3.448576 -27.485690 29.924978 0.295706 2.735033 0.044103 -0.025134 110125.000000 0 0 1
9.963567 4.147576 -27.191490 29.254952 0.394457 2.763760 0.052980 -0.031041 123265.000000 0 0 1
10.059367 5.364576 -26.505380 28.853158 0.489925 2.735396 0.058662 -0.030909 947385.000000 0 0 1
8.770967 6.003576 -26.606140 28.650646 0.600236 2.761527 0.070865 -0.031846 857731.000000 0 0 1
8.156567 4.847369 -31.067650 32.484234 0.536211 2.845184 0.051684 -0.021419 -9362.180000 0 0 1
8.198267 3.881969 -30.015600 31.356300 0.442233 2.848113 0.043569 -0.016130 365559.000000 0 0 1
8.046767 2.582269 -30.500330 31.649466 0.310526 2.871296 0.033792 -0.014833 -152289.000000 0 0 1
7.865767 1.507669 -29.405800 30.476949 0.189378 2.875683 0.039146 -0.015441 -1212970.000000 0 0 1
9.030767 1.276969 -28.740390 30.152868 0.140471 2.834300 0.046313 -0.019889 -674155.000000 0 0 1
8.796667 0.357569 -27.693060 29.058816 0.040626 2.833786 0.041855 -0.020916 -24539.400000 0 0 1
10.109367 -0.147631 -27.057870 28.885108 -0.014602 2.783997 0.036925 -0.026931 -159471.000000 0 0 1
10.816067 -1.032531 -27.882180 29.924395 -0.095174 2.770011 0.025370 -0.018886 -64758.900000 0 0 1
11.927767 -1.520031 -27.141250 29.685511 -0.126753 2.724555 0.028264 -0.015831 61944.900000 0 0 1
12.473167 -2.796931 -27.819960 30.616220 -0.220587 2.710877 0.027915 -0.016825 -279869.000000 0 0 1
11.602267 -3.880531 -27.659140 30.243994 -0.322767 2.725149 0.029363 -0.012838 -471560.000000 0 0 1
12.136167 -5.081131 -28.051710 30.983913 -0.396503 2.703032 0.047659 -0.011673 -363163.000000 0 0 1
11.331567 -6.260031 -27.517140 30.410285 -0.504716 2.701854 0.035360 -0.022569 -67619.100000 0 0 1
11.639367 -6.330531 -26.125090 29.292846 -0.498140 2.672235 0.054879 -0.025382 -102933.000000 0 0 1
10.802267 -7.185031 -25.396090 28.517978 -0.586946 2.669303 0.064540 -0.028791 -236954.000000 0 0 1
10.719167 -6.934631 -23.825970 27.030844 -0.574219 2.649691 0.066198 -0.025988 -556194.000000 0 0 1
11.860367 -7.227231 -23.079070 26.935936 -0.547273 2.599854 0.050929 -0.021861 -361567.000000 0 0 1
11.606667 -6.958731 -21.690270 25.565729 -0.540086 2.583774 0.060017 -0.024920 -328966.000000 0 0 1
12.874967 -6.931631 -20.824270 25.445285 -0.493879 2.529407 0.065402 -0.024127 -430757.000000 0 0 1
13.527567 -5.737431 -21.004170 25.633735 -0.401133 2.531152 0.053001 -0.020180 447193.000000 0 0 1
14.729867 -5.796231 -20.184970 25.651478 -0.374892 2.476554 0.058560 -0.016491 877731.000000 0 0 1
15.339667 -4.521731 -19.647870 25.333579 -0.286655 2.458408 0.064463 -0.016040 -111140.000000 0 0 1
16.018667 -3.694931 -20.588070 26.346135 -0.226699 2.467775 0.055388 -0.014075 414677.000000 0 0 1
16.487767 -2.503331 -19.975770 26.022001 -0.150679 2.445961 0.061728 -0.003396 237157.000000 0 0 1
17.646967 -1.742031 -20.671070 27.234964 -0.098397 2.432557 0.038251 -0.005095 1136180.000000 0 0 1
18.929567 -2.410031 -20.746170 28.187592 -0.126634 2.397944 0.062206 -0.012062 822912.000000 0 0 1
19.834967 -1.492331 -21.310670 29.151289 -0.075096 2.390637 0.064309 -0.003573 -681621.000000 0 0 1
21.212867 -2.037231 -21.625970 30.361466 -0.095744 2.363542 0.044858 -0.005233 -1539020.000000 0 0 1
22.088667 -2.208331 -20.485970 30.206968 -0.099645 2.316089 0.040430 -0.012262 642388.000000 0 0 1
23.332067 -2.822131 -20.727470 31.336525 -0.120370 2.293544 0.043234 -0.015748 30721.000000 0 0 1
24.320367 -2.089331 -21.621470 32.608795 -0.085698 2.295691 0.041533 -0.014881 -1620810.000000 0 0 1
23.815067 -1.988731 -22.967170 33.145186 -0.083314 2.336336 0.050822 -0.016128 -40526.700000 0 0 1
24.593767 -1.267331 -23.916170 34.328453 -0.051485 2.341564 0.054792 -0.015812 427667.000000 0 0 1
25.832767 -2.057131 -24.495770 35.659591 -0.079465 2.328057 0.063238 -0.023916 378872.000000 0 0 1
26.927467 -2.061231 -23.558970 35.838000 -0.076399 2.288125 0.064944 -0.022502 1280570.000000 0 0 1
28.030067 -2.861331 -24.102270 37.078178 -0.101728 2.278432 0.053630 -0.019463 384375.000000 0 0 1
29.062367 -2.161031 -24.911670 38.339047 -0.074222 2.278082 0.053298 -0.020408 -1626720.000000 0 0 1
28.633867 -1.774931 -26.210800 38.859423 -0.061908 2.311088 0.055159 -0.026032 -149933.000000 0 0 1
29.326867 -0.766431 -26.873260 39.784729 -0.026128 2.312394 0.056469 -0.033640 -895752.000000 0 0 1
28.618567 -0.543631 -28.208690 40.187661 -0.018993 2.348892 0.054836 -0.035402 873301.000000 0 0 1
27.273167 -0.046931 -28.310090 39.310165 -0.001721 2.374847 0.044509 -0.024751 832321.000000 0 0 1
27.029067 1.201869 -27.595550 38.646207 0.044437 2.366071 0.033009 -0.016154 -1257830.000000 0 0 1
25.588567 1.656069 -27.791190 37.813590 0.064629 2.396393 0.034697 -0.016725 -873942.000000 0 0 1
24.714467 0.954569 -26.956470 36.583704 0.038605 2.399186 0.047565 -0.017111 -476406.000000 0 0 1
23.404667 1.379169 -27.249270 35.947229 0.058859 2.431092 0.042116 -0.010908 -378149.000000 0 0 1
22.353467 0.984069 -26.209120 34.461049 0.043995 2.434946 0.041977 -0.006436 -280813.000000 0 0 1
22.410067 1.799169 -25.046760 33.656921 0.080112 2.410101 0.047582 -0.008890 316909.000000 0 0 1
21.381367 1.461569 -24.149170 32.287482 0.068251 2.415753 0.047893 -0.003706 -96005.000000 0 0 1
21.629567 2.178569 -22.790870 31.496160 0.100383 2.379812 0.045841 -0.004301 -247164.000000 0 0 1
21.368367 3.571169 -22.815770 31.462990 0.165594 2.382066 0.050321 -0.010133 456335.000000 0 0 1
21.474267 3.889169 -21.416170 30.576496 0.179166 2.346772 0.044867 -0.013280 -274513.000000 0 0 1
21.015667 5.337369 -21.064870 30.230358 0.248713 2.341739 0.045680 -0.008124 398499.000000 0 0 1
21.996367 6.321469 -21.463570 31.376520 0.279845 2.324117 0.048504 -0.006598 915993.000000 0 0 1
21.743067 7.567969 -20.943670 31.123503 0.334949 2.308947 0.041264 -0.007681 -353341.000000 0 0 1
22.072367 7.850469 -19.458570 30.454149 0.341717 2.263924 0.055330 -0.015538 -42397.600000 0 0 1
23.440767 8.132969 -19.191570 31.367676 0.333963 2.229164 0.056591 -0.012905 490445.000000 0 0 1
23.665667 8.220969 -17.826370 30.747807 0.334338 2.189231 0.072502 -0.032234 -96918.800000 0 0 1
23.519467 9.660069 -17.243570 30.721702 0.389719 2.166732 0.084252 -0.044507 -55538.900000 0 0 1
22.135767 9.950469 -17.191670 29.741512 0.422455 2.187116 0.065240 -0.042832 119469.000000 0 0 1
21.974567 11.316169 -16.792870 29.882064 0.475549 2.167564 0.048969 -0.037711 65905.900000 0 0 1
20.501367 11.809269 -16.641570 28.925884 0.522603 2.183789 0.048011 -0.039144 439573.000000 0 0 1
19.682267 11.801069 -17.762270 29.019909 0.540110 2.229474 0.039352 -0.040657 -164792.000000 0 0 1
19.075167 10.590069 -18.030270 28.303749 0.506808 2.261432 0.040581 -0.042493 -349693.000000 0 0 1
18.309167 10.371269 -19.410270 28.627739 0.515387 2.315866 0.036580 -0.020415 291725.000000 0 0 1
19.121867 10.359369 -20.547170 29.919033 0.496491 2.327817 0.041822 -0.011561 -118952.000000 0 0 1
18.365567 9.894169 -21.609270 30.035799 0.494153 2.373807 0.038434 -0.014651 -18939.900000 0 0 1
19.159767 9.946769 -22.958670 31.514051 0.478849 2.386958 0.052181 -0.013341 -59428.700000 0 0 1
19.521567 11.192469 -23.364570 32.438651 0.520585 2.374987 0.056869 -0.017517 516374.000000 0 0 1
20.244467 11.297669 -24.612070 33.811681 0.509012 2.386074 0.070228 -0.022259 201335.000000 0 0 1
20.208967 12.773569 -25.055850 34.631807 0.563670 2.379644 0.080957 -0.022618 235112.000000 0 0 1
20.970667 13.187769 -26.218050 36.070380 0.561376 2.384532 0.074695 -0.022337 477461.000000 0 0 1
20.889567 14.598469 -26.496670 36.763608 0.609947 2.375653 0.085131 -0.015176 -308487.000000 0 0 1
19.581767 15.073469 -27.131020 36.698056 0.656035 2.402833 0.079834 -0.015896 200878.000000 0 0 1
18.486967 15.126069 -26.214510 35.465003 0.685741 2.402627 0.057842 -0.003544 527981.000000 0 0 1
17.290267 15.568469 -26.856200 35.532887 0.733046 2.427690 0.043890 -0.011762 908503.000000 0 0 1
15.962667 15.097669 -26.182770 34.180167 0.757556 2.443427 0.060269 -0.015407 234713.000000 0 0 1
15.737767 13.707369 -26.366560 33.626846 0.716552 2.472029 0.042915 -0.008727 131386.000000 0 0 1
14.460567 13.190369 -26.061660 32.593005 0.739494 2.497440 0.025134 -0.011396 -204887.000000 0 0 1
14.383367 11.658469 -26.077120 31.981516 0.681142 2.524183 0.023869 -0.013292 -45921.200000 0 0 1
13.056267 11.195969 -25.958380 31.139257 0.708842 2.556430 0.028984 -0.012005 -90110.300000 0 0 1
12.932767 9.808769 -25.764190 30.450976 0.648883 2.579398 0.047013 -0.017021 132045.000000 0 0 1
11.477467 9.249069 -25.673370 29.604045 0.678295 2.620398 0.049376 -0.021142 295430.000000 0 0 1
10.900067 9.817369 -24.509570 28.564160 0.733185 2.602263 0.064472 -0.030556 -661682.000000 0 0 1
9.728067 9.149269 -24.179470 27.622295 0.754747 2.636978 0.070435 -0.028656 -660280.000000 0 0 1
8.956267 9.884869 -23.079770 26.657103 0.834644 2.617547 0.072833 -0.027435 -330827.000000 0 0 1
8.398367 11.118269 -23.411270 27.244010 0.923870 2.604731 0.071444 -0.027753 -397132.000000 0 0 1
7.769767 11.726769 -22.322270 26.385036 0.985638 2.579272 0.075647 -0.017043 -191271.000000 0 0 1
8.609167 12.627569 -21.397370 26.294880 0.972407 2.521366 0.073962 -0.020748 173270.000000 0 0 1
9.518267 11.933869 -20.546170 25.596089 0.897530 2.502618 0.080994 -0.029178 -192898.000000 0 0 1
10.362267 12.789669 -19.826470 25.768996 0.889863 2.448686 0.088342 -0.026961 289029.000000 0 0 1
11.551067 11.991869 -19.145070 25.372540 0.804119 2.425778 0.088426 -0.031223 544374.000000 0 0 1
12.551967 11.427969 -19.985670 26.221697 0.738560 2.437471 0.076868 -0.031513 284643.000000 0 0 1
12.128067 10.407569 -20.906470 26.315167 0.709200 2.488922 0.077122 -0.032803 -838751.000000 0 0 1
13.294167 9.674169 -21.598670 27.144557 0.629076 2.490943 0.071171 -0.031307 79358.700000 0 0 1
14.007767 8.826969 -20.720270 26.522868 0.562293 2.467419 0.091919 -0.040831 413921.000000 0 0 1
14.973667 8.050869 -21.435470 27.358848 0.493326 2.471064 0.084082 -0.038781 172287.000000 0 0 1
15.547167 6.862869 -20.610670 26.713538 0.415698 2.452061 0.109570 -0.039091 450989.000000 0 0 1
16.471467 7.144869 -19.531870 26.530216 0.409278 2.398253 0.076836 -0.029857 824336.000000 0 0 1
16.963267 5.907069 -19.007370 26.151979 0.335095 2.384454 0.062694 -0.036459 -89766.400000 0 0 1
17.784867 5.994469 -17.712770 25.806538 0.325096 2.327279 0.078485 -0.033307 261907.000000 0 0 1
19.007867 6.738169 -17.892370 26.959949 0.340673 2.296504 0.052706 -0.038365 943792.000000 0 0 1
19.815567 6.909469 -16.751470 26.851615 0.335506 2.244460 0.056230 -0.057398 125409.000000 0 0 1
20.668967 5.732669 -16.206070 26.883199 0.270556 2.217843 0.060336 -0.054956 -984214.000000 0 0 1
21.896567 5.559369 -16.841370 28.177970 0.248639 2.211399 0.053966 -0.050148 -360786.000000 0 0 1
22.565367 4.537769 -16.148570 28.116960 0.198448 2.182589 0.084106 -0.052734 -1665530.000000 0 0 1
23.899567 4.207969 -16.696170 29.456042 0.174283 2.173433 0.040454 -0.011172 -1623830.000000 0 0 1
24.569967 3.278369 -15.862970 29.428979 0.132646 2.140076 0.050576 -0.014794 -550107.000000 0 0 1
25.613567 2.759869 -16.590470 30.641726 0.107336 2.142938 0.044829 -0.019990 -732678.000000 0 0 1
26.422767 1.677169 -15.847170 30.856252 0.063389 2.110149 0.051818 -0.023651 -31233.200000 0 0 1
25.789467 0.425669 -16.003570 30.354441 0.016504 2.126126 0.064877 -0.013247 480030.000000 0 0 1
26.831667 -0.517831 -15.854770 31.170182 -0.019297 2.104415 0.047468 -0.011462 -16024.800000 0 0 1
26.478467 -1.980231 -16.049070 31.025847 -0.074647 2.114467 0.040958 -0.022205 -375071.000000 0 0 1
25.795667 -2.509531 -14.931670 29.911017 -0.096980 2.093475 0.051530 -0.021764 431443.000000 0 0 1
25.764367 -3.931531 -15.072270 30.107024 -0.151428 2.095115 0.043187 -0.021621 -1073830.000000 0 0 1
25.213867 -4.676831 -13.828070 29.134642 -0.183402 2.065336 0.049772 -0.023697 433694.000000 0 0 1
23.817167 -4.583631 -13.540570 27.777944 -0.190126 2.079972 0.074886 -0.016917 708906.000000 0 0 1
23.059967 -5.394331 -14.410370 27.722187 -0.229794 2.117429 0.081529 -0.017927 -1012930.000000 0 0 1
21.574267 -5.571631 -14.081270 26.358570 -0.252731 2.134381 0.101419 -0.018434 -494725.000000 0 0 1
21.313967 -6.400631 -13.006470 25.776375 -0.291734 2.099702 0.106079 -0.020043 472571.000000 0 0 1
21.092867 -5.658831 -11.812670 24.828826 -0.262110 2.066629 0.123993 -0.026594 -497323.000000 0 1 0
20.725467 -6.659331 -10.619170 24.221033 -0.310892 2.024645 0.114675 -0.028536 148277.000000 0 1 0
19.440867 -7.271831 -10.641470 23.325259 -0.357936 2.044540 0.106251 -0.023349 938748.000000 0 1 0
19.176867 -8.251431 -11.655970 23.910248 -0.406335 2.080007 0.092023 -0.034418 -1352650.000000 0 1 0
17.908567 -9.035131 -11.480470 23.111719 -0.467253 2.090633 0.117359 -0.037121 -576456.000000 0 1 0
16.746567 -8.245731 -11.707270 22.034059 -0.457536 2.130961 0.091301 -0.032199 19025.600000 0 1 0
15.621067 -9.008031 -12.069570 21.698776 -0.523080 2.160642 0.089024 -0.029487 236053.000000 0 1 0
14.399267 -8.084231 -12.393770 20.647015 -0.511579 2.214634 0.058199 -0.023813 -139573.000000 0 1 0
14.425867 -7.199131 -13.496170 21.025692 -0.462882 2.267756 0.059942 -0.025775 591517.000000 0 1 0
15.463667 -6.210031 -13.530970 21.465708 -0.381875 2.252804 0.061325 -0.022601 20636.000000 0 1 0
15.309867 -5.116631 -14.556670 21.736343 -0.322535 2.304591 0.052519 -0.018910 -589137.000000 0 1 0
14.342067 -4.202231 -14.177670 20.599999 -0.285023 2.329852 0.061986 -0.020085 -135339.000000 0 1 0
13.940467 -3.297431 -15.192370 20.881039 -0.232268 2.385566 0.053053 -0.018279 -204324.000000 0 1 0
14.898567 -2.103831 -15.448970 21.565345 -0.140283 2.369396 0.064285 -0.014968 -901070.000000 0 1 0
15.976367 -2.475231 -16.275370 22.940330 -0.153709 2.359536 0.064105 -0.013097 310757.000000 0 1 0
16.983167 -1.442031 -16.172570 23.495945 -0.084706 2.329958 0.069073 -0.008615 588822.000000 0 1 0
18.107067 -1.843631 -15.173070 23.695715 -0.101469 2.265724 0.084949 -0.011145 -553727.000000 0 1 0
17.661667 -1.857231 -13.857370 22.525774 -0.104771 2.233409 0.078173 -0.007499 500057.000000 0 1 0
18.727367 -2.423931 -13.105770 22.985885 -0.128717 2.177504 0.078746 -0.003044 383124.000000 0 1 0
18.347967 -2.769831 -11.641170 21.905175 -0.149830 2.131090 0.082252 -0.004976 -160744.000000 0 1 0
18.400567 -1.628731 -10.809670 21.402864 -0.088285 2.100245 0.087215 -0.008567 603717.000000 0 1 0
17.853067 -2.007031 -9.579470 20.359922 -0.111949 2.060661 0.079358 -0.006223 -917998.000000 0 1 0
17.712967 -0.892931 -8.609770 19.714834 -0.050368 2.022741 0.064408 -0.007212 471740.000000 0 1 0
18.908967 -0.416231 -7.942170 20.513419 -0.022009 1.968356 0.072147 -0.009327 1223450.000000 0 1 0
19.832967 0.306369 -8.721870 21.668213 0.015446 1.985063 0.069139 -0.009635 -641372.000000 0 1 0
19.443567 1.679369 -9.328070 21.630660 0.086158 2.016666 0.066910 -0.014749 -647237.000000 0 1 0
19.542167 2.815769 -8.465870 21.482453 0.143102 1.975866 0.066190 -0.014331 663088.000000 0 1 0
19.014367 3.981669 -9.074670 21.441770 0.206421 2.007797 0.061187 -0.022367 -134145.000000 0 1 0
18.901367 5.220869 -8.121470 21.224454 0.269497 1.963456 0.066596 -0.019278 -334310.000000 0 1 0
18.302067 6.361769 -8.710670 21.244141 0.334534 1.993280 0.068754 -0.029256 660576.000000 0 1 0
19.171267 7.140769 -9.585470 22.592240 0.356553 2.008965 0.115647 -0.000767 444888.000000 0 1 0
-26.242633 -29.462891 5.786330 39.877554 0.843142 1.425180 0.058038 -0.019400 -164279.000000 0 0 1
-26.656183 -28.213911 6.386830 39.336604 0.813780 1.407711 0.049772 -0.022690 -518407.000000 0 0 1
-25.682783 -27.209091 6.348730 37.950577 0.814247 1.402717 0.058871 -0.017427 -737349.000000 0 0 1
-25.949153 -26.057381 7.324030 37.496494 0.787479 1.374207 0.045016 -0.010363 -232458.000000 0 0 1
-27.081433 -25.234701 7.077130 37.686601 0.750113 1.381886 0.036048 -0.017221 89674.800000 0 0 1
-28.366073 -25.731491 7.372030 39.001161 0.736736 1.380631 0.042409 -0.017692 -148832.000000 0 0 1
-28.677793 -25.689181 8.883130 39.512780 0.730482 1.344041 0.033922 -0.015724 -887176.000000 0 0 1
-27.899103 -26.566871 9.625930 39.709156 0.760943 1.325946 0.030108 -0.019624 -496271.000000 0 0 1
-28.134453 -26.400111 11.003830 40.119790 0.753606 1.292961 0.024057 -0.024138 -174115.000000 0 0 1
-27.161933 -27.137651 11.965930 40.216989 0.784951 1.268687 0.013813 -0.026130 1104010.000000 0 0 1
-25.890883 -26.499741 12.204530 39.006725 0.797019 1.252570 0.025788 -0.016313 683570.000000 0 0 1
-25.950023 -25.784461 13.398330 38.958405 0.782198 1.219715 0.029526 -0.017208 196221.000000 0 0 1
-24.561733 -25.429341 14.018530 38.032214 0.802752 1.193298 0.050508 -0.022146 245674.000000 0 0 1
-23.887933 -26.469171 14.680130 38.558482 0.836612 1.180217 0.055858 -0.022185 202651.000000 0 0 1
-22.769733 -25.936761 15.407830 37.796528 0.850329 1.150915 0.064696 -0.024895 375579.000000 0 0 1
-21.907433 -27.065841 15.998430 38.320296 0.890342 1.140112 0.058828 -0.028771 -180485.000000 0 0 1
-22.622833 -27.771261 17.004930 39.651017 0.887208 1.127560 0.051384 -0.018299 796273.000000 0 0 1
-21.950533 -29.017271 17.254930 40.268604 0.923171 1.127969 0.066519 -0.016438 444166.000000 0 0 1
-22.933233 -29.859051 18.094930 41.772270 0.915843 1.122778 0.069301 -0.021001 309534.000000 0 0 1
-24.115033 -30.253291 17.434530 42.435354 0.897823 1.147411 0.034190 -0.013545 419732.000000 0 0 1
-24.848433 -31.219421 18.230530 43.868543 0.898543 1.142225 0.041695 -0.009702 266087.000000 0 0 1
-25.784543 -32.054821 17.352430 44.648192 0.893385 1.171633 0.038582 -0.018754 449276.000000 0 0 1
-24.955233 -32.938371 16.585730 44.528489 0.922427 1.189122 0.036749 -0.016499 745368.000000 0 0 1
-25.752953 -33.938321 16.001930 45.509185 0.921677 1.211496 0.035732 -0.016834 -134751.000000 0 0 1
-25.066343 33.556681 14.764530 44.411301 -0.929227 1.231896 0.041856 -0.023443 -7884.130000 0 0 1
-23.965333 32.721089 15.024130 43.251951 -0.938647 1.216039 0.031842 -0.023123 -432510.000000 0 0 1
-22.815033 33.428380 14.673330 43.049842 -0.971909 1.222981 0.034150 -0.016299 -1064390.000000 0 0 1
-21.503733 32.657193 14.572730 41.728494 -0.988491 1.214050 0.052537 -0.025206 -173606.000000 0 0 1
-21.530433 31.739473 13.572330 40.683680 -0.974750 1.230670 0.047639 -0.020309 -342689.000000 0 0 1
-20.405933 30.916853 13.628930 39.471529 -0.987405 1.218254 0.046005 -0.022023 -272612.000000 0 0 1
-20.284233 30.109373 12.299130 38.331358 -0.977951 1.244155 0.039781 -0.017781 157747.000000 0 0 1
-19.944133 30.907493 11.160030 38.439404 -0.997743 1.276227 0.036099 -0.016383 -133899.000000 0 0 1
-19.860333 30.064373 10.007730 37.395909 -0.987010 1.299879 0.032484 -0.013447 94901.100000 0 0 1
-19.421033 30.795603 8.708330 37.435019 -1.008149 1.336020 0.034626 -0.019540 -85755.500000 0 0 1
-18.026533 30.997473 8.642230 36.884785 -1.044055 1.334294 0.027291 -0.024088 -421476.000000 0 0 1
-17.575833 31.378483 7.382230 36.715343 -1.060214 1.368350 0.043608 -0.024840 68200.300000 0 0 1
-16.892833 30.240403 6.600130 35.262040 -1.061361 1.382512 0.034429 -0.026352 -68068.000000 0 0 1
-17.787133 29.235333 6.062630 34.754025 -1.024214 1.395455 0.031328 -0.015149 331942.000000 0 0 1
-17.956333 28.065743 6.837230 34.012696 -1.001628 1.368397 0.018767 -0.013223 -257777.000000 0 0 1
-19.016033 27.113763 6.251230 33.702277 -0.959170 1.384232 0.019350 -0.006796 -45645.000000 0 0 1
-18.536633 26.431583 5.153330 32.692386 -0.959194 1.412505 0.021360 -0.013603 635267.000000 0 0 1
-19.633033 25.875313 4.411830 32.778835 -0.921715 1.435793 0.042761 -0.019075 -350283.000000 0 0 1
-19.257733 25.149423 3.154030 31.832399 -0.917302 1.471551 0.051473 -0.025815 -1722070.000000 0 0 1
-18.768033 25.830603 2.054230 31.994983 -0.942452 1.506547 0.063672 -0.026485 517545.000000 0 0 1
-17.503233 26.489853 2.166830 31.824057 -0.986899 1.502656 0.050586 -0.021727 -181702.000000 0 0 1
-16.350333 25.476393 2.290030 30.358264 -1.000219 1.495291 0.035987 -0.020241 -1640180.000000 0 0 1
-16.313733 24.383043 1.364530 29.368905 -0.981138 1.524318 0.061578 -0.027421 67080.600000 0 0 1
-16.247633 24.688573 -0.076570 29.555322 -0.988746 1.573387 0.061352 -0.026124 -98086.900000 0 0 1
-15.923533 23.540123 -1.032470 28.438746 -0.976057 1.607109 0.065199 -0.036882 991701.000000 0 0 1
-17.015333 22.551263 -1.046270 28.269695 -0.924410 1.607815 0.083155 -0.047423 1370960.000000 0 0 1
-16.720433 21.384063 -1.831670 27.206728 -0.907183 1.638171 0.077064 -0.045095 878041.000000 0 0 1
-15.583533 20.376663 -1.332570 25.687168 -0.917907 1.622697 0.072476 -0.042577 1219040.000000 0 0 1
-16.139933 19.411663 -0.385470 25.247944 -0.877167 1.586064 0.083620 -0.048165 676526.000000 0 0 1
-15.130133 18.497263 0.011130 23.897066 -0.885196 1.570331 0.096915 -0.052467 108995.000000 0 1 0
-15.664933 17.502063 1.046730 23.511869 -0.840732 1.526262 0.082838 -0.046115 225293.000000 0 1 0
-16.351933 16.474263 0.324130 23.214050 -0.789125 1.556833 0.072596 -0.041031 273910.000000 0 1 0
-17.043133 15.598463 1.161230 23.132853 -0.741168 1.520577 0.084943 -0.053442 -259887.000000 0 1 0
-17.624233 14.389563 0.384530 22.755680 -0.684700 1.553897 0.089490 -0.045538 -1069580.000000 0 1 0
-18.645933 14.784363 -0.464870 23.800510 -0.670397 1.590330 0.101683 -0.046633 -755802.000000 0 1 0
-19.536933 13.732863 -0.622170 23.888708 -0.612682 1.596844 0.112893 -0.032535 -1318070.000000 0 1 0
-20.545333 14.114363 -1.701670 24.984428 -0.601938 1.638958 0.108792 -0.021588 -229655.000000 0 1 0
-21.452933 13.070263 -2.116170 25.209884 -0.547195 1.654837 0.108958 -0.023656 1351250.000000 0 0 1
-22.476833 12.600663 -1.235270 25.797492 -0.510950 1.618698 0.109919 -0.018673 -354105.000000 0 0 1
-23.693633 13.476263 -0.912270 27.273249 -0.517141 1.604252 0.103766 -0.016941 -802242.000000 0 0 1
-23.445633 14.749663 -0.313870 27.701061 -0.561543 1.582127 0.090503 -0.027438 1104110.000000 0 0 1
-24.648233 15.463763 0.107830 29.097680 -0.560308 1.567091 0.069081 -0.023630 865465.000000 0 0 1
-24.356933 16.758663 0.915430 29.579570 -0.602657 1.539843 0.057628 -0.024274 114240.000000 0 0 1
-23.904333 16.508163 2.247430 29.137390 -0.604385 1.493587 0.063956 -0.027951 417232.000000 0 0 1
-23.369733 17.585263 2.992230 29.399648 -0.645087 1.468842 0.055400 -0.029286 411317.000000 0 0 1
-24.454933 18.679063 3.310830 30.950165 -0.652285 1.463618 0.049927 -0.028991 333285.000000 0 0 1
-25.290573 18.312263 4.444030 31.538888 -0.626701 1.429419 0.055504 -0.029020 606637.000000 0 0 1
-26.600803 18.822963 4.451430 32.889540 -0.615814 1.435035 0.049433 -0.029159 -512439.000000 0 0 1
-27.579673 18.203363 3.502130 33.230493 -0.583393 1.465211 0.065326 -0.023834 -1903920.000000 0 0 1
-28.736483 18.968563 3.408530 34.600721 -0.583433 1.472126 0.065182 -0.018383 -743540.000000 0 0 1
-29.397033 18.583463 2.233930 34.849980 -0.563727 1.506651 0.072142 -0.015217 -542309.000000 0 0 1
-30.669683 19.385363 1.974530 36.336215 -0.563667 1.516429 0.079830 -0.028450 -456015.000000 0 0 1
-31.714543 19.203663 2.870730 37.186476 -0.544465 1.493521 0.128369 -0.022468 353267.000000 0 0 1
-32.935553 19.873663 2.531330 38.550237 -0.542924 1.505086 0.107726 -0.023950 819560.000000 0 0 1
-33.645973 20.409863 3.821930 39.537591 -0.545263 1.473979 0.090215 -0.027412 -153397.000000 0 0 1
-33.215843 21.688263 4.269430 39.898634 -0.578446 1.463584 0.086873 -0.029728 109301.000000 0 0 1
-33.554173 22.023863 5.591630 40.524059 -0.580838 1.432372 0.058467 -0.021832 158208.000000 0 0 1
-32.513403 23.006463 6.248930 40.317091 -0.615808 1.415174 0.084581 -0.030706 181976.000000 0 0 1
-32.421423 24.275493 5.631730 40.892109 -0.642700 1.432636 0.072071 -0.019977 418839.000000 0 0 1
-31.396253 25.061473 6.206130 40.648717 -0.673662 1.417520 0.065588 -0.016982 116227.000000 0 0 1
-31.797123 26.550503 6.006230 41.857628 -0.695719 1.426807 0.057191 -0.011464 -11242.600000 0 0 1
-32.811933 26.946783 6.903830 43.016449 -0.687564 1.409606 0.069505 -0.000913 54836.300000 0 0 1
-33.206033 28.264643 6.590330 44.101736 -0.705185 1.420800 0.043378 0.008399 -258479.000000 0 0 1
-34.233290 28.804943 7.572830 45.376102 -0.699498 1.403121 0.034007 0.010416 -724568.000000 0 0 1
-33.703153 28.924213 8.902830 45.296501 -0.709238 1.372963 0.051351 0.001692 665512.000000 0 0 1
-34.698261 29.312423 9.860630 46.480312 -0.701456 1.357026 0.048013 0.006391 1026160.000000 0 0 1
-35.824923 28.230423 10.133230 46.723273 -0.667388 1.352182 0.037945 0.011925 252737.000000 0 0 1
-35.327476 27.111873 10.869730 45.839232 -0.654572 1.331389 0.057891 0.003574 -48878.000000 0 0 1
-36.310573 26.458653 11.646730 46.412976 -0.629714 1.317148 0.057734 0.002264 -247755.000000 0 0 1
-35.903643 25.116313 12.314330 45.514212 -0.610422 1.296822 0.104128 -0.011893 -53132.600000 0 0 1
-34.880156 25.423973 13.251330 45.150874 -0.629857 1.272921 0.131533 -0.025424 -119563.000000 0 0 1
-34.414859 24.428753 14.078730 44.489966 -0.617294 1.248814 0.153724 -0.031741 207810.000000 0 0 1
-33.224493 24.996533 14.913430 44.171302 -0.645005 1.226401 0.152670 -0.035439 160103.000000 0 0 1
-33.574473 26.124733 15.717230 45.351717 -0.661252 1.216892 0.132433 -0.034174 -631413.000000 0 0 1
-32.474373 26.533523 16.464530 45.052119 -0.685057 1.196675 0.130938 -0.027717 -666262.000000 0 0 1
-32.587373 27.726083 17.395830 46.187525 -0.704972 1.184635 0.120252 -0.032261 -387468.000000 0 0 1
-32.774443 28.915053 16.652330 46.771193 -0.722918 1.206772 0.117197 -0.023849 144750.000000 0 0 1
-32.874003 30.051693 17.487130 47.849807 -0.740577 1.196671 0.094853 -0.017777 -102924.000000 0 0 1
-32.555533 31.387933 16.786030 48.237287 -0.767140 1.215371 0.076462 -0.014932 -127182.000000 0 0 1
-31.208703 31.695113 16.521330 47.450159 -0.793131 1.215164 0.060446 -0.014694 -278837.000000 0 0 1
-31.124623 32.864186 15.717830 47.914998 -0.812577 1.236573 0.041038 -0.002423 -349423.000000 0 0 1
-29.701343 33.273975 15.267030 47.142437 -0.842068 1.241001 0.060220 -0.009900 273095.000000 0 0 1
-29.100733 32.593323 14.149430 45.928027 -0.841949 1.257624 0.058271 -0.014824 525540.000000 0 0 1
-28.638443 31.243973 14.380030 44.756357 -0.828881 1.243699 0.067758 -0.020544 -237031.000000 0 0 1
-29.678393 30.149323 14.042030 44.575411 -0.793269 1.250321 0.098241 -0.021655 11208.500000 0 0 1
-29.935253 30.010833 12.687630 44.246417 -0.786659 1.279964 0.111464 -0.020997 -472733.000000 0 0 1
-30.764893 28.919613 12.526630 44.042469 -0.754491 1.282393 0.108045 -0.025283 -313826.000000 0 0 1
-30.938083 28.335493 11.106630 43.398414 -0.741518 1.311994 0.104727 -0.009638 300392.000000 0 0 1
-29.771063 27.753953 10.540830 42.044110 -0.750348 1.317384 0.099454 -0.011928 -37372.300000 0 0 1
-29.822273 27.845983 9.145630 41.813984 -0.751142 1.350292 0.094747 -0.012082 256159.000000 0 0 1
-28.673433 27.115983 8.414630 40.351558 -0.757489 1.360722 0.098248 -0.019258 200299.000000 0 0 1
-28.594273 27.375543 7.002130 40.200530 -0.763627 1.395723 0.088535 -0.025355 697177.000000 0 0 1
-27.453053 26.598323 6.531530 38.778883 -0.769586 1.401560 0.074026 -0.019181 1107690.000000 0 0 1
-27.090013 26.884253 5.005030 38.492625 -0.781586 1.440401 0.066923 -0.020386 -186031.000000 0 0 1
-26.122933 27.885593 4.890330 38.521802 -0.818023 1.443503 0.067176 -0.015516 -99952.800000 0 0 1
-25.816743 28.106463 3.507530 38.324669 -0.827835 1.479147 0.061960 -0.017418 -701222.000000 0 0 1
-24.946633 29.319303 3.149230 38.624780 -0.865803 1.489172 0.061329 -0.020403 538086.000000 0 0 1
-23.583233 28.950683 3.410330 37.495883 -0.887216 1.479718 0.062466 -0.019410 247481.000000 0 0 1
-22.710333 29.996013 3.058630 37.747519 -0.922759 1.489679 0.067381 -0.024331 204629.000000 0 0 1
-21.227833 29.574203 3.132330 36.538553 -0.948235 1.484964 0.047634 -0.024550 76197.200000 0 0 1
-20.241733 30.464153 2.688530 36.674522 -0.984334 1.497423 0.045932 -0.020970 -187842.000000 0 0 1
-18.968933 29.906683 2.992530 35.541318 -1.005558 1.486498 0.042760 -0.017935 335634.000000 0 0 1
-17.782933 30.846803 2.700830 35.707876 -1.047842 1.495087 0.052410 -0.024433 -94641.500000 0 0 1
-17.752933 32.012463 3.521130 36.774485 -1.064456 1.474900 0.061091 -0.029203 665635.000000 0 0 1
-16.584833 32.784828 3.181930 36.878534 -1.102464 1.484408 0.067210 -0.017175 667379.000000 0 0 1
-16.408733 33.990707 4.043130 37.959999 -1.121050 1.464084 0.072635 -0.020036 162589.000000 0 0 1
-17.372933 -33.156271 3.812930 37.625730 1.088156 1.469284 0.080632 -0.028004 353587.000000 0 0 1
-17.141133 -32.109851 4.728030 36.704431 1.080454 1.441624 0.083021 -0.027302 -468034.000000 0 0 1
-18.278733 -31.122081 4.842130 36.416236 1.039750 1.437435 0.093630 -0.018693 -482305.000000 0 0 1
-18.441933 -30.275561 3.705130 35.643267 1.023686 1.466658 0.087083 -0.011497 -148980.000000 0 0 1
-19.630733 -29.548131 3.821030 35.679938 0.984389 1.463499 0.093561 -0.018321 -279061.000000 0 0 1
-19.907533 -28.625091 2.549530 34.960060 0.963126 1.497805 0.073499 -0.021653 46801.600000 0 0 1
-19.147133 -27.442551 2.626130 33.564905 0.961604 1.492476 0.075748 -0.018014 150732.000000 0 0 1
-19.635733 -26.443061 1.699530 32.980083 0.932070 1.519241 0.060550 -0.007556 -88236.800000 0 0 1
-18.740933 -25.210671 1.635730 31.455939 0.931550 1.518772 0.071895 -0.007178 -137198.000000 0 0 1
-17.461233 -25.552041 1.131730 30.969053 0.971326 1.534244 0.094627 -0.016332 -707317.000000 0 0 1
-16.694033 -24.389431 1.137830 29.577521 0.970564 1.532317 0.079597 -0.016092 967145.000000 0 0 1
-15.164033 -24.574931 0.760730 28.886914 1.017932 1.544459 0.070796 -0.023811 1080280.000000 0 0 1
-14.889733 -24.740131 -0.644470 28.882409 1.029021 1.593112 0.065298 -0.018139 69417.700000 0 0 1
-14.931233 -23.545431 -1.340870 27.912846 1.005647 1.618853 0.071470 -0.024527 -411165.000000 0 0 1
-15.275733 -23.666231 -2.828870 28.309733 0.997615 1.670889 0.055203 -0.015082 -67907.600000 0 0 1
-14.194833 -23.993631 -3.677070 28.119539 1.036570 1.701938 0.074892 -0.016741 -107001.000000 0 0 1
-14.562433 -23.959831 -5.054970 28.490185 1.024672 1.749169 0.060229 -0.013173 -45590.700000 0 0 1
-13.506833 -24.424931 -6.063570 28.561839 1.065658 1.784720 0.077169 -0.025810 20076.500000 0 0 1
-13.117333 -25.770001 -5.918770 29.515914 1.099962 1.772693 0.042125 -0.021123 -416282.000000 0 0 1
-11.941133 -25.966731 -6.664470 29.347520 1.139771 1.799883 0.054163 -0.022816 35733.300000 0 0 1
23.200267 12.619469 28.051472 38.527763 0.498176 0.755273 0.008264 0.006415 -658239.000000 0 0 1
23.976167 11.504769 28.292492 38.828874 0.447391 0.754454 0.008001 0.006256 -400662.000000 0 0 1
23.506967 10.603969 29.317422 39.045268 0.423767 0.721437 0.018280 0.003053 -669958.000000 0 0 1
23.565267 11.116969 30.750612 40.305198 0.440795 0.702941 0.031233 -0.004532 95704.300000 0 0 1
22.666367 12.165369 31.032692 40.308664 0.492586 0.692149 0.030106 -0.003660 -2276.690000 0 0 1
22.900867 12.579869 32.352213 41.585677 0.502320 0.679375 0.037423 -0.007746 -345474.000000 0 0 1
21.857367 13.547969 32.903010 41.760029 0.554877 0.663394 0.030169 -0.009528 979631.000000 0 0 1
20.569667 12.961769 33.230441 41.175003 0.562287 0.631651 0.037340 -0.008014 1641920.000000 0 0 1
19.665167 13.852269 33.935493 41.595936 0.613677 0.616622 0.044163 -0.006908 631887.000000 0 0 1
18.464467 13.098769 -33.693970 40.593077 0.617010 2.549980 0.042080 -0.007362 -767002.000000 0 0 1
17.308867 13.030069 33.814988 40.160092 0.645289 0.569808 0.028760 -0.002037 -536607.000000 0 0 1
16.381867 12.406069 -33.551270 39.344172 0.648160 2.592050 0.023604 -0.003953 146391.000000 0 0 1
15.047467 11.913269 34.124748 39.151637 0.669667 0.512330 0.022597 -0.005336 156957.000000 0 0 1
15.290367 10.853969 33.241185 38.165172 0.617311 0.513598 0.022340 -0.001341 564251.000000 0 0 1
14.072567 10.382269 32.673074 37.058851 0.635626 0.491441 0.038593 0.001946 393236.000000 0 0 1
14.479067 9.403069 31.625882 36.031341 0.575971 0.499687 0.046366 0.008446 278127.000000 0 0 1
14.911467 8.117269 32.121932 36.332636 0.498506 0.486217 0.037310 0.002161 38052.500000 0 0 1
15.370067 7.269969 31.094602 35.439607 0.441811 0.500387 0.036529 -0.008947 357081.000000 0 0 1
15.823067 5.863569 31.674522 35.889083 0.354882 0.489502 0.055963 -0.017574 724736.000000 0 0 1
14.663067 5.080669 32.043532 35.603465 0.333548 0.451000 0.042897 -0.014913 485583.000000 0 0 1
14.961467 3.723769 32.151802 35.657402 0.243934 0.447142 0.051226 -0.021518 -225281.000000 0 0 1
13.807667 2.783469 32.503428 35.424176 0.198923 0.408924 0.037416 -0.019511 -355150.000000 0 0 1
14.262767 1.464569 32.764737 35.764501 0.102326 0.412492 0.038955 -0.026525 -203109.000000 0 0 1
13.270767 0.705669 33.415798 35.961463 0.053125 0.378523 0.033893 -0.023264 -571799.000000 0 0 1
13.785367 -0.669231 33.675139 36.393670 -0.048508 0.388965 0.016255 -0.021890 -135902.000000 0 0 1
14.026467 -1.460231 32.536975 35.461653 -0.103732 0.408983 0.002459 -0.022863 104036.000000 0 0 1
14.654367 -2.672831 32.948016 36.158903 -0.180408 0.424607 0.027511 -0.025339 -90508.700000 0 0 1
14.770367 -3.722931 31.839602 35.295669 -0.246911 0.446226 0.034676 -0.031117 -703492.000000 0 0 1
15.185367 -5.052431 32.275466 36.025382 -0.321196 0.460323 0.039587 -0.029493 896271.000000 0 0 1
16.513867 -5.316231 32.757721 37.068024 -0.311448 0.487046 0.036032 -0.030437 1240010.000000 0 0 1
17.740667 -4.967231 31.857532 36.800911 -0.273001 0.524304 0.041850 -0.033538 -218129.000000 0 0 1
17.834467 -3.567431 31.675572 36.525836 -0.197425 0.521225 0.043493 -0.039843 86812.700000 0 0 1
18.942567 -3.023431 30.963132 36.423585 -0.158275 0.554650 0.063895 -0.041202 168578.000000 0 0 1
18.921267 -1.471931 30.998792 36.347023 -0.077636 0.549365 0.073050 -0.043389 -494525.000000 0 0 1
19.110967 -0.871031 32.250565 37.497823 -0.045546 0.535399 0.064511 -0.039396 89691.900000 0 0 1
19.033767 0.529769 32.160832 37.374912 0.027826 0.534561 0.057444 -0.031012 299473.000000 0 0 1
20.348267 1.257869 31.733552 37.718067 0.061738 0.571047 0.068336 -0.031457 -114145.000000 0 0 1
20.695667 1.009769 30.373832 36.768192 0.048753 0.598663 0.078298 -0.031997 132989.000000 0 0 1
21.675667 1.877669 29.811012 36.906052 0.086410 0.630464 0.068457 -0.025286 230609.000000 0 0 1
21.214667 3.401869 29.721922 36.674616 0.159001 0.625924 0.059840 -0.009531 -49651.400000 0 0 1
20.882367 3.969369 30.968852 37.561935 0.187841 0.601524 0.057551 -0.017599 416856.000000 0 0 1
20.330267 5.294669 30.974342 37.426771 0.254773 0.595980 0.058091 -0.016154 -60254.700000 0 0 1
19.955867 5.762769 32.412736 38.497164 0.281128 0.569907 0.067051 -0.014811 -463939.000000 0 0 1
18.871967 5.128569 32.999274 38.358903 0.265348 0.534984 0.073284 -0.015039 -467094.000000 0 0 1
18.669567 5.565069 -33.928500 39.123725 0.289697 2.620369 0.062848 -0.013850 -543609.000000 0 0 1
17.446067 4.875969 -33.350170 37.952262 0.272534 2.644012 0.070223 -0.018352 -544442.000000 0 0 1
17.576167 3.469969 -33.230520 37.752216 0.194918 2.647137 0.061963 -0.016534 488619.000000 0 0 1
16.413967 2.936069 -32.599200 36.616208 0.177004 2.668787 0.055753 -0.018209 466563.000000 0 0 1
16.526267 1.412569 -32.873260 36.820702 0.085267 2.674304 0.038994 -0.023427 -637500.000000 0 0 1
17.703267 0.872869 -32.390880 36.923389 0.049266 2.640890 0.037790 -0.020400 -566507.000000 0 0 1
17.801767 -0.470631 -32.735480 37.265749 -0.026431 2.643370 0.045267 -0.017415 -70540.500000 0 0 1
18.932667 -1.119131 -31.913020 37.123297 -0.059042 2.605379 0.056346 -0.019192 -179707.000000 0 0 1
18.632867 -1.330731 -30.544950 35.804309 -0.071297 2.592710 0.057713 -0.017433 343119.000000 0 0 1
18.322567 -0.157431 -29.787660 34.972074 -0.008592 2.590123 0.043354 -0.012697 -257557.000000 0 0 1
17.931067 -0.410431 -28.329650 33.529997 -0.022885 2.577183 0.046143 -0.006179 -32299.400000 0 0 1
16.662267 -1.019731 -28.212680 32.781494 -0.061124 2.607298 0.059162 -0.011897 146008.000000 0 0 1
16.263267 -1.329831 -26.853470 31.422463 -0.081587 2.595566 0.053329 -0.006042 327044.000000 0 0 1
17.223967 -2.222631 -25.974950 31.245850 -0.128334 2.552255 0.057627 -0.003701 -186654.000000 0 0 1
18.377567 -1.582831 -25.493300 31.466628 -0.085916 2.515237 0.060698 -0.004236 -104871.000000 0 0 1
19.433367 -2.419131 -25.091040 31.828733 -0.123846 2.478860 0.050401 -0.005507 502678.000000 0 0 1
20.394967 -2.856231 -26.223040 33.343074 -0.139141 2.475855 0.057398 -0.013301 -690387.000000 0 0 1
21.447367 -2.062931 -26.675840 34.290606 -0.095891 2.462168 0.057130 -0.011649 -169098.000000 0 0 1
21.887767 -2.491231 -27.986990 35.616740 -0.113331 2.474756 0.056622 -0.013506 -299524.000000 0 0 1
23.273367 -2.074431 -28.471550 36.831808 -0.088898 2.454377 0.052910 -0.020437 -49659.800000 0 0 1
24.230967 -3.070131 -28.139620 37.261289 -0.126031 2.426751 0.058991 -0.024809 -133248.000000 0 0 1
25.555067 -2.731131 -28.457080 38.344829 -0.106468 2.407048 0.048540 -0.025317 -323765.000000 0 0 1
26.644267 -3.722231 -28.081370 38.888756 -0.138803 2.377622 0.056488 -0.027279 -480279.000000 0 0 1
26.571067 -4.903831 -28.844880 39.523364 -0.182502 2.388853 0.059032 -0.030173 -601899.000000 0 0 1
27.536167 -5.837031 -28.576990 40.111791 -0.208885 2.363757 0.053596 -0.031420 -742909.000000 0 0 1
27.518367 -6.668431 -27.261260 39.305277 -0.237744 2.337240 0.043878 -0.023793 -186199.000000 0 0 1
27.842667 -6.026131 -26.041110 38.596215 -0.213147 2.311363 0.041219 -0.015897 185026.000000 0 0 1
27.541467 -6.920431 -25.001770 37.835344 -0.246177 2.292687 0.029385 -0.017289 -147363.000000 0 0 1
27.846767 -6.485231 -23.542670 37.037251 -0.228811 2.259645 0.032258 -0.011183 -1060630.000000 0 0 1
29.180167 -6.251931 -23.303870 37.863428 -0.211062 2.233781 0.027290 -0.007830 -876468.000000 0 0 1
29.410967 -5.886431 -21.958270 37.172849 -0.197534 2.202731 0.042036 -0.018639 -649871.000000 0 0 1
30.819967 -5.392131 -21.680170 38.065407 -0.173203 2.176755 0.032948 -0.018044 -723948.000000 0 0 1
31.104867 -4.122331 -22.235570 38.456819 -0.131762 2.187312 0.040925 -0.024100 -498627.000000 0 0 1
32.274667 -3.550331 -21.748370 39.080054 -0.109563 2.160973 0.035202 -0.023915 -249593.000000 0 0 1
32.732867 -2.319431 -22.549070 39.815586 -0.070741 2.172852 0.042361 -0.029482 -249434.000000 0 0 1
31.882267 -1.247831 -22.279270 38.915317 -0.039119 2.180356 0.037560 -0.028975 4119.440000 0 0 1
32.315667 -0.095931 -22.908270 39.611872 -0.002969 2.187462 0.051274 -0.027720 -597211.000000 0 0 1
31.248467 0.959569 -22.763970 38.672804 0.030698 2.200159 0.047171 -0.021032 -473080.000000 0 0 1
30.088767 0.686969 -23.532770 38.204674 0.022827 2.234408 0.040089 -0.018251 -218846.000000 0 0 1
29.101967 1.563669 -23.073470 37.171960 0.053679 2.240460 0.034541 -0.009647 -967537.000000 0 0 1
27.812967 1.440969 -23.878570 36.685469 0.051763 2.279566 0.038220 -0.008740 -221249.000000 0 0 1
26.800067 2.321269 -23.338570 35.613491 0.086399 2.285415 0.033119 -0.003729 264314.000000 0 0 1
25.854267 2.516269 -24.363570 35.614018 0.097020 2.324166 0.032724 -0.009072 -486501.000000 0 0 1
24.856967 3.626269 -23.987270 34.733381 0.144864 2.333130 0.041306 -0.005598 -264655.000000 0 0 1
25.456967 4.940169 -23.878770 35.251356 0.191677 2.315000 0.036129 -0.002251 69788.400000 0 0 1
24.490367 5.916469 -23.674270 34.572442 0.237042 2.325088 0.046695 -0.008108 -493413.000000 0 0 1
25.056167 7.292469 -23.248870 34.949987 0.283221 2.298563 0.056716 -0.010484 59014.000000 0 0 1
25.766167 8.016769 -24.246970 36.277810 0.301641 2.302810 0.055618 -0.008717 294635.000000 0 0 1
25.947367 9.304369 -23.733370 36.374579 0.344303 2.281637 0.065925 -0.014297 -609130.000000 0 0 1
26.547567 10.214269 -24.766870 37.716077 0.367294 2.287186 0.081224 -0.011973 -110226.000000 0 0 1
25.813267 10.413469 -25.985240 38.078837 0.383447 2.321846 0.085631 -0.023619 822625.000000 0 0 1
24.544367 11.059769 -25.878960 37.342537 0.423355 2.336460 0.083135 -0.028301 499281.000000 0 0 1
23.992367 11.394069 -27.324010 38.105905 0.443370 2.370364 0.077523 -0.031999 -291477.000000 0 0 1
23.825667 10.266569 -28.216900 38.330905 0.406861 2.398145 0.080294 -0.029724 -273505.000000 0 0 1
24.916867 9.576669 -28.776790 39.251325 0.366938 2.393727 0.079209 -0.039322 -394577.000000 0 0 1
25.752067 10.338969 -29.847100 40.754296 0.381783 2.392588 0.086557 -0.033909 -1761860.000000 0 0 1
26.659867 11.169069 -29.219480 41.100786 0.396732 2.361606 0.091662 -0.024191 -235847.000000 0 0 1
27.652767 11.681169 -30.071290 42.490090 0.399686 2.357069 0.086626 -0.009484 733453.000000 0 0 1
28.804967 10.648169 -30.422710 43.227895 0.354085 2.351494 0.083698 -0.011949 -451666.000000 0 0 1
28.305767 9.607069 -31.218180 43.221372 0.327203 2.377898 0.074435 -0.016962 227144.000000 0 0 1
29.314367 8.741969 -31.716670 44.064740 0.289818 2.374274 0.066265 -0.011660 20106.000000 0 0 1
28.704967 7.685369 -32.626440 44.130767 0.261601 2.402846 0.064992 -0.011633 -495768.000000 0 0 1
27.602467 7.028569 -32.120510 42.930457 0.249337 2.416139 0.061137 -0.014229 -624412.000000 0 0 1
27.114067 6.111169 -33.025040 43.164480 0.221683 2.441989 0.062528 -0.007171 -82001.000000 0 0 1
25.901467 5.287469 -32.456850 41.860369 0.201371 2.458081 0.051466 -0.006769 776557.000000 0 0 1
24.643067 5.938669 -32.641800 41.328388 0.236478 2.481304 0.066053 -0.009684 313608.000000 0 0 1
24.241367 6.669969 -31.540750 40.335484 0.268504 2.468601 0.068933 -0.013565 -1208170.000000 0 0 1
22.756867 6.948869 -31.476540 39.458008 0.296360 2.494305 0.066307 -0.018345 -670741.000000 0 0 1
22.299767 7.973569 -32.432390 40.158652 0.343396 2.510878 0.070750 -0.015724 -178615.000000 0 0 1
20.905767 8.083369 -32.278050 39.297131 0.368951 2.534630 0.068550 -0.017487 -119311.000000 0 0 1
20.299367 9.140069 -33.268300 40.029801 0.423073 2.551858 0.061754 -0.017698 -122986.000000 0 0 1
20.294667 8.809469 33.615920 40.243141 0.409535 0.582081 0.058255 -0.015454 -4145.600000 0 0 1
20.021267 9.966869 32.819718 39.715533 0.461897 0.598166 0.047779 -0.012152 85882.200000 0 0 1
18.888667 9.694569 31.790072 38.227936 0.474190 0.588827 0.043430 -0.005440 -3738.850000 0 0 1
19.072067 8.765769 30.749732 37.230747 0.430819 0.598959 0.034679 -0.008835 424704.000000 0 0 1
20.143167 9.032069 29.798452 37.084676 0.421517 0.637603 0.038828 -0.003930 61521.600000 0 0 1
19.812967 9.956069 28.547342 36.147306 0.465648 0.660395 0.025923 0.001688 56448.200000 0 0 1
18.848167 9.349669 27.682782 34.770766 0.460484 0.649889 0.013826 0.006360 1090530.000000 0 0 1
17.519867 9.782669 28.043862 34.483396 0.509251 0.621069 0.021453 -0.006851 797812.000000 0 0 1
16.314067 9.190569 27.256092 33.068262 0.513037 0.601943 0.038213 -0.006295 39112.800000 0 0 1
16.261367 9.352569 25.867962 31.953937 0.521940 0.627430 0.028665 -0.004827 1444830.000000 0 0 1
14.998367 8.828469 25.324832 30.728489 0.532016 0.602100 0.051979 -0.008434 1452790.000000 0 0 1
14.752867 7.283469 25.225332 30.116663 0.458594 0.577945 0.047915 -0.006421 -190931.000000 0 0 1
14.650467 6.676269 26.480562 30.990788 0.427587 0.546275 0.043218 -0.006486 29129.200000 0 0 1
14.838967 5.296769 26.174932 30.551232 0.342853 0.541851 0.051252 -0.011123 -2933.980000 0 0 1
15.225467 4.337569 27.377162 31.624964 0.277537 0.524285 0.042360 -0.013582 925306.000000 0 0 1
16.563567 4.677969 27.848302 32.737793 0.275256 0.553582 0.046804 -0.008434 1302170.000000 0 0 1
16.960567 3.885269 28.948662 33.775453 0.225191 0.541199 0.056977 -0.011635 -23837.900000 0 0 1
17.332567 2.371269 28.774422 33.675038 0.135966 0.546260 0.062582 -0.013762 172346.000000 0 0 1
16.182467 1.574669 28.479122 32.793479 0.097002 0.518752 0.050603 -0.024014 854644.000000 0 0 1
15.524067 0.951169 29.611822 33.447891 0.061194 0.483632 0.045453 -0.028668 134003.000000 0 0 1
15.571467 -0.611931 29.734042 33.570200 -0.039278 0.482738 0.049246 -0.034704 -566876.000000 0 0 1
14.718667 -1.241331 28.777152 32.346631 -0.084138 0.474220 0.044132 -0.033847 297553.000000 0 0 1
15.173867 -1.378931 27.439782 31.386133 -0.090626 0.506878 0.057704 -0.024778 -30027.700000 0 0 1
16.451667 -2.259831 27.127352 31.806563 -0.136508 0.549309 0.060729 -0.021911 1456680.000000 0 0 1
17.679367 -1.879231 27.779962 32.982084 -0.105897 0.569308 0.060041 -0.031033 589152.000000 0 0 1
18.339367 -0.766631 27.221962 32.832230 -0.041778 0.593259 0.062690 -0.026736 -1139450.000000 0 0 1
19.815267 -0.714131 27.577432 33.965712 -0.036024 0.623363 0.094777 -0.026967 -585544.000000 0 0 1
20.711367 -1.540431 26.916642 33.997637 -0.074239 0.657175 0.092528 -0.024963 382576.000000 0 0 1
22.077267 -1.325731 27.295572 35.131347 -0.059978 0.680977 0.091380 -0.032061 998911.000000 0 0 1
23.114767 -1.957031 26.326642 35.088667 -0.084464 0.722297 0.092037 -0.021392 -92350.700000 0 0 1
23.207267 -1.328931 25.039092 34.165764 -0.057201 0.748264 0.101145 -0.009813 176233.000000 0 0 1
22.458467 -2.037531 24.083872 32.993441 -0.090477 0.752534 0.105142 0.003736 -70825.900000 0 0 1
22.461467 -1.341231 22.669732 31.941089 -0.059642 0.781673 0.099643 -0.012303 -360172.000000 0 0 1
21.774567 -0.144431 22.775632 31.510031 -0.006633 0.762942 0.094462 -0.006089 -155181.000000 0 0 1
21.477667 0.486569 21.602332 30.466173 0.022651 0.782633 0.082968 -0.001950 -158772.000000 0 0 1
-30.475833 -27.359824 -10.820570 42.360608 0.731573 1.829099 0.022788 0.006161 -89281.800000 0 0 1
-30.265933 -26.262224 -9.984570 41.296764 0.714689 1.814992 0.036712 0.007141 -218440.000000 0 0 1
-30.743823 -26.654624 -8.751170 41.620123 0.714276 1.782640 0.066427 -0.005395 -402131.000000 0 0 1
-31.110073 -25.545224 -7.734070 40.990376 0.687489 1.760614 0.084504 -0.009704 -633252.000000 0 0 1
-30.052793 -24.868524 -7.172670 39.661834 0.691283 1.752643 0.062037 -0.006165 -1023830.000000 0 0 1
-29.479033 -25.544624 -6.040170 39.471824 0.714016 1.724425 0.059773 -0.011722 324029.000000 0 0 1
-28.264273 -24.831124 -5.375270 38.004570 0.720828 1.712710 0.064725 0.003031 -20985.600000 0 0 1
-28.368053 -23.656024 -4.506370 37.211037 0.695071 1.692197 0.070306 -0.000302 -327646.000000 0 0 1
-29.070773 -22.620024 -5.178770 37.196707 0.661245 1.710477 0.074750 -0.002647 -98756.700000 0 0 1
-29.175233 -21.314824 -4.404770 36.399422 0.630956 1.692106 0.071349 -0.018318 559901.000000 0 0 1
-28.002643 -20.518224 -4.149270 34.962294 0.632353 1.689755 0.070160 -0.013144 634823.000000 0 0 1
-28.374453 -19.440924 -3.339970 34.557409 0.600694 1.667597 0.071944 -0.010128 -60445.000000 0 0 1
-27.312323 -18.335524 -3.244570 33.055736 0.591223 1.669109 0.070814 -0.012370 -160584.000000 0 0 1
-27.328233 -17.441524 -4.367670 32.712622 0.568052 1.704713 0.084548 -0.025884 245048.000000 0 0 1
-26.301123 -16.473024 -4.233270 31.321401 0.559551 1.706367 0.083470 -0.031146 107798.000000 0 0 1
-26.401343 -15.441024 -5.336170 31.047236 0.529211 1.743527 0.088754 -0.041356 244713.000000 0 0 1
-27.673143 -14.819124 -5.271570 31.830783 0.491647 1.737175 0.077898 -0.035381 155567.000000 0 0 1
-27.766243 -13.704124 -6.078670 31.554992 0.458477 1.764645 0.104296 -0.049887 780456.000000 0 0 1
-29.234473 -13.139724 -6.011570 32.610516 0.422405 1.756201 0.085304 -0.038119 347981.000000 0 0 1
-30.232643 -13.886324 -6.616170 33.920737 0.430574 1.767103 0.084469 -0.036516 73353.900000 0 0 1
-31.468793 -13.246824 -6.283270 34.716606 0.398436 1.752787 0.070801 -0.032811 457087.000000 0 0 1
-32.743803 -13.795624 -6.978170 36.210092 0.398750 1.764723 0.051019 -0.029279 -21300.100000 0 0 1
-33.108023 -15.046924 -6.416470 36.928610 0.426573 1.745436 0.043058 -0.030909 186330.000000 0 0 1
-33.394703 -16.021924 -7.462070 37.783472 0.447337 1.769599 0.048063 -0.026992 -934868.000000 0 0 1
-34.367464 -17.145324 -7.078670 39.053710 0.462753 1.753059 0.037579 -0.025690 -121236.000000 0 0 1
-35.703536 -16.767024 -6.843370 40.033827 0.439048 1.742580 0.047141 -0.025548 -7565.200000 0 0 1
-35.981275 -15.954424 -5.709570 39.771786 0.417359 1.714852 0.044804 -0.027166 -1135890.000000 0 0 1
35.575383 -15.929224 -5.469370 39.360666 -0.420989 1.710203 0.070740 -0.024211 -868961.000000 0 0 1
34.876963 -15.146724 -6.421370 38.562414 -0.409713 1.738095 0.068884 -0.031842 1497910.000000 0 0 1
33.436323 -15.316324 -6.269370 37.307941 -0.429548 1.739641 0.086446 -0.033976 1670220.000000 0 0 1
32.732793 -14.542824 -5.100570 36.179349 -0.418095 1.712248 0.092718 -0.032624 -687542.000000 0 0 1
32.841693 -15.100624 -3.840570 36.350455 -0.430974 1.676648 0.084416 -0.024517 610895.000000 0 0 1
32.139143 -14.331824 -2.811270 35.301968 -0.419465 1.650516 0.107668 -0.030546 -662440.000000 0 0 1
32.089303 -15.078024 -1.452770 35.484936 -0.439260 1.611748 0.105373 -0.024672 -426205.000000 0 0 1
33.251833 -15.176524 -0.633870 36.556984 -0.428173 1.588136 0.112708 -0.019460 402017.000000 0 0 1
34.425393 -15.693524 -1.224570 37.853586 -0.427725 1.603152 0.089671 -0.017638 -704381.000000 0 0 1
34.273923 -17.149924 -1.749970 38.365141 -0.463950 1.616426 0.075030 -0.020697 -1295450.000000 0 0 1
34.592233 -18.103624 -0.767170 39.050638 -0.482148 1.590443 0.066662 -0.014488 259070.000000 0 0 1
34.354883 -19.487424 -1.055670 39.511164 -0.515982 1.597518 0.051440 -0.022818 -100538.000000 0 0 1
35.241863 -20.179424 -2.128370 40.666055 -0.520027 1.623158 0.050578 -0.032695 -374900.000000 0 0 1
35.134543 -19.680524 -3.445270 40.418177 -0.510601 1.656141 0.036927 -0.031496 -82464.000000 0 0 1
35.716953 -20.517324 -4.399270 41.424810 -0.521415 1.677196 0.064315 -0.032436 -252880.000000 0 0 1
35.775483 -19.904624 -5.841270 41.354560 -0.507725 1.712519 0.073645 -0.035933 -112930.000000 0 0 1
34.529413 -19.919024 -6.501370 40.389549 -0.523239 1.732466 0.072531 -0.039591 151908.000000 0 0 1
34.537133 -19.039324 -7.590470 40.161233 -0.503819 1.760940 0.082311 -0.038642 -159655.000000 0 0 1
33.395273 -19.289124 -8.572470 39.506984 -0.523786 1.789522 0.095154 -0.043359 -140331.000000 0 0 1
33.714543 -20.409124 -9.313570 40.496238 -0.544345 1.802860 0.107439 -0.044223 439017.000000 0 0 1
32.632623 -20.748324 -10.158070 39.982089 -0.566339 1.827678 0.104066 -0.049323 -134096.000000 0 0 1
32.562373 -22.252724 -10.582970 40.834925 -0.599490 1.832954 0.098642 -0.032614 -155524.000000 0 0 1
32.262633 -23.037524 -9.448770 40.753948 -0.620101 1.804775 0.086944 -0.029237 156204.000000 0 0 1
31.930273 -24.356024 -9.809870 41.339954 -0.651635 1.810379 0.068252 -0.015970 -293983.000000 0 0 1
31.094813 -25.183524 -8.833870 40.977244 -0.680745 1.788082 0.058040 -0.019636 -786572.000000 0 0 1
29.788173 -24.747424 -8.645970 39.680260 -0.693230 1.790449 0.051488 -0.021130 -1421780.000000 0 0 1
29.015463 -25.769024 -8.172170 39.657585 -0.726209 1.778352 0.026805 -0.018526 -1374310.000000 0 0 1
27.620363 -25.196424 -8.034470 38.239991 -0.739537 1.782480 0.019742 -0.034962 -1124450.000000 0 0 1
27.080563 -24.785224 -9.250270 37.858047 -0.741172 1.817636 0.024369 -0.029588 -747048.000000 0 0 1
25.806363 -24.237524 -9.088570 36.551717 -0.754059 1.822082 0.037139 -0.039818 -556794.000000 0 0 1
25.331463 -23.744624 -10.463470 36.262576 -0.753075 1.863506 0.086879 -0.043038 -789774.000000 0 0 1
24.707563 -24.688624 -11.260470 36.698638 -0.785015 1.882663 0.073838 -0.043115 352321.000000 0 0 1
24.047063 -24.039424 -12.364870 36.180729 -0.785239 1.919578 0.086661 -0.023265 -218173.000000 0 0 1
23.008263 -24.831524 -13.126470 36.308249 -0.823492 1.940703 0.089534 -0.039288 -753518.000000 0 0 1
23.597363 -25.859024 -13.782470 37.622881 -0.831097 1.945860 0.092627 -0.039378 -325917.000000 0 0 1
22.963063 -27.113024 -13.632370 38.056009 -0.868082 1.937155 0.090049 -0.015673 -478311.000000 0 0 1
23.797963 -28.324124 -14.004970 39.556772 -0.872019 1.932692 0.082748 -0.030329 -576553.000000 0 0 1
23.778663 -28.461324 -15.391070 40.154163 -0.874797 1.964162 0.097260 -0.025073 266103.000000 0 0 1
24.089663 -29.797224 -15.633470 41.383473 -0.890922 1.958184 0.075202 -0.009405 -390525.000000 0 0 1
24.168763 -30.015524 -17.175670 42.190810 -0.892887 1.990068 0.077044 -0.018871 -554634.000000 0 0 1
22.954063 -29.766824 -17.814270 41.596887 -0.913909 2.013362 0.088283 -0.019754 -381671.000000 0 0 1
22.920363 -30.243824 -19.153270 42.507407 -0.922288 2.038219 0.079003 -0.020077 411560.000000 0 0 1
21.550363 -29.926324 -19.834270 41.873635 -0.946698 2.064249 0.064653 -0.013419 482543.000000 0 0 1
21.600863 -30.135224 -21.214470 42.717476 -0.948885 2.090500 0.047272 -0.007911 -275190.000000 0 0 1
20.285763 -30.113624 -21.683470 42.290843 -0.977981 2.109149 0.054200 -0.014541 -653515.000000 0 0 1
20.122163 -30.268124 -23.237570 43.139836 -0.984089 2.139638 0.053205 -0.010979 -290545.000000 0 0 1
20.664663 -29.189124 -23.999470 43.069802 -0.954750 2.161834 0.061581 -0.013078 432101.000000 0 0 1
20.674463 -29.519724 -25.361510 44.068739 -0.959828 2.184010 0.060420 -0.015741 -615121.000000 0 0 1
21.190863 -28.307924 -26.182080 43.998779 -0.928202 2.208141 0.062713 -0.021194 379659.000000 0 0 1
20.249263 -27.243624 -26.279960 42.928825 -0.931619 2.229605 0.089003 -0.028039 354849.000000 0 0 1
19.032363 -27.524824 -26.948920 42.966162 -0.965824 2.248766 0.103397 -0.027160 -139475.000000 0 0 1
18.318063 -26.221024 -27.396520 42.114877 -0.961009 2.279064 0.096663 -0.030099 -20191.900000 0 0 1
17.447863 -25.664924 -26.417670 40.755485 -0.973734 2.276013 0.076365 -0.018714 175763.000000 0 0 1
16.916063 -24.406824 -26.833430 40.023483 -0.964725 2.305601 0.054602 -0.007304 98703.700000 0 0 1
15.753763 -23.981724 -25.911150 38.661245 -0.989581 2.305288 0.052649 -0.011260 553941.000000 0 0 1
14.467963 -24.550724 -26.207820 38.715757 -1.038275 2.314379 0.094507 -0.016264 324845.000000 0 0 1
13.396563 -24.175124 -25.362650 37.512245 -1.064775 2.313275 0.076472 -0.016999 112166.000000 0 0 1
13.415463 -24.587124 -23.830270 36.774762 -1.071315 2.275760 0.064383 -0.012394 -92910.400000 0 0 1
14.440463 -23.854024 -23.141270 36.236167 -1.026439 2.263505 0.036810 -0.009034 290855.000000 0 0 1
14.345963 -24.159124 -21.773770 35.546688 -1.034940 2.230066 0.056481 -0.017332 614575.000000 0 0 1
15.605963 -23.594524 -21.018070 35.242119 -0.986433 2.209793 0.027970 -0.018566 719238.000000 0 0 1
15.634063 -22.193624 -20.815570 34.209192 -0.957097 2.224939 0.028605 -0.022093 -262579.000000 0 0 1
16.865763 -21.775824 -20.290170 34.210108 -0.911788 2.205706 0.043053 -0.020383 -395006.000000 0 0 1
16.773963 -20.396624 -19.600270 32.887060 -0.882552 2.209291 0.042440 -0.002572 206400.000000 0 0 1
15.989663 -20.450024 -18.411270 31.825268 -0.907196 2.187698 0.045961 -0.015078 370261.000000 0 0 1
14.697363 -19.910324 -18.577770 30.944580 -0.934904 2.214743 0.045171 -0.022369 120270.000000 0 0 1
13.673563 -19.937824 -17.401170 29.787311 -0.969657 2.194666 0.046977 -0.020001 293193.000000 0 0 1
13.858463 -18.885924 -16.523370 28.666302 -0.937745 2.185118 0.062560 -0.018113 328307.000000 0 0 1
12.817963 -18.804024 -15.566070 27.571616 -0.972485 2.170707 0.066193 -0.017360 79329.000000 0 0 1
12.906563 -17.503824 -14.705370 26.252831 -0.935436 2.165356 0.056368 -0.012677 -304624.000000 0 0 1
12.729163 -16.384624 -15.589370 25.952186 -0.910302 2.215168 0.068431 -0.029221 235769.000000 0 0 1
12.659163 -15.174724 -14.868670 24.730629 -0.875531 2.215829 0.055615 -0.029874 -706610.000000 0 1 0
11.259763 -14.808524 -14.400870 23.525724 -0.920700 2.229551 0.051378 -0.022629 -431694.000000 0 1 0
10.405263 -14.345424 -15.465870 23.521348 -0.943267 2.288325 0.063135 -0.017097 506306.000000 0 1 0
9.152463 -13.857324 -14.996170 22.375838 -0.987090 2.305268 0.063600 -0.019018 567700.000000 0 1 0
8.303763 -13.074924 -16.034070 22.293441 -1.004974 2.373487 0.055175 -0.022307 -67011.000000 0 1 0
8.838763 -11.857124 -16.493970 22.153243 -0.930221 2.410641 0.052054 -0.020644 -159444.000000 0 1 0
9.937663 -11.987724 -17.367570 23.325848 -0.878629 2.410677 0.068218 -0.020821 -104798.000000 0 1 0
10.075363 -10.991724 -18.508570 23.767585 -0.828868 2.463438 0.070827 -0.017618 82059.200000 0 1 0
9.192963 -11.236624 -19.594770 24.387032 -0.885101 2.503933 0.069663 -0.018514 399038.000000 0 1 0
9.301963 -10.148324 -20.496370 24.690407 -0.828885 2.550146 0.052456 -0.016149 88249.800000 0 1 0
8.977463 -10.390924 -21.987770 25.923506 -0.858247 2.583334 0.056725 -0.008897 438631.000000 0 0 1
10.098363 -10.940724 -22.683970 27.133722 -0.825415 2.560761 0.077770 -0.020694 157858.000000 0 0 1
10.009263 -10.778024 -24.067370 28.206195 -0.822364 2.593012 0.072622 -0.017073 -312527.000000 0 0 1
11.098963 -11.451524 -24.872470 29.545967 -0.801031 2.571448 0.105531 -0.021913 -369423.000000 0 0 1
10.948263 -12.839524 -24.599670 29.830548 -0.864737 2.540374 0.103910 -0.027400 250559.000000 0 0 1
12.054163 -13.555124 -25.128110 30.991388 -0.843941 2.516330 0.101085 -0.037094 200502.000000 0 0 1
12.167063 -14.967524 -24.557670 31.227286 -0.888240 2.475783 0.092172 -0.034235 -60860.300000 0 0 1
11.272063 -15.840724 -25.208030 31.834458 -0.952336 2.484624 0.100337 -0.038213 -93769.200000 0 0 1
10.997763 -16.951224 -24.389170 31.672171 -0.995273 2.449717 0.093744 -0.037434 130486.000000 0 0 1
9.796763 -17.745324 -24.948870 32.145283 -1.066361 2.459299 0.099129 -0.040549 195678.000000 0 0 1
10.133163 -18.415424 -26.161690 33.559542 -1.067758 2.464760 0.096712 -0.046904 450535.000000 0 0 1
8.949163 -18.939124 -26.777230 33.997029 -1.129371 2.477757 0.100041 -0.049042 471524.000000 0 0 1
9.193463 -19.871324 -27.981110 35.529309 -1.137473 2.477620 0.080392 -0.041648 -567515.000000 0 0 1
9.967063 -20.974224 -27.655660 36.112269 -1.127180 2.443119 0.075968 -0.041441 -406693.000000 0 0 1
9.782463 -21.952624 -28.662720 37.405425 -1.151593 2.443815 0.072199 -0.032456 2228.720000 0 0 1
10.757663 -23.152024 -28.672770 38.391031 -1.135824 2.414126 0.049094 -0.020681 -34030.000000 0 0 1
10.387563 -24.058924 -29.697890 39.606792 -1.163218 2.418583 0.057558 -0.015912 79609.300000 0 0 1
10.892763 -25.373024 -29.534230 40.431589 -1.165285 2.389812 0.072281 -0.012090 12163.300000 0 0 1
10.212763 -26.229424 -28.441580 40.015081 -1.199493 2.361391 0.078500 -0.019984 255060.000000 0 0 1
10.894963 -25.946824 -27.249300 39.172213 -1.173257 2.340090 0.077384 -0.020880 -241689.000000 0 0 1
10.124163 -26.242924 -26.111130 38.379433 -1.202603 2.319025 0.060782 -0.018913 -291938.000000 0 0 1
9.446663 -25.040724 -25.551170 37.001886 -1.210053 2.333028 0.057276 -0.020599 -327934.000000 0 0 1
10.235663 -24.012924 -24.978670 36.129258 -1.167862 2.334179 0.049110 -0.015901 -673514.000000 0 0 1
9.451163 -22.905624 -24.664770 34.962022 -1.179464 2.353887 0.060332 -0.023090 -360732.000000 0 0 1
10.288963 -21.649124 -24.495870 34.272365 -1.127136 2.367050 0.086658 -0.031352 38979.600000 0 0 1
11.039363 -21.653524 -23.288470 33.661484 -1.099325 2.334835 0.082376 -0.026326 239004.000000 0 0 1
12.073663 -20.663124 -23.290970 33.394720 -1.041994 2.342622 0.088937 -0.030763 250786.000000 0 0 1
12.785463 -20.687224 -21.886170 32.717484 -1.017220 2.303584 0.068719 -0.024586 158346.000000 0 0 1
12.054963 -20.122624 -20.763070 31.326462 -1.031057 2.295344 0.042191 -0.024501 -7546.580000 0 0 1
11.698663 -18.744824 -20.817370 30.357702 -1.012844 2.326411 0.044275 -0.026949 -611605.000000 0 0 1
12.793563 -17.693424 -20.848570 30.189326 -0.944755 2.333107 0.062312 -0.025606 -714890.000000 0 0 1
13.613063 -17.799624 -21.970470 31.382219 -0.917893 2.346324 0.062038 -0.026080 -611397.000000 0 0 1
14.601963 -16.824724 -21.873970 31.221134 -0.856009 2.347054 0.062335 -0.019374 -67185.800000 0 0 1
15.865563 -16.967524 -22.785270 32.538923 -0.818948 2.346539 0.036939 -0.008442 375592.000000 0 0 1
16.955963 -17.559224 -22.099970 32.927795 -0.802875 2.306575 0.039431 0.004524 137964.000000 0 0 1
18.169363 -17.193524 -22.730670 33.799799 -0.757810 2.308390 0.031530 0.013095 614477.000000 0 0 1
19.414863 -17.718424 -21.907270 34.217071 -0.739745 2.265612 0.022397 0.015692 624699.000000 0 0 1
19.606663 -19.156824 -21.929270 35.104103 -0.773794 2.245534 0.028595 0.003682 -457869.000000 0 0 1
20.844463 -19.464024 -21.380570 35.643634 -0.751165 2.214101 0.023456 0.009421 -406709.000000 0 0 1
21.024563 -21.002524 -21.258170 36.538309 -0.784874 2.191743 0.025663 -0.001161 137221.000000 0 0 1
20.263963 -21.558924 -20.184770 35.816761 -0.816351 2.169481 0.036743 0.003292 479755.000000 0 0 1
20.680763 -22.919124 -19.991470 36.778242 -0.836692 2.145478 0.056855 -0.007197 121764.000000 0 0 1
-17.452433 12.757069 28.257342 35.578190 -0.631205 0.653054 0.028681 -0.031429 -170527.000000 0 0 1
-18.546233 13.620169 28.036032 36.269697 -0.633436 0.687259 0.017340 -0.027358 10736.300000 0 0 1
-18.990933 13.478669 26.699092 35.428401 -0.617235 0.717264 0.038083 -0.024854 264985.000000 0 0 1
-20.112633 14.490069 26.321582 36.156684 -0.624317 0.755416 0.048964 -0.023815 305227.000000 0 0 1
-19.631033 15.792069 26.478532 36.549687 -0.677445 0.760556 0.044919 -0.013595 -157169.000000 0 0 1
-20.602033 16.693569 26.030002 37.157503 -0.680982 0.794654 0.027051 -0.010290 -742744.000000 0 0 1
-20.348533 18.166869 26.223312 37.838605 -0.728815 0.805112 0.024150 0.000543 624639.000000 0 0 1
-19.171633 18.708269 25.585172 37.042569 -0.773166 0.808345 0.026155 -0.010574 1222780.000000 0 0 1
-18.033133 18.672669 26.476722 37.079365 -0.802820 0.775522 0.041507 -0.012293 1187840.000000 0 0 1
-16.744533 19.413969 25.935722 36.468388 -0.859090 0.779616 0.054473 -0.008791 856343.000000 0 0 1
-17.026933 20.784669 25.685152 37.170499 -0.884453 0.807912 0.058102 -0.009639 -451249.000000 0 0 1
-15.959333 21.400269 25.077242 36.627038 -0.930018 0.816653 0.076939 -0.012514 -461379.000000 0 0 1
-16.187033 22.916669 25.128782 37.664964 -0.955826 0.840399 0.063049 -0.013236 133923.000000 0 0 1
-15.675033 23.505369 26.314102 38.608821 -0.982653 0.820908 0.060962 -0.006736 -51144.100000 0 0 1
-15.865333 24.914269 26.318252 39.561092 -1.003759 0.842960 0.052284 -0.009702 -227318.000000 0 0 1
-15.272933 25.776469 27.425312 40.618181 -1.035899 0.829563 0.033279 -0.002475 -673478.000000 0 0 1
-13.926833 26.092769 27.256222 40.220529 -1.080520 0.826208 0.041563 -0.008358 -668073.000000 0 0 1
-13.485733 27.013569 28.271122 41.362474 -1.107772 0.818254 0.051347 -0.004496 708840.000000 0 0 1
-11.929433 27.055569 28.336312 40.954387 -1.155516 0.806680 0.065372 -0.011670 668864.000000 0 0 1
-11.267633 27.746669 27.289182 40.515882 -1.185051 0.831805 0.063898 -0.010542 -560321.000000 0 0 1
-9.887933 27.572069 27.431942 40.131056 -1.226462 0.818169 0.051912 -0.010179 -317307.000000 0 0 1
-9.071133 28.321769 26.315622 39.710453 -1.260832 0.846395 0.053855 -0.013773 787880.000000 0 0 1
-7.656933 28.089469 26.443652 39.330823 -1.304671 0.833432 0.041811 -0.016229 862934.000000 0 0 1
-7.030733 28.540069 25.231102 38.737260 -1.329260 0.861448 0.057505 -0.018190 436454.000000 0 0 1
-5.548133 28.042869 25.262262 38.149262 -1.375474 0.847052 0.051235 -0.019681 -242733.000000 0 0 1
-4.756233 28.764669 26.158782 39.170267 -1.406929 0.839517 0.060290 -0.021836 -189760.000000 0 0 1
-3.362333 28.562869 26.112352 38.845820 -1.453619 0.833613 0.048944 -0.017394 183088.000000 0 0 1
-2.684733 29.345469 24.957042 38.616296 -1.479563 0.868093 0.038897 -0.016275 -1012460.000000 0 0 1
-2.940133 28.998569 23.625602 37.519735 -1.469753 0.889649 0.029447 -0.014470 -127815.000000 0 0 1
-2.532433 29.955669 22.665832 37.649639 -1.486458 0.924768 0.029880 -0.016705 -263709.000000 0 0 1
-3.161433 29.684169 21.266532 36.652557 -1.464694 0.951798 0.029811 -0.013875 429640.000000 0 0 1
-4.570433 29.786169 21.194732 36.841843 -1.418542 0.957838 0.026668 -0.000715 60483.800000 0 0 1
-5.153433 28.492469 21.341632 35.970042 -1.391861 0.935623 0.037227 0.001715 1245020.000000 0 0 1
-6.718133 28.326469 21.067832 35.935717 -1.337931 0.944356 0.037035 -0.000642 1355410.000000 0 0 1
-7.062333 28.680069 19.730532 35.520654 -1.329355 0.981872 0.032813 -0.004551 55970.700000 0 0 1
-7.853033 27.762169 18.999932 34.545703 -1.295130 0.988439 0.004910 -0.003657 -949436.000000 0 0 1
-7.310333 26.320169 18.639132 33.069768 -1.299879 0.972022 -0.002741 -0.000249 735072.000000 0 0 1
-6.144533 26.197669 17.793232 32.259453 -1.340416 0.986555 -0.004129 0.003267 353678.000000 0 0 1
-4.942733 26.460969 18.464932 32.643027 -1.386131 0.969560 0.014071 0.002407 -985365.000000 0 0 1
-3.863233 26.813069 17.412932 32.203656 -1.427701 0.999512 0.014568 0.003850 -220094.000000 0 0 1
-3.318733 25.661669 16.792532 30.846789 -1.442184 0.995140 0.022647 -0.004632 -218408.000000 0 0 1
-2.644533 26.099969 15.632332 30.538038 -1.469818 1.033405 0.033803 -0.015331 30082.600000 0 0 1
-2.084933 24.879369 14.866432 29.057542 -1.487190 1.033727 0.026058 -0.007263 -205880.000000 0 0 1
-1.037833 24.185169 15.475332 28.731262 -1.527911 1.001994 0.023103 -0.004880 -316380.000000 0 0 1
-0.330233 23.423469 14.529532 27.565835 -1.556699 1.015630 0.027225 -0.014900 -383569.000000 0 0 1
0.971967 22.771169 15.002332 27.286276 1.528138 0.988657 0.021277 -0.015362 -351366.000000 0 0 1
1.963167 23.698369 15.314832 28.284463 1.488145 0.998627 0.038800 -0.022784 -516423.000000 0 0 1
3.192367 23.085369 15.604732 28.046981 1.433383 0.980776 0.049841 -0.026450 179827.000000 0 0 1
4.427067 24.017269 15.610232 28.984608 1.388514 1.002058 0.067166 -0.029693 644000.000000 0 0 1
5.713267 23.428069 15.486232 28.659017 1.331601 0.999930 0.069173 -0.025184 692100.000000 0 0 1
6.749567 24.378969 15.790532 29.819988 1.300702 1.012752 0.080171 -0.027637 -43465.900000 0 0 1
8.119367 23.721569 15.966732 29.724964 1.241017 1.003743 0.082744 -0.023404 -314743.000000 0 0 1
8.751667 23.332869 14.750332 28.958363 1.211956 1.036351 0.065657 -0.019561 -325564.000000 0 0 1
9.647867 24.246369 14.191232 29.704526 1.192093 1.072709 0.064232 -0.023193 -512278.000000 0 0 1
10.254467 23.648569 12.918432 28.832184 1.161648 1.106207 0.051354 -0.021902 -161598.000000 0 0 1
10.987767 22.462669 13.034232 28.199180 1.115861 1.090299 0.053874 -0.024473 -291572.000000 0 0 1
11.321767 21.905369 11.825932 27.347400 1.093761 1.123606 0.061203 -0.025209 -343017.000000 0 0 1
12.519167 20.985569 12.012132 27.228937 1.032910 1.113913 0.062746 -0.026981 -302830.000000 0 0 1
12.115267 19.801169 12.680032 26.450883 1.021712 1.070848 0.060857 -0.018465 512693.000000 0 0 1
13.187867 18.866269 12.897732 26.385743 0.960730 1.060066 0.068911 -0.023423 587137.000000 0 0 1
13.995067 19.044669 14.223032 27.583618 0.937059 1.029050 0.068666 -0.018323 217185.000000 0 0 1
15.118267 18.156969 14.210932 27.571509 0.876466 1.029298 0.068985 -0.016794 335966.000000 0 0 1
15.636567 18.209569 15.510332 28.577282 0.861273 0.997088 0.060321 -0.014964 -444524.000000 0 0 1
16.705267 17.146669 15.748032 28.654402 0.798437 0.988929 0.041495 -0.017225 -296936.000000 0 0 1
17.237367 17.161169 17.050332 29.704316 0.783183 0.959412 0.049623 -0.027362 -815157.000000 0 0 1
18.393567 16.419569 16.994332 29.945499 0.728756 0.967319 0.037208 -0.027273 -644245.000000 0 0 1
18.918667 15.776569 18.379832 30.734904 0.695082 0.929778 0.039834 -0.027024 -52301.300000 0 0 1
19.559067 16.766669 19.156432 32.103695 0.708678 0.931408 0.046849 -0.019477 149143.000000 0 0 1
18.673267 17.530069 19.955132 32.468470 0.753832 0.908917 0.037410 -0.020329 -215060.000000 0 0 1
19.259567 18.744369 20.649932 33.892507 0.771843 0.915648 0.025876 -0.015672 -92781.000000 0 0 1
18.241167 19.571969 21.172232 34.118405 0.820578 0.901350 0.042868 -0.026338 638573.000000 0 0 1
18.884767 20.795369 21.548232 35.403504 0.833511 0.916442 0.043945 -0.013422 170095.000000 0 0 1
17.878167 21.809669 22.068732 35.809489 0.884137 0.906784 0.050517 -0.019126 84062.100000 0 0 1
17.186867 21.406869 23.250232 35.975210 0.894310 0.868091 0.053823 -0.024641 760862.000000 0 0 1
16.241567 22.368069 23.766142 36.454747 0.942764 0.860662 0.049963 -0.023952 337961.000000 0 0 1
15.696867 21.965069 25.123852 36.879044 0.950320 0.821327 0.055319 -0.019464 -381841.000000 0 0 1
14.716867 20.971869 24.944822 35.758211 0.958901 0.798758 0.051492 -0.022705 -524131.000000 0 0 1
14.104567 20.686469 26.169322 36.217430 0.972372 0.763296 0.043331 -0.015902 -37344.800000 0 0 1
12.848467 19.789869 26.065542 35.158705 0.994952 0.735690 0.062387 -0.014333 -185276.000000 0 0 1
13.045067 18.368969 25.952202 34.367275 0.953278 0.714924 0.055014 -0.023284 -14677.600000 0 0 1
13.624767 17.809569 24.725272 33.378947 0.917748 0.736618 0.064249 -0.024425 84914.900000 0 0 1
12.745367 17.827969 23.414202 32.070325 0.950135 0.752344 0.070349 -0.024241 -333810.000000 0 0 1
12.701167 18.999869 22.564932 32.116831 0.981535 0.791767 0.081379 -0.018443 465673.000000 0 0 1
13.904567 19.434469 21.885932 32.404160 0.949770 0.829283 0.070582 -0.021400 638615.000000 0 0 1
14.592667 18.435069 20.944032 31.487302 0.901216 0.843091 0.083791 -0.017601 -154198.000000 0 0 1
13.674767 17.816269 20.001732 30.074707 0.916161 0.843211 0.098375 -0.022639 247490.000000 0 0 1
14.035167 16.607169 19.339132 29.099588 0.869138 0.843859 0.067443 -0.019288 -434726.000000 0 0 1
12.944367 15.963769 18.479432 27.638524 0.889469 0.838456 0.077622 -0.009019 -115074.000000 0 0 1
12.453567 16.789169 17.436932 27.221575 0.932588 0.875575 0.091330 -0.010970 173878.000000 0 0 1
11.383867 16.168569 16.741532 25.909341 0.957341 0.868257 0.085917 -0.013725 269837.000000 0 0 1
10.915267 16.969069 15.500032 25.442943 0.999185 0.915735 0.075396 -0.012472 175883.000000 0 0 1
10.056867 18.074369 15.733032 25.987530 1.063041 0.920519 0.082338 -0.016363 98998.100000 0 0 1
9.535467 18.618169 14.581332 25.498561 1.097469 0.962038 0.062357 -0.011696 -577516.000000 0 0 1
8.512367 19.728869 14.804232 26.093179 1.163460 0.967500 0.063024 -0.010852 -413022.000000 0 0 1
7.250867 19.188469 15.131632 25.489973 1.209506 0.935233 0.039834 -0.015539 -185518.000000 0 0 1
6.366367 20.300369 15.363132 26.242360 1.266902 0.945383 0.052149 -0.018541 138904.000000 0 0 1
4.993867 19.886469 15.912832 25.954356 1.324765 0.910807 0.043802 -0.026766 -137291.000000 0 0 1
3.990267 19.487869 15.004832 24.916747 1.368831 0.924544 0.034320 -0.016601 -165286.000000 0 1 0
2.805567 19.167469 15.706032 24.938776 1.425457 0.889522 0.019760 -0.008139 4546.860000 0 1 0
1.725167 18.529869 14.810832 23.784302 1.477962 0.898589 0.013779 -0.009313 -171526.000000 0 1 0
1.073667 19.475769 13.985132 24.000881 1.515724 0.948759 0.010581 -0.015230 -1001980.000000 0 1 0
0.135367 18.874169 13.188332 23.025740 1.563624 0.960922 0.006168 -0.022677 -574338.000000 0 1 0
-0.630733 19.934069 12.333532 23.449541 -1.539166 1.016952 0.010240 -0.018644 -179707.000000 0 1 0
-1.688433 20.471169 13.049832 24.335524 -1.488504 1.004813 0.014570 -0.009592 -50202.200000 0 1 0
-2.788033 20.814069 12.189832 24.281487 -1.437639 1.044862 0.020278 -0.016354 590651.000000 0 1 0
-4.045333 21.491269 12.745432 25.311765 -1.384742 1.043108 0.017132 -0.012067 -81858.600000 0 0 1
-4.738233 20.593669 13.547632 25.101562 -1.344650 1.000700 0.021802 -0.012280 -557802.000000 0 0 1
-5.777933 21.240969 14.225832 26.209494 -1.305204 0.997060 0.010473 -0.003291 -191069.000000 0 0 1
-6.481533 20.425469 15.325232 26.345262 -1.263521 0.949970 0.008245 -0.003002 -608426.000000 0 0 1
-7.232633 19.308669 14.954432 25.470978 -1.212394 0.943304 0.022721 -0.007189 55682.000000 0 0 1
-7.976233 18.671869 15.984632 25.841197 -1.167081 0.903873 0.026374 0.000229 572836.000000 0 0 1
-9.094633 19.465469 16.753632 27.245202 -1.133716 0.908511 0.014434 0.006194 -192753.000000 0 0 1
-10.177433 19.803369 15.923332 27.373456 -1.096071 0.949971 0.005197 -0.000384 131829.000000 0 0 1
-11.394533 19.487169 16.616332 28.030120 -1.041688 0.936262 0.007533 0.006018 181920.000000 0 0 1
-12.626733 19.274269 15.760132 27.916189 -0.990838 0.970906 0.015162 -0.003947 -337818.000000 0 0 1
-13.113033 20.513369 15.155132 28.678005 -1.002020 1.014013 0.006143 0.004037 91256.800000 0 0 1
-14.095733 20.224069 14.184832 28.441381 -0.962101 1.048653 0.018632 -0.010132 -441813.000000 0 0 1
-15.097833 21.359769 13.927832 29.633913 -0.955498 1.081510 0.010281 -0.013920 -1059250.000000 0 0 1
-16.133433 21.201069 14.809032 30.480821 -0.920310 1.063464 0.005445 -0.013550 -908541.000000 0 0 1
-17.061033 22.251669 14.621932 31.623038 -0.916673 1.090116 0.025949 -0.027700 388499.000000 0 0 1
-18.288233 22.294869 15.589132 32.780203 -0.883806 1.075190 0.082115 -0.036052 -433933.000000 0 0 1
-19.140633 21.149769 15.375932 32.405183 -0.835223 1.076412 0.069301 -0.031475 501453.000000 0 0 1
-20.327833 21.257269 16.145532 33.552504 -0.807745 1.068771 0.062136 -0.025133 207142.000000 0 0 1
-21.374533 22.287569 15.702232 34.643419 -0.806307 1.100385 0.062377 -0.030252 -958557.000000 0 0 1
-22.189333 22.045069 14.525632 34.486890 -0.782137 1.136036 0.060364 -0.025558 690163.000000 0 0 1
-23.082133 23.138969 14.322032 35.683573 -0.786628 1.157793 0.081709 -0.038690 -185103.000000 0 0 1
-22.526533 24.472869 13.727032 35.983294 -0.826786 1.179396 0.066476 -0.035153 98825.900000 0 0 1
-21.442333 25.102869 14.408532 36.021292 -0.863881 1.159279 0.061180 -0.039324 338849.000000 0 0 1
-20.927233 26.221769 13.727432 36.248761 -0.897223 1.182404 0.044635 -0.027259 283946.000000 0 0 1
-19.466233 26.651469 14.078832 35.881034 -0.939958 1.167584 0.043068 -0.024405 594263.000000 0 0 1
-18.535833 25.785069 13.446932 34.485749 -0.947525 1.170244 0.039318 -0.013949 -430687.000000 0 0 1
-17.241933 26.302269 13.521332 34.233318 -0.990543 1.164755 0.003099 -0.012478 -456041.000000 0 0 1
-16.237433 25.806169 12.464732 32.939067 -1.009177 1.182710 0.015829 -0.019399 551986.000000 0 0 1
-14.907833 26.222469 12.799132 32.767044 -1.053850 1.169502 0.010709 -0.017471 1061660.000000 0 0 1
-13.944633 25.676169 11.848932 31.529600 -1.073269 1.185533 0.009333 -0.019379 358561.000000 0 0 1
-12.546633 26.279869 12.076032 31.525864 -1.125372 1.177699 0.015628 -0.019453 -469290.000000 0 0 1
-11.552733 25.533469 11.354032 30.238018 -1.145903 1.185872 0.016790 -0.021103 586816.000000 0 0 1
-10.187433 25.821769 11.613932 30.090380 -1.195015 1.174539 0.032956 -0.021458 545754.000000 0 0 1
-9.777233 27.232469 11.096132 30.989124 -1.226101 1.204601 0.045476 -0.031857 -580788.000000 0 0 1
-8.443133 27.573469 11.446232 31.025779 -1.273657 1.192943 0.053854 -0.029510 259426.000000 0 0 1
-8.092733 28.859769 10.981532 31.921351 -1.297402 1.219603 0.065476 -0.040240 -382277.000000 0 0 1
-6.961933 29.540969 11.753332 32.546554 -1.339349 1.201324 0.059680 -0.038397 124931.000000 0 0 1
-5.686433 28.990969 11.506232 31.704971 -1.377110 1.199401 0.077943 -0.038334 -380238.000000 0 0 1
-4.652333 29.646269 12.165132 32.381105 -1.415138 1.185659 0.076230 -0.037139 -259101.000000 0 0 1
-3.230233 29.382569 11.642132 31.769624 -1.461299 1.195600 0.069698 -0.040395 -260881.000000 0 0 1
-3.063633 29.925669 10.297332 31.795701 -1.468777 1.240991 0.087398 -0.045171 -217662.000000 0 0 1
-1.755333 29.727869 9.843332 31.364289 -1.511818 1.251563 0.059713 -0.040453 -210836.000000 0 0 1
-1.471833 30.458469 8.513032 31.660012 -1.522511 1.298557 0.062912 -0.040690 57569.900000 0 0 1
-2.188033 30.007569 7.384132 30.980108 -1.498009 1.330129 0.086828 -0.036965 36640.900000 0 0 1
-2.246433 30.995169 6.353432 31.719286 -1.498446 1.369130 0.085081 -0.027453 86887.700000 0 0 1
11.450567 -33.818824 -26.642590 44.549478 -1.244326 2.211856 0.117752 -0.049355 146165.000000 0 0 1
11.937767 -33.828624 -25.286150 43.889355 -1.231550 2.184787 0.098182 -0.045983 -304875.000000 0 0 1
13.262567 -33.424824 -25.160090 43.887865 -1.193062 2.181301 0.103556 -0.045565 -503056.000000 0 0 1
13.793667 -33.219324 -23.717770 43.085048 -1.177230 2.153744 0.080262 -0.033926 -760444.000000 0 0 1
13.160667 -32.228824 -22.916870 41.678330 -1.183112 2.152982 0.076933 -0.028847 124221.000000 0 0 1
13.540967 -32.236724 -21.553070 41.074311 -1.173128 2.123198 0.053332 -0.026649 847361.000000 0 0 1
15.034967 -31.756224 -21.263170 41.068606 -1.128614 2.115012 0.029317 -0.022584 674697.000000 0 0 1
15.882067 -32.735324 -21.762970 42.396561 -1.119086 2.109844 0.048955 -0.014418 -1020690.000000 0 0 1
17.197267 -32.454324 -21.345370 42.481219 -1.083523 2.097245 0.031588 -0.015595 -229996.000000 0 0 1
18.168067 -33.636824 -21.502670 43.862050 -1.075567 2.083155 0.016333 -0.005329 443972.000000 0 0 1
19.556267 -33.341824 -21.288870 44.128685 -1.040334 2.074220 0.027475 0.005621 727854.000000 0 0 1
20.293967 33.650369 -21.462170 44.775185 1.028113 2.070690 0.023294 0.014644 215468.000000 0 0 1
21.814867 33.819769 -21.171670 45.474222 0.997921 2.055081 0.056393 0.016119 283409.000000 0 0 1
22.504767 -33.915524 -22.310770 46.416568 -0.984952 2.072208 0.048383 0.012055 -534311.000000 0 0 1
23.886967 34.082169 -22.223270 47.181089 0.959491 2.061244 0.045840 0.017668 250222.000000 0 0 1
24.694367 -33.507924 -23.475670 47.788072 -0.935686 2.084315 0.058539 0.012815 340230.000000 0 0 1
24.955667 -32.099824 -23.548570 46.986372 -0.909964 2.095757 0.058949 0.008741 54275.700000 0 0 1
23.822367 -31.242924 -23.674170 45.870380 -0.919350 2.113100 0.042422 0.011313 64298.000000 0 0 1
24.117167 -29.739724 -23.408270 44.878013 -0.889419 2.119519 0.038547 -0.010837 -398800.000000 0 0 1
24.872667 -29.110924 -24.381870 45.393513 -0.863748 2.137818 0.034917 -0.014562 -309612.000000 0 0 1
24.929767 -27.765024 -24.087670 44.414026 -0.839152 2.144021 0.051288 -0.015097 -125377.000000 0 0 1
25.522867 -27.010224 -25.201410 44.900780 -0.813703 2.166714 0.040666 -0.011912 -323406.000000 0 0 1
24.616867 -26.883924 -26.275230 44.934655 -0.829390 2.195360 0.029467 -0.013517 -512538.000000 0 0 1
25.115267 -26.320724 -27.452130 45.576053 -0.808830 2.217222 0.025852 -0.012119 -433989.000000 0 0 1
24.020067 -26.034424 -28.527150 45.481350 -0.825620 2.248785 0.030860 -0.017071 422800.000000 0 0 1
23.324867 -24.831324 -28.335840 44.312119 -0.816671 2.264592 0.054123 -0.026287 773508.000000 0 0 1
22.167067 -24.939324 -27.451830 43.208237 -0.844181 2.259242 0.059924 -0.022447 724595.000000 0 0 1
21.272167 -23.674624 -27.363460 41.973228 -0.838798 2.280919 0.064178 -0.022531 83369.200000 0 0 1
20.736967 -23.206424 -28.598030 42.265911 -0.841535 2.313961 0.073582 -0.023909 183600.000000 0 0 1
20.429567 -21.846024 -28.593620 41.378873 -0.818891 2.333695 0.061055 -0.006689 287027.000000 0 0 1
19.305667 -21.480124 -29.641770 41.385252 -0.838662 2.369196 0.066205 -0.016323 1034570.000000 0 0 1
18.021867 -22.008024 -29.319800 40.850845 -0.884650 2.371330 0.072927 -0.018795 1022760.000000 0 0 1
16.941567 -21.404124 -30.061360 40.605894 -0.901254 2.404343 0.061828 -0.020932 1181980.000000 0 0 1
15.626567 -22.260224 -29.967840 40.469478 -0.958733 2.404617 0.058921 -0.020485 335825.000000 0 0 1
15.626067 -23.423624 -30.683580 41.645195 -0.982489 2.399100 0.071344 -0.016700 186097.000000 0 0 1
14.822767 -24.342224 -29.975650 41.361793 -1.023835 2.381422 0.081462 -0.015797 -85584.600000 0 0 1
14.793167 -25.730324 -30.680710 42.687157 -1.049014 2.372776 0.107187 -0.017717 281012.000000 0 0 1
13.876967 -26.666524 -30.119870 42.554439 -1.090971 2.357170 0.110022 -0.019879 289743.000000 0 0 1
14.166967 -28.011224 -30.612920 43.846123 -1.102551 2.343662 0.178371 -0.024502 173727.000000 0 0 1
13.544367 -29.121824 -29.716330 43.756037 -1.135462 2.317382 0.148924 -0.032267 37229.300000 0 0 1
14.156267 -29.429024 -28.438030 43.303452 -1.122439 2.287251 0.167907 -0.039449 30196.300000 0 0 1
13.990267 -28.380624 -27.485220 41.912107 -1.112804 2.286015 0.145367 -0.030107 -197230.000000 0 0 1
15.131867 -28.329324 -26.461310 41.613999 -1.080210 2.259938 0.115585 -0.020518 -258063.000000 0 0 1
15.155967 -29.458024 -25.560940 41.843042 -1.095621 2.227964 0.114400 -0.026490 -60087.100000 0 0 1
16.017767 -29.268424 -24.442570 41.359990 -1.070051 2.203059 0.114217 -0.031778 -775524.000000 0 0 1
15.608167 -28.277324 -23.316470 39.835659 -1.066444 2.196067 0.096866 -0.021111 527668.000000 0 0 1
14.480167 -28.586224 -22.509170 39.160059 -1.101928 2.183155 0.085613 -0.024288 1383520.000000 0 0 1
13.192567 -28.709624 -23.182170 39.188000 -1.140056 2.203792 0.079779 -0.016086 398943.000000 0 0 1
11.984567 -28.486124 -22.279470 38.098083 -1.172560 2.195420 0.043347 -0.005351 -311390.000000 0 0 1
11.848467 -27.129624 -21.967770 36.864422 -1.159028 2.209191 0.031169 -0.011573 -232200.000000 0 0 1
10.647767 -26.648124 -21.414470 35.806103 -1.190661 2.211884 0.028171 -0.010727 -308617.000000 0 0 1
10.517567 -25.122024 -21.323970 34.589695 -1.174309 2.235065 0.039431 -0.015508 -160493.000000 0 0 1
11.020267 -24.557524 -20.139270 33.617086 -1.148980 2.213146 0.020358 -0.014592 -45927.300000 0 0 1
10.854067 -23.135624 -20.100570 32.513086 -1.132132 2.237285 0.022290 -0.017856 -145125.000000 0 0 1
11.114567 -22.521724 -18.716070 31.321765 -1.112359 2.211228 0.019632 -0.016679 53423.300000 0 0 1
10.052567 -22.744424 -17.815370 30.590037 -1.154632 2.192464 0.024805 -0.022462 107552.000000 0 0 1
10.269567 -21.986224 -16.657770 29.433643 -1.133821 2.172373 0.019399 -0.019890 41236.500000 0 0 1
9.473367 -22.441624 -15.402270 28.820151 -1.171356 2.134626 0.009924 -0.011684 133558.000000 0 0 1
9.805867 -23.747224 -14.965370 29.732944 -1.179196 2.098240 0.008668 -0.010476 222019.000000 0 0 1
9.107567 -24.097324 -13.748670 29.200252 -1.209442 2.061040 0.005477 -0.008136 116160.000000 0 0 1
9.251567 -25.606824 -13.447770 30.366815 -1.224097 2.029565 0.024441 -0.015419 585539.000000 0 0 1
10.559767 -26.058624 -13.079170 31.010083 -1.185788 2.006195 0.033357 -0.018996 407461.000000 0 0 1
10.653667 -27.379724 -13.527070 32.343957 -1.199715 2.002287 0.036765 -0.029300 -695599.000000 0 0 1
11.820967 -28.152624 -12.860670 33.131591 -1.173263 1.969441 0.063878 -0.033475 969778.000000 0 0 1
13.158167 -27.771824 -13.215970 33.452555 -1.128331 1.976936 0.062957 -0.025098 786833.000000 0 0 1
13.490667 -27.984424 -14.584970 34.319782 -1.121589 2.009728 0.061839 -0.029020 -705097.000000 0 0 1
14.912467 -27.629024 -15.107570 34.842263 -1.075865 2.019279 0.047957 -0.020765 469493.000000 0 0 1
15.919867 -28.581524 -14.751670 35.888124 -1.062596 1.994398 0.076535 -0.023526 -39499.200000 0 0 1
17.132067 -27.922324 -15.059770 36.054966 -1.020465 2.001697 0.090563 -0.033236 -234796.000000 0 0 1
18.414667 -28.696624 -14.758570 37.153891 -1.000277 1.979291 0.076880 -0.027601 -50903.400000 0 0 1
18.624067 -29.860924 -15.571170 38.483659 -1.013137 1.987357 0.052140 -0.018533 649166.000000 0 0 1
19.994067 -30.303924 -15.525070 39.485672 -0.987573 1.974886 0.058150 -0.012953 939034.000000 0 0 1
20.301667 -31.336024 -16.624570 40.871511 -0.995920 1.989692 0.052544 -0.013958 -93440.200000 0 0 1
19.738667 -32.619224 -16.389970 41.500119 -1.026618 1.976797 0.029590 -0.000219 138379.000000 0 0 1
20.234367 -33.527024 -17.374270 42.841058 -1.027790 1.988379 0.031998 0.001920 171659.000000 0 0 1
20.052567 33.241569 -16.854270 42.322261 1.028000 1.980390 0.014094 0.010770 -67455.800000 0 0 1
21.119567 32.805869 -16.039370 42.184388 0.998810 1.960831 0.028298 0.007109 161657.000000 0 0 1
20.895067 31.459869 -15.633370 40.874558 0.984516 1.963266 0.026163 0.001788 -322438.000000 0 0 1
22.006567 31.000469 -14.701570 40.760940 0.953471 1.939791 0.026894 -0.003390 -408760.000000 0 0 1
23.148467 30.383069 -15.229270 41.120714 0.919731 1.950188 0.039880 0.006551 -354449.000000 0 0 1
24.089467 29.974769 -14.269470 41.017155 0.893829 1.926116 0.039229 -0.007392 -65185.100000 0 0 1
23.822667 28.695469 -13.441970 39.643864 0.877917 1.916722 0.028081 0.008660 -840591.000000 0 0 1
23.860267 27.534969 -14.315470 39.146131 0.856776 1.945174 0.037482 0.018561 55821.000000 0 0 1
23.618967 26.289369 -13.670570 37.892889 0.838853 1.939888 0.019208 0.014476 -497822.000000 0 0 1
22.209067 25.984769 -13.181770 36.636184 0.863583 1.938852 0.033212 0.006468 -1159320.000000 0 0 1
21.240667 25.867169 -14.168170 36.345748 0.883295 1.971229 0.040377 -0.006673 -1230450.000000 0 0 1
19.983167 26.256369 -13.750770 35.746434 0.920242 1.965652 0.062486 -0.009964 -868541.000000 0 0 1
19.623967 27.764469 -13.911570 36.735509 0.955520 1.959183 0.064677 -0.014225 -430525.000000 0 0 1
19.474667 28.276169 -15.229470 37.559835 0.967674 1.988292 0.059340 -0.008836 -304837.000000 0 0 1
18.505367 27.761969 -16.091870 37.042190 0.982859 2.020191 0.047210 0.001009 -560196.000000 0 0 1
18.503767 28.469069 -17.489470 38.193702 0.994449 2.046445 0.030848 0.006951 -81739.300000 0 0 1
17.863767 29.728669 -17.541070 38.866401 1.029720 2.039037 0.031028 0.003170 -1179.070000 0 0 1
17.959967 30.373869 -18.787270 39.976166 1.036801 2.060044 0.024287 0.005363 203904.000000 0 0 1
16.911167 31.536669 -18.922370 40.479688 1.078580 2.057204 0.015243 0.000640 424308.000000 0 0 1
17.106767 32.692069 -18.067670 41.083495 1.088707 2.026149 0.009552 -0.004863 -298568.000000 0 0 1
16.290667 33.692669 -18.573570 41.779891 1.120429 2.031477 0.010035 -0.009081 -305974.000000 0 0 1
16.104567 -33.360524 -17.533970 40.984409 -1.121049 2.012876 0.012234 -0.008759 -820009.000000 0 0 1
15.114467 -32.526924 -17.952570 40.109135 -1.135805 2.034868 0.007275 -0.014999 -831504.000000 0 0 1
14.827467 -31.622024 -16.922570 38.809529 -1.132339 2.021992 0.026181 -0.019608 642839.000000 0 0 1
13.658467 -30.586224 -17.161070 37.637390 -1.150810 2.044245 0.038193 -0.027030 1625630.000000 0 0 1
12.303867 -31.042624 -16.978670 37.460711 -1.193437 2.041192 0.034569 -0.026715 959217.000000 0 0 1
11.345767 -29.985924 -17.026270 36.301184 -1.209075 2.058986 0.019545 -0.017480 298627.000000 0 0 1
9.973367 -30.420024 -17.567770 36.516742 -1.253984 2.072692 0.040180 -0.024665 -1110560.000000 0 0 1
9.374467 -31.367924 -16.723970 36.763004 -1.280390 2.043071 0.050964 -0.024753 240782.000000 0 0 1
8.353467 -32.186024 -17.285970 37.476997 -1.316862 2.050191 0.076628 -0.016361 618151.000000 0 0 1
7.066967 -31.543224 -17.869770 36.935697 -1.350395 2.075796 0.067761 -0.012527 -506664.000000 0 0 1
7.341167 -31.047424 -19.119470 37.193943 -1.338611 2.110694 0.048146 -0.005338 -37760.200000 0 0 1
7.029467 -31.940924 -20.179970 38.430030 -1.354172 2.123640 0.054474 -0.015533 -1075540.000000 0 0 1
7.317567 -31.292824 -21.618470 38.731717 -1.341082 2.162962 0.054349 -0.007277 634101.000000 0 0 1
8.691167 -30.887424 -21.796770 38.790057 -1.296507 2.167497 0.043222 -0.010925 1470480.000000 0 0 1
9.712767 -31.896324 -21.831870 39.854032 -1.275207 2.150524 0.048834 -0.016576 -89827.200000 0 0 1
9.519867 -33.054324 -22.896170 41.321312 -1.290379 2.158079 0.074728 -0.034338 -364764.000000 0 0 1
8.427467 -33.914524 -22.572070 41.601869 -1.327238 2.144294 0.072950 -0.043524 3131.220000 0 0 1
8.224867 33.203469 -23.448270 41.472162 1.327973 2.171712 0.081978 -0.050287 321086.000000 0 0 1
6.953167 32.347769 -23.056270 40.327612 1.359068 2.179402 0.084511 -0.051284 1407070.000000 0 0 1
5.672867 32.868269 -23.463470 40.780375 1.399886 2.183843 0.084868 -0.048552 536320.000000 0 0 1
5.183967 33.728769 -22.483270 40.865644 1.418294 2.153371 0.063939 -0.034333 326255.000000 0 0 1
3.791167 -33.795324 -22.885870 40.990974 -1.459083 2.163150 0.065379 -0.032373 876148.000000 0 0 1
2.692467 33.563169 -22.604070 40.554651 1.490747 2.162015 0.074696 -0.034674 -521204.000000 0 0 1
1.469467 -33.953824 -22.789970 40.919485 -1.527545 2.161501 0.066446 -0.029700 137067.000000 0 0 1
0.244067 33.410469 -22.264670 40.150150 1.563491 2.158601 0.065267 -0.035865 206682.000000 0 0 1
0.097567 33.411069 -20.846270 39.381164 1.567876 2.128626 0.058123 -0.032973 -231404.000000 0 0 1
-0.976333 32.627069 -20.372870 38.477691 -1.540881 2.128775 0.049902 -0.034541 -4616.400000 0 0 1
-1.343133 32.930669 -18.887870 37.986638 -1.530032 2.091193 0.056692 -0.024888 -14277.100000 0 0 1
-0.415233 32.471469 -17.946770 37.103306 -1.558009 2.075671 0.073242 -0.044406 -140874.000000 0 0 1
-1.095633 32.093569 -16.763670 36.224553 -1.536671 2.051915 0.046653 -0.037400 192271.000000 0 0 1
-0.126533 31.283169 -15.923070 35.102662 -1.566752 2.041613 0.016976 -0.036116 526529.000000 0 0 1
1.047967 31.970969 -15.498770 35.545084 1.538029 2.021980 0.035896 -0.024548 201304.000000 0 0 1
1.718267 31.183069 -14.529970 34.444975 1.515749 2.006261 0.055764 -0.012081 553579.000000 0 0 1
2.765467 31.966269 -13.645570 34.866772 1.484499 1.972909 0.064194 -0.025490 198250.000000 0 0 1
3.883867 32.480369 -14.319970 35.708827 1.451786 1.983427 0.059761 -0.025201 -280902.000000 0 0 1
4.661267 33.241069 -13.419670 36.149463 1.431479 1.951127 0.062129 -0.036465 -601283.000000 0 0 1
6.069967 33.481069 -13.915470 36.762302 1.391449 1.958999 0.077771 -0.040696 -550059.000000 0 0 1
6.934567 32.389169 -14.121170 36.007693 1.359879 1.973787 0.068341 -0.023083 -406575.000000 0 0 1
7.966167 32.762269 -15.008370 36.906331 1.332274 1.989593 0.067211 -0.009219 -183612.000000 0 0 1
8.957467 31.624669 -15.246170 36.232605 1.294783 2.005108 0.052077 -0.014416 -59615.700000 0 0 1
9.689767 31.364169 -14.040670 35.703545 1.271155 1.974968 0.052587 -0.017552 -350601.000000 0 0 1
10.425667 30.148569 -14.163570 34.903259 1.237859 1.988645 0.059568 -0.014106 128538.000000 0 0 1
9.683967 28.792469 -13.945370 33.425422 1.246345 2.001168 0.051145 -0.012274 36139.600000 0 0 1
8.917867 28.332069 -15.049970 33.297689 1.265852 2.039783 0.041402 -0.019839 2977.960000 0 0 1
8.487167 27.032769 -14.743570 31.940186 1.266583 2.050594 0.042543 -0.014261 -400666.000000 0 0 1
7.740367 26.233969 -15.838170 31.606678 1.283886 2.095668 0.041789 -0.003971 80069.900000 0 0 1
8.514667 25.667369 -16.864170 31.870263 1.250488 2.128396 0.046446 -0.000265 -141392.000000 0 0 1
7.697467 24.745369 -17.590270 31.320950 1.269218 2.167131 0.044207 0.000846 631961.000000 0 0 1
8.647367 23.845769 -18.402370 31.337596 1.222908 2.198428 0.050964 -0.001627 379871.000000 0 0 1
7.976467 22.848369 -19.205970 30.895652 1.234920 2.241631 0.059758 -0.009420 10587.100000 0 0 1
8.902667 22.138269 -19.974870 31.118417 1.188447 2.267768 0.059059 -0.010056 -311746.000000 0 0 1
8.207467 21.124369 -20.863770 30.804195 1.200216 2.314887 0.065278 -0.023479 -253210.000000 0 0 1
7.572267 20.063869 -20.282870 29.517671 1.209916 2.328346 0.064646 -0.013061 -357433.000000 0 0 1
7.076267 19.178969 -21.205270 29.454540 1.217332 2.374501 0.063512 -0.014002 -120640.000000 0 0 1
25.424667 -12.658931 -9.461270 29.936230 -0.461966 1.892357 0.066015 -0.008242 -155344.000000 0 0 1
25.873267 -11.973831 -8.321270 29.699194 -0.433437 1.854783 0.083487 -0.017106 657301.000000 0 0 1
24.896267 -12.050731 -7.279870 28.601411 -0.450796 1.828156 0.088014 -0.011828 -371341.000000 0 0 1
25.386767 -11.410431 -5.941470 28.460269 -0.422408 1.781107 0.076740 -0.014801 -331329.000000 0 0 1
25.467067 -9.982731 -5.884270 27.979476 -0.373579 1.782685 0.086134 -0.023082 436848.000000 0 0 1
26.389267 -9.305631 -6.717570 28.776969 -0.339015 1.806406 0.062773 -0.021593 -945184.000000 0 0 1
26.713167 -7.830031 -6.341070 28.550164 -0.285128 1.794767 0.098957 -0.025273 -493984.000000 0 0 1
27.514067 -7.638731 -5.219970 29.027955 -0.270810 1.751606 0.111829 -0.030829 766385.000000 0 0 1
28.876867 -8.059231 -5.204970 30.428874 -0.272164 1.742695 0.099063 -0.031418 42410.500000 0 0 1
29.607167 -8.047631 -3.882470 30.926078 -0.265401 1.696669 0.111994 -0.043412 -490482.000000 0 0 1
29.934167 -6.736531 -3.467670 30.878147 -0.221357 1.683335 0.114830 -0.031241 366814.000000 0 0 1
30.398467 -6.781731 -2.127470 31.218341 -0.219500 1.638997 0.117369 -0.028964 671.953000 0 0 1
30.800067 -5.402431 -1.543370 31.308344 -0.173637 1.620112 0.103040 -0.036805 619291.000000 0 0 1
29.643267 -4.590231 -1.247270 30.022478 -0.153629 1.612353 0.124895 -0.028945 943861.000000 0 0 1
30.079767 -3.333131 -0.836970 30.275446 -0.110360 1.598445 0.104705 -0.015217 59320.400000 0 0 1
30.691467 -3.205631 0.576630 30.863809 -0.104070 1.552112 0.096186 -0.027952 -129416.000000 0 0 1
29.741667 -3.118531 1.614030 29.948240 -0.104472 1.516876 0.110652 -0.039020 528464.000000 0 0 1
30.433067 -2.913431 2.835130 30.703381 -0.095442 1.478325 0.080766 -0.029133 -208671.000000 0 0 1
29.967167 -3.752031 4.005730 30.465631 -0.124557 1.438931 0.092064 -0.035455 -433361.000000 0 0 1
30.280167 -5.108531 3.950830 30.961180 -0.167135 1.442842 0.090687 -0.033311 234477.000000 0 0 1
29.952967 -5.818931 5.170630 30.947950 -0.191879 1.402934 0.090167 -0.037563 -209122.000000 0 0 1
30.600567 -7.219931 5.393630 31.900052 -0.231704 1.400901 0.077508 -0.025474 473839.000000 0 0 1
31.976067 -6.992231 5.713630 33.226581 -0.215282 1.397978 0.074501 -0.036305 317089.000000 0 0 1
32.677567 -8.213231 5.658430 34.165748 -0.246241 1.404413 0.082907 -0.029549 953794.000000 0 0 1
34.243167 -8.047531 5.616230 35.621612 -0.230823 1.412472 0.102029 -0.028594 838494.000000 0 0 1
34.869567 -7.616031 4.444730 35.967294 -0.215038 1.446903 0.103141 -0.029984 -967.873000 0 0 1
36.245267 -7.433631 4.737830 37.301813 -0.202287 1.443439 0.115738 -0.034908 134228.000000 0 0 1
-35.977229 -7.247631 3.477730 36.864397 0.198790 1.476317 0.103289 -0.029820 -333739.000000 0 0 1
-35.444429 -8.369131 2.832730 36.529088 0.231873 1.493171 0.127550 -0.032737 409637.000000 0 0 1
-34.546929 -8.081531 1.770230 35.523727 0.229797 1.520943 0.128730 -0.031247 -25779.300000 0 0 1
-34.253929 -9.382331 0.990030 35.529423 0.267348 1.542928 0.121522 -0.027046 -105769.000000 0 0 1
-33.395929 -10.279531 1.678230 34.982471 0.298605 1.522804 0.119603 -0.025443 472911.000000 0 0 1
-33.579829 -11.620531 1.223730 35.554735 0.333158 1.536371 0.116538 -0.030054 -632225.000000 0 0 1
-33.202429 -12.647431 2.338630 35.606572 0.363950 1.505069 0.084966 -0.040044 286402.000000 0 0 1
-31.853729 -12.827931 2.710830 34.446545 0.382844 1.492018 0.083265 -0.032737 368998.000000 0 0 1
-30.988829 -13.352131 1.693730 33.785435 0.406831 1.520643 0.076096 -0.008951 896324.000000 0 0 1
-29.562429 -13.690431 2.319430 32.661060 0.433696 1.499721 0.075841 -0.012381 1211610.000000 0 0 1
-28.770629 -12.572831 2.714930 31.515012 0.411993 1.484542 0.070737 -0.025746 241070.000000 0 0 1
-27.461929 -12.946031 3.073630 30.515643 0.440521 1.469902 0.069977 -0.018135 -113733.000000 0 0 1
-26.752529 -11.784631 3.794230 29.478323 0.414930 1.441726 0.082740 -0.024232 1311760.000000 0 0 1
-25.434829 -12.138231 4.329630 28.513380 0.445265 1.418361 0.073102 -0.013686 1551410.000000 0 0 1
-24.744629 -11.055531 4.881830 27.538222 0.420177 1.392580 0.069321 -0.012938 -113571.000000 0 0 1
-23.416829 -11.480631 5.546230 26.662960 0.455835 1.361254 0.074697 0.001886 -154538.000000 0 0 1
-23.380429 -12.303831 6.712830 27.259692 0.484422 1.321982 0.077762 -0.000026 -1070330.000000 0 0 1
-22.092829 -12.603331 7.103430 26.408251 0.518424 1.298457 0.081212 0.004074 -837520.000000 0 0 1
-21.659729 -11.937131 8.407030 26.121200 0.503703 1.243117 0.090557 -0.000494 -585521.000000 0 0 1
-21.463829 -10.524631 8.412130 25.342212 0.455892 1.232435 0.081701 0.002045 172562.000000 0 0 1
-22.583729 -9.749731 8.770530 26.115211 0.407544 1.228300 0.082405 -0.008323 -624649.000000 0 0 1
-23.057729 -9.757331 10.232430 27.047495 0.400319 1.182823 0.086862 -0.011553 -651041.000000 0 0 1
-23.441829 -11.019931 10.638130 28.002286 0.439440 1.181106 0.081766 -0.014879 1605680.000000 0 0 1
-24.878329 -11.241131 10.478630 29.242024 0.424387 1.204306 0.082088 -0.011651 1295370.000000 0 0 1
-25.846829 -10.732731 11.548130 30.275557 0.393578 1.179449 0.091434 -0.020645 -712720.000000 0 0 1
-25.901829 -11.619331 12.618730 31.066798 0.421682 1.152526 0.087607 -0.019598 959315.000000 0 0 1
-27.217229 -11.618231 13.206530 32.406377 0.403454 1.151050 0.087156 -0.029721 698405.000000 0 0 1
-27.365529 -12.322231 14.519430 33.339517 0.423089 1.120200 0.086605 -0.024369 -175896.000000 0 0 1
-27.420329 -13.726031 14.402730 33.877972 0.464110 1.131685 0.070491 -0.020635 340651.000000 0 0 1
-27.337729 -14.295731 15.663930 34.598815 0.481823 1.100971 0.057392 -0.011421 -400130.000000 0 0 1
-27.185229 -15.842731 15.626130 35.131250 0.527654 1.109853 0.051239 -0.010328 -80565.000000 0 0 1
-28.412329 -16.534931 15.606330 36.389860 0.527052 1.127561 0.029973 -0.008621 -56218.400000 0 0 1
-28.204029 -17.901631 15.606030 36.871178 0.565558 1.133758 0.026611 -0.006735 -222182.000000 0 0 1
-29.214329 -18.781531 16.384730 38.401592 0.571359 1.129991 0.011926 0.000074 -198057.000000 0 0 1
-28.994929 -18.721431 17.807630 38.836961 0.573332 1.094464 0.018837 0.003079 -86981.400000 0 0 1
-29.452529 -19.831831 18.544230 40.057976 0.592615 1.089493 0.019246 0.002597 -389169.000000 0 0 1
-28.539929 -21.067831 18.490130 40.003324 0.635898 1.090305 0.008209 0.005296 -450867.000000 0 0 1
-27.357629 -20.834531 19.205930 39.387628 0.650860 1.061442 0.020273 0.006479 -455505.000000 0 0 1
-26.622129 -21.998331 19.494030 39.657048 0.690583 1.056910 0.028521 0.001520 47962.500000 0 0 1
-25.306129 -21.557131 20.196730 38.897531 0.705570 1.024848 0.042937 0.005716 264795.000000 0 0 1
-24.300729 -21.087731 19.317030 37.528195 0.714727 1.030099 0.056751 -0.000612 -647702.000000 0 0 1
-23.063829 -21.049331 19.943930 37.050976 0.739763 1.002397 0.065964 -0.001478 -407808.000000 0 0 1
-21.937029 -20.728831 18.924530 35.623805 0.757088 1.010741 0.062343 -0.014836 -10448.400000 0 0 1
-21.734229 -21.778331 17.977530 35.635151 0.786412 1.042007 0.059178 -0.021420 80129.100000 0 0 1
-20.472629 -21.777831 17.348930 34.559916 0.816280 1.044892 0.061897 -0.020344 -111571.000000 0 0 1
-20.297529 -22.887731 16.315430 34.670321 0.845305 1.080840 0.056577 -0.016497 -304751.000000 0 0 1
-20.191629 -24.264431 16.713630 35.718481 0.876757 1.083853 0.065922 -0.019427 614872.000000 0 0 1
-19.048029 -24.689731 17.475830 35.746536 0.913679 1.059989 0.081689 -0.026404 1225390.000000 0 0 1
-17.658429 -24.851431 16.752030 34.785690 0.953018 1.068342 0.086685 -0.030756 554674.000000 0 0 1
-17.032029 -23.595031 16.605730 33.504712 0.945557 1.052244 0.087627 -0.037997 -122755.000000 0 0 1
-15.770329 -23.808931 15.989430 32.729655 0.985774 1.060392 0.093465 -0.034224 -365625.000000 0 0 1
-15.051729 -22.488231 15.781730 31.326316 0.980962 1.042821 0.086415 -0.030050 -852033.000000 0 0 1
-15.553929 -21.471531 14.929830 30.427802 0.943883 1.057945 0.088337 -0.024228 224748.000000 0 0 1
-16.580629 -20.658831 15.530130 30.706505 0.894476 1.040533 0.069323 -0.019226 602591.000000 0 0 1
-16.010029 -19.603931 16.589030 30.262700 0.885970 0.990625 0.078475 -0.026349 84562.600000 0 0 1
-15.208429 -18.558631 16.025030 28.853434 0.884290 0.981959 0.070537 -0.024275 128729.000000 0 0 1
-15.383129 -17.362431 16.765730 28.621397 0.845770 0.944959 0.065680 -0.023543 -848129.000000 0 0 1
-14.707429 -16.137231 16.071130 27.110881 0.831720 0.936274 0.059106 -0.019900 -122296.000000 0 0 1
-15.293029 -15.512531 14.966330 26.429271 0.792523 0.968813 0.043485 -0.013818 -192555.000000 0 0 1
-15.260129 -16.259231 13.753230 26.198959 0.817086 1.018136 0.051091 -0.019192 -96635.900000 0 0 1
-16.071029 -15.550731 12.649030 25.692434 0.768946 1.056037 0.048926 -0.016644 -13387.800000 0 0 1
-17.470429 -15.694931 12.779930 26.737115 0.731915 1.072438 0.045484 -0.012784 58594.300000 0 0 1
-18.100029 -14.747331 11.889430 26.200255 0.683681 1.099782 0.057740 -0.015986 195442.000000 0 0 1
-19.658329 -14.667631 12.023130 27.315654 0.641018 1.115025 0.071839 -0.016584 382091.000000 0 0 1
-20.339729 -15.741531 11.489930 28.169467 0.658641 1.150659 0.091317 -0.021299 -268917.000000 0 0 1
-20.484029 -15.782131 10.084230 27.755410 0.656468 1.198962 0.097422 -0.020175 -752154.000000 0 0 1
-21.377529 -16.879631 9.526530 28.856116 0.668365 1.234345 0.091570 -0.006965 -72695.800000 0 0 1
-20.731329 -18.125431 9.553630 29.147746 0.718434 1.236859 0.088410 0.002976 -230359.000000 0 0 1
-21.495729 -19.082231 8.888930 30.086724 0.725990 1.270877 0.073551 -0.009128 -122419.000000 0 0 1
-20.977829 -20.496931 9.071030 30.699789 0.773804 1.270843 0.079785 -0.009791 -623531.000000 0 0 1
-19.821729 -20.803331 8.397830 29.936651 0.809556 1.286460 0.100131 -0.004033 -1075020.000000 0 0 1
-19.447629 -22.085531 8.632430 30.667569 0.848826 1.285456 0.099202 -0.016031 -632002.000000 0 0 1
-18.162129 -22.510931 7.937630 29.993514 0.891914 1.302961 0.099823 -0.013987 -436637.000000 0 0 1
-17.041429 -21.858431 8.487930 28.987001 0.908602 1.273623 0.082315 -0.024107 -440932.000000 0 0 1
-15.885529 -22.046231 7.721930 28.249151 0.946408 1.293921 0.098479 -0.020142 -645949.000000 0 0 1
-14.564029 -21.709431 8.373130 27.450312 0.979895 1.260828 0.036190 -0.017524 -633040.000000 0 0 1
-13.424229 -22.091431 7.635330 26.954397 1.024759 1.283596 0.062420 -0.016684 -335447.000000 0 0 1
-12.254629 -21.722831 8.331230 26.295754 1.057165 1.248413 0.054376 -0.015805 -125389.000000 0 0 1
-11.047229 -22.331631 7.595230 26.046699 1.111406 1.274897 0.043622 -0.015439 -199166.000000 0 0 1
-11.057429 -23.737431 7.536030 27.249295 1.134863 1.290585 0.039959 -0.014057 174808.000000 0 0 1
-9.760729 -24.276731 7.254730 27.152580 1.188514 1.300327 0.040409 -0.018658 558857.000000 0 0 1
-9.681929 -25.803581 7.224030 28.491247 1.211836 1.314445 0.036568 -0.019001 -265096.000000 0 0 1
-10.427629 -26.383891 6.167030 29.032351 1.194411 1.356746 0.045088 -0.023860 -269824.000000 0 0 1
-10.346529 -27.820581 6.073430 30.297226 1.214744 1.368967 0.050236 -0.016121 -14387.000000 0 0 1
-9.021629 -28.393181 5.521830 30.299391 1.263145 1.387530 0.046485 -0.019160 -18286.800000 0 0 1
-7.882129 -28.043431 6.302330 29.804049 1.296797 1.357729 0.048892 -0.022182 -326664.000000 0 0 1
-6.732129 -28.792841 5.954230 30.162926 1.341110 1.372089 0.052365 -0.020161 233715.000000 0 0 1
-6.616129 -30.284871 6.296630 31.632169 1.355712 1.370400 0.057268 -0.018887 -517645.000000 0 0 1
-6.609129 -30.469561 7.683830 32.110994 1.357196 1.329162 0.050719 -0.014308 -21584.000000 0 0 1
-6.820129 -31.800221 8.112130 33.519768 1.359529 1.326359 0.076159 -0.021215 -169786.000000 0 0 1
-7.120129 -31.888181 9.639430 34.065685 1.351116 1.283911 0.062906 -0.012310 43781.900000 0 0 1
-6.057129 -31.411151 10.470030 33.659630 1.380301 1.254492 0.062161 -0.000330 401180.000000 0 0 1
-6.386129 -31.454901 11.843230 34.211921 1.370494 1.217308 0.050870 -0.002689 -164750.000000 0 0 1
-5.407129 -30.680461 12.769630 33.668845 1.396348 1.181788 0.043237 -0.007422 72157.500000 0 0 1
-5.587129 -29.280431 12.573430 32.351982 1.382248 1.171636 0.043084 -0.007489 -131401.000000 0 0 1
-4.906129 -28.489111 13.532330 31.919014 1.400258 1.132985 0.023249 -0.007886 -205024.000000 0 0 1
-5.657129 -27.778041 14.743230 31.952863 1.369889 1.091217 0.041247 -0.007500 -279521.000000 0 0 1
-6.223129 -28.607461 15.713630 33.226982 1.356598 1.078197 0.038758 -0.011329 129867.000000 0 0 1
-5.287129 -29.328251 16.513930 34.070660 1.392438 1.064780 0.016391 -0.010923 100606.000000 0 0 1
-5.850129 -30.659471 17.034830 35.558579 1.382253 1.071208 0.026331 -0.012803 -82900.500000 0 0 1
-5.698129 -31.777561 16.146230 36.096853 1.393369 1.107049 0.029804 -0.007189 236042.000000 0 0 1
-6.285129 -33.028311 16.591930 37.492190 1.382749 1.112363 0.033007 -0.006983 -28607.000000 0 0 1
-5.800129 33.966322 15.754330 37.888671 -1.401666 1.141968 0.031621 -0.011903 -159076.000000 0 0 1
-6.274129 33.855799 14.391830 37.318957 -1.387556 1.174891 0.035701 -0.014153 307249.000000 0 0 1
-5.625129 32.872159 13.595230 36.014596 -1.401316 1.183710 0.042649 -0.020079 -161371.000000 0 0 1
-4.363129 33.272140 12.824730 35.924168 -1.440406 1.205748 0.065755 -0.026452 -97746.100000 0 0 1
-4.672129 33.810186 11.545330 36.031265 -1.433479 1.244618 0.064688 -0.026735 773183.000000 0 0 1
-3.485129 34.012494 10.763230 35.844706 -1.468687 1.265817 0.083997 -0.032900 171976.000000 0 0 1
-3.864129 -33.832001 9.292530 35.297123 1.457074 1.304390 0.078498 -0.031795 -622296.000000 0 0 1
-4.113129 33.288285 8.395030 34.576065 -1.447859 1.325546 0.087923 -0.046133 412441.000000 0 0 1
-5.052129 32.283936 8.752230 33.828657 -1.415565 1.309097 0.105670 -0.046029 83506.800000 0 0 1
-6.522129 32.593376 9.116930 34.467154 -1.373299 1.303100 0.093192 -0.035808 -149661.000000 0 0 1
-7.390129 32.802790 8.020830 34.568348 -1.349206 1.336634 0.091809 -0.034451 -1826200.000000 0 0 1
-8.593429 33.232770 8.476230 35.356901 -1.317756 1.328705 0.077516 -0.028766 -809372.000000 0 0 1
-9.602129 33.555413 7.296430 35.656759 -1.292087 1.364711 0.081159 -0.034764 285282.000000 0 0 1
-9.269629 -33.444141 6.603530 35.327655 1.300416 1.382768 0.078257 -0.031040 -200173.000000 0 0 1
-9.876329 -33.411251 5.360930 35.250434 1.283382 1.418123 0.064518 -0.022098 -637935.000000 0 0 1
-9.757029 -32.054851 4.658030 33.829134 1.275321 1.432665 0.055900 -0.019857 143282.000000 0 0 1
-10.639529 -31.091841 5.200930 33.270885 1.241090 1.413832 0.062220 -0.023166 42354.900000 0 0 1
-11.948129 -31.157431 4.656030 33.693054 1.204615 1.432163 0.061605 -0.019924 -532513.000000 0 0 1
-12.973029 -30.305651 5.344230 33.395999 1.166326 1.410079 0.074772 -0.028082 -708783.000000 0 0 1
-13.549329 -30.865571 6.493430 34.328303 1.157145 1.380493 0.078778 -0.021435 308587.000000 0 0 1
-14.235329 -29.836071 7.277530 33.849640 1.125621 1.354109 0.079893 -0.024476 411122.000000 0 0 1
33.364513 -12.617331 -12.539470 37.810396 -0.361544 1.908839 0.049426 -0.029379 867226.000000 0 0 1
32.249993 -13.019431 -11.643270 36.676060 -0.383695 1.893849 0.065604 -0.028310 1511370.000000 0 0 1
32.203293 -14.402331 -11.391770 37.070900 -0.420549 1.883147 0.070518 -0.035724 267970.000000 0 0 1
33.232233 -15.016631 -10.370170 37.913334 -0.424407 1.847850 0.070437 -0.036978 636528.000000 0 0 1
34.549663 -15.172531 -10.846370 39.262306 -0.413796 1.850691 0.068285 -0.037929 186155.000000 0 0 1
35.482873 -15.480731 -9.804670 39.935183 -0.411392 1.818847 0.052404 -0.038380 462885.000000 0 0 1
-36.166603 -15.792131 -10.303870 40.787061 0.411696 1.826190 0.031654 -0.040408 193279.000000 0 0 1
-35.432430 -14.728631 -10.909970 39.892570 0.393952 1.847809 0.037006 -0.046888 574681.000000 0 0 1
-34.051064 -14.993931 -11.142570 38.838767 0.414789 1.861778 0.051058 -0.041975 487135.000000 0 0 1
-33.330483 -13.623331 -11.291670 37.736164 0.388014 1.874679 0.047413 -0.044882 -417035.000000 0 0 1
-33.268893 -12.789431 -10.132270 37.054712 0.367009 1.847765 0.058480 -0.040224 302921.000000 0 0 1
-32.800533 -11.510231 -10.465970 36.302850 0.337491 1.863243 0.061074 -0.033908 -157391.000000 0 0 1
-33.363653 -10.364431 -9.550270 36.218261 0.301199 1.837638 0.066793 -0.031358 -206914.000000 0 0 1
-32.668333 -10.180931 -8.346270 35.221181 0.302106 1.810039 0.068653 -0.022898 -342222.000000 0 0 1
-33.389713 -9.434031 -7.469270 35.491744 0.275365 1.782833 0.084338 -0.016884 -724414.000000 0 0 1
-32.808723 -9.295831 -6.070270 34.636295 0.276098 1.746964 0.082136 -0.008172 -967006.000000 0 0 1
-31.599623 -8.591231 -6.001870 33.292159 0.265461 1.752066 0.099063 -0.019405 127616.000000 0 0 1
-30.996263 -8.455631 -4.705670 32.471670 0.266315 1.716225 0.107569 -0.022224 387687.000000 0 0 1
-30.126873 -9.710331 -4.302170 31.944134 0.311801 1.705885 0.110183 -0.019866 -453254.000000 0 0 1
-30.916283 -10.840031 -3.997770 33.004621 0.337232 1.692222 0.107932 -0.015405 423491.000000 0 0 1
-31.286183 -10.948831 -2.648970 33.252356 0.336637 1.650543 0.088375 -0.021066 -444743.000000 0 0 1
-32.011893 -12.243131 -2.347170 34.353526 0.365291 1.639174 0.085438 -0.016042 126857.000000 0 0 1
-33.380873 -12.193431 -2.733470 35.643152 0.350224 1.647562 0.087861 -0.024345 445402.000000 0 0 1
-34.100243 -13.322631 -2.323470 36.684023 0.372455 1.634176 0.087247 -0.029418 501093.000000 0 0 1
-35.654046 -13.144631 -2.331470 38.071355 0.353211 1.632074 0.081857 -0.022979 540254.000000 0 0 1
-36.047803 -12.323431 -1.227670 38.115853 0.329408 1.603011 0.106055 -0.031421 -74680.100000 0 0 1
35.640043 -12.108931 -1.110670 37.657303 -0.327520 1.600295 0.118503 -0.031402 -163050.000000 0 0 1
35.283093 -11.211731 0.122430 37.021812 -0.307674 1.567489 0.120420 -0.033958 -112737.000000 0 0 1
35.554383 -11.921931 1.270530 37.521471 -0.323533 1.536928 0.135714 -0.031776 198381.000000 0 0 1
35.514413 -10.945331 2.289130 37.233236 -0.298957 1.509277 0.117740 -0.029732 -89119.200000 0 0 1
36.105383 -11.532731 3.583230 38.071539 -0.309175 1.476538 0.124705 -0.034973 -306985.000000 0 0 1
35.132393 -12.108131 4.399930 37.419931 -0.331894 1.452941 0.114143 -0.038508 -188090.000000 0 0 1
35.561843 -12.101331 5.746030 38.001365 -0.327998 1.419008 0.103028 -0.035318 -424965.000000 0 0 1
34.485553 -12.347731 6.833530 37.261467 -0.343833 1.386358 0.096214 -0.038665 291964.000000 0 0 1
33.762203 -11.146931 7.172030 36.270903 -0.318892 1.371749 0.095823 -0.033700 297537.000000 0 0 1
33.090353 -11.234431 8.396730 35.940074 -0.327297 1.334986 0.075825 -0.021792 -825343.000000 0 0 1
32.421843 -9.941131 8.829630 35.042322 -0.297518 1.316080 0.063386 -0.034566 -50722.100000 0 0 1
31.168623 -9.719431 8.191630 33.660855 -0.302278 1.324970 0.077045 -0.031624 47809.200000 0 0 1
30.422993 -8.749031 8.823230 32.862645 -0.280023 1.298973 0.070826 -0.019333 -608703.000000 0 0 1
28.908973 -8.996531 8.754230 31.516707 -0.301702 1.289330 0.061056 -0.016601 -304969.000000 0 0 1
28.372243 -8.675931 7.477430 30.596861 -0.296760 1.323910 0.074028 -0.018487 -325373.000000 0 0 1
27.476563 -9.678731 7.097530 29.983567 -0.338681 1.331814 0.090236 -0.028106 -654517.000000 0 0 1
26.622463 -9.191931 5.909530 28.777937 -0.332455 1.363976 0.108896 -0.028572 -483897.000000 0 0 1
25.706363 -8.259631 6.414330 27.752157 -0.310888 1.337558 0.110530 -0.027920 143695.000000 0 0 1
24.868663 -7.633331 5.427230 26.573915 -0.297817 1.365118 0.140854 -0.034347 177379.000000 0 0 1
25.457063 -6.394031 4.705130 26.666157 -0.246079 1.393422 0.136958 -0.029153 -349422.000000 0 0 1
26.221563 -6.655731 3.561430 27.286496 -0.248577 1.439903 0.134024 -0.026359 305113.000000 0 0 1
26.562263 -5.434831 2.867130 27.263742 -0.201822 1.465439 0.128095 -0.031769 -17632.700000 0 0 1
27.138263 -5.531431 1.487330 27.736153 -0.201070 1.517146 0.125773 -0.037458 -357310.000000 0 0 1
26.146563 -5.830931 0.565830 26.794825 -0.219419 1.549678 0.138617 -0.038585 -161506.000000 0 0 1
26.673663 -5.748531 -0.723270 27.295659 -0.212267 1.597297 0.132953 -0.040685 -824826.000000 0 0 1
25.655663 -5.967331 -1.791670 26.401367 -0.228530 1.638711 0.139186 -0.039820 -850716.000000 0 0 1
24.668163 -4.986631 -1.842570 25.234496 -0.199461 1.643879 0.151859 -0.033791 202310.000000 0 0 1
23.875763 -5.036531 -3.047270 24.590741 -0.207899 1.695035 0.128120 -0.030010 799282.000000 0 1 0
22.507463 -4.273731 -3.104270 23.118978 -0.187647 1.705477 0.095541 -0.026917 172747.000000 0 1 0
22.443163 -2.871231 -3.332170 22.870131 -0.127242 1.717016 0.086630 -0.032982 180928.000000 0 1 0
23.066063 -2.268331 -4.490970 23.608418 -0.098025 1.762190 0.097015 -0.032810 403422.000000 0 1 0
22.186263 -1.124731 -5.122970 22.797809 -0.050652 1.797445 0.076167 -0.024375 433645.000000 0 1 0
22.022063 0.022269 -4.333970 22.444488 0.001011 1.765114 0.062763 -0.023655 240573.000000 0 1 0
21.150263 0.939869 -4.955870 21.743450 0.044408 1.800742 0.070920 -0.018672 -597395.000000 0 1 0
20.974363 2.159369 -4.001270 21.461522 0.102591 1.758333 0.068050 -0.012864 -36793.100000 0 1 0
21.989763 3.172069 -3.946870 22.565227 0.143264 1.746610 0.083307 -0.016148 907115.000000 0 1 0
23.105963 2.822669 -3.144670 23.489188 0.121560 1.705077 0.105194 -0.020558 -395375.000000 0 1 0
24.253963 3.816769 -3.150870 24.753796 0.156087 1.698431 0.105440 -0.029460 -650967.000000 0 1 0
23.925963 5.115169 -2.759870 24.621810 0.210621 1.683123 0.083837 -0.025162 576133.000000 0 1 0
25.009163 6.028969 -2.802370 25.877789 0.236557 1.679302 0.086246 -0.024853 43822.700000 0 0 1
24.390063 7.371069 -3.095870 25.666948 0.293489 1.691708 0.057173 -0.021519 -23516.300000 0 0 1
23.453163 7.705969 -2.097270 24.775620 0.317456 1.655548 0.068838 -0.027681 107108.000000 0 1 0
22.799963 8.914569 -2.289770 24.587617 0.372716 1.664058 0.072288 -0.015552 -183670.000000 0 1 0
21.662763 9.066569 -1.219470 23.515210 0.396380 1.622678 0.062104 -0.015254 -45605.400000 0 1 0
22.134463 9.333769 0.038530 24.021973 0.399059 1.569192 0.049514 -0.024078 1067670.000000 0 1 0
21.049263 9.792769 0.876230 23.232253 0.435448 1.533071 0.043787 -0.018060 485907.000000 0 1 0
21.593763 10.269769 2.235430 24.015743 0.443929 1.477580 0.064164 -0.014211 -462070.000000 0 1 0
22.465363 11.393269 2.190930 25.284368 0.469350 1.484036 0.079125 -0.023779 37945.100000 0 0 1
22.038063 12.646869 1.826430 25.474602 0.520981 1.499039 0.081044 -0.013713 -527214.000000 0 0 1
20.893363 13.354469 2.619030 24.934590 0.568726 1.465566 0.064437 -0.004741 717091.000000 0 1 0
19.571163 12.879169 2.245530 23.536054 0.582027 1.475243 0.090047 -0.004874 2430120.000000 0 1 0
18.471063 13.630969 2.900230 23.138600 0.635753 1.445124 0.071302 -0.010898 1222860.000000 0 1 0
18.425663 13.614769 4.472830 23.342519 0.636361 1.377987 0.056820 -0.008902 -767068.000000 0 1 0
18.306363 12.364369 5.053430 22.661370 0.594034 1.345908 0.065515 -0.006515 387308.000000 0 1 0
18.479563 12.401469 6.453030 23.171799 0.591059 1.288579 0.066578 -0.020383 -448160.000000 0 1 0
18.598663 10.970369 6.981230 22.693542 0.532921 1.258094 0.045206 -0.026131 -1917.630000 0 1 0
19.609863 10.114169 6.452030 22.988515 0.476183 1.286311 0.032817 -0.032164 709103.000000 0 1 0
19.686763 8.938969 7.164430 22.777244 0.426225 1.250821 0.047550 -0.024974 47529.600000 0 1 0
20.486463 7.864969 6.383030 22.853795 0.366560 1.287733 0.038989 -0.023613 257887.000000 0 1 0
19.917163 7.567369 5.108230 21.910100 0.363096 1.335486 0.018718 -0.025835 649077.000000 0 1 0
20.840463 6.777369 4.423230 22.356712 0.314415 1.371634 0.028893 -0.029589 -304550.000000 0 1 0
20.549063 6.622469 2.910230 21.785099 0.311766 1.436808 0.042136 -0.026096 -943629.000000 0 1 0
21.375763 5.706669 2.302730 22.243918 0.260885 1.467089 0.030160 -0.031396 -270543.000000 0 1 0
21.234163 5.596969 0.898330 21.977778 0.257721 1.529910 0.045125 -0.024697 -890549.000000 0 1 0
22.289863 4.749869 0.274630 22.791987 0.209955 1.558747 0.067452 -0.033512 -609511.000000 0 1 0
22.148663 3.347169 0.567330 22.407335 0.149988 1.545475 0.061674 -0.024797 837804.000000 0 1 0
23.390463 2.679869 0.314030 23.545574 0.114074 1.557459 0.081522 -0.025054 583858.000000 0 1 0
23.382163 1.145569 0.232530 23.411363 0.048954 1.560864 0.110231 -0.024937 -5663.560000 0 1 0
22.382863 0.686969 -0.675670 22.403594 0.030682 1.600960 0.089194 -0.028374 831521.000000 0 1 0
22.514763 -0.685431 -1.084370 22.551280 -0.030434 1.618900 0.103764 -0.031035 -946630.000000 0 1 0
22.376563 -1.790431 -0.010270 22.448080 -0.079844 1.571254 0.126295 -0.027207 318482.000000 0 1 0
23.367563 -1.926631 1.015030 23.468813 -0.082263 1.527533 0.129086 -0.029355 60142.000000 0 1 0
24.672663 -2.294531 0.680430 24.788468 -0.092732 1.543343 0.137532 -0.035106 -794675.000000 0 1 0
25.627463 -2.003431 1.826330 25.770449 -0.078016 1.499868 0.121561 -0.033697 -586447.000000 0 0 1
25.795663 -0.637931 1.983430 25.879667 -0.024725 1.494081 0.111708 -0.031991 49030.900000 0 0 1
26.624163 -0.477031 3.082530 26.806260 -0.017915 1.455548 0.106884 -0.030373 -431021.000000 0 0 1
26.347963 0.907269 3.734630 26.626786 0.034421 1.430074 0.098652 -0.025105 -68389.400000 0 0 1
26.606263 2.122869 3.003130 26.859236 0.079620 1.458752 0.101698 -0.026252 779314.000000 0 0 1
27.963063 2.387669 2.601130 28.185098 0.085180 1.478377 0.109782 -0.029662 628384.000000 0 0 1
28.175153 3.498269 1.541930 28.433337 0.123529 1.516540 0.119210 -0.038479 -478878.000000 0 0 1
27.708963 3.112869 0.242530 27.884322 0.111873 1.562099 0.137560 -0.042506 155634.000000 0 0 1
27.985263 4.028169 -0.826870 28.285770 0.142957 1.600033 0.124925 -0.033282 550046.000000 0 0 1
29.476543 3.969669 -1.313870 29.771649 0.133867 1.614942 0.132925 -0.033991 768264.000000 0 0 1
30.387493 4.360669 -0.291270 30.700163 0.142529 1.580284 0.125173 -0.034432 -416111.000000 0 0 1
31.734033 4.405669 -0.683570 32.045687 0.137949 1.592129 0.110561 -0.030751 -145760.000000 0 0 1
32.600283 4.886469 0.514530 32.968481 0.148783 1.555189 0.083166 -0.022873 -127142.000000 0 0 1
32.823193 4.010569 1.603230 33.106147 0.121584 1.522350 0.081711 -0.019962 281942.000000 0 0 1
31.862493 4.137369 2.642330 32.238458 0.129128 1.488742 0.069443 -0.015886 64209.500000 0 0 1
31.997533 2.996169 3.692330 32.348917 0.093365 1.456406 0.085291 -0.022483 -131961.000000 0 0 1
31.360703 1.779969 3.328830 31.587071 0.056697 1.465214 0.088275 -0.023485 189006.000000 0 0 1
31.608313 0.641369 4.189330 31.891179 0.020288 1.439052 0.090736 -0.024875 -39765.700000 0 0 1
32.968853 -0.052531 4.010630 33.211943 -0.001593 1.449742 0.085335 -0.021814 -202666.000000 0 0 1
34.120753 0.661169 4.391030 34.408488 0.019375 1.442833 0.078966 -0.022766 306714.000000 0 0 1
35.276783 -0.158931 4.279130 35.535723 -0.004505 1.450086 0.070975 -0.025160 378933.000000 0 0 1
-36.462923 0.599769 4.633930 36.761091 -0.016447 1.444405 0.087855 -0.034557 504465.000000 0 0 1
-36.077603 1.688269 3.813330 36.317836 -0.046761 1.465604 0.091513 -0.034970 218984.000000 0 0 1
-35.744884 1.352269 2.449230 35.854206 -0.037813 1.502432 0.106764 -0.028094 -1026410.000000 0 0 1
-35.691839 2.579669 1.532330 35.817734 -0.072151 1.528002 0.096970 -0.027263 67274.100000 0 0 1
-34.512818 3.326869 1.619230 34.710583 -0.096098 1.524130 0.119249 -0.040185 -586089.000000 0 0 1
-33.340133 2.778569 1.116730 33.474348 -0.083148 1.537429 0.142023 -0.037457 -1601260.000000 0 0 1
-32.156173 3.560569 1.684430 32.396519 -0.110278 1.518779 0.143046 -0.035513 -640610.000000 0 0 1
-31.880813 3.444469 3.045830 32.210677 -0.107625 1.476095 0.140170 -0.040885 40845.600000 0 0 1
-31.051493 4.484169 3.508330 31.569152 -0.143419 1.459435 0.141229 -0.036355 -570785.000000 0 0 1
-31.157823 4.515769 5.052030 31.886127 -0.143930 1.411686 0.144524 -0.035342 513649.000000 0 0 1
-32.372593 4.981169 5.652730 33.237782 -0.152673 1.399896 0.146687 -0.025923 1874800.000000 0 0 1
-33.597403 4.207169 5.472930 34.299253 -0.124575 1.410547 0.151611 -0.022184 734526.000000 0 0 1
-33.891133 3.202269 6.604630 34.676859 -0.094207 1.379163 0.126936 -0.023356 -561984.000000 0 0 1
-33.997053 3.918469 7.843630 35.109494 -0.114753 1.345490 0.120752 -0.019880 335515.000000 0 0 1
-33.715743 3.140569 8.974130 35.030694 -0.092880 1.311729 0.103127 -0.019283 20634.600000 0 0 1
-34.731027 1.991269 9.266430 36.001057 -0.057271 1.310473 0.090952 -0.013719 -61358.200000 0 0 1
-34.652395 0.892369 8.343130 35.653788 -0.025746 1.334602 0.093227 -0.020496 280454.000000 0 0 1
-35.713014 -0.016731 8.562130 36.725056 0.000468 1.335490 0.097067 -0.019451 51911.100000 0 0 1
-35.491111 -1.008031 9.749630 36.819701 0.028395 1.302806 0.103490 -0.018325 -556131.000000 0 0 1
-34.365979 -1.818231 9.674030 35.747914 0.052859 1.296761 0.104043 -0.030703 -439361.000000 0 0 1
-34.260214 -2.555931 10.837630 36.024287 0.074466 1.265221 0.099760 -0.020955 -116561.000000 0 0 1
-32.954313 -3.362831 10.839130 34.853724 0.101693 1.254563 0.118671 -0.021873 -220463.000000 0 0 1
-32.983033 -4.384231 9.836330 34.696618 0.132149 1.283359 0.118447 -0.027984 1096090.000000 0 0 1
-31.738053 -5.137931 9.740630 33.594378 0.160493 1.276624 0.119261 -0.041040 1230640.000000 0 0 1
-31.839013 -6.262131 8.736930 33.604627 0.194202 1.307783 0.109475 -0.027267 550263.000000 0 0 1
-32.700363 -7.335131 9.177930 34.746975 0.220661 1.303488 0.112880 -0.027204 243445.000000 0 0 1
-32.814103 -8.157831 7.989030 34.743923 0.243668 1.338780 0.093959 -0.030103 595978.000000 0 0 1
-33.916113 -9.285031 8.119330 36.089306 0.267217 1.343875 0.099240 -0.031377 205781.000000 0 0 1
-35.187825 -8.767031 8.299930 37.201246 0.244178 1.345794 0.107398 -0.040056 -395062.000000 0 0 1
-36.200363 -9.744831 8.553430 38.452427 0.262958 1.346478 0.108483 -0.043542 499320.000000 0 0 1
7.943967 -24.040231 10.585430 27.442497 -1.251648 1.174796 0.112550 -0.027497 57313.800000 0 0 1
7.074467 -24.494431 9.574130 27.233971 -1.289628 1.211569 0.104714 -0.033559 -155744.000000 0 0 1
5.843967 -24.969931 10.112330 27.566440 -1.340894 1.195192 0.102163 -0.027793 441229.000000 0 0 1
5.180967 -25.863761 9.079430 27.896462 -1.373095 1.239289 0.090583 -0.025230 -465947.000000 0 0 1
4.806567 -25.205501 7.902630 26.849058 -1.382364 1.272036 0.095067 -0.020195 -393710.000000 0 0 1
4.910467 -26.129081 6.828830 27.449489 -1.385032 1.319378 0.079294 -0.011675 -228180.000000 0 0 1
4.280067 -25.580921 5.507730 26.514856 -1.405017 1.361550 0.065961 -0.013233 2241400.000000 0 0 1
2.820367 -25.524831 5.334330 26.228353 -1.460748 1.365987 0.043712 -0.019807 1784980.000000 0 0 1
2.223567 -26.727161 4.869530 27.257984 -1.487792 1.391186 0.035256 -0.014717 811389.000000 0 0 1
0.656667 -26.696491 4.792830 27.131256 -1.546204 1.393211 0.047399 -0.021520 731154.000000 0 0 1
0.017867 -26.663811 6.031930 27.337580 -1.570126 1.348320 0.038629 -0.012282 -1289670.000000 0 0 1
-1.364433 -26.647831 5.987030 27.346171 1.519639 1.350074 0.038516 -0.012920 -655472.000000 0 0 1
-2.032933 -27.972501 6.306530 28.746581 1.498248 1.349614 0.056368 -0.009501 -516147.000000 0 0 1
-1.761433 -28.629301 7.571630 29.665958 1.509348 1.312711 0.042185 -0.010927 -45311.900000 0 0 1
-2.241733 -29.971701 7.576130 30.995580 1.496140 1.323868 0.055737 -0.011064 -113680.000000 0 0 1
-2.047733 -30.673401 8.961830 32.021323 1.504136 1.287137 0.051081 -0.009045 534152.000000 0 0 1
-0.675633 -30.976211 9.217330 32.325551 1.548988 1.281643 0.060437 -0.003539 374496.000000 0 0 1
-0.567333 -31.174111 10.556530 32.917888 1.552599 1.244336 0.055234 0.000150 -31362.200000 0 0 1
0.883867 -31.307621 11.041430 33.209359 -1.542572 1.231865 0.043752 -0.003609 -162111.000000 0 0 1
1.462767 -32.571921 10.784530 34.342041 -1.525918 1.251359 0.047105 -0.010130 198805.000000 0 0 1
2.837067 -32.634291 11.139230 34.599542 -1.484079 1.243011 0.049122 -0.007813 317494.000000 0 0 1
3.219567 -33.230131 12.486830 35.644468 -1.474211 1.212888 0.049255 -0.005742 -680924.000000 0 0 1
2.786167 -32.502751 13.605730 35.345543 -1.485284 1.175659 0.036840 -0.002291 23103.100000 0 0 1
3.609967 -32.726141 14.733930 36.071053 -1.460932 1.150020 0.033471 0.000494 -547381.000000 0 0 1
3.422467 -31.813291 15.986330 35.768163 -1.463629 1.107451 0.031569 0.002335 22773.400000 0 0 1
3.877267 -30.467861 15.718130 34.501932 -1.444219 1.097781 0.032238 -0.004085 1948530.000000 0 0 1
5.337567 -30.341821 15.802130 34.624024 -1.396663 1.096860 0.041665 0.003173 1545190.000000 0 0 1
5.777667 -29.018121 15.144330 33.238283 -1.374261 1.097718 0.062349 -0.007031 -43777.700000 0 0 1
5.888067 -28.986401 13.705530 32.599422 -1.370391 1.136885 0.061980 -0.004518 308029.000000 0 0 1
4.639467 -29.026701 13.002130 32.142330 -1.412302 1.154345 0.047027 0.003997 269042.000000 0 0 1
4.850167 -29.149681 11.502530 31.710191 -1.405918 1.199591 0.049629 -0.010465 41139.400000 0 0 1
5.276867 -30.366361 10.986830 32.721119 -1.398741 1.228372 0.048671 -0.011175 151577.000000 0 0 1
6.650067 -30.695181 11.151830 33.328379 -1.357445 1.229611 0.054806 -0.010143 30611.300000 0 0 1
6.997067 -32.074541 10.596530 34.496689 -1.356011 1.258573 0.039581 -0.009841 -82681.100000 0 0 1
6.682967 -33.149971 11.516630 35.724157 -1.371865 1.242557 0.022106 -0.011048 200044.000000 0 0 1
6.908067 33.781198 10.947530 36.176499 1.369083 1.263362 0.029276 -0.007614 -102101.000000 0 0 1
6.560167 32.595797 11.802230 35.281927 1.372191 1.229709 0.031209 -0.005197 -94887.900000 0 0 1
5.211467 32.337505 12.099730 34.918148 1.411012 1.216941 0.035328 -0.006513 -290608.000000 0 0 1
5.060667 31.056793 12.713730 33.937791 1.409267 1.186811 0.046020 -0.002459 1114610.000000 0 0 1
3.790267 30.914303 13.658030 34.008852 1.448800 1.157531 0.040688 -0.004931 1019290.000000 0 0 1
4.122867 31.458533 14.904130 35.053821 1.440482 1.131637 0.056890 -0.006301 496361.000000 0 0 1
2.991667 31.483643 15.775430 35.341675 1.476058 1.108093 0.050354 -0.010605 270847.000000 0 0 1
3.317167 31.634243 17.262330 36.190011 1.466318 1.073568 0.045004 -0.010725 -508736.000000 0 0 1
3.690767 32.902595 17.572730 37.483374 1.459091 1.082849 0.047006 -0.005302 -217519.000000 0 0 1
4.401567 32.872169 18.748130 38.097843 1.437689 1.056290 0.054827 -0.004239 -276315.000000 0 0 1
4.684667 -33.902361 19.402730 39.341862 -1.433485 1.055052 0.046073 -0.004041 -197595.000000 0 0 1
3.490967 -33.303991 19.821030 38.912927 -1.466356 1.036345 0.031272 -0.007722 -288927.000000 0 0 1
3.731267 -32.205751 20.652830 38.440501 -1.455453 1.003602 0.035530 -0.010130 223103.000000 0 0 1
2.412567 -31.482311 21.021030 37.932045 -1.494313 0.983424 0.032765 -0.013135 401574.000000 0 0 1
1.485967 -32.303441 21.717430 38.953397 -1.524828 0.979397 0.043819 -0.015105 143120.000000 0 0 1
0.556567 -31.570781 22.495730 38.769599 -1.553169 0.951771 0.054437 -0.016032 -243662.000000 0 0 1
-0.627533 -32.332721 23.077730 39.728834 1.551390 0.950986 0.044478 -0.011832 -931718.000000 0 0 1
-1.511533 -32.845611 22.146030 39.642975 1.524809 0.978055 0.040089 -0.016923 -179650.000000 0 0 1
-2.421133 -33.830171 22.601830 40.757638 1.499351 0.982984 0.046563 -0.013939 800995.000000 0 0 1
-3.737233 -33.312601 23.285530 40.815587 1.459077 0.963675 0.072405 -0.010156 356695.000000 0 0 1
-4.724033 -32.989441 22.327930 40.114288 1.428565 0.980499 0.060466 -0.015956 237154.000000 0 0 1
-5.920633 -32.465291 22.935530 40.188151 1.390411 0.963434 0.060206 -0.005372 649112.000000 0 0 1
-7.089433 -32.180061 21.992130 39.616539 1.353955 0.982283 0.035083 -0.005739 -176634.000000 0 0 1
-7.796733 -33.282621 21.498030 40.381768 1.340687 1.009399 0.017284 0.000154 -154384.000000 0 0 1
-8.874433 -32.864161 20.691230 39.836360 1.307053 1.024641 0.028539 -0.019106 562571.000000 0 0 1
-10.074633 -33.876001 20.659530 40.937731 1.281729 1.041811 0.056453 -0.023925 390090.000000 0 0 1
-10.591333 34.053667 21.937630 41.869895 -1.269261 1.019317 0.072144 -0.029874 -259801.000000 0 0 1
-11.933533 33.645928 21.747130 41.801858 -1.229958 1.023661 0.055741 -0.021932 292499.000000 0 0 1
-12.773833 33.557187 23.074530 42.681255 -1.207074 0.999617 0.053638 -0.016043 37084.500000 0 0 1
-13.014333 -33.391781 23.758430 42.998219 1.199160 0.985382 0.048941 -0.013441 -194925.000000 0 0 1
-11.878533 -32.745961 24.307430 42.476448 1.222810 0.961541 0.037416 -0.011070 -65762.000000 0 0 1
-12.028233 -31.332851 24.990130 41.844145 1.204258 0.930767 0.036722 -0.009538 -166343.000000 0 0 1
-12.644033 -31.507721 26.291530 42.940104 1.189170 0.911850 0.042263 -0.005706 231514.000000 0 0 1
-13.071233 -30.214691 26.629630 42.342908 1.162496 0.890653 0.069353 -0.015219 1973.720000 0 0 1
-13.822533 -30.043081 27.956730 43.303901 1.139583 0.868996 0.061491 -0.016866 237552.000000 0 0 1
-12.944433 -29.961441 29.059630 43.700210 1.162981 0.843333 0.051654 -0.005050 658040.000000 0 0 1
-13.781733 -29.736921 30.183930 44.556596 1.136809 0.826535 0.061171 -0.006025 491554.000000 0 0 1
-12.981933 -29.327371 31.429330 44.904655 1.154067 0.795521 0.050213 -0.008267 -261704.000000 0 0 1
-13.842733 -28.969531 32.487330 45.675831 1.125035 0.779509 0.055372 -0.011410 295707.000000 0 0 1
-13.221933 -28.579731 33.728830 46.143845 1.137486 0.751084 0.048260 -0.009286 -24637.000000 0 0 1
-12.508933 -29.741421 -33.733573 46.679540 1.172667 2.378444 0.046023 -0.004094 -39177.100000 0 0 1
-11.163033 -29.929871 -34.088473 46.716533 1.213804 2.388661 0.033680 -0.005239 -541406.000000 0 0 1
-10.796433 -31.171881 -33.529273 47.036808 1.237375 2.364322 0.026615 -0.004842 -1066780.000000 0 0 1
-9.310133 -31.313441 -33.721773 46.950699 1.281799 2.372063 0.021836 -0.012240 -851320.000000 0 0 1
-8.573233 -30.466261 -32.841173 45.609604 1.296489 2.374670 0.042792 -0.021030 309329.000000 0 0 1
-7.216433 -30.869751 -32.660973 45.516564 1.341150 2.371092 0.045329 -0.027059 273752.000000 0 0 1
-6.386633 -30.101031 -31.656973 44.147764 1.361724 2.370384 0.060924 -0.024834 -394118.000000 0 0 1
-6.746433 -30.456891 -30.352273 43.524672 1.352808 2.342501 0.062933 -0.030861 42623.200000 0 0 1
-6.200433 -29.662511 -29.335473 42.176770 1.364731 2.339962 0.057917 -0.023875 23027.100000 0 0 1
-6.834833 -30.174871 -28.005273 41.731680 1.348048 2.306460 0.066708 -0.027991 -100886.000000 0 0 1
-6.550833 -31.490811 -27.534373 42.340598 1.365698 2.278784 0.056308 -0.014710 -146369.000000 0 0 1
-7.314833 -31.812261 -26.369973 41.963105 1.344787 2.250302 0.067197 -0.017822 -34066.100000 0 0 1
-6.866133 -33.092291 -25.584873 42.389022 1.366215 2.218771 0.069451 -0.017940 -179030.000000 0 0 1
-5.784433 -32.683221 -24.798473 41.432075 1.395625 2.212465 0.047376 -0.023460 -533075.000000 0 0 1
-5.266633 -33.771041 -24.114573 41.829813 1.416091 2.185226 0.050090 -0.029361 -533055.000000 0 0 1
-4.340633 -33.399671 -22.938673 40.749992 1.441560 2.168702 0.069027 -0.041018 -256576.000000 0 0 1
-4.827633 -32.838431 -21.730073 39.671963 1.424830 2.150461 0.072335 -0.033858 -159215.000000 0 0 1
-5.034733 -31.439511 -21.855473 38.619336 1.412004 2.172346 0.057271 -0.024719 -140852.000000 0 0 1
-5.376233 -30.777971 -20.477073 37.356363 1.397863 2.150953 0.085390 -0.034496 706377.000000 0 0 1
-6.752933 -30.888561 -20.023873 37.425403 1.355560 2.135345 0.090099 -0.049475 1227220.000000 0 0 1
-7.344533 -29.657631 -19.680173 36.343176 1.328036 2.143028 0.090350 -0.043505 -102766.000000 0 0 1
-7.733633 -28.699751 -20.800673 36.278820 1.307581 2.181392 0.098280 -0.047812 259732.000000 0 0 1
-6.554233 -28.313121 -21.541373 36.174874 1.343312 2.208658 0.097021 -0.033523 655281.000000 0 0 1
-6.907333 -27.484961 -22.618073 36.258951 1.324582 2.244382 0.115674 -0.044694 -370062.000000 0 0 1
-5.939333 -27.715781 -23.818073 37.023517 1.359695 2.269627 0.109443 -0.040705 2092870.000000 0 0 1
-4.551833 -27.272591 -23.855173 36.518251 1.405419 2.282652 0.116447 -0.033537 1547700.000000 0 0 1
-3.759533 -27.674351 -22.753473 36.023941 1.435774 2.254438 0.076811 -0.035501 -833681.000000 0 0 1
-2.290033 -27.189801 -22.837573 35.582078 1.486771 2.267676 0.084888 -0.036457 10739.800000 0 0 1
-2.018933 -25.781781 -22.957173 34.580458 1.492647 2.296788 0.087536 -0.039750 209853.000000 0 0 1
-2.519233 -24.937931 -21.881673 33.272429 1.470118 2.288494 0.111025 -0.044173 -372807.000000 0 0 1
-2.680433 -23.433131 -22.309473 32.465504 1.456905 2.328389 0.120271 -0.038308 784052.000000 0 0 1
-3.572833 -23.132231 -23.416773 33.109070 1.417555 2.356413 0.100425 -0.042309 532904.000000 0 0 1
-4.958833 -23.315931 -23.273273 33.314680 1.361239 2.344220 0.098173 -0.036797 -178054.000000 0 0 1
-5.674733 -23.433431 -24.633273 34.469210 1.333206 2.366914 0.090916 -0.029487 119550.000000 0 0 1
-5.537633 -22.258531 -25.374573 34.204920 1.326960 2.406606 0.115424 -0.032215 78941.700000 0 0 1
-6.189733 -22.426331 -26.617973 35.352081 1.301498 2.423314 0.122852 -0.029896 237944.000000 0 0 1
-6.187133 -21.143431 -27.442673 35.191271 1.286118 2.465166 0.132110 -0.038040 148639.000000 0 0 1
-6.670733 -21.283731 -28.812473 36.436993 1.267074 2.482826 0.139245 -0.040744 197713.000000 0 0 1
-5.683133 -21.752131 -29.738473 37.280423 1.315241 2.494263 0.123710 -0.039116 -212970.000000 0 0 1
-6.018533 -21.818531 -31.183873 38.531869 1.301645 2.513757 0.123764 -0.042903 -559896.000000 0 0 1
-6.403733 -20.590831 -31.669573 38.313861 1.269279 2.543805 0.105698 -0.039268 -48946.100000 0 0 1
-7.334633 -20.751531 -32.714273 39.429006 1.231051 2.549368 0.104132 -0.032084 -427076.000000 0 0 1
-6.851733 -20.012431 -33.943373 39.994952 1.240931 2.584302 0.104786 -0.035646 177480.000000 0 0 1
-5.754633 -20.628831 33.675130 39.908380 1.298752 0.566451 0.098254 -0.028672 -272366.000000 0 0 1
-5.373533 -19.876531 32.526730 38.495967 1.306762 0.564346 0.110594 -0.022154 1135110.000000 0 0 1
-3.970933 -20.368631 31.965630 38.111034 1.378258 0.575813 0.074852 -0.032396 -681890.000000 0 0 1
-3.981633 -21.707631 31.443130 38.415427 1.389392 0.611996 0.095690 -0.028933 213125.000000 0 0 1
-2.875033 -22.246331 30.702230 38.023571 1.442272 0.630975 0.079266 -0.021727 1310200.000000 0 0 1
-1.446333 -21.964831 31.328130 38.288345 1.505044 0.612496 0.056486 -0.032216 -210958.000000 0 0 1
-1.050533 -20.682731 31.133630 37.392270 1.520047 0.586971 0.038605 -0.024875 -1003800.000000 0 0 1
-0.039933 -20.293631 32.011530 37.902125 1.568829 0.565009 0.049733 -0.026177 -452955.000000 0 0 1
-0.475133 -19.811331 33.436430 38.867845 1.546818 0.535018 0.050067 -0.030376 -204979.000000 0 0 1
-1.249233 -18.624531 33.507630 38.356160 1.503822 0.508262 0.050514 -0.029519 88440.300000 0 0 1
-1.650733 -18.352131 -33.386373 38.133654 1.481090 2.637285 0.065562 -0.033678 -51028.400000 0 0 1
-2.733933 -17.284431 -33.267273 37.589059 1.413923 2.657345 0.058192 -0.035509 -111946.000000 0 0 1
-2.276033 -15.996431 -33.519573 37.210589 1.429461 2.692422 0.069041 -0.036433 156975.000000 0 0 1
-3.398333 -15.126031 -33.620573 37.022809 1.349798 2.709531 0.069101 -0.031375 619694.000000 0 0 1
-3.012133 -13.608931 -33.948873 36.698800 1.352973 2.752010 0.050262 -0.027970 -448421.000000 0 0 1
-2.100533 -13.053931 -33.042773 35.589917 1.411252 2.760963 0.045990 -0.020427 -198234.000000 0 0 1
-1.900833 -11.672331 -33.177873 35.222546 1.409364 2.799188 0.041502 -0.015235 93266.300000 0 0 1
-1.201033 -11.211731 33.730530 35.565349 1.464080 0.322614 0.040489 -0.017852 -366270.000000 0 0 1
-2.014433 -11.345031 32.595930 34.572566 1.395067 0.339785 0.046453 -0.024601 14747.300000 0 0 1
-1.268333 -10.962231 31.474130 33.352661 1.455608 0.337224 0.055364 -0.020310 507930.000000 0 0 1
-0.322133 -12.047331 30.858930 33.128771 1.544064 0.372324 0.036499 -0.022418 115662.000000 0 0 1
-1.077233 -13.123131 30.371330 33.102789 1.488893 0.409084 0.048423 -0.025904 72593.200000 0 0 1
-0.223633 -14.166131 29.953830 33.135497 1.555011 0.441808 0.027691 -0.023895 -189535.000000 0 0 1
-0.542533 -15.486031 30.549930 34.255068 1.535777 0.469407 0.032932 -0.024701 593645.000000 0 0 1
-1.736133 -16.077631 30.006330 34.086422 1.463229 0.494299 0.042767 -0.024823 776968.000000 0 0 1
-1.932433 -17.386831 30.538630 35.194376 1.460107 0.520213 0.052731 -0.021273 -93800.400000 0 0 1
-2.292533 -18.428631 29.413930 34.785764 1.447032 0.563157 0.053730 -0.016308 -547423.000000 0 0 1
-3.603433 -18.297631 28.939230 34.427707 1.376350 0.572444 0.063751 -0.018695 -257972.000000 0 0 1
-3.877733 -19.453831 28.198030 34.476328 1.374045 0.613053 0.072834 -0.019930 299815.000000 0 0 1
-4.545733 -19.065231 26.833730 33.229441 1.336736 0.630846 0.047530 -0.027485 -259642.000000 0 0 1
-5.281033 -20.028831 26.135130 33.347989 1.312992 0.670181 0.048996 -0.022486 -351388.000000 0 0 1
-4.605633 -21.116131 25.534330 33.453024 1.356050 0.702407 0.050141 -0.021935 -357792.000000 0 0 1
-29.294203 -33.729024 -0.210570 44.674844 0.855650 1.575510 0.065397 -0.023927 -507837.000000 0 0 1
-28.536793 -32.571824 -0.114370 43.304565 0.851333 1.573437 0.064478 -0.018331 -129414.000000 0 0 1
-28.966543 -31.841224 1.007030 43.057383 0.832638 1.547406 0.051198 -0.012011 -192169.000000 0 0 1
-28.174393 -30.574924 1.308530 41.597291 0.826236 1.539334 0.063895 -0.016566 -453152.000000 0 0 1
-26.969573 -30.906524 1.914430 41.063806 0.853317 1.524159 0.072771 -0.018489 -838590.000000 0 0 1
-25.973993 -29.914524 1.956030 39.665515 0.855789 1.521463 0.087025 -0.014721 5324.050000 0 0 1
-24.587833 -30.495224 2.242230 39.237072 0.892235 1.513619 0.058942 -0.012012 -396778.000000 0 0 1
-24.439333 -30.879524 3.609730 39.545621 0.901296 1.479389 0.062272 -0.012299 -1224720.000000 0 0 1
-23.116633 -30.946024 3.965330 38.829872 0.929219 1.468497 0.067086 -0.004820 -1332870.000000 0 0 1
-22.910133 -31.322224 5.415230 39.182657 0.939284 1.432148 0.081080 -0.007505 -175952.000000 0 0 1
-23.082133 -30.278724 6.342730 38.598137 0.919456 1.405720 0.074414 -0.008920 -189384.000000 0 0 1
-22.662433 -30.738524 7.595430 38.937556 0.935496 1.374471 0.076965 -0.017922 -408979.000000 0 0 1
-23.208733 -29.889324 8.730230 38.835987 0.910557 1.344061 0.066406 -0.021339 -212495.000000 0 0 1
-22.602033 -28.636124 8.879330 37.546265 0.902624 1.332044 0.075399 -0.021825 -74529.200000 0 0 1
-23.342033 -27.918224 9.848430 37.699725 0.874436 1.306497 0.059410 -0.015606 -59701.100000 0 0 1
-22.549533 -26.875424 10.588430 36.645391 0.872700 1.277674 0.060654 -0.023676 -726348.000000 0 0 1
-21.417233 -27.361024 11.222830 36.514044 0.906654 1.258382 0.081632 -0.026932 -904901.000000 0 0 1
-21.049933 -26.395224 12.180330 35.891057 0.897588 1.224550 0.090819 -0.027921 -183629.000000 0 0 1
-19.706233 -26.759324 12.832030 35.623841 0.936040 1.202304 0.089720 -0.028031 -376558.000000 0 0 1
-19.733333 -27.890924 13.700730 36.810570 0.955042 1.189423 0.077234 -0.027495 -389551.000000 0 0 1
-18.456933 -27.928024 14.287230 36.397223 0.986814 1.167409 0.094709 -0.030645 5437.610000 0 0 1
-18.293133 -28.977124 15.400930 37.569949 1.007683 1.148422 0.109407 -0.035336 -153698.000000 0 0 1
-18.204133 -30.301424 14.848330 38.341096 1.029812 1.173128 0.106344 -0.033806 -7743.590000 0 0 1
-18.465333 -31.372324 15.733430 39.657686 1.038811 1.162844 0.108105 -0.028649 54669.700000 0 0 1
-17.763533 -32.619624 15.198430 40.131973 1.072135 1.182393 0.115839 -0.033837 -18677.600000 0 0 1
-17.981933 -33.708524 16.100430 41.458875 1.080745 1.171959 0.119471 -0.030050 82319.600000 0 0 1
-17.274833 33.268869 15.827730 40.690964 -1.091868 1.171279 0.103608 -0.031330 -478383.000000 0 0 1
-17.479933 32.007569 16.702130 40.112264 -1.070938 1.141331 0.097938 -0.031211 873718.000000 0 0 1
-18.754833 31.316569 16.543530 40.076922 -1.031202 1.145276 0.103566 -0.022908 1239430.000000 0 0 1
-18.921333 30.324369 17.527230 39.809396 -1.012942 1.114887 0.074518 -0.016981 -273436.000000 0 0 1
-19.598033 30.710469 18.844930 41.016426 -1.002793 1.093422 0.066950 -0.015818 -696049.000000 0 0 1
-18.927733 31.555269 19.737030 41.755771 -1.030503 1.078469 0.071228 -0.010169 -166775.000000 0 0 1
-19.637933 31.788669 20.949630 42.837541 -1.017417 1.059798 0.064500 -0.009393 -262152.000000 0 0 1
-19.147733 32.947569 21.827130 43.915847 -1.044347 1.050633 0.058449 -0.003845 127130.000000 0 0 1
-17.837033 32.835069 22.354730 43.543489 -1.073165 1.031668 0.037757 -0.003551 25960.500000 0 0 1
-17.566833 33.712669 23.442730 44.662056 -1.090431 1.018209 0.042260 -0.003201 -198412.000000 0 0 1
-18.032233 33.268869 24.807130 45.247904 -1.074104 0.990527 0.028636 -0.009576 540009.000000 0 0 1
-19.463433 33.373369 24.861330 45.942276 -1.042819 0.999001 0.008713 -0.010628 684856.000000 0 0 1
-20.035133 32.324569 25.607130 45.847676 -1.015937 0.978188 0.010687 -0.000109 -408393.000000 0 0 1
-21.561333 32.286069 25.456330 46.425274 -0.981995 0.990431 0.064926 -0.012007 -331241.000000 0 0 1
-21.907933 31.887569 24.141930 45.602712 -0.968824 1.012907 0.045444 -0.001409 364057.000000 0 0 1
-23.288333 32.138669 23.924130 46.342254 -0.943737 1.028331 0.019866 -0.004899 -6749.310000 0 0 1
-23.747233 31.729069 22.547330 45.596568 -0.928296 1.053541 0.006628 -0.005049 -237185.000000 0 0 1
-23.237733 32.499269 21.472930 45.357265 -0.950059 1.077630 0.010056 -0.003148 245629.000000 0 0 1
-23.547533 31.899169 20.253930 44.522634 -0.934899 1.098522 0.000890 -0.001400 -189366.000000 0 0 1
-23.190733 32.879569 19.160630 44.564626 -0.956506 1.126357 0.024688 -0.005024 865928.000000 0 0 1
-21.803933 33.275369 19.114230 44.136328 -0.990734 1.122898 0.054017 -0.008813 863930.000000 0 0 1
-21.547333 -33.951524 18.077230 44.088318 1.005288 1.148317 0.073167 -0.003300 -102234.000000 0 0 1
-20.248433 -33.172124 18.306330 42.959406 1.022761 1.130585 0.073988 -0.011251 -377156.000000 0 0 1
-20.346633 -32.063824 19.187630 42.546908 1.005347 1.102938 0.082433 -0.029442 -335447.000000 0 0 1
-19.113633 -31.737524 19.722230 41.971035 1.028731 1.081618 0.071985 -0.035489 -669485.000000 0 0 1
-19.266233 -30.723324 20.822930 41.817518 1.010697 1.049566 0.074315 -0.035480 -171106.000000 0 0 1
-19.850933 -29.540924 20.397930 41.021961 0.979124 1.050377 0.101592 -0.040625 233573.000000 0 0 1
-20.537833 -28.985924 21.519430 41.533989 0.954358 1.026149 0.097273 -0.040824 -8230.210000 0 0 1
-21.315433 -27.621724 21.296130 40.875818 0.913557 1.022779 0.079132 -0.034935 -287252.000000 0 0 1
-20.526233 -26.462924 21.060030 39.561818 0.911074 1.009443 0.074177 -0.037064 436035.000000 0 0 1
-21.261233 -25.255924 20.821730 39.031348 0.871064 1.008108 0.055475 -0.022270 -351647.000000 0 0 1
-22.262433 -25.097224 19.657630 38.883274 0.845183 1.040771 0.052192 -0.014774 -413269.000000 0 0 1
-23.474833 -25.731724 19.981230 40.155186 0.831232 1.049966 0.048956 -0.012374 179802.000000 0 0 1
-24.403433 -25.537424 18.879530 40.051519 0.808101 1.079940 0.040550 -0.011081 -184998.000000 0 0 1
-25.863023 -25.713124 19.313930 41.268494 0.782492 1.083763 0.025789 -0.009290 -156152.000000 0 0 1
-26.434053 -27.013524 19.493430 42.526268 0.796240 1.094618 0.015732 -0.008674 10929.400000 0 0 1
-26.615063 -27.695924 18.261630 42.531317 0.805297 1.127002 0.020237 -0.012174 -364782.000000 0 0 1
-27.709563 -28.811024 18.259130 43.946454 0.804883 1.142319 0.027901 -0.015423 -147087.000000 0 0 1
-28.933883 -28.232924 18.568830 44.486729 0.773137 1.140212 0.000727 -0.014916 -993159.000000 0 0 1
-30.044753 -28.979324 18.156730 45.520932 0.767349 1.160517 0.014601 -0.008013 873520.000000 0 0 1
-31.448893 -28.280024 18.336830 46.098069 0.732394 1.161702 0.022317 -0.005451 1002760.000000 0 0 1
-31.572273 -27.081424 17.660830 45.189787 0.708982 1.169280 0.034707 0.001739 -427154.000000 0 0 1
-32.814883 -26.536424 18.003030 45.881450 0.680005 1.167577 0.053199 0.016926 -335463.000000 0 0 1
-33.119793 -25.241224 17.116130 45.022239 0.651212 1.180816 0.057007 -0.004663 -189287.000000 0 0 1
-33.293733 -25.596924 15.719830 44.841813 0.655438 1.212625 0.064396 -0.013509 24251.900000 0 0 1
-33.728923 -24.548724 14.897230 44.296812 0.629157 1.227806 0.054548 -0.020121 -125641.000000 0 0 1
-32.829333 -23.283724 14.732730 42.859657 0.616897 1.219896 0.044257 -0.011833 -110484.000000 0 0 1
-32.683893 -22.601524 15.940030 42.815304 0.605011 1.189313 0.027856 -0.003087 180229.000000 0 0 1
-31.957013 -21.403924 15.743530 41.560045 0.590150 1.182282 0.025189 -0.006990 -54527.800000 0 0 1
-32.794653 -20.179024 16.174530 41.764790 0.551604 1.173120 0.033142 -0.015918 -53600.600000 0 0 1
-32.986213 -20.209924 17.586130 42.494744 0.549689 1.144125 0.027447 -0.001813 -162262.000000 0 0 1
-33.781343 -19.157924 17.958030 42.786634 0.515889 1.137669 0.027854 -0.000064 -529835.000000 0 0 1
-34.190222 -19.078724 19.414930 43.702500 0.508977 1.110457 0.024536 -0.007378 -505982.000000 0 0 1
-35.312404 -19.826524 19.766430 45.064051 0.511600 1.116723 0.032889 -0.002055 51523.300000 0 0 1
-35.685142 -19.683224 21.145030 45.912645 0.504056 1.092183 0.028928 0.002034 -720626.000000 0 0 1
35.919433 -19.971124 21.521030 46.391876 -0.507436 1.088408 0.051597 -0.003001 -306599.000000 0 0 1
35.557833 -21.304224 21.752830 46.812552 -0.539789 1.087524 0.071532 -0.016529 44456.600000 0 0 1
36.034463 -21.817224 22.970230 47.980259 -0.544420 1.071574 0.058813 -0.002189 -316939.000000 0 0 1
35.400013 -23.197824 23.366030 48.345334 -0.580096 1.066359 0.063947 -0.003418 -490693.000000 0 0 1
34.285593 -23.095124 24.177830 47.890021 -0.592794 1.041575 0.073088 -0.027719 -417248.000000 0 0 1
34.192333 -24.311724 24.858130 48.765789 -0.618089 1.035908 0.071567 -0.043704 -301336.000000 0 0 1
33.178913 -24.073024 26.012730 48.549077 -0.627670 1.005338 0.072958 -0.042981 763243.000000 0 0 1
31.826053 -24.132924 25.546030 47.411974 -0.648777 1.001773 0.074106 -0.041361 94915.400000 0 0 1
30.960523 -24.157424 26.637630 47.452064 -0.662591 0.974770 0.048210 -0.037828 382156.000000 0 0 1
29.537523 -24.704024 26.263630 46.610431 -0.696522 0.972215 0.030416 -0.033565 914704.000000 0 0 1
28.703163 -23.854924 25.461730 45.179958 -0.693413 0.972104 0.032490 -0.027451 35385.000000 0 0 1
27.419463 -24.417424 25.312330 44.595421 -0.727550 0.967209 0.019015 -0.014571 -13000.100000 0 0 1
26.367163 -23.417224 24.784530 43.102976 -0.726213 0.958183 0.023791 -0.013414 -552553.000000 0 0 1
26.533063 -22.925124 23.488230 42.204996 -0.712578 0.980596 0.023103 -0.006037 745206.000000 0 0 1
27.609763 -21.959024 23.311830 42.284029 -0.671890 0.986856 0.034202 -0.001740 659478.000000 0 0 1
27.525563 -21.203524 21.970930 41.109218 -0.656380 1.006936 0.040356 -0.010614 -203908.000000 0 0 1
26.680563 -20.091624 22.086530 40.041735 -0.645446 0.986530 0.046294 -0.012822 -108822.000000 0 0 1
26.427363 -19.510024 20.806530 38.883907 -0.635939 1.006178 0.029498 -0.014343 -502730.000000 0 0 1
25.328263 -18.460324 20.812930 37.622899 -0.629822 0.984597 0.038375 -0.011060 -594738.000000 0 0 1
25.581763 -17.171424 21.343130 37.480843 -0.591160 0.964971 0.053507 -0.028376 -79840.100000 0 0 1
25.722963 -17.196524 22.755430 38.408343 -0.589290 0.936687 0.052159 -0.019045 -161577.000000 0 0 1
25.888163 -15.725324 23.345330 38.242479 -0.545867 0.914161 0.071047 -0.007402 542327.000000 0 0 1
24.644263 -15.016924 23.151230 36.997664 -0.547264 0.894706 0.024899 -0.007042 561004.000000 0 0 1
24.593163 -13.686624 23.699230 36.794032 -0.507836 0.870943 0.017439 -0.002959 -329852.000000 0 0 1
23.296463 -12.870024 23.467430 35.483559 -0.504719 0.848165 0.000109 0.000373 -578780.000000 0 0 1
22.277263 -13.628824 23.982430 35.456709 -0.549038 0.827951 0.021774 -0.008672 168838.000000 0 0 1
20.948763 -13.146624 23.637030 34.211015 -0.560439 0.808037 0.031665 -0.002166 1282420.000000 0 0 1
19.831963 -13.899824 24.376630 34.361780 -0.611316 0.782134 0.047703 -0.007584 -232162.000000 0 0 1
19.477763 -15.127324 23.785230 34.263046 -0.660338 0.803496 0.056602 -0.012131 -103204.000000 0 0 1
18.210463 -15.632324 24.129330 34.032559 -0.709365 0.782707 0.056841 0.000073 -43569.900000 0 0 1
17.758563 -16.780524 23.236330 33.717645 -0.757089 0.810489 0.060481 -0.006532 -330917.000000 0 0 1
18.586063 -17.906224 23.357430 34.808679 -0.766771 0.835208 0.051563 -0.006601 126175.000000 0 0 1
18.118363 -19.001624 22.524830 34.593420 -0.809188 0.861723 0.065556 -0.007367 157371.000000 0 0 1
18.725963 -20.338324 22.922730 35.913238 -0.826649 0.878533 0.058768 -0.003696 -105174.000000 0 0 1
18.062463 -20.843024 24.091130 36.620578 -0.856746 0.852826 0.073856 -0.009419 372762.000000 0 0 1
18.367263 -22.202324 24.483830 37.812134 -0.879649 0.866481 0.080224 -0.017937 -146901.000000 0 0 1
17.793563 -23.365824 23.587230 37.668687 -0.919963 0.894157 0.074573 -0.017256 -36360.500000 0 0 1
18.478163 -23.581524 22.390030 37.401126 -0.906144 0.928987 0.068351 -0.010439 595201.000000 0 0 1
19.635963 -24.449924 22.567830 38.635175 -0.894162 0.946993 0.067915 -0.012744 761331.000000 0 0 1
20.486663 -24.423324 21.287330 38.332134 -0.872831 0.982026 0.055151 -0.003096 -13062.000000 0 0 1
19.767163 -24.935224 20.170330 37.674239 -0.900498 1.005829 0.055932 -0.012550 57293.200000 0 0 1
20.642763 -25.133924 19.133230 37.734842 -0.883195 1.039044 0.051649 0.002174 -316071.000000 0 0 1
19.843063 -25.829324 18.044130 37.235625 -0.915725 1.064898 0.041812 -0.007561 70931.900000 0 0 1
19.394663 -27.090924 18.436930 38.078754 -0.949472 1.065372 0.062303 -0.015938 56161.100000 0 0 1
18.597663 -27.755724 17.457530 37.696401 -0.980457 1.089297 0.061092 -0.020978 -81338.100000 0 0 1
17.936963 -29.007824 17.995030 38.561763 -1.016994 1.085292 0.059994 -0.021609 196094.000000 0 0 1
16.804563 -28.710424 18.807630 38.215294 -1.041247 1.056239 0.070767 -0.027883 86623.200000 0 0 1
16.068163 -29.831724 19.166030 38.928836 -1.076727 1.056026 0.078396 -0.033129 540744.000000 0 0 1
14.768863 -29.560624 20.019030 38.635623 -1.107459 1.026110 0.071584 -0.030058 180455.000000 0 0 1
13.895263 -28.778324 19.285630 37.325672 -1.120972 1.027821 0.065521 -0.019243 -139020.000000 0 0 1
12.634363 -28.655624 19.963930 37.139338 -1.155533 1.003278 0.038981 -0.016619 558382.000000 0 0 1
11.565963 -28.053824 19.042530 35.824663 -1.179751 1.010369 0.040090 -0.018302 -374867.000000 0 0 1
11.207363 -28.802224 17.889630 35.710110 -1.199709 1.046079 0.039969 -0.019089 -90055.300000 0 0 1
10.473463 -28.007224 17.009330 34.400804 -1.212941 1.053599 0.060931 -0.017192 -167344.000000 0 0 1
10.359663 -28.663424 15.669430 34.270184 -1.223980 1.095916 0.062000 -0.016480 -176537.000000 0 0 1
9.447163 -29.727724 15.601330 34.876754 -1.263100 1.107021 0.067460 -0.006867 -43503.300000 0 0 1
9.872563 -30.671424 14.678130 35.406938 -1.259388 1.143342 0.061522 -0.008483 -106465.000000 0 0 1
8.787363 -31.716324 14.344830 35.901491 -1.300515 1.159759 0.058945 -0.008112 -103151.000000 0 0 1
8.493663 -32.591924 15.401030 37.034680 -1.315860 1.141914 0.063206 -0.008105 126486.000000 0 0 1
7.595163 -33.578224 14.903730 37.514061 -1.348347 1.162241 0.036254 -0.009734 -70754.200000 0 0 1
7.448363 33.351769 15.814930 37.655420 1.351074 1.137361 0.063517 -0.014115 -336962.000000 0 0 1
8.505663 32.444469 15.906730 37.121610 1.314406 1.127961 0.078887 -0.017417 -667115.000000 0 0 1
8.304263 31.361969 16.832230 36.549389 1.311949 1.092200 0.081764 -0.022864 -50505.700000 0 0 1
9.599763 30.605469 17.205730 36.399002 1.266853 1.078447 0.084819 -0.026190 64376.200000 0 0 1
10.064963 29.836469 16.113830 35.371936 1.245446 1.097802 0.089417 -0.027135 63520.800000 0 0 1
11.359863 29.312969 16.386930 35.451772 1.201080 1.090286 0.081593 -0.029345 75413.600000 0 0 1
12.046063 28.736069 15.187130 34.662923 1.173851 1.117271 0.068100 -0.021484 -581880.000000 0 0 1
11.438563 27.567769 14.709530 33.274508 1.177490 1.112896 0.068610 -0.028278 477549.000000 0 0 1
12.153863 27.141069 13.497930 32.658048 1.149771 1.144709 0.061227 -0.024398 387029.000000 0 0 1
-9.232433 -9.180031 19.154932 23.160791 0.782552 0.596972 0.015866 -0.020465 -322606.000000 0 1 0
-9.497033 -9.507031 17.779132 22.286202 0.785924 0.647218 0.017936 -0.020430 32097.400000 0 1 0
-9.548233 -10.900431 17.621032 22.814226 0.851428 0.688232 0.027521 -0.018528 -138169.000000 0 1 0
-9.643533 -11.212531 16.120932 21.876998 0.860487 0.742339 0.023723 -0.015108 -785605.000000 0 1 0
-10.769833 -10.622931 15.552732 21.696162 0.778531 0.771533 0.023655 -0.029015 -432292.000000 0 1 0
-11.143933 -11.084131 14.293432 21.244938 0.782708 0.832820 0.021764 -0.030615 238736.000000 0 1 0
-11.472933 -12.616931 14.130532 22.146943 0.832851 0.878852 0.022531 -0.030351 -362061.000000 0 1 0
-10.423133 -13.273131 13.423532 21.564066 0.905095 0.898869 0.032774 -0.030861 334535.000000 0 1 0
-10.423533 -14.702231 13.570332 22.560132 0.954071 0.925396 0.042122 -0.032055 42726.400000 0 1 0
-9.904433 -15.246831 14.925432 23.523014 0.994698 0.883430 0.046312 -0.035016 -320045.000000 0 1 0
-10.799233 -14.965231 15.940632 24.386171 0.945706 0.858366 0.054800 -0.021851 -438135.000000 0 1 0
-10.404833 -15.555231 17.184732 25.407495 0.981252 0.827980 0.057023 -0.022264 160852.000000 0 0 1
-11.467633 -15.232131 18.275732 26.410733 0.925469 0.806566 0.046815 -0.018930 -77879.800000 0 0 1
-11.639233 -13.811531 18.524532 25.872542 0.870545 0.772752 0.046977 -0.024553 -277248.000000 0 0 1
-12.678933 -13.172631 17.842532 25.546614 0.804493 0.797594 0.038928 -0.025809 -518708.000000 0 0 1
-14.013533 -13.193331 18.597932 26.764270 0.755260 0.802545 0.025859 -0.015659 -132983.000000 0 0 1
-14.583433 -14.490531 18.865632 27.902761 0.782203 0.828312 0.044219 -0.017385 49871.900000 0 0 1
-15.755533 -14.396431 19.650932 29.011260 0.740354 0.826635 0.059644 -0.014567 241920.000000 0 0 1
-16.356833 -15.763031 20.140332 30.358724 0.766913 0.845427 0.070796 -0.012098 215680.000000 0 0 1
-17.063433 -16.464231 19.108532 30.452712 0.767528 0.892481 0.067539 -0.011441 15274.400000 0 0 1
-17.617233 -17.669431 19.603932 31.731528 0.786877 0.904847 0.053676 -0.023302 -426667.000000 0 0 1
-18.898333 -18.117131 18.881032 32.278024 0.764297 0.945978 0.061306 -0.018050 -434268.000000 0 0 1
-18.827533 -18.380131 17.509032 31.604927 0.773374 0.983639 0.066474 -0.019348 -151659.000000 0 0 1
-19.110933 -17.210831 16.757432 30.696123 0.733133 0.993317 0.067754 -0.011829 -480000.000000 0 0 1
-18.975233 -17.266031 15.236832 29.838504 0.738271 1.034863 0.071902 -0.017415 -336737.000000 0 0 1
-19.796233 -18.187431 14.595932 30.589454 0.743068 1.073381 0.078796 -0.024171 -166308.000000 0 0 1
-19.400633 -18.314631 13.240732 29.784682 0.756611 1.110126 0.089760 -0.024980 -109552.000000 0 0 1
-19.795033 -19.619331 12.588232 30.581450 0.780940 1.146555 0.096334 -0.027206 65500.400000 0 0 1
-19.060733 -20.670031 13.217332 31.068627 0.825881 1.131366 0.088144 -0.025394 189267.000000 0 0 1
-19.120733 -21.885231 12.441132 31.612458 0.852713 1.166305 0.081694 -0.021240 112134.000000 0 0 1
-18.130933 -23.004831 12.969632 32.033800 0.903332 1.153956 0.080431 -0.026810 346030.000000 0 0 1
-18.084733 -24.322931 12.364132 32.734299 0.931451 1.183472 0.096889 -0.037650 -87379.800000 0 0 1
-17.231433 -24.258731 11.236732 31.806799 0.953178 1.209721 0.091071 -0.031587 -261235.000000 0 0 1
-17.403433 -25.376301 10.232432 32.427439 0.969654 1.249762 0.098605 -0.023213 -281899.000000 0 0 1
-18.629633 -25.292121 9.563332 32.836137 0.935940 1.275269 0.096343 -0.017531 -631934.000000 0 0 1
-18.824833 -26.267041 8.572232 33.433739 0.948969 1.311506 0.103992 -0.018004 457399.000000 0 0 1
-20.135533 -26.144401 7.737732 33.894570 0.914513 1.340477 0.095724 -0.015250 322588.000000 0 0 1
-20.243133 -24.903331 7.068732 32.862247 0.888258 1.354000 0.099337 -0.019701 -640836.000000 0 0 1
-21.114333 -24.983631 6.013232 33.258921 0.869138 1.388996 0.090636 -0.014850 -570170.000000 0 0 1
-21.301833 -23.659131 5.187732 32.255777 0.837780 1.409264 0.092065 -0.012701 -79861.700000 0 0 1
-21.793633 -23.838831 3.885232 32.532250 0.830187 1.451083 0.078727 -0.010534 -73333.100000 0 0 1
-21.725733 -22.579931 3.152032 31.492794 0.804675 1.470541 0.078767 -0.008225 79038.600000 0 0 1
-22.245533 -22.721931 1.719632 31.845047 0.795992 1.516770 0.058809 -0.003751 419844.000000 0 0 1
-21.433833 -23.602131 0.933932 31.895799 0.833507 1.541511 0.039908 -0.007541 378746.000000 0 0 1
-21.983533 -23.519631 -0.368768 32.196036 0.819143 1.582250 0.042990 -0.001117 113838.000000 0 0 1
-21.203833 -24.425831 -1.338768 32.373076 0.855893 1.612162 0.046530 -0.005625 -697273.000000 0 0 1
-19.848933 -24.089231 -1.411168 31.245201 0.881606 1.615976 0.058051 -0.009649 -335563.000000 0 0 1
-19.173733 -24.570331 -2.590668 31.273707 0.908145 1.653730 0.062334 -0.004229 319679.000000 0 0 1
-18.991533 -26.104121 -2.829168 32.405364 0.941832 1.658213 0.073025 -0.003261 -921406.000000 0 0 1
-20.183333 -26.764161 -3.111068 33.665501 0.924665 1.663340 0.065382 -0.005669 -655719.000000 0 0 1
-19.856833 -27.906541 -3.866768 34.467677 0.952362 1.683218 0.067246 -0.004350 49505.600000 0 0 1
-21.008833 -28.648821 -4.572468 35.819456 0.938054 1.698799 0.074938 -0.012366 -284978.000000 0 0 1
-21.528233 -27.995101 -5.674568 35.768578 0.915246 1.730116 0.067900 -0.008419 26430.600000 0 0 1
-22.423333 -28.888461 -6.342968 37.115795 0.910735 1.742536 0.078683 -0.026832 -229999.000000 0 0 1
-22.850133 -28.345201 -7.701068 37.214049 0.892324 1.779242 0.057381 -0.004061 287737.000000 0 0 1
-21.766733 -28.200751 -8.663468 36.662361 0.913458 1.809357 0.079076 -0.004773 910840.000000 0 0 1
-22.208233 -28.011881 -9.983768 37.115316 0.900452 1.843144 0.072069 -0.000893 2115.770000 0 0 1
-22.820433 -26.618091 -10.341068 36.554515 0.862063 1.857607 0.049567 0.007796 -164032.000000 0 0 1
-21.901133 -25.565041 -10.435268 35.243804 0.862435 1.871391 0.040036 0.005509 -55129.500000 0 0 1
-21.661833 -24.894731 -9.215168 34.262252 0.854727 1.843109 0.038468 0.009828 -114209.000000 0 0 1
-21.501733 -23.316931 -9.345968 33.065857 0.825877 1.857349 0.027431 -0.000599 584732.000000 0 0 1
-22.646233 -22.652331 -9.939968 33.537783 0.785533 1.871698 0.028728 0.001761 678528.000000 0 0 1
-22.419833 -21.296431 -10.197568 32.560363 0.759706 1.889346 0.044613 -0.005899 -590834.000000 0 0 1
-23.635333 -20.460931 -10.548268 32.993099 0.713534 1.896221 0.065063 -0.004156 -796088.000000 0 0 1
-24.151433 -20.553131 -11.852268 33.855563 0.705081 1.928456 0.059578 -0.002064 342882.000000 0 0 1
-25.455113 -20.007831 -11.976268 34.521110 0.666149 1.925088 0.061788 -0.008002 74115.500000 0 0 1
-25.566343 -18.463631 -12.095668 33.776452 0.625461 1.937039 0.068560 -0.022514 -958963.000000 0 0 1
-24.956233 -17.928731 -13.255968 33.466007 0.622973 1.978065 0.086297 -0.018448 500044.000000 0 0 1
-24.706233 -16.486731 -13.224368 32.512984 0.588448 1.989680 0.088393 -0.028977 -29751.500000 0 0 1
-23.708433 -15.972431 -12.148968 31.061322 0.592858 1.972654 0.073725 -0.026076 -480787.000000 0 0 1
-24.247733 -15.999831 -10.834168 31.005263 0.583267 1.927759 0.093424 -0.033740 292305.000000 0 0 1
-23.236833 -16.094531 -9.870068 29.939983 0.605763 1.906742 0.073153 -0.032815 -160570.000000 0 0 1
-23.884233 -16.571531 -8.545168 30.300035 0.606571 1.856694 0.063610 -0.034789 167725.000000 0 0 1
-24.323033 -17.895931 -8.630768 31.406439 0.634325 1.849187 0.063574 -0.026046 -617018.000000 0 0 1
-25.451953 -18.074631 -7.863068 32.191956 0.617504 1.817548 0.069040 -0.029057 -600998.000000 0 0 1
-25.624183 -19.418431 -7.104868 32.926484 0.648485 1.788287 0.063004 -0.002216 29759.100000 0 0 1
-25.774003 -20.476231 -8.039868 33.885317 0.671349 1.810348 0.052313 -0.012934 127699.000000 0 0 1
-25.959783 -21.730831 -7.462768 34.667452 0.696955 1.787762 0.070062 -0.000496 35121.400000 0 0 1
-25.900623 -22.934631 -8.428868 35.607378 0.724738 1.809782 0.053961 0.007502 199900.000000 0 0 1
-26.350473 -24.153931 -7.840568 36.595550 0.741933 1.786719 0.049892 0.004923 -138266.000000 0 0 1
-26.127613 -25.258591 -8.741968 37.377407 0.768488 1.806867 0.038063 0.013033 -56875.100000 0 0 1
-26.585643 -26.623891 -8.228568 38.514118 0.786117 1.786107 0.031340 0.002283 -272255.000000 0 0 1
-26.054733 -27.090111 -7.004468 38.233307 0.804878 1.755040 0.045370 -0.014498 25960.400000 0 0 1
-26.343873 -28.424281 -6.796068 39.346231 0.823366 1.744392 0.059548 -0.014393 -520379.000000 0 0 1
-25.985713 -29.003151 -5.420468 39.316937 0.840217 1.709103 0.076862 -0.021996 -366767.000000 0 0 1
-26.822043 -28.483911 -4.412068 39.372852 0.815438 1.683091 0.055757 -0.024900 87481.100000 0 0 1
-26.505963 -29.015991 -3.143268 39.425549 0.830575 1.650608 0.054116 -0.012890 149480.000000 0 0 1
-27.024413 -30.473701 -2.779668 40.825138 0.845316 1.638936 0.041238 0.002664 167849.000000 0 0 1
-26.327563 -31.456231 -3.616468 41.179046 0.873922 1.658733 0.072265 -0.018270 430722.000000 0 0 1
-26.118043 -32.718741 -3.001668 41.972350 0.897118 1.642373 0.070315 -0.026109 111826.000000 0 0 1
-25.208663 -32.670301 -1.730168 41.301558 0.913609 1.612700 0.079414 -0.023092 -350763.000000 0 0 1
-24.007433 -31.981371 -1.936268 40.036409 0.926867 1.619178 0.084323 -0.033498 -395023.000000 0 0 1
-23.123133 -32.116931 -0.846168 39.583993 0.946795 1.592174 0.091457 -0.023783 252034.000000 0 0 1
-22.075933 -31.003141 -0.599668 38.064434 0.952026 1.586551 0.089444 -0.023427 296666.000000 0 0 1
-22.608733 -29.725291 -0.232068 37.347042 0.920553 1.577010 0.077246 -0.019596 -169200.000000 0 0 1
-22.849833 -28.857161 -1.343368 36.832801 0.901060 1.607276 0.081052 -0.019497 -40299.400000 0 0 1
-23.534433 -27.534971 -0.909268 36.233561 0.863574 1.595894 0.045605 -0.013108 -473345.000000 0 0 1
-24.885933 -27.740781 -0.619868 37.272575 0.839592 1.587428 0.058333 -0.017474 -1011860.000000 0 0 1
-25.606383 -26.616011 -0.265568 36.934664 0.804729 1.577987 0.055296 -0.015510 -211414.000000 0 0 1
-25.183183 -25.643121 0.885632 35.952005 0.794447 1.546160 0.048715 -0.006319 -451187.000000 0 0 1
-25.218083 -26.357741 2.113532 36.539694 0.807491 1.512922 0.042188 -0.009697 203482.000000 0 0 1
-24.477133 -25.627581 3.128732 35.576564 0.808355 1.482739 0.058633 -0.008347 879318.000000 0 0 1
-25.250673 -24.375631 3.783132 35.299858 0.767767 1.463419 0.066415 -0.014239 414076.000000 0 0 1
-25.484253 -23.291031 2.873832 34.643588 0.740463 1.487747 0.059109 -0.006786 232406.000000 0 0 1
-26.306973 -22.241331 3.403632 34.616735 0.701849 1.472314 0.056259 -0.007199 289715.000000 0 0 1
-26.502393 -21.058231 2.389532 33.934286 0.671426 1.500322 0.056345 -0.002175 -32127.300000 0 0 1
-25.277033 -20.401131 2.440332 32.574373 0.679056 1.495810 0.041969 -0.003634 -326030.000000 0 0 1
-25.351193 -19.206231 1.682132 31.849519 0.648352 1.517957 0.029733 -0.001640 40369.500000 0 0 1
-24.042733 -18.407931 1.736932 30.330214 0.653432 1.513498 0.055235 -0.006554 -558344.000000 0 0 1
-22.955933 -19.014631 1.132032 29.829726 0.691766 1.532837 0.062920 -0.005636 -588856.000000 0 0 1
-21.753933 -18.464831 1.605132 28.579014 0.703799 1.514602 0.070739 -0.004380 -596036.000000 0 0 1
-20.488633 -19.254231 1.317032 28.146830 0.754348 1.523988 0.065158 -0.006286 -690556.000000 0 0 1
-20.194033 -19.388031 -0.055468 27.994603 0.765038 1.572778 0.051368 -0.006199 -381068.000000 0 0 1
-19.226033 -20.370131 -0.181468 28.010989 0.814284 1.577275 0.079506 -0.000464 -434119.000000 0 0 1
-18.989833 -20.752031 -1.646368 28.177492 0.829710 1.629258 0.087047 -0.004515 230552.000000 0 0 1
-18.243333 -19.842831 -2.469868 27.067644 0.827370 1.662171 0.078403 -0.007818 174632.000000 0 0 1
-18.078633 -20.257531 -3.844668 27.422363 0.842174 1.711462 0.078323 -0.008750 -147798.000000 0 0 1
-17.259633 -19.253431 -4.624868 26.267450 0.839949 1.747787 0.082766 -0.006380 865433.000000 0 0 1
-15.851633 -19.209631 -4.278968 25.270412 0.880882 1.740943 0.106085 -0.010424 1001720.000000 0 0 1
-15.273833 -18.346831 -5.254768 24.443992 0.876547 1.787459 0.105618 -0.014116 657764.000000 0 1 0
-13.718533 -18.196031 -5.105168 23.352867 0.924785 1.791186 0.113695 -0.022245 1209390.000000 0 1 0
-12.966033 -19.399331 -5.420768 23.954890 0.981612 1.799064 0.093034 -0.023808 -278153.000000 0 1 0
-11.670533 -19.186831 -5.852268 23.207431 1.024327 1.825721 0.078757 -0.030210 26111.300000 0 1 0
-10.602333 -20.337431 -5.827768 23.663969 1.090238 1.819628 0.071908 -0.034708 713417.000000 0 1 0
-10.847233 -21.339531 -6.765568 24.875911 1.100518 1.846239 0.065510 -0.032834 -285994.000000 0 1 0
-9.677233 -22.080231 -6.999668 25.103402 1.157735 1.853375 0.066172 -0.028973 -266843.000000 0 0 1
-9.942533 -23.209231 -7.979468 26.480073 1.166060 1.876893 0.069109 -0.020697 -283668.000000 0 0 1
-10.288133 -22.727531 -9.240968 26.604169 1.145722 1.925540 0.068852 -0.022338 -154230.000000 0 0 1
-10.503533 -23.878931 -9.982468 27.931652 1.156402 1.936267 0.074860 -0.019386 -310965.000000 0 0 1
-11.297733 -23.617731 -11.246968 28.494390 1.124612 1.976547 0.092930 -0.026167 -205350.000000 0 0 1
-10.725633 -22.696131 -12.154368 27.890540 1.129328 2.021710 0.083133 -0.023321 -71979.400000 0 0 1
-11.747133 -22.235831 -13.018868 28.318161 1.084768 2.048494 0.081008 -0.031297 165563.000000 0 0 1
-11.335333 -20.999831 -13.904568 27.619190 1.075832 2.098370 0.067430 -0.013249 -151070.000000 0 0 1
-10.910133 -19.844831 -13.221268 26.223086 1.068128 2.099233 0.072727 -0.023845 -354029.000000 0 0 1
-10.771033 -18.735831 -14.034268 25.768337 1.049045 2.146747 0.069936 -0.008063 -181890.000000 0 0 1
-10.355433 -17.509031 -13.191968 24.245188 1.036699 2.146120 0.083222 -0.015521 -120574.000000 0 1 0
-11.315533 -17.032231 -12.260168 23.842187 0.984392 2.110896 0.081292 -0.025992 -307619.000000 0 1 0
-10.896233 -15.982931 -11.468168 22.487793 0.972430 2.105950 0.071387 -0.030510 2065.820000 0 1 0
-10.495533 -14.666531 -12.135768 21.737990 0.949670 2.163101 0.064824 -0.021597 548550.000000 0 1 0
-11.628733 -13.989431 -12.682968 22.176322 0.877288 2.179635 0.064802 -0.013124 314655.000000 0 1 0
-11.517133 -13.877331 -14.094368 22.888335 0.878073 2.234182 0.075403 -0.022760 241604.000000 0 1 0
-12.837033 -13.389531 -14.770568 23.711571 0.806461 2.243275 0.068714 -0.020953 215462.000000 0 1 0
-13.103633 -12.060431 -14.327268 22.856723 0.743966 2.248274 0.072342 -0.002180 546684.000000 0 1 0
-14.180033 -11.434631 -15.059768 23.635158 0.678625 2.261626 0.072046 -0.009546 414517.000000 0 1 0
-14.399033 -10.043731 -14.487168 22.761518 0.609065 2.260717 0.074801 -0.018708 688209.000000 0 1 0
-13.274833 -9.141031 -14.627768 21.765827 0.603033 2.307773 0.059284 -0.012821 917363.000000 0 1 0
-13.144833 -8.542731 -15.883568 22.317092 0.576300 2.362743 0.053624 -0.018194 -27744.200000 0 1 0
-11.994333 -7.509431 -15.874568 21.266346 0.559377 2.413529 0.038275 -0.008051 131277.000000 0 1 0
-10.688833 -8.030031 -15.727768 20.642074 0.644303 2.437081 0.028854 -0.012274 141829.000000 0 1 0
-9.761333 -6.957531 -15.641968 19.706902 0.619241 2.487714 0.017192 0.000682 25485.400000 0 1 0
11.332867 21.870269 16.084132 29.418393 1.092706 0.992334 0.085948 -0.021109 -396047.000000 0 0 1
12.451167 21.948269 16.942932 30.394425 1.054771 0.979503 0.096827 -0.026846 -121044.000000 0 0 1
12.881867 20.675669 17.250632 29.849793 1.013604 0.954625 0.092814 -0.024880 -12025.300000 0 0 1
14.099267 20.621869 18.202832 30.909447 0.971091 0.941089 0.098163 -0.033005 -244022.000000 0 0 1
15.295967 21.112769 17.694032 31.508640 0.943823 0.974525 0.071501 -0.030503 -587150.000000 0 0 1
16.382167 20.715369 18.496432 32.243138 0.901677 0.959835 0.074791 -0.024541 20521.600000 0 0 1
17.738267 21.299469 18.045832 33.075150 0.876371 0.993690 0.041946 -0.018244 -879741.000000 0 0 1
17.981567 22.645169 18.336332 34.239765 0.899689 1.005664 0.042034 -0.020631 -217851.000000 0 0 1
19.153767 23.136169 17.746832 34.886949 0.879290 1.037127 0.046685 -0.020808 -80742.300000 0 0 1
20.508567 22.817869 18.398632 35.773819 0.838648 1.030600 0.043469 -0.024593 -506269.000000 0 0 1
20.757867 21.396569 18.530932 35.101249 0.800548 1.014637 0.041166 -0.016422 -727988.000000 0 0 1
22.036467 21.132269 18.998832 35.960177 0.764456 1.014164 0.043169 -0.024273 -962358.000000 0 0 1
22.378867 19.609469 18.825032 35.209755 0.719537 1.006698 0.030712 -0.021813 -257153.000000 0 0 1
22.332967 19.253469 17.456032 34.266172 0.711483 1.036280 0.018026 -0.021432 -14431.300000 0 0 1
22.195867 17.911069 17.231032 33.322236 0.678968 1.027333 0.010261 -0.019602 -55680.700000 0 0 1
23.288167 16.908469 17.721132 33.797538 0.627999 1.018866 0.013256 -0.017815 272450.000000 0 0 1
24.370867 16.767269 16.806632 34.022689 0.602630 1.054131 0.023798 -0.024182 -152600.000000 0 0 1
25.182567 15.687969 17.146232 34.267584 0.557138 1.046778 0.009680 -0.013587 -1390990.000000 0 0 1
26.384467 15.731769 16.211832 34.734020 0.537658 1.085193 0.090671 -0.034805 -1413440.000000 0 0 1
27.329867 16.728669 16.413532 36.002417 0.549271 1.097412 0.068509 -0.031855 -243518.000000 0 0 1
28.308467 16.500369 17.390032 37.095077 0.527734 1.082869 0.082795 -0.044271 -14640.100000 0 0 1
29.488067 15.548569 16.957832 37.401500 0.485235 1.100220 0.089246 -0.049354 356726.000000 0 0 1
30.371467 16.076169 15.933332 37.877966 0.486826 1.136636 0.128518 -0.041348 406095.000000 0 0 1
30.701767 15.116069 14.920132 37.332351 0.457510 1.159654 0.126393 -0.047083 -48968.500000 0 0 1
29.728967 14.907269 13.699932 35.968407 0.464798 1.180040 0.112366 -0.038098 86182.500000 0 0 1
29.809367 16.088869 12.863832 36.234352 0.494921 1.207863 0.126098 -0.025823 9895.780000 0 0 1
29.055667 15.994469 11.660732 35.157183 0.503209 1.232719 0.118744 -0.024016 -94638.800000 0 0 1
27.655167 16.600769 11.806032 34.347870 0.540623 1.219921 0.097893 -0.028131 -787658.000000 0 0 1
27.626667 18.024969 11.636832 34.979253 0.578094 1.231654 0.069132 -0.016454 432182.000000 0 0 1
28.275867 18.857069 12.657032 36.267261 0.588162 1.214300 0.076130 -0.020230 27083.200000 0 0 1
27.637367 18.798869 14.111332 36.281555 0.597312 1.171316 0.062029 -0.023151 63533.500000 0 0 1
26.457267 19.601269 14.053832 35.800935 0.637629 1.167388 0.048544 -0.017038 52206.500000 0 0 1
25.836867 19.380269 15.301632 35.739033 0.643566 1.128353 0.027558 -0.018463 -354636.000000 0 0 1
26.352867 20.169269 16.596332 37.104060 0.653255 1.107062 0.034806 -0.030798 -234894.000000 0 0 1
26.177767 21.585269 16.611132 37.777362 0.689541 1.115519 0.018614 -0.018332 -456525.000000 0 0 1
24.831867 21.915869 16.710332 37.096660 0.723102 1.103523 0.021924 -0.013699 -885733.000000 0 0 1
24.518967 23.425969 16.514232 37.718373 0.762605 1.117613 0.030678 -0.009211 -109123.000000 0 0 1
24.678367 23.815469 15.174532 37.502864 0.767606 1.154229 0.049473 -0.021257 247205.000000 0 0 1
24.422067 25.229969 14.936632 38.158770 0.801668 1.168607 0.048322 -0.016854 -238714.000000 0 0 1
24.798467 25.655469 13.509332 38.153232 0.802382 1.208865 0.070169 -0.023635 -145794.000000 0 0 1
23.894167 25.133069 12.549432 36.879407 0.810662 1.223579 0.088463 -0.019283 202542.000000 0 0 1
24.105367 25.538269 11.261932 36.879575 0.814254 1.260469 0.105470 -0.030374 -258669.000000 0 0 1
23.189567 24.757369 10.298632 35.450602 0.818085 1.276040 0.092226 -0.033327 466529.000000 0 0 1
21.764067 24.937569 10.422532 34.701385 0.853247 1.265738 0.085695 -0.030686 796474.000000 0 0 1
21.100167 23.909269 11.103232 33.766136 0.847729 1.235735 0.081110 -0.032589 -410266.000000 0 0 1
20.634667 22.729369 10.241532 32.362056 0.833666 1.248793 0.092567 -0.030184 540304.000000 0 0 1
19.446867 22.846269 9.410432 31.443424 0.865603 1.266857 0.103149 -0.029777 842335.000000 0 0 1
19.662667 23.515469 8.179232 31.725347 0.874393 1.310037 0.101065 -0.031274 -136006.000000 0 0 1
18.459767 23.625469 7.216232 30.838285 0.907531 1.334604 0.093894 -0.034583 -995199.000000 0 0 1
18.179667 22.425369 6.535632 29.599189 0.889581 1.348157 0.098145 -0.029236 -211955.000000 0 0 1
17.444967 22.498469 5.376432 28.972643 0.911246 1.384145 0.102745 -0.030776 66430.200000 0 0 1
16.011467 23.127769 5.419632 28.646696 0.965254 1.380460 0.078076 -0.022548 -175694.000000 0 0 1
16.011767 24.536469 5.513832 29.813040 0.992616 1.384778 0.089079 -0.028132 -428798.000000 0 0 1
14.764967 25.054569 5.865432 29.667137 1.038272 1.371777 0.071641 -0.028509 -551761.000000 0 0 1
14.662567 26.544169 5.561732 30.830450 1.066125 1.389406 0.071158 -0.032274 -256108.000000 0 0 1
14.529267 26.815969 4.186632 30.785121 1.074260 1.434378 0.068056 -0.016526 367069.000000 0 0 1
14.471467 28.173669 3.929332 31.915806 1.096287 1.447368 0.065690 -0.019112 -285322.000000 0 0 1
13.832567 28.424469 2.540932 31.713510 1.117891 1.490589 0.072968 -0.016477 -309445.000000 0 0 1
14.611367 28.181369 1.395432 31.774657 1.092477 1.526866 0.090254 -0.021128 38124.000000 0 0 1
14.179167 27.020569 0.708132 30.523129 1.087542 1.547594 0.078558 -0.012190 -80755.900000 0 0 1
15.295767 26.503769 -0.194768 30.601441 1.047373 1.577161 0.080306 -0.017559 -80726.200000 0 0 1
15.198967 27.104769 -1.436968 31.108552 1.059738 1.617005 0.084083 -0.006255 60773.800000 0 0 1
16.274967 26.804069 -2.331768 31.444711 1.025112 1.645019 0.077990 -0.006143 241454.000000 0 0 1
16.094467 27.213669 -3.843168 31.849421 1.036716 1.691758 0.099056 -0.022438 190198.000000 0 0 1
15.115867 26.391669 -4.515168 30.747299 1.050654 1.718177 0.118520 -0.027113 -70363.600000 0 0 1
15.013567 26.810269 -5.880068 31.285347 1.060313 1.759870 0.114913 -0.029778 745556.000000 0 0 1
13.627267 26.539469 -6.562968 30.546986 1.096430 1.787333 0.124327 -0.054170 706802.000000 0 0 1
13.362567 25.225769 -6.994368 29.390795 1.083657 1.811080 0.120176 -0.047206 -99566.700000 0 0 1
12.176067 25.164969 -7.766368 29.014630 1.120152 1.841771 0.097662 -0.045365 281259.000000 0 0 1
11.886367 23.690369 -8.290068 27.771290 1.105759 1.873930 0.093615 -0.033796 340696.000000 0 0 1
12.679467 23.402269 -9.432768 28.238488 1.074267 1.911382 0.089926 -0.031643 387328.000000 0 0 1
12.189967 22.162869 -9.909868 27.166037 1.067940 1.944202 0.078348 -0.023578 431591.000000 0 0 1
12.835867 21.638669 -11.268668 27.567632 1.035398 1.991896 0.080047 -0.018831 286510.000000 0 0 1
12.219367 20.402769 -11.614768 26.466748 1.031181 2.025108 0.079796 -0.022013 68591.600000 0 0 1
12.321767 20.066169 -13.009068 26.901913 1.020105 2.075530 0.077655 -0.020857 131567.000000 0 0 1
13.647367 19.360269 -13.394268 27.211708 0.956779 2.085440 0.074134 -0.022889 -381572.000000 0 0 1
14.743267 20.185769 -13.352568 28.339377 0.939971 2.061409 0.075485 -0.017252 -478269.000000 0 0 1
15.966567 19.533169 -13.738568 28.726716 0.885531 2.069458 0.071328 -0.015730 767403.000000 0 0 1
17.163167 20.481169 -13.506968 29.941456 0.873312 2.038808 0.085703 -0.003356 -317295.000000 0 0 1
17.289767 21.677669 -14.294668 31.196072 0.897530 2.046788 0.076481 -0.005206 762474.000000 0 0 1
16.327267 22.747369 -14.013268 31.311246 0.948247 2.034817 0.082544 -0.008100 847822.000000 0 0 1
16.902467 24.132669 -14.462468 32.821366 0.959803 2.027110 0.080449 -0.006538 26481.000000 0 0 1
17.171767 24.289369 -15.818868 33.690943 0.955410 2.059553 0.062794 -0.002173 10246.700000 0 0 1
16.092467 24.675769 -16.686868 33.857239 0.992907 2.086170 0.075297 -0.000643 471975.000000 0 0 1
16.312167 24.580669 -18.234868 34.681501 0.984908 2.124429 0.042477 0.008925 126702.000000 0 0 1
16.580767 23.283369 -18.711368 34.163612 0.951976 2.150408 0.043737 0.014960 11460.300000 0 0 1
16.353467 23.305569 -20.088568 34.844454 0.958932 2.185261 0.044526 0.013895 -231019.000000 0 0 1
16.695267 22.017569 -20.829768 34.603244 0.922023 2.216750 0.052739 0.013432 229614.000000 0 0 1
15.630067 21.064469 -20.909368 33.544187 0.932428 2.243801 0.047161 0.015866 380148.000000 0 0 1
16.083767 19.975769 -21.653568 33.564802 0.892915 2.271986 0.046097 0.016754 147600.000000 0 0 1
15.088367 18.786669 -21.734668 32.449862 0.894142 2.304725 0.037105 0.014829 -592827.000000 0 0 1
14.950967 17.889469 -20.603868 31.114046 0.874639 2.294554 0.038705 0.006023 -82291.100000 0 0 1
14.166567 16.749369 -20.800768 30.230860 0.868747 2.329614 0.044136 -0.002300 -8481.450000 0 0 1
12.652267 17.033069 -20.935768 29.807913 0.931915 2.349498 0.062356 -0.008991 -665756.000000 0 0 1
11.825667 16.868569 -19.802768 28.575245 0.959368 2.336444 0.053843 -0.012927 -125164.000000 0 0 1
10.543067 17.357469 -20.143268 28.604007 1.024948 2.352108 0.065509 -0.014120 756688.000000 0 0 1
9.351867 16.945369 -19.168068 27.240003 1.066508 2.351351 0.067697 -0.017096 443864.000000 0 0 1
9.046267 15.596569 -19.251668 26.376403 1.045200 2.388946 0.067124 -0.019634 616879.000000 0 0 1
7.779367 15.212869 -18.672868 25.310589 1.098096 2.400526 0.079622 -0.022427 1016070.000000 0 0 1
7.387767 15.502269 -17.181168 24.291809 1.126076 2.356443 0.068527 -0.025530 -113862.000000 0 1 0
7.094067 16.891869 -16.887368 24.916746 1.173194 2.315497 0.071457 -0.020494 -203448.000000 0 1 0
6.717467 16.995469 -15.537768 23.987342 1.194391 2.275422 0.059628 -0.025332 -37867.700000 0 1 0
6.314267 18.391169 -15.163868 24.658628 1.240075 2.233121 0.059521 -0.021610 110530.000000 0 1 0
7.414867 19.310669 -15.224868 25.684213 1.204178 2.205292 0.043156 -0.015315 252863.000000 0 0 1
7.772967 19.920669 -16.457468 26.983334 1.198770 2.226746 0.054934 -0.008291 626622.000000 0 0 1
9.033067 20.876269 -16.269268 27.966122 1.162426 2.191674 0.043276 -0.005170 808404.000000 0 0 1
8.869567 22.025769 -15.427468 28.316258 1.187973 2.146979 0.042236 -0.018770 -224069.000000 0 0 1
8.705967 21.696769 -14.100768 27.301562 1.189207 2.113534 0.029066 -0.016458 -324131.000000 0 0 1
8.455067 22.940269 -13.252568 27.809615 1.217676 2.067518 0.043951 -0.025242 -540811.000000 0 0 1
7.302667 23.668369 -13.572768 28.244303 1.271522 2.072077 0.048146 -0.021748 -320610.000000 0 0 1
6.914967 24.701469 -12.652668 28.601912 1.297842 2.029037 0.033157 -0.024034 -428256.000000 0 0 1
6.110367 24.281069 -11.433068 27.524933 1.324264 1.999147 0.027341 -0.023515 -1034810.000000 0 0 1
6.802867 23.978969 -10.298468 26.969027 1.294359 1.962607 0.024284 -0.030311 -414761.000000 0 0 1
5.903667 23.533869 -9.288568 25.980257 1.325010 1.936412 0.042752 -0.031090 247106.000000 0 0 1
6.624967 23.264369 -7.960268 25.465406 1.293371 1.888716 0.025527 -0.033261 -75727.800000 0 0 1
7.148167 24.415069 -7.394968 26.492970 1.285979 1.853684 0.030941 -0.035944 -400591.000000 0 0 1
8.017667 24.122569 -6.357168 26.202956 1.249911 1.815854 0.055271 -0.033317 -295338.000000 0 0 1
8.384767 25.382469 -5.593468 27.310455 1.251745 1.777066 0.046460 -0.039236 -15967.600000 0 0 1
9.074767 26.329769 -6.375268 28.570127 1.238888 1.795835 0.076431 -0.043534 49104.700000 0 0 1
9.442367 27.455469 -5.651768 29.578769 1.239552 1.763054 0.067897 -0.040133 100668.000000 0 0 1
9.763367 28.653169 -6.599368 30.981916 1.242392 1.785448 0.070502 -0.034624 -204656.000000 0 0 1
11.090067 28.798069 -7.016968 31.647373 1.203202 1.794378 0.078878 -0.036200 -557127.000000 0 0 1
11.263567 29.949669 -7.784768 32.931038 1.211076 1.809451 0.076758 -0.026488 -94071.600000 0 0 1
12.639867 29.984369 -8.473268 33.624766 1.171853 1.825537 0.088295 -0.032910 477655.000000 0 0 1
13.745867 30.126469 -7.582868 33.971354 1.142739 1.795906 0.089175 -0.024431 -182507.000000 0 0 1
14.906867 30.367269 -8.329668 34.839189 1.114466 1.812224 0.082555 -0.018358 491932.000000 0 0 1
16.273067 30.581869 -7.616468 35.469339 1.081788 1.787216 0.074601 -0.012947 436692.000000 0 0 1
17.015867 29.486069 -7.161168 34.788652 1.047399 1.778126 0.074938 -0.021590 -533047.000000 0 0 1
18.145867 30.012669 -6.502168 35.669469 1.026996 1.754111 0.058623 -0.009644 -282838.000000 0 0 1
19.172067 28.902569 -6.254868 35.242730 0.985104 1.749221 0.055878 -0.006887 -648026.000000 0 0 1
18.836867 27.996269 -5.271168 34.152655 0.978536 1.725757 0.084681 -0.021218 369075.000000 0 0 1
19.969967 27.200269 -4.894368 34.097054 0.937495 1.714836 0.067607 -0.016571 250207.000000 0 0 1
20.396767 26.076969 -5.834168 33.616572 0.907019 1.745230 0.071334 -0.006561 -516417.000000 0 0 1
20.829767 26.445469 -7.144568 34.413469 0.903632 1.779927 0.049909 -0.001289 319997.000000 0 0 1
20.733767 25.348069 -7.972468 33.704213 0.885198 1.809602 0.054231 -0.014972 -881913.000000 0 0 1
21.305067 25.610069 -9.431168 34.622658 0.876903 1.846681 0.055133 -0.016899 599969.000000 0 0 1
22.694467 25.797769 -9.645568 35.687543 0.849307 1.844478 0.027276 -0.006480 137770.000000 0 0 1
23.496367 24.722769 -9.223168 35.332158 0.810827 1.834898 0.050829 -0.006644 -1354810.000000 0 0 1
24.984167 25.013869 -9.313068 36.560026 0.785992 1.828369 0.011576 0.001522 -378118.000000 0 0 1
25.514667 25.194469 -10.643668 37.403839 0.779084 1.859345 0.013440 0.006746 -465093.000000 0 0 1
26.908067 25.245069 -10.668968 38.408130 0.753522 1.852278 0.004246 0.017234 -537723.000000 0 0 1
27.549367 25.391969 -12.050168 39.356401 0.744670 1.881975 0.000460 0.011840 21962.800000 0 0 1
27.331067 26.665669 -12.597268 40.208659 0.773076 1.889460 0.000406 0.018118 -57135.400000 0 0 1
27.976667 26.805669 -13.851268 41.147241 0.764026 1.914129 -0.006789 0.020658 61444.600000 0 0 1
27.527167 27.990969 -14.719668 41.927412 0.793752 1.929515 -0.001925 0.008636 -297527.000000 0 0 1
28.020267 29.240769 -14.353568 42.967230 0.806710 1.911402 0.018258 -0.002005 24960.400000 0 0 1
28.136267 30.066269 -15.496868 43.997534 0.818546 1.930740 0.043698 -0.006405 -544248.000000 0 0 1
28.516067 31.558469 -15.169368 45.157644 0.835999 1.913378 0.048175 -0.014840 745930.000000 0 0 1
29.775567 31.695769 -14.488868 45.838122 0.816625 1.892399 0.035069 -0.017356 491781.000000 0 0 1
30.318267 32.957769 -14.616268 47.106763 0.827088 1.886283 0.048661 -0.025447 -251999.000000 0 0 1
16.215567 -32.002724 -27.867050 45.427871 -1.101808 2.231199 0.096930 -0.047853 84688.300000 0 0 1
17.199867 -32.891624 -27.358400 46.110481 -1.088977 2.205977 0.082410 -0.036232 48973.700000 0 0 1
17.553067 -32.540724 -26.056610 45.232243 -1.076113 2.184700 0.089194 -0.035738 -25464.400000 0 0 1
18.846567 -33.359624 -25.667100 46.117867 -1.056547 2.161029 0.030062 -0.029114 769665.000000 0 0 1
20.058267 -32.718624 -26.036660 46.376180 -1.020834 2.166901 0.039328 -0.027503 242993.000000 0 0 1
20.435667 -33.047324 -27.340590 47.510525 -1.016975 2.183968 0.048881 -0.026940 -1312720.000000 0 0 1
21.896967 -32.727924 -27.614440 48.095233 -0.981138 2.182376 0.060120 -0.017325 -553911.000000 0 0 1
22.067567 -31.368424 -27.861070 47.404586 -0.957728 2.199046 0.059942 -0.027447 -45516.400000 0 0 1
23.409767 -30.956824 -27.725500 47.697437 -0.923335 2.191095 0.019526 -0.011764 -210621.000000 0 0 1
23.966567 -29.742324 -28.427210 47.614162 -0.892525 2.210593 0.007802 -0.004238 -127988.000000 0 0 1
24.138567 -30.028724 -29.820290 48.720062 -0.893713 2.229477 0.005550 -0.008523 -210655.000000 0 0 1
24.733767 -28.955224 -30.464990 48.767611 -0.863865 2.245540 0.017607 -0.016876 -17472.100000 0 0 1
24.995567 -29.280024 -31.981060 50.048840 -0.864174 2.263990 0.027506 -0.005461 985627.000000 0 0 1
26.128167 -30.169424 -32.180020 51.268206 -0.857059 2.249366 0.016768 -0.012160 642716.000000 0 0 1
26.157867 -30.592324 -33.528370 52.385837 -0.863380 2.265330 0.012180 -0.019314 -113682.000000 0 0 1
27.405567 -31.438124 -33.874860 53.730130 -0.853821 2.252946 0.005156 -0.022117 -72147.100000 0 0 1
28.526467 -30.629024 -34.070095 53.969138 -0.820926 2.254010 0.014944 -0.026336 -1402580.000000 0 0 1
29.642767 -31.310924 33.785561 54.777110 -0.812759 0.906148 0.015256 -0.011017 -988405.000000 0 0 1
30.876567 -30.423924 33.718438 54.917307 -0.778014 0.909696 0.025351 -0.023719 -532691.000000 0 0 1
30.932967 -29.587524 32.563402 53.783317 -0.763171 0.920458 0.033016 -0.020469 87429.200000 0 0 1
32.016267 -28.680824 32.665226 53.987480 -0.730501 0.920965 0.032866 -0.029969 112928.000000 0 0 1
32.345367 -27.930724 31.315502 52.981212 -0.712288 0.938414 0.029654 -0.034330 -1002200.000000 0 0 1
33.483567 -27.160424 31.227302 53.235160 -0.681507 0.943952 0.037028 -0.036369 -469258.000000 0 0 1
33.444067 -26.350524 30.042792 52.109741 -0.667318 0.956322 0.038154 -0.031680 -119864.000000 0 0 1
34.186667 -26.898224 28.776932 52.157018 -0.666643 0.986351 0.052163 -0.031323 131214.000000 0 0 1
33.527767 -28.003224 28.110912 51.947234 -0.695854 0.999000 0.053316 -0.046449 -67665.500000 0 0 1
32.362567 -27.590524 27.474362 50.630162 -0.705969 0.997210 0.062238 -0.051023 -728416.000000 0 0 1
31.715767 -28.675524 26.564882 50.337546 -0.735098 1.014865 0.053570 -0.034647 -182145.000000 0 0 1
30.444467 -28.179124 26.200032 49.064960 -0.746775 1.007488 0.052877 -0.033171 -221919.000000 0 0 1
29.790467 -29.185724 25.460182 48.862043 -0.775145 1.022701 0.032583 -0.024741 -1056420.000000 0 0 1
28.512567 -28.746324 24.807532 47.484011 -0.789481 1.021087 0.020360 -0.012868 -152472.000000 0 0 1
27.440967 -28.622524 25.771732 47.290990 -0.806470 0.994454 0.009332 -0.015108 36631.500000 0 0 1
26.247167 -28.276724 25.123502 46.039953 -0.822604 0.993585 0.004428 0.000585 -132335.000000 0 0 1
25.042267 -28.146524 26.065612 45.812205 -0.843695 0.965548 0.030268 -0.006768 -221074.000000 0 0 1
25.105967 -26.968724 26.858752 45.596209 -0.821154 0.940905 0.013288 -0.008227 -120593.000000 0 0 1
24.010667 -26.897424 27.730142 45.485650 -0.842043 0.915182 0.033254 -0.017953 -201442.000000 0 0 1
24.125167 -25.761124 28.798592 45.552367 -0.818180 0.886396 0.041365 -0.008752 -88268.800000 0 0 1
22.926367 -25.646924 29.541132 45.343815 -0.841349 0.861247 0.072185 -0.011392 311352.000000 0 0 1
23.066167 -24.602424 30.521342 45.484939 -0.817615 0.835212 0.076994 -0.013923 -322441.000000 0 0 1
22.655067 -23.147524 30.001572 44.149227 -0.796149 0.823648 0.072513 -0.013460 -389573.000000 0 0 1
23.435267 -22.687024 28.905052 43.582277 -0.769177 0.845671 0.063581 -0.011341 103063.000000 0 0 1
23.196767 -21.360124 28.464802 42.480465 -0.744201 0.836496 0.084184 -0.006065 117711.000000 0 0 1
23.721367 -20.255224 29.465812 42.909340 -0.706743 0.813858 0.071139 -0.002613 5334.480000 0 0 1
23.040767 -20.366924 30.682702 43.440957 -0.723878 0.786527 0.078430 -0.000735 150136.000000 0 0 1
23.543967 -19.409224 31.611462 43.935418 -0.689432 0.767717 0.070193 -0.008744 -336814.000000 0 0 1
22.908067 -19.388624 33.006810 44.611073 -0.702381 0.737905 0.070249 -0.001741 -242754.000000 0 0 1
23.116567 -20.503024 33.891472 45.862638 -0.725553 0.739244 0.072999 -0.004606 70845.800000 0 0 1
22.541867 -20.288324 -33.097660 44.891057 -0.732831 2.399844 0.079281 -0.009956 -163636.000000 0 0 1
22.695167 -21.443424 -32.063350 44.754323 -0.757046 2.369468 0.071218 -0.005256 -7562.380000 0 0 1
23.993867 -21.574524 -31.526380 45.111843 -0.732355 2.344584 0.066604 -0.012626 -29473.600000 0 0 1
23.991667 -22.563724 -30.488470 44.880603 -0.754736 2.317637 0.057370 -0.019050 -317535.000000 0 0 1
25.332067 -22.674624 -29.774010 45.192299 -0.730099 2.290058 0.063137 -0.015561 -17002.700000 0 0 1
26.344167 -23.416124 -30.453650 46.580627 -0.726623 2.283370 0.050780 -0.011954 -219652.000000 0 0 1
27.303467 -23.887424 -29.553270 46.791924 -0.718765 2.254398 0.045164 -0.024660 -439571.000000 0 0 1
28.391167 -24.747124 -30.190090 48.269245 -0.716929 2.246507 0.020988 -0.017885 -464652.000000 0 0 1
29.325667 -24.134524 -31.054090 49.059418 -0.688599 2.256205 0.017533 -0.017472 -135325.000000 0 0 1
28.965567 -23.903224 -32.408220 49.605049 -0.689936 2.282764 0.027216 -0.011684 -708915.000000 0 0 1
29.117567 -25.033924 -33.406320 50.897075 -0.710129 2.286768 0.007351 -0.014811 -389593.000000 0 0 1
28.358367 -26.167224 -33.114410 50.847662 -0.745234 2.280023 0.036476 -0.024621 -241179.000000 0 0 1
28.600167 -27.314524 -33.916380 52.099651 -0.762409 2.279685 0.015505 -0.023306 -217213.000000 0 0 1
28.167767 -27.283624 32.875742 51.172587 -0.769455 0.873107 0.020446 -0.027254 47858.800000 0 0 1
28.928667 -26.445024 31.988672 50.591326 -0.740576 0.886284 -0.000155 -0.032596 279137.000000 0 0 1
28.438967 -26.585724 30.694742 49.575627 -0.751731 0.903137 0.001888 -0.025886 -671632.000000 0 0 1
29.491867 -26.029724 29.739162 49.312620 -0.723122 0.923447 0.013378 -0.025976 -362086.000000 0 0 1
29.744167 -24.677124 29.778982 48.789996 -0.692558 0.914294 0.008684 -0.026531 190940.000000 0 0 1
30.357667 -24.125924 30.947112 49.612215 -0.671515 0.897227 0.012062 -0.016842 -1920560.000000 0 0 1
30.714467 -22.638124 30.710602 48.979631 -0.635162 0.893090 0.002929 -0.005176 -482325.000000 0 0 1
31.995867 -22.340424 30.255822 49.378587 -0.609536 0.911284 0.020384 -0.018151 -346840.000000 0 0 1
32.982167 -22.687024 31.222652 50.767888 -0.602530 0.908400 0.018615 -0.022021 -783385.000000 0 0 1
34.429867 -22.281524 30.820682 51.301038 -0.574374 0.926319 0.028635 -0.031310 34570.000000 0 0 1
34.938467 -22.756924 29.608962 51.139659 -0.577319 0.953316 0.039633 -0.038039 317540.000000 0 0 1
35.938767 -21.843824 29.147402 51.169509 -0.546140 0.964747 0.034082 -0.031502 208742.000000 0 0 1
36.445867 -22.143824 27.708912 50.856995 -0.545975 0.994598 0.049012 -0.031852 -128255.000000 0 0 1
-35.887129 -23.359424 27.700662 50.998778 0.577017 0.996596 0.050325 -0.031655 300171.000000 0 0 1
-35.578829 -23.707624 26.368062 50.231257 0.587777 1.018160 0.052506 -0.024124 -502011.000000 0 0 1
-35.357429 -25.237024 26.128482 50.692729 0.619907 1.029289 0.045906 -0.034398 426351.000000 0 0 1
-36.517629 -26.080024 26.350622 52.039025 0.620177 1.039835 0.063308 -0.036149 704246.000000 0 0 1
-36.349929 -27.505224 26.063242 52.508545 0.647762 1.051393 0.069625 -0.032174 317076.000000 0 0 1
-35.322429 -28.242024 26.999382 52.671174 0.674466 1.032583 0.055860 -0.031120 -427659.000000 0 0 1
-35.188129 -29.588224 26.425962 53.028284 0.699163 1.049117 0.065993 -0.024236 1628730.000000 0 0 1
-33.954329 -30.279924 26.846952 52.825459 0.728257 1.037680 0.044877 -0.025462 2038550.000000 0 0 1
-32.584029 -29.585124 26.608192 51.429509 0.737198 1.027019 0.034010 -0.015199 -832479.000000 0 0 1
-32.174329 -29.603524 25.290842 50.509235 0.743808 1.046369 0.026488 -0.007191 -299413.000000 0 0 1
-30.971029 -28.919524 25.058802 49.228925 0.751157 1.036743 -0.004939 0.003171 -281421.000000 0 0 1
-30.601129 -29.000424 23.542872 48.287892 0.758548 1.061512 -0.001497 -0.001779 -329144.000000 0 0 1
-30.120929 -30.260624 23.054032 48.522821 0.787712 1.075699 0.005645 -0.001223 445957.000000 0 0 1
-29.833929 -30.291324 21.647832 47.710128 0.793005 1.099842 0.001190 0.000926 -586903.000000 0 0 1
-29.935629 -31.700924 21.097432 48.437507 0.814031 1.120136 0.024219 0.000641 -187832.000000 0 0 1
-29.089629 -32.715124 21.539532 48.789725 0.843991 1.113552 0.016056 -0.007000 208617.000000 0 0 1
-27.687129 -32.550124 21.355132 47.771638 0.865954 1.107359 0.034712 -0.004637 144133.000000 0 0 1
-26.978729 -33.900824 21.103432 48.192038 0.898613 1.117532 0.021087 0.000043 -693950.000000 0 0 1
-27.307729 33.547469 19.946532 47.634115 -0.887575 1.138734 0.016114 0.002188 472314.000000 0 0 1
-28.507229 32.763969 19.985732 47.807628 -0.854760 1.139504 0.027580 -0.000087 374265.000000 0 0 1
-28.481729 31.696069 21.122832 47.560737 -0.838762 1.110601 0.035200 -0.006932 -861068.000000 0 0 1
-27.724129 30.595969 20.816532 46.239255 -0.834601 1.103816 0.028057 -0.009652 -320465.000000 0 0 1
-27.444329 29.825769 21.976632 46.105749 -0.826957 1.073948 0.031404 -0.016224 -52520.100000 0 0 1
-26.588029 28.617369 21.566232 44.620393 -0.822141 1.066345 0.032830 -0.013296 863909.000000 0 0 1
-25.174529 28.864669 21.527532 43.935870 -0.853579 1.058734 0.025715 -0.007305 809067.000000 0 0 1
-24.385429 27.764469 21.093532 42.549407 -0.850102 1.052107 0.022509 -0.017775 -566037.000000 0 0 1
-22.896329 27.996069 21.184132 41.914070 -0.885271 1.040930 0.017224 -0.006048 -971314.000000 0 0 1
-22.415029 27.905369 22.507132 42.281369 -0.894076 1.009460 0.022701 -0.007152 -342383.000000 0 0 1
-21.064029 28.239369 22.566232 41.837664 -0.929918 1.001100 0.042793 -0.016005 -773598.000000 0 0 1
-20.784529 28.476269 24.058902 42.681675 -0.940291 0.971959 0.028560 -0.002397 -613852.000000 0 0 1
-20.474429 27.243269 24.665432 42.068771 -0.926310 0.944297 0.038304 -0.009455 374978.000000 0 0 1
-20.255929 27.281069 26.060562 42.821867 -0.932119 0.916526 0.028008 -0.005506 14635.100000 0 0 1
-18.850029 27.662269 26.599162 42.755586 -0.972639 0.899347 0.043556 -0.000813 -198422.000000 0 0 1
-18.487029 28.994669 26.359862 43.327860 -1.003187 0.916777 0.010223 0.004467 673916.000000 0 0 1
-17.110629 29.308669 26.588462 43.112852 -1.042368 0.906230 0.016375 0.007490 574644.000000 0 0 1
-16.786229 29.673769 28.082782 44.169591 -1.055985 0.881759 0.004394 0.015255 -485280.000000 0 0 1
-16.750029 28.505469 28.934202 43.935331 -1.039539 0.851888 0.018137 0.008123 294068.000000 0 0 1
-16.988529 28.779369 30.281912 45.098297 -1.037538 0.834613 0.009161 0.012839 -461805.000000 0 0 1
-16.989629 27.435269 31.057702 44.787525 -1.016334 0.804536 0.020801 0.006605 968233.000000 0 0 1
-15.627929 26.966469 31.279992 44.157225 -1.045563 0.783599 0.026112 0.009377 1417390.000000 0 0 1
-15.482129 25.808769 32.073352 43.982824 -1.030466 0.753608 0.044325 0.000742 -179920.000000 0 0 1
-15.769329 26.046869 33.624690 45.362219 -1.026400 0.735867 0.030175 0.007648 613010.000000 0 0 1
-17.133929 25.793069 33.963626 45.960656 -0.984445 0.739253 0.019844 0.007994 132075.000000 0 0 1
-17.480429 26.263869 -33.049500 45.690543 -0.983554 2.379414 0.020213 0.013708 947841.000000 0 0 1
-18.927729 25.876569 -32.571300 45.702794 -0.939265 2.364102 0.012520 0.013099 1109910.000000 0 0 1
-19.993729 26.285269 -33.396760 46.968161 -0.920518 2.361788 0.021142 0.008223 -743421.000000 0 0 1
-21.259229 25.992969 -32.926610 47.029256 -0.885245 2.346376 0.056356 -0.005112 -83630.900000 0 0 1
-22.346229 26.138469 -34.096885 48.426967 -0.863454 2.351935 0.062989 -0.026607 -80186.800000 0 0 1
-22.401029 25.117669 33.149445 47.239699 -0.842506 0.792975 0.057208 -0.021381 62291.100000 0 0 1
-22.597729 23.757069 33.538759 46.903135 -0.810403 0.774080 0.052281 -0.014367 -164195.000000 0 0 1
-22.650729 22.832469 32.301746 45.582672 -0.789394 0.783226 0.042072 -0.006310 -517122.000000 0 0 1
-23.925429 22.589769 31.791252 45.753771 -0.756692 0.802608 0.071809 -0.019952 -700291.000000 0 0 1
-23.904829 22.126369 30.473112 44.605242 -0.746781 0.818697 0.079299 -0.013619 754971.000000 0 0 1
-25.325729 21.862569 29.833342 44.826251 -0.712139 0.842589 0.091466 -0.022750 945565.000000 0 0 1
-25.977829 20.772769 30.466932 45.106424 -0.674518 0.829228 0.097099 -0.033413 883667.000000 0 0 1
-27.161229 20.391369 29.704002 45.120595 -0.643983 0.852205 0.099403 -0.033521 724382.000000 0 0 1
-27.691329 19.030169 30.135802 45.134506 -0.602100 0.839697 0.122430 -0.039712 -321609.000000 0 0 1
-28.351029 19.096569 31.403072 46.417806 -0.592771 0.827755 0.122719 -0.037822 109659.000000 0 0 1
-28.485229 17.841869 32.125092 46.494754 -0.559573 0.808008 0.114793 -0.024235 278869.000000 0 0 1
-29.469029 16.776969 31.495972 46.280521 -0.517546 0.822290 0.097121 -0.028586 1110260.000000 0 0 1
-30.885229 16.916269 31.666142 47.358232 -0.501086 0.838403 0.077225 -0.029352 469707.000000 0 0 1
-31.578529 15.782169 31.227502 47.132126 -0.463468 0.846575 0.067683 -0.022473 463868.000000 0 0 1
-33.101229 16.058769 31.015852 48.120251 -0.451690 0.870363 0.058468 -0.008431 367948.000000 0 0 1
-33.722229 16.284369 32.246005 49.418360 -0.449872 0.859903 0.041850 -0.008384 62234.700000 0 0 1
-35.108329 16.000869 32.228917 50.272514 -0.427631 0.874886 0.058618 -0.006739 -57673.600000 0 0 1
-35.638329 16.390869 33.641213 51.676710 -0.431075 0.861904 0.048852 -0.005025 -679942.000000 0 0 1
36.047867 16.552669 33.668675 52.029023 0.430467 0.867004 0.039023 -0.008289 -691425.000000 0 0 1
35.611567 17.015069 -33.366130 51.681669 0.445727 2.272616 0.042631 -0.010739 -292635.000000 0 0 1
34.138667 17.294969 -33.055540 50.569094 0.468921 2.283221 0.058493 -0.013310 -9871.420000 0 0 1
33.340667 16.104369 -33.120410 49.678087 0.449975 2.300570 0.075724 -0.009867 193138.000000 0 0 1
32.017767 16.402069 -32.702880 48.617319 0.473423 2.308593 0.075025 -0.007035 -346823.000000 0 0 1
31.244267 15.085069 -32.731300 47.698025 0.449802 2.327075 0.088434 -0.015830 -354158.000000 0 0 1
30.730467 14.794069 -34.022730 48.174394 0.448668 2.354971 0.083129 -0.024548 -159940.000000 0 0 1
30.141267 13.503469 -34.107031 47.477671 0.421195 2.372268 0.080939 -0.021706 -107169.000000 0 0 1
31.109667 12.315969 34.015970 47.713528 0.376957 0.777142 0.093345 -0.016880 -88969.100000 0 0 1
31.693967 11.787469 -33.078000 47.303341 0.356063 2.345178 0.095442 -0.006958 70628.200000 0 0 1
32.464167 10.646669 -33.383400 47.767406 0.316899 2.344618 0.084547 -0.010705 -180356.000000 0 0 1
17.926767 -20.754031 10.239330 29.273583 -0.858361 1.213459 0.022879 -0.026146 -169737.000000 0 0 1
17.742867 -22.029931 10.798830 30.277746 -0.892772 1.206107 0.015192 -0.028115 806021.000000 0 0 1
18.974467 -22.727831 11.067530 31.608146 -0.875160 1.213067 0.017746 -0.026837 806492.000000 0 0 1
18.581167 -24.118031 11.774630 32.643239 -0.914350 1.201771 0.019294 -0.024753 42063.600000 0 0 1
17.872367 -25.038231 11.010430 32.673599 -0.950866 1.227086 0.011878 -0.025603 -690183.000000 0 0 1
16.560167 -25.213671 11.455230 32.267485 -0.989660 1.207873 0.019434 -0.018504 -311163.000000 0 0 1
15.823667 -26.212111 10.493530 32.366300 -1.027677 1.240618 0.045833 -0.014729 -37575.900000 0 0 1
15.554967 -25.669061 9.220830 31.398748 -1.025991 1.272734 0.040448 -0.019543 -145179.000000 0 0 1
14.669667 -26.450681 8.477830 31.411960 -1.064425 1.297516 0.050883 -0.013121 -240779.000000 0 0 1
14.488767 -25.776211 7.086330 30.406471 -1.058712 1.335580 0.057341 -0.012437 -33114.600000 0 0 1
13.699267 -24.594531 7.072830 29.027328 -1.062591 1.324657 0.074976 -0.024022 201800.000000 0 0 1
13.326567 -24.269931 5.745230 28.277811 -1.068646 1.366201 0.074985 -0.006479 90493.900000 0 0 1
12.735767 -22.840031 5.745130 26.774489 -1.062131 1.354540 0.092724 -0.019042 -140015.000000 0 0 1
12.027467 -22.484931 4.599730 25.911186 -1.079610 1.392331 0.085421 -0.014355 -129610.000000 0 0 1
11.392167 -21.244231 4.889130 24.596796 -1.078573 1.370693 0.096048 -0.018314 2606.410000 0 1 0
10.591367 -20.618131 3.765830 23.483310 -1.096255 1.409739 0.084483 -0.020871 -104197.000000 0 1 0
11.423067 -20.052431 2.786030 23.245395 -1.052984 1.450655 0.071373 -0.015713 -359018.000000 0 1 0
10.655467 -19.458031 1.792430 22.256836 -1.069788 1.490175 0.056652 -0.007448 -204508.000000 0 1 0
11.457567 -19.044631 0.571430 22.232866 -1.029189 1.545091 0.045590 -0.002479 -78706.500000 0 1 0
12.134167 -17.816831 0.734630 21.568893 -0.972901 1.536730 0.047751 -0.006560 -45026.700000 0 1 0
12.889867 -17.559531 -0.456070 21.787469 -0.937571 1.591731 0.059516 -0.008099 -23387.400000 0 1 0
14.194067 -16.774331 -0.212670 21.974871 -0.868525 1.580474 0.061468 0.003291 149215.000000 0 1 0
15.168467 -17.499131 0.511330 23.163839 -0.856622 1.548720 0.060209 0.000827 -66161.000000 0 1 0
16.439767 -16.906031 0.430830 23.585280 -0.799380 1.552528 0.060046 -0.004020 -674776.000000 0 1 0
17.507467 -17.492831 1.292330 24.782668 -0.784980 1.518626 0.046656 -0.001524 -681467.000000 0 1 0
17.840067 -18.742631 0.769830 25.887194 -0.810065 1.541054 0.040007 -0.008449 304764.000000 0 0 1
19.079767 -19.223431 1.275230 27.114646 -0.789149 1.523748 0.045948 -0.001575 670317.000000 0 0 1
19.636967 -20.596431 0.768030 28.467759 -0.809241 1.543814 0.033509 0.007833 -310439.000000 0 0 1
18.724267 -21.603331 1.026630 28.606923 -0.856669 1.534901 0.028085 0.010711 -403840.000000 0 0 1
18.972167 -22.865031 0.542630 29.716110 -0.878179 1.552535 0.034056 0.013294 -1099040.000000 0 0 1
17.842767 -23.774631 0.893730 29.738799 -0.926978 1.540739 0.031478 0.009397 -639221.000000 0 0 1
18.001467 -24.362931 2.170030 30.369627 -0.934445 1.499281 0.018057 0.017088 465139.000000 0 0 1
16.860167 -25.175511 2.443830 30.398090 -0.980693 1.490315 0.021474 0.016231 -96172.500000 0 0 1
16.912767 -25.773851 3.793130 31.059957 -0.990076 1.448368 0.019839 0.004163 -7096.800000 0 0 1
17.755367 -26.850361 4.062330 32.445299 -0.986538 1.445261 0.000921 0.007961 900814.000000 0 0 1
19.166467 -26.518171 4.121530 32.978081 -0.944953 1.445491 0.009801 0.013312 1132290.000000 0 0 1
20.122067 -27.767371 4.114630 34.537728 -0.943707 1.451378 0.023218 0.002170 234701.000000 0 0 1
20.246067 -28.385211 2.812430 34.979039 -0.951226 1.490306 0.023297 0.006131 635707.000000 0 0 1
21.189867 -29.495901 2.782330 36.424717 -0.947828 1.494336 0.052193 -0.001111 778813.000000 0 0 1
20.562367 -30.799421 3.339430 37.182886 -0.982133 1.480864 0.053296 -0.004212 -74912.400000 0 0 1
20.480467 -30.930341 4.765430 37.401134 -0.985928 1.443035 0.076454 0.000202 234054.000000 0 0 1
19.539967 -31.963221 5.102230 37.808604 -1.022090 1.435434 0.062988 -0.018211 69233.600000 0 0 1
19.484167 -32.357371 6.604030 38.343779 -1.028793 1.397701 0.074785 -0.027263 102708.000000 0 0 1
20.757967 -32.785691 7.051430 39.440048 -1.006364 1.391041 0.077615 -0.048734 175076.000000 0 0 1
20.606867 -33.571071 8.212430 40.238088 -1.020271 1.365256 0.064948 -0.043050 64049.200000 0 0 1
21.873367 33.777964 8.551030 41.140189 0.996136 1.361419 0.078047 -0.043177 -133310.000000 0 0 1
22.857267 -33.610741 9.129530 41.659151 -0.973580 1.349855 0.087181 -0.048084 -1019930.000000 0 0 1
23.946667 33.786505 9.498030 42.487449 0.954212 1.345342 0.098594 -0.047187 -845262.000000 0 0 1
24.852867 -33.654651 10.481430 43.129582 -0.934717 1.325316 0.091906 -0.042319 -785706.000000 0 0 1
25.451067 -32.614021 9.737230 42.499939 -0.908139 1.339631 0.078625 -0.039291 -245511.000000 0 0 1
26.281867 -31.815011 10.519430 42.586264 -0.880352 1.321198 0.063949 -0.028910 -37087.600000 0 0 1
26.922067 -30.600831 9.793430 41.918013 -0.849264 1.334984 0.062087 -0.033912 -201451.000000 0 0 1
25.982667 -29.623511 9.492130 40.530876 -0.850780 1.334406 0.051704 -0.033302 -305462.000000 0 0 1
26.455367 -28.826941 8.476230 40.034053 -0.828271 1.357456 0.052353 -0.030416 -180300.000000 0 0 1
25.922067 -27.435501 8.462130 38.681622 -0.813755 1.350249 0.046374 -0.022264 -314578.000000 0 0 1
26.529967 -26.764531 9.503030 38.864982 -0.789799 1.323778 0.052305 -0.028254 -13425.800000 0 0 1
25.979067 -25.494171 9.740930 37.679575 -0.775978 1.309306 0.041003 -0.026599 -117203.000000 0 0 1
26.936267 -24.746431 10.688730 38.107706 -0.743053 1.286495 0.041255 -0.034153 335316.000000 0 0 1
28.206167 -24.492131 10.118330 38.701846 -0.715037 1.306279 0.054430 -0.029876 -277112.000000 0 0 1
29.033067 -23.766831 11.013330 39.103384 -0.685987 1.285287 0.043207 -0.032371 -15670.900000 0 0 1
30.399967 -23.443531 10.384630 39.769305 -0.656913 1.306612 0.064061 -0.039589 100.127000 0 0 1
30.361967 -22.565531 9.341830 38.965651 -0.639146 1.328693 0.067942 -0.037230 590271.000000 0 0 1
31.658467 -22.466831 8.718730 39.787351 -0.617182 1.349870 0.066920 -0.040680 842538.000000 0 0 1
31.553067 -21.717431 7.390730 39.011097 -0.602819 1.380192 0.063043 -0.019136 23673.900000 0 0 1
31.078267 -20.349331 7.419030 37.881340 -0.579726 1.373673 0.046672 -0.007452 277970.000000 0 0 1
31.526967 -19.664231 6.267830 37.681790 -0.557684 1.403684 0.034719 -0.001795 249445.000000 0 0 1
31.045267 -18.179631 6.347430 36.532143 -0.529753 1.396161 0.046828 0.000065 163565.000000 0 0 1
31.846667 -17.598931 7.353230 37.121457 -0.504848 1.371392 0.067597 -0.009743 255108.000000 0 0 1
31.584067 -16.226431 7.540530 36.300274 -0.474590 1.361546 0.071633 -0.013582 -70268.900000 0 0 1
32.219167 -15.672831 8.854230 36.906771 -0.452744 1.328525 0.077585 -0.033641 -147660.000000 0 0 1
33.607667 -15.609631 8.641930 38.050214 -0.434819 1.341678 0.083390 -0.033662 -311110.000000 0 0 1
34.288067 -15.238831 9.853130 38.794042 -0.418217 1.313998 0.075119 -0.047177 116743.000000 0 0 1
35.820267 -15.334431 9.769230 40.170563 -0.404488 1.325139 0.069467 -0.054077 -250595.000000 0 0 1
36.391467 -14.293431 9.053530 40.132374 -0.374257 1.343246 0.077022 -0.040196 -314702.000000 0 0 1
-35.280229 -14.450431 8.964730 39.164727 0.388746 1.339851 0.078009 -0.046851 54289.700000 0 0 1
-34.540129 -13.366731 8.168130 37.926354 0.369242 1.353727 0.085529 -0.040422 -325246.000000 0 0 1
-34.780629 -13.383131 6.742530 37.871652 0.367323 1.391806 0.104486 -0.041709 294.101000 0 0 1
-33.827829 -12.638131 5.993030 36.605474 0.357544 1.406336 0.086911 -0.032284 -1094900.000000 0 0 1
-32.622729 -13.391031 5.615930 35.708554 0.389509 1.412869 0.057731 -0.024152 -1665100.000000 0 0 1
-31.775429 -13.816031 6.637330 35.279098 0.410144 1.381531 0.072573 -0.030606 -845125.000000 0 0 1
-30.773329 -14.615231 6.156330 34.619404 0.443393 1.392017 0.064586 -0.014159 -730177.000000 0 0 1
-30.248529 -15.547931 7.274030 34.779637 0.474790 1.360095 0.051203 -0.017329 -50268.400000 0 0 1
-31.262429 -16.415131 7.749730 36.150440 0.483506 1.354745 0.064277 -0.026075 -52572.500000 0 0 1
-30.985529 -16.916831 9.003230 36.432682 0.499735 1.321090 0.045495 -0.022874 -344221.000000 0 0 1
-32.147429 -17.659731 9.665630 37.930827 0.502333 1.313132 0.015008 -0.024629 -1605990.000000 0 0 1
-33.254129 -16.870031 9.927330 38.587393 0.469476 1.310602 0.041636 -0.029812 -521625.000000 0 0 1
-34.173529 -17.392131 10.834930 39.846104 0.470771 1.295409 0.059356 -0.033114 -433818.000000 0 0 1
-34.901829 -18.743631 10.594230 41.008524 0.492838 1.309491 0.072132 -0.034584 -741842.000000 0 0 1
-34.066529 -19.908731 10.570830 40.848848 0.528875 1.309038 0.074854 -0.029694 -162754.000000 0 0 1
-33.591829 -20.287531 11.879430 41.001411 0.543313 1.276849 0.049408 -0.039637 -615261.000000 0 0 1
-34.617229 -21.015031 12.800630 42.471640 0.545601 1.264644 0.081975 -0.048156 -20992.400000 0 0 1
-35.021929 -22.329631 12.483530 43.370340 0.567602 1.278830 0.077040 -0.051056 328535.000000 0 0 1
-36.012029 -22.342631 11.453530 43.900373 0.555300 1.306844 0.084563 -0.042485 -267172.000000 0 0 1
36.456167 -23.749531 11.222830 44.933776 -0.577397 1.318360 0.086371 -0.032047 -281621.000000 0 0 1
35.900867 -24.233231 12.404730 45.055511 -0.593752 1.291873 0.123176 -0.022683 -99453.700000 0 0 1
35.481467 -25.572591 12.345330 45.445561 -0.624504 1.295688 0.091124 -0.012494 -204216.000000 0 0 1
34.471567 -25.858431 13.460030 45.145540 -0.643589 1.268045 0.097000 -0.028576 -192075.000000 0 0 1
33.205967 -25.262771 13.292130 43.789548 -0.650371 1.262385 0.090792 -0.029886 -145062.000000 0 0 1
32.477367 -25.142951 14.507130 43.559203 -0.658790 1.231266 0.072901 -0.011953 -46915.600000 0 0 1
32.223267 -23.676831 14.929530 42.682808 -0.633685 1.213462 0.096164 -0.018161 -692724.000000 0 0 1
33.307567 -23.042631 15.476930 43.357724 -0.605211 1.205786 0.109953 -0.023745 -875019.000000 0 0 1
34.189567 -22.379531 14.570130 43.382699 -0.579583 1.228288 0.093180 -0.031652 1672690.000000 0 0 1
35.552067 -21.971531 15.342030 44.520507 -0.553557 1.218977 0.079311 -0.029184 1234680.000000 0 0 1
35.582667 -20.784431 16.116430 44.247690 -0.528659 1.197988 0.071411 -0.005495 -477222.000000 0 0 1
34.722767 -20.590331 17.182730 43.873437 -0.535251 1.168380 0.081947 -0.016050 -372596.000000 0 0 1
34.854567 -19.176031 17.761330 43.566338 -0.502976 1.150879 0.064336 -0.004128 -141468.000000 0 0 1
34.452567 -18.133031 16.884430 42.436660 -0.484480 1.161598 0.059565 -0.014844 -16923.800000 0 0 1
34.460067 -16.811531 17.389730 42.101383 -0.453885 1.145002 0.063969 -0.016191 -421024.000000 0 0 1
35.809567 -16.174231 17.750630 43.116304 -0.424245 1.146487 0.035742 -0.014204 -518300.000000 0 0 1
36.275667 -16.469931 19.034630 44.153140 -0.426193 1.125080 0.039757 0.003406 332409.000000 0 0 1
-35.848129 -15.497331 19.451830 43.630600 0.408042 1.108695 0.031055 -0.003852 -71563.300000 0 0 1
-35.327129 -15.505631 20.896530 43.875911 0.413598 1.074395 0.023819 0.000470 106084.000000 0 0 1
-34.593429 -16.677031 21.328430 43.928699 0.449215 1.063834 0.011520 0.004343 529325.000000 0 0 1
-34.087929 -16.415331 22.621430 44.081505 0.448786 1.031919 0.014557 -0.000996 42432.500000 0 0 1
-33.190029 -17.588231 23.136830 44.116174 0.487300 1.018725 0.012956 0.001296 -635489.000000 0 0 1
-33.886129 -18.774531 23.493830 45.306873 0.505946 1.025643 0.013064 -0.000667 676518.000000 0 0 1
-33.022729 -19.809631 23.955130 45.351630 0.540330 1.014307 0.000188 0.000621 664198.000000 0 0 1
-31.879129 -20.507231 23.093130 44.386011 0.571637 1.023618 -0.001282 0.002688 595192.000000 0 0 1
-30.746129 -19.684031 23.035430 43.167309 0.569463 1.007908 0.002504 0.011024 -880942.000000 0 0 1
-29.708829 -20.274631 22.317530 42.329036 0.598846 1.015448 0.004415 0.008213 -305646.000000 0 0 1
-28.556829 -19.238131 22.235930 40.988227 0.592841 0.997391 0.017575 0.001494 -164609.000000 0 0 1
-28.041529 -18.965031 23.541230 41.233351 0.594656 0.963162 0.013578 0.000693 291914.000000 0 0 1
-26.948029 -18.051231 23.469730 40.035876 0.590206 0.944414 0.041797 -0.008201 -38409.200000 0 0 1
-26.350829 -17.786431 24.858730 40.356905 0.593740 0.907177 0.038675 -0.018815 -788860.000000 0 0 1
-25.450129 -16.700131 24.809830 39.269977 0.580715 0.886954 0.050651 -0.025268 155027.000000 0 0 1
-25.087329 -16.194331 26.140630 39.685803 0.573218 0.851720 0.054124 -0.031223 165763.000000 0 0 1
-24.013229 -16.890431 26.994930 39.882929 0.612991 0.827316 0.040107 -0.015708 -632073.000000 0 0 1
-24.463729 -18.158431 27.270530 40.888683 0.638529 0.840694 0.045224 -0.013722 -479192.000000 0 0 1
-23.638829 -18.827431 28.179230 41.319915 0.672580 0.820334 0.040333 -0.011140 -481890.000000 0 0 1
-24.111029 -20.226431 28.656930 42.563715 0.698007 0.832172 0.034594 0.000573 -522253.000000 0 0 1
-25.228529 -20.105031 29.480130 43.700904 0.672858 0.830389 0.035668 -0.009878 -223610.000000 0 0 1
-25.671829 -21.331031 30.117730 44.957016 0.693308 0.836692 0.037085 -0.006622 -119397.000000 0 0 1
-26.882429 -21.195331 31.066930 46.228359 0.667656 0.833847 0.051454 -0.009159 -444131.000000 0 0 1
-26.567729 -20.338531 32.194430 46.432546 0.653370 0.804656 0.063883 -0.020105 311170.000000 0 0 1
-27.449729 -20.437631 33.294730 47.746449 0.640002 0.799140 0.069537 -0.018685 452521.000000 0 0 1
-28.894929 -19.870231 33.143630 48.251872 0.602404 0.813598 0.057903 -0.025476 258717.000000 0 0 1
-29.777229 -20.505931 32.228630 48.434091 0.603064 0.842751 0.062257 -0.027108 870868.000000 0 0 1
-31.031429 -19.803431 32.322630 48.988548 0.568016 0.850244 0.057886 -0.032998 -98517.000000 0 0 1
-32.060829 -20.323531 31.346430 49.229476 0.564978 0.880532 0.052936 -0.013980 -1103610.000000 0 0 1
-31.965229 -19.784931 30.002030 48.097205 0.554238 0.897228 0.037589 -0.024765 566378.000000 0 0 1
-33.048029 -20.299431 29.244030 48.574195 0.550825 0.924732 0.031636 -0.027721 191298.000000 0 0 1
-33.206329 -19.470331 27.891930 47.536447 0.530318 0.943759 0.029253 -0.015726 574873.000000 0 0 1
-34.421929 -19.751031 27.174530 48.098103 0.520926 0.970386 0.005274 -0.020043 1239280.000000 0 0 1
-35.134429 -18.540731 26.823430 47.934155 0.485568 0.976906 0.031063 -0.015082 155626.000000 0 0 1
-36.371129 -18.757131 25.913630 48.437642 0.476140 1.006301 0.019213 -0.019307 195411.000000 0 0 1
35.595867 -19.217431 26.691030 48.464280 -0.495039 0.987550 0.028105 -0.022627 907790.000000 0 0 1
34.522867 -19.668731 25.820430 47.385461 -0.517865 0.994524 0.070256 -0.018425 502247.000000 0 0 1
33.284967 -20.273731 26.471430 47.113159 -0.547081 0.974153 0.067065 -0.023296 158872.000000 0 0 1
32.436967 -19.332431 27.165930 46.517604 -0.537473 0.947158 0.056853 -0.029867 829115.000000 0 0 1
31.218967 -19.894331 27.611230 46.182121 -0.567361 0.929946 0.049035 -0.021087 72696.400000 0 0 1
-29.967283 -5.865931 33.690186 45.469505 0.193300 0.736327 0.027387 0.005059 493081.000000 0 0 1
-30.902883 -5.561731 32.641433 45.292209 0.178068 0.766006 0.042358 0.006521 562473.000000 0 0 1
-30.522583 -4.384331 31.975802 44.421868 0.142666 0.767252 0.047243 -0.000569 -72784.600000 0 0 1
-31.139763 -4.343731 30.562862 43.847935 0.138597 0.799564 0.042372 -0.009004 34271.000000 0 0 1
-30.851483 -5.311431 29.533882 43.038071 0.170490 0.814507 0.045103 -0.012544 1272800.000000 0 0 1
-29.451923 -5.372931 29.109582 41.757059 0.180446 0.799427 0.047339 -0.013497 1548830.000000 0 0 1
-29.222753 -6.467031 28.063182 41.028453 0.217791 0.817574 0.041077 -0.021253 -36841.400000 0 0 1
-29.835593 -6.072831 26.821782 40.576470 0.200800 0.848622 0.069658 -0.025865 171388.000000 0 0 1
-29.468213 -6.934731 25.751102 39.743998 0.231124 0.865940 0.094679 -0.023984 -64879.300000 0 0 1
-30.100123 -6.552331 24.383652 39.287567 0.214341 0.901231 0.092269 -0.021996 -239046.000000 0 0 1
-29.569643 -5.468731 23.778622 38.336584 0.182878 0.901723 0.106558 -0.026796 208567.000000 0 0 1
-30.441423 -5.037331 22.705532 38.309217 0.163990 0.936400 0.116308 -0.027371 502093.000000 0 0 1
-29.892773 -3.871331 21.874932 37.243493 0.128790 0.943017 0.123982 -0.029757 196373.000000 0 0 1
-28.678623 -4.164131 21.197732 35.904697 0.144192 0.939256 0.133276 -0.027470 62569.000000 0 0 1
-28.188163 -2.948731 20.732532 35.115601 0.104230 0.939232 0.132808 -0.024910 -441480.000000 0 0 1
-26.740373 -2.969231 20.236932 33.665967 0.110586 0.925908 0.121752 -0.016038 -298220.000000 0 0 1
-26.596813 -3.719931 19.085932 32.946945 0.138962 0.952935 0.132016 -0.025536 107923.000000 0 0 1
-25.345043 -3.368131 18.519332 31.570258 0.132117 0.943933 0.109856 -0.013302 62659.200000 0 0 1
-25.241713 -3.960331 17.135732 30.764616 0.155628 0.980033 0.100851 -0.022658 433881.000000 0 0 1
-26.323943 -3.543031 16.273232 31.149978 0.133789 1.021115 0.116007 -0.018311 659294.000000 0 0 1
-26.277943 -4.121431 15.016832 30.545405 0.155573 1.056843 0.112929 -0.023348 -287426.000000 0 0 1
-27.684713 -4.126631 14.408032 31.481166 0.147969 1.095422 0.135460 -0.032690 -233687.000000 0 0 1
-27.950933 -2.798231 13.960032 31.368252 0.099780 1.109581 0.141156 -0.035371 128017.000000 0 0 1
-29.198083 -2.872331 13.281332 32.205157 0.098058 1.145712 0.147191 -0.038792 98693.400000 0 0 1
-29.450083 -1.635231 12.371332 31.984859 0.055469 1.173651 0.145684 -0.028633 50773.700000 0 0 1
-28.658823 -1.529431 11.149732 30.789346 0.053316 1.200245 0.147311 -0.025955 476499.000000 0 0 1
-28.916913 -0.349031 10.440732 30.746033 0.012070 1.224326 0.141248 -0.019655 -314604.000000 0 0 1
-30.274023 -0.259131 9.737932 31.802688 0.008559 1.259599 0.134946 -0.018862 -78018.500000 0 0 1
-30.247563 -1.097831 8.658332 31.481535 0.036279 1.292177 0.132500 -0.027999 -300516.000000 0 0 1
-31.559363 -1.316931 8.225832 32.640343 0.041704 1.316035 0.120456 -0.031861 -459319.000000 0 0 1
-31.668373 -2.098431 6.864132 32.471612 0.066166 1.357801 0.128400 -0.033421 -578383.000000 0 0 1
-31.356853 -1.468331 5.611632 31.888848 0.046792 1.393900 0.135499 -0.041760 562696.000000 0 0 1
-32.153583 -0.343731 5.228232 32.577684 0.010690 1.409614 0.125496 -0.037753 -30377.300000 0 0 1
-31.658383 0.169769 3.881532 31.895898 -0.005362 1.448800 0.122034 -0.035111 -33448.800000 0 0 1
-31.917173 -0.727231 2.786932 32.046869 0.022781 1.483722 0.116205 -0.046902 241757.000000 0 0 1
-31.445073 -0.229631 1.571632 31.485161 0.007302 1.520859 0.115554 -0.045613 -409642.000000 0 0 1
-32.068803 -0.864531 0.314232 32.081993 0.026952 1.561002 0.109861 -0.042441 102462.000000 0 0 1
-33.406213 -0.416031 0.185632 33.409319 0.012453 1.565240 0.117524 -0.036775 375654.000000 0 0 1
-34.123016 -1.126131 -0.829068 34.151658 0.032990 1.595075 0.100832 -0.032505 328609.000000 0 0 1
-35.655075 -0.900131 -0.821768 35.675901 0.025240 1.593833 0.093555 -0.027491 -93093.500000 0 0 1
-36.336973 -1.634931 0.135632 36.373988 0.044963 1.567067 0.088501 -0.024825 741388.000000 0 0 1
35.321583 -1.351631 0.150632 35.347755 -0.038248 1.566535 0.079861 -0.020326 628324.000000 0 0 1
34.538033 -2.547331 0.696532 34.638848 -0.073621 1.550687 0.082852 -0.029113 -380437.000000 0 0 1
34.774553 -2.704131 2.082532 34.941648 -0.077606 1.511161 0.083727 -0.030075 191349.000000 0 0 1
34.106293 -3.868731 2.468532 34.413659 -0.112949 1.499003 0.082154 -0.024959 -131589.000000 0 0 1
34.114363 -4.133631 4.025532 34.598867 -0.120582 1.454184 0.084323 -0.014951 163762.000000 0 0 1
33.447813 -3.096831 4.732032 33.922539 -0.092324 1.430845 0.086841 -0.025063 197202.000000 0 0 1
33.466383 -3.353331 6.100732 34.182781 -0.099867 1.391361 0.080113 -0.023591 155739.000000 0 0 1
32.667143 -2.291731 6.937732 33.474264 -0.070039 1.362027 0.095567 -0.023847 -69767.700000 0 0 1
31.275643 -2.372731 6.814832 32.097315 -0.075720 1.356850 0.081776 -0.020907 -421651.000000 0 0 1
30.629613 -1.260431 7.357132 31.526009 -0.041128 1.335257 0.112751 -0.022515 -983835.000000 0 0 1
29.152213 -1.416631 7.607732 30.161829 -0.048556 1.315812 0.080186 -0.019085 -1220280.000000 0 0 1
28.361833 -1.305531 6.431732 29.111255 -0.045999 1.348022 0.073809 -0.020556 1039250.000000 0 0 1
26.983963 -1.648031 6.680732 27.847485 -0.060999 1.328529 0.077751 -0.011471 852473.000000 0 0 1
26.616363 -3.150631 6.617932 27.607142 -0.117824 1.328721 0.092648 -0.020152 -990424.000000 0 0 1
26.981763 -3.920931 7.743132 28.343347 -0.144308 1.294088 0.069820 -0.012094 260204.000000 0 0 1
26.519663 -5.216631 7.830632 28.139377 -0.194228 1.288793 0.083694 -0.017885 -365013.000000 0 0 1
26.920863 -5.878131 9.148332 29.034071 -0.214975 1.250245 0.062696 -0.020919 -48231.500000 0 0 1
25.987163 -5.578431 10.197632 28.468285 -0.211452 1.204446 0.061652 -0.008931 793925.000000 0 0 1
26.361663 -6.145731 11.458132 29.393810 -0.229040 1.170366 0.046778 -0.009785 260396.000000 0 0 1
25.152863 -6.076631 12.450932 28.716157 -0.237046 1.122327 0.032502 -0.008944 703398.000000 0 0 1
24.261563 -7.133131 12.150632 28.056066 -0.285952 1.122885 0.055157 -0.022677 -296709.000000 0 0 1
23.019263 -7.066731 12.817232 27.278317 -0.297859 1.081654 0.064684 -0.023361 245810.000000 0 0 1
22.194263 -8.359531 12.556732 26.835398 -0.360219 1.083864 0.080315 -0.020180 -77631.900000 0 0 1
22.437563 -9.388631 13.511232 27.823444 -0.396296 1.063740 0.057363 -0.028267 255504.000000 0 0 1
21.488763 -10.415631 13.383732 27.374744 -0.451334 1.059959 0.092008 -0.042703 -498080.000000 0 0 1
21.806363 -11.436831 14.493732 28.572484 -0.483033 1.038792 0.060423 -0.037246 -30529.900000 0 0 1
21.806663 -10.925731 15.779132 29.049667 -0.464469 0.996579 0.049745 -0.035124 405185.000000 0 0 1
22.436363 -11.894131 16.624932 30.352086 -0.487458 0.991140 0.053307 -0.039592 44585.300000 0 0 1
22.196663 -11.558731 18.087132 30.877831 -0.480103 0.944974 0.063333 -0.032637 448095.000000 0 0 1
20.848263 -11.616331 18.562532 30.235026 -0.508342 0.909752 0.063439 -0.035862 343481.000000 0 0 1
20.737063 -11.883631 19.972132 31.146951 -0.520377 0.874706 0.086657 -0.028033 214364.000000 0 0 1
21.228563 -10.811531 21.011232 31.764964 -0.471053 0.848033 0.068379 -0.023966 10949.100000 0 0 1
20.451363 -9.607931 21.060932 30.889051 -0.439192 0.820542 0.068909 -0.016651 96113.200000 0 0 1
20.821663 -8.613731 20.123532 30.210835 -0.392253 0.841824 0.076188 -0.016770 87509.200000 0 0 1
22.011663 -7.633031 20.535532 31.056152 -0.333796 0.848327 0.063097 -0.007895 2481230.000000 0 0 1
23.369863 -8.160631 20.556532 32.176349 -0.335957 0.877767 0.065626 -0.008893 1269350.000000 0 0 1
23.857963 -8.481731 19.276832 31.823551 -0.341575 0.920099 0.064091 -0.016261 -622039.000000 0 0 1
25.199363 -9.253031 19.371832 33.104295 -0.351909 0.945699 0.038632 -0.021104 34757.700000 0 0 1
25.041163 -10.484131 19.991432 33.714006 -0.396502 0.936053 0.037331 -0.028452 -185698.000000 0 0 1
26.194463 -11.273131 19.900632 34.774539 -0.406404 0.961518 0.040848 -0.028336 -90047.000000 0 0 1
25.890963 -12.767531 20.258032 35.266694 -0.458134 0.958896 0.033905 -0.029340 -38513.000000 0 0 1
24.873263 -13.243531 19.414232 34.219625 -0.489262 0.967522 0.054513 -0.034231 -24823.300000 0 0 1
24.641563 -14.614831 19.602132 34.713736 -0.535328 0.970752 0.043941 -0.027422 -307936.000000 0 0 1
23.545563 -15.182231 18.711132 33.689763 -0.572713 0.981958 0.048769 -0.030402 -615389.000000 0 0 1
23.876863 -15.110631 17.298132 33.130969 -0.564229 1.021469 0.053871 -0.033578 775334.000000 0 0 1
22.808363 -15.520931 16.405432 32.097647 -0.597514 1.034320 0.040285 -0.027402 344360.000000 0 0 1
22.572363 -17.002531 16.336432 32.641640 -0.645575 1.046645 0.025929 -0.028849 -949704.000000 0 0 1
23.671863 -17.761831 15.977732 33.632241 -0.643716 1.075751 0.067908 -0.028555 -861009.000000 0 0 1
23.462763 -19.118031 16.254732 34.354282 -0.683715 1.077933 0.045151 -0.013508 -277918.000000 0 0 1
24.659863 -20.071231 16.099132 35.639097 -0.683173 1.102096 0.038498 -0.010817 -146368.000000 0 0 1
25.111363 -20.083831 14.746232 35.375022 -0.674613 1.140814 0.038369 -0.022157 53066.100000 0 0 1
26.086663 -21.081431 14.521132 36.548652 -0.679679 1.162213 0.039120 -0.022848 20317.600000 0 0 1
26.662963 -21.096431 13.089232 36.432142 -0.669368 1.203303 0.030022 -0.037988 217820.000000 0 0 1
25.698163 -21.438131 12.082332 35.580497 -0.695266 1.224329 0.024094 -0.032912 435141.000000 0 0 1
26.244963 -21.192031 10.821832 35.426153 -0.679279 1.260358 0.034752 -0.026847 158437.000000 0 0 1
25.174463 -21.170831 9.660232 34.282324 -0.699225 1.285143 0.016573 -0.032043 526464.000000 0 0 1
24.589563 -22.412931 9.312932 34.550207 -0.739122 1.297873 0.010863 -0.032537 1200260.000000 0 0 1
23.184663 -22.511631 9.686832 33.736284 -0.770671 1.279563 -0.003065 -0.018891 1223080.000000 0 0 1
22.463963 -23.499631 8.751732 33.666825 -0.807927 1.307825 0.001624 -0.018286 -594741.000000 0 0 1
22.668063 -24.886031 8.945932 34.830810 -0.832005 1.311046 -0.000133 -0.014708 19613.600000 0 0 1
22.134963 -25.778861 7.945732 34.894712 -0.861303 1.341075 0.011453 -0.012047 457765.000000 0 0 1
20.595863 -25.980051 7.925732 34.087679 -0.900488 1.336139 0.003969 0.000525 433754.000000 0 0 1
19.827063 -24.844831 7.540332 32.668557 -0.897254 1.337883 0.005255 -0.004379 -358120.000000 0 0 1
18.470563 -25.053931 7.858232 32.103161 -0.935517 1.323503 0.004221 -0.011468 -221959.000000 0 0 1
17.673663 -23.737131 7.768232 30.596653 -0.930787 1.314095 0.014284 -0.014025 -262074.000000 0 0 1
17.654363 -23.225631 6.420332 29.871845 -0.920847 1.354177 0.019443 -0.002919 121004.000000 0 0 1
16.879663 -22.051631 6.431732 28.505519 -0.917473 1.343206 0.041125 -0.013446 -99108.400000 0 0 1
16.482163 -21.562131 5.008232 27.598362 -0.918141 1.388317 0.050188 -0.000827 11915.300000 0 0 1
15.467163 -20.572931 4.942932 26.208991 -0.926131 1.381063 0.073418 -0.011234 196002.000000 0 0 1
15.307463 -19.963931 3.667832 25.423020 -0.916657 1.426019 0.082144 -0.008875 577343.000000 0 0 1
14.359063 -18.730231 3.709632 23.890701 -0.916740 1.414890 0.076721 -0.010092 152383.000000 0 1 0
15.062163 -17.789231 4.440632 23.728563 -0.868221 1.382543 0.063342 -0.008504 221042.000000 0 1 0
14.619163 -16.483931 4.132632 22.416925 -0.845281 1.385383 0.053116 -0.008871 -120377.000000 0 1 0
15.768763 -15.486631 4.318232 22.519697 -0.776372 1.377848 0.055767 -0.008205 -996382.000000 0 1 0
16.134463 -15.271331 5.646732 22.922042 -0.757922 1.321889 0.070980 -0.018200 -240865.000000 0 1 0
17.221963 -14.431331 5.855032 23.219404 -0.697463 1.315883 0.074329 -0.019711 -891866.000000 0 1 0
18.592163 -14.986731 5.520532 24.510139 -0.678436 1.343612 0.082819 -0.026183 -1148340.000000 0 1 0
19.580563 -13.954431 5.580932 24.683423 -0.619177 1.342724 0.101024 -0.026644 -1089930.000000 0 1 0
20.804163 -14.463931 5.302732 25.887013 -0.607526 1.364495 0.106732 -0.025059 -1426400.000000 0 0 1
21.974363 -13.472331 5.257732 26.306274 -0.549991 1.369575 0.106236 -0.027937 23178.900000 0 0 1
22.041163 -12.825131 6.501032 26.316540 -0.526983 1.321180 0.121714 -0.032815 252448.000000 0 0 1
22.876463 -11.691731 6.330432 26.459469 -0.472473 1.329203 0.120814 -0.034620 -83525.800000 0 0 1
22.955263 -10.965131 7.673332 26.571756 -0.445628 1.277846 0.118759 -0.034652 -194069.000000 0 0 1
23.620363 -11.727331 8.642932 27.751614 -0.460838 1.254089 0.110150 -0.027824 167804.000000 0 0 1
23.663263 -11.043131 9.869532 27.916096 -0.436637 1.209441 0.119281 -0.041265 -140771.000000 0 0 1
24.144763 -11.947731 10.991132 29.095065 -0.459509 1.183414 0.090855 -0.037017 -322008.000000 0 0 1
23.228763 -12.960231 11.353032 28.921175 -0.508918 1.167393 0.091419 -0.041462 36735.000000 0 0 1
23.697063 -13.806231 12.385032 30.092388 -0.527537 1.146624 0.086447 -0.046064 37875.800000 0 0 1
22.673363 -14.876731 12.866632 30.015808 -0.580674 1.127785 0.069132 -0.047510 737642.000000 0 0 1
21.429063 -14.371731 13.350232 29.051335 -0.590766 1.093320 0.054326 -0.042999 585835.000000 0 0 1
20.447063 -15.410531 13.443232 28.918633 -0.645852 1.087315 0.033312 -0.037148 869026.000000 0 0 1
19.072363 -14.891431 13.977032 27.944001 -0.662915 1.046990 0.032757 -0.035657 -159348.000000 0 0 1
19.127363 -14.716131 15.350232 28.601576 -0.655787 1.004285 0.037822 -0.036790 69856.900000 0 0 1
18.831363 -13.484231 15.876032 28.080119 -0.621418 0.969898 0.057620 -0.041623 530473.000000 0 0 1
17.328463 -13.036931 15.745632 26.798547 -0.644998 0.942762 0.073412 -0.043498 403112.000000 0 0 1
16.981463 -12.736831 14.393732 25.647153 -0.643529 0.974935 0.077023 -0.055901 1780350.000000 0 0 1
15.515963 -12.761531 14.246432 24.628492 -0.688297 0.953965 0.107518 -0.048260 2084560.000000 0 1 0
14.907163 -11.318531 14.145332 23.461097 -0.649406 0.923631 0.085281 -0.045682 -87189.500000 0 1 0
15.156363 -10.445331 15.226932 23.888904 -0.603421 0.879669 0.081935 -0.037120 13109.900000 0 1 0
14.959963 -9.135131 14.866032 22.983690 -0.548205 0.867405 0.082487 -0.030443 -560106.000000 0 1 0
15.510663 -8.103331 15.865232 23.620970 -0.481435 0.834351 0.095465 -0.025431 254603.000000 0 1 0
16.927963 -8.127031 15.899732 24.605000 -0.447597 0.868203 0.096452 -0.034984 330631.000000 0 1 0
17.568163 -9.025231 16.817332 25.940659 -0.474568 0.865447 0.107939 -0.033729 -1000390.000000 0 0 1
19.057163 -9.072831 16.565532 26.831112 -0.444333 0.905363 0.080423 -0.028489 -1099220.000000 0 0 1
19.592163 -7.819831 16.715532 26.914896 -0.379757 0.900713 0.075040 -0.027903 -412994.000000 0 0 1
20.873863 -7.676031 16.159632 27.491332 -0.352385 0.942449 0.060217 -0.019734 -237721.000000 0 0 1
21.457163 -6.273731 16.499132 27.784724 -0.284455 0.934998 0.056977 -0.005735 -158312.000000 0 0 1
22.076963 -6.242731 17.766332 29.017349 -0.275577 0.911873 0.068638 -0.005763 196275.000000 0 0 1
22.388163 -4.941931 18.221532 29.286119 -0.217255 0.899259 0.087705 -0.009508 9232.980000 0 0 1
-5.454633 -32.938024 -6.651670 34.042784 1.406683 1.767453 0.027118 -0.027316 -383040.000000 0 0 1
-6.088433 -31.655924 -6.740070 32.933191 1.380785 1.776912 0.028875 -0.032227 -42601.800000 0 0 1
-5.715533 -30.770224 -5.750370 31.820446 1.387141 1.752508 0.031708 -0.031759 -1229710.000000 0 0 1
-6.427133 -29.396224 -5.802870 30.645054 1.355545 1.761304 0.039128 -0.029449 416396.000000 0 0 1
-7.783233 -29.372224 -5.388670 30.860072 1.311764 1.746312 0.040890 -0.028192 98932.900000 0 0 1
-8.657533 -30.008824 -6.295470 31.860875 1.289923 1.769698 0.040683 -0.024808 -852174.000000 0 0 1
-10.133333 -29.826224 -5.824170 32.034498 1.243286 1.753622 0.056772 -0.013282 466055.000000 0 0 1
-11.062133 -30.350124 -6.770770 33.005214 1.221277 1.777406 0.040950 -0.016211 -174262.000000 0 0 1
-12.371633 -30.181224 -6.273570 33.216280 1.181775 1.760808 0.047075 -0.012905 -14997.200000 0 0 1
-13.491833 -30.755224 -7.152270 34.337564 1.157392 1.780626 0.056131 -0.016577 -28669.900000 0 0 1
-13.683033 -29.876124 -8.251970 33.880720 1.141316 1.816830 0.072346 -0.022407 198972.000000 0 0 1
-14.783533 -30.263024 -9.062270 34.878764 1.116390 1.833634 0.076292 -0.020719 72353.100000 0 0 1
-14.838433 -29.597524 -10.466570 34.723790 1.106077 1.876982 0.081873 -0.020189 -243970.000000 0 0 1
-15.253633 -28.213024 -10.509170 33.750418 1.075153 1.887440 0.093216 -0.028366 371634.000000 0 0 1
-14.246433 -27.284124 -10.100570 32.394533 1.089585 1.887882 0.080417 -0.022699 -226482.000000 0 0 1
-14.710733 -25.882524 -9.744870 31.325281 1.053962 1.887132 0.078563 -0.013138 -158652.000000 0 0 1
-14.953933 -24.972924 -10.819470 31.053631 1.031255 1.926673 0.085693 -0.026965 134901.000000 0 0 1
-15.180333 -23.653324 -10.357070 29.953149 1.000218 1.923862 0.080567 -0.012431 -322718.000000 0 0 1
-15.768033 -22.830424 -11.501570 30.035733 0.966367 1.963762 0.066748 -0.015474 272784.000000 0 0 1
-17.114133 -23.217724 -11.770670 31.152928 0.935593 1.958253 0.062951 -0.018937 311825.000000 0 0 1
-17.617733 -22.756924 -13.006470 31.582121 0.912005 1.995258 0.069339 -0.027683 -269631.000000 0 0 1
-19.058233 -23.241224 -13.287170 32.862131 0.883968 1.987043 0.055023 -0.010659 -49440.600000 0 0 1
-19.359533 -24.587224 -13.550970 34.102081 0.903797 1.979440 0.077812 -0.013506 -33650.700000 0 0 1
-19.269733 -25.410024 -12.439670 34.230649 0.921972 1.942719 0.087548 -0.020784 -890001.000000 0 0 1
-19.423433 -26.909124 -12.769070 35.558682 0.945578 1.938098 0.095035 -0.021844 200516.000000 0 0 1
-18.519433 -27.608324 -13.626170 35.928561 0.979943 1.959790 0.091498 -0.023968 2336170.000000 0 0 1
-17.079333 -27.544624 -13.291770 35.029717 1.015757 1.959990 0.090353 -0.027572 2019730.000000 0 0 1
-16.277333 -28.725524 -13.932970 35.836224 1.055260 1.970120 0.090749 -0.030648 -16727.900000 0 0 1
-16.208733 -28.759324 -15.343770 36.404025 1.057572 2.005879 0.097052 -0.036143 89381.700000 0 0 1
-15.528133 -29.961924 -15.812970 37.267812 1.092646 2.008992 0.112236 -0.039856 157499.000000 0 0 1
-16.283533 -31.306424 -15.749870 38.643292 1.091172 1.990588 0.119585 -0.040389 -263064.000000 0 0 1
-16.607033 -31.700324 -14.452170 38.594939 1.088231 1.954608 0.120052 -0.043775 -37416.000000 0 0 1
-16.859733 -33.094824 -14.282970 39.793482 1.099628 1.937915 0.114120 -0.038782 -761555.000000 0 0 1
-17.350033 -33.383124 -12.817170 39.745899 1.091494 1.899142 0.118067 -0.036865 -52262.600000 0 0 1
-18.706333 -33.096924 -12.567670 40.040974 1.056359 1.890063 0.128375 -0.032388 14283.800000 0 0 1
-19.128233 -31.730224 -12.615270 39.138746 1.028292 1.898977 0.129173 -0.032247 -751220.000000 0 0 1
-18.642933 -30.726124 -11.557070 37.752080 1.025432 1.881922 0.135400 -0.034085 -405396.000000 0 0 1
-19.078733 -30.904724 -10.240970 37.735626 1.017724 1.845630 0.122802 -0.030517 80720.400000 0 0 1
-18.577033 -29.899724 -9.388470 36.431347 1.014854 1.831441 0.112081 -0.022369 -239687.000000 0 0 1
-18.698433 -30.218024 -7.838370 36.389565 1.016679 1.787899 0.096457 -0.018844 150756.000000 0 0 1
-17.819633 -31.215024 -7.351170 36.687283 1.052074 1.772536 0.095801 -0.019250 95009.100000 0 0 1
-18.183333 -31.589124 -6.043870 36.946376 1.048496 1.735120 0.102081 -0.025070 205925.000000 0 0 1
-17.225833 -32.685824 -5.440570 37.345578 1.085773 1.716998 0.093664 -0.025047 -372954.000000 0 0 1
-15.993033 -32.239924 -5.012570 36.336148 1.110303 1.709188 0.079335 -0.013002 -590985.000000 0 0 1
-15.935533 -31.904424 -3.622870 35.846320 1.107567 1.672036 0.061269 -0.013413 -356214.000000 0 0 1
-14.716733 -31.067224 -3.191870 34.524523 1.128404 1.663381 0.059332 -0.011364 -403917.000000 0 0 1
-13.509833 -31.782424 -3.261670 34.688277 1.168864 1.664963 0.035966 -0.008174 -448099.000000 0 0 1
-12.496333 -30.869724 -2.817970 33.422136 1.186151 1.655211 0.047174 -0.008071 -172051.000000 0 0 1
-11.118633 -31.512124 -2.803270 33.533510 1.231597 1.654490 0.048380 -0.014405 -862920.000000 0 0 1
-11.218333 -32.572124 -1.833070 34.498614 1.239106 1.623956 0.039561 -0.009858 100732.000000 0 0 1
-10.064733 -33.381624 -1.654670 34.905152 1.277959 1.618219 0.063943 -0.014055 210655.000000 0 0 1
-8.828033 -32.799924 -0.949170 33.980437 1.307879 1.598733 0.065471 -0.019019 -385661.000000 0 0 1
-9.057233 -32.446524 0.417830 33.689538 1.298582 1.558394 0.070025 -0.012305 -207643.000000 0 0 1
-7.909133 -32.048924 1.151330 33.030493 1.328848 1.535933 0.072446 -0.011098 947354.000000 0 0 1
-7.006333 -33.249924 1.691530 34.022161 1.363117 1.521057 0.079629 -0.012773 412927.000000 0 0 1
-7.699733 -33.918624 2.716430 34.887504 1.347573 1.492855 0.081785 -0.022242 492508.000000 0 0 1
-7.009533 33.043569 3.152430 33.925637 -1.361765 1.477740 0.091689 -0.020340 455507.000000 0 0 1
-6.088833 33.194269 4.383630 34.031597 -1.389383 1.441627 0.095693 -0.030326 221080.000000 0 0 1
-4.918233 33.953669 4.212230 34.565641 -1.426946 1.448631 0.097722 -0.027297 -240596.000000 0 0 1
-4.183333 -33.965224 5.384930 34.642953 1.448248 1.414723 0.078342 -0.029235 335167.000000 0 0 1
-3.000633 -32.989324 5.084830 33.513502 1.480088 1.418483 0.089439 -0.021378 150212.000000 0 0 1
-3.315433 -31.752724 4.479730 32.238107 1.466759 1.431388 0.080578 -0.014680 -197606.000000 0 0 1
-3.427133 -31.797624 3.076830 32.129442 1.463431 1.474886 0.085660 -0.018225 -119956.000000 0 0 1
-3.905833 -30.514824 2.314830 30.850745 1.443491 1.495693 0.072194 -0.021596 -1903.570000 0 0 1
-3.160233 -29.362724 2.636330 29.649736 1.463582 1.481763 0.074783 -0.025187 -268840.000000 0 0 1
-3.467033 -28.213224 1.895530 28.488583 1.448523 1.504211 0.074503 -0.025646 180580.000000 0 0 1
-2.813333 -26.974824 2.540630 27.239875 1.466877 1.477392 0.071570 -0.027083 106983.000000 0 0 1
-2.905433 -25.763824 1.788130 25.988720 1.458499 1.501938 0.070691 -0.030507 -185720.000000 0 0 1
-2.619733 -24.582024 2.570030 24.854455 1.464626 1.467208 0.047197 -0.025753 -297177.000000 0 1 0
-3.806833 -24.042324 3.379830 24.575365 1.413761 1.432830 0.043853 -0.026229 -207453.000000 0 1 0
-4.133633 -24.841024 4.513930 25.583959 1.405904 1.393432 0.070742 -0.024539 -530548.000000 0 0 1
-5.060533 -24.276824 5.359330 25.371157 1.365288 1.357956 0.051374 -0.020400 -653802.000000 0 0 1
-5.760133 -25.232124 6.303730 26.637872 1.346357 1.331885 0.049129 -0.019537 448639.000000 0 0 1
-4.886533 -25.781324 7.312830 27.240271 1.383481 1.299006 0.051902 -0.020560 601621.000000 0 0 1
-5.747033 -26.417924 8.230230 28.260782 1.356591 1.275290 0.050179 -0.020616 762239.000000 0 0 1
-4.961433 -27.037924 9.462930 29.072533 1.389316 1.239262 0.037226 -0.011603 520457.000000 0 0 1
-4.404033 -26.178724 10.413330 28.515935 1.404127 1.196975 0.028279 -0.013993 -18355.400000 0 0 1
-5.379233 -25.377324 11.051230 28.197064 1.361918 1.168070 0.035220 -0.016838 -93838.300000 0 0 1
-4.722433 -24.411424 12.085730 27.645684 1.379705 1.118352 0.013457 -0.013910 419526.000000 0 0 1
-4.175833 -25.024624 13.235430 28.615485 1.405451 1.089953 0.009225 -0.007112 229572.000000 0 0 1
-3.245733 -24.194424 13.956730 28.119304 1.437440 1.051419 0.007648 -0.010132 290642.000000 0 0 1
-2.390533 -25.029324 14.910730 29.232030 1.475576 1.035516 0.020213 -0.011254 -78436.200000 0 0 1
-3.046933 -25.445724 16.055330 30.241400 1.451621 1.011127 0.025675 -0.012455 77874.900000 0 0 1
-2.106633 -26.259724 16.765730 31.226602 1.490745 1.004032 0.039529 -0.003964 512329.000000 0 0 1
-2.620033 -26.820224 18.134430 32.481480 1.473417 0.978460 0.045845 -0.014839 -205931.000000 0 0 1
-2.889633 -25.769124 19.018330 32.157341 1.459127 0.937984 0.052280 -0.017598 -130390.000000 0 0 1
-2.910433 -26.202824 20.349430 33.304022 1.460176 0.913448 0.073706 -0.021074 -179449.000000 0 0 1
-2.964233 -24.945224 21.257430 32.907890 1.452521 0.868506 0.076101 -0.032794 -45631.600000 0 0 1
-2.767933 -25.270224 22.627130 34.032818 1.461698 0.843487 0.074076 -0.028932 -37851.200000 0 0 1
-2.749333 -24.265224 23.592530 33.955373 1.457974 0.802641 0.065604 -0.028584 522795.000000 0 0 1
-1.714133 -23.081224 23.468330 32.961245 1.496667 0.778457 0.064584 -0.027347 378678.000000 0 0 1
-2.143333 -22.081224 22.542830 31.628365 1.474034 0.777398 0.083206 -0.024901 -34648.100000 0 0 1
-1.149433 -21.134924 22.162430 30.646036 1.516464 0.762409 0.089782 -0.028956 89983.000000 0 0 1
-1.763533 -19.946224 21.363330 29.280604 1.482611 0.753049 0.061566 -0.007727 -539833.000000 0 0 1
-2.475233 -18.982024 22.161930 29.284725 1.441129 0.712432 0.063326 -0.023215 444340.000000 0 0 1
-3.833633 -19.205224 22.500830 29.829930 1.373772 0.716203 0.073117 -0.026866 -328695.000000 0 0 1
-4.878233 -18.964624 21.426230 29.026495 1.319026 0.740456 0.057314 -0.020739 -839174.000000 0 0 1
-4.874733 -19.774124 20.302530 28.757116 1.329095 0.786962 0.068865 -0.018629 -340712.000000 0 0 1
-5.357233 -21.091524 20.548630 29.929893 1.322057 0.814051 0.053135 -0.013597 -189043.000000 0 0 1
-5.168833 -22.029724 19.335230 29.763681 1.340335 0.863705 0.044796 -0.016785 -9530.330000 0 0 1
-5.806033 -23.294324 19.211130 30.747407 1.326527 0.895915 0.035389 -0.020297 -266039.000000 0 0 1
-5.367233 -23.955624 18.023730 30.455442 1.350387 0.937498 0.025760 -0.018438 19361.300000 0 0 1
-6.090233 -25.312324 17.789630 31.532136 1.334681 0.971363 0.028078 -0.023094 -337911.000000 0 0 1
-7.475533 -25.245424 17.652130 31.698781 1.282908 0.980183 0.064433 -0.030881 -1149510.000000 0 0 1
-8.030133 -26.492324 17.431330 32.713568 1.276487 1.008835 0.083453 -0.028969 1255560.000000 0 0 1
-9.613633 -26.489024 17.457330 33.148887 1.222650 1.016160 0.065438 -0.036409 970342.000000 0 0 1
-10.256133 -25.756024 16.406230 32.213746 1.191840 1.036433 0.090367 -0.039584 1449480.000000 0 0 1
-11.712333 -25.826724 16.411030 32.764620 1.145038 1.046185 0.123597 -0.050631 2090850.000000 0 0 1
-12.463133 -25.090824 17.589230 33.079603 1.109776 1.010161 0.113684 -0.046881 -524420.000000 0 0 1
-12.634833 -23.686024 17.355830 31.967039 1.080764 0.996875 0.115319 -0.050374 -292208.000000 0 0 1
-12.793833 -22.894524 18.559830 32.129561 1.061210 0.954942 0.096170 -0.037646 104220.000000 0 0 1
-11.514533 -22.410924 19.322030 31.751769 1.096177 0.916585 0.096990 -0.041291 479282.000000 0 0 1
-10.795933 -23.503024 19.897930 32.632375 1.140201 0.915038 0.102931 -0.039040 -778346.000000 0 0 1
-9.433233 -23.282924 19.742530 31.950711 1.185852 0.904720 0.079252 -0.036682 -458276.000000 0 0 1
-8.512133 -24.142224 20.638530 32.882401 1.231822 0.892270 0.069917 -0.033436 -87217.400000 0 0 1
-8.530533 -23.707624 21.986730 33.440061 1.225398 0.853305 0.071894 -0.027132 -550303.000000 0 0 1
-7.475233 -24.191524 22.737030 34.030596 1.271101 0.839097 0.052791 -0.024411 -584438.000000 0 0 1
-7.591933 -23.952324 24.254230 34.923043 1.263853 0.803065 0.061824 -0.029972 -230227.000000 0 0 1
-6.617933 -24.508424 25.106430 35.704239 1.307059 0.790939 0.065333 -0.028726 -169877.000000 0 0 1
-6.766933 -24.150724 26.446430 36.448079 1.297606 0.758902 0.071485 -0.020420 124546.000000 0 0 1
-5.535233 -24.641124 27.260330 37.161127 1.349830 0.747235 0.068101 -0.017466 119587.000000 0 0 1
-4.342933 -23.980624 26.910530 36.305757 1.391636 0.735911 0.057734 -0.019253 -532976.000000 0 0 1
-3.314433 -24.222524 27.833730 37.046358 1.434808 0.720734 0.051162 -0.018887 248491.000000 0 0 1
-1.935633 -23.691924 27.373330 36.254008 1.489277 0.715077 0.045830 -0.020457 -366663.000000 0 0 1
-2.021833 -22.302324 27.241730 35.264618 1.480388 0.688036 0.056678 -0.019648 301143.000000 0 0 1
-0.894733 -21.629524 26.655330 34.338658 1.529454 0.682103 0.056977 -0.030487 959080.000000 0 0 1
0.390567 -21.460024 27.525230 34.904490 -1.552599 0.662288 0.056910 -0.021774 272104.000000 0 0 1
0.933667 -22.672624 28.049430 36.078943 -1.529639 0.680202 0.065806 -0.028092 -181556.000000 0 0 1
1.609067 -22.360624 29.242830 36.847384 -1.498960 0.654060 0.041383 -0.035958 -410043.000000 0 0 1
2.209367 -23.565324 29.977130 38.194687 -1.477315 0.668341 0.049709 -0.032330 -553842.000000 0 0 1
3.213967 -24.205224 29.231330 38.087965 -1.438789 0.695913 0.048447 -0.037482 -19980.700000 0 0 1
3.631267 -25.375924 29.931830 39.408604 -1.428662 0.708213 0.029474 -0.020628 161681.000000 0 0 1
4.986967 -25.199424 30.712330 40.039081 -1.375421 0.696552 0.013700 -0.014984 358414.000000 0 0 1
6.100867 -24.854524 29.940830 39.388085 -1.330092 0.707253 0.024526 -0.011134 26253.700000 0 0 1
6.750967 -25.866524 29.192730 39.583685 -1.315499 0.741444 0.027368 -0.010490 -461825.000000 0 0 1
8.029767 -25.406524 28.483330 39.003445 -1.264679 0.752069 0.039132 -0.014116 -160411.000000 0 0 1
7.768567 -24.785524 27.227530 37.629924 -1.267063 0.761850 0.037572 -0.016826 -384416.000000 0 0 1
8.955867 -24.415624 26.575730 37.183325 -1.219226 0.774570 0.027801 -0.010434 -176404.000000 0 0 1
9.067867 -23.081724 25.817430 35.798490 -1.196461 0.765281 0.038034 -0.002806 67195.800000 0 0 1
8.343567 -23.233624 24.604530 34.853971 -1.226024 0.787058 0.051828 -0.011730 59675.600000 0 0 1
8.319567 -22.027124 23.889730 33.542936 -1.209664 0.778150 0.048238 -0.004555 237911.000000 0 0 1
7.690867 -22.189624 22.446030 32.486199 -1.237156 0.808007 0.065906 0.000299 21788.300000 0 0 1
8.445967 -23.017724 21.635830 32.699528 -1.219117 0.847772 0.056370 0.005997 -382969.000000 0 0 1
7.776067 -23.169224 20.439230 31.859728 -1.246989 0.874295 0.079972 -0.001337 -248219.000000 0 0 1
8.497167 -24.082824 19.402130 32.072214 -1.231602 0.921092 0.063542 -0.008735 586643.000000 0 0 1
9.714467 -23.421624 19.031530 31.703982 -1.177627 0.926935 0.038314 -0.007903 -184976.000000 0 0 1
10.376967 -24.168324 18.047530 31.898317 -1.165237 0.969414 0.060882 -0.018567 590347.000000 0 0 1
11.779367 -23.570424 17.692630 31.738738 -1.107347 0.979490 0.034280 -0.013729 393833.000000 0 0 1
11.646467 -22.435524 16.826930 30.366733 -1.091979 0.983486 0.036740 -0.007747 -643842.000000 0 0 1
12.821267 -22.154124 16.152630 30.267103 -1.046163 1.007863 0.049038 -0.018861 -788708.000000 0 0 1
-12.253433 22.457269 11.090930 27.883405 -1.071312 1.161721 0.046671 -0.021482 208649.000000 0 0 1
-13.368433 21.582469 10.891930 27.625208 -1.016226 1.165517 0.028688 -0.028389 206977.000000 0 0 1
-12.934533 20.402769 10.304730 26.263332 -1.005780 1.167598 0.051152 -0.030610 318853.000000 0 0 1
-14.035833 19.694469 9.446630 25.963735 -0.951612 1.198410 0.050363 -0.031237 6496.790000 0 0 1
-14.204333 20.489469 8.294830 26.275190 -0.964615 1.249612 0.051391 -0.028329 962278.000000 0 0 1
-15.180733 19.912469 7.371730 26.101791 -0.919423 1.284478 0.059009 -0.025960 1108940.000000 0 0 1
-16.708333 19.879569 7.587130 27.054209 -0.871857 1.286542 0.045424 -0.024607 -190302.000000 0 0 1
-17.189233 19.048669 8.630730 27.070483 -0.836665 1.246307 0.039408 -0.029942 1855350.000000 0 0 1
-18.641133 19.154169 8.815230 28.143957 -0.798971 1.252215 0.051681 -0.024159 1455360.000000 0 0 1
-19.013833 18.024169 9.755230 27.956413 -0.758684 1.214352 0.039375 -0.024643 -318485.000000 0 0 1
-18.909533 16.754569 9.134630 26.864986 -0.725048 1.223858 0.038439 -0.017452 237979.000000 0 0 1
-19.283733 15.661669 9.956630 26.763496 -0.682118 1.189609 0.043935 -0.026966 -410863.000000 0 0 1
-18.164233 15.231969 10.946430 26.110852 -0.697820 1.138200 0.038036 -0.019785 214379.000000 0 0 1
-17.064233 14.558069 10.351830 24.703963 -0.706310 1.138414 0.016216 -0.001933 519787.000000 0 1 0
-16.339733 13.640769 11.227930 24.064993 -0.695616 1.085391 0.009077 -0.008728 452341.000000 0 1 0
-17.178333 12.537469 11.917630 24.378539 -0.630475 1.060017 0.018379 -0.013030 -200854.000000 0 1 0
-17.868133 11.574069 11.152530 24.033480 -0.574791 1.088244 0.000638 -0.014588 -292183.000000 0 1 0
-18.719233 10.847569 11.971630 24.726491 -0.525201 1.065391 0.024547 -0.017445 -138746.000000 0 1 0
-19.661133 9.845369 11.218630 24.684997 -0.464250 1.099017 0.034493 -0.026195 -196863.000000 0 1 0
-19.036933 8.935869 10.343930 23.436114 -0.438866 1.113675 0.017339 -0.022498 -86146.900000 0 1 0
-18.692533 9.461869 9.049230 22.821620 -0.468583 1.163073 0.038478 -0.014950 -761455.000000 0 1 0
-19.803133 9.723069 8.004830 23.468691 -0.456411 1.222725 0.052251 -0.014940 -143354.000000 0 1 0
-20.294533 8.568269 7.395930 23.237536 -0.399493 1.246887 0.039942 -0.021394 528498.000000 0 1 0
-21.297633 8.857369 6.432930 23.946289 -0.394125 1.298816 0.064980 -0.011819 207467.000000 0 1 0
-21.658633 7.628069 5.506030 23.613559 -0.338629 1.335458 0.083437 -0.013396 177088.000000 0 1 0
-22.516233 6.607869 6.024230 24.226763 -0.285456 1.319500 0.097563 -0.019139 573691.000000 0 1 0
-22.349833 5.461469 5.195530 23.586780 -0.239666 1.348702 0.109687 -0.018033 -353232.000000 0 1 0
-23.126833 4.184269 5.519130 24.141651 -0.178991 1.340142 0.109150 -0.026508 -936059.000000 0 1 0
-24.436433 4.218469 5.063930 25.309645 -0.170945 1.369358 0.136526 -0.031038 -241571.000000 0 0 1
-24.994233 2.917169 4.967130 25.649443 -0.116188 1.375911 0.134726 -0.037167 -184750.000000 0 0 1
-26.241383 2.656369 4.114530 26.694491 -0.100885 1.416045 0.141417 -0.044932 -458484.000000 0 0 1
-26.054093 2.597769 2.693130 26.321419 -0.099378 1.468300 0.148356 -0.034004 890550.000000 0 0 1
-27.322253 2.642669 2.027530 27.524536 -0.096422 1.497067 0.143128 -0.025980 572861.000000 0 0 1
-27.146953 2.703169 0.518530 27.286133 -0.099248 1.551792 0.154698 -0.027707 -188609.000000 0 0 1
-26.451223 3.857169 0.049530 26.731020 -0.144801 1.568943 0.151158 -0.031083 422642.000000 0 0 1
-26.332903 4.061269 -1.364970 26.679184 -0.153022 1.621981 0.171833 -0.026138 356608.000000 0 0 1
-27.696443 4.408469 -2.049270 28.119870 -0.157847 1.643737 0.153193 -0.024419 207770.000000 0 0 1
-28.661463 3.401769 -1.933470 28.927319 -0.118135 1.637685 0.125469 -0.021499 -424779.000000 0 0 1
-29.924973 4.001469 -2.131670 30.266480 -0.132928 1.641285 0.119744 -0.006189 -770951.000000 0 0 1
-31.014633 2.972869 -2.331770 31.243920 -0.095562 1.645497 0.116235 -0.011362 -901986.000000 0 0 1
-30.966173 2.392369 -3.610970 31.267658 -0.077104 1.686540 0.103615 -0.020277 298418.000000 0 0 1
-31.784243 1.244569 -3.709270 32.024143 -0.039137 1.686884 0.116312 -0.031082 673.261000 0 0 1
-32.015783 0.816369 -5.187970 32.443672 -0.025493 1.731393 0.110000 -0.019486 52192.400000 0 0 1
-30.772893 0.445369 -5.780270 31.314227 -0.014472 1.756450 0.125736 -0.029758 479863.000000 0 0 1
-30.805733 -0.271031 -7.021670 31.597001 0.008798 1.794893 0.130530 -0.028392 23391.500000 0 0 1
-31.507943 0.500869 -8.231970 32.569413 -0.015895 1.826319 0.133927 -0.025024 333970.000000 0 0 1
-32.884363 0.812269 -8.093670 33.875487 -0.024696 1.812054 0.123251 -0.019526 208987.000000 0 0 1
-33.230613 1.621069 -9.200870 34.518944 -0.048744 1.840603 0.118471 -0.016889 231841.000000 0 0 1
-34.757108 1.893169 -9.079270 35.973237 -0.054415 1.825945 0.114744 -0.016916 204070.000000 0 0 1
-35.106804 2.713969 -7.961370 36.100371 -0.077153 1.793159 0.093090 -0.011507 -38491.300000 0 0 1
-36.506773 2.812969 -7.833070 37.443481 -0.076901 1.781550 0.107411 -0.013398 -187947.000000 0 0 1
36.231463 3.782069 -6.687870 37.037151 0.104010 1.752364 0.109561 -0.018098 1066590.000000 0 0 1
34.814353 3.723269 -6.385570 35.590412 0.106541 1.751191 0.109288 -0.021729 1373310.000000 0 0 1
34.407823 4.453169 -5.247470 35.089385 0.128708 1.720905 0.107867 -0.025374 1239770.000000 0 0 1
32.950703 4.161269 -4.681370 33.540725 0.125623 1.710826 0.112158 -0.029752 1279710.000000 0 0 1
32.809473 2.965269 -3.934670 33.177341 0.090134 1.689671 0.106626 -0.031396 -594512.000000 0 0 1
31.521333 2.511069 -4.190170 31.897608 0.079495 1.702540 0.105573 -0.031361 -653846.000000 0 0 1
31.411863 1.140269 -3.533170 31.630502 0.036285 1.682731 0.119562 -0.024783 -887.451000 0 0 1
32.394263 0.214769 -4.000570 32.641062 0.006630 1.693668 0.085740 -0.029427 327835.000000 0 0 1
32.208323 -1.076531 -3.441170 32.409515 -0.033412 1.677175 0.089747 -0.024304 -607333.000000 0 0 1
33.498943 -1.868931 -3.348770 33.717745 -0.055733 1.670278 0.066366 -0.022068 -588438.000000 0 0 1
33.360383 -3.265131 -3.094970 33.662369 -0.097564 1.662868 0.048778 -0.022324 95495.700000 0 0 1
34.628253 -3.893331 -3.050570 34.979707 -0.111962 1.658117 0.067993 -0.020962 198912.000000 0 0 1
34.503033 -5.417931 -2.717770 35.031408 -0.155756 1.648455 0.071956 -0.025350 39173.300000 0 0 1
34.058733 -5.650231 -1.368170 34.551328 -0.164399 1.610405 0.077219 -0.025257 21477.400000 0 0 1
34.524443 -6.842031 -0.859570 35.206383 -0.195644 1.595214 0.101088 -0.028696 -518365.000000 0 0 1
34.003013 -7.123431 0.529430 34.745193 -0.206508 1.555558 0.100697 -0.026787 2301890.000000 0 0 1
32.542883 -7.401731 0.496530 33.377708 -0.223641 1.555920 0.085679 -0.017894 2413810.000000 0 0 1
31.894533 -7.540631 1.724130 32.819125 -0.232161 1.518238 0.093650 -0.026271 -513377.000000 0 0 1
31.619853 -9.040631 2.055630 32.951081 -0.278486 1.508372 0.094495 -0.023679 -287144.000000 0 0 1
30.541503 -9.661031 1.431630 32.065066 -0.306365 1.526134 0.090418 -0.027488 1172760.000000 0 0 1
29.208293 -9.306731 1.916730 30.715036 -0.308463 1.508352 0.100381 -0.031849 857518.000000 0 0 1
28.164803 -10.448031 1.675730 30.086966 -0.355225 1.515071 0.113217 -0.026932 656380.000000 0 0 1
26.886163 -10.228831 2.312430 28.859003 -0.363540 1.490582 0.123908 -0.029164 1954140.000000 0 0 1
25.915163 -9.281631 1.814030 27.586863 -0.343921 1.504992 0.125605 -0.028986 279956.000000 0 0 1
25.281963 -9.648731 0.416130 27.063792 -0.364584 1.555420 0.115015 -0.026229 -749786.000000 0 0 1
26.209163 -9.678631 -0.671570 27.947220 -0.353750 1.594829 0.110515 -0.032388 302914.000000 0 0 1
25.765763 -9.833931 -2.004670 27.651391 -0.364602 1.643358 0.111038 -0.028458 -635317.000000 0 0 1
24.988063 -11.091831 -2.387870 27.443285 -0.417757 1.657918 0.102410 -0.022140 97476.700000 0 0 1
23.703963 -11.175331 -1.784970 26.266937 -0.440551 1.638804 0.088898 -0.009125 119080.000000 0 0 1
23.350763 -12.493831 -1.633970 26.533447 -0.491293 1.632417 0.079662 -0.003937 997591.000000 0 0 1
21.790163 -12.737531 -1.525070 25.285999 -0.528985 1.631146 0.073174 -0.002454 1244520.000000 0 0 1
20.986763 -12.328431 -2.648370 24.483633 -0.531132 1.679177 0.075589 0.001593 523128.000000 0 1 0
19.657163 -12.687631 -2.327570 23.511648 -0.573167 1.669955 0.075715 0.001946 60785.500000 0 1 0
18.503063 -12.179231 -3.209870 22.383035 -0.582138 1.714699 0.058361 0.008685 107204.000000 0 1 0
18.494363 -12.859931 -4.405370 22.952703 -0.607594 1.763927 0.060686 -0.005000 124004.000000 0 1 0
17.768663 -12.163831 -5.377870 22.194721 -0.600293 1.815536 0.064411 -0.008636 -276868.000000 0 1 0
17.841363 -12.825631 -6.775170 22.993781 -0.623279 1.869888 0.068507 -0.014115 -406320.000000 0 1 0
17.035063 -13.948531 -6.884770 23.068484 -0.686107 1.873864 0.058860 -0.018930 93355.000000 0 1 0
17.079763 -14.448131 -8.196570 23.825418 -0.702121 1.921998 0.059686 -0.024731 67082.600000 0 1 0
16.009963 -15.527231 -8.605070 23.905251 -0.770093 1.939027 0.050792 -0.023492 -567611.000000 0 1 0
14.680763 -15.104831 -8.588970 22.747552 -0.799635 1.957975 0.052382 -0.015346 -46283.500000 0 1 0
13.878063 -15.989131 -9.371870 23.153507 -0.855963 1.987525 0.047313 -0.017270 -337904.000000 0 1 0
13.831063 -15.766931 -10.919470 23.645914 -0.850711 2.050810 0.062945 -0.026815 -1124770.000000 0 1 0
12.998163 -14.781131 -11.413270 22.752951 -0.849494 2.096263 0.041048 -0.023809 -231216.000000 0 1 0
13.388263 -13.477431 -11.128770 22.016727 -0.788717 2.100722 0.042579 -0.015088 -305032.000000 0 1 0
13.450263 -12.537831 -12.340470 22.144841 -0.750303 2.161881 0.055637 -0.019040 -126492.000000 0 1 0
14.727763 -12.566131 -12.946270 23.289924 -0.706365 2.160211 0.072209 -0.027223 293483.000000 0 1 0
14.715463 -11.837631 -14.157570 23.603202 -0.677439 2.214067 0.085530 -0.027347 -329604.000000 0 1 0
16.132263 -11.648631 -14.728470 24.756178 -0.625385 2.207989 0.097262 -0.036421 12310.600000 0 1 0
16.708363 -12.785931 -15.338570 26.036919 -0.653184 2.200751 0.097381 -0.029572 11213.800000 0 0 1
17.836063 -12.473131 -16.118470 27.083375 -0.610270 2.208239 0.096184 -0.027040 -519113.000000 0 0 1
18.913563 -13.540331 -16.167970 28.327843 -0.621321 2.178209 0.087600 -0.022641 -717201.000000 0 0 1
19.610863 -13.628131 -14.946370 28.172786 -0.607314 2.130016 0.073681 -0.031826 -611352.000000 0 0 1
20.577663 -14.610231 -15.093670 29.406087 -0.617409 2.109803 0.055034 -0.016616 -1036710.000000 0 0 1
21.621763 -14.462731 -13.994470 29.538389 -0.589545 2.064366 0.037229 -0.012932 -556145.000000 0 0 1
22.328363 -13.259531 -14.134270 29.566003 -0.535880 2.069239 0.038153 -0.016589 -121238.000000 0 0 1
23.206463 -12.999331 -13.053770 29.629773 -0.510610 2.027022 0.027710 -0.008402 71324.800000 0 0 1
23.904063 -11.651831 -13.235870 29.704505 -0.453550 2.032623 0.042166 -0.019074 -589688.000000 0 0 1
23.054763 -10.532331 -13.010670 28.490869 -0.428527 2.045035 0.035198 -0.010501 376368.000000 0 0 1
23.693363 -9.267231 -13.121170 28.625550 -0.372838 2.046960 0.050718 -0.015774 38730.000000 0 0 1
24.748363 -8.861031 -12.054870 28.919184 -0.343824 2.000770 0.059950 -0.014983 769152.000000 0 0 1
25.866463 -9.768631 -12.041570 30.157909 -0.361097 1.981532 0.048942 -0.012168 313714.000000 0 0 1
26.732363 -9.515031 -10.960270 30.418458 -0.341954 1.939403 0.053184 -0.011755 -274304.000000 0 0 1
28.053413 -10.306231 -11.137370 31.894410 -0.352072 1.927508 0.071887 -0.012301 -380612.000000 0 0 1
28.879093 -9.689231 -12.088770 32.772268 -0.323708 1.948591 0.058794 -0.013389 97590.100000 0 0 1
30.048073 -10.503231 -12.228170 34.098866 -0.336272 1.937574 0.051063 -0.013255 -127317.000000 0 0 1
30.803173 -10.007331 -13.466570 35.076069 -0.314123 1.964839 0.031320 -0.012850 -516045.000000 0 0 1
30.214903 -10.193431 -14.751770 35.134899 -0.325374 2.004088 0.019899 -0.011008 101334.000000 0 0 1
31.042663 -9.599731 -15.737470 36.103597 -0.299915 2.021832 0.012890 -0.007492 -84638.900000 0 0 1
30.877963 -10.248131 -17.194970 36.798638 -0.320452 2.056999 -0.003882 -0.003145 519147.000000 0 0 1
29.603403 -10.087931 -17.834570 36.002774 -0.328428 2.089053 0.008827 -0.008460 679459.000000 0 0 1
29.461493 -8.828231 -18.525570 35.904233 -0.291139 2.112938 0.011875 -0.006650 -276425.000000 0 0 1
28.074233 -8.464831 -19.086070 34.987055 -0.292847 2.147803 -0.007308 -0.014695 -153245.000000 0 0 1
27.806663 -9.130231 -20.333870 35.637591 -0.317256 2.178001 -0.008256 -0.009965 -681706.000000 0 0 1
26.453363 -8.936131 -20.548370 34.668002 -0.325771 2.205226 0.029344 -0.009909 -903051.000000 0 0 1
26.022263 -9.486031 -21.882170 35.298333 -0.349565 2.239438 0.038819 -0.013863 -201054.000000 0 0 1
25.809963 -10.869031 -21.919170 35.563184 -0.398578 2.234888 0.029261 -0.005214 209676.000000 0 0 1
25.177563 -11.201531 -23.146370 35.988032 -0.418606 2.269425 0.031469 -0.008398 -621013.000000 0 0 1
25.150763 -12.689431 -23.670370 36.794958 -0.467269 2.269603 0.016835 0.008300 817768.000000 0 0 1
26.343363 -13.239031 -24.251870 38.175881 -0.465691 2.259150 0.020503 0.010759 695017.000000 0 0 1
27.518563 -13.258031 -23.456070 38.512776 -0.448970 2.225654 0.008535 0.016333 -8614.800000 0 0 1
28.825053 -13.623131 -24.182870 40.016054 -0.441500 2.219720 0.008422 0.017385 89882.300000 0 0 1
29.290043 -12.863031 -25.276810 40.771084 -0.413803 2.239500 0.024709 0.003904 1524140.000000 0 0 1
30.701433 -13.164631 -25.478460 42.012348 -0.405081 2.222387 0.004483 0.003384 1433420.000000 0 0 1
31.396423 -12.685531 -26.769980 43.165842 -0.383988 2.239750 0.031265 -0.008908 -23422.400000 0 0 1
31.080033 -13.437231 -27.925360 43.890242 -0.408074 2.260430 0.045230 -0.010143 82275.600000 0 0 1
31.976263 -13.203831 -28.982510 45.131014 -0.391600 2.268143 0.044633 -0.018627 -97599.200000 0 0 1
31.729413 -14.090631 -30.179230 46.000951 -0.417926 2.286378 0.058032 -0.027406 133367.000000 0 0 1
32.153483 -15.446331 -29.899410 46.544713 -0.447840 2.268397 0.064967 -0.029605 66282.500000 0 0 1
32.522853 -16.249831 -31.043990 47.807136 -0.463362 2.277537 0.033182 -0.029521 -499996.000000 0 0 1
31.378983 -16.952431 -31.731740 47.738127 -0.495325 2.297894 0.049138 -0.020672 -171847.000000 0 0 1
30.538673 -16.069531 -32.508970 47.409635 -0.484389 2.326367 0.066817 -0.028807 -68548.600000 0 0 1
29.496713 -16.853331 -33.026490 47.379741 -0.519097 2.342084 0.059094 -0.022773 -201966.000000 0 0 1
28.574503 -16.057731 -33.986370 47.216801 -0.511979 2.374302 0.068718 -0.017254 238385.000000 0 0 1
27.772163 -14.998231 -33.442320 45.985093 -0.495168 2.385092 0.073320 -0.019686 326196.000000 0 0 1
28.473973 -13.825631 -33.190600 45.864269 -0.452024 2.379902 0.077115 -0.024984 -488896.000000 0 0 1
27.567663 -12.617531 -32.904900 44.742715 -0.429233 2.397090 0.077081 -0.022420 225788.000000 0 0 1
26.760763 -12.207631 -34.000670 44.957872 -0.427978 2.428402 0.076367 -0.021478 -224814.000000 0 0 1
25.771263 -11.330931 -33.569000 43.811252 -0.414233 2.443732 0.042523 -0.024708 -395356.000000 0 0 1
20.620767 -29.494924 9.160630 37.136016 -0.960655 1.321546 0.031438 -0.024240 -268665.000000 0 0 1
21.219267 -29.055524 7.972630 36.851643 -0.940022 1.352728 0.031690 -0.024743 -247950.000000 0 0 1
22.436467 -29.737524 7.820230 38.064043 -0.924432 1.363874 0.059258 -0.025382 -172950.000000 0 0 1
23.021267 -29.640924 6.383330 38.069804 -0.910443 1.402326 0.054940 -0.023711 -3177.200000 0 0 1
23.347567 -28.247924 6.130330 37.156898 -0.880091 1.405054 0.048307 -0.011675 -14106.200000 0 0 1
24.092067 -28.084824 4.962530 37.333788 -0.861773 1.437478 0.046641 -0.005178 -114646.000000 0 0 1
24.057067 -26.594124 4.505630 36.142642 -0.835445 1.445809 0.041932 -0.006877 -387768.000000 0 0 1
24.959167 -25.869024 5.255530 36.328873 -0.803297 1.425622 0.045303 -0.011692 -277247.000000 0 0 1
24.833867 -24.474724 5.033130 35.228759 -0.778115 1.427436 0.037592 -0.002047 -371469.000000 0 0 1
25.667067 -23.657024 5.975630 35.414139 -0.744669 1.401249 0.028914 -0.008139 402296.000000 0 0 1
27.037367 -23.452924 5.589530 36.225705 -0.714524 1.415880 0.027624 -0.006285 916909.000000 0 0 1
27.798967 -22.707024 6.562930 36.489225 -0.684919 1.389953 0.032524 -0.009568 320079.000000 0 0 1
27.533067 -21.204324 6.754530 35.402215 -0.656267 1.378825 0.020843 -0.005976 -307732.000000 0 0 1
27.822767 -20.475324 5.575230 34.991834 -0.634429 1.410785 0.022878 0.005264 97289.000000 0 0 1
27.446567 -19.129524 5.723930 33.941363 -0.608692 1.401345 0.033301 -0.001016 -240286.000000 0 0 1
27.450967 -18.348124 4.322630 33.300066 -0.589199 1.440621 0.038363 0.005275 213912.000000 0 0 1
28.743067 -17.904624 3.931030 34.090944 -0.557102 1.455229 0.048257 0.011019 278312.000000 0 0 1
28.852767 -17.230124 2.684330 33.712979 -0.538339 1.491089 0.056806 0.015202 293249.000000 0 0 1
30.121467 -16.343724 2.649130 34.372052 -0.497139 1.493648 0.070532 -0.000767 240397.000000 0 0 1
29.769367 -15.147024 3.289230 33.562875 -0.470673 1.472637 0.075349 -0.011403 422293.000000 0 0 1
30.855867 -14.303024 3.697230 34.210094 -0.434059 1.462511 0.080560 -0.017062 234585.000000 0 0 1
30.519267 -13.195224 4.692430 33.579138 -0.408086 1.430595 0.091338 -0.019687 -54498.300000 0 0 1
30.125367 -13.560924 5.954230 33.569171 -0.422978 1.392481 0.081639 -0.022117 -43395.400000 0 0 1
30.146367 -12.410224 6.728130 33.287908 -0.390522 1.367275 0.069954 -0.022994 -375240.000000 0 0 1
29.719967 -12.651224 8.175330 33.319152 -0.402447 1.322901 0.088055 -0.013287 200078.000000 0 0 1
28.357167 -13.083324 8.290830 32.311610 -0.432274 1.311304 0.071339 -0.007788 687581.000000 0 0 1
27.862967 -13.192424 9.654530 32.304720 -0.442204 1.267300 0.083515 -0.008938 130669.000000 0 0 1
28.216067 -14.430924 10.460330 33.373889 -0.472760 1.251995 0.083417 -0.020026 -672075.000000 0 0 1
29.486267 -14.382524 11.028930 34.611186 -0.453816 1.246489 0.068926 -0.014265 -419035.000000 0 0 1
29.860467 -15.577024 11.708730 35.656493 -0.480825 1.236213 0.077547 -0.023522 -5299.140000 0 0 1
30.643167 -15.295624 13.008630 36.635833 -0.462970 1.207797 0.089396 -0.022372 530764.000000 0 0 1
31.921167 -14.704424 12.747530 37.385565 -0.431673 1.222843 0.075341 -0.020376 696908.000000 0 0 1
32.778267 -14.904824 13.872130 38.587622 -0.426769 1.203068 0.067038 -0.021523 -119858.000000 0 0 1
34.279867 -14.855124 13.572730 39.749251 -0.408920 1.222328 0.075989 -0.021640 -462152.000000 0 0 1
34.693367 -13.518124 13.439830 39.585331 -0.371549 1.224395 0.072569 -0.025503 343946.000000 0 0 1
35.981467 -13.516024 12.828230 40.520518 -0.359330 1.248668 0.084908 -0.022291 68523.500000 0 0 1
-36.314729 -12.223424 13.014730 40.466712 0.324685 1.243361 0.089287 -0.031203 -449891.000000 0 0 1
-35.258729 -11.967524 12.114030 39.155451 0.327219 1.256252 0.093006 -0.032516 -491933.000000 0 0 1
-34.689029 -10.765124 12.460930 38.399107 0.300909 1.240302 0.105410 -0.041431 360236.000000 0 0 1
-33.271729 -10.539824 11.803030 36.843009 0.306779 1.244687 0.103491 -0.036503 1083450.000000 0 0 1
-32.233029 -11.469524 12.086130 36.284882 0.341860 1.231218 0.089316 -0.033111 461046.000000 0 0 1
-32.379729 -12.720124 11.478330 36.633324 0.374321 1.252098 0.069691 -0.029645 -677684.000000 0 0 1
-31.239629 -13.675424 11.911030 36.122074 0.412628 1.234764 0.044237 -0.022400 -854088.000000 0 0 1
-30.043229 -13.514024 11.265830 34.815849 0.422704 1.241282 0.050691 -0.023070 -1034050.000000 0 0 1
-29.248329 -14.662124 11.637030 34.725539 0.464685 1.229070 0.051283 -0.013287 -510566.000000 0 0 1
-27.862329 -14.551324 11.024530 33.310519 0.481295 1.233473 0.062273 -0.010816 -722303.000000 0 0 1
-27.832429 -14.615024 9.607930 32.871802 0.483531 1.274181 0.053212 -0.011179 -456762.000000 0 0 1
-26.512829 -14.699424 9.167530 31.670913 0.506236 1.277131 0.050940 -0.009788 -448875.000000 0 0 1
-26.355329 -14.523324 7.646430 31.048320 0.503655 1.321961 0.072463 -0.009685 25611.300000 0 0 1
-26.826629 -15.613424 6.845030 31.785240 0.527088 1.353744 0.063168 0.000549 141391.000000 0 0 1
-26.618929 -15.368624 5.449230 31.216279 0.523604 1.395334 0.066416 -0.001501 -722881.000000 0 0 1
-27.197729 -16.453024 4.544530 32.110297 0.544045 1.428791 0.060388 -0.001627 -390512.000000 0 0 1
-28.582929 -16.605224 4.654030 33.382290 0.526294 1.430925 0.040992 -0.006692 -388364.000000 0 0 1
-29.027029 -17.818524 3.958830 34.289073 0.550548 1.455084 0.040450 0.003228 8918.670000 0 0 1
-30.523929 -18.089224 4.205030 35.729715 0.534979 1.452833 0.052927 -0.009308 234234.000000 0 0 1
-31.353329 -17.137124 3.490830 35.901228 0.500214 1.473408 0.070796 -0.012256 -111528.000000 0 0 1
-32.682429 -17.228524 3.902130 37.150906 0.485131 1.465568 0.090262 -0.012967 -575584.000000 0 0 1
-33.704829 -16.420024 3.119030 37.621284 0.453332 1.487795 0.078063 -0.022901 -52854.800000 0 0 1
-33.744229 -16.750624 1.737430 37.713062 0.460763 1.524710 0.071920 -0.015917 -580390.000000 0 0 1
-34.618029 -15.944624 1.040430 38.127699 0.431623 1.543505 0.080684 -0.019753 -423170.000000 0 0 1
-35.128629 -16.567824 -0.291070 38.840676 0.440698 1.578290 0.069662 -0.016518 -557625.000000 0 0 1
-34.155629 -16.824924 -1.257870 38.095502 0.457707 1.603821 0.073036 -0.012102 -196916.000000 0 0 1
-34.647329 -17.669124 -2.254470 38.957900 0.471592 1.628698 0.063922 -0.008548 218947.000000 0 0 1
-33.525029 -18.235824 -3.187170 38.296617 0.498184 1.654116 0.054134 -0.009147 304637.000000 0 0 1
-33.996929 -19.263324 -4.005570 39.279911 0.515513 1.672949 0.060715 -0.018225 499186.000000 0 0 1
-32.928529 -19.846324 -4.732670 38.737098 0.542409 1.693276 0.055934 -0.014114 21982.400000 0 0 1
-33.539029 -20.877824 -5.671370 39.911332 0.556795 1.713378 0.066315 -0.016214 -41105.500000 0 0 1
-34.076529 -21.964324 -4.918170 40.839071 0.572541 1.691517 0.089777 -0.027358 83869.400000 0 0 1
-34.683129 -22.876324 -5.779570 41.948171 0.583081 1.709015 0.100217 -0.020211 -411150.000000 0 0 1
-35.095029 -24.237024 -5.058170 42.949732 0.604397 1.688840 0.101345 -0.030457 -179072.000000 0 0 1
-34.076329 -25.094224 -4.539170 42.561959 0.634748 1.677648 0.111583 -0.026025 142873.000000 0 0 1
-34.624829 -26.401424 -4.245370 43.748567 0.651453 1.667989 0.093221 -0.024622 757502.000000 0 0 1
-33.543229 -27.404424 -3.712170 43.473335 0.685014 1.656290 0.079599 -0.019972 -117902.000000 0 0 1
-32.520329 -27.702624 -4.648170 42.972231 0.705570 1.679175 0.073145 -0.021402 1080640.000000 0 0 1
-31.495329 -28.668624 -4.263070 42.802097 0.738449 1.670561 0.072154 -0.023545 1318900.000000 0 0 1
-30.553129 -28.200624 -3.107870 41.694457 0.745379 1.645405 0.066311 -0.021949 -486551.000000 0 0 1
-31.214229 -28.374524 -1.872870 42.224985 0.737779 1.615165 0.070034 -0.018586 198062.000000 0 0 1
-30.333329 -28.122724 -0.761470 41.371225 0.747600 1.589203 0.070115 -0.026137 293602.000000 0 0 1
-30.962929 -28.127124 0.671930 41.836462 0.737444 1.554735 0.067598 -0.021445 -87921.100000 0 0 1
-31.388229 -29.385924 1.082730 43.010763 0.752463 1.545620 0.059843 -0.008183 -75431.700000 0 0 1
-32.190229 -29.317724 2.238930 43.597621 0.738731 1.519419 0.065090 -0.003117 -288911.000000 0 0 1
-32.857029 -30.638924 2.572730 44.999411 0.750479 1.513593 0.047826 0.000095 44067.700000 0 0 1
-33.913929 -30.338924 3.538430 45.641268 0.729816 1.493191 0.039430 0.000582 1354120.000000 0 0 1
-34.724129 -31.402324 4.062930 46.993388 0.735206 1.484231 0.024251 0.014016 360818.000000 0 0 1
-35.494429 -32.273224 3.036130 48.069050 0.737901 1.507592 0.023553 0.015427 -666757.000000 0 0 1
-36.029129 -33.407224 3.702030 49.273175 0.747656 1.495593 0.020540 0.015258 365257.000000 0 0 1
36.055867 -34.034124 2.848730 49.663492 -0.756561 1.513404 0.017398 0.018123 -12284.400000 0 0 1
34.914467 33.471369 3.663330 48.505387 0.764299 1.495200 0.008111 0.010958 20419.700000 0 0 1
34.026667 -33.947324 4.497230 48.274838 -0.784231 1.477502 0.006473 0.008318 769181.000000 0 0 1
33.309867 -32.853424 3.887030 46.946818 -0.778500 1.487905 0.014216 0.008933 308763.000000 0 0 1
32.327967 -33.081724 2.666930 46.331527 -0.796921 1.513203 0.033670 0.001199 -156308.000000 0 0 1
32.891467 -33.675224 1.542530 47.098288 -0.797172 1.538039 0.032950 0.000474 -207477.000000 0 0 1
32.030167 -33.493524 0.397430 46.345503 -0.807728 1.562221 0.043233 0.002514 -452371.000000 0 0 1
32.665467 34.079669 -0.892270 47.214963 0.806583 1.589695 0.038752 -0.007293 910245.000000 0 0 1
33.707367 -33.298324 -1.492870 47.404574 -0.779294 1.602294 0.035840 -0.005416 554948.000000 0 0 1
34.919467 -33.242424 -0.728170 48.217820 -0.760799 1.585899 0.040371 0.000757 -683148.000000 0 0 1
36.105267 -33.072024 -1.683370 48.991661 -0.741579 1.605163 0.029247 0.001848 -550146.000000 0 0 1
36.423167 33.964669 -2.440170 49.861812 0.750484 1.619755 0.030915 -0.010570 42695.300000 0 0 1
-35.881229 -33.823424 -3.559670 49.438425 0.755885 1.642861 0.040301 -0.008018 -423514.000000 0 0 1
-35.247729 33.145669 -4.280870 48.573281 -0.754673 1.659043 0.035122 -0.014149 31441.900000 0 0 1
-34.010029 32.701369 -3.760670 47.330796 -0.765784 1.650335 0.046570 -0.008015 319885.000000 0 0 1
-33.407229 31.663869 -4.560870 46.254136 -0.758613 1.669561 0.059733 -0.021211 966546.000000 0 0 1
-32.033829 31.125769 -4.014070 44.845206 -0.771022 1.660426 0.068888 -0.025880 2798.630000 0 0 1
-30.957929 32.032669 -4.047070 44.731019 -0.802458 1.661396 0.063825 -0.021731 -831493.000000 0 0 1
-29.757429 31.414969 -3.743670 43.432936 -0.812488 1.657098 0.081963 -0.030889 -317273.000000 0 0 1
-29.467329 31.299469 -2.197770 43.044285 -0.815539 1.621877 0.074319 -0.028794 -403558.000000 0 0 1
-30.449829 30.464369 -1.606470 43.102791 -0.785637 1.608076 0.053564 -0.016062 -59291.100000 0 0 1
-30.306529 30.352569 -0.227470 42.893075 -0.786157 1.576100 0.049646 0.000836 309624.000000 0 0 1
-31.573129 29.729669 0.440230 43.369454 -0.755336 1.560645 0.046935 -0.007501 363986.000000 0 0 1
-31.824829 28.358969 0.135630 42.627095 -0.727874 1.567615 0.049149 -0.018927 76131.400000 0 0 1
-32.955829 28.162369 -0.693570 43.355354 -0.707129 1.586794 0.048281 -0.013700 55781.600000 0 0 1
-33.102429 26.757969 -1.116870 42.579421 -0.679805 1.597030 0.043560 -0.014696 -80635.300000 0 0 1
-33.430429 25.875569 -0.081070 42.274641 -0.658693 1.572714 0.046155 -0.012380 -113192.000000 0 0 1
-33.669529 24.614169 -0.714770 41.713372 -0.631264 1.587932 0.059287 -0.006812 -111481.000000 0 0 1
-33.709229 23.447769 0.261130 41.063100 -0.607759 1.564437 0.085843 -0.015276 190309.000000 0 0 1
-32.435629 23.093869 0.778830 39.824658 -0.618728 1.551239 0.084421 -0.021832 105451.000000 0 0 1
-32.213829 23.653669 2.066930 40.018734 -0.633358 1.519124 0.073072 -0.022841 -49214.400000 0 0 1
-30.735829 23.577869 2.559230 38.822117 -0.654364 1.504827 0.062441 -0.030080 1118870.000000 0 0 1
-29.763429 24.407569 1.868030 38.536744 -0.686849 1.522303 0.072992 -0.031596 604814.000000 0 0 1
-29.645129 25.722869 2.264530 39.314473 -0.714676 1.513164 0.047435 -0.029550 107865.000000 0 0 1
-28.937529 26.685069 1.186730 39.381237 -0.744925 1.540657 0.045794 -0.029769 607385.000000 0 0 1
-27.540729 26.518169 1.054130 38.246781 -0.766485 1.543232 0.050773 -0.029385 -282298.000000 0 0 1
-27.000129 27.413169 0.124630 38.477322 -0.792989 1.567557 0.052799 -0.027640 -38432.500000 0 0 1
-25.950529 26.780169 -0.814970 37.299753 -0.801130 1.592647 0.054173 -0.031293 -504652.000000 0 0 1
-26.390629 25.799069 -1.801770 36.950016 -0.774064 1.619578 0.052944 -0.033876 -831527.000000 0 0 1
-25.376429 25.224669 -2.536670 35.870347 -0.782399 1.641573 0.050392 -0.024166 -616653.000000 0 0 1
-24.396329 24.260269 -1.874970 34.456597 -0.782602 1.625239 0.046877 -0.028562 -275800.000000 0 0 1
-24.892829 23.059269 -1.366970 33.959556 -0.747179 1.611060 0.016041 -0.023056 -289926.000000 0 0 1
-23.817029 22.229569 -0.946270 32.592945 -0.750937 1.599833 0.028421 -0.034421 -702431.000000 0 0 1
-24.174329 20.774369 -0.593170 31.879844 -0.709901 1.589404 0.031148 -0.031115 -1186850.000000 0 0 1
-24.880429 20.618469 0.595530 32.318906 -0.691999 1.552369 0.020077 -0.025649 601809.000000 0 0 1
-26.237429 21.069769 0.637930 33.656274 -0.676593 1.551841 0.015916 -0.021358 -71218.900000 0 0 1
-27.241129 20.642869 -0.403370 34.181426 -0.648464 1.582597 0.021930 -0.025495 -1601620.000000 0 0 1
-27.507329 19.252669 -0.468170 33.578827 -0.610666 1.584739 0.037609 -0.024133 325840.000000 0 0 1
-28.420529 18.857069 -1.485770 34.139757 -0.585808 1.614330 0.061994 -0.022105 -9121.150000 0 0 1
-28.737429 17.391469 -1.520770 33.624630 -0.544223 1.616040 0.057473 -0.013051 404954.000000 0 0 1
-29.702129 16.990969 -0.518370 34.222481 -0.519611 1.585944 0.072651 -0.013470 743363.000000 0 0 1
-29.974129 15.561169 -0.473970 33.776072 -0.478853 1.584830 0.081981 -0.022648 204216.000000 0 0 1
-28.882429 14.580369 0.089130 32.354131 -0.467495 1.568042 0.091432 -0.016661 14224.600000 0 0 1
-28.806829 14.583269 1.530530 32.324103 -0.468630 1.523429 0.093040 -0.016840 483353.000000 0 0 1
-27.626629 14.027069 2.112330 31.055615 -0.469818 1.502726 0.097873 -0.015195 75191.400000 0 0 1
-27.239329 12.507569 2.003530 30.040547 -0.430456 1.504053 0.115065 -0.011869 -101447.000000 0 0 1
-27.068729 12.090669 0.654830 29.653485 -0.420078 1.548712 0.109898 -0.013312 337552.000000 0 0 1
-26.609529 10.773369 0.605730 28.714098 -0.384697 1.549700 0.141881 -0.011338 -171934.000000 0 0 1
-26.589429 10.105169 -0.807570 28.456359 -0.363186 1.599179 0.144810 -0.010413 558949.000000 0 0 1
-27.898729 9.905869 -1.360370 29.636395 -0.341180 1.616714 0.136174 -0.021007 687432.000000 0 0 1
-27.885129 8.944169 -2.447470 29.386539 -0.310384 1.654178 0.149930 -0.023151 160062.000000 0 0 1
-29.265329 8.725169 -3.121470 30.697421 -0.289750 1.672657 0.150420 -0.024238 189445.000000 0 0 1
-29.247429 7.808369 -4.131470 30.552443 -0.260891 1.706437 0.168868 -0.017504 -350255.000000 0 0 1
-30.529729 7.673269 -4.644870 31.820092 -0.246237 1.717293 0.133997 -0.023507 -753281.000000 0 0 1
-11.229833 18.140169 -19.577170 28.955837 -1.016481 2.313259 0.076712 -0.020844 287.329000 0 0 1
-11.748033 17.414369 -20.626770 29.440452 -0.977310 2.347072 0.066437 -0.017914 173286.000000 0 0 1
-10.835933 17.389769 -21.753970 29.884055 -1.013549 2.386117 0.065359 -0.022518 551186.000000 0 0 1
-10.924733 16.094769 -22.641170 29.849857 -0.974458 2.431807 0.058166 -0.019804 166169.000000 0 0 1
-10.272733 14.931169 -22.139370 28.611546 -0.968166 2.455601 0.057341 -0.021003 -80651.600000 0 0 1
-10.153133 13.985169 -23.229770 28.953295 -0.942838 2.501966 0.040941 -0.017435 -334731.000000 0 0 1
-9.445733 12.698569 -22.902770 27.839045 -0.931248 2.536915 0.022166 -0.011861 1357830.000000 0 0 1
-7.987833 12.790269 -22.920570 27.436272 -1.012539 2.559677 0.019591 -0.014058 1547230.000000 0 0 1
-7.437333 11.514269 -22.527970 26.370471 -0.997292 2.594975 0.009829 -0.007429 970047.000000 0 0 1
-5.877733 11.467669 -22.399970 25.842095 -1.097161 2.619548 0.007399 -0.005019 432168.000000 0 0 1
-5.158333 11.257269 -23.548170 26.605466 -1.141126 2.657479 -0.000097 -0.011566 -1029220.000000 0 0 1
-3.837533 10.928469 -23.249270 25.974731 -1.233097 2.679390 0.009371 -0.014865 -780381.000000 0 0 1
-3.074933 10.534269 -24.495770 26.841550 -1.286789 2.720411 0.030640 -0.016692 -447888.000000 0 0 1
-3.346533 9.283269 -25.112960 26.982201 -1.224806 2.767182 0.022340 -0.017348 -106258.000000 0 0 1
-2.719833 9.341869 -26.383200 28.120122 -1.287484 2.788281 0.021092 -0.012017 32464.600000 0 0 1
-2.562333 7.930369 -27.071270 28.325077 -1.258280 2.842944 0.025337 0.005177 401630.000000 0 0 1
-1.443333 7.167469 -26.567600 27.555276 -1.372081 2.873042 0.028963 -0.008467 667333.000000 0 0 1
-1.734733 6.138669 -25.612660 26.395093 -1.295387 2.897500 0.039527 -0.013721 401844.000000 0 0 1
-0.375333 5.697669 -24.979970 25.624270 -1.505017 2.916870 -0.020266 -0.010497 670011.000000 0 0 1
0.107367 6.435169 -23.866070 24.718662 1.554113 2.878184 -0.000854 -0.007145 156303.000000 0 1 0
1.130967 5.710969 -23.206970 23.926089 1.375292 2.895798 0.001212 -0.002872 19126.400000 0 1 0
1.641467 6.266869 -21.846270 22.786566 1.314623 2.853314 0.020620 -0.003743 158853.000000 0 1 0
2.568067 7.323569 -21.912870 23.246581 1.233536 2.801212 0.025846 -0.002530 -41117.400000 0 1 0
2.693267 7.972269 -20.635070 22.284903 1.245005 2.754383 0.039489 -0.006582 44418.500000 0 1 0
3.066767 9.422569 -20.631470 22.887714 1.256139 2.693837 0.031955 -0.011137 -292535.000000 0 1 0
2.731067 10.122669 -19.482770 22.124771 1.307274 2.647894 0.032496 -0.019187 -17100.500000 0 1 0
3.349767 11.405369 -19.409470 22.760293 1.285129 2.592077 0.045395 -0.016298 587573.000000 0 1 0
4.709867 11.501369 -18.662370 22.422052 1.182123 2.554080 0.047393 -0.020740 404502.000000 0 1 0
5.797967 10.797569 -19.220070 22.795066 1.078012 2.573945 0.056520 -0.015867 -436620.000000 0 1 0
6.801967 10.616669 -18.251470 22.183250 1.000996 2.537045 0.057120 -0.012406 115491.000000 0 1 0
7.828067 9.532469 -18.763670 22.454886 0.883261 2.560050 0.076868 -0.014989 264707.000000 0 1 0
7.386567 8.172369 -18.953270 21.922031 0.835860 2.615103 0.062506 -0.016354 67299.500000 0 1 0
6.815067 7.904269 -20.264770 22.794375 0.859262 2.666008 0.052758 -0.009737 202107.000000 0 1 0
6.515867 6.402769 -20.426070 22.375798 0.776644 2.721042 0.057134 -0.008858 221352.000000 0 1 0
7.694267 5.605269 -20.518970 22.619658 0.629598 2.707210 0.058650 -0.002449 293369.000000 0 1 0
7.469767 4.254869 -20.914970 22.612769 0.517776 2.751618 0.049449 -0.002893 -289337.000000 0 1 0
7.329567 4.082769 -22.430570 23.948320 0.508222 2.783662 0.061691 -0.010637 3773.210000 0 1 0
6.251267 4.800369 -23.019870 24.331796 0.654861 2.811715 0.061598 -0.014472 71177.700000 0 1 0
6.119467 4.404269 -24.363370 25.503319 0.623835 2.841476 0.069495 -0.015594 -426863.000000 0 0 1
5.011367 5.120769 -25.131890 26.133274 0.796195 2.863868 0.050905 -0.018481 -437694.000000 0 0 1
5.152267 6.509269 -25.480000 26.798262 0.901243 2.826630 0.069114 -0.020480 108157.000000 0 0 1
5.011867 7.403069 -24.369070 25.957192 0.975675 2.789977 0.067083 -0.016947 -902995.000000 0 0 1
4.823767 8.878769 -24.849870 26.825684 1.073118 2.755390 0.073202 -0.024229 832994.000000 0 0 1
3.633767 9.257869 -25.583140 27.448306 1.196767 2.770821 0.079319 -0.022135 961546.000000 0 0 1
2.468967 9.179669 -24.763370 26.525208 1.308054 2.775069 0.050376 -0.007076 143701.000000 0 0 1
1.216967 9.831069 -25.443700 27.304081 1.447635 2.770315 0.041174 -0.003238 358566.000000 0 0 1
1.257267 11.266069 -25.483250 27.890878 1.459659 2.723037 0.064507 -0.025009 327009.000000 0 0 1
0.144167 11.688269 -26.250550 28.735480 1.558463 2.722661 0.068763 -0.027831 11310.300000 0 0 1
0.242167 13.249469 -26.428890 29.565069 1.552521 2.676819 0.068362 -0.035203 -170322.000000 0 0 1
-0.056333 13.908369 -25.194290 28.778432 -1.566746 2.637178 0.060207 -0.036650 -31921.800000 0 0 1
-0.052633 15.293369 -25.393930 29.643576 -1.567355 2.599521 0.060703 -0.046609 -219681.000000 0 0 1
-0.882433 15.948469 -24.245270 29.033868 -1.515522 2.559054 0.064821 -0.031000 -889609.000000 0 0 1
-2.188533 15.531769 -24.182570 28.823987 -1.430811 2.566191 0.065624 -0.027530 -1441600.000000 0 0 1
-2.688133 15.769269 -22.912770 27.944426 -1.401953 2.532104 0.060118 -0.037219 -196656.000000 0 0 1
-3.883033 14.825969 -22.556170 27.270279 -1.314642 2.544785 0.055510 -0.034769 1476580.000000 0 0 1
-5.174433 15.230869 -23.067170 28.122028 -1.243297 2.532649 0.055539 -0.030776 645081.000000 0 0 1
-5.380933 14.989369 -24.439570 29.170674 -1.226141 2.564061 0.056297 -0.028118 -1339450.000000 0 0 1
-6.827033 15.032169 -24.867670 29.849213 -1.144487 2.555503 0.040071 -0.026155 -750545.000000 0 0 1
-7.338233 16.394269 -24.943070 30.737249 -1.149932 2.517499 0.052934 -0.031283 289360.000000 0 0 1
-8.601433 16.416069 -25.590150 31.596325 -1.088162 2.514793 0.056000 -0.025833 -33828.400000 0 0 1
-9.146833 17.776669 -25.977100 32.779327 -1.095583 2.485668 0.067332 -0.032461 -141196.000000 0 0 1
-9.516733 18.563069 -24.867670 32.458539 -1.097064 2.443604 0.065876 -0.033950 -67657.400000 0 0 1
-10.565033 19.449869 -25.152010 33.504342 -1.073194 2.419931 0.070944 -0.027254 -47938.800000 0 0 1
-11.135433 20.331869 -24.076870 33.422724 -1.069733 2.375138 0.057101 -0.021645 183980.000000 0 0 1
-10.365633 21.500169 -23.728070 33.655979 -1.121556 2.353245 0.067781 -0.017218 432824.000000 0 0 1
-10.911333 22.716169 -24.274070 34.990170 -1.123005 2.337465 0.063340 -0.025047 -146856.000000 0 0 1
-10.560633 23.042669 -25.699800 36.096694 -1.141055 2.363097 0.050343 -0.017984 -200064.000000 0 0 1
-11.306333 22.324369 -26.665590 36.568625 -1.101996 2.387938 0.052391 -0.017768 23115.400000 0 0 1
-11.049833 22.812769 -28.013100 37.779029 -1.119730 2.406098 0.049318 -0.011302 148953.000000 0 0 1
-11.727833 21.998269 -29.194370 38.389806 -1.081001 2.434836 0.041360 -0.016133 94974.600000 0 0 1
-11.005133 20.897769 -29.671830 37.924230 -1.086082 2.469303 0.053431 -0.023819 -270179.000000 0 0 1
-10.902733 19.758869 -28.836610 36.617381 -1.066580 2.477557 0.065575 -0.026066 -55769.200000 0 0 1
-9.825633 18.766169 -29.374830 36.215920 -1.088461 2.516831 0.067732 -0.028004 -213171.000000 0 0 1
-8.542833 19.353569 -29.126810 35.998774 -1.155110 2.513425 0.060399 -0.027808 250463.000000 0 0 1
-7.462633 18.626169 -29.692760 35.836924 -1.189727 2.547313 0.062258 -0.028126 348815.000000 0 0 1
-7.079733 17.280669 -28.989070 34.483479 -1.181964 2.569307 0.071459 -0.042104 -239759.000000 0 0 1
-8.156733 16.338169 -29.139690 34.388801 -1.107754 2.581790 0.060654 -0.037572 613098.000000 0 0 1
-7.833533 15.069469 -28.640060 33.297240 -1.091412 2.606327 0.042678 -0.024040 83477.600000 0 0 1
-9.158933 14.282169 -28.576450 33.233717 -1.000572 2.605798 0.047937 -0.016921 445889.000000 0 0 1
-10.023433 14.569669 -27.472850 32.672649 -0.968193 2.569651 0.061094 -0.022652 -251496.000000 0 0 1
-11.223133 13.858469 -27.516200 32.789589 -0.890085 2.566561 0.071978 -0.026569 245496.000000 0 0 1
-12.293833 14.263369 -26.446560 32.465406 -0.859425 2.522848 0.074737 -0.021740 504712.000000 0 0 1
-12.913733 15.510469 -26.680420 33.454207 -0.876502 2.493971 0.078047 -0.025574 -115538.000000 0 0 1
-13.841033 15.885369 -25.673080 33.211838 -0.854062 2.454368 0.067570 -0.026879 94149.900000 0 0 1
-14.812233 16.995869 -26.040230 34.443510 -0.853941 2.428018 0.047076 -0.024738 -151424.000000 0 0 1
-14.169033 18.221569 -26.238180 34.946090 -0.909866 2.420097 0.053102 -0.025480 404943.000000 0 0 1
-15.173933 19.220469 -26.474850 36.063727 -0.902511 2.395156 0.034871 -0.021697 347893.000000 0 0 1
-14.565833 20.635869 -26.666040 36.729828 -0.956155 2.383291 0.035058 -0.019645 -594380.000000 0 0 1
-15.506033 21.642869 -26.658560 37.676646 -0.949115 2.356838 0.011287 -0.014950 -550888.000000 0 0 1
-15.026433 22.986269 -26.669530 38.280884 -0.991815 2.341556 0.019324 -0.010861 -305378.000000 0 0 1
-14.367333 23.643469 -25.506400 37.629913 -1.024759 2.315593 0.011100 -0.015112 -317566.000000 0 0 1
-14.008033 24.957169 -25.820980 38.546184 -1.059332 2.304832 0.021456 -0.017931 -322341.000000 0 0 1
-13.448433 25.596769 -24.722570 38.042876 -1.087039 2.278197 0.044507 -0.031573 -193194.000000 0 0 1
-13.305333 27.112569 -24.925570 39.158746 -1.114581 2.260782 0.057649 -0.029343 351470.000000 0 0 1
-14.508733 27.805369 -25.241260 40.258702 -1.089864 2.248462 0.070220 -0.031077 -223866.000000 0 0 1
-15.018533 28.540669 -24.188570 40.313931 -1.086397 2.214304 0.071336 -0.036788 -250949.000000 0 0 1
-16.367233 29.161869 -24.600370 41.514806 -1.059353 2.205040 0.057555 -0.030403 -23619.700000 0 0 1
-17.449533 28.271369 -24.550370 41.309529 -1.017814 2.207195 0.045463 -0.032567 -310528.000000 0 0 1
-18.585433 28.802869 -25.223260 42.558624 -0.997758 2.205167 0.035593 -0.027598 564742.000000 0 0 1
-19.842633 27.890069 -25.193100 42.500334 -0.952421 2.205295 0.043303 -0.012276 157399.000000 0 0 1
-20.291433 27.631469 -23.912470 41.797686 -0.937380 2.179861 0.055655 -0.020638 -401372.000000 0 0 1
-21.312933 26.663969 -23.871770 41.654169 -0.896473 2.181073 0.059753 -0.030291 -246664.000000 0 0 1
-22.021033 26.583969 -22.504270 41.207712 -0.879002 2.148519 0.044698 -0.018005 -35074.200000 0 0 1
-22.991133 27.610769 -22.316270 42.296131 -0.876440 2.126592 0.039895 -0.011407 -137234.000000 0 0 1
-23.496533 27.533069 -21.012970 41.853338 -0.864336 2.096778 0.015909 0.000043 -980774.000000 0 0 1
-24.697033 28.424969 -20.834270 43.034743 -0.855460 2.076161 0.007689 0.008983 -1753750.000000 0 0 1
-25.869753 27.717369 -20.863570 43.275689 -0.819863 2.073856 0.007468 0.011481 -1509490.000000 0 0 1
-26.897093 28.653169 -21.033870 44.574448 -0.817000 2.062220 0.026510 0.004249 427425.000000 0 0 1
-28.263583 28.034169 -21.507970 45.247514 -0.781323 2.066147 0.026566 0.002040 667016.000000 0 0 1
-28.188233 27.510269 -22.794370 45.507963 -0.773227 2.095420 0.026920 0.008773 78089.500000 0 0 1
-29.493183 27.103269 -23.165670 46.271842 -0.743196 2.095138 0.029547 0.006268 294909.000000 0 0 1
-29.597223 26.640269 -24.629570 46.822167 -0.732867 2.124715 0.028788 0.015758 72070.100000 0 0 1
-29.359403 25.256669 -24.855070 46.017914 -0.710419 2.141373 0.037389 0.032345 -68319.400000 0 0 1
-29.457983 25.048069 -26.258550 46.740668 -0.704667 2.167347 0.044801 0.027520 48208.600000 0 0 1
-29.651703 23.613069 -26.661200 46.342423 -0.672510 2.183778 0.045443 0.026089 534410.000000 0 0 1
-28.510333 22.807669 -26.308670 45.001944 -0.674728 2.195198 0.060510 0.007856 642385.000000 0 0 1
-28.713473 21.510869 -26.814110 44.790373 -0.642961 2.212621 0.062796 0.003619 -294274.000000 0 0 1
-27.545353 20.508269 -26.829000 43.579018 -0.639989 2.233995 0.067571 0.006354 -222831.000000 0 0 1
-27.454253 19.870369 -25.584730 42.463467 -0.626497 2.217441 0.059646 0.010989 718700.000000 0 0 1
-26.626673 18.692569 -25.769300 41.502394 -0.612083 2.240701 0.045976 -0.000758 432479.000000 0 0 1
-27.432623 17.353069 -25.596270 41.338201 -0.564025 2.238509 0.042076 0.007261 326057.000000 0 0 1
-28.302803 17.150269 -26.699010 42.520790 -0.544788 2.249655 0.035048 0.002504 192663.000000 0 0 1
-29.276303 16.181369 -26.384530 42.603780 -0.504923 2.238647 0.013376 -0.003715 162746.000000 0 0 1
-30.164553 15.744369 -27.612230 43.820323 -0.481053 2.252509 -0.000757 -0.004907 -174428.000000 0 0 1
-31.216313 16.591369 -27.948830 45.065162 -0.488526 2.239777 -0.002742 -0.004341 -238110.000000 0 0 1
-31.909153 16.006869 -29.056480 46.029262 -0.464958 2.253974 0.006619 -0.004957 144430.000000 0 0 1
-33.197953 16.643569 -29.619780 47.502041 -0.464722 2.244069 0.016152 -0.003295 407824.000000 0 0 1
-34.342398 16.251769 -28.871930 47.719060 -0.442001 2.220612 0.000458 0.003786 1079760.000000 0 0 1
-35.565995 16.917969 -29.281440 49.077087 -0.444002 2.210106 0.013041 0.005420 1603340.000000 0 0 1
36.212763 16.380769 -28.562680 48.944055 0.424805 2.193924 0.041748 0.001668 492311.000000 0 0 1
35.916703 17.132169 -27.403660 48.316471 0.445077 2.173862 0.035250 -0.006585 -45884.600000 0 0 1
34.976243 16.455369 -26.587470 46.914926 0.439748 2.173312 0.049563 -0.002077 -17285.900000 0 0 1
34.477623 17.509469 -25.548880 46.346880 0.469908 2.154662 0.052282 0.004953 -241692.000000 0 0 1
33.677513 18.468169 -26.168500 46.476215 0.501601 2.168870 0.055577 -0.013095 -66251.100000 0 0 1
33.366973 19.558969 -25.283370 46.207759 0.530194 2.149772 0.051646 -0.006008 -760885.000000 0 0 1
32.992083 20.890969 -26.043390 46.937920 0.564482 2.158976 0.049499 -0.013235 120120.000000 0 0 1
31.689453 20.989569 -26.566440 46.374122 0.585010 2.180802 0.053548 -0.013782 -44397.700000 0 0 1
30.693323 21.171569 -25.565940 45.209874 0.603832 2.171829 0.059333 -0.011951 -416868.000000 0 0 1
29.254413 21.172869 -26.112950 44.564529 0.626488 2.196858 0.044917 -0.013865 -5072.830000 0 0 1
28.761113 19.878469 -26.356040 43.783513 0.604767 2.216753 0.059589 -0.026262 -706351.000000 0 0 1
27.531063 19.911969 -27.001030 43.399327 0.626163 2.242286 0.072014 -0.025149 -709186.000000 0 0 1
26.893663 18.518069 -27.189220 42.490489 0.603011 2.265151 0.092813 -0.019306 -575794.000000 0 0 1
27.594063 17.633269 -28.043920 43.114104 0.568621 2.278984 0.090487 -0.026301 123753.000000 0 0 1
28.632853 16.981169 -27.309750 43.058365 0.535305 2.257834 0.085328 -0.016206 -56721.800000 0 0 1
29.127223 15.793669 -28.166090 43.487512 0.496859 2.275335 0.087447 -0.015376 -204640.000000 0 0 1
28.273583 14.675069 -28.332330 42.631844 0.478762 2.297730 0.106850 -0.021018 164256.000000 0 0 1
27.762063 13.945769 -27.191710 41.286871 0.465511 2.289759 0.127941 -0.026381 16760.300000 0 0 1
28.682253 12.806069 -26.639290 41.186391 0.419923 2.274175 0.114273 -0.026889 -4563.250000 0 0 1
29.757823 13.380169 -25.947110 41.687042 0.422551 2.242635 0.101973 -0.020709 -842718.000000 0 0 1
30.529253 12.486569 -25.275140 41.554571 0.388244 2.224637 0.093777 -0.020410 -406160.000000 0 0 1
-14.754333 -31.194524 -23.681770 41.852299 1.128999 2.172250 0.083738 -0.014297 23052.400000 0 0 1
-14.162733 -30.049524 -24.231770 41.118555 1.130360 2.201007 0.069797 -0.025093 39637.400000 0 0 1
-14.483933 -29.957224 -25.590870 41.977521 1.120446 2.226394 0.053221 -0.017787 -186594.000000 0 0 1
-13.678933 -28.874024 -26.306970 41.386944 1.128372 2.259626 0.053247 -0.015455 -369012.000000 0 0 1
-14.083433 -27.545724 -26.054090 40.446577 1.098170 2.270722 0.055732 -0.004377 -89565.300000 0 0 1
-13.382833 -26.520124 -26.723010 39.956682 1.103452 2.303389 0.044941 -0.001387 -94143.400000 0 0 1
-13.968033 -25.160724 -26.183420 38.906805 1.064006 2.309024 0.016682 -0.000548 189316.000000 0 0 1
-13.402333 -24.758924 -24.919870 37.598228 1.074647 2.295340 0.018742 -0.011057 -25563.200000 0 0 1
-13.991033 -23.588224 -24.436170 36.732543 1.035439 2.298619 0.009442 -0.006726 -426026.000000 0 0 1
-13.620033 -23.153224 -23.049870 35.395955 1.039057 2.279962 0.010220 0.001902 398242.000000 0 0 1
-12.253333 -22.748724 -22.959270 34.565542 1.076718 2.297252 0.018303 -0.004457 341018.000000 0 0 1
-11.885133 -22.023024 -21.790670 33.182876 1.075920 2.287210 0.018113 0.000691 823503.000000 0 0 1
-10.357533 -21.669024 -21.745570 32.398996 1.124913 2.306596 0.034968 -0.001673 755822.000000 0 0 1
-9.970133 -20.786824 -22.768070 32.401862 1.123571 2.349950 0.042341 -0.009032 1302850.000000 0 0 1
-8.519533 -20.684424 -22.868170 31.990327 1.180089 2.367201 0.074585 -0.011476 1542660.000000 0 0 1
-8.100033 -19.465124 -23.641370 31.676742 1.176462 2.413330 0.089561 -0.006936 -179980.000000 0 0 1
-8.543233 -18.323324 -22.901270 30.548310 1.134512 2.418366 0.062722 -0.002876 56463.500000 0 0 1
-8.746533 -17.169124 -23.652570 30.507782 1.099630 2.457980 0.065746 -0.007257 730439.000000 0 0 1
-7.455733 -16.559324 -24.361770 30.385770 1.147740 2.501013 0.096116 -0.022045 991063.000000 0 0 1
-7.155033 -17.294824 -25.537960 31.662168 1.178528 2.509134 0.076397 -0.027263 303107.000000 0 0 1
-6.070133 -16.758424 -26.305290 31.775141 1.223282 2.546074 0.084107 -0.033818 251421.000000 0 0 1
-5.852833 -17.485224 -27.672840 33.253192 1.247789 2.553835 0.082153 -0.027764 -644296.000000 0 0 1
-6.869233 -17.170624 -28.542060 34.009791 1.190241 2.566663 0.095273 -0.031010 -493481.000000 0 0 1
-6.715033 -17.950124 -29.698170 35.345154 1.212820 2.568509 0.103252 -0.040183 -77203.900000 0 0 1
-7.544033 -17.418424 -30.867080 36.236592 1.162079 2.590248 0.110396 -0.036107 68310.400000 0 0 1
-7.061733 -16.268624 -31.605890 36.241806 1.161268 2.630241 0.097644 -0.034325 -117485.000000 0 0 1
-6.875533 -15.064324 -30.985710 35.132906 1.142623 2.650795 0.085398 -0.032199 -16086.300000 0 0 1
-7.388833 -13.921424 -31.872270 35.556188 1.082850 2.682357 0.086077 -0.031550 58433.900000 0 0 1
-6.655233 -13.782124 -33.071570 36.441293 1.120931 2.708162 0.094605 -0.036988 162805.000000 0 0 1
-7.417433 -13.043124 -34.021800 37.183656 1.053721 2.726221 0.097918 -0.031223 -286454.000000 0 0 1
-7.617433 -11.511724 -33.709570 36.426367 0.986233 2.752930 0.075112 -0.030804 -374258.000000 0 0 1
-6.523833 -10.655124 -33.705090 35.946143 1.021402 2.786618 0.061248 -0.026447 -422977.000000 0 0 1
-5.848233 -10.609424 33.271456 35.408353 1.067009 0.349191 0.064219 -0.028411 -66548.400000 0 0 1
-4.828833 -9.472024 33.151716 34.814841 1.099340 0.310341 0.052567 -0.021123 -137507.000000 0 0 1
-4.704533 -9.086724 31.851002 33.454260 1.093060 0.310843 0.052320 -0.017881 -453496.000000 0 0 1
-3.619933 -8.210324 31.851172 33.090943 1.155536 0.274597 0.044525 -0.029381 -1221250.000000 0 0 1
-3.659833 -7.168524 30.753892 31.789684 1.098751 0.255973 0.040981 -0.023957 727725.000000 0 0 1
-4.791233 -6.274824 30.804872 31.800464 0.918670 0.250887 0.038551 -0.019448 563730.000000 0 0 1
-5.995533 -6.881424 30.371902 31.713607 0.854087 0.291920 0.035879 -0.017088 171074.000000 0 0 1
-7.255833 -5.933724 30.462172 31.871620 0.685493 0.298505 0.017606 -0.006935 1335660.000000 0 0 1
-8.424133 -6.500524 29.849002 31.688890 0.657217 0.342437 0.020163 -0.002769 -21515.700000 0 0 1
-9.561933 -5.694024 30.068362 32.061798 0.537096 0.354485 0.017027 -0.003233 -133922.000000 0 0 1
-10.684533 -6.158824 29.120492 31.624254 0.522904 0.400598 0.037493 -0.005947 -230168.000000 0 0 1
-10.423033 -5.809024 27.762142 30.217891 0.508450 0.405939 0.027286 -0.004173 248869.000000 0 0 1
-11.304533 -6.568124 26.980452 29.981286 0.526344 0.451234 0.039511 -0.014326 29945.300000 0 0 1
-10.959233 -6.270324 25.506342 28.460416 0.519690 0.459658 0.020412 -0.014452 -81228.000000 0 0 1
-9.814733 -6.926224 25.014882 27.749701 0.614539 0.447696 0.023487 -0.012662 -89853.500000 0 0 1
-9.498133 -6.350424 23.726022 26.333753 0.589338 0.448788 0.021709 -0.013041 -409130.000000 0 0 1
-10.282833 -6.736824 22.448732 25.594277 0.579989 0.501006 0.016376 -0.012168 446156.000000 0 0 1
-11.575533 -6.126424 22.463332 26.002449 0.486778 0.527848 0.010358 -0.005129 323418.000000 0 0 1
-12.346933 -6.357624 21.288132 25.417528 0.475508 0.578036 0.015471 -0.005649 358751.000000 0 0 1
-13.410433 -5.212824 21.169132 25.595809 0.370739 0.596949 0.023117 -0.002597 337413.000000 0 0 1
-12.899033 -3.904724 20.848532 24.825254 0.293945 0.573861 0.008927 0.002319 -449778.000000 0 1 0
-13.964333 -3.022424 20.858632 25.282804 0.213151 0.600572 0.016564 0.001433 -285504.000000 0 0 1
-13.672333 -1.660424 20.223832 24.468206 0.120852 0.597872 0.007831 -0.001931 -171663.000000 0 1 0
-12.876733 -0.847424 21.064632 24.703180 0.065716 0.549646 0.010272 -0.003536 14863.900000 0 1 0
-13.038233 0.567576 20.930632 24.665949 -0.043504 0.557531 0.017621 -0.006310 -302091.000000 0 1 0
-12.497133 1.126576 19.540232 23.222149 -0.089904 0.570839 0.021760 -0.015179 301363.000000 0 1 0
-13.280833 0.844576 18.350932 22.668272 -0.063508 0.627424 0.028641 -0.012444 772152.000000 0 1 0
-14.561833 1.483576 18.390332 23.504304 -0.101531 0.672247 0.023450 -0.007964 -31591.000000 0 1 0
-15.581233 0.801576 17.502532 23.446876 -0.051400 0.728046 0.039456 -0.008122 -561043.000000 0 1 0
-15.791933 -0.542424 17.882032 23.863077 0.034335 0.723702 0.026554 -0.011493 696471.000000 0 1 0
-16.878233 -1.182424 17.186932 24.117701 0.069942 0.777560 0.032274 -0.005502 512105.000000 0 1 0
-16.917433 -2.683424 17.331232 24.367436 0.157308 0.779528 0.030442 -0.000827 -80654.600000 0 1 0
-17.294533 -3.102424 18.622732 25.603361 0.177500 0.756336 0.032557 0.003581 19929.200000 0 0 1
-17.331233 -4.483324 18.691032 25.881007 0.253136 0.763832 0.041660 0.004967 -357361.000000 0 0 1
-17.855033 -5.016624 19.997132 27.273687 0.273903 0.747777 0.036340 0.006900 -475105.000000 0 0 1
-17.160633 -4.619224 21.150932 27.625830 0.262943 0.698789 0.037525 0.000098 -161382.000000 0 0 1
-17.915833 -4.539224 22.341032 28.994885 0.248142 0.691146 0.034476 -0.005286 -498622.000000 0 0 1
-18.341933 -5.964824 22.956232 29.983233 0.314414 0.698767 0.054803 -0.010167 165176.000000 0 0 1
-17.337233 -6.663424 23.652122 30.073306 0.366936 0.665704 0.041049 -0.016110 205710.000000 0 0 1
-16.222333 -7.068224 22.852632 28.902711 0.410907 0.658887 0.045685 -0.009909 -17166.200000 0 0 1
-15.142333 -7.656924 23.812202 29.239352 0.468168 0.619121 0.048398 -0.010288 -228550.000000 0 0 1
-15.542733 -8.814624 24.434512 30.270770 0.515894 0.631406 0.047804 -0.018838 82633.000000 0 0 1
-14.809933 -9.098524 25.629112 30.967219 0.550906 0.595941 0.054983 -0.016506 347867.000000 0 0 1
-15.515533 -10.190524 26.521252 32.372139 0.581137 0.610674 0.049624 -0.023388 -30165.200000 0 0 1
-15.393433 -11.557824 26.134612 32.458574 0.644031 0.634837 0.053145 -0.026843 -309413.000000 0 0 1
-14.439033 -12.245924 26.881342 32.879399 0.703397 0.613611 0.066051 -0.024386 -393752.000000 0 0 1
-14.537933 -13.776324 26.745032 33.413102 0.758506 0.642775 0.054472 -0.028401 -406325.000000 0 0 1
-15.714133 -14.208724 27.393002 34.629444 0.735131 0.658302 0.038625 -0.027880 -146775.000000 0 0 1
-16.016833 -15.581224 27.300592 35.279397 0.771613 0.685915 0.047756 -0.013541 133054.000000 0 0 1
-15.003133 -16.617124 27.871062 35.749391 0.836397 0.676732 0.057817 -0.016725 -327107.000000 0 0 1
-13.795033 -16.750224 27.205542 34.799633 0.881846 0.673286 0.061706 -0.021260 236720.000000 0 0 1
-12.850533 -17.631824 27.875562 35.398650 0.940985 0.664094 0.079825 -0.016001 506695.000000 0 0 1
-11.436733 -17.664324 27.276512 34.450477 0.996217 0.657111 0.083713 -0.026357 -515425.000000 0 0 1
-10.523533 -18.282624 28.131452 35.162163 1.048509 0.643419 0.095692 -0.027156 -30552.700000 0 0 1
-9.375133 -18.656924 27.375712 34.429690 1.105149 0.651592 0.091443 -0.028887 377115.000000 0 0 1
-8.243233 -19.345324 28.199962 35.177128 1.167986 0.640736 0.092003 -0.027439 246020.000000 0 0 1
-8.496633 -20.649524 28.662442 36.333610 1.180442 0.661831 0.096934 -0.019298 84101.800000 0 0 1
-7.375333 -21.096424 29.407382 36.935739 1.234477 0.649846 0.096718 -0.012778 374307.000000 0 0 1
-7.580233 -22.385624 30.154402 38.312714 1.244295 0.664768 0.098396 -0.018035 282854.000000 0 0 1
-7.918933 -23.478824 29.319142 38.387196 1.245498 0.701656 0.077506 -0.014942 -75196.100000 0 0 1
-8.280533 -24.646524 29.987932 39.689979 1.246673 0.714297 0.084173 -0.014314 -75512.200000 0 0 1
-8.665633 -25.796224 29.037132 39.795646 1.246714 0.752978 0.073908 -0.012488 -561666.000000 0 0 1
-9.890233 -25.639824 28.374802 39.501224 1.202646 0.769402 0.080697 -0.011734 -138081.000000 0 0 1
-10.273233 -26.860924 27.768262 39.976555 1.205501 0.802914 0.062651 -0.013962 275794.000000 0 0 1
-11.623633 -26.687024 27.001672 39.703859 1.160021 0.822929 0.077675 -0.019468 212101.000000 0 0 1
-11.655033 -26.287024 25.658332 38.538260 1.153465 0.842246 0.085802 -0.021160 81036.500000 0 0 1
-11.545933 -24.898624 25.386892 37.386419 1.136593 0.824342 0.085414 -0.014513 -72825.000000 0 0 1
-11.717633 -24.604324 23.858122 36.219963 1.126334 0.851705 0.105735 -0.034508 -386.831000 0 0 1
-13.045333 -24.800024 23.424172 36.522784 1.086549 0.874530 0.093524 -0.027570 150651.000000 0 0 1
-13.182733 -24.200024 22.135932 35.347208 1.072000 0.894072 0.099922 -0.040044 576055.000000 0 0 1
-14.678233 -24.311524 21.689932 35.734492 1.027619 0.918548 0.090299 -0.042176 508932.000000 0 0 1
-15.116633 -25.593624 21.265532 36.548174 1.037287 0.949796 0.099774 -0.045731 -350557.000000 0 0 1
-16.283033 -25.504224 20.504632 36.551916 1.002587 0.975236 0.094251 -0.048110 -202381.000000 0 0 1
-16.887933 -26.870024 20.094132 37.562942 1.009681 1.006353 0.096563 -0.046886 291330.000000 0 0 1
-15.983333 -27.420624 19.158032 37.072736 1.043049 1.027724 0.097105 -0.051528 164988.000000 0 0 1
-16.116333 -28.818724 19.013632 38.102142 1.060893 1.048332 0.103632 -0.044324 119295.000000 0 0 1
-14.980033 -29.415424 18.161332 37.676286 1.099770 1.067819 0.112661 -0.040603 -225629.000000 0 0 1
-15.178633 -29.091224 16.785632 36.857125 1.089893 1.097948 0.117872 -0.045563 -218768.000000 0 0 1
-14.082633 -29.302524 15.936532 36.206788 1.122793 1.115027 0.111070 -0.046959 -32689.600000 0 0 1
-14.405933 -28.733424 14.469032 35.249021 1.106057 1.147815 0.108473 -0.033926 -18167.000000 0 0 1
-14.370033 -27.344824 14.301532 34.040727 1.086948 1.137208 0.114158 -0.042005 -29964.800000 0 0 1
-14.666233 -26.770124 13.045932 33.195395 1.069599 1.166900 0.106466 -0.032465 731324.000000 0 0 1
-13.550833 -27.070324 11.951132 32.546230 1.106686 1.194794 0.089439 -0.022480 776143.000000 0 0 1
-13.833633 -26.497724 10.751132 31.766108 1.089650 1.225531 0.079357 -0.016946 -264681.000000 0 0 1
-12.839033 -26.793924 9.810732 31.289065 1.123945 1.251866 0.068358 -0.018665 -55375.200000 0 0 1
-13.157133 -26.166924 8.482932 30.492265 1.104899 1.288877 0.067696 -0.011049 -413480.000000 0 0 1
-14.334933 -26.508424 7.816832 31.133418 1.075068 1.317005 0.094638 -0.019294 -351871.000000 0 0 1
-14.333833 -25.615824 6.703832 30.109310 1.060636 1.346265 0.075686 -0.021667 446026.000000 0 0 1
-15.425233 -25.962224 5.658832 30.724539 1.034696 1.385559 0.073592 -0.014223 258122.000000 0 0 1
-14.958733 -26.995224 4.826632 31.237833 1.064792 1.415662 0.070895 -0.021876 -387653.000000 0 0 1
-15.798133 -27.203924 3.748932 31.681051 1.044667 1.452185 0.084238 -0.015802 -380091.000000 0 0 1
-15.411333 -28.444824 2.866132 32.478176 1.074272 1.482433 0.080633 -0.010851 678737.000000 0 0 1
-14.093133 -28.314624 2.326132 31.713486 1.108964 1.497382 0.059414 -0.012067 348180.000000 0 0 1
-13.620433 -29.494024 1.689532 32.531034 1.138170 1.518837 0.047870 -0.016288 907635.000000 0 0 1
-12.214233 -29.268424 1.004032 31.730682 1.175451 1.539149 0.038902 -0.015210 688349.000000 0 0 1
-12.137233 -28.562324 -0.227668 31.034990 1.168978 1.578132 0.046021 -0.019182 -171858.000000 0 0 1
-12.456033 -27.182124 -0.311968 29.901805 1.141108 1.581230 0.037797 -0.022780 -272346.000000 0 0 1
-12.162533 -26.543624 -1.714368 29.247739 1.141137 1.629445 0.047470 -0.023424 -112812.000000 0 0 1
-10.817633 -26.654324 -2.103668 28.842670 1.185258 1.643797 0.050848 -0.025882 -539350.000000 0 0 1
-10.569133 -26.036324 -3.360368 28.299979 1.185181 1.689818 0.065672 -0.028538 1649450.000000 0 0 1
-9.024633 -26.113024 -3.747268 27.881464 1.238048 1.705604 0.054784 -0.031718 1536560.000000 0 0 1
-8.595833 -25.336524 -4.855768 27.192026 1.243715 1.750332 0.053316 -0.035622 -1388080.000000 0 0 1
-7.252833 -25.549924 -5.035868 27.032613 1.294203 1.758180 0.060462 -0.027619 -1069500.000000 0 0 1
-6.576033 -24.501824 -5.907368 26.047660 1.308586 1.799578 0.046833 -0.024785 -446933.000000 0 0 1
-6.859833 -24.542724 -7.321468 26.514270 1.298246 1.850565 0.057206 -0.020174 3136.510000 0 0 1
-6.150533 -23.472024 -7.927968 25.526802 1.314521 1.886593 0.045754 -0.016968 -235249.000000 0 0 1
-6.338733 -23.333724 -9.489568 25.974874 1.305542 1.944791 0.054263 -0.017480 -171582.000000 0 0 1
-5.795133 -24.442824 -10.162068 27.098023 1.338005 1.955205 0.031719 -0.017770 -280901.000000 0 0 1
-6.031733 -24.574124 -11.521168 27.802998 1.330104 1.998064 0.026705 -0.012483 -91381.800000 0 0 1
-7.384333 -25.151924 -11.980968 28.821715 1.285231 1.999500 0.031827 -0.016041 26770.900000 0 0 1
-7.337133 -25.336724 -13.400168 29.586274 1.288922 2.040832 0.046000 -0.016611 -97063.200000 0 0 1
-8.369433 -26.211124 -13.774068 30.770040 1.261721 2.034927 0.066749 -0.018088 -725487.000000 0 0 1
-8.548133 -26.555224 -15.261468 31.798788 1.259371 2.071381 0.072315 -0.023615 269579.000000 0 0 1
-7.458933 -27.043224 -16.056568 32.323134 1.301672 2.090648 0.067403 -0.026910 399960.000000 0 0 1
-6.364333 -26.176124 -16.282768 31.477337 1.332289 2.114472 0.065158 -0.025144 -715799.000000 0 0 1
-5.236433 -26.889924 -16.964168 32.222216 1.378468 2.125245 0.053808 -0.022851 -1069360.000000 0 0 1
-5.476833 -26.991724 -18.358268 33.099469 1.370606 2.158726 0.088482 -0.026743 -43412.000000 0 0 1
-4.397033 -27.539824 -19.055768 33.777183 1.412472 2.170213 0.086233 -0.029536 -435152.000000 0 0 1
-25.110663 14.761569 -5.982070 29.736081 -0.531446 1.773351 0.080651 -0.022962 1774.160000 0 0 1
-24.904233 13.671369 -5.083270 28.861164 -0.502043 1.747848 0.084034 -0.028491 -1236.380000 0 0 1
-23.668133 13.036869 -5.254970 27.527354 -0.503472 1.762875 0.098295 -0.030676 -852383.000000 0 0 1
-23.750433 11.567969 -4.665570 26.826638 -0.453245 1.745601 0.111397 -0.026004 18824.200000 0 0 1
-24.495133 10.515169 -5.317770 27.181961 -0.405487 1.767702 0.117717 -0.016997 823548.000000 0 0 1
-25.887383 10.804269 -5.393770 28.565392 -0.395379 1.760759 0.128670 -0.015103 -63936.900000 0 0 1
-26.582273 10.072269 -6.555770 29.172692 -0.362194 1.797455 0.142657 -0.014825 -138932.000000 0 0 1
-26.097413 10.558969 -7.772970 29.205922 -0.384464 1.840186 0.156051 -0.022132 11825.100000 0 0 1
-26.311103 9.697369 -8.844570 29.403053 -0.353118 1.876332 0.147792 -0.026662 -230007.000000 0 0 1
-26.616543 10.497769 -10.128870 30.351895 -0.375676 1.911038 0.118262 -0.023062 99021.500000 0 0 1
-25.568453 11.337669 -10.583170 29.904716 -0.417372 1.932530 0.121145 -0.029585 449383.000000 0 0 1
-26.039253 12.166169 -11.644670 31.010590 -0.437085 1.955739 0.109370 -0.032644 -93408.900000 0 0 1
-25.024833 13.268869 -11.979770 30.754188 -0.487537 1.970921 0.112552 -0.034711 -236951.000000 0 0 1
-25.022933 14.359469 -11.124970 30.920972 -0.520971 1.938836 0.096504 -0.028263 97173.400000 0 0 1
-24.228933 15.307969 -11.767270 30.981346 -0.563478 1.960396 0.082085 -0.030178 -291071.000000 0 0 1
-24.190133 16.668469 -11.086070 31.399066 -0.603346 1.931647 0.063385 -0.026289 -135662.000000 0 0 1
-23.497533 16.781669 -9.846170 30.507467 -0.620185 1.899426 0.053998 -0.023340 170279.000000 0 0 1
-23.432733 18.158869 -9.508270 31.132695 -0.659270 1.881166 0.019463 -0.009881 576944.000000 0 0 1
-22.301433 18.447369 -8.429870 30.145017 -0.691098 1.854220 0.015029 -0.004015 428431.000000 0 0 1
-22.538733 17.977569 -7.111470 29.694452 -0.673294 1.812635 0.036264 -0.009389 -412193.000000 0 0 1
-23.531033 18.601069 -6.370370 30.664163 -0.668916 1.780067 0.039297 -0.014689 -423484.000000 0 0 1
-23.735233 17.865869 -5.013170 30.127769 -0.645237 1.737971 0.044337 -0.005927 378522.000000 0 0 1
-22.593933 18.093069 -4.205070 29.249403 -0.675224 1.715062 0.044123 -0.020010 408987.000000 0 0 1
-22.979533 17.740869 -2.892270 29.174691 -0.657451 1.670096 0.045326 -0.017965 -130474.000000 0 0 1
-21.767133 17.522569 -1.993970 28.014718 -0.677783 1.642032 0.047412 -0.028784 -696959.000000 0 0 1
-21.171533 18.682669 -1.520170 28.276967 -0.723030 1.624582 0.043971 -0.034393 166926.000000 0 0 1
-20.071933 18.228969 -0.719970 27.123720 -0.737317 1.597343 0.078893 -0.044374 116380.000000 0 0 1
-19.471333 19.443369 0.048230 27.516899 -0.784680 1.569044 0.080627 -0.051953 -388828.000000 0 0 1
-20.301033 20.017569 1.012730 28.528243 -0.778368 1.535290 0.063505 -0.045398 -239902.000000 0 0 1
-20.125933 21.395669 0.973430 29.390056 -0.815969 1.537669 0.078335 -0.042064 -423754.000000 0 0 1
-21.050633 22.239769 1.804930 30.675630 -0.812860 1.511923 0.046858 -0.029519 -450328.000000 0 0 1
-20.939133 21.923169 3.166930 30.481176 -0.808352 1.466711 0.052492 -0.026637 -431524.000000 0 0 1
-22.165533 21.945869 3.820030 31.424905 -0.780418 1.448934 0.033947 -0.025355 -492021.000000 0 0 1
-22.104933 21.368169 5.243430 31.188464 -0.768452 1.401873 0.044944 -0.022861 -443532.000000 0 0 1
-21.330533 22.272169 5.959430 31.409488 -0.806991 1.379906 0.037822 -0.016568 156359.000000 0 0 1
-20.569933 21.649169 7.005930 30.673958 -0.810955 1.340362 0.034903 -0.010156 -76604.200000 0 0 1
-21.302633 21.616269 8.339430 31.473979 -0.792706 1.302631 0.022100 -0.027155 -1231550.000000 0 0 1
-22.395833 20.756869 8.240230 31.627873 -0.747436 1.307218 0.032342 -0.021099 111988.000000 0 0 1
-22.996433 20.355169 9.478630 32.140524 -0.724547 1.271433 0.047858 -0.022786 186237.000000 0 0 1
-23.541633 21.375669 10.527130 33.495495 -0.737214 1.251093 0.041844 -0.024885 -950724.000000 0 0 1
-24.680733 22.117869 10.212330 34.678962 -0.730689 1.271883 0.065609 -0.024359 -146331.000000 0 0 1
-24.947433 22.930169 11.315330 35.723994 -0.743289 1.248502 0.070115 -0.023176 -696514.000000 0 0 1
-26.243943 23.639369 10.946430 36.978219 -0.733232 1.270269 0.083394 -0.032030 -764487.000000 0 0 1
-26.793943 24.301669 12.030530 38.121125 -0.736660 1.249721 0.086375 -0.030228 -212351.000000 0 0 1
-27.286143 25.573069 11.728130 39.192659 -0.753001 1.266897 0.089475 -0.030005 -16735.700000 0 0 1
-27.782333 26.174869 13.076730 40.348267 -0.755616 1.240740 0.097996 -0.035356 825922.000000 0 0 1
-26.665483 26.360469 13.958230 40.009430 -0.779646 1.214428 0.067376 -0.028825 697615.000000 0 0 1
-27.221583 26.729269 15.180730 41.059992 -0.776273 1.192088 0.083579 -0.030168 523659.000000 0 0 1
-26.206133 26.730469 16.369230 40.856224 -0.795303 1.158565 0.063327 -0.033338 90943.400000 0 0 1
-25.810473 25.530269 16.940230 40.061784 -0.779940 1.134205 0.068192 -0.028788 207813.000000 0 0 1
-24.751533 25.718969 17.876230 39.920713 -0.804564 1.106500 0.055578 -0.029919 332667.000000 0 0 1
-24.084833 24.351069 18.279630 38.822656 -0.790895 1.080543 0.056863 -0.019509 -275476.000000 0 0 1
-22.992333 24.437169 19.156130 38.636510 -0.815852 1.052036 0.056848 -0.030391 102217.000000 0 0 1
-22.477533 23.132269 19.323830 37.599891 -0.799752 1.031033 0.069373 -0.037038 183022.000000 0 0 1
-21.151133 22.963769 20.151830 37.159136 -0.826464 0.997610 0.062037 -0.036404 565509.000000 0 0 1
-20.051033 23.339469 19.320330 36.332491 -0.861041 1.010114 0.063656 -0.042761 451274.000000 0 0 1
-18.767233 22.826469 19.612530 35.467000 -0.882683 0.984860 0.055278 -0.038750 205448.000000 0 0 1
-18.466833 21.337569 19.313730 34.195554 -0.857395 0.970603 0.049024 -0.023689 -836706.000000 0 0 1
-18.970733 20.352969 20.155730 34.356739 -0.820534 0.943868 0.069133 -0.026378 44723.400000 0 0 1
-18.386133 20.333569 21.458030 34.813086 -0.835652 0.906661 0.064777 -0.015304 -122994.000000 0 0 1
-19.421833 19.994669 22.540730 35.847997 -0.799930 0.890805 0.044659 -0.011886 -354233.000000 0 0 1
-20.367333 21.009969 22.756830 37.069129 -0.800928 0.909801 0.046474 -0.019682 362.507000 0 0 1
-21.020533 20.845569 24.021630 38.123998 -0.781219 0.889125 0.028566 -0.007525 855454.000000 0 0 1
-22.191733 21.894669 24.183230 39.454761 -0.778660 0.911026 0.032161 -0.014455 181411.000000 0 0 1
-21.604633 23.168069 24.293830 39.921295 -0.820303 0.916573 0.050021 -0.024331 356162.000000 0 0 1
-22.479233 24.263769 24.575430 41.206773 -0.823557 0.931796 0.045302 -0.023889 -75534.500000 0 0 1
-23.383833 24.733069 23.402230 41.306086 -0.813432 0.968475 0.038906 -0.028076 935.473000 0 0 1
-24.465733 23.857169 23.215830 41.312363 -0.772805 0.974045 0.035576 -0.022936 -282066.000000 0 0 1
-25.265423 24.144069 22.097530 41.347049 -0.762707 1.006951 0.033929 -0.027806 -218415.000000 0 0 1
-26.200613 23.016569 21.694530 41.071732 -0.720794 1.014304 0.043870 -0.017796 645750.000000 0 0 1
-27.501293 23.127369 22.315230 42.298532 -0.699220 1.015065 0.058303 -0.022821 901449.000000 0 0 1
-28.409573 22.245469 21.649630 42.079344 -0.664306 1.030377 0.083804 -0.020125 538226.000000 0 0 1
-29.877013 22.429269 22.121530 43.417394 -0.643962 1.036183 0.105938 -0.012758 -187807.000000 0 0 1
-30.493983 23.707369 21.692330 44.299882 -0.660835 1.059085 0.115766 -0.020110 1255050.000000 0 0 1
-31.856663 23.876269 22.140730 45.553651 -0.643175 1.063248 0.122869 -0.020762 710847.000000 0 0 1
-32.861153 23.122669 21.271930 45.464362 -0.613170 1.083904 0.140817 -0.027330 -1349310.000000 0 0 1
-32.800283 21.710469 21.403030 44.780495 -0.584695 1.072472 0.136915 -0.026542 148119.000000 0 0 1
-33.482963 21.012069 20.358830 44.464568 -0.560427 1.095203 0.146749 -0.029718 970439.000000 0 0 1
-35.018399 20.783669 20.624230 45.646556 -0.535632 1.101987 0.139949 -0.030770 565576.000000 0 0 1
-35.707650 20.125669 19.620030 45.442540 -0.513242 1.124359 0.142780 -0.035740 -530237.000000 0 0 1
35.998643 20.009669 19.904830 45.743758 0.507320 1.120605 0.131544 -0.040109 -352214.000000 0 0 1
35.168043 19.110169 19.008030 44.309085 0.497759 1.127425 0.137830 -0.044672 -128232.000000 0 0 1
35.595333 17.776769 19.036230 44.106907 0.463178 1.124538 0.143491 -0.040429 215846.000000 0 0 1
34.842493 17.096869 18.059630 42.807154 0.456172 1.135275 0.146468 -0.055296 17592.700000 0 0 1
35.148663 15.573769 17.918430 42.415102 0.417087 1.134645 0.150773 -0.063114 -188872.000000 0 0 1
34.271133 14.920069 17.064830 41.089262 0.410608 1.142511 0.165869 -0.055931 13574.500000 0 0 1
34.836703 13.655569 16.747830 40.994637 0.373580 1.149946 0.146156 -0.047741 167588.000000 0 0 1
34.028953 12.879069 15.682630 39.620511 0.361813 1.163835 0.134536 -0.052090 -371.707000 0 0 1
34.066113 13.500769 14.424930 39.380825 0.377322 1.195774 0.137325 -0.048234 223044.000000 0 0 1
33.263843 12.725169 13.549330 38.105085 0.365376 1.207264 0.135665 -0.043285 -192111.000000 0 0 1
33.285303 13.122969 12.065030 37.758292 0.375546 1.245559 0.152262 -0.041456 170341.000000 0 0 1
34.494773 12.586969 11.544930 38.491643 0.349882 1.266173 0.136640 -0.035766 412043.000000 0 0 1
34.504573 12.753169 10.150830 38.160820 0.354035 1.301554 0.119536 -0.023500 -993820.000000 0 0 1
35.798233 12.619969 9.382930 39.100083 0.338927 1.328459 0.104535 -0.016937 -1221390.000000 0 0 1
36.439293 11.358369 9.508330 39.335009 0.302162 1.326651 0.115874 -0.025366 262654.000000 0 0 1
-35.234873 11.532169 9.318330 38.227195 -0.316306 1.324554 0.119792 -0.026230 162696.000000 0 0 1
-34.756676 11.249469 7.872730 37.370536 -0.313023 1.358539 0.136390 -0.042521 -340035.000000 0 0 1
-35.258075 12.165669 6.917630 37.934008 -0.332255 1.387411 0.122604 -0.045483 41379.000000 0 0 1
-34.696766 11.870169 5.660330 37.105334 -0.329630 1.417651 0.129583 -0.050677 -202485.000000 0 0 1
-35.359593 12.612669 4.521830 37.813056 -0.342629 1.450926 0.144232 -0.043767 -20220.400000 0 0 1
36.381233 12.213369 4.191530 38.604785 0.323884 1.462006 0.148763 -0.052306 947306.000000 0 0 1
35.363953 13.245169 4.136030 37.988820 0.358366 1.461705 0.127362 -0.048185 930309.000000 0 0 1
35.007993 13.922569 5.510430 38.075745 0.378519 1.425563 0.131340 -0.035637 -1356560.000000 0 0 1
34.264313 15.107269 5.364230 37.829191 0.415264 1.428515 0.120694 -0.025638 44590.800000 0 0 1
33.822753 15.663269 6.638430 37.860076 0.433693 1.394544 0.100787 -0.017906 -667375.000000 0 0 1
32.567263 15.057969 7.216930 36.598540 0.433089 1.372304 0.110736 -0.020027 -1125700.000000 0 0 1
32.661843 13.685869 7.499130 36.198563 0.396792 1.362119 0.137346 -0.020612 62222.300000 0 0 1
31.422953 13.113769 7.886730 34.951014 0.395357 1.343185 0.145369 -0.017438 213384.000000 0 0 1
31.004583 11.852369 7.054330 33.934148 0.365136 1.361386 0.140453 -0.022075 -95174.300000 0 0 1
30.815493 12.131769 5.685730 33.602112 0.375055 1.400771 0.138939 -0.033466 226285.000000 0 0 1
30.837563 11.024969 4.791530 33.097794 0.343356 1.425517 0.138062 -0.035966 -368154.000000 0 0 1
30.409813 11.295569 3.344430 32.611835 0.355650 1.468063 0.119687 -0.046163 -547928.000000 0 0 1
29.032013 11.117869 3.200730 31.252351 0.365724 1.468201 0.096718 -0.039525 -553834.000000 0 0 1
28.562183 11.489869 1.917130 30.846244 0.382467 1.508605 0.108092 -0.045433 879955.000000 0 0 1
27.004663 11.279969 1.783730 29.320150 0.395675 1.509922 0.125293 -0.036795 972832.000000 0 0 1
26.689863 9.872669 1.683530 28.507063 0.354295 1.511705 0.077309 -0.036854 -38304.300000 0 0 1
25.333463 9.533669 1.493530 27.109146 0.359934 1.515675 0.067661 -0.037244 -372311.000000 0 0 1
25.187763 8.041869 1.049130 26.461212 0.309047 1.531138 0.068603 -0.036711 135731.000000 0 0 1
25.653863 7.078169 2.015730 26.688655 0.269212 1.495197 0.074177 -0.028124 730.640000 0 0 1
27.049163 6.982369 2.102630 28.014849 0.252622 1.495672 0.091453 -0.043216 -828468.000000 0 0 1
27.493263 6.552269 3.529730 28.482815 0.233958 1.446552 0.095431 -0.036628 263045.000000 0 0 1
28.833693 6.181269 3.845930 29.738546 0.211180 1.441108 0.121272 -0.038458 620075.000000 0 0 1
28.940943 6.021269 5.223430 30.018629 0.205127 1.395900 0.106807 -0.022602 -170283.000000 0 0 1
30.377123 5.780069 5.712830 31.445432 0.188029 1.388107 0.106345 -0.030509 -467887.000000 0 0 1
31.190703 6.903969 5.778030 32.463986 0.217835 1.391860 0.127555 -0.033829 485010.000000 0 0 1
32.395183 6.553769 6.515030 33.687466 0.199613 1.376174 0.110774 -0.031266 989103.000000 0 0 1
32.966993 7.849169 7.174030 34.639555 0.233740 1.362181 0.105553 -0.032531 16712.800000 0 0 1
32.301833 8.107169 8.420130 34.351611 0.245902 1.323157 0.105399 -0.029791 456182.000000 0 0 1
32.851663 9.251869 9.037730 35.305940 0.274515 1.311932 0.124383 -0.031003 -1970.530000 0 0 1
32.570183 9.178669 10.547930 35.444655 0.274688 1.268630 0.111002 -0.026975 451679.000000 0 0 1
31.210033 9.553769 10.800830 34.380206 0.297055 1.251226 0.108236 -0.025497 738479.000000 0 0 1
30.974373 9.436169 12.186030 34.597000 0.295712 1.210846 0.099665 -0.028108 -649268.000000 0 0 1
29.504733 9.696469 12.563530 33.502135 0.317522 1.186392 0.085651 -0.030500 -558743.000000 0 0 1
29.111853 11.031569 12.815730 33.666577 0.362218 1.180280 0.107298 -0.033931 234853.000000 0 0 1
29.064433 11.859669 11.617430 33.471745 0.387425 1.216339 0.121891 -0.031989 -870482.000000 0 0 1
27.871263 11.612269 10.713030 32.037807 0.394768 1.229842 0.104461 -0.019489 -723892.000000 0 0 1
27.911163 12.538069 9.654630 32.085013 0.422200 1.265152 0.094697 -0.001353 -68798.400000 0 0 1
26.733563 12.593569 8.904130 30.863650 0.440243 1.278138 0.078537 -0.004213 -574973.000000 0 0 1
26.768663 13.796669 7.895830 31.132837 0.475895 1.314378 0.073623 -0.008274 47529.000000 0 0 1
26.618563 15.035369 8.554030 31.745577 0.514169 1.297968 0.072158 -0.001435 240933.000000 0 0 1
26.831163 16.150569 7.707630 32.251508 0.541840 1.329476 0.066862 -0.000604 -845364.000000 0 0 1
26.519263 17.487769 8.368930 32.850150 0.582980 1.313196 0.078125 -0.010075 314151.000000 0 0 1
25.177963 17.928769 8.302730 32.004779 0.618789 1.308373 0.070153 -0.013279 911651.000000 0 0 1
24.172763 17.172069 9.026530 30.994849 0.617665 1.275287 0.070308 -0.010875 -43430.300000 0 0 1
22.844763 17.869069 9.290630 30.454928 0.663790 1.260793 0.073588 -0.021290 -86663.900000 0 0 1
22.097363 18.273669 8.115930 29.800818 0.690966 1.294973 0.082432 -0.024974 533758.000000 0 0 1
21.035263 19.168369 8.423430 29.679333 0.738996 1.283026 0.125011 -0.037082 300997.000000 0 0 1
20.372163 19.744869 7.168830 29.262211 0.769763 1.323291 0.115272 -0.029822 68664.400000 0 0 1
21.352163 20.344469 6.351630 30.168783 0.761236 1.358673 0.088176 -0.018145 237262.000000 0 0 1
20.756563 20.750769 5.115530 29.792582 0.785259 1.398236 0.102352 -0.021949 102773.000000 0 0 1
18.696467 17.200969 33.082903 41.712225 0.743762 0.654878 0.048679 -0.023438 -584145.000000 0 0 1
17.898067 17.817869 32.121492 40.860831 0.783153 0.666291 0.053287 -0.026587 -201579.000000 0 0 1
17.186467 16.812169 31.475432 39.607153 0.774389 0.652299 0.054287 -0.030876 9331.620000 0 0 1
16.360767 17.312869 30.226912 38.484755 0.813665 0.667413 0.054137 -0.031864 513054.000000 0 0 1
17.188567 17.593669 29.114302 38.113339 0.797044 0.701481 0.059959 -0.012319 119798.000000 0 0 1
16.367767 17.949569 28.035582 37.095616 0.831459 0.713974 0.053995 -0.015996 249087.000000 0 0 1
17.176967 18.308769 26.760152 36.692847 0.817282 0.753496 0.071773 -0.021712 -248473.000000 0 0 1
17.912967 19.475569 26.911882 37.741510 0.827167 0.776946 0.068695 -0.024596 -327237.000000 0 0 1
18.624967 19.666469 25.727342 37.357135 0.812591 0.811121 0.076944 -0.028077 -745326.000000 0 0 1
19.503167 20.907669 25.796042 38.508959 0.820140 0.836761 0.077648 -0.023670 -325543.000000 0 0 1
18.839167 22.141269 26.004222 39.004738 0.865802 0.841032 0.056301 -0.023036 415670.000000 0 0 1
19.835367 23.157869 26.125152 40.152861 0.862525 0.862366 0.072411 -0.029278 410065.000000 0 0 1
19.189867 24.580669 26.262102 40.769576 0.907942 0.870873 0.082286 -0.031971 123966.000000 0 0 1
18.888767 25.065269 24.981602 40.114009 0.925006 0.898525 0.075463 -0.033042 -72699.700000 0 0 1
18.263167 26.270469 25.175952 40.712521 0.963301 0.904112 0.076017 -0.028236 -421642.000000 0 0 1
18.265467 27.044169 23.845882 40.418319 0.976776 0.939766 0.055009 -0.028002 303117.000000 0 0 1
19.476667 27.717669 23.481682 41.218917 0.958274 0.964677 0.076068 -0.036353 363666.000000 0 0 1
19.199367 28.865269 22.763432 41.472802 0.983853 0.989777 0.070316 -0.021876 99189.300000 0 0 1
20.420567 29.806869 22.640132 42.638300 0.970143 1.011038 0.082148 -0.019769 -185359.000000 0 0 1
21.349867 29.441469 21.669332 42.334110 0.943381 1.033442 0.078335 -0.025143 -506871.000000 0 0 1
22.449267 30.333069 21.759532 43.560784 0.933666 1.047750 0.093139 -0.034490 255124.000000 0 0 1
23.261567 30.454369 20.465032 43.444064 0.918511 1.080297 0.112032 -0.031539 458114.000000 0 0 1
22.542767 31.316469 19.574832 43.267443 0.946880 1.101325 0.079199 -0.024656 162271.000000 0 0 1
23.028567 31.117269 18.288432 42.814321 0.933689 1.129450 0.076273 -0.007016 -360694.000000 0 0 1
22.447867 31.920169 17.162132 42.630303 0.957892 1.156462 0.071077 -0.020859 -566799.000000 0 0 1
22.729667 33.292569 17.341232 43.883383 0.971759 1.164547 0.090169 -0.022244 190661.000000 0 0 1
22.440267 -33.982124 16.257232 43.848009 -0.987176 1.190966 0.082805 -0.014392 25474.800000 0 0 1
23.383267 34.016369 15.016132 43.924649 0.968569 1.221900 0.061226 -0.013503 154057.000000 0 0 1
23.200167 32.868269 14.265632 42.685819 0.956153 1.230039 0.084308 -0.016939 252263.000000 0 0 1
22.511567 33.093469 13.019032 42.088521 0.973454 1.256313 0.053999 -0.010885 -53841.700000 0 0 1
22.241167 31.871769 12.107432 40.707114 0.961526 1.268799 0.064863 -0.020125 -778949.000000 0 0 1
23.298467 31.342169 11.379332 40.677258 0.931559 1.287266 0.089960 -0.045377 -519706.000000 0 0 1
22.961167 30.139169 10.701832 39.371486 0.919762 1.295516 0.089508 -0.047779 -538499.000000 0 0 1
24.200567 29.571369 9.999632 39.498430 0.884949 1.314846 0.089310 -0.045200 628704.000000 0 0 1
25.233467 28.928269 10.752132 39.864533 0.853511 1.297697 0.081127 -0.037148 699056.000000 0 0 1
26.023267 29.742669 11.622032 41.193548 0.851996 1.284780 0.077257 -0.034849 -54962.600000 0 0 1
27.463567 29.225469 11.883132 41.828034 0.816468 1.282734 0.077285 -0.026711 554578.000000 0 0 1
27.413267 28.177169 12.824232 41.350949 0.799139 1.255465 0.075358 -0.021468 868936.000000 0 0 1
28.762867 27.927869 13.260232 42.226794 0.770670 1.251368 0.069296 -0.008115 876594.000000 0 0 1
28.903567 26.863969 14.365332 41.993473 0.748841 1.221662 0.044852 -0.016819 301427.000000 0 0 1
30.141167 26.926369 15.062732 43.132415 0.729124 1.214057 0.035218 -0.022715 190172.000000 0 0 1
30.288067 25.828969 15.953532 42.883771 0.706104 1.189614 0.049271 -0.033769 -251208.000000 0 0 1
31.466467 26.004269 16.899732 44.181009 0.690640 1.178284 0.067893 -0.042387 318685.000000 0 0 1
32.744267 26.082569 16.256732 44.908449 0.672636 1.200387 0.062790 -0.026931 242918.000000 0 0 1
33.739967 26.377169 17.197332 46.150717 0.663531 1.188950 0.071388 -0.029853 9235.680000 0 0 1
35.195367 26.511169 16.715032 47.126938 0.645583 1.208223 0.092685 -0.040745 93000.400000 0 0 1
35.395967 27.548569 15.786132 47.549975 0.661367 1.232384 0.075947 -0.020512 1374230.000000 0 0 1
-36.244929 27.887369 15.826932 48.393099 -0.655811 1.237617 0.095109 -0.019663 1778340.000000 0 0 1
-35.972529 28.989069 14.766132 48.501831 -0.678308 1.261441 0.059346 -0.012026 123584.000000 0 0 1
-36.521629 30.212569 15.229532 49.785212 -0.691138 1.259908 0.056811 -0.014842 12105.200000 0 0 1
36.519167 31.220969 14.268932 50.119865 0.707344 1.282107 0.051613 0.010834 526626.000000 0 0 1
35.516667 32.345269 14.747132 50.250652 0.738699 1.272940 0.041467 0.003944 -271827.000000 0 0 1
35.533267 33.480569 13.881832 50.756939 0.755664 1.293770 0.008378 -0.000911 564077.000000 0 0 1
34.374467 -33.885324 14.029532 50.265763 -0.778232 1.287932 0.007598 0.004241 1313270.000000 0 0 1
32.999067 33.772669 13.446632 49.095250 0.796983 1.293362 0.051643 -0.000200 663267.000000 0 0 1
32.517067 32.606769 14.104232 48.161088 0.786776 1.273585 0.043574 -0.011621 -275796.000000 0 0 1
31.364467 32.011569 13.552632 46.820340 0.795608 1.277133 0.054606 -0.007994 21487.800000 0 0 1
30.692167 30.935469 14.485432 45.922109 0.789346 1.249881 0.079228 -0.018653 -234475.000000 0 0 1
29.967867 31.460369 15.544232 46.145975 0.809690 1.227228 0.076768 -0.021527 -95386.100000 0 0 1
29.555767 30.452569 16.438532 45.509644 0.800342 1.201231 0.078620 -0.024189 -303714.000000 0 0 1
28.507067 30.984969 17.416632 45.563804 0.827025 1.178569 0.085926 -0.029152 -119381.000000 0 0 1
28.039667 30.117569 18.475532 45.106942 0.821112 1.148787 0.075417 -0.028630 457729.000000 0 0 1
28.932767 30.098169 19.597732 46.120233 0.805138 1.131915 0.071730 -0.034238 311553.000000 0 0 1
28.569667 28.954369 20.543732 45.570016 0.792086 1.103116 0.077722 -0.036472 247734.000000 0 0 1
27.440567 29.078369 21.397732 45.347538 0.814368 1.079396 0.091984 -0.040699 228795.000000 0 0 1
27.515967 28.037769 22.387832 45.215705 0.794791 1.052807 0.082835 -0.037319 254863.000000 0 0 1
26.276567 27.940669 23.323252 44.890011 0.816082 1.024455 0.092971 -0.035265 700251.000000 0 0 1
25.103767 27.367869 22.721932 43.537175 0.828520 1.021723 0.100240 -0.031312 526885.000000 0 0 1
23.935367 27.369669 23.502272 43.293849 0.852237 0.996964 0.102883 -0.032155 77413.100000 0 0 1
23.817667 26.215469 24.529102 43.083744 0.833286 0.965099 0.101835 -0.033813 -209573.000000 0 0 1
24.660367 26.318969 25.694212 44.283342 0.817921 0.951794 0.105329 -0.033561 331029.000000 0 0 1
24.461267 25.181869 26.561652 44.022738 0.799913 0.923086 0.107639 -0.038945 306847.000000 0 0 1
25.620067 25.110869 27.628112 45.279755 0.775361 0.914528 0.109194 -0.037072 617907.000000 0 0 1
25.995167 26.249569 28.391602 46.592614 0.790268 0.915545 0.128123 -0.046638 776662.000000 0 0 1
26.825967 27.198669 27.644132 47.155044 0.792297 0.944388 0.099522 -0.035755 -9044.940000 0 0 1
27.291167 28.436569 28.461792 48.616046 0.805949 0.945373 0.056333 -0.021760 -284765.000000 0 0 1
28.345567 28.054769 29.331232 49.506186 0.780242 0.936667 0.066064 -0.017187 -95364.200000 0 0 1
28.898967 29.214969 29.905622 50.823331 0.790836 0.941689 0.052950 -0.013228 -96899.800000 0 0 1
30.431367 29.116469 30.009092 51.714432 0.763320 0.951718 0.039241 -0.012074 -177968.000000 0 0 1
31.030267 29.045069 28.748902 51.312697 0.752365 0.976086 0.024594 -0.005679 -27911.800000 0 0 1
32.421667 29.330169 28.804292 52.355617 0.735377 0.988233 0.038767 -0.011276 538609.000000 0 0 1
33.054267 29.802869 27.486912 52.309903 0.733717 1.017537 0.031556 -0.010277 -286173.000000 0 0 1
32.749967 31.196069 27.376892 52.870117 0.761103 1.026502 0.026473 -0.008667 144483.000000 0 0 1
33.178667 31.818869 26.215132 52.919727 0.764480 1.052529 0.045070 -0.020336 -514511.000000 0 0 1
32.847867 33.315369 26.086522 53.566807 0.792464 1.062156 0.037121 -0.021360 -134217.000000 0 0 1
33.655567 -33.915124 26.815832 54.790708 -0.789239 1.059368 0.062194 -0.028149 463507.000000 0 0 1
33.162667 -32.601324 26.681652 53.614544 -0.776863 1.049901 0.065897 -0.028454 137934.000000 0 0 1
34.183067 -31.598624 27.329482 53.980142 -0.746130 1.039922 0.061102 -0.025260 321077.000000 0 0 1
34.330567 -31.569824 28.725182 54.775704 -0.743530 1.018769 0.060033 -0.029416 205051.000000 0 0 1
35.310267 -30.646024 29.182812 55.114701 -0.714799 1.012794 0.062286 -0.028938 71739.100000 0 0 1
35.044867 -30.340124 30.676002 55.584917 -0.713567 0.986184 0.064161 -0.030999 -386691.000000 0 0 1
35.136867 -31.409024 31.600662 56.742648 -0.729438 0.980133 0.070826 -0.026222 94741.900000 0 0 1
33.945767 -32.151524 31.669192 56.470996 -0.758259 0.975439 0.059674 -0.026672 -585087.000000 0 0 1
33.814867 -33.145124 32.839231 57.623429 -0.775396 0.964420 0.065903 -0.019810 -414341.000000 0 0 1
33.439067 -32.531824 34.074672 57.771741 -0.771647 0.939966 0.059350 -0.026532 189922.000000 0 0 1
33.531067 -33.384924 -33.022530 57.700720 -0.783214 2.180113 0.067761 -0.022572 -92345.200000 0 0 1
32.747767 33.420669 -33.046580 57.283801 0.795567 2.185715 0.061431 -0.016416 -287544.000000 0 0 1
33.082367 32.474469 -34.049732 57.518853 0.776126 2.204304 0.077882 -0.021624 3285.360000 0 0 1
32.374967 31.267069 -33.835050 56.307892 0.767992 2.215415 0.076249 -0.013867 131880.000000 0 0 1
32.699867 30.184969 33.328110 55.598351 0.745427 0.927990 0.057581 -0.005795 379076.000000 0 0 1
34.002467 29.617369 33.386152 56.106965 0.716580 0.933475 0.064636 -0.017587 237474.000000 0 0 1
34.254267 28.890169 32.219212 55.191252 0.700652 0.947427 0.046342 -0.012215 -305834.000000 0 0 1
35.679367 28.333669 32.163952 55.770367 0.671145 0.956087 0.049577 -0.012372 -256076.000000 0 0 1
35.874467 27.127069 32.914461 55.733446 0.647436 0.939032 0.048780 -0.011275 618366.000000 0 0 1
-35.876529 26.618169 32.693305 55.357967 -0.638322 0.939019 0.014598 -0.008948 523805.000000 0 0 1
-35.651329 25.294469 33.466153 55.052801 -0.617071 0.917393 0.001910 -0.005824 9735.730000 0 0 1
-36.238029 24.175369 32.850649 54.560136 -0.588321 0.924668 0.007418 -0.004331 26880.600000 0 0 1
-36.442429 23.064169 33.762087 54.771207 -0.564255 0.906608 0.000511 -0.010019 40247.100000 0 0 1
36.002267 21.824769 33.094226 53.551019 0.544970 0.904607 0.001063 -0.015676 -232399.000000 0 0 1
-36.194729 21.319369 32.107202 52.871981 -0.532306 0.918185 0.013041 -0.014797 71485.400000 0 0 1
36.310967 20.257569 31.365822 52.083301 0.508882 0.924512 0.011114 -0.011380 -152273.000000 0 0 1
-35.708129 19.427569 30.619842 50.892786 -0.498276 0.925226 0.023908 -0.014734 64612.900000 0 0 1
-35.094329 20.179869 29.537642 50.112986 -0.521848 0.940455 0.027715 -0.016635 455192.000000 0 0 1
-34.067129 19.452369 28.856132 48.699490 -0.518824 0.936595 0.067801 -0.022459 211428.000000 0 0 1
-34.589229 18.448869 27.785882 48.050294 -0.489986 0.954194 0.092111 -0.019034 -649716.000000 0 0 1
-35.253129 17.267169 28.201512 48.334910 -0.455459 0.947813 0.076543 -0.018195 318700.000000 0 0 1
-35.908329 16.581969 27.177772 47.989594 -0.432612 0.968755 0.084250 -0.024656 -240864.000000 0 0 1
36.480367 15.327569 27.723862 48.315257 0.397763 0.959644 0.049613 -0.026304 95321.900000 0 0 1
-35.635729 14.344469 28.145762 47.621979 -0.382686 0.938468 0.076211 -0.027421 489476.000000 0 0 1
-36.206429 13.135269 28.545062 47.940185 -0.348022 0.932995 0.073112 -0.028654 -344666.000000 0 0 1
-35.178929 12.162569 29.136712 47.269791 -0.332870 0.906644 0.077493 -0.019437 -472815.000000 0 0 1
-34.642529 12.650969 30.353172 47.764704 -0.350139 0.882176 0.074974 -0.019815 362298.000000 0 0 1
-33.746729 11.735369 30.974422 47.286102 -0.334667 0.856557 0.070770 -0.008091 -1735500.000000 0 0 1
-32.328229 12.060569 30.778122 46.237047 -0.357074 0.842419 0.059608 -0.006500 -2944210.000000 0 0 1
-31.862229 11.807769 29.475492 44.982549 -0.354897 0.856263 0.075327 -0.016042 -511785.000000 0 0 1
-30.604429 12.325169 29.180662 44.046021 -0.382853 0.846640 0.098670 -0.013697 -201236.000000 0 0 1
-29.403029 11.509669 29.728072 43.367832 -0.373110 0.815524 0.072983 -0.014453 -434785.000000 0 0 1
-29.022429 10.368969 28.997522 42.316347 -0.343141 0.815841 0.067511 -0.023861 -226020.000000 0 0 1
-27.813829 9.817069 29.447492 41.678996 -0.339306 0.786212 0.067958 -0.024262 -119101.000000 0 0 1
-27.270729 8.570869 28.688222 40.498970 -0.304513 0.783611 0.066461 -0.022334 1012060.000000 0 0 1
-28.146929 7.387869 28.735272 40.896774 -0.256685 0.791710 0.073054 -0.024572 474812.000000 0 0 1
-29.391929 7.455969 28.088122 41.333033 -0.248434 0.823639 0.076925 -0.022764 -425358.000000 0 0 1
-30.108429 6.109669 28.070272 41.614730 -0.200204 0.830472 0.067499 -0.019966 -48606.100000 0 0 1
-30.442329 5.590669 29.378782 42.674393 -0.181624 0.811460 0.059979 -0.017772 244824.000000 0 0 1
-31.124729 4.328169 29.279502 42.950798 -0.138173 0.820714 0.073993 -0.025384 199997.000000 0 0 1
-31.820229 3.808769 30.579602 44.296115 -0.119130 0.808830 0.063930 -0.011970 938830.000000 0 0 1
-32.903929 4.668569 31.026272 45.465302 -0.140944 0.819733 0.058406 -0.013803 435638.000000 0 0 1
-33.544929 4.313669 32.209022 46.704294 -0.127892 0.809808 0.068079 -0.020221 373867.000000 0 0 1
-35.010629 4.829869 32.250446 47.845199 -0.137089 0.831107 0.066761 -0.011908 224630.000000 0 0 1
-35.169629 6.221069 32.315059 48.165004 -0.175077 0.835342 0.062510 -0.009508 113056.000000 0 0 1
-36.523829 6.659169 32.327159 49.227836 -0.180343 0.854382 0.059315 -0.003218 481833.000000 0 0 1
36.376567 8.130369 32.574060 49.501787 0.219892 0.852586 0.054541 -0.000895 -122316.000000 0 0 1
-36.309829 8.361469 33.883246 50.362607 -0.226335 0.832829 0.055088 -0.002404 86371.400000 0 0 1
36.529867 9.705869 -34.003740 50.841808 0.259697 2.303409 0.058024 -0.010921 -118513.000000 0 0 1
36.330567 9.818269 -32.470760 49.705722 0.263943 2.282679 0.056019 -0.015827 629881.000000 0 0 1
35.079967 9.260569 -31.999430 48.376914 0.258097 2.293561 0.083258 -0.009482 831866.000000 0 0 1
35.006667 9.583469 -30.625140 47.489039 0.267214 2.271674 0.083279 -0.003857 -557363.000000 0 0 1
33.715267 9.135069 -29.970870 46.026316 0.264595 2.279919 0.085103 -0.007237 -515519.000000 0 0 1
33.747667 7.705169 -29.878420 45.727395 0.224469 2.282867 0.067966 -0.006492 324321.000000 0 0 1
32.589467 7.196369 -29.234870 44.368218 0.217331 2.290171 0.068628 -0.010738 -1060.300000 0 0 1
35.448253 5.621769 -19.716570 40.950288 0.157281 2.073134 0.047341 -0.016264 -734311.000000 0 0 1
34.932743 6.505969 -18.728270 40.166806 0.184133 2.055857 0.036821 -0.010583 486980.000000 0 0 1
35.530913 7.803769 -18.811870 40.954011 0.216200 2.048050 0.023009 -0.007960 -768293.000000 0 0 1
-36.056693 7.977569 -18.499170 41.303099 -0.217743 2.035198 0.033239 -0.015764 -656616.000000 0 0 1
-35.174220 7.388069 -19.428170 40.856617 -0.207033 2.066352 0.039667 -0.031225 -91895.200000 0 0 1
-34.757177 8.268169 -20.491270 41.186359 -0.233543 2.091540 0.026795 -0.013944 -538842.000000 0 0 1
-33.747243 7.489569 -21.344270 40.626936 -0.218392 2.123949 0.033316 -0.008114 -277381.000000 0 0 1
-34.275611 6.341269 -22.053870 41.248059 -0.182940 2.134907 0.036854 -0.009028 442217.000000 0 0 1
-35.156920 6.610569 -23.130470 42.599616 -0.185860 2.144771 0.035113 -0.010580 56654.200000 0 0 1
-35.074268 5.494969 -24.138270 42.930817 -0.155403 2.167912 0.053080 -0.015964 1637760.000000 0 0 1
-33.794403 5.475169 -24.874970 42.317884 -0.160618 2.199148 0.047738 -0.016546 1719030.000000 0 0 1
-33.465583 4.162469 -25.334240 42.179321 -0.123745 2.215087 0.050594 -0.009517 -432760.000000 0 0 1
-32.157733 4.006369 -26.109790 41.616006 -0.123946 2.249003 0.066993 -0.009424 -401587.000000 0 0 1
-31.028043 4.237969 -25.333560 40.280133 -0.135745 2.250978 0.069424 -0.011732 -469908.000000 0 0 1
-29.813533 3.854769 -25.933960 39.702346 -0.128583 2.282612 0.065357 -0.013462 -26613.500000 0 0 1
-28.560583 4.316469 -25.187490 38.324254 -0.149999 2.287921 0.044481 -0.014668 -347551.000000 0 0 1
-28.359703 5.731069 -25.173190 38.351107 -0.199400 2.286817 0.024196 -0.011287 563597.000000 0 0 1
-27.115233 6.110769 -24.568070 37.096731 -0.221660 2.294641 0.036819 -0.004015 597924.000000 0 0 1
-26.716003 7.586069 -24.866270 37.277670 -0.276670 2.301046 0.025748 -0.009441 -179763.000000 0 0 1
-27.411033 8.578769 -24.136870 37.517310 -0.303311 2.269666 0.017971 -0.016562 -198779.000000 0 0 1
-26.963843 9.913969 -24.388970 37.684977 -0.352335 2.274676 0.009047 -0.010290 569577.000000 0 0 1
-25.684433 10.446669 -23.642270 36.438715 -0.386296 2.276833 0.039496 -0.006760 419161.000000 0 0 1
-25.782113 10.627569 -22.242270 35.670452 -0.390985 2.244070 0.037544 -0.009436 -382935.000000 0 0 1
-24.542933 10.591569 -21.606670 34.371283 -0.407408 2.250581 0.075340 -0.018897 -828759.000000 0 0 1
-24.558833 10.905069 -20.061270 33.533735 -0.417885 2.212101 0.099227 -0.027228 -1072930.000000 0 0 1
-24.836933 12.274969 -19.718070 34.005153 -0.459015 2.189347 0.087469 -0.035040 567728.000000 0 0 1
-26.150583 12.780869 -19.930770 35.276610 -0.454600 2.171212 0.078239 -0.021227 308812.000000 0 0 1
-27.263693 12.059969 -19.095370 35.403178 -0.416470 2.140484 0.077452 -0.021503 -711847.000000 0 0 1
-27.042433 12.018469 -17.677370 34.470657 -0.418212 2.109267 0.097253 -0.033573 -4031.690000 0 0 1
-28.060263 11.281969 -17.072570 34.729438 -0.382283 2.084709 0.089286 -0.031234 -865141.000000 0 0 1
-27.595133 10.645669 -15.758570 33.513493 -0.368189 2.060331 0.106015 -0.039051 789351.000000 0 0 1
-26.703383 9.489669 -15.873070 32.481977 -0.341454 2.081365 0.126191 -0.035801 1098690.000000 0 0 1
-25.384293 9.748069 -16.308970 31.707565 -0.366655 2.111053 0.108665 -0.030092 -702048.000000 0 0 1
-24.343933 8.763069 -15.714770 30.271645 -0.345528 2.116623 0.103471 -0.032914 389332.000000 0 0 1
-23.005833 9.241869 -15.937870 29.473653 -0.381987 2.142124 0.096873 -0.028889 1054880.000000 0 0 1
-22.114933 8.204769 -15.534270 28.243620 -0.355264 2.153172 0.095680 -0.031752 -269084.000000 0 0 1
-20.643233 8.559369 -15.290070 27.077521 -0.393057 2.170839 0.119685 -0.033408 -491130.000000 0 0 1
-19.999333 8.752269 -16.503170 27.366589 -0.412518 2.218104 0.129102 -0.046744 217600.000000 0 0 1
-18.583233 8.777569 -16.389270 26.286697 -0.441274 2.243984 0.135330 -0.037405 110650.000000 0 0 1
-17.890733 9.188269 -17.713670 26.800685 -0.474450 2.292868 0.107920 -0.027068 -199251.000000 0 0 1
-17.703733 8.245569 -18.758970 27.079707 -0.435877 2.336066 0.143297 -0.032559 239409.000000 0 0 1
-16.576133 7.399469 -18.639170 26.018051 -0.419850 2.369416 0.133683 -0.033366 -353074.000000 0 0 1
-16.134733 6.801069 -20.066870 26.632000 -0.398917 2.424146 0.122534 -0.034127 109803.000000 0 0 1
-16.958733 5.787069 -20.654970 27.344407 -0.328853 2.427005 0.114017 -0.030502 102916.000000 0 0 1
-18.158633 6.328569 -21.171070 28.600716 -0.335352 2.404207 0.113973 -0.027634 -224416.000000 0 0 1
-19.097033 5.298069 -21.832670 29.486127 -0.270623 2.404519 0.099810 -0.011283 -33579.200000 0 0 1
-19.607433 4.369069 -20.885270 28.978176 -0.219245 2.375643 0.104337 -0.016610 54416.700000 0 0 1
-20.641133 3.591569 -21.425370 29.966685 -0.172276 2.367382 0.049448 0.000519 -417670.000000 0 0 1
-21.243033 2.670669 -20.330770 29.525229 -0.125064 2.330339 0.070136 0.001767 40896.900000 0 0 1
-22.128433 1.706969 -20.914670 30.495979 -0.076987 2.326522 0.072865 0.000943 492911.000000 0 0 1
-22.557733 0.878669 -19.874970 30.077198 -0.038932 2.292679 0.080960 -0.000994 -567322.000000 0 0 1
-23.263033 -0.431931 -20.247170 30.843203 0.018565 2.286906 0.083236 0.008418 159881.000000 0 0 1
-22.324933 -1.486131 -20.510970 30.353107 0.066470 2.312772 0.056291 -0.007058 494612.000000 0 0 1
-22.889833 -2.740731 -20.876570 31.101242 0.119168 2.306684 0.066055 -0.012436 -502779.000000 0 0 1
-23.459233 -2.874031 -22.275970 32.477908 0.121904 2.326610 0.071250 -0.013627 107898.000000 0 0 1
-22.533233 -2.828031 -23.352270 32.574114 0.124852 2.370137 0.037026 -0.006622 499698.000000 0 0 1
-21.605533 -3.933531 -23.454070 32.130439 0.180089 2.389066 0.027337 -0.011403 303876.000000 0 0 1
-20.636833 -3.786831 -24.615870 32.344397 0.181480 2.435734 0.026994 -0.006157 -486356.000000 0 0 1
-21.331433 -3.850131 -25.813190 33.707185 0.178568 2.443091 0.028198 -0.008528 222700.000000 0 0 1
-20.492733 -3.774431 -26.963630 34.076910 0.182143 2.483660 0.033814 -0.016236 -268481.000000 0 0 1
-21.290233 -3.965131 -28.228360 35.578598 0.184132 2.487185 0.038403 -0.015494 -141502.000000 0 0 1
-21.737933 -5.286631 -28.422100 36.170457 0.238567 2.474756 0.040365 -0.011803 782832.000000 0 0 1
-22.761333 -5.371131 -29.437980 37.596835 0.231737 2.470256 0.022053 -0.013376 244802.000000 0 0 1
-22.441933 -6.440531 -30.509080 38.417766 0.279475 2.488387 0.039113 -0.017139 -428793.000000 0 0 1
-21.219133 -6.223631 -31.137090 38.190360 0.285301 2.524066 0.030532 -0.016377 -491541.000000 0 0 1
-20.585533 -7.422331 -31.516550 38.368582 0.346052 2.534685 0.037376 -0.019668 -152006.000000 0 0 1
-19.133633 -7.229531 -32.021500 37.996559 0.361262 2.573163 0.052886 -0.029428 -336413.000000 0 0 1
-18.978033 -6.639331 -33.320150 38.916306 0.336535 2.598666 0.060383 -0.036882 324729.000000 0 0 1
-19.478133 -7.500431 33.932990 39.838448 0.367569 0.551452 0.057817 -0.036697 -651129.000000 0 0 1
-19.236233 -6.984231 32.519448 38.422997 0.348277 0.561695 0.057347 -0.038911 135774.000000 0 0 1
-17.886333 -6.964631 32.062402 37.368766 0.371320 0.539433 0.068578 -0.041259 542967.000000 0 0 1
-17.263633 -5.710431 32.275175 37.044959 0.319449 0.513067 0.058017 -0.042894 -918214.000000 0 0 1
-15.872933 -5.554031 31.710522 35.893655 0.336591 0.487605 0.055090 -0.032323 -823145.000000 0 0 1
-15.827833 -5.423531 30.323352 34.632942 0.330119 0.504195 0.054336 -0.032608 249739.000000 0 0 1
-14.629333 -4.803131 29.894612 33.627003 0.317234 0.475626 0.042273 -0.016524 88579.800000 0 0 1
-14.744933 -4.666731 28.348542 32.292898 0.306522 0.499428 0.044822 -0.014596 489755.000000 0 0 1
-15.884733 -3.866631 28.034102 32.452835 0.238774 0.527950 0.042211 -0.018756 194308.000000 0 0 1
-16.458033 -4.138131 26.787832 31.710865 0.246329 0.564694 0.048349 -0.017635 -129524.000000 0 0 1
-15.560633 -3.835731 25.554162 30.163908 0.241684 0.560147 0.044529 -0.010509 64039.600000 0 0 1
-15.271833 -2.436831 25.495112 29.818917 0.158230 0.545249 0.036513 0.001634 -66347.700000 0 0 1
-14.495033 -2.129631 24.361982 28.427935 0.145878 0.541429 0.039076 0.001577 -131539.000000 0 0 1
-14.270933 -0.623931 24.350552 28.231157 0.043693 0.530525 0.033816 0.002129 -280971.000000 0 0 1
-15.286633 0.082069 23.689452 28.193582 -0.005369 0.573066 0.027017 -0.000032 62192.900000 0 0 1
-15.448633 1.320169 24.264622 28.795399 -0.085248 0.568599 0.006649 0.008887 2256.640000 0 0 1
-16.263833 2.291569 23.376852 28.569928 -0.139978 0.612466 0.014559 0.009197 -318691.000000 0 0 1
-15.490933 2.870969 22.397632 27.383670 -0.183253 0.613011 0.012594 0.004525 335603.000000 0 0 1
-16.282133 3.751169 21.597432 27.306194 -0.226435 0.658460 0.016421 0.008130 343945.000000 0 0 1
-15.426133 4.341569 20.455332 25.985293 -0.274346 0.664559 0.012705 0.006816 549363.000000 0 0 1
-14.529733 5.417869 20.794332 25.939752 -0.356912 0.640763 0.012786 0.006605 288196.000000 0 0 1
-13.446333 5.521569 19.927232 24.665486 -0.389643 0.630217 0.011613 0.003984 -431591.000000 0 1 0
-12.408833 6.622169 20.246232 24.652428 -0.490216 0.607168 0.008070 0.003271 -107931.000000 0 1 0
-12.847333 7.935269 20.153432 25.182996 -0.553303 0.643035 0.018186 -0.002540 22232.900000 0 0 1
-11.812333 8.828569 20.490832 25.245773 -0.641837 0.623818 0.025945 -0.002997 52085.800000 0 0 1
-12.366633 10.258869 20.583332 26.112288 -0.692508 0.662816 0.027989 -0.000601 -365650.000000 0 0 1
-12.468233 10.820569 19.266632 25.372124 -0.714767 0.708464 0.023372 -0.004639 317878.000000 0 0 1
-12.981733 12.145369 19.471732 26.366337 -0.752125 0.739943 0.009078 0.000145 -374619.000000 0 0 1
-13.565233 12.687469 18.131532 25.956500 -0.751975 0.797448 0.015551 -0.007692 -437531.000000 0 0 1
-12.793733 13.481469 17.247332 25.355475 -0.811567 0.822732 0.022981 -0.010895 31337.000000 0 0 1
-12.528033 14.843869 17.656632 26.249738 -0.869803 0.833025 0.035852 -0.015195 -78144.800000 0 0 1
-13.585533 15.916669 17.199232 27.087279 -0.864250 0.882845 0.039473 -0.007357 -29812.800000 0 0 1
-13.609233 16.447069 15.868732 26.599511 -0.879536 0.931564 0.032802 -0.023738 -177911.000000 0 0 1
-13.881233 15.512569 14.890832 25.594244 -0.840841 0.949851 0.043759 -0.021838 -387754.000000 0 0 1
-14.475833 16.214869 13.659332 25.671951 -0.842001 1.009750 0.041050 -0.028762 -17850.400000 0 0 1
-15.829033 16.554969 13.869732 26.776758 -0.807811 1.026313 0.037790 -0.022019 -78399.500000 0 0 1
-16.241133 17.430169 12.794632 27.042334 -0.820697 1.077952 0.042935 -0.020220 301377.000000 0 0 1
-17.476433 18.289769 13.224632 28.545267 -0.808135 1.089096 0.038200 -0.022804 48374.600000 0 0 1
-18.710333 17.635269 13.276732 28.937016 -0.755828 1.094135 0.043734 -0.022971 -917524.000000 0 0 1
-19.712433 18.559169 13.582632 30.290439 -0.755274 1.105807 0.039433 -0.026586 -409409.000000 0 0 1
-21.090133 17.876969 13.560632 30.794001 -0.703126 1.114790 0.049379 -0.022388 -33029.800000 0 0 1
-21.334233 17.382469 12.255132 30.124542 -0.683682 1.151831 0.056335 -0.026465 131750.000000 0 0 1
-22.669733 16.895769 12.149532 30.773283 -0.640487 1.164938 0.055520 -0.019678 406482.000000 0 0 1
-22.890533 15.988569 10.922932 29.982016 -0.609705 1.197898 0.060916 -0.021200 -345294.000000 0 0 1
-22.221533 14.785369 10.902432 28.831696 -0.587099 1.183009 0.053623 -0.021457 -304910.000000 0 0 1
-22.617633 14.131169 9.754432 28.397116 -0.558445 1.220154 0.063169 -0.015525 -339963.000000 0 0 1
-22.003033 12.728069 9.552632 27.154926 -0.524437 1.211322 0.080556 -0.024120 -399010.000000 0 0 1
-22.437833 11.670769 10.442332 27.362484 -0.479628 1.179238 0.088046 -0.029362 1270040.000000 0 0 1
-23.817033 11.220769 10.451532 28.326512 -0.440281 1.192900 0.102949 -0.022153 914835.000000 0 0 1
-24.360233 10.665069 9.081532 28.100514 -0.412668 1.241708 0.109861 -0.014491 -515600.000000 0 0 1
-24.857633 11.738869 8.323232 28.722451 -0.441197 1.276798 0.110874 -0.013731 323334.000000 0 0 1
-25.799363 11.336569 7.347132 29.122247 -0.414015 1.315754 0.128891 -0.015182 -108266.000000 0 0 1
-26.418683 12.498869 6.472232 29.934234 -0.441903 1.352860 0.106352 -0.004089 -170140.000000 0 0 1
-25.742493 12.960569 5.291232 29.302721 -0.466420 1.389229 0.100804 -0.009089 708003.000000 0 0 1
-24.386233 13.367169 5.274132 28.305230 -0.501417 1.383370 0.092329 -0.014562 -52927.200000 0 0 1
-24.197633 14.725769 6.006532 28.956038 -0.546692 1.361843 0.079417 -0.020174 -332816.000000 0 0 1
-22.857433 15.180969 5.881332 28.062682 -0.586264 1.359653 0.061448 -0.023707 535989.000000 0 0 1
-22.735733 16.431869 6.574032 28.812112 -0.625821 1.340600 0.054174 -0.022143 -15233.700000 0 0 1
-21.291333 16.966269 6.527132 27.996046 -0.672825 1.335486 0.043075 -0.025482 -327917.000000 0 0 1
-20.924333 17.643169 5.371032 27.891883 -0.700527 1.377020 0.057842 -0.034703 -224186.000000 0 0 1
-19.578233 18.012069 5.349532 27.135942 -0.743758 1.372358 0.052143 -0.033154 -560815.000000 0 0 1
-19.030333 18.874069 4.211532 27.131551 -0.781276 1.414940 0.050113 -0.029235 -21509.700000 0 0 1
-17.696533 19.305269 4.412332 26.558038 -0.828848 1.403883 0.045571 -0.029893 237242.000000 0 0 1
-17.205733 20.213269 3.425132 26.764623 -0.865600 1.442472 0.057480 -0.027196 70934.100000 0 0 1
-17.366233 21.723369 3.799232 28.070002 -0.896405 1.435031 0.058709 -0.028646 -30993.000000 0 0 1
-16.611233 22.154569 4.920432 28.124165 -0.927431 1.394937 0.036959 -0.028205 130292.000000 0 0 1
-16.985633 23.451569 5.266032 29.431597 -0.943957 1.390903 0.027940 -0.027725 -363511.000000 0 0 1
-16.336333 23.906169 6.565932 29.689934 -0.971331 1.347803 0.019902 -0.017511 -13548.500000 0 0 1
-16.853033 23.249969 7.747232 29.742317 -0.943578 1.307279 0.020244 -0.014657 490640.000000 0 0 1
-16.042933 23.554769 8.885732 29.852288 -0.972874 1.268559 0.026297 -0.021273 131036.000000 0 0 1
-16.440533 22.766669 10.122932 29.851066 -0.945371 1.224821 0.018491 -0.016529 319695.000000 0 0 1
-17.572633 23.320769 10.792932 31.131063 -0.925047 1.216753 0.015343 -0.013781 236931.000000 0 0 1
-18.529833 22.302669 11.085532 31.042758 -0.877534 1.205629 0.018529 -0.019278 383392.000000 0 0 1
-19.929033 22.769869 11.575232 32.397829 -0.851832 1.205438 0.032301 -0.022247 490873.000000 0 0 1
-20.781733 23.544169 10.726332 33.185276 -0.847639 1.241660 0.036142 -0.016632 220553.000000 0 0 1
-20.241933 24.758969 10.320432 33.604371 -0.885440 1.258635 0.011869 -0.014051 -387496.000000 0 0 1
-21.298833 25.817369 9.867732 34.893395 -0.881008 1.284088 0.032039 -0.012825 204254.000000 0 0 1
-22.144233 26.304469 10.857532 36.057983 -0.871057 1.264937 0.055557 -0.024309 497256.000000 0 0 1
-23.292833 26.967669 10.276532 37.086633 -0.858384 1.290027 0.053198 -0.016643 632100.000000 0 0 1
-24.110033 27.650569 11.388232 38.412752 -0.853694 1.269802 0.050959 -0.028664 -283722.000000 0 0 1
-23.463733 28.794769 11.925032 39.011433 -0.887059 1.260143 0.056633 -0.027381 615109.000000 0 0 1
-24.298333 29.483669 12.863932 40.313478 -0.881515 1.246019 0.053417 -0.030219 273189.000000 0 0 1
9.034467 -33.183524 27.533892 44.055455 -1.304981 0.895687 0.068737 -0.029721 643992.000000 0 0 1
10.467467 -33.052624 27.536102 44.275058 -1.264098 0.899588 0.055275 -0.043910 1033670.000000 0 0 1
10.906467 -32.319924 26.419752 43.145473 -1.245342 0.911778 0.071086 -0.037500 -186498.000000 0 0 1
12.397767 -32.642524 26.208162 43.658983 -1.207820 0.926929 0.026485 -0.030446 -297248.000000 0 0 1
12.655667 -33.955524 25.717942 44.435977 -1.214032 0.953584 0.044260 -0.043368 1370890.000000 0 0 1
14.083067 33.941869 25.804352 44.902649 1.177497 0.958591 0.052472 -0.038693 1362700.000000 0 0 1
14.594367 32.559969 25.323532 43.754182 1.149415 0.953579 0.072828 -0.030146 -116082.000000 0 0 1
14.697767 32.400569 23.896652 42.858736 1.144930 0.979343 0.053592 -0.045358 -23502.700000 0 0 1
15.729167 31.478369 23.672522 42.410880 1.107403 0.978617 0.050121 -0.038026 -551537.000000 0 0 1
15.791667 30.921669 22.251132 41.238808 1.098626 1.000873 0.043853 -0.045461 -392327.000000 0 0 1
14.867167 29.928869 21.877432 39.942357 1.109752 0.991154 0.039197 -0.025840 -481888.000000 0 0 1
15.003567 28.565669 22.279432 39.210682 1.087168 0.966482 0.039379 -0.021352 -356719.000000 0 0 1
14.539267 28.268169 23.730942 39.669098 1.095748 0.929515 0.042074 -0.035061 134759.000000 0 0 1
15.371567 28.826269 24.756082 40.989053 1.080905 0.922326 0.045375 -0.031768 402530.000000 0 0 1
14.714467 28.529469 25.965382 41.287374 1.094617 0.890666 0.041076 -0.029819 181247.000000 0 0 1
15.460967 28.914269 27.321652 42.679611 1.079762 0.876094 0.050543 -0.030909 246805.000000 0 0 1
15.707067 30.286469 27.455322 43.792430 1.092367 0.893174 0.067946 -0.042334 125328.000000 0 0 1
16.106567 30.658969 28.776702 45.027686 1.087078 0.877483 0.096117 -0.041759 9213.640000 0 0 1
15.887267 32.199069 29.023942 46.168978 1.112436 0.890985 0.109911 -0.039488 392797.000000 0 0 1
16.788367 33.066669 28.323092 46.663170 1.100998 0.918555 0.099988 -0.041050 286022.000000 0 0 1
16.334167 -33.772424 28.444882 47.079645 -1.120311 0.922052 0.094553 -0.032380 -273953.000000 0 0 1
17.207867 -32.690224 27.800962 46.234781 -1.086259 0.925670 0.087593 -0.032608 -851997.000000 0 0 1
17.221167 -32.574224 26.427352 45.343727 -1.084473 0.948598 0.097902 -0.032392 595561.000000 0 0 1
18.050367 -31.528424 25.851132 44.588545 -1.050835 0.952349 0.103427 -0.038312 -574196.000000 0 0 1
19.558867 -31.641824 25.859972 45.304442 -1.017150 0.963311 0.109606 -0.031199 -1024870.000000 0 0 1
19.995267 -31.082624 27.098192 45.828509 -0.999150 0.938132 0.104845 -0.030768 -527517.000000 0 0 1
21.206167 -30.405924 27.020832 45.873163 -0.961794 0.940934 0.120211 -0.029300 -555492.000000 0 0 1
21.309467 -29.553124 28.300812 46.134765 -0.946078 0.910390 0.124955 -0.024952 -692936.000000 0 0 1
20.380067 -28.536724 28.318102 45.073348 -0.950624 0.891472 0.120474 -0.030421 -251009.000000 0 0 1
20.493667 -27.803824 29.497832 45.422078 -0.935615 0.863980 0.135608 -0.021399 -3989.230000 0 0 1
19.087867 -27.595124 30.115732 45.086526 -0.965655 0.839340 0.111093 -0.025915 -95347.000000 0 0 1
18.354867 -26.670124 29.380412 43.719621 -0.968021 0.833865 0.126944 -0.027567 -1010340.000000 0 0 1
17.142767 -26.405024 30.004442 43.489842 -0.994967 0.809420 0.112698 -0.023116 -851568.000000 0 0 1
16.192767 -25.611524 29.112932 42.020456 -1.007004 0.805393 0.104364 -0.010409 -748625.000000 0 0 1
15.626567 -26.391324 28.061252 41.570728 -1.036198 0.829799 0.103667 -0.018162 908455.000000 0 0 1
14.826967 -25.584724 27.112832 40.118858 -1.045569 0.828730 0.095591 -0.031701 519835.000000 0 0 1
13.364167 -25.208424 27.505492 39.631020 -1.083323 0.803711 0.048182 -0.015126 487289.000000 0 0 1
12.397867 -26.248624 27.541352 40.015290 -1.129533 0.811694 0.042138 -0.012547 293409.000000 0 0 1
12.142867 -26.958724 26.362882 39.613427 -1.147590 0.842628 0.038094 -0.014266 -570918.000000 0 0 1
11.129867 -28.120524 26.522162 40.225153 -1.193923 0.850852 0.048036 -0.018551 120650.000000 0 0 1
9.763467 -27.879424 26.782872 39.873673 -1.233940 0.834304 0.048574 -0.026977 -96104.500000 0 0 1
9.086967 -29.129924 26.774292 40.595421 -1.268416 0.850590 0.048532 -0.027499 -366002.000000 0 0 1
7.581467 -28.920424 27.017862 40.296829 -1.314416 0.835953 0.028350 -0.020097 -491417.000000 0 0 1
6.776167 -28.646024 25.915872 39.219174 -1.338518 0.848918 0.035860 -0.031029 -407237.000000 0 0 1
6.883467 -27.376224 25.243042 37.868865 -1.324463 0.841170 0.061159 -0.032184 -638710.000000 0 0 1
5.672067 -26.969724 24.342462 36.770829 -1.363505 0.847306 0.070290 -0.030244 -218400.000000 0 0 1
5.361867 -27.812024 23.199932 36.612773 -1.380343 0.884525 0.057168 -0.019831 1338.700000 0 0 1
4.638867 -28.972924 23.595572 37.652363 -1.412033 0.893525 0.060146 -0.022193 172002.000000 0 0 1
3.114867 -28.765224 23.869782 37.508759 -1.462931 0.881002 0.067079 -0.029169 -542474.000000 0 0 1
2.403867 -28.492724 22.661532 36.485051 -1.486628 0.900628 0.072722 -0.022849 175576.000000 0 0 1
1.069667 -28.078324 22.870632 36.229854 -1.532719 0.887613 0.073151 -0.019843 192203.000000 0 0 1
0.807467 -26.671524 23.547102 35.587754 -1.540531 0.847762 0.076504 -0.024643 -522924.000000 0 0 1
1.368467 -26.530024 24.812642 36.350820 -1.519260 0.819498 0.069703 -0.028926 -200759.000000 0 0 1
1.197967 -25.227324 25.252412 35.714666 -1.523345 0.785464 0.081728 -0.028772 338307.000000 0 0 1
2.330667 -24.804224 26.254242 36.193463 -1.477109 0.759201 0.074618 -0.028384 430370.000000 0 0 1
3.644067 -24.760324 25.718402 35.885778 -1.424672 0.771775 0.080467 -0.028449 506317.000000 0 0 1
4.620067 -24.001224 26.432072 36.000809 -1.380629 0.746297 0.075117 -0.024539 362620.000000 0 0 1
4.349167 -22.492424 26.692042 35.175126 -1.379792 0.709277 0.075261 -0.026137 -790308.000000 0 0 1
4.478967 -21.622424 25.589452 33.799563 -1.366541 0.711943 0.081269 -0.020061 -19350.600000 0 0 1
3.838767 -20.409024 25.744262 33.076146 -1.384877 0.678790 0.082775 -0.036421 -448619.000000 0 0 1
3.988667 -19.532624 24.459612 31.554802 -1.369360 0.683848 0.090251 -0.036796 1032160.000000 0 0 1
5.368967 -19.167024 24.265652 31.385068 -1.297681 0.686989 0.084022 -0.021580 878443.000000 0 0 1
5.426567 -18.429124 23.066032 30.018696 -1.284433 0.694476 0.080385 -0.016938 401111.000000 0 0 1
6.852867 -17.906124 22.757732 29.757444 -1.205283 0.700105 0.070067 -0.018111 -402629.000000 0 0 1
7.750267 -18.814524 22.217232 30.127369 -1.180048 0.741519 0.066909 -0.011845 -1301910.000000 0 0 1
8.972967 -18.259424 21.952732 29.930639 -1.114040 0.747408 0.050438 -0.007869 -503973.000000 0 0 1
10.103167 -18.224024 23.007432 31.040795 -1.064591 0.735940 0.041404 -0.001239 -110941.000000 0 0 1
9.827367 -17.274424 23.988342 31.151620 -1.053561 0.691875 0.045659 -0.000514 169556.000000 0 0 1
10.907567 -17.240924 24.901602 32.191836 -1.006711 0.686392 0.055154 0.001057 121652.000000 0 0 1
10.758267 -16.153024 25.981002 32.429508 -0.983240 0.641577 0.069501 -0.005122 -331497.000000 0 0 1
11.069767 -14.813924 25.623342 31.599806 -0.929055 0.625159 0.084207 -0.005735 144254.000000 0 0 1
11.093867 -13.954524 26.811152 32.196902 -0.899111 0.586786 0.078452 -0.013447 -154571.000000 0 0 1
11.182567 -12.384424 26.548452 31.356723 -0.836351 0.561121 0.091902 -0.015287 352940.000000 0 0 1
10.015667 -11.821724 25.966112 30.237489 -0.867915 0.537993 0.103263 -0.013838 519821.000000 0 0 1
10.393367 -10.472024 25.539432 29.494880 -0.789168 0.523862 0.100096 -0.010787 -210262.000000 0 0 1
9.282467 -9.788224 24.775442 28.209858 -0.811912 0.498596 0.101836 -0.015399 -302744.000000 0 0 1
8.162767 -9.494724 25.579382 28.479560 -0.860689 0.455215 0.070171 -0.017465 -289302.000000 0 0 1
7.142067 -8.862824 24.844782 27.328044 -0.892501 0.429602 0.066558 -0.015833 515756.000000 0 0 1
5.722067 -9.139324 25.437692 27.628708 -1.011411 0.400931 0.052232 -0.014579 -858659.000000 0 0 1
5.192067 -8.125624 26.290012 28.002644 -1.002211 0.351549 0.046387 -0.009233 130627.000000 0 0 1
3.827667 -8.239924 26.628722 28.136031 -1.135928 0.328808 0.032412 -0.008511 550598.000000 0 0 1
2.784967 -8.453924 25.513582 27.021617 -1.252564 0.335665 0.028988 -0.009116 -1217070.000000 0 0 1
2.837167 -7.282524 24.725192 25.931059 -1.199300 0.306163 0.031407 -0.013743 -298847.000000 0 0 1
1.735167 -7.169624 23.871972 24.985704 -1.333346 0.299699 0.041774 -0.024317 -142829.000000 0 1 0
1.820367 -5.898124 23.039932 23.852465 -1.271437 0.261764 0.029028 -0.032236 -199565.000000 0 1 0
1.619167 -4.672724 23.757622 24.266864 -1.237230 0.205226 0.037524 -0.028249 -175686.000000 0 1 0
1.985267 -3.515924 23.083332 23.433806 -1.056775 0.173166 0.033621 -0.033891 -653753.000000 0 1 0
0.884767 -2.780424 22.194732 22.385703 -1.262715 0.130714 0.021521 -0.031107 374308.000000 0 1 0
-0.016033 -2.004424 22.924832 23.012299 1.562798 0.087216 0.038633 -0.027646 -256309.000000 0 1 0
-0.973533 -2.791424 23.639212 23.823354 1.235228 0.124414 0.043613 -0.023138 -886581.000000 0 1 0
-2.044333 -1.904424 24.275812 24.436063 0.749982 0.114588 0.049211 -0.023953 -187689.000000 0 1 0
-1.497233 -0.993424 25.208852 25.272808 0.585812 0.071157 0.065125 -0.025291 772626.000000 0 0 1
-2.522133 -0.085424 25.695122 25.818748 0.033857 0.097898 0.058266 -0.025486 376825.000000 0 0 1
-1.912433 1.047576 26.617752 26.706920 -0.501131 0.081739 0.087721 -0.036831 481888.000000 0 0 1
-1.516233 0.697576 27.980812 28.030545 -0.431198 0.059578 0.084643 -0.022717 113430.000000 0 0 1
-0.749433 -0.475424 28.127432 28.141431 0.565315 0.031543 0.096355 -0.027883 -1192320.000000 0 0 1
0.478367 -0.313424 29.082642 29.088265 -0.580019 0.019662 0.110638 -0.032159 363098.000000 0 0 1
1.607967 0.392576 28.569972 28.617879 0.239460 0.057870 0.101400 -0.026718 182222.000000 0 0 1
2.229467 -0.147424 27.418382 27.509270 -0.066029 0.081311 0.081497 -0.030305 -610012.000000 0 0 1
3.214867 -1.331424 27.682182 27.900023 -0.392641 0.125045 0.069855 -0.032956 -87521.000000 0 0 1
2.527167 -2.527424 28.101632 28.328011 -0.785449 0.126507 0.079696 -0.028760 727522.000000 0 0 1
3.414367 -3.619124 28.507862 28.938801 -0.814502 0.172792 0.074827 -0.024568 649891.000000 0 0 1
4.082967 -4.412824 27.344262 27.997363 -0.824205 0.216418 0.056751 -0.022960 -232492.000000 0 0 1
4.997067 -3.668724 26.621982 27.334231 -0.633296 0.228784 0.057037 -0.020906 -555727.000000 0 0 1
5.432467 -4.385224 25.449392 26.389647 -0.679131 0.267743 0.052898 -0.014721 696741.000000 0 0 1
6.789567 -3.844524 24.843012 26.039467 -0.515226 0.304316 0.058225 -0.016966 1178210.000000 0 0 1
7.914367 -4.001424 25.741752 27.226576 -0.468110 0.331780 0.054386 -0.017978 930166.000000 0 0 1
8.677867 -5.234424 25.681552 27.608816 -0.542764 0.375856 0.059388 -0.016708 821724.000000 0 0 1
9.576167 -5.396124 24.393202 26.755363 -0.513145 0.423363 0.054912 -0.014769 -33137.600000 0 0 1
8.789667 -5.738124 23.263512 25.522056 -0.578359 0.423865 0.063840 -0.015413 -83620.200000 0 0 1
9.501967 -5.708024 22.057032 24.685656 -0.540949 0.465681 0.075001 -0.015380 18263.000000 0 1 0
9.433867 -4.228124 21.473732 23.832668 -0.421344 0.448679 0.078817 -0.015813 668151.000000 0 1 0
8.097867 -3.863524 21.134232 22.959923 -0.445164 0.401480 0.062442 -0.021043 165134.000000 0 1 0
8.051167 -2.565424 20.519232 22.191025 -0.308469 0.390645 0.047036 -0.013863 541696.000000 0 1 0
6.641467 -1.895424 20.443832 21.578971 -0.278002 0.325797 0.041002 -0.007593 340772.000000 0 1 0
6.069267 -1.546424 21.685432 22.571783 -0.249487 0.281168 0.043050 -0.006764 -797336.000000 0 1 0
4.855267 -0.930424 21.474832 22.036509 -0.189337 0.226263 0.024974 -0.002939 -1055560.000000 0 1 0
4.249467 -0.449424 22.784132 23.181386 -0.105368 0.185396 0.021278 -0.015473 -433132.000000 0 1 0
3.006267 0.170576 22.589132 22.788937 0.056679 0.132518 0.024602 -0.014653 -704038.000000 0 1 0
2.348467 0.395576 23.778222 23.897189 0.166874 0.099824 0.038948 -0.019593 -482297.000000 0 1 0
0.901467 0.792576 23.447822 23.478526 0.721208 0.051147 0.047384 -0.034601 -449173.000000 0 1 0
0.750467 2.160576 23.295122 23.407136 1.236488 0.097870 0.055318 -0.019713 -272152.000000 0 1 0
-0.584433 2.445576 22.993432 23.130507 -1.336220 0.108922 0.049088 -0.023884 -257766.000000 0 1 0
-0.854533 3.918576 22.525532 22.879796 -1.356085 0.176203 0.043559 -0.018307 -170632.000000 0 1 0
-0.822633 4.831576 23.645052 24.147657 -1.402152 0.204384 0.052559 -0.018484 159982.000000 0 1 0
-1.575233 5.998576 23.323412 24.133915 -1.313993 0.259897 0.049862 -0.010606 -116848.000000 0 1 0
-1.303833 7.231576 24.259772 25.348219 -1.392416 0.294111 0.053059 -0.011606 52931.900000 0 0 1
-0.218433 8.073576 23.927392 25.253722 -1.543748 0.325535 0.046039 -0.012322 -72481.400000 0 0 1
-0.331733 9.443576 24.465552 26.226979 -1.535683 0.368582 0.049127 -0.015462 -806604.000000 0 0 1
0.374767 10.569576 23.715692 25.967103 1.535354 0.419488 0.044845 -0.020201 128784.000000 0 0 1
1.785767 10.673576 23.753682 26.102713 1.405024 0.427493 0.043123 -0.012468 -248297.000000 0 0 1
2.207067 11.207576 25.008852 27.494065 1.376358 0.428454 0.049916 -0.026211 -588464.000000 0 0 1
3.531867 12.020576 24.817832 27.800956 1.285020 0.467501 0.054923 -0.030311 104060.000000 0 0 1
4.689267 11.259576 24.628562 27.483329 1.176173 0.459831 0.064493 -0.024032 -317309.000000 0 0 1
4.821167 10.685576 23.345702 26.123687 1.146958 0.465359 0.048410 -0.017425 -1136050.000000 0 0 1
6.236667 10.291576 22.898732 25.868214 1.025979 0.483857 0.062368 -0.013495 217310.000000 0 0 1
7.067467 11.351576 22.413232 26.099049 1.013926 0.537921 0.056069 -0.012396 499998.000000 0 0 1
8.300167 10.848576 21.912532 25.821376 0.917706 0.557425 0.060235 -0.010595 308710.000000 0 0 1
9.160167 11.868576 21.178432 25.947982 0.913489 0.616014 0.057548 -0.019584 -382406.000000 0 0 1
8.702067 12.066576 19.854032 24.809491 0.946002 0.643068 0.059969 -0.017713 277027.000000 0 1 0
9.396667 13.062576 19.047932 24.934955 0.947196 0.701454 0.076676 -0.018975 1041900.000000 0 1 0
10.832167 12.666576 18.545732 24.934357 0.863304 0.732085 0.060506 -0.016730 836658.000000 0 1 0
11.867767 12.648576 19.528032 26.118469 0.817236 0.726248 0.057988 -0.019265 -110950.000000 0 0 1
13.049667 12.245576 18.894932 26.024343 0.753621 0.758239 0.049228 -0.023496 -822221.000000 0 0 1
14.253167 12.092576 19.790932 27.222494 0.703572 0.756844 0.045529 -0.015097 -414532.000000 0 0 1
14.763267 13.279576 20.351332 28.433746 0.732539 0.773105 0.044068 -0.014505 354636.000000 0 0 1
15.979067 13.116576 21.078332 29.524079 0.687332 0.775692 0.038456 -0.013436 537095.000000 0 0 1
16.606967 14.435576 21.581932 30.821373 0.715563 0.795082 0.037743 -0.009226 -106594.000000 0 0 1
16.059667 14.900576 22.790032 31.612112 0.747978 0.765657 0.049148 -0.009308 114542.000000 0 0 1
16.672967 16.091576 23.174532 32.771720 0.767656 0.785337 0.049643 -0.006004 -195750.000000 0 0 1
-21.429133 12.336569 -24.769070 34.998650 -0.522354 2.357055 0.062292 -0.005081 130677.000000 0 0 1
-21.304533 12.253669 -26.215430 35.934445 -0.521960 2.388438 0.066138 -0.018561 -168303.000000 0 0 1
-22.042533 13.309969 -26.721360 37.108754 -0.543232 2.374717 0.054796 -0.019922 -193378.000000 0 0 1
-21.664233 13.624669 -28.191380 38.075248 -0.561400 2.404480 0.056188 -0.010214 129235.000000 0 0 1
-20.377733 14.184369 -28.327050 37.667892 -0.608085 2.421919 0.062191 -0.018158 -273980.000000 0 0 1
-20.200833 14.733169 -29.621040 38.762688 -0.630144 2.440540 0.062581 -0.021560 475451.000000 0 0 1
-18.722133 15.144469 -29.917950 38.405168 -0.680149 2.463879 0.061647 -0.028700 774387.000000 0 0 1
-17.899933 14.012869 -30.261980 37.849116 -0.664193 2.497330 0.062121 -0.032555 316780.000000 0 0 1
-16.493533 14.181869 -30.173540 37.196836 -0.710181 2.516973 0.055838 -0.032308 660124.000000 0 0 1
-15.842833 13.710769 -28.896190 35.692722 -0.713381 2.514236 0.085936 -0.025193 -143915.000000 0 0 1
-16.464833 14.355269 -27.794350 35.350960 -0.717057 2.475497 0.087385 -0.026846 -48654.600000 0 0 1
-16.981633 13.402269 -26.901430 34.520771 -0.668134 2.464316 0.102631 -0.017928 55631.600000 0 0 1
-17.605233 13.955669 -25.589580 34.051895 -0.670274 2.421110 0.093792 -0.016091 -195218.000000 0 0 1
-16.635933 14.398769 -24.694670 33.074243 -0.713437 2.413798 0.125894 -0.027378 -208094.000000 0 0 1
-17.250933 14.839169 -23.545970 32.744593 -0.710383 2.373273 0.110450 -0.028693 -53783.800000 0 0 1
-16.202133 15.473669 -22.605370 31.826818 -0.762405 2.360666 0.106983 -0.018845 116553.000000 0 0 1
-15.833233 16.750569 -23.086070 32.622684 -0.813544 2.356990 0.092277 -0.030166 -82979.900000 0 0 1
-15.039533 17.426869 -22.114470 31.920732 -0.858799 2.336152 0.079245 -0.028573 -383800.000000 0 0 1
-14.972033 18.930169 -22.440570 32.955914 -0.901624 2.319824 0.078575 -0.025318 -271048.000000 0 0 1
-16.158033 19.654369 -22.280370 33.819982 -0.882719 2.290010 0.065158 -0.030702 -229510.000000 0 0 1
-17.028433 19.470069 -23.370470 34.860149 -0.852196 2.305553 0.044350 -0.025493 36880.200000 0 0 1
-18.443633 20.125569 -23.347970 35.921217 -0.828979 2.278351 0.031315 -0.024667 488211.000000 0 0 1
-18.350333 21.486369 -23.592370 36.810307 -0.863958 2.266489 0.030688 -0.023631 116058.000000 0 0 1
-19.566733 22.205969 -23.496970 37.789810 -0.848495 2.241810 0.038212 -0.032092 59808.800000 0 0 1
-19.322533 23.674369 -23.852870 38.765906 -0.886267 2.233570 0.034899 -0.032278 -13843.200000 0 0 1
-18.551333 24.252169 -22.812770 38.114855 -0.917805 2.212457 0.040007 -0.026913 -280159.000000 0 0 1
-17.743933 25.312269 -23.293470 38.705864 -0.959399 2.216558 0.038870 -0.014587 -428400.000000 0 0 1
-16.635433 25.710669 -22.287170 37.874716 -0.996516 2.199930 0.053773 -0.033625 1268610.000000 0 0 1
-15.522033 24.764069 -22.100070 36.641585 -1.010906 2.218230 0.062565 -0.044644 1236120.000000 0 0 1
-15.980833 23.499469 -21.630070 35.713751 -0.973585 2.221380 0.065018 -0.025441 -1420940.000000 0 0 1
-14.888933 22.454769 -21.425270 34.422946 -0.985293 2.242618 0.090464 -0.027437 -185899.000000 0 0 1
-14.034533 22.803669 -20.363170 33.639770 -1.019093 2.220977 0.094393 -0.028575 -445936.000000 0 0 1
-12.990933 21.879869 -20.220670 32.501823 -1.034993 2.242269 0.076292 -0.026699 -369040.000000 0 0 1
-12.122733 22.164169 -18.987770 31.602950 -1.070296 2.215326 0.063363 -0.024818 -127796.000000 0 0 1
-12.610633 21.857169 -17.654770 30.796994 -1.047493 2.181279 0.086720 -0.019226 1516990.000000 0 0 1
-13.817933 22.618169 -17.254670 31.626579 -1.022385 2.147871 0.080677 -0.027032 1634800.000000 0 0 1
-14.409933 22.403369 -15.833670 30.988098 -0.999214 2.107097 0.095593 -0.022066 309541.000000 0 0 1
-13.592133 23.007469 -14.842770 30.567917 -1.037191 2.077808 0.084922 -0.032960 -41202.800000 0 0 1
-14.171233 22.924669 -13.570970 30.175081 -1.017127 2.037272 0.084996 -0.028190 -209155.000000 0 0 1
-13.315433 23.487469 -12.429170 29.722824 -1.055058 2.002225 0.109522 -0.037095 -449833.000000 0 0 1
-13.110233 24.914869 -12.441570 30.780214 -1.086408 1.986908 0.085831 -0.030106 498704.000000 0 0 1
-12.015533 25.273269 -11.612870 30.298019 -1.127002 1.964150 0.050609 -0.031069 -34632.600000 0 0 1
-11.703633 26.787869 -11.688770 31.483207 -1.158889 1.951173 0.067749 -0.031854 -70348.400000 0 0 1
-10.930233 27.079169 -12.851970 31.904930 -1.187156 1.985393 0.069100 -0.034143 259909.000000 0 0 1
-10.836133 28.455869 -13.196570 33.185957 -1.206946 1.979756 0.058724 -0.022870 -744006.000000 0 0 1
-10.098533 28.794169 -14.534870 33.798624 -1.233485 2.015337 0.083783 -0.047229 831725.000000 0 0 1
-8.667433 28.784369 -14.544670 33.394786 -1.278316 2.021431 0.058884 -0.044097 595465.000000 0 0 1
-8.051933 27.526969 -14.291470 32.043935 -1.286225 2.033083 0.061755 -0.037121 -2109880.000000 0 0 1
-6.682033 27.495969 -14.836170 31.949802 -1.332399 2.053707 0.073311 -0.039853 -1421820.000000 0 0 1
-5.828233 28.421669 -14.246770 32.322284 -1.368537 2.027255 0.075583 -0.044778 229861.000000 0 0 1
-4.436833 28.237369 -14.529670 32.064713 -1.414944 2.041076 0.095065 -0.050712 1169500.000000 0 0 1
-3.428033 29.178469 -13.819070 32.466924 -1.453847 2.010460 0.071132 -0.045936 -197643.000000 0 0 1
-3.397033 30.598369 -14.145170 33.880465 -1.460229 2.001491 0.059097 -0.045708 27449.900000 0 0 1
-4.530433 31.381469 -13.793570 34.577218 -1.427420 1.981136 0.045606 -0.043682 -437141.000000 0 0 1
-4.356233 32.898869 -14.163170 36.081959 -1.439149 1.974175 0.044789 -0.040806 140199.000000 0 0 1
-3.507433 33.637669 -13.281570 36.334488 -1.466901 1.945005 0.031790 -0.042705 90852.800000 0 0 1
-3.635933 -33.191724 -13.623870 36.062729 1.461688 1.958197 0.033103 -0.038263 752381.000000 0 0 1
-2.628833 -32.362224 -12.722670 34.872491 1.489743 1.944251 0.024492 -0.038705 567293.000000 0 0 1
-3.109433 -32.385824 -11.419870 34.480772 1.475078 1.908366 0.019666 -0.041646 -101548.000000 0 0 1
-2.204533 -31.688224 -10.637070 33.498519 1.501339 1.893929 0.008699 -0.033095 -402681.000000 0 0 1
-2.584633 -31.647524 -9.151070 33.045245 1.489308 1.851389 0.002801 -0.025340 141516.000000 0 0 1
-1.707333 -30.805324 -8.368970 31.967525 1.515430 1.835679 0.008095 -0.023711 157240.000000 0 0 1
-1.867333 -30.983824 -6.982670 31.815750 1.510601 1.792070 -0.003389 -0.027686 49608.500000 0 0 1
-0.919133 -30.174224 -6.064370 30.791317 1.540345 1.769043 0.027912 -0.026561 15035.800000 0 0 1
-0.968433 -30.577724 -4.720370 30.955080 1.539136 1.723885 0.035170 -0.034318 355844.000000 0 0 1
-0.010933 -29.827624 -3.944670 30.087334 1.570430 1.702282 0.042268 -0.033575 130280.000000 0 0 1
-0.194933 -30.062824 -2.476070 30.165250 1.564312 1.652972 0.043768 -0.023574 -248001.000000 0 0 1
-0.006233 -31.354424 -1.908270 31.412441 1.570598 1.631583 0.047270 -0.023916 1635740.000000 0 0 1
1.277867 -32.000724 -2.213170 32.102607 -1.530885 1.639792 0.045972 -0.021147 2403700.000000 0 0 1
2.647567 -31.498024 -1.617370 31.650450 -1.486938 1.621920 0.052143 -0.023556 -262012.000000 0 0 1
2.866067 -32.004624 -0.299170 32.134091 -1.481483 1.580107 0.049073 -0.020897 1369710.000000 0 0 1
4.222767 -31.883024 0.223330 32.162227 -1.439117 1.563852 0.050073 -0.017515 1483140.000000 0 0 1
4.798567 -30.457624 0.361530 30.835431 -1.414532 1.559072 0.030731 -0.015843 -1091010.000000 0 0 1
5.021167 -29.853224 -0.863570 30.284862 -1.404161 1.599315 0.023080 -0.021194 -166881.000000 0 0 1
4.652767 -28.508024 -0.772470 28.895543 -1.409014 1.597533 0.046032 -0.012655 -377228.000000 0 0 1
4.261867 -27.832924 -2.136970 28.238304 -1.418853 1.646545 0.036866 -0.013204 464084.000000 0 0 1
2.953267 -28.152324 -2.637370 28.429401 -1.466275 1.663699 0.045918 -0.019111 812652.000000 0 0 1
2.465967 -27.180924 -3.620370 27.531631 -1.480320 1.702677 0.045665 -0.020133 68366.300000 0 0 1
2.979967 -27.291324 -5.054570 27.914965 -1.462036 1.752871 0.041776 -0.017742 -193378.000000 0 0 1
2.167167 -28.114924 -5.858970 28.800575 -1.493866 1.775659 0.050158 -0.021087 4679.560000 0 0 1
2.694367 -28.134224 -7.152970 29.154059 -1.475319 1.818678 0.056890 -0.029049 595118.000000 0 0 1
1.722867 -28.865724 -8.188070 30.053998 -1.511181 1.846730 0.051882 -0.027791 203761.000000 0 0 1
0.593367 -28.099824 -8.488670 29.360002 -1.549683 1.864108 0.036582 -0.024221 -718355.000000 0 0 1
0.101867 -28.359324 -9.792870 30.002699 -1.567204 1.903288 0.046715 -0.017307 335208.000000 0 0 1
-1.362933 -27.890824 -9.977370 29.653053 1.521968 1.913962 0.015487 -0.015579 -491609.000000 0 0 1
-1.517533 -26.498224 -9.679570 28.251599 1.513590 1.920501 0.029281 -0.010557 722417.000000 0 0 1
-2.897933 -26.069824 -9.582370 27.925894 1.460090 1.921050 0.034090 -0.020288 1433490.000000 0 0 1
-3.689133 -26.652524 -8.359370 28.175269 1.433254 1.872023 0.040212 -0.016737 -583636.000000 0 0 1
-3.262933 -26.183424 -7.054070 27.312604 1.446817 1.832029 0.050435 -0.025658 -274470.000000 0 0 1
-2.128733 -26.827524 -6.527470 27.692154 1.491613 1.808751 0.047361 -0.027492 3171.130000 0 0 1
-1.682333 -26.464324 -5.099570 27.003635 1.507312 1.760785 0.052029 -0.027665 53951.400000 0 0 1
-2.492933 -26.991624 -4.081470 27.412057 1.478698 1.720245 0.062118 -0.032382 -29671.800000 0 0 1
-2.103733 -26.321024 -2.896770 26.563382 1.491040 1.680065 0.064792 -0.033611 -77785.100000 0 0 1
-3.055633 -26.557024 -1.694770 26.785904 1.456241 1.634110 0.060767 -0.028818 -6284.110000 0 0 1
-4.319333 -25.993224 -1.936670 26.420731 1.406129 1.644163 0.064084 -0.022068 -610305.000000 0 0 1
-5.113233 -25.965824 -0.792770 26.476360 1.376362 1.600743 0.070935 -0.029238 -645926.000000 0 0 1
-6.336933 -25.099824 -1.023470 25.907632 1.323495 1.610311 0.065422 -0.022360 -636277.000000 0 0 1
-6.106433 -23.707524 -0.773070 24.493527 1.318702 1.602364 0.057233 -0.023564 -80957.500000 0 1 0
-6.581133 -23.256424 0.461430 24.174066 1.295025 1.551707 0.059578 -0.012317 -161322.000000 0 1 0
-6.046133 -21.839324 0.807930 22.675197 1.300715 1.535158 0.041289 -0.010198 725654.000000 0 1 0
-4.697433 -21.875924 1.280730 22.411207 1.359278 1.513618 0.039567 -0.021132 399292.000000 0 1 0
-4.313533 -20.545424 1.666530 21.059400 1.363851 1.491579 0.020837 -0.010001 -120207.000000 0 1 0
-3.239033 -20.453724 2.734330 20.888339 1.413741 1.439517 0.028561 -0.007583 -150949.000000 0 1 0
-3.817133 -20.796524 4.001330 21.519214 1.389270 1.383766 0.021880 0.009482 -41685.000000 0 1 0
-2.982333 -20.530724 5.090430 21.361587 1.426543 1.330183 0.037926 0.000058 -102005.000000 0 1 0
-1.909433 -21.561924 5.468430 22.326357 1.482471 1.323347 0.034654 -0.016837 1007930.000000 0 1 0
-0.899633 -21.759624 4.420330 22.222284 1.529476 1.370546 0.058453 -0.021316 583123.000000 0 1 0
-0.121233 -22.921124 4.636830 23.385739 1.565507 1.371198 0.056905 -0.022414 -1223800.000000 0 1 0
0.852867 -23.217224 3.445130 23.486928 -1.534079 1.423582 0.048868 -0.033498 886321.000000 0 1 0
1.959967 -22.309024 3.313330 22.638732 -1.483166 1.423912 0.022347 -0.030681 169427.000000 0 1 0
2.857067 -22.479524 4.375030 23.078837 -1.444378 1.380073 0.047219 -0.032846 -1783050.000000 0 1 0
4.023267 -21.492824 4.578830 22.340408 -1.385747 1.364376 0.057387 -0.036702 -64081.400000 0 1 0
5.004167 -21.749624 3.618130 22.609261 -1.344651 1.410077 0.036861 -0.019094 -635960.000000 0 1 0
6.199967 -21.031424 3.762430 22.246713 -1.284121 1.400857 0.064863 -0.016584 228280.000000 0 1 0
6.861467 -20.630524 2.421530 21.876061 -1.249717 1.459876 0.072520 -0.012226 487089.000000 0 1 0
7.564667 -21.690424 1.691730 23.033902 -1.235230 1.497285 0.067162 -0.009358 193494.000000 0 1 0
7.307167 -21.527324 0.313330 22.735843 -1.243563 1.557015 0.060817 -0.021792 132084.000000 0 1 0
8.239767 -22.416824 -0.550170 23.889547 -1.218555 1.593828 0.053412 -0.012007 855081.000000 0 1 0
9.533767 -21.817624 -0.715270 23.820433 -1.158826 1.600828 0.057079 -0.008911 232374.000000 0 1 0
10.437467 -22.814524 -1.213770 25.118050 -1.141729 1.619138 0.055352 -0.008618 485639.000000 0 0 1
11.816367 -22.272024 -1.633270 25.265335 -1.083010 1.635486 0.059910 -0.008445 -176383.000000 0 0 1
11.638467 -21.280124 -2.589570 24.392693 -1.070323 1.677158 0.059407 -0.008411 728963.000000 0 1 0
12.917667 -21.022224 -3.207870 24.881528 -1.019800 1.700082 0.053372 -0.010694 580439.000000 0 1 0
12.934367 -19.829124 -4.155570 24.036655 -0.992812 1.744554 0.044916 -0.017551 -182615.000000 0 1 0
12.960667 -18.542224 -3.533370 22.897110 -0.960754 1.725731 0.062820 -0.018113 124744.000000 0 1 0
12.891867 -17.498224 -4.494570 22.194351 -0.935827 1.774716 0.049243 -0.021053 -751806.000000 0 1 0
13.456467 -16.155624 -3.926070 21.389126 -0.876297 1.755398 0.071627 -0.014882 1650880.000000 0 1 0
14.876867 -16.122724 -3.655770 22.240235 -0.825566 1.735922 0.064336 -0.008957 1736430.000000 0 1 0
15.835767 -16.323024 -4.700870 23.223066 -0.800549 1.774627 0.062069 -0.002168 -216350.000000 0 1 0
17.266167 -15.970224 -4.283670 23.906451 -0.746426 1.750954 0.062589 -0.000116 -326437.000000 0 1 0
17.922267 -16.817424 -3.402770 24.811535 -0.753605 1.708375 0.066251 -0.010077 -217955.000000 0 1 0
19.254967 -16.397524 -3.231170 25.496529 -0.705422 1.697868 0.052313 -0.001465 -189770.000000 0 0 1
20.030667 -17.218624 -2.187270 26.504580 -0.710049 1.653415 0.054040 -0.016325 -767015.000000 0 0 1
21.405567 -17.081024 -2.321670 27.483628 -0.673503 1.655372 0.060792 -0.011848 -682692.000000 0 0 1
22.027267 -17.677824 -1.197870 28.269079 -0.676289 1.613183 0.054392 -0.010102 287077.000000 0 0 1
23.560167 -17.914924 -1.272570 29.625081 -0.650118 1.613765 0.058332 -0.012872 810573.000000 0 0 1
24.381667 -16.721124 -1.181070 29.588116 -0.601137 1.610724 0.066542 -0.009438 743407.000000 0 0 1
25.698867 -17.010524 -0.751870 30.827828 -0.584707 1.595188 0.082975 -0.008489 61711.400000 0 0 1
26.509767 -15.815424 -0.312970 30.870590 -0.537907 1.580935 0.082307 -0.015016 -324821.000000 0 0 1
25.807267 -15.136324 0.677530 29.926282 -0.530444 1.548154 0.081772 -0.013431 -156338.000000 0 0 1
26.599567 -14.222624 1.352230 30.193518 -0.491016 1.525996 0.077291 -0.017876 -484315.000000 0 0 1
25.905267 -13.385824 2.412230 29.258879 -0.476936 1.488258 0.098057 -0.021910 -445912.000000 0 0 1
25.528167 -13.983224 3.624930 29.331859 -0.501119 1.446896 0.101351 -0.011959 772774.000000 0 0 1
26.601967 -14.389224 4.508330 30.578415 -0.495836 1.422822 0.095063 -0.005137 617457.000000 0 0 1
26.078467 -14.805724 5.901130 30.563364 -0.516359 1.376498 0.086579 -0.003349 62612.700000 0 0 1
25.262367 -15.929924 5.885930 30.440004 -0.562601 1.376209 0.079052 -0.011109 -269184.000000 0 0 1
24.729167 -16.232424 7.183330 30.440491 -0.580867 1.332570 0.049578 -0.009013 209208.000000 0 0 1
23.744967 -17.420724 7.046330 30.281279 -0.632961 1.335948 0.048050 -0.009100 34668.200000 0 0 1
24.466867 -18.621524 6.794130 31.488870 -0.650562 1.353323 0.052735 -0.010363 263537.000000 0 0 1
23.570767 -19.719724 6.674730 31.448380 -0.696674 1.356926 0.037083 -0.003788 17383.300000 0 0 1
1.541067 22.900069 -3.183770 23.171630 1.503602 1.708632 0.025248 -0.017747 526205.000000 0 1 0
2.498467 23.854569 -2.703770 24.136967 1.466439 1.683050 0.032868 -0.020778 293735.000000 0 1 0
3.042467 24.587769 -3.797770 25.064678 1.447683 1.722901 0.044303 -0.020477 947927.000000 0 0 1
4.157767 25.636469 -3.340770 26.185422 1.410015 1.698726 0.034522 -0.013506 894315.000000 0 0 1
5.321667 25.068669 -2.779870 25.777626 1.361618 1.678847 0.033313 -0.020146 -603976.000000 0 0 1
6.173467 26.072769 -2.372370 26.898497 1.338300 1.659108 0.027178 -0.020804 -345141.000000 0 0 1
7.369567 25.570569 -1.530670 26.655346 1.290195 1.628252 0.015716 -0.029252 64081.200000 0 0 1
8.414267 25.100069 -2.344370 26.576483 1.247341 1.659123 0.027984 -0.029072 -159892.000000 0 0 1
9.312167 24.161869 -1.749870 25.953312 1.202933 1.638271 0.019260 -0.017576 626358.000000 0 0 1
10.497567 23.845669 -2.728070 26.196512 1.156097 1.675124 0.043144 -0.016619 -734326.000000 0 0 1
11.424867 24.915669 -2.672170 27.540128 1.140862 1.667977 0.047134 -0.013514 441532.000000 0 0 1
12.494367 24.975969 -3.648070 28.164102 1.106944 1.700690 0.063845 -0.019281 447682.000000 0 0 1
13.522367 23.865969 -3.452170 27.646996 1.055301 1.695989 0.066455 -0.017824 -1430220.000000 0 0 1
13.099567 22.507769 -3.756270 26.311745 1.043716 1.714046 0.065044 -0.020641 -153379.000000 0 0 1
12.920667 22.244169 -5.114370 26.227914 1.044572 1.767051 0.081629 -0.035352 -615214.000000 0 0 1
11.854167 21.198469 -5.364670 24.873200 1.060918 1.788185 0.068108 -0.029456 493783.000000 0 1 0
10.520367 21.492169 -4.930370 24.431537 1.115586 1.773995 0.066884 -0.031691 539683.000000 0 1 0
9.676867 20.373869 -4.812870 23.062958 1.127377 1.781025 0.035919 -0.025546 -904292.000000 0 1 0
8.217167 20.665869 -4.649370 22.720401 1.192343 1.776886 0.030254 -0.024944 -1029840.000000 0 1 0
7.796467 21.188669 -3.382670 22.829522 1.218217 1.719515 0.030197 -0.020305 151324.000000 0 1 0
6.385567 21.316769 -3.421070 22.514081 1.279747 1.723340 0.032268 -0.024051 184293.000000 0 1 0
5.776467 22.094469 -2.277270 22.950362 1.315076 1.670186 0.032925 -0.018860 -121680.000000 0 1 0
5.667267 21.388369 -1.056170 22.151653 1.311779 1.618493 0.032624 -0.011585 89421.600000 0 1 0
4.790767 22.023169 -0.145970 22.538694 1.356600 1.577273 0.036397 -0.009117 121357.000000 0 1 0
4.373067 21.027769 0.968330 21.499499 1.365753 1.525741 0.023263 -0.014604 -221503.000000 0 1 0
3.395167 21.554469 1.842030 21.897840 1.414564 1.486578 0.019047 -0.016726 271418.000000 0 1 0
3.240567 20.865669 3.075630 21.338625 1.416721 1.426158 0.022829 -0.013998 -84397.800000 0 1 0
2.251667 21.478069 4.072530 21.976418 1.466342 1.384405 0.011646 -0.011431 -74601.500000 0 1 0
0.882367 21.418769 3.760430 21.764262 1.529624 1.397145 0.013249 -0.018857 -577129.000000 0 1 0
0.085567 22.035569 4.720630 22.535705 1.566913 1.359760 0.014784 -0.017846 428298.000000 0 1 0
-1.358033 22.144769 4.138230 22.569005 -1.509548 1.386394 0.021923 -0.015270 445696.000000 0 1 0
-2.342333 22.694669 5.002030 23.357115 -1.467950 1.354970 0.036654 -0.015983 -909998.000000 0 1 0
-3.568533 22.577869 4.363530 23.270905 -1.414039 1.382170 0.046455 -0.018985 -1487980.000000 0 1 0
-4.723233 22.738469 5.273930 23.815147 -1.365989 1.347492 0.066236 -0.030732 -971824.000000 0 1 0
-4.836033 24.068769 5.798430 25.225278 -1.372511 1.338857 0.088025 -0.023050 -960981.000000 0 0 1
-6.051133 24.267469 6.417930 25.820846 -1.326428 1.319607 0.104789 -0.029358 -445732.000000 0 0 1
-6.386233 25.783369 6.744030 27.405256 -1.327995 1.322157 0.110317 -0.036958 26749.400000 0 0 1
-5.516633 26.314369 7.732530 27.976263 -1.364146 1.290754 0.091752 -0.043802 -101590.000000 0 0 1
-5.927033 27.516669 8.433230 29.383944 -1.358640 1.279701 0.111670 -0.042481 -161449.000000 0 0 1
-6.151733 28.840469 7.724830 30.484250 -1.360644 1.314599 0.114246 -0.041555 226641.000000 0 0 1
-7.343533 28.787869 6.969430 30.516255 -1.321032 1.340379 0.107800 -0.042101 -561160.000000 0 0 1
-7.459533 29.983369 6.221430 31.517507 -1.326958 1.372095 0.114512 -0.038553 -467313.000000 0 0 1
-8.864233 30.247069 5.589930 32.011047 -1.285718 1.395271 0.094230 -0.035660 937832.000000 0 0 1
-9.844733 30.628469 6.562330 32.834221 -1.259802 1.369579 0.088614 -0.032170 -49839.000000 0 0 1
-10.333033 29.508369 7.307130 32.107781 -1.233967 1.341203 0.068387 -0.030653 -1190120.000000 0 0 1
-11.335533 29.911369 8.399130 33.071584 -1.208549 1.314016 0.043108 -0.030462 375792.000000 0 0 1
-10.653933 30.566669 9.477830 33.729169 -1.235416 1.285962 0.054345 -0.029698 18525.400000 0 0 1
-11.651833 30.952269 10.371530 34.660883 -1.210759 1.266912 0.050693 -0.022517 -155933.000000 0 0 1
-11.149333 31.405269 11.709830 35.323062 -1.229661 1.232896 0.053797 -0.026817 -569.171000 0 0 1
-10.618733 32.778169 11.676430 36.380007 -1.257508 1.244056 0.049578 -0.023064 381897.000000 0 0 1
-9.829633 33.025869 12.820230 36.765310 -1.281511 1.214608 0.046736 -0.022866 277423.000000 0 0 1
-9.259833 -33.701024 12.965130 37.277314 1.302649 1.215570 0.042288 -0.020871 637286.000000 0 0 1
-10.252233 -32.743424 13.388030 36.830415 1.267358 1.198769 0.036987 -0.009008 556280.000000 0 0 1
-9.704233 -31.436924 13.426530 35.534828 1.271387 1.183333 0.039950 -0.004817 1096.990000 0 0 1
-10.713633 -30.448124 14.017430 35.190319 1.232461 1.161099 0.059593 -0.008919 -129603.000000 0 0 1
-10.857033 -30.525224 15.433030 35.886528 1.229076 1.126247 0.059738 -0.022640 712178.000000 0 0 1
-9.768033 -29.980124 16.229430 35.462892 1.255826 1.095451 0.063387 -0.014676 746894.000000 0 0 1
-9.947133 -30.324724 17.708530 36.498306 1.253835 1.064219 0.062818 -0.032001 124264.000000 0 0 1
-10.887233 -29.471024 18.344930 36.381445 1.216925 1.042296 0.089742 -0.040190 415461.000000 0 0 1
-11.614533 -30.205424 19.331130 37.695591 1.203707 1.032328 0.082273 -0.040199 -21840.200000 0 0 1
-11.921633 -29.341324 20.572630 37.766013 1.184863 0.994718 0.090836 -0.045719 -597099.000000 0 0 1
-10.809433 -29.328224 21.387130 37.873446 1.217677 0.970727 0.065364 -0.032062 -299069.000000 0 0 1
-11.005233 -28.431824 22.449530 37.861130 1.201482 0.936086 0.055060 -0.027906 837718.000000 0 0 1
-9.739733 -28.443624 23.392930 38.093717 1.240888 0.909565 0.069524 -0.028872 815229.000000 0 0 1
-9.605333 -29.596124 24.197730 39.417294 1.256974 0.909822 0.053969 -0.010702 -83494.500000 0 0 1
-8.348833 -29.645624 24.844430 39.570339 1.296285 0.892002 0.066401 -0.014918 24525.900000 0 0 1
-8.171033 -30.738224 25.995130 41.077378 1.310979 0.885589 0.066095 -0.013100 -352566.000000 0 0 1
-8.072733 -32.011524 25.369030 41.635254 1.323765 0.915599 0.087783 -0.015745 268343.000000 0 0 1
-8.093033 -33.047024 26.269330 42.984656 1.330629 0.913305 0.083566 -0.015941 -247901.000000 0 0 1
-7.894533 33.789969 25.598330 43.120299 -1.341278 0.935210 0.076235 -0.017728 265572.000000 0 0 1
-6.549733 33.479569 25.233830 42.432614 -1.377603 0.933929 0.081186 -0.012741 401080.000000 0 0 1
-6.360133 32.213569 24.642830 41.054042 -1.375867 0.926978 0.076502 -0.010792 178575.000000 0 0 1
-7.261833 31.806769 23.393930 40.145744 -1.346333 0.948718 0.069261 -0.016694 536483.000000 0 0 1
-8.448533 31.160269 23.847330 40.137703 -1.306030 0.934603 0.057310 -0.017520 65688.400000 0 0 1
-9.317533 31.054869 22.750230 39.608008 -1.279308 0.958944 0.042494 -0.009727 391492.000000 0 0 1
-10.335633 29.868369 22.815030 38.980384 -1.237654 0.945552 0.043546 -0.017028 640485.000000 0 0 1
-9.591433 28.694069 22.567730 37.744505 -1.248207 0.929908 0.038924 -0.010515 350261.000000 0 0 1
-10.348933 27.557969 22.918230 37.306666 -1.211558 0.909272 0.015538 -0.005406 -217316.000000 0 0 1
-9.709133 26.224969 22.460930 35.867947 -1.216219 0.894112 0.003884 -0.001974 509250.000000 0 0 1
-8.401433 26.068769 23.035330 35.788144 -1.259027 0.871528 0.011808 -0.012426 623579.000000 0 0 1
-7.962333 24.802469 22.582130 34.474829 -1.260159 0.856571 0.020173 -0.008698 -732117.000000 0 0 1
-6.748433 24.268669 23.323930 34.329511 -1.299577 0.823833 0.027599 -0.009903 -241133.000000 0 0 1
-5.601433 24.938969 22.835830 34.275405 -1.349857 0.841634 0.018192 -0.011645 -177969.000000 0 0 1
-4.451833 24.808669 23.664530 34.573094 -1.393239 0.816909 0.059453 -0.011426 -914.897000 0 0 1
-3.268533 25.523969 23.027430 34.531418 -1.443432 0.840817 0.045537 -0.008842 -598360.000000 0 0 1
-2.837133 24.789669 21.897530 33.197573 -1.456844 0.850493 0.042022 -0.008131 301604.000000 0 0 1
-1.962033 25.513769 21.006030 33.106726 -1.494046 0.883442 0.042774 -0.005114 374472.000000 0 0 1
-1.565433 24.618169 19.841430 31.657340 -1.507293 0.893413 0.028020 -0.005543 -137444.000000 0 0 1
-0.684733 23.554069 20.158730 31.010279 -1.541734 0.863125 0.050536 -0.012258 -34538.300000 0 0 1
-0.433433 22.846369 18.971930 29.699808 -1.551827 0.877872 0.023122 -0.007247 169787.000000 0 0 1
0.692967 21.786669 19.251430 29.081897 1.539000 0.847348 0.032579 -0.001303 1353150.000000 0 0 1
1.981767 22.246269 19.681730 29.769017 1.481948 0.848448 0.039626 -0.015758 367851.000000 0 0 1
2.948767 21.226769 19.787730 29.168908 1.432762 0.825235 0.052058 -0.016464 450789.000000 0 0 1
4.360867 21.869269 19.651630 29.723201 1.373972 0.848440 0.044370 -0.021773 954954.000000 0 0 1
5.397967 20.951469 19.199930 28.926448 1.318639 0.844975 0.064753 -0.020949 585072.000000 0 0 1
6.587867 21.665269 18.901630 29.496703 1.275605 0.875250 0.097151 -0.024671 -107550.000000 0 0 1
7.726767 20.721269 18.512730 28.840858 1.213876 0.873833 0.085696 -0.014258 -683145.000000 0 0 1
8.315667 19.999669 19.517530 29.155978 1.176752 0.837372 0.084119 -0.026953 -295863.000000 0 0 1
9.338167 19.145469 19.091330 28.604706 1.116998 0.840059 0.084792 -0.024528 -266784.000000 0 0 1
9.800667 18.238969 20.231130 28.948431 1.077719 0.796983 0.097533 -0.027661 -123179.000000 0 0 1
8.962667 17.176769 20.647530 28.314153 1.089869 0.753600 0.094493 -0.031071 -116991.000000 0 0 1
9.700067 16.483469 21.594230 28.846262 1.038896 0.724853 0.090751 -0.038697 -74788.000000 0 0 1
8.913167 15.384569 22.358630 28.566376 1.045693 0.671820 0.069166 -0.030130 223865.000000 0 0 1
7.803867 15.890469 23.093830 29.098665 1.114291 0.654029 0.075349 -0.024831 320164.000000 0 0 1
6.741067 14.995769 23.360030 28.565820 1.148332 0.613285 0.062744 -0.021534 212852.000000 0 0 1
7.025367 13.883469 24.378930 28.921250 1.102341 0.568068 0.076777 -0.023550 -433728.000000 0 0 1
7.249367 14.329769 25.720230 30.322035 1.102443 0.558151 0.086733 -0.036868 -3972.940000 0 0 1
7.563967 13.342269 26.628530 30.729600 1.055057 0.522562 0.095229 -0.038214 -27507.200000 0 0 1
8.638967 13.780069 27.695930 32.118322 1.010819 0.530984 0.074844 -0.026103 260260.000000 0 0 1
9.977467 13.891669 27.317430 32.229959 0.947937 0.559390 0.092340 -0.023403 -283796.000000 0 0 1
10.321667 15.040169 26.656930 32.300703 0.969342 0.600109 0.079117 -0.024611 -388920.000000 0 0 1
11.698967 14.976369 25.938930 32.155645 0.907648 0.632304 0.074572 -0.026065 328478.000000 0 0 1
11.667767 14.109269 24.791730 30.819444 0.879833 0.636100 0.072788 -0.024121 -270910.000000 0 0 1
12.978367 13.832969 24.384530 30.893273 0.817262 0.661103 0.073821 -0.022747 -592365.000000 0 0 1
13.096167 12.500669 23.538230 29.695531 0.762138 0.655649 0.061281 -0.022339 -102667.000000 0 0 1
12.840567 11.307069 24.166630 29.610065 0.721978 0.616058 0.061075 -0.014423 1167520.000000 0 0 1
11.414267 11.129469 24.348630 29.103373 0.772766 0.579702 0.076986 -0.018035 859205.000000 0 0 1
10.958067 9.822969 24.980330 28.992875 0.730831 0.532378 0.067031 -0.010609 -136157.000000 0 0 1
10.947967 8.781669 24.059230 27.853586 0.676037 0.528082 0.065499 -0.013718 176943.000000 0 0 1
10.363367 7.616569 24.573330 27.735537 0.633800 0.482178 0.070561 -0.013977 4251.530000 0 0 1
10.631867 6.457669 23.590530 26.669293 0.545834 0.485251 0.065126 -0.014060 1836960.000000 0 0 1
12.062067 6.128769 23.465630 27.086732 0.470109 0.523020 0.066020 -0.010772 1853930.000000 0 0 1
12.257367 5.018269 22.597230 26.192764 0.388591 0.530156 0.074610 -0.016202 -51654.900000 0 0 1
12.074467 3.592569 23.166330 26.370023 0.289193 0.498062 0.068474 -0.018033 -366654.000000 0 0 1
13.081367 3.163569 24.040430 27.551272 0.237282 0.510356 0.063798 -0.012928 -162997.000000 0 0 1
12.795367 1.885869 24.615430 27.806425 0.146333 0.483781 0.064601 -0.009115 -519645.000000 0 0 1
14.005267 1.222869 25.293130 28.937611 0.087094 0.507304 0.041819 0.001912 253492.000000 0 0 1
14.934867 0.567169 24.430230 28.639275 0.037958 0.549028 0.067577 -0.008399 -644744.000000 0 0 1
16.127467 1.218769 24.265530 29.161559 0.075428 0.587901 0.070459 -0.016364 -1504560.000000 0 0 1
17.123967 0.350369 23.520230 29.095605 0.020458 0.629406 0.069786 -0.016410 -560137.000000 0 0 1
17.496667 -0.828031 24.162630 29.843788 -0.047290 0.627263 0.070559 -0.014970 279567.000000 0 0 1
18.476267 -1.513931 23.372430 29.831777 -0.081757 0.670559 0.082080 -0.009590 292206.000000 0 0 1
18.521067 -3.041831 23.635130 30.181153 -0.162783 0.671147 0.078522 -0.003673 638653.000000 0 0 1
17.323967 -3.674431 23.142130 29.140684 -0.209004 0.653186 0.065481 0.005523 727960.000000 0 0 1
17.323267 -5.058431 23.499130 29.629249 -0.284103 0.654905 0.076571 0.002490 72889.800000 0 0 1
16.356167 -5.938231 22.670330 28.578499 -0.348260 0.654643 0.066690 -0.000266 -153409.000000 0 0 1
16.654067 -6.092631 21.275530 27.697044 -0.350711 0.694847 0.059121 -0.002309 -181517.000000 0 0 1
15.873767 -7.049831 20.657830 26.989304 -0.417952 0.699121 0.071436 -0.007302 -847062.000000 0 0 1
16.545367 -8.377931 20.567430 27.694008 -0.468724 0.733752 0.070988 -0.012567 -229767.000000 0 0 1
16.931167 -8.850731 21.824930 29.005644 -0.481680 0.719042 0.063968 -0.014559 -86570.500000 0 0 1
17.263167 -10.247931 21.689630 29.554645 -0.535722 0.746777 0.054807 -0.019239 -75566.600000 0 0 1
17.151467 -11.003531 23.003530 30.731301 -0.570412 0.724943 0.055454 -0.006629 18564.300000 0 0 1
15.804367 -11.266131 23.333930 30.350881 -0.619298 0.693825 0.063643 -0.009366 -34886.400000 0 0 1
15.733967 -12.133631 24.428130 31.488351 -0.656915 0.682841 0.067254 -0.004947 289912.000000 0 0 1
14.504167 -13.073431 24.398530 31.250179 -0.733564 0.674934 0.088308 0.001456 -951.855000 0 0 1
14.708367 -14.092231 23.491430 31.092994 -0.764008 0.714346 0.080576 -0.011531 139031.000000 0 0 1
13.584167 -14.939831 23.394830 30.903822 -0.832890 0.712055 0.088028 -0.018285 -262849.000000 0 0 1
13.455967 -16.034031 22.242430 30.543066 -0.872598 0.755058 0.076250 -0.018989 -136338.000000 0 0 1
14.316367 -17.121931 22.531430 31.714101 -0.874403 0.780652 0.087401 -0.022350 367578.000000 0 0 1
14.406467 -17.961431 21.417530 31.446301 -0.894790 0.821556 0.065744 -0.002885 57883.000000 0 0 1
-25.660533 -33.050724 25.635952 49.071533 0.910613 1.021110 0.002852 -0.015460 -625260.000000 0 0 1
-24.884233 -34.028224 26.238212 49.654696 0.939383 1.014066 0.031765 -0.004401 -361937.000000 0 0 1
-25.503033 33.043269 26.882032 49.647820 -0.913484 0.998630 0.024760 -0.014097 -421674.000000 0 0 1
-25.868643 33.279369 28.397472 50.824399 -0.910040 0.977934 0.019165 -0.007143 103915.000000 0 0 1
-26.927573 -34.016824 28.686142 52.010896 0.901201 0.986586 0.044240 -0.016786 -54554.600000 0 0 1
-26.897903 -33.749024 30.110742 52.622720 0.897889 0.961610 0.027713 -0.019028 -627797.000000 0 0 1
-28.056263 -32.982624 30.702322 53.081447 0.865932 0.954030 0.018206 -0.018686 -929071.000000 0 0 1
-28.069903 -31.600924 30.342772 52.030969 0.844504 0.948174 -0.001968 -0.007141 46099.200000 0 0 1
-28.830883 -30.906624 31.296662 52.592017 0.820132 0.933426 -0.001111 0.005849 -247404.000000 0 0 1
-28.995703 -29.423124 30.946012 51.615179 0.792715 0.927854 -0.015865 0.003641 285078.000000 0 0 1
-29.817673 -29.143024 29.782702 51.238841 0.773956 0.950529 -0.018027 0.008286 595527.000000 0 0 1
-30.333253 -27.836524 29.891372 50.877033 0.742503 0.942803 -0.000469 0.005527 -380434.000000 0 0 1
-30.823103 -27.225724 28.577942 50.079961 0.723506 0.963504 -0.007076 -0.001776 342354.000000 0 0 1
-29.923093 -27.044724 27.428982 48.776610 0.734915 0.973585 -0.014852 0.010351 502952.000000 0 0 1
-29.159503 -25.854924 27.448752 47.667470 0.725403 0.957167 -0.012083 -0.004332 -221737.000000 0 0 1
-28.251693 -25.830324 26.190762 46.382322 0.740656 0.970762 -0.010359 0.013415 39071.300000 0 0 1
-28.952513 -25.869024 24.940752 46.146458 0.729211 0.999801 -0.018880 0.004511 12206.300000 0 0 1
-28.028493 -25.857424 23.896232 45.002586 0.745130 1.011020 0.007512 0.002225 -386080.000000 0 0 1
-28.665263 -26.152924 22.522732 44.865869 0.739600 1.044885 -0.010438 0.010599 -351176.000000 0 0 1
-29.328683 -25.115624 21.916232 44.399183 0.708169 1.054551 -0.009063 0.008492 -98001.300000 0 0 1
-29.751403 -25.441024 20.599432 44.234922 0.707459 1.086391 -0.003550 0.012285 -254771.000000 0 0 1
-30.454983 -24.268824 19.890732 43.727829 0.672833 1.098564 0.003348 0.004439 -242451.000000 0 0 1
-31.800133 -24.225524 20.310032 44.839959 0.651014 1.100731 0.020220 0.000081 -104309.000000 0 0 1
-32.418453 -23.018324 19.873732 44.449573 0.617431 1.107267 0.027219 0.008449 324385.000000 0 0 1
-33.932083 -22.896424 20.201432 45.647895 0.593593 1.112357 0.042588 0.005495 -86313.200000 0 0 1
-34.775983 -23.791224 19.548332 46.449205 0.599994 1.136410 0.049393 0.005705 -881752.000000 0 0 1
-36.033575 -23.210124 19.500732 47.089351 0.572234 1.143818 0.064567 -0.001754 -857691.000000 0 0 1
35.952243 -24.144324 18.935832 47.266033 -0.591387 1.158600 0.081131 -0.011268 -220525.000000 0 0 1
35.587723 -25.235024 19.684232 47.861900 -0.616803 1.146948 0.073280 -0.005617 -308155.000000 0 0 1
34.987303 -26.244824 18.929832 47.657536 -0.643581 1.162327 0.077504 0.001288 -62324.200000 0 0 1
34.509183 -27.382024 19.924632 48.349249 -0.670747 1.146041 0.074429 -0.003504 -658610.000000 0 0 1
33.300943 -27.237224 20.564832 47.683661 -0.685568 1.124889 0.062199 -0.005843 -957836.000000 0 0 1
33.094683 -26.197524 21.546032 47.389870 -0.669594 1.098812 0.058719 -0.013958 -117514.000000 0 0 1
31.906213 -26.645224 22.470232 47.253420 -0.695786 1.075234 0.052111 -0.023155 367529.000000 0 0 1
30.714393 -26.647124 21.724232 46.101903 -0.714611 1.080121 0.059399 -0.015111 -378191.000000 0 0 1
29.646253 -25.909924 22.282332 45.240765 -0.718246 1.055804 0.057527 -0.020895 -304662.000000 0 0 1
29.240783 -24.727824 21.353632 43.845938 -0.701970 1.062127 0.039955 -0.011456 389619.000000 0 0 1
30.196123 -23.655924 21.018932 43.740189 -0.664542 1.069525 0.050906 -0.004307 871082.000000 0 0 1
30.928663 -23.078124 22.094132 44.467209 -0.641047 1.050816 0.073859 -0.018322 -300306.000000 0 0 1
31.910423 -21.975624 21.704532 44.410470 -0.603079 1.060168 0.076067 -0.016115 -97812.600000 0 0 1
31.271453 -20.757924 21.351432 43.181927 -0.586014 1.053591 0.075660 -0.025726 271402.000000 0 0 1
32.202643 -19.763724 20.976032 43.215841 -0.550454 1.064000 0.079590 -0.021692 -241176.000000 0 0 1
31.442713 -18.379224 20.975132 42.028517 -0.528967 1.048272 0.083667 -0.013097 333495.000000 0 0 1
31.141213 -17.976024 22.267532 42.293682 -0.523518 1.016320 0.071376 -0.024114 1196120.000000 0 0 1
29.895723 -18.565324 22.744932 41.901759 -0.555720 0.997010 0.078908 -0.020850 364134.000000 0 0 1
29.709653 -18.381424 24.272522 42.540517 -0.554058 0.963591 0.066226 -0.017303 -77491.900000 0 0 1
29.392483 -17.018824 24.555532 41.911008 -0.524850 0.944810 0.066787 -0.020399 130694.000000 0 0 1
29.565273 -16.634224 25.902692 42.681990 -0.512486 0.918672 0.068149 -0.017353 -315424.000000 0 0 1
29.273763 -15.166524 26.173162 42.095262 -0.478017 0.899808 0.062901 -0.016314 839152.000000 0 0 1
27.872063 -14.839124 26.298012 41.093028 -0.489231 0.876346 0.071136 -0.009633 1024700.000000 0 0 1
27.573763 -13.534024 26.730422 40.718518 -0.456285 0.854669 0.063838 -0.011754 -436.208000 0 0 1
27.993263 -12.351124 25.770132 40.003409 -0.415527 0.870822 0.075205 -0.022935 -488866.000000 0 0 1
27.362863 -12.263124 24.532122 38.741909 -0.421328 0.885091 0.062983 -0.017655 -253048.000000 0 0 1
27.892863 -11.307624 23.632502 38.267079 -0.385148 0.905150 0.059076 -0.014256 938679.000000 0 0 1
29.244333 -11.677024 22.878032 38.922850 -0.379896 0.942486 0.058912 -0.025091 661718.000000 0 0 1
29.098233 -12.636524 21.822632 38.504755 -0.409697 0.968239 0.059342 -0.028256 54573.400000 0 0 1
29.378253 -13.955524 22.270932 39.418686 -0.443472 0.970382 0.070283 -0.030763 -96479.300000 0 0 1
28.702653 -15.045624 21.423832 38.848342 -0.482811 0.986667 0.088430 -0.024466 -149458.000000 0 0 1
29.278133 -15.052824 20.097932 38.571018 -0.474889 1.022700 0.078565 -0.024797 151959.000000 0 0 1
28.765483 -16.107624 19.319532 38.211947 -0.510461 1.040732 0.093384 -0.032698 -304603.000000 0 0 1
29.245233 -16.038824 17.844132 37.827775 -0.501633 1.079555 0.100782 -0.033053 -292240.000000 0 0 1
28.605393 -16.952924 17.007032 37.348484 -0.534996 1.098019 0.096016 -0.035115 757316.000000 0 0 1
27.177563 -16.899324 16.830932 36.159195 -0.556303 1.086634 0.078771 -0.037768 515584.000000 0 0 1
26.691263 -15.717524 15.985632 34.856915 -0.532191 1.094369 0.085336 -0.034570 -881929.000000 0 0 1
26.728263 -15.929024 14.578032 34.360630 -0.537445 1.132646 0.089437 -0.038558 -43495.700000 0 0 1
25.829963 -16.895024 14.081332 33.925105 -0.579242 1.142775 0.061810 -0.042464 -721507.000000 0 0 1
26.134263 -17.464424 12.665932 33.888518 -0.589103 1.187744 0.064544 -0.025941 -289104.000000 0 0 1
25.887763 -16.602424 11.571832 32.859155 -0.570251 1.210913 0.064138 -0.033470 -20380.100000 0 0 1
25.725563 -17.348624 10.394132 32.723345 -0.593319 1.247560 0.056771 -0.028901 720170.000000 0 0 1
27.084863 -17.676224 9.635432 33.747300 -0.578217 1.281250 0.063700 -0.020382 551298.000000 0 0 1
27.890763 -18.463124 10.445932 35.041391 -0.584751 1.268092 0.060197 -0.016224 -1223960.000000 0 0 1
29.079083 -18.725524 9.761332 35.937751 -0.572112 1.295723 0.058571 -0.006076 -415484.000000 0 0 1
30.028723 -19.666424 10.538232 37.410517 -0.579826 1.285240 0.066801 -0.025651 -161723.000000 0 0 1
30.462943 -19.029224 11.722932 37.782660 -0.558361 1.255316 0.088846 -0.042402 92175.600000 0 0 1
30.604103 -19.952924 12.740532 38.691749 -0.577758 1.235252 0.067499 -0.040569 -229218.000000 0 0 1
29.931483 -19.470424 14.035832 38.366596 -0.576727 1.196267 0.098607 -0.033989 -71479.500000 0 0 1
29.893813 -20.385924 15.061532 39.192802 -0.598505 1.176354 0.086042 -0.030553 21098.900000 0 0 1
29.887953 -19.704624 16.299932 39.335095 -0.582874 1.143528 0.106460 -0.034583 -34038.500000 0 0 1
29.752863 -20.707724 17.506832 40.255830 -0.608030 1.120881 0.081290 -0.019455 449452.000000 0 0 1
28.464303 -21.306524 17.493832 39.625985 -0.642563 1.113556 0.043098 -0.011395 163464.000000 0 0 1
28.194293 -22.139324 18.654732 40.411222 -0.665677 1.090973 0.037855 -0.013908 421592.000000 0 0 1
26.881263 -22.954424 18.499432 39.896577 -0.706765 1.088647 0.020905 0.002483 684368.000000 0 0 1
25.670763 -22.211924 18.628832 38.721971 -0.713288 1.068896 0.034506 -0.001537 -395189.000000 0 0 1
24.578663 -23.050424 18.546032 38.462814 -0.753323 1.067654 0.032439 -0.001006 -758901.000000 0 0 1
23.359963 -22.491124 19.289732 37.731052 -0.766451 1.034166 0.018532 -0.001935 -523866.000000 0 0 1
22.768463 -21.336724 18.724932 36.390683 -0.752948 1.030310 0.022332 -0.008364 146352.000000 0 0 1
21.656863 -20.879124 19.496832 35.848068 -0.767116 0.995750 0.040064 -0.009814 383016.000000 0 0 1
21.924963 -20.306024 20.936432 36.487982 -0.747082 0.959671 0.029642 -0.002479 -546191.000000 0 0 1
22.293863 -21.314324 21.863932 37.806723 -0.762940 0.954143 0.043796 -0.002401 152806.000000 0 0 1
22.857763 -20.787924 23.084832 38.568440 -0.738010 0.929116 0.029448 -0.003910 209396.000000 0 0 1
23.179263 -21.934824 24.087482 39.982766 -0.757821 0.924233 0.039001 -0.004696 -53559.200000 0 0 1
22.041063 -22.641624 24.553552 40.016603 -0.798838 0.910205 0.057933 -0.004313 170773.000000 0 0 1
22.413963 -23.640724 25.487852 41.363029 -0.812029 0.906889 0.057848 -0.004074 347631.000000 0 0 1
21.234363 -24.243624 26.339772 41.622531 -0.851471 0.885600 0.078478 -0.015575 907003.000000 0 0 1
20.462463 -25.258824 25.622362 41.391135 -0.889920 0.903289 0.084247 -0.012928 993871.000000 0 0 1
19.413563 -25.812224 26.424912 41.730484 -0.925948 0.885079 0.101052 -0.022679 360512.000000 0 0 1
18.488763 -26.827924 25.767072 41.539305 -0.967382 0.901664 0.106286 -0.020395 -157792.000000 0 0 1
17.485463 -26.426324 24.876732 40.285777 -0.986262 0.905228 0.103459 -0.030991 192420.000000 0 0 1
17.086163 -27.573824 24.107842 40.415848 -1.016052 0.931670 0.093259 -0.033627 213276.000000 0 0 1
16.212063 -27.184324 22.819732 39.019977 -1.033046 0.946136 0.081600 -0.038397 20198.500000 0 0 1
14.881463 -26.947824 23.187232 38.539472 -1.066241 0.925232 0.064312 -0.031366 -566741.000000 0 0 1
14.323263 -26.061624 22.238332 37.133644 -1.068266 0.928703 0.031305 -0.021917 -50431.700000 0 0 1
12.899763 -25.643624 22.673632 36.579953 -1.104720 0.902261 0.029993 -0.020618 81266.300000 0 0 1
11.911663 -26.628824 22.369032 36.760789 -1.150172 0.916624 0.024147 -0.028634 -595864.000000 0 0 1
10.695163 -25.972224 22.571532 36.033554 -1.180166 0.893866 0.014491 -0.012622 -208446.000000 0 0 1
9.442163 -26.888924 22.545132 36.338020 -1.233093 0.901508 0.020618 -0.013194 124391.000000 0 0 1
9.208063 -27.487124 21.315832 35.981872 -1.247551 0.936756 0.029560 -0.012734 12357.800000 0 0 1
7.905263 -28.028124 21.278932 36.067463 -1.295890 0.939767 0.034331 -0.012466 184688.000000 0 0 1
7.416663 -28.783824 19.957732 35.802605 -1.318614 0.979500 0.052968 -0.009966 200074.000000 0 0 1
8.085063 -30.014124 19.807332 36.858463 -1.307667 1.003458 0.056700 -0.014412 244482.000000 0 0 1
7.533463 -30.793624 18.754132 36.833651 -1.330865 1.036591 0.055044 -0.010947 -107377.000000 0 0 1
8.289963 -32.081424 18.597232 37.997346 -1.317924 1.059355 0.060075 -0.012165 -303458.000000 0 0 1
8.036563 -32.949624 19.713532 39.228656 -1.331563 1.044275 0.060719 -0.013524 226508.000000 0 0 1
8.701863 33.949369 19.729932 40.218806 1.319879 1.058058 0.071196 -0.022647 -31125.900000 0 0 1
8.275863 32.967669 20.837432 39.869233 1.324849 1.020847 0.088431 -0.029029 46254.800000 0 0 1
7.172263 32.142669 20.533532 38.810031 1.351255 1.013283 0.082100 -0.025338 -54071.900000 0 0 1
7.217663 30.968769 21.403532 38.331065 1.341821 0.978357 0.083075 -0.039679 -71829.400000 0 0 1
6.202863 29.906569 20.975532 37.052009 1.366288 0.969016 0.074352 -0.031591 126063.000000 0 0 1
4.865863 30.295769 21.227532 37.311103 1.411544 0.965588 0.077006 -0.036740 -139983.000000 0 0 1
3.935463 29.459969 20.583432 36.153220 1.437996 0.965095 0.090402 -0.028095 -53357.200000 0 0 1
2.569563 29.380769 21.271432 36.363527 1.483561 0.945958 0.066259 -0.024389 -595179.000000 0 0 1
2.612363 28.827869 22.614532 36.732650 1.480424 0.907583 0.056616 -0.031606 465199.000000 0 0 1
1.311163 28.564969 23.162832 36.799367 1.524927 0.889970 0.044806 -0.024668 561756.000000 0 0 1
1.312963 28.007169 24.614092 37.309234 1.523951 0.850334 0.049451 -0.025442 -463062.000000 0 0 1
1.550263 28.900569 25.677102 38.690565 1.517206 0.845105 0.053452 -0.026586 115437.000000 0 0 1
1.324063 28.317669 26.928482 39.099702 1.524073 0.811084 0.043776 -0.022809 -274852.000000 0 0 1
2.505163 27.562269 27.557792 39.056196 1.480154 0.787536 0.027481 -0.017648 -470949.000000 0 0 1
3.023663 26.494169 26.803192 37.808659 1.457162 0.782835 0.039515 -0.022383 -8899.170000 0 0 1
3.947263 25.787769 27.598672 37.977318 1.418908 0.757269 0.009879 -0.005480 -186567.000000 0 0 1
4.390363 24.490669 26.913622 36.652575 1.393414 0.746176 0.014463 -0.000162 19219.900000 0 0 1
3.366163 23.495469 26.783152 35.786944 1.428496 0.725141 0.034562 -0.003125 373029.000000 0 0 1
3.925763 22.209369 26.597342 34.872429 1.395842 0.703312 0.045614 -0.000627 126503.000000 0 0 1
2.800463 21.178269 26.444542 33.995228 1.439326 0.679495 0.041287 0.004011 -166682.000000 0 0 1
3.208663 19.890869 26.800622 33.529324 1.410861 0.644635 0.054370 -0.000881 40772.900000 0 0 1
3.609963 19.146169 25.665972 32.223435 1.384437 0.649312 0.049560 0.000879 -684692.000000 0 0 1
4.173263 17.723969 25.928302 31.683309 1.339550 0.612248 0.052652 -0.008888 702810.000000 0 0 1
5.467163 17.798169 26.582982 32.454886 1.272770 0.611000 0.041855 -0.010574 789999.000000 0 0 1
6.521263 17.871869 25.671412 31.952339 1.220919 0.637765 0.060048 -0.017704 -1291270.000000 0 0 1
7.947563 17.529269 26.145132 32.465474 1.145128 0.634579 0.059143 -0.024752 223695.000000 0 0 1
8.604063 18.488369 26.996002 33.832438 1.135229 0.646939 0.033389 -0.008906 203040.000000 0 0 1
8.840963 19.742969 26.471512 34.186085 1.149771 0.685131 0.019424 -0.016681 -646730.000000 0 0 1
9.214663 20.861469 27.465512 35.699654 1.154860 0.692974 0.012715 -0.008117 -922496.000000 0 0 1
10.301363 20.589469 28.237142 36.433234 1.106891 0.684021 0.028213 -0.019103 -1088040.000000 0 0 1
10.515363 21.566269 29.246552 37.829058 1.117131 0.687044 0.031925 -0.026718 635526.000000 0 0 1
11.780863 21.155769 30.103792 38.634099 1.062699 0.677404 0.049357 -0.027206 553210.000000 0 0 1
12.953463 21.100369 29.310682 38.368397 1.020221 0.701418 0.043045 -0.024273 -889900.000000 0 0 1
13.993163 20.889469 30.204292 39.299845 0.980581 0.694209 0.048917 -0.005593 216376.000000 0 0 1
15.421863 21.098169 29.576602 39.468241 0.939594 0.723675 0.045648 -0.017359 746344.000000 0 0 1
15.803963 22.447869 29.389272 40.216929 0.957371 0.751349 0.042001 -0.028263 383616.000000 0 0 1
17.060363 22.419169 28.708972 40.222882 0.920310 0.775962 0.078812 -0.019055 302213.000000 0 0 1
-8.674033 16.595969 4.239530 19.199965 -1.089186 1.348152 0.024459 -0.021727 -371969.000000 0 1 0
-8.600533 17.943469 4.655930 20.435629 -1.123835 1.340944 0.036679 -0.019832 240754.000000 0 1 0
-7.293633 18.360469 5.014730 20.382626 -1.192666 1.322215 0.028920 -0.013097 56904.500000 0 1 0
-7.349533 19.766269 5.672230 21.837931 -1.214815 1.308041 0.038702 -0.016609 67763.700000 0 1 0
-7.574133 20.922269 4.814730 22.765994 -1.223460 1.357699 0.056383 -0.018828 -209783.000000 0 1 0
-8.875333 21.057069 4.293330 23.250901 -1.171903 1.385078 0.058750 -0.025255 -254216.000000 0 1 0
-9.143433 22.206769 3.248830 24.234229 -1.180210 1.436332 0.079354 -0.025506 30947.600000 0 1 0
-8.368333 22.189869 2.072630 23.805779 -1.210165 1.483622 0.059181 -0.022066 -161261.000000 0 1 0
-8.536733 21.043469 1.263430 22.744223 -1.185410 1.515218 0.054884 -0.023923 -642748.000000 0 1 0
-8.070533 21.098369 -0.214670 22.590280 -1.205450 1.580299 0.036921 -0.010072 1453400.000000 0 1 0
-6.675033 20.831269 -0.522570 21.880835 -1.260700 1.594681 0.020050 -0.002330 1825360.000000 0 1 0
-5.729933 21.901469 -0.220870 22.639684 -1.314908 1.580552 0.021166 0.000794 647822.000000 0 1 0
-4.315933 21.695269 -0.796270 22.134725 -1.374426 1.606778 0.017707 0.002723 195076.000000 0 1 0
-4.286633 21.720769 -2.182770 22.247057 -1.375948 1.669069 0.013346 -0.004272 657258.000000 0 1 0
-2.924633 21.855369 -2.630570 22.206543 -1.437769 1.689534 0.013536 0.009633 884592.000000 0 1 0
-2.750033 21.873769 -4.166570 22.436238 -1.445730 1.757588 0.012723 -0.008514 -367197.000000 0 1 0
-1.585133 22.422569 -4.708170 22.966304 -1.500220 1.777264 0.032181 0.002951 -427836.000000 0 1 0
-1.702033 22.559969 -6.092670 23.430104 -1.495494 1.833856 0.033978 -0.013803 204329.000000 0 1 0
-0.390233 23.086069 -6.735170 24.051640 -1.553895 1.854621 0.026072 -0.020044 294401.000000 0 1 0
0.723467 22.284469 -6.385770 23.192651 1.538343 1.849735 0.036858 -0.008190 -796080.000000 0 1 0
1.879067 22.843469 -6.934870 23.946762 1.488723 1.864600 0.049102 -0.018971 -974602.000000 0 1 0
3.027767 21.886069 -6.698270 23.087534 1.433327 1.865154 0.044215 -0.011392 -592747.000000 0 1 0
2.985867 20.768869 -7.589570 22.312842 1.428008 1.917866 0.048213 -0.024304 -996473.000000 0 1 0
4.140567 20.072369 -7.385970 21.785244 1.367368 1.916688 0.046392 -0.016420 -789928.000000 0 1 0
4.185167 18.766169 -8.162870 20.888207 1.351371 1.972284 0.033606 -0.022558 -38240.800000 0 1 0
4.556667 18.893369 -9.518270 21.640704 1.334138 2.026208 0.039252 -0.027449 108291.000000 0 1 0
3.421767 18.751369 -10.377670 21.702958 1.390301 2.069364 0.035083 -0.030262 29088.400000 0 1 0
3.673267 19.056569 -11.875370 22.752366 1.380376 2.119920 0.046455 -0.034339 -124674.000000 0 1 0
3.865767 20.426769 -12.190570 24.099939 1.383758 2.101145 0.084237 -0.037091 110618.000000 0 1 0
4.157467 20.569169 -13.541570 24.974975 1.371362 2.143856 0.098981 -0.025812 -196815.000000 0 1 0
4.483667 22.001469 -13.999570 26.460459 1.369760 2.128307 0.083463 -0.030514 157958.000000 0 0 1
3.384867 22.874669 -14.180470 27.125515 1.423888 2.120896 0.112677 -0.035440 122333.000000 0 0 1
3.905867 24.159069 -14.576270 28.484804 1.410510 2.107983 0.089919 -0.032588 -413650.000000 0 0 1
2.860467 25.116569 -15.115470 29.453383 1.457397 2.109705 0.103516 -0.023151 -392191.000000 0 0 1
1.880867 25.441669 -14.155870 29.175415 1.497002 2.077387 0.124745 -0.041175 -161263.000000 0 0 1
1.582467 26.832769 -14.386670 30.487342 1.511889 2.062230 0.091555 -0.033284 -848610.000000 0 0 1
0.609867 27.382469 -13.335170 30.463065 1.548528 2.023890 0.100100 -0.036496 541657.000000 0 0 1
-0.780433 27.089369 -13.495370 30.274874 -1.541995 2.032821 0.088410 -0.044493 534329.000000 0 0 1
-1.228733 25.728169 -13.323070 28.999184 -1.523074 2.048149 0.081054 -0.042516 -370862.000000 0 0 1
-1.173833 25.036169 -11.946670 27.765277 -1.523945 2.015592 0.104422 -0.044912 -182497.000000 0 0 1
-2.253333 25.416869 -11.090470 27.822532 -1.482372 1.980802 0.084210 -0.039805 147763.000000 0 0 1
-2.549533 24.274069 -10.366670 26.517889 -1.466149 1.972439 0.108424 -0.036113 137167.000000 0 0 1
-3.574633 24.465069 -9.215070 26.386268 -1.425711 1.927553 0.065845 -0.031206 -95748.800000 0 0 1
-3.137533 25.011969 -7.974070 26.439147 -1.446007 1.877168 0.065509 -0.032595 -284844.000000 0 0 1
-2.848833 26.392069 -7.970970 27.716305 -1.463270 1.862507 0.060616 -0.037010 -156854.000000 0 0 1
-2.438233 26.856169 -6.551770 27.751117 -1.480256 1.809137 0.044964 -0.026968 286067.000000 0 0 1
-1.334133 26.111669 -6.054370 26.837559 -1.519747 1.798348 0.037957 -0.024416 -209834.000000 0 0 1
-1.018333 26.304169 -4.699370 26.740052 -1.532102 1.747457 0.047697 -0.023630 -237551.000000 0 0 1
-1.932933 25.804769 -3.558270 26.120560 -1.496030 1.707446 0.038471 -0.022330 -619901.000000 0 0 1
-3.101633 26.543669 -3.422770 26.942566 -1.454474 1.698180 0.031468 -0.018218 -275663.000000 0 0 1
-4.000933 26.267369 -2.357670 26.674721 -1.419642 1.659298 0.031059 -0.005875 802807.000000 0 0 1
-5.016133 25.095669 -2.594170 25.723218 -1.373516 1.671817 0.036752 -0.013883 389141.000000 0 0 1
-5.987033 25.286469 -3.661770 26.242307 -1.338309 1.710790 0.032794 -0.010159 356213.000000 0 0 1
-6.930533 24.238069 -3.537570 25.456447 -1.292292 1.710213 -0.003360 -0.022467 394394.000000 0 0 1
-8.338933 24.686369 -4.044470 26.368776 -1.245036 1.724785 0.018342 -0.017301 -21714.300000 0 0 1
-9.019133 25.347769 -3.026670 27.074248 -1.228950 1.682822 0.032150 -0.012053 -564708.000000 0 0 1
-10.250833 25.835869 -3.569670 28.023459 -1.193080 1.698525 0.040778 -0.011151 473632.000000 0 0 1
-11.123033 26.355469 -2.383070 28.705603 -1.171436 1.653910 0.037868 -0.004736 -328205.000000 0 0 1
-11.812433 25.410269 -1.548670 28.064457 -1.135647 1.626007 0.041881 -0.006055 52853.200000 0 0 1
-10.957033 24.630969 -0.767670 26.969066 -1.152235 1.599265 0.051142 -0.016907 -360563.000000 0 0 1
-11.492233 23.204969 -0.460570 25.898922 -1.110957 1.588581 0.051037 -0.018872 567898.000000 0 0 1
-12.468133 23.214569 0.602830 26.357807 -1.077925 1.547923 0.065603 -0.025209 251126.000000 0 0 1
-12.953733 21.971569 0.899330 25.521713 -1.038083 1.535551 0.063451 -0.027323 38640.900000 0 0 1
-13.917733 21.920169 2.116230 26.051402 -1.005089 1.489474 0.073709 -0.030303 15860.200000 0 0 1
-13.265733 21.773469 3.344930 25.714824 -1.023595 1.440349 0.064470 -0.028870 84599.900000 0 0 1
-12.931933 22.966269 4.075530 26.670102 -1.057964 1.417383 0.063100 -0.029687 17806.600000 0 0 1
-12.696533 22.744969 5.610430 26.646060 -1.061670 1.358655 0.059713 -0.032490 128831.000000 0 0 1
-11.354333 22.454869 5.963730 25.859391 -1.102638 1.338080 0.068587 -0.028049 -76549.800000 0 0 1
-11.235633 22.038169 7.276330 25.784983 -1.099319 1.284718 0.057075 -0.032870 22155.800000 0 0 1
-9.820233 21.770669 7.838530 25.136459 -1.147048 1.253668 0.069837 -0.030728 -166510.000000 0 0 1
-9.190633 22.953369 8.288130 26.077155 -1.189941 1.247355 0.075448 -0.035412 132396.000000 0 0 1
-8.082933 22.594169 9.126630 25.673443 -1.227239 1.207359 0.080071 -0.033021 184899.000000 0 0 1
-8.307233 22.322869 10.643630 26.088455 -1.214535 1.150553 0.060640 -0.030407 19392.300000 0 0 1
-9.251733 21.279969 10.881330 25.628792 -1.160686 1.132305 0.060818 -0.027891 133609.000000 0 0 1
-9.012233 20.814569 12.225530 25.766843 -1.162188 1.076437 0.041939 -0.017276 -119904.000000 0 0 1
-9.953433 19.715369 12.726830 25.489975 -1.103271 1.048020 0.042935 -0.017595 -139824.000000 0 0 1
-9.817333 18.535269 12.019030 24.174228 -1.083706 1.050447 0.059403 -0.028155 -153371.000000 0 1 0
-10.634133 17.533069 12.575230 24.054723 -1.025598 1.020692 0.056279 -0.026789 -79627.500000 0 1 0
-10.735933 16.338669 11.692730 22.780086 -0.989455 1.031785 0.054578 -0.034011 -146855.000000 0 1 0
-11.133333 15.161069 12.367930 22.511659 -0.937395 0.989149 0.043268 -0.028180 -15780.200000 0 1 0
-11.467533 14.194069 11.398230 21.515008 -0.891251 1.012455 0.036629 -0.020228 46442.800000 0 1 0
-11.816633 12.859469 12.117830 21.256542 -0.827634 0.964199 0.019687 -0.023381 -773448.000000 0 1 0
-13.072433 12.762169 12.688330 22.243093 -0.773389 0.963756 0.029999 -0.023725 -690303.000000 0 1 0
-13.300033 11.529969 13.366630 22.101988 -0.714231 0.921319 0.015544 -0.010348 314168.000000 0 1 0
-14.161633 11.698669 14.665130 23.504824 -0.690443 0.897048 0.018504 -0.011380 335162.000000 0 1 0
-15.505833 12.077369 14.485230 24.415478 -0.661737 0.935668 0.038087 -0.023198 -45388.700000 0 1 0
-16.208433 12.098269 15.712630 25.611875 -0.641205 0.910324 0.030570 -0.020284 -591170.000000 0 0 1
-17.192333 13.213269 15.836430 26.850685 -0.655272 0.939990 0.045464 -0.019305 274195.000000 0 0 1
-18.317833 13.100069 14.911430 27.009361 -0.620824 0.985935 0.039578 -0.021599 864528.000000 0 0 1
-19.170433 14.232369 15.097130 28.248702 -0.638627 1.006956 0.046114 -0.024633 -970416.000000 0 0 1
-20.391333 14.248769 14.241030 28.664278 -0.609897 1.050864 0.054033 -0.021910 -1095080.000000 0 0 1
-21.364833 13.386869 14.794130 29.232356 -0.559738 1.040154 0.049701 -0.019027 -18794.100000 0 0 1
-22.278033 13.008969 13.753930 29.235503 -0.528525 1.080992 0.047140 -0.018340 268076.000000 0 0 1
-23.352733 11.997569 14.207530 29.852064 -0.474590 1.074774 0.065686 -0.024785 -45798.900000 0 0 1
-24.224133 12.427769 15.221530 31.192195 -0.474019 1.061009 0.069950 -0.028333 31973.000000 0 0 1
-25.111283 11.419569 15.623130 31.702765 -0.426804 1.055491 0.059387 -0.032924 -399927.000000 0 0 1
-26.021843 11.771369 16.796830 33.133592 -0.424819 1.039162 0.053289 -0.025356 -350206.000000 0 0 1
-26.934673 12.812769 16.529730 34.100962 -0.444018 1.064743 0.066934 -0.019339 157607.000000 0 0 1
-27.595603 13.210169 17.719830 35.355597 -0.446467 1.045824 0.066139 0.004883 -736675.000000 0 0 1
-28.753963 14.142269 17.610130 36.563791 -0.457096 1.068285 0.069671 0.005048 -671309.000000 0 0 1
-28.336313 15.347469 17.044230 36.455414 -0.496385 1.084295 0.065110 0.005080 455809.000000 0 0 1
-29.386893 16.311369 17.219030 37.764338 -0.506717 1.097346 0.074932 0.005234 492431.000000 0 0 1
-28.909593 17.783969 16.887130 37.910543 -0.551491 1.109123 0.074926 0.000411 -18066.700000 0 0 1
-28.023103 18.378069 17.823230 37.956755 -0.580455 1.081996 0.066448 0.009648 314543.000000 0 0 1
-28.678573 18.711369 19.033530 39.177176 -0.578096 1.063481 0.090243 -0.001106 -510805.000000 0 0 1
-27.664893 18.850669 20.184730 39.091142 -0.598129 1.028212 0.077669 -0.004553 162700.000000 0 0 1
-27.159513 17.682569 20.849030 38.535626 -0.577123 0.999132 0.077375 -0.003676 598111.000000 0 0 1
-26.419933 16.776669 19.979930 37.130406 -0.565758 1.002613 0.067397 0.003542 -261997.000000 0 0 1
-26.084883 15.426769 20.591930 36.639240 -0.534077 0.973972 0.060375 0.000224 -322454.000000 0 0 1
-27.275123 14.782669 20.962830 37.441953 -0.496668 0.976561 0.076836 -0.005661 147504.000000 0 0 1
-27.010403 13.487269 21.461230 37.041230 -0.463116 0.952819 0.055897 -0.001671 -271353.000000 0 0 1
-28.326363 12.777369 21.878930 38.004363 -0.423749 0.957342 0.065474 -0.010239 3525.650000 0 0 1
-29.009423 12.514069 20.670330 37.754617 -0.407262 0.991433 0.067816 -0.008373 303124.000000 0 0 1
-30.257363 11.851669 20.911930 38.642967 -0.373327 0.998983 0.114454 -0.012842 275956.000000 0 0 1
-31.038083 11.785369 19.576330 38.542058 -0.362891 1.038026 0.138728 -0.021446 -422364.000000 0 0 1
-30.389583 11.167769 18.453530 37.266320 -0.352168 1.052755 0.143981 -0.029097 293506.000000 0 0 1
-30.160723 9.755469 18.568530 36.737293 -0.312829 1.040903 0.139051 -0.027411 -30938.000000 0 0 1
-29.301193 9.173869 17.392930 35.287870 -0.303421 1.055392 0.130411 -0.033573 -18279.500000 0 0 1
-29.892543 9.066669 16.086230 35.135956 -0.294490 1.095246 0.144391 -0.036200 410690.000000 0 0 1
-30.319613 10.255269 15.446830 35.539471 -0.326159 1.121159 0.142304 -0.035740 -119779.000000 0 0 1
-29.190443 11.028669 14.733630 34.507874 -0.361239 1.129663 0.133486 -0.021629 -168475.000000 0 0 1
-28.771013 10.493069 13.459930 33.452136 -0.349719 1.156699 0.122716 -0.032778 -325090.000000 0 0 1
-27.664193 11.257769 13.117430 32.620728 -0.386478 1.156966 0.088207 -0.018920 -824864.000000 0 0 1
-27.238993 11.041469 11.647330 31.615456 -0.385114 1.193502 0.116727 -0.013837 -489403.000000 0 0 1
-26.596103 9.793269 11.375630 30.539577 -0.352815 1.189108 0.114990 -0.020323 433362.000000 0 0 1
-27.485653 8.707569 11.283630 30.961318 -0.306801 1.197762 0.132057 -0.020892 -249310.000000 0 0 1
-26.928283 7.527269 10.420530 29.839230 -0.272573 1.214055 0.138509 -0.033399 -102792.000000 0 0 1
-26.761463 7.937069 9.102430 29.360300 -0.288322 1.255577 0.140708 -0.023258 314809.000000 0 0 1
-26.311993 6.809069 8.352930 28.433358 -0.253227 1.272626 0.153551 -0.042120 -139689.000000 0 0 1
-25.521573 7.116969 7.080030 27.424966 -0.271952 1.309679 0.142206 -0.027418 -397728.000000 0 0 1
-26.256933 7.998069 6.272730 28.155688 -0.295679 1.346124 0.135762 -0.022335 -153944.000000 0 0 1
-25.587683 8.216769 5.054330 27.345769 -0.310720 1.384897 0.126298 -0.021749 -405629.000000 0 0 1
-26.442003 8.584569 3.837630 28.064243 -0.313921 1.433622 0.098035 -0.013009 299905.000000 0 0 1
-27.344633 7.606469 3.245930 28.567873 -0.271311 1.456929 0.123409 -0.021698 1188210.000000 0 0 1
-26.671053 6.461169 2.706730 27.575681 -0.237675 1.472482 0.142215 -0.022388 -95395.600000 0 0 1
-25.747533 6.478969 1.470630 26.590887 -0.246516 1.515462 0.156797 -0.016951 -119678.000000 0 0 1
-24.621533 7.277369 1.745530 25.733769 -0.287387 1.502914 0.143166 -0.008693 -337439.000000 0 0 1
-23.775233 7.369369 0.639130 24.899353 -0.300569 1.545125 0.156851 0.000155 259804.000000 0 1 0
-22.538433 8.276569 1.068330 24.033807 -0.351933 1.526331 0.129243 -0.000672 320821.000000 0 1 0
-22.818533 9.625369 1.338130 24.801689 -0.399176 1.516817 0.119226 -0.005255 1427810.000000 0 1 0
-21.651033 10.328569 1.842730 24.059140 -0.445118 1.494130 0.121310 -0.010077 1001670.000000 0 1 0
-22.052433 11.804069 2.307930 25.119164 -0.491466 1.478787 0.117548 -0.014478 -146936.000000 0 0 1
-20.896433 12.566569 2.519230 24.513794 -0.541429 1.467847 0.108511 -0.020125 12184.500000 0 1 0
-21.203633 13.757369 3.250430 25.483810 -0.575546 1.442899 0.093461 -0.025902 -289764.000000 0 0 1
-20.056633 14.379769 4.076730 25.013317 -0.622017 1.407084 0.056264 -0.020136 -122811.000000 0 0 1
-19.721033 13.638069 5.268330 24.549366 -0.605032 1.354513 0.062680 -0.023838 307464.000000 0 1 0
-18.839533 14.508669 5.983430 24.520011 -0.656253 1.324285 0.054480 -0.023698 -351104.000000 0 1 0
-18.085733 13.787869 7.100930 23.824825 -0.651366 1.268150 0.025163 -0.015498 125131.000000 0 1 0
-16.993633 12.938569 6.707230 22.386984 -0.650743 1.266519 0.031539 -0.011005 782977.000000 0 1 0
-16.553633 12.239469 7.860230 22.036574 -0.636671 1.206074 0.020894 -0.010023 -120463.000000 0 1 0
11.181567 -32.450324 -13.744370 36.972404 -1.238963 1.951686 0.055967 -0.015320 883537.000000 0 0 1
12.472367 -32.515824 -13.097670 37.207361 -1.204526 1.930523 0.027953 -0.015652 1110450.000000 0 0 1
13.293367 -31.423724 -13.488470 36.689275 -1.170590 1.947267 0.021582 -0.032035 20591.800000 0 0 1
14.747067 -31.403824 -12.995670 37.048125 -1.131768 1.929198 0.067167 -0.028949 -135376.000000 0 0 1
15.603967 -32.344024 -13.611270 38.404249 -1.121297 1.933091 0.054154 -0.024703 -615378.000000 0 0 1
16.912567 -31.859024 -13.470870 38.503203 -1.082769 1.928222 0.070015 -0.024064 -557606.000000 0 0 1
17.961267 -32.875424 -13.907070 39.960070 -1.070765 1.926259 0.049110 -0.018755 -472100.000000 0 0 1
17.987867 -33.969524 -13.053670 40.594214 -1.083805 1.898178 0.049631 -0.016729 -285242.000000 0 0 1
18.389267 33.023669 -13.686470 40.200091 1.062708 1.918201 0.027109 0.005260 -294114.000000 0 0 1
18.344067 31.775069 -12.794570 38.856928 1.047228 1.906331 0.025589 -0.006376 -637994.000000 0 0 1
19.179267 31.775369 -11.713170 38.919362 1.027742 1.876495 0.027814 -0.008506 -661083.000000 0 0 1
18.938267 30.688269 -10.801370 37.644355 1.017885 1.861819 0.031583 -0.012083 453689.000000 0 0 1
20.081167 30.434769 -9.762470 37.746977 0.987556 1.832399 0.032828 -0.006145 665559.000000 0 0 1
21.254367 29.766669 -10.186370 37.967945 0.950715 1.842412 0.025615 -0.006524 -450295.000000 0 0 1
22.133367 29.613569 -9.169170 38.090985 0.928957 1.813901 0.023442 -0.002295 -524210.000000 0 0 1
23.482667 28.913569 -9.402070 38.416521 0.888680 1.818048 0.000704 0.001500 510368.000000 0 0 1
24.500167 29.675269 -10.048570 39.772523 0.880634 1.826216 0.005075 -0.003398 790534.000000 0 0 1
25.691167 28.901969 -10.295470 40.016954 0.844144 1.831000 0.003819 0.008137 666538.000000 0 0 1
26.664467 29.641469 -11.218570 41.418194 0.838221 1.845084 0.011506 0.001384 -218099.000000 0 0 1
27.314567 30.781069 -10.692070 42.519174 0.844996 1.824990 0.020124 -0.014932 81310.900000 0 0 1
28.218267 31.313869 -11.627170 43.726652 0.837350 1.839940 0.029671 -0.008662 -96845.100000 0 0 1
28.564467 32.783569 -11.300670 44.926566 0.854063 1.825064 0.031856 -0.017166 394512.000000 0 0 1
27.728667 33.767169 -11.973970 45.304268 0.883278 1.838276 0.044370 -0.015664 498240.000000 0 0 1
28.211467 -33.123824 -11.619970 45.034412 -0.865318 1.831773 0.052737 -0.009866 565522.000000 0 0 1
27.211267 -31.907924 -11.887770 43.587702 -0.864676 1.847028 0.047711 -0.016670 990326.000000 0 0 1
26.034367 -32.081324 -11.072870 42.773918 -0.889075 1.832648 0.045758 -0.008356 255994.000000 0 0 1
25.037167 -31.096324 -11.239170 41.474812 -0.892924 1.845215 0.050844 -0.011458 95837.300000 0 0 1
25.316567 -29.685624 -10.750470 40.468969 -0.864666 1.839672 0.054646 -0.033973 -823535.000000 0 0 1
26.175367 -28.915124 -11.550170 40.677275 -0.835089 1.858704 0.043493 -0.020161 -515926.000000 0 0 1
26.699667 -27.876924 -10.791270 40.080502 -0.806966 1.843400 0.037089 -0.017369 -236545.000000 0 0 1
27.853567 -27.162624 -11.530170 40.578001 -0.772840 1.858914 0.053145 -0.010721 290191.000000 0 0 1
29.033267 -27.889824 -11.813070 41.956185 -0.765313 1.856213 0.037815 -0.002532 115384.000000 0 0 1
28.872767 -28.732724 -12.955270 42.743948 -0.782967 1.878730 0.049692 -0.016918 -940149.000000 0 0 1
30.195867 -29.227524 -13.547370 44.153933 -0.769104 1.882648 0.055884 -0.007811 4329.130000 0 0 1
30.767667 -30.283524 -12.711570 45.003613 -0.777468 1.857150 0.069472 -0.014771 329158.000000 0 0 1
31.702667 -31.090124 -13.403970 46.382338 -0.775643 1.863967 0.057503 -0.014522 461690.000000 0 0 1
32.653667 -31.989124 -12.500570 47.390192 -0.775118 1.837735 0.050328 -0.013802 745242.000000 0 0 1
33.221267 -33.136424 -13.226070 48.750427 -0.784120 1.845541 0.045712 -0.020255 250760.000000 0 0 1
34.020067 -34.006324 -12.440870 49.684709 -0.785196 1.823886 0.054223 -0.017964 351110.000000 0 0 1
33.249667 33.123669 -11.536270 48.330150 0.783500 1.811820 0.043925 -0.026025 325160.000000 0 0 1
32.888067 33.593069 -10.223670 48.110734 0.796002 1.784932 0.053489 -0.034168 -156206.000000 0 0 1
32.125567 32.552769 -9.675570 46.747743 0.792003 1.779277 0.051202 -0.029599 -416276.000000 0 0 1
31.377367 32.785569 -8.376470 46.147567 0.807342 1.753323 0.028890 -0.025340 -365387.000000 0 0 1
30.327167 33.679369 -8.568970 46.124443 0.837723 1.757661 0.023482 -0.023323 -761258.000000 0 0 1
29.538167 33.863569 -7.419270 45.544376 0.853515 1.734428 0.021690 -0.018839 751656.000000 0 0 1
28.449367 -33.203224 -7.584970 44.377385 -0.862353 1.742559 0.019087 -0.021080 156060.000000 0 0 1
29.068367 -31.918824 -7.614470 43.837900 -0.832103 1.745378 0.010342 -0.028959 -286124.000000 0 0 1
28.323567 -30.856124 -8.075470 42.656044 -0.828166 1.761262 0.010051 -0.010342 -285003.000000 0 0 1
27.153067 -30.374924 -7.176670 41.369429 -0.841345 1.745156 0.015769 -0.019867 300210.000000 0 0 1
26.340967 -29.384824 -7.774270 40.221309 -0.839966 1.765308 0.019176 -0.029588 -70014.800000 0 0 1
25.344467 -28.978724 -6.860870 39.104731 -0.852199 1.747158 0.024546 -0.038575 -260905.000000 0 0 1
24.342067 -27.972024 -7.398870 37.811554 -0.854675 1.767745 0.073333 -0.047690 68724.800000 0 0 1
23.445567 -28.471724 -8.424270 37.832552 -0.881908 1.795351 0.093149 -0.042976 753870.000000 0 0 1
22.721067 -27.469424 -9.108370 36.793730 -0.879724 1.820949 0.118698 -0.043934 527615.000000 0 0 1
21.524167 -28.030124 -9.979970 36.722982 -0.915941 1.846021 0.098968 -0.030652 393421.000000 0 0 1
21.908567 -28.815324 -11.083970 37.857134 -0.920730 1.867934 0.099906 -0.030961 182719.000000 0 0 1
20.888867 -29.666524 -11.607670 38.094428 -0.957309 1.880428 0.089631 -0.025822 398345.000000 0 0 1
20.424167 -30.956124 -10.816770 38.631991 -0.987578 1.854585 0.078149 -0.026940 280757.000000 0 0 1
21.358567 -32.010924 -10.892270 39.994114 -0.982406 1.846628 0.057981 -0.018261 -264391.000000 0 0 1
20.825567 -33.215224 -10.410970 40.562836 -1.010768 1.830364 0.053512 -0.022222 408633.000000 0 0 1
21.827267 33.740669 -10.415170 41.513108 0.996595 1.824395 0.029506 -0.008462 363214.000000 0 0 1
22.828967 33.848069 -9.434370 41.902994 0.977422 1.797891 0.021493 0.001743 -808369.000000 0 0 1
23.971267 33.235169 -9.925270 42.162888 0.945943 1.808430 0.022778 -0.006508 -47922.300000 0 0 1
25.349867 33.533169 -9.253870 43.043273 0.923489 1.787478 0.027843 -0.009983 336598.000000 0 0 1
25.414667 33.186769 -7.862370 42.533326 0.917255 1.756718 0.015029 -0.018109 78647.300000 0 0 1
25.619367 31.798269 -7.608870 41.537655 0.892599 1.755017 0.007780 -0.002749 -333029.000000 0 0 1
25.691967 31.383469 -6.150970 41.022357 0.884789 1.721306 0.009265 -0.007160 107965.000000 0 0 1
26.820167 31.867369 -5.393170 41.999248 0.871188 1.699563 0.019636 -0.013981 1158310.000000 0 0 1
27.873567 30.937569 -5.059570 41.948399 0.837450 1.691705 0.024401 -0.019912 236402.000000 0 0 1
27.624367 29.854969 -3.980470 40.868924 0.824186 1.668347 0.032106 -0.009485 -478232.000000 0 0 1
27.483367 30.385669 -2.643470 41.056209 0.835509 1.635228 0.038251 -0.008703 -1854.060000 0 0 1
27.376467 29.426769 -1.601970 40.224023 0.821477 1.610633 0.036853 -0.003349 -291643.000000 0 0 1
26.058667 28.650969 -1.441870 38.755789 0.832746 1.608009 0.036798 0.011284 227245.000000 0 0 1
24.974467 29.524069 -1.080470 38.685425 0.868686 1.598730 0.040115 0.008762 240840.000000 0 0 1
23.729467 28.894169 -1.278170 37.411153 0.883229 1.604968 0.042143 0.012385 656382.000000 0 0 1
22.480567 29.498869 -0.569270 37.092900 0.919607 1.586144 0.050937 0.006644 550471.000000 0 0 1
22.407167 29.130769 0.801230 36.760370 0.915125 1.548999 0.062246 -0.006770 -191390.000000 0 0 1
21.296567 29.775769 1.369430 36.633530 0.949921 1.533406 0.047346 -0.005885 -773457.000000 0 0 1
20.534867 29.044169 2.426530 35.652946 0.955373 1.502684 0.067041 -0.022700 -408088.000000 0 0 1
19.668467 28.010769 1.940530 34.281445 0.958612 1.514160 0.089333 -0.014266 545516.000000 0 0 1
18.953367 27.318069 2.961230 33.380772 0.964241 1.481969 0.098375 -0.019527 338162.000000 0 0 1
18.118667 26.129569 2.425530 31.889241 0.964503 1.494662 0.104449 -0.007670 376358.000000 0 0 1
18.970767 25.077169 1.986530 31.507153 0.923151 1.507704 0.103927 -0.014799 429866.000000 0 0 1
19.655367 24.313969 2.977130 31.406462 0.890956 1.475860 0.106711 -0.010406 526881.000000 0 0 1
20.887767 23.501169 2.431530 31.535949 0.844205 1.493616 0.104282 -0.009690 239323.000000 0 0 1
20.628367 22.489869 1.463830 30.552685 0.828543 1.522866 0.099779 -0.005601 432713.000000 0 0 1
21.739367 21.646069 1.147930 30.699676 0.783248 1.533395 0.073736 -0.005935 337052.000000 0 0 1
21.343767 20.666869 0.029430 29.709876 0.769287 1.569806 0.100543 -0.009272 -83529.400000 0 0 1
21.330567 21.195669 -1.260870 30.097164 0.782226 1.612702 0.080182 -0.004466 263865.000000 0 0 1
21.594167 20.244769 -2.338570 29.692215 0.753157 1.649638 0.106087 -0.012431 143302.000000 0 0 1
21.440667 20.857769 -3.735570 30.144705 0.771618 1.695037 0.081426 -0.015133 18266.800000 0 0 1
22.463767 21.803569 -3.953070 31.553815 0.770485 1.696407 0.080238 -0.009320 168371.000000 0 0 1
22.352967 22.472869 -5.194670 32.119614 0.788073 1.733239 0.062328 -0.007993 -642955.000000 0 0 1
23.288067 23.653369 -5.338570 33.620177 0.793180 1.730262 0.053267 -0.000349 -515358.000000 0 0 1
22.985467 24.837469 -4.594470 34.151731 0.824105 1.705737 0.046170 0.002642 155991.000000 0 0 1
23.479167 24.806869 -3.234870 34.309130 0.812888 1.665223 0.051022 0.000473 73945.100000 0 0 1
22.355767 24.437869 -2.233770 33.196077 0.829864 1.638137 0.057738 -0.006387 -1193990.000000 0 0 1
21.443267 25.486769 -2.067070 33.371573 0.871346 1.632777 0.066804 -0.004276 484721.000000 0 0 1
20.435567 25.183569 -1.081370 32.449868 0.889104 1.604127 0.075679 0.003517 769288.000000 0 0 1
19.376667 24.104869 -1.513370 30.964338 0.893713 1.619690 0.098131 -0.011254 -976999.000000 0 0 1
18.634467 24.514169 -2.627570 30.904562 0.920830 1.655921 0.082907 -0.011942 -176985.000000 0 0 1
18.015667 23.430169 -3.249970 29.733809 0.915303 1.680317 0.090015 -0.020300 25473.800000 0 0 1
17.672567 23.754769 -4.710170 29.979900 0.931173 1.728561 0.087776 -0.023430 188681.000000 0 0 1
17.080467 22.681569 -5.492570 28.919963 0.925343 1.761880 0.083387 -0.029696 363943.000000 0 0 1
16.531067 23.158269 -6.711070 29.233886 0.950849 1.802427 0.080910 -0.028098 -7740.500000 0 0 1
15.665167 22.128969 -7.480670 28.125596 0.954786 1.840010 0.102445 -0.031951 -213519.000000 0 0 1
16.297667 20.902769 -7.889670 27.654776 0.908563 1.860107 0.079290 -0.026337 -145550.000000 0 0 1
15.543867 20.236969 -8.843270 27.006484 0.915816 1.904400 0.085741 -0.028233 -432567.000000 0 0 1
16.107667 18.837069 -9.163770 26.424738 0.863346 1.924940 0.065395 -0.025957 546691.000000 0 0 1
17.453967 18.876469 -9.660070 27.464141 0.824533 1.930219 0.090500 -0.026786 822651.000000 0 0 1
17.780667 17.602569 -10.084370 26.975861 0.780365 1.953931 0.084194 -0.026726 -557299.000000 0 0 1
19.196267 17.503369 -10.648570 28.075909 0.739302 1.959812 0.065090 -0.020733 -628479.000000 0 0 1
19.434667 18.201469 -11.856970 29.147684 0.752644 1.989733 0.071457 -0.021137 -588386.000000 0 0 1
20.793767 18.372169 -12.065070 30.256954 0.723648 1.980954 0.065087 -0.007570 -791142.000000 0 0 1
21.170767 18.790269 -13.451370 31.340309 0.725898 2.014407 0.066033 -0.013246 -135084.000000 0 0 1
20.996967 17.790469 -14.380770 31.051248 0.702917 2.052320 0.059154 -0.013631 340597.000000 0 0 1
21.510067 18.245169 -15.629070 32.246504 0.703457 2.076788 0.053389 -0.010808 130361.000000 0 0 1
21.398167 17.266069 -16.810270 32.227068 0.678931 2.119545 0.056988 -0.016000 98277.300000 0 0 1
22.325367 16.194269 -16.679670 32.231782 0.627554 2.114713 0.061540 -0.013481 268417.000000 0 0 1
22.379067 15.282269 -17.790270 32.417034 0.599145 2.151717 0.075169 -0.023545 185008.000000 0 0 1
23.285567 15.643769 -19.041970 33.904893 0.591564 2.167150 0.077011 -0.019950 -783870.000000 0 0 1
24.577767 16.002969 -18.698470 34.782100 0.577159 2.138371 0.091300 -0.015255 -632097.000000 0 0 1
25.353567 16.095269 -19.886670 36.018616 0.565639 2.155704 0.113141 -0.011630 -79347.500000 0 0 1
26.859167 16.259969 -19.606770 37.016576 0.544365 2.129014 0.096680 -0.012057 -62013.500000 0 0 1
27.105367 17.591869 -19.139370 37.556495 0.575685 2.105534 0.076737 -0.012488 802629.000000 0 0 1
28.453267 17.794869 -18.665370 38.401065 0.558892 2.078376 0.062507 -0.019958 751023.000000 0 0 1
28.572467 19.010269 -17.692570 38.610921 0.587080 2.046796 0.052322 -0.010882 274253.000000 0 0 1
28.020767 18.718169 -16.387470 37.471088 0.588932 2.023431 0.056688 -0.011906 -191429.000000 0 0 1
26.646967 18.891869 -16.232270 36.475337 0.616720 2.031993 0.061639 -0.001202 -596298.000000 0 0 1
26.019767 18.448369 -14.883570 35.197887 0.616750 2.007389 0.060428 0.005716 50797.500000 0 0 1
26.473067 19.161169 -13.724770 35.444929 0.626520 1.968404 0.062847 -0.001748 239171.000000 0 0 1
25.751367 18.698769 -12.593870 34.225465 0.628047 1.947619 0.063491 -0.010799 -105782.000000 0 0 1
26.120167 19.311069 -11.263370 34.380867 0.636629 1.904565 0.062677 -0.013156 -372599.000000 0 0 1
25.736567 20.690769 -11.115070 34.842841 0.677141 1.895477 0.060385 -0.007190 17230.100000 0 0 1
26.245367 21.300169 -9.953370 35.236147 0.681761 1.857171 0.051609 -0.006092 351172.000000 0 0 1
25.355567 21.124069 -8.663270 34.120131 0.694609 1.827512 0.064689 -0.012838 -18501.400000 0 0 1
25.438867 19.880969 -8.002370 33.262995 0.663370 1.813758 0.080717 -0.025138 152639.000000 0 0 1
24.631167 19.760169 -6.844970 32.311179 0.676107 1.784259 0.076998 -0.026341 157097.000000 0 0 1
23.122967 19.458669 -7.000470 31.021251 0.699556 1.798424 0.088975 -0.026734 25897.200000 0 0 1
22.360667 20.507769 -7.556670 31.267736 0.742202 1.814889 0.077147 -0.017856 571771.000000 0 0 1
20.997667 20.153469 -7.832670 30.139925 0.764886 1.833691 0.080420 -0.020179 708233.000000 0 0 1
20.216667 21.461469 -8.095170 30.575154 0.815256 1.838754 0.075552 -0.019209 -720912.000000 0 0 1
20.726867 22.187069 -9.215870 31.730133 0.819411 1.865489 0.084739 -0.020490 179155.000000 0 0 1
20.085467 22.007169 -10.480770 31.584617 0.831021 1.909041 0.085180 -0.010021 311416.000000 0 0 1
18.555867 22.269769 -10.509870 30.833751 0.876118 1.918624 0.081010 -0.019672 -292987.000000 0 0 1
18.172267 23.565969 -10.194170 31.456435 0.913913 1.900828 0.093084 -0.028809 382953.000000 0 0 1
16.827167 23.940769 -10.473970 31.080831 0.958149 1.914516 0.102207 -0.025289 468278.000000 0 0 1
16.476967 25.344869 -9.885170 31.805179 0.994343 1.886835 0.099990 -0.028316 130560.000000 0 0 1
17.133267 26.438469 -10.511970 33.212091 0.995798 1.892845 0.114231 -0.019451 121488.000000 0 0 1
17.229767 27.509669 -9.604170 33.850951 1.011251 1.858467 0.113750 -0.036733 53347.100000 0 0 1
20.748367 28.810669 33.793634 49.015907 0.946666 0.810078 0.059039 -0.015012 6747.960000 0 0 1
19.373767 29.097669 33.705261 48.559879 0.983381 0.803632 0.085099 -0.027217 -451999.000000 0 0 1
18.666567 27.914769 33.446230 47.395415 0.981388 0.787407 0.069336 -0.022847 -318937.000000 0 0 1
17.147167 28.027469 33.626585 47.013951 1.021747 0.773819 0.112401 -0.032549 -294372.000000 0 0 1
16.503767 28.683069 32.565190 46.428272 1.048674 0.793424 0.099673 -0.030066 -371349.000000 0 0 1
15.172367 28.972669 32.948660 46.424460 1.088386 0.781687 0.130441 -0.037719 -242991.000000 0 0 1
14.417867 29.535169 31.757712 45.702882 1.116666 0.802553 0.113348 -0.035256 -284035.000000 0 0 1
13.874467 28.486569 30.997222 44.326214 1.117560 0.796382 0.098615 -0.034263 813637.000000 0 0 1
12.471967 28.756669 30.757132 43.914658 1.161574 0.794861 0.093160 -0.006624 1236240.000000 0 0 1
11.547267 27.540769 30.443662 42.645632 1.173781 0.775780 0.070492 -0.011008 2123.620000 0 0 1
11.863567 26.768769 29.290272 41.415351 1.153623 0.785221 0.067842 -0.013664 359607.000000 0 0 1
12.957567 25.862569 29.359872 41.216176 1.106336 0.777972 0.045212 -0.017037 307745.000000 0 0 1
12.933667 24.986769 28.149742 39.799829 1.093152 0.785149 0.041066 -0.009095 -90266.200000 0 0 1
12.860267 25.701369 26.906992 39.369190 1.106850 0.818314 0.036545 -0.014934 185328.000000 0 0 1
12.881567 24.943369 25.728272 38.079528 1.094089 0.828956 0.038058 -0.014108 211716.000000 0 0 1
11.678867 23.983769 25.458772 36.875008 1.117644 0.808744 0.042526 -0.014802 -199881.000000 0 0 1
11.812167 23.349169 24.159882 35.614757 1.102446 0.825258 0.063680 -0.024920 100152.000000 0 0 1
11.080367 22.143269 23.990442 34.476662 1.106833 0.801199 0.077439 -0.030620 -4788.190000 0 0 1
11.134167 21.783769 22.482032 33.225654 1.098291 0.827597 0.105629 -0.034577 226584.000000 0 0 1
10.576367 22.824769 21.632432 33.178182 1.136878 0.860567 0.109357 -0.045049 172216.000000 0 0 1
10.831567 22.506369 20.265732 32.164568 1.122247 0.889161 0.115057 -0.032342 -615779.000000 0 0 1
10.396467 23.513769 19.203532 32.089866 1.154495 0.929257 0.102926 -0.031434 60667.400000 0 0 1
9.015667 23.778569 19.080332 31.792479 1.208391 0.927105 0.106491 -0.035630 205809.000000 0 0 1
8.437867 24.562169 20.169132 32.883000 1.239896 0.910488 0.102837 -0.034885 -892355.000000 0 0 1
7.108667 25.189769 19.833032 32.839105 1.295745 0.922354 0.106884 -0.033449 -668526.000000 0 0 1
7.133767 26.345569 18.999332 33.255891 1.306361 0.962699 0.104824 -0.035757 502645.000000 0 0 1
5.826567 26.754769 18.569532 33.084650 1.356368 0.974873 0.090033 -0.037212 703511.000000 0 0 1
5.979067 27.890469 17.602332 33.518198 1.359616 1.017896 0.096258 -0.028835 144668.000000 0 0 1
6.257567 27.423969 16.276732 32.498665 1.346458 1.046224 0.081684 -0.022576 85026.500000 0 0 1
7.019367 28.355069 15.513332 33.074839 1.328123 1.082596 0.079497 -0.021500 195606.000000 0 0 1
7.673267 27.785569 14.255032 32.157780 1.301352 1.111537 0.071825 -0.023378 55063.700000 0 0 1
6.735867 27.523469 13.217732 31.266943 1.330782 1.134332 0.066904 -0.026165 -29382.100000 0 0 1
6.924067 26.399969 12.415132 29.983939 1.314298 1.143887 0.050590 -0.029200 -108897.000000 0 0 1
6.096167 26.561069 11.107832 29.428517 1.345189 1.183754 0.039017 -0.030159 -317783.000000 0 0 1
6.622467 27.355869 10.044532 29.884666 1.333280 1.228013 0.035020 -0.025798 204332.000000 0 0 1
6.845267 28.762169 10.262932 31.296131 1.337148 1.236685 0.035273 -0.021425 -434624.000000 0 0 1
7.157767 29.431769 8.908932 31.572642 1.332229 1.284738 0.028085 -0.009362 -514352.000000 0 0 1
6.135167 29.560369 7.963132 31.222863 1.366155 1.312905 0.013336 -0.013309 -542729.000000 0 0 1
5.784667 28.467469 7.203932 29.929180 1.370323 1.327710 0.004326 -0.003982 261896.000000 0 0 1
4.265167 28.296569 6.915032 29.439857 1.421192 1.333694 0.016419 -0.007933 348778.000000 0 0 1
3.825167 29.220269 5.936032 30.061479 1.440629 1.372027 0.022609 -0.010359 -268957.000000 0 0 1
2.413367 29.111369 5.875532 29.796276 1.488084 1.372305 0.024893 -0.011642 109613.000000 0 0 1
1.831467 30.198969 4.994732 30.663975 1.510224 1.407181 0.039998 -0.019769 -346468.000000 0 0 1
2.126767 29.924069 3.627132 30.218027 1.499844 1.450474 0.037116 -0.017697 -183998.000000 0 0 1
1.317167 30.587369 2.703932 30.734888 1.527760 1.482706 0.031603 -0.022152 322531.000000 0 0 1
0.058167 29.812469 2.216332 29.894796 1.568845 1.496591 0.053500 -0.022562 281782.000000 0 0 1
0.441267 28.631369 1.435932 28.670750 1.555386 1.520692 0.059820 -0.016101 -727768.000000 0 0 1
-0.653633 27.878469 1.080132 27.907042 -1.547355 1.532082 0.051957 -0.015144 -597636.000000 0 0 1
-1.096533 28.232069 -0.372868 28.255816 -1.531976 1.583993 0.042906 -0.012566 -28930.900000 0 0 1
-1.583633 29.577969 -0.531268 29.625098 -1.517306 1.588730 0.042935 -0.017225 -111995.000000 0 0 1
-1.493933 29.978669 -1.855368 30.073158 -1.521004 1.632531 0.048636 -0.017159 -1429680.000000 0 0 1
-2.545733 30.909269 -2.369068 31.104279 -1.488620 1.647035 0.053331 -0.018151 -784941.000000 0 0 1
-3.777033 30.374269 -2.775868 30.733819 -1.447082 1.661239 0.033910 -0.021017 -146733.000000 0 0 1
-3.599933 29.642869 -3.997568 30.127060 -1.449945 1.703879 0.023960 -0.019368 -969849.000000 0 0 1
-4.831333 29.320969 -4.849168 30.109391 -1.407490 1.732552 0.031122 -0.015714 -156609.000000 0 0 1
-5.442833 30.481969 -5.421168 31.435075 -1.394099 1.744119 0.032508 -0.020612 696011.000000 0 0 1
-6.481133 30.177269 -6.379668 31.517818 -1.359241 1.774619 0.028494 -0.017671 383862.000000 0 0 1
-7.170833 31.361169 -7.015968 32.926700 -1.346007 1.785521 0.031161 -0.013661 -156705.000000 0 0 1
-8.157333 32.015369 -6.242168 33.622769 -1.321311 1.757533 0.027631 -0.013090 49665.000000 0 0 1
-8.452333 33.264769 -6.830468 34.994887 -1.321969 1.767242 0.030393 -0.026772 -349815.000000 0 0 1
-9.620633 34.063969 -6.212568 35.937537 -1.295537 1.744540 0.034728 -0.031508 -621238.000000 0 0 1
-10.794133 33.344969 -6.322568 35.614255 -1.257731 1.749271 0.038744 -0.022761 -996594.000000 0 0 1
-11.856533 34.054169 -5.686668 36.504822 -1.235756 1.727212 0.050779 -0.023554 825315.000000 0 0 1
-13.252733 33.517269 -6.145668 36.562433 -1.194262 1.739685 0.050248 -0.022439 398988.000000 0 0 1
-13.669433 33.874669 -7.429468 37.276583 -1.187251 1.771447 0.048419 -0.020073 430750.000000 0 0 1
-14.976433 33.336669 -7.639268 37.336115 -1.148568 1.776860 0.057423 -0.022836 263814.000000 0 0 1
-15.557533 33.451269 -9.099068 37.997596 -1.135472 1.812610 0.085479 -0.031627 121935.000000 0 0 1
-16.915233 33.138669 -9.253768 38.339650 -1.098833 1.814566 0.120604 -0.035972 31087.700000 0 0 1
-17.827233 -33.942724 -9.094568 39.403425 1.087181 1.803703 0.122546 -0.035472 319950.000000 0 0 1
-19.304533 33.762269 -9.391168 40.009372 -1.051387 1.807731 0.123745 -0.037533 893007.000000 0 0 1
-19.921433 32.951569 -8.383668 39.407554 -1.027025 1.785177 0.110178 -0.031099 232844.000000 0 0 1
-20.055433 33.569369 -7.098268 39.743029 -1.032267 1.750364 0.080723 -0.018518 -852042.000000 0 0 1
-20.116733 32.542969 -5.915668 38.713343 -1.017131 1.724204 0.068005 -0.025586 -453287.000000 0 0 1
-20.030233 33.083069 -4.612068 38.948310 -1.026377 1.689490 0.068478 -0.029335 -230001.000000 0 0 1
-21.246333 33.080869 -3.929768 39.511943 -0.999885 1.670419 0.074851 -0.029809 -236588.000000 0 0 1
-22.212233 -33.902424 -4.149268 40.742779 0.990787 1.672814 0.084804 -0.034666 -311994.000000 0 0 1
-22.746633 -33.862724 -5.430768 41.153209 0.979296 1.703147 0.087281 -0.034134 -186812.000000 0 0 1
-23.550133 -32.712524 -5.585868 40.692996 0.946831 1.708500 0.084679 -0.034352 244660.000000 0 0 1
-24.303833 -32.688024 -6.978268 41.326498 0.931463 1.740466 0.093223 -0.030646 1066790.000000 0 0 1
-23.368533 -32.322224 -8.064968 40.692238 0.944809 1.770312 0.112244 -0.035433 1103730.000000 0 0 1
-23.893233 -32.620624 -9.369868 41.506459 0.938617 1.798504 0.089512 -0.026118 800275.000000 0 0 1
-25.127003 -31.791424 -9.867568 41.706472 0.901955 1.809657 0.061484 -0.017301 154728.000000 0 0 1
-26.321443 -31.954724 -9.156968 42.400151 0.881764 1.788477 0.061580 -0.017469 34085.800000 0 0 1
-27.513783 -31.528724 -9.813768 42.981144 0.853294 1.801156 0.011180 -0.008693 601555.000000 0 0 1
-27.822353 -30.004524 -9.556768 42.020074 0.823117 1.800238 -0.003520 0.001932 -212435.000000 0 0 1
-26.880923 -29.166724 -10.245468 40.966467 0.826159 1.823574 0.010802 0.003705 243742.000000 0 0 1
-27.132213 -28.999224 -11.619268 41.377764 0.818647 1.855434 0.001385 0.001413 510334.000000 0 0 1
-25.900483 -28.316924 -12.345468 40.312452 0.829938 1.882042 0.029166 0.006539 647195.000000 0 0 1
-24.802833 -29.170724 -12.520268 40.284845 0.866149 1.886824 0.045631 0.002842 -473294.000000 0 0 1
-23.810433 -28.608924 -13.325868 39.534618 0.876684 1.914598 0.049708 -0.002799 19167.200000 0 0 1
-22.564233 -29.482024 -13.617468 39.544529 0.917540 1.922351 0.070134 -0.015268 143479.000000 0 0 1
-22.856733 -30.677624 -14.355968 40.861237 0.930463 1.929793 0.075496 -0.014969 281556.000000 0 0 1
-23.517433 -31.733124 -13.616468 41.778810 0.933015 1.902779 0.062362 -0.009938 248219.000000 0 0 1
-23.713033 -33.030624 -14.454568 43.153964 0.948151 1.912352 0.083478 -0.021273 180587.000000 0 0 1
-24.512233 -33.990124 -13.748868 44.104529 0.946011 1.887813 0.060213 -0.027078 64636.000000 0 0 1
-24.675533 32.973969 -14.437968 43.641946 -0.928362 1.907977 0.078219 -0.031896 -302353.000000 0 0 1
-25.084813 31.863569 -13.498468 42.740420 -0.903874 1.892122 0.060611 -0.024101 36138.200000 0 0 1
-24.196633 31.296069 -12.492668 41.484789 -0.912642 1.876683 0.078071 -0.021968 630120.000000 0 0 1
-23.700233 32.247669 -11.519368 41.645036 -0.937001 1.851059 0.091523 -0.024357 -115465.000000 0 0 1
-22.913433 31.771169 -10.295168 40.502137 -0.945982 1.827805 0.096595 -0.024036 -321669.000000 0 0 1
-23.517833 30.814369 -9.477168 39.905269 -0.918894 1.810579 0.079626 -0.015763 195768.000000 0 0 1
-22.632333 30.358869 -8.452968 38.798661 -0.930186 1.790425 0.080837 -0.018743 316347.000000 0 0 1
-23.393033 29.295869 -7.640268 38.260366 -0.896965 1.771839 0.071022 -0.021097 155090.000000 0 0 1
-23.614133 28.091269 -8.354268 37.636956 -0.871772 1.794631 0.066489 -0.011440 -33585.400000 0 0 1
-24.110533 27.029769 -7.521168 36.993164 -0.842419 1.775536 0.059884 -0.015511 -58007.900000 0 0 1
-23.101433 26.276069 -6.593968 35.603208 -0.849603 1.757079 0.060860 -0.018362 -17948.400000 0 0 1
-22.643933 27.095169 -5.557468 35.746068 -0.874652 1.726900 0.072847 -0.016499 -530944.000000 0 0 1
-21.672733 26.355669 -4.894468 34.471502 -0.882594 1.713264 0.073621 -0.022309 2371.470000 0 0 1
-20.320233 27.139369 -4.697968 34.227593 -0.928104 1.708488 0.060830 -0.026845 444633.000000 0 0 1
-19.607433 27.064869 -5.928868 33.942747 -0.943842 1.746370 0.061930 -0.020717 -106497.000000 0 0 1
-18.504433 27.961369 -5.830968 34.033107 -0.986181 1.742978 0.052374 -0.022099 672839.000000 0 0 1
-17.516333 27.798369 -7.066768 33.608190 -1.008523 1.782647 0.070954 -0.025645 243396.000000 0 0 1
-17.931833 28.346469 -8.301668 34.554170 -1.006754 1.813421 0.077796 -0.027559 46302.000000 0 0 1
-18.237333 29.713469 -8.371168 35.854805 -1.020311 1.806445 0.085565 -0.027466 -105041.000000 0 0 1
-18.216333 30.150069 -9.907668 36.592668 -1.027303 1.844974 0.095455 -0.027132 -21745.600000 0 0 1
-16.888733 30.185769 -10.390668 36.116145 -1.060694 1.862622 0.090971 -0.029422 -64300.700000 0 0 1
-16.808033 30.882269 -11.637968 37.036021 -1.072369 1.890446 0.110217 -0.034952 -83331.100000 0 0 1
-15.406633 31.311869 -12.149768 36.951514 -1.113538 1.905832 0.106255 -0.036191 169975.000000 0 0 1
-15.308033 31.888269 -13.445868 37.841630 -1.123234 1.934052 0.111817 -0.039661 -285725.000000 0 0 1
-15.433833 30.899469 -14.457368 37.443235 -1.107561 1.967212 0.120453 -0.047790 -175115.000000 0 0 1
-14.921733 31.378869 -15.841768 38.187081 -1.126912 1.998570 0.130399 -0.044595 -322712.000000 0 0 1
-13.578233 31.767869 -15.797768 37.988622 -1.166877 1.999679 0.117362 -0.051411 -646856.000000 0 0 1
-13.200633 32.085069 -17.102968 38.681002 -1.180479 2.028795 0.114276 -0.055370 1527620.000000 0 0 1
-11.630033 32.017169 -17.394068 38.248011 -1.222372 2.042911 0.120651 -0.063508 1523560.000000 0 0 1
-11.130333 30.665969 -17.410368 36.978465 -1.222628 2.061021 0.120926 -0.069528 530139.000000 0 0 1
-9.769133 30.521169 -17.824368 36.669958 -1.261023 2.078390 0.102359 -0.063225 741044.000000 0 0 1
-9.489933 30.617069 -19.371568 37.452922 -1.270231 2.114401 0.091334 -0.066444 -398021.000000 0 0 1
-9.971833 29.406169 -20.005568 36.937555 -1.243859 2.143142 0.100366 -0.068675 284905.000000 0 0 1
-9.846933 29.533569 -21.413368 37.785263 -1.248972 2.173306 0.069078 -0.066861 654973.000000 0 0 1
-11.250833 29.329969 -22.115868 38.417964 -1.204512 2.184213 0.084766 -0.058978 714977.000000 0 0 1
-12.038733 30.466769 -22.134168 39.535762 -1.194484 2.165003 0.102253 -0.057984 -393477.000000 0 0 1
-13.298733 30.206269 -21.533968 39.407953 -1.156068 2.148900 0.105978 -0.059666 144192.000000 0 0 1
-14.249033 31.425069 -21.573968 40.694054 -1.145095 2.129574 0.129553 -0.057480 -130827.000000 0 0 1
-14.923633 31.520669 -22.795768 41.664306 -1.128609 2.149727 0.099556 -0.050149 -428355.000000 0 0 1
-15.487033 32.817469 -22.885368 42.901918 -1.129869 2.133452 0.096958 -0.039448 496587.000000 0 0 1
-16.190333 33.030069 -24.273268 44.071577 -1.115044 2.154082 0.075573 -0.026036 525379.000000 0 0 1
-15.193333 33.077069 -25.284968 44.319967 -1.140210 2.177923 0.078467 -0.025853 184274.000000 0 0 1
-15.707633 32.996369 -26.614668 45.208745 -1.126499 2.200254 0.081933 -0.016368 178050.000000 0 0 1
-16.073133 -33.844424 -27.276668 46.344441 1.127420 2.200078 0.064863 -0.009242 -263457.000000 0 0 1
-17.292733 -33.337524 -26.832968 46.156660 1.092288 2.191178 0.068868 -0.009849 -604555.000000 0 0 1
-17.756633 -32.319024 -27.710268 46.126741 1.068401 2.215225 0.051836 -0.004029 753046.000000 0 0 1
-19.250333 -31.943024 -27.430868 46.296702 1.028434 2.204957 0.049922 -0.017613 1161710.000000 0 0 1
-20.219033 -32.993824 -27.504568 47.475288 1.021009 2.188721 0.048510 -0.015188 218212.000000 0 0 1
-21.529033 -32.465324 -27.690268 47.793801 0.985240 2.188751 0.046079 -0.015405 580526.000000 0 0 1
-22.603233 -33.561224 -27.745268 49.061816 0.978083 2.171856 0.039591 -0.007875 -71483.400000 0 0 1
-22.592933 33.786069 -26.592168 48.570387 -0.981383 2.150167 0.063009 -0.009097 -643032.000000 0 0 1
-23.617133 32.845169 -26.635068 48.435534 -0.947403 2.153050 0.042656 -0.009565 -57997.500000 0 0 1
-23.220833 31.488369 -27.330168 47.724863 -0.935381 2.180544 0.053408 -0.010959 215900.000000 0 0 1
-22.468633 30.552569 -26.540868 46.289487 -0.936699 2.181406 0.059655 -0.034660 -32886.700000 0 0 1
-23.170233 29.678569 -25.655968 45.562110 -0.907931 2.168927 0.051744 -0.023372 -60471.900000 0 0 1
31.742583 9.687569 -26.802900 42.659536 0.296213 2.250160 0.080713 -0.022556 -136958.000000 0 0 1
31.151693 8.410269 -26.602640 41.819386 0.263691 2.260271 0.071177 -0.016063 -526033.000000 0 0 1
29.764383 8.439469 -26.721260 40.879932 0.276291 2.283197 0.076476 -0.019572 -493871.000000 0 0 1
29.229183 7.052869 -26.211710 39.889119 0.236770 2.287780 0.061671 -0.016310 -69900.200000 0 0 1
29.511543 6.748669 -24.833170 39.155613 0.224813 2.257792 0.059521 -0.008517 208490.000000 0 0 1
29.102913 5.427569 -24.490570 38.421688 0.184378 2.261935 0.046857 -0.003223 37198.800000 0 0 1
29.145973 5.119769 -23.003270 37.481332 0.173886 2.231568 0.043783 -0.007518 -272453.000000 0 0 1
30.411753 4.940069 -22.428770 38.109431 0.161033 2.200043 0.042352 -0.009904 -38013.200000 0 0 1
30.324043 4.765869 -21.044370 37.217289 0.155890 2.171770 0.043724 -0.009238 -514718.000000 0 0 1
31.661823 4.444969 -20.392570 37.922100 0.139477 2.138561 0.032601 -0.011351 -529057.000000 0 0 1
31.986513 3.066569 -20.443270 38.085012 0.095579 2.137412 0.047501 -0.012565 370834.000000 0 0 1
33.185023 2.851569 -19.722870 38.708769 0.085719 2.105423 0.051962 -0.015615 -381029.000000 0 0 1
33.604913 1.397669 -19.563870 38.910007 0.041567 2.097629 0.064328 -0.017698 -247461.000000 0 0 1
32.746543 0.544569 -18.831470 37.779054 0.016628 2.092622 0.054950 -0.016778 -154595.000000 0 0 1
33.183303 -0.753331 -19.036470 38.263381 -0.022698 2.091524 0.056519 -0.018671 -295408.000000 0 0 1
32.237763 -1.850731 -18.512670 37.221197 -0.057346 2.091360 0.040751 -0.014748 38758.500000 0 0 1
32.195333 -2.047931 -17.112170 36.517939 -0.063524 2.058497 0.052062 -0.008328 739144.000000 0 0 1
30.861743 -1.651031 -16.747170 35.151683 -0.053447 2.067381 0.033264 -0.012998 605655.000000 0 0 1
30.449673 -1.821731 -15.291670 34.122375 -0.059756 2.035482 0.040650 -0.013457 -312654.000000 0 0 1
30.217343 -3.152031 -14.957870 33.863860 -0.103936 2.028296 0.034947 -0.020968 188895.000000 0 0 1
29.390713 -3.278131 -13.843570 32.652788 -0.111077 2.008613 0.032225 -0.019347 -506920.000000 0 0 1
29.182073 -4.810131 -13.435270 32.484415 -0.163363 1.997191 0.033722 -0.023323 -114679.000000 0 0 1
28.527053 -5.526131 -14.486870 32.468450 -0.191345 2.033292 0.030824 -0.026404 507802.000000 0 0 1
28.392323 -6.826631 -13.990470 32.379934 -0.235960 2.017586 0.029221 -0.023074 -305139.000000 0 0 1
27.761863 -7.839631 -14.989270 32.509369 -0.275222 2.050003 0.026694 -0.018531 288890.000000 0 0 1
26.406863 -7.516831 -15.282170 31.422442 -0.277320 2.078699 0.037537 -0.026636 657917.000000 0 0 1
25.698263 -8.375731 -16.155470 31.488931 -0.315069 2.109533 0.034357 -0.025835 805099.000000 0 0 1
24.255663 -7.893731 -16.530570 30.395854 -0.314629 2.145806 0.043793 -0.029995 477707.000000 0 0 1
24.123963 -6.868531 -17.518770 30.594928 -0.277378 2.180475 0.050086 -0.028298 530872.000000 0 0 1
22.759463 -6.641931 -17.874070 29.691594 -0.283946 2.216788 0.075488 -0.035154 554946.000000 0 0 1
22.323263 -7.130431 -19.276370 30.343855 -0.309174 2.259147 0.062820 -0.030620 -24318.600000 0 0 1
22.968763 -6.331331 -20.247870 31.267012 -0.268970 2.275200 0.056787 -0.030140 407975.000000 0 0 1
22.886863 -6.979031 -21.539270 32.194029 -0.295979 2.303720 0.072100 -0.028063 50999.200000 0 0 1
23.465063 -5.945831 -22.573870 33.098968 -0.248167 2.321306 0.059430 -0.026523 92678.700000 0 0 1
23.429363 -6.410831 -23.867970 34.054571 -0.267086 2.347419 0.063922 -0.028710 53731.400000 0 0 1
23.542863 -5.291331 -24.737170 34.557086 -0.221079 2.368615 0.072360 -0.025346 -286930.000000 0 0 1
23.709363 -5.724931 -26.213660 35.805931 -0.236928 2.392202 0.071848 -0.024703 -46284.200000 0 0 1
22.559263 -6.368331 -26.718490 35.543687 -0.275134 2.421445 0.078716 -0.022767 -222039.000000 0 0 1
22.601963 -6.389131 -28.176190 36.681977 -0.275492 2.446697 0.070914 -0.022829 -249506.000000 0 0 1
21.455763 -7.203131 -28.748720 36.588574 -0.323897 2.474671 0.049635 -0.027397 -252965.000000 0 0 1
21.475963 -8.579231 -28.537760 36.731784 -0.380059 2.460560 0.035106 -0.020219 177902.000000 0 0 1
20.355163 -9.132431 -29.212110 36.757058 -0.421734 2.489367 0.033723 -0.024678 -48088.900000 0 0 1
20.145263 -10.617331 -28.850460 36.754706 -0.485044 2.473405 0.048326 -0.020310 -573107.000000 0 0 1
19.272963 -10.809431 -27.776120 35.493714 -0.511143 2.469571 0.058149 -0.020920 41956.100000 0 0 1
19.349963 -12.166731 -27.250330 35.567273 -0.561308 2.443645 0.060399 -0.023256 -215943.000000 0 0 1
19.160163 -13.399631 -28.233550 36.657814 -0.610289 2.449938 0.044385 -0.011948 358738.000000 0 0 1
17.845463 -13.478931 -28.779460 36.447215 -0.646894 2.480986 0.042102 -0.013196 739891.000000 0 0 1
17.917263 -14.579131 -29.679080 37.608871 -0.683034 2.480222 0.033897 -0.015896 -136605.000000 0 0 1
16.721863 -14.881231 -30.618030 37.928031 -0.727222 2.510302 0.042303 -0.019946 -595518.000000 0 0 1
15.577063 -15.365131 -30.007930 37.137690 -0.778549 2.511577 0.066329 -0.025355 -270127.000000 0 0 1
14.830563 -16.209431 -30.838890 37.864606 -0.829791 2.522580 0.068063 -0.031993 -64483.500000 0 0 1
13.559563 -16.768031 -30.140320 37.060323 -0.890800 2.520559 0.084348 -0.037624 82918.800000 0 0 1
13.791663 -17.943431 -29.363440 37.072743 -0.915485 2.484955 0.072917 -0.039608 686346.000000 0 0 1
12.700963 -18.219431 -28.470190 36.108363 -0.962012 2.479106 0.078519 -0.040070 146756.000000 0 0 1
12.914563 -19.530831 -27.723740 36.288360 -0.986560 2.440262 0.069777 -0.036000 265378.000000 0 0 1
14.117163 -19.427131 -26.955690 36.101481 -0.942393 2.413830 0.070229 -0.030584 293544.000000 0 0 1
14.360863 -20.568431 -26.134670 36.225898 -0.961280 2.376670 0.046811 -0.020085 -23430.200000 0 0 1
15.439663 -20.326131 -25.033670 35.752195 -0.921182 2.346473 0.042819 -0.013958 344052.000000 0 0 1
16.712463 -20.771631 -25.512060 36.900302 -0.893268 2.334191 0.041514 -0.009694 626581.000000 0 0 1
17.673363 -20.617231 -24.461770 36.548545 -0.862129 2.304056 0.032339 -0.006961 156722.000000 0 0 1
19.154763 -20.853031 -24.856670 37.677684 -0.827821 2.291241 0.021136 -0.004909 315326.000000 0 0 1
19.651863 -22.206631 -25.013470 38.794379 -0.846356 2.271519 0.027261 -0.008515 318770.000000 0 0 1
19.445363 -23.073331 -23.889670 38.486583 -0.870518 2.240466 0.026651 -0.011054 -618649.000000 0 0 1
20.007363 -24.534131 -23.893470 39.662527 -0.886681 2.217325 0.050199 -0.019019 364123.000000 0 0 1
21.362763 -24.670231 -23.459270 40.191110 -0.857125 2.194066 0.063355 -0.016403 177489.000000 0 0 1
21.656963 -25.996451 -23.095770 40.966500 -0.876211 2.169742 0.072773 -0.028559 -191891.000000 0 0 1
21.347363 -26.355411 -21.647170 40.235775 -0.889999 2.138869 0.080498 -0.027154 -368408.000000 0 0 1
19.994363 -26.377561 -21.267170 39.342633 -0.922191 2.141902 0.072606 -0.028404 -258442.000000 0 0 1
19.908463 -26.818141 -19.929870 38.894206 -0.932209 2.108788 0.070761 -0.027857 610387.000000 0 0 1
18.466463 -27.136191 -19.392170 38.124000 -0.973271 2.104425 0.059514 -0.026679 388133.000000 0 0 1
18.094463 -28.453571 -19.709070 39.057173 -1.004376 2.099739 0.052132 -0.021610 307244.000000 0 0 1
17.003563 -29.077901 -19.043870 38.695148 -1.041659 2.085356 0.039039 -0.009759 670766.000000 0 0 1
15.552063 -28.633091 -19.347070 37.894982 -1.073227 2.106614 0.044499 -0.021075 -93149.600000 0 0 1
14.952563 -27.592791 -18.608470 36.485838 -1.074192 2.106003 0.049140 -0.019845 -1080570.000000 0 0 1
13.758863 -27.194241 -19.138070 35.987481 -1.102402 2.131519 0.032643 -0.009472 -1018920.000000 0 0 1
13.006763 -26.127281 -18.356570 34.478607 -1.108892 2.132235 0.017776 -0.013056 -267557.000000 0 0 1
12.293963 -26.564341 -17.209570 33.955486 -1.137349 2.102297 0.026750 -0.015799 -219603.000000 0 0 1
11.281963 -25.688611 -16.801870 32.703062 -1.156975 2.110370 0.028884 -0.026204 141330.000000 0 0 1
9.850963 -26.116591 -17.217870 32.795927 -1.210105 2.123512 0.037522 -0.023958 -392143.000000 0 0 1
9.207763 -27.205181 -16.555370 33.150943 -1.244442 2.093695 0.041470 -0.023503 118.678000 0 0 1
7.810763 -27.002371 -16.591670 32.640765 -1.289220 2.104019 0.031643 -0.010313 218928.000000 0 0 1
7.046063 -27.665941 -17.743570 33.613770 -1.321414 2.126882 0.043287 -0.002106 -307626.000000 0 0 1
7.358163 -27.071551 -18.982170 33.872322 -1.305404 2.165669 0.050631 -0.004925 -226816.000000 0 0 1
6.784563 -27.900021 -19.948770 34.962764 -1.332252 2.177998 0.053906 -0.003102 46986.700000 0 0 1
6.822963 -27.230691 -21.355970 35.272380 -1.325289 2.221138 0.055590 -0.011471 -353496.000000 0 0 1
6.106463 -26.068881 -21.589170 34.394298 -1.340702 2.249387 0.084242 -0.017079 -228265.000000 0 0 1
6.136063 -25.566651 -22.909770 34.873521 -1.335249 2.287548 0.081700 -0.024512 -192715.000000 0 0 1
4.860863 -24.734031 -23.143270 34.220041 -1.376744 2.313535 0.063136 -0.022367 481736.000000 0 0 1
3.682763 -25.530661 -23.091770 34.620907 -1.427536 2.300957 0.054841 -0.014378 -302551.000000 0 0 1
2.520463 -24.955431 -23.577770 34.424374 -1.470139 2.325283 0.062971 -0.023194 -102622.000000 0 0 1
1.467963 -25.987311 -24.068670 35.451320 -1.514369 2.317089 0.042750 -0.030303 -72226.500000 0 0 1
1.801263 -26.708011 -25.239520 36.791246 -1.503456 2.326801 0.025926 -0.025759 169000.000000 0 0 1
0.802163 -27.653851 -25.607410 37.697724 -1.541797 2.317581 0.037628 -0.035654 217706.000000 0 0 1
1.326563 -28.480771 -26.789980 39.123102 -1.524252 2.325072 0.016735 -0.025512 -206597.000000 0 0 1
1.662463 -27.830691 -28.061630 39.557126 -1.511132 2.359436 0.014862 -0.025753 17544.400000 0 0 1
1.939963 -28.834301 -28.995330 40.937874 -1.503618 2.357850 0.024015 -0.020414 -142662.000000 0 0 1
3.396063 -29.320891 -29.109120 41.455865 -1.455486 2.349239 0.030276 -0.014541 -278046.000000 0 0 1
3.965063 -30.063721 -28.033330 41.296690 -1.439665 2.316961 0.019395 -0.032187 -180765.000000 0 0 1
5.157863 -30.656551 -28.489100 42.167007 -1.404111 2.312609 0.044876 -0.030658 -147757.000000 0 0 1
5.697463 -31.860931 -27.657640 42.573760 -1.393844 2.277908 0.065201 -0.036375 -408231.000000 0 0 1
4.891463 -32.978241 -27.596740 43.278989 -1.423546 2.262237 0.057248 -0.050555 -625024.000000 0 0 1
5.546463 -34.058061 -27.033460 43.835177 -1.409360 2.235349 0.086599 -0.064139 -679926.000000 0 0 1
4.561163 33.116420 -26.458940 42.633051 1.433926 2.240330 0.088225 -0.058231 -158589.000000 0 0 1
3.676563 32.661819 -27.446780 42.820991 1.458704 2.266552 0.079815 -0.056695 487284.000000 0 0 1
2.472163 32.032563 -27.009470 41.972707 1.493772 2.269859 0.054629 -0.051937 512463.000000 0 0 1
1.254763 32.073893 -27.946980 42.559872 1.531695 2.287166 0.062840 -0.025708 -568772.000000 0 0 1
1.196863 31.341113 -29.180010 42.838894 1.532627 2.320138 0.084191 -0.037977 -411087.000000 0 0 1
0.070563 31.660293 -29.947400 43.580109 1.568568 2.328397 0.073576 -0.038996 -123095.000000 0 0 1
-0.136137 30.628133 -31.019310 43.592415 -1.566352 2.362535 0.078165 -0.037130 -244535.000000 0 0 1
0.934063 30.656613 -31.907880 44.258482 1.540337 2.375960 0.089838 -0.043063 -149932.000000 0 0 1
0.676963 29.627443 -32.864870 44.253173 1.547951 2.407824 0.104905 -0.040108 -16928.700000 0 0 1
1.883263 29.227793 -33.740460 44.679181 1.506451 2.426713 0.097202 -0.034677 65286.500000 0 0 1
2.184263 30.325523 33.636899 45.341475 1.498893 0.734961 0.093086 -0.038606 273861.000000 0 0 1
3.172963 30.112433 32.617122 44.505089 1.465813 0.748243 0.062425 -0.030426 292123.000000 0 0 1
2.702363 29.182143 31.440992 42.981813 1.478456 0.750284 0.061666 -0.021724 -83794.200000 0 0 1
2.641863 27.780053 31.696892 42.230365 1.475982 0.721870 0.065400 -0.022564 -272748.000000 0 0 1
3.897463 27.119433 31.630402 41.846579 1.428059 0.713821 0.054132 -0.015840 -408360.000000 0 0 1
3.848363 25.597093 31.867592 41.055627 1.421570 0.682172 0.054593 -0.014754 24250.900000 0 0 1
3.293563 24.909463 30.734272 39.697914 1.439338 0.685340 0.054347 -0.006694 224896.000000 0 0 1
3.302563 23.523133 30.979302 39.037954 1.431312 0.654144 0.036350 -0.000728 -418128.000000 0 0 1
2.549163 22.755463 29.910552 37.668959 1.459237 0.653374 0.039050 0.007471 -391610.000000 0 0 1
1.199763 22.530263 30.217182 37.711143 1.517595 0.641365 0.046395 0.004329 -455083.000000 0 0 1
0.539463 21.807963 29.190822 36.441492 1.546064 0.641778 0.036124 0.004455 -353311.000000 0 0 1
-0.823137 21.291863 29.642122 36.505840 -1.532156 0.623255 0.029636 0.004176 -476056.000000 0 0 1
-1.693837 22.324863 30.036242 37.462574 -1.495069 0.640551 0.040173 -0.004688 -299447.000000 0 0 1
-2.933337 21.798463 30.426022 37.543578 -1.437034 0.625930 0.033969 -0.005153 -99087.500000 0 0 1
-4.072037 22.851163 30.519362 38.343038 -1.394449 0.650212 0.028790 -0.019354 150288.000000 0 0 1
-4.090137 23.599053 31.707172 39.736498 -1.399183 0.646934 0.047355 -0.023683 86017.600000 0 0 1
-5.216337 24.449783 31.761682 40.420372 -1.360599 0.666834 0.037084 -0.029045 81933.400000 0 0 1
-5.265737 25.054703 33.150382 41.885725 -1.363642 0.657622 0.048679 -0.029450 16091.100000 0 0 1
-6.518737 25.606103 33.483619 42.653478 -1.321514 0.668076 0.028530 -0.032538 -124791.000000 0 0 1
-6.556737 26.006523 -33.441270 42.867803 -1.323824 2.465626 0.026957 -0.028401 -1023350.000000 0 0 1
-7.892837 26.370273 -32.882480 42.882930 -1.279974 2.444632 0.038719 -0.016424 -1364760.000000 0 0 1
-8.470437 27.538693 -33.358070 44.078212 -1.272397 2.429189 0.032757 -0.012028 482172.000000 0 0 1
-9.690837 27.968523 -32.696030 44.104206 -1.237251 2.405855 0.026251 -0.008224 981144.000000 0 0 1
-9.604737 28.294203 -31.184300 43.188812 -1.243542 2.377551 0.023696 -0.002072 -350693.000000 0 0 1
-8.795737 29.424203 -30.880430 43.551690 -1.280323 2.358950 0.025213 0.000364 -4476.600000 0 0 1
-8.560637 29.429333 -29.454400 42.508021 -1.287720 2.336319 0.038117 -0.001650 61551.500000 0 0 1
-8.055337 30.861723 -28.972170 43.089686 -1.315479 2.308201 0.027110 -0.006680 -56580.800000 0 0 1
-6.708537 31.030283 -29.332330 43.223472 -1.357880 2.316679 0.004983 -0.004537 -357296.000000 0 0 1
-6.197437 32.261265 -28.812080 43.695920 -1.381007 2.290786 0.018654 -0.006861 -416998.000000 0 0 1
-4.684637 32.456685 -28.845170 43.674089 -1.427451 2.292233 0.040653 -0.012159 -543472.000000 0 0 1
-4.187737 33.736284 -28.554440 44.396284 -1.447297 2.269430 0.046349 -0.013139 -233956.000000 0 0 1
-4.428137 -33.377901 -29.496330 44.763000 1.438900 2.290211 0.045113 -0.016639 -330475.000000 0 0 1
-3.532237 -33.333311 -30.750820 45.488452 1.465223 2.313136 0.051680 -0.032009 -219820.000000 0 0 1
-3.867737 33.867304 -31.750110 46.583507 -1.457086 2.320708 0.050897 -0.017997 219616.000000 0 0 1
-4.651537 -33.874321 -32.882570 47.438063 1.434332 2.336672 0.057089 -0.024807 12446.500000 0 0 1
-4.060337 -32.852591 -33.914940 47.392006 1.447827 2.368316 0.039080 -0.029920 -292334.000000 0 0 1
-4.210337 -31.471421 -33.419330 46.098036 1.437803 2.381776 0.028395 -0.021357 68272.500000 0 0 1
-3.304237 -30.624591 -34.105810 45.956391 1.463317 2.407045 0.025010 -0.033797 126886.000000 0 0 1
32.095523 18.602169 12.801332 39.243310 0.525275 1.238511 0.121004 -0.034314 168989.000000 0 0 1
33.428373 18.354969 13.218732 40.362060 0.502139 1.237136 0.117026 -0.040675 133560.000000 0 0 1
33.668043 17.319269 14.151332 40.419728 0.475111 1.213108 0.109340 -0.019582 -98983.800000 0 0 1
35.174223 17.024869 14.353532 41.630470 0.450778 1.218787 0.109453 -0.047527 -215974.000000 0 0 1
35.700663 16.441969 13.224332 41.469973 0.431593 1.246239 0.123749 -0.018712 -502409.000000 0 0 1
-36.491903 15.421069 13.613532 41.890293 -0.399827 1.239805 0.129944 -0.025044 -324003.000000 0 0 1
-35.667834 14.756969 12.489432 40.570290 -0.392289 1.257867 0.124699 -0.030994 -154786.000000 0 0 1
-35.002814 13.537369 12.819032 39.658353 -0.369033 1.241649 0.122620 -0.027110 87894.900000 0 0 1
-35.769260 12.392669 13.256432 40.109241 -0.333519 1.233954 0.125504 -0.032597 -153422.000000 0 0 1
-35.093502 11.711669 14.458332 39.721033 -0.322105 1.198241 0.146134 -0.041320 94337.400000 0 0 1
-35.087840 12.477369 15.676432 40.405343 -0.341658 1.172358 0.138473 -0.036411 158987.000000 0 0 1
-34.442694 11.730769 16.713332 40.040549 -0.328266 1.140203 0.142464 -0.035732 179275.000000 0 0 1
-34.378077 12.564769 18.016032 40.795870 -0.350405 1.113399 0.138479 -0.030594 -545854.000000 0 0 1
-35.565528 12.513169 18.735332 42.101055 -0.338308 1.109612 0.139262 -0.039423 -355045.000000 0 0 1
-35.516071 13.326269 19.844932 42.811238 -0.358962 1.088805 0.157399 -0.035206 -1140330.000000 0 0 1
36.287133 13.255669 20.620232 43.791127 0.350239 1.080512 0.149260 -0.046822 -1163580.000000 0 0 1
36.031783 12.012569 21.142432 43.469456 0.321800 1.062861 0.136826 -0.037124 382969.000000 0 0 1
34.832763 11.939069 21.904532 42.844735 0.330205 1.034153 0.136252 -0.041313 254072.000000 0 0 1
34.668033 10.484969 22.473632 42.624773 0.293693 1.015443 0.126888 -0.034595 -13784.000000 0 0 1
35.558093 10.057269 23.483112 43.783367 0.275641 1.004692 0.123789 -0.027046 194801.000000 0 0 1
35.228703 10.724869 24.747462 44.368020 0.295521 0.979091 0.118531 -0.020995 -402338.000000 0 0 1
36.484603 10.705669 25.618482 45.848056 0.285418 0.977895 0.094547 -0.021805 928340.000000 0 0 1
-35.503692 11.613569 25.287182 45.109076 -0.316138 0.975712 0.101223 -0.030048 691426.000000 0 0 1
-34.588219 11.115369 24.345882 43.733492 -0.310939 0.980404 0.110939 -0.033065 -99585.400000 0 0 1
-33.470603 12.159769 23.903942 42.889856 -0.348471 0.979626 0.123330 -0.039508 776837.000000 0 0 1
-32.593683 12.486769 24.942512 42.899843 -0.365857 0.950332 0.121153 -0.031771 -18746.900000 0 0 1
-33.201323 13.525869 25.729542 44.128068 -0.386860 0.948300 0.112028 -0.028766 -494174.000000 0 0 1
-32.269213 14.269069 26.664302 44.225484 -0.416339 0.923644 0.115135 -0.031312 -553355.000000 0 0 1
-31.762853 15.485569 26.270582 44.032093 -0.453628 0.931509 0.142307 -0.028989 -82444.600000 0 0 1
-31.662913 16.287669 27.422302 44.942306 -0.475108 0.914525 0.148977 -0.029495 -66327.700000 0 0 1
-30.938563 17.646769 27.100182 44.755145 -0.518356 0.920376 0.136090 -0.019222 -309672.000000 0 0 1
-31.729183 18.584069 26.412972 45.274207 -0.529845 0.947888 0.107963 -0.033505 -138524.000000 0 0 1
-31.079693 19.801469 26.292112 45.269423 -0.567267 0.951095 0.112112 -0.038090 -513451.000000 0 0 1
-31.870843 20.879869 25.546092 45.872894 -0.579980 0.980161 0.129486 -0.025854 -65765.000000 0 0 1
-32.931943 21.422169 26.321162 47.288749 -0.576725 0.980502 0.111778 -0.032420 473562.000000 0 0 1
-33.727483 22.411469 25.657772 47.938902 -0.586492 1.006030 0.101960 -0.022352 -78469.600000 0 0 1
-33.218493 23.840369 25.436522 48.154420 -0.622496 1.014284 0.097932 -0.030223 168426.000000 0 0 1
-34.266931 24.603369 24.820832 48.945092 -0.622699 1.038961 0.095529 -0.023094 744764.000000 0 0 1
-33.830583 25.911769 24.575322 49.192221 -0.653617 1.047685 0.081196 -0.022553 415378.000000 0 0 1
-34.844695 26.588269 23.611372 49.785397 -0.651801 1.076670 0.096125 -0.026313 383122.000000 0 0 1
-34.683521 25.941469 22.373532 48.749168 -0.642187 1.093981 0.110574 -0.034368 244384.000000 0 0 1
-35.687747 26.361469 21.467732 49.289004 -0.636210 1.120149 0.108205 -0.036453 124090.000000 0 0 1
-35.571881 25.886769 20.002632 48.327930 -0.629096 1.144069 0.141142 -0.056715 -85583.400000 0 0 1
-35.633640 24.474969 19.726232 47.517414 -0.601846 1.142703 0.136876 -0.043093 85904.200000 0 0 1
-35.363486 24.247669 18.352632 46.640591 -0.601043 1.166371 0.136040 -0.037231 -85785.900000 0 0 1
-35.936442 22.927569 17.763432 46.180524 -0.567895 1.175966 0.153655 -0.036768 -1080010.000000 0 0 1
35.885143 23.027969 17.227132 45.987008 0.570528 1.186822 0.125619 -0.048039 -1463190.000000 0 0 1
35.709583 22.140469 16.128932 45.005746 0.555006 1.204270 0.131920 -0.047125 -338288.000000 0 0 1
34.348993 22.281569 15.431732 43.754543 0.575448 1.210353 0.118688 -0.039834 142134.000000 0 0 1
33.350323 21.537269 16.129232 42.851489 0.573409 1.184891 0.112589 -0.051336 -144716.000000 0 0 1
32.165213 21.448069 15.389132 41.610648 0.588101 1.191963 0.113854 -0.045652 -729887.000000 0 0 1
31.077533 20.545269 16.048632 40.564513 0.584137 1.164040 0.069334 -0.042890 555900.000000 0 0 1
30.383283 21.017569 17.220332 40.760544 0.605166 1.134621 0.066988 -0.035791 515331.000000 0 0 1
29.603463 22.183169 16.938532 40.686262 0.643081 1.141401 0.053813 -0.028975 -558163.000000 0 0 1
28.910083 22.863369 18.130432 41.076016 0.669133 1.113652 0.034068 -0.020913 107039.000000 0 0 1
29.760793 23.747069 18.873732 42.495245 0.673478 1.110585 0.015787 -0.023786 -315752.000000 0 0 1
29.101953 24.520969 19.826132 42.910105 0.700176 1.090504 0.008029 -0.015485 -449231.000000 0 0 1
30.048973 25.275969 20.739632 44.406618 0.699339 1.084857 0.024199 -0.024480 -321857.000000 0 0 1
30.844763 26.255869 20.146932 45.240125 0.705205 1.109250 0.052864 -0.035297 -286799.000000 0 0 1
31.770673 26.702869 21.087032 46.551926 0.698946 1.100693 0.067570 -0.038321 -80235.500000 0 0 1
32.868473 27.675669 20.491232 47.604304 0.699839 1.125806 0.077186 -0.042062 290429.000000 0 0 1
34.011753 28.008769 21.206432 48.897886 0.688908 1.122214 0.078391 -0.038888 -298979.000000 0 0 1
33.693733 28.775069 22.357432 49.629901 0.706822 1.103490 0.044759 -0.025002 -693627.000000 0 0 1
34.701183 28.810969 23.531102 50.871965 0.692921 1.089921 0.055952 -0.027852 -58140.100000 0 0 1
35.805963 29.638569 23.245242 51.969732 0.691437 1.107070 0.077335 -0.030676 -466354.000000 0 0 1
36.257963 30.199769 24.438182 53.140293 0.694491 1.092936 0.070341 -0.010476 666178.000000 0 0 1
-35.403029 30.891369 24.335822 52.913925 -0.717448 1.092899 0.066171 -0.023968 886068.000000 0 0 1
-34.261843 30.074869 24.255472 51.640097 -0.720411 1.081843 0.062755 -0.028716 267481.000000 0 0 1
-33.137923 30.645069 24.938862 51.567326 -0.746335 1.066013 0.063193 -0.014654 636767.000000 0 0 1
-31.827423 29.852969 24.729842 50.157250 -0.753398 1.055209 0.079916 -0.030213 -41308.600000 0 0 1
-31.298113 30.023469 23.366292 49.264228 -0.764615 1.076621 0.063896 -0.026791 373800.000000 0 0 1
-31.735273 29.150769 22.292532 48.516512 -0.742975 1.093383 0.075025 -0.025736 -61605.400000 0 0 1
-31.220143 27.662969 22.419132 47.355620 -0.725061 1.077626 0.073589 -0.019405 908117.000000 0 0 1
-29.784993 27.532069 22.502832 46.384675 -0.746112 1.064279 0.038838 -0.021039 1106660.000000 0 0 1
-29.327993 26.317069 23.147432 45.700360 -0.731341 1.039671 0.055896 -0.019819 -12155.800000 0 0 1
-29.184963 26.362369 24.676682 46.429250 -0.734628 1.010438 0.076395 -0.019244 -452024.000000 0 0 1
-30.384113 26.548869 25.362622 47.658151 -0.718136 1.009625 0.067910 -0.019336 -148254.000000 0 0 1
-29.972343 26.814069 26.696052 48.270228 -0.729839 0.984771 0.085757 -0.031359 -313043.000000 0 0 1
-31.103243 27.296269 27.580232 49.730949 -0.720302 0.982927 0.082148 -0.037550 -554335.000000 0 0 1
-31.986423 26.277569 27.924792 49.934316 -0.687727 0.977339 0.069169 -0.029949 -15592.500000 0 0 1
-33.039123 26.699769 28.795182 51.318845 -0.679676 0.975078 0.056518 -0.016096 271970.000000 0 0 1
-33.797423 25.457869 29.369542 51.506688 -0.645577 0.964037 0.045413 -0.014114 476227.000000 0 0 1
-33.008973 24.585369 30.197672 51.048331 -0.640170 0.937816 0.048081 -0.021829 623347.000000 0 0 1
-33.808853 23.413669 30.510722 51.206861 -0.605695 0.932494 0.031991 -0.028624 425131.000000 0 0 1
-33.138903 22.446369 31.473352 50.917564 -0.595357 0.904443 0.054941 -0.040463 -157091.000000 0 0 1
-31.972833 21.796969 30.961802 49.558078 -0.598361 0.895975 0.067745 -0.035855 301646.000000 0 0 1
-31.448693 20.766469 31.819622 49.322965 -0.583602 0.869606 0.062475 -0.036541 434577.000000 0 0 1
-30.552433 21.127969 33.029037 49.706736 -0.605020 0.844001 0.053922 -0.041932 -330817.000000 0 0 1
-31.282863 21.943369 33.934319 51.104472 -0.611699 0.844616 0.081539 -0.040437 13290.200000 0 0 1
-30.899583 21.857269 -32.992040 50.209553 -0.615652 2.287744 0.062104 -0.030162 236072.000000 0 0 1
-29.476963 22.297069 -32.494140 49.213004 -0.647600 2.291982 0.078421 -0.027235 536228.000000 0 0 1
-29.352973 23.656969 -32.224730 49.595186 -0.678357 2.278059 0.060696 -0.023293 -26004.500000 0 0 1
-28.467413 23.786969 -31.142350 48.436138 -0.696066 2.269149 0.096942 -0.014033 -168484.000000 0 0 1
-28.850953 25.058369 -30.362650 48.807683 -0.715163 2.242202 0.073009 -0.004633 -103539.000000 0 0 1
-28.519533 26.274169 -31.060430 49.683459 -0.744443 2.246141 0.081808 -0.015965 325028.000000 0 0 1
-29.521253 26.832569 -31.925130 51.095059 -0.737724 2.245695 0.052241 -0.013321 -10352.600000 0 0 1
-29.358153 28.286569 -32.383910 52.064852 -0.766811 2.242080 0.073096 -0.016088 -206069.000000 0 0 1
-29.411173 29.189369 -31.258790 51.905186 -0.781613 2.217086 0.058872 -0.028202 66356.100000 0 0 1
-29.141103 30.540069 -31.584050 52.720508 -0.808835 2.213154 0.070324 -0.044039 -147983.000000 0 0 1
-29.486323 31.648269 -30.555550 52.959398 -0.820747 2.185800 0.051757 -0.025653 -591506.000000 0 0 1
-28.521173 31.762469 -29.578230 51.934415 -0.839114 2.176731 0.045632 -0.019853 -412509.000000 0 0 1
-28.791073 32.889669 -28.785850 52.338145 -0.851749 2.153158 0.019042 -0.011895 -567089.000000 0 0 1
-27.766733 33.056069 -27.645880 51.263924 -0.872143 2.140385 0.012023 -0.010347 838303.000000 0 0 1
-26.532703 33.738069 -27.968010 51.229398 -0.904383 2.148303 0.030262 -0.017536 758820.000000 0 0 1
-26.543083 -33.043324 -28.152870 50.882027 0.894058 2.157113 0.032004 0.004374 -620878.000000 0 0 1
-26.892113 -32.219824 -26.843580 49.818477 0.875284 2.139841 0.028606 0.008164 -301229.000000 0 0 1
-28.255583 -32.050524 -26.594690 50.327841 0.848243 2.127545 0.012493 0.000719 -818994.000000 0 0 1
-28.567993 -31.175424 -25.499970 49.379001 0.829014 2.113453 0.003397 0.008163 348570.000000 0 0 1
-30.088443 -30.907024 -25.367480 50.040659 0.798818 2.102424 -0.013151 0.010801 318565.000000 0 0 1
-30.621023 -30.053524 -26.357230 50.354393 0.776045 2.121673 -0.004996 0.007299 -231921.000000 0 0 1
-32.006273 -29.886824 -26.221080 51.040854 0.751168 2.110320 0.007005 0.001484 -412259.000000 0 0 1
-32.602193 -29.006924 -27.325490 51.487737 0.727108 2.130244 0.026520 -0.003378 -286110.000000 0 0 1
-34.002883 -29.018024 -27.400120 52.430987 0.706464 2.120687 0.023996 -0.003937 -322164.000000 0 0 1
-34.506377 -28.102424 -28.344620 52.762238 0.683467 2.137927 0.026488 -0.012471 299848.000000 0 0 1
-36.039393 -28.238324 -28.507670 53.934479 0.664624 2.127701 0.024382 -0.020374 213209.000000 0 0 1
36.194113 -27.914624 -27.434200 53.309243 -0.656961 2.111365 0.015396 -0.008968 -408056.000000 0 0 1
34.848483 -28.121624 -27.781800 52.697921 -0.678976 2.126086 0.017371 -0.014222 -103019.000000 0 0 1
33.852483 -27.510124 -26.753740 51.171869 -0.682405 2.120954 0.021636 -0.005391 -26976.900000 0 0 1
33.823623 -28.021124 -25.481490 50.779200 -0.691848 2.096486 0.015930 0.002345 -518299.000000 0 0 1
32.861153 -27.427224 -24.704570 49.420884 -0.695509 2.094258 0.025578 0.009501 -490536.000000 0 0 1
32.587313 -28.120824 -23.358970 48.973005 -0.711957 2.068008 0.015621 0.016885 -9191.230000 0 0 1
32.132293 -29.442224 -23.498170 49.512552 -0.741738 2.065295 0.036426 0.008127 -86665.200000 0 0 1
31.601843 -30.041824 -22.313070 48.980208 -0.760097 2.043789 0.045897 0.002299 -192582.000000 0 0 1
32.487693 -30.160524 -21.031770 49.065698 -0.748269 2.013789 0.037754 0.004881 -561882.000000 0 0 1
33.503553 -31.162324 -21.191870 50.424933 -0.749209 2.004534 0.024092 0.002450 906581.000000 0 0 1
34.618643 -31.118024 -20.295970 50.780983 -0.732196 1.981960 0.012918 0.007342 1409210.000000 0 0 1
35.553993 -29.811524 -20.452270 50.706101 -0.697771 1.985970 0.018622 0.004364 -149391.000000 0 0 1
34.942853 -28.598824 -20.028570 49.396754 -0.685887 1.988282 0.024878 0.014083 -81020.100000 0 0 1
35.524603 -27.527424 -20.689470 49.475354 -0.659237 2.002234 0.021513 0.015192 73112.600000 0 0 1
34.740703 -26.264624 -20.239170 48.024691 -0.647342 2.005821 0.029302 0.020490 313782.000000 0 0 1
33.496963 -26.169924 -20.910770 47.372690 -0.663211 2.027966 0.031139 0.018224 -236462.000000 0 0 1
32.675073 -25.226024 -20.265270 45.985801 -0.657450 2.027158 0.034148 0.010069 233632.000000 0 0 1
31.328823 -25.110924 -21.055170 45.336231 -0.675672 2.053779 0.031421 0.007590 833061.000000 0 0 1
30.526513 -26.319224 -21.019370 45.457491 -0.711520 2.051492 0.046618 0.008322 1370930.000000 0 0 1
29.259533 -26.198924 -21.722070 44.881535 -0.730267 2.076001 0.056001 -0.003728 1271530.000000 0 0 1
28.703353 -27.554024 -22.274470 45.598890 -0.764971 2.081151 0.059251 -0.005218 73954.600000 0 0 1
28.122283 -28.397124 -21.283270 45.279543 -0.790261 2.060134 0.062187 -0.008988 51499.900000 0 0 1
27.816063 -29.684824 -21.808370 46.157634 -0.817886 2.062894 0.061433 -0.010721 -93454.100000 0 0 1
27.129063 -30.628124 -20.815770 45.906038 -0.845906 2.041421 0.078847 -0.006423 76489.100000 0 0 1
27.979163 -30.982024 -19.749170 46.181696 -0.836284 2.012677 0.088682 -0.009538 233887.000000 0 0 1
28.780063 -32.162324 -19.953370 47.548334 -0.840841 2.003849 0.089698 0.000859 751538.000000 0 0 1
29.782393 -32.492724 -18.799870 47.918714 -0.828893 1.973958 0.080082 -0.008697 326515.000000 0 0 1
29.167103 -32.885024 -17.578570 47.340794 -0.845243 1.951226 0.087583 -0.012503 4866.490000 0 0 1
28.614113 -31.818424 -16.795070 45.970142 -0.838372 1.944802 0.077176 -0.017798 467763.000000 0 0 1
27.740063 -32.297124 -15.574170 45.333984 -0.861157 1.921483 0.075202 -0.014377 152537.000000 0 0 1
26.498863 -32.838424 -15.929470 45.103213 -0.891834 1.931762 0.088539 -0.009640 -215594.000000 0 0 1
25.930863 -33.716024 -14.980070 45.095259 -0.915185 1.909418 0.075087 -0.008527 1874530.000000 0 0 1
24.334663 -33.855224 -14.936270 44.288195 -0.947573 1.914792 0.062485 0.000424 2165620.000000 0 0 1
23.631163 -32.715724 -14.424770 42.858190 -0.945248 1.914068 0.068450 -0.001108 407029.000000 0 0 1
22.337863 -33.060024 -13.950670 42.267795 -0.976582 1.907157 0.056294 -0.002395 291101.000000 0 0 1
-0.809633 -7.303131 -28.605980 29.534612 1.460386 2.890163 0.053263 -0.017505 -26590.600000 0 0 1
-0.473933 -8.688231 -28.621580 29.914960 1.516301 2.846464 0.044602 -0.011240 -112922.000000 0 0 1
-0.598633 -9.235331 -29.934060 31.332055 1.506067 2.841744 0.045410 -0.012716 -144933.000000 0 0 1
-0.249433 -10.723831 -30.027270 31.885729 1.547541 2.798489 0.042249 -0.010810 -202770.000000 0 0 1
1.093167 -10.957731 -29.695270 31.671374 -1.471363 2.786476 0.019650 -0.010895 -395719.000000 0 0 1
1.309767 -12.312431 -29.512830 32.004978 -1.464817 2.744353 0.023123 -0.011622 -762280.000000 0 0 1
2.678067 -12.545231 -28.922620 31.639735 -1.360480 2.724137 0.027211 -0.007218 -1238240.000000 0 0 1
3.715967 -12.401431 -29.878990 32.563138 -1.279670 2.732723 0.040708 -0.010538 896273.000000 0 0 1
5.048467 -12.693831 -29.406380 32.424614 -1.192265 2.706700 0.068103 -0.019607 1219030.000000 0 0 1
5.433767 -14.096031 -28.922990 32.630711 -1.202868 2.660248 0.069547 -0.025415 -1508900.000000 0 0 1
4.801067 -14.424731 -27.735420 31.628731 -1.249494 2.640183 0.063477 -0.022475 -232694.000000 0 0 1
5.485367 -15.433531 -27.034650 31.609420 -1.229302 2.596872 0.078953 -0.031867 -165831.000000 0 0 1
5.155467 -16.903531 -27.370450 32.579898 -1.274765 2.568268 0.058064 -0.032271 -466286.000000 0 0 1
5.772567 -17.376331 -28.538830 33.907584 -1.250058 2.571156 0.070517 -0.038099 252587.000000 0 0 1
5.450067 -18.761031 -28.658370 34.684026 -1.288078 2.543249 0.065302 -0.039130 -246640.000000 0 0 1
5.609767 -19.311131 -30.102710 36.201691 -1.288083 2.552649 0.058449 -0.032637 87891.800000 0 0 1
6.951667 -19.314231 -30.548670 36.804707 -1.225307 2.549941 0.054883 -0.032611 296243.000000 0 0 1
6.939567 -20.021431 -31.717880 38.144976 -1.237147 2.552614 0.050335 -0.033500 452555.000000 0 0 1
8.366667 -19.951131 -32.332910 38.903288 -1.173714 2.551897 0.054406 -0.027663 244413.000000 0 0 1
8.745967 -18.679731 -32.675410 38.640739 -1.132906 2.578523 0.062664 -0.027329 -646939.000000 0 0 1
9.992567 -18.655231 -33.280010 39.438916 -1.079042 2.575190 0.046667 -0.023785 -764378.000000 0 0 1
10.318167 -17.330131 -33.970500 39.506871 -1.033774 2.605798 0.057595 -0.022587 -547148.000000 0 0 1
9.519967 -17.031731 33.215166 38.522160 -1.061104 0.531130 0.064365 -0.026610 -453129.000000 0 0 1
9.689967 -15.696831 32.758093 37.594928 -1.017739 0.512863 0.075824 -0.028578 -186913.000000 0 0 1
8.754967 -15.240631 31.622582 36.178916 -1.049376 0.507297 0.073834 -0.033399 -74789.700000 0 0 1
8.871267 -15.931931 30.343822 35.401601 -1.062730 0.541122 0.077638 -0.026765 -239210.000000 0 0 1
7.901067 -15.461131 29.459102 34.195206 -1.098365 0.532584 0.076622 -0.025143 -343151.000000 0 0 1
7.897967 -16.097831 28.102442 33.335646 -1.114678 0.567933 0.067191 -0.013664 -697886.000000 0 0 1
7.620067 -17.439931 28.257182 34.068827 -1.158863 0.592737 0.065181 -0.016595 243371.000000 0 0 1
7.877167 -18.246231 27.131852 33.632010 -1.163252 0.632204 0.056990 -0.017957 -170698.000000 0 0 1
7.373767 -19.693131 27.256462 34.425377 -1.212522 0.657120 0.055734 -0.020279 -287349.000000 0 0 1
8.071567 -20.354631 28.262642 35.752456 -1.193270 0.659157 0.054343 -0.016324 19339.300000 0 0 1
7.342067 -21.407431 28.806622 36.633394 -1.240400 0.665920 0.032200 -0.018729 -446169.000000 0 0 1
7.811367 -21.738931 30.226742 38.042799 -1.225837 0.652537 0.024995 -0.014601 -269046.000000 0 0 1
7.338467 -21.006531 31.330682 38.428363 -1.234708 0.617548 0.044478 -0.017032 42694.800000 0 0 1
7.548167 -19.623631 31.304662 37.709993 -1.203595 0.591433 0.048471 -0.026887 -273844.000000 0 0 1
6.938767 -18.791831 32.475530 38.156775 -1.217082 0.552704 0.050421 -0.023613 746911.000000 0 0 1
5.502467 -18.842531 32.506985 37.973968 -1.286673 0.543250 0.048041 -0.029382 942243.000000 0 0 1
4.896967 -17.747331 33.244258 38.001693 -1.301569 0.505753 0.042086 -0.020515 147854.000000 0 0 1
3.496167 -18.092531 33.779039 38.478388 -1.379911 0.499399 0.041650 -0.022975 -88852.100000 0 0 1
3.420667 -19.123731 -33.466720 38.696762 -1.393798 2.615639 0.031815 -0.030162 123792.000000 0 0 1
2.362167 -18.866131 -32.557200 37.702547 -1.446238 2.613020 0.035810 -0.039069 7797.580000 0 0 1
1.985567 -20.160131 -31.763170 37.673231 -1.472623 2.573861 0.055420 -0.029828 -44648.000000 0 0 1
0.882167 -20.958531 -32.188820 38.420807 -1.528730 2.564031 0.060087 -0.032761 441595.000000 0 0 1
0.373567 -21.894131 -31.217340 38.131547 -1.553736 2.529896 0.067544 -0.031381 430869.000000 0 0 1
-0.585933 -21.274331 -30.138230 36.895168 1.543262 2.526745 0.071905 -0.036094 -24979.000000 0 0 1
-1.849833 -20.859331 -30.646950 37.118313 1.482346 2.542160 0.081679 -0.049025 133071.000000 0 0 1
-2.491433 -19.945331 -29.798870 35.944348 1.446527 2.548164 0.095748 -0.027537 68523.800000 0 0 1
-1.842733 -18.524831 -29.731150 35.078573 1.471649 2.582164 0.069529 -0.015012 -60875.000000 0 0 1
-2.786833 -17.609331 -29.241320 34.247770 1.413839 2.594070 0.082092 -0.024148 -30152.000000 0 0 1
-2.336733 -16.286131 -29.480580 33.760968 1.428289 2.632557 0.079342 -0.024500 9206.550000 0 0 1
-3.399933 -15.260231 -29.072800 33.010027 1.351580 2.648190 0.076952 -0.013569 -120566.000000 0 0 1
-3.456233 -14.848231 -27.744040 31.656710 1.342098 2.639138 0.068031 -0.022049 -169197.000000 0 0 1
-4.367833 -13.765631 -27.696250 31.235442 1.263545 2.660939 0.068701 -0.023734 -31608.600000 0 0 1
-4.378133 -13.134331 -26.280930 29.704646 1.249044 2.656735 0.065034 -0.020449 -375110.000000 0 0 1
-5.043233 -13.892231 -25.303190 29.303237 1.222565 2.612954 0.067729 -0.015499 103534.000000 0 0 1
-5.029933 -13.252731 -24.053670 27.919781 1.208052 2.609068 0.062408 -0.014320 -447943.000000 0 0 1
-6.195533 -12.301031 -23.756270 27.460160 1.104225 2.616181 0.067316 -0.016981 138784.000000 0 0 1
-7.420433 -13.057131 -23.590170 27.965114 1.054008 2.574669 0.064290 -0.021228 418901.000000 0 0 1
-8.500233 -12.172231 -23.454570 27.758495 0.961192 2.577270 0.068601 -0.023269 -104379.000000 0 0 1
-9.905933 -12.793931 -23.532870 28.558854 0.911944 2.539254 0.074041 -0.032668 155435.000000 0 0 1
-10.381633 -13.496631 -22.380170 28.121333 0.915119 2.491195 0.076862 -0.024888 806775.000000 0 0 1
-11.664733 -14.137431 -22.570470 29.075059 0.880939 2.459544 0.041238 -0.018836 961128.000000 0 0 1
-12.090033 -14.901431 -21.274070 28.649740 0.889183 2.407677 0.037474 -0.007266 228403.000000 0 0 1
-11.311033 -16.076231 -21.097370 28.835459 0.957667 2.391531 0.059666 -0.011820 29781.200000 0 0 1
-12.038633 -17.294731 -21.285770 29.951968 0.962702 2.361237 0.038774 -0.001679 234623.000000 0 0 1
-12.317633 -17.782031 -22.699370 31.355799 0.964986 2.380277 0.024545 0.000278 -251165.000000 0 0 1
-13.405633 -17.274131 -23.405170 32.029808 0.910829 2.390188 0.016159 -0.002527 -540660.000000 0 0 1
-13.871333 -18.077531 -24.478370 33.442512 0.916299 2.391981 0.000560 -0.008017 447887.000000 0 0 1
-15.201933 -17.524631 -25.053370 34.145026 0.856252 2.394598 -0.000002 -0.013123 -8479.040000 0 0 1
-16.412033 -17.895231 -24.432870 34.446470 0.828604 2.359301 -0.002786 -0.006269 -110784.000000 0 0 1
-17.560633 -17.695031 -25.198140 35.446244 0.789210 2.361550 -0.000881 -0.014326 -149324.000000 0 0 1
-18.220333 -16.315631 -25.040000 35.002599 0.730303 2.367958 0.005271 -0.011514 -746415.000000 0 0 1
-18.764433 -16.165631 -23.743470 34.310114 0.711135 2.335087 0.011734 -0.015656 364695.000000 0 0 1
-19.515733 -14.957931 -23.577370 34.066052 0.653949 2.335201 0.022053 -0.021317 296615.000000 0 0 1
-20.235033 -14.876531 -22.183870 33.509578 0.633953 2.294301 0.030093 -0.033066 164811.000000 0 0 1
-19.309233 -14.687131 -21.131370 32.172863 0.650268 2.287373 0.027407 -0.021834 -16888.000000 0 0 1
-19.860733 -14.904031 -19.864570 31.799057 0.643774 2.245532 0.050892 -0.027239 -456848.000000 0 0 1
-20.282933 -13.601931 -19.168170 31.045590 0.590727 2.236255 0.075307 -0.031534 -595223.000000 0 0 1
-21.547233 -13.196531 -19.579670 31.965531 0.549521 2.230047 0.074687 -0.036666 -304096.000000 0 0 1
-22.080933 -12.195331 -18.691670 31.395417 0.504608 2.208514 0.087706 -0.038392 1147310.000000 0 0 1
-23.567333 -11.746131 -18.984670 32.462416 0.462373 2.195454 0.100775 -0.034515 1021160.000000 0 0 1
-23.947933 -10.981931 -20.127070 33.154265 0.429962 2.223169 0.092008 -0.038842 46479.300000 0 0 1
-25.358343 -10.898631 -20.164870 34.182564 0.405916 2.201752 0.100159 -0.037285 -33961.300000 0 0 1
-25.903323 -10.042731 -21.289470 35.001145 0.369859 2.224651 0.099782 -0.027421 -195299.000000 0 0 1
-25.841863 -10.597831 -22.574070 35.912457 0.389186 2.250530 0.080037 -0.029279 227591.000000 0 0 1
-26.652753 -9.825031 -23.429970 36.822058 0.353175 2.260492 0.072162 -0.016227 -248267.000000 0 0 1
-26.742543 -10.342131 -24.885770 37.966101 0.369014 2.285606 0.059443 -0.014349 393681.000000 0 0 1
-25.743723 -10.028231 -25.865430 37.846072 0.371457 2.323258 0.046426 -0.012214 501380.000000 0 0 1
-24.631033 -10.923531 -25.877140 37.358235 0.417424 2.335989 0.038947 -0.011093 382878.000000 0 0 1
-23.699233 -10.920731 -27.111050 37.628780 0.431803 2.375301 0.037793 -0.015768 176548.000000 0 0 1
-24.398633 -11.163131 -28.304940 39.001005 0.429099 2.382919 0.033259 -0.008736 -426494.000000 0 0 1
-23.510333 -11.336431 -29.335370 39.265944 0.449298 2.414477 0.021669 -0.009271 -183884.000000 0 0 1
-24.273533 -11.593331 -30.630970 40.765992 0.445577 2.420955 0.015894 -0.009979 212371.000000 0 0 1
-25.013433 -10.600931 -31.328540 41.467204 0.400862 2.427216 0.019327 -0.003389 -181824.000000 0 0 1
-24.250233 -9.609231 -31.924470 41.225998 0.377272 2.456526 0.012520 -0.010724 -872917.000000 0 0 1
-25.139483 -8.547131 -32.576790 42.027304 0.327728 2.457723 0.024377 -0.006509 -1064630.000000 0 0 1
-25.974973 -8.958131 -33.612910 43.413996 0.332102 2.456312 0.031140 -0.005973 1131240.000000 0 0 1
-27.209273 -9.632331 -33.265760 44.042447 0.340242 2.426925 0.030046 -0.008359 866761.000000 0 0 1
-28.216293 -8.901131 -32.289940 43.795314 0.305580 2.399850 0.013565 0.004545 -1119040.000000 0 0 1
-29.472873 -9.498331 -32.225350 44.691629 0.311764 2.376127 0.019280 0.000241 -471799.000000 0 0 1
-30.264263 -8.863131 -31.234750 44.385700 0.284892 2.351405 0.028761 0.005246 268749.000000 0 0 1
-31.724413 -9.385331 -31.287510 45.534944 0.287635 2.328300 0.038335 -0.003284 113025.000000 0 0 1
-31.846533 -10.744331 -30.895050 45.652453 0.325387 2.314128 0.029397 -0.006419 557007.000000 0 0 1
-33.205363 -11.132931 -31.104050 46.840156 0.323497 2.297014 0.030777 -0.006981 404748.000000 0 0 1
-33.443513 -12.651131 -30.913890 47.267201 0.361646 2.283688 0.030294 -0.011160 350047.000000 0 0 1
-34.803752 -13.029631 -31.137940 48.483438 0.358222 2.268212 0.019451 -0.015084 554970.000000 0 0 1
-34.743390 -14.370631 -31.402300 48.986964 0.392194 2.266641 0.018630 -0.015592 -36688.100000 0 0 1
-35.955758 -15.171731 -30.927900 49.794909 0.399289 2.240949 0.017793 -0.022891 -248171.000000 0 0 1
-36.053233 -15.008231 -29.456610 48.915994 0.394461 2.217035 0.029525 -0.024768 -117411.000000 0 0 1
36.381353 -16.103031 -28.868800 49.156058 -0.416698 2.198501 0.019332 -0.024408 -221175.000000 0 0 1
36.499143 -15.946331 -27.344150 48.313305 -0.411903 2.172412 0.040507 -0.014848 301053.000000 0 0 1
-35.243743 -15.880231 -26.838240 47.059476 0.423339 2.177673 0.036396 -0.029618 337301.000000 0 0 1
-35.224226 -15.983831 -25.440050 46.297139 0.425988 2.152556 0.059701 -0.022712 883197.000000 0 0 1
-33.767633 -15.665231 -24.953070 44.814152 0.434363 2.161339 0.071583 -0.026866 1402940.000000 0 0 1
-32.659363 -16.555431 -25.168970 44.431896 0.469162 2.173002 0.073348 -0.029738 858247.000000 0 0 1
-31.536113 -16.078531 -24.419470 43.004141 0.471493 2.174676 0.084084 -0.016173 161340.000000 0 0 1
-30.298873 -16.975631 -24.578070 42.547330 0.510696 2.186661 0.071674 -0.019695 -236012.000000 0 0 1
-30.323023 -18.205631 -23.939970 42.708932 0.540706 2.165831 0.076637 -0.024275 162923.000000 0 0 1
-30.979203 -19.199831 -24.741370 44.050879 0.554826 2.167180 0.069318 -0.030654 54568.200000 0 0 1
-30.830513 -20.625731 -24.152270 44.263681 0.589619 2.147955 0.064659 -0.041832 1272310.000000 0 0 1
-29.470603 -21.143931 -24.169170 43.585904 0.622347 2.158580 0.067320 -0.028348 1283440.000000 0 0 1
-29.335353 -22.392731 -23.449170 43.724832 0.651982 2.136831 0.062225 -0.024546 -419132.000000 0 0 1
-27.897203 -22.980531 -23.512670 43.118492 0.689060 2.147548 0.052743 -0.023534 154608.000000 0 0 1
-26.877253 -22.232731 -22.906970 41.730209 0.691105 2.151880 0.047362 -0.030463 -328207.000000 0 0 1
-26.909473 -22.007431 -21.499470 40.873879 0.685520 2.124681 0.050968 -0.038175 -714643.000000 0 0 1
-26.818253 -23.273531 -20.552970 41.028045 0.714751 2.095492 0.042782 -0.030361 -17361.700000 0 0 1
-26.676273 -22.888431 -19.222270 40.062445 0.709124 2.071232 0.037783 -0.025360 -20489.700000 0 0 1
-26.660773 -24.039831 -18.422770 40.349830 0.733750 2.044939 0.025965 0.002312 -74357.000000 0 0 1
-26.582313 -23.499931 -16.991870 39.339417 0.723929 2.017428 0.020750 0.007104 1346450.000000 0 0 1
-27.893923 -22.986131 -16.614670 39.780402 0.689238 2.001664 0.027668 -0.003308 1164100.000000 0 0 1
-27.762283 -21.961531 -15.646270 38.702183 0.669264 1.986981 0.037714 -0.009479 227665.000000 0 0 1
-29.079843 -21.417831 -15.014070 39.112441 0.634817 1.964779 0.052667 -0.005728 435901.000000 0 0 1
-29.941063 -20.864931 -16.015070 39.853420 0.608620 1.984332 0.057415 -0.006445 -184349.000000 0 0 1
-30.964853 -20.160131 -15.376170 40.020990 0.577124 1.965140 0.063310 -0.008410 -85343.700000 0 0 1
-31.929003 -19.414531 -16.371970 40.797385 0.546320 1.983731 0.076903 -0.025034 34599.700000 0 0 1
-32.653263 -20.312131 -17.149570 42.106128 0.556479 1.990285 0.066296 -0.017628 -347515.000000 0 0 1
-33.470703 -19.698031 -18.094270 42.845105 0.531932 2.006798 0.057636 -0.016956 -36439.900000 0 0 1
-34.338292 -20.555131 -19.063270 44.328771 0.539394 2.015337 0.054512 -0.007612 154611.000000 0 0 1
-35.467980 -21.178031 -18.531370 45.275802 0.538286 1.992483 0.053111 -0.002875 -191269.000000 0 0 1
-35.147104 -22.289531 -17.735470 45.240347 0.565172 1.973631 0.059496 -0.007014 -222047.000000 0 0 1
-36.181383 -23.447031 -17.887170 46.677688 0.574997 1.964061 0.060796 -0.001281 246975.000000 0 0 1
35.642913 -23.138531 -17.286570 45.876294 -0.575796 1.957145 0.061967 -0.001163 298502.000000 0 0 1
35.006733 -24.366431 -16.825970 45.850928 -0.608070 1.946547 0.059361 0.003403 660087.000000 0 0 1
33.582063 -24.133831 -16.238170 44.428312 -0.623135 1.944957 0.049963 0.002087 143961.000000 0 0 1
32.531693 -24.061831 -17.146570 43.946417 -0.636839 1.971612 0.040147 0.005812 -546347.000000 0 0 1
31.316283 -24.289631 -16.498170 42.928841 -0.659699 1.965261 0.041979 0.000526 -282499.000000 0 0 1
30.026203 -24.476431 -17.309770 42.429903 -0.683922 1.991017 0.047703 -0.017869 -62348.300000 0 0 1
29.622993 -23.226031 -17.760170 41.622036 -0.664942 2.011638 0.031509 -0.005262 245047.000000 0 0 1
28.359873 -23.389131 -18.399370 41.108036 -0.689637 2.034860 0.052327 -0.007595 -192688.000000 0 0 1
34.485183 29.401169 -17.955270 48.744726 0.705986 1.948033 0.026393 -0.007584 -199079.000000 0 0 1
33.699503 29.250369 -19.141570 48.555538 0.714838 1.976015 0.007081 -0.014055 -23436.600000 0 0 1
34.241553 28.336569 -20.115170 48.785912 0.691315 1.995790 0.003167 -0.013920 -188558.000000 0 0 1
33.574553 28.370369 -21.467270 48.918015 0.701582 2.025106 0.018992 -0.024159 -759651.000000 0 0 1
32.324203 27.702869 -21.426070 47.658992 0.708562 2.037081 0.015820 -0.007954 83656.300000 0 0 1
31.563373 27.937569 -22.590770 47.823605 0.724537 2.062782 0.033836 -0.008460 -66341.300000 0 0 1
30.744783 29.260369 -22.568970 48.070462 0.760665 2.059518 0.044310 -0.011919 -702107.000000 0 0 1
31.509813 30.450069 -22.505970 49.260468 0.768296 2.045277 0.037946 -0.009748 -37154.200000 0 0 1
30.584793 31.495769 -22.729770 49.437390 0.800071 2.048531 0.049929 -0.006409 -69703.300000 0 0 1
31.041143 32.950569 -22.459670 50.534437 0.815228 2.031349 0.051482 0.000726 -153109.000000 0 0 1
31.435763 33.225769 -21.138770 50.388556 0.813074 2.003708 0.061128 -0.004804 -991601.000000 0 0 1
32.791463 33.190569 -20.904770 51.126347 0.791447 1.992028 0.057628 -0.002067 -1257470.000000 0 0 1
33.083923 32.847469 -19.421070 50.504259 0.781812 1.965509 0.041986 -0.005521 -408104.000000 0 0 1
32.772263 33.893769 -18.587970 50.678609 0.802219 1.946343 0.049845 -0.007897 136677.000000 0 0 1
33.274223 33.796969 -17.266570 50.473196 0.793192 1.919941 0.029403 -0.020723 -181561.000000 0 0 1
33.079783 -33.008024 -16.534870 49.570189 -0.784312 1.910879 0.032890 -0.019402 77127.900000 0 0 1
34.081973 -32.028124 -16.693870 49.659510 -0.754341 1.913640 0.045931 -0.002791 -495072.000000 0 0 1
35.157963 -32.128724 -15.800070 50.179473 -0.740409 1.891117 0.046238 -0.004471 -247307.000000 0 0 1
36.319143 -31.227124 -16.267670 50.585082 -0.710155 1.898205 0.040846 0.005434 -191168.000000 0 0 1
-35.923910 -31.786224 -17.257070 50.977425 0.724365 1.916144 0.029440 0.004085 -130358.000000 0 0 1
-34.856424 -30.933224 -17.653170 49.834416 0.725836 1.932894 0.025099 0.008170 286060.000000 0 0 1
-33.963213 -31.527524 -18.756470 49.992897 0.748224 1.955390 0.023026 -0.003187 -84962.100000 0 0 1
-33.166313 -32.622324 -18.293470 49.988713 0.777130 1.945452 0.018611 -0.001591 695548.000000 0 0 1
-32.210333 -33.252324 -19.158170 50.102476 0.801314 1.963167 0.018593 -0.002879 1070410.000000 0 0 1
-30.877823 -32.457424 -19.334170 48.792771 0.810333 1.978226 0.011240 -0.004768 -533360.000000 0 0 1
-30.978083 -31.572724 -20.483570 48.744796 0.794904 2.004485 0.015031 -0.004546 1292580.000000 0 0 1
-29.730213 -31.133924 -21.114370 47.948133 0.808457 2.026794 0.018672 -0.004011 1456830.000000 0 0 1
-28.874843 -32.264124 -21.770670 48.463309 0.840777 2.036688 0.018563 0.006627 -147784.000000 0 0 1
-29.613883 -32.929824 -22.756070 49.791506 0.838367 2.045446 0.010867 0.013910 -78027.800000 0 0 1
-28.875183 -34.030024 -23.272270 50.333064 0.867162 2.051457 0.009040 0.003165 116323.000000 0 0 1
-29.532483 33.341169 -24.441070 50.805187 -0.845901 2.072676 0.007984 -0.008102 -65301.200000 0 0 1
-30.635843 32.531969 -24.067670 50.755656 -0.815406 2.064837 0.003401 -0.015932 220447.000000 0 0 1
-31.212943 31.700669 -25.106290 51.083325 -0.793150 2.084581 0.000092 -0.013738 823775.000000 0 0 1
-32.113703 32.428169 -26.203490 52.626030 -0.790270 2.091994 0.015296 -0.025802 -41902.400000 0 0 1
-31.462433 33.186169 -27.200370 53.207769 -0.812055 2.107389 0.012561 -0.022781 -492561.000000 0 0 1
-32.426413 33.903969 -27.936790 54.602341 -0.807670 2.107890 0.013786 -0.029578 -4825.500000 0 0 1
-31.856883 -33.283324 -28.959550 54.417793 0.807293 2.131959 0.017480 -0.024485 -121993.000000 0 0 1
-31.465893 -33.909024 -30.188170 55.238121 0.822752 2.148987 0.018649 -0.019905 450683.000000 0 0 1
-32.596693 34.045869 -31.048160 56.441597 -0.807140 2.153273 0.039674 -0.020536 451242.000000 0 0 1
-32.323483 33.207969 -32.303100 56.489531 -0.798894 2.179546 0.056387 -0.021799 -265708.000000 0 0 1
-31.505453 33.762869 -33.303790 56.935642 -0.819971 2.195599 0.041580 -0.028742 -152038.000000 0 0 1
-31.564143 32.925269 33.864637 56.808293 -0.806501 0.932135 0.045913 -0.044006 -568209.000000 0 0 1
-30.774973 33.395069 32.627432 55.918503 -0.826206 0.947787 0.051560 -0.040029 1543020.000000 0 0 1
-29.361753 33.045569 32.533530 54.886727 -0.844358 0.936340 0.056380 -0.037066 1275440.000000 0 0 1
-29.076093 31.670669 32.486445 53.887101 -0.828084 0.923714 0.056704 -0.041410 -728633.000000 0 0 1
-27.669183 31.194669 32.871835 53.096597 -0.845219 0.903207 0.056466 -0.038153 -522089.000000 0 0 1
-27.262803 31.185669 -34.029220 53.607781 -0.852414 2.258522 0.068785 -0.048620 156031.000000 0 0 1
-25.909973 30.812069 -33.853980 52.600402 -0.871607 2.269998 0.064770 -0.043950 -71829.300000 0 0 1
-25.497993 29.306469 -34.065590 51.667023 -0.854779 2.290723 0.091985 -0.041067 -466385.000000 0 0 1
-25.835883 28.447169 -33.008810 50.658818 -0.833466 2.280476 0.088076 -0.038775 89078.500000 0 0 1
-25.649613 27.138869 -33.348130 50.065144 -0.813602 2.299757 0.086046 -0.028808 -682176.000000 0 0 1
-25.355933 26.243969 -32.176850 48.652019 -0.802607 2.293436 0.105022 -0.033483 -299198.000000 0 0 1
-24.184433 26.408769 -31.400340 47.626582 -0.829335 2.290687 0.090045 -0.028523 -239299.000000 0 0 1
-24.082133 27.553169 -30.562960 47.678305 -0.852519 2.266629 0.065113 -0.029112 472405.000000 0 0 1
-22.708233 27.762569 -29.841380 46.657605 -0.885209 2.264751 0.097255 -0.025962 912440.000000 0 0 1
-21.567033 28.089369 -30.658240 46.840979 -0.916000 2.284341 0.098255 -0.022854 1760990.000000 0 0 1
-20.285933 28.016869 -29.968400 45.766462 -0.944104 2.284729 0.056008 -0.013904 1265510.000000 0 0 1
-19.958333 29.150769 -29.022210 45.720795 -0.970441 2.258508 0.032912 -0.013215 -830320.000000 0 0 1
-19.757633 30.340369 -29.694880 46.826146 -0.993578 2.257707 0.029468 -0.004626 32186.800000 0 0 1
-19.504333 31.437469 -28.811150 46.891533 -1.015500 2.232448 0.040942 -0.008403 3707.840000 0 0 1
-19.129833 32.711069 -29.634960 48.106085 -1.041619 2.234494 0.032925 0.000013 66229.100000 0 0 1
-17.853833 32.621169 -30.227230 47.922703 -1.070022 2.253315 0.026748 0.004134 -283009.000000 0 0 1
-17.717333 33.828069 -31.050020 49.217334 -1.088332 2.253478 0.031423 0.003854 111172.000000 0 0 1
-16.244533 34.012469 -31.482820 49.111108 -1.125225 2.266666 0.019671 0.012388 -111956.000000 0 0 1
-15.438233 -33.831224 -30.371000 48.013419 1.142690 2.255641 0.041960 0.002372 1505600.000000 0 0 1
-13.992633 -33.808624 -30.620590 47.712026 1.178384 2.267612 0.064656 0.007472 2323880.000000 0 0 1
-13.318433 32.951969 -30.609060 46.905517 -1.186694 2.281765 0.054666 0.006311 -462124.000000 0 0 1
-13.368433 32.320169 -29.365540 45.668844 -1.178600 2.269219 0.062446 -0.003425 -165284.000000 0 0 1
-12.981333 30.970869 -29.476270 44.682886 -1.173894 2.291185 0.048723 -0.001316 -318434.000000 0 0 1
-12.722733 30.346769 -28.123190 43.286351 -1.173810 2.277988 0.046953 -0.018061 433755.000000 0 0 1
-11.460633 30.717469 -27.569640 42.836831 -1.213694 2.269985 0.045057 -0.017598 226172.000000 0 0 1
-11.371733 30.488369 -26.185880 41.767898 -1.213793 2.248413 0.040785 -0.027999 301538.000000 0 0 1
-10.082833 31.035769 -25.511210 41.421062 -1.256675 2.234324 0.045405 -0.030857 965251.000000 0 0 1
-8.908933 30.323669 -25.885250 40.852664 -1.285042 2.257026 0.042696 -0.020494 -372068.000000 0 0 1
-7.725033 30.669869 -25.244800 40.467480 -1.324052 2.244429 0.055110 -0.023467 -144216.000000 0 0 1
-6.490133 29.985869 -25.850380 40.118778 -1.357644 2.270964 0.037231 -0.021022 -263469.000000 0 0 1
-6.326233 28.638569 -25.410370 38.805616 -1.353389 2.284730 0.036755 -0.030556 -1079350.000000 0 0 1
-5.089833 28.126169 -25.709980 38.444647 -1.391769 2.303327 0.041987 -0.034570 -856018.000000 0 0 1
-4.695733 26.998969 -24.743770 36.922194 -1.398596 2.305220 0.053106 -0.030620 395915.000000 0 0 1
-5.615833 25.899569 -24.946270 36.395627 -1.357271 2.325976 0.051028 -0.028228 543944.000000 0 0 1
-5.198933 24.709669 -24.237670 35.000876 -1.363420 2.335728 0.060432 -0.037560 -323817.000000 0 0 1
-6.028633 23.402369 -24.230070 34.221508 -1.318670 2.357510 0.058640 -0.034356 -230753.000000 0 0 1
-6.315133 22.879569 -25.503010 34.839046 -1.301486 2.392084 0.051706 -0.029918 371738.000000 0 0 1
-6.997633 21.639569 -25.300440 34.019849 -1.258038 2.409379 0.060915 -0.037103 -79617.900000 0 0 1
-6.667033 20.739469 -26.528230 34.326694 -1.259764 2.454063 0.064141 -0.033557 -290469.000000 0 0 1
-5.398433 20.166369 -26.630440 33.837936 -1.309234 2.476727 0.069488 -0.037821 -818147.000000 0 0 1
-5.325833 18.958369 -25.953140 32.578363 -1.296932 2.492508 0.070375 -0.040954 -563375.000000 0 0 1
-4.063133 18.109769 -26.018630 31.960005 -1.350090 2.521974 0.064037 -0.046481 -529786.000000 0 0 1
-3.858333 17.561869 -27.347190 32.728807 -1.354533 2.559965 0.061652 -0.045809 207471.000000 0 0 1
-2.665933 16.799169 -27.274160 32.143415 -1.413414 2.583968 0.061566 -0.041323 -489505.000000 0 0 1
-2.334033 16.235169 -28.632760 32.997930 -1.428011 2.621381 0.065930 -0.034962 -323722.000000 0 0 1
-1.886633 17.252969 -29.504000 34.230255 -1.461878 2.609855 0.059733 -0.040934 22000.900000 0 0 1
-1.540633 16.798969 -30.779580 35.099309 -1.479342 2.640230 0.052181 -0.046732 -318956.000000 0 0 1
-0.796633 17.906469 -31.519980 36.259970 -1.526337 2.624535 0.056109 -0.014310 -204107.000000 0 0 1
0.379367 18.201669 -30.788460 35.768338 1.549957 2.607585 0.056256 -0.021839 50004.300000 0 0 1
1.190267 19.188869 -31.453370 36.863857 1.508847 2.592945 0.049103 0.002300 285716.000000 0 0 1
0.905967 20.663269 -31.043280 37.302503 1.526980 2.553867 0.058593 -0.010677 104143.000000 0 0 1
1.483367 21.030569 -29.796760 36.501125 1.500379 2.525815 0.078754 -0.038211 -370537.000000 0 0 1
0.802367 22.095969 -29.253360 36.669262 1.534499 2.494372 0.083561 -0.039824 -478028.000000 0 0 1
1.387467 22.668769 -27.973710 36.032300 1.509666 2.459652 0.088148 -0.043640 212168.000000 0 0 1
2.537567 23.485769 -28.022560 36.650846 1.463167 2.441188 0.092677 -0.048039 -755581.000000 0 0 1
3.701967 22.817369 -27.628400 36.023123 1.409954 2.444891 0.105650 -0.047287 -443481.000000 0 0 1
4.821067 23.830269 -27.365990 36.606309 1.371182 2.415201 0.108391 -0.050497 -206268.000000 0 0 1
5.398167 24.394169 -28.545660 37.935082 1.353017 2.422627 0.097920 -0.052687 60971.100000 0 0 1
5.848267 25.729469 -28.249730 38.655596 1.347295 2.390298 0.104908 -0.059448 -107965.000000 0 0 1
6.670867 26.423869 -29.342150 40.046013 1.323507 2.393093 0.105187 -0.048186 221733.000000 0 0 1
8.039867 26.041269 -29.387520 40.080089 1.271345 2.393842 0.099104 -0.047278 58534.700000 0 0 1
8.749967 27.052169 -30.060990 41.376865 1.257969 2.384036 0.100709 -0.042973 366219.000000 0 0 1
10.290267 26.935769 -29.869720 41.516568 1.205877 2.373828 0.089852 -0.044117 600016.000000 0 0 1
11.080567 27.898469 -30.534880 42.819183 1.192728 2.364724 0.090274 -0.041053 -880800.000000 0 0 1
12.411067 27.852969 -30.192700 42.911789 1.151614 2.351246 0.081514 -0.048964 -716537.000000 0 0 1
13.399367 28.765769 -30.933050 44.315529 1.134873 2.343423 0.088003 -0.051432 -68815.300000 0 0 1
13.081867 30.109569 -30.675870 44.930284 1.160927 2.322308 0.093429 -0.046152 449921.000000 0 0 1
14.009267 30.968369 -31.339840 46.232943 1.145970 2.315655 0.136881 -0.053625 289151.000000 0 0 1
13.522767 32.454369 -31.343620 47.101739 1.176002 2.298886 0.137096 -0.058611 360297.000000 0 0 1
12.351267 32.641469 -32.127380 47.436145 1.209055 2.314851 0.111747 -0.058303 395904.000000 0 0 1
11.631867 33.781769 -31.655370 47.734377 1.239187 2.295825 0.095838 -0.045619 417196.000000 0 0 1
10.393767 34.079769 -32.566310 48.270339 1.274774 2.311307 0.064838 -0.035765 363617.000000 0 0 1
10.616267 -33.264524 -33.699480 48.527195 -1.261868 2.338445 0.060442 -0.016362 625305.000000 0 0 1
9.354867 -33.051024 33.925885 48.278871 -1.294968 0.791602 0.077026 -0.019294 729233.000000 0 0 1
9.595967 -32.500224 32.509603 46.959786 -1.283695 0.806144 0.069071 -0.018947 -31590.500000 0 0 1
9.241167 -31.158524 32.361874 45.864406 -1.282475 0.787528 0.061636 -0.023224 17458.100000 0 0 1
9.396367 -30.854024 31.001322 44.736389 -1.275177 0.805185 0.081647 -0.020625 -716739.000000 0 0 1
8.808867 -29.434024 30.681382 43.420101 -1.280005 0.786091 0.069626 -0.036499 362059.000000 0 0 1
7.401667 -29.293324 30.606222 43.007259 -1.323302 0.778949 0.038871 -0.013175 201414.000000 0 0 1
6.816267 -29.291124 31.905882 43.845373 -1.342158 0.755847 0.032213 -0.001522 815472.000000 0 0 1
5.240167 -29.043724 31.850482 43.421774 -1.392293 0.747318 0.033800 -0.011551 1633830.000000 0 0 1
4.345967 -30.002124 31.276822 43.557485 -1.426942 0.769788 0.059112 -0.020030 278685.000000 0 0 1
4.330567 -30.218224 29.883372 42.718975 -1.428456 0.796051 0.074521 -0.027156 -571594.000000 0 0 1
3.951867 -29.050224 28.943592 41.197868 -1.435591 0.791821 0.038568 -0.028013 598851.000000 0 0 1
2.546267 -28.755824 29.015472 40.930166 -1.482479 0.782856 0.068203 -0.029803 963543.000000 0 0 1
2.086167 -28.289524 27.759702 39.689423 -1.497186 0.796206 0.073724 -0.043597 -362437.000000 0 0 1
0.759267 -28.897624 27.295642 39.758034 -1.544528 0.814071 0.070138 -0.038338 -378920.000000 0 0 1
0.796067 -30.246924 26.863012 40.461483 -1.544483 0.844753 0.077631 -0.039508 3435.300000 0 0 1
0.666167 -31.189924 27.890162 41.846341 -1.549441 0.841306 0.103435 -0.046565 -501358.000000 0 0 1
1.101767 -32.668624 27.496622 42.714367 -1.537084 0.871431 0.100092 -0.038995 -359124.000000 0 0 1
2.457967 -32.942324 27.321482 42.868423 -1.496320 0.879763 0.089901 -0.035472 -383756.000000 0 0 1
2.959167 -32.464224 26.057762 41.733554 -1.479896 0.896454 0.087942 -0.046353 -993606.000000 0 0 1
4.463167 -32.635724 25.981472 41.952917 -1.434882 0.902945 0.099928 -0.034216 -571564.000000 0 0 1
5.113667 -32.265524 24.762212 40.992448 -1.413617 0.922201 0.082393 -0.045848 -48987.600000 0 0 1
6.491867 -32.165124 25.019692 41.264083 -1.371642 0.919358 0.074081 -0.045003 -179306.000000 0 0 1
7.410167 -32.011524 23.752922 40.544415 -1.343319 0.944869 0.061753 -0.039011 -322747.000000 0 0 1
8.629767 -31.424524 24.056662 40.505513 -1.302784 0.934885 0.064263 -0.031869 -502640.000000 0 0 1
9.405367 -31.303424 22.877332 39.896587 -1.278919 0.960127 0.045003 -0.021995 311369.000000 0 0 1
10.628567 -30.356624 22.949232 39.511496 -1.234012 0.951056 0.035520 -0.017334 -43514.000000 0 0 1
11.760267 -30.823724 23.638342 40.585429 -1.206310 0.949076 0.051702 -0.029423 -469601.000000 0 0 1
12.743867 -29.828824 23.523832 40.069135 -1.167036 0.943348 0.054776 -0.026243 26539.800000 0 0 1
13.947067 -30.079024 24.471692 41.208398 -1.136624 0.934958 0.078108 -0.029945 111798.000000 0 0 1
13.653967 -29.761124 25.814352 41.695756 -1.140661 0.903185 0.071345 -0.030377 -523714.000000 0 0 1
14.877667 -29.669024 26.452602 42.442150 -1.105986 0.897889 0.083899 -0.035320 -736995.000000 0 0 1
-11.153033 -13.757331 25.658132 31.176819 0.889566 0.604146 0.063881 -0.028854 -1608660.000000 0 0 1
-9.814933 -13.640831 25.384512 30.443039 0.947085 0.584775 0.049990 -0.023373 -1476370.000000 0 0 1
-9.104233 -14.075531 26.505072 31.361226 0.996665 0.563943 0.056379 -0.025857 268137.000000 0 0 1
-7.551533 -13.994131 26.402662 30.821452 1.075956 0.542089 0.081763 -0.024924 570533.000000 0 0 1
-6.863233 -15.014031 25.691992 30.538559 1.142036 0.571119 0.076332 -0.030600 229019.000000 0 0 1
-6.835333 -14.770431 24.278582 29.229043 1.137373 0.590554 0.070174 -0.029426 -391999.000000 0 0 1
-6.235733 -15.953331 23.388782 28.990141 1.198182 0.632108 0.064976 -0.031626 92926.600000 0 0 1
-6.966633 -17.129731 23.153232 29.631636 1.184529 0.673940 0.072018 -0.031020 -376784.000000 0 0 1
-7.378533 -17.887231 24.284842 31.050754 1.179558 0.672765 0.081212 -0.029343 -49433.700000 0 0 1
-7.845433 -19.328231 24.004782 31.801901 1.185209 0.715413 0.070828 -0.032534 516431.000000 0 0 1
-9.166533 -19.420731 23.465082 31.808807 1.129801 0.741152 0.065356 -0.031258 237914.000000 0 0 1
-9.461133 -20.762331 23.174132 32.521190 1.143223 0.777620 0.070844 -0.028094 1986120.000000 0 0 1
-11.069633 -20.842931 23.238762 33.121060 1.082581 0.793112 0.073746 -0.026821 1943830.000000 0 0 1
-11.631133 -20.744831 24.507922 34.150688 1.059793 0.770388 0.080774 -0.023915 -297456.000000 0 0 1
-13.030233 -20.717231 24.581422 34.687706 1.009357 0.783214 0.088234 -0.020572 -251274.000000 0 0 1
-13.692633 -20.618031 25.931052 35.847048 0.984566 0.762111 0.087596 -0.026878 -512338.000000 0 0 1
-13.477033 -21.725431 26.816672 37.050758 1.015559 0.761529 0.087395 -0.021199 93352.100000 0 0 1
-12.442433 -21.554131 27.758042 37.281411 1.047262 0.730929 0.086888 -0.019777 99353.400000 0 0 1
-12.013533 -22.823431 28.503062 38.440324 1.086277 0.735510 0.087216 -0.009291 209614.000000 0 0 1
-12.989133 -23.245431 29.430302 39.688919 1.061236 0.735457 0.089172 -0.012256 16379.400000 0 0 1
-12.551533 -24.491231 29.990132 40.703432 1.097206 0.742477 0.090955 -0.005186 16331.700000 0 0 1
-13.609933 -25.253891 30.796882 42.088445 1.076496 0.749957 0.085549 -0.018180 -55638.500000 0 0 1
-13.766333 -24.560131 32.028942 42.644637 1.059916 0.721121 0.085826 -0.011488 -277698.000000 0 0 1
-14.658133 -25.195841 32.907435 43.961239 1.043891 0.724915 0.078907 -0.018963 -231736.000000 0 0 1
-14.470133 -24.676331 -33.951860 44.396338 1.040439 2.441441 0.070922 -0.017491 -27095.800000 0 0 1
-14.601733 -23.326131 -33.692990 43.503294 1.011491 2.456709 0.068033 -0.016358 61052.100000 0 0 1
-15.887033 -22.766131 -33.915240 43.828507 0.961524 2.455641 0.065613 -0.015801 -339887.000000 0 0 1
-16.032233 -21.270931 -33.722450 42.973115 0.924921 2.473063 0.050347 -0.010962 -43776.000000 0 0 1
-15.980933 -20.816831 -32.402700 41.697310 0.916068 2.460831 0.045379 -0.013944 133506.000000 0 0 1
-16.322033 -19.456731 -32.319460 41.103779 0.872788 2.475576 0.036240 -0.020682 -232992.000000 0 0 1
-16.468333 -18.920831 -30.870520 39.776788 0.854588 2.459244 0.030378 -0.013396 360237.000000 0 0 1
-17.657433 -19.356631 -30.200270 39.981501 0.831273 2.426994 0.036997 -0.013718 357259.000000 0 0 1
-17.685833 -19.287931 -28.766860 38.888883 0.828702 2.403450 0.025934 -0.014688 106477.000000 0 0 1
-16.815733 -20.263631 -27.902830 38.366021 0.878119 2.385147 0.016660 -0.010992 198298.000000 0 0 1
-15.432733 -20.005731 -27.921070 37.656137 0.913730 2.406062 0.006905 -0.012840 -136435.000000 0 0 1
-14.683533 -20.953731 -27.212150 37.351922 0.959561 2.386976 -0.003689 -0.005498 357035.000000 0 0 1
-13.181133 -21.112331 -27.568720 37.141717 1.012677 2.407229 0.018687 -0.011732 -190401.000000 0 0 1
-12.446233 -20.021431 -27.042850 35.875927 1.014613 2.424604 0.013812 -0.017131 -213938.000000 0 0 1
-11.050333 -20.162931 -27.096440 35.536892 1.069450 2.437946 0.008685 -0.025426 141486.000000 0 0 1
-10.366933 -21.111531 -26.078970 35.118125 1.114330 2.407751 0.031612 -0.012377 -663746.000000 0 0 1
-10.624233 -22.467531 -26.394580 36.253802 1.129087 2.386269 0.028070 -0.015009 -53269.300000 0 0 1
-10.085733 -23.303431 -25.432880 35.938883 1.162337 2.356992 0.062719 -0.012051 -182131.000000 0 0 1
-10.185133 -24.802131 -25.797170 37.207212 1.181138 2.336907 0.057892 -0.011686 -120363.000000 0 0 1
-9.153033 -25.292731 -26.651120 37.865320 1.223574 2.351585 0.066131 -0.018253 190302.000000 0 0 1
-9.496833 -26.486671 -27.410120 39.281653 1.226524 2.343096 0.062519 -0.018134 -34862.900000 0 0 1
-9.164433 -27.807791 -26.640390 39.584978 1.252442 2.309043 0.086362 -0.019976 -22214.300000 0 0 1
-10.071433 -28.068881 -25.571980 39.283864 1.226293 2.279637 0.070209 -0.025516 49607.700000 0 0 1
-9.839933 -29.257971 -24.802370 39.598115 1.246363 2.247661 0.098545 -0.023854 -164186.000000 0 0 1
-10.759933 -29.403791 -23.556170 39.182295 1.219995 2.215791 0.094953 -0.028428 97183.600000 0 0 1
-10.753533 -28.297581 -22.610170 37.783745 1.207635 2.212311 0.079868 -0.034467 -175856.000000 0 0 1
-11.699833 -27.327891 -22.962370 37.562883 1.166279 2.228505 0.056619 -0.024503 -385252.000000 0 0 1
-11.576633 -26.164481 -21.987170 36.083710 1.154234 2.226022 0.067628 -0.025324 -27331.300000 0 0 1
-12.074133 -26.472961 -20.684170 35.699261 1.142887 2.188789 0.058262 -0.025182 190447.000000 0 0 1
-12.451833 -25.325201 -19.987670 34.582089 1.113829 2.187044 0.043553 -0.017324 -524164.000000 0 0 1
-12.877233 -25.613841 -18.571770 34.158493 1.104955 2.145629 0.061370 -0.022376 -122775.000000 0 0 1
-14.138833 -26.252361 -18.520470 35.101294 1.076768 2.126604 0.076592 -0.022899 102290.000000 0 0 1
-14.500033 -26.570161 -17.159370 34.794660 1.071240 2.086516 0.063977 -0.016896 767424.000000 0 0 1
-16.051233 -26.445951 -16.996770 35.297600 1.025286 2.073193 0.066147 -0.025397 47368.900000 0 0 1
-16.783633 -25.211881 -16.932270 34.699151 0.983461 2.080563 0.046853 -0.013414 924335.000000 0 0 1
-18.135233 -25.378241 -16.478270 35.277120 0.950340 2.056815 0.061780 -0.012682 1495270.000000 0 0 1
-19.199933 -26.101591 -17.426770 36.791613 0.936585 2.064240 0.057120 -0.009363 -308389.000000 0 0 1
-18.958533 -27.474591 -17.720170 37.792639 0.966787 2.058817 0.072012 -0.020986 -32702.500000 0 0 1
-19.229133 -28.454791 -16.723170 38.198156 0.976512 2.023947 0.074907 -0.023878 385338.000000 0 0 1
-20.693233 -29.022301 -16.660470 39.345586 0.951391 2.008035 0.073665 -0.012426 781158.000000 0 0 1
-21.091533 -29.841551 -17.750970 40.625951 0.955532 2.022987 0.065315 -0.006759 214577.000000 0 0 1
-22.501533 -30.015701 -17.681170 41.471497 0.927514 2.011245 0.059157 -0.000574 627065.000000 0 0 1
-23.111733 -30.922171 -18.808370 42.942842 0.928951 2.024154 0.039514 -0.005388 73052.000000 0 0 1
-22.656633 -32.268131 -18.655070 43.618424 0.958638 2.012730 0.048715 -0.010198 101326.000000 0 0 1
-23.041433 -33.064661 -19.740970 44.876334 0.962181 2.026280 0.027983 0.007695 86073.100000 0 0 1
-22.341033 33.747174 -19.574070 44.957065 -0.986023 2.021273 0.029448 0.004719 111496.000000 0 0 1
-22.983533 32.891605 -18.620970 44.236195 -0.960899 2.005282 0.028180 0.003015 163139.000000 0 0 1
-22.273133 31.655413 -18.379370 42.848090 -0.957650 2.014118 0.036335 -0.004373 -93105.400000 0 0 1
-23.137433 30.455653 -17.984970 42.265195 -0.921110 2.010340 0.033360 -0.010806 -58123.100000 0 0 1
-23.555933 30.452263 -16.596470 41.924517 -0.912401 1.977806 0.023983 -0.012678 211063.000000 0 0 1
-24.276733 29.284163 -16.153270 41.326143 -0.878618 1.972376 0.015723 -0.006187 16827.800000 0 0 1
-23.486533 27.965453 -15.956470 39.853390 -0.872230 1.982727 0.021166 -0.015263 -163707.000000 0 0 1
-23.018833 27.438753 -17.194370 39.729060 -0.872772 2.018383 0.013856 -0.008690 -83602.900000 0 0 1
-22.549033 26.137603 -17.082970 38.515724 -0.858973 2.030332 0.008263 -0.004973 -179115.000000 0 0 1
-21.797033 25.689223 -18.342670 38.360140 -0.867180 2.069366 0.030114 -0.000761 -984363.000000 0 0 1
-21.339233 24.395783 -18.179270 37.161848 -0.852131 2.081959 0.034272 -0.012126 136880.000000 0 0 1
-20.605833 23.824793 -19.296170 36.939996 -0.857721 2.120419 0.036173 -0.007506 508689.000000 0 0 1
-19.216333 24.467623 -19.539070 36.738362 -0.905035 2.131573 0.049773 -0.015399 -686905.000000 0 0 1
-18.253733 24.014653 -18.600170 35.438237 -0.920857 2.123349 0.066630 -0.015578 445828.000000 0 0 1
-17.082533 24.817973 -18.439870 35.323838 -0.967957 2.120018 0.084013 -0.027352 533666.000000 0 0 1
-17.146733 26.035933 -17.432770 35.718087 -0.988413 2.080668 0.089470 -0.036037 -213604.000000 0 0 1
-18.028333 26.979983 -17.998970 37.106646 -0.981725 2.077229 0.078070 -0.031122 -81831.100000 0 0 1
-17.938133 28.226863 -17.318070 37.662288 -1.004683 2.048595 0.092523 -0.038079 884152.000000 0 0 1
-19.132833 29.263703 -17.618970 39.151727 -0.991749 2.037581 0.089300 -0.031734 966691.000000 0 0 1
-19.153733 29.866583 -18.903270 40.202138 -1.000554 2.060320 0.100469 -0.033491 193212.000000 0 0 1
-19.794533 29.105953 -19.933570 40.451542 -0.973561 2.086074 0.059900 -0.026294 -180680.000000 0 0 1
-19.698933 29.724213 -21.307770 41.540316 -0.985529 2.109405 0.057371 -0.030514 -88467.700000 0 0 1
-20.492533 30.836883 -21.594970 42.862571 -0.984263 2.098810 0.057400 -0.024199 -89573.100000 0 0 1
-20.483033 30.962663 -23.003470 43.673799 -0.986352 2.125523 0.059698 -0.026911 138194.000000 0 0 1
-21.127833 32.347893 -23.314070 45.125573 -0.992214 2.113729 0.052279 -0.019931 -96120.500000 0 0 1
-20.232533 33.425848 -23.169870 45.425605 -1.026492 2.106053 0.041962 -0.014162 -48824.800000 0 0 1
-20.503233 -33.694431 -24.101470 46.223134 1.024147 2.119306 0.039978 -0.005026 -13134.200000 0 0 1
-19.551733 -32.441091 -24.031070 44.857407 1.028405 2.136158 0.054545 -0.007626 167236.000000 0 0 1
-19.640233 -31.774121 -22.772270 43.748255 1.017159 2.118268 0.052405 -0.010956 159217.000000 0 0 1
-18.864333 -32.372011 -21.753070 43.324430 1.043168 2.096818 0.060357 -0.024081 -280222.000000 0 0 1
-18.836533 -31.445561 -20.517870 42.007395 1.031097 2.081091 0.077313 -0.029857 335506.000000 0 0 1
-17.827333 -30.453301 -20.729970 40.926141 1.041182 2.101942 0.079020 -0.032093 335343.000000 0 0 1
-17.402233 -29.864081 -19.529970 39.700388 1.043184 2.085106 0.071665 -0.029517 56951.100000 0 0 1
-16.118533 -29.027081 -19.745270 38.629706 1.063899 2.107309 0.086789 -0.032890 634871.000000 0 0 1
-14.916533 -29.803641 -19.831170 38.781894 1.106754 2.107553 0.101222 -0.038947 323586.000000 0 0 1
-13.872033 -28.948931 -20.316570 37.989958 1.123935 2.135053 0.081360 -0.042252 -85467.100000 0 0 1
-12.559133 -29.790091 -20.434570 38.245954 1.171820 2.134468 0.108222 -0.047249 288944.000000 0 0 1
-11.964633 -30.362241 -19.259970 37.894123 1.195419 2.103957 0.103329 -0.045258 285024.000000 0 0 1
-11.393733 -29.385611 -18.387870 36.488972 1.200911 2.098939 0.073491 -0.039349 -173127.000000 0 0 1
-10.599533 -30.006201 -17.168370 36.159025 1.231234 2.065535 0.068263 -0.026134 251182.000000 0 0 1
-11.363933 -30.765741 -16.255670 36.604871 1.216971 2.030949 0.095285 -0.038950 -28945.600000 0 0 1
-11.937033 -31.997321 -16.629170 37.984873 1.213724 2.023929 0.111001 -0.041717 -82186.200000 0 0 1
-12.857133 -32.714121 -15.630370 38.468533 1.196326 1.989215 0.107052 -0.045983 -142604.000000 0 0 1
-12.201033 -33.079381 -14.415370 38.090859 1.217436 1.958914 0.100263 -0.040784 -324855.000000 0 0 1
-13.072633 -33.794811 -13.619370 38.710079 1.201700 1.930322 0.107071 -0.036016 -266941.000000 0 0 1
-12.475533 34.039817 -12.210370 38.254950 -1.219500 1.895665 0.085852 -0.029017 161667.000000 0 0 1
-12.350633 -32.975691 -11.346270 36.995570 1.212431 1.882513 0.053073 -0.021279 161111.000000 0 0 1
-11.785433 -33.239251 -10.051870 36.671301 1.230062 1.848458 0.065343 -0.024017 1013490.000000 0 0 1
-10.387833 -32.531411 -9.802970 35.528833 1.261713 1.850339 0.063968 -0.029974 381835.000000 0 0 1
-9.333533 -33.286041 -10.254970 36.058838 1.297413 1.859172 0.045678 -0.033170 -196824.000000 0 0 1
-8.070133 -32.592531 -10.038070 35.045156 1.328071 1.861298 0.033798 -0.040419 1700800.000000 0 0 1
-6.905033 -33.414141 -10.728870 35.767205 1.367015 1.875451 0.029676 -0.049876 558107.000000 0 0 1
-6.496033 33.560418 -10.063170 35.633797 -1.379598 1.857097 0.026729 -0.030168 -1050150.000000 0 0 1
-5.215533 33.294453 -10.491870 35.295916 -1.415410 1.872612 0.032535 -0.025107 -1030960.000000 0 0 1
-4.393433 32.344422 -9.607370 34.025952 -1.435790 1.857044 0.033429 -0.029322 -223538.000000 0 0 1
-3.905533 32.990240 -8.458870 34.280630 -1.452960 1.820125 0.044569 -0.031922 -59669.400000 0 0 1
-3.326633 32.069303 -7.549470 33.113459 -1.467433 1.800807 0.037296 -0.033191 -288017.000000 0 0 1
-3.067333 32.710206 -6.160270 33.426262 -1.477297 1.756150 0.041633 -0.027007 -538080.000000 0 0 1
-2.305033 33.895486 -6.165070 34.528614 -1.502897 1.750308 0.027144 -0.017368 -78613.100000 0 0 1
-1.907133 -33.783761 -4.927270 34.194409 1.514405 1.715395 0.036371 -0.011927 305730.000000 0 0 1
-0.819433 33.675244 -4.080070 33.931408 -1.546468 1.691333 0.047758 -0.012631 -899673.000000 0 0 1
0.485067 33.639557 -4.525570 33.946073 1.556378 1.704511 0.042622 -0.017572 -802400.000000 0 0 1
1.277667 32.913431 -3.605870 33.135006 1.531997 1.679836 0.044071 -0.013987 -1184780.000000 0 0 1
2.708967 32.746141 -3.974070 33.097454 1.488258 1.691159 0.069041 -0.018830 -1274540.000000 0 0 1
3.517867 33.874735 -3.759270 34.263758 1.467318 1.680733 0.062645 -0.019877 11067.300000 0 0 1
4.884567 33.590782 -4.049670 34.184784 1.426395 1.689539 0.074630 -0.012802 450899.000000 0 0 1
5.713867 -33.341041 -3.686670 34.027413 -1.401069 1.679354 0.071243 -0.014641 -216721.000000 0 0 1
5.537867 -32.259561 -4.529270 33.043328 -1.400787 1.708300 0.066398 -0.014333 -195298.000000 0 0 1
5.910767 -31.068901 -3.912770 31.867280 -1.382796 1.693890 0.064276 -0.020123 -91067.900000 0 0 1
5.866567 -29.752351 -4.802470 30.703138 -1.376114 1.727858 0.052029 -0.019997 250138.000000 0 0 1
6.934667 -29.659231 -5.759670 30.998925 -1.341111 1.757685 0.060251 -0.019814 347859.000000 0 0 1
6.852767 -28.466891 -6.591070 30.012772 -1.334563 1.792210 0.045643 -0.014594 80289.400000 0 0 1
7.137867 -27.103241 -5.886070 28.638796 -1.313285 1.777799 0.051772 -0.015597 -127718.000000 0 0 1
6.246967 -26.657891 -4.909270 27.816698 -1.340611 1.748212 0.059619 -0.022928 -628127.000000 0 0 1
6.807167 -25.578871 -4.256370 26.809193 -1.310700 1.730236 0.052706 -0.022899 58471.100000 0 0 1
5.782167 -24.914231 -3.305170 25.789077 -1.342751 1.699311 0.051078 -0.019697 374185.000000 0 0 1
4.744467 -24.182131 -3.929770 24.954529 -1.377060 1.728932 0.049817 -0.028471 -193883.000000 0 1 0
3.913367 -23.538631 -2.986270 24.047856 -1.406050 1.695298 0.041042 -0.032323 911012.000000 0 1 0
2.612367 -22.958831 -3.685070 23.398977 -1.457499 1.728943 0.051095 -0.031025 798554.000000 0 1 0
1.769267 -23.929431 -4.230270 24.364793 -1.496994 1.745303 0.048754 -0.027983 -38797.900000 0 1 0
0.508567 -23.348931 -4.564370 23.796317 -1.549019 1.763802 0.039875 -0.024986 490149.000000 0 1 0
-14.664433 22.782769 17.818932 32.428607 -0.998889 0.989052 0.009532 -0.012741 -340295.000000 0 0 1
-15.165633 22.454569 19.058132 33.127278 -0.976778 0.957825 0.004863 -0.006032 222055.000000 0 0 1
-14.874833 23.419169 20.076732 34.246070 -1.004927 0.944375 0.010475 -0.001462 -890216.000000 0 0 1
-15.043433 22.920569 21.552632 34.873677 -0.989985 0.904575 0.023568 -0.010351 -25166.900000 0 0 1
-14.120333 21.896769 21.946132 34.065893 -0.998044 0.870786 0.020906 -0.004298 2343420.000000 0 0 1
-12.697733 22.281769 22.006632 33.793513 -1.052825 0.861620 -0.000210 -0.004084 1587620.000000 0 0 1
-12.197333 23.300169 23.046832 34.968976 -1.088536 0.851221 0.024253 0.004324 -564892.000000 0 0 1
-12.278633 22.870669 24.358552 35.597351 -1.078088 0.817181 0.023504 0.003984 5285.680000 0 0 1
-12.092233 23.974669 25.226372 36.842594 -1.103655 0.816595 0.049905 -0.006205 106779.000000 0 0 1
-11.630233 23.540969 26.673462 37.428774 -1.111926 0.777534 0.055494 -0.009645 50192.000000 0 0 1
-10.240833 23.420569 26.844542 37.067873 -1.158589 0.760923 0.034056 -0.008108 -302693.000000 0 0 1
-9.885033 22.711469 28.064182 37.431578 -1.160281 0.723118 0.035782 -0.013059 1119580.000000 0 0 1
-8.325633 22.390069 28.231742 36.981923 -1.214795 0.702246 0.030334 -0.019374 2176430.000000 0 0 1
-7.429333 23.440969 28.611942 37.726877 -1.263873 0.709946 0.032222 -0.020205 347412.000000 0 0 1
-7.246533 24.382869 27.552952 37.499357 -1.281912 0.745486 0.029410 -0.010437 286290.000000 0 0 1
-6.070633 25.436769 27.813072 38.176548 -1.336523 0.754611 0.032319 -0.018952 1820470.000000 0 0 1
-4.750733 24.896969 27.982042 37.754778 -1.382247 0.736011 0.035459 -0.021060 -517567.000000 0 0 1
-3.858233 25.817469 28.389082 38.566406 -1.422451 0.743493 0.050668 -0.017906 -613760.000000 0 0 1
-2.428333 25.264769 28.179832 37.925036 -1.474975 0.733194 0.055575 -0.016781 -209129.000000 0 0 1
-1.889533 25.221469 26.907832 36.928638 -1.496018 0.754456 0.046842 -0.019180 178891.000000 0 0 1
-0.544833 24.750169 26.977652 36.615044 -1.548787 0.742484 0.044451 -0.009441 622662.000000 0 0 1
0.083367 24.434469 25.629482 35.410741 1.567384 0.761536 0.039350 -0.016808 354666.000000 0 0 1
-0.601833 23.342369 24.996032 34.205702 -1.545019 0.751367 0.041502 -0.011601 383609.000000 0 0 1
-0.116333 23.272269 23.652462 33.182089 -1.565798 0.777302 0.036845 -0.010607 357295.000000 0 0 1
-0.654233 22.010469 22.908032 31.775253 -1.541081 0.765639 0.037444 -0.008149 261908.000000 0 0 1
0.019267 20.847769 23.334612 31.291117 1.569872 0.729172 0.036606 -0.009770 -224789.000000 0 0 1
-0.372833 19.736969 22.601332 30.008452 -1.551908 0.717935 0.030683 -0.007939 260592.000000 0 0 1
0.534767 18.441769 22.847832 29.366789 1.541807 0.679295 0.035698 -0.006856 1061080.000000 0 0 1
1.869567 18.672669 22.393732 29.217172 1.471006 0.697488 0.044611 -0.015922 226228.000000 0 0 1
2.652967 17.498269 22.492232 28.620415 1.420329 0.666677 0.031619 -0.017752 -42765.000000 0 0 1
4.069067 17.681569 21.932132 28.464252 1.344604 0.691148 0.051883 -0.020356 -244306.000000 0 0 1
4.988967 18.474769 22.633032 29.638844 1.307045 0.701884 0.051675 -0.017149 -238660.000000 0 0 1
6.040967 18.872669 21.753232 29.425738 1.261011 0.738827 0.073664 -0.028255 208736.000000 0 0 1
7.355967 19.229069 22.479532 30.482728 1.205428 0.741507 0.080737 -0.034317 -676579.000000 0 0 1
7.341367 20.333469 23.422312 31.873976 1.224313 0.745364 0.062533 -0.027893 -96044.900000 0 0 1
6.942767 21.610269 22.984832 32.303379 1.259940 0.779123 0.072888 -0.033585 -527378.000000 0 0 1
5.493467 22.019169 23.204132 32.456952 1.326302 0.774286 0.050491 -0.021980 -507362.000000 0 0 1
5.389667 23.367769 22.768032 33.067876 1.344115 0.811344 0.053999 -0.024272 574583.000000 0 0 1
4.142267 24.003269 23.084932 33.559342 1.399909 0.812227 0.040636 -0.023776 367577.000000 0 0 1
3.963767 25.423369 22.451432 34.148587 1.416131 0.853350 0.049304 -0.020100 64323.700000 0 0 1
3.898367 25.508069 21.058732 33.306592 1.419141 0.886318 0.049834 -0.020586 1334920.000000 0 0 1
2.551167 25.135069 20.634232 32.619805 1.469644 0.885932 0.043073 -0.024351 1200980.000000 0 0 1
2.100367 25.516669 19.181132 31.991058 1.488668 0.927823 0.047357 -0.023960 -427232.000000 0 0 1
1.680267 26.871769 19.175632 33.054805 1.508349 0.951925 0.055727 -0.029027 -16591.700000 0 0 1
1.294567 27.211869 17.882932 32.587743 1.523259 0.989913 0.059636 -0.020342 -663537.000000 0 0 1
0.133367 28.134069 18.095032 33.451066 1.566056 0.999242 0.039648 -0.007609 -868390.000000 0 0 1
0.650167 29.359869 18.570832 34.746229 1.548655 1.006915 0.044158 -0.007005 553225.000000 0 0 1
-0.309633 30.406069 18.656832 35.674954 -1.560613 1.020468 0.032518 -0.006151 43665.800000 0 0 1
0.367367 31.678469 19.208732 37.049100 1.559200 1.025739 0.024145 0.003165 -227468.000000 0 0 1
0.644567 31.579069 20.581632 37.699558 1.550388 0.993288 0.034508 -0.001249 -189813.000000 0 0 1
1.007267 32.804969 21.142132 39.040624 1.540101 0.998526 0.028071 -0.002500 -1001.630000 0 0 1
1.468067 32.563469 22.626132 39.679675 1.525744 0.964023 0.033057 -0.018143 704045.000000 0 0 1
0.372867 32.485069 23.546242 40.122865 1.559319 0.943629 0.030463 -0.008642 1000600.000000 0 0 1
0.945167 32.370869 24.801932 40.790959 1.541607 0.917225 0.055976 -0.018515 432580.000000 0 0 1
-0.292433 32.007369 25.658262 41.023209 -1.561660 0.895079 0.058847 -0.020632 274071.000000 0 0 1
-1.201033 33.112569 25.719292 41.944806 -1.534541 0.910729 0.062346 -0.012430 1033380.000000 0 0 1
-2.395433 32.840069 26.489742 42.260084 -1.497983 0.893323 0.059822 -0.011808 944937.000000 0 0 1
-2.168033 33.063469 28.011632 43.388304 -1.505318 0.868983 0.079250 -0.021895 -345809.000000 0 0 1
-1.185233 32.261069 28.631922 43.150531 -1.534074 0.845261 0.085173 -0.025387 124994.000000 0 0 1
-0.723133 32.893069 29.830642 44.411081 -1.548816 0.834304 0.085875 -0.032344 -474117.000000 0 0 1
0.390567 32.087769 30.545922 44.303847 1.558625 0.810047 0.076119 -0.027490 1376300.000000 0 0 1
1.759367 32.122369 30.060612 44.029336 1.516080 0.819289 0.065237 -0.029765 1330290.000000 0 0 1
1.883867 31.541769 28.751382 42.720887 1.511141 0.832532 0.050946 -0.027791 -1593960.000000 0 0 1
3.328067 31.515469 28.277342 42.472449 1.465585 0.842257 0.046624 -0.027471 -903093.000000 0 0 1
3.996367 30.551769 28.975452 42.296080 1.440728 0.816107 0.039764 -0.027395 -1505340.000000 0 0 1
5.278367 30.419769 28.502682 42.019358 1.398989 0.825319 0.054399 -0.038250 -929036.000000 0 0 1
6.210267 29.400669 29.196162 41.897287 1.362628 0.799799 0.042453 -0.020704 181480.000000 0 0 1
6.487467 29.566769 30.596642 43.039930 1.354802 0.780034 0.061490 -0.030422 -189591.000000 0 0 1
7.180467 28.496869 31.130122 42.810223 1.323961 0.756612 0.037291 -0.021571 -424219.000000 0 0 1
7.388967 28.584969 32.622004 43.998778 1.317842 0.735598 0.074816 -0.028577 -1448100.000000 0 0 1
6.214567 28.514069 33.310732 44.286317 1.356205 0.719451 0.068326 -0.029546 -1384090.000000 0 0 1
6.263567 28.223069 -33.554690 44.290983 1.352405 2.430419 0.085988 -0.033953 -67823.900000 0 0 1
6.375667 26.767469 -33.125990 43.063648 1.336966 2.448437 0.070183 -0.025516 597517.000000 0 0 1
7.597867 26.148169 -33.547120 43.207217 1.288013 2.459768 0.069774 -0.024943 479404.000000 0 0 1
7.612967 24.757669 -33.183300 42.095497 1.272474 2.478815 0.069141 -0.026208 172741.000000 0 0 1
9.015367 24.129369 -33.370430 42.155533 1.213231 2.484224 0.076756 -0.024625 -106428.000000 0 0 1
9.298967 23.768269 33.529686 42.138359 1.197869 0.650626 0.044024 -0.016082 -342217.000000 0 0 1
10.495967 23.116069 33.241075 41.826870 1.144575 0.652233 0.059745 -0.027049 -515029.000000 0 0 1
10.380867 21.615869 33.612728 41.289511 1.123079 0.619663 0.044999 -0.026148 -381457.000000 0 0 1
9.699067 20.865569 32.574547 39.881638 1.135674 0.614988 0.033107 -0.020156 352413.000000 0 0 1
9.340067 19.503069 32.912741 39.380898 1.124169 0.581292 0.038437 -0.027638 950070.000000 0 0 1
8.028767 19.312969 33.783212 39.733579 1.176813 0.554349 0.049478 -0.033222 553722.000000 0 0 1
8.181067 20.020769 -33.254890 39.669242 1.182873 2.564962 0.052617 -0.028854 400704.000000 0 0 1
7.007167 20.800069 -32.999520 39.632204 1.245855 2.554661 0.067266 -0.027587 114671.000000 0 0 1
6.956067 21.361969 -31.509740 38.698635 1.255996 2.522205 0.082134 -0.033386 679031.000000 0 0 1
8.083367 22.201569 -31.149530 39.096595 1.221625 2.492665 0.092825 -0.032396 735531.000000 0 0 1
7.986467 22.850069 -29.938590 38.499721 1.234553 2.461686 0.075457 -0.038659 -92312.000000 0 0 1
9.443267 23.116769 -29.501150 38.650720 1.182981 2.439164 0.080178 -0.034957 -18439.000000 0 0 1
10.006567 21.906969 -29.125820 37.793652 1.142322 2.450663 0.075371 -0.028996 -230144.000000 0 0 1
11.415667 22.073769 -29.025870 38.210861 1.093515 2.433530 0.069948 -0.027640 394647.000000 0 0 1
12.149467 20.726569 -29.136250 37.764021 1.040602 2.452046 0.061965 -0.035872 -281589.000000 0 0 1
12.201067 19.968869 -30.296720 38.282020 1.022325 2.483906 0.036571 -0.027713 -322483.000000 0 0 1
11.022867 19.281269 -30.644540 37.846516 1.051455 2.514447 0.055247 -0.031342 -319702.000000 0 0 1
11.130767 18.260569 -31.828070 38.345383 1.023383 2.549970 0.051326 -0.036857 -540154.000000 0 0 1
11.799167 17.099369 -31.521560 37.752053 0.966789 2.558862 0.036011 -0.023443 -297657.000000 0 0 1
11.586067 16.106769 -32.534210 38.106952 0.947215 2.593962 0.036173 -0.018374 28020.900000 0 0 1
12.752367 15.941169 -33.551470 39.273972 0.896077 2.594985 0.025810 -0.012565 -30276.300000 0 0 1
13.161167 17.243169 -33.989670 40.321717 0.918857 2.573562 0.039454 -0.034100 83263.500000 0 0 1
13.690967 17.338669 32.947313 39.668596 0.902417 0.590676 0.050781 -0.034598 116904.000000 0 0 1
12.677067 16.992969 31.803842 38.222420 0.929848 0.587962 0.057587 -0.041662 -399312.000000 0 0 1
12.913867 17.721869 30.593042 37.639964 0.941069 0.621887 0.049858 -0.034536 117106.000000 0 0 1
12.073067 17.466469 29.465622 36.318857 0.965991 0.624418 0.054740 -0.032336 716250.000000 0 0 1
10.536367 17.755669 29.555792 36.053068 1.035238 0.609759 0.049168 -0.032534 319587.000000 0 0 1
9.954567 16.703869 30.292202 35.996252 1.033365 0.570673 0.066419 -0.034077 -205326.000000 0 0 1
8.542367 16.797269 30.239932 35.631079 1.100327 0.557283 0.070548 -0.031915 71686.700000 0 0 1
7.877967 15.905069 31.255152 35.943263 1.110906 0.516467 0.075146 -0.025928 -275824.000000 0 0 1
8.092467 16.289469 32.621330 37.349512 1.109719 0.508641 0.082995 -0.028206 101431.000000 0 0 1
7.650367 15.242869 33.467490 37.562562 1.105631 0.471297 0.089097 -0.021834 -177971.000000 0 0 1
7.690867 15.739069 -33.350550 37.671301 1.116271 2.657943 0.086221 -0.028024 -272295.000000 0 0 1
6.768767 16.715069 -32.962510 37.573087 1.186030 2.640984 0.083347 -0.034489 -55115.200000 0 0 1
6.842367 16.820969 -31.529610 36.385152 1.184462 2.619047 0.086133 -0.032625 200704.000000 0 0 1
5.925667 17.923869 -30.913130 36.221544 1.251506 2.593358 0.076323 -0.034545 -86139.100000 0 0 1
6.026067 17.914769 -29.504210 35.039276 1.246311 2.571836 0.071425 -0.040887 753396.000000 0 0 1
5.082567 18.836269 -28.894550 34.864489 1.307244 2.547698 0.073108 -0.043243 620787.000000 0 0 1
3.598767 18.479669 -28.783340 34.393749 1.378462 2.562349 0.074272 -0.042472 -1311160.000000 0 0 1
3.168267 17.633769 -27.736450 33.019667 1.393023 2.568076 0.090386 -0.042557 654160.000000 0 0 1
1.798467 17.209669 -27.822880 32.764613 1.466671 2.585217 0.071333 -0.041233 746745.000000 0 0 1
0.717067 18.291369 -27.637580 33.150026 1.531614 2.556593 0.064822 -0.047167 -1157590.000000 0 0 1
0.576867 18.747369 -26.319740 32.319118 1.540035 2.522440 0.095188 -0.053106 -401245.000000 0 0 1
-0.375233 19.754769 -26.300470 32.895386 -1.551804 2.497289 0.105173 -0.052350 -413488.000000 0 0 1
-0.802933 20.256069 -24.877970 32.091532 -1.531178 2.457858 0.071145 -0.049651 471479.000000 0 0 1
-1.816833 19.443169 -24.247770 31.133456 -1.477624 2.463600 0.064443 -0.045836 503367.000000 0 0 1
-2.296133 20.033969 -23.047170 30.623589 -1.456682 2.422791 0.091652 -0.042434 -525653.000000 0 0 1
-3.148633 19.206769 -22.175070 29.505044 -1.408308 2.421233 0.083301 -0.041345 -515500.000000 0 0 1
-4.525833 19.265869 -22.483670 29.952835 -1.340065 2.419820 0.072752 -0.027539 -271693.000000 0 0 1
-5.206433 18.321269 -21.693870 28.868666 -1.293921 2.421080 0.053526 -0.035834 -770572.000000 0 0 1
-6.726233 18.362269 -21.820770 29.301214 -1.219668 2.410890 0.084051 -0.023860 -522506.000000 0 0 1
-7.401033 19.388269 -21.162270 29.639871 -1.206141 2.365962 0.038040 -0.012306 -128489.000000 0 0 1
-7.377933 20.665069 -21.756070 30.899928 -1.227877 2.351925 0.045739 -0.016142 -363240.000000 0 0 1
-7.998333 21.778369 -20.937270 31.251240 -1.218828 2.304959 0.051180 -0.025684 441179.000000 0 0 1
-7.205633 21.994769 -19.744170 30.422414 -1.254209 2.277067 0.062347 -0.028016 223441.000000 0 0 1
-7.887933 22.797069 -18.835670 30.605691 -1.237684 2.233728 0.073097 -0.028318 -85927.400000 0 0 1
-7.195533 22.988769 -17.449570 29.744692 -1.267454 2.197706 0.103028 -0.040095 -228784.000000 0 0 1
-5.857733 23.391469 -17.502970 29.796440 -1.325421 2.198661 0.116098 -0.042212 -906015.000000 0 0 1
-5.447633 23.725469 -16.231470 29.258080 -1.345097 2.158881 0.133417 -0.034364 246255.000000 0 0 1
-3.908933 23.938969 -16.236970 29.188923 -1.408937 2.160689 0.133562 -0.034491 393318.000000 0 0 1
-3.460933 25.212569 -16.703670 30.441161 -1.434379 2.151629 0.111081 -0.041427 -1021560.000000 0 0 1
-2.072933 25.177269 -16.750670 30.311333 -1.488648 2.156302 0.102032 -0.048827 -373317.000000 0 0 1
-1.545433 26.636969 -16.942970 31.606657 -1.512843 2.136556 0.090898 -0.060240 125163.000000 0 0 1
-2.234733 27.254069 -17.992970 32.734161 -1.488983 2.152765 0.081138 -0.062479 -136484.000000 0 0 1
-1.547633 28.410869 -18.384770 33.875839 -1.516377 2.144457 0.081360 -0.056590 -823760.000000 0 0 1
-2.318633 29.232369 -19.412170 35.167312 -1.491645 2.155551 0.097485 -0.051858 335716.000000 0 0 1
-3.351833 30.116069 -18.997870 35.764948 -1.459955 2.130797 0.066272 -0.048065 -44959.500000 0 0 1
-4.503033 29.456869 -18.527870 35.089406 -1.419102 2.127062 0.046330 -0.051586 -1114750.000000 0 0 1
-5.427333 30.340569 -17.717870 35.551779 -1.393788 2.092512 0.073061 -0.045902 -173846.000000 0 0 1
-5.986433 31.411269 -18.464870 36.925014 -1.382472 2.094469 0.101974 -0.047099 121209.000000 0 0 1
-5.959033 32.554369 -17.606470 37.487129 -1.389752 2.059710 0.094421 -0.066051 270662.000000 0 0 1
-6.720833 33.829469 -18.218170 39.006465 -1.374682 2.056754 0.086968 -0.044817 1348960.000000 0 0 1
-8.142733 33.679069 -18.346470 39.206846 -1.333574 2.057755 0.098409 -0.061269 709951.000000 0 0 1
-8.828933 -33.279724 -18.367170 39.023621 1.311475 2.060844 0.130191 -0.054891 -24141.000000 0 0 1
29.551367 -20.447631 -26.098580 44.413115 -0.605293 2.198926 0.052603 0.002554 26827.000000 0 0 1
29.135967 -21.636531 -25.559330 44.388325 -0.638752 2.184393 0.058312 -0.002132 169878.000000 0 0 1
27.799967 -21.858331 -26.031130 43.911781 -0.666314 2.205334 0.054503 -0.008976 645867.000000 0 0 1
27.352967 -23.337831 -25.667810 44.177773 -0.706355 2.190768 0.036653 -0.005074 236535.000000 0 0 1
27.831867 -24.466531 -26.419990 45.510876 -0.721138 2.190164 0.039137 0.006531 523683.000000 0 0 1
29.243867 -24.716931 -26.350670 46.481053 -0.701701 2.173549 0.037761 0.003803 680279.000000 0 0 1
29.648267 -26.091821 -26.856640 47.760674 -0.721680 2.167981 0.037313 -0.000400 -425713.000000 0 0 1
29.342767 -27.050781 -25.892900 47.572944 -0.744778 2.146324 0.048153 -0.003648 -222520.000000 0 0 1
29.339167 -28.369021 -26.362220 48.585540 -0.768589 2.144318 0.043366 0.001668 678047.000000 0 0 1
28.103867 -28.794701 -27.248520 48.594691 -0.797539 2.166064 0.045947 -0.000687 164858.000000 0 0 1
27.979967 -28.310441 -28.601000 49.014047 -0.791269 2.193861 0.031800 -0.003850 399284.000000 0 0 1
28.955567 -28.659311 -29.623310 50.371832 -0.780256 2.199495 0.006009 -0.002891 243776.000000 0 0 1
29.163167 -30.175261 -30.179460 51.689810 -0.802453 2.194268 0.012285 0.000748 397782.000000 0 0 1
29.951367 -31.149141 -29.398600 52.265008 -0.804999 2.168192 0.015092 0.002593 1340500.000000 0 0 1
31.223067 -30.892441 -28.771250 52.507215 -0.780075 2.150706 0.023110 0.002628 1197040.000000 0 0 1
32.411067 -30.573601 -29.708790 53.552167 -0.756233 2.158875 0.021986 -0.006034 -354120.000000 0 0 1
32.101967 -29.439711 -30.446030 53.143143 -0.742166 2.180843 0.020748 -0.011924 -815821.000000 0 0 1
33.102267 -28.992981 -31.308990 54.005610 -0.719317 2.189201 0.023450 -0.015881 -577345.000000 0 0 1
32.776767 -27.600961 -31.897520 53.418923 -0.699883 2.210703 0.015507 -0.013224 220763.000000 0 0 1
32.999467 -26.435781 -31.036910 52.450978 -0.675410 2.204002 0.012588 -0.007377 -923817.000000 0 0 1
32.032067 -26.347531 -30.092580 51.242649 -0.688332 2.198461 0.021108 -0.010335 -1012560.000000 0 0 1
32.060867 -24.958531 -29.461500 50.187722 -0.661476 2.198177 0.013923 -0.012232 -884740.000000 0 0 1
33.183667 -24.684531 -28.714590 50.348878 -0.639570 2.177682 0.025961 -0.002591 -565667.000000 0 0 1
32.853367 -23.539431 -27.952150 49.140322 -0.621714 2.175871 0.021548 -0.001549 155305.000000 0 0 1
33.771467 -23.197331 -26.734560 48.922028 -0.601874 2.148943 0.029386 0.001899 -98482.000000 0 0 1
33.395867 -23.865631 -25.531980 48.339779 -0.620476 2.127249 0.027429 0.002325 1131060.000000 0 0 1
32.386967 -23.206731 -24.670370 46.862513 -0.621744 2.125206 0.035694 0.009853 999967.000000 0 0 1
32.776167 -21.872931 -23.963370 46.118818 -0.588470 2.117180 0.048811 0.014145 -165281.000000 0 0 1
32.971367 -20.760231 -24.798670 46.185195 -0.561932 2.137602 0.048653 -0.000169 52742.800000 0 0 1
33.067167 -19.519731 -24.140270 45.356478 -0.533261 2.132034 0.039107 -0.004991 190240.000000 0 0 1
33.336767 -18.358631 -25.155960 45.620190 -0.503382 2.154864 0.027783 -0.025568 698853.000000 0 0 1
32.110567 -18.108131 -25.867900 45.034888 -0.513476 2.182664 0.041451 -0.008615 945863.000000 0 0 1
32.107367 -16.833531 -26.549530 44.934712 -0.482889 2.202904 0.038859 0.004924 84321.000000 0 0 1
31.011667 -16.832931 -27.653310 44.830532 -0.497294 2.235519 0.043285 0.009709 551238.000000 0 0 1
29.696267 -16.761331 -27.083950 43.547111 -0.513851 2.242022 0.043969 0.009867 778833.000000 0 0 1
28.715667 -17.047031 -28.095270 43.640978 -0.535737 2.270227 0.032053 -0.009476 -712616.000000 0 0 1
27.334567 -16.735731 -27.613910 42.305925 -0.549382 2.281965 0.022146 -0.001096 -840241.000000 0 0 1
26.702467 -17.687731 -26.723430 41.713538 -0.585043 2.266130 0.047161 0.005310 226049.000000 0 0 1
26.663067 -17.289231 -25.373670 40.665216 -0.575273 2.244603 0.040247 0.015885 89734.300000 0 0 1
25.931067 -18.243331 -24.382470 39.996802 -0.613092 2.226365 0.034078 0.020358 7020.180000 0 0 1
26.003867 -17.875331 -23.035370 39.068617 -0.602227 2.201376 0.029800 0.033114 -40406.700000 0 0 1
25.155067 -18.703431 -22.284870 38.460514 -0.639344 2.188816 0.030891 0.029538 -57642.500000 0 0 1
25.030467 -18.214631 -20.834270 37.314392 -0.629075 2.163185 0.026061 0.024456 35025.800000 0 0 1
24.350667 -16.977231 -20.541970 36.099223 -0.608843 2.176137 0.017184 0.018395 118648.000000 0 0 1
24.714167 -15.748931 -21.187570 36.162577 -0.567355 2.196784 0.020365 0.019730 -25921.700000 0 0 1
25.934967 -14.915931 -20.721170 36.393329 -0.521931 2.176532 0.012312 0.015647 142928.000000 0 0 1
25.732667 -14.161731 -19.538970 35.277417 -0.503105 2.157797 0.011910 0.000815 791915.000000 0 0 1
26.867967 -13.294931 -19.367370 35.689464 -0.459499 2.144401 -0.003299 0.004071 475556.000000 0 0 1
26.793367 -12.449131 -18.064570 34.629382 -0.434957 2.119585 0.009611 -0.002975 -254978.000000 0 0 1
27.046367 -13.125931 -16.854770 34.465625 -0.451828 2.081775 0.000184 0.003315 20592.600000 0 0 1
26.801867 -12.274231 -15.781470 33.437279 -0.429455 2.062323 -0.000284 -0.000562 207647.000000 0 0 1
27.551367 -12.571731 -14.443070 33.551878 -0.428082 2.015810 0.011261 -0.006637 272694.000000 0 0 1
26.924167 -13.686731 -13.767270 33.192998 -0.470300 1.998480 0.040597 -0.015414 753724.000000 0 0 1
27.713467 -14.106331 -12.663970 33.576792 -0.470827 1.957529 0.059090 -0.022161 -126349.000000 0 0 1
27.180667 -15.359531 -11.997870 33.446266 -0.514355 1.937693 0.062518 -0.035916 69198.500000 0 0 1
25.972267 -15.221231 -11.264370 32.142348 -0.530104 1.928851 0.057628 -0.036298 275549.000000 0 0 1
25.556567 -16.427731 -10.789670 32.240122 -0.571296 1.912047 0.047241 -0.027164 849121.000000 0 0 1
24.023467 -16.470131 -10.398570 30.927697 -0.600986 1.913699 0.060065 -0.027652 922680.000000 0 0 1
23.718467 -15.759831 -9.221070 29.932692 -0.586469 1.883950 0.063865 -0.028775 225638.000000 0 0 1
22.334167 -15.499831 -9.115370 28.673154 -0.606685 1.894317 0.073165 -0.029142 -97647.700000 0 0 1
21.870767 -15.130831 -7.658870 27.675454 -0.605221 1.851195 0.067163 -0.026344 -98038.800000 0 0 1
22.403967 -13.893831 -7.102170 27.302328 -0.555104 1.833954 0.079455 -0.020191 319341.000000 0 0 1
22.154767 -13.638531 -5.717470 26.637055 -0.551813 1.787123 0.084440 -0.018429 -821552.000000 0 0 1
22.922367 -14.505631 -4.745770 27.538529 -0.564200 1.743993 0.080063 -0.017868 587424.000000 0 0 1
24.354067 -14.384431 -4.863170 28.699875 -0.533507 1.741067 0.092084 -0.018541 1165900.000000 0 0 1
25.060367 -15.005231 -3.810970 29.456789 -0.539510 1.700535 0.084963 -0.028064 -858371.000000 0 0 1
26.559767 -14.860031 -3.973970 30.692575 -0.510103 1.700637 0.097990 -0.031622 -901909.000000 0 0 1
27.041567 -13.601231 -3.577870 30.480174 -0.466025 1.688451 0.103658 -0.027908 -220245.000000 0 0 1
28.325767 -13.339231 -4.078270 31.573984 -0.440116 1.700324 0.106712 -0.034902 -272834.000000 0 0 1
28.907367 -12.000531 -3.563270 31.501516 -0.393487 1.684153 0.106557 -0.032987 -804819.000000 0 0 1
29.233367 -12.108631 -2.234370 31.720673 -0.392692 1.641294 0.114669 -0.034781 273650.000000 0 0 1
29.803267 -10.962431 -1.659070 31.798776 -0.352467 1.622994 0.105341 -0.033275 -51748.100000 0 0 1
31.301867 -10.710831 -1.925870 33.139670 -0.329690 1.628943 0.108637 -0.029691 -586474.000000 0 0 1
31.588667 -10.261731 -3.236870 33.371010 -0.314101 1.667946 0.113358 -0.031102 219931.000000 0 0 1
32.865967 -10.669031 -3.683070 34.750036 -0.313890 1.676983 0.112923 -0.028822 -87394.300000 0 0 1
32.954467 -10.601931 -5.248670 35.013517 -0.311257 1.721268 0.111769 -0.029323 -679606.000000 0 0 1
31.962767 -11.339631 -5.860570 34.417321 -0.340923 1.741910 0.088694 -0.032021 -166055.000000 0 0 1
32.123167 -11.349831 -7.240470 34.830173 -0.339631 1.780203 0.077401 -0.027642 77280.200000 0 0 1
30.802967 -11.775531 -7.931270 33.917414 -0.365143 1.806822 0.103214 -0.025715 179235.000000 0 0 1
30.607767 -13.114231 -7.721170 34.182377 -0.404798 1.798644 0.084414 -0.028608 -369651.000000 0 0 1
29.391767 -13.577331 -8.212970 33.401688 -0.432741 1.819229 0.079540 -0.030218 -372066.000000 0 0 1
29.159567 -15.121231 -8.099070 33.830857 -0.478392 1.812543 0.088177 -0.038008 -235474.000000 0 0 1
29.601067 -15.804431 -9.149370 34.780946 -0.490409 1.836986 0.090221 -0.041187 -58648.600000 0 0 1
29.548867 -17.205131 -8.986370 35.354023 -0.527273 1.827799 0.083753 -0.038891 -68110.600000 0 0 1
29.597367 -17.860431 -10.361470 36.088214 -0.542950 1.862010 0.077512 -0.041827 299414.000000 0 0 1
30.850067 -17.617931 -11.009270 37.193039 -0.518885 1.871302 0.089466 -0.040441 727673.000000 0 0 1
30.992767 -18.236631 -12.294270 38.003623 -0.531858 1.900225 0.066420 -0.023898 -84865.800000 0 0 1
30.359667 -17.457831 -13.461570 37.519316 -0.521860 1.937768 0.055782 -0.026294 -71235.200000 0 0 1
31.144767 -16.355031 -13.905670 37.826594 -0.483548 1.947241 0.054613 -0.026732 70253.200000 0 0 1
30.560067 -15.615231 -14.917270 37.420290 -0.472384 1.980831 0.031665 -0.026849 -870470.000000 0 0 1
31.329167 -14.234231 -15.246470 37.637546 -0.426461 1.987870 0.027714 -0.020376 539795.000000 0 0 1
32.357467 -14.501831 -16.187270 38.978667 -0.421336 1.999053 0.008814 -0.021903 -20160.800000 0 0 1
33.579067 -14.849331 -15.601170 39.893018 -0.416365 1.972596 0.028855 -0.025910 -587501.000000 0 0 1
34.697467 -15.139631 -16.657770 41.359448 -0.411430 1.985322 0.038505 -0.027415 277453.000000 0 0 1
36.016367 -15.350531 -16.187270 42.365613 -0.402895 1.962848 0.051491 -0.031424 540677.000000 0 0 1
-36.249929 -15.851531 -17.285170 43.175288 0.412230 1.982694 0.060754 -0.037557 1099070.000000 0 0 1
-34.714629 -15.729131 -16.932670 41.704033 0.425427 1.988891 0.062228 -0.035649 945305.000000 0 0 1
-34.078529 -16.651931 -16.003070 41.167113 0.454514 1.970054 0.061526 -0.031990 563296.000000 0 0 1
-34.581529 -16.660631 -14.668070 41.092713 0.448964 1.935798 0.064414 -0.035457 -880755.000000 0 0 1
-33.895229 -17.653831 -13.705270 40.600230 0.480177 1.915127 0.067206 -0.031085 239741.000000 0 0 1
-32.589329 -17.141431 -13.381970 39.178695 0.484217 1.919375 0.064466 -0.025339 700030.000000 0 0 1
-32.045829 -17.794231 -12.266970 38.652922 0.506884 1.893743 0.077673 -0.018869 -191726.000000 0 0 1
-30.600329 -17.426331 -11.890570 37.167766 0.517677 1.896437 0.091200 -0.023586 -52891.400000 0 0 1
-30.594129 -16.067731 -11.477170 36.412884 0.483596 1.891459 0.082689 -0.039973 748052.000000 0 0 1
-29.311429 -15.686331 -10.958170 35.004319 0.491379 1.889201 0.107453 -0.042738 586146.000000 0 0 1
-29.111329 -15.787031 -9.431170 34.433222 0.496911 1.848239 0.101896 -0.036149 -116896.000000 0 0 1
-29.261929 -17.083031 -8.865570 35.024117 0.528420 1.826708 0.083944 -0.025908 -17698.500000 0 0 1
-29.587829 -16.978331 -7.514670 34.930983 0.520953 1.787620 0.095465 -0.025869 -101767.000000 0 0 1
-30.188229 -18.310431 -6.933270 35.981541 0.545216 1.764699 0.081643 -0.021333 1098310.000000 0 0 1
-31.412629 -18.826031 -7.518570 37.385847 0.539915 1.773285 0.068685 -0.017348 1182170.000000 0 0 1
-31.138529 -19.533731 -8.763670 37.788577 0.560264 1.804840 0.072249 -0.017222 424503.000000 0 0 1
-32.427129 -20.264131 -9.231070 39.336578 0.558537 1.807674 0.064502 -0.014741 103765.000000 0 0 1
-33.574329 -19.584931 -9.635970 40.045686 0.528072 1.813805 0.067481 -0.015137 410994.000000 0 0 1
-34.593929 -20.511131 -10.040970 41.451990 0.535191 1.815461 0.068619 -0.017012 833910.000000 0 0 1
-35.966929 -19.862731 -10.408470 42.384954 0.504569 1.818904 0.068308 -0.023752 411189.000000 0 0 1
-36.047429 -19.404631 -11.684070 42.573164 0.493823 1.848811 0.062985 -0.025278 -190475.000000 0 0 1
35.741467 -18.903231 -11.931070 42.156079 -0.486490 1.857739 0.083779 -0.034053 -369239.000000 0 0 1
35.578567 -18.618031 -13.451570 42.348675 -0.482108 1.894034 0.077784 -0.033136 -289588.000000 0 0 1
35.433867 -19.767731 -14.267970 43.010430 -0.508871 1.908936 0.075653 -0.029383 342492.000000 0 0 1
34.836367 -19.519731 -15.564170 42.858322 -0.510737 1.942447 0.067172 -0.022745 -268619.000000 0 0 1
33.597967 -20.349831 -15.808170 42.341909 -0.544590 1.953409 0.076620 -0.019777 -954740.000000 0 0 1
32.496267 -19.985231 -15.025270 41.002141 -0.551377 1.945988 0.076026 -0.023221 80905.900000 0 0 1
31.380067 -20.863131 -15.107270 40.598133 -0.586746 1.952085 0.073937 -0.024409 198931.000000 0 0 1
30.325667 -20.526831 -16.143370 40.020061 -0.595040 1.986006 0.064620 -0.018257 -964723.000000 0 0 1
29.639167 -19.339931 -15.896170 38.796925 -0.578140 1.992952 0.050225 -0.015013 -17387.900000 0 0 1
28.771567 -19.016931 -16.962070 38.433820 -0.584043 2.027879 0.034415 -0.013176 -239507.000000 0 0 1
28.132167 -17.650131 -16.798670 37.217486 -0.560324 2.039091 0.021905 -0.008215 206525.000000 0 0 1
27.140667 -17.495631 -15.761870 35.932568 -0.572589 2.024894 0.028671 -0.009845 600535.000000 0 0 1
26.491267 -16.233731 -15.891070 34.897670 -0.549775 2.043575 0.013500 -0.001835 -165458.000000 0 0 1
25.067667 -16.345031 -15.261470 33.592565 -0.577805 2.042395 0.014109 -0.004261 414414.000000 0 0 1
24.040167 -16.951331 -16.028870 33.499282 -0.614158 2.069724 0.029434 -0.000469 546907.000000 0 0 1
23.464867 -16.075131 -17.016070 33.144479 -0.600637 2.109928 0.025466 0.007777 -489758.000000 0 0 1
22.435267 -16.711531 -17.969470 33.249336 -0.640215 2.141763 0.027297 0.006051 -309106.000000 0 0 1
21.151467 -16.812231 -17.436970 32.157170 -0.671592 2.143900 0.039538 0.003712 -468787.000000 0 0 1
20.231367 -17.286331 -18.416570 32.361945 -0.707062 2.176184 0.033138 -0.001939 1448400.000000 0 0 1
18.755767 -17.626231 -17.943970 31.375928 -0.754362 2.179619 0.048757 0.000684 1110910.000000 0 0 1
17.972967 -16.451631 -17.774770 30.160009 -0.741234 2.201049 0.047739 -0.007386 763320.000000 0 0 1
16.610467 -16.888731 -17.659170 29.546288 -0.793705 2.211398 0.058993 -0.010217 508257.000000 0 0 1
15.534367 -15.818931 -17.447170 28.212743 -0.794474 2.237520 0.063200 -0.012526 -378540.000000 0 0 1
15.020767 -15.239431 -18.598770 28.350978 -0.792624 2.286328 0.061101 -0.006598 250519.000000 0 0 1
13.970267 -14.351331 -18.214170 27.071850 -0.798852 2.308795 0.072257 -0.016881 671249.000000 0 0 1
13.036167 -14.027431 -19.441670 27.288991 -0.822009 2.363760 0.075080 -0.017639 302700.000000 0 0 1
13.610467 -12.987931 -20.241770 27.634406 -0.761997 2.392760 0.087039 -0.020458 3401.560000 0 0 1
12.914467 -12.643431 -21.400770 28.011297 -0.774794 2.440294 0.093949 -0.019774 -167682.000000 0 0 1
13.250567 -11.226231 -21.864370 27.922329 -0.702882 2.470339 0.087998 -0.019940 -63605.600000 0 0 1
14.500567 -11.041831 -22.494470 28.951505 -0.650805 2.460636 0.084338 -0.016252 -78497.100000 0 0 1
14.593067 -9.662731 -22.821770 28.760375 -0.584866 2.487359 0.081572 -0.024881 934558.000000 0 0 1
16.068367 -9.333531 -23.273170 29.781667 -0.526230 2.467798 0.064113 -0.012283 901739.000000 0 0 1
16.283967 -10.063931 -24.495970 31.088629 -0.553569 2.478252 0.091641 -0.017264 -472071.000000 0 0 1
17.622567 -10.090731 -24.875170 32.111553 -0.520031 2.456956 0.068760 -0.025889 -1276550.000000 0 0 1
22.419067 4.459069 -6.919170 23.882479 0.196334 1.864728 0.122451 -0.002516 -333305.000000 0 1 0
22.729467 5.852869 -6.770770 24.428018 0.252026 1.851646 0.112175 -0.000615 647609.000000 0 1 0
21.827067 6.472669 -5.869470 23.510997 0.288282 1.823113 0.078805 0.000286 -173281.000000 0 1 0
21.775067 7.982869 -6.028870 23.963034 0.351391 1.825120 0.078608 -0.003625 -498040.000000 0 1 0
20.923867 8.241069 -7.119870 23.588471 0.375202 1.877415 0.105283 0.000563 213758.000000 0 1 0
20.768567 9.657269 -7.360670 24.057757 0.435253 1.881741 0.102162 0.004012 234073.000000 0 1 0
20.062167 10.569069 -6.278470 23.529024 0.484870 1.840908 0.100900 -0.002315 -244648.000000 0 1 0
20.917467 10.934669 -5.238870 24.177535 0.481684 1.789212 0.095094 0.001793 158481.000000 0 1 0
20.289567 11.877569 -4.358470 23.911074 0.529617 1.754099 0.106155 -0.011480 -118479.000000 0 1 0
21.125367 12.233169 -3.142270 24.613115 0.524891 1.698812 0.094553 -0.032097 -117519.000000 0 1 0
22.332767 12.921369 -3.482370 26.035383 0.524523 1.704954 0.092525 -0.031849 1007140.000000 0 0 1
23.149667 13.333769 -2.378870 26.820804 0.522571 1.659608 0.091153 -0.034035 572798.000000 0 0 1
24.098067 12.212969 -1.827270 27.077894 0.469075 1.638330 0.069514 -0.033602 -455412.000000 0 0 1
25.306767 11.982569 -2.528370 28.114179 0.442218 1.660850 0.052451 -0.031214 469943.000000 0 0 1
25.925367 10.810669 -1.968070 28.157921 0.395068 1.640747 0.053253 -0.032616 231468.000000 0 0 1
27.401667 10.625669 -2.440870 29.490915 0.369923 1.653658 0.075996 -0.031447 432793.000000 0 0 1
28.259167 11.648569 -1.957970 30.628473 0.390983 1.634766 0.071738 -0.036113 -1535190.000000 0 0 1
29.553167 11.311069 -2.147670 31.716596 0.365536 1.638563 0.078537 -0.033356 -1265780.000000 0 0 1
30.516767 12.482469 -1.680270 33.013761 0.388272 1.621714 0.063582 -0.029376 -342471.000000 0 0 1
30.517167 12.735769 -0.244870 33.068977 0.395357 1.578201 0.101879 -0.039659 300816.000000 0 0 1
31.590367 13.517869 0.227730 34.361838 0.404334 1.564169 0.109144 -0.037993 223716.000000 0 0 1
33.016367 12.850669 0.214130 35.429734 0.371180 1.564753 0.122449 -0.039964 1196900.000000 0 0 1
34.128467 13.744769 0.482630 36.795433 0.382863 1.557679 0.132916 -0.048278 699118.000000 0 0 1
34.702067 14.395769 -0.626670 37.574783 0.393233 1.587475 0.117518 -0.028995 -289046.000000 0 0 1
33.948467 15.517469 -1.479170 37.356100 0.428733 1.610403 0.085864 -0.007202 -886781.000000 0 0 1
32.909667 15.096369 -2.264370 36.277733 0.430083 1.633255 0.082580 -0.005197 -814370.000000 0 0 1
32.402067 16.231869 -2.965070 36.361507 0.464409 1.652431 0.067793 0.014541 98120.300000 0 0 1
30.971967 15.987069 -3.497170 35.029692 0.476507 1.670797 0.073976 -0.007425 -576811.000000 0 0 1
30.959767 15.118469 -4.648970 34.766193 0.454265 1.704919 0.054178 -0.007917 512560.000000 0 0 1
29.796967 15.016269 -5.465470 33.811521 0.466805 1.733154 0.054204 -0.023684 -6860.390000 0 0 1
28.566967 14.328769 -4.866570 32.327523 0.464915 1.721910 0.060503 -0.033189 -717245.000000 0 0 1
27.525267 14.137169 -5.789470 31.480436 0.474474 1.755756 0.064451 -0.035999 -337478.000000 0 0 1
26.499367 13.427069 -5.163070 30.152279 0.468988 1.742878 0.059235 -0.016016 -604429.000000 0 0 1
25.388667 13.051869 -6.162670 29.204695 0.474850 1.783411 0.053333 -0.010908 -552920.000000 0 0 1
25.792567 12.309269 -7.305370 29.498187 0.445275 1.821055 0.049737 0.001921 608274.000000 0 0 1
24.756867 12.078969 -8.265970 28.759872 0.453924 1.862321 0.057555 0.009219 391821.000000 0 0 1
24.202767 13.271469 -9.120970 29.070568 0.501572 1.889939 0.079038 0.001592 -339851.000000 0 0 1
23.602667 14.288669 -8.352470 28.827343 0.544369 1.864753 0.082385 -0.017688 -163859.000000 0 0 1
23.114667 15.367269 -9.118570 29.216248 0.586728 1.888205 0.093897 -0.022915 -1224110.000000 0 0 1
22.114967 16.191369 -8.306870 28.639768 0.631976 1.865072 0.092629 -0.010626 27559.300000 0 0 1
20.799267 15.666869 -8.206570 27.302163 0.645572 1.876100 0.082469 -0.017951 482645.000000 0 0 1
20.691167 14.423169 -7.584470 26.337737 0.608756 1.862902 0.084493 -0.017820 -1651830.000000 0 0 1
19.299467 13.871369 -7.941170 25.058861 0.623195 1.893256 0.092334 -0.025937 -257383.000000 0 0 1
18.280667 14.610069 -7.321670 24.520273 0.674258 1.874018 0.110797 -0.046746 103916.000000 0 1 0
17.003767 14.220869 -7.795470 23.497459 0.696508 1.908963 0.119880 -0.053603 266800.000000 0 1 0
15.763067 14.674169 -7.002370 22.645943 0.749638 1.885159 0.083588 -0.030265 28073.000000 0 1 0
15.554167 14.066069 -5.754370 21.746245 0.735201 1.838600 0.022153 -0.024604 619612.000000 0 1 0
16.194367 14.854869 -4.673370 22.466977 0.742284 1.780337 0.090783 -0.014045 421653.000000 0 1 0
15.872867 14.316469 -3.248470 21.620864 0.733889 1.721614 0.062362 0.008741 276850.000000 0 1 0
16.701667 13.162369 -2.926670 21.465299 0.667435 1.707567 0.048023 -0.008224 1385330.000000 0 1 0
16.134367 12.411369 -1.809070 20.436062 0.655708 1.659436 0.025038 -0.009008 233270.000000 0 1 0
16.279967 13.074869 -0.434670 20.884886 0.676644 1.591611 0.027550 -0.011031 -132014.000000 0 1 0
15.469667 14.226469 -0.248770 21.018204 0.743559 1.582633 0.041329 -0.011773 348241.000000 0 1 0
15.678567 14.877069 0.995230 21.636431 0.759173 1.524782 0.042430 -0.012598 -347175.000000 0 1 0
14.531667 15.830469 1.424130 21.536045 0.828149 1.504620 0.046402 -0.008413 -183814.000000 0 1 0
14.342167 16.927869 0.581330 22.194334 0.867900 1.544601 0.044649 -0.007942 -184515.000000 0 1 0
13.672467 17.924869 1.239830 22.578186 0.919175 1.515856 0.038299 -0.011558 -366318.000000 0 1 0
13.522767 19.171969 0.387430 23.464436 0.956495 1.554284 0.029318 -0.007556 -197979.000000 0 1 0
12.891267 19.007369 -0.841270 22.982006 0.974835 1.607410 0.022392 -0.016559 -64210.900000 0 1 0
12.224267 20.172869 -1.316270 23.624350 1.025995 1.626542 0.029949 -0.017033 134653.000000 0 1 0
10.695767 20.284369 -1.208070 22.963330 1.085555 1.623429 0.021184 -0.017219 -63956.400000 0 1 0
10.214267 20.347069 0.120730 22.767280 1.105548 1.565494 0.004789 -0.021457 676471.000000 0 1 0
8.796867 20.563169 0.196330 22.366657 1.166559 1.562018 0.012898 -0.013167 1041410.000000 0 1 0
8.103967 20.499469 1.587030 22.100253 1.194326 1.498924 0.011923 -0.013405 69758.800000 0 1 0
8.214067 21.696869 2.313930 23.314787 1.208888 1.471385 0.011559 -0.005303 290755.000000 0 1 0
7.144867 21.860569 3.243630 23.226165 1.254903 1.430684 0.006135 -0.005356 133605.000000 0 1 0
6.898867 23.278969 3.847130 24.582620 1.282686 1.413652 0.004607 0.005462 259709.000000 0 1 0
7.659067 23.639769 5.015930 25.350731 1.257478 1.371621 0.009124 -0.003230 520535.000000 0 0 1
7.278267 24.921869 5.423230 26.523276 1.286655 1.364873 0.010685 0.000161 -71224.800000 0 0 1
7.893667 25.209769 6.797730 27.277309 1.267347 1.318934 0.014437 -0.010786 -261076.000000 0 0 1
7.389167 24.334169 7.801130 26.600925 1.275991 1.273156 0.013505 -0.019581 106179.000000 0 0 1
7.973967 24.446069 9.081330 27.270222 1.255492 1.231300 0.017067 -0.023961 -570774.000000 0 0 1
7.610667 23.341769 10.097730 26.546649 1.255612 1.180593 0.021982 -0.024398 150991.000000 0 0 1
6.252367 23.426769 10.487930 26.417840 1.309986 1.162548 0.024609 -0.027350 72959.300000 0 0 1
5.782467 22.291369 11.154530 25.588388 1.316987 1.119734 0.023259 -0.026542 725303.000000 0 0 1
4.458067 22.589669 11.976230 25.953759 1.375950 1.091173 0.026438 -0.020380 1460820.000000 0 0 1
3.437067 22.992969 11.053730 25.742475 1.422412 1.126972 0.017488 -0.021752 -223871.000000 0 0 1
2.187367 23.292269 11.589230 26.107942 1.477161 1.110854 0.017630 -0.022528 -76964.300000 0 0 1
1.098867 23.793569 10.628930 26.082860 1.524646 1.151075 0.031488 -0.018058 -204749.000000 0 0 1
1.255267 25.137369 10.270730 27.183652 1.520901 1.183348 0.034949 -0.015394 -240366.000000 0 0 1
0.615467 25.373169 9.038630 26.942037 1.546544 1.228677 0.021836 -0.012290 -287054.000000 0 0 1
-0.780733 25.958669 9.240030 27.565199 -1.540729 1.228972 0.031009 -0.018224 56830.800000 0 0 1
-1.762533 25.108169 9.822730 27.018747 -1.500714 1.198718 0.031675 -0.016044 32675.600000 0 0 1
-3.070433 25.626369 9.840530 27.621991 -1.451549 1.206537 0.049632 -0.024200 -593197.000000 0 0 1
-4.131433 24.657469 10.368030 27.065764 -1.404785 1.177681 0.066917 -0.028794 -83028.900000 0 0 1
-4.529533 24.828469 11.721630 27.827435 -1.390348 1.136000 0.040864 -0.013083 -27344.600000 0 0 1
-5.488033 25.859469 11.843630 28.967261 -1.361674 1.149589 0.056885 -0.017457 -598778.000000 0 0 1
-6.062933 25.934469 13.266130 29.754765 -1.341142 1.108674 0.022490 0.001940 -193584.000000 0 0 1
-7.087433 24.997569 13.479030 29.271051 -1.294522 1.092249 0.025410 -0.013337 -184397.000000 0 0 1
-7.522033 25.095269 14.820930 30.100058 -1.279579 1.055964 -0.003302 0.014477 -421326.000000 0 0 1
-8.587633 24.098469 15.205530 29.760575 -1.228470 1.034532 -0.002154 0.001138 -295327.000000 0 0 1
-9.894733 24.501069 14.874630 30.322644 -1.186976 1.058081 -0.008197 0.008761 63386.500000 0 0 1
-10.883533 23.498169 15.166930 30.010848 -1.137048 1.040972 -0.000202 0.001532 -88421.200000 0 0 1
-12.303933 23.986469 14.999030 30.849771 -1.096840 1.063065 0.006128 -0.009362 -809722.000000 0 0 1
-12.782533 24.817469 16.010230 32.181165 -1.095172 1.050078 0.002281 -0.008823 -205971.000000 0 0 1
-13.635433 25.815769 15.509330 33.059315 -1.084858 1.082484 0.004884 -0.013890 -244457.000000 0 0 1
-14.245133 26.801769 16.570630 34.580983 -1.082268 1.071072 0.026107 -0.013241 -220508.000000 0 0 1
-15.416733 26.335269 17.179030 35.019154 -1.041179 1.058063 0.024454 -0.017339 -400279.000000 0 0 1
-15.959933 27.274269 18.031130 36.383057 -1.041357 1.052281 0.043548 -0.013892 563758.000000 0 0 1
-17.276933 26.815569 18.768730 37.011247 -0.998447 1.038969 0.042036 -0.026139 1204090.000000 0 0 1
-18.483833 26.986669 18.042930 37.356120 -0.970260 1.066721 0.042972 -0.026996 35273.400000 0 0 1
-19.631833 26.480169 18.665430 37.881480 -0.932836 1.055569 0.046936 -0.020902 673766.000000 0 0 1
-20.935433 26.647969 17.791530 38.274602 -0.904879 1.087344 0.044620 -0.028420 301322.000000 0 0 1
-21.408133 27.934369 17.696330 39.392858 -0.916899 1.104897 0.039860 -0.025372 232223.000000 0 0 1
-22.258533 28.138469 16.564930 39.517245 -0.901545 1.138252 0.040552 -0.026520 -281893.000000 0 0 1
-23.110033 29.392569 16.593630 40.906544 -0.904493 1.153109 0.039895 -0.026858 -74901.800000 0 0 1
-24.278833 29.226669 17.381530 41.782502 -0.877609 1.141754 0.029091 -0.028890 34016.400000 0 0 1
-25.112503 30.356069 17.380930 43.060718 -0.879650 1.155307 0.028591 -0.020793 -1089600.000000 0 0 1
-26.504223 30.153069 17.907130 43.958466 -0.849711 1.151230 0.020828 -0.014612 -1457160.000000 0 0 1
-27.387923 29.575069 16.966430 43.733772 -0.823775 1.172392 0.049187 -0.016828 695933.000000 0 0 1
-28.766473 29.462669 17.349030 44.682745 -0.797354 1.172041 0.081713 -0.014083 871596.000000 0 0 1
-29.053643 28.481769 18.477530 44.684947 -0.775459 1.144494 0.068042 -0.019241 -1072510.000000 0 0 1
-29.067753 27.155869 18.018430 43.669661 -0.751406 1.145482 0.086974 -0.023850 190718.000000 0 0 1
-29.491643 26.179669 19.010230 43.778087 -0.725977 1.121601 0.084299 -0.025814 33840.300000 0 0 1
-29.419303 24.722769 18.508630 42.653020 -0.698870 1.121941 0.097361 -0.026693 877416.000000 0 0 1
-30.511003 24.491769 17.567730 42.888147 -0.676397 1.148762 0.117302 -0.030899 687794.000000 0 0 1
-30.218403 23.517669 16.607230 41.737666 -0.661341 1.161575 0.127514 -0.024319 -380632.000000 0 0 1
-30.587613 22.088369 17.011730 41.387161 -0.625427 1.147203 0.114716 -0.012172 -614988.000000 0 0 1
-31.926373 21.721669 16.933530 42.164780 -0.597428 1.157529 0.131508 -0.014108 -737262.000000 0 0 1
-32.128013 20.326569 16.773530 41.553940 -0.564099 1.155286 0.125186 -0.024627 976553.000000 0 0 1
-33.613083 19.940569 16.393030 42.381565 -0.535433 1.173641 0.158404 -0.033289 1056970.000000 0 0 1
-33.967853 20.291869 15.060330 42.336610 -0.538494 1.207103 0.140651 -0.035057 526122.000000 0 0 1
-35.207146 19.701269 14.653230 42.923191 -0.510170 1.222409 0.141471 -0.043857 435058.000000 0 0 1
-35.516264 19.702869 13.127030 42.684037 -0.506488 1.258190 0.142032 -0.030123 105523.000000 0 0 1
-35.968965 20.912169 12.576930 43.465670 -0.526627 1.277245 0.139224 -0.037481 -241469.000000 0 0 1
-36.396833 20.878769 11.230230 43.436972 -0.520813 1.309285 0.119067 -0.029433 99374.700000 0 0 1
-35.264101 20.820669 10.167230 42.195138 -0.533346 1.327444 0.104119 -0.026391 107152.000000 0 0 1
-34.607434 19.570469 10.190230 41.042887 -0.514665 1.319890 0.111979 -0.027021 -455297.000000 0 0 1
-33.433193 19.657869 9.439530 39.916349 -0.531530 1.332052 0.120505 -0.023907 -80881.800000 0 0 1
-32.242313 18.792469 9.953730 38.623832 -0.527715 1.310145 0.111732 -0.022859 227888.000000 0 0 1
-31.848913 19.296969 11.213530 38.890481 -0.544740 1.278308 0.113009 -0.026405 -35714.100000 0 0 1
-31.251643 18.301269 12.007730 38.154780 -0.529771 1.250644 0.094169 -0.027960 -11934.300000 0 0 1
-30.770843 18.775469 13.383830 38.451137 -0.547864 1.215281 0.086638 -0.008619 283101.000000 0 0 1
-29.644203 19.648969 13.442730 38.020623 -0.585339 1.209418 0.076007 -0.013640 59502.100000 0 0 1
-29.866433 20.996469 13.195830 38.819911 -0.612745 1.223960 0.099235 -0.014090 624263.000000 0 0 1
-28.542163 21.847669 13.328530 38.335694 -0.653318 1.215701 0.102843 -0.021262 672308.000000 0 0 1
-28.059373 21.832969 14.625530 38.443635 -0.661243 1.180523 0.109518 -0.006335 518902.000000 0 0 1
-26.900693 22.662269 14.876330 38.190718 -0.700090 1.170678 0.068633 -0.020919 297804.000000 0 0 1
-26.409263 22.452769 16.263130 38.289234 -0.704602 1.132117 0.065601 -0.017980 -835590.000000 0 0 1
-25.983623 21.180969 16.415730 37.326375 -0.683920 1.115433 0.066776 -0.014048 24728.800000 0 0 1
-25.531593 20.954169 17.757130 37.500068 -0.687245 1.077510 0.052078 -0.005457 53475.700000 0 0 1
-24.591333 19.767169 18.033430 36.341151 -0.677070 1.051550 0.047990 -0.010217 376644.000000 0 0 1
-23.859233 19.787769 19.266830 36.496980 -0.692386 1.014668 0.047053 -0.009254 594777.000000 0 0 1
-22.762433 18.901469 19.314430 35.333286 -0.692993 0.992455 0.039290 -0.012510 153114.000000 0 0 1
-22.123233 18.541269 20.702130 35.521744 -0.697539 0.948624 0.041925 -0.021028 -49890.200000 0 0 1
-22.809433 17.686669 21.605830 36.054131 -0.659566 0.928219 0.064130 -0.002116 296735.000000 0 0 1
-23.920633 18.207069 22.332930 37.449350 -0.650596 0.931850 0.028204 -0.002977 398598.000000 0 0 1
-24.536233 17.154969 23.324630 37.952049 -0.610168 0.908941 0.056880 -0.006491 -20467.600000 0 0 1
-23.616733 16.727669 24.313530 37.798316 -0.616273 0.872069 0.058809 -0.009706 138640.000000 0 0 1
-23.995533 15.508969 24.902430 37.900458 -0.573789 0.853900 0.079146 -0.016750 -61377.600000 0 0 1
21.347167 24.987569 33.487222 46.919870 0.863805 0.776014 0.090716 -0.021685 91199.500000 0 0 1
21.982667 23.822969 32.988318 46.249332 0.825553 0.776642 0.098076 -0.038532 231674.000000 0 0 1
21.357867 22.616169 33.426218 45.661381 0.814005 0.749476 0.097729 -0.042373 -122700.000000 0 0 1
20.265867 22.058369 32.504901 44.202326 0.827725 0.744589 0.101567 -0.046147 -314962.000000 0 0 1
20.697967 21.335969 31.350812 43.203042 0.800575 0.758800 0.104460 -0.039875 164395.000000 0 0 1
19.766267 20.314669 30.992882 41.999403 0.799080 0.740789 0.089935 -0.033885 -74546.100000 0 0 1
20.035767 19.709169 29.611422 40.825478 0.777181 0.759301 0.080090 -0.022499 -873154.000000 0 0 1
21.237567 19.039969 29.553672 41.072792 0.730891 0.767651 0.076194 -0.026390 -1023540.000000 0 0 1
21.477167 18.358769 28.345072 40.021947 0.707276 0.783797 0.060675 -0.021687 127053.000000 0 0 1
22.705667 17.429669 28.448762 40.356818 0.654692 0.788471 0.059830 -0.018686 407779.000000 0 0 1
23.969367 18.054369 28.575022 41.436973 0.645563 0.809857 0.065412 -0.021527 419239.000000 0 0 1
24.976267 17.144569 29.018572 41.950301 0.601563 0.806905 0.050970 -0.013892 1313830.000000 0 0 1
26.424967 17.696669 29.318692 43.255482 0.590096 0.826026 0.047890 -0.020594 673928.000000 0 0 1
27.137067 17.830369 28.145552 42.971090 0.581314 0.856629 0.034262 -0.009714 -774798.000000 0 0 1
28.489567 18.091669 28.388052 44.100402 0.565778 0.871455 0.031321 -0.013741 8067.540000 0 0 1
29.363467 17.942169 27.094232 43.797626 0.548496 0.903807 0.021963 -0.004720 30740.500000 0 0 1
29.246767 19.012869 26.193112 43.622720 0.576435 0.926737 0.023653 -0.010738 397810.000000 0 0 1
30.294067 18.896269 25.237642 43.723427 0.557708 0.955487 0.023944 -0.009627 -165246.000000 0 0 1
30.665467 20.172469 24.412442 44.082499 0.581856 0.983887 0.035393 -0.016324 -605098.000000 0 0 1
29.665767 20.654669 23.577222 43.157369 0.608202 0.992846 0.024162 -0.012875 -299209.000000 0 0 1
30.119467 21.472769 22.473932 43.282095 0.619345 1.024831 0.020263 -0.018576 -86665.800000 0 0 1
30.796467 20.677469 21.328432 42.788809 0.591289 1.048977 0.033944 -0.022107 260021.000000 0 0 1
29.885567 19.758369 20.677432 41.365402 0.584163 1.047345 0.041714 -0.025957 603476.000000 0 0 1
30.404167 19.128769 19.510032 40.877433 0.561578 1.073238 0.055064 -0.031032 269561.000000 0 0 1
31.385767 17.895469 19.726032 41.163461 0.518203 1.071039 0.083232 -0.040439 107640.000000 0 0 1
30.785067 16.693969 20.195232 40.425937 0.496893 1.047704 0.080889 -0.039552 371958.000000 0 0 1
31.719067 15.667969 20.515932 40.896063 0.458804 1.045279 0.082823 -0.039834 -565952.000000 0 0 1
31.066267 14.308969 20.925432 40.096549 0.431630 1.021747 0.081086 -0.033431 -77196.700000 0 0 1
30.442467 14.113669 22.144232 40.203314 0.434121 0.987467 0.067204 -0.027866 165979.000000 0 0 1
29.350667 14.971969 22.435032 39.861663 0.471700 0.973000 0.061766 -0.022448 -779120.000000 0 0 1
28.449367 14.271769 23.449542 39.533921 0.464971 0.935831 0.028193 -0.008793 -465979.000000 0 0 1
28.014767 13.052169 22.915732 38.474889 0.436000 0.932781 0.044937 -0.013097 -114626.000000 0 0 1
27.235667 12.337669 23.851222 38.247620 0.425343 0.897457 0.034798 -0.004191 -152286.000000 0 0 1
26.806967 10.999869 23.295212 37.178993 0.389385 0.893653 0.056103 -0.008849 -1085770.000000 0 0 1
25.553667 11.095969 22.739032 35.960729 0.409656 0.886240 0.028223 -0.006044 -828916.000000 0 0 1
25.274767 9.864069 21.971332 34.912078 0.372093 0.890101 0.039756 0.005619 53388.200000 0 0 1
23.919667 9.933669 21.238832 33.495018 0.393620 0.883966 0.037270 0.008472 59829.300000 0 0 1
22.776767 9.657269 22.018332 33.118740 0.401020 0.843530 0.018401 0.008675 417836.000000 0 0 1
21.630367 9.480069 21.194332 31.732384 0.413062 0.839401 0.010076 0.020953 -269358.000000 0 0 1
20.305867 9.333569 21.925232 31.307500 0.430849 0.794952 0.007524 0.004647 -729403.000000 0 0 1
20.259467 8.309069 22.954732 31.723909 0.389211 0.761824 0.020118 0.006922 -425705.000000 0 0 1
18.936567 8.311669 23.384452 31.217143 0.413603 0.724109 0.003092 0.005000 -528828.000000 0 0 1
18.742667 7.463169 24.668562 31.867294 0.378946 0.685500 0.012781 0.007814 -225669.000000 0 0 1
18.854467 6.075169 24.364372 31.400975 0.311710 0.682638 0.024971 0.003873 160730.000000 0 0 1
18.849367 5.374869 25.612802 32.252186 0.277777 0.653203 0.045983 -0.009719 -252288.000000 0 0 1
19.184767 3.858369 25.629402 32.246063 0.198469 0.652107 0.048240 -0.013670 927081.000000 0 0 1
20.616267 3.698469 25.585232 33.065288 0.177508 0.686011 0.064652 -0.008443 837387.000000 0 0 1
20.893467 2.280869 25.526792 33.065941 0.108736 0.688820 0.058799 -0.009636 -765624.000000 0 0 1
22.373767 2.088869 25.285422 33.827524 0.093093 0.726535 0.065794 -0.007885 -1011980.000000 0 0 1
23.176267 2.534269 26.350402 35.183882 0.108915 0.724345 0.071885 -0.014913 -175201.000000 0 0 1
24.543967 2.329569 26.030762 35.852947 0.094631 0.758247 0.078376 -0.018001 287999.000000 0 0 1
25.312067 2.721469 27.341132 37.358328 0.107105 0.749746 0.060740 -0.020893 -1019180.000000 0 0 1
25.349167 1.710369 28.372142 38.085221 0.067370 0.730315 0.058614 -0.024111 -99330.200000 0 0 1
26.233767 1.961769 29.424462 39.469711 0.074641 0.729519 0.050474 -0.007944 1509280.000000 0 0 1
27.788067 2.057069 29.074822 40.271001 0.073892 0.764138 0.064379 -0.013688 431607.000000 0 0 1
28.139767 3.278469 28.427162 40.133507 0.115984 0.783688 0.063613 0.001266 264583.000000 0 0 1
29.486767 3.478769 28.009672 40.818048 0.117434 0.814533 0.061937 0.005722 330079.000000 0 0 1
30.131367 2.539569 26.984322 40.527797 0.084085 0.842201 0.069347 0.001279 -501015.000000 0 0 1
29.676167 2.829369 25.690332 39.353188 0.095054 0.859502 0.053662 0.016122 83625.500000 0 0 1
30.046767 1.824169 24.764462 38.979666 0.060637 0.882377 0.055566 0.021296 110505.000000 0 0 1
29.549867 2.224769 23.289402 37.690058 0.075147 0.904703 0.059993 0.009816 559368.000000 0 0 1
30.282867 3.265869 22.594132 37.923776 0.107430 0.932563 0.063476 0.013403 -358092.000000 0 0 1
31.508367 2.846269 22.079032 38.579296 0.090089 0.961485 0.048873 0.010262 -632783.000000 0 0 1
32.227867 3.970469 21.372432 38.873910 0.122582 0.988685 0.061027 0.003387 -466491.000000 0 0 1
31.723367 4.370169 20.081232 37.798496 0.136897 1.010697 0.055097 -0.006969 63072.900000 0 0 1
32.140167 5.675569 19.600232 38.070612 0.174786 1.029977 0.089570 -0.003340 -423244.000000 0 0 1
33.616467 5.836569 19.188332 39.144917 0.171909 1.058492 0.079163 -0.010222 -348099.000000 0 0 1
34.595667 5.836769 20.211132 40.489726 0.167140 1.048159 0.090926 -0.005728 381470.000000 0 0 1
34.680567 7.040869 20.922332 41.110334 0.200298 1.036854 0.098886 -0.009121 -426478.000000 0 0 1
35.532967 6.912069 22.211132 42.470023 0.192126 1.020448 0.094431 -0.006621 308872.000000 0 0 1
34.842267 6.199269 23.245392 42.341029 0.176081 0.989624 0.081760 0.005049 763180.000000 0 0 1
35.627267 6.071569 24.462392 43.641434 0.168798 0.975769 0.087871 0.005344 583518.000000 0 0 1
34.904567 5.134269 25.489532 43.524772 0.146047 0.945136 0.074922 0.006929 275559.000000 0 0 1
34.944767 3.767469 25.115092 43.198361 0.107397 0.950360 0.058506 0.003330 207385.000000 0 0 1
34.183267 2.972769 26.023942 43.064819 0.086747 0.921913 0.050075 0.010223 178798.000000 0 0 1
34.372967 1.455969 25.778402 42.990077 0.042333 0.927750 0.027701 0.013363 -55629.800000 0 0 1
33.719767 0.927069 24.640812 41.773817 0.027486 0.939908 0.029765 0.006600 9703.380000 0 0 1
33.838467 -0.483431 24.618412 41.849036 -0.014285 0.941882 0.028827 0.002534 -804503.000000 0 0 1
32.959567 -1.154031 23.587792 40.546872 -0.034999 0.949928 0.046052 0.008012 -202194.000000 0 0 1
31.599767 -1.235631 23.970142 39.681731 -0.039083 0.922211 0.055123 0.005797 -229790.000000 0 0 1
30.923667 -2.006331 23.014532 38.600094 -0.064789 0.931999 0.061931 -0.005239 -732016.000000 0 0 1
29.429267 -2.142831 23.266102 37.576389 -0.072685 0.903113 0.083396 0.006147 -369727.000000 0 0 1
28.711267 -0.962631 22.943032 36.764742 -0.033515 0.896881 0.060337 0.012186 -165994.000000 0 0 1
27.327167 -1.234731 22.842232 35.637988 -0.045153 0.875059 0.070976 0.012551 488770.000000 0 0 1
26.375867 -0.015831 23.081932 35.049425 -0.000600 0.851901 0.083164 -0.002271 253707.000000 0 0 1
26.199067 0.992169 22.074232 34.273127 0.037852 0.870992 0.069879 -0.003169 90022.600000 0 0 1
24.939667 1.633969 22.164832 33.405638 0.065423 0.845302 0.074768 -0.000339 79401.900000 0 0 1
24.720567 2.773269 21.045632 32.583985 0.111718 0.868609 0.060529 0.000410 -20869.800000 0 0 1
24.465867 2.235169 19.743932 31.518209 0.091106 0.893832 0.073549 -0.003445 491903.000000 0 0 1
24.004767 3.303669 18.840832 30.693974 0.136766 0.909895 0.068469 -0.009269 110771.000000 0 0 1
23.853767 2.932369 17.350432 29.641837 0.122317 0.945502 0.066976 -0.007856 -612368.000000 0 0 1
24.997667 2.996569 16.555432 30.132128 0.119305 0.989117 0.057992 -0.013969 -372022.000000 0 0 1
24.834467 3.400169 15.203232 29.316381 0.136067 1.025593 0.054575 -0.012354 -486697.000000 0 0 1
24.244667 2.396569 14.187532 28.192792 0.098529 1.043461 0.049541 -0.010573 281182.000000 0 0 1
22.853167 2.178069 14.378532 27.087883 0.095020 1.011240 0.074061 -0.006614 430185.000000 0 0 1
22.434667 1.113969 13.563232 26.239598 0.049613 1.027571 0.071749 -0.018914 -540660.000000 0 0 1
20.983767 0.637169 13.715432 25.076633 0.030356 0.992091 0.094516 -0.024940 -105019.000000 0 0 1
19.916167 1.317569 13.044632 23.844331 0.066060 0.991931 0.099766 -0.027307 955705.000000 0 1 0
19.859567 1.216469 11.595132 23.028880 0.061177 1.043147 0.103144 -0.023857 -1076050.000000 0 1 0
19.584367 -0.250631 11.059432 22.492694 -0.012797 1.056767 0.102423 -0.020783 -99103.200000 0 1 0
20.612067 -1.214431 11.190432 23.485270 -0.058850 1.074141 0.095758 -0.024627 276460.000000 0 1 0
21.807967 -0.928131 10.519332 24.230254 -0.042534 1.121712 0.084743 -0.018962 -397635.000000 0 1 0
23.044767 -1.836931 10.781332 25.508287 -0.079543 1.134418 0.087577 -0.021988 100450.000000 0 0 1
23.444567 -1.628031 12.094732 26.430678 -0.069330 1.095500 0.068682 -0.026319 -407855.000000 0 0 1
24.582367 -2.399131 12.297032 27.591042 -0.097287 1.108852 0.034583 -0.021110 -423390.000000 0 0 1
25.135867 -2.410131 13.793432 28.772892 -0.095592 1.070837 0.033975 -0.012204 131909.000000 0 0 1
25.800567 -1.201031 14.133132 29.442438 -0.046517 1.070112 0.036704 -0.009051 26069.700000 0 0 1
25.925767 -1.207231 15.517932 30.239197 -0.046531 1.031919 0.042547 -0.017307 -1060780.000000 0 0 1
27.002367 -0.261431 15.912332 31.343237 -0.009681 1.038307 0.061207 -0.018906 -607220.000000 0 0 1
28.271067 -0.807931 15.576432 32.288252 -0.028570 1.067383 0.057973 -0.012016 -237875.000000 0 0 1
29.298167 0.094769 15.883332 33.326743 0.003235 1.074020 0.044207 -0.010713 520618.000000 0 0 1
30.673967 -0.661431 16.058732 34.629650 -0.021560 1.088598 0.044585 -0.008655 390227.000000 0 0 1
31.162067 -1.265431 14.932932 34.578436 -0.040586 1.124246 0.066534 -0.008816 -942023.000000 0 0 1
32.400567 -1.815131 15.196032 35.833097 -0.055963 1.132853 0.065397 -0.010233 -947310.000000 0 0 1
32.854667 -2.540231 13.951232 35.784337 -0.077164 1.170306 0.070158 -0.021349 -330661.000000 0 0 1
33.052867 -1.679931 12.850932 35.502967 -0.050782 1.200418 0.085592 -0.021690 126319.000000 0 0 1
33.530467 -2.281631 11.685332 35.581527 -0.067942 1.236177 0.084253 -0.021349 -78425.700000 0 0 1
33.204167 -1.470631 10.394432 34.824182 -0.044262 1.267693 0.103008 -0.017137 218431.000000 0 0 1
33.865367 -0.181931 10.312432 35.401164 -0.005372 1.275209 0.108540 -0.022455 404324.000000 0 0 1
32.962567 0.780669 9.872132 34.418008 0.023679 1.279880 0.092212 -0.021564 -497628.000000 0 0 1
33.603267 2.130469 9.445332 34.970455 0.063316 1.297305 0.094490 -0.025649 -25085.100000 0 0 1
34.153167 2.039069 8.114432 35.163058 0.059633 1.337932 0.103263 -0.026816 341268.000000 0 0 1
34.612367 3.295269 7.707732 35.612974 0.094919 1.352640 0.100492 -0.028968 -36564.200000 0 0 1
35.178167 3.378969 6.259732 35.890181 0.095759 1.395486 0.096726 -0.034310 -86748.100000 0 0 1
35.487567 4.704869 5.845932 36.272278 0.131809 1.408922 0.089364 -0.026328 281981.000000 0 0 1
35.906967 4.731569 4.470232 36.492205 0.131018 1.447990 0.108415 -0.026636 -153244.000000 0 0 1
36.122567 6.138069 3.845232 36.841574 0.168316 1.466234 0.122809 -0.046396 -283850.000000 0 0 1
34.966667 6.911969 3.922932 35.858507 0.195157 1.461177 0.115198 -0.044616 -390238.000000 0 0 1
35.252267 8.279469 3.680232 36.398023 0.230683 1.469512 0.121155 -0.055196 -80826.000000 0 0 1
34.030467 9.253569 3.837032 35.474273 0.265501 1.462420 0.129182 -0.061869 1219980.000000 0 0 1
32.939267 9.144969 2.900132 34.307966 0.270811 1.486163 0.122413 -0.059703 963402.000000 0 0 1
32.134067 7.948569 2.924432 33.231466 0.242489 1.482680 0.139510 -0.054064 -678209.000000 0 0 1
30.907267 8.100769 2.035932 32.016037 0.256333 1.507162 0.145671 -0.056653 -362036.000000 0 0 1
31.245767 8.299569 0.686232 32.336538 0.259627 1.549573 0.146341 -0.054352 -377269.000000 0 0 1
30.059267 8.108669 0.019332 31.133751 0.263484 1.570175 0.119021 -0.045738 -985568.000000 0 0 1
30.379167 7.769969 -1.448068 31.390494 0.250398 1.616943 0.106563 -0.039399 -572597.000000 0 0 1
29.349767 7.369569 -2.290768 30.347438 0.246009 1.646353 0.108785 -0.036479 128368.000000 0 0 1
29.878167 7.010069 -3.578468 30.897433 0.230454 1.686874 0.116718 -0.034507 -60817.800000 0 0 1
28.834067 6.311369 -4.465068 29.852531 0.215487 1.720931 0.118252 -0.034258 -394603.000000 0 0 1
28.734167 4.889969 -4.214668 29.450426 0.168565 1.714400 0.119709 -0.038621 1128290.000000 0 0 1
27.743767 4.266869 -5.061268 28.522609 0.152600 1.749189 0.106627 -0.025208 187607.000000 0 0 1
27.770767 2.749669 -4.949368 28.342061 0.098691 1.746326 0.125252 -0.024666 -377380.000000 0 0 1
27.480567 2.235269 -3.673668 27.814993 0.081161 1.703258 0.129230 -0.034635 535593.000000 0 0 1
27.440267 0.781969 -3.594468 27.685735 0.028489 1.700995 0.119672 -0.041494 -78695.700000 0 0 1
27.431667 0.346769 -2.134468 27.516769 0.012641 1.648444 0.128080 -0.037682 2132470.000000 0 0 1
28.837467 0.381969 -1.682968 28.889060 0.013245 1.629086 0.123108 -0.029714 2245630.000000 0 0 1
28.795067 0.089369 -0.289468 28.796661 0.003104 1.580849 0.125362 -0.027485 -91369.700000 0 0 1
30.050267 0.608169 0.436932 30.059596 0.020236 1.556260 0.137438 -0.027151 -173360.000000 0 0 1
31.232467 0.119769 -0.153168 31.233072 0.003835 1.575700 0.108897 -0.020279 -210086.000000 0 0 1
32.393967 0.743369 0.320332 32.404079 0.022944 1.560911 0.077649 -0.028342 -259883.000000 0 0 1
-2.651533 -20.996531 -8.434370 22.782088 1.445177 1.950041 0.036073 -0.012577 96337.000000 0 1 0
-3.200133 -21.536531 -7.242970 22.946103 1.423285 1.891939 0.030936 -0.016346 -92871.000000 0 1 0
-2.602833 -22.755631 -6.878270 23.914516 1.456909 1.862536 0.034994 -0.012058 -168896.000000 0 1 0
-3.247933 -23.369131 -5.619770 24.253807 1.432697 1.804628 0.030781 -0.007940 -829599.000000 0 1 0
-3.032533 -22.560931 -4.482370 23.200937 1.437182 1.765217 0.038625 -0.015800 -9719.500000 0 1 0
-3.550633 -23.142031 -3.313670 23.646162 1.418556 1.711395 0.035166 -0.023302 -376461.000000 0 1 0
-2.920733 -22.562131 -2.049470 22.842521 1.442059 1.660639 0.043935 -0.030101 1042250.000000 0 1 0
-1.496533 -22.700031 -1.895970 22.828178 1.504965 1.653946 0.048511 -0.030303 520268.000000 0 1 0
-1.110833 -22.600331 -0.511270 22.633389 1.521685 1.593387 0.047387 -0.028751 850999.000000 0 1 0
0.443067 -22.575531 -0.339570 22.582431 -1.551173 1.585834 0.047409 -0.030728 413711.000000 0 1 0
1.088467 -21.407631 -0.758070 21.448685 -1.519995 1.606147 0.032707 -0.029475 -1133500.000000 0 1 0
2.277767 -21.276631 -0.066870 21.398311 -1.464148 1.573921 0.029291 -0.025776 -422546.000000 0 1 0
3.187567 -20.088231 -0.517970 20.346152 -1.413430 1.596257 0.039058 -0.024758 412294.000000 0 1 0
3.915567 -20.427331 -1.663370 20.865625 -1.381411 1.650599 0.038229 -0.024663 -293858.000000 0 1 0
4.654667 -19.353731 -2.258570 20.033321 -1.334774 1.683777 0.044700 -0.025006 -527039.000000 0 1 0
5.511867 -19.916731 -3.372570 20.938746 -1.300808 1.732569 0.040163 -0.016249 -1258700.000000 0 1 0
6.474067 -20.776731 -2.861670 21.949379 -1.268730 1.701544 0.043123 -0.025167 -347715.000000 0 1 0
7.219767 -21.422931 -3.909170 22.942289 -1.245739 1.742023 0.046158 -0.018417 1423780.000000 0 1 0
8.586167 -20.845431 -4.457270 22.980894 -1.180076 1.765989 0.057520 -0.014865 703628.000000 0 1 0
8.413867 -19.722331 -5.260570 22.077977 -1.167557 1.811383 0.050609 -0.014976 -844672.000000 0 1 0
9.532567 -19.177631 -5.853470 22.201677 -1.109498 1.837600 0.054002 -0.015627 -977413.000000 0 1 0
9.084967 -18.103731 -6.863170 21.386556 -1.105687 1.897487 0.032361 -0.000802 384837.000000 0 1 0
10.201167 -17.624331 -7.634170 21.747676 -1.046102 1.929471 0.037599 -0.000667 1005680.000000 0 1 0
9.747867 -16.578031 -8.458970 21.009669 -1.039248 1.985177 0.027548 0.003414 21106.300000 0 1 0
10.419667 -16.663131 -9.871070 21.992440 -1.011972 2.036262 0.028387 0.006278 -726812.000000 0 1 0
9.839467 -17.373531 -10.935570 22.764916 -1.055488 2.071872 0.029161 0.012008 -411088.000000 0 1 0
8.992567 -16.471931 -11.597570 22.061151 -1.071081 2.124335 0.009475 -0.003819 -280291.000000 0 1 0
8.528667 -16.926031 -12.948670 22.954231 -1.104051 2.170149 0.012891 -0.005662 68405.400000 0 1 0
7.509967 -17.923131 -12.852970 23.298864 -1.174010 2.155145 0.013077 0.007044 286817.000000 0 1 0
7.163667 -18.425031 -14.105870 24.285293 -1.199982 2.190557 0.014478 0.010119 177475.000000 0 1 0
6.006967 -19.469131 -13.935670 24.684684 -1.271525 2.170681 0.017546 0.019327 318301.000000 0 1 0
6.274267 -20.770131 -13.392170 25.497352 -1.277431 2.123791 0.028055 0.012644 -537959.000000 0 0 1
5.068467 -21.444831 -13.199070 25.686292 -1.338706 2.110471 0.051257 -0.002883 -95763.700000 0 0 1
5.303167 -22.890731 -12.756170 26.736286 -1.343139 2.068161 0.028774 -0.000303 -231872.000000 0 0 1
5.705367 -23.677831 -13.819470 28.003011 -1.334346 2.086905 0.033326 -0.004770 -415289.000000 0 0 1
5.254867 -25.009031 -13.912570 29.096819 -1.363690 2.069341 0.035021 -0.007382 910262.000000 0 0 1
3.753867 -25.252431 -14.344170 29.283647 -1.423223 2.082697 0.051725 -0.013943 890077.000000 0 0 1
2.826467 -24.847331 -13.383970 28.363875 -1.457530 2.062203 0.052851 -0.012256 -152848.000000 0 0 1
1.441367 -25.068341 -13.602470 28.557424 -1.513362 2.067261 0.054733 -0.017688 677905.000000 0 0 1
0.875767 -26.466561 -13.149570 29.566146 -1.537719 2.031692 0.050608 -0.012312 -371924.000000 0 0 1
1.154567 -27.547861 -13.996870 30.921352 -1.528910 2.040543 0.044824 -0.015156 194698.000000 0 0 1
0.537567 -28.780211 -13.572070 31.824371 -1.552120 2.011380 0.031230 -0.011040 2044950.000000 0 0 1
-0.995433 -29.060811 -13.952870 32.252197 1.536556 2.018191 0.015738 -0.012835 2034520.000000 0 0 1
-1.989733 -28.229631 -13.385970 31.305835 1.500429 2.012618 0.019697 -0.012908 -60596.500000 0 0 1
-3.303833 -28.627701 -13.721470 31.917696 1.455898 2.015180 0.023574 -0.007624 162088.000000 0 0 1
-4.388733 -27.870601 -12.907970 31.026554 1.414611 1.999871 0.013311 -0.013462 115014.000000 0 0 1
-4.635033 -28.260381 -11.548570 30.878830 1.408232 1.954111 0.005430 -0.022778 -115567.000000 0 0 1
-5.230533 -29.527841 -11.329470 32.056337 1.395476 1.932025 0.007184 -0.020882 -739927.000000 0 0 1
-5.618133 -29.708471 -9.846770 31.798043 1.383895 1.885638 0.006952 -0.022956 100357.000000 0 0 1
-6.899533 -29.182721 -9.522070 31.462749 1.338634 1.878264 0.018022 -0.019683 -26000.500000 0 0 1
-6.863733 -27.786871 -9.391470 30.123425 1.328630 1.887848 0.025620 -0.014980 -1761060.000000 0 0 1
-8.192933 -27.335821 -8.792570 29.861020 1.279602 1.869676 0.023358 -0.015524 1177370.000000 0 0 1
-9.392733 -27.382441 -9.627670 30.507598 1.240353 1.891867 0.038168 -0.012310 1093530.000000 0 0 1
-9.803233 -28.675291 -9.943370 31.894299 1.241382 1.887841 0.051551 -0.025122 -1140390.000000 0 0 1
-11.077633 -28.798341 -10.809870 32.694215 1.203582 1.907773 0.063188 -0.022582 -196316.000000 0 0 1
-10.876233 -28.308241 -12.137870 32.664611 1.203978 1.951518 0.069481 -0.025877 122204.000000 0 0 1
-11.738833 -28.951681 -13.057870 33.860124 1.185589 1.966699 0.073759 -0.030705 -165907.000000 0 0 1
-11.911633 -28.148471 -14.353870 33.767692 1.170475 2.009843 0.073961 -0.029155 -226628.000000 0 0 1
-12.923933 -27.166821 -14.454370 33.376534 1.126757 2.018692 0.058918 -0.035818 -56727.000000 0 0 1
-12.818133 -26.100691 -13.536470 32.074704 1.114291 2.006479 0.066696 -0.028362 66753.200000 0 0 1
-14.000933 -25.123601 -13.723170 31.867646 1.062379 2.015987 0.079926 -0.024761 61162.300000 0 0 1
-13.740733 -24.339531 -14.875670 31.662376 1.056856 2.059885 0.068955 -0.021441 -285794.000000 0 0 1
-14.866533 -23.582031 -15.197670 31.750514 1.008311 2.069923 0.078408 -0.019016 -852630.000000 0 0 1
-14.795433 -22.515431 -16.320270 31.499217 0.989429 2.115444 0.063179 -0.014688 -76098.200000 0 0 1
-14.057833 -21.355331 -15.977970 30.149102 0.988621 2.129356 0.055626 -0.011274 288977.000000 0 0 1
-13.686133 -20.612131 -17.132170 30.094542 0.984653 2.176424 0.051325 0.000054 -135033.000000 0 0 1
-13.443133 -19.090431 -16.959870 28.858267 0.957269 2.199004 0.043766 -0.000780 -211706.000000 0 0 1
-12.135933 -18.599431 -17.126970 28.045549 0.992673 2.227721 0.048729 0.002623 -323635.000000 0 0 1
-12.172933 -17.252331 -17.548770 27.455101 0.956334 2.264229 0.057237 0.001312 450307.000000 0 0 1
-10.788933 -16.562831 -17.728670 26.552480 0.993442 2.301890 0.068332 -0.004242 111513.000000 0 0 1
-10.144833 -16.094431 -16.626470 25.266338 1.008372 2.289020 0.089524 -0.006824 -1150420.000000 0 0 1
-8.952133 -15.460131 -16.870370 24.571645 1.045926 2.327569 0.078032 -0.004424 -1116170.000000 0 1 0
-8.308333 -15.033131 -15.527070 23.154121 1.065907 2.305809 0.074916 -0.009209 -289618.000000 0 1 0
-7.933533 -16.054031 -14.600870 23.105373 1.111818 2.254831 0.064502 -0.003837 827323.000000 0 1 0
-6.717733 -16.787431 -14.913370 23.438310 1.190148 2.260465 0.056205 0.005602 743060.000000 0 1 0
-6.265533 -17.433331 -13.558570 22.956758 1.225772 2.202615 0.046804 -0.007162 -425482.000000 0 1 0
-5.659333 -16.619631 -12.559270 21.586464 1.242591 2.191752 0.039561 -0.012898 330522.000000 0 1 0
-5.305333 -17.370331 -11.381970 21.434183 1.274370 2.130600 0.030479 -0.018899 302765.000000 0 1 0
-4.210033 -18.501631 -11.507670 22.191467 1.347057 2.115966 0.039512 -0.016254 -94352.300000 0 1 0
-2.970133 -17.974931 -11.903570 21.762693 1.407038 2.149539 0.038915 -0.005332 -949228.000000 0 1 0
-1.981733 -18.927131 -11.627470 22.301606 1.466473 2.119256 0.033956 -0.005348 34783.100000 0 1 0
-0.533733 -18.528931 -11.956470 22.058181 1.541999 2.143662 0.030598 0.003771 -415005.000000 0 1 0
-0.373933 -18.313931 -13.357470 22.670728 1.550381 2.200858 0.035871 -0.000398 -573623.000000 0 1 0
0.839067 -17.659831 -13.632170 22.325092 -1.523319 2.227641 0.033627 -0.003364 984108.000000 0 1 0
2.119567 -18.588131 -13.810070 23.253585 -1.457259 2.206682 0.048717 -0.007063 457072.000000 0 1 0
2.104067 -19.534531 -14.908670 24.663606 -1.463500 2.219910 0.061083 -0.009925 -309561.000000 0 1 0
1.318067 -20.671731 -14.824870 25.472231 -1.507121 2.191984 0.055426 -0.016911 -892771.000000 0 0 1
1.529967 -21.609331 -16.070670 26.973513 -1.500113 2.209051 0.082585 -0.018827 -599398.000000 0 0 1
2.734367 -22.286131 -16.124570 27.643266 -1.448713 2.193593 0.058630 -0.018421 -490986.000000 0 0 1
3.772467 -21.476731 -16.684170 27.456202 -1.396916 2.223913 0.056127 -0.014369 122945.000000 0 0 1
5.124367 -22.203031 -16.901970 28.370941 -1.343972 2.208995 0.064971 -0.016914 345031.000000 0 0 1
5.030467 -23.097331 -17.976470 29.697572 -1.356351 2.220961 0.077085 -0.024956 -98403.300000 0 0 1
6.336867 -23.567231 -18.153970 30.416063 -1.308124 2.210372 0.068096 -0.023412 79857.100000 0 0 1
6.863467 -23.523831 -19.633870 31.400106 -1.286910 2.246287 0.082990 -0.018646 79820.400000 0 0 1
6.919067 -22.191931 -20.119770 30.743462 -1.268565 2.284239 0.097873 -0.035075 -102465.000000 0 0 1
7.242267 -22.085131 -21.480070 31.648015 -1.253921 2.316812 0.093457 -0.030813 -8049.520000 0 0 1
7.324967 -20.693431 -22.052870 31.115949 -1.230584 2.358496 0.095088 -0.042334 475235.000000 0 0 1
6.103867 -19.962831 -21.948670 30.290525 -1.274062 2.381258 0.113127 -0.044538 155869.000000 0 0 1
6.174167 -18.778431 -22.705670 30.104771 -1.253140 2.425264 0.120797 -0.044535 -775870.000000 0 0 1
4.873167 -18.117731 -23.049970 29.720381 -1.308043 2.458400 0.121630 -0.039820 -1615840.000000 0 0 1
3.998767 -18.796631 -23.946870 30.704333 -1.361183 2.465332 0.128867 -0.035581 369198.000000 0 0 1
3.010567 -17.932731 -24.512770 30.520849 -1.404466 2.503357 0.101305 -0.022662 -191638.000000 0 0 1
1.800867 -17.695931 -23.637370 29.582332 -1.469378 2.496488 0.084674 -0.016797 -1389360.000000 0 0 1
2.066767 -16.937231 -22.437270 28.188161 -1.449372 2.491425 0.088199 -0.017420 -979489.000000 0 0 1
0.973467 -16.238631 -21.932070 27.306711 -1.510920 2.503402 0.049193 -0.004276 -214147.000000 0 0 1
1.295367 -15.308431 -20.746970 25.815941 -1.486380 2.504199 0.033497 -0.000507 -38461.000000 0 0 1
2.115567 -14.198531 -20.901370 25.356285 -1.422885 2.539774 0.035481 -0.000976 -449633.000000 0 0 1
2.183167 -13.602231 -19.631370 23.982861 -1.411653 2.529693 0.031254 -0.002263 -232944.000000 0 1 0
3.290167 -12.549431 -19.504170 23.424903 -1.314391 2.554628 0.035045 -0.008537 -72120.700000 0 1 0
4.558567 -13.216731 -19.397570 23.910839 -1.238664 2.517076 0.045688 -0.012703 1131470.000000 0 1 0
5.776467 -12.448931 -19.392870 23.757670 -1.136350 2.525735 0.055611 -0.013182 1145160.000000 0 1 0
5.899467 -11.402931 -18.275270 22.334190 -1.093354 2.529181 0.051934 -0.012352 -476564.000000 0 1 0
5.055467 -10.202631 -18.289270 21.544114 -1.110750 2.584738 0.027764 -0.000831 506939.000000 0 1 0
5.311367 -9.147531 -19.264170 21.977174 -1.044738 2.639451 0.035308 -0.005047 -499614.000000 0 1 0
4.810367 -9.315031 -20.693470 23.197611 -1.094108 2.672661 0.043604 -0.013276 -740017.000000 0 1 0
3.420967 -9.220831 -20.668470 22.889133 -1.215533 2.697456 0.035078 -0.011139 -879339.000000 0 1 0
2.843467 -9.321831 -21.979670 24.043455 -1.274728 2.724238 0.040229 -0.016136 -647476.000000 0 1 0
1.346467 -9.154231 -21.899070 23.773561 -1.424757 2.741827 0.042328 -0.021375 -1012050.000000 0 1 0
1.093567 -7.799131 -21.581370 22.973417 -1.431488 2.791690 0.032753 -0.021332 59813.900000 0 1 0
-0.311033 -7.562831 -21.548070 22.838837 1.529693 2.803786 0.028035 -0.019517 468205.000000 0 1 0
-0.718733 -6.667031 -22.708370 23.677752 1.463407 2.854458 0.040600 -0.020793 -186760.000000 0 1 0
-0.637133 -7.329431 -23.915170 25.021228 1.484086 2.843149 0.046666 -0.023236 -145929.000000 0 0 1
-1.212633 -6.589831 -25.005970 25.888123 1.388816 2.879788 0.053328 -0.019526 489627.000000 0 0 1
-0.495533 -5.277631 -25.520810 26.065508 1.477178 2.936798 0.063976 -0.022917 338262.000000 0 0 1
-1.393333 -4.679031 -26.452650 26.899394 1.281375 2.959087 0.069970 -0.028001 322472.000000 0 0 1
-0.949133 -3.453831 -27.073260 27.309178 1.302611 3.010054 0.056464 -0.027684 -442712.000000 0 0 1
-1.282933 -2.189531 -26.196270 26.318901 1.040779 3.045021 0.063486 -0.026652 1762820.000000 0 0 1
-2.662133 -1.712431 -26.042430 26.234091 0.571619 3.020640 0.054312 -0.024857 1693040.000000 0 0 1
-3.404133 -1.380031 -27.195360 27.442307 0.385152 3.007337 0.068583 -0.022478 -134388.000000 0 0 1
-4.933933 -1.372831 -27.041340 27.522036 0.271378 2.954419 0.056298 -0.022148 -93246.400000 0 0 1
-5.474233 -0.280731 -26.363540 26.927352 0.051237 2.936596 0.057617 -0.025199 239516.000000 0 0 1
-6.872933 -0.527831 -26.203840 27.095333 0.076648 2.884361 0.065549 -0.030729 88633.800000 0 0 1
-7.530733 0.586169 -25.338270 26.440187 -0.077680 2.851874 0.063389 -0.030342 -448404.000000 0 0 1
-7.875033 1.776569 -26.019620 27.243219 -0.221881 2.840747 0.075128 -0.031879 523676.000000 0 0 1
-8.837133 1.801369 -27.075390 28.537985 -0.201086 2.820051 0.079877 -0.037725 854896.000000 0 0 1
-10.327333 1.386069 -26.799070 28.753524 -0.133416 2.770764 0.072634 -0.035170 249276.000000 0 0 1
-11.214733 1.811269 -27.805130 30.036248 -0.160125 2.753729 0.078012 -0.041436 757667.000000 0 0 1
-12.569233 1.592669 -27.366360 30.156921 -0.126040 2.708007 0.044467 -0.028986 868291.000000 0 0 1
-13.609633 2.153269 -28.390630 31.557671 -0.156916 2.689747 0.034652 -0.019852 891044.000000 0 0 1
-14.951833 1.781969 -27.948980 31.747098 -0.118621 2.647424 0.029006 -0.017439 834213.000000 0 0 1
-15.836833 2.226569 -28.937750 33.062914 -0.139679 2.636713 0.023002 -0.014239 196576.000000 0 0 1
-16.765533 3.424869 -28.515290 33.255595 -0.201508 2.601106 0.034140 -0.002567 202786.000000 0 0 1
-16.012333 4.629169 -28.438310 32.963033 -0.281427 2.611447 0.050357 -0.008966 410909.000000 0 0 1
-15.610333 5.274869 -29.656310 33.926442 -0.325863 2.634449 0.041271 -0.011744 -777568.000000 0 0 1
-16.753233 5.872469 -30.438000 35.236750 -0.337145 2.613588 0.042411 -0.006337 -382128.000000 0 0 1
-17.447833 6.884969 -29.710150 35.135775 -0.375845 2.578449 0.049188 -0.002051 -50794.300000 0 0 1
-18.269833 7.701169 -30.458940 36.343388 -0.398923 2.564564 0.050667 -0.004854 -604983.000000 0 0 1
-18.993433 8.717369 -29.572860 36.211836 -0.430286 2.526401 0.047789 -0.003854 -431889.000000 0 0 1
-18.179833 9.777769 -29.202390 35.761581 -0.493456 2.526267 0.052154 -0.000320 68710.800000 0 0 1
-18.894833 10.681669 -28.366500 35.717938 -0.514531 2.488455 0.070434 -0.002029 163739.000000 0 0 1
-8.989333 24.908469 31.011332 40.779194 -1.224449 0.706761 0.044728 -0.017918 -957880.000000 0 0 1
-9.691033 26.092569 30.695462 41.436092 -1.215177 0.736550 0.042797 -0.018390 34030.500000 0 0 1
-9.362433 27.236669 31.554152 42.721843 -1.239706 0.739812 0.042430 -0.021019 305949.000000 0 0 1
-7.903133 27.723769 31.353172 42.592116 -1.293095 0.743467 0.045698 -0.023313 118632.000000 0 0 1
-7.828033 28.548169 30.166622 42.264656 -1.303170 0.775951 0.051815 -0.017178 705087.000000 0 0 1
-6.465933 28.810669 29.818842 41.964584 -1.350026 0.780486 0.053351 -0.016234 522207.000000 0 0 1
-6.298633 30.131069 28.947672 42.255436 -1.364723 0.816105 0.064411 -0.018600 -154078.000000 0 0 1
-6.583633 31.307869 29.686642 43.644285 -1.363529 0.822767 0.062860 -0.020771 371071.000000 0 0 1
-6.442533 32.473769 28.930732 43.966342 -1.374947 0.852610 0.063139 -0.015795 -177083.000000 0 0 1
-6.972333 33.683669 29.702452 45.447098 -1.366684 0.858516 0.057794 -0.016076 -343433.000000 0 0 1
-6.173133 34.042269 30.840122 46.347565 -1.391408 0.842754 0.063919 -0.025355 495366.000000 0 0 1
-6.888933 -33.358924 31.840972 46.627489 1.367150 0.819099 0.049424 -0.027152 364478.000000 0 0 1
-8.024333 34.031569 32.572711 47.786182 -1.339235 0.820802 0.002786 -0.016315 131600.000000 0 0 1
-7.570933 32.966469 33.377570 47.520199 -1.345055 0.792051 0.016604 -0.013923 9898.900000 0 0 1
-7.665233 31.713969 32.738846 46.220815 -1.333646 0.783690 0.036953 -0.012012 -121768.000000 0 0 1
-7.470633 30.551469 33.759209 46.139862 -1.330976 0.750026 0.036730 -0.005767 781456.000000 0 0 1
-6.153533 30.386169 -33.935670 45.965367 -1.370988 2.401325 0.049807 -0.021036 756257.000000 0 0 1
-6.228133 29.954369 -32.554540 44.674959 -1.365796 2.387215 0.032992 -0.011193 -295913.000000 0 0 1
-4.853733 29.753669 -31.860820 43.862871 -1.409090 2.383827 0.043846 -0.019872 845599.000000 0 0 1
-4.144933 28.521769 -32.159020 43.184191 -1.426481 2.410873 0.060786 -0.016124 607605.000000 0 0 1
-3.283933 28.543769 -33.297920 43.980478 -1.456251 2.429669 0.049024 -0.017501 49921.700000 0 0 1
-2.496733 27.227969 -33.547970 43.278890 -1.479355 2.457761 0.066441 -0.029734 -682796.000000 0 0 1
-1.384133 27.125369 -32.695840 42.505523 -1.519813 2.448406 0.088247 -0.024267 138567.000000 0 0 1
-0.636233 25.901369 -32.758860 41.766358 -1.546238 2.472421 0.088875 -0.022205 756742.000000 0 0 1
0.148967 25.585669 -34.101649 42.632982 1.564974 2.497906 0.086981 -0.019125 272472.000000 0 0 1
-0.747733 25.050569 33.147749 41.555546 -1.540956 0.647369 0.079948 -0.018027 542481.000000 0 0 1
-0.257533 25.110369 31.810872 40.528121 -1.560541 0.668248 0.059731 -0.012709 48453.800000 0 0 1
-0.043933 26.497069 31.137952 40.886045 -1.569138 0.705050 0.044582 -0.018115 269299.000000 0 0 1
-1.290733 27.183469 31.009192 41.257448 -1.523350 0.720308 0.073296 -0.027984 407622.000000 0 0 1
-1.132033 28.391369 30.273512 41.519115 -1.530945 0.753723 0.064963 -0.023828 -135783.000000 0 0 1
-2.389133 29.267869 30.333812 42.219146 -1.489347 0.769175 0.076799 -0.028367 -147905.000000 0 0 1
-2.649033 29.653769 31.705622 43.492642 -1.481701 0.753954 0.077884 -0.027059 130746.000000 0 0 1
-3.488333 30.815869 31.781592 44.405584 -1.458077 0.773154 0.070909 -0.023719 163186.000000 0 0 1
-3.237033 31.628769 33.025166 45.842328 -1.468807 0.766406 0.075025 -0.028946 1079870.000000 0 0 1
-1.901733 32.167569 32.894543 46.048019 -1.511745 0.775097 0.118549 -0.042675 632584.000000 0 0 1
-1.524633 32.857669 34.063291 47.352495 -1.524428 0.767922 0.092824 -0.036389 -471037.000000 0 0 1
-0.089433 33.400869 34.026987 47.680834 -1.568119 0.776114 0.104611 -0.043156 -123148.000000 0 0 1
0.064767 -33.529924 33.357488 47.296744 -1.568865 0.787977 0.103998 -0.040102 77331.200000 0 0 1
1.445567 -33.374624 33.135588 47.052337 -1.527510 0.789461 0.090029 -0.038660 -144678.000000 0 0 1
1.749767 -31.892524 32.747871 45.745140 -1.515987 0.772918 0.083132 -0.039954 -128295.000000 0 0 1
1.483967 -30.942824 33.755662 45.815993 -1.522875 0.742522 0.067309 -0.028044 101530.000000 0 0 1
1.951167 -29.699824 33.404552 44.740929 -1.505194 0.727827 0.053275 -0.030074 -456959.000000 0 0 1
1.447267 -28.616624 -33.887760 44.377765 -1.520265 2.439698 0.055117 -0.024911 233477.000000 0 0 1
0.039967 -28.453824 -33.966400 44.309571 -1.569392 2.444279 0.033818 -0.024145 383248.000000 0 0 1
-0.440033 -27.971124 -32.675900 43.015019 1.555066 2.433555 0.042014 -0.025599 760380.000000 0 0 1
-1.919933 -27.478724 -32.542700 42.635593 1.501040 2.439164 0.056494 -0.021331 577982.000000 0 0 1
-2.174833 -27.134024 -31.209210 41.412558 1.490816 2.424344 0.073388 -0.028258 1290270.000000 0 0 1
-3.478033 -26.486624 -31.118970 41.012538 1.440231 2.432215 0.089846 -0.036047 1100650.000000 0 0 1
-3.880833 -25.986224 -29.744130 39.687000 1.422550 2.418054 0.086261 -0.038149 -182451.000000 0 0 1
-4.089633 -27.027124 -28.761840 39.679138 1.420620 2.381628 0.070467 -0.036973 11717.700000 0 0 1
-4.355133 -26.620424 -27.417450 38.462069 1.408632 2.364341 0.075365 -0.030807 -217186.000000 0 0 1
-3.140933 -26.181924 -26.586310 37.445834 1.451401 2.360286 0.086812 -0.034195 -194806.000000 0 0 1
-2.516033 -25.023624 -27.090590 36.965014 1.470587 2.393329 0.101182 -0.034176 -303010.000000 0 0 1
-1.418533 -24.615624 -26.338200 36.078276 1.513233 2.389161 0.093430 -0.032203 -1012690.000000 0 0 1
-0.536133 -23.511124 -27.059100 35.850457 1.547997 2.426110 0.077463 -0.040714 288190.000000 0 0 1
0.058367 -23.883824 -28.291880 37.025274 -1.568353 2.440478 0.064928 -0.043817 -423062.000000 0 0 1
0.916667 -24.967624 -28.189270 37.667725 -1.534099 2.416393 0.070517 -0.035670 -1093310.000000 0 0 1
1.792067 -25.184924 -29.452730 38.793752 -1.499760 2.432900 0.040531 -0.030749 356158.000000 0 0 1
2.664667 -24.075024 -29.700860 38.325557 -1.460563 2.457452 0.032283 -0.032087 349617.000000 0 0 1
3.624167 -24.474424 -30.677430 39.411125 -1.423785 2.462902 0.027576 -0.025098 -172259.000000 0 0 1
4.603167 -23.342224 -31.073630 39.135905 -1.376091 2.488145 0.037538 -0.030723 -325373.000000 0 0 1
5.731067 -23.095424 -30.235990 38.476731 -1.327562 2.474826 0.040534 -0.034442 1481990.000000 0 0 1
6.871167 -23.991224 -30.273530 39.233639 -1.291860 2.452183 0.036652 -0.020249 855216.000000 0 0 1
7.598467 -24.077424 -31.668280 40.501099 -1.265104 2.468523 0.029704 -0.008033 -729513.000000 0 0 1
6.879667 -24.908024 -32.562210 41.569665 -1.301312 2.470780 0.013702 -0.009082 -34279.700000 0 0 1
7.225367 -24.757124 -33.965170 42.646851 -1.286833 2.492163 0.031495 -0.004255 -198013.000000 0 0 1
6.794667 -23.534824 33.494309 41.496075 -1.289732 0.631457 0.018803 0.003853 -509022.000000 0 0 1
5.413367 -23.360024 33.691047 41.353137 -1.343079 0.618558 0.013796 -0.005639 -267687.000000 0 0 1
4.977067 -22.237424 32.955010 40.066282 -1.350610 0.604982 0.021454 -0.013409 181426.000000 0 0 1
3.526467 -21.789824 33.336898 39.982261 -1.410347 0.584855 0.023577 -0.023579 723887.000000 0 0 1
2.468367 -22.648424 32.970496 40.076147 -1.462239 0.604659 0.032615 -0.019783 39394.500000 0 0 1
2.127367 -23.622524 33.966196 41.427670 -1.480982 0.609575 0.029031 -0.014445 96109.200000 0 0 1
0.819067 -24.391924 33.611893 41.537889 -1.537230 0.628030 0.044589 -0.015282 489890.000000 0 0 1
0.865767 -25.178824 32.424479 41.061778 -1.536425 0.660556 0.031575 -0.020285 1179880.000000 0 0 1
-0.514633 -25.507624 32.117932 41.017866 1.550623 0.671285 0.036800 -0.026934 1297810.000000 0 0 1
-0.617633 -26.568524 31.000332 40.832445 1.547554 0.708700 0.044903 -0.034896 1436750.000000 0 0 1
-2.014133 -26.822424 30.675872 40.798386 1.495846 0.719873 0.049087 -0.031452 1344640.000000 0 0 1
-2.133033 -27.972424 29.904122 41.003206 1.494689 0.753481 0.058893 -0.035897 -155931.000000 0 0 1
-3.460333 -28.013424 29.141272 40.570181 1.447895 0.769451 0.069871 -0.029236 -269016.000000 0 0 1
-4.590633 -28.295924 29.933112 41.445439 1.409961 0.763776 0.073335 -0.027749 -348546.000000 0 0 1
-5.722833 -28.410324 29.111942 41.078005 1.372021 0.783144 0.071221 -0.021217 671719.000000 0 0 1
-6.937033 -29.070124 29.944872 42.307091 1.336546 0.784420 0.055160 -0.014014 925530.000000 0 0 1
-7.984333 -29.513624 29.077952 42.193967 1.306590 0.810482 0.066077 -0.007333 732663.000000 0 0 1
-9.247033 -29.754024 29.699752 43.045149 1.269477 0.809352 0.058095 -0.007249 367695.000000 0 0 1
-9.426833 -30.861424 30.757692 44.579461 1.274341 0.809373 0.024829 -0.007054 -742516.000000 0 0 1
-9.443233 -32.220224 30.334522 45.249317 1.285696 0.836067 0.035034 -0.004975 535080.000000 0 0 1
-10.673833 -32.514024 29.656452 45.283525 1.253597 0.856738 0.034504 -0.002484 335254.000000 0 0 1
-10.731533 -33.931924 29.046192 45.937159 1.264484 0.886274 0.045282 -0.004821 -520813.000000 0 0 1
-10.879533 33.254069 29.988242 46.081363 -1.254608 0.862202 0.029265 0.001168 213485.000000 0 0 1
-10.541533 31.972569 29.525852 44.778846 -1.252314 0.850815 0.039472 -0.009211 -280940.000000 0 0 1
-10.968633 30.804369 30.426562 44.665376 -1.228721 0.821380 0.033979 0.005398 395827.000000 0 0 1
-12.393633 30.720469 30.484072 45.018086 -1.187334 0.826911 0.018278 0.020487 251941.000000 0 0 1
-12.830933 29.436669 30.880592 44.550660 -1.159744 0.804937 0.023119 0.015671 70293.700000 0 0 1
-12.648133 29.082269 32.405637 45.341802 -1.160563 0.774606 0.025563 0.004335 -502060.000000 0 0 1
-13.639333 29.780269 33.111742 46.575566 -1.141310 0.779983 0.018491 0.011419 75335.500000 0 0 1
-13.671233 29.285269 -33.863120 46.810688 -1.134035 2.379519 0.020697 0.009678 594639.000000 0 0 1
-14.951133 29.722369 -33.057210 46.901330 -1.104731 2.352972 0.015559 0.010198 652456.000000 0 0 1
-14.927633 29.309469 -31.712450 45.689810 -1.099728 2.337940 0.018885 0.007898 -495654.000000 0 0 1
-16.104733 29.672069 -31.051420 45.869214 -1.073531 2.314415 0.023285 0.010252 -274189.000000 0 0 1
-16.192433 29.231069 -29.557250 44.612569 -1.064929 2.294990 0.045864 -0.006933 -408035.000000 0 0 1
-16.355233 27.871769 -29.389780 43.681671 -1.040137 2.308807 0.036681 -0.010349 85653.900000 0 0 1
-16.334333 27.599769 -28.001570 42.575176 -1.036407 2.288554 0.037205 -0.015814 -337659.000000 0 0 1
-16.809333 26.228469 -27.653930 41.656046 -1.000858 2.296770 0.022419 -0.018554 -216644.000000 0 0 1
-18.208933 26.203269 -27.779090 42.306671 -0.963494 2.287115 0.023670 -0.013029 -352405.000000 0 0 1
-18.782433 24.964569 -27.372150 41.536058 -0.925784 2.290281 0.019415 -0.010144 615805.000000 0 0 1
-20.229533 24.733269 -27.926610 42.436590 -0.885231 2.289060 0.033247 -0.017515 297652.000000 0 0 1
-21.207533 25.177569 -27.010320 42.582002 -0.870779 2.257916 0.043220 -0.019069 -919828.000000 0 0 1
-22.408833 24.625169 -27.446790 43.149520 -0.832485 2.260211 0.070356 -0.023402 -96048.600000 0 0 1
-23.568733 24.879169 -26.401960 43.261088 -0.812440 2.227227 0.093453 -0.030092 235085.000000 0 0 1
-24.132133 26.168269 -26.437600 44.340556 -0.825856 2.209605 0.064299 -0.016689 -423770.000000 0 0 1
-25.301023 26.312069 -25.682650 44.632559 -0.804985 2.183919 0.061993 -0.011077 -156429.000000 0 0 1
-25.216453 26.179169 -24.094470 43.609195 -0.804127 2.156168 0.042277 0.003278 -790850.000000 0 0 1
-24.921933 24.882169 -23.591470 42.388472 -0.784600 2.161028 0.050178 -0.002703 958041.000000 0 0 1
-26.096203 24.009069 -23.545670 42.565782 -0.743767 2.156948 0.055553 0.016543 1504610.000000 0 0 1
-26.970853 24.118569 -22.227270 42.463912 -0.729627 2.121678 0.024885 0.013447 286541.000000 0 0 1
-26.527693 23.442469 -21.026670 41.175098 -0.723735 2.106754 0.023816 0.013333 115673.000000 0 0 1
-25.381873 24.022469 -20.433870 40.482855 -0.757889 2.099893 0.027638 0.017466 119870.000000 0 0 1
-24.694333 23.153969 -19.361070 38.997018 -0.753217 2.090330 0.022068 0.014535 125125.000000 0 0 1
-25.306573 23.284669 -18.113870 38.867863 -0.743812 2.055603 0.020299 0.009448 -129710.000000 0 0 1
-24.304333 23.012069 -17.200670 37.631357 -0.758094 2.045510 0.008874 0.002585 -336621.000000 0 0 1
-24.689133 23.210769 -15.733970 37.361088 -0.754544 2.005490 0.002160 0.004020 -314961.000000 0 0 1
-25.122573 24.478569 -15.376970 38.298763 -0.772415 1.983951 0.006966 -0.005887 -211259.000000 0 0 1
-25.589883 24.484569 -14.095970 38.118665 -0.763328 1.949581 -0.010690 -0.005573 -123700.000000 0 0 1
-25.824683 25.959769 -13.583870 39.055671 -0.788007 1.926028 -0.004238 -0.007117 1948880.000000 0 0 1
-24.540333 26.626869 -13.264270 38.563700 -0.826154 1.921925 0.022617 -0.010551 1633600.000000 0 0 1
-24.714633 27.524069 -12.143270 38.933873 -0.839127 1.887983 0.036039 -0.013693 -350953.000000 0 0 1
-23.447433 28.188369 -11.623270 38.463836 -0.876956 1.877782 0.052666 -0.018214 -282034.000000 0 0 1
-22.524533 27.260269 -11.098670 37.062884 -0.880237 1.874918 0.046505 -0.025358 180717.000000 0 0 1
-21.352033 27.842769 -10.550170 36.639258 -0.916580 1.862879 0.053315 -0.028929 -201003.000000 0 0 1
-20.446133 26.835569 -9.884370 35.155269 -0.919720 1.855802 0.081917 -0.024254 -226370.000000 0 0 1
-19.944533 25.913969 -10.859870 34.456567 -0.914841 1.891438 0.068152 -0.025318 -235548.000000 0 0 1
-19.138433 24.924269 -10.318070 33.075087 -0.915960 1.888051 0.067533 -0.018265 -429478.000000 0 0 1
-18.651733 23.919769 -11.357570 32.388839 -0.908518 1.929075 0.063515 -0.022964 -164482.000000 0 0 1
-18.072533 22.794969 -10.728470 31.005276 -0.900443 1.924123 0.043906 -0.016775 302106.000000 0 0 1
-17.497833 21.854769 -11.636970 30.318710 -0.895664 1.964727 0.058009 -0.015431 200303.000000 0 0 1
-17.019633 20.500769 -11.020670 28.834088 -0.877913 1.962983 0.051802 -0.015544 471535.000000 0 0 1
-18.119833 19.687669 -10.558770 28.764914 -0.826843 1.946655 0.042443 -0.012507 498089.000000 0 0 1
-17.729633 18.413869 -10.239970 27.536657 -0.804327 1.951816 0.071872 -0.023259 -1145720.000000 0 0 1
-18.950333 17.489969 -9.999270 27.658625 -0.745344 1.940699 0.044116 -0.004524 65966.900000 0 0 1
-19.501433 16.973269 -11.210070 28.179131 -0.716196 1.979930 0.021766 -0.003835 509184.000000 0 0 1
-20.233933 17.938569 -12.002970 29.585057 -0.725339 1.988552 0.021633 -0.002025 -318292.000000 0 0 1
-21.025833 17.336669 -13.240170 30.297654 -0.689527 2.023060 0.036108 -0.009818 148845.000000 0 0 1
-20.232933 17.160069 -14.381470 30.177247 -0.703405 2.067542 0.046872 -0.018144 143231.000000 0 0 1
-21.055833 16.740869 -15.463470 31.027790 -0.671728 2.092520 0.059983 -0.015296 270203.000000 0 0 1
-20.272833 16.421269 -16.754870 31.005992 -0.680817 2.141679 0.091138 -0.024331 -40669.100000 0 0 1
-19.697733 17.524069 -17.485270 31.635872 -0.727067 2.156402 0.060631 -0.026386 536584.000000 0 0 1
-18.863333 17.252469 -18.588870 31.607264 -0.740825 2.199529 0.066930 -0.023257 -571726.000000 0 0 1
-18.014433 18.416269 -19.087370 32.062540 -0.796428 2.208456 0.047760 -0.010203 -1147130.000000 0 0 1
-17.088333 18.740869 -18.144370 31.184122 -0.831488 2.191793 0.048796 -0.012120 -1082930.000000 0 0 1
-16.390633 19.823169 -18.608070 31.746987 -0.879901 2.197078 0.066929 -0.015994 -479385.000000 0 0 1
33.474173 30.708369 1.880130 45.464921 0.742332 1.529431 0.056195 -0.016445 64974.600000 0 0 1
34.607753 30.362469 1.099230 46.051975 0.720149 1.546925 0.060738 -0.018563 116901.000000 0 0 1
34.682093 31.035669 -0.114570 46.541094 0.729969 1.573258 0.052607 -0.020059 561290.000000 0 0 1
36.145383 30.970469 -0.685170 47.603867 0.708446 1.585190 0.028032 -0.009918 1161040.000000 0 0 1
-35.960225 31.746269 0.044230 47.968379 -0.723240 1.569874 0.006089 0.002113 -264107.000000 0 0 1
-34.782659 31.813069 -0.686970 47.142090 -0.740836 1.585369 0.021855 -0.007589 -866025.000000 0 0 1
-33.865813 32.929069 -0.191470 47.236147 -0.771375 1.574850 0.008227 -0.000853 -283390.000000 0 0 1
-33.312083 32.781869 1.094830 46.749807 -0.777376 1.547375 0.003110 0.007776 327630.000000 0 0 1
-32.570153 33.949169 1.474230 47.069463 -0.806126 1.539471 0.006695 0.006346 88620.900000 0 0 1
-31.956173 33.825169 2.907730 46.623963 -0.813803 1.508390 0.026545 0.005611 -72420.900000 0 0 1
-31.718953 -33.178024 3.647230 46.045364 0.807877 1.491504 0.029101 0.007246 -11596.300000 0 0 1
-31.357463 -33.433824 4.987330 46.108400 0.817434 1.462419 0.043181 -0.005447 -557730.000000 0 0 1
-31.236933 -32.179124 5.819430 45.222868 0.800254 1.441755 0.053223 -0.008573 -95712.900000 0 0 1
-32.407023 -31.756924 6.488730 45.834714 0.775267 1.428751 0.033027 -0.002870 67439.900000 0 0 1
-32.853463 -32.583724 7.551330 46.883597 0.781276 1.409026 0.028205 -0.012538 -444237.000000 0 0 1
-34.003993 -31.945324 8.392230 47.404692 0.754192 1.392825 0.040217 -0.006006 1861670.000000 0 0 1
-35.284988 -31.555224 7.823030 47.978770 0.729655 1.407013 0.031558 0.000377 1587560.000000 0 0 1
-36.042373 -32.620524 7.185230 49.140398 0.735604 1.424052 0.010136 0.004377 -179496.000000 0 0 1
35.509753 -32.360024 7.203430 48.579863 -0.739023 1.421967 0.016265 0.011910 27656.000000 0 0 1
34.846853 -32.678224 8.397830 48.504567 -0.753293 1.396785 0.016078 0.013213 -32519.200000 0 0 1
33.455973 -32.467424 8.303530 47.353821 -0.770404 1.394534 0.004692 0.025037 104018.000000 0 0 1
32.718713 -32.522124 9.674430 47.135945 -0.782385 1.364082 0.006354 0.009738 -201120.000000 0 0 1
31.348923 -32.258524 9.539230 45.982216 -0.799697 1.361824 0.019626 -0.000989 340882.000000 0 0 1
30.559313 -32.141024 10.762130 45.637051 -0.810619 1.332734 0.031831 0.004922 438779.000000 0 0 1
30.807403 -30.834324 11.681330 45.125437 -0.785835 1.308951 0.038877 -0.003284 -237086.000000 0 0 1
30.235843 -29.607424 11.198830 43.774645 -0.774897 1.312091 0.035889 -0.010196 630653.000000 0 0 1
30.901273 -29.036624 10.023130 43.571520 -0.754299 1.338679 0.034575 -0.010588 25493.000000 0 0 1
30.135763 -27.829024 9.495430 42.104417 -0.745624 1.343319 0.037710 -0.017569 -227592.000000 0 0 1
30.591243 -27.304524 8.276630 41.831373 -0.728689 1.371625 0.042729 -0.019005 64199.500000 0 0 1
29.782733 -26.226924 7.786130 40.441149 -0.721998 1.377057 0.037588 -0.025621 254755.000000 0 0 1
29.872073 -25.984724 6.256230 40.083501 -0.715915 1.414076 0.036641 -0.019030 465571.000000 0 0 1
31.146773 -25.435224 5.951030 40.650791 -0.684796 1.423874 0.061332 -0.018444 -11881.500000 0 0 1
31.183483 -24.896824 4.658930 40.174209 -0.673763 1.454567 0.051519 -0.014841 10908.500000 0 0 1
32.554283 -24.333324 4.226330 40.862622 -0.641879 1.467183 0.059548 -0.023439 106447.000000 0 0 1
33.480063 -25.334724 3.831030 42.159692 -0.647782 1.479801 0.056285 -0.009234 -876691.000000 0 0 1
34.743343 -24.738524 3.791730 42.819057 -0.618758 1.482128 0.061119 -0.012728 -1092190.000000 0 0 1
35.785233 -25.797524 3.607230 44.261803 -0.624615 1.489208 0.054982 -0.009136 -815940.000000 0 0 1
35.836763 -26.527024 4.834630 44.847856 -0.637211 1.462786 0.037594 -0.002722 -131353.000000 0 0 1
36.454873 -27.774224 4.546330 46.054689 -0.651061 1.471919 0.031638 -0.004688 -693336.000000 0 0 1
36.075173 -28.951024 5.532630 46.585297 -0.676275 1.451752 0.027998 -0.000330 309562.000000 0 0 1
34.767523 -29.478424 5.613730 45.926812 -0.703258 1.448258 0.011772 0.011627 -180077.000000 0 0 1
33.732613 -28.570824 5.915930 44.600217 -0.702738 1.437761 0.020712 0.005097 -58269.600000 0 0 1
32.390753 -29.350724 6.211630 44.149861 -0.736200 1.429634 0.036933 0.000431 768011.000000 0 0 1
31.621023 -29.938224 5.194030 43.853897 -0.758069 1.452078 0.015427 -0.002721 -241545.000000 0 0 1
31.003883 -29.096324 4.262630 42.731801 -0.753669 1.470877 0.036497 -0.004741 -927807.000000 0 0 1
29.636373 -29.708724 3.944830 42.148364 -0.786617 1.477065 0.040533 -0.003303 -510657.000000 0 0 1
29.536063 -31.039024 3.467930 42.986353 -0.810205 1.490033 0.047534 -0.003909 -635453.000000 0 0 1
28.197693 -31.427224 3.340330 42.354906 -0.839509 1.491849 0.065934 -0.009433 -371869.000000 0 0 1
28.095043 -32.884824 2.843130 43.345432 -0.863784 1.505157 0.067269 -0.012285 -265180.000000 0 0 1
28.455173 -33.022924 1.514930 43.617719 -0.859561 1.536057 0.062476 -0.010008 117854.000000 0 0 1
28.488643 33.773069 1.227230 44.201008 0.870070 1.543028 0.051323 -0.004630 -168415.000000 0 0 1
27.998263 33.463769 -0.167370 43.632036 0.874090 1.574632 0.039780 -0.012711 -446762.000000 0 0 1
29.015703 33.752169 -1.073270 44.522712 0.860715 1.594905 0.039045 -0.008608 -41471.000000 0 0 1
28.601843 33.554769 -2.419070 44.156991 0.864915 1.625607 0.041828 -0.014586 -422586.000000 0 0 1
29.604843 34.053969 -3.469170 45.256543 0.855175 1.647527 0.030181 -0.008819 -2328.860000 0 0 1
29.758833 -32.735024 -3.310870 44.363631 -0.832986 1.645496 0.021280 -0.018959 24560.100000 0 0 1
30.542083 -32.145824 -4.328870 44.552351 -0.810976 1.668114 0.028359 -0.023358 -78243.600000 0 0 1
30.815063 -30.614624 -4.282170 43.648142 -0.782135 1.669061 0.033339 -0.012042 81095.700000 0 0 1
29.679303 -29.776424 -4.525970 42.284523 -0.787032 1.678038 0.017625 -0.027605 265763.000000 0 0 1
29.895063 -28.362524 -4.355970 41.438171 -0.759098 1.676111 0.021669 -0.028846 -114521.000000 0 0 1
30.845813 -27.758324 -5.438870 41.851763 -0.732763 1.701121 0.048139 -0.031594 -1637130.000000 0 0 1
32.173263 -27.984524 -5.221770 42.959508 -0.715881 1.692649 0.060671 -0.028915 -1138050.000000 0 0 1
33.063193 -27.333824 -6.140870 43.336162 -0.690819 1.712978 0.073460 -0.026708 414110.000000 0 0 1
33.288443 -28.110524 -7.382370 44.190739 -0.701265 1.738640 0.085209 -0.005736 -1469410.000000 0 0 1
32.170613 -28.104824 -8.195270 43.497033 -0.718047 1.760339 0.073703 -0.010080 -690375.000000 0 0 1
32.085163 -29.129424 -9.156170 44.292397 -0.737151 1.779019 0.068391 -0.005646 2383.120000 0 0 1
32.084603 -30.611524 -8.652670 45.181366 -0.761907 1.763496 0.063120 0.000543 -243064.000000 0 0 1
33.306563 -31.080624 -8.122870 46.274327 -0.750841 1.747248 0.076221 -0.008671 -562813.000000 0 0 1
33.239983 -32.382024 -7.664070 47.034348 -0.772325 1.734472 0.077447 -0.021021 -315348.000000 0 0 1
34.567353 -32.907324 -7.139570 48.257303 -0.760801 1.719289 0.074366 -0.019462 -277631.000000 0 0 1
34.510863 33.937869 -6.623870 48.853396 0.777027 1.706802 0.065001 -0.028073 -6801.650000 0 0 1
34.012153 33.875869 -5.274970 48.293130 0.783391 1.680243 0.061368 -0.023661 -191238.000000 0 0 1
33.867773 32.416469 -4.747270 47.121015 0.763507 1.671714 0.032137 -0.021317 106636.000000 0 0 1
32.745443 31.745169 -5.295470 45.913634 0.769889 1.686389 0.040556 -0.035078 172104.000000 0 0 1
32.594223 30.425969 -4.822370 44.848392 0.751006 1.678531 0.045277 -0.020329 674742.000000 0 0 1
31.273223 29.792769 -5.393670 43.528327 0.761159 1.695027 0.049864 -0.030230 177713.000000 0 0 1
31.244343 29.570069 -6.773570 43.548584 0.757874 1.726971 0.026308 -0.024031 -532642.000000 0 0 1
30.011033 29.145669 -7.266070 42.460899 0.770771 1.742767 0.019788 -0.019636 -630290.000000 0 0 1
30.033023 29.114769 -8.787570 42.741942 0.769875 1.777869 0.021856 -0.016288 -91482.200000 0 0 1
30.583803 27.836969 -9.200370 42.366410 0.738415 1.789702 0.032106 -0.021951 241654.000000 0 0 1
31.021453 27.804269 -10.561870 42.976285 0.730763 1.819100 0.017749 -0.014933 492830.000000 0 0 1
32.314373 28.597469 -10.920270 44.511642 0.724453 1.818662 0.038967 -0.015962 -716373.000000 0 0 1
33.468923 27.998569 -10.409370 44.860268 0.696636 1.804971 0.037362 -0.021927 664908.000000 0 0 1
34.728863 28.518369 -10.890570 46.238467 0.687518 1.808561 0.055842 -0.020479 1038140.000000 0 0 1
35.139353 29.924269 -10.326370 47.295559 0.705416 1.790906 0.054826 -0.027891 -861883.000000 0 0 1
35.739043 29.889669 -9.016970 47.455003 0.696505 1.761970 0.056656 -0.025739 306071.000000 0 0 1
35.661373 31.190569 -8.445870 48.123984 0.718621 1.747212 0.052489 -0.026677 -806864.000000 0 0 1
-36.389843 31.401269 -7.337570 48.622015 -0.711943 1.722286 0.055722 -0.021331 125314.000000 0 0 1
-34.992793 31.537069 -7.479070 47.697157 -0.733502 1.728249 0.064602 -0.020536 424467.000000 0 0 1
-34.353706 30.340569 -8.000570 46.526728 -0.723445 1.743612 0.061676 -0.017526 -801787.000000 0 0 1
-32.930043 30.524269 -8.533170 45.704855 -0.747503 1.758600 0.073372 -0.011905 -307660.000000 0 0 1
-32.099863 31.105369 -7.539370 45.329762 -0.769665 1.737896 0.063422 -0.013372 354291.000000 0 0 1
-30.762673 31.414069 -7.915770 44.674884 -0.795874 1.748923 0.058056 -0.019369 441805.000000 0 0 1
-30.493603 32.686969 -8.787370 45.557828 -0.820100 1.764897 0.034910 -0.019278 -425123.000000 0 0 1
-30.539543 33.991269 -8.259870 46.435929 -0.838837 1.749625 0.040922 -0.014194 -21551.200000 0 0 1
-29.587603 -33.919424 -7.249770 45.590709 0.853503 1.730493 0.056294 -0.021174 -6750.460000 0 0 1
-29.696283 -32.517824 -6.557870 44.522845 0.830719 1.718626 0.044543 -0.026499 -84195.500000 0 0 1
-30.728743 -32.301024 -5.624470 44.936026 0.810338 1.696292 0.046224 -0.030641 -478639.000000 0 0 1
-30.485103 -32.745824 -4.295070 44.945279 0.821136 1.666505 0.059371 -0.026852 -54573.400000 0 0 1
-31.625773 -32.801124 -3.230670 45.678666 0.803639 1.641581 0.056872 -0.026544 -62062.800000 0 0 1
-32.116943 -31.516324 -2.992070 45.096887 0.775960 1.637193 0.050614 -0.022250 79726.600000 0 0 1
-32.893303 -31.459124 -1.794070 45.550681 0.763116 1.610193 0.050148 -0.018013 597907.000000 0 0 1
-33.843513 -30.177324 -1.736870 45.376987 0.728195 1.609082 0.063701 -0.004687 726631.000000 0 0 1
-34.662209 -30.185424 -0.551870 45.966652 0.716472 1.582802 0.046719 -0.000205 146401.000000 0 0 1
-35.390449 -28.969224 -0.448670 45.737306 0.685956 1.580606 0.067636 -0.007253 419615.000000 0 0 1
-36.421603 -28.876124 0.741530 46.485628 0.670353 1.554844 0.057017 -0.005457 -509579.000000 0 0 1
35.533323 -29.691724 0.487430 46.308240 -0.696076 1.560270 0.034695 0.001911 -325736.000000 0 0 1
34.658983 -29.733524 1.601330 45.693455 -0.709056 1.535744 0.026468 0.001126 -80648.000000 0 0 1
33.711983 -28.551424 1.773930 44.213442 -0.702704 1.530664 0.028064 0.007028 -1161280.000000 0 0 1
32.699593 -28.538724 0.774730 43.408782 -0.717557 1.552948 0.022261 -0.001843 315944.000000 0 0 1
31.946433 -27.325424 0.895630 42.048252 -0.707593 1.549495 0.028723 -0.001817 82793.500000 0 0 1
30.634723 -27.265324 0.093530 41.010887 -0.727270 1.568516 0.019985 -0.017979 328302.000000 0 0 1
29.523973 -28.050124 0.531730 40.727843 -0.759805 1.557740 0.021103 -0.001656 495061.000000 0 0 1
29.413833 -29.452124 0.153730 41.624810 -0.786049 1.567103 0.026904 0.003826 -246655.000000 0 0 1
28.939673 -29.765324 -1.281970 41.534595 -0.799462 1.601666 0.022221 -0.009167 88735.600000 0 0 1
27.521363 -29.686224 -1.349670 40.503320 -0.823222 1.604125 0.035362 -0.004572 222514.000000 0 0 1
27.125763 -30.070924 -2.634070 40.583319 -0.836845 1.635747 0.025779 -0.007389 -676391.000000 0 0 1
25.658563 -30.429524 -2.821670 39.903378 -0.870256 1.641568 0.022386 -0.008512 -395091.000000 0 0 1
24.761363 -29.346424 -2.870270 38.504235 -0.869936 1.645410 0.030668 -0.006300 -385988.000000 0 0 1
23.459563 -29.756924 -3.183770 38.025807 -0.903185 1.654621 0.033347 -0.002525 -83048.400000 0 0 1
22.460263 -28.561124 -3.263170 36.480810 -0.904408 1.660365 0.034504 -0.005047 71024.000000 0 0 1
22.671363 -27.657324 -4.321670 36.022147 -0.884144 1.691059 0.040984 -0.010819 -141566.000000 0 0 1
21.847663 -26.529224 -4.266170 34.631204 -0.881870 1.694299 0.046564 -0.019804 -322400.000000 0 0 1
21.275163 -26.037924 -5.631370 34.092791 -0.885725 1.736735 0.057249 -0.033803 -668270.000000 0 0 1
20.033763 -26.500024 -6.029170 33.763202 -0.923472 1.750331 0.068321 -0.029834 -1042240.000000 0 0 1
19.671363 -25.891624 -7.218670 33.308376 -0.921079 1.789252 0.085268 -0.031846 -698354.000000 0 0 1
18.210163 -26.071024 -7.592670 32.694907 -0.961089 1.805164 0.079366 -0.023080 -365895.000000 0 0 1
17.363563 -25.513224 -6.589470 31.556917 -0.973229 1.781157 0.067862 -0.023019 -873753.000000 0 0 1
16.018563 -25.762024 -6.804070 31.089735 -1.014509 1.791435 0.056311 -0.022912 -918274.000000 0 0 1
15.183263 -24.947324 -5.813570 29.777475 -1.024068 1.767292 0.037621 -0.012320 -388811.000000 0 0 1
15.362963 -25.263024 -4.443870 29.899649 -1.024427 1.719975 0.028268 -0.010884 262545.000000 0 0 1
14.766663 -24.293724 -3.554370 28.650880 -1.024633 1.695175 0.029627 -0.006355 102609.000000 0 0 1
14.708363 -24.781724 -2.159470 28.898669 -1.035158 1.645592 0.038190 -0.008204 -120739.000000 0 0 1
13.905363 -25.926124 -2.028270 29.489607 -1.078497 1.639630 0.047554 -0.006496 169229.000000 0 0 1
14.681963 -27.100424 -1.799870 30.874464 -1.074300 1.629126 0.050839 -0.008737 4693.750000 0 0 1
13.890963 -28.375624 -2.123470 31.664554 -1.115553 1.637908 0.047685 -0.002178 -65411.300000 0 0 1
12.920863 -28.711524 -1.159070 31.506249 -1.147923 1.607593 0.072954 -0.015395 230044.000000 0 0 1
12.319763 -30.028224 -1.337070 32.484743 -1.181466 1.611968 0.067847 -0.015799 5469.970000 0 0 1
13.217163 -31.125924 -0.765570 33.824586 -1.169235 1.593432 0.070360 -0.013406 -747617.000000 0 0 1
14.369863 -31.383824 -1.475670 34.548733 -1.141413 1.613522 0.070273 -0.011020 -907744.000000 0 0 1
14.960863 -32.637924 -1.172270 35.922635 -1.140988 1.603435 0.067315 -0.008195 -179692.000000 0 0 1
16.350963 -32.700824 -1.847370 36.607522 -1.107135 1.621282 0.051101 -0.002790 108121.000000 0 0 1
17.274263 -31.857124 -1.161470 36.257765 -1.073929 1.602836 0.043713 0.006094 262455.000000 0 0 1
18.428663 -31.519024 -1.915970 36.561393 -1.041715 1.623225 0.033284 0.012579 229591.000000 0 0 1
19.380463 -30.555424 -1.226570 36.204154 -1.005557 1.604682 0.031545 0.010231 -102047.000000 0 0 1
18.770363 -29.292624 -1.155070 34.809748 -1.000924 1.603985 0.036337 0.002712 346163.000000 0 0 1
19.529163 -28.467224 -0.283770 34.523203 -0.969513 1.579016 0.024448 0.005028 49671.500000 0 0 1
19.093563 -26.963824 -0.425570 33.042292 -0.954643 1.583676 0.027791 0.009282 -435428.000000 0 0 1
19.397563 -26.283124 -1.632370 32.706768 -0.935004 1.620726 0.032701 -0.003562 362858.000000 0 0 1
18.552763 -26.535124 -2.776370 32.496554 -0.960623 1.656336 0.039198 -0.006592 -70014.300000 0 0 1
32.286763 -28.884924 14.333130 45.631267 -0.729844 1.251280 0.027169 -0.014794 -231776.000000 0 0 1
33.080963 -29.246024 15.408930 46.766603 -0.723946 1.235037 0.048532 -0.005578 -231657.000000 0 0 1
32.420993 -30.117324 16.244730 47.138787 -0.748579 1.218968 0.042201 0.004792 -204173.000000 0 0 1
33.370703 -30.480524 17.391130 48.426414 -0.740165 1.203466 0.045875 0.009242 255881.000000 0 0 1
32.715233 -31.029924 18.587630 48.771330 -0.758966 1.179791 0.036182 -0.000783 645078.000000 0 0 1
33.644233 -31.412624 19.595930 50.026871 -0.751109 1.168309 0.043840 -0.004252 517586.000000 0 0 1
34.435173 -32.786424 19.429330 51.363699 -0.760876 1.182870 0.040855 -0.001818 277559.000000 0 0 1
35.445973 -32.747824 18.434130 51.659018 -0.745853 1.205911 0.038382 0.013630 -284019.000000 0 0 1
36.127323 -33.918324 18.486630 52.890374 -0.753872 1.213730 0.031283 0.002987 -441726.000000 0 0 1
-35.667791 -34.028724 17.599230 52.343846 0.761885 1.227892 0.023932 0.008525 -263560.000000 0 0 1
-34.722888 -33.124124 18.078730 51.280864 0.761838 1.210509 0.035795 0.007593 -634883.000000 0 0 1
-33.689383 -33.011824 17.146830 50.187337 0.775240 1.222117 0.040097 0.012088 -543321.000000 0 0 1
-32.528133 -32.106324 17.662030 48.998396 0.778872 1.202034 0.026873 0.005963 595241.000000 0 0 1
-31.446693 -31.950724 16.724030 47.848056 0.793348 1.213734 0.028025 -0.000013 354320.000000 0 0 1
-31.663223 -31.087324 15.615930 47.040819 0.776221 1.232410 0.037799 0.000013 -59954.400000 0 0 1
-30.531333 -31.108524 14.519330 45.942502 0.794762 1.249251 0.033822 -0.015140 1174450.000000 0 0 1
-29.310903 -30.492724 14.949230 44.859946 0.805157 1.231056 0.027454 -0.013880 155771.000000 0 0 1
-28.255343 -30.810724 14.072230 44.110008 0.828634 1.246095 0.031229 -0.012888 785141.000000 0 0 1
-26.920693 -30.126124 14.554430 42.943434 0.841529 1.225027 0.039204 -0.018147 664516.000000 0 0 1
-25.852913 -30.144124 13.636430 41.988017 0.861881 1.240028 0.047148 -0.016200 -844669.000000 0 0 1
-24.739233 -29.630124 14.304330 41.165371 0.875113 1.215909 0.038642 -0.019941 -656954.000000 0 0 1
-23.448433 -29.659024 13.488430 40.142552 0.901813 1.228115 0.061421 -0.024237 -198411.000000 0 0 1
-23.017133 -30.966324 13.125230 40.755040 0.931600 1.242900 0.063502 -0.020672 -433654.000000 0 0 1
-21.981133 -30.927624 12.200930 39.856628 0.952906 1.259681 0.061554 -0.030176 -213311.000000 0 0 1
-21.398533 -32.303324 11.782630 40.499782 0.985736 1.275597 0.059610 -0.021693 367079.000000 0 0 1
-22.366933 -33.082924 11.070730 41.440567 0.976300 1.300365 0.046975 -0.022153 669144.000000 0 0 1
-21.903333 33.741869 10.914830 41.682169 -0.995023 1.305849 0.060931 -0.012476 27755.700000 0 0 1
-22.784533 32.999969 9.927830 41.312162 -0.966515 1.328109 0.057251 -0.010087 81328.400000 0 0 1
-22.497533 33.325469 8.553130 41.108173 -0.976988 1.361201 0.062119 -0.018896 -618521.000000 0 0 1
-23.654433 33.205469 7.814630 41.511490 -0.951819 1.381414 0.066527 -0.017439 -886775.000000 0 0 1
-23.379233 33.565369 6.353130 41.395468 -0.962404 1.416713 0.063173 -0.015169 -326040.000000 0 0 1
-22.603433 32.722569 5.485730 40.146917 -0.966299 1.433726 0.060422 -0.019646 531759.000000 0 0 1
-21.197833 32.629869 5.681430 39.323468 -0.994671 1.425810 0.060924 -0.022449 598974.000000 0 0 1
-20.371733 33.977169 5.534130 40.001027 -1.030692 1.432001 0.069052 -0.021267 -756851.000000 0 0 1
-20.436433 -33.120324 6.476130 39.453060 1.017944 1.405902 0.083329 -0.022570 -379827.000000 0 0 1
-19.801733 -33.459724 7.652030 39.625942 1.036422 1.376469 0.085426 -0.019585 -577977.000000 0 0 1
-19.711133 -32.269824 8.648330 38.789998 1.022457 1.345954 0.087244 -0.021222 -346441.000000 0 0 1
-18.785333 -31.267424 8.212930 37.389741 1.029792 1.349333 0.097810 -0.032128 116867.000000 0 0 1
-18.609133 -30.144424 9.053530 36.564361 1.017730 1.320589 0.094785 -0.030940 372483.000000 0 0 1
-17.965733 -30.306024 10.481430 36.757081 1.035680 1.281629 0.085908 -0.025420 826591.000000 0 0 1
-16.557733 -30.542724 10.514330 36.298315 1.074025 1.276920 0.096089 -0.026369 403324.000000 0 0 1
-16.001933 -30.661724 11.816330 36.548992 1.089793 1.241580 0.108364 -0.026284 785692.000000 0 0 1
-14.577233 -31.306424 11.682930 36.456532 1.135020 1.244579 0.112834 -0.026947 1295550.000000 0 0 1
-13.617433 -30.569824 10.893230 35.193907 1.151730 1.256108 0.081148 -0.020650 286768.000000 0 0 1
-12.522633 -31.373224 10.526030 35.382097 1.191023 1.268728 0.069364 -0.014621 430478.000000 0 0 1
-11.424633 -30.703824 9.627930 34.145923 1.214578 1.284956 0.060127 -0.011567 332155.000000 0 0 1
-10.554633 -29.881424 10.383030 33.348270 1.231258 1.254182 0.045449 -0.013140 -860982.000000 0 0 1
-9.635233 -29.276424 9.540930 32.264161 1.252849 1.270595 0.051612 -0.011569 -541678.000000 0 0 1
-8.571933 -28.559024 10.380330 31.572886 1.279204 1.235792 0.039040 -0.008588 -232465.000000 0 0 1
-8.977233 -27.379224 11.023930 30.850278 1.253957 1.205382 0.043145 -0.010933 -869950.000000 0 0 1
-8.249333 -27.225324 12.169830 30.941469 1.276588 1.166559 0.040201 -0.015205 -716107.000000 0 0 1
-8.671933 -26.053224 13.104830 30.425474 1.249477 1.125507 0.062345 -0.022042 -66371.500000 0 0 1
-8.485133 -24.745624 12.600430 29.036429 1.240466 1.121921 0.053281 -0.022400 258814.000000 0 0 1
-9.350133 -24.307724 11.508730 28.473519 1.203586 1.154703 0.048436 -0.022096 414053.000000 0 0 1
-8.846633 -23.044924 10.802430 26.944831 1.204258 1.158287 0.049466 -0.021913 122059.000000 0 0 1
-7.758533 -23.261324 9.917930 26.450886 1.248862 1.186447 0.031825 -0.029017 -213377.000000 0 0 1
-7.293433 -22.019024 9.467230 25.053144 1.250937 1.183285 0.035362 -0.023079 676497.000000 0 0 1
-5.965733 -22.197824 8.629930 24.552170 1.308247 1.211630 0.030312 -0.022889 299253.000000 0 1 0
-4.815433 -22.404624 9.365030 24.755996 1.359087 1.182844 0.018455 -0.025058 -289563.000000 0 1 0
-3.728533 -22.785724 8.494830 24.601896 1.408599 1.218247 0.033043 -0.024807 1174460.000000 0 1 0
-2.438933 -23.288124 9.221030 25.165701 1.466448 1.195646 0.040441 -0.021013 590676.000000 0 0 1
-1.828833 -22.444324 10.169730 24.708616 1.489493 1.146602 0.037306 -0.016925 -536189.000000 0 1 0
-0.884333 -23.193124 10.867230 25.628104 1.532686 1.132900 0.040963 -0.017030 -194049.000000 0 0 1
-0.105533 -22.492224 11.973730 25.481002 1.566104 1.081610 0.044509 -0.013670 -153683.000000 0 0 1
-0.799333 -22.308624 13.225130 25.946439 1.534981 1.035950 0.044656 -0.010438 -381676.000000 0 0 1
-0.047233 -21.845624 14.325830 26.123991 1.568634 0.990373 0.065172 -0.010900 67730.700000 0 0 1
0.805267 -20.533424 14.248630 25.005867 -1.531599 0.964520 0.063264 -0.014743 -470345.000000 0 0 1
1.961867 -20.615224 13.500830 24.720615 -1.475916 0.993051 0.073020 -0.015716 -1071190.000000 0 1 0
2.433567 -19.343824 13.136830 23.509191 -1.445648 0.977864 0.071684 -0.017852 -639670.000000 0 1 0
3.909767 -19.372724 12.804030 23.548501 -1.371653 0.995921 0.085302 -0.015494 -553560.000000 0 1 0
4.324367 -20.085324 11.642230 23.614866 -1.358734 1.055257 0.074020 -0.006153 -402507.000000 0 1 0
5.681767 -19.877524 11.324630 23.572138 -1.292382 1.069658 0.095892 -0.017588 133135.000000 0 1 0
6.202067 -20.805324 10.204130 23.988568 -1.281084 1.131420 0.088531 -0.019268 -380157.000000 0 1 0
6.011067 -20.252224 8.884330 22.917609 -1.282269 1.172700 0.072360 -0.023702 -308765.000000 0 1 0
6.290567 -21.154124 7.814930 23.412418 -1.281756 1.230471 0.070736 -0.026941 602683.000000 0 1 0
7.746467 -21.685124 7.521530 24.224487 -1.227700 1.255085 0.075107 -0.019870 1018700.000000 0 1 0
8.709467 -20.813124 6.919430 23.599141 -1.174478 1.273217 0.080018 -0.021917 434370.000000 0 1 0
9.258267 -19.745724 7.730730 23.138135 -1.132358 1.230133 0.083786 -0.013021 249616.000000 0 1 0
10.048667 -20.031024 9.050930 24.168925 -1.105825 1.186954 0.064672 -0.007810 -22768.500000 0 1 0
9.259667 -20.244624 10.154030 24.468154 -1.141815 1.142865 0.081894 -0.011357 237048.000000 0 1 0
10.177167 -19.977024 11.281330 25.098299 -1.099622 1.104607 0.077089 -0.000134 1373960.000000 0 0 1
9.450467 -20.196624 12.616430 25.620095 -1.133138 1.055902 0.081240 -0.006006 92418.300000 0 0 1
9.327267 -21.543424 12.940830 26.806382 -1.162210 1.067002 0.071690 -0.008722 75325.300000 0 0 1
8.396967 -21.739424 14.024630 27.199299 -1.202195 1.029060 0.094376 -0.015150 616628.000000 0 0 1
8.462467 -23.141224 14.687130 28.685212 -1.220215 1.033273 0.080699 -0.017982 230407.000000 0 0 1
8.048367 -24.148324 13.794930 28.951992 -1.249086 1.074154 0.090353 -0.015289 -217477.000000 0 0 1
8.112067 -25.432024 14.422930 30.341628 -1.262027 1.075433 0.088344 -0.018461 307811.000000 0 0 1
8.027167 -26.566324 13.432030 30.832197 -1.277363 1.120037 0.100836 -0.029971 -124623.000000 0 0 1
9.295767 -26.683624 12.856930 31.043964 -1.235575 1.143785 0.095598 -0.026913 -350900.000000 0 0 1
9.215167 -27.755824 11.955130 31.594781 -1.250239 1.182741 0.097698 -0.030684 493616.000000 0 0 1
10.573967 -28.265424 11.384030 32.254288 -1.212819 1.210078 0.081413 -0.032907 895752.000000 0 0 1
11.501667 -28.874824 12.312430 33.431119 -1.191732 1.193625 0.069156 -0.027348 985197.000000 0 0 1
12.717067 -29.221124 11.639830 33.927622 -1.160317 1.220604 0.078715 -0.026550 530661.000000 0 0 1
13.771767 -29.854224 12.600430 35.209474 -1.138585 1.204810 0.051262 -0.023425 -875280.000000 0 0 1
14.235467 -28.913824 13.489430 34.937408 -1.113295 1.174393 0.043746 -0.019992 73490.900000 0 0 1
15.156967 -29.442424 14.441330 36.126749 -1.095379 1.159562 0.036255 -0.014513 1254690.000000 0 0 1
16.619767 -29.735724 13.891430 36.788609 -1.061134 1.183592 0.042515 -0.010918 169874.000000 0 0 1
17.354067 -28.567424 13.671430 36.113285 -1.024897 1.182545 0.037020 -0.017861 -20428.300000 0 0 1
18.456467 -28.767024 12.814730 36.502057 -1.000360 1.212084 0.034350 -0.015082 406064.000000 0 0 1
19.540667 -27.611924 12.878730 36.195548 -0.954928 1.207016 0.018677 -0.012717 326270.000000 0 0 1
20.677167 -27.916624 12.104930 36.788754 -0.933289 1.235511 0.014737 -0.017434 -236172.000000 0 0 1
21.439867 -26.788124 11.798030 36.283123 -0.895842 1.239609 0.011516 -0.009636 -175786.000000 0 0 1
22.887767 -27.145724 11.423830 37.299385 -0.870296 1.259520 0.015423 -0.014193 55809.900000 0 0 1
23.752067 -27.586124 12.491730 38.486338 -0.859942 1.240233 0.029645 -0.013460 -92155.100000 0 0 1
24.939567 -28.028024 11.919630 39.365336 -0.843641 1.263172 0.020892 -0.023024 -1920070.000000 0 0 1
25.924967 -28.641524 12.856330 40.715182 -0.835141 1.249536 0.031347 -0.019866 -147612.000000 0 0 1
26.907967 -27.758324 13.411530 40.919828 -0.800952 1.236874 0.028030 -0.016734 648909.000000 0 0 1
28.051867 -27.577524 12.581030 41.300235 -0.776872 1.261253 0.017523 -0.017133 -94210.400000 0 0 1
29.198167 -26.794224 13.318930 41.807383 -0.742491 1.246567 0.037590 -0.019405 38655.400000 0 0 1
28.994767 -25.419324 13.609030 40.890637 -0.719784 1.231509 0.042814 -0.022809 -98150.900000 0 0 1
28.105167 -25.164224 14.696630 40.486164 -0.730245 1.199307 0.043587 -0.020636 -516208.000000 0 0 1
28.623267 -24.963424 16.158330 41.274151 -0.717206 1.168548 0.024827 -0.007263 -458246.000000 0 0 1
29.120867 -26.189324 16.656430 42.559866 -0.732446 1.168682 0.015412 -0.008244 -111316.000000 0 0 1
29.753267 -26.016124 17.895630 43.386048 -0.718488 1.145628 0.027410 0.005656 -119952.000000 0 0 1
30.186667 -27.429124 18.428230 44.757026 -0.737574 1.146434 0.029691 0.014588 848159.000000 0 0 1
29.087467 -28.172124 18.967230 44.715826 -0.769414 1.132748 0.015375 0.005467 685483.000000 0 0 1
29.739567 -29.223824 19.646830 46.091991 -0.776652 1.130450 0.043533 -0.014160 342425.000000 0 0 1
28.790367 -30.257724 20.269730 46.424961 -0.810243 1.118966 0.046802 -0.007702 -781410.000000 0 0 1
28.004667 -29.686124 21.358330 46.061975 -0.814536 1.088644 0.030542 0.002383 813041.000000 0 0 1
26.985167 -30.571724 21.836530 46.256498 -0.847631 1.079153 0.012806 0.000195 834354.000000 0 0 1
25.829167 -30.967424 20.857430 45.399995 -0.875620 1.093460 0.055874 -0.007281 -940740.000000 0 0 1
26.231467 -31.971024 19.970230 45.924354 -0.883694 1.120924 0.079373 -0.013855 -100457.000000 0 0 1
25.453067 -32.173024 18.794430 45.124192 -0.901487 1.141199 0.079649 -0.004429 -215868.000000 0 0 1
25.634567 -31.115624 17.663230 44.014802 -0.881682 1.157858 0.069307 0.005522 815468.000000 0 0 1
26.955867 -31.143324 17.087030 44.592510 -0.857348 1.177558 0.061580 -0.007034 822150.000000 0 0 1
27.200167 -30.032024 16.266230 43.661903 -0.834838 1.189041 0.047803 -0.012239 -15380.500000 0 0 1
28.499767 -30.309924 15.464330 44.385512 -0.816168 1.214923 0.053344 -0.015753 -101458.000000 0 0 1
28.423267 -31.365024 14.507330 44.744938 -0.834561 1.240606 0.075377 -0.014422 159045.000000 0 0 1
28.756467 -32.585624 15.052630 45.992814 -0.847740 1.237370 0.062771 -0.019993 -271894.000000 0 0 1
28.108167 -33.729624 14.217430 46.150752 -0.876055 1.257638 0.080053 -0.020204 231443.000000 0 0 1
28.676567 -33.872024 12.946530 46.230641 -0.868271 1.286958 0.088285 -0.018796 498587.000000 0 0 1
27.841667 33.373769 12.278130 45.163252 0.875524 1.295470 0.083536 -0.026052 -251157.000000 0 0 1
28.269167 33.038569 10.863530 44.818625 0.863036 1.325969 0.091221 -0.030293 -915811.000000 0 0 1
29.483367 32.362569 10.923030 45.121141 0.831919 1.326285 0.061332 -0.021669 -444604.000000 0 0 1
29.754867 31.811169 9.611930 44.605961 0.818786 1.353608 0.058819 -0.024367 485507.000000 0 0 1
31.237767 31.314569 9.581930 45.257195 0.786626 1.357460 0.025984 -0.007993 481195.000000 0 0 1
31.432467 30.270869 10.555930 44.897140 0.766575 1.333461 0.023432 -0.001700 778909.000000 0 0 1
32.784167 29.786369 10.603830 45.546357 0.737524 1.335826 0.021176 0.000815 835686.000000 0 0 1
33.157067 28.908769 11.867430 45.562528 0.717057 1.307293 0.022921 -0.000317 55709.700000 0 0 1
32.843267 27.538469 11.810730 44.458304 0.697769 1.301909 0.025539 0.000885 11849.400000 0 0 1
33.178367 26.886169 13.043930 44.652147 0.681022 1.274350 0.037993 -0.011219 174682.000000 0 0 1
32.975667 25.288369 12.999830 43.541840 0.654217 1.267613 0.022584 -0.009069 403651.000000 0 0 1
33.955367 24.757469 12.099130 43.729717 0.630002 1.290459 0.034252 -0.002035 -22079.000000 0 0 1
33.833367 23.335669 11.789830 42.758043 0.603796 1.291444 0.049182 -0.016324 315042.000000 0 0 1
32.544367 22.751369 11.104930 41.232027 0.610113 1.298101 0.048538 -0.013219 1294640.000000 0 0 1
31.385167 22.727869 11.966430 40.555890 0.626757 1.271278 0.059280 -0.027782 1001000.000000 0 0 1
30.186167 22.646069 11.184830 39.359237 0.643638 1.282653 0.040583 -0.014670 281754.000000 0 0 1
28.927767 22.358669 12.015530 38.485046 0.658005 1.253275 0.028247 -0.010434 -167562.000000 0 0 1
28.399967 23.488869 12.689230 38.978220 0.691033 1.239206 0.032660 -0.014002 691625.000000 0 0 1
27.380267 22.955969 13.600730 38.231340 0.697729 1.207082 0.059158 -0.020484 695248.000000 0 0 1
23.714867 9.216269 25.411652 35.959514 0.370665 0.786010 0.011580 0.005383 -10920.600000 0 0 1
23.676967 8.120269 26.349872 36.343546 0.330390 0.759730 0.019756 0.004523 38642.900000 0 0 1
22.335367 7.784469 26.613812 35.605640 0.335362 0.726565 0.013859 0.000465 -196101.000000 0 0 1
22.161667 6.489869 27.444472 35.867213 0.284877 0.699493 0.025502 0.003146 -51034.600000 0 0 1
22.496267 6.693769 28.823042 37.170638 0.289208 0.683408 0.034740 -0.007792 -400181.000000 0 0 1
23.799767 6.328769 29.159852 38.167777 0.259903 0.701320 0.030643 -0.008842 -593133.000000 0 0 1
24.043967 6.353669 30.735502 39.536724 0.258347 0.680289 0.030371 -0.011290 -409166.000000 0 0 1
24.114167 7.650969 31.313832 40.256509 0.307235 0.679547 0.037278 -0.008498 11656.500000 0 0 1
24.113567 7.451169 32.719870 41.322802 0.299696 0.657027 0.043388 -0.007817 -24708.400000 0 0 1
24.301367 8.754369 33.537976 42.331918 0.345770 0.656289 0.066320 -0.014616 171532.000000 0 0 1
25.560167 9.393069 33.383820 43.081682 0.352169 0.684246 0.051318 -0.014080 87501.500000 0 0 1
25.818167 10.147669 -33.740880 43.680659 0.374495 2.453477 0.074413 -0.011312 57476.000000 0 0 1
26.925867 11.202069 -33.946950 44.753593 0.394252 2.431851 0.061188 -0.008737 -227173.000000 0 0 1
26.522367 12.316169 33.566055 44.517458 0.434739 0.716670 0.041927 -0.012579 219189.000000 0 0 1
26.103567 13.320269 -33.868380 44.787196 0.471842 2.428293 0.050564 -0.018932 -306699.000000 0 0 1
25.612967 14.646769 33.743647 44.823941 0.519464 0.718485 0.046917 -0.019841 223310.000000 0 0 1
26.676267 15.469269 33.211343 45.320137 0.525501 0.748344 0.041875 -0.017943 739518.000000 0 0 1
26.300767 16.859369 33.095249 45.511144 0.570038 0.756577 0.053660 -0.026535 -87341.200000 0 0 1
26.768167 17.778169 -34.021920 46.798388 0.586261 2.384723 0.057750 -0.031346 -209866.000000 0 0 1
26.250467 17.414169 -32.729140 45.426170 0.585727 2.375306 0.065887 -0.033632 553811.000000 0 0 1
27.176167 16.610169 -32.028690 45.169445 0.548617 2.358987 0.063711 -0.027344 -228939.000000 0 0 1
26.495167 16.064469 -30.791350 43.682586 0.545051 2.353062 0.070207 -0.022532 -10497.100000 0 0 1
25.459267 15.139969 -31.053390 42.915102 0.536494 2.379801 0.075204 -0.018435 -404009.000000 0 0 1
24.604567 14.977869 -29.993410 41.585165 0.546824 2.376405 0.089048 -0.027567 -465530.000000 0 0 1
23.816167 13.668169 -30.260200 40.862065 0.521009 2.404677 0.070856 -0.024951 -479582.000000 0 0 1
22.889667 13.762569 -31.333730 41.172173 0.541343 2.435713 0.071927 -0.027743 295248.000000 0 0 1
22.365067 12.543369 -31.845530 40.886063 0.511132 2.463682 0.056420 -0.019315 -603995.000000 0 0 1
21.504267 11.718569 -30.922190 39.445408 0.498951 2.471757 0.069578 -0.026136 -331279.000000 0 0 1
20.272867 12.450869 -30.749280 38.878420 0.550769 2.483089 0.078153 -0.021889 1135150.000000 0 0 1
19.274367 11.624069 -30.123330 37.603660 0.542684 2.499884 0.074771 -0.018355 1068920.000000 0 0 1
18.051067 12.333069 -29.418250 36.652136 0.599384 2.502494 0.038987 -0.006507 789084.000000 0 0 1
17.012767 12.672869 -30.317490 37.002514 0.640231 2.531048 0.018165 0.000486 -717985.000000 0 0 1
15.893967 13.004169 -29.584200 36.013213 0.685730 2.534801 0.015740 -0.006556 -469222.000000 0 0 1
14.588467 13.210769 -30.423180 36.234206 0.735880 2.567391 0.012611 -0.009891 376783.000000 0 0 1
14.167167 11.984969 -30.982480 36.114570 0.702149 2.601954 0.011225 -0.004277 -24017.400000 0 0 1
12.943767 11.471369 -30.485380 35.049848 0.725164 2.625537 0.004431 -0.004050 -25277.300000 0 0 1
12.065767 11.038469 -31.649440 35.624677 0.740964 2.664674 0.013456 -0.000412 -335468.000000 0 0 1
11.781867 12.090569 -32.572660 36.687497 0.798329 2.663428 0.025601 -0.006679 137981.000000 0 0 1
10.730267 11.633069 -33.416040 36.974298 0.825746 2.699280 0.047093 -0.004517 309832.000000 0 0 1
10.274067 12.711369 33.831283 37.572478 0.891040 0.450046 0.063764 -0.003863 29555.600000 0 0 1
11.332967 13.035369 32.933343 37.188198 0.855146 0.483042 0.052018 0.000536 404169.000000 0 0 1
10.915667 13.523769 31.695372 36.147486 0.891713 0.501558 0.079519 -0.010169 -362090.000000 0 0 1
12.005667 13.299969 30.637592 35.492074 0.836500 0.529176 0.065626 -0.011203 -57202.800000 0 0 1
12.362967 11.955569 30.383552 34.913305 0.768647 0.515072 0.049580 -0.010617 -14755.900000 0 0 1
11.952767 11.700869 29.065362 33.534673 0.774749 0.522196 0.080448 -0.009749 141667.000000 0 0 1
12.605967 10.441069 28.406882 32.785321 0.691739 0.522746 0.076879 -0.001704 299972.000000 0 0 1
12.019167 9.239269 28.963812 32.691389 0.655369 0.482200 0.073345 -0.012854 159774.000000 0 0 1
12.358367 8.169169 28.206522 31.860202 0.584086 0.483611 0.055986 -0.012555 -468779.000000 0 0 1
11.522867 6.897969 28.431702 31.443921 0.539414 0.441285 0.050209 -0.010870 85509.900000 0 0 1
10.248867 7.012269 27.821262 30.466930 0.600043 0.419819 0.050370 -0.021481 -80579.700000 0 0 1
9.345967 5.923869 27.790012 29.911939 0.564933 0.378930 0.050081 -0.024692 166161.000000 0 0 1
9.905767 4.600069 27.225012 29.334044 0.434750 0.381512 0.037341 -0.013424 -240084.000000 0 0 1
10.604067 3.769769 28.139572 30.306648 0.341568 0.380457 0.041912 -0.012097 -10173.600000 0 0 1
11.052967 2.627569 27.461152 29.718464 0.233393 0.392270 0.025287 -0.011834 -219999.000000 0 0 1
11.830367 1.670069 28.424752 30.833639 0.140241 0.397905 0.018538 -0.019823 -257219.000000 0 0 1
11.007267 0.998269 29.336202 31.349151 0.090444 0.360305 0.013096 -0.009423 -82769.100000 0 0 1
11.625667 -0.006731 30.107652 32.274245 -0.000579 0.368498 0.012351 -0.012558 86817.800000 0 0 1
10.637767 -0.317431 31.243562 33.006409 -0.029831 0.328303 0.018977 -0.009405 113288.000000 0 0 1
10.455667 0.722169 32.197602 33.860421 0.068960 0.314691 -0.002026 -0.009995 -108767.000000 0 0 1
9.142067 0.772869 32.737057 33.998377 0.084339 0.273244 0.019319 -0.012085 115938.000000 0 0 1
9.067067 2.033069 33.693591 34.951440 0.220577 0.269096 0.020889 -0.018626 60264.200000 0 0 1
8.983367 3.311069 33.092099 34.449254 0.353128 0.281628 0.019095 -0.017079 951378.000000 0 0 1
10.200267 3.599569 32.363139 34.122942 0.339247 0.322558 0.018659 -0.011985 569439.000000 0 0 1
10.107167 4.970669 31.723832 33.663986 0.457063 0.341160 0.029419 -0.006191 30845.700000 0 0 1
10.381867 5.929069 32.723320 34.838954 0.518897 0.350288 0.035545 -0.007228 -101221.000000 0 0 1
10.595267 7.129769 32.024122 34.476626 0.592319 0.379460 0.046704 -0.010821 -163610.000000 0 0 1
10.617967 8.423669 32.848745 35.535046 0.670667 0.391326 0.063366 -0.015318 243751.000000 0 0 1
9.386767 8.802069 33.439479 35.829968 0.753263 0.367350 0.064100 -0.015250 -10687.200000 0 0 1
8.892767 8.037869 -33.738200 35.804396 0.734947 2.800208 0.059665 -0.013202 34247.300000 0 0 1
7.470267 8.499169 -33.329580 35.198035 0.849739 2.814299 0.063160 -0.010419 201986.000000 0 0 1
6.843367 7.696469 -32.353570 33.953215 0.844004 2.833411 0.060130 -0.009196 -720526.000000 0 0 1
5.552067 8.179569 -32.150480 33.636055 0.974459 2.843280 0.057527 -0.012509 -284473.000000 0 0 1
4.798567 7.335969 -31.092520 32.304605 0.991534 2.866793 0.080273 -0.013694 -76827.700000 0 0 1
5.384667 7.594969 -29.799130 31.219647 0.954070 2.838772 0.075743 -0.013378 505680.000000 0 0 1
4.758367 6.950069 -28.686140 29.897160 0.970447 2.855996 0.063988 -0.014270 162902.000000 0 0 1
3.310967 7.361369 -28.302700 29.431193 1.148129 2.863776 0.061967 -0.014299 -287088.000000 0 0 1
2.390767 6.672969 -29.081730 29.933114 1.226767 2.902516 0.054208 -0.013004 -1289500.000000 0 0 1
1.093867 7.012769 -28.722710 29.586645 1.416061 2.899339 0.042259 -0.003622 -498113.000000 0 0 1
0.046267 6.476269 -29.733140 30.430311 1.563652 2.927124 0.046431 -0.013376 -42653.100000 0 0 1
0.272367 7.113869 -31.010150 31.816831 1.532528 2.915930 0.061110 -0.013807 114350.000000 0 0 1
-0.146633 6.293469 -32.066520 32.678601 -1.547501 2.947742 0.080155 -0.023528 -251731.000000 0 0 1
0.102467 6.996269 -33.406840 34.131734 1.556151 2.935129 0.096486 -0.031175 -329424.000000 0 0 1
1.443367 7.087869 -33.797210 34.562590 1.369904 2.930752 0.081059 -0.031412 -220369.000000 0 0 1
2.019167 6.040169 33.633238 34.230913 1.248185 0.187142 0.080817 -0.026553 140632.000000 0 0 1
1.600467 5.931369 32.123092 32.705286 1.307242 0.188967 0.087049 -0.030838 250904.000000 0 0 1
0.327067 5.345969 31.855192 32.302316 1.509692 0.166577 0.100094 -0.030957 105095.000000 0 0 1
0.059867 5.363769 30.439792 30.908811 1.559635 0.174429 0.119006 -0.041590 56758.200000 0 0 1
0.748767 4.316569 29.521922 29.845223 1.399042 0.147324 0.120083 -0.053066 -11084.400000 0 0 1
0.739667 4.710369 28.159812 28.560632 1.415039 0.167732 0.115934 -0.042507 36941.900000 0 0 1
1.389967 3.754369 27.340112 27.631667 1.216217 0.145397 0.101070 -0.038733 88118.700000 0 0 1
1.571267 4.435969 25.987762 26.410424 1.230375 0.179145 0.095739 -0.039585 639561.000000 0 0 1
2.506467 5.542769 25.937792 26.641579 1.146110 0.230365 0.085751 -0.032321 442949.000000 0 0 1
2.364267 6.181769 24.676542 25.548694 1.205503 0.262041 0.075979 -0.028601 -1737670.000000 0 0 1
3.137267 7.540669 24.567052 25.889075 1.176534 0.320953 0.072740 -0.028536 400179.000000 0 0 1
4.545467 7.382569 24.568502 26.053309 1.018911 0.339237 0.059796 -0.021489 -62277.600000 0 0 1
5.025867 6.632469 23.490392 24.920825 0.922343 0.340461 0.052195 -0.021307 -735938.000000 0 1 0
6.609867 6.509769 23.440702 25.209799 0.777769 0.376859 0.066136 -0.020576 1557240.000000 0 0 1
7.294467 5.624069 24.371782 26.054235 0.656809 0.361337 0.067857 -0.016913 490534.000000 0 0 1
6.878067 4.238169 24.367322 25.671702 0.552236 0.320144 0.062654 -0.018497 -867075.000000 0 0 1
7.081767 3.452769 23.047232 24.356682 0.453644 0.329394 0.052204 -0.015324 176005.000000 0 1 0
6.077467 3.631369 22.056432 23.164815 0.538589 0.310594 0.046117 -0.013026 584838.000000 0 1 0
4.823267 3.013369 22.412432 23.122747 0.558424 0.248507 0.042752 -0.012940 188259.000000 0 1 0
3.702167 3.438969 21.460932 22.047770 0.748558 0.231238 0.031039 -0.009555 -219927.000000 0 1 0
3.493867 4.857069 21.348532 22.171109 0.947210 0.273251 0.032179 -0.017816 526345.000000 0 1 0
2.234767 5.040069 20.692832 21.414710 1.153444 0.260386 0.025473 -0.007759 418739.000000 0 1 0
1.583267 6.408669 20.773832 21.797474 1.328595 0.307681 0.024096 -0.005521 38517.200000 0 1 0
2.305067 7.473769 20.137632 21.603120 1.271632 0.370454 0.015042 -0.000444 65618.900000 0 1 0
1.605067 8.706069 20.221732 22.074654 1.388482 0.412650 0.021696 -0.002802 287454.000000 0 1 0
2.494767 9.907469 19.817432 22.296018 1.324118 0.476005 0.018379 -0.006085 -682296.000000 0 1 0
2.677567 10.095569 18.427732 21.181860 1.311543 0.515641 0.008757 -0.000071 271683.000000 0 1 0
3.757267 10.986269 18.105132 21.508393 1.241269 0.570242 0.014749 -0.005590 -79016.200000 0 1 0
5.159467 10.508669 18.382432 21.793716 1.114397 0.567078 0.020731 -0.010331 -1541360.000000 0 1 0
5.568567 9.569069 17.420932 20.641340 1.043767 0.566131 0.022589 -0.002714 112009.000000 0 1 0
6.964667 9.308569 17.523232 21.029021 0.928449 0.585767 0.025219 -0.001967 301997.000000 0 1 0
7.333367 7.910269 18.060532 21.036479 0.823226 0.538393 0.036531 -0.001799 -332313.000000 0 1 0
6.897167 7.667269 19.376632 21.950212 0.838225 0.489105 0.039335 -0.006172 -86109.000000 0 1 0
6.992767 6.282669 19.757032 21.879466 0.731959 0.444108 0.045015 -0.014751 272282.000000 0 1 0
8.423767 5.821169 20.158632 22.610093 0.604688 0.469981 0.053579 -0.012520 263754.000000 0 1 0
9.289667 5.727869 19.024132 21.932260 0.552525 0.520835 0.052035 -0.012049 -453239.000000 0 1 0
10.505667 5.081869 19.303932 22.557399 0.450544 0.543760 0.058198 -0.010282 -108875.000000 0 1 0
10.500767 3.573269 19.320032 22.277747 0.327995 0.521175 0.064252 -0.009676 -255932.000000 0 1 0
9.865167 2.950369 20.456432 22.901787 0.290603 0.466330 0.066235 -0.011459 189167.000000 0 1 0
9.679467 1.567169 20.327232 22.568661 0.160514 0.449455 0.060968 -0.017039 14736.600000 0 1 0
8.787767 0.816869 21.342732 23.095548 0.092689 0.392107 0.060611 -0.020604 -98014.200000 0 1 0
9.295367 0.781469 22.684432 24.527495 0.083874 0.390136 0.065396 -0.016879 450787.000000 0 1 0
8.577867 -0.194031 23.464682 24.984170 -0.022616 0.350556 0.058865 -0.024670 -100136.000000 0 1 0
8.933767 -0.051331 24.941422 26.493195 -0.005746 0.343958 0.055735 -0.019790 737238.000000 0 0 1
10.280467 -0.445431 25.262092 27.277458 -0.043301 0.386813 0.050053 -0.022919 917867.000000 0 0 1
10.484467 -1.880231 25.373742 27.518832 -0.177449 0.397452 0.053833 -0.023085 -620914.000000 0 0 1
11.971967 -2.228331 25.381462 28.151591 -0.184023 0.447343 0.038637 -0.017938 -397357.000000 0 0 1
12.146767 -3.602931 25.306512 28.300965 -0.288350 0.464172 0.041815 -0.017120 680152.000000 0 0 1
13.496367 -4.056031 25.515552 29.148700 -0.291941 0.504620 0.041813 -0.014738 597299.000000 0 0 1
13.578067 -5.561231 25.696812 29.590832 -0.388733 0.518821 0.046437 -0.019234 -242554.000000 0 0 1
13.400367 -6.189831 24.408892 28.525039 -0.432718 0.543893 0.059336 -0.013975 250378.000000 0 0 1
13.349167 -7.585131 24.602372 29.000193 -0.516716 0.557932 0.072485 -0.024033 32460.100000 0 0 1
13.101667 -8.345931 23.257312 27.968032 -0.567191 0.588872 0.083386 -0.026729 155648.000000 0 0 1
12.759667 -9.701231 23.418112 28.378354 -0.650063 0.600222 0.089809 -0.019923 -286318.000000 0 0 1
12.515267 -10.278231 22.149232 27.438339 -0.687568 0.631341 0.079086 -0.027282 -17561.800000 0 0 1
12.035267 -11.726331 22.241732 27.875601 -0.772397 0.647005 0.095381 -0.017111 -1332940.000000 0 0 1
10.689967 -11.797631 22.470532 27.538778 -0.834615 0.616409 0.102968 -0.015546 -1700120.000000 0 0 1
10.189067 -13.101231 22.522532 27.977201 -0.909790 0.635068 0.090363 -0.012101 453537.000000 0 0 1
8.656067 -13.125631 22.797232 27.693383 -0.987787 0.603769 0.070948 -0.011634 803324.000000 0 0 1
7.806767 -12.568331 21.818732 26.362201 -1.014973 0.595885 0.065291 -0.013000 -181471.000000 0 0 1
6.429767 -12.598031 22.068932 26.212403 -1.098880 0.569952 0.047401 -0.011532 724952.000000 0 0 1
5.532167 -11.494231 21.334832 24.857540 -1.122221 0.538880 0.044092 -0.003658 514265.000000 0 1 0
5.811767 -10.186931 21.759032 24.718529 -1.052341 0.494361 0.044748 -0.007653 -391678.000000 0 1 0
5.043367 -9.192631 21.154832 23.610738 -1.069004 0.460155 0.033726 -0.008706 -358876.000000 0 1 0
5.323167 -7.819131 21.720432 23.690760 -0.973081 0.410725 0.039057 -0.022645 -235052.000000 0 1 0
4.582867 -6.789131 21.142732 22.673996 -0.977026 0.369616 0.023113 -0.022312 -302866.000000 0 1 0
5.105067 -5.499431 21.433932 22.709445 -0.822569 0.336750 0.042905 -0.031314 -76611.000000 0 1 0
-7.946333 -15.154731 -20.531770 26.727582 1.087862 2.446800 0.080364 0.004215 303100.000000 0 0 1
-7.180033 -14.716631 -19.433470 25.412435 1.116887 2.441407 0.062046 0.001779 236087.000000 0 0 1
-6.392433 -13.536131 -19.652870 24.704764 1.129594 2.490644 0.057615 -0.011211 524231.000000 0 1 0
-5.663333 -13.025931 -18.354870 23.208823 1.160676 2.483005 0.050788 -0.014852 200738.000000 0 1 0
-4.632433 -13.886731 -17.942470 23.156705 1.248817 2.457240 0.045776 -0.006814 129944.000000 0 1 0
-3.715433 -13.252031 -17.017670 21.886568 1.297447 2.461540 0.021904 -0.004666 256541.000000 0 1 0
-2.972933 -14.430131 -16.372370 22.025474 1.367617 2.408843 0.026899 -0.001689 6083.130000 0 1 0
-1.868133 -14.878431 -17.186470 22.808603 1.445890 2.424178 0.017604 0.001767 -325519.000000 0 1 0
-1.118033 -15.720331 -16.428970 22.765980 1.499796 2.376973 0.020162 -0.000242 -1221140.000000 0 1 0
0.182267 -16.063031 -17.135270 23.487692 -1.559450 2.388449 0.019393 0.001046 -660653.000000 0 1 0
0.183867 -16.951231 -18.252170 24.910234 -1.559950 2.393103 0.034973 -0.001795 -315934.000000 0 1 0
-0.076233 -18.348631 -18.018470 25.716596 1.566642 2.347112 0.042149 -0.001159 -210184.000000 0 0 1
-0.381633 -19.060631 -19.317370 27.140635 1.550777 2.362784 0.053194 0.003256 -81777.900000 0 0 1
-1.697633 -18.737731 -19.692870 27.235889 1.480443 2.379002 0.065801 -0.000635 -191919.000000 0 0 1
-2.083733 -19.104331 -21.027070 28.486051 1.462155 2.401125 0.077053 -0.001718 59239.200000 0 0 1
-3.215633 -18.273031 -21.635870 28.501839 1.396603 2.432732 0.064420 0.004305 -103666.000000 0 0 1
-2.826633 -16.939931 -21.706470 27.678908 1.405457 2.472241 0.058309 0.004086 -233544.000000 0 0 1
-3.737333 -16.082831 -21.110570 26.800770 1.342468 2.477839 0.038890 0.007781 -77933.300000 0 0 1
-2.944033 -14.869931 -20.593270 25.570783 1.375338 2.507051 0.047149 0.004679 124634.000000 0 0 1
-2.399533 -13.989431 -21.538770 25.794972 1.400925 2.558927 0.048280 -0.001185 -30740.200000 0 0 1
-1.829933 -12.867331 -20.927070 24.634511 1.429528 2.585837 0.025700 0.001164 -33723.700000 0 1 0
-1.593333 -11.783931 -22.052870 25.054517 1.436399 2.647070 0.028976 -0.005987 -291823.000000 0 0 1
-2.686433 -10.970031 -22.328870 25.022729 1.330634 2.673307 0.035988 -0.011134 -186702.000000 0 0 1
-2.565033 -10.374031 -23.653970 25.955928 1.328403 2.717258 0.032754 -0.012456 -15486.500000 0 0 1
-3.526933 -9.183931 -23.841970 25.791925 1.204130 2.750247 0.027955 -0.008807 -101781.000000 0 0 1
-4.896133 -9.484631 -23.959970 26.229955 1.094259 2.722499 0.040682 -0.011705 63726.300000 0 0 1
-5.691633 -8.325631 -23.771370 25.822255 0.971143 2.740351 0.038138 -0.014706 168951.000000 0 0 1
-7.205433 -8.691631 -23.582370 26.145571 0.878616 2.695093 0.043329 -0.017520 1041320.000000 0 0 1
-7.989633 -9.101031 -24.728470 27.534710 0.850336 2.686189 0.058320 -0.025643 432260.000000 0 0 1
-8.187533 -8.094931 -25.663760 28.128139 0.779711 2.719876 0.050810 -0.026466 -101492.000000 0 0 1
-9.281833 -8.497831 -26.712460 29.528310 0.741331 2.701328 0.048307 -0.027316 467954.000000 0 0 1
-9.942333 -7.435631 -27.350620 30.036561 0.642140 2.715476 0.063910 -0.033116 -135829.000000 0 0 1
-10.697833 -7.855431 -28.451590 31.394974 0.633378 2.705116 0.069116 -0.032126 322545.000000 0 0 1
-11.601533 -6.763731 -29.162910 32.106369 0.527828 2.710050 0.067963 -0.032964 483317.000000 0 0 1
-10.849233 -5.834931 -29.868770 32.309375 0.493444 2.750417 0.034253 -0.023218 -414359.000000 0 0 1
-11.691233 -5.209231 -30.790420 33.344730 0.419162 2.747634 0.044308 -0.018680 -222468.000000 0 0 1
-11.032433 -4.086831 -31.583620 33.703736 0.354765 2.785011 0.026090 -0.018831 -308345.000000 0 0 1
-9.999233 -4.552231 -32.418950 34.230042 0.427218 2.814843 0.035284 -0.020406 -159028.000000 0 0 1
-9.405133 -3.392131 -33.000790 34.482100 0.346147 2.847416 0.024754 -0.010762 -741845.000000 0 0 1
-8.397033 -3.809531 -34.038700 35.265505 0.425907 2.877051 0.014113 -0.013183 152493.000000 0 0 1
-7.137633 -4.196231 -33.423550 34.433819 0.531477 2.898759 0.022842 -0.015492 387039.000000 0 0 1
-6.321933 -4.689531 33.784864 34.689705 0.638224 0.228902 0.020715 -0.013627 -94298.400000 0 0 1
-4.875733 -4.246831 34.097042 34.704706 0.716568 0.187408 0.047054 -0.015894 -231908.000000 0 0 1
-4.632933 -2.855431 -34.100774 34.532309 0.552343 2.983336 0.069102 -0.022166 239188.000000 0 0 1
-3.243933 -2.574131 -33.942830 34.194517 0.670778 3.020189 0.069757 -0.028710 641746.000000 0 0 1
-3.063433 -1.075031 -33.580950 33.737524 0.337497 3.045213 0.081505 -0.030538 -12280.500000 0 0 1
-3.409533 -0.947431 -32.192550 32.386461 0.271039 3.032109 0.078115 -0.030893 -36422.000000 0 0 1
-3.907133 0.290369 -31.821450 32.061733 -0.074181 3.019088 0.095017 -0.036545 -1019320.000000 0 0 1
-4.365433 0.345569 -30.343860 30.658217 -0.078996 2.998267 0.094893 -0.044034 470743.000000 0 0 1
-5.521933 -0.421531 -30.045960 30.552073 0.076190 2.959321 0.079597 -0.041994 261002.000000 0 0 1
-6.736433 0.174669 -30.495850 31.231505 -0.025923 2.924116 0.078764 -0.039788 -144309.000000 0 0 1
-7.868033 -0.900931 -30.423000 31.436866 0.114009 2.886933 0.060815 -0.038094 77743.100000 0 0 1
-8.070033 -1.429831 -29.160170 30.290021 0.175358 2.867602 0.059399 -0.030765 -218506.000000 0 0 1
-9.180333 -2.278831 -29.167380 30.662806 0.243312 2.827995 0.032557 -0.022658 -330978.000000 0 0 1
-9.629433 -2.885531 -27.824350 29.584569 0.291142 2.794901 0.033020 -0.023197 -209600.000000 0 0 1
-10.098033 -1.884931 -26.941360 28.833316 0.184539 2.777320 0.032334 -0.020835 125802.000000 0 0 1
-10.414433 -2.493031 -25.690700 27.833212 0.234961 2.746662 0.032837 -0.019050 -167417.000000 0 0 1
-11.404533 -1.712131 -24.808070 27.357542 0.149014 2.706448 0.045897 -0.017020 -213707.000000 0 0 1
-10.970833 -0.482731 -24.344870 26.707020 0.043973 2.717842 0.057299 -0.024312 -222339.000000 0 0 1
-11.900533 0.169469 -23.535170 26.373389 -0.014240 2.673395 0.059764 -0.027218 29295.300000 0 0 1
-11.150633 1.344369 -22.820070 25.434220 -0.119985 2.684228 0.066292 -0.031944 373801.000000 0 0 1
-10.688733 2.309569 -23.698470 26.099820 -0.212804 2.709267 0.046561 -0.032163 -244159.000000 0 0 1
-9.910033 3.247169 -23.006970 25.260118 -0.316640 2.716019 0.052555 -0.034458 -261850.000000 0 0 1
-9.552933 4.504669 -23.875570 26.107344 -0.440628 2.725105 0.064829 -0.041625 1764590.000000 0 0 1
-10.762433 5.299069 -24.251170 27.056041 -0.457523 2.682221 0.077488 -0.031902 1833890.000000 0 0 1
-11.414033 4.782269 -25.435420 28.286231 -0.396762 2.688770 0.072539 -0.035886 161687.000000 0 0 1
-12.865033 5.251669 -25.660700 29.181512 -0.387566 2.645287 0.068916 -0.025587 151568.000000 0 0 1
-12.924533 6.525969 -26.241790 29.971043 -0.467583 2.637414 0.064540 -0.016679 1000020.000000 0 0 1
-14.315533 6.841469 -26.471050 30.861897 -0.445816 2.601626 0.076769 -0.021272 1129540.000000 0 0 1
-14.567933 8.379969 -26.641500 31.499494 -0.522010 2.578813 0.091090 -0.011350 -18279.700000 0 0 1
-14.295533 9.044269 -25.430240 30.542727 -0.564092 2.554603 0.112479 -0.014806 106857.000000 0 0 1
-14.713833 10.371769 -25.532230 31.240443 -0.614006 2.527473 0.101303 -0.015704 -146705.000000 0 0 1
-14.337933 11.290769 -24.344370 30.425420 -0.667057 2.498313 0.097698 -0.015232 -168572.000000 0 0 1
-14.840033 10.910269 -23.109070 29.551475 -0.633956 2.468655 0.122465 -0.012494 -126044.000000 0 0 1
-14.456633 11.838069 -22.164970 28.989999 -0.686140 2.441175 0.107585 -0.009234 -160313.000000 0 0 1
-15.348533 11.830769 -20.913170 28.511493 -0.656686 2.394253 0.109838 -0.010244 -474159.000000 0 0 1
-16.607233 12.391969 -21.101370 29.574126 -0.641051 2.365288 0.094570 -0.007900 -701952.000000 0 0 1
-17.250433 12.562269 -19.865370 29.155119 -0.629422 2.320427 0.089837 -0.009490 -746166.000000 0 0 1
-18.735633 12.857369 -19.953470 30.240319 -0.601440 2.291389 0.096178 -0.020253 -675390.000000 0 0 1
-19.090333 14.075569 -20.592870 31.410647 -0.635332 2.285775 0.081546 -0.019487 -532831.000000 0 0 1
-20.447333 14.342969 -20.436970 32.272030 -0.611705 2.256570 0.058932 -0.021452 -498999.000000 0 0 1
-20.939933 15.681269 -21.009370 33.552595 -0.642777 2.247418 0.060913 -0.023562 -289868.000000 0 0 1
-21.002933 15.800169 -22.445470 34.562518 -0.644961 2.277613 0.064417 -0.021779 66453.000000 0 0 1
-21.325633 17.095169 -22.880770 35.644875 -0.675731 2.267782 0.041684 -0.007486 -128793.000000 0 0 1
-21.230033 17.206769 -24.426670 36.653096 -0.681106 2.300205 0.046393 -0.013792 249524.000000 0 0 1
-19.931533 17.110669 -24.995770 36.260578 -0.709392 2.331370 0.058605 -0.023330 333275.000000 0 0 1
-20.007033 16.531569 -26.274920 36.931634 -0.690566 2.362352 0.057473 -0.030330 -231075.000000 0 0 1
-19.091033 17.265769 -27.281660 37.508177 -0.735236 2.385252 0.032790 -0.019102 54682.200000 0 0 1
-19.489633 18.555569 -27.822380 38.707103 -0.760852 2.372860 0.023230 -0.025832 353139.000000 0 0 1
-18.866533 19.543369 -27.009700 38.306831 -0.803018 2.353344 0.011603 -0.035070 -1247710.000000 0 0 1
-19.463833 21.010269 -27.103430 39.431816 -0.823588 2.328630 0.035888 -0.019229 1274760.000000 0 0 1
-20.674133 21.360969 -26.373180 39.739847 -0.801736 2.296478 0.047522 -0.006099 1198490.000000 0 0 1
-21.771433 20.523269 -26.694480 40.097321 -0.755896 2.299284 0.075468 -0.017569 -268835.000000 0 0 1
-23.016333 20.738369 -25.740220 40.278909 -0.733383 2.264058 0.063538 0.002794 711653.000000 0 0 1
-22.778533 20.355569 -24.404770 39.099918 -0.729284 2.244858 0.033745 0.004483 -418738.000000 0 0 1
-23.983233 20.453769 -23.722170 39.449886 -0.706138 2.215954 0.036177 -0.001990 -684590.000000 0 0 1
-23.967233 20.204969 -22.160370 38.389465 -0.700431 2.186155 0.035525 0.010909 -367252.000000 0 0 1
-23.086933 21.019169 -21.441570 37.875492 -0.738551 2.172572 0.027641 0.005357 336309.000000 0 0 1
-21.787533 20.480069 -21.190970 36.649516 -0.754475 2.187324 0.017596 0.002818 323947.000000 0 0 1
-21.665833 19.610169 -19.888170 35.348358 -0.735636 2.168364 0.041167 -0.015183 -586841.000000 0 0 1
-22.357533 18.353269 -20.033570 35.185874 -0.687355 2.176528 0.071835 -0.027595 487235.000000 0 0 1
-22.961433 17.872869 -18.855170 34.672530 -0.661422 2.145763 0.048748 -0.023333 -313734.000000 0 0 1
-24.022233 18.607669 -18.009370 35.322096 -0.659061 2.105820 0.022969 -0.007361 -763679.000000 0 0 1
-25.218633 18.760069 -18.715570 36.581310 -0.639584 2.107860 0.025276 -0.011176 -524315.000000 0 0 1
-26.019133 19.696369 -18.056670 37.295919 -0.647963 2.076183 0.030211 -0.013076 -1089440.000000 0 0 1
-27.457483 19.870769 -18.580870 38.652420 -0.626451 2.072268 0.027389 0.015025 95496.400000 0 0 1
-28.313963 18.758169 -18.368470 38.612823 -0.585117 2.066566 0.022328 -0.000228 387986.000000 0 0 1
-28.625693 18.431269 -16.981870 38.046365 -0.572055 2.033475 0.017904 -0.012770 -1407940.000000 0 0 1
-29.799463 17.500269 -16.734670 38.396831 -0.531005 2.021762 0.021152 -0.012486 -565808.000000 0 0 1
-29.547363 16.168769 -17.099870 37.774083 -0.500703 2.040574 0.039028 -0.017320 -122931.000000 0 0 1
-30.332483 15.285469 -16.341370 37.692778 -0.466787 2.019215 0.042746 -0.019374 253677.000000 0 0 1
-29.511933 14.196069 -15.502370 36.232666 -0.448355 2.012916 0.076500 -0.020048 251627.000000 0 0 1
-28.772673 14.733069 -14.442870 35.405177 -0.473242 1.990983 0.073065 -0.020301 539957.000000 0 0 1
-29.628023 15.184969 -13.353170 35.870743 -0.473614 1.952237 0.049427 -0.016969 786503.000000 0 0 1
-28.772323 15.776169 -12.201670 35.008782 -0.501545 1.926800 0.051990 -0.015703 206251.000000 0 0 1
-28.350713 17.126069 -12.281970 35.325798 -0.543413 1.925889 0.049803 -0.010766 -127178.000000 0 0 1
-29.341583 18.083169 -12.041370 36.509233 -0.552317 1.906906 0.025812 -0.007977 -436621.000000 0 0 1
-28.842293 19.514969 -12.504670 37.001063 -0.594855 1.915539 0.043374 -0.012572 533729.000000 0 0 1
-28.097053 20.111669 -11.420570 36.391662 -0.621247 1.890014 0.012495 -0.019836 416211.000000 0 0 1
-27.075353 21.011869 -11.828870 36.255973 -0.659967 1.903141 0.002539 -0.018899 482091.000000 0 0 1
-26.222243 21.510969 -10.626670 35.542284 -0.687017 1.874427 0.016701 -0.008396 -2898.940000 0 0 1
-26.873933 22.428069 -9.792270 36.347147 -0.695465 1.843576 0.019783 -0.011189 -321857.000000 0 0 1
-26.241763 23.661069 -9.783470 36.663233 -0.733730 1.840916 0.022499 -0.008396 -282778.000000 0 0 1
-27.070923 24.760469 -9.050770 37.786666 -0.740851 1.812671 0.041997 0.003435 303658.000000 0 0 1
-26.778093 24.593969 -7.648770 37.154183 -0.742908 1.778145 0.041384 -0.006321 1041200.000000 0 0 1
-27.817033 25.172969 -6.810370 38.129344 -0.735542 1.750372 0.058366 -0.012356 707753.000000 0 0 1
-27.776353 24.478369 -5.451070 37.422326 -0.722368 1.716980 0.061068 -0.012317 -30968.400000 0 0 1
-28.075843 23.057969 -5.511670 36.746448 -0.687579 1.721356 0.055822 -0.015195 -21937.900000 0 0 1
-27.668473 22.385669 -4.353970 35.855539 -0.680246 1.692528 0.051299 -0.017188 -164426.000000 0 0 1
-27.610283 20.831069 -4.469570 34.874607 -0.646354 1.699311 0.052478 -0.010781 315035.000000 0 0 1
-26.558583 20.248969 -5.241670 33.806127 -0.651407 1.726475 0.050189 -0.020293 225391.000000 0 0 1
-26.622653 20.497569 -6.615770 34.244480 -0.656135 1.765211 0.037115 -0.016936 -601397.000000 0 0 1
-27.589773 19.668769 -7.498270 34.702739 -0.619332 1.788585 0.033935 -0.016490 16071.700000 0 0 1
-27.168863 18.287269 -7.542670 33.607487 -0.592441 1.797159 0.035336 -0.015025 323329.000000 0 0 1
-27.440113 17.663569 -8.769370 33.791468 -0.571943 1.833316 0.021049 -0.013150 -277580.000000 0 0 1
-27.323843 16.146269 -8.784870 32.931267 -0.533718 1.840830 0.049147 -0.015764 -238554.000000 0 0 1
-28.146323 15.306269 -8.028370 33.029564 -0.498079 1.816322 0.052688 -0.012990 -240891.000000 0 0 1
-27.980083 13.958669 -8.463170 32.393745 -0.462750 1.835123 0.059785 -0.020741 -90172.100000 0 0 1
-28.619083 12.891469 -7.595270 32.294427 -0.423228 1.808209 0.064143 -0.030450 -583116.000000 0 0 1
-30.021613 12.978869 -7.649770 33.589690 -0.408052 1.800554 0.082460 -0.022006 -404938.000000 0 0 1
-30.613103 12.049569 -6.741670 33.582798 -0.374984 1.772917 0.087571 -0.021740 -277832.000000 0 0 1
-31.216003 10.856069 -7.430570 33.874865 -0.334689 1.791948 0.072942 -0.022911 -253918.000000 0 0 1
-30.203173 9.937869 -7.832870 32.746706 -0.317876 1.812334 0.085675 -0.012411 504998.000000 0 0 1
-30.837413 8.796869 -8.341870 33.134842 -0.277885 1.825290 0.070481 -0.006844 -301394.000000 0 0 1
-29.876853 7.626969 -8.617070 32.016416 -0.249942 1.843302 0.109081 -0.013912 -234643.000000 0 0 1
-29.190733 7.664769 -9.859670 31.749971 -0.256779 1.886559 0.103614 -0.027678 199325.000000 0 0 1
-28.281363 6.583169 -9.826870 30.655195 -0.228702 1.897118 0.125949 -0.036960 -305921.000000 0 0 1
-27.508443 6.470569 -11.162970 30.384118 -0.231022 1.947003 0.109085 -0.037338 74962.100000 0 0 1
-26.600363 7.581469 -11.363770 29.903064 -0.277652 1.960615 0.130734 -0.039763 1284910.000000 0 0 1
-25.770333 7.390069 -12.543770 29.598469 -0.279272 2.008431 0.121151 -0.029197 170120.000000 0 0 1
-30.912253 25.013969 33.395060 51.927797 -0.680321 0.872249 0.026590 0.003117 -154835.000000 0 0 1
-30.901533 26.441969 33.358851 52.601288 -0.707785 0.883845 0.013629 -0.010483 226968.000000 0 0 1
-32.029343 26.934069 32.662327 53.086256 -0.699198 0.908069 0.032102 -0.026022 -203083.000000 0 0 1
-31.978433 28.485269 32.473788 53.745490 -0.727689 0.922017 0.044532 -0.034365 -48247.500000 0 0 1
-33.137243 28.929569 31.800172 54.279350 -0.717709 0.944854 0.076090 -0.027909 48989.100000 0 0 1
-33.283413 30.326069 31.627192 55.024861 -0.738939 0.958461 0.094903 -0.035441 -79847.200000 0 0 1
-32.919843 30.765869 30.177332 54.230307 -0.751589 0.980670 0.094200 -0.040709 448634.000000 0 0 1
-31.535543 30.676869 29.847232 53.164067 -0.771597 0.974699 0.071574 -0.044396 371148.000000 0 0 1
-31.238933 31.512269 28.736802 52.864902 -0.789754 0.996089 0.073334 -0.031881 599997.000000 0 0 1
-29.748693 31.452769 28.273122 51.707165 -0.813235 0.992267 0.065584 -0.025930 206838.000000 0 0 1
-29.355383 30.162869 27.819382 50.452505 -0.798964 0.986758 0.084300 -0.034022 394753.000000 0 0 1
-28.178173 30.105469 27.020352 49.299576 -0.818454 0.990723 0.052893 -0.020367 97336.600000 0 0 1
-28.204923 30.782369 25.614892 48.981575 -0.829065 1.020489 0.042668 -0.005199 -525501.000000 0 0 1
-28.405743 32.185669 25.760672 50.064117 -0.847701 1.030309 0.031675 -0.010849 245457.000000 0 0 1
-29.058823 32.724369 24.587822 50.198213 -0.844658 1.058919 0.027976 -0.017133 213600.000000 0 0 1
-29.212603 -33.953224 24.720132 51.159384 0.860308 1.066492 0.031500 -0.002912 -208316.000000 0 0 1
-30.086793 -33.659624 25.792462 51.994582 0.841387 1.051740 0.045394 -0.019064 106898.000000 0 0 1
-30.028173 -32.359824 26.267262 51.369431 0.822754 1.034053 0.029666 -0.015307 -272529.000000 0 0 1
-30.233163 -32.303624 27.829262 52.268883 0.818494 1.009333 0.044729 -0.014283 310848.000000 0 0 1
-31.570353 -32.671724 28.154082 53.448864 0.802541 1.016026 0.040623 -0.029749 181654.000000 0 0 1
-31.776293 -32.835324 29.509192 54.393784 0.801787 0.997374 0.044433 -0.026831 536436.000000 0 0 1
-33.266113 -33.224224 29.793452 55.660876 0.784768 1.005972 0.063473 -0.036624 637986.000000 0 0 1
-33.531313 -33.753124 31.050982 56.813606 0.788695 0.992568 0.060015 -0.035171 -373882.000000 0 0 1
-34.915972 -33.862924 31.259462 57.818481 0.770089 0.999589 0.068287 -0.039219 -156229.000000 0 0 1
-35.360724 33.932769 32.704171 58.918388 -0.764794 0.982342 0.087178 -0.033041 39300.900000 0 0 1
-35.115691 32.588469 33.155737 58.261677 -0.748088 0.965406 0.056879 -0.023363 267687.000000 0 0 1
-35.980180 32.247969 -34.025040 59.094909 -0.730751 2.184341 0.067654 -0.023303 484000.000000 0 0 1
-35.569344 30.810669 -33.501400 57.765209 -0.713832 2.189474 0.049215 -0.024874 811375.000000 0 0 1
-34.331530 30.907369 -32.792700 56.650513 -0.732960 2.188126 0.051568 -0.029248 223508.000000 0 0 1
-33.808443 29.596169 -32.518020 55.464995 -0.719061 2.197256 0.028634 -0.027168 919254.000000 0 0 1
-32.883933 29.444269 -31.237500 54.074943 -0.730268 2.186668 0.023591 -0.021163 668023.000000 0 0 1
-33.674513 29.500369 -30.041070 53.913918 -0.719421 2.161812 0.041591 -0.023206 178207.000000 0 0 1
-34.102651 30.818669 -29.661090 54.704309 -0.734857 2.143859 0.039424 -0.018649 384990.000000 0 0 1
-35.172739 30.954769 -28.540980 54.862618 -0.721699 2.117912 0.034342 -0.012092 390405.000000 0 0 1
-34.677703 30.763769 -27.222480 53.758869 -0.725661 2.101779 0.012507 -0.018225 -173621.000000 0 0 1
-35.760216 30.594069 -26.334940 53.928835 -0.707698 2.080969 0.034733 -0.018502 -90581.900000 0 0 1
-35.381102 30.265969 -24.898770 52.799622 -0.707637 2.061868 0.035930 -0.019764 -437147.000000 0 0 1
-34.792360 31.359669 -24.288170 52.762225 -0.733554 2.049166 0.040372 -0.019436 -313870.000000 0 0 1
-34.783099 31.298669 -22.833970 52.065928 -0.732718 2.024791 0.029138 -0.016506 -221744.000000 0 0 1
-36.129973 31.315869 -22.090370 52.669185 -0.714142 2.003600 0.017312 -0.012876 -121111.000000 0 0 1
36.169123 32.492469 -21.959270 53.349560 0.731902 1.995017 0.024767 -0.016074 -51327.100000 0 0 1
-36.343543 33.566769 -21.201870 53.824719 -0.745700 1.975673 0.033253 -0.015124 -201384.000000 0 0 1
-36.232803 33.522169 -19.659270 53.132276 -0.746558 1.949812 0.030117 -0.013231 -212020.000000 0 0 1
-35.201291 32.634569 -19.352270 51.755738 -0.747579 1.954023 0.028077 -0.013407 -268742.000000 0 0 1
-35.169625 32.455969 -17.924570 51.103647 -0.745292 1.929167 0.037942 -0.003423 179901.000000 0 0 1
-33.969483 31.555669 -17.562670 49.579567 -0.748577 1.932889 0.036084 0.000449 76529.800000 0 0 1
-33.798773 31.331269 -16.202870 48.852211 -0.747530 1.908871 0.040619 0.003296 669292.000000 0 0 1
-32.539333 30.647269 -16.039970 47.490462 -0.755463 1.915323 0.046953 0.005847 460696.000000 0 0 1
-32.129393 30.330569 -14.623570 46.541273 -0.756606 1.890417 0.046348 0.004863 -250482.000000 0 0 1
-32.984253 29.430569 -13.875170 46.331843 -0.728523 1.874937 0.050149 0.002226 421408.000000 0 0 1
-32.590423 29.251569 -12.571270 45.561242 -0.731460 1.850343 0.066121 0.004910 5588.370000 0 0 1
-33.547663 28.217669 -11.891070 45.421142 -0.699317 1.835679 0.065196 -0.007413 145694.000000 0 0 1
-33.087973 27.825669 -10.649770 44.525267 -0.699223 1.812323 0.075233 -0.004416 535048.000000 0 0 1
-33.917873 26.858569 -9.991270 44.403044 -0.669764 1.797753 0.077221 -0.011669 297456.000000 0 0 1
-33.082263 26.238069 -8.863170 43.144272 -0.670529 1.777700 0.081824 -0.004917 227164.000000 0 0 1
-32.758403 27.207869 -7.821870 43.296221 -0.693100 1.752453 0.072359 -0.011114 41919.000000 0 0 1
-31.642323 26.676569 -7.157670 42.001288 -0.700455 1.742048 0.073810 -0.018330 -431475.000000 0 0 1
-31.172183 27.602769 -6.020870 42.069808 -0.724742 1.714406 0.078903 -0.022450 -177185.000000 0 0 1
-30.264213 26.922669 -5.177370 40.835743 -0.727033 1.697924 0.089193 -0.023762 244924.000000 0 0 1
-30.406823 27.421969 -3.880870 41.129071 -0.733829 1.665295 0.092224 -0.022871 -197556.000000 0 0 1
-29.666533 26.560069 -2.856970 39.921207 -0.730205 1.642423 0.081508 -0.021930 174628.000000 0 0 1
-30.277523 25.259369 -2.623070 39.517650 -0.695286 1.637222 0.070975 -0.018516 330751.000000 0 0 1
-29.413573 24.496169 -1.816470 38.321275 -0.694434 1.618215 0.049093 -0.015377 134977.000000 0 0 1
-30.070033 23.197369 -1.325770 38.001085 -0.657085 1.605691 0.059100 -0.020673 -146115.000000 0 0 1
-30.277563 22.220469 -2.310170 37.627343 -0.633112 1.632231 0.037768 -0.011062 887481.000000 0 0 1
-31.392023 21.310369 -2.072170 37.998485 -0.596388 1.625356 0.046253 -0.010136 860157.000000 0 0 1
-31.752483 20.537469 -3.360770 37.964491 -0.574122 1.659436 0.074741 -0.011110 -250361.000000 0 0 1
-30.877183 19.490869 -3.684170 36.699694 -0.563073 1.671353 0.053942 -0.011552 -247784.000000 0 0 1
-31.333153 18.627569 -4.685070 36.751907 -0.536366 1.698622 0.066630 -0.010192 -217238.000000 0 0 1
-30.213383 17.751069 -5.288170 35.438873 -0.531195 1.720575 0.072294 -0.011193 -15898.000000 0 0 1
-29.961713 16.700869 -4.349870 34.576649 -0.508512 1.696934 0.087706 -0.020333 154375.000000 0 0 1
-29.323653 15.574569 -4.936470 33.568029 -0.488238 1.718390 0.084829 -0.022936 -139165.000000 0 0 1
-29.120743 14.301969 -4.036470 32.693380 -0.456524 1.694577 0.090219 -0.024741 -741108.000000 0 0 1
-30.294143 13.743769 -3.551370 33.455022 -0.425908 1.677150 0.099347 -0.024026 -630446.000000 0 0 1
-30.229433 12.549369 -2.837570 32.853571 -0.393487 1.657274 0.077627 -0.027137 -556949.000000 0 0 1
-31.540003 11.983769 -2.269470 33.816165 -0.363107 1.637959 0.085172 -0.027526 -879758.000000 0 0 1
-32.425543 11.536269 -3.225370 34.567389 -0.341812 1.664239 0.091924 -0.012911 56009.600000 0 0 1
-33.324783 10.538169 -2.717370 35.056786 -0.306276 1.648388 0.081856 -0.013654 343383.000000 0 0 1
-34.307390 10.133469 -3.848870 35.979133 -0.287206 1.677976 0.062338 -0.014971 148413.000000 0 0 1
-33.682543 9.221069 -4.732870 35.241196 -0.267217 1.705503 0.047861 -0.018893 918897.000000 0 0 1
-34.643783 8.848469 -5.720570 36.210662 -0.250067 1.729441 0.046284 -0.013405 365558.000000 0 0 1
-34.079587 7.859469 -6.761970 35.621816 -0.226658 1.761782 0.055913 -0.017231 -350671.000000 0 0 1
-33.561453 6.624169 -6.371870 34.797291 -0.194870 1.754949 0.049147 -0.013437 298466.000000 0 0 1
-33.220633 5.937269 -7.529270 34.576749 -0.176855 1.790310 0.066762 -0.014377 -925221.000000 0 0 1
-32.435343 4.699069 -7.197670 33.555017 -0.143874 1.786980 0.092209 -0.019266 422300.000000 0 0 1
-31.046633 5.022169 -7.002970 32.220447 -0.160373 1.789890 0.095382 -0.018130 1012040.000000 0 0 1
-30.270643 3.904869 -6.599170 31.226733 -0.128290 1.783733 0.089353 -0.021233 507529.000000 0 0 1
-28.767623 4.204469 -6.314870 29.751156 -0.145125 1.784680 0.137567 -0.016673 723602.000000 0 0 1
-27.949863 4.372869 -7.486370 29.263673 -0.155196 1.829497 0.133375 -0.018087 176454.000000 0 0 1
-26.595283 4.255469 -7.113970 27.857255 -0.158663 1.829029 0.168450 -0.030176 150026.000000 0 0 1
-25.545773 4.593769 -8.214570 27.224408 -0.177923 1.877309 0.166670 -0.032571 -69660.300000 0 0 1
-25.589833 3.811569 -9.359470 27.513039 -0.147862 1.917908 0.153885 -0.048426 387854.000000 0 0 1
-24.472733 4.159069 -10.159870 26.822295 -0.168339 1.959279 0.144008 -0.048538 45782.900000 0 0 1
-24.639033 3.635969 -11.600670 27.475039 -0.146512 2.006696 0.125107 -0.054682 -8873.020000 0 0 1
-25.672353 4.284069 -12.313770 28.793261 -0.165351 2.012701 0.134734 -0.039650 219482.000000 0 0 1
-26.065083 3.528269 -13.400970 29.519879 -0.134546 2.042006 0.122412 -0.041882 -245946.000000 0 0 1
-26.969913 4.302269 -14.370070 30.860730 -0.158188 2.055157 0.101969 -0.030336 -453925.000000 0 0 1
-26.338043 5.415869 -15.048270 30.813546 -0.202802 2.081012 0.091166 -0.027336 1050820.000000 0 0 1
-27.177423 6.276069 -15.903470 32.107970 -0.226951 2.088991 0.120936 -0.024560 289163.000000 0 0 1
-28.012903 5.621969 -17.020770 33.257118 -0.198061 2.108067 0.075502 -0.004657 107389.000000 0 0 1
-29.234163 5.009569 -16.640470 34.009371 -0.169712 2.082073 0.085885 -0.017206 -9076.560000 0 0 1
-29.900643 4.558969 -17.773470 35.081746 -0.151305 2.102068 0.090428 -0.008106 657360.000000 0 0 1
-31.383483 4.116869 -17.447470 36.142577 -0.130435 2.074577 0.085871 -0.011243 685686.000000 0 0 1
-31.484773 3.024069 -16.524670 35.686141 -0.095755 2.052236 0.098500 -0.017666 74113.900000 0 0 1
-31.081463 1.791969 -17.018670 35.481032 -0.057590 2.071058 0.124840 -0.023930 -389983.000000 0 0 1
-31.396623 0.544569 -16.155770 35.313643 -0.017343 2.045971 0.122510 -0.022674 -395957.000000 0 0 1
-30.909983 -0.656231 -16.704670 35.141197 0.021227 2.066168 0.126957 -0.015959 410134.000000 0 0 1
-31.049213 -1.755131 -15.777970 34.872317 0.056467 2.040307 0.125741 -0.027520 -99557.800000 0 0 1
-30.626393 -3.071131 -16.501070 34.924105 0.099943 2.062903 0.123586 -0.015873 -201972.000000 0 0 1
-31.630913 -3.512731 -17.375070 36.259440 0.110601 2.070525 0.122995 -0.024838 19281.900000 0 0 1
-31.415583 -4.761531 -18.060670 36.548582 0.150421 2.087659 0.113178 -0.021995 -485644.000000 0 0 1
-32.415373 -5.088831 -19.153070 37.993325 0.155717 2.099155 0.128487 -0.021047 -447019.000000 0 0 1
-32.161503 -6.262231 -19.837670 38.302885 0.192306 2.115209 0.116174 -0.015818 354360.000000 0 0 1
-33.096283 -6.444531 -20.913170 39.676903 0.192314 2.125965 0.116714 -0.015363 -102788.000000 0 0 1
-32.745723 -7.667031 -21.822770 40.091134 0.229995 2.146385 0.103637 -0.012522 -538868.000000 0 0 1
-31.632963 -7.423831 -22.616070 39.588436 0.230515 2.178861 0.103623 -0.013225 -387966.000000 0 0 1
-31.739583 -8.104231 -23.848170 40.519315 0.249994 2.200077 0.096452 -0.004769 -193053.000000 0 0 1
-30.458933 -8.065831 -24.696070 40.033737 0.258868 2.235571 0.087266 -0.004655 -316070.000000 0 0 1
-30.406643 -6.927731 -25.472130 40.266448 0.224012 2.255688 0.085826 -0.006720 165454.000000 0 0 1
-30.163613 -7.237731 -26.865120 41.036118 0.235497 2.284542 0.067735 -0.001993 340597.000000 0 0 1
-31.476343 -7.453631 -27.681470 42.574412 0.232518 2.278631 0.077579 -0.000163 1083010.000000 0 0 1
-32.351763 -8.465631 -27.113460 43.051634 0.255936 2.252078 0.071455 -0.008237 421823.000000 0 0 1
-33.655623 -8.523231 -27.647540 44.381673 0.248034 2.243304 0.067272 -0.010550 482987.000000 0 0 1
-34.574952 -9.670131 -27.163990 45.020230 0.272718 2.218520 0.064333 -0.010050 -443797.000000 0 0 1
-34.233291 -10.965031 -27.605670 45.323539 0.309978 2.225697 0.060823 -0.005830 335051.000000 0 0 1
-35.219413 -11.999231 -27.404940 46.210598 0.328365 2.205631 0.045816 -0.005639 624063.000000 0 0 1
-36.494283 -11.912331 -28.294590 47.689833 0.315512 2.205954 0.046429 -0.010637 92306.300000 0 0 1
35.685783 -10.874431 -27.954440 46.617369 -0.295788 2.213869 0.035725 -0.010029 -303604.000000 0 0 1
34.884083 -10.478831 -29.017160 46.569311 -0.291815 2.243491 0.044033 -0.019126 592294.000000 0 0 1
33.792573 -9.369331 -28.649030 45.282329 -0.270466 2.255800 0.035095 -0.011923 1032800.000000 0 0 1
32.686883 -9.721031 -27.821290 44.010850 -0.289068 2.255116 0.019298 -0.008894 166943.000000 0 0 1
32.029093 -8.551631 -27.388760 43.001597 -0.260910 2.261298 0.002222 0.001668 535494.000000 0 0 1
30.802303 -8.860331 -26.459750 41.562071 -0.280090 2.260919 0.001896 0.003244 281578.000000 0 0 1
31.203563 -9.327131 -25.183770 41.168920 -0.290459 2.229027 -0.014514 0.014964 -167944.000000 0 0 1
30.133083 -9.677531 -24.338070 39.924916 -0.310755 2.226347 -0.013166 0.015816 -595524.000000 0 0 1
30.369783 -9.772631 -22.806270 39.216756 -0.311324 2.191422 -0.024556 0.014022 -284136.000000 0 0 1
31.147553 -10.883331 -22.468970 39.918311 -0.336151 2.168655 -0.044032 0.019898 73902.600000 0 0 1
31.183833 -11.017931 -21.049170 39.203237 -0.339631 2.137583 -0.034376 0.015410 -454764.000000 0 0 1
31.931103 -12.227631 -20.554370 39.894767 -0.365712 2.112054 -0.012341 0.017499 -288461.000000 0 0 1
33.315313 -12.104631 -20.821070 41.108991 -0.348505 2.101899 -0.001889 0.011888 92488.200000 0 0 1
34.019683 -13.054031 -20.020670 41.576120 -0.366394 2.073210 0.027716 0.006266 106574.000000 0 0 1
35.476253 -13.226331 -20.515270 43.062474 -0.356860 2.067360 0.045349 -0.007885 433601.000000 0 0 1
36.496063 -12.222231 -20.423370 43.571316 -0.323152 2.058654 0.064066 -0.010718 958309.000000 0 0 1
36.289073 -11.212631 -21.420570 43.605742 -0.299676 2.084301 0.072594 0.006564 -225559.000000 0 0 1
-36.061013 -11.379131 -22.853170 44.183127 0.305663 2.114416 0.053989 0.002404 299575.000000 0 0 1
-36.502893 -12.441331 -23.700770 45.265599 0.328484 2.121860 0.042545 0.005210 201593.000000 0 0 1
35.280213 -12.236231 -24.249670 44.524884 -0.333848 2.146746 0.042924 0.009147 -114731.000000 0 0 1
34.802573 -13.454031 -25.058900 44.946396 -0.368885 2.162202 0.038696 -0.012869 -291930.000000 0 0 1
34.698073 -14.719331 -24.394370 44.896551 -0.401203 2.145214 0.036906 -0.017271 258927.000000 0 0 1
33.772633 -14.859831 -23.342470 43.660923 -0.414504 2.134867 0.023182 -0.008156 -325732.000000 0 0 1
-29.785513 8.314469 -19.186970 36.392953 -0.272215 2.126118 0.039205 0.001554 1118040.000000 0 0 1
-28.637453 7.479869 -19.549670 35.471704 -0.255484 2.154519 0.044831 -0.002472 763498.000000 0 0 1
-27.786063 8.181869 -20.406470 35.432080 -0.286366 2.184540 0.065775 -0.017051 -244436.000000 0 0 1
-26.519293 7.325269 -20.674470 34.414622 -0.269504 2.215231 0.056176 -0.015103 -572744.000000 0 0 1
-25.482743 7.546869 -19.768570 33.122829 -0.287927 2.210336 0.071537 -0.013541 -737580.000000 0 0 1
-24.622933 6.464269 -19.889070 32.305584 -0.256737 2.234012 0.088112 -0.020613 -1795400.000000 0 0 1
-23.246433 6.796369 -19.443970 31.058900 -0.284435 2.247255 0.076431 -0.016866 -1321640.000000 0 0 1
-22.607233 7.845669 -20.163270 31.292155 -0.334038 2.270976 0.076610 -0.014197 -129163.000000 0 0 1
-21.321133 8.129569 -19.672870 30.128100 -0.364275 2.282301 0.079548 -0.008544 -144358.000000 0 0 1
-20.655133 9.190869 -20.594170 30.581472 -0.418661 2.309621 0.079683 -0.001259 -194745.000000 0 0 1
-20.256033 8.676469 -21.863470 31.041896 -0.404696 2.352263 0.100451 -0.013804 -18645.100000 0 0 1
-19.595033 9.688369 -22.600270 31.442043 -0.459182 2.372859 0.090584 -0.009057 253415.000000 0 0 1
-18.664633 9.120569 -23.718470 31.529655 -0.454531 2.422281 0.124593 -0.008442 341311.000000 0 0 1
-19.376733 8.420069 -24.721570 32.519400 -0.409928 2.434432 0.112944 -0.009086 641207.000000 0 0 1
-18.447933 7.896169 -25.694560 32.601935 -0.404430 2.478561 0.100334 -0.007274 684984.000000 0 0 1
-19.133733 6.792669 -26.581070 33.448369 -0.341131 2.489292 0.063141 -0.003522 214549.000000 0 0 1
-19.525833 5.619069 -25.941850 32.951657 -0.280205 2.477165 0.075186 -0.002287 79748.100000 0 0 1
-20.081233 4.636469 -26.762930 33.778798 -0.226909 2.485365 0.058226 0.001985 -597997.000000 0 0 1
-20.376633 3.329869 -25.874910 33.102963 -0.161984 2.468102 0.054972 0.001197 568269.000000 0 0 1
-19.226133 2.531469 -25.606050 32.120435 -0.130915 2.493421 0.052457 0.005404 928042.000000 0 0 1
-18.106433 3.113969 -24.918570 30.959245 -0.170315 2.506275 0.053498 0.000246 275540.000000 0 0 1
-17.273833 1.925469 -24.301670 29.877482 -0.111009 2.520731 0.040105 -0.002275 3518.600000 0 0 1
-17.770133 1.296169 -23.119170 29.188246 -0.072812 2.484991 0.041025 -0.002071 -207562.000000 0 0 1
-18.937433 0.546169 -23.270170 30.007091 -0.028833 2.458286 0.033809 -0.000778 -446357.000000 0 0 1
-19.285233 -0.403431 -22.106070 29.338734 0.020916 2.424131 0.054772 -0.005453 163620.000000 0 0 1
-18.520933 -1.606531 -22.072370 28.858195 0.086525 2.441614 0.061230 -0.010313 389001.000000 0 0 1
-18.741433 -2.132831 -20.757670 28.047659 0.113315 2.403994 0.068616 -0.007791 104069.000000 0 0 1
-18.168733 -3.557331 -20.520470 27.637785 0.193348 2.407560 0.049868 -0.022936 8401.780000 0 0 1
-18.682833 -4.426031 -21.520070 28.840101 0.232615 2.413110 0.053527 -0.030648 434508.000000 0 0 1
-18.948933 -5.677831 -21.002470 28.851405 0.291125 2.386128 0.059982 -0.028675 -274046.000000 0 0 1
-19.069833 -6.818431 -22.039170 29.931164 0.343386 2.398424 0.041274 -0.027624 -52958.600000 0 0 1
-17.780633 -7.038131 -22.566970 29.579627 0.376907 2.438618 0.041409 -0.030068 34265.700000 0 0 1
-17.798033 -7.791231 -23.797770 30.721444 0.412627 2.456927 0.054215 -0.035769 80499.600000 0 0 1
-16.435433 -7.877631 -24.514670 30.547497 0.446957 2.502287 0.057256 -0.037996 -378732.000000 0 0 1
-16.512033 -8.547231 -25.733490 31.747676 0.477657 2.515909 0.050752 -0.049909 783059.000000 0 0 1
-15.246033 -8.657131 -26.400430 31.691800 0.516428 2.555371 0.057590 -0.048114 476735.000000 0 0 1
-14.152833 -9.593031 -25.909270 31.042217 0.595682 2.558287 0.060268 -0.048375 -608048.000000 0 0 1
-13.409233 -9.066431 -24.838370 29.647130 0.594528 2.564038 0.063588 -0.036509 -263345.000000 0 0 1
-12.551633 -9.972331 -24.239870 29.061352 0.671381 2.557283 0.038275 -0.031939 -400723.000000 0 0 1
-11.655233 -9.424731 -23.131970 27.563709 0.679979 2.566641 0.055387 -0.028386 -211130.000000 0 0 1
-12.346533 -8.960631 -22.016970 26.785757 0.627807 2.535650 0.041608 -0.026740 -154354.000000 0 0 1
-11.439933 -8.339331 -21.141570 25.443712 0.629903 2.551547 0.044239 -0.025314 -602623.000000 0 0 1
-12.055133 -7.904031 -19.794970 24.487564 0.580342 2.512171 0.034787 -0.018403 263125.000000 0 1 0
-13.002433 -6.835631 -19.752670 24.616196 0.484011 2.502145 0.036817 -0.008375 1832650.000000 0 1 0
-14.352833 -7.211731 -20.181070 25.793187 0.465614 2.469337 0.041376 -0.020632 1660830.000000 0 0 1
-15.432333 -6.107031 -19.847970 25.872662 0.376820 2.445168 0.038481 -0.007087 20810.800000 0 0 1
-15.670333 -5.871031 -18.482670 24.932658 0.358472 2.405807 0.049257 -0.009955 358348.000000 0 1 0
-14.894733 -4.886931 -17.811270 23.727126 0.317031 2.419874 0.048589 -0.010058 -736712.000000 0 1 0
-15.024933 -4.834931 -16.297370 22.687650 0.311329 2.372205 0.056555 0.003113 710365.000000 0 1 0
-16.291533 -4.317231 -15.838670 23.128251 0.259044 2.325152 0.082537 -0.000352 949494.000000 0 1 0
-16.457433 -2.950431 -15.998970 23.141288 0.177392 2.334167 0.034915 -0.002194 -625727.000000 0 1 0
-17.534633 -2.355531 -15.112070 23.267715 0.133536 2.277705 0.032340 -0.005197 -468012.000000 0 1 0
-17.392333 -2.732931 -13.734770 22.329489 0.155860 2.233304 0.052754 -0.011246 40121.000000 0 1 0
-18.394933 -2.163131 -12.957770 22.604347 0.117056 2.181254 0.059705 -0.022017 -292459.000000 0 1 0
-17.907233 -0.905031 -12.140170 21.653448 0.050497 2.165976 0.050597 -0.024020 -13836.700000 0 1 0
-17.760533 0.214269 -13.006470 22.014784 -0.012064 2.202854 0.075538 -0.030345 844442.000000 0 1 0
-16.959733 1.260669 -12.415670 21.056370 -0.074197 2.201409 0.074222 -0.023203 -484326.000000 0 1 0
-16.474133 2.317469 -13.456370 21.397234 -0.139756 2.250913 0.081429 -0.019572 -114174.000000 0 1 0
-15.658433 1.828769 -14.481570 21.406700 -0.116265 2.313792 0.069377 -0.022687 165965.000000 0 1 0
-14.321133 1.540469 -14.118370 20.169191 -0.107154 2.346189 0.050895 -0.016916 -533585.000000 0 1 0
-13.676133 0.596369 -15.138270 20.409789 -0.043579 2.406422 0.042554 -0.019655 -43772.000000 0 1 0
-13.012133 1.179069 -16.251070 20.851933 -0.090366 2.464433 0.032839 -0.025386 321422.000000 0 1 0
-12.798233 0.237169 -17.317070 21.534436 -0.018529 2.505052 0.020106 -0.014366 -68193.100000 0 1 0
-12.305233 1.016169 -18.575670 22.304862 -0.082393 2.554958 0.039468 -0.019234 -397319.000000 0 1 0
-11.058633 1.569869 -18.254470 21.400550 -0.141016 2.592485 0.030246 -0.023839 -650644.000000 0 1 0
-10.563333 2.287169 -19.355170 22.168396 -0.213228 2.632316 0.028651 -0.023338 -542209.000000 0 1 0
-9.133633 2.774069 -19.231770 21.470438 -0.294866 2.680873 0.020443 -0.020128 -828223.000000 0 1 0
-8.164733 1.803469 -19.620470 21.327874 -0.217395 2.738736 0.025582 -0.012909 645763.000000 0 1 0
-6.806033 2.100069 -19.283170 20.556581 -0.299291 2.787765 0.024274 -0.010960 775828.000000 0 1 0
-6.153333 3.181369 -20.190970 21.346192 -0.477167 2.811097 0.028725 -0.011595 -896425.000000 0 1 0
-6.035033 2.778469 -21.542370 22.543630 -0.431461 2.842437 0.021846 -0.009976 200731.000000 0 1 0
-5.850333 3.859869 -22.370870 23.443140 -0.583212 2.837974 0.013489 -0.012262 -306824.000000 0 1 0
-5.320633 3.321869 -23.714670 24.530176 -0.558123 2.883016 0.030954 -0.021230 -713356.000000 0 1 0
-4.083433 2.702869 -23.692870 24.193636 -0.584703 2.937779 0.039389 -0.025397 -881358.000000 0 1 0
-3.769433 1.993269 -24.844270 25.207529 -0.486420 2.971619 0.062834 -0.028133 -72473.900000 0 0 1
-2.355433 1.398769 -24.760970 24.912051 -0.535884 3.031405 0.040796 -0.027701 -117210.000000 0 1 0
-1.261433 2.328569 -24.790970 24.932021 -1.074332 3.035171 0.034038 -0.023683 957285.000000 0 1 0
0.047867 1.773569 -24.772370 24.835824 1.543814 3.070094 0.039728 -0.024039 526105.000000 0 1 0
0.563467 0.876769 -23.669770 23.692705 0.999596 3.097589 0.040954 -0.023298 -1083290.000000 0 1 0
0.052667 -0.395331 -23.738070 23.741420 -1.438354 3.124793 0.036753 -0.024188 -90761.700000 0 1 0
0.790767 -1.227031 -22.849370 22.895953 -0.998329 3.077793 0.037654 -0.018800 -535985.000000 0 1 0
0.299767 -2.672931 -22.804670 22.962740 -1.459114 3.024190 0.050400 -0.023945 -795869.000000 0 1 0
-0.843633 -2.974731 -22.099970 22.315229 1.294453 3.002583 0.043176 -0.020660 -717080.000000 0 1 0
-2.072433 -2.985131 -22.797270 23.085093 0.963938 2.983517 0.052182 -0.024019 136944.000000 0 1 0
-2.808133 -1.576931 -22.856970 23.082751 0.511674 3.001611 0.056266 -0.022844 -1447140.000000 0 1 0
-3.398233 -1.235131 -21.663470 21.963139 0.348618 2.976212 0.039496 -0.019248 -87436.300000 0 1 0
-4.195933 -0.061331 -21.688670 22.090904 0.014616 2.950472 0.033155 -0.016862 198942.000000 0 1 0
-5.597833 -0.194731 -22.305970 22.998477 0.034773 2.895571 0.032840 -0.015404 -851118.000000 0 1 0
-6.424833 -1.086131 -21.609070 22.570115 0.167469 2.848724 0.038557 -0.014866 83477.500000 0 1 0
-7.802733 -0.779531 -21.772870 23.141914 0.099574 2.795901 0.024783 -0.013137 447674.000000 0 1 0
-8.695233 -1.953931 -21.306270 23.095066 0.221041 2.745424 0.021064 -0.006513 -169717.000000 0 1 0
-8.553733 -3.107731 -22.139470 23.937011 0.348490 2.751583 0.042250 -0.015227 -19602.300000 0 1 0
-9.060533 -4.251031 -21.499670 23.714981 0.438690 2.705919 0.030994 -0.017840 -489056.000000 0 1 0
-9.806133 -5.081431 -22.616070 25.168787 0.478093 2.687310 0.035590 -0.021523 2662330.000000 0 0 1
-11.254233 -4.764031 -22.671170 25.755305 0.400438 2.647190 0.035541 -0.020156 2283110.000000 0 0 1
-12.046733 -5.424331 -23.628870 27.071584 0.423082 2.631766 0.033168 -0.030067 557337.000000 0 0 1
-13.587833 -5.305931 -23.475570 27.638461 0.372282 2.585607 0.059234 -0.028248 571248.000000 0 0 1
-14.143033 -4.014031 -23.801570 27.975929 0.276545 2.588278 0.053328 -0.028189 1103050.000000 0 0 1
-15.586733 -4.011231 -23.831970 28.757591 0.251883 2.547612 0.056913 -0.025262 1176290.000000 0 0 1
-16.105533 -2.630131 -24.236570 29.218438 0.161877 2.549001 0.043559 -0.023517 -255237.000000 0 0 1
-15.878133 -2.369031 -25.641280 30.252317 0.148108 2.582206 0.042506 -0.022106 87309.900000 0 0 1
-16.420933 -1.108331 -26.041120 30.806093 0.067393 2.577967 0.029172 -0.016472 288756.000000 0 0 1
-17.896533 -1.126531 -26.537340 32.027885 0.062864 2.547345 0.033095 -0.013439 93747.500000 0 0 1
-18.018733 -1.786931 -27.804100 33.180353 0.098848 2.564347 0.041284 -0.024042 22449.600000 0 0 1
-17.707433 -1.029331 -28.979830 33.977099 0.058065 2.592354 0.038322 -0.023018 -165062.000000 0 0 1
-17.814133 -1.767531 -30.328440 35.217635 0.098897 2.608367 0.048013 -0.020739 276754.000000 0 0 1
-19.139333 -2.031931 -30.751110 36.277729 0.105769 2.582352 0.045792 -0.024386 245625.000000 0 0 1
-19.116733 -2.540331 -32.056430 37.410125 0.132111 2.600006 0.054047 -0.025652 -278881.000000 0 0 1
-20.452733 -3.237831 -32.471510 38.512294 0.157005 2.573905 0.022668 -0.017453 1000100.000000 0 0 1
-21.603033 -2.450031 -32.804310 39.355006 0.112929 2.556297 0.030801 -0.021156 973948.000000 0 0 1
-22.209333 -1.831831 -31.671640 38.725997 0.082294 2.528442 0.021504 -0.006495 -1194750.000000 0 0 1
-23.423833 -0.987231 -31.912340 39.598586 0.042121 2.507984 0.027884 0.000155 -733196.000000 0 0 1
-23.029433 0.270369 -32.407030 39.757308 -0.011740 2.523735 0.039109 -0.001487 358052.000000 0 0 1
-24.143833 1.090869 -32.678830 40.645057 -0.045151 2.504797 0.041057 -0.001897 -92958.100000 0 0 1
-23.761533 2.438369 -33.362030 41.031466 -0.102260 2.520227 0.047677 -0.004728 33087.200000 0 0 1
-23.096233 3.486269 -32.618040 40.118906 -0.149814 2.520141 0.046757 -0.006653 997861.000000 0 0 1
-23.900633 4.108069 -31.561350 39.802454 -0.170218 2.486432 0.038115 -0.004734 32245.800000 0 0 1
-25.044723 5.010369 -32.062160 40.991756 -0.197450 2.468923 0.034380 -0.012206 -717930.000000 0 0 1
-26.178433 4.332769 -32.482150 41.942500 -0.164022 2.456633 0.047412 -0.014951 -375163.000000 0 0 1
-27.061753 5.154769 -33.255680 43.183914 -0.188227 2.449785 0.065395 -0.024013 53337.700000 0 0 1
-28.285023 4.308669 -33.657920 44.175364 -0.151168 2.437063 0.068808 -0.021828 -429902.000000 0 0 1
-28.007523 3.234869 33.679593 43.922668 -0.114990 0.696966 0.063302 -0.021573 648463.000000 0 0 1
-29.167223 2.749969 32.979500 44.112772 -0.094005 0.726328 0.067355 -0.024358 421879.000000 0 0 1
-29.150843 1.295769 32.565845 43.726250 -0.044421 0.730611 0.068367 -0.007589 -110584.000000 0 0 1
-29.041533 0.507069 33.692487 44.484283 -0.017458 0.711471 0.067695 -0.000683 249806.000000 0 0 1
-29.401503 -0.808831 33.420238 44.519826 0.027503 0.721702 0.054759 0.007545 -438630.000000 0 0 1
-29.398923 -1.692131 -33.542340 44.634612 0.057494 2.421110 0.024582 0.022706 -10836.800000 0 0 1
-28.122633 -2.028931 -33.058580 43.449612 0.072021 2.435416 0.037180 0.010004 292227.000000 0 0 1
-27.242683 -1.073731 -32.488400 42.412414 0.039393 2.443410 0.032744 0.009738 -565664.000000 0 0 1
-27.495433 -0.545331 -31.103470 41.517732 0.019831 2.417591 0.051385 0.009642 -737485.000000 0 0 1
-26.935003 -1.341431 -30.118340 40.427815 0.049761 2.411317 0.040237 0.002661 123187.000000 0 0 1
-26.961383 -0.766231 -28.781330 39.444496 0.028412 2.388631 0.049715 -0.003735 90646.800000 0 0 1
-25.826263 -1.216631 -27.801510 37.965774 0.047073 2.392458 0.046794 -0.004046 174778.000000 0 0 1
-25.836173 -2.524931 -27.346510 37.705633 0.097419 2.382213 0.032519 0.009153 352852.000000 0 0 1
-24.693133 -2.857731 -26.565600 36.381981 0.115217 2.389390 0.047762 -0.000769 -8621.270000 0 0 1
-24.774033 -4.284731 -25.996400 36.165238 0.171258 2.372904 0.044915 -0.002420 -228885.000000 0 0 1
-25.746483 -4.419431 -25.004670 36.161392 0.169995 2.334324 0.057993 0.000546 -315815.000000 0 0 1
-26.005483 -5.703731 -24.438170 36.139201 0.215909 2.313420 0.068831 -0.010942 -221910.000000 0 0 1
-27.067193 -5.467731 -23.375170 36.179105 0.199323 2.273255 0.077092 -0.018328 -195545.000000 0 0 1
-27.535073 -6.503431 -22.528170 36.166190 0.231937 2.243249 0.090486 -0.021345 -187894.000000 0 0 1
-28.482643 -6.025031 -21.622670 36.264333 0.208460 2.209620 0.101093 -0.015112 -121834.000000 0 0 1
-29.008403 -7.127231 -20.595670 36.283143 0.240923 2.174430 0.115216 -0.024148 205931.000000 0 0 1
-27.994403 -7.677931 -19.746470 35.107838 0.267684 2.168145 0.122095 -0.025884 331350.000000 0 0 1
-28.517983 -8.683231 -18.891570 35.292567 0.295564 2.135641 0.121543 -0.018602 -41536.900000 0 0 1
-29.249433 -8.165631 -17.644670 35.121806 0.272241 2.097151 0.111402 -0.026154 -55020.100000 0 0 1
-28.418083 -7.482231 -16.748470 33.824288 0.257448 2.088817 0.098849 -0.032589 155875.000000 0 0 1
-29.207323 -6.920331 -15.711170 33.879191 0.232648 2.053009 0.098667 -0.029907 90723.800000 0 0 1
-28.404773 -6.083131 -14.691970 32.552874 0.210972 2.039047 0.101592 -0.023534 55816.000000 0 0 1
-27.865183 -4.890231 -15.249270 32.139120 0.173727 2.065166 0.102346 -0.017281 347337.000000 0 0 1
-27.014713 -4.214531 -14.352470 30.879611 0.154761 2.054191 0.101430 -0.024705 -116870.000000 0 0 1
-14.113933 21.087769 -5.083970 25.879410 -0.980976 1.768531 0.065625 -0.034090 -40375.200000 0 0 1
-14.477433 20.559969 -6.337070 25.931966 -0.957286 1.817669 0.106543 -0.038743 -162247.000000 0 0 1
-15.332933 19.474469 -6.205170 25.551085 -0.903826 1.816103 0.078673 -0.044292 -528965.000000 0 0 1
-15.586633 18.724169 -7.505570 25.492572 -0.876589 1.869647 0.112236 -0.052039 -1247150.000000 0 0 1
-14.459033 18.124069 -8.059970 24.546052 -0.897410 1.905364 0.097168 -0.046611 -424419.000000 0 1 0
-14.568933 17.078569 -9.035570 24.198613 -0.864532 1.953459 0.080905 -0.049438 -686886.000000 0 1 0
-15.150533 15.762569 -8.493570 23.455020 -0.805194 1.941339 0.082878 -0.047086 709797.000000 0 1 0
-16.541333 15.917369 -8.170170 24.366576 -0.766177 1.912722 0.093018 -0.030126 485707.000000 0 1 0
-16.868933 15.189669 -6.972470 23.746627 -0.733065 1.868807 0.099125 -0.017017 -22362.800000 0 1 0
-18.373733 15.367169 -6.685970 24.868578 -0.696525 1.842997 0.099532 -0.015618 363499.000000 0 1 0
-19.219833 14.812169 -7.688070 25.454052 -0.656600 1.877625 0.099541 -0.019982 -469083.000000 0 0 1
-20.517433 15.302669 -7.654370 26.715653 -0.640832 1.861381 0.069839 -0.020443 -245152.000000 0 0 1
-21.547833 14.578369 -8.572770 27.392159 -0.594820 1.889109 0.068772 -0.012496 188743.000000 0 0 1
-21.708233 13.208369 -8.265770 26.721365 -0.546609 1.885287 0.099575 -0.014418 -692545.000000 0 0 1
-22.542433 12.575069 -9.120370 27.376538 -0.508842 1.910434 0.104100 -0.015632 -796456.000000 0 0 1
-22.801433 11.132269 -8.715170 26.828846 -0.454185 1.901642 0.113309 -0.022164 -590370.000000 0 0 1
-21.705733 10.264469 -8.601670 25.504645 -0.441727 1.914800 0.111051 -0.025971 -370611.000000 0 0 1
-21.996533 9.097469 -7.834370 25.059704 -0.392164 1.888755 0.132504 -0.039016 -513338.000000 0 0 1
-20.796433 8.274869 -7.392570 23.571491 -0.378693 1.889803 0.095889 -0.016067 -808962.000000 0 1 0
-20.598333 7.185569 -8.216270 23.311603 -0.335643 1.930989 0.093946 -0.022570 -387466.000000 0 1 0
-19.486733 6.417969 -7.953170 22.004000 -0.318162 1.940610 0.059208 -0.010422 -1042730.000000 0 1 0
-19.357533 5.241969 -8.934970 21.955091 -0.264455 1.989926 0.056267 -0.016949 -240965.000000 0 1 0
-20.348033 4.210469 -8.794470 22.563537 -0.204043 1.971172 0.073222 -0.020999 960903.000000 0 1 0
-20.131833 3.219269 -9.823670 22.630928 -0.158567 2.019815 0.064373 -0.020970 -82916.600000 0 1 0
-21.109533 2.029069 -9.708970 23.323671 -0.095827 2.000137 0.071621 -0.025971 -152724.000000 0 1 0
-21.048033 1.228169 -8.535670 22.746115 -0.058285 1.955472 0.083502 -0.029325 901794.000000 0 1 0
-22.036533 0.153869 -8.419870 23.590818 -0.006982 1.935758 0.100371 -0.024243 270637.000000 0 1 0
-21.762533 -1.163231 -9.169570 23.644068 0.053400 1.969058 0.080528 -0.036026 -298052.000000 0 1 0
-20.699133 -1.893431 -8.616170 22.500613 0.091220 1.963763 0.070792 -0.025248 144153.000000 0 1 0
-20.571333 -3.188731 -9.184570 22.753111 0.153785 1.986312 0.051990 -0.015636 82824.700000 0 1 0
-21.620733 -4.205631 -8.676370 23.673251 0.192119 1.946046 0.065304 -0.012215 285443.000000 0 1 0
-21.231933 -4.481731 -7.332970 22.905313 0.208031 1.896677 0.050271 -0.012439 590994.000000 0 1 0
-22.209833 -5.198831 -6.594170 23.744212 0.229938 1.852213 0.068816 -0.015269 -78963.700000 0 1 0
-22.391833 -6.698531 -6.794370 24.339843 0.290677 1.853701 0.086740 -0.023119 -465140.000000 0 1 0
-21.340733 -7.470331 -6.305570 23.473239 0.336720 1.842765 0.074278 -0.017640 -31600.400000 0 1 0
-21.701333 -8.790931 -6.130170 24.203457 0.384884 1.826862 0.091717 -0.024118 -460545.000000 0 1 0
-20.624833 -9.743931 -5.588570 23.485315 0.441355 1.811062 0.082595 -0.021617 -67362.700000 0 1 0
-19.578533 -10.047731 -6.498970 22.945859 0.474153 1.857957 0.089366 -0.007414 180215.000000 0 1 0
-18.610833 -10.847831 -5.872170 22.327582 0.527734 1.836927 0.086310 -0.005836 216134.000000 0 1 0
-17.532333 -11.413231 -6.847070 22.011972 0.577065 1.887106 0.050947 -0.010086 -128741.000000 0 1 0
-16.581833 -10.589431 -7.421570 21.027909 0.568331 1.931507 0.060247 -0.034095 90136.100000 0 1 0
-16.816733 -10.269331 -8.831570 21.593015 0.548222 1.992156 0.064576 -0.030570 79357.100000 0 1 0
-15.613733 -10.681131 -9.727770 21.272159 0.599965 2.045754 0.059855 -0.033830 354235.000000 0 1 0
-15.530333 -12.090331 -9.857670 22.012292 0.661492 2.035128 0.060520 -0.036727 454840.000000 0 1 0
-14.581633 -12.425831 -10.882170 22.032860 0.705745 2.087373 0.065398 -0.026928 141162.000000 0 1 0
-14.724833 -13.848631 -11.557070 23.284569 0.754743 2.090174 0.068435 -0.026432 -469620.000000 0 1 0
-15.837633 -13.828531 -12.389570 24.404105 0.717778 2.103291 0.075357 -0.024655 -377327.000000 0 1 0
-16.050033 -15.103531 -13.084170 25.630367 0.755026 2.106557 0.059126 -0.020977 -96793.700000 0 0 1
-16.458433 -14.945931 -14.547270 26.568476 0.737273 2.150216 0.056952 -0.016492 -201902.000000 0 0 1
-16.583433 -16.225931 -15.246370 27.762257 0.774502 2.152174 0.040752 -0.006701 324970.000000 0 0 1
-16.802033 -16.002731 -16.679370 28.576163 0.761038 2.194051 0.035526 -0.007671 -174935.000000 0 0 1
-17.139433 -17.303731 -17.434870 29.952529 0.790168 2.192085 0.030337 -0.012336 35551.200000 0 0 1
-18.442133 -17.703031 -17.053470 30.729960 0.764953 2.159094 0.035894 -0.011243 -102248.000000 0 0 1
-19.257933 -17.975631 -18.188870 32.012908 0.750972 2.175080 0.027964 -0.008381 1181670.000000 0 0 1
-20.784133 -17.922331 -17.760570 32.689876 0.711596 2.145165 0.022732 -0.016704 1044790.000000 0 0 1
-21.294733 -16.639831 -17.382570 32.132591 0.663300 2.142379 0.054625 -0.013893 362603.000000 0 0 1
-21.252433 -16.571031 -15.936470 31.308722 0.662255 2.104831 0.045376 -0.020655 -333648.000000 0 0 1
-21.334133 -15.084131 -15.396070 30.326807 0.615437 2.103277 0.069093 -0.027154 -1096460.000000 0 0 1
-22.596033 -14.559231 -15.280570 30.920022 0.572377 2.087707 0.087900 -0.027990 -668649.000000 0 0 1
-22.517433 -13.214231 -14.717570 29.970945 0.530690 2.084104 0.100257 -0.026791 -475278.000000 0 0 1
-23.854733 -12.544531 -14.365670 30.541546 0.484130 2.060501 0.102277 -0.032124 -450531.000000 0 0 1
-24.461233 -13.170331 -13.276670 30.790900 0.493906 2.016606 0.114917 -0.033498 -351027.000000 0 0 1
-25.533873 -12.440031 -12.798870 31.153557 0.453353 1.994162 0.117513 -0.034460 -821889.000000 0 0 1
-26.279393 -13.050331 -11.618270 31.557912 0.460923 1.947822 0.114793 -0.036927 -212268.000000 0 0 1
-27.101733 -12.108031 -10.957870 31.641480 0.420158 1.924435 0.104217 -0.033400 480962.000000 0 0 1
-27.850193 -12.650631 -9.820470 32.126521 0.426373 1.881450 0.097336 -0.034795 265237.000000 0 0 1
-28.757853 -11.567831 -9.215470 32.338115 0.382444 1.859774 0.088237 -0.031793 -409444.000000 0 0 1
-28.067543 -10.569931 -8.568770 31.191894 0.360163 1.849086 0.106363 -0.035936 -502771.000000 0 0 1
-28.934083 -9.705131 -7.928970 31.531560 0.323629 1.824986 0.114020 -0.030220 -56748.500000 0 0 1
-28.130593 -8.512831 -7.311870 30.286334 0.293857 1.814630 0.116165 -0.024013 321625.000000 0 0 1
-27.393353 -8.891931 -6.159370 29.451656 0.313872 1.781487 0.104195 -0.027066 33269.000000 0 0 1
-26.642633 -7.873831 -5.518670 28.324598 0.287355 1.766887 0.098414 -0.021530 -286851.000000 0 0 1
-27.330673 -6.587731 -5.023170 28.558644 0.236526 1.747606 0.119535 -0.022658 -55156.200000 0 0 1
-28.276393 -6.825231 -3.933770 29.353240 0.236845 1.705216 0.124302 -0.025824 783714.000000 0 0 1
-27.776063 -7.102931 -2.637470 28.790928 0.250356 1.662533 0.119065 -0.023500 -144488.000000 0 0 1
-26.998783 -5.927531 -1.935070 27.709464 0.216119 1.640687 0.113417 -0.022188 601582.000000 0 0 1
-27.854603 -4.938131 -1.388570 28.322997 0.175459 1.619842 0.125610 -0.023902 899316.000000 0 0 1
-27.021863 -4.165131 -0.522470 27.345975 0.152936 1.589903 0.122632 -0.037298 148125.000000 0 0 1
-27.784293 -2.913331 -0.006870 27.936615 0.104474 1.571042 0.132476 -0.044579 329692.000000 0 0 1
-28.857923 -3.124631 0.893530 29.040341 0.107856 1.540023 0.127580 -0.044320 259367.000000 0 0 1
-28.433873 -3.502831 2.186330 28.732125 0.122575 1.494629 0.120397 -0.037548 -678070.000000 0 0 1
-29.544713 -3.729831 3.188630 29.949442 0.125579 1.464127 0.110092 -0.035699 -242215.000000 0 0 1
-30.339023 -4.914031 3.118430 30.892210 0.160576 1.469679 0.113391 -0.031793 177175.000000 0 0 1
-31.231033 -5.042731 4.186030 31.911274 0.160084 1.439240 0.113075 -0.035416 -11905.300000 0 0 1
-31.985333 -6.392531 4.094930 32.873917 0.197259 1.445907 0.109623 -0.028579 452636.000000 0 0 1
-31.038853 -7.461431 4.322930 32.214454 0.235914 1.436198 0.097860 -0.022841 513931.000000 0 0 1
-31.579943 -8.715431 4.095930 33.015575 0.269277 1.446415 0.102905 -0.028310 -709218.000000 0 0 1
-30.809223 -9.946331 4.506430 32.687087 0.312274 1.432490 0.088691 -0.024661 -501861.000000 0 0 1
-30.754053 -10.092431 5.927630 32.906014 0.317093 1.389669 0.075569 -0.027787 385068.000000 0 0 1
-29.751773 -10.999231 6.343930 32.348053 0.354116 1.373402 0.068588 -0.025036 -150906.000000 0 0 1
-29.824993 -11.267431 7.879530 32.841623 0.361210 1.328508 0.066184 -0.025691 -201562.000000 0 0 1
-29.519463 -10.139731 8.641730 32.386607 0.330866 1.300694 0.086982 -0.024071 219210.000000 0 0 1
-29.362193 -10.682131 9.911230 32.779243 0.348920 1.263626 0.092598 -0.028665 -194762.000000 0 0 1
-29.538333 -9.567731 10.984830 32.935104 0.313245 1.230751 0.103538 -0.029224 -331228.000000 0 0 1
-28.430543 -8.720431 10.921230 31.679882 0.297617 1.218838 0.104300 -0.031133 52136.700000 0 0 1
-28.637633 -7.617131 11.823830 31.905135 0.259964 1.191149 0.125511 -0.034991 503328.000000 0 0 1
-27.639683 -6.432731 11.531930 30.631969 0.228665 1.184816 0.132576 -0.033860 382979.000000 0 0 1
-27.989213 -5.658331 10.425730 30.399154 0.199473 1.220729 0.131411 -0.036211 695797.000000 0 0 1
-27.193093 -4.437431 10.399930 29.450189 0.161757 1.209875 0.128451 -0.033561 348099.000000 0 0 1
-27.299353 -3.716231 9.028730 28.992810 0.135297 1.254117 0.138898 -0.035454 202325.000000 0 0 1
-26.734153 -4.494731 7.924230 28.243777 0.166569 1.286413 0.116375 -0.028731 299162.000000 0 0 1
-26.741413 -3.639131 6.789830 27.828910 0.135255 1.324324 0.118302 -0.037932 29770.300000 0 0 1
-25.831843 -4.088031 5.598330 26.745792 0.156954 1.359921 0.108340 -0.026999 -1273900.000000 0 0 1
-24.493433 -3.830531 5.735030 25.445860 0.155134 1.343462 0.111443 -0.037622 -772027.000000 0 0 1
-23.839733 -4.224731 4.516630 24.628869 0.175393 1.386365 0.113406 -0.023896 654494.000000 0 1 0
-22.350833 -3.736331 4.477630 23.099114 0.165636 1.375717 0.098224 -0.019400 491174.000000 0 1 0
-22.197233 -2.313131 4.360730 22.739474 0.103833 1.377832 0.082999 -0.021650 374771.000000 0 1 0
-20.835633 -1.936931 4.479930 21.399651 0.092696 1.359890 0.060989 -0.018111 -66103.400000 0 1 0
-20.604933 -0.375831 4.443030 21.081865 0.018238 1.358453 0.057550 -0.023035 -289073.000000 0 1 0
-21.010133 0.275569 3.267430 21.264471 -0.013115 1.416528 0.076305 -0.016926 623678.000000 0 1 0
-22.386033 0.552169 3.085330 22.604394 -0.024661 1.433876 0.082182 -0.031067 -298572.000000 0 1 0
-22.594533 1.752169 2.130930 22.762335 -0.077393 1.477043 0.117055 -0.020433 -401798.000000 0 1 0
-22.155333 2.973069 2.590630 22.503539 -0.133395 1.455420 0.108702 -0.019726 163243.000000 0 1 0
-22.427633 4.035369 1.718230 22.852467 -0.178024 1.495537 0.130068 -0.010325 544738.000000 0 1 0
-21.089633 4.358569 0.971630 21.557222 -0.203800 1.525709 0.095479 -0.000438 318322.000000 0 1 0
-21.159533 5.081769 -0.229270 21.762417 -0.235701 1.581332 0.100894 0.006335 750301.000000 0 1 0
-21.940333 4.569469 -1.356770 22.452151 -0.205333 1.631263 0.122047 -0.010396 225956.000000 0 1 0
-21.275033 3.430069 -2.163270 21.658073 -0.159850 1.670846 0.096470 -0.010727 -234695.000000 0 1 0
-21.288133 2.206669 -1.411270 21.448676 -0.103288 1.636641 0.069173 -0.006683 504452.000000 0 1 0
-20.747333 1.102769 -2.112770 20.883767 -0.053102 1.672138 0.057510 -0.008119 -690730.000000 0 1 0
-20.017833 0.202669 -1.178770 20.053534 -0.010124 1.629611 0.056117 -0.005489 -744737.000000 0 1 0
-20.827033 -0.514631 -0.297670 20.835517 0.024705 1.585083 0.065075 -0.012415 569241.000000 0 1 0
-20.049233 -1.278131 0.634930 20.099963 0.063663 1.539202 0.058619 -0.013978 374605.000000 0 1 0
-19.280733 -2.594431 0.163230 19.455189 0.133757 1.562406 0.040264 -0.009996 422918.000000 0 1 0
-18.480933 -3.177931 1.185930 18.789640 0.170292 1.507638 0.036165 -0.007843 863368.000000 0 1 0
-17.677233 -4.302431 0.842730 18.212789 0.238746 1.524508 0.021782 -0.005579 241090.000000 0 1 0
-18.510133 -5.597931 0.581730 19.346841 0.293680 1.540723 0.018360 -0.004787 70003.100000 0 1 0
-19.103133 -6.114331 1.771630 20.135874 0.309766 1.482699 0.032080 -0.006217 657567.000000 0 1 0
-20.002733 -7.154331 1.465030 21.294133 0.343489 1.501942 0.036895 -0.010575 32981.400000 0 1 0
-20.841133 -7.778631 2.624430 22.399722 0.357222 1.453363 0.059653 -0.010792 -457306.000000 0 1 0
-20.105633 -8.628431 3.402330 22.141864 0.405385 1.416525 0.058566 -0.004788 199501.000000 0 1 0
-20.716433 -8.923231 4.672530 23.035346 0.406716 1.366537 0.048304 -0.008035 277942.000000 0 1 0
-19.665733 -9.645531 5.571130 22.601212 0.455998 1.321732 0.037770 -0.004902 187947.000000 0 1 0
-19.343133 -10.864031 5.011730 22.744261 0.511742 1.348622 0.051505 0.001354 229562.000000 0 1 0
-18.491333 -11.570931 5.889030 22.594170 0.559138 1.307107 0.061548 -0.002783 -36768.400000 0 1 0
-18.026033 -12.978331 5.491930 22.880914 0.624008 1.328408 0.049796 -0.000650 1461.530000 0 1 0
-19.059133 -13.940131 5.606130 24.269456 0.631500 1.337696 0.075568 -0.002818 72125.200000 0 1 0
-18.651633 -15.193731 5.137030 24.599226 0.683584 1.360419 0.073307 -0.000152 -454691.000000 0 1 0
-19.407033 -16.414031 5.571230 26.020990 0.702038 1.355021 0.085118 -0.008362 -650011.000000 0 0 1
-18.844833 -17.511231 4.954730 26.197715 0.748733 1.380522 0.087914 -0.003672 -107086.000000 0 0 1
-19.223333 -18.779431 5.461330 27.423159 0.773718 1.370306 0.081827 -0.005192 -515528.000000 0 0 1
-18.241433 -19.910431 5.232130 27.505460 0.829116 1.379409 0.089034 -0.017621 -1084480.000000 0 0 1
-18.267733 -20.399231 3.891630 27.658334 0.840467 1.429624 0.095667 -0.012336 477614.000000 0 0 1
-17.317133 -21.412631 3.581330 27.770664 0.890752 1.441475 0.088930 -0.012782 1684830.000000 0 0 1
-15.766233 -21.127431 3.773130 26.630414 0.929703 1.428633 0.078912 -0.013421 1199590.000000 0 0 1
-14.980133 -22.289831 3.942030 27.143702 0.979068 1.425053 0.070619 -0.016723 -414643.000000 0 0 1
-13.589333 -22.193031 3.923430 26.317179 1.021364 1.421156 0.066231 -0.015926 -337226.000000 0 0 1
-12.874233 -23.550731 4.099930 27.151284 1.070521 1.419213 0.074554 -0.025495 -353486.000000 0 0 1
-12.946033 -24.410531 2.979530 27.791210 1.083167 1.463379 0.067140 -0.018055 21438.800000 0 0 1
-12.400233 -25.689881 3.248630 28.710440 1.121093 1.457402 0.065408 -0.022311 -316545.000000 0 0 1
19.421267 19.295669 -25.078050 37.127040 0.782154 2.312393 0.079813 0.013885 -864758.000000 0 0 1
18.295667 19.213069 -25.856550 37.046385 0.809852 2.343328 0.054058 0.007639 -941404.000000 0 0 1
18.504767 18.866869 -27.189660 37.916524 0.795087 2.370418 0.077171 0.002272 183915.000000 0 0 1
17.310767 19.292169 -28.097510 38.227222 0.839478 2.396482 0.050458 0.003323 276071.000000 0 0 1
17.249567 20.650269 -28.321010 39.064828 0.874887 2.381794 0.044553 0.008422 -337133.000000 0 0 1
16.227567 20.989169 -29.195210 39.449201 0.912649 2.403972 0.025763 0.005213 -658486.000000 0 0 1
16.001367 22.493069 -29.489210 40.393012 0.952466 2.389202 0.041982 -0.007932 -335799.000000 0 0 1
15.393367 23.192969 -28.408080 39.772963 0.984845 2.366357 0.037932 -0.012548 336419.000000 0 0 1
15.287367 24.544169 -28.810730 40.818844 1.013744 2.354375 0.041517 -0.020608 55624.600000 0 0 1
14.444067 25.376569 -27.757640 40.287566 1.053340 2.330888 0.044408 -0.021776 229484.000000 0 0 1
13.075867 25.019669 -27.749250 39.585137 1.089214 2.347598 0.045631 -0.031096 -275337.000000 0 0 1
12.470967 25.812469 -26.796940 39.241363 1.120730 2.322487 0.048575 -0.023892 -1873470.000000 0 0 1
11.245467 25.187469 -26.153800 38.011714 1.150881 2.329589 0.080761 -0.028691 -339015.000000 0 0 1
10.628167 26.087969 -25.224870 37.813148 1.183929 2.301096 0.067290 -0.044008 91884.700000 0 0 1
10.019967 27.253469 -25.796560 38.840879 1.218478 2.297166 0.079950 -0.049406 -854963.000000 0 0 1
9.370867 28.265469 -24.866570 38.795570 1.250669 2.266550 0.085495 -0.047199 253728.000000 0 0 1
10.358067 29.001569 -24.141970 39.130746 1.227761 2.235666 0.063806 -0.034698 273369.000000 0 0 1
9.760567 29.833169 -23.197470 39.030876 1.254602 2.207237 0.079352 -0.030588 -594393.000000 0 0 1
10.692667 30.213769 -22.058870 38.907567 1.230651 2.173602 0.051699 -0.026066 -368473.000000 0 0 1
11.647367 31.197569 -22.415870 40.142505 1.213480 2.163261 0.040272 -0.032719 32432.000000 0 0 1
12.406967 31.426369 -21.241970 39.909533 1.194785 2.132056 0.020950 -0.020744 364051.000000 0 0 1
13.777567 32.123769 -21.547070 41.061346 1.165635 2.123221 0.023138 -0.012419 398202.000000 0 0 1
14.672967 31.380169 -22.308970 41.203169 1.133413 2.142943 0.029675 -0.012970 -368962.000000 0 0 1
15.730067 32.146269 -22.851870 42.462049 1.115723 2.139063 0.026076 -0.010680 -799867.000000 0 0 1
16.831567 31.291869 -23.397670 42.543316 1.077299 2.153128 0.016732 0.000828 -291486.000000 0 0 1
17.740267 30.886669 -22.347770 42.049093 1.049438 2.131130 0.016636 0.005909 433644.000000 0 0 1
18.922467 30.403269 -22.971070 42.545136 1.014081 2.141141 0.018661 0.004003 416569.000000 0 0 1
19.932967 29.615169 -22.091570 41.981173 0.978376 2.124952 0.029097 0.007093 536193.000000 0 0 1
20.643167 30.398969 -21.120370 42.382871 0.974253 2.092460 0.029121 0.014450 601872.000000 0 0 1
21.710767 29.675469 -20.506970 42.101386 0.939171 2.079546 0.047359 0.015189 508235.000000 0 0 1
22.401567 30.425569 -19.352470 42.450719 0.936138 2.044158 0.051011 0.007307 26147.200000 0 0 1
23.347667 31.431969 -19.668570 43.817062 0.931919 2.036307 0.066576 0.006873 37085.000000 0 0 1
23.947067 31.817669 -18.451070 43.889271 0.925611 2.004683 0.065772 0.003704 -144835.000000 0 0 1
25.237067 32.636269 -18.584670 45.248487 0.912560 1.994045 0.083381 -0.001837 -247392.000000 0 0 1
26.384067 31.923069 -18.902170 45.524646 0.880111 1.998967 0.086561 -0.002506 -1317170.000000 0 0 1
27.562067 32.607569 -18.696070 46.609700 0.869057 1.983535 0.080198 -0.008957 -511022.000000 0 0 1
28.774667 31.883669 -19.305670 47.087777 0.836608 1.993243 0.079524 -0.010977 35692.000000 0 0 1
29.170167 30.745769 -18.564770 46.269338 0.811689 1.983659 0.068312 -0.009475 -527413.000000 0 0 1
30.477767 30.340569 -18.852670 46.956018 0.783142 1.983946 0.039896 -0.003481 -392740.000000 0 0 1
30.894267 29.206269 -17.848170 46.108774 0.757319 1.968268 0.020269 -0.010990 -835504.000000 0 0 1
31.248567 29.672769 -16.585070 46.173702 0.759538 1.938195 0.013867 -0.009500 36681.800000 0 0 1
31.353367 28.624269 -15.666770 45.252957 0.739928 1.924319 0.008450 -0.014470 -672884.000000 0 0 1
31.781467 29.202169 -14.274170 45.459655 0.743128 1.890196 0.024180 -0.021125 -285394.000000 0 0 1
33.148667 29.494969 -14.197870 46.587196 0.727139 1.880482 0.030811 -0.012548 -509158.000000 0 0 1
33.456567 30.869669 -14.478970 47.769435 0.745205 1.878742 0.029263 -0.009439 1044500.000000 0 0 1
35.022467 31.096069 -14.531170 49.037676 0.726084 1.871641 0.042494 -0.012761 1276180.000000 0 0 1
35.665967 30.999869 -13.278270 49.085289 0.715520 1.844723 0.045263 -0.016314 -182146.000000 0 0 1
-36.081329 31.472069 -13.424570 49.724969 -0.717272 1.844165 0.038779 -0.017113 197331.000000 0 0 1
-35.299229 31.707169 -12.110870 48.969923 -0.731842 1.820702 0.043074 -0.015070 -312897.000000 0 0 1
-35.825329 32.827969 -11.481170 49.929420 -0.741767 1.802821 0.056238 -0.020187 110232.000000 0 0 1
-34.948729 33.338869 -10.516870 49.431755 -0.761828 1.785190 0.049107 -0.016763 -267996.000000 0 0 1
-35.574029 -33.703424 -9.699070 49.955023 0.758403 1.766193 0.057744 -0.014779 110268.000000 0 0 1
-34.605029 -32.942724 -8.999670 48.618157 0.760794 1.756979 0.051143 -0.009276 107927.000000 0 0 1
-34.285629 -33.585624 -7.796770 48.623946 0.775085 1.731840 0.052691 -0.009864 172017.000000 0 0 1
-33.887929 -32.590024 -6.716570 47.493302 0.765877 1.712693 0.070700 -0.015072 -749655.000000 0 0 1
-35.019129 -31.894124 -6.365070 47.792140 0.738730 1.704376 0.072374 -0.010104 -772154.000000 0 0 1
-34.830929 -30.953524 -5.292670 46.896979 0.726525 1.683895 0.091986 -0.011488 268679.000000 0 0 1
-36.129529 -30.082224 -5.118670 47.291477 0.694318 1.679245 0.076582 -0.011661 -29848.400000 0 0 1
36.042767 -30.975624 -4.541770 47.740947 -0.709933 1.666074 0.062359 -0.014590 -119787.000000 0 0 1
34.752367 -30.478424 -4.191770 46.413708 -0.719971 1.661233 0.050323 -0.006966 513090.000000 0 0 1
34.785067 -29.644624 -2.858070 45.792720 -0.705783 1.633250 0.043129 -0.004076 -457647.000000 0 0 1
35.243167 -28.283924 -2.913970 45.283025 -0.676286 1.635191 0.066066 -0.015200 596220.000000 0 0 1
34.342967 -27.401624 -2.222770 43.991239 -0.673448 1.621345 0.059602 -0.013341 157631.000000 0 0 1
34.713167 -25.932524 -2.376370 43.395240 -0.641611 1.625585 0.084793 -0.029656 -243189.000000 0 0 1
34.463967 -25.448924 -3.677970 42.999305 -0.636049 1.656437 0.077993 -0.035324 322269.000000 0 0 1
34.253567 -24.065024 -3.653370 42.021177 -0.612439 1.657847 0.075758 -0.034878 -459293.000000 0 0 1
34.023667 -23.677024 -5.121770 41.766541 -0.607968 1.693734 0.073165 -0.033154 -951670.000000 0 0 1
35.132367 -23.746024 -5.936170 42.818162 -0.594369 1.709881 0.090699 -0.032097 -983259.000000 0 0 1
34.695767 -23.556324 -7.260370 42.560658 -0.596451 1.742223 0.077042 -0.031648 -360945.000000 0 0 1
35.686367 -23.304124 -8.432370 43.447714 -0.578499 1.766117 0.091704 -0.025186 197887.000000 0 0 1
36.510067 -24.472124 -8.632870 44.792815 -0.590503 1.764739 0.086494 -0.014170 539281.000000 0 0 1
-35.449529 -24.260824 -9.486470 43.991474 0.600163 1.788147 0.107226 -0.009938 415483.000000 0 0 1
-34.814929 -25.505024 -10.130070 44.330620 0.632264 1.801345 0.111735 -0.008857 176518.000000 0 0 1
-34.015029 -26.438124 -9.399170 44.094682 0.660713 1.785603 0.097298 -0.013560 396960.000000 0 0 1
-34.763529 -27.455124 -8.768770 45.157260 0.668471 1.766221 0.088408 -0.009982 86007.900000 0 0 1
-33.851429 -28.608324 -8.252170 45.082743 0.701651 1.754879 0.081158 -0.010463 181605.000000 0 0 1
-33.265929 -29.345124 -9.340870 45.332220 0.722858 1.778337 0.073920 -0.003716 -30085.700000 0 0 1
-32.263929 -30.179424 -8.846270 45.055690 0.752028 1.768421 0.055891 -0.017613 -455547.000000 0 0 1
-31.692729 -31.092324 -9.945670 45.498110 0.775836 1.791171 0.031743 -0.009134 76233.500000 0 0 1
-30.962529 -30.368524 -10.960170 44.733106 0.775713 1.818329 0.010794 0.003289 344657.000000 0 0 1
-30.745529 -31.166424 -12.095770 45.419612 0.792196 1.840361 -0.008450 0.004172 -184722.000000 0 0 1
-30.848029 -30.332424 -13.414170 45.294556 0.776971 1.871460 -0.009153 0.006071 -285355.000000 0 0 1
-29.878629 -29.322424 -13.525870 43.994161 0.776003 1.883305 -0.016308 0.008691 -276889.000000 0 0 1
-30.155129 -28.521624 -14.657670 44.018884 0.757566 1.910265 -0.013417 0.008647 91819.900000 0 0 1
-29.014329 -27.568224 -15.103670 42.778021 0.759846 1.931648 -0.008940 0.007500 356150.000000 0 0 1
-27.895929 -28.228124 -15.669370 42.667775 0.791317 1.946838 -0.000687 0.003587 483204.000000 0 0 1
-26.861029 -27.364724 -16.155870 41.609556 0.794687 1.969553 0.011490 0.012084 604948.000000 0 0 1
-25.692229 -28.091024 -16.847670 41.629800 0.829970 1.987449 0.029726 0.004156 -296455.000000 0 0 1
-26.073729 -28.767924 -18.040170 42.812154 0.834486 2.005762 0.025477 0.008105 -112212.000000 0 0 1
-26.173429 -28.011224 -19.253870 42.899750 0.819302 2.036230 0.015492 0.012477 -625089.000000 0 0 1
-24.979729 -27.249424 -19.813970 41.941762 0.828827 2.062827 0.029374 0.005824 -314748.000000 0 0 1
-24.543429 -26.206324 -18.949670 40.598538 0.818153 2.056417 0.028637 0.012842 854390.000000 0 0 1
-23.103229 -26.050924 -18.896470 39.616744 0.845295 2.068014 0.035413 0.001118 1244550.000000 0 0 1
-22.707229 -24.878824 -17.979870 38.181800 0.831002 2.061109 0.042095 -0.000699 -332077.000000 0 0 1
-22.816029 -25.185224 -16.612670 37.826545 0.834715 2.025482 0.050911 -0.002904 94299.400000 0 0 1
-22.381929 -24.146724 -15.794870 36.517023 0.823309 2.018098 0.054746 -0.008710 -198103.000000 0 0 1
-22.663429 -24.243424 -14.290770 36.133097 0.819069 1.977412 0.046526 -0.003210 478721.000000 0 0 1
-24.016729 -23.906324 -13.968770 36.652996 0.783094 1.961791 0.023894 0.012318 562253.000000 0 0 1
-24.268629 -23.750824 -12.598270 36.218564 0.774615 1.926063 0.024729 0.015669 124504.000000 0 0 1
-25.783129 -23.617624 -12.269770 37.055488 0.741591 1.908285 0.022706 0.021708 -13930.700000 0 0 1
-26.392329 -24.853624 -12.579270 38.373112 0.755381 1.904786 0.023002 0.014075 -265666.000000 0 0 1
-27.717129 -25.033924 -12.173470 39.282693 0.734577 1.885878 0.008367 0.017196 -36784.900000 0 0 1
-28.907529 -24.351124 -12.928170 39.946966 0.700054 1.900363 0.025209 0.010798 -252969.000000 0 0 1
-29.270629 -23.036624 -12.498970 39.289694 0.666777 1.894546 0.040484 0.011694 400812.000000 0 0 1
-29.852229 -22.838224 -11.202270 39.220287 0.653059 1.860454 0.054734 0.009517 1000870.000000 0 0 1
-31.306129 -23.482324 -10.971670 40.643213 0.643557 1.844138 0.045648 0.005094 1989400.000000 0 0 1
-32.490929 -22.783024 -11.403770 41.288892 0.611539 1.850629 0.074011 -0.001107 981399.000000 0 0 1
-32.586929 -22.730524 -12.838870 41.754296 0.609070 1.883346 0.073869 0.003307 -248480.000000 0 0 1
-34.015529 -22.474024 -13.430170 42.924439 0.583860 1.889019 0.050973 -0.012975 458773.000000 0 0 1
-34.940429 -23.412224 -12.931470 44.002145 0.590349 1.869083 0.072096 -0.007330 803337.000000 0 0 1
-36.275329 -23.018124 -13.325370 44.981096 0.565430 1.871554 0.094291 -0.010297 1417920.000000 0 0 1
35.689667 -24.092724 -12.940470 44.962956 -0.593792 1.862728 0.088024 0.001524 407902.000000 0 0 1
35.799967 -25.313824 -13.652670 45.921920 -0.615469 1.872662 0.075185 0.008017 289711.000000 0 0 1
34.841967 -26.296824 -13.261570 45.621868 -0.646531 1.865738 0.072964 0.002986 344797.000000 0 0 1
34.736467 -27.474824 -14.173570 46.501378 -0.669199 1.880524 0.060807 -0.001205 498623.000000 0 0 1
33.889167 -27.209624 -15.310270 46.078668 -0.676507 1.909499 0.059127 -0.008870 269066.000000 0 0 1
33.767467 -28.397624 -16.063970 46.954425 -0.699232 1.919967 0.046811 -0.002446 163152.000000 0 0 1
32.848567 -28.127524 -17.297870 46.576843 -0.708128 1.951295 0.049847 -0.007239 372105.000000 0 0 1
31.469767 -28.316124 -17.045370 45.636540 -0.732698 1.953578 0.062213 -0.008337 197305.000000 0 0 1
30.673867 -28.033424 -18.202970 45.366365 -0.740452 1.983671 0.060688 -0.009379 17364.900000 0 0 1
29.186567 -28.355824 -18.045470 44.514576 -0.770962 1.988195 0.067431 -0.013658 -373636.000000 0 0 1
28.683667 -27.576124 -17.013470 43.274167 -0.765714 1.974857 0.063743 -0.024880 100849.000000 0 0 1
27.281967 -27.757924 -16.811870 42.396309 -0.794045 1.978542 0.080176 -0.028431 591769.000000 0 0 1
26.703667 -26.790124 -15.746170 40.972411 -0.787014 1.965258 0.073630 -0.034291 -127875.000000 0 0 1
26.664867 -25.465224 -16.131570 40.245749 -0.762390 1.983215 0.070982 -0.035690 -80753.900000 0 0 1
26.493267 -24.654524 -14.959670 39.160318 -0.749464 1.962768 0.062487 -0.028021 -263302.000000 0 0 1
26.285367 -23.136724 -15.270970 38.202501 -0.721775 1.982027 0.057322 -0.026020 -32128.600000 0 0 1
24.983967 -22.751324 -15.644870 37.236854 -0.738661 2.004401 0.072525 -0.025868 -82107.300000 0 0 1
25.045267 -21.362224 -15.915770 36.563941 -0.706201 2.021152 0.058939 -0.026818 36525.400000 0 0 1
23.669167 -20.709424 -16.121870 35.341539 -0.718804 2.044487 0.068898 -0.020725 -103839.000000 0 0 1
22.897267 -20.457224 -14.957470 34.154191 -0.729176 2.024102 0.080303 -0.026196 48142.000000 0 0 1
21.833967 -19.609024 -15.332670 33.110825 -0.731763 2.052254 0.079848 -0.030001 -58675.300000 0 0 1
21.634667 -18.383524 -14.345170 31.808752 -0.704335 2.038661 0.083586 -0.014784 -188324.000000 0 0 1
21.015867 -18.642424 -13.098670 30.996480 -0.725622 2.007093 0.067780 -0.021126 219413.000000 0 0 1
20.581167 -17.516624 -12.364270 29.720224 -0.705132 1.999863 0.069718 -0.029104 -351916.000000 0 0 1
19.643567 -17.788424 -11.168670 28.758250 -0.735878 1.969652 0.069475 -0.021582 -252085.000000 0 0 1
20.109467 -18.402724 -9.970970 29.025354 -0.741110 1.921465 0.074062 -0.038202 50712.500000 0 0 1
19.094567 -18.231024 -9.011270 27.895801 -0.762267 1.899729 0.065439 -0.036179 174673.000000 0 0 1
19.529667 -18.814524 -7.626570 28.170175 -0.766750 1.844950 0.063045 -0.037129 1008840.000000 0 0 1
20.637567 -18.193424 -6.919870 28.368899 -0.722538 1.817207 0.062077 -0.035361 906128.000000 0 0 1
21.095067 -18.982524 -5.793270 28.963771 -0.732736 1.772172 0.052177 -0.027943 196419.000000 0 0 1
22.521867 -18.557924 -5.380470 29.674577 -0.689202 1.753121 0.059498 -0.029485 317132.000000 0 0 1
23.488367 -18.488924 -6.420570 30.573966 -0.666858 1.782373 0.052310 -0.044502 103226.000000 0 0 1
24.556167 -17.666124 -6.073070 30.854164 -0.623639 1.768921 0.069956 -0.042576 -38672.700000 0 0 1
25.645767 -17.421524 -7.169870 31.821721 -0.596707 1.798061 0.074287 -0.045114 240135.000000 0 0 1
26.583967 -18.435324 -7.460170 33.199738 -0.606334 1.797437 0.074539 -0.052780 210299.000000 0 0 1
26.196167 -19.537724 -8.257070 33.706691 -0.640823 1.818283 0.060971 -0.057081 -49870.300000 0 0 1
27.242667 -20.708424 -8.046570 35.153222 -0.649963 1.801744 0.068540 -0.063439 586104.000000 0 0 1
28.532367 -20.443324 -8.532070 36.122316 -0.621711 1.809249 0.079948 -0.053674 -323372.000000 0 0 1
29.359467 -21.570124 -8.380070 37.382805 -0.633631 1.796887 0.079954 -0.051193 -215671.000000 0 0 1
-30.687093 29.969969 4.038130 43.083677 -0.773576 1.476931 0.065610 -0.003695 113215.000000 0 0 1
-29.817583 30.648169 3.184330 42.878182 -0.799134 1.496463 0.061091 -0.007624 146712.000000 0 0 1
-28.696343 31.194369 3.905930 42.565538 -0.827084 1.478904 0.062386 -0.007933 1110590.000000 0 0 1
-27.876243 32.233569 3.028330 42.723046 -0.857761 1.499854 0.067017 -0.010227 102794.000000 0 0 1
-27.103843 31.703669 1.945430 41.755546 -0.863458 1.524189 0.069544 -0.021923 380821.000000 0 0 1
-26.505603 32.596569 1.020730 42.025293 -0.888094 1.546505 0.067037 -0.028913 -548896.000000 0 0 1
-25.435773 33.548769 1.512230 42.128201 -0.922085 1.534893 0.092101 -0.020429 -1792460.000000 0 0 1
-24.155033 33.053769 1.443430 40.964628 -0.939710 1.535553 0.076576 -0.020257 -1114610.000000 0 0 1
-23.255833 34.013469 1.977030 41.251164 -0.971077 1.522851 0.066284 -0.015591 111626.000000 0 0 1
-21.768133 33.647869 1.853130 40.118136 -0.996576 1.524588 0.063977 -0.026713 39455.400000 0 0 1
-21.181633 33.993069 0.612130 40.057022 -1.013553 1.555514 0.071829 -0.030550 -194610.000000 0 0 1
-19.810933 33.671869 0.634530 39.072631 -1.038985 1.554556 0.062397 -0.026140 -299129.000000 0 0 1
-18.982733 -33.947824 -0.569270 38.898881 1.060937 1.585431 0.062069 -0.024253 154405.000000 0 0 1
-18.838133 -32.522924 -0.595370 37.589497 1.045792 1.586636 0.065701 -0.016214 -383513.000000 0 0 1
-17.865033 -32.093524 0.266530 36.731794 1.062858 1.563540 0.068035 -0.014234 -1109290.000000 0 0 1
-17.652533 -30.594624 0.339530 35.323621 1.047474 1.561184 0.077054 -0.016698 -343136.000000 0 0 1
-16.827133 -30.117424 -0.677970 34.506105 1.061285 1.590445 0.073407 -0.012959 -85941.900000 0 0 1
-16.903833 -28.708424 -0.654670 33.321791 1.038645 1.590445 0.065121 -0.010373 -47732.000000 0 0 1
-15.981033 -27.973324 -1.630470 32.257692 1.051751 1.621363 0.056673 -0.009283 -423974.000000 0 0 1
-16.376633 -28.141024 -2.951770 32.692878 1.043756 1.661207 0.058497 -0.009523 -193926.000000 0 0 1
-15.445633 -27.648624 -3.887670 31.908118 1.061344 1.692939 0.055860 -0.001396 -302219.000000 0 0 1
-15.870733 -27.683424 -5.361970 32.357423 1.050245 1.737275 0.068303 -0.004936 369372.000000 0 0 1
-16.944333 -26.761824 -5.592770 32.164961 1.006356 1.745562 0.064346 0.000152 313428.000000 0 0 1
-17.498433 -26.781824 -6.911170 32.729582 0.992056 1.783558 0.075123 -0.005123 -143241.000000 0 0 1
-18.351233 -25.577324 -7.139870 32.279173 0.948435 1.793832 0.055034 -0.002097 -522006.000000 0 0 1
-17.625833 -24.361824 -7.028870 30.879985 0.944471 1.800428 0.060040 0.001318 134296.000000 0 0 1
-18.299633 -23.228124 -7.511670 30.509794 0.903525 1.819559 0.056074 0.001658 492368.000000 0 0 1
-17.348733 -21.978624 -7.230870 28.919266 0.902586 1.823514 0.054910 0.000189 928243.000000 0 0 1
-16.190833 -21.918324 -8.024770 28.406917 0.934573 1.857189 0.062485 -0.008747 -71017.800000 0 0 1
-15.152533 -21.164924 -7.395370 27.060022 0.949461 1.847613 0.095894 -0.026872 127274.000000 0 0 1
-13.951233 -20.940524 -8.300070 26.495917 0.983095 1.889419 0.090920 -0.028076 -297358.000000 0 0 1
-14.175533 -19.926424 -9.268470 26.151724 0.952464 1.933081 0.085536 -0.028101 -737277.000000 0 0 1
-13.156833 -19.908024 -10.202670 25.952382 0.986810 1.974830 0.084815 -0.031376 -277774.000000 0 0 1
-13.557733 -19.052424 -11.388270 26.009608 0.952326 2.024001 0.088060 -0.032984 -237052.000000 0 0 1
-14.520933 -19.627324 -12.239470 27.311060 0.933834 2.035492 0.067649 -0.018786 -353911.000000 0 0 1
-14.830933 -18.861524 -13.387370 27.476087 0.904461 2.079719 0.064131 -0.022185 70741.500000 0 0 1
-16.101933 -19.282224 -14.149170 28.831847 0.875036 2.083744 0.067679 -0.013252 855218.000000 0 0 1
-17.345833 -19.146524 -13.429270 29.117222 0.834703 2.050159 0.070211 -0.019598 957759.000000 0 0 1
-18.444433 -19.202024 -14.337270 30.240241 0.805519 2.064752 0.042803 -0.003380 989695.000000 0 0 1
-19.861333 -19.138424 -13.623970 30.763036 0.766864 2.029592 0.032870 -0.016447 413697.000000 0 0 1
-20.755833 -19.672524 -14.517070 32.071142 0.758609 2.040534 0.042259 -0.017748 -627594.000000 0 0 1
-22.104033 -19.656824 -14.084770 32.762170 0.726865 2.015189 0.046729 -0.019315 368906.000000 0 0 1
-23.086733 -20.446924 -15.006970 34.296984 0.724834 2.023679 0.044590 -0.021562 -15245.500000 0 0 1
-23.266333 -19.881024 -16.287970 34.668074 0.707099 2.059890 0.046875 -0.030158 534967.000000 0 0 1
-23.994733 -20.725224 -17.197370 36.069817 0.712417 2.067784 0.051102 -0.033811 226858.000000 0 0 1
-24.367733 -20.095324 -18.558570 36.633714 0.689603 2.102031 0.053885 -0.032217 746678.000000 0 0 1
-23.169633 -19.942924 -19.318570 36.162954 0.710694 2.134368 0.037766 -0.029895 727868.000000 0 0 1
-23.614633 -19.564724 -20.595670 36.940641 0.691879 2.162209 0.049034 -0.032772 -190023.000000 0 0 1
-22.544033 -19.010324 -21.532270 36.513895 0.700564 2.201485 0.031529 -0.029792 -459241.000000 0 0 1
-21.453633 -19.830124 -21.827170 36.468035 0.746093 2.212460 0.022439 -0.024175 -319255.000000 0 0 1
-20.452133 -19.076924 -22.492670 35.890653 0.750622 2.248107 0.022065 -0.021991 -801432.000000 0 0 1
-19.162733 -19.837824 -22.564470 35.635725 0.802706 2.256474 0.019125 -0.014820 -1104780.000000 0 0 1
-19.204633 -20.928424 -23.421370 36.815451 0.828324 2.260337 0.008063 -0.008219 309833.000000 0 0 1
-17.884033 -21.475224 -23.437570 36.473875 0.876388 2.268664 0.004367 0.001856 459599.000000 0 0 1
-17.695633 -22.841124 -24.122270 37.639558 0.911657 2.266435 0.006730 0.002142 -396143.000000 0 0 1
-17.770533 -22.794724 -25.526650 38.561654 0.908625 2.294240 0.011415 -0.002159 100217.000000 0 0 1
-17.751333 -24.047624 -26.076240 39.665708 0.934907 2.288160 0.021219 -0.010416 -156002.000000 0 0 1
-17.629133 -23.995724 -27.623380 40.615665 0.937174 2.318718 0.045758 -0.003582 110886.000000 0 0 1
-16.355033 -23.663624 -28.133220 40.235958 0.966037 2.345083 0.011932 -0.004308 9780.540000 0 0 1
-16.424233 -23.830424 -29.508470 41.332727 0.967347 2.365884 0.050073 -0.007994 -960662.000000 0 0 1
-15.065333 -23.671624 -30.133340 41.174364 1.004020 2.391825 0.013962 -0.008494 -759899.000000 0 0 1
-14.224433 -24.797924 -29.794450 41.291413 1.050004 2.376857 0.023829 -0.011900 436022.000000 0 0 1
-13.099633 -24.705224 -30.672520 41.506048 1.083252 2.402365 0.033721 -0.010749 295044.000000 0 0 1
-11.996833 -25.767624 -30.422180 41.634163 1.135064 2.390146 0.038939 -0.008850 -767859.000000 0 0 1
-12.346733 -27.079624 -30.814700 42.840327 1.143012 2.373579 0.042480 -0.007316 444213.000000 0 0 1
-11.427233 -28.087224 -30.387000 42.928354 1.184400 2.357252 0.042426 -0.009017 45345.900000 0 0 1
-10.024433 -28.163524 -30.982320 43.053194 1.228842 2.374064 0.046307 -0.010334 -485989.000000 0 0 1
-9.129733 -27.178424 -30.553880 41.899384 1.246721 2.387978 0.056325 -0.015524 -322870.000000 0 0 1
-8.174633 -26.760924 -31.483050 42.120709 1.274330 2.415009 0.051007 -0.017872 -228472.000000 0 0 1
-7.396333 -25.462624 -31.030090 40.815652 1.288098 2.434494 0.083409 -0.025601 45803.000000 0 0 1
-8.051133 -24.183924 -31.031960 40.158006 1.249424 2.453953 0.081808 -0.025844 696987.000000 0 0 1
-8.931833 -24.027524 -29.864460 39.357154 1.214893 2.432275 0.061202 -0.020436 293525.000000 0 0 1
-9.420233 -22.557924 -29.657890 38.434245 1.175209 2.452232 0.058464 -0.023295 -240978.000000 0 0 1
-10.174233 -22.058124 -30.750830 39.187873 1.138629 2.473013 0.056599 -0.025886 4408.190000 0 0 1
-10.327233 -20.649424 -30.649840 38.372688 1.107051 2.495996 0.055411 -0.027957 -266803.000000 0 0 1
-11.127633 -20.015524 -31.755290 39.151550 1.063396 2.516803 0.056655 -0.024355 -265993.000000 0 0 1
-11.731833 -18.786724 -31.438080 38.456856 1.012575 2.527835 0.054166 -0.026294 -11427.600000 0 0 1
-12.416533 -18.326824 -32.566070 39.377553 0.975327 2.544584 0.074390 -0.017192 272609.000000 0 0 1
-13.292433 -16.981724 -32.331850 38.864074 0.906663 2.553358 0.076506 -0.031210 619236.000000 0 0 1
-12.691433 -15.674524 -32.387110 38.153481 0.890177 2.584629 0.085796 -0.029315 -430309.000000 0 0 1
-11.763233 -15.320224 -31.381400 36.849358 0.915985 2.589852 0.072610 -0.026450 278623.000000 0 0 1
-11.197033 -13.917924 -31.808770 36.481228 0.893315 2.629909 0.083788 -0.032303 -8314.760000 0 0 1
-10.569733 -13.742324 -33.087680 37.354589 0.915159 2.658953 0.093785 -0.035283 32330.400000 0 0 1
-11.398833 -13.811024 34.033646 38.457338 0.880792 0.484364 0.097165 -0.031810 -472940.000000 0 0 1
-11.801333 -12.481724 33.337786 37.502972 0.813410 0.475777 0.084179 -0.026925 341854.000000 0 0 1
-13.088233 -12.124224 33.822383 38.239407 0.747181 0.485396 0.067399 -0.022229 233782.000000 0 0 1
-13.797633 -11.192124 32.966357 37.448886 0.681510 0.494296 0.053535 -0.030110 806096.000000 0 0 1
-14.958033 -10.525024 33.757527 38.393874 0.613163 0.496526 0.065429 -0.027183 257781.000000 0 0 1
-14.560833 -9.569924 -33.556880 37.810918 0.581446 2.662670 0.073669 -0.028590 608360.000000 0 0 1
-15.695633 -9.048824 -32.840080 37.506066 0.522975 2.637460 0.066618 -0.032110 802909.000000 0 0 1
-15.186633 -8.085624 -31.772080 36.131375 0.489244 2.645289 0.068069 -0.038402 220201.000000 0 0 1
-14.605233 -6.872324 -32.255220 36.068558 0.439802 2.677605 0.053598 -0.041447 911101.000000 0 0 1
-15.613933 -5.853924 -32.505380 36.533041 0.358698 2.667600 0.058426 -0.039978 729955.000000 0 0 1
-15.963633 -5.018224 -31.216250 35.418561 0.304573 2.649514 0.057728 -0.037706 68783.400000 0 0 1
-16.578433 -5.841324 -30.241370 34.978650 0.338762 2.615083 0.065104 -0.038819 -150695.000000 0 0 1
-16.985433 -5.268024 -28.986370 34.006862 0.300742 2.591294 0.068403 -0.036047 -76529.200000 0 0 1
-15.863233 -4.838024 -28.018290 32.558766 0.296022 2.607135 0.064923 -0.037831 117188.000000 0 0 1
-15.280833 -3.617424 -28.551060 32.584546 0.232450 2.638747 0.055369 -0.031147 190279.000000 0 0 1
-14.056633 -3.372224 -27.860750 31.387613 0.235453 2.662981 0.048165 -0.030502 33924.700000 0 0 1
-13.347433 -2.155424 -28.387930 31.443193 0.160104 2.697108 0.024183 -0.010221 -377054.000000 0 0 1
-13.148933 -2.246424 -29.824530 32.671753 0.169211 2.721016 0.023745 -0.015879 55843.900000 0 0 1
-13.247433 -0.972424 -30.379200 33.156235 0.073273 2.729398 0.026984 -0.023313 -71437.000000 0 0 1
-13.461933 -0.964424 -31.890580 34.628931 0.071519 2.741239 0.024774 -0.027079 -117196.000000 0 0 1
-14.724433 -1.450424 -32.283990 35.512937 0.098188 2.711859 0.027526 -0.023364 127831.000000 0 0 1
-14.840633 -1.382424 -33.720050 36.867293 0.092883 2.725396 0.030002 -0.021024 62210.800000 0 0 1
-16.181233 -1.852424 33.930020 37.636552 0.113984 0.447532 0.030209 -0.024438 -43769.600000 0 0 1
-16.173533 -1.710424 32.514561 36.355267 0.105363 0.463806 0.038516 -0.023875 560701.000000 0 0 1
-17.438833 -1.942424 31.895422 36.403350 0.110928 0.502944 0.047420 -0.024974 498565.000000 0 0 1
-17.333133 -1.872424 30.410022 35.053002 0.107608 0.520553 0.049892 -0.020736 5292.450000 0 0 1
-17.032933 -0.559424 29.965072 34.472298 0.032832 0.517112 0.044373 -0.002657 21778.900000 0 0 1
-17.154733 -0.556424 28.572542 33.331436 0.032424 0.540940 0.047396 -0.008882 -324751.000000 0 0 1
-16.593933 0.704576 27.893142 32.463556 -0.042434 0.537065 0.033255 -0.006291 -80460.200000 0 0 1
-17.154533 2.024576 28.153842 33.030528 -0.117476 0.550318 0.027692 -0.003738 1063530.000000 0 0 1
-18.539933 2.115576 27.737282 33.429951 -0.113618 0.592202 0.037397 -0.008789 981634.000000 0 0 1
-18.685833 2.780576 26.331102 32.407081 -0.147723 0.622350 0.033862 -0.012165 -576059.000000 0 0 1
-18.372033 4.160576 26.383912 32.418403 -0.222706 0.620039 0.033485 -0.004286 130743.000000 0 0 1
-18.614433 4.804576 25.170802 31.672549 -0.252597 0.652250 0.029203 0.003722 -566882.000000 0 0 1
-18.527833 6.340576 25.186252 31.903461 -0.329726 0.660881 0.023017 -0.001691 1112070.000000 0 0 1
-17.221033 6.964576 25.318172 31.401897 -0.384313 0.632990 0.016720 0.003087 990454.000000 0 0 1
-16.535933 6.973576 24.088982 30.039090 -0.399091 0.640292 0.007296 0.007955 -552528.000000 0 0 1
-15.444233 8.006576 23.882102 29.546310 -0.478274 0.629548 0.011892 -0.000202 -296258.000000 0 0 1
-14.209533 7.679576 24.468872 29.319148 -0.495483 0.583445 0.009911 0.002665 -524415.000000 0 0 1
-13.218333 8.569576 24.054612 28.753893 -0.575186 0.579806 0.024517 -0.003222 47664.200000 0 0 1
-11.861633 8.301576 24.804282 28.720497 -0.610637 0.528342 0.023258 0.011849 -173913.000000 0 0 1
-10.854233 9.042576 24.134602 27.965364 -0.694596 0.529583 0.028140 0.001618 -293089.000000 0 0 1
-9.691833 8.951576 24.939382 28.214095 -0.745713 0.486588 0.038058 -0.005280 -241890.000000 0 0 1
-9.519933 10.075576 25.993022 29.458166 -0.813746 0.489920 0.051625 -0.015871 -1005100.000000 0 0 1
-10.490533 10.081576 27.008272 30.677944 -0.765522 0.494132 0.038935 -0.017899 -12583.900000 0 0 1
-10.579033 11.291576 27.710392 31.737698 -0.817967 0.509258 0.048432 -0.018679 -152725.000000 0 0 1
-11.028833 12.605576 26.954552 31.734581 -0.852013 0.555997 0.050545 -0.017282 -185860.000000 0 0 1
-12.343833 12.645576 26.444202 31.805293 -0.797472 0.589101 0.053160 -0.018164 113470.000000 0 0 1
-12.473633 12.158576 25.097762 30.550289 -0.772608 0.606719 0.043228 -0.012204 -1207660.000000 0 0 1
-13.902233 11.853576 24.721222 30.739522 -0.706024 0.636441 0.041342 -0.014287 -1531730.000000 0 0 1
-14.675433 13.040576 24.568102 31.448635 -0.726480 0.674189 0.033973 -0.023332 6568.560000 0 0 1
-16.034933 12.780576 24.289662 31.787575 -0.672937 0.701113 0.032192 -0.011411 96004.700000 0 0 1
-16.394333 12.167576 22.913132 30.689342 -0.638479 0.727837 0.029896 -0.005570 -729890.000000 0 0 1
-15.867633 10.866576 22.687532 29.742031 -0.600470 0.703148 0.018516 -0.008217 -30047.600000 0 0 1
-15.916433 10.721576 21.308932 28.676744 -0.592799 0.733145 0.020343 0.002012 -303847.000000 0 0 1
-16.225833 9.307576 20.806132 27.978631 -0.520802 0.732292 0.011358 -0.001529 52432.300000 0 0 1
-17.577533 8.954576 20.981832 28.799156 -0.471166 0.754583 0.019791 0.002729 -358894.000000 0 0 1
-17.869633 7.592576 20.778932 28.438267 -0.401775 0.751496 0.013982 0.004024 35250.900000 0 0 1
-19.362633 7.231576 20.916432 29.405856 -0.357438 0.779448 0.031359 0.009240 -41573.600000 0 0 1
-19.830233 7.541576 22.184832 30.696585 -0.363415 0.763076 0.025659 0.000762 -572034.000000 0 0 1
-21.229533 7.589576 22.190132 31.633791 -0.343341 0.793339 0.020608 -0.001761 -441149.000000 0 0 1
-21.829033 8.485576 23.329272 33.057021 -0.370752 0.787346 0.038025 -0.014730 -578005.000000 0 0 1
-21.595033 9.871576 23.289512 33.259508 -0.428761 0.795068 0.033272 -0.005733 1680380.000000 0 0 1
-20.221033 10.389576 23.358332 32.595171 -0.474627 0.771853 0.030910 -0.002645 1762570.000000 0 0 1
-19.424533 10.061576 24.652972 32.959321 -0.477930 0.725780 0.030747 -0.014553 -329275.000000 0 0 1
-20.046433 10.542576 25.826052 34.350988 -0.484158 0.719965 0.034310 -0.016324 306832.000000 0 0 1
-19.466833 9.810576 26.881472 34.609515 -0.466813 0.681375 0.037086 -0.022774 15085.400000 0 0 1
-31.439083 -13.890631 20.600632 40.071831 0.416036 1.030847 0.054975 -0.010170 311117.000000 0 0 1
-30.585483 -15.042131 20.394532 39.719950 0.457071 1.031586 0.049462 -0.010666 353098.000000 0 0 1
-30.959843 -15.979331 19.379332 39.867398 0.476469 1.063181 0.037008 0.004044 -9529.910000 0 0 1
-30.701763 -15.564331 17.913032 38.803652 0.469194 1.090962 0.039466 0.007988 132864.000000 0 0 1
-31.545903 -14.505131 17.501032 38.882245 0.430982 1.103915 0.048274 -0.003110 64430.600000 0 0 1
-31.041233 -13.946631 16.266832 37.718384 0.422266 1.124896 0.050641 -0.007574 -870333.000000 0 0 1
-31.962323 -12.964431 15.527132 37.825367 0.385338 1.147799 0.050032 -0.006667 168651.000000 0 0 1
-33.208633 -13.482331 15.008532 38.856693 0.385658 1.174230 0.060137 -0.007926 969345.000000 0 0 1
-34.213542 -13.757531 15.947932 40.176768 0.382322 1.162611 0.060290 -0.010219 -699273.000000 0 0 1
-34.749697 -12.550531 16.840532 40.603704 0.346591 1.143124 0.072449 -0.008169 -1578230.000000 0 0 1
-35.899843 -12.911131 17.494732 41.970962 0.345240 1.140842 0.044958 -0.010148 -945610.000000 0 0 1
36.459603 -11.774631 17.881632 42.281170 -0.312377 1.134129 0.063453 -0.012558 -268215.000000 0 0 1
35.486373 -11.995831 19.031032 42.016221 -0.325981 1.100731 0.067138 -0.000633 -935988.000000 0 0 1
36.141863 -12.381931 20.188632 43.210269 -0.330061 1.084654 0.052565 0.004277 -203646.000000 0 0 1
35.373193 -12.260531 21.354732 43.099977 -0.333647 1.052421 0.039777 0.001009 -1330830.000000 0 0 1
36.210293 -12.515131 22.622332 44.492513 -0.332771 1.037410 0.035920 -0.011530 127046.000000 0 0 1
-35.842844 -11.570431 22.909332 44.084259 0.312250 1.024330 0.044839 -0.012011 20809.600000 0 0 1
-34.639068 -11.911431 22.264232 42.865409 0.331206 1.024649 0.040684 -0.012962 -1249830.000000 0 0 1
-33.443883 -11.025831 22.487932 41.782405 0.318460 1.002478 0.069071 -0.021163 -333400.000000 0 0 1
-33.667293 -9.719331 21.992032 41.371506 0.281046 1.010338 0.098923 -0.020287 145424.000000 0 0 1
-32.421883 -9.055931 21.884332 40.151119 0.272374 0.994349 0.120565 -0.021748 94740.700000 0 0 1
-32.487913 -7.752031 21.035932 39.472382 0.234233 1.008739 0.138466 -0.030961 -123066.000000 0 0 1
-32.600433 -7.911331 19.624432 38.865097 0.238073 1.041487 0.135293 -0.027556 648372.000000 0 0 1
-33.906573 -8.284031 19.158532 39.816206 0.239625 1.068803 0.128348 -0.024552 354221.000000 0 0 1
-34.168981 -8.387931 17.604132 39.341862 0.240724 1.106867 0.125938 -0.029856 -482172.000000 0 0 1
-35.529077 -8.560531 17.333832 40.448235 0.236438 1.127916 0.056105 -0.020592 -306985.000000 0 0 1
-35.792311 -8.405831 15.956832 40.079521 0.230670 1.161320 0.071317 -0.016749 -565109.000000 0 0 1
35.791383 -8.431131 15.644332 39.960633 -0.231346 1.168542 0.064590 -0.014567 -481611.000000 0 0 1
35.153123 -9.696031 15.838332 39.756859 -0.269131 1.161047 0.051136 0.003927 -649690.000000 0 0 1
33.773623 -9.510631 15.814532 38.486480 -0.274491 1.147343 0.032889 0.003808 -460915.000000 0 0 1
33.068063 -10.917931 15.900932 38.282341 -0.318897 1.142458 0.022242 0.006723 69194.300000 0 0 1
33.014593 -11.463631 17.226532 38.963208 -0.334204 1.112832 0.011305 -0.002441 166322.000000 0 0 1
31.996883 -12.463931 17.160132 38.387761 -0.371453 1.107364 0.029336 -0.004921 325701.000000 0 0 1
31.766933 -12.968431 18.587832 39.023400 -0.387587 1.074326 0.024921 -0.005970 -71509.100000 0 0 1
32.667063 -13.995931 18.971832 40.285897 -0.404782 1.080452 0.040163 -0.003683 -18158.000000 0 0 1
32.577313 -14.260031 20.343632 40.969417 -0.412603 1.051169 0.044659 -0.002489 -1037610.000000 0 0 1
33.650013 -15.208831 20.760332 42.362994 -0.424492 1.058640 0.032555 0.001811 -1032850.000000 0 0 1
33.825183 -15.223731 22.116532 43.186178 -0.422913 1.033144 0.030709 -0.012148 -90891.800000 0 0 1
34.456303 -16.404931 22.618232 44.361504 -0.444352 1.035772 0.034706 -0.003228 49451.800000 0 0 1
34.743343 -16.199031 24.122672 45.292514 -0.436284 1.009130 0.055131 -0.015594 -133663.000000 0 0 1
35.710993 -15.219431 24.365092 45.831908 -0.402873 1.010286 0.042382 -0.007192 -157546.000000 0 0 1
35.959053 -15.064931 25.750832 46.723773 -0.396732 0.987080 0.044569 -0.008442 -492363.000000 0 0 1
-35.969030 -14.073231 26.058092 46.592393 0.372949 0.977282 0.035456 -0.007170 -1112450.000000 0 0 1
-34.773947 -14.659831 25.719502 45.668707 0.398966 0.972573 0.019593 -0.009400 -808913.000000 0 0 1
-33.670673 -13.809031 26.036802 44.747275 0.389200 0.949778 0.036474 -0.011601 513098.000000 0 0 1
-32.291943 -14.431631 25.741062 43.745215 0.420282 0.941679 0.024294 -0.015424 -631678.000000 0 0 1
-32.021073 -14.547331 24.316872 42.758441 0.426428 0.965868 0.024091 -0.013223 -473233.000000 0 0 1
-30.703323 -14.864531 23.989762 41.703202 0.450875 0.957887 0.030556 -0.017488 -431096.000000 0 0 1
-30.207813 -16.306531 24.366922 42.097052 0.494987 0.953506 0.026087 -0.015406 -958290.000000 0 0 1
-30.258903 -16.550331 25.738112 43.034464 0.500504 0.929691 0.031876 -0.015453 -54721.600000 0 0 1
-30.099613 -17.954231 26.026392 43.654487 0.537837 0.932049 0.030854 -0.025848 -210837.000000 0 0 1
-29.678173 -18.091031 27.523872 44.335572 0.547429 0.901024 0.046897 -0.028029 258456.000000 0 0 1
-28.380283 -17.585631 27.812902 43.454026 0.554737 0.876228 0.054418 -0.031812 315814.000000 0 0 1
-27.985113 -17.882531 29.145742 44.186262 0.568605 0.850495 0.074228 -0.032959 97412.800000 0 0 1
-26.817503 -17.039831 29.687562 43.484315 0.566043 0.819319 0.069208 -0.027371 -130693.000000 0 0 1
-27.161783 -15.818431 30.238842 43.616199 0.527362 0.804747 0.077768 -0.037529 217756.000000 0 0 1
-26.039933 -14.951431 30.118292 42.529224 0.521213 0.783881 0.060562 -0.031430 194246.000000 0 0 1
-26.083573 -13.714031 31.003932 42.774657 0.484053 0.760023 0.064292 -0.024862 -99554.200000 0 0 1
-25.478973 -13.741831 32.287906 43.365019 0.494622 0.730919 0.058341 -0.023303 246417.000000 0 0 1
-25.242753 -12.442331 32.790707 43.211557 0.457957 0.709264 0.057382 -0.013525 -302029.000000 0 0 1
-24.440533 -12.253431 34.101477 43.708088 0.464733 0.675795 0.058493 -0.012743 1384080.000000 0 0 1
-23.009233 -12.500431 34.109708 43.001835 0.497668 0.654725 0.029139 -0.012826 1338320.000000 0 0 1
-22.553233 -13.842731 33.985150 43.072729 0.550491 0.661588 0.025932 -0.012667 -353588.000000 0 0 1
-22.597033 -14.696831 -32.962850 42.581360 0.576648 2.456112 0.029645 -0.013663 -219787.000000 0 0 1
-21.754833 -14.247831 -31.902470 41.158730 0.579831 2.457683 0.011820 -0.007456 168764.000000 0 0 1
-21.884633 -15.084831 -30.810020 40.690867 0.603501 2.429770 0.026991 -0.009996 304069.000000 0 0 1
-20.569633 -15.417431 -30.022900 39.524442 0.643196 2.433499 0.017745 -0.012822 816205.000000 0 0 1
-20.013333 -14.295231 -29.277980 38.237250 0.620249 2.442914 0.019838 -0.014488 487519.000000 0 0 1
-20.625433 -14.177631 -27.973670 37.535849 0.602210 2.411709 0.027696 -0.016894 146292.000000 0 0 1
-20.140233 -12.955031 -27.165690 36.213762 0.571609 2.419083 0.037546 -0.020781 -331723.000000 0 0 1
-18.943233 -12.969331 -26.446240 35.020754 0.600344 2.426693 0.029224 -0.025779 -389122.000000 0 0 1
-18.729733 -11.806431 -25.725840 33.941325 0.562443 2.430962 0.034167 -0.028808 270892.000000 0 0 1
-17.332333 -11.848431 -25.064340 32.695814 0.599636 2.444313 0.028957 -0.033233 -774145.000000 0 0 1
-17.383233 -12.695131 -23.906770 32.169501 0.630779 2.408562 0.030344 -0.035349 -541350.000000 0 0 1
-16.224033 -12.853131 -23.162070 31.062899 0.669984 2.412307 0.020082 -0.040648 -871301.000000 0 0 1
-15.066333 -13.574031 -23.850670 31.306600 0.733340 2.436948 0.010251 -0.028728 -1194850.000000 0 0 1
-14.405133 -12.914231 -24.862870 31.503135 0.730879 2.480332 0.033425 -0.043281 -230492.000000 0 0 1
-13.603733 -13.825831 -25.616640 32.131408 0.793495 2.493516 0.044671 -0.040002 302967.000000 0 0 1
-12.716833 -13.071531 -26.697660 32.331839 0.799151 2.542307 0.059295 -0.035680 333283.000000 0 0 1
-13.436233 -12.366731 -27.700850 33.178389 0.743973 2.558759 0.083133 -0.041883 115277.000000 0 0 1
-12.576833 -11.942231 -28.737740 33.565627 0.759522 2.598599 0.090497 -0.042099 -98716.700000 0 0 1
-13.275033 -10.838531 -29.515110 34.129782 0.684697 2.615529 0.070050 -0.040869 203241.000000 0 0 1
-12.429933 -9.922231 -30.229200 34.157846 0.673675 2.657259 0.075675 -0.037927 -23757.000000 0 0 1
-11.805233 -10.365731 -31.387170 35.099378 0.720562 2.677520 0.092619 -0.032423 29434.100000 0 0 1
-11.145233 -9.194131 -32.185010 35.279217 0.689763 2.719647 0.074766 -0.027772 1045550.000000 0 0 1
-9.865533 -8.832031 -31.622510 34.282892 0.730180 2.745043 0.065929 -0.023660 460253.000000 0 0 1
-9.332933 -7.687331 -32.257160 34.448847 0.689013 2.782963 0.049548 -0.022657 106730.000000 0 0 1
-7.785733 -7.623431 -32.107930 33.906541 0.774866 2.814417 0.050407 -0.020236 216442.000000 0 0 1
-7.318833 -7.520131 -30.765440 32.505846 0.798963 2.812880 0.040954 -0.017754 -299156.000000 0 0 1
-7.588933 -6.338031 -29.951450 31.541273 0.695820 2.822739 0.038931 -0.018740 -344458.000000 0 0 1
-6.920633 -4.979331 -30.369140 31.543202 0.623688 2.867900 0.028456 -0.022102 -387873.000000 0 0 1
-5.537233 -4.900331 -30.206670 31.098507 0.724454 2.901526 0.044947 -0.025290 -609190.000000 0 0 1
-5.095333 -3.624431 -30.542100 31.175612 0.618285 2.939652 0.052959 -0.024598 -861804.000000 0 0 1
-3.671833 -3.374531 -30.125680 30.535658 0.743231 2.977542 0.062527 -0.019051 -1314870.000000 0 0 1
-2.662633 -4.108031 -30.746600 31.133888 0.995721 2.983698 0.056507 -0.016073 -526022.000000 0 0 1
-1.313633 -3.793631 -30.628740 30.890727 1.237445 3.011262 0.083309 -0.020747 -38534.500000 0 0 1
-0.796033 -2.349131 -30.884070 30.983510 1.244078 3.061453 0.086276 -0.020428 1344110.000000 0 0 1
0.662467 -2.274931 -30.617480 30.709026 -1.287429 3.064359 0.090359 -0.021256 2567220.000000 0 0 1
1.338667 -1.037031 -30.911820 30.958167 -0.659106 3.086867 0.068789 -0.022007 246414.000000 0 0 1
1.321667 -0.081431 -29.706950 29.736448 -0.061534 3.097048 0.071391 -0.033211 -10025.400000 0 0 1
0.041867 0.420269 -29.358130 29.361168 1.471505 3.127208 0.069012 -0.029530 -33783.600000 0 0 1
0.258767 1.576269 -28.556210 28.600852 1.408083 3.085713 0.077160 -0.036939 -59106.100000 0 0 1
-0.992633 2.390069 -28.198310 28.316823 -1.177157 3.050070 0.055437 -0.026246 -463414.000000 0 0 1
-1.689033 2.948669 -29.282100 29.478617 -1.050608 3.026060 0.048308 -0.030358 -477044.000000 0 0 1
-2.538333 3.890969 -28.684770 29.058541 -0.992760 2.981029 0.072236 -0.028001 -145804.000000 0 0 1
-3.857233 4.014269 -29.489130 30.010022 -0.805345 2.955004 0.091211 -0.030752 -175272.000000 0 0 1
-3.549733 4.753569 -30.700340 31.268321 -0.929378 2.950700 0.095055 -0.027700 82250.000000 0 0 1
-4.696933 4.868969 -31.490980 32.209469 -0.803381 2.929979 0.103692 -0.017927 -917002.000000 0 0 1
-4.367233 5.576069 -32.765910 33.522681 -0.906377 2.928706 0.113536 -0.016593 -28645.500000 0 0 1
-3.942233 4.686369 -33.773240 34.323972 -0.871426 2.962215 0.127134 -0.022927 866750.000000 0 0 1
-2.685233 3.994369 -33.597450 33.940450 -0.978935 2.999304 0.126484 -0.030691 281370.000000 0 0 1
-2.144633 3.278669 33.367326 33.596541 -0.991532 0.116879 0.115435 -0.026795 160129.000000 0 0 1
-3.123333 2.363969 32.899109 33.131480 -0.647886 0.118506 0.105275 -0.029091 133710.000000 0 0 1
-2.908733 1.830869 31.596122 31.782507 -0.561785 0.108352 0.100702 -0.025750 -89485.100000 0 0 1
-2.895033 2.709869 30.318492 30.576716 -0.752374 0.130054 0.110477 -0.027950 -503430.000000 0 0 1
-4.040433 3.455569 30.046692 30.513436 -0.707532 0.175131 0.098116 -0.030426 -619417.000000 0 0 1
-3.890533 4.338569 28.953242 29.533873 -0.839790 0.198618 0.089010 -0.032223 12888.300000 0 0 1
-5.156633 5.172669 28.711682 29.626138 -0.786951 0.249105 0.084125 -0.020930 299524.000000 0 0 1
-4.902633 6.039169 27.590742 28.666295 -0.888898 0.274797 0.078161 -0.018485 983621.000000 0 0 1
-6.194033 6.550769 27.168592 28.625357 -0.813382 0.320401 0.063869 -0.014698 1172820.000000 0 0 1
-6.128533 7.321269 25.830832 27.538914 -0.873847 0.354052 0.062438 -0.014985 266335.000000 0 0 1
-5.396533 8.552069 25.982192 27.880724 -1.007879 0.371166 0.075989 -0.018916 178118.000000 0 0 1
-5.256933 9.286569 24.749392 26.951960 -1.055692 0.407087 0.067393 -0.013188 129410.000000 0 0 1
-4.801533 10.717969 25.057052 27.672829 -1.149616 0.438299 0.067969 -0.015359 -350849.000000 0 0 1
-4.731133 11.541169 23.884282 26.945151 -1.181754 0.481279 0.060985 -0.017381 114224.000000 0 0 1
-4.176233 12.818069 24.048812 27.569715 -1.255834 0.510928 0.048900 -0.012967 -220426.000000 0 0 1
-2.644133 12.998769 24.177932 27.577742 -1.370120 0.501798 0.031931 -0.013696 -470440.000000 0 0 1
-1.994533 12.392169 25.243322 28.191654 -1.411214 0.461427 0.037290 -0.016791 -282464.000000 0 0 1
-2.252933 12.917569 26.549252 29.610844 -1.398125 0.458752 0.048533 -0.015241 -822596.000000 0 0 1
-1.348133 12.365669 27.705392 30.369656 -1.462203 0.421999 0.042278 -0.021093 -221629.000000 0 0 1
-0.028033 12.788569 27.704492 30.513721 -1.568604 0.432465 0.039603 -0.017450 -818195.000000 0 0 1
0.688967 12.449269 28.901552 31.476320 1.515511 0.407285 0.045189 -0.027765 -917631.000000 0 0 1
2.159267 12.561069 28.639102 31.347106 1.400559 0.418715 0.044120 -0.026478 -1125580.000000 0 0 1
2.611367 13.928569 28.564182 31.886311 1.385465 0.460538 0.045615 -0.021137 888720.000000 0 0 1
4.040267 13.909769 28.346072 31.832456 1.288112 0.472404 0.069623 -0.025950 1191160.000000 0 0 1
4.746167 15.273869 28.656642 32.817988 1.269518 0.509068 0.066986 -0.026728 -175690.000000 0 0 1
4.555067 15.597869 30.004282 34.121828 1.286666 0.496347 0.063415 -0.016113 543092.000000 0 0 1
3.469667 16.493169 30.263282 34.639998 1.363450 0.508139 0.033716 -0.006919 356929.000000 0 0 1
3.621567 17.927569 29.667002 34.851751 1.371468 0.552464 0.045196 -0.000861 32459.500000 0 0 1
4.538667 18.795869 30.330872 35.970071 1.333860 0.567541 0.054238 0.002998 62024.200000 0 0 1
4.939467 19.849569 29.492392 35.891572 1.326905 0.606395 0.045973 -0.006084 -33284.600000 0 0 1
6.176067 20.625169 29.975362 36.906148 1.279850 0.622874 0.047588 -0.006837 -32237.500000 0 0 1
5.850167 21.454869 31.074832 38.212316 1.304595 0.621141 0.034195 -0.008021 29994.700000 0 0 1
6.963367 22.217369 31.482522 39.156726 1.267074 0.636782 0.022053 -0.005790 -192496.000000 0 0 1
7.285867 23.577769 30.758242 39.434307 1.271090 0.676151 0.017779 -0.000221 -133314.000000 0 0 1
7.751267 23.580869 29.428262 38.498859 1.253213 0.700697 0.004472 0.000164 290544.000000 0 0 1
8.087867 24.911569 29.015902 39.088649 1.256869 0.734285 0.013250 0.000387 63983.100000 0 0 1
8.546767 24.881669 27.554032 38.096842 1.239927 0.762281 0.026623 -0.003237 -509401.000000 0 0 1
7.497567 24.594969 26.686662 37.058116 1.274904 0.766807 0.024217 -0.008094 -48673.100000 0 0 1
7.995067 24.334269 25.380882 36.059214 1.253355 0.789970 0.041557 -0.022919 -216612.000000 0 0 1
28.327063 2.358469 6.616530 29.184985 0.083067 1.342098 0.083476 -0.016189 132712.000000 0 0 1
28.910663 3.063069 7.710030 30.077456 0.105556 1.311563 0.070972 -0.011885 73602.000000 0 0 1
28.081843 3.056069 8.850930 29.601831 0.108401 1.267152 0.061893 -0.005814 -805184.000000 0 0 1
28.428013 3.955569 10.059430 30.413658 0.138256 1.233694 0.057237 -0.004845 -191540.000000 0 0 1
28.194603 5.356969 9.963730 30.379412 0.187762 1.236636 0.062367 -0.010138 389337.000000 0 0 1
29.274713 6.026769 9.299130 31.301830 0.203033 1.269164 0.076160 -0.017860 299173.000000 0 0 1
29.043673 7.578169 8.981530 31.330998 0.255233 1.280051 0.090822 -0.023137 433786.000000 0 0 1
27.992563 7.875269 8.036330 30.169290 0.274246 1.301167 0.087080 -0.018556 578261.000000 0 0 1
28.106343 9.179069 7.453830 30.492317 0.315664 1.323844 0.106227 -0.028580 -220952.000000 0 0 1
27.336863 9.456069 6.160130 29.574795 0.333026 1.360970 0.102477 -0.025203 -76110.300000 0 0 1
25.946863 9.590769 6.393830 28.391964 0.354055 1.343649 0.076354 -0.024064 176860.000000 0 0 1
25.350463 9.796569 5.104630 27.652775 0.368767 1.385134 0.096870 -0.031588 400639.000000 0 0 1
23.901563 10.357569 5.075930 26.539198 0.408916 1.378349 0.052792 -0.027661 259176.000000 0 0 1
23.748463 11.715669 5.436530 27.033354 0.458292 1.368311 0.053268 -0.008584 546152.000000 0 0 1
22.392063 11.874169 5.857930 26.013760 0.487581 1.343663 0.043679 -0.009861 396943.000000 0 0 1
22.089363 13.291969 6.355730 26.552056 0.541695 1.329081 0.027051 0.003248 -299226.000000 0 0 1
22.040963 14.295869 5.349230 26.810263 0.575394 1.369927 0.043276 -0.000239 286673.000000 0 0 1
22.131063 15.567669 5.955130 27.705592 0.613025 1.354163 0.060172 -0.008542 -160522.000000 0 0 1
21.871763 16.780769 5.055530 28.027248 0.654440 1.389424 0.076963 -0.011402 536223.000000 0 0 1
20.503663 16.832969 4.623330 26.928131 0.687400 1.398250 0.084128 -0.012203 817139.000000 0 0 1
20.283463 17.764669 3.557930 27.196713 0.719294 1.439598 0.095931 -0.011989 -51728.800000 0 0 1
18.815763 17.929869 3.110330 26.176082 0.761294 1.451692 0.083362 -0.003125 -51507.400000 0 0 1
18.002063 18.412369 4.154230 26.083467 0.796665 1.410848 0.083335 -0.013628 1108840.000000 0 0 1
16.594363 18.287669 3.838530 24.990919 0.833904 1.416589 0.060951 -0.019575 891795.000000 0 1 0
15.733463 19.268569 4.667330 25.310148 0.886054 1.385329 0.073531 -0.025497 801269.000000 0 0 1
14.340963 18.925869 4.480530 24.164579 0.922357 1.384300 0.072716 -0.028855 819586.000000 0 1 0
13.551163 20.086969 4.627630 24.668508 0.977305 1.382086 0.055510 -0.030717 649830.000000 0 1 0
12.069463 19.821969 4.173230 23.579615 1.023863 1.392874 0.036277 -0.023981 1027800.000000 0 1 0
11.348863 18.939669 5.042530 22.648065 1.030957 1.346267 0.030510 -0.038701 224023.000000 0 1 0
9.946463 19.026369 4.871630 22.015168 1.089097 1.347664 0.023018 -0.027027 280691.000000 0 1 0
9.187763 18.368569 6.033830 21.406224 1.106997 1.285051 0.019385 -0.029492 -963583.000000 0 1 0
8.937063 19.219769 7.140230 22.366348 1.135544 1.245869 0.026307 -0.033137 -297443.000000 0 1 0
8.410263 18.541369 8.234030 21.961652 1.144957 1.186478 0.027498 -0.028070 -681559.000000 0 1 0
7.451863 19.467569 9.060630 22.729090 1.205219 1.160767 0.028573 -0.026932 299067.000000 0 1 0
6.252263 19.745769 8.380230 22.343107 1.264146 1.186324 0.027043 -0.031282 -530297.000000 0 1 0
6.383663 20.856869 7.574030 23.089523 1.273780 1.236580 0.022519 -0.026684 -255886.000000 0 1 0
5.159763 21.247169 6.685330 22.863923 1.332563 1.274064 0.010214 -0.009332 783912.000000 0 1 0
3.845663 21.506869 7.161330 22.991720 1.393855 1.254052 0.001976 -0.014265 392277.000000 0 1 0
3.710763 22.649669 7.964430 24.294226 1.408406 1.236788 0.014651 -0.015748 -393114.000000 0 1 0
3.821963 24.077269 7.265930 25.438475 1.413372 1.281135 0.024878 -0.013083 94142.300000 0 0 1
2.672463 24.198469 6.445230 25.184300 1.460803 1.311994 0.013324 -0.012891 183612.000000 0 0 1
2.786663 25.265669 5.544730 26.016602 1.460946 1.356026 0.025801 -0.005743 -632797.000000 0 0 1
1.584163 25.383369 4.639330 25.852435 1.508468 1.390365 0.025200 -0.007711 -1202580.000000 0 0 1
0.461463 25.846469 5.290730 26.386450 1.552944 1.368919 0.037467 -0.013989 -1017480.000000 0 0 1
-0.634937 25.868069 4.386430 26.245017 -1.546256 1.402874 0.042696 -0.014429 511209.000000 0 0 1
-1.756537 26.772269 5.040530 27.299208 -1.505280 1.385091 0.071200 -0.018346 27095.100000 0 0 1
-2.824937 26.969569 4.145230 27.432114 -1.466432 1.419107 0.100235 -0.026603 -330377.000000 0 0 1
-3.703537 27.829869 4.882430 28.496595 -1.438496 1.398613 0.093249 -0.028688 175016.000000 0 0 1
-4.729237 28.527269 3.890330 29.177139 -1.406511 1.437063 0.090718 -0.035715 -97174.700000 0 0 1
-4.233437 29.209469 2.802930 29.647454 -1.426865 1.476113 0.092938 -0.027414 116747.000000 0 0 1
-5.214037 29.369669 1.768530 29.881288 -1.395096 1.511577 0.098987 -0.028743 351508.000000 0 0 1
-4.631637 30.363069 0.715830 30.722637 -1.419421 1.547494 0.081095 -0.025114 167995.000000 0 0 1
-4.351237 31.699769 1.081630 32.015286 -1.434385 1.537005 0.080505 -0.024919 -100867.000000 0 0 1
-3.183537 31.812069 1.849730 32.024431 -1.471055 1.513004 0.081263 -0.026475 -243432.000000 0 0 1
-2.354437 33.169669 1.849030 33.304493 -1.499934 1.515249 0.075529 -0.030638 -172583.000000 0 0 1
-1.553137 33.277369 0.746130 33.321948 -1.524158 1.548403 0.050667 -0.024408 -230780.000000 0 0 1
-0.612137 -33.846824 0.616430 33.857971 1.552713 1.552589 0.053373 -0.030525 975066.000000 0 0 1
0.771463 -34.072024 1.303130 34.105661 -1.548158 1.532578 0.036631 -0.024208 1987.470000 0 0 1
0.675363 -33.910624 2.725430 34.026673 -1.550883 1.490614 0.040185 -0.022872 742193.000000 0 0 1
1.853763 33.927869 3.494730 34.157721 1.516212 1.468305 0.025708 -0.017544 757060.000000 0 0 1
1.623663 -33.967624 5.029030 34.376255 -1.523032 1.423976 0.030510 -0.021707 706634.000000 0 0 1
0.617063 33.361769 5.646930 33.841930 1.552302 1.403150 0.056443 -0.029547 568590.000000 0 0 1
0.292763 33.811969 6.941030 34.518298 1.562138 1.368333 0.064141 -0.030166 26778.400000 0 0 1
1.365063 33.616869 8.045630 34.593200 1.530212 1.336068 0.037912 -0.023512 -7545.990000 0 0 1
1.597663 32.221469 8.355730 33.325573 1.521253 1.317362 0.036167 -0.027670 -88588.700000 0 0 1
2.644163 32.163269 9.285330 33.581019 1.488770 1.290641 0.036346 -0.023084 -539633.000000 0 0 1
3.224463 30.783069 9.473930 32.368964 1.466429 1.273762 0.028644 -0.022900 -333059.000000 0 0 1
2.402563 29.852069 10.130630 31.615629 1.490487 1.244612 0.048725 -0.024419 -84099.200000 0 0 1
3.080063 28.646869 10.293530 30.595533 1.463689 1.227663 0.027164 -0.023526 -430594.000000 0 0 1
2.508863 27.762269 11.390630 30.112862 1.480672 1.182875 0.027901 -0.025152 -494363.000000 0 0 1
2.679463 28.332369 12.689630 31.159740 1.476504 1.151361 0.037282 -0.024003 -273634.000000 0 0 1
2.440663 27.394469 13.727930 30.738735 1.481938 1.107834 0.045854 -0.020236 -2050600.000000 0 0 1
1.068163 26.934769 14.128630 30.434207 1.531160 1.088025 0.031503 -0.017959 -606310.000000 0 0 1
0.212663 27.960969 14.695630 31.588329 1.563191 1.086909 0.033614 -0.018801 375130.000000 0 0 1
-0.165337 28.949069 13.782930 32.063142 -1.565085 1.126449 0.041251 -0.020126 -1607750.000000 0 0 1
-0.780637 30.145869 14.485730 33.454733 -1.544907 1.122984 0.034803 -0.021692 -141239.000000 0 0 1
-2.044137 29.848669 15.036330 33.484515 -1.502420 1.105091 0.021685 -0.017477 -121674.000000 0 0 1
-2.652837 30.977669 15.631330 34.799310 -1.485368 1.104943 0.019531 -0.010237 -431139.000000 0 0 1
-3.956037 30.583569 16.325330 34.892998 -1.442159 1.083919 0.014074 0.000791 -370122.000000 0 0 1
-4.887137 30.053469 15.394830 34.118850 -1.409593 1.102673 0.013978 -0.004735 526629.000000 0 0 1
-6.076237 29.663269 16.115830 34.300877 -1.368751 1.081690 0.027427 -0.003639 23068.500000 0 0 1
-7.180137 29.166269 15.206830 33.667095 -1.329417 1.102146 0.015870 -0.012389 -153364.000000 0 0 1
-8.370537 28.721969 15.864630 33.863016 -1.287217 1.083211 0.015395 -0.009079 64833.000000 0 0 1
-9.340837 28.527569 14.865930 33.497303 -1.254366 1.110967 0.021912 -0.014012 288850.000000 0 0 1
-10.724937 28.058269 15.445430 33.776501 -1.205695 1.095858 0.019166 -0.008580 458136.000000 0 0 1
-11.446837 29.034369 16.168430 35.148866 -1.195256 1.092803 0.023182 -0.018676 133257.000000 0 0 1
-11.094337 29.057269 17.544630 35.710268 -1.206069 1.057209 0.021006 -0.017838 -312545.000000 0 0 1
-11.729737 30.228569 18.363830 37.263700 -1.200647 1.055483 0.031957 -0.017453 -167137.000000 0 0 1
-13.125237 30.124369 18.491330 37.705155 -1.159896 1.058226 0.042152 -0.012979 -301384.000000 0 0 1
-13.579137 31.408069 18.846530 39.064709 -1.162720 1.067354 0.057666 -0.020487 744237.000000 0 0 1
-14.834237 31.351569 19.800830 39.938056 -1.128852 1.052054 0.069625 -0.013911 684243.000000 0 0 1
-14.440937 31.123069 21.125430 40.292306 -1.136366 1.018898 0.059136 -0.010345 268843.000000 0 0 1
-15.458537 30.578469 21.972730 40.703931 -1.102729 1.000575 0.045915 -0.004954 210397.000000 0 0 1
-14.984137 30.536369 23.441630 41.309856 -1.114618 0.967380 0.033350 0.006143 155659.000000 0 0 1
-13.957437 29.534069 23.645930 40.326186 -1.129318 0.944230 0.021562 0.004072 881134.000000 0 0 1
-13.531137 29.258469 24.987230 40.786166 -1.137622 0.911400 0.037267 0.003063 12.060400 0 0 1
-13.073637 30.489269 25.880030 42.074832 -1.165716 0.908290 0.031741 0.006510 -661231.000000 0 0 1
-14.081137 31.383469 26.211730 43.246449 -1.149041 0.919647 0.027399 0.009867 -52508.200000 0 0 1
-13.485037 32.437869 26.952730 44.277661 -1.176813 0.916349 0.023324 0.005162 -331822.000000 0 0 1
-14.487037 33.427669 27.504730 45.648587 -1.161845 0.924127 0.036501 0.001274 -95606.100000 0 0 1
-15.292237 33.003269 28.587630 46.263602 -1.136892 0.904690 0.007227 0.005197 553997.000000 0 0 1
-14.545937 33.163569 29.787230 46.890145 -1.157453 0.882457 0.023144 0.009113 133919.000000 0 0 1
-15.156137 32.322169 30.991330 47.274662 -1.132330 0.855874 0.005500 0.012885 -331655.000000 0 0 1
-16.364637 32.891569 31.407130 48.332851 -1.109124 0.863463 0.011428 0.013254 -698198.000000 0 0 1
-16.785537 32.223369 32.568730 48.793667 -1.090559 0.839979 -0.003879 0.016570 688411.000000 0 0 1
-18.306237 32.516369 32.790630 49.675527 -1.058038 0.849849 0.000905 0.009468 386392.000000 0 0 1
-18.493837 33.837369 33.168430 50.863880 -1.070605 0.860443 0.020813 0.002627 71478.700000 0 0 1
-19.884937 -34.040224 33.148630 51.507079 1.042105 0.871637 0.035330 -0.004298 221246.000000 0 0 1
-20.222437 -32.584824 33.280830 50.777272 1.015361 0.856048 0.051495 -0.006096 -211315.000000 0 0 1
-20.002337 -31.932924 -33.738473 50.577561 1.011201 2.301057 0.054034 -0.011745 -244629.000000 0 0 1
-20.750437 -32.433624 -32.680473 50.502811 1.001638 2.274574 0.045646 -0.013491 -164632.000000 0 0 1
-20.518537 -31.576424 -31.424073 49.046440 0.994558 2.266206 0.059236 -0.023413 211614.000000 0 0 1
-20.700837 -30.167424 -31.517473 48.290260 0.969393 2.281896 0.080499 -0.019910 134647.000000 0 0 1
-20.179037 -29.511924 -30.331973 46.884707 0.971054 2.274372 0.074587 -0.017526 311178.000000 0 0 1
-20.321537 -28.004824 -30.301673 45.993765 0.943066 2.290047 0.091793 -0.024666 -100327.000000 0 0 1
-21.676037 -27.662324 -30.171573 46.318232 0.906139 2.280221 0.086973 -0.019956 -271099.000000 0 0 1
-21.883037 -26.257124 -30.056473 45.515881 0.876011 2.292083 0.088474 -0.019252 -452396.000000 0 0 1
-23.079837 -25.897324 -29.206973 45.347520 0.842861 2.270603 0.091207 -0.018438 -591914.000000 0 0 1
-23.029637 -26.230224 -27.801773 44.624292 0.850280 2.243392 0.089861 -0.022334 -284704.000000 0 0 1
-22.241537 -25.332124 -27.100973 43.253500 0.850271 2.247930 0.092225 -0.032837 -293688.000000 0 0 1
-22.228437 -25.527224 -25.563473 42.417375 0.854365 2.217633 0.085951 -0.030694 -1644950.000000 0 0 1
-23.350737 -25.120524 -24.975173 42.427078 0.821894 2.200198 0.075130 -0.028678 -1552970.000000 0 0 1
-23.284337 -25.497124 -23.635473 41.843748 0.830728 2.171049 0.068070 -0.019597 -542116.000000 0 0 1
-24.681937 -25.312324 -22.997373 42.175715 0.798007 2.147514 0.049292 -0.015232 797195.000000 0 0 1
-25.742637 -26.143624 -23.539073 43.591976 0.793126 2.141217 0.034673 -0.008920 422938.000000 0 0 1
-25.566337 -27.559724 -23.425173 44.293506 0.822902 2.128056 0.043697 0.002364 -733708.000000 0 0 1
-26.924137 -28.341124 -23.451073 45.585977 0.811032 2.111146 0.022618 0.007707 626702.000000 0 0 1
-27.617737 -28.201624 -22.230973 45.302176 0.795858 2.083720 0.021603 0.009310 303879.000000 0 0 1
-28.727137 -27.298524 -22.428373 45.535588 0.759904 2.085809 0.019278 0.007994 163930.000000 0 0 1
-29.334637 -26.825724 -21.108873 45.008054 0.740754 2.058957 0.022845 0.003277 -332344.000000 0 0 1
-29.992337 -27.813024 -20.375473 45.697533 0.747715 2.032950 0.024096 0.006154 99057.400000 0 0 1
-30.181937 -27.360524 -19.050673 44.971944 0.736406 2.008226 0.025800 0.003220 -684765.000000 0 0 1
-31.054937 -28.313724 -18.206373 45.798997 0.739258 1.979617 0.019245 0.003794 38546.000000 0 0 1
-32.364137 -28.725924 -18.608373 47.105070 0.725914 1.976907 0.020287 0.004151 1398290.000000 0 0 1
-33.366437 -27.704224 -18.782773 47.261355 0.692947 1.979504 0.028450 0.012677 5584.720000 0 0 1
-33.859337 -27.140224 -17.448973 46.770858 0.675690 1.953116 0.037478 0.009133 -837095.000000 0 0 1
-33.061537 -26.069124 -16.938273 45.382481 0.667691 1.953289 0.034122 0.010318 561088.000000 0 0 1
-33.603837 -25.526924 -15.722973 45.033916 0.649644 1.927446 0.044052 0.004025 -8721.180000 0 0 1
-33.274037 -26.266424 -14.409973 44.774255 0.668242 1.898464 0.038738 0.000363 -217125.000000 0 0 1
-33.919237 -27.487824 -14.185773 45.905678 0.681045 1.884959 0.048750 0.002902 134890.000000 0 0 1
-33.744337 -27.787124 -12.860873 45.565410 0.688883 1.856936 0.053637 0.007359 -173940.000000 0 0 1
-34.483737 -29.109624 -12.468073 46.818278 0.701091 1.840357 0.064258 -0.000057 -60506.300000 0 0 1
-34.183237 -30.144424 -13.385673 47.501118 0.722695 1.856463 0.045060 0.004580 482119.000000 0 0 1
-34.741037 -31.443724 -13.005573 48.629131 0.735619 1.841536 0.031954 -0.005670 -112125.000000 0 0 1
-34.453137 -32.570824 -14.007373 49.437675 0.757321 1.858065 0.019473 0.002682 -675707.000000 0 0 1
-33.096137 -32.911124 -13.926073 48.707616 0.782595 1.860754 0.003206 0.002326 -188661.000000 0 0 1
-32.705337 -33.580224 -15.139373 49.259224 0.798596 1.883194 0.012231 -0.009947 -1246100.000000 0 0 1
-31.288937 -34.036924 -15.140173 48.649097 0.827439 1.887264 -0.007022 0.002172 -1231660.000000 0 0 1
-30.959537 33.354569 -16.248573 48.322214 -0.822621 1.913734 0.009715 0.003038 -698321.000000 0 0 1
-29.595137 33.036969 -16.205773 47.222247 -0.840296 1.921098 0.009220 0.001428 -437191.000000 0 0 1
9.457367 19.832169 -8.660570 23.616990 1.125823 1.946266 0.035532 -0.024869 601985.000000 0 1 0
8.031167 20.054469 -8.792870 23.323721 1.189887 1.957344 0.041411 -0.026200 1216160.000000 0 1 0
7.547867 20.210269 -10.102970 23.822160 1.213370 2.008764 0.048493 -0.030708 617.715000 0 1 0
7.633867 19.016269 -11.126870 23.317411 1.189050 2.068252 0.041044 -0.018794 523479.000000 0 1 0
8.949067 18.626169 -11.574570 23.685241 1.122905 2.081376 0.044645 -0.015109 705576.000000 0 1 0
8.831367 17.627669 -12.551070 23.372144 1.106353 2.137685 0.046510 -0.014614 242591.000000 0 1 0
10.158767 16.948169 -13.022370 23.664808 1.030817 2.153501 0.055990 -0.022947 399381.000000 0 1 0
9.976367 15.764469 -13.828370 23.222192 1.006580 2.208660 0.065577 -0.034807 475111.000000 0 1 0
11.226567 15.484769 -14.448970 23.970537 0.943484 2.217778 0.092490 -0.038765 235615.000000 0 1 0
11.129667 14.332369 -15.454770 23.835608 0.910524 2.276264 0.085451 -0.036600 -232560.000000 0 1 0
11.117067 13.018869 -14.954370 22.731329 0.864031 2.288790 0.091093 -0.026436 425378.000000 0 1 0
12.294067 12.486569 -14.343770 22.645137 0.793166 2.256755 0.105753 -0.027370 -137863.000000 0 1 0
13.196267 11.702169 -15.271670 23.330370 0.725462 2.284428 0.108422 -0.033559 97154.200000 0 1 0
13.964467 12.541569 -16.206070 24.797863 0.731768 2.283031 0.097505 -0.029456 651243.000000 0 1 0
14.681467 11.778369 -17.142470 25.458589 0.676118 2.309523 0.082181 -0.030828 7772.560000 0 0 1
15.359867 12.735869 -18.193870 27.002681 0.692273 2.310109 0.055414 -0.029688 969045.000000 0 0 1
16.477967 13.535569 -17.725970 27.729859 0.687675 2.264303 0.042648 -0.025815 646139.000000 0 0 1
17.050867 14.245369 -18.800570 29.105396 0.695994 2.273061 0.020979 -0.014108 -234090.000000 0 0 1
18.246667 15.127769 -18.427470 30.022690 0.692217 2.231642 0.023265 -0.007938 -501559.000000 0 0 1
17.957867 16.360969 -17.783170 30.106601 0.738900 2.202690 0.037999 -0.014727 165972.000000 0 0 1
17.634667 17.390169 -18.700370 31.033906 0.778418 2.217525 0.028693 -0.003375 -103930.000000 0 0 1
17.480067 18.753269 -18.079370 31.370392 0.820523 2.185014 0.039007 0.002815 -363090.000000 0 0 1
18.710767 19.363469 -17.853770 32.307799 0.802539 2.156295 0.044830 0.007189 -219984.000000 0 0 1
18.528567 20.586269 -17.200470 32.603044 0.837956 2.126537 0.044989 0.010657 -256206.000000 0 0 1
19.637767 21.532869 -17.671670 34.082170 0.831396 2.115894 0.064958 -0.000078 -85928.100000 0 0 1
20.719067 21.601069 -16.772170 34.310226 0.806236 2.081555 0.053640 -0.004850 -507957.000000 0 0 1
20.649567 22.514569 -15.684770 34.341265 0.828579 2.045115 0.067080 -0.003913 650172.000000 0 0 1
22.041067 22.777469 -14.992470 35.062742 0.801827 2.012621 0.052105 -0.007249 72278.200000 0 0 1
22.554167 21.857869 -14.038270 34.402470 0.769721 1.991124 0.062575 -0.002238 218781.000000 0 0 1
23.561567 22.405369 -13.171970 35.080605 0.760251 1.955708 0.053607 0.002680 303119.000000 0 0 1
24.960967 22.416269 -13.802470 36.277365 0.731738 1.961101 0.050329 0.003301 -934844.000000 0 0 1
25.129467 23.118269 -15.007270 37.298293 0.743737 1.984888 0.057020 -0.001689 -160660.000000 0 0 1
26.417767 22.993069 -15.578270 38.330956 0.716198 1.989323 0.037725 0.015110 -100742.000000 0 0 1
26.469667 23.558769 -16.965170 39.287096 0.727279 2.017312 0.037321 0.008585 -390128.000000 0 0 1
27.404267 22.911369 -17.790370 39.905162 0.696340 2.032882 0.049370 0.003328 124426.000000 0 0 1
27.183767 23.308769 -19.126970 40.596760 0.708804 2.061385 0.043731 -0.005467 -900594.000000 0 0 1
27.857967 22.247669 -20.006370 40.881291 0.673893 2.082172 0.047612 -0.003694 1869510.000000 0 0 1
29.309067 22.392269 -20.135570 42.022331 0.652404 2.070498 0.041311 -0.000805 1577430.000000 0 0 1
29.931367 21.506369 -21.050670 42.444568 0.623049 2.089733 0.046661 -0.008030 179630.000000 0 0 1
31.456567 21.666169 -21.151770 43.661607 0.603146 2.076528 0.066189 -0.012984 -231646.000000 0 0 1
31.807267 22.774169 -21.993370 44.878429 0.621387 2.082961 0.043711 -0.002796 -674637.000000 0 0 1
33.077567 23.281469 -21.794970 45.947502 0.613302 2.065016 0.037221 0.000472 -842396.000000 0 0 1
33.244667 24.728569 -22.429170 47.114517 0.639544 2.066961 0.021427 0.005786 -199687.000000 0 0 1
33.409867 24.991169 -23.837470 48.052084 0.642231 2.089870 0.028417 -0.005896 -696558.000000 0 0 1
32.243367 24.678269 -24.509970 47.427738 0.653269 2.113888 0.032070 -0.015368 -797735.000000 0 0 1
32.127567 25.086469 -25.989400 48.342119 0.662948 2.138401 0.041918 -0.021983 -409665.000000 0 0 1
32.013067 26.472369 -26.246220 49.137428 0.690944 2.134285 0.047252 -0.025377 -267875.000000 0 0 1
30.761767 26.874069 -26.754180 48.829172 0.718047 2.150665 0.054582 -0.011878 -109779.000000 0 0 1
30.401067 26.475169 -28.226770 49.212905 0.716482 2.181647 0.054759 -0.009957 -219095.000000 0 0 1
30.024367 25.107969 -28.228810 48.257004 0.696459 2.195637 0.045433 -0.021278 -96315.500000 0 0 1
29.744167 24.726569 -29.577760 48.692531 0.693542 2.223629 0.058504 -0.026023 -516689.000000 0 0 1
29.000167 23.362069 -29.540360 47.533450 0.678137 2.241407 0.060688 -0.025308 24322.700000 0 0 1
27.704067 23.584369 -29.035080 46.548616 0.705246 2.244338 0.069872 -0.026492 -648504.000000 0 0 1
26.856967 22.538369 -29.291860 45.686845 0.698191 2.266785 0.086737 -0.032685 -1162070.000000 0 0 1
25.462167 22.675269 -28.741030 44.593011 0.727568 2.271190 0.081925 -0.028351 -838915.000000 0 0 1
25.507867 22.695569 -27.345840 43.743972 0.727122 2.246099 0.083315 -0.017271 958172.000000 0 0 1
24.174367 22.742869 -26.798350 42.658993 0.754897 2.250033 0.082432 -0.023264 791278.000000 0 0 1
24.153767 22.833169 -25.258450 41.746226 0.757300 2.220622 0.081279 -0.020343 -206420.000000 0 0 1
24.619267 21.679969 -24.625270 41.018695 0.721998 2.214726 0.071779 -0.016998 275146.000000 0 0 1
25.318467 22.019469 -23.418270 40.918177 0.715820 2.180128 0.064313 -0.010539 138226.000000 0 0 1
25.517167 20.769269 -22.547470 39.885797 0.683179 2.171594 0.070633 -0.006869 -476175.000000 0 0 1
26.702467 20.165569 -22.949470 40.575240 0.646818 2.171960 0.052159 -0.009089 -639097.000000 0 0 1
26.775767 18.770869 -22.704970 39.809583 0.611423 2.177715 0.082369 -0.011385 -620630.000000 0 0 1
27.981967 18.092469 -23.289970 40.654036 0.573964 2.180814 0.089028 -0.014361 116036.000000 0 0 1
29.205867 18.114469 -22.534770 41.096624 0.555165 2.151170 0.101185 -0.020589 299805.000000 0 0 1
30.270067 17.862269 -23.404570 42.226905 0.533106 2.158267 0.081809 -0.014853 -94407.300000 0 0 1
31.638567 17.529169 -22.771770 42.741364 0.505943 2.132679 0.081042 -0.010937 705.691000 0 0 1
32.302667 18.637569 -22.222270 43.412562 0.523311 2.108175 0.057709 -0.007090 -608425.000000 0 0 1
33.488367 18.181069 -21.641470 43.822086 0.497381 2.087306 0.068568 -0.010953 -321019.000000 0 0 1
34.093367 19.209469 -20.691570 44.266268 0.513101 2.057183 0.041550 -0.015644 -154232.000000 0 0 1
33.368367 19.326169 -19.488270 43.205803 0.524967 2.038745 0.055333 -0.010497 68520.400000 0 0 1
33.881267 20.373869 -18.698270 43.733970 0.541398 2.012572 0.033529 -0.001106 -206256.000000 0 0 1
33.383367 20.330969 -17.227070 42.714979 0.547022 1.985920 0.044441 -0.012623 53734.800000 0 0 1
33.684167 19.178869 -16.497970 42.126419 0.517595 1.973199 0.056549 -0.022307 477862.000000 0 0 1
33.196967 19.444769 -15.155670 41.350115 0.529868 1.946063 0.065963 -0.015375 -38330.800000 0 0 1
33.636267 18.346569 -14.226570 40.870409 0.499336 1.926329 0.063056 -0.009587 -471406.000000 0 0 1
35.039767 18.248869 -14.121770 41.955106 0.480152 1.914092 0.045695 -0.018209 11171.700000 0 0 1
35.464867 17.144069 -13.352870 41.592969 0.450288 1.897620 0.036672 -0.004780 -32228.400000 0 0 1
35.596167 17.456069 -11.779370 41.358857 0.455932 1.859603 0.057953 -0.016344 -3292.900000 0 0 1
36.517467 18.510969 -11.473370 42.518462 0.469158 1.844028 0.043102 -0.021157 350092.000000 0 0 1
36.324767 18.892469 -10.117670 42.175601 0.479597 1.813053 0.052182 -0.020024 15888.300000 0 0 1
35.269167 20.022369 -9.893770 41.745612 0.516332 1.810075 0.059267 -0.021584 1487100.000000 0 0 1
33.919267 19.524669 -10.133170 40.427843 0.522301 1.824146 0.082409 -0.030797 719961.000000 0 0 1
32.964767 20.546669 -10.140470 40.145618 0.557370 1.826155 0.062914 -0.010928 190170.000000 0 0 1
31.510367 20.005269 -10.023970 38.647044 0.565672 1.833168 0.038088 -0.009694 281978.000000 0 0 1
31.142067 19.467369 -11.275770 38.418092 0.558682 1.868684 0.054999 -0.015343 -994144.000000 0 0 1
29.957067 18.778269 -11.335970 37.128877 0.559921 1.881065 0.057809 -0.017346 -959928.000000 0 0 1
29.624167 18.334269 -12.763670 37.103207 0.554198 1.921975 0.087886 -0.008197 49894.400000 0 0 1
30.530967 17.304369 -13.214270 37.499308 0.515635 1.930917 0.090992 -0.010759 544923.000000 0 0 1
30.063667 16.499469 -14.280370 37.148157 0.501935 1.965372 0.079266 -0.009121 -17006.500000 0 0 1
31.254667 15.815469 -14.993670 38.102407 0.468452 1.975243 0.075108 -0.018151 58128.800000 0 0 1
31.908467 14.753969 -14.313170 37.956511 0.433105 1.957453 0.059101 -0.022172 321567.000000 0 0 1
33.072167 14.362869 -14.993770 39.049627 0.409712 1.964885 0.055883 -0.018083 172480.000000 0 0 1
34.090767 13.415069 -14.276470 39.318724 0.374899 1.942385 0.034993 -0.022555 50281.200000 0 0 1
34.770167 14.010969 -13.174470 39.734600 0.383055 1.908755 0.035608 -0.009134 88365.200000 0 0 1
35.438567 12.993369 -12.459670 39.748749 0.351426 1.889632 0.031827 -0.002542 -376261.000000 0 0 1
36.269267 13.606569 -11.342770 40.364054 0.358906 1.855644 0.042041 -0.000774 -542610.000000 0 0 1
-35.844729 14.468569 -11.887170 40.441178 -0.383645 1.869140 0.013869 -0.001829 -988533.000000 0 0 1
-34.896129 14.764269 -10.933970 39.436977 -0.400253 1.851729 0.016461 -0.000192 124033.000000 0 0 1
-33.447129 14.994769 -11.539270 38.427962 -0.421450 1.875786 0.038635 -0.015626 922493.000000 0 0 1
-32.651129 13.923169 -11.958070 37.455925 -0.403075 1.895742 0.039603 -0.012080 348873.000000 0 0 1
-32.200229 13.045069 -10.909870 36.415022 -0.384915 1.875068 0.056827 -0.003990 -944193.000000 0 0 1
-31.270229 11.951969 -11.422970 35.371755 -0.365082 1.899631 0.067309 -0.011182 -497842.000000 0 0 1
-31.724729 11.053969 -12.382270 35.804599 -0.335279 1.923919 0.036363 -0.008707 339757.000000 0 0 1
-30.874929 9.914769 -12.232470 34.658292 -0.310725 1.931513 0.077911 -0.025961 -173447.000000 0 0 1
-30.763429 9.040069 -13.482770 34.783567 -0.285812 1.968844 0.081299 -0.032299 162173.000000 0 0 1
-31.957129 8.347769 -13.809870 35.800221 -0.255508 1.966815 0.058939 -0.028985 613587.000000 0 0 1
-31.597229 7.449669 -14.872370 35.708120 -0.231541 2.000387 0.076172 -0.028502 327077.000000 0 0 1
-32.816629 6.970569 -15.725370 37.051413 -0.209299 2.009118 0.070023 -0.024698 316520.000000 0 0 1
-33.820829 6.357069 -14.920470 37.508415 -0.185795 1.979903 0.079033 -0.033350 89340.000000 0 0 1
-34.693729 5.649769 -15.767970 38.525363 -0.161430 1.992470 0.057219 -0.031588 -515441.000000 0 0 1
-35.914829 5.180769 -14.949870 39.245559 -0.143263 1.961600 0.051271 -0.020200 -670106.000000 0 0 1
36.410167 4.237269 -15.592070 39.834249 0.115855 1.972975 0.060864 -0.018403 -929690.000000 0 0 1
35.279967 3.902069 -14.854570 38.478052 0.110155 1.967145 0.070177 -0.015878 -543704.000000 0 0 1
34.429167 2.898769 -15.613370 37.915007 0.083997 1.995224 0.066847 -0.015499 -121523.000000 0 0 1
35.095367 1.630369 -15.616970 38.447791 0.046422 1.989073 0.076319 -0.016869 753599.000000 0 0 1
34.148867 0.562269 -15.446670 37.484142 0.016464 1.995538 0.062926 -0.016069 326860.000000 0 0 1
33.626367 0.310269 -14.008570 36.428956 0.009227 1.965511 0.065664 -0.009866 -753716.000000 0 0 1
34.465267 -0.234631 -13.065470 36.859411 -0.006808 1.933141 0.072849 -0.008565 -325068.000000 0 0 1
33.975867 -0.170331 -11.697370 35.933508 -0.005013 1.902367 0.076895 -0.001609 -205987.000000 0 0 1
34.190067 1.109969 -10.951570 35.918374 0.032453 1.880631 0.080330 -0.006436 -332680.000000 0 0 1
33.530567 2.173969 -11.569670 35.537056 0.064745 1.902407 0.071209 -0.003692 277710.000000 0 0 1
33.719567 3.438769 -10.896270 35.602852 0.101630 1.881838 0.082920 -0.007004 -9859.760000 0 0 1
32.735767 4.528769 -11.421170 34.965459 0.137471 1.903544 0.081431 -0.005567 48173.900000 0 0 1
32.896667 4.957569 -12.753270 35.628838 0.149576 1.936866 0.070764 -0.008070 245193.000000 0 0 1
31.810867 5.737969 -13.208670 34.918828 0.178459 1.958721 0.069691 -0.012950 -149784.000000 0 0 1
31.937167 6.295369 -14.632270 35.689181 0.194622 1.993241 0.042245 -0.006945 -254720.000000 0 0 1
31.732667 5.444869 -15.780770 35.855843 0.169931 2.026525 0.031097 -0.001259 284357.000000 0 0 1
32.065467 5.995269 -17.100670 36.831649 0.184836 2.053632 0.026977 -0.004854 -806372.000000 0 0 1
31.086967 7.064869 -17.678370 36.453212 0.223466 2.077114 0.046460 -0.011445 -87860.200000 0 0 1
29.879367 6.599569 -18.214570 35.610412 0.217384 2.107721 0.046856 -0.015458 76469.400000 0 0 1
28.920267 6.211369 -17.234870 34.234540 0.211562 2.098366 0.044492 -0.009088 -1398260.000000 0 0 1
27.529167 6.129969 -17.848570 33.376684 0.219097 2.135022 0.042096 -0.010639 -803361.000000 0 0 1
27.304167 5.129869 -18.762670 33.524184 0.185714 2.164791 0.047495 -0.006970 425329.000000 0 0 1
26.204067 5.418969 -19.628970 33.186064 0.203924 2.203692 0.037213 -0.006141 240927.000000 0 0 1
25.794167 4.158769 -20.428570 33.165658 0.159853 2.234395 0.038254 0.009143 67500.700000 0 0 1
25.127467 3.203269 -19.582570 32.017614 0.126797 2.228901 0.043948 -0.000837 438092.000000 0 0 1
24.962367 1.941169 -20.218870 32.182148 0.077608 2.250116 0.031027 -0.002750 -751709.000000 0 0 1
24.023167 0.992169 -19.514370 30.966233 0.041277 2.252584 0.036949 -0.007186 -208056.000000 0 0 1
22.693967 1.477669 -19.621070 30.036412 0.065021 2.282656 0.045817 -0.012621 237861.000000 0 0 1
21.851867 0.904569 -18.638670 28.735385 0.041372 2.276581 0.057036 -0.017104 554841.000000 0 0 1
20.471667 1.620769 -18.525670 27.657124 0.079007 2.304781 0.059411 -0.024186 -188589.000000 0 0 1
19.613267 1.645469 -19.671070 27.826944 0.083700 2.355912 0.054442 -0.014348 278368.000000 0 0 1
18.538467 2.538869 -19.648670 27.132837 0.136105 2.380620 0.053948 -0.012090 -233272.000000 0 0 1
17.372267 2.184569 -18.712070 25.626345 0.125094 2.389395 0.081678 -0.022816 -1184890.000000 0 0 1
17.662067 2.329969 -17.350670 24.868115 0.131162 2.342989 0.081353 -0.027682 318549.000000 0 1 0
16.540867 2.265269 -16.468670 23.450988 0.136103 2.349362 0.064042 -0.012935 219740.000000 0 1 0
15.578967 3.435269 -16.322270 22.823711 0.217034 2.367628 0.068742 -0.016082 -305368.000000 0 1 0
14.734167 3.570569 -17.435170 23.104757 0.237749 2.425862 0.060671 -0.013702 36926.500000 0 1 0
13.771567 4.579469 -17.240470 22.535781 0.321028 2.441879 0.068635 -0.018850 -222852.000000 0 1 0
-19.577233 -21.554331 -16.975170 33.704801 0.833429 2.098606 0.045222 -0.019159 -38372.100000 0 0 1
-19.482633 -21.880531 -18.359670 34.574674 0.843305 2.130594 0.040755 -0.009412 606842.000000 0 0 1
-20.719533 -21.860831 -19.087770 35.658631 0.812195 2.135649 0.047939 -0.012935 137982.000000 0 0 1
-20.722333 -22.558131 -20.463570 36.838052 0.827789 2.159762 0.033927 -0.008184 -140621.000000 0 0 1
-20.527133 -23.970131 -20.433270 37.595863 0.862620 2.145395 0.030440 -0.007148 192438.000000 0 0 1
-20.017033 -24.447931 -21.635470 38.294602 0.884719 2.171199 0.035335 -0.003514 -430586.000000 0 0 1
-19.898133 -25.974561 -21.616570 39.215936 0.917094 2.154621 0.039567 -0.006845 316018.000000 0 0 1
-21.077533 -26.779751 -21.779470 40.444564 0.903990 2.139454 0.047662 -0.003775 208002.000000 0 0 1
-20.779533 -28.141401 -21.815870 41.226928 0.934762 2.128413 0.064263 -0.009444 -249541.000000 0 0 1
-21.937733 -29.154761 -22.024070 42.618351 0.925724 2.113875 0.060666 -0.002996 272082.000000 0 0 1
-22.601133 -29.014651 -23.298370 43.537056 0.909020 2.135468 0.050549 -0.004240 257415.000000 0 0 1
-22.278133 -30.031401 -24.223470 44.553078 0.932546 2.145635 0.046300 -0.008662 -408483.000000 0 0 1
-22.673333 -29.671331 -25.642120 45.298855 0.918301 2.172522 0.048868 -0.002935 358378.000000 0 0 1
-24.025433 -30.041861 -25.928010 46.389617 0.896219 2.163877 0.049239 -0.002926 662628.000000 0 0 1
-24.637133 -29.144151 -26.860090 46.667272 0.869006 2.184092 0.050772 -0.003866 -1469.120000 0 0 1
-24.281533 -29.315721 -28.347220 47.461239 0.879050 2.210890 0.067557 -0.019283 -381445.000000 0 0 1
-24.726633 -30.551181 -28.938820 48.808159 0.890379 2.205463 0.046048 -0.007084 170234.000000 0 0 1
-24.526533 -30.437281 -30.361990 49.495751 0.892525 2.231188 0.089365 -0.013000 87731.600000 0 0 1
-24.717733 -31.742551 -31.149020 50.880422 0.909183 2.229637 0.051391 -0.010100 249548.000000 0 0 1
-23.901033 -32.832461 -30.711010 50.915577 0.941544 2.218272 0.051183 -0.013226 -89358.300000 0 0 1
-24.507533 -33.989091 -31.123100 52.196981 0.946088 2.209634 0.054259 -0.018952 -325582.000000 0 0 1
-23.722233 32.863148 -30.930460 50.984548 -0.945557 2.222653 0.070190 -0.025483 104404.000000 0 0 1
-22.776833 32.625969 -31.959000 51.035435 -0.961333 2.247481 0.071791 -0.033927 -18712.000000 0 0 1
-22.149433 31.358423 -31.763910 49.828647 -0.955834 2.261997 0.076280 -0.025705 636234.000000 0 0 1
-20.841733 31.157053 -32.622420 49.692676 -0.981232 2.286944 0.063947 -0.014700 577394.000000 0 0 1
-21.052633 31.062943 -33.991130 50.631183 -0.975166 2.306822 0.050428 -0.009409 -21214.600000 0 0 1
-20.472633 29.856603 33.860686 49.569058 -0.969733 0.818796 0.026850 -0.000336 -211487.000000 0 0 1
-20.822833 29.493723 32.435860 48.534061 -0.956049 0.838860 0.009552 0.002837 -120323.000000 0 0 1
-20.306633 30.495783 31.582312 48.371423 -0.983336 0.859373 0.010233 0.011349 171901.000000 0 0 1
-20.294533 30.133943 30.223362 47.258589 -0.978093 0.876907 0.031841 0.011067 -534654.000000 0 0 1
-19.956233 31.326633 29.339312 47.332910 -1.003588 0.902245 0.022925 -0.001361 -323327.000000 0 0 1
-20.958733 32.292992 29.249202 48.348957 -0.995112 0.921080 0.017749 -0.000767 300549.000000 0 0 1
-20.337533 33.591267 29.067702 48.856113 -1.026386 0.933574 0.023054 -0.014494 343570.000000 0 0 1
-21.402033 -33.486571 29.101532 49.257452 1.002106 0.938741 0.042296 -0.025843 8148.800000 0 0 1
-21.717033 -32.961291 30.398562 49.821168 0.988215 0.914542 0.029960 -0.018215 -162026.000000 0 0 1
-22.851033 -32.134161 30.468612 49.830817 0.952651 0.912916 0.040800 -0.020988 -130704.000000 0 0 1
-22.720933 -30.692911 29.924672 48.515787 0.933554 0.906122 0.053459 -0.017690 -501407.000000 0 0 1
-22.525433 -30.617121 28.525082 47.523505 0.936501 0.927006 0.034822 -0.009862 -94161.700000 0 0 1
-22.578533 -29.236401 28.255122 46.507088 0.913191 0.917831 0.031496 -0.015987 733540.000000 0 0 1
-23.979933 -28.706381 27.746522 46.572127 0.874868 0.932566 0.027720 -0.005279 245989.000000 0 0 1
-24.989233 -28.721441 28.753122 47.708752 0.854774 0.923941 0.035760 -0.001603 481197.000000 0 0 1
-25.953503 -29.763871 28.575212 48.744385 0.853679 0.944404 0.016626 -0.007725 580213.000000 0 0 1
-27.033893 -29.589051 27.457182 48.582303 0.830493 0.970159 0.002742 0.004645 242588.000000 0 0 1
-26.369553 -29.916221 26.228882 47.731414 0.848327 0.989019 0.002287 0.005454 646619.000000 0 0 1
-27.283503 -29.661361 25.182722 47.522157 0.827131 1.012296 -0.001528 0.004863 -154711.000000 0 0 1
-26.577053 -29.799791 23.839022 46.504476 0.842500 1.032565 0.002597 0.003311 -451283.000000 0 0 1
-25.780723 -28.646351 23.489692 45.133410 0.838000 1.023418 -0.002653 0.000985 604178.000000 0 0 1
-25.234193 -28.780271 22.171632 44.234034 0.850955 1.045771 0.018443 -0.000736 66000.700000 0 0 1
-24.095733 -29.796701 21.945332 44.159318 0.890790 1.050706 0.028522 -0.011249 -1370560.000000 0 0 1
-24.532733 -31.123291 21.891132 45.274009 0.903265 1.066119 0.026849 -0.022713 157489.000000 0 0 1
-23.471933 -32.002181 21.592432 45.180796 0.937973 1.072520 0.044985 -0.012207 184076.000000 0 0 1
-22.649433 -32.508561 22.835432 45.730300 0.962274 1.047948 0.049427 -0.011884 -261541.000000 0 0 1
-21.949333 -31.506881 23.472402 45.004560 0.962321 1.022123 0.069364 -0.027269 -414330.000000 0 0 1
-21.350533 -32.133391 24.571842 45.740305 0.984341 1.003679 0.063464 -0.029613 83218.200000 0 0 1
-20.331233 -31.198371 25.323482 45.033056 0.993244 0.973594 0.052601 -0.021454 -657582.000000 0 0 1
-19.178733 -31.024831 24.560312 43.972410 1.017121 0.978173 0.057643 -0.026608 223699.000000 0 0 1
-18.123233 -30.322101 25.235722 43.413397 1.032077 0.950485 0.083285 -0.035278 574447.000000 0 0 1
-17.273733 -30.996921 26.353702 44.200776 1.062387 0.932003 0.065362 -0.030149 -250623.000000 0 0 1
-17.977633 -31.227181 27.598272 45.387187 1.048433 0.917178 0.059563 -0.021825 614940.000000 0 0 1
-17.210233 -32.026271 28.490702 46.190846 1.077695 0.906120 0.055549 -0.015446 175174.000000 0 0 1
-17.725633 -31.798651 29.932582 47.130794 1.062264 0.882663 0.077072 -0.018253 168376.000000 0 0 1
-17.549833 -30.394451 30.165092 46.279067 1.047158 0.860830 0.078302 -0.016760 300925.000000 0 0 1
-18.258233 -29.950131 31.308982 47.017292 1.023332 0.842092 0.073678 -0.013932 -240204.000000 0 0 1
-18.177733 -28.438501 31.506442 46.171790 1.002055 0.819791 0.068431 -0.015136 -92922.300000 0 0 1
-18.894733 -27.605861 30.583582 45.326041 0.970585 0.830175 0.075621 -0.017420 135982.000000 0 0 1
-18.748233 -27.803981 29.170392 44.446253 0.977527 0.854883 0.091518 -0.010968 113032.000000 0 0 1
-17.393633 -27.464651 28.460152 43.206779 1.006244 0.851711 0.082614 -0.011985 348196.000000 0 0 1
-17.048433 -26.092901 28.447912 42.199197 0.992053 0.831005 0.080038 -0.005568 -236707.000000 0 0 1
-15.948833 -25.865961 27.626282 41.068536 1.018264 0.832962 0.079944 -0.010685 -411256.000000 0 0 1
-16.025433 -24.445531 26.980812 39.778923 0.990525 0.825392 0.080641 -0.006490 -105105.000000 0 0 1
-16.935333 -24.231631 25.914932 39.313626 0.960813 0.851063 0.082080 -0.017587 -102052.000000 0 0 1
-16.737133 -23.124931 25.016732 37.956962 0.944295 0.851199 0.083675 -0.021881 -360166.000000 0 0 1
-17.185333 -21.762831 25.557972 37.711622 0.902389 0.826137 0.078033 -0.015200 -462711.000000 0 0 1
-17.026633 -20.739731 24.613392 36.412385 0.883401 0.828527 0.078652 -0.013685 88221.800000 0 0 1
-17.406833 -19.548131 25.217062 36.345942 0.843277 0.804035 0.069788 -0.008681 -214919.000000 0 0 1
-17.064833 -18.296331 24.431352 34.969347 0.820210 0.797287 0.059317 -0.017162 -625092.000000 0 0 1
-15.686633 -18.097431 24.352132 34.155729 0.856636 0.777066 0.067439 -0.018481 -759373.000000 0 0 1
-15.372733 -17.034731 23.525882 32.862899 0.836638 0.772913 0.059206 -0.018889 1003990.000000 0 0 1
-13.908333 -16.489131 23.751152 32.085050 0.870097 0.737345 0.055953 -0.020088 1263560.000000 0 0 1
-12.831533 -17.272031 23.244942 31.674890 0.931849 0.746809 0.039216 -0.018140 -588751.000000 0 0 1
-11.588633 -16.703331 23.365142 30.971399 0.964249 0.716041 0.029850 -0.020305 -781196.000000 0 0 1
-11.017333 -15.805931 22.196232 29.391866 0.962061 0.714863 0.030891 -0.021907 75557.700000 0 0 1
-10.533533 -16.422231 20.989832 28.656902 1.000477 0.748878 0.061127 -0.020831 -914850.000000 0 0 1
-9.233733 -16.863131 21.125432 28.564154 1.069821 0.738353 0.064097 -0.019551 -1209490.000000 0 0 1
-8.790033 -18.104631 20.272432 28.565956 1.118805 0.781765 0.064027 -0.021874 109990.000000 0 0 1
-8.424933 -17.774031 18.955832 27.317014 1.128162 0.803877 0.068497 -0.022634 -348141.000000 0 0 1
-7.997733 -19.008731 18.467332 27.682810 1.172539 0.840481 0.068385 -0.024054 143994.000000 0 0 1
-7.771733 -18.910931 16.895432 26.523174 1.180873 0.880188 0.050247 -0.023984 -331440.000000 0 0 1
-6.647833 -18.166931 16.593732 25.486918 1.220001 0.861805 0.044433 -0.023031 -802767.000000 0 0 1
-6.666033 -17.868931 15.246432 24.416969 1.213735 0.896408 0.054596 -0.021331 696970.000000 0 1 0
-5.736933 -16.644631 14.889932 23.057888 1.238876 0.868774 0.043053 -0.025429 548530.000000 0 1 0
-6.284333 -15.410331 15.319832 22.620088 1.183584 0.826755 0.038209 -0.032220 -126911.000000 0 1 0
-5.289033 -14.432131 15.502832 21.831126 1.219519 0.781120 0.025545 -0.025121 -328952.000000 0 1 0
-5.570033 -13.478831 16.689632 22.164115 1.178926 0.718183 0.012697 -0.010489 -305764.000000 0 1 0
-5.402033 -13.995631 18.022232 23.449105 1.202434 0.694196 0.028743 -0.009297 -150368.000000 0 1 0
-6.390233 -14.785331 18.652232 24.644408 1.162842 0.712309 0.051020 -0.022888 196488.000000 0 1 0
-7.685733 -14.123731 19.149132 25.004790 1.072439 0.698483 0.049847 -0.028234 -37080.100000 0 0 1
-7.412533 -13.514931 20.379032 25.551985 1.069129 0.647570 0.048136 -0.025212 -739396.000000 0 0 1
-8.541533 -12.986931 20.981732 26.112282 0.989026 0.637612 0.051237 -0.019428 -284285.000000 0 0 1
-8.167333 -12.012531 22.166732 26.502269 0.973687 0.580098 0.062431 -0.018579 -420832.000000 0 0 1
-7.709133 -10.779431 21.645332 25.380057 0.949961 0.549381 0.053793 -0.021763 26913.900000 0 0 1
-7.325933 -9.976931 22.768732 25.915702 0.937427 0.497939 0.052114 -0.023532 309450.000000 0 0 1
-5.841033 -10.159231 23.190132 25.982877 1.049001 0.467903 0.065932 -0.028871 32421.800000 0 0 1
-5.591233 -11.378631 23.860922 27.019969 1.114068 0.488400 0.070896 -0.025741 -28198.400000 0 0 1
-4.236533 -11.499831 24.263732 27.183139 1.217825 0.467712 0.067439 -0.020509 -25826.100000 0 0 1
-4.038533 -12.638231 25.252952 28.526238 1.261503 0.483758 0.072414 -0.020834 -595023.000000 0 0 1
-2.726833 -12.791531 25.729352 28.862752 1.360765 0.470288 0.060907 -0.021419 -148235.000000 0 0 1
-2.463433 -13.888131 26.643402 30.146634 1.395245 0.486887 0.056705 -0.022535 -29057.900000 0 0 1
-2.610933 -15.331431 26.104642 30.386216 1.402115 0.537298 0.058756 -0.032868 395557.000000 0 0 1
-1.480333 -15.763531 25.335352 29.875749 1.477162 0.558551 0.045086 -0.030733 592301.000000 0 0 1
-1.706433 -17.122831 24.959762 30.316546 1.471466 0.603587 0.064585 -0.030470 237042.000000 0 0 1
-0.379033 -17.940331 25.045272 30.810141 1.549672 0.621698 0.062742 -0.034681 678106.000000 0 0 1
0.083367 -18.350531 26.362282 32.120381 -1.566253 0.608102 0.060885 -0.032992 319082.000000 0 0 1
0.689867 -17.336531 27.182762 32.248004 -1.531025 0.568093 0.063472 -0.036195 -256825.000000 0 0 1
1.501467 -17.898831 28.353802 33.564276 -1.487106 0.564677 0.048611 -0.029815 297880.000000 0 0 1
2.766767 -18.581231 28.047692 33.757817 -1.422981 0.590162 0.059336 -0.033407 1699380.000000 0 0 1
3.604567 -18.688831 29.210202 34.864039 -1.380263 0.577497 0.053802 -0.032957 498275.000000 0 0 1
4.342967 -17.371131 29.532132 34.536421 -1.325808 0.545050 0.057716 -0.031124 -1455160.000000 0 0 1
3.473367 -16.473531 30.054182 34.448445 -1.362995 0.510625 0.038808 -0.031292 -384674.000000 0 0 1
4.209867 -15.394631 30.601062 34.512935 -1.303859 0.480736 0.047097 -0.033411 433520.000000 0 0 1
3.234667 -14.376631 31.282182 34.579264 -1.349487 0.440235 0.028088 -0.028745 257874.000000 0 0 1
2.677767 -14.897231 32.492330 35.844797 -1.392946 0.435942 0.029317 -0.031641 -358935.000000 0 0 1
1.891767 -13.940831 33.101450 35.967090 -1.435920 0.401883 0.031429 -0.022950 -434268.000000 0 0 1
0.992567 -14.540831 -34.067305 37.054045 -1.502641 2.737336 0.025853 -0.011265 218857.000000 0 0 1
1.646967 -14.621531 -32.809070 35.957430 -1.458629 2.720009 0.042494 -0.008865 255255.000000 0 0 1
0.865467 -15.465031 -31.964120 35.519307 -1.514892 2.690356 0.037148 -0.021896 343352.000000 0 0 1
1.690867 -15.770731 -30.710670 34.564726 -1.463989 2.664857 0.041147 -0.017620 -25761.200000 0 0 1
1.133867 -16.701231 -29.808690 34.187348 -1.503009 2.629910 0.047443 -0.023887 14694.400000 0 0 1
1.716067 -16.688431 -28.476700 33.051037 -1.468327 2.609205 0.039957 -0.018770 -88871.700000 0 0 1
1.390267 -17.952731 -27.719010 33.054151 -1.493510 2.565493 0.072815 -0.028476 -398744.000000 0 0 1
2.034667 -19.037231 -28.305350 34.172341 -1.464322 2.546884 0.072148 -0.025499 -43904.500000 0 0 1
1.791367 -20.263931 -27.609660 34.294741 -1.482624 2.506589 0.112912 -0.039196 -1344150.000000 0 0 1
2.766467 -21.404131 -27.928430 35.295713 -1.442260 2.483679 0.105125 -0.041406 350702.000000 0 0 1
4.035567 -21.284131 -27.256290 34.816740 -1.383416 2.470030 0.092216 -0.043352 468564.000000 0 0 1
4.017267 -21.314631 -25.868430 33.758371 -1.384507 2.443831 0.092798 -0.048293 -1374180.000000 0 0 1
5.471167 -21.360931 -25.360720 33.606386 -1.320057 2.425901 0.088505 -0.045943 395900.000000 0 0 1
6.386567 -22.417631 -25.668530 34.672927 -1.293259 2.404320 0.079223 -0.037999 269279.000000 0 0 1
6.453267 -23.080231 -26.925800 36.046365 -1.298157 2.414300 0.074244 -0.038239 -832762.000000 0 0 1
5.443667 -24.243431 -27.127410 36.786870 -1.349918 2.400040 0.046018 -0.032648 -91248.500000 0 0 1
5.681367 -25.334081 -26.252680 36.922849 -1.350188 2.361736 0.062812 -0.023538 368424.000000 0 0 1
5.032567 -26.546611 -26.760870 38.028850 -1.383445 2.351387 0.055460 -0.020545 333165.000000 0 0 1
5.329067 -27.774431 -25.871580 38.329579 -1.381231 2.311730 0.064644 -0.026739 176630.000000 0 0 1
6.701167 -28.096011 -25.734430 38.685299 -1.336661 2.298592 0.076451 -0.023766 52159.800000 0 0 1
6.823867 -29.227571 -24.961570 39.037111 -1.341431 2.264555 0.070601 -0.024389 -1517730.000000 0 0 1
8.249967 -29.629551 -24.946470 39.601750 -1.299237 2.252264 0.059554 -0.031840 -1429530.000000 0 0 1
8.553967 -30.251051 -26.218050 40.935102 -1.295225 2.265917 0.061124 -0.031503 -390118.000000 0 0 1
9.921267 -30.555381 -26.291110 41.512472 -1.256838 2.256646 0.124727 -0.025341 -25286.300000 0 0 1
10.537967 -30.415641 -27.725640 42.483774 -1.237274 2.281830 0.125051 -0.043144 -70472.200000 0 0 1
10.082367 -31.363991 -28.603670 43.629394 -1.259767 2.285781 0.125272 -0.046760 -196868.000000 0 0 1
10.421367 -31.099281 -29.930240 44.402584 -1.247457 2.310495 0.119426 -0.027106 -138164.000000 0 0 1
-35.323267 -4.456331 -5.164470 35.975878 0.125496 1.714848 0.116205 -0.024882 -128303.000000 0 0 1
-34.874000 -3.687631 -4.073670 35.304239 0.105350 1.686441 0.129685 -0.033581 348099.000000 0 0 1
-34.168369 -2.517231 -4.494070 34.554458 0.073539 1.701223 0.135539 -0.029372 -212629.000000 0 0 1
-35.027438 -1.356331 -5.004870 35.409177 0.038703 1.712615 0.114802 -0.024996 -338374.000000 0 0 1
-35.835889 -0.743931 -4.030570 36.069514 0.020756 1.682775 0.095991 -0.027197 390049.000000 0 0 1
36.391983 0.271269 -4.580370 36.680101 0.007454 1.695997 0.098235 -0.023691 155645.000000 0 0 1
35.757763 1.124969 -3.504570 35.946699 0.031450 1.668445 0.096131 -0.020673 -271424.000000 0 0 1
-36.432143 2.119769 -3.014070 36.618016 -0.058119 1.653201 0.098102 -0.018684 -184568.000000 0 0 1
36.065963 3.093569 -2.171770 36.263486 0.085566 1.630721 0.106958 -0.027486 -343839.000000 0 0 1
-36.087053 4.318969 -1.887570 36.393568 -0.119115 1.622685 0.105411 -0.032623 -91542.900000 0 0 1
-35.851619 5.040169 -3.086870 36.335529 -0.139669 1.655853 0.114528 -0.025148 1120960.000000 0 0 1
-34.607710 4.677169 -3.733770 35.121369 -0.134334 1.677308 0.074578 -0.024020 976036.000000 0 0 1
-33.361593 5.552269 -3.370470 33.987993 -0.164915 1.670126 0.046947 -0.028799 -94541.700000 0 0 1
-32.941003 5.532269 -2.021870 33.463467 -0.166392 1.631253 0.049999 -0.033079 278024.000000 0 0 1
-32.882223 6.848669 -1.587270 33.625352 -0.205343 1.618018 0.076023 -0.038172 -375887.000000 0 0 1
-32.314003 7.014769 -0.160670 33.067017 -0.213765 1.575655 0.080696 -0.037386 -112255.000000 0 0 1
-30.910633 6.792869 -0.108470 31.648413 -0.216320 1.574224 0.102393 -0.034082 798320.000000 0 0 1
-30.219083 7.444569 0.995830 31.138501 -0.241543 1.538810 0.110467 -0.039374 322289.000000 0 0 1
-30.286723 8.984569 1.149130 31.612159 -0.288381 1.534437 0.117454 -0.034593 -1730920.000000 0 0 1
-31.537933 9.397369 1.500930 32.942443 -0.289594 1.525218 0.101180 -0.041167 -1156270.000000 0 0 1
-31.541603 10.772769 1.875830 33.383289 -0.329120 1.514576 0.110679 -0.030330 520218.000000 0 0 1
-32.954803 11.442069 1.996530 34.941753 -0.334183 1.513626 0.120156 -0.034185 404426.000000 0 0 1
-33.614673 11.592069 0.726130 35.564724 -0.332081 1.550378 0.102475 -0.022240 1130820.000000 0 0 1
-34.939164 12.149869 0.797630 37.000010 -0.334663 1.549237 0.105098 -0.007069 1261770.000000 0 0 1
-36.123053 11.152369 0.907630 37.816320 -0.299449 1.546793 0.130171 -0.036144 40663.200000 0 0 1
-36.280633 10.369469 -0.254070 37.734265 -0.278391 1.577530 0.128022 -0.029774 644592.000000 0 0 1
35.582603 9.579269 -0.206670 36.850057 0.262977 1.576405 0.149457 -0.038192 930646.000000 0 0 1
35.384093 8.633769 -1.423070 36.449981 0.239325 1.609848 0.141239 -0.054734 93715.900000 0 0 1
34.915323 9.365269 -2.539370 36.238604 0.262060 1.640927 0.131503 -0.045302 52492.500000 0 0 1
34.726693 8.520569 -3.664170 35.943976 0.240608 1.672915 0.120579 -0.046133 370597.000000 0 0 1
33.847083 9.099469 -4.848070 35.382611 0.262631 1.708247 0.099931 -0.038722 -863.856000 0 0 1
32.479363 9.261569 -4.619670 34.088518 0.277780 1.706734 0.117831 -0.038060 -451114.000000 0 0 1
31.901403 9.664169 -5.786470 33.831626 0.294151 1.742679 0.098850 -0.026200 -216948.000000 0 0 1
30.513663 10.337969 -5.704570 32.718486 0.326661 1.746045 0.106277 -0.023209 525689.000000 0 0 1
29.397583 9.467069 -5.501170 31.370466 0.311548 1.747069 0.091198 -0.018679 574497.000000 0 0 1
28.198913 9.968069 -6.018270 30.508370 0.339782 1.769365 0.081647 -0.003446 -233041.000000 0 0 1
27.045863 8.941769 -6.090370 29.129479 0.319302 1.781430 0.089173 0.000754 -217078.000000 0 0 1
27.197863 7.920269 -7.016470 29.183647 0.283373 1.813600 0.090274 0.004549 13583.100000 0 0 1
26.022763 7.184269 -7.217070 27.944302 0.269367 1.832023 0.098994 -0.007761 -239551.000000 0 0 1
26.231263 6.128869 -8.325270 28.194899 0.229530 1.870540 0.110680 -0.014751 -71669.700000 0 0 1
27.261263 5.242369 -7.975970 28.883819 0.189982 1.850572 0.104294 -0.019359 299708.000000 0 0 1
27.332963 4.172569 -8.925070 29.054398 0.151488 1.883030 0.093141 -0.016962 175570.000000 0 0 1
28.458863 3.117169 -8.607770 29.895105 0.109098 1.862863 0.071773 -0.010851 -170723.000000 0 0 1
29.767633 3.405969 -9.035270 31.294547 0.113923 1.863683 0.085842 -0.004632 906275.000000 0 0 1
30.817123 2.965169 -8.156570 32.015886 0.095923 1.828402 0.077347 -0.013571 614040.000000 0 0 1
31.049343 1.439369 -8.080270 32.115794 0.046324 1.825127 0.069865 -0.015357 -388996.000000 0 0 1
30.130713 0.926669 -7.062570 30.961241 0.030745 1.800932 0.077237 -0.018906 1009390.000000 0 0 1
30.202743 -0.465431 -6.749170 30.951149 -0.015409 1.790621 0.079485 -0.024330 -388385.000000 0 0 1
29.959973 -1.478031 -7.878170 31.013708 -0.049294 1.827633 0.064046 -0.016613 -1126210.000000 0 0 1
30.970063 -1.588631 -8.827070 32.242607 -0.051251 1.848107 0.063417 -0.012966 -74476.600000 0 0 1
30.628223 -2.686331 -9.648070 32.224054 -0.087484 1.874866 0.043646 -0.018686 -471593.000000 0 0 1
31.617173 -2.903731 -10.768170 33.526568 -0.091583 1.897775 0.056103 -0.014379 -985522.000000 0 0 1
32.889943 -3.282031 -10.352170 34.636505 -0.099459 1.874315 0.065958 -0.011098 -243771.000000 0 0 1
33.683723 -3.745031 -11.440270 35.770074 -0.110727 1.896344 0.068960 -0.017268 984374.000000 0 0 1
35.154893 -4.186431 -11.093070 37.100524 -0.118527 1.874441 0.077565 -0.007267 638999.000000 0 0 1
35.185253 -5.326031 -10.192870 37.017067 -0.150231 1.849756 0.067727 -0.010411 1229910.000000 0 0 1
36.510063 -5.804731 -9.850270 38.258429 -0.157670 1.831196 0.079307 -0.006141 799468.000000 0 0 1
-36.512323 -7.042431 -8.931270 38.242818 0.190538 1.806514 0.080510 -0.012214 -363227.000000 0 0 1
36.124083 -6.812831 -7.627570 37.543892 -0.186406 1.775385 0.075119 -0.011802 390195.000000 0 0 1
35.670023 -8.019931 -7.027870 37.229837 -0.221159 1.760706 0.075947 -0.015859 -106966.000000 0 0 1
35.162473 -7.683731 -5.599370 36.425158 -0.215139 1.725131 0.078840 -0.018469 -414098.000000 0 0 1
36.230433 -7.577331 -4.686170 37.309790 -0.206171 1.696731 0.089781 -0.017151 203312.000000 0 0 1
36.377163 -8.583531 -3.725870 37.561378 -0.231721 1.670154 0.096431 -0.018068 31604.200000 0 0 1
-35.926278 -9.866031 -4.208270 37.493273 0.268012 1.683274 0.100127 -0.017768 -603356.000000 0 0 1
36.455033 -10.501231 -5.218270 38.294590 -0.280467 1.707488 0.085504 -0.015303 320273.000000 0 0 1
-35.898924 -11.651931 -5.698670 38.170343 0.313848 1.720652 0.076125 -0.011821 -59756.000000 0 0 1
-36.529893 -12.333831 -6.918970 39.171783 0.325619 1.748359 0.066761 -0.019148 -137786.000000 0 0 1
-36.417233 -11.527831 -8.064970 39.040357 0.306569 1.778875 0.066582 -0.016939 244101.000000 0 0 1
36.129693 -12.073631 -9.274170 39.206345 -0.322508 1.809607 0.081250 -0.014106 -77811.700000 0 0 1
36.229623 -11.250031 -10.571670 39.381582 -0.301080 1.842572 0.063964 -0.025559 -333481.000000 0 0 1
35.503513 -10.026331 -10.561170 38.374015 -0.275236 1.849611 0.056436 -0.018191 488612.000000 0 0 1
35.624173 -9.396331 -11.799970 38.686070 -0.257889 1.880754 0.056027 -0.019821 -553593.000000 0 0 1
34.698153 -8.153031 -11.924570 37.584958 -0.230784 1.893645 0.051908 -0.014443 -123606.000000 0 0 1
34.732253 -7.652631 -13.264670 37.958446 -0.216867 1.927783 0.060974 -0.013133 424374.000000 0 0 1
33.628873 -6.825031 -13.533770 36.886923 -0.200232 1.946470 0.056680 -0.018819 -167824.000000 0 0 1
33.696673 -6.163331 -14.927670 37.366934 -0.180907 1.981755 0.051229 -0.024969 -400046.000000 0 0 1
34.800563 -5.310231 -15.031370 38.278190 -0.151422 1.974348 0.064563 -0.021022 44794.000000 0 0 1
34.431053 -4.034931 -15.525870 37.984612 -0.116657 1.991871 0.061810 -0.018547 -761157.000000 0 0 1
35.561303 -3.103031 -15.807470 39.039867 -0.087038 1.987672 0.070988 -0.021205 -51644.200000 0 0 1
36.506773 -3.405831 -16.914870 40.378918 -0.093024 2.003034 0.072458 -0.023254 1650900.000000 0 0 1
-35.221962 -2.952331 -16.831870 39.148624 0.083625 2.015231 0.097125 -0.024696 423763.000000 0 0 1
-35.042546 -1.403431 -16.567370 38.786949 0.040028 2.012121 0.096043 -0.020899 -930309.000000 0 0 1
-35.477228 -0.563531 -17.602170 39.607924 0.015883 2.031312 0.087926 -0.023555 272495.000000 0 0 1
-35.358245 0.819469 -17.247270 39.349020 -0.023172 2.024520 0.101349 -0.022412 -34091.900000 0 0 1
-35.839600 1.751169 -18.408270 40.328748 -0.048822 2.044803 0.068038 -0.022525 -14849.300000 0 0 1
-34.883700 1.797969 -19.446370 39.978326 -0.051496 2.078787 0.084673 -0.024684 513164.000000 0 0 1
-34.888770 3.153369 -19.969370 40.323018 -0.090139 2.088902 0.073291 -0.018532 -331258.000000 0 0 1
-33.950493 3.364969 -21.176170 40.154566 -0.098791 2.126294 0.076883 -0.009972 -1014390.000000 0 0 1
-32.627933 3.594569 -20.824070 38.873447 -0.109726 2.136120 0.079594 -0.011535 -449448.000000 0 0 1
-31.956053 3.859969 -22.048470 39.015686 -0.120208 2.171373 0.060336 -0.005005 311756.000000 0 0 1
-30.467923 4.328569 -21.900670 37.771288 -0.141125 2.189308 0.078063 -0.009767 679794.000000 0 0 1
-29.629653 3.315469 -21.328570 36.658104 -0.111433 2.191766 0.083245 -0.000116 371930.000000 0 0 1
-28.297613 3.801169 -21.288670 35.614762 -0.133529 2.211486 0.059740 0.004384 -386158.000000 0 0 1
-27.265763 2.774869 -20.910970 34.473039 -0.101422 2.222560 0.084534 0.001225 -302623.000000 0 0 1
-26.664663 3.074969 -19.624370 33.250197 -0.114813 2.202107 0.087021 0.001778 421210.000000 0 0 1
-25.986213 1.988569 -19.028970 32.269791 -0.076375 2.201464 0.093061 -0.009671 57776.000000 0 0 1
-25.226303 2.297369 -17.673170 30.886651 -0.090820 2.179975 0.091023 -0.020067 693980.000000 0 0 1
-24.123433 3.210269 -17.737570 30.114237 -0.132299 2.200629 0.081381 -0.017804 421064.000000 0 0 1
-23.406933 3.203369 -16.545070 28.842424 -0.136011 2.181735 0.093026 -0.028092 -788903.000000 0 0 1
-22.343333 4.267669 -16.524070 28.115519 -0.188731 2.199035 0.090340 -0.032939 -832449.000000 0 0 1
-21.228033 3.962469 -17.314570 27.678961 -0.184538 2.246632 0.104311 -0.038273 -816483.000000 0 0 1
-20.277533 4.956769 -17.242070 27.074654 -0.239745 2.261182 0.088435 -0.035465 -276058.000000 0 0 1
-18.919133 4.455269 -17.823970 26.371897 -0.231276 2.312941 0.109005 -0.033708 48040.100000 0 0 1
-18.430933 3.299069 -17.201570 25.425915 -0.177121 2.313846 0.121541 -0.032501 229344.000000 0 0 1
-17.295533 2.762969 -17.871870 25.023453 -0.158412 2.366284 0.090436 -0.030562 -377698.000000 0 0 1
-17.019533 1.341269 -17.272070 24.285550 -0.078645 2.362011 0.074892 -0.022941 747318.000000 0 1 0
-17.986933 0.311569 -17.693870 25.232913 -0.017320 2.347906 0.068444 -0.023210 486203.000000 0 0 1
-19.255733 0.540769 -17.174070 25.807448 -0.028076 2.298919 0.074938 -0.022156 -1322450.000000 0 0 1
-20.286833 -0.526531 -17.567470 26.841178 0.025948 2.284313 0.069066 -0.015561 -468482.000000 0 0 1
-20.261333 -1.734331 -16.827970 26.395267 0.085390 2.262094 0.054933 -0.020590 310132.000000 0 0 1
-21.301933 -2.542231 -17.325370 27.575419 0.118781 2.250150 0.070877 -0.017082 -117168.000000 0 0 1
-21.655833 -3.815831 -16.538670 27.514783 0.174413 2.215652 0.090804 -0.026904 -412404.000000 0 0 1
-22.261333 -3.498331 -15.325570 27.252126 0.155874 2.168036 0.092201 -0.022881 200573.000000 0 0 1
-22.865433 -4.597231 -14.710570 27.574688 0.198411 2.133507 0.109652 -0.032278 -87393.300000 0 0 1
-23.059333 -4.361731 -13.180570 26.916258 0.186944 2.082528 0.106220 -0.027542 374390.000000 0 0 1
-24.051333 -3.354731 -12.882470 27.489614 0.138588 2.058536 0.090592 -0.027192 860923.000000 0 0 1
-24.227633 -3.101731 -11.497170 26.995997 0.127332 2.010735 0.110041 -0.041190 19540.200000 0 0 1
-25.135293 -1.834031 -11.244870 27.596988 0.072837 1.990475 0.132575 -0.046508 42161.700000 0 0 1
-25.246943 -1.470431 -9.908070 27.161373 0.058176 1.944199 0.132967 -0.052274 477829.000000 0 0 1
-25.925113 -0.271931 -9.656070 27.666318 0.010489 1.927320 0.138180 -0.054839 -370293.000000 0 0 1
-26.222153 -0.071331 -8.211270 27.477834 0.002720 1.874265 0.156879 -0.045492 -38447.300000 0 0 1
-25.028133 0.126869 -7.472270 26.120076 -0.005069 1.860923 0.141406 -0.043192 322270.000000 0 0 1
-25.259263 0.636569 -6.192470 26.015039 -0.025196 1.811138 0.142281 -0.037281 -214170.000000 0 0 1
-24.035433 1.331869 -5.575670 24.709594 -0.055356 1.798404 0.091452 -0.025540 -164334.000000 0 1 0
-23.911933 2.667869 -6.016270 24.801080 -0.111111 1.815822 0.123988 -0.023960 213354.000000 0 1 0
-22.590933 3.153669 -5.896770 23.559877 -0.138703 1.823775 0.106919 -0.006595 -98211.000000 0 1 0
-22.409833 4.689469 -5.948870 23.655460 -0.206283 1.825005 0.125096 -0.016873 -391014.000000 0 1 0
-22.805633 5.273069 -4.734070 23.881239 -0.227225 1.770352 0.121932 -0.013037 694316.000000 0 1 0
-22.410933 6.638469 -4.815170 23.864305 -0.287981 1.773964 0.121053 -0.017307 -526091.000000 0 1 0
-23.003233 7.565769 -3.700070 24.496533 -0.317755 1.722421 0.127885 -0.010821 -339039.000000 0 1 0
-22.406933 7.584269 -2.413670 23.778511 -0.326374 1.672478 0.113128 -0.010016 2592710.000000 0 1 0
-20.941733 7.793169 -2.376070 22.470767 -0.356257 1.676735 0.117635 -0.010172 2008380.000000 0 1 0
-20.424333 9.267469 -2.564270 22.574651 -0.425965 1.684633 0.100891 -0.012885 -504201.000000 0 1 0
-20.490933 9.660769 -3.921270 22.990980 -0.440561 1.742191 0.097028 -0.015064 562663.000000 0 1 0
-20.028033 10.985069 -4.041570 23.197589 -0.501679 1.745914 0.101610 -0.010887 -388154.000000 0 1 0
-19.889833 11.445169 -5.479470 23.592837 -0.522156 1.805188 0.095729 -0.013509 -137201.000000 0 1 0
-18.766833 11.019469 -6.235570 22.638575 -0.530938 1.849844 0.068207 -0.011609 325177.000000 0 1 0
-18.772533 11.568269 -7.532770 23.301834 -0.552271 1.899979 0.071262 -0.008798 -279151.000000 0 1 0
-17.448433 11.359969 -8.282170 22.407389 -0.577120 1.949394 0.062932 -0.002080 -256848.000000 0 1 0
-17.093233 10.010369 -8.654870 21.616958 -0.529789 1.982721 0.053444 -0.005057 332973.000000 0 1 0
-17.869733 9.278269 -9.600570 22.306604 -0.478903 2.015723 0.054747 -0.005917 -205847.000000 0 1 0
-17.948833 9.808569 -11.023570 23.235485 -0.500132 2.065111 0.058989 -0.009537 222131.000000 0 1 0
-16.777033 9.608269 -11.785570 22.642600 -0.520107 2.118238 0.052857 -0.010469 64706.600000 0 1 0
-16.878233 10.335869 -12.999470 23.678918 -0.549472 2.151951 0.064217 -0.012732 505184.000000 0 1 0
-15.727333 10.044869 -14.032470 23.348632 -0.568382 2.215545 0.054335 -0.002871 199004.000000 0 1 0
-15.704233 8.770569 -14.674070 23.213663 -0.509334 2.255096 0.056893 -0.016805 141731.000000 0 1 0
-15.545833 7.603369 -13.888370 22.189434 -0.454885 2.247082 0.051319 -0.011485 -231892.000000 0 1 0
-15.648333 6.328069 -14.749270 22.415525 -0.384287 2.288947 0.061550 -0.013967 -317569.000000 0 1 0
-14.400333 6.024469 -15.308470 21.863510 -0.396230 2.346451 0.054107 -0.024889 371939.000000 0 1 0
-14.523133 4.997169 -16.264970 22.370569 -0.331394 2.384841 0.056648 -0.022497 43728.500000 0 1 0
32.124913 -16.346531 28.468002 45.930886 -0.470697 0.902307 0.054153 -0.006800 -237840.000000 0 0 1
31.571353 -15.067031 28.807672 45.317190 -0.445272 0.881895 0.068791 -0.004336 -259115.000000 0 0 1
30.613363 -15.183031 29.824692 45.356529 -0.460411 0.853219 0.078157 -0.004360 114780.000000 0 0 1
31.161973 -15.231731 31.299632 46.719816 -0.454641 0.836664 0.070805 -0.014599 526345.000000 0 0 1
31.974893 -14.113131 31.703682 47.187898 -0.415664 0.834079 0.069524 -0.016386 418357.000000 0 0 1
31.881333 -13.953631 33.102164 48.029954 -0.412556 0.810414 0.068862 -0.022684 -65467.300000 0 0 1
32.324133 -12.576431 33.593436 48.285973 -0.371051 0.801377 0.067098 -0.023774 6283.910000 0 0 1
32.171563 -12.383431 -33.286260 47.920079 -0.367438 2.338688 0.056950 -0.030903 109861.000000 0 0 1
32.204993 -10.994331 -32.970050 47.382076 -0.328980 2.340377 0.071112 -0.025405 -247637.000000 0 0 1
31.747183 -10.602931 -31.558540 46.002687 -0.322333 2.326794 0.063284 -0.024072 -134556.000000 0 0 1
30.354043 -10.737931 -31.393410 44.969070 -0.340017 2.343552 0.090846 -0.027742 85716.000000 0 0 1
29.914983 -10.303031 -30.114870 43.680248 -0.331687 2.331511 0.068912 -0.024222 -670346.000000 0 0 1
28.495343 -10.738731 -29.792860 42.601871 -0.360400 2.345259 0.061559 -0.015322 -484898.000000 0 0 1
28.125653 -10.229131 -28.502650 41.329028 -0.348822 2.331805 0.047984 -0.013703 301288.000000 0 0 1
27.245163 -11.151731 -27.840410 40.518495 -0.388507 2.328292 0.058764 -0.014015 -276006.000000 0 0 1
26.791963 -10.637231 -26.448850 39.121626 -0.377944 2.313208 0.050657 -0.008388 -821021.000000 0 0 1
25.966963 -9.471431 -26.275990 38.136843 -0.349754 2.330894 0.045429 -0.012259 982186.000000 0 0 1
24.680463 -9.408531 -26.902500 37.701329 -0.364207 2.365376 0.040835 -0.015178 604931.000000 0 0 1
23.723563 -10.598931 -26.797190 37.326052 -0.420163 2.371609 0.043363 -0.004225 -1518720.000000 0 0 1
24.150063 -11.745231 -27.500640 38.437757 -0.452663 2.368077 0.045022 -0.007761 -66042.200000 0 0 1
23.288363 -12.854431 -27.200770 38.045580 -0.504353 2.367352 0.041446 -0.013112 409142.000000 0 0 1
23.837863 -14.145031 -27.893680 39.324077 -0.535541 2.359341 0.059084 0.001064 304078.000000 0 0 1
23.712663 -14.103431 -29.259910 40.216160 -0.536560 2.385564 0.061639 -0.009279 155900.000000 0 0 1
24.765063 -14.849331 -29.824790 41.512999 -0.540131 2.372360 0.062418 -0.005822 -152901.000000 0 0 1
24.769963 -14.822331 -31.390310 42.645095 -0.539242 2.398061 0.071374 -0.015842 -277837.000000 0 0 1
23.706963 -15.494431 -32.037190 42.760718 -0.578889 2.417680 0.068473 -0.011677 107841.000000 0 0 1
24.018163 -15.870631 -33.375450 44.075727 -0.583914 2.429858 0.069779 -0.009006 101235.000000 0 0 1
24.251963 -14.865131 33.788591 44.167847 -0.549884 0.699748 0.060744 -0.014460 -364309.000000 0 0 1
23.130663 -14.130031 33.447405 43.051298 -0.548380 0.681038 0.047783 -0.010270 -528290.000000 0 0 1
23.411163 -13.194731 32.454604 42.136502 -0.513231 0.691602 0.041306 -0.013137 -431450.000000 0 0 1
22.419563 -12.025331 32.711464 41.440141 -0.492324 0.661020 0.045460 -0.024266 1513180.000000 0 0 1
20.999763 -12.190531 32.502253 40.570871 -0.525964 0.641627 0.028473 -0.017519 1213600.000000 0 0 1
20.618263 -12.409931 31.142112 39.356706 -0.541808 0.657899 0.028760 -0.009484 214454.000000 0 0 1
19.116463 -12.833131 30.863972 38.506015 -0.591212 0.640936 0.032919 -0.004062 1239190.000000 0 0 1
18.198263 -11.759931 30.938152 37.770915 -0.573707 0.610956 0.036223 -0.010774 -9703.050000 0 0 1
17.433163 -11.884431 32.122942 38.432256 -0.598348 0.581148 0.022211 -0.010313 112118.000000 0 0 1
16.733963 -10.527231 32.571362 38.101729 -0.561538 0.545530 0.027113 -0.011859 -640216.000000 0 0 1
15.747563 -10.017631 31.640772 36.735230 -0.566569 0.532935 0.052926 -0.018345 257841.000000 0 0 1
15.084663 -8.918031 32.118092 36.587569 -0.533923 0.499459 0.058520 -0.017524 209880.000000 0 0 1
14.221263 -9.159331 33.426482 37.462880 -0.572187 0.468479 0.054579 -0.022874 -1439820.000000 0 0 1
13.251163 -10.117431 33.207041 37.157278 -0.652093 0.465296 0.061855 -0.013196 -326444.000000 0 0 1
12.081863 -9.971031 33.985672 37.422170 -0.689972 0.431906 0.062760 -0.020505 1228720.000000 0 0 1
10.823863 -9.291231 33.244930 36.176075 -0.709352 0.405322 0.096162 -0.022482 965105.000000 0 0 1
11.042263 -7.878731 33.147767 35.815924 -0.619734 0.388433 0.067917 -0.021451 334918.000000 0 0 1
9.957463 -7.335431 32.439131 34.716809 -0.634920 0.364246 0.087048 -0.014364 -24530.700000 0 0 1
10.174163 -5.830631 32.139562 34.212005 -0.520392 0.349852 0.073123 -0.014349 -36126.100000 0 0 1
10.226363 -5.014331 33.276170 35.171373 -0.455885 0.329775 0.060950 -0.018698 224006.000000 0 0 1
10.525063 -3.691231 32.877513 34.717906 -0.337306 0.327063 0.022887 -0.016542 -230848.000000 0 0 1
10.631563 -2.736431 34.060001 35.785498 -0.251919 0.311802 0.027061 -0.018805 464454.000000 0 0 1
9.361863 -2.247931 -33.729120 35.076363 -0.235654 2.863538 0.036461 -0.015764 478120.000000 0 0 1
9.481963 -1.464331 -32.564130 33.948114 -0.153223 2.855070 0.044940 -0.015838 253797.000000 0 0 1
8.101563 -1.126531 -31.935120 32.965987 -0.138165 2.890854 0.043912 -0.011257 431116.000000 0 0 1
7.379063 -0.159731 -32.690080 33.512944 -0.021643 2.919535 0.041749 -0.012722 121086.000000 0 0 1
6.011163 -0.148831 -32.330410 32.884824 -0.024754 2.957708 0.060439 -0.013135 180227.000000 0 0 1
5.147963 0.877169 -33.078460 33.488139 0.168771 2.985013 0.080687 -0.015836 -69396.000000 0 0 1
5.663963 2.161269 -32.910500 33.464199 0.364529 2.959429 0.061525 -0.025256 122918.000000 0 0 1
5.070963 2.993169 -33.947290 34.454205 0.533224 2.969843 0.084066 -0.025105 351962.000000 0 0 1
5.823163 4.328869 34.041853 34.806553 0.639256 0.210004 0.058579 -0.017381 138450.000000 0 0 1
5.307863 5.001269 32.940066 33.737725 0.755667 0.217884 0.072743 -0.025604 18700.500000 0 0 1
6.233463 5.983669 32.513418 33.641979 0.764955 0.259752 0.063259 -0.019954 10241.600000 0 0 1
5.607863 7.031169 31.572782 32.828738 0.897538 0.277504 0.075005 -0.021067 -660739.000000 0 0 1
4.634663 7.728969 32.271155 33.505888 1.030636 0.272323 0.081886 -0.029173 -482565.000000 0 0 1
4.361663 8.967169 31.615882 33.151143 1.118085 0.305525 0.084910 -0.030657 -54609.700000 0 0 1
3.814763 9.210869 30.190882 31.794369 1.178144 0.318944 0.088016 -0.039589 213075.000000 0 0 1
2.469863 8.807369 29.971232 31.335998 1.297388 0.296218 0.091106 -0.042342 27814.300000 0 0 1
2.300263 8.645069 28.567562 29.935498 1.310744 0.303475 0.073528 -0.035772 191876.000000 0 0 1
1.052763 7.914069 28.027072 29.142024 1.438549 0.277509 0.072796 -0.031622 676749.000000 0 0 1
-0.193937 8.486969 28.411252 29.652412 -1.547949 0.290352 0.070557 -0.029213 -322089.000000 0 0 1
-1.293937 7.926669 27.770232 28.908341 -1.408985 0.281534 0.080377 -0.027460 -746461.000000 0 0 1
-2.564637 8.103869 28.549402 29.787891 -1.264298 0.289373 0.087965 -0.025423 -764317.000000 0 0 1
-2.868637 9.460769 28.765022 30.416472 -1.276394 0.331038 0.081113 -0.023348 -156228.000000 0 0 1
-4.251237 9.628769 29.022642 30.872318 -1.155022 0.347913 0.070367 -0.007975 61623.100000 0 0 1
-4.626637 10.886769 29.816522 32.077290 -1.168944 0.377684 0.056815 0.001500 -143467.000000 0 0 1
-4.586937 12.091669 29.105232 31.849066 -1.208220 0.418132 0.048081 -0.006249 400861.000000 0 0 1
-5.677437 12.300569 28.195472 31.281336 -1.138372 0.447917 0.059380 -0.007219 254637.000000 0 0 1
-5.956437 13.723069 27.813832 31.581815 -1.161289 0.493477 0.031707 -0.001877 729276.000000 0 0 1
-4.938037 14.230369 26.929612 30.855982 -1.236790 0.509985 0.021625 -0.003780 334073.000000 0 0 1
-5.261837 15.613469 26.791432 31.452316 -1.245744 0.551363 0.020958 0.002234 322663.000000 0 0 1
-4.241537 16.398269 25.927162 30.969527 -1.317686 0.578684 0.040464 -0.001909 167350.000000 0 0 1
-4.201837 16.028269 24.560952 29.627711 -1.314414 0.593504 0.026173 0.004790 -866749.000000 0 0 1
-3.304237 16.821069 23.926422 29.433655 -1.376832 0.621693 0.034237 0.002259 -697464.000000 0 0 1
-3.131937 16.597569 22.410932 28.063112 -1.384291 0.645847 0.036756 -0.005389 -126998.000000 0 0 1
-2.402137 15.460469 22.038732 27.027802 -1.416656 0.617360 0.015431 -0.007084 -48254.900000 0 0 1
-2.612737 15.335069 20.653932 25.856830 -1.402040 0.645531 0.019600 -0.003419 -91893.700000 0 0 1
-1.628837 14.434469 19.915732 24.650424 -1.458428 0.630171 0.009898 -0.001145 -345225.000000 0 1 0
-1.933237 13.071969 20.181632 24.122854 -1.423969 0.579715 0.020905 -0.000493 239988.000000 0 1 0
-0.986737 12.169269 19.582132 23.076496 -1.489889 0.557511 0.027380 0.007666 -17989.400000 0 1 0
-1.513537 10.743069 19.315232 22.153612 -1.430833 0.511774 0.012629 -0.001430 -646029.000000 0 1 0
-1.650137 9.899669 20.420532 22.753561 -1.405629 0.456807 0.025040 -0.013216 238294.000000 0 1 0
-2.607837 10.188869 21.442032 23.882517 -1.320226 0.456019 0.044032 -0.014363 2102370.000000 0 1 0
-4.174037 10.242669 21.042232 23.772051 -1.183829 0.483944 0.038518 -0.007256 1709500.000000 0 1 0
-4.870737 9.051969 21.320732 23.669302 -1.077146 0.449244 0.044699 -0.000834 1497010.000000 0 1 0
-6.315537 9.235969 21.179932 23.953678 -0.971027 0.486010 0.043244 0.001267 1682070.000000 0 1 0
-7.190337 8.004469 21.020032 23.613857 -0.838927 0.473107 0.047283 -0.006391 -41934.800000 0 1 0
-7.321837 7.389569 22.268432 24.578408 -0.790002 0.437022 0.054233 -0.014341 408291.000000 0 1 0
-8.150837 6.194869 22.171832 24.421358 -0.649889 0.432581 0.045790 -0.013181 625587.000000 0 1 0
-8.156737 5.275569 23.441492 25.374546 -0.574104 0.392857 0.041958 -0.014319 -75811.400000 0 0 1
-8.925137 5.826669 24.496572 26.714981 -0.578368 0.410403 0.023717 -0.013349 40665.400000 0 0 1
-9.197237 4.761769 25.389562 27.420676 -0.477738 0.387312 0.014918 0.001998 46275.800000 0 0 1
-10.107637 5.216369 26.578622 28.910171 -0.476430 0.404366 0.021748 0.008486 -7228.050000 0 0 1
-9.428937 6.036869 27.469712 29.663677 -0.569490 0.387018 0.029114 0.010066 -2006.610000 0 0 1
-10.376837 6.661269 28.322352 30.890240 -0.570686 0.410627 0.029948 0.004000 249338.000000 0 0 1
-9.794037 7.742869 29.209102 31.765498 -0.668964 0.403931 0.047365 -0.002948 97754.200000 0 0 1
-9.005637 7.316569 30.330372 32.474069 -0.682282 0.365382 0.063192 -0.003717 123603.000000 0 0 1
-8.452037 8.446469 30.996282 33.219713 -0.785069 0.367944 0.061649 -0.007598 -465715.000000 0 0 1
-7.354237 8.039969 31.944032 33.751254 -0.829914 0.328725 0.079867 -0.006596 145747.000000 0 0 1
-6.039037 7.952069 31.372522 32.923252 -0.921288 0.308142 0.077380 -0.015164 188721.000000 0 0 1
-5.189637 7.623469 32.445115 33.730330 -0.973111 0.276937 0.100255 -0.012301 1079080.000000 0 0 1
-3.631037 7.455569 32.245742 33.295012 -1.117584 0.251719 0.085028 -0.009526 1641360.000000 0 0 1
-2.971637 8.731669 32.073442 33.373318 -1.242763 0.280018 0.075564 -0.013351 87945.900000 0 0 1
-1.566937 8.597069 31.924132 33.098567 -1.390511 0.267188 0.076006 -0.020291 540840.000000 0 0 1
-0.842737 9.870069 31.418632 32.943268 -1.485620 0.305425 0.067539 -0.019779 58858.000000 0 0 1
-0.986437 10.928869 32.379952 34.188808 -1.480780 0.326745 0.058516 -0.026444 -272187.000000 0 0 1
-1.570737 12.086969 31.923822 34.171516 -1.441568 0.364721 0.051011 -0.019874 -447595.000000 0 0 1
-1.693237 13.060069 33.126461 35.648210 -1.441866 0.378391 0.039652 -0.024657 -72448.500000 0 0 1
-0.433437 13.626269 33.483499 36.152563 -1.538998 0.386664 0.075122 -0.029634 81771.400000 0 0 1
-0.427337 14.226669 -33.466300 36.367210 -1.540768 2.739471 0.066552 -0.021464 -127792.000000 0 0 1
0.993363 14.667169 -33.094530 36.212713 1.503173 2.723568 0.062045 -0.023301 -286875.000000 0 0 1
1.458063 15.761569 -33.908130 37.420774 1.478551 2.704843 0.049540 -0.020072 -310751.000000 0 0 1
2.732463 16.068669 -33.426840 37.189006 1.402358 2.687904 0.065667 -0.022142 -383660.000000 0 0 1
3.490463 17.114369 33.961913 38.190267 1.369606 0.475024 0.086801 -0.015933 224785.000000 0 0 1
3.023463 18.473469 34.056869 38.862331 1.408569 0.502572 0.060716 -0.004707 141451.000000 0 0 1
3.989863 19.380369 33.550041 38.950263 1.367762 0.532863 0.048471 0.007839 107419.000000 0 0 1
3.554563 20.890969 33.555884 39.687087 1.402262 0.563274 0.049227 0.001485 -57731.700000 0 0 1
3.689863 21.470869 -33.396800 39.874297 1.400604 2.563584 0.055101 -0.015279 192904.000000 0 0 1
3.448463 22.859069 -33.488570 40.692914 1.421068 2.537395 0.058403 -0.019743 55601.900000 0 0 1
3.473663 23.577669 -32.114580 39.991488 1.424520 2.503168 0.063098 -0.022024 43628.600000 0 0 1
2.933763 24.877269 -32.104630 40.720913 1.453409 2.479011 0.071757 -0.031162 207913.000000 0 0 1
2.877463 25.256869 -30.745080 39.892972 1.457358 2.450718 0.096746 -0.041660 -121555.000000 0 0 1
2.545663 26.726669 -30.482130 40.619644 1.475835 2.419506 0.102947 -0.045995 106123.000000 0 0 1
3.596063 27.654169 -30.753700 41.514754 1.441485 2.405041 0.108736 -0.045142 16075.500000 0 0 1
3.417563 28.964669 -30.227320 42.003841 1.453349 2.374069 0.104056 -0.045533 -566251.000000 0 0 1
4.606263 29.937969 -30.052400 42.669034 1.418133 2.352253 0.124296 -0.057500 -677536.000000 0 0 1
5.459563 29.510469 -29.084510 41.792145 1.387860 2.340514 0.111544 -0.065167 -1044310.000000 0 0 1
6.097263 30.559869 -28.458090 42.201246 1.373864 2.310870 0.116181 -0.064008 -802493.000000 0 0 1
7.212063 30.111769 -27.463190 41.387913 1.335715 2.296358 0.118894 -0.064519 537282.000000 0 0 1
8.380663 29.605269 -28.128380 41.688287 1.294934 2.311397 0.115184 -0.056771 1556680.000000 0 0 1
9.532363 30.511569 -28.169120 42.606586 1.267986 2.293140 0.120647 -0.056822 971434.000000 0 0 1
9.401663 31.765269 -29.105550 44.097128 1.283038 2.291659 0.132172 -0.061923 -1300980.000000 0 0 1
8.637463 32.763569 -28.510480 44.282104 1.313031 2.270299 0.129906 -0.062702 -126803.000000 0 0 1
8.416363 33.986469 -29.174990 45.575161 1.328041 2.265491 0.113494 -0.058550 24179.900000 0 0 1
7.202763 34.042369 -30.166060 46.051644 1.362289 2.285043 0.091172 -0.045519 249067.000000 0 0 1
7.304663 33.102069 -31.225090 46.088083 1.353606 2.315167 0.079444 -0.038155 850635.000000 0 0 1
6.016363 32.977569 -31.865870 46.250950 1.390343 2.330874 0.089435 -0.038284 676367.000000 0 0 1
5.942363 32.271069 -33.238230 46.706676 1.388697 2.362623 0.092155 -0.049122 -31866.800000 0 0 1
6.285363 33.084069 33.972066 47.834744 1.383052 0.781019 0.090196 -0.036006 247618.000000 0 0 1
5.840263 32.448769 32.765816 46.482578 1.392719 0.788507 0.106661 -0.040800 -153275.000000 0 0 1
5.652263 33.501469 31.619492 46.412162 1.403654 0.821292 0.084778 -0.043972 384492.000000 0 0 1
6.818063 -34.023224 31.117672 46.608747 -1.373022 0.839768 0.096965 -0.033943 494014.000000 0 0 1
6.432963 -33.089724 30.140052 45.218753 -1.378782 0.841240 0.059561 -0.028655 -171367.000000 0 0 1
17.981667 -22.412631 29.402352 41.111613 -0.894654 0.773910 0.108658 -0.010005 -1559170.000000 0 0 1
16.987967 -21.492831 29.110132 39.974149 -0.901936 0.755069 0.099006 -0.007512 128181.000000 0 0 1
15.656767 -21.930931 29.358862 39.850256 -0.950794 0.742575 0.105138 -0.003466 474580.000000 0 0 1
15.261767 -22.155131 30.814702 40.906200 -0.967587 0.717729 0.095694 -0.006822 -1160780.000000 0 0 1
15.969167 -23.183831 31.508882 42.252976 -0.967623 0.729182 0.107129 -0.015755 371716.000000 0 0 1
15.357467 -23.450931 32.770899 43.124585 -0.991001 0.707618 0.105884 -0.014416 55213.300000 0 0 1
16.074567 -24.515231 33.616713 44.603494 -0.990426 0.717155 0.125131 -0.024326 -38794.500000 0 0 1
15.813167 -25.846321 33.253034 44.987252 -1.021735 0.738965 0.136747 -0.025218 526885.000000 0 0 1
16.638967 -26.646761 -34.110502 46.372745 -1.012609 2.397307 0.131755 -0.026181 579786.000000 0 0 1
16.551267 -28.144221 33.968650 47.115929 -1.039182 0.765611 0.125314 -0.021098 36291.600000 0 0 1
17.061667 -28.653281 32.748069 46.739138 -1.033727 0.794479 0.122644 -0.033439 224182.000000 0 0 1
16.847367 -30.026281 32.660293 47.456360 -1.059481 0.811767 0.119755 -0.037725 -30815.300000 0 0 1
17.476067 -30.592301 31.360572 47.167651 -1.051780 0.843470 0.138595 -0.038233 992958.000000 0 0 1
18.829767 -31.056221 31.529272 48.095156 -1.025748 0.855872 0.133971 -0.044226 1025520.000000 0 0 1
19.340267 -31.795301 30.425632 48.069805 -1.024315 0.885443 0.099614 -0.034878 -398907.000000 0 0 1
20.720067 -32.419711 30.681982 49.211207 -1.002108 0.897616 0.074093 -0.030055 -749832.000000 0 0 1
21.735867 -31.507981 30.736852 49.091291 -0.966913 0.894234 0.062398 -0.031529 435314.000000 0 0 1
23.021367 -32.087321 31.076762 50.252807 -0.948448 0.904080 0.040696 -0.027903 1380140.000000 0 0 1
24.117067 -31.035461 31.446092 50.335767 -0.910187 0.896015 0.020089 -0.029277 -109813.000000 0 0 1
25.150567 -30.942931 30.540472 50.226850 -0.888296 0.917193 0.008794 -0.028496 -435740.000000 0 0 1
25.824767 -29.689481 30.446322 49.753014 -0.854903 0.912273 0.000202 -0.021177 25599.900000 0 0 1
26.960767 -29.634741 29.419512 49.705216 -0.832610 0.937407 0.012666 -0.026986 -250180.000000 0 0 1
28.088767 -30.315171 29.918542 51.020658 -0.823500 0.944188 0.014058 -0.020875 -66162.600000 0 0 1
29.169167 -30.276701 28.986062 51.065749 -0.804027 0.967181 0.015548 -0.041060 -444243.000000 0 0 1
30.285367 -31.179951 29.373022 52.461102 -0.799951 0.976530 0.029484 -0.027642 -948479.000000 0 0 1
29.896667 -32.524011 29.328582 53.026293 -0.827464 0.984722 0.010204 -0.026647 119085.000000 0 0 1
30.778867 -33.389771 30.033082 54.444481 -0.826064 0.986482 0.036017 -0.020330 -636075.000000 0 0 1
30.149667 33.380288 30.092532 54.118449 0.836206 0.981171 0.026830 -0.014406 284921.000000 0 0 1
29.146367 33.267854 31.084722 54.060344 0.851337 0.958192 0.024927 -0.014218 1391590.000000 0 0 1
27.877967 33.972728 31.107232 53.842243 0.883621 0.954830 -0.004036 -0.009927 851756.000000 0 0 1
26.876467 33.731332 29.928382 52.496241 0.898022 0.964162 0.019006 -0.007619 -127141.000000 0 0 1
26.413467 32.401737 29.885292 51.387493 0.886864 0.950142 0.019217 -0.009050 184728.000000 0 0 1
25.154367 32.200775 30.534672 51.009786 0.907641 0.929039 0.028008 -0.013168 220898.000000 0 0 1
24.717067 30.761283 30.365802 49.792287 0.893917 0.914926 0.057670 -0.019327 -245041.000000 0 0 1
24.331867 30.381963 29.079282 48.587118 0.895528 0.929172 0.063203 -0.028278 15884.800000 0 0 1
23.763067 29.094483 29.110772 47.524829 0.885922 0.911529 0.093170 -0.042450 -505856.000000 0 0 1
23.104967 28.821083 27.733892 46.191591 0.895039 0.926783 0.093970 -0.042081 674958.000000 0 0 1
21.779167 29.382553 27.699292 45.879378 0.932933 0.922610 0.113156 -0.037058 281648.000000 0 0 1
21.074867 28.833853 26.627122 44.548229 0.939627 0.930149 0.120144 -0.028850 938895.000000 0 0 1
19.697467 29.595283 26.414352 44.289829 0.983560 0.931791 0.100902 -0.026952 1025540.000000 0 0 1
19.904267 30.860893 25.849552 44.908506 0.997967 0.957453 0.126901 -0.033109 -356674.000000 0 0 1
18.710867 31.587853 25.763162 44.851193 1.036025 0.958908 0.114885 -0.036043 -739280.000000 0 0 1
18.787867 33.021763 25.159122 45.567556 1.053518 0.985882 0.129357 -0.041711 -298753.000000 0 0 1
19.234467 33.080834 23.814702 45.071569 1.044137 1.014111 0.119861 -0.044385 -478266.000000 0 0 1
20.614967 33.281834 23.841922 45.837698 1.016230 1.023784 0.118491 -0.046293 -1006160.000000 0 0 1
21.260867 33.452839 22.494732 45.575540 1.004648 1.054606 0.111202 -0.045326 -499126.000000 0 0 1
20.978367 -33.602081 21.757732 45.195029 -1.012688 1.068524 0.106759 -0.032970 154936.000000 0 0 1
21.633767 -33.563691 20.493132 44.883290 -0.998256 1.096641 0.110613 -0.031906 59864.300000 0 0 1
21.234567 -32.278281 19.695132 43.366951 -0.988916 1.099378 0.098993 -0.025886 92227.300000 0 0 1
21.897467 -31.152411 20.254732 43.130337 -0.958117 1.081940 0.092291 -0.021962 378384.000000 0 0 1
21.424267 -29.872871 19.786032 41.747751 -0.948632 1.077034 0.083915 -0.019337 -20466.900000 0 0 1
22.293967 -29.235491 18.681432 41.239918 -0.919302 1.100676 0.063368 -0.009482 -38562.800000 0 0 1
22.014767 -29.900591 17.476932 41.038256 -0.936144 1.130874 0.053086 -0.014915 247496.000000 0 0 1
22.494467 -29.168521 16.346832 40.299163 -0.913871 1.153121 0.046586 -0.007701 -141519.000000 0 0 1
21.998967 -29.616181 14.945732 39.805121 -0.931918 1.185890 0.043883 -0.011164 120476.000000 0 0 1
22.670567 -30.854881 14.619332 40.984182 -0.937128 1.206056 0.054705 -0.008732 313421.000000 0 0 1
22.661367 -31.227521 13.263632 40.799749 -0.943039 1.239688 0.051129 -0.017317 -270106.000000 0 0 1
21.360967 -31.451331 12.473632 40.013356 -0.974184 1.253776 0.047583 -0.017647 -396435.000000 0 0 1
20.587267 -32.569821 12.728032 40.578709 -1.007110 1.251748 0.056756 -0.020066 -8064.790000 0 0 1
19.360867 -32.597321 12.002832 39.768033 -1.034844 1.264194 0.063429 -0.014781 407240.000000 0 0 1
18.316767 -33.463951 12.731332 40.217245 -1.069984 1.248691 0.045753 -0.014784 -306920.000000 0 0 1
17.854767 -33.023581 13.970932 40.056667 -1.075147 1.214528 0.049943 -0.010996 468242.000000 0 0 1
18.721867 -33.425331 15.053032 41.162541 -1.060224 1.196414 0.036423 -0.010158 -331740.000000 0 0 1
18.618267 -32.406461 16.294432 40.771646 -1.049320 1.159660 0.042323 -0.011121 957611.000000 0 0 1
17.337867 -31.956371 16.827332 40.062082 -1.073692 1.137316 0.046028 -0.016435 816642.000000 0 0 1
16.480867 -32.947901 17.330532 40.712780 -1.106981 1.131085 0.047407 -0.011717 -553457.000000 0 0 1
16.875667 -33.700161 18.659132 42.055347 -1.106542 1.111095 0.030184 -0.021025 -323896.000000 0 0 1
17.792367 33.455604 18.353532 42.103419 1.082018 1.119741 0.018368 -0.015588 -97568.500000 0 0 1
18.462867 32.955388 19.485932 42.504548 1.060127 1.094553 0.017064 -0.021505 -189397.000000 0 0 1
19.209467 31.670713 19.152832 41.699744 1.025584 1.093586 0.047083 -0.018237 -278724.000000 0 0 1
18.417167 30.506443 19.165632 40.461791 1.027650 1.077340 0.024716 -0.018722 187227.000000 0 0 1
19.180767 29.413203 18.615732 39.743978 0.992936 1.083327 0.019712 -0.020040 47939.400000 0 0 1
18.341867 28.163593 18.348332 38.291949 0.993535 1.071088 0.022177 -0.017474 -600005.000000 0 0 1
18.015567 27.496323 19.554232 38.248875 0.990775 1.034173 0.026941 -0.025413 -4087.980000 0 0 1
17.657867 26.122523 19.458132 37.051388 0.976385 1.017886 0.032815 -0.027277 -627240.000000 0 0 1
17.342667 25.374433 20.778832 37.099728 0.971251 0.976313 0.033554 -0.025872 -152174.000000 0 0 1
16.155667 25.686323 21.495232 37.186527 1.009355 0.954474 0.029691 -0.021816 -8082.670000 0 0 1
15.183967 24.735963 21.139632 35.906890 1.020261 0.941304 0.035045 -0.028164 -106638.000000 0 0 1
13.794667 24.830563 21.838432 35.829692 1.063701 0.915358 0.066672 -0.040232 337358.000000 0 0 1
13.036067 25.905703 21.346232 36.009806 1.104582 0.936278 0.070014 -0.038657 -537708.000000 0 0 1
11.882167 26.121833 22.117732 36.231618 1.143896 0.914163 0.081203 -0.039155 -387824.000000 0 0 1
11.106867 27.271443 21.459632 36.436381 1.184038 0.941023 0.081974 -0.042019 -458446.000000 0 0 1
11.781267 28.503383 21.562332 37.632104 1.178853 0.960663 0.069194 -0.042197 -203138.000000 0 0 1
11.403467 29.403463 20.543232 37.638107 1.200827 0.993442 0.078160 -0.040098 73764.200000 0 0 1
11.936767 30.846593 20.763332 39.052716 1.201571 1.010220 0.085820 -0.040816 -35688.900000 0 0 1
11.179567 31.452453 21.806132 39.871630 1.229280 0.992129 0.074455 -0.039511 36908.000000 0 0 1
11.692567 31.266773 23.093032 40.590828 1.212936 0.965601 0.048515 -0.038845 64573.000000 0 0 1
10.873567 32.124260 24.125742 41.620355 1.244417 0.952482 0.059718 -0.037141 406826.000000 0 0 1
9.609867 31.605543 24.480412 41.116304 1.275622 0.933040 0.057843 -0.035303 -480252.000000 0 0 1
9.031667 32.351164 25.430222 42.129147 1.298552 0.922756 0.055147 -0.032433 -1329610.000000 0 0 1
7.739967 31.776503 25.977142 41.766795 1.331874 0.899557 0.098397 -0.047392 -103062.000000 0 0 1
6.584967 32.624510 25.682902 42.039647 1.371631 0.913573 0.085363 -0.040298 1119490.000000 0 0 1
5.800767 32.258610 24.565072 40.959853 1.392877 0.927626 0.076225 -0.046177 -48193.800000 0 0 1
4.882567 31.025563 24.630202 39.913304 1.414704 0.905754 0.066503 -0.041701 -667737.000000 0 0 1
5.628367 29.884073 24.964292 39.344024 1.384637 0.883418 0.059862 -0.037894 -274910.000000 0 0 1
4.933067 28.637703 24.820102 38.216366 1.400213 0.863919 0.043824 -0.032451 -932749.000000 0 0 1
5.963767 27.522013 25.039652 37.683045 1.357405 0.843998 0.044041 -0.039878 115468.000000 0 0 1
6.934267 27.198713 24.039692 36.956202 1.321166 0.862565 0.063151 -0.041480 344372.000000 0 0 1
7.894367 28.181483 23.798402 37.721094 1.297671 0.888078 0.072501 -0.046667 -634268.000000 0 0 1
9.188367 28.170533 24.658832 38.549488 1.255507 0.876731 0.059408 -0.045321 -529397.000000 0 0 1
8.918467 28.348773 26.070552 39.533096 1.266001 0.850694 0.054092 -0.031939 -938179.000000 0 0 1
9.937667 28.004733 26.912502 40.091209 1.229801 0.834859 0.073811 -0.022438 -393067.000000 0 0 1
11.098567 29.065573 26.973582 41.177176 1.206037 0.856532 0.063602 -0.033228 49753.300000 0 0 1
10.799967 30.179023 27.786862 42.420778 1.227134 0.856575 0.066093 -0.037762 -227859.000000 0 0 1
11.808967 31.111213 27.689892 43.290754 1.208023 0.876785 0.054661 -0.029468 -458358.000000 0 0 1
11.391067 32.283525 28.650162 44.640947 1.231590 0.873965 0.059801 -0.032335 69474.800000 0 0 1
11.370467 32.036393 30.057562 45.377032 1.229742 0.846784 0.057384 -0.045690 -169073.000000 0 0 1
10.053767 32.058923 30.540502 45.404571 1.266907 0.833038 0.077231 -0.040261 -278818.000000 0 0 1
9.978367 31.941933 32.075342 46.353883 1.268011 0.806587 0.102198 -0.041079 17592.700000 0 0 1
10.315867 30.645273 32.590491 45.909585 1.246089 0.781462 0.084564 -0.039854 165013.000000 0 0 1
10.532067 30.605483 33.994628 46.938841 1.239366 0.760876 0.110907 -0.036561 10016.600000 0 0 1
10.580067 29.136283 -33.798340 45.860534 1.222478 2.399389 0.097107 -0.034749 8868.980000 0 0 1
11.729267 28.439023 34.009636 45.858577 1.179616 0.735314 0.106216 -0.028902 275016.000000 0 0 1
11.560667 27.047953 -34.022440 44.975184 1.166883 2.428697 0.114016 -0.028462 431220.000000 0 0 1
12.857167 26.230433 33.908175 44.756080 1.115050 0.711135 0.088446 -0.026719 530420.000000 0 0 1
12.839967 24.880113 -33.911500 43.975841 1.094373 2.451425 0.071035 -0.027408 -622892.000000 0 0 1
13.524967 24.709753 -32.738920 43.189507 1.069987 2.431083 0.066948 -0.028448 -454206.000000 0 0 1
13.533967 23.265003 -32.324870 42.063355 1.043918 2.447259 0.037993 -0.037436 -209333.000000 0 0 1
14.200667 22.397663 -33.197790 42.490087 1.005734 2.467553 0.051377 -0.030123 64769.900000 0 0 1
13.999467 20.995263 -32.909350 41.470610 0.982707 2.487431 0.047065 -0.029690 615675.000000 0 0 1
15.306667 20.229463 -33.375970 41.922316 0.923051 2.491683 0.049053 -0.039832 731098.000000 0 0 1
16.345167 20.490163 -32.481160 41.737717 0.897454 2.462624 0.064640 -0.036544 -211257.000000 0 0 1
17.593767 19.960363 -32.899550 42.312375 0.848333 2.461540 0.063551 -0.035485 358729.000000 0 0 1
18.785267 20.222063 -31.951610 42.222310 0.822216 2.429119 0.046476 -0.029927 -69269.800000 0 0 1
19.364767 21.499463 -32.066210 43.191005 0.837589 2.407484 0.068269 -0.034354 61987.000000 0 0 1
20.422067 21.745863 -31.165500 43.141995 0.816781 2.378054 0.062771 -0.020875 240934.000000 0 0 1
19.950667 22.123863 -29.712440 42.075213 0.837003 2.354877 0.057505 -0.022963 -122154.000000 0 0 1
19.395867 23.428833 -29.633240 42.464559 0.879295 2.343166 0.049926 -0.011188 -2453.760000 0 0 1
19.172067 23.994683 -28.306300 41.767925 0.896657 2.315432 0.059730 -0.004421 57786.500000 0 0 1
20.445667 24.382313 -27.470760 42.037663 0.872990 2.282969 0.055625 -0.006606 379850.000000 0 0 1
21.304667 25.343633 -28.015800 43.371346 0.871766 2.273066 0.062283 -0.009616 -183155.000000 0 0 1
20.733767 26.660063 -28.151640 43.967748 0.909796 2.265658 0.044389 -0.004710 -263890.000000 0 0 1
21.558767 27.638323 -29.067280 45.536404 0.908350 2.263124 0.042213 -0.005427 -21277.800000 0 0 1
21.619967 27.398213 -30.449910 46.317190 0.902736 2.288188 0.047954 -0.003838 12863.200000 0 0 1
22.093067 26.143773 -30.992590 46.175113 0.869177 2.306618 0.054744 -0.004985 179086.000000 0 0 1
23.511167 25.658773 -30.575770 46.325212 0.829048 2.291648 0.082751 -0.009886 -322412.000000 0 0 1
24.442467 26.632023 -30.933330 47.576988 0.828242 2.278610 0.068362 -0.009736 1158260.000000 0 0 1
25.787267 26.254503 -30.443240 47.760579 0.794376 2.261933 0.080425 -0.023401 2190270.000000 0 0 1
26.931167 27.208013 -30.908390 49.202564 0.790512 2.250017 0.045209 -0.008921 150605.000000 0 0 1
26.973967 28.480023 -30.236340 49.527193 0.812550 2.227488 0.024822 -0.002472 643145.000000 0 0 1
28.185167 29.241423 -30.438210 50.753808 0.803789 2.213951 0.022871 -0.001655 795521.000000 0 0 1
28.426167 30.302003 -29.373650 50.882901 0.817328 2.186189 0.017831 0.008246 -117006.000000 0 0 1
28.939367 29.872173 -28.113660 50.201709 0.801258 2.165199 0.037497 -0.000576 81286.100000 0 0 1
28.267467 30.556043 -27.063610 49.650382 0.824284 2.147285 0.033448 0.013544 -120867.000000 0 0 1
28.814267 30.504443 -25.619280 49.164322 0.813884 2.118930 0.052897 0.002833 -464396.000000 0 0 1
28.849867 29.210613 -24.955570 48.045345 0.791611 2.116965 0.052855 0.005928 257821.000000 0 0 1
27.621767 28.544453 -24.657770 46.752042 0.801824 2.126352 0.069257 -0.000577 172450.000000 0 0 1
26.890567 28.817293 -23.361470 45.818089 0.819971 2.105835 0.074229 0.000839 -232046.000000 0 0 1
26.349067 30.104813 -23.235570 46.265157 0.851828 2.096968 0.089407 0.002753 476726.000000 0 0 1
25.571267 30.302453 -22.033670 45.360897 0.869873 2.078008 0.079951 0.005890 538139.000000 0 0 1
3.201367 -26.128271 -19.777870 32.925665 -1.448879 2.215151 0.075252 -0.013323 -82738.100000 0 0 1
3.118767 -27.333261 -18.984770 33.425370 -1.457186 2.174840 0.069561 -0.008288 188445.000000 0 0 1
2.909467 -26.937821 -17.596170 32.306909 -1.463207 2.146776 0.067605 -0.012513 -149381.000000 0 0 1
2.834467 -28.137061 -16.604570 32.793904 -1.470397 2.101721 0.060696 -0.013470 19259.600000 0 0 1
4.084367 -28.762741 -16.420570 33.370832 -1.429737 2.085255 0.050188 -0.018276 -203190.000000 0 0 1
4.034967 -29.656571 -15.334670 33.629530 -1.435570 2.044279 0.050657 -0.027034 476970.000000 0 0 1
5.421567 -30.311011 -15.054570 34.275222 -1.393803 2.025533 0.098831 -0.040627 -89850.400000 0 0 1
6.359167 -29.443951 -14.515870 33.437938 -1.358088 2.019851 0.064999 -0.029039 -637527.000000 0 0 1
7.535167 -30.130561 -14.107670 34.112399 -1.325739 1.997162 0.073225 -0.027098 272823.000000 0 0 1
7.602467 -30.614831 -12.629270 33.978873 -1.327394 1.951614 0.072408 -0.028020 -862257.000000 0 0 1
8.026667 -29.678581 -11.738770 32.909638 -1.306662 1.935526 0.058853 -0.028485 -269039.000000 0 0 1
8.079067 -30.191171 -10.414970 32.943129 -1.309326 1.892465 0.064131 -0.028008 487821.000000 0 0 1
9.242867 -31.199351 -10.032470 34.051146 -1.282782 1.869864 0.077083 -0.024666 656017.000000 0 0 1
10.503567 -30.597401 -9.887170 33.827237 -1.240118 1.867411 0.070705 -0.026945 182034.000000 0 0 1
11.575667 -31.504741 -9.668570 34.928871 -1.218682 1.851266 0.068488 -0.022963 1200820.000000 0 0 1
12.830067 -31.027741 -8.851770 34.722977 -1.178704 1.828567 0.063897 -0.017911 783130.000000 0 0 1
13.896367 -30.402931 -9.524870 34.758745 -1.142076 1.848375 0.069527 -0.025007 118919.000000 0 0 1
14.976667 -30.117921 -8.693670 34.741468 -1.109337 1.823723 0.059310 -0.020696 -591575.000000 0 0 1
16.165867 -29.375721 -9.272370 34.788577 -1.067712 1.840592 0.064648 -0.026696 -408722.000000 0 0 1
16.044067 -27.964981 -9.503870 33.612137 -1.049925 1.857457 0.071426 -0.026046 -22557.500000 0 0 1
15.373867 -27.661531 -10.702670 33.407532 -1.063522 1.896913 0.066453 -0.030001 -152597.000000 0 0 1
15.048067 -26.150881 -10.848870 32.062609 -1.048637 1.915975 0.063902 -0.024827 -194009.000000 0 0 1
13.893567 -25.786811 -10.106070 30.985859 -1.076604 1.903025 0.045663 -0.025598 257390.000000 0 0 1
13.387367 -24.469531 -10.330370 29.743841 -1.070180 1.925499 0.034141 -0.007113 288081.000000 0 0 1
12.740167 -24.050731 -11.660870 29.609549 -1.083656 1.975581 0.015113 -0.005957 -99177.000000 0 0 1
13.675467 -23.741831 -12.685670 30.193032 -1.048205 2.004409 0.018561 -0.005504 20642.600000 0 0 1
13.230167 -24.174131 -13.970070 30.896420 -1.070039 2.039980 0.015816 -0.004795 -89725.500000 0 0 1
14.009567 -23.506131 -15.098370 31.253271 -1.033326 2.074985 0.041628 -0.001525 -487370.000000 0 0 1
15.163367 -24.168531 -15.467670 32.454497 -1.010472 2.067574 0.049712 -0.014852 -776091.000000 0 0 1
15.844767 -23.518931 -16.514470 32.816527 -0.977938 2.098136 0.060843 -0.020080 -536286.000000 0 0 1
16.987467 -24.392231 -17.105570 34.295123 -0.962471 2.092982 0.078543 -0.023998 462758.000000 0 0 1
18.166067 -24.422231 -16.308570 34.531447 -0.931254 2.062674 0.096458 -0.034113 -133471.000000 0 0 1
19.045667 -23.386431 -16.710570 34.480512 -0.887343 2.076746 0.101420 -0.032661 172631.000000 0 0 1
20.548467 -23.785531 -16.472570 35.487132 -0.858284 2.053510 0.088301 -0.033058 876820.000000 0 0 1
21.021767 -24.947231 -17.201570 36.880524 -0.870585 2.056028 0.100573 -0.030594 1068900.000000 0 0 1
22.442467 -25.037131 -16.924470 37.642528 -0.839992 2.037125 0.109141 -0.017610 1236960.000000 0 0 1
23.195467 -26.126081 -17.671570 39.152090 -0.844747 2.039082 0.103746 -0.024719 -319680.000000 0 0 1
23.605467 -25.768071 -18.951570 39.753912 -0.829171 2.067718 0.095447 -0.023825 37674.700000 0 0 1
24.444967 -26.794981 -19.506070 41.182693 -0.831229 2.064224 0.085118 -0.029572 673854.000000 0 0 1
25.740767 -26.118191 -20.082370 41.809671 -0.792676 2.071825 0.062352 -0.024579 270962.000000 0 0 1
25.515467 -25.112761 -21.099870 41.555918 -0.777444 2.103363 0.062964 -0.019340 -188083.000000 0 0 1
25.904567 -23.856531 -20.625570 40.811699 -0.744264 2.100623 0.064300 -0.014855 -426762.000000 0 0 1
24.829667 -22.751031 -20.890870 39.630168 -0.741739 2.126034 0.070356 -0.006392 253634.000000 0 0 1
24.696067 -22.245431 -22.186870 39.962634 -0.733239 2.159388 0.063902 -0.002003 75813.500000 0 0 1
24.126267 -23.148131 -23.152670 40.668893 -0.764711 2.176447 0.044810 -0.015962 -380630.000000 0 0 1
23.370267 -22.466231 -24.306970 40.518264 -0.765678 2.214174 0.037097 -0.010521 -701613.000000 0 0 1
24.123267 -21.650231 -25.105930 40.999661 -0.731423 2.229819 0.026171 -0.003185 -729671.000000 0 0 1
23.326667 -20.789031 -25.876970 40.570122 -0.727939 2.262478 0.018906 0.004881 136364.000000 0 0 1
24.075067 -20.139231 -27.101680 41.469248 -0.696615 2.283044 0.033303 0.001611 259747.000000 0 0 1
23.161767 -19.422731 -27.926260 41.153201 -0.697820 2.316641 0.031007 0.000088 251146.000000 0 0 1
23.639667 -19.059931 -29.214530 42.137912 -0.678552 2.336865 0.050710 -0.008110 -127077.000000 0 0 1
22.749567 -17.987331 -29.879920 41.640083 -0.669024 2.371112 0.064940 -0.008057 494000.000000 0 0 1
21.418367 -18.399431 -30.219370 41.358141 -0.709724 2.390107 0.051658 -0.008174 567042.000000 0 0 1
20.859667 -17.323431 -30.907050 41.115359 -0.693049 2.421456 0.057000 -0.009338 33971.500000 0 0 1
19.506067 -17.729131 -31.568030 41.126017 -0.737712 2.445873 0.040872 -0.005010 30987.500000 0 0 1
19.635467 -18.732031 -32.509370 42.347369 -0.761856 2.446015 0.051837 -0.000051 76878.200000 0 0 1
18.455967 -19.082831 -33.194850 42.505002 -0.802096 2.467003 0.057985 -0.011160 -226517.000000 0 0 1
18.745067 -19.844031 33.766095 43.420183 -0.813869 0.679863 0.084214 -0.003577 171654.000000 0 0 1
19.414067 -21.100731 34.011420 44.485094 -0.827005 0.700442 0.096226 -0.008199 317248.000000 0 0 1
19.327467 -21.981431 32.880534 44.021175 -0.849557 0.727370 0.092697 -0.013106 88200.800000 0 0 1
20.037767 -23.371731 33.094535 45.199537 -0.862050 0.749268 0.084172 -0.003544 48532.000000 0 0 1
19.487867 -24.216431 34.082024 46.128049 -0.893173 0.739424 0.098766 -0.014461 103370.000000 0 0 1
19.751767 -23.816831 -32.851860 45.128909 -0.878431 2.386132 0.106289 -0.014951 -645933.000000 0 0 1
18.966167 -24.618431 -31.855750 44.503612 -0.914363 2.368567 0.111713 -0.018625 -435525.000000 0 0 1
19.340367 -25.971381 -31.760440 45.357337 -0.930709 2.346512 0.111135 -0.029269 452782.000000 0 0 1
20.445267 -26.168251 -30.870790 45.340842 -0.907562 2.319733 0.103799 -0.032451 498654.000000 0 0 1
20.888767 -27.694161 -30.725280 46.339508 -0.924570 2.295678 0.087318 -0.031764 -286998.000000 0 0 1
19.919867 -28.513711 -30.168830 46.043361 -0.961006 2.285279 0.096714 -0.035202 -355569.000000 0 0 1
20.103567 -29.794691 -30.684510 47.259033 -0.977228 2.277438 0.093729 -0.028442 -90993.200000 0 0 1
19.211467 -30.923101 -30.022690 47.187716 -1.014887 2.260410 0.102829 -0.033788 1805680.000000 0 0 1
17.810967 -30.927601 -30.414930 46.891524 -1.048292 2.276570 0.120515 -0.030111 1166360.000000 0 0 1
17.532267 -31.309021 -31.766530 47.924395 -1.060327 2.295411 0.131702 -0.041623 -993244.000000 0 0 1
16.134867 -31.876381 -32.008170 47.968329 -1.102225 2.301343 0.140209 -0.048331 -271901.000000 0 0 1
15.227767 -30.893161 -32.499780 47.355126 -1.112831 2.327185 0.140604 -0.040039 -132634.000000 0 0 1
14.154767 -31.588471 -33.096740 47.891368 -1.149524 2.333778 0.099867 -0.033972 -178730.000000 0 0 1
12.997067 -30.765181 -33.653250 47.412671 -1.171079 2.360003 0.094564 -0.019659 2115.990000 0 0 1
12.135367 -30.084411 -32.761330 46.104703 -1.187382 2.361126 0.103035 -0.020884 -537672.000000 0 0 1
11.092967 -29.563391 -33.483260 46.023654 -1.211827 2.385501 0.083490 -0.012590 -1094510.000000 0 0 1
10.293767 -28.460581 -32.848350 44.665204 -1.223750 2.397105 0.081197 -0.026776 321725.000000 0 0 1
9.162567 -28.993321 -32.133770 44.239626 -1.264705 2.383803 0.081655 -0.015777 868597.000000 0 0 1
8.297467 -27.963161 -31.538060 42.958533 -1.282344 2.395212 0.036771 -0.014807 315112.000000 0 0 1
7.238667 -28.600781 -30.637740 42.533212 -1.322908 2.375067 0.029981 -0.008653 436871.000000 0 0 1
6.144167 -29.278931 -31.311490 43.306073 -1.363948 2.378971 0.031518 -0.007336 625984.000000 0 0 1
6.461267 -30.497121 -31.962730 44.647939 -1.362019 2.368685 0.047551 -0.015846 -240514.000000 0 0 1
5.237567 -31.371751 -32.391010 45.395995 -1.405370 2.365308 0.079702 -0.024395 465901.000000 0 0 1
4.419267 -31.754611 -31.302860 44.807971 -1.432515 2.344236 0.077420 -0.042142 178497.000000 0 0 1
3.446567 -32.683381 -31.772370 45.711768 -1.465731 2.339298 0.098294 -0.063494 -605716.000000 0 0 1
2.573367 -33.326541 -30.660220 45.357796 -1.493733 2.313068 0.076508 -0.074296 387488.000000 0 0 1
1.509767 -32.557601 -30.137420 44.390775 -1.524457 2.317076 0.049249 -0.060205 417834.000000 0 0 1
0.321667 -32.501091 -30.918860 44.859785 -1.560900 2.331227 0.038384 -0.028491 237056.000000 0 0 1
-0.516633 -31.183821 -30.629050 43.713114 1.554230 2.347151 0.022761 -0.021978 440167.000000 0 0 1
-1.277833 -31.260001 -29.397630 42.930655 1.529941 2.325085 0.012759 -0.027217 388183.000000 0 0 1
-1.778333 -29.944291 -29.049970 41.757919 1.511478 2.340156 0.037818 -0.020012 34198.400000 0 0 1
-2.527833 -30.017311 -27.732270 40.945179 1.486782 2.314886 0.039908 -0.016494 -484011.000000 0 0 1
-1.631433 -30.033491 -26.658780 40.191575 1.516529 2.296007 0.031768 -0.012827 -278177.000000 0 0 1
-2.227433 -30.261511 -25.396130 39.568724 1.497323 2.267670 0.053076 -0.022433 233008.000000 0 0 1
-1.191433 -30.498711 -24.266570 38.993042 1.531751 2.242513 0.034746 -0.016467 168141.000000 0 0 1
-1.842933 -30.449861 -23.060470 38.241021 1.510347 2.218090 0.066776 -0.026095 -359276.000000 0 0 1
-0.941633 -30.987121 -22.149470 38.101015 1.540418 2.191165 0.059384 -0.020477 -8769.370000 0 0 1
-1.403633 -30.874191 -20.704170 37.200114 1.525365 2.161038 0.026161 -0.006480 -87623.000000 0 0 1
-1.486133 -29.552471 -20.142870 35.795144 1.520551 2.168477 0.023617 -0.014106 -216129.000000 0 0 1
-0.268233 -28.899051 -19.853870 35.062847 1.561515 2.172729 0.051675 -0.027039 -137897.000000 0 0 1
-0.350633 -27.486661 -19.326170 33.602683 1.558041 2.183569 0.055163 -0.029853 -449222.000000 0 0 1
-0.944633 -27.482421 -18.073470 32.906323 1.536438 2.152251 0.050046 -0.030066 -152335.000000 0 0 1
-0.959433 -26.164241 -17.506070 31.495246 1.534143 2.160160 0.058308 -0.022723 227548.000000 0 0 1
-1.741133 -26.152351 -16.136270 30.779152 1.504318 2.122642 0.051665 -0.019356 35890.800000 0 0 1
-1.685633 -24.928831 -15.484670 29.394948 1.503281 2.125604 0.046564 -0.016793 472464.000000 0 0 1
-2.701233 -24.806431 -14.475570 28.847839 1.462331 2.096464 0.046741 -0.012991 309925.000000 0 0 1
-2.562733 -23.573831 -13.570470 27.321251 1.462511 2.090589 0.045973 -0.010932 807792.000000 0 0 1
-1.350133 -23.767531 -12.798970 27.028356 1.514052 2.064100 0.039008 -0.005700 525449.000000 0 0 1
-1.050433 -22.652631 -11.970270 25.642396 1.524458 2.056483 0.047328 -0.005941 -178035.000000 0 0 1
0.249367 -22.695531 -11.175170 25.298888 -1.559809 2.028318 0.054100 -0.006089 -173618.000000 0 0 1
0.492267 -21.453131 -10.493870 23.887245 -1.547854 2.025625 0.044494 -0.002490 -188831.000000 0 1 0
1.656267 -21.414431 -9.686470 23.561595 -1.493607 1.994471 0.035784 -0.007725 317260.000000 0 1 0
1.944967 -19.967231 -9.284470 22.105985 -1.473695 2.004239 0.027017 0.000708 -570168.000000 0 1 0
2.428867 -19.178331 -10.447970 21.974254 -1.444821 2.066288 0.022847 0.003675 262960.000000 0 1 0
3.243667 -18.060731 -10.107270 20.949183 -1.393093 2.074264 0.011641 -0.000633 37009.100000 0 1 0
4.731367 -18.448031 -9.885770 21.457962 -1.319738 2.049585 0.024093 -0.008304 -59555.000000 0 1 0
4.729767 -19.132031 -8.624970 21.512680 -1.328438 1.983323 0.023924 -0.004032 -780967.000000 0 1 0
5.870867 -19.897631 -8.473670 22.409504 -1.283884 1.958570 0.037252 0.004806 -910257.000000 0 1 0
5.646167 -21.000731 -7.406670 22.973216 -1.308151 1.899065 0.041084 -0.001775 135437.000000 0 1 0
4.708467 -21.957831 -7.862770 23.793679 -1.359563 1.907583 0.039983 -0.009155 249199.000000 0 1 0
4.699367 -22.923731 -6.817770 24.373417 -1.368598 1.854300 0.059816 -0.016558 283596.000000 0 1 0
3.677367 -24.018131 -7.206370 25.344139 -1.418868 1.859115 0.061875 -0.015703 612062.000000 0 0 1
4.286167 -24.782731 -8.244670 26.467519 -1.399541 1.887569 0.057369 -0.009977 116678.000000 0 0 1
3.293667 -25.124201 -9.162070 26.944707 -1.440444 1.917748 0.051996 -0.007290 46124.100000 0 0 1
3.841267 -25.861551 -10.421470 28.145731 -1.423342 1.950094 0.037518 -0.011059 131690.000000 0 0 1
4.168467 -27.223811 -10.115670 29.340054 -1.418858 1.922794 0.051209 -0.016340 -276320.000000 0 0 1
4.483667 -27.867951 -11.276470 30.395472 -1.411274 1.950873 0.053152 -0.010298 55684.200000 0 0 1
4.543067 -29.399781 -11.068570 31.741138 -1.417482 1.926995 0.066915 -0.027030 188822.000000 0 0 1
3.273667 -30.065431 -11.107370 32.218329 -1.462339 1.922772 0.079335 -0.028628 471736.000000 0 0 1
3.320867 -31.471941 -11.089470 33.533380 -1.465667 1.907841 0.067950 -0.026773 -334756.000000 0 0 1
2.052767 -32.139171 -11.623770 34.238169 -1.507012 1.917179 0.053278 -0.035784 -313331.000000 0 0 1
1.965567 -32.220101 -13.019470 34.806680 -1.509867 1.954170 0.058134 -0.038799 -480825.000000 0 0 1
1.022867 -33.132881 -13.390270 35.750991 -1.539934 1.954700 0.049202 -0.037632 -1133100.000000 0 0 1
0.738467 -33.033691 -14.887770 36.241078 -1.548445 1.994126 0.059748 -0.029565 -59442.800000 0 0 1
-0.290733 -32.100511 -15.151170 35.497680 1.561740 2.011771 0.058917 -0.026229 101655.000000 0 0 1
-0.852733 -32.375681 -16.451070 36.325605 1.544464 2.040787 0.032303 -0.022325 -85847.700000 0 0 1
-1.890933 -31.361721 -16.943670 35.696234 1.510575 2.065377 0.029459 -0.023261 -546689.000000 0 0 1
-3.106233 -31.580101 -16.325170 35.685608 1.472751 2.045947 0.036697 -0.029055 -1382020.000000 0 0 1
-4.178433 -30.973311 -16.960470 35.559286 1.436702 2.067993 0.046448 -0.022162 -295015.000000 0 0 1
-5.558633 -31.103251 -16.318970 35.561488 1.393948 2.047547 0.049611 -0.025503 -401615.000000 0 0 1
-5.764033 -30.302481 -15.184070 34.380524 1.382825 2.028230 0.027726 -0.023048 546915.000000 0 0 1
-7.155833 -30.041051 -14.978170 34.322241 1.336952 2.022388 0.041597 -0.019025 738418.000000 0 0 1
-7.960833 -31.000541 -14.075670 34.964738 1.319431 1.985116 0.041112 -0.032558 -50017.000000 0 0 1
-8.222033 -32.204851 -14.748470 36.363053 1.320832 1.988420 0.045534 -0.037762 -161983.000000 0 0 1
-8.952233 -33.059131 -13.876970 36.954281 1.306344 1.955751 0.044341 -0.029528 5768.090000 0 0 1
-8.944433 33.682260 -14.464170 37.732078 -1.311234 1.964205 0.077812 -0.034819 -178671.000000 0 0 1
-7.698133 33.077178 -14.291870 36.845875 -1.342134 1.969129 0.075236 -0.041028 -267498.000000 0 0 1
-7.805933 31.743493 -14.668170 35.829278 -1.329674 1.992582 0.085071 -0.050265 -948576.000000 0 0 1
-7.637933 -21.780431 -3.423670 23.333382 1.233517 1.718056 0.063315 -0.020872 142904.000000 0 1 0
-7.492133 -20.812731 -4.473170 22.567921 1.225260 1.770327 0.047047 -0.019422 703814.000000 0 1 0
-6.229533 -21.006231 -5.140170 22.505336 1.282502 1.801228 0.040938 -0.013826 847743.000000 0 1 0
-6.150333 -20.000631 -6.338770 21.863939 1.272467 1.864938 0.037381 -0.010549 257838.000000 0 1 0
-7.087933 -20.264731 -7.382970 22.702563 1.234329 1.902024 0.050287 -0.018499 -120526.000000 0 1 0
-7.185933 -19.206231 -8.267670 22.110434 1.212775 1.954035 0.037901 -0.022958 -68221.800000 0 1 0
-8.083233 -19.541531 -9.481170 23.175476 1.178584 1.992268 0.050295 -0.019022 55428.500000 0 1 0
-7.407133 -20.147531 -10.498270 23.895654 1.218490 2.025658 0.054772 -0.019038 -222907.000000 0 1 0
-8.361333 -20.440831 -11.516270 24.907106 1.182512 2.051461 0.070806 -0.024269 126076.000000 0 1 0
-7.878033 -21.338031 -12.649070 26.026409 1.217119 2.078314 0.066595 -0.016694 355483.000000 0 0 1
-6.743733 -20.818931 -13.370970 25.645441 1.257539 2.119261 0.066080 -0.012376 469023.000000 0 0 1
-6.210833 -21.628331 -14.394970 26.712812 1.291159 2.139902 0.059477 -0.007239 534815.000000 0 0 1
-5.003333 -20.930531 -15.112670 26.296640 1.336155 2.183033 0.048994 -0.002017 -436520.000000 0 0 1
-3.836733 -20.836331 -14.365370 25.597599 1.388699 2.166631 0.051069 -0.007856 -263694.000000 0 0 1
-2.771733 -20.194931 -15.091870 25.363010 1.434400 2.208105 0.064359 -0.008065 403094.000000 0 0 1
-2.793833 -18.667431 -15.298970 24.296851 1.422235 2.251923 0.057426 0.000205 -195411.000000 0 1 0
-3.922233 -18.117731 -16.018670 24.499671 1.357600 2.283434 0.057600 -0.002648 487049.000000 0 1 0
-3.920233 -18.325331 -17.435470 25.596515 1.360049 2.320150 0.078888 -0.009724 -1100540.000000 0 0 1
-5.269233 -18.147831 -18.104570 26.170289 1.288216 2.334773 0.079270 -0.000212 -240637.000000 0 0 1
-6.161733 -19.189831 -17.677870 26.809022 1.260102 2.290817 0.058954 -0.002874 622540.000000 0 0 1
-7.504733 -18.931431 -18.096470 27.243390 1.193383 2.297289 0.062928 0.003313 528400.000000 0 0 1
-8.566733 -19.787531 -17.392970 27.702901 1.162223 2.249570 0.080572 -0.006723 -76833.300000 0 0 1
-8.480233 -21.152831 -17.726070 28.871615 1.189512 2.231866 0.070175 -0.006297 780178.000000 0 0 1
-9.708233 -21.828731 -17.427870 29.571506 1.152321 2.201046 0.069247 -0.010063 576597.000000 0 0 1
-9.769033 -23.291831 -17.893270 30.953393 1.173662 2.187159 0.055938 -0.016554 -240956.000000 0 0 1
-9.509833 -23.437931 -19.330670 31.834703 1.185347 2.223353 0.044649 -0.016215 435877.000000 0 0 1
-8.798533 -24.621231 -19.675170 32.722034 1.227584 2.215901 0.079525 -0.029759 890798.000000 0 0 1
-7.223533 -24.612131 -19.575670 32.266752 1.285318 2.222677 0.095919 -0.031464 608247.000000 0 0 1
-6.556133 -23.725031 -20.476870 32.018154 1.301186 2.264695 0.103254 -0.024857 231797.000000 0 0 1
-6.324033 -22.394231 -19.940870 30.645281 1.295568 2.279302 0.076704 -0.020015 254200.000000 0 0 1
-5.149933 -22.226931 -18.916770 29.637855 1.343116 2.263037 0.099798 -0.010386 790408.000000 0 0 1
-3.824233 -22.459231 -19.380570 29.910672 1.402139 2.275684 0.096785 -0.029459 903491.000000 0 0 1
-2.843533 -22.078831 -18.398170 28.879978 1.442711 2.261470 0.066190 -0.026239 551801.000000 0 0 1
-1.467333 -22.775831 -18.481570 29.367669 1.506460 2.251470 0.089136 -0.035732 -362362.000000 0 0 1
-0.775633 -22.310831 -19.574070 29.690386 1.536045 2.290648 0.100833 -0.029805 -486758.000000 0 0 1
0.477667 -23.004131 -19.555770 30.196794 -1.550035 2.275241 0.083218 -0.035105 549462.000000 0 0 1
1.539867 -22.403331 -20.506270 30.410320 -1.502170 2.310839 0.105656 -0.040481 93331.600000 0 0 1
1.330767 -22.521631 -21.860070 31.414288 -1.511777 2.340419 0.107194 -0.051400 -374977.000000 0 0 1
0.910967 -21.390431 -22.558370 31.100811 -1.528234 2.382311 0.118663 -0.040712 -339298.000000 0 0 1
0.682767 -21.668231 -24.088770 32.407518 -1.539297 2.408798 0.121686 -0.046383 139100.000000 0 0 1
0.137967 -20.601631 -24.863370 32.289834 -1.564100 2.449647 0.118161 -0.045831 366788.000000 0 0 1
-1.229933 -20.330531 -24.556770 31.904203 1.510373 2.449173 0.106178 -0.035642 187554.000000 0 0 1
-1.864133 -19.156431 -25.353010 31.831101 1.473791 2.492257 0.096868 -0.023350 -50291.400000 0 0 1
-1.301533 -17.933631 -25.013570 30.805646 1.498348 2.518333 0.091137 -0.020207 -143500.000000 0 0 1
-1.925833 -16.899531 -25.695040 30.814576 1.457328 2.556860 0.081362 -0.018399 85676.800000 0 0 1
-1.283833 -15.473031 -25.378980 29.751564 1.488014 2.592561 0.070408 -0.014579 -180621.000000 0 0 1
-0.008233 -15.241231 -25.883600 30.037576 1.570256 2.609421 0.065469 -0.018243 -518378.000000 0 0 1
0.714667 -14.165531 -25.288500 28.994504 -1.520388 2.630443 0.053798 -0.020640 447920.000000 0 0 1
0.250767 -12.698831 -25.742680 28.705553 -1.551052 2.683243 0.043877 -0.016031 -556202.000000 0 0 1
1.100067 -11.654531 -25.446360 28.009918 -1.476686 2.710421 0.031499 -0.010606 -632755.000000 0 0 1
0.770467 -10.433631 -26.070670 28.091531 -1.497086 2.759970 0.029205 -0.010522 -113728.000000 0 0 1
1.737267 -9.211031 -25.957860 27.598400 -1.384379 2.795062 0.043070 -0.014836 1203230.000000 0 0 1
3.079267 -9.214131 -26.487590 28.213021 -1.248275 2.790050 0.053620 -0.020563 706341.000000 0 0 1
3.228467 -9.252331 -27.880150 29.552181 -1.235070 2.803597 0.054820 -0.013172 -211240.000000 0 0 1
4.684867 -8.907731 -28.256670 29.995584 -1.086618 2.799419 0.060985 -0.021327 -624223.000000 0 0 1
4.904467 -7.543431 -28.489730 29.876778 -0.994306 2.835686 0.063290 -0.018294 1788740.000000 0 0 1
6.244267 -7.200531 -29.013820 30.539160 -0.856404 2.824202 0.076697 -0.024190 1690230.000000 0 0 1
7.374667 -7.224731 -27.913140 29.761147 -0.775128 2.787338 0.076879 -0.027479 -106458.000000 0 0 1
7.912467 -8.437631 -27.439730 29.778172 -0.817507 2.742648 0.066150 -0.027005 234591.000000 0 0 1
8.567267 -9.211231 -28.413170 31.073350 -0.821604 2.724796 0.077341 -0.034072 -724256.000000 0 0 1
9.069367 -10.605031 -27.985120 31.271186 -0.863294 2.679042 0.100339 -0.031770 -516094.000000 0 0 1
8.063167 -11.530431 -27.682960 31.053370 -0.960544 2.671362 0.089040 -0.033853 -359879.000000 0 0 1
8.363367 -12.771231 -26.974940 30.995123 -0.991012 2.626600 0.091812 -0.034119 -213618.000000 0 0 1
9.203767 -13.829231 -27.748820 32.341212 -0.983581 2.602163 0.108735 -0.042267 -46984.300000 0 0 1
8.471067 -14.291731 -28.846370 33.288521 -1.035743 2.619056 0.108202 -0.046207 -542500.000000 0 0 1
9.099667 -15.307331 -29.586670 34.532439 -1.034457 2.599787 0.107966 -0.045083 -681774.000000 0 0 1
8.185167 -16.009331 -30.543700 35.443099 -1.098170 2.609539 0.082604 -0.037691 -675299.000000 0 0 1
7.792167 -15.193031 -31.619880 35.935538 -1.096900 2.646460 0.084884 -0.031518 569176.000000 0 0 1
6.818267 -15.807431 -32.482510 36.762442 -1.163574 2.654246 0.078135 -0.029796 32329.300000 0 0 1
5.966267 -14.725431 -33.158850 36.768791 -1.185843 2.694761 0.074674 -0.022593 -251490.000000 0 0 1
6.651267 -13.855931 -34.032500 37.342164 -1.123252 2.717395 0.094347 -0.029444 297643.000000 0 0 1
5.876067 -12.676031 33.947689 36.710428 -1.136725 0.390438 0.051954 -0.023306 184988.000000 0 0 1
6.619567 -11.752131 32.977759 35.629536 -1.057826 0.388248 0.086091 -0.027470 27413.600000 0 0 1
6.659867 -12.362831 31.651672 34.626894 -1.076669 0.417568 0.093510 -0.030734 -29359.500000 0 0 1
7.185167 -11.423231 30.786882 33.614713 -1.009329 0.413114 0.090634 -0.027345 -313023.000000 0 0 1
7.526267 -11.832831 29.364702 32.541456 -1.004291 0.445540 0.082254 -0.016538 -432831.000000 0 0 1
6.442767 -12.145031 28.545562 31.683752 -1.083059 0.448836 0.071412 -0.018886 -237341.000000 0 0 1
6.837567 -12.321231 27.229482 30.659579 -1.064167 0.477551 0.076324 -0.011038 161718.000000 0 0 1
5.763067 -13.094831 26.408642 30.035045 -1.156204 0.496488 0.062168 -0.028136 102811.000000 0 0 1
5.674167 -14.464031 26.741302 30.927360 -1.196950 0.526346 0.070296 -0.022016 -43709.300000 0 0 1
5.265167 -15.322131 25.671912 30.356824 -1.239806 0.562974 0.047950 -0.021729 -54421.800000 0 0 1
3.741167 -15.557231 25.531992 30.131485 -1.334800 0.559816 0.050220 -0.025252 -188692.000000 0 0 1
3.121967 -14.390531 25.121922 29.119496 -1.357161 0.530176 0.038866 -0.025910 -590661.000000 0 0 1
1.772967 -14.564631 24.781312 28.799051 -1.449661 0.534564 0.031212 -0.025271 37564.600000 0 0 1
0.957067 -13.261131 24.534832 27.905762 -1.498750 0.496609 0.026646 -0.023167 -429708.000000 0 0 1
1.371067 -12.528631 23.444572 26.617558 -1.461795 0.493261 0.011408 -0.019364 -147938.000000 0 0 1
0.631967 -11.306831 23.284292 25.892124 -1.514962 0.452674 0.011386 -0.018382 -68399.100000 0 0 1
-0.821933 -11.435131 22.849932 25.564765 1.499042 0.465035 0.028152 -0.024826 -1005490.000000 0 0 1
-0.898133 -12.009931 21.597332 24.728321 1.496153 0.508687 0.033429 -0.023005 -522564.000000 0 1 0
-2.166333 -12.562731 21.396832 24.906618 1.400034 0.537323 0.054095 -0.028227 -178273.000000 0 1 0
-2.168033 -13.410431 20.064232 24.230424 1.410515 0.595159 0.058074 -0.030973 798115.000000 0 1 0
-1.167533 -14.464931 19.986132 24.699045 1.490256 0.628030 0.068503 -0.029023 413687.000000 0 1 0
-1.418833 -15.268131 18.835232 24.287752 1.478135 0.683284 0.069757 -0.031134 207956.000000 0 1 0
-2.259333 -16.520231 19.124432 25.372555 1.434878 0.717054 0.052417 -0.020740 150733.000000 0 0 1
-2.189133 -17.498831 18.089032 25.262907 1.446341 0.772696 0.038152 -0.015322 -33456.500000 0 0 1
-3.340133 -18.333531 18.092832 25.973552 1.390586 0.800167 0.046537 -0.008167 438352.000000 0 0 1
-3.027033 -19.627731 17.290532 26.331982 1.417780 0.854446 0.044808 -0.008636 167245.000000 0 0 1
-2.088233 -20.489031 17.885332 27.277211 1.469227 0.855703 0.063095 -0.015460 -438084.000000 0 0 1
-2.003933 -21.816231 17.326932 27.931814 1.479198 0.901633 0.051295 -0.032758 -232532.000000 0 0 1
-0.890733 -22.712731 17.906732 28.936354 1.531599 0.903542 0.076563 -0.027072 257290.000000 0 0 1
0.372967 -22.449531 17.354232 28.377631 -1.554184 0.912783 0.082344 -0.029316 -278204.000000 0 0 1
1.426467 -23.259531 17.892132 29.379738 -1.509545 0.916003 0.096448 -0.017932 448636.000000 0 0 1
2.765667 -22.984631 17.203932 28.842979 -1.451045 0.931702 0.103501 -0.027170 -361939.000000 0 0 1
3.343367 -21.761631 17.469932 28.105964 -1.418352 0.900046 0.113268 -0.032898 29900.100000 0 0 1
4.554767 -21.481031 16.773732 27.632204 -1.361854 0.918471 0.105082 -0.031371 882678.000000 0 0 1
5.352167 -20.206331 17.235932 27.092782 -1.311867 0.881257 0.099429 -0.025575 -748133.000000 0 0 1
6.251367 -20.436331 18.336332 28.159266 -1.273940 0.861678 0.097603 -0.014812 15064.800000 0 0 1
6.987067 -19.304931 18.661932 27.744678 -1.223532 0.833038 0.098730 -0.004559 298783.000000 0 0 1
8.022967 -18.818531 17.609132 26.992344 -1.167797 0.860082 0.075652 -0.007842 -1591620.000000 0 0 1
7.398567 -18.246331 16.493032 25.684382 -1.185573 0.873507 0.079527 -0.008615 -339837.000000 0 0 1
8.256367 -17.532831 15.598832 24.877526 -1.130691 0.893068 0.077905 -0.009595 -41231.500000 0 1 0
7.598467 -16.401331 14.772032 23.344235 -1.136951 0.885643 0.074617 -0.012505 -377354.000000 0 1 0
6.582167 -16.844431 13.926932 22.825845 -1.198279 0.914561 0.064827 -0.013039 -243717.000000 0 1 0
6.139667 -15.835431 13.065432 21.428063 -1.200923 0.915071 0.058385 -0.024192 -328426.000000 0 1 0
6.532167 -16.209631 11.661032 21.009546 -1.187723 0.982391 0.054316 -0.014348 490349.000000 0 1 0
7.939867 -16.069631 11.457632 21.273266 -1.111887 1.002030 0.054707 -0.008064 420619.000000 0 1 0
8.269967 -16.527331 10.135332 21.077713 -1.106844 1.069166 0.053255 -0.007990 -159811.000000 0 1 0
9.701167 -16.127831 9.778732 21.209507 -1.029262 1.091613 0.044302 -0.006541 -250247.000000 0 1 0
10.211167 -16.641931 8.576932 21.325702 -1.020451 1.156891 0.044640 -0.006215 -501069.000000 0 1 0
11.468067 -16.061331 8.353732 21.430533 -0.950725 1.170376 0.039839 -0.016781 -37917.700000 0 1 0
12.515267 -16.968031 7.668632 22.435550 -0.935292 1.221957 0.051044 -0.018651 109250.000000 0 1 0
12.897767 -18.169031 8.382032 23.805977 -0.953473 1.210985 0.059994 -0.020702 609924.000000 0 1 0
13.820167 -18.976831 7.605432 24.677109 -0.941351 1.257498 0.062942 -0.019311 254022.000000 0 1 0
14.449567 -20.072131 8.431232 26.129793 -0.946851 1.242250 0.060694 -0.021534 -91233.700000 0 0 1
13.500167 -21.017131 8.952632 26.535333 -0.999824 1.226658 0.060350 -0.018264 332192.000000 0 0 1
14.099867 -22.225031 9.352232 27.932463 -1.005456 1.229386 0.046867 -0.015948 591898.000000 0 0 1
13.031767 -23.225931 9.966132 28.435798 -1.059481 1.212714 0.063461 -0.020153 725487.000000 0 0 1
12.633867 -22.743531 11.220932 28.333586 -1.063746 1.163608 0.064213 -0.024974 -445492.000000 0 0 1
11.567667 -23.442831 11.810432 28.685598 -1.112409 1.146456 0.077997 -0.018029 -177939.000000 0 0 1
11.921867 -24.782131 12.528232 30.219886 -1.122409 1.143327 0.064568 -0.027336 -114109.000000 0 0 1
12.947267 -24.683831 13.490932 30.966570 -1.087722 1.120024 0.039885 -0.027879 -41486.800000 0 0 1
13.131767 -25.933861 14.041832 32.282836 -1.102077 1.120799 0.039402 -0.029008 -115809.000000 0 0 1
14.229667 -26.160931 15.098632 33.389316 -1.072627 1.101566 0.038579 -0.024450 -174581.000000 0 0 1
13.999067 -25.541041 16.340932 33.396777 -1.069412 1.059513 0.036315 -0.022318 308528.000000 0 0 1
14.832867 -26.150661 17.321332 34.697256 -1.054838 1.048106 0.036830 -0.018517 -310036.000000 0 0 1
14.636167 -25.621661 18.786032 34.980021 -1.051791 1.003860 0.038892 -0.019491 -118070.000000 0 0 1
15.144267 -24.286031 19.006332 34.356961 -1.013219 0.984594 0.028840 -0.016533 457099.000000 0 0 1
16.551767 -24.383631 19.244232 35.197485 -0.974436 0.992318 0.034304 -0.020097 278454.000000 0 0 1
17.125967 -22.951631 19.544032 34.670525 -0.929747 0.971929 0.031265 -0.013220 -112391.000000 0 0 1
17.216267 -22.021631 18.500932 33.520689 -0.907259 0.986124 0.020423 -0.012354 928705.000000 0 0 1
16.006067 -21.228331 18.344032 32.300770 -0.924743 0.966828 0.027172 -0.008592 416599.000000 0 0 1
16.030967 -20.186731 17.211032 30.995413 -0.899643 0.982101 0.017259 -0.010152 321484.000000 0 0 1
16.901567 -19.075631 17.506332 30.919481 -0.845754 0.968919 0.012420 -0.012453 653566.000000 0 0 1
18.271467 -19.311131 17.197432 31.662564 -0.813055 0.996615 0.015200 -0.018433 114027.000000 0 0 1
19.091067 -17.990631 17.412032 31.485084 -0.755731 0.984806 0.027615 -0.012152 -257257.000000 0 0 1
19.392067 -17.827731 18.766832 32.343071 -0.743393 0.951770 0.026056 -0.010846 192292.000000 0 0 1
19.787267 -16.461731 19.016432 32.002331 -0.693913 0.934501 0.028664 -0.010349 -174720.000000 0 0 1
20.209667 -16.144031 20.460032 32.979892 -0.674025 0.901570 0.035972 -0.008349 542673.000000 0 0 1
21.521567 -16.633931 20.776432 34.227557 -0.657994 0.918505 0.041614 -0.008883 558375.000000 0 0 1
21.913767 -16.487031 22.119032 35.231903 -0.645009 0.892057 0.044708 -0.010695 3577.260000 0 0 1
33.883323 -1.069431 -7.590970 34.739690 -0.031552 1.791084 0.089952 -0.013399 225203.000000 0 0 1
35.187853 -0.890431 -8.148970 36.130092 -0.025300 1.798299 0.087837 -0.009838 448247.000000 0 0 1
35.987383 -2.034631 -8.004070 36.922846 -0.056477 1.789309 0.096379 -0.017633 -101927.000000 0 0 1
-35.662827 -1.797531 -8.587770 36.726260 0.050361 1.806813 0.103722 -0.017688 105192.000000 0 0 1
-34.809204 -2.840731 -8.139570 35.860885 0.081428 1.799768 0.121298 -0.012744 492656.000000 0 0 1
-33.599383 -2.911231 -8.924770 34.886177 0.086430 1.829498 0.184682 -0.022320 606921.000000 0 0 1
-32.736293 -4.082131 -8.371570 34.035450 0.124057 1.819313 0.170413 -0.020855 -202252.000000 0 0 1
-32.207753 -3.715831 -7.106570 33.191115 0.114863 1.786578 0.160500 -0.023629 285739.000000 0 0 1
-31.229623 -4.661431 -6.702470 32.279117 0.148169 1.779959 0.157331 -0.027299 119282.000000 0 0 1
-30.818103 -4.451631 -5.215570 31.571738 0.143456 1.736755 0.155030 -0.039955 -201302.000000 0 0 1
-30.019453 -3.328331 -5.003770 30.615079 0.110421 1.734974 0.154604 -0.036612 232665.000000 0 0 1
-29.716903 -3.130831 -3.649470 30.103406 0.104968 1.692326 0.151806 -0.041792 -162763.000000 0 0 1
-29.283633 -1.679431 -3.324370 29.519537 0.057288 1.683652 0.163030 -0.037347 -944131.000000 0 0 1
-27.957513 -1.290131 -3.449070 28.198990 0.046113 1.693415 0.149049 -0.036156 -420216.000000 0 0 1
-27.747133 -0.000131 -2.897070 27.897964 0.000005 1.674829 0.152612 -0.042404 417052.000000 0 0 1
-26.263513 0.274369 -2.483370 26.382087 -0.010446 1.665067 0.142641 -0.032004 392931.000000 0 0 1
-25.831753 -0.520531 -1.429170 25.876494 0.020148 1.626055 0.136590 -0.036392 145744.000000 0 0 1
-24.477933 -0.218831 -1.151070 24.505960 0.008940 1.617785 0.107490 -0.031340 113024.000000 0 1 0
-23.936633 -1.045731 0.039230 23.959497 0.043660 1.569159 0.088982 -0.030625 -376984.000000 0 1 0
-24.031133 -2.444531 -0.185870 24.155861 0.101375 1.578491 0.100896 -0.031111 155333.000000 0 1 0
-23.389633 -3.094831 0.880530 23.609918 0.131552 1.533493 0.091025 -0.024934 -420532.000000 0 1 0
-23.502433 -4.604931 0.995130 23.969982 0.193483 1.529269 0.088704 -0.019480 -860685.000000 0 1 0
-24.734033 -5.064931 1.435030 25.288045 0.201983 1.514018 0.097242 -0.024748 -415593.000000 0 0 1
-24.738733 -6.436331 1.603730 25.612560 0.254529 1.508140 0.079567 -0.022167 -141736.000000 0 0 1
-26.079603 -6.929131 2.177430 27.072121 0.259692 1.490279 0.101636 -0.024584 -106724.000000 0 0 1
-26.317663 -6.898231 3.577430 27.440900 0.256347 1.440056 0.100826 -0.024901 306890.000000 0 0 1
-27.448663 -7.643931 4.006430 28.773430 0.271600 1.431102 0.096672 -0.018303 184584.000000 0 0 1
-27.549433 -7.736731 5.598330 29.157667 0.273779 1.377595 0.099005 -0.019266 -261383.000000 0 0 1
-26.610503 -8.643931 6.122530 28.641260 0.314080 1.355368 0.086290 -0.009347 11099.400000 0 0 1
-26.748543 -8.922631 7.541530 29.188569 0.321968 1.309459 0.081408 -0.024257 -73016.600000 0 0 1
-26.150643 -7.689631 8.359030 28.510698 0.285990 1.273235 0.104733 -0.020651 1020050.000000 0 0 1
-24.744933 -7.494931 8.115930 27.098967 0.294104 1.266636 0.112012 -0.016923 909728.000000 0 0 1
-24.188033 -6.221231 8.445730 26.364654 0.251746 1.244705 0.106001 -0.029340 394001.000000 0 0 1
-22.751133 -5.956431 7.918230 24.815146 0.256061 1.246029 0.093397 -0.024992 362183.000000 0 1 0
-21.681833 -6.471631 8.648730 24.223633 0.290063 1.205703 0.089801 -0.024492 -673403.000000 0 1 0
-20.442133 -6.286831 8.037930 22.847612 0.298362 1.211296 0.082724 -0.016174 -847658.000000 0 1 0
-19.341233 -6.591531 9.018630 22.335336 0.328457 1.155148 0.086394 -0.013540 -705907.000000 0 1 0
-19.202933 -5.490731 9.851430 22.269967 0.278501 1.112564 0.074749 -0.015578 1297950.000000 0 1 0
-18.019833 -5.596231 10.713630 21.698250 0.301116 1.054393 0.061264 -0.023325 932239.000000 0 1 0
-17.948033 -4.323231 11.583030 21.794238 0.236372 1.010459 0.065467 -0.021925 244877.000000 0 1 0
-18.940633 -4.248131 12.605530 23.145055 0.220635 0.994846 0.073812 -0.018249 269982.000000 0 1 0
-19.028833 -2.993531 13.263730 23.387694 0.156037 0.967786 0.074959 -0.015392 315287.000000 0 1 0
-20.207833 -2.858031 14.275730 24.906250 0.140500 0.960417 0.069415 -0.013798 -144943.000000 0 1 0
-20.051833 -3.683331 15.436730 25.572164 0.181665 0.922720 0.066103 -0.008955 308598.000000 0 0 1
-21.275233 -3.794331 16.124930 26.963788 0.176489 0.929766 0.058744 -0.007766 71294.400000 0 0 1
-21.031633 -4.870931 17.186130 27.593815 0.227588 0.898447 0.050641 0.002504 -21273.800000 0 0 1
-22.044733 -4.756931 18.151630 28.949617 0.212527 0.893090 0.044726 -0.000714 415647.000000 0 0 1
-21.801433 -5.588131 19.262530 29.623888 0.250917 0.862901 0.054004 -0.000635 -39751.600000 0 0 1
-22.618533 -5.110731 20.492330 30.945972 0.222222 0.847049 0.056162 -0.005222 -442265.000000 0 0 1
-22.214233 -3.855431 20.884930 30.732992 0.171845 0.823633 0.061299 -0.006238 100898.000000 0 0 1
-22.879233 -3.516931 22.058730 31.975235 0.152523 0.809488 0.058873 -0.011392 -138840.000000 0 0 1
-22.822833 -2.057531 22.363330 32.019270 0.089909 0.797590 0.052283 -0.005532 -337622.000000 0 0 1
-23.885833 -1.461331 21.660330 32.277521 0.061104 0.835151 0.061952 -0.012226 -129318.000000 0 0 1
-23.946233 -0.115531 22.021430 32.532734 0.004825 0.827253 0.054687 -0.012453 -397543.000000 0 0 1
-25.233723 0.544169 21.544630 33.184454 -0.021562 0.864213 0.061994 -0.008218 -508767.000000 0 0 1
-26.381103 0.157769 22.244030 34.507743 -0.005980 0.870284 0.075954 -0.010431 -112594.000000 0 0 1
-27.522463 0.930269 21.854030 35.156080 -0.033788 0.899976 0.083061 -0.009915 245157.000000 0 0 1
-28.527523 0.916169 23.000730 36.656411 -0.032104 0.892499 0.085455 -0.011598 -494245.000000 0 0 1
-28.113183 1.849469 23.999830 37.010315 -0.065692 0.865232 0.072137 -0.009747 293130.000000 0 0 1
-29.020883 1.829469 25.097330 38.411386 -0.062956 0.858752 0.067581 -0.011650 -269702.000000 0 0 1
-28.754983 2.711469 26.316230 39.073585 -0.094018 0.831857 0.084553 -0.018200 -75575.700000 0 0 1
-27.725223 2.202569 27.153630 38.869769 -0.079276 0.797386 0.069946 -0.026127 333537.000000 0 0 1
-27.430053 3.067069 28.225330 39.477639 -0.111352 0.774215 0.061746 -0.027559 -226473.000000 0 0 1
-26.222583 2.657569 29.080530 39.247468 -0.101002 0.736308 0.067115 -0.026747 -120171.000000 0 0 1
-26.485723 1.570969 29.910230 39.982287 -0.059244 0.725622 0.062667 -0.027208 657393.000000 0 0 1
-25.301473 1.272069 30.654030 39.767477 -0.050234 0.690651 0.060074 -0.030077 538362.000000 0 0 1
-25.400633 0.014069 31.486930 40.455149 -0.000554 0.678815 0.054940 -0.035671 -162137.000000 0 0 1
-25.362753 -1.140931 30.797730 39.913295 0.044954 0.689419 0.059296 -0.026835 -124903.000000 0 0 1
-25.863413 -2.249631 31.544430 40.853739 0.086763 0.688609 0.065468 -0.013594 362834.000000 0 0 1
-26.911463 -3.113331 30.673330 40.923988 0.115176 0.723460 0.049331 -0.012841 1473050.000000 0 0 1
-28.232803 -2.594931 30.463930 41.615812 0.091654 0.749503 0.050273 -0.008532 562214.000000 0 0 1
-28.328013 -1.456631 29.636430 41.023360 0.051375 0.763489 0.054023 -0.009372 -1121410.000000 0 0 1
-29.759833 -1.157831 29.226430 41.727358 0.038886 0.794819 0.058522 -0.019232 -184000.000000 0 0 1
-30.630883 -0.696731 30.243730 43.051360 0.022742 0.791887 0.077788 -0.021193 -1075640.000000 0 0 1
-31.878793 -0.438131 29.689530 43.565096 0.013743 0.820989 0.068255 -0.029766 -588171.000000 0 0 1
-32.851013 -0.065631 30.830330 45.052221 0.001998 0.817120 0.063346 -0.018314 -396690.000000 0 0 1
-33.102273 -1.226531 31.647030 45.812655 0.037036 0.808212 0.071981 -0.019675 -4224.170000 0 0 1
-33.833263 -0.939231 32.826230 47.150113 0.027753 0.800697 0.093987 -0.014367 94996.200000 0 0 1
-33.928813 -2.233631 33.706230 47.877587 0.065738 0.789770 0.091847 -0.014933 549223.000000 0 0 1
-34.911943 -3.106231 33.111230 48.216657 0.088740 0.813832 0.071159 -0.010653 279765.000000 0 0 1
-35.099816 -4.384731 33.711330 48.863859 0.124278 0.809441 0.063696 -0.006228 287336.000000 0 0 1
-36.290343 -5.328231 33.313930 49.549944 0.145781 0.833444 0.069062 -0.011631 182850.000000 0 0 1
35.607953 -5.006231 34.020730 49.501502 -0.139678 0.813077 0.078642 -0.022044 -944965.000000 0 0 1
34.518713 -5.661231 33.438130 48.391111 -0.162558 0.807928 0.072415 -0.025940 -369845.000000 0 0 1
33.200073 -5.166131 34.115130 47.882939 -0.154368 0.777785 0.085887 -0.029549 -228508.000000 0 0 1
32.825773 -5.722531 -32.877873 46.810611 -0.172596 2.349503 0.084940 -0.035913 316706.000000 0 0 1
32.310463 -7.068531 -32.882073 46.638620 -0.215376 2.353275 0.091506 -0.029572 -431423.000000 0 0 1
30.927773 -7.296331 -33.501773 46.175019 -0.231679 2.382613 0.075547 -0.031418 -662174.000000 0 0 1
29.871213 -6.905231 -32.657773 44.793992 -0.227176 2.387753 0.077199 -0.031080 -888800.000000 0 0 1
28.661523 -7.277131 -33.219973 44.474781 -0.248645 2.414244 0.079726 -0.025896 -1482490.000000 0 0 1
27.614763 -7.418231 -32.145073 43.022215 -0.262437 2.414596 0.072487 -0.022011 -1578690.000000 0 0 1
26.397363 -7.778831 -32.673173 42.718465 -0.286571 2.441603 0.062716 -0.023633 -526351.000000 0 0 1
25.326763 -7.140931 -31.966773 41.404256 -0.274818 2.452880 0.061848 -0.022852 163090.000000 0 0 1
23.902963 -7.610731 -32.312173 40.906618 -0.308252 2.481444 0.054773 -0.029975 -47443.400000 0 0 1
23.642163 -9.009831 -32.201473 40.951969 -0.364101 2.475631 0.058466 -0.035857 96194.100000 0 0 1
23.647963 -9.577131 -30.887373 40.062169 -0.384799 2.451184 0.063987 -0.035971 -573609.000000 0 0 1
23.248063 -11.070231 -30.949573 40.260384 -0.444410 2.447657 0.062246 -0.029134 91645.500000 0 0 1
21.958263 -11.403431 -31.453773 40.019288 -0.478986 2.475052 0.060367 -0.031660 507077.000000 0 0 1
21.784563 -12.844131 -31.589373 40.465138 -0.532736 2.466512 0.052954 -0.019838 -631818.000000 0 0 1
20.693363 -13.281031 -32.616973 40.846885 -0.570590 2.495626 0.040882 -0.015367 1826140.000000 0 0 1
19.292963 -13.071131 -32.267673 39.802960 -0.595470 2.516118 0.020807 -0.014365 1508510.000000 0 0 1
18.904263 -11.730031 -32.364473 39.273705 -0.555354 2.539363 0.023389 -0.024890 -1909560.000000 0 0 1
17.533063 -11.330931 -31.944173 38.160562 -0.573742 2.562755 0.040063 -0.027373 -928231.000000 0 0 1
16.484163 -11.986731 -32.647773 38.487484 -0.628727 2.583506 0.040354 -0.023943 -24895.600000 0 0 1
15.283863 -11.882331 -31.918173 37.330363 -0.660834 2.596384 0.069894 -0.036080 -361735.000000 0 0 1
14.054263 -12.216631 -32.772673 37.693719 -0.715563 2.624877 0.071259 -0.038092 -1500090.000000 0 0 1
13.789863 -13.605531 -32.844773 38.132006 -0.778670 2.608706 0.078887 -0.034111 -87946.600000 0 0 1
12.570363 -13.880231 -33.469573 38.352147 -0.834879 2.631483 0.077154 -0.037932 -879315.000000 0 0 1
11.358663 -13.732631 -32.588973 37.143580 -0.879731 2.641167 0.077724 -0.036565 -1220410.000000 0 0 1
10.803963 -12.387131 -32.455373 36.380185 -0.853559 2.672805 0.101828 -0.030428 60388.900000 0 0 1
9.787663 -12.408631 -31.468073 35.213805 -0.902935 2.676163 0.105964 -0.037348 310547.000000 0 0 1
8.569163 -11.518931 -31.810873 34.900544 -0.931198 2.717645 0.097506 -0.031244 -233406.000000 0 0 1
8.967063 -10.180631 -31.932873 34.695271 -0.848693 2.739850 0.088549 -0.026266 -200961.000000 0 0 1
7.935963 -9.277431 -32.196673 34.433646 -0.863173 2.779155 0.091738 -0.019481 -523163.000000 0 0 1
8.376663 -7.821031 -32.521173 34.481353 -0.751108 2.802788 0.094672 -0.014476 -280306.000000 0 0 1
8.814063 -7.148431 -31.343073 33.334307 -0.681428 2.794203 0.074810 -0.021432 160405.000000 0 0 1
9.282463 -5.890731 -31.665973 33.520123 -0.565479 2.807431 0.067314 -0.016937 -572763.000000 0 0 1
9.414463 -4.883531 -30.540873 32.329954 -0.478516 2.807359 0.063753 -0.020767 889268.000000 0 0 1
8.161163 -4.426131 -29.956973 31.362644 -0.496944 2.841064 0.072382 -0.023108 943534.000000 0 0 1
8.403163 -3.567031 -28.909173 30.316285 -0.401436 2.835724 0.062914 -0.020543 -504006.000000 0 0 1
7.142763 -2.914931 -28.392473 29.421904 -0.387466 2.876283 0.066429 -0.026802 -1977900.000000 0 0 1
6.552263 -2.002831 -29.301473 30.091856 -0.296651 2.911891 0.058322 -0.016145 87068.500000 0 0 1
5.281463 -1.541031 -28.891673 29.410838 -0.283900 2.953421 0.085810 -0.024336 195052.000000 0 0 1
4.144763 -2.590131 -28.949173 29.358857 -0.558539 2.974339 0.082584 -0.028146 -1550590.000000 0 0 1
4.208863 -3.680931 -28.077573 28.628900 -0.718584 2.945023 0.079123 -0.032455 134811.000000 0 0 1
3.016663 -4.472631 -27.975773 28.491201 -0.977410 2.951090 0.083866 -0.028124 574525.000000 0 0 1
3.091063 -5.551331 -26.860273 27.601562 -1.062736 2.909309 0.062424 -0.028287 -175899.000000 0 0 1
3.010863 -5.138731 -25.499673 26.185973 -1.040797 2.912141 0.063648 -0.032443 142074.000000 0 0 1
3.308763 -6.224131 -24.651773 25.639767 -1.082188 2.863083 0.055958 -0.031775 -116907.000000 0 0 1
3.231463 -5.775031 -23.198273 24.123706 -1.060645 2.863709 0.056964 -0.030366 189913.000000 0 1 0
4.273663 -4.864131 -22.898573 23.796399 -0.849927 2.866024 0.056737 -0.030290 202628.000000 0 1 0
3.913763 -4.179231 -21.727873 22.469623 -0.818189 2.883932 0.052916 -0.025280 120027.000000 0 1 0
4.796163 -2.963231 -21.345873 22.077822 -0.553429 2.883376 0.057054 -0.029614 -636908.000000 0 1 0
6.066063 -3.283631 -20.903673 22.012335 -0.496148 2.822864 0.045476 -0.032054 -1160200.000000 0 1 0
6.737463 -2.184231 -20.422273 21.615585 -0.313501 2.807761 0.049902 -0.025510 -951215.000000 0 1 0
8.187163 -2.552631 -20.159573 21.907851 -0.302233 2.739384 0.053649 -0.022842 -1404240.000000 0 1 0
8.918863 -2.675731 -21.357673 23.299267 -0.291464 2.730456 0.056190 -0.028872 794021.000000 0 1 0
10.239763 -3.223031 -21.208173 23.770302 -0.304939 2.673018 0.050702 -0.024329 1631450.000000 0 1 0
11.380863 -2.449731 -20.446873 23.528702 -0.212015 2.624011 0.047732 -0.021050 -160133.000000 0 1 0
11.182263 -2.271931 -19.055773 22.210969 -0.200444 2.602051 0.046538 -0.015863 307253.000000 0 1 0
12.295863 -1.714031 -18.353673 22.158147 -0.138506 2.546869 0.048391 -0.020418 51949.900000 0 1 0
12.519163 -0.177931 -18.353973 22.217773 -0.014212 2.542937 0.037843 -0.019835 -254173.000000 0 1 0
13.151763 0.282569 -19.493073 23.516560 0.021482 2.547950 0.052968 -0.023945 78769.900000 0 1 0
13.158363 1.677869 -19.547773 23.623573 0.126829 2.545381 0.065579 -0.031778 18294.700000 0 1 0
13.504363 2.237369 -20.969373 25.041730 0.164186 2.563264 0.061762 -0.022628 618771.000000 0 0 1
14.904063 2.311369 -21.261473 26.067676 0.153858 2.524607 0.066220 -0.018402 799504.000000 0 0 1
15.046063 3.328269 -22.257473 27.071322 0.217700 2.536025 0.064775 -0.020598 -316121.000000 0 0 1
16.441063 3.289769 -22.888273 28.372595 0.197487 2.509349 0.057588 -0.008897 -209605.000000 0 0 1
16.612863 2.168869 -23.819673 29.121608 0.129819 2.528614 0.046017 -0.005329 288023.000000 0 0 1
17.483363 1.162969 -23.282373 29.139138 0.066421 2.496438 0.054849 -0.007107 -17386.700000 0 0 1
9.694667 26.883169 3.385030 28.777592 1.224690 1.452896 0.019067 -0.002911 36514.800000 0 0 1
9.620667 27.324569 4.697630 29.347181 1.232262 1.410034 0.019912 -0.002241 182543.000000 0 0 1
10.916967 27.397769 5.254530 29.957103 1.191617 1.394482 0.028940 -0.000746 -154652.000000 0 0 1
10.920367 28.026569 6.685730 30.813016 1.199250 1.352079 0.027214 -0.017977 -41674.400000 0 0 1
10.550567 27.041469 7.663330 30.021361 1.198799 1.312677 0.024716 -0.021928 104525.000000 0 0 1
10.628067 27.597469 8.940430 30.895103 1.203192 1.277217 0.026998 -0.019982 -589307.000000 0 0 1
10.517167 26.611269 10.105430 30.346172 1.194422 1.231308 0.034284 -0.020230 -589096.000000 0 0 1
11.640467 25.865669 10.426630 30.219992 1.147913 1.218532 0.030313 -0.022738 -613001.000000 0 0 1
12.304767 25.135369 9.424330 29.529850 1.115552 1.245968 0.029898 -0.025906 -351595.000000 0 0 1
13.569567 24.448769 10.001630 29.696937 1.064107 1.227291 0.046646 -0.030472 408870.000000 0 0 1
14.652367 25.340169 10.250930 31.014474 1.046540 1.233941 0.049772 -0.027370 367107.000000 0 0 1
15.815367 24.744069 10.780730 31.282886 1.002081 1.218962 0.063937 -0.032041 -43643.400000 0 0 1
16.912267 25.737769 11.127730 32.745746 0.989447 1.224069 0.063951 -0.031379 -446096.000000 0 0 1
17.557867 26.338269 9.985630 33.191805 0.982819 1.265216 0.069867 -0.032377 605947.000000 0 0 1
18.975167 26.392069 9.978730 34.002549 0.947450 1.272942 0.078865 -0.042479 454045.000000 0 0 1
19.708467 27.338769 11.006430 35.453822 0.946182 1.255136 0.076697 -0.035621 -321727.000000 0 0 1
19.749367 28.727669 10.795830 36.494745 0.968530 1.270484 0.085011 -0.046978 -1067410.000000 0 0 1
18.546967 29.358069 10.969530 36.417260 1.007358 1.264827 0.064542 -0.031634 -1164830.000000 0 0 1
18.670567 30.898969 11.260630 37.817167 1.027261 1.268446 0.055899 -0.022543 -749047.000000 0 0 1
19.001467 31.748669 10.110330 38.356910 1.031483 1.304059 0.074862 -0.039974 -44602.500000 0 0 1
18.080667 31.864869 9.046730 37.737564 1.054680 1.328711 0.073309 -0.047084 853536.000000 0 0 1
16.597067 32.261469 9.393730 37.476755 1.095652 1.317440 0.065937 -0.034363 393551.000000 0 0 1
16.624767 33.540669 10.046830 38.759491 1.110627 1.308593 0.064090 -0.031180 -666692.000000 0 0 1
15.413467 -33.973924 9.943430 38.609251 -1.144882 1.310321 0.059753 -0.016382 -591665.000000 0 0 1
15.533167 -32.500324 10.370630 37.484667 -1.124953 1.290476 0.052885 -0.013930 -782018.000000 0 0 1
16.232267 -31.839324 9.449830 36.966584 -1.099325 1.312295 0.050177 -0.015079 -610513.000000 0 0 1
16.206167 -30.451024 9.569530 35.797774 -1.081718 1.300184 0.044458 -0.012900 122965.000000 0 0 1
16.997367 -29.730824 8.441230 35.271614 -1.051439 1.329130 0.033609 -0.013087 274017.000000 0 0 1
16.372467 -30.079324 7.167330 34.988484 -1.072332 1.364488 0.029529 -0.017014 113371.000000 0 0 1
16.877467 -29.348524 6.120930 34.404223 -1.048909 1.391932 0.027796 -0.000842 -173639.000000 0 0 1
16.310167 -29.619724 4.676630 34.135326 -1.067453 1.433361 0.033245 0.002573 -53873.100000 0 0 1
16.668567 -30.843024 4.016230 35.288289 -1.075328 1.456737 0.038418 -0.006649 -101440.000000 0 0 1
16.680367 -30.738924 2.637730 35.072407 -1.073616 1.495517 0.036659 -0.004614 -90581.200000 0 0 1
17.013567 -32.167724 2.044730 36.447289 -1.084296 1.514666 0.048896 -0.010564 -822494.000000 0 0 1
18.357467 -32.491424 2.096630 37.377601 -1.056514 1.514674 0.044529 -0.005901 -839210.000000 0 0 1
18.545167 -33.747824 1.528030 38.537952 -1.068320 1.531136 0.071250 -0.008475 825999.000000 0 0 1
19.930967 33.737969 1.859330 39.229468 1.037200 1.523382 0.074031 -0.014492 853375.000000 0 0 1
20.094367 33.418569 3.179730 39.124098 1.029426 1.489434 0.070569 -0.040364 -256349.000000 0 0 1
21.360467 32.868769 3.393430 39.346422 0.994512 1.484444 0.070070 -0.026329 -378607.000000 0 0 1
21.807667 32.857869 4.912930 39.741047 0.984853 1.446856 0.068627 -0.024532 115498.000000 0 0 1
21.276767 31.901269 5.806930 38.782886 0.982593 1.420502 0.071818 -0.039555 24796.500000 0 0 1
22.127267 30.799769 5.667730 38.345337 0.947813 1.422445 0.057707 -0.049316 105353.000000 0 0 1
21.648467 29.568569 6.420830 37.204616 0.938821 1.397346 0.083004 -0.050614 578771.000000 0 0 1
20.537867 28.861269 5.846630 35.902088 0.952323 1.407219 0.080654 -0.043493 755977.000000 0 0 1
19.605967 28.452569 6.843930 35.224736 0.967440 1.375259 0.082046 -0.049863 30032.200000 0 0 1
18.118967 28.633569 6.511930 34.504833 1.006617 1.380933 0.090009 -0.043333 -8497.590000 0 0 1
17.511667 29.932869 6.501830 35.283267 1.041456 1.385462 0.074735 -0.042230 348333.000000 0 0 1
17.848567 30.670169 5.317230 35.881800 1.043753 1.422061 0.087291 -0.045191 -262872.000000 0 0 1
17.723467 32.245969 5.524930 37.208180 1.068234 1.421758 0.091761 -0.040244 2341.300000 0 0 1
16.403067 32.710769 5.651030 37.026871 1.105983 1.417578 0.066459 -0.038246 -261056.000000 0 0 1
16.401067 -34.062524 5.488530 38.201760 -1.122059 1.426625 0.064065 -0.040520 -448131.000000 0 0 1
15.018767 -33.432024 5.681730 37.088349 -1.148580 1.416996 0.052092 -0.030386 -67606.500000 0 0 1
14.145767 -33.595024 4.582630 36.738656 -1.172261 1.445735 0.052871 -0.020340 -191968.000000 0 0 1
13.174267 -32.598024 4.463330 35.441696 -1.186723 1.444527 0.047561 -0.010742 25931.500000 0 0 1
12.382267 -32.544024 3.132730 34.960664 -1.207232 1.481069 0.051102 -0.005435 257700.000000 0 0 1
11.366967 -31.551124 3.129530 33.681973 -1.225001 1.477748 0.054660 -0.009371 20582.100000 0 0 1
10.782067 -31.448124 1.881030 33.298284 -1.240503 1.514276 0.053581 -0.008304 -911782.000000 0 0 1
9.814467 -30.217924 1.840030 31.825028 -1.256755 1.512947 0.064428 -0.011584 228735.000000 0 0 1
9.180867 -29.962024 0.613330 31.343059 -1.273463 1.551227 0.075278 -0.011367 326930.000000 0 0 1
8.217767 -30.953124 0.196730 32.026025 -1.311292 1.564653 0.060471 -0.012085 -856191.000000 0 0 1
8.552567 -31.720824 -1.130870 32.873028 -1.307439 1.605204 0.075790 -0.010632 -272723.000000 0 0 1
9.750367 -32.443824 -1.014170 33.892476 -1.278853 1.600724 0.072947 -0.013687 -264929.000000 0 0 1
9.939767 -33.300124 -2.065570 34.813271 -1.280725 1.630164 0.071406 -0.010716 733303.000000 0 0 1
11.287167 34.044269 -2.062270 35.925831 1.250657 1.628231 0.074964 -0.015164 831849.000000 0 0 1
11.324367 33.213269 -0.955270 35.103776 1.242198 1.598012 0.075424 -0.014426 31145.300000 0 0 1
12.560067 32.536769 -0.989670 34.890917 1.202393 1.599165 0.084022 -0.016973 -169319.000000 0 0 1
12.690767 31.610769 0.286530 34.064327 1.189024 1.562385 0.065977 -0.015404 -446053.000000 0 0 1
12.995367 32.171469 1.552730 34.731743 1.186897 1.526075 0.067161 -0.015961 -244448.000000 0 0 1
14.174467 32.914869 1.717130 35.878304 1.164158 1.522918 0.070701 -0.014950 389740.000000 0 0 1
15.450167 31.978369 1.858530 35.563716 1.120724 1.518513 0.080359 -0.021183 -62421.100000 0 0 1
16.055367 31.401069 0.753430 35.275624 1.098150 1.549436 0.089922 -0.018750 -519026.000000 0 0 1
17.024767 30.525669 1.242130 34.974306 1.062046 1.535273 0.090888 -0.016214 -396969.000000 0 0 1
17.917867 29.929969 0.133930 34.883677 1.031363 1.566957 0.089523 -0.010146 -267698.000000 0 0 1
18.825467 30.774369 -0.590670 36.080589 1.021800 1.587168 0.081869 0.004676 171585.000000 0 0 1
18.354467 31.955969 -1.247470 36.873115 1.049438 1.604634 0.072779 0.002076 -876086.000000 0 0 1
19.437467 32.634769 -2.059570 38.040572 1.033614 1.624964 0.058621 0.004557 19441.600000 0 0 1
20.506567 33.164069 -1.291770 39.013375 1.017003 1.603913 0.044495 0.006887 -108613.000000 0 0 1
21.352467 33.974769 -2.021370 40.178337 1.009698 1.621128 0.032338 0.008583 -452472.000000 0 0 1
22.629867 -33.583424 -1.361270 40.519258 -0.977844 1.604398 0.029291 0.008429 288108.000000 0 0 1
23.713767 33.771169 -0.980670 41.277068 0.958602 1.594557 0.032606 0.004533 365705.000000 0 0 1
24.318667 32.900869 -1.955970 40.959621 0.934276 1.618568 0.042037 0.009839 -399242.000000 0 0 1
25.035667 33.619069 -3.112870 42.032326 0.930705 1.644923 0.026240 0.002130 -1163080.000000 0 0 1
24.137267 -33.866024 -3.944470 41.774084 -0.951579 1.665361 0.023167 -0.004406 67111.300000 0 0 1
24.769467 -33.335424 -5.117370 41.844527 -0.931766 1.693398 0.021977 -0.006429 215562.000000 0 0 1
23.742467 -32.895724 -6.207370 41.041014 -0.945622 1.722627 0.021489 -0.010727 122530.000000 0 0 1
22.894167 -31.841824 -5.756770 39.638177 -0.947434 1.716545 0.031907 -0.004685 26199.300000 0 0 1
22.070867 -31.463024 -6.832670 39.034990 -0.959074 1.746742 0.038542 -0.012096 51932.800000 0 0 1
21.195667 -30.213624 -6.416470 37.460519 -0.959046 1.742931 0.059166 -0.018522 -298357.000000 0 0 1
19.953867 -30.574424 -5.922770 36.986909 -0.992573 1.731620 0.058752 -0.006637 -222169.000000 0 0 1
19.013467 -29.467424 -5.980270 35.575337 -0.997777 1.739700 0.074676 -0.022215 512688.000000 0 0 1
17.733467 -29.572924 -5.167870 34.867471 -1.030633 1.719559 0.070492 -0.011794 205314.000000 0 0 1
16.678867 -30.352824 -5.747970 35.107231 -1.068337 1.735263 0.071623 -0.011490 103155.000000 0 0 1
15.549067 -30.247824 -4.926270 34.365280 -1.095967 1.714642 0.056158 -0.011819 -225786.000000 0 0 1
14.458267 -31.336224 -5.056070 34.879281 -1.138510 1.716268 0.055777 -0.008856 11411.300000 0 0 1
14.799167 -32.677724 -4.807970 36.193446 -1.145548 1.704031 0.059652 -0.003415 -382979.000000 0 0 1
13.780667 -33.506124 -5.290070 36.613549 -1.180597 1.715788 0.070101 -0.001291 -236638.000000 0 0 1
14.059767 33.146669 -5.282370 36.390688 1.169630 1.716468 0.065127 0.000924 -117947.000000 0 0 1
14.278267 32.574269 -4.005170 35.790967 1.157690 1.682936 0.068412 -0.006178 -48657.200000 0 0 1
14.659067 31.200569 -4.058770 34.710768 1.131572 1.687996 0.080620 -0.013278 426122.000000 0 0 1
13.587967 30.122369 -4.479070 33.347444 1.147034 1.705519 0.084272 -0.021408 -455349.000000 0 0 1
12.526267 29.881569 -3.669170 32.607949 1.173851 1.683559 0.082542 -0.023843 -864865.000000 0 0 1
12.795467 28.774869 -2.795170 31.615345 1.152379 1.659324 0.090610 -0.024233 -114759.000000 0 0 1
11.521167 28.141569 -2.178870 30.486598 1.182213 1.642327 0.075318 -0.020315 208620.000000 0 0 1
10.905267 28.943969 -1.185370 30.952921 1.210473 1.609102 0.070531 -0.018739 34558.700000 0 0 1
9.983667 28.140269 -0.450370 29.862203 1.229868 1.585879 0.050088 -0.009458 144195.000000 0 0 1
8.862567 28.952669 0.221230 30.279549 1.273748 1.563490 0.037112 0.000777 -117053.000000 0 0 1
7.899267 28.220269 0.928030 29.319674 1.297867 1.539139 0.028150 -0.003322 -235343.000000 0 0 1
6.696767 28.951769 0.864530 29.728758 1.343486 1.541712 0.038983 0.003214 -271823.000000 0 0 1
5.455467 28.421769 1.581430 28.983789 1.381156 1.516207 0.032030 -0.005848 75926.400000 0 0 1
5.018467 27.203369 0.986030 27.679967 1.388368 1.535166 0.033446 -0.009494 -194892.000000 0 0 1
3.761367 26.804269 1.481530 27.107410 1.431380 1.516115 0.033216 -0.009534 27491.800000 0 0 1
3.194867 25.634269 0.683330 25.841631 1.446803 1.544350 0.034742 -0.012882 -951727.000000 0 0 1
1.885667 25.407869 1.043430 25.499104 1.496716 1.529865 0.034437 -0.005788 -1007850.000000 0 0 1
1.301867 24.392169 0.263730 24.428310 1.517475 1.560000 0.025069 -0.006038 -312024.000000 0 1 0
-0.084833 23.965369 0.727330 23.976554 -1.567257 1.540457 0.020918 -0.003062 243702.000000 0 1 0
-1.118433 24.968669 0.592430 25.000726 -1.526033 1.547098 0.035733 -0.008168 318429.000000 0 0 1
-2.281233 24.422069 1.180730 24.556783 -1.477658 1.522696 0.035675 -0.002316 -139185.000000 0 1 0
-3.482433 25.398769 1.369130 25.672930 -1.434536 1.517441 0.060788 -0.016137 -822172.000000 0 0 1
-4.562833 24.623069 1.765130 25.104395 -1.387568 1.500427 0.054235 -0.011451 -981227.000000 0 0 1
-5.625333 25.414069 2.215830 26.123346 -1.352961 1.485872 0.054527 -0.012440 -639823.000000 0 0 1
-6.774833 25.540369 1.255330 26.453444 -1.311508 1.523324 0.060310 -0.016381 -1160440.000000 0 0 1
-6.572033 26.492669 0.223030 27.296573 -1.327635 1.562626 0.068960 -0.015053 -239051.000000 0 0 1
-7.696033 26.768769 -0.570570 27.858957 -1.290846 1.591278 0.065798 -0.013349 -539951.000000 0 0 1
-7.512733 27.967469 -1.505070 28.998030 -1.308367 1.622722 0.059666 -0.010218 -87495.200000 0 0 1
-7.526233 29.290669 -0.947270 30.256980 -1.319287 1.602109 0.072557 -0.022352 -8549.000000 0 0 1
-7.336233 30.179169 -2.011170 31.123100 -1.332332 1.635461 0.067332 -0.020813 -115375.000000 0 0 1
-7.466633 31.656669 -1.569970 32.563171 -1.339167 1.619028 0.063419 -0.019756 -482368.000000 0 0 1
-7.576533 32.688669 -2.560070 33.652740 -1.343039 1.646943 0.054760 -0.006883 815780.000000 0 0 1
-6.500833 32.882069 -3.541170 33.705062 -1.375612 1.676054 0.045013 -0.014641 884643.000000 0 0 1
-5.164833 33.374969 -2.938370 33.899824 -1.417263 1.657583 0.054687 -0.017057 -718942.000000 0 0 1
-5.043733 -33.422224 -2.668670 33.905842 1.421017 1.649586 0.055211 -0.018488 434177.000000 0 0 1
-4.025633 -33.115324 -1.700670 33.402435 1.449826 1.621733 0.060613 -0.024999 466718.000000 0 0 1
-3.868133 -31.584024 -1.576170 31.859023 1.448932 1.620290 0.064718 -0.034583 -18436.500000 0 0 1
-5.022633 -31.003724 -1.019870 31.424479 1.410191 1.603257 0.067738 -0.027587 -167761.000000 0 0 1
-5.461433 -29.903824 -1.824270 30.453143 1.390154 1.630736 0.077253 -0.022503 783893.000000 0 0 1
-6.942333 -29.408324 -1.643870 30.261325 1.338974 1.625146 0.097208 -0.019935 771044.000000 0 0 1
-7.203233 -28.977724 -0.342470 29.861553 1.327156 1.582265 0.082635 -0.017873 -779373.000000 0 0 1
-8.413533 -28.288824 -0.320170 29.515210 1.281712 1.581644 0.058012 -0.020158 -269755.000000 0 0 1
-8.678433 -27.824824 1.106730 29.167806 1.268462 1.532844 0.059867 -0.017029 -157783.000000 0 0 1
-7.738333 -26.828024 1.381630 27.955922 1.289976 1.521354 0.061508 -0.028919 -436538.000000 0 0 1
-7.585433 -26.459624 2.730630 27.660565 1.291604 1.471916 0.061895 -0.023426 563654.000000 0 0 1
-8.637033 -25.467124 3.362230 27.101242 1.243825 1.446414 0.052319 -0.025556 365239.000000 0 0 1
-8.242333 -24.134924 3.242930 25.708893 1.241704 1.444319 0.057082 -0.027192 -758006.000000 0 0 1
-9.084933 -23.248624 3.924830 25.267347 1.198270 1.414833 0.051959 -0.020209 -416540.000000 0 0 1
-8.582433 -21.820224 4.209130 23.822198 1.196058 1.393174 0.035462 -0.006405 745979.000000 0 1 0
-7.424233 -21.776024 5.080930 23.561203 1.242219 1.353441 0.030978 -0.011597 530440.000000 0 1 0
-6.882133 -20.506824 5.343930 22.281184 1.247005 1.328595 0.017253 -0.010541 689756.000000 0 1 0
-7.928033 -19.499724 6.003630 21.889187 1.184638 1.292962 0.022571 -0.011503 650686.000000 0 1 0
-8.421633 -19.981324 7.255030 22.865097 1.171915 1.247918 0.031043 -0.014949 22890.700000 0 1 0
-9.237533 -18.979424 7.848230 22.519886 1.117835 1.214824 0.024584 -0.017784 -401038.000000 0 1 0
-27.177383 28.725969 -5.388570 39.910251 -0.813092 1.706227 0.098906 -0.011386 -398753.000000 0 0 1
-26.428363 29.446769 -4.499470 39.822303 -0.839366 1.684027 0.097481 -0.032784 -248436.000000 0 0 1
-25.233073 28.745569 -4.160070 38.474952 -0.850379 1.679132 0.078619 -0.026049 526828.000000 0 0 1
-24.289033 29.642469 -3.303670 38.464885 -0.884338 1.656790 0.069407 -0.032954 -90413.000000 0 0 1
-24.779933 29.917569 -1.982870 38.897787 -0.879052 1.621795 0.060669 -0.037328 418752.000000 0 0 1
-24.110633 31.089269 -1.425870 39.368749 -0.911156 1.607023 0.059887 -0.037291 1529730.000000 0 0 1
-22.654433 30.844069 -0.840970 38.279070 -0.937301 1.592768 0.059698 -0.026811 630057.000000 0 0 1
-21.661433 30.536469 -1.768170 37.480929 -0.953814 1.617989 0.061630 -0.031235 -1028310.000000 0 0 1
-20.484233 30.468969 -1.027770 36.728983 -0.978905 1.598783 0.046420 -0.023436 -612618.000000 0 0 1
-19.278233 29.855169 -1.758070 35.581909 -0.997432 1.620226 0.066238 -0.023363 -901127.000000 0 0 1
-18.128533 29.800169 -1.035370 34.896501 -1.024270 1.600470 0.057361 -0.017278 -703840.000000 0 0 1
-17.051633 29.050469 -1.607570 33.723467 -1.040016 1.618484 0.045318 -0.013267 300195.000000 0 0 1
-15.710933 29.398669 -0.959670 33.347206 -1.080001 1.599578 0.045859 -0.011969 -443617.000000 0 0 1
-15.628633 28.949669 0.344630 32.900704 -1.075775 1.560321 0.039727 -0.017804 581499.000000 0 0 1
-14.544533 29.564269 1.065030 32.965493 -1.113599 1.538483 0.041469 -0.019296 497786.000000 0 0 1
-14.016033 28.859369 2.330430 32.167426 -1.118681 1.498286 0.031903 -0.019955 -709955.000000 0 0 1
-14.824133 29.058269 3.432730 32.801243 -1.099060 1.465952 0.032894 -0.011866 -573131.000000 0 0 1
-14.455533 28.341969 4.587030 32.144525 -1.099149 1.427607 0.024554 -0.025523 424451.000000 0 0 1
-13.214233 28.941069 5.345930 32.261128 -1.142475 1.404320 0.042932 -0.024719 42268.300000 0 0 1
-13.296533 30.205369 6.037530 33.550170 -1.156118 1.389855 0.045148 -0.041034 -507138.000000 0 0 1
-13.299833 31.359069 5.239930 34.463512 -1.169676 1.418162 0.050639 -0.027688 -239732.000000 0 0 1
-13.122333 32.649769 5.974330 35.691675 -1.188643 1.402617 0.056317 -0.025813 -402124.000000 0 0 1
-14.216933 33.118169 6.708830 36.659824 -1.165307 1.386757 0.046406 -0.019959 -107478.000000 0 0 1
-13.935533 -33.832024 7.297530 37.310305 1.180071 1.373937 0.072890 -0.032063 553784.000000 0 0 1
-15.184333 -33.534224 8.181930 37.710106 1.145615 1.352088 0.072621 -0.026262 571813.000000 0 0 1
-15.435533 33.779169 9.236930 38.270208 -1.142174 1.327028 0.065750 -0.026854 -488576.000000 0 0 1
-16.685333 33.969869 9.830130 39.102223 -1.114229 1.316674 0.079826 -0.026575 -889427.000000 0 0 1
-17.020333 33.140969 11.108630 38.876950 -1.096349 1.281020 0.081192 -0.022746 232574.000000 0 0 1
-16.307033 33.446369 12.298930 39.189828 -1.117152 1.251573 0.094187 -0.024357 -389267.000000 0 0 1
-14.926633 33.218269 12.286030 38.434416 -1.148483 1.245423 0.086076 -0.023106 -567206.000000 0 0 1
-14.276933 33.408869 13.675530 38.820143 -1.166946 1.210791 0.077149 -0.022917 -126729.000000 0 0 1
-14.563033 32.372069 14.615230 38.387990 -1.148055 1.180217 0.071990 -0.018708 -236780.000000 0 0 1
-13.493433 31.471869 14.691730 37.261216 -1.165757 1.165501 0.055480 -0.016918 -276608.000000 0 0 1
-13.955533 30.051069 14.267530 36.074729 -1.136037 1.164185 0.049839 -0.015291 -63977.200000 0 0 1
-14.111633 29.980269 12.880930 35.550993 -1.130864 1.200038 0.045304 -0.016478 934346.000000 0 0 1
-15.442633 29.583169 12.498630 35.635019 -1.089698 1.212435 0.034674 -0.021870 739808.000000 0 0 1
-15.635833 29.597969 10.976530 35.227876 -1.084786 1.253934 0.029484 -0.021400 50687.300000 0 0 1
-14.991833 28.421769 10.442930 33.787672 -1.085409 1.256576 0.023288 -0.017777 435874.000000 0 0 1
-15.115933 28.397769 9.026530 33.412617 -1.081649 1.297244 0.018442 -0.018092 -261538.000000 0 0 1
-14.534233 27.052969 8.511530 31.867746 -1.077794 1.300425 0.017179 -0.017384 13678.600000 0 0 1
-13.133933 26.937269 8.601630 31.178594 -1.117138 1.291289 0.042358 -0.027111 3023.810000 0 0 1
-12.646733 25.691869 8.175930 29.780158 -1.113371 1.292682 0.036652 -0.028471 96976.100000 0 0 1
-11.287933 25.731869 7.448530 29.069350 -1.157400 1.311673 0.065585 -0.035452 97887.700000 0 0 1
-11.464933 26.174569 6.104830 29.220228 -1.157951 1.360321 0.067008 -0.028011 513606.000000 0 0 1
-10.313833 25.808169 5.353230 28.303601 -1.190605 1.380514 0.100612 -0.023879 160736.000000 0 0 1
-10.348233 26.269169 3.868630 28.497745 -1.195533 1.434624 0.074673 -0.014013 -85294.800000 0 0 1
-10.224233 27.631469 3.593730 29.680767 -1.216398 1.449419 0.075938 -0.016425 114293.000000 0 0 1
-10.427433 27.926169 2.232730 29.892932 -1.213435 1.496036 0.074588 -0.015675 -193453.000000 0 0 1
-10.082533 29.331869 1.828830 31.070253 -1.239709 1.511901 0.086023 -0.014900 13952.500000 0 0 1
-10.923733 30.275769 2.433430 32.278038 -1.224526 1.495335 0.059036 -0.022084 -178735.000000 0 0 1
-10.636133 31.529169 1.895230 33.328782 -1.245442 1.513901 0.070007 -0.017523 -130121.000000 0 0 1
-11.227233 32.822969 2.515830 34.781137 -1.241218 1.498400 0.062258 -0.014606 269335.000000 0 0 1
-12.548733 33.186569 2.146930 35.544738 -1.209287 1.510359 0.056054 -0.020229 41393.300000 0 0 1
-12.598533 34.029069 1.055930 36.301730 -1.216215 1.541705 0.049557 -0.014282 596999.000000 0 0 1
-14.052433 -33.802624 0.565530 36.611584 1.176812 1.555349 0.056332 -0.015506 955646.000000 0 0 1
-14.724733 33.349769 -0.170170 36.456191 -1.155013 1.575464 0.053036 -0.012916 111973.000000 0 0 1
-14.709433 33.509569 -1.570970 36.629586 -1.157159 1.613698 0.037900 -0.008509 413233.000000 0 0 1
-13.390833 33.178569 -2.363370 35.856902 -1.187191 1.636755 0.045638 -0.008109 348739.000000 0 0 1
-13.132333 31.788169 -2.410870 34.478373 -1.179031 1.640778 0.037456 -0.006057 193032.000000 0 0 1
-11.738333 31.554169 -2.528770 33.761646 -1.214653 1.645767 0.039271 -0.005208 265813.000000 0 0 1
-11.260733 30.106669 -2.582870 32.247277 -1.212878 1.650978 0.018432 -0.007201 -118934.000000 0 0 1
-11.482933 29.522569 -3.869170 31.912542 -1.199848 1.692338 0.021981 -0.010111 51729.500000 0 0 1
-10.349833 29.544469 -4.733070 31.660649 -1.233842 1.720853 0.018860 -0.009280 286131.000000 0 0 1
-10.710733 28.960569 -6.113370 31.477098 -1.216558 1.766255 0.024329 -0.011293 -183115.000000 0 0 1
-11.137433 27.643669 -6.109170 30.422637 -1.187799 1.772981 0.019755 -0.007765 -98837.400000 0 0 1
-10.720033 26.966269 -7.297470 29.922431 -1.192417 1.817161 0.021448 -0.006280 191789.000000 0 0 1
-11.281033 25.554669 -7.471670 28.915890 -1.155078 1.832155 0.040111 -0.016256 147220.000000 0 0 1
-10.782933 24.660869 -6.504570 27.690062 -1.158597 1.807919 0.021636 -0.010872 -21695.900000 0 0 1
-11.366033 23.385369 -6.698770 26.850246 -1.118386 1.822946 0.054210 -0.029274 -170545.000000 0 0 1
-10.648333 22.348969 -5.876070 25.443892 -1.126160 1.803842 0.055828 -0.032255 -339491.000000 0 0 1
-9.302133 22.062069 -6.181170 24.727949 -1.171780 1.823442 0.053929 -0.032099 187254.000000 0 1 0
-8.733533 20.827169 -5.614070 23.271514 -1.173735 1.814442 0.056128 -0.030346 189833.000000 0 1 0
-8.428133 20.668269 -4.088670 22.692025 -1.183600 1.751967 0.041450 -0.031388 -343930.000000 0 1 0
-9.520733 20.710269 -3.201770 23.017622 -1.139896 1.710350 0.054448 -0.034519 -478973.000000 0 1 0
-10.106533 19.432169 -3.091870 22.120372 -1.091204 1.711030 0.050982 -0.035758 44033.300000 0 1 0
-11.409733 19.429369 -2.252270 22.644097 -1.039811 1.670425 0.047470 -0.030776 94777.200000 0 1 0
-11.241833 19.437869 -0.846270 22.470553 -1.046450 1.608467 0.037612 -0.032193 188270.000000 0 1 0
-10.763533 18.234369 -0.226170 21.175387 -1.037548 1.581477 0.037311 -0.022505 -499712.000000 0 1 0
-10.788033 18.394869 1.278530 21.363228 -1.040385 1.510913 0.038940 -0.018746 -1214710.000000 0 1 0
-12.009033 18.217569 1.869930 21.899620 -0.987980 1.485306 0.060462 -0.031128 -1071490.000000 0 1 0
-12.045633 18.718969 3.149430 22.481459 -0.999005 1.430244 0.065322 -0.013074 500627.000000 0 1 0
-13.380433 18.627269 3.971630 23.276275 -0.947877 1.399327 0.060324 -0.024710 615090.000000 0 1 0
-13.781033 17.295369 4.355930 22.539317 -0.898007 1.376313 0.043292 -0.022389 -482102.000000 0 1 0
-15.043733 17.321369 4.918430 23.463476 -0.855656 1.359609 0.061136 -0.031287 -814407.000000 0 1 0
-15.494233 15.955469 5.445730 22.897690 -0.800063 1.330666 0.044756 -0.020988 -692640.000000 0 1 0
-14.809033 15.439369 6.563630 22.377730 -0.806234 1.273108 0.047905 -0.019201 -99489.300000 0 1 0
-15.158733 15.931069 7.832030 23.343668 -0.810235 1.228650 0.035429 -0.015884 -1434200.000000 0 1 0
-14.071433 15.823669 8.890830 22.966075 -0.843944 1.173281 0.031069 -0.007896 400984.000000 0 1 0
-12.890733 16.613769 8.764930 22.781842 -0.910920 1.175878 0.037434 -0.021410 914890.000000 0 1 0
-12.014933 16.212169 7.686230 21.593313 -0.933012 1.206861 0.040024 -0.022380 -535350.000000 0 1 0
-10.762633 17.072569 7.459030 21.516134 -1.008320 1.216776 0.057568 -0.030919 226265.000000 0 1 0
-9.865033 17.029969 8.561530 21.462491 -1.045755 1.160472 0.059887 -0.028995 154754.000000 0 1 0
-9.013333 18.180569 8.523930 22.009785 -1.110541 1.173118 0.051024 -0.031574 100907.000000 0 1 0
-7.830233 18.246269 9.533730 22.025687 -1.165423 1.123149 0.040059 -0.021588 925274.000000 0 1 0
-6.724633 17.602469 8.826330 20.807972 -1.205879 1.132740 0.027575 -0.019306 1351270.000000 0 1 0
-5.434133 17.605369 9.477430 20.719568 -1.271411 1.095711 0.021312 -0.020045 954635.000000 0 1 0
-4.526333 18.727669 8.973530 21.254118 -1.333652 1.134923 0.021671 -0.017186 -1758820.000000 0 1 0
-4.855933 20.054569 9.335330 22.647609 -1.333233 1.145930 0.030280 -0.020126 -231774.000000 0 1 0
-4.424333 21.065569 8.478330 23.134714 -1.363779 1.195577 0.039641 -0.024343 215125.000000 0 1 0
-2.969733 21.603069 8.638730 23.455054 -1.434184 1.193606 0.037662 -0.022927 -515410.000000 0 1 0
-1.998533 20.676869 8.464330 22.431494 -1.474440 1.183873 0.025646 -0.012393 -679922.000000 0 1 0
-0.780333 21.357269 8.111130 22.858965 -1.534275 1.208060 0.016454 -0.019728 1138870.000000 0 1 0
0.493867 20.478369 7.951330 21.973419 1.546684 1.200533 0.003053 -0.015287 680149.000000 0 1 0
0.949667 19.845269 9.148630 21.873134 1.522979 1.139269 0.002473 -0.017495 -430028.000000 0 1 0
2.347767 19.672469 9.157030 21.825885 1.452015 1.137848 0.002815 -0.009724 -26305.300000 0 1 0
2.829367 18.934769 10.407430 21.790948 1.422467 1.072872 -0.004297 -0.030225 20781.300000 0 1 0
4.201367 18.637369 10.549930 21.824391 1.349075 1.066261 0.019766 -0.012706 -114214.000000 0 1 0
4.422967 18.010769 11.770230 21.965627 1.329988 1.005285 0.016455 -0.017080 1058050.000000 0 1 0
5.958967 18.065869 12.130230 22.561635 1.252187 1.003151 0.029090 -0.020509 1234560.000000 0 1 0
6.731467 17.150569 11.352730 21.641145 1.196779 1.018563 0.021712 -0.020330 478127.000000 0 1 0
7.828567 16.565769 12.071830 21.941747 1.129329 0.988221 0.031579 -0.015125 120531.000000 0 1 0
8.985667 16.030369 11.253430 21.548889 1.059897 1.021335 0.051753 -0.022658 54393.700000 0 1 0
9.837667 17.081869 10.708930 22.433259 1.048276 1.073139 0.060412 -0.033879 1063570.000000 0 1 0
10.925367 16.481769 9.962930 22.142094 0.985423 1.104082 0.060132 -0.035846 184682.000000 0 1 0
11.936667 17.488369 9.461630 23.191583 0.971879 1.150559 0.065120 -0.021926 -59338.300000 0 1 0
12.942967 16.967669 8.615330 23.014041 0.919152 1.187100 0.067418 -0.022148 -451931.000000 0 1 0
14.026467 17.814169 8.439230 24.193119 0.903800 1.214476 0.072813 -0.029225 159739.000000 0 1 0
15.114467 17.368269 7.398330 24.183448 0.854672 1.259886 0.069772 -0.033870 858381.000000 0 1 0
15.974367 16.273169 7.786330 24.096128 0.794664 1.241755 0.082116 -0.041542 327316.000000 0 1 0
17.017867 16.125769 6.848630 24.424413 0.758489 1.286584 0.103334 -0.032968 -73455.500000 0 1 0
18.429967 16.205369 7.440330 25.644418 0.721257 1.276429 0.084423 -0.029747 -307888.000000 0 0 1
18.908967 15.090469 8.189130 25.540813 0.673556 1.244403 0.092629 -0.026998 640877.000000 0 0 1
19.911667 15.495769 9.134230 26.833328 0.661322 1.223448 0.079292 -0.022088 162300.000000 0 0 1
20.106567 14.391969 10.210930 26.751933 0.621241 1.179173 0.060664 -0.017011 -282339.000000 0 0 1
20.572067 13.207369 9.668430 26.289220 0.570734 1.194185 0.055229 -0.016298 196169.000000 0 0 1
20.711667 12.207369 10.631830 26.287427 0.532586 1.154424 0.063065 -0.020840 -468349.000000 0 0 1
21.611967 11.132069 10.002330 26.287767 0.475645 1.180466 0.052963 -0.016217 -422322.000000 0 0 1
22.995967 11.458869 10.089230 27.602767 0.462286 1.196610 0.046615 -0.020155 1187390.000000 0 0 1
23.913767 10.554769 9.423330 27.786157 0.415652 1.224796 0.062543 -0.014827 141692.000000 0 0 1
24.003567 9.068769 9.838830 27.481200 0.361231 1.204649 0.071656 -0.017333 47403.800000 0 0 1
22.769867 8.315069 9.842530 26.162619 0.350132 1.185098 0.069837 -0.016257 1185040.000000 0 0 1
22.968067 6.954869 10.256830 26.097986 0.294029 1.166891 0.072320 -0.017624 -266518.000000 0 0 1
23.883867 6.037469 9.389930 26.364008 0.247598 1.206636 0.071270 -0.021400 229769.000000 0 0 1
23.394067 5.855369 8.089830 25.436451 0.245254 1.247134 0.059812 -0.015997 1295330.000000 0 0 1
24.539467 5.715869 7.187730 26.201528 0.228845 1.292909 0.064772 -0.011714 1047340.000000 0 0 1
24.176667 5.392069 5.736730 25.426280 0.219437 1.343215 0.067554 -0.018733 -85825.100000 0 0 1
23.585267 4.089469 5.481930 24.556875 0.171684 1.345665 0.087453 -0.017855 673154.000000 0 1 0
23.301567 3.857469 4.080930 23.968669 0.164058 1.399702 0.090752 -0.029847 -427598.000000 0 1 0
22.425167 2.648269 3.948130 22.923551 0.117549 1.397703 0.092356 -0.025562 -461878.000000 0 1 0
23.134467 1.477569 4.182630 23.555916 0.063782 1.392288 0.110007 -0.025638 336137.000000 0 1 0
22.265267 0.389469 3.929630 22.612735 0.017490 1.396130 0.104470 -0.027020 314513.000000 0 1 0
22.920367 -1.028131 4.280930 23.339379 -0.044827 1.386331 0.112232 -0.023515 -240110.000000 0 1 0
23.029767 -1.286231 5.660530 23.750077 -0.055793 1.330143 0.114748 -0.023762 655597.000000 0 1 0
23.043767 -2.718631 5.836730 23.926420 -0.117434 1.324365 0.096246 -0.022043 -455075.000000 0 1 0
22.791867 -3.106531 7.265430 24.122732 -0.135465 1.264860 0.115599 -0.018141 -164150.000000 0 1 0
22.674367 -4.531731 7.350030 24.262861 -0.197262 1.263027 0.093959 -0.025005 450637.000000 0 1 0
22.566867 -4.911231 8.647330 24.660900 -0.214289 1.212532 0.106381 -0.024926 -137231.000000 0 1 0
22.482867 -6.399831 8.897330 25.011989 -0.277319 1.207109 0.127067 -0.032836 1011860.000000 0 0 1
21.244767 -6.947631 8.375430 23.869594 -0.316065 1.212283 0.143743 -0.037998 1186320.000000 0 1 0
20.949967 -8.190831 8.949130 24.209043 -0.372699 1.192153 0.127528 -0.034163 -116331.000000 0 1 0
-27.390403 -32.608724 4.724530 42.847220 0.872153 1.460307 0.030225 -0.024294 142143.000000 0 0 1
-27.725603 -33.734824 5.570430 44.020190 0.882862 1.443914 0.048861 -0.018128 107220.000000 0 0 1
-27.851553 -33.384324 6.944930 44.027879 0.875505 1.412395 0.055169 -0.012263 -125397.000000 0 0 1
-28.459923 33.567069 7.708730 44.678181 -0.867550 1.397390 0.068694 -0.006602 542554.000000 0 0 1
-29.816673 33.305569 7.366130 45.305130 -0.840614 1.407482 0.065727 -0.011036 173324.000000 0 0 1
-30.336763 32.055369 7.798330 44.818298 -0.812936 1.395907 0.075690 -0.004274 -223593.000000 0 0 1
-31.855303 31.941369 7.826530 45.784997 -0.786747 1.399012 0.057101 -0.002010 -263447.000000 0 0 1
-32.438393 32.167569 6.537130 46.149062 -0.781206 1.428666 0.046654 -0.000096 -407966.000000 0 0 1
-33.836863 32.219769 6.603330 47.187401 -0.760923 1.430397 0.024295 0.005546 -161673.000000 0 0 1
-34.501024 32.208069 5.171530 47.480787 -0.751039 1.461661 0.003112 0.012187 -150467.000000 0 0 1
-34.415992 30.908669 4.545330 46.480817 -0.731759 1.472850 0.010976 0.005138 405281.000000 0 0 1
-35.256015 30.823369 3.409730 46.954158 -0.718418 1.498114 0.010219 0.011603 1152.450000 0 0 1
-34.944020 29.499569 2.653830 45.807771 -0.701114 1.512830 0.018379 0.000346 133765.000000 0 0 1
-35.126168 28.343769 3.410230 45.264187 -0.678942 1.495384 0.029787 -0.004728 -41337.700000 0 0 1
-34.338469 27.316369 2.894830 43.973794 -0.671993 1.504918 0.042241 -0.008972 -286980.000000 0 0 1
-34.587913 25.916769 3.544630 43.365505 -0.643054 1.488967 0.061025 -0.007483 -334831.000000 0 0 1
-35.906627 25.455869 3.364630 44.143039 -0.616705 1.494501 0.066229 -0.006996 -396302.000000 0 0 1
-36.299583 24.512969 4.326430 44.014354 -0.593953 1.472341 0.073632 -0.007817 982654.000000 0 0 1
35.234103 24.173069 4.250230 42.940002 0.601316 1.471653 0.073746 -0.012622 741433.000000 0 0 1
34.745853 23.391269 3.188130 42.007022 0.592519 1.494828 0.083020 -0.015469 -37938.500000 0 0 1
35.105933 22.008469 3.102030 41.550233 0.559976 1.496069 0.085260 -0.016353 -910187.000000 0 0 1
34.120953 21.249769 2.250730 40.259880 0.557000 1.514862 0.103290 -0.020553 -336135.000000 0 0 1
32.769513 21.130969 2.618630 39.079612 0.572737 1.503739 0.112015 -0.030575 81907.500000 0 0 1
32.572633 20.170369 3.686730 38.489118 0.554449 1.474863 0.090836 -0.020679 -635451.000000 0 0 1
32.978933 18.710269 3.611130 38.088377 0.516059 1.475844 0.109293 -0.031933 -440052.000000 0 0 1
32.392143 17.987969 2.544030 37.138794 0.506918 1.502242 0.106176 -0.042409 173388.000000 0 0 1
32.610873 16.550869 2.553330 36.659512 0.469650 1.501090 0.092688 -0.039138 -250957.000000 0 0 1
31.728083 15.791669 3.558830 35.619002 0.461821 1.470716 0.108807 -0.040966 -356829.000000 0 0 1
30.366383 15.910769 3.243330 34.435287 0.482631 1.476470 0.105286 -0.036197 134951.000000 0 0 1
29.495233 15.158169 4.098330 33.414595 0.474721 1.447836 0.097542 -0.036512 170944.000000 0 0 1
28.001163 15.485669 4.091830 32.258551 0.505172 1.443609 0.087652 -0.025709 13906.400000 0 0 1
27.353463 15.062469 2.866630 31.357734 0.503350 1.479252 0.081908 -0.023003 -167989.000000 0 0 1
25.969963 15.255169 2.874430 30.255933 0.531115 1.475649 0.063204 -0.012122 -360973.000000 0 0 1
25.237863 14.423669 1.817430 29.125504 0.519207 1.508356 0.060007 -0.020102 -483833.000000 0 0 1
25.570163 14.831169 0.533330 29.564865 0.525598 1.552756 0.069017 -0.020853 309443.000000 0 0 1
26.679563 14.189769 -0.069770 30.218430 0.488809 1.573105 0.067148 -0.025422 -716055.000000 0 0 1
27.238963 15.043869 -1.219270 31.141062 0.504601 1.609959 0.082185 -0.028268 -88443.400000 0 0 1
27.827563 16.285969 -0.935170 32.256481 0.529500 1.599792 0.065655 -0.021903 470103.000000 0 0 1
29.052193 16.227369 -0.220570 33.277711 0.509391 1.577425 0.094361 -0.028687 -389349.000000 0 0 1
29.590983 17.621869 0.155130 34.440973 0.537115 1.566292 0.102132 -0.020535 96489.800000 0 0 1
30.000523 18.340469 -1.011370 35.177081 0.548715 1.599551 0.086851 -0.019010 137802.000000 0 0 1
30.680213 19.538769 -0.756470 36.381468 0.567077 1.591591 0.081675 -0.008112 -16428.500000 0 0 1
30.772883 20.381269 -2.057370 36.967543 0.584982 1.626479 0.077120 -0.006405 -306070.000000 0 0 1
31.685443 21.430769 -1.926470 38.300867 0.594683 1.621116 0.052751 0.001715 -90221.700000 0 0 1
31.614313 22.333569 -2.997070 38.823131 0.615034 1.648071 0.057679 -0.003358 19525.500000 0 0 1
32.835083 23.302169 -3.120370 40.384037 0.617188 1.648141 0.048042 -0.002874 104604.000000 0 0 1
33.042833 24.243169 -2.049270 41.033639 0.632980 1.620758 0.064581 -0.002697 198675.000000 0 0 1
33.484713 23.694169 -0.807970 41.027947 0.615816 1.590491 0.074636 0.007018 -494526.000000 0 0 1
33.321563 24.672669 0.395230 41.463518 0.637356 1.561264 0.079880 -0.015876 89075.500000 0 0 1
33.978993 25.947969 0.215930 42.754131 0.652178 1.565746 0.080532 -0.015446 138477.000000 0 0 1
35.313803 25.989669 0.691330 43.852087 0.634457 1.555031 0.075597 -0.018749 -23509.500000 0 0 1
36.072303 27.137369 0.071030 45.140369 0.644975 1.569223 0.046556 -0.012632 -419469.000000 0 0 1
-36.514243 26.983269 -1.275670 45.420415 -0.636410 1.598886 0.052096 -0.022901 -335476.000000 0 0 1
35.684963 27.331569 -2.317670 45.008920 0.653608 1.622313 0.043848 -0.022039 -505054.000000 0 0 1
36.155703 26.986869 -3.725470 45.270356 0.641198 1.653183 0.048430 -0.015443 -91550.100000 0 0 1
-35.953525 27.884469 -4.258070 45.698258 -0.659666 1.664110 0.046698 -0.016138 179936.000000 0 0 1
-35.657117 27.590069 -5.646070 45.436990 -0.658535 1.695380 0.043958 -0.014095 92278.100000 0 0 1
36.289373 27.776469 -6.716370 46.190480 0.653295 1.716720 0.037179 -0.008215 226130.000000 0 0 1
35.270973 26.813969 -6.575870 44.791434 0.650015 1.718140 0.043625 -0.002936 -141553.000000 0 0 1
34.097193 27.088969 -7.321570 44.159214 0.671356 1.737365 0.036114 -0.010474 420916.000000 0 0 1
32.915993 26.149369 -7.002370 42.617899 0.671334 1.735851 0.037530 0.001231 -257242.000000 0 0 1
33.081653 24.733069 -7.302270 41.945722 0.641987 1.745776 0.029421 0.002270 143999.000000 0 0 1
34.168633 24.057969 -6.660970 42.316071 0.613469 1.728864 0.039906 -0.002033 391770.000000 0 0 1
34.205163 22.496069 -6.999770 41.533879 0.581756 1.740136 0.046048 0.003872 436533.000000 0 0 1
33.170943 21.811869 -6.293670 40.195514 0.581671 1.728020 0.043594 0.003642 362773.000000 0 0 1
33.428423 20.403169 -6.253770 39.659279 0.547998 1.729145 0.060683 -0.001969 669144.000000 0 0 1
32.214643 19.567769 -5.674770 38.116713 0.545856 1.720231 0.071634 -0.007983 1069410.000000 0 0 1
31.135973 19.437269 -6.609770 37.295379 0.558075 1.748965 0.063676 -0.015403 892346.000000 0 0 1
30.014303 18.778069 -5.985170 35.906775 0.559058 1.738264 0.089231 -0.025260 5403.310000 0 0 1
28.721283 18.760769 -6.749570 34.963342 0.578622 1.765063 0.066612 -0.033108 -622048.000000 0 0 1
28.714053 17.627069 -7.542870 34.526878 0.550565 1.791036 0.066121 -0.027448 -409626.000000 0 0 1
27.537563 17.522769 -8.281670 33.674187 0.566700 1.819281 0.082531 -0.028699 -557701.000000 0 0 1
27.383063 16.144669 -8.959570 33.026601 0.532727 1.845523 0.086348 -0.023176 -170401.000000 0 0 1
26.645163 16.151769 -10.158770 32.772625 0.544951 1.885965 0.067482 -0.023407 205240.000000 0 0 1
26.893063 14.983869 -10.969170 32.681430 0.508327 1.913080 0.068281 -0.007029 -95823.900000 0 0 1
26.289663 15.119969 -12.420170 32.772252 0.521932 1.959495 0.071832 -0.010770 -17125.500000 0 0 1
24.869463 15.075569 -12.412270 31.620048 0.544957 1.974193 0.067863 -0.007948 545567.000000 0 0 1
24.312363 15.285669 -13.699370 31.818476 0.561270 2.015896 0.056771 -0.010453 -405416.000000 0 0 1
24.305663 13.977269 -14.560870 31.593484 0.521881 2.049785 0.058794 -0.021179 312413.000000 0 0 1
25.565463 13.535769 -15.125070 32.643188 0.486933 2.052563 0.078059 -0.027097 889851.000000 0 0 1
25.967063 14.271669 -16.225270 33.782071 0.502541 2.071784 0.082704 -0.029394 -367116.000000 0 0 1
27.360963 13.776969 -16.663170 34.872459 0.466465 2.068981 0.111270 -0.028937 -62119.100000 0 0 1
27.365463 12.446369 -17.241570 34.656203 0.426855 2.091514 0.107710 -0.034802 335292.000000 0 0 1
28.676333 12.050169 -17.637070 35.757585 0.397809 2.086607 0.097898 -0.015183 440765.000000 0 0 1
28.765753 10.613669 -18.144870 35.628006 0.353473 2.105152 0.069443 -0.019359 -251848.000000 0 0 1
28.023063 10.421569 -19.329370 35.602327 0.356044 2.144712 0.081131 -0.024024 -12477.700000 0 0 1
28.248363 9.197569 -20.020270 35.824245 0.314771 2.163791 0.059211 -0.011476 600113.000000 0 0 1
29.627653 9.006969 -20.765370 37.284366 0.295127 2.161500 0.066904 -0.010033 -228012.000000 0 0 1
29.724053 9.910969 -21.909370 38.233063 0.321840 2.181016 0.081877 -0.015867 332253.000000 0 0 1
30.339243 9.371769 -23.090670 39.261671 0.299601 2.199532 0.073545 -0.013339 -59123.800000 0 0 1
31.685753 8.646469 -22.924270 40.053346 0.266396 2.180157 0.062911 -0.015598 -762423.000000 0 0 1
32.770183 9.533569 -22.716770 40.997872 0.283108 2.158073 0.063420 -0.014294 -63626.600000 0 0 1
33.998483 8.844069 -22.736970 41.845958 0.254491 2.145218 0.039533 -0.004446 456361.000000 0 0 1
35.235533 9.785269 -22.530870 42.952699 0.270884 2.122984 0.056856 -0.015102 312174.000000 0 0 1
35.234533 10.422069 -21.278270 42.460059 0.287591 2.095708 0.040056 -0.012177 364658.000000 0 0 1
36.293873 11.370569 -21.170970 43.528669 0.303606 2.078725 0.011096 -0.001194 89885.200000 0 0 1
36.268573 12.405569 -20.026270 43.247648 0.329573 2.052241 0.009783 -0.004639 -173973.000000 0 0 1
36.375243 11.693869 -18.826870 42.595257 0.311044 2.028617 0.001511 -0.000320 232399.000000 0 0 1
36.129593 12.462169 -17.629570 42.088655 0.332151 2.002994 -0.002095 0.001284 -26830.700000 0 0 1
-36.442053 11.688869 -16.377370 41.627769 -0.310385 1.975149 -0.011954 0.005654 -416419.000000 0 0 1
35.899613 10.513769 -16.224370 40.774401 0.284899 1.980029 -0.013410 0.002250 54460.300000 0 0 1
-36.502953 9.678069 -15.302270 40.746657 -0.259168 1.955783 -0.008027 -0.009518 -519078.000000 0 0 1
35.799843 8.432069 -15.029170 39.731656 0.231318 1.958720 0.043250 -0.007633 -733151.000000 0 0 1
34.765413 8.680069 -14.096270 38.505615 0.244673 1.945593 0.043603 -0.010781 228447.000000 0 0 1
35.101783 8.602269 -12.685170 38.302059 0.240330 1.908358 0.043230 -0.014922 -21311.800000 0 0 1
33.801953 8.871269 -11.868870 36.907201 0.256660 1.898201 0.068179 -0.007317 225674.000000 0 0 1
33.536863 10.257869 -11.877370 37.027246 0.296832 1.897343 0.063091 -0.016141 233217.000000 0 0 1
32.660463 10.672269 -10.825170 36.024818 0.315827 1.876005 0.063224 -0.005720 -235006.000000 0 0 1
33.094073 10.488969 -9.322070 35.946309 0.306928 1.833128 0.086705 -0.006660 -37368.200000 0 0 1
34.285663 11.149769 -8.936770 37.144177 0.314415 1.813777 0.074926 -0.009871 266508.000000 0 0 1
34.129393 12.534869 -8.623570 37.367156 0.351981 1.803675 0.084334 -0.014085 -432875.000000 0 0 1
33.710643 12.855169 -7.185270 36.787103 0.364316 1.767380 0.078886 -0.020378 179010.000000 0 0 1
34.779673 12.650169 -6.273670 37.536800 0.348848 1.738718 0.086497 -0.020719 582574.000000 0 0 1
34.384113 13.163469 -5.023070 37.158786 0.365623 1.706390 0.090340 -0.024024 369879.000000 0 0 1
35.492563 12.988469 -3.941070 37.999400 0.350812 1.674697 0.115470 -0.021615 -989859.000000 0 0 1
-36.504193 13.787369 -4.097370 39.235648 -0.361129 1.675417 0.104926 -0.012087 -1409890.000000 0 0 1
-35.589599 13.461169 -3.072370 38.174102 -0.361602 1.651367 0.089464 -0.017601 -471674.000000 0 0 1
-34.374622 14.393669 -3.089970 37.394388 -0.396548 1.653523 0.093449 -0.021025 -529833.000000 0 0 1
-34.545516 15.638969 -2.419970 37.997714 -0.425102 1.634527 0.124745 -0.017107 -158323.000000 0 0 1
-33.496563 16.558769 -2.497170 37.449278 -0.459111 1.637527 0.116205 -0.018353 -355725.000000 0 0 1
-33.741773 17.723469 -1.522870 38.143777 -0.483657 1.610731 0.126778 -0.012599 -520199.000000 0 0 1
-34.788280 18.572669 -1.819370 39.477571 -0.490381 1.616899 0.104272 -0.007064 -367119.000000 0 0 1
-35.139265 19.265469 -0.639170 40.079107 -0.501507 1.586745 0.089608 -0.012394 143426.000000 0 0 1
-36.272533 20.303369 -0.812870 41.576246 -0.510294 1.590349 0.079960 -0.011407 30820.200000 0 0 1
-35.770026 21.396069 -1.515370 41.708307 -0.539063 1.607137 0.080131 -0.005007 166460.000000 0 0 1
36.480503 21.816569 -2.588170 42.585073 0.538972 1.631610 0.057278 0.003643 -188059.000000 0 0 1
-36.105053 23.128769 -3.252770 43.001109 -0.569736 1.646513 0.065045 -0.013703 138399.000000 0 0 1
-34.902233 22.940869 -3.979770 41.955785 -0.581483 1.665795 0.069857 -0.008228 240988.000000 0 0 1
-34.299451 24.173069 -4.383470 42.190099 -0.613917 1.674882 0.064771 -0.012962 163904.000000 0 0 1
-32.801523 24.083669 -4.738570 40.968489 -0.633328 1.686720 0.063036 -0.021705 60577.500000 0 0 1
-32.575413 23.138169 -5.767270 40.370705 -0.617602 1.714145 0.051333 -0.009292 -506887.000000 0 0 1
-31.218983 23.169269 -6.133270 39.358061 -0.638460 1.727267 0.044233 0.003011 -465882.000000 0 0 1
-30.935243 22.255669 -7.323170 38.806351 -0.623646 1.760645 0.036092 -0.010281 -203330.000000 0 0 1
-31.556933 22.562669 -8.559270 39.726253 -0.620711 1.787955 0.054748 -0.021071 -227447.000000 0 0 1
-30.786143 22.244169 -9.714270 39.204040 -0.625693 1.821192 0.020982 -0.021313 80962.100000 0 0 1
-31.575683 22.065369 -11.041170 40.072581 -0.609926 1.849937 0.042798 -0.013677 -118973.000000 0 0 1
-32.179283 23.260369 -11.458470 41.326113 -0.625889 1.851747 0.048851 -0.010545 272511.000000 0 0 1
-32.917163 23.101969 -12.695370 42.171235 -0.611947 1.876583 0.037641 -0.010100 -129861.000000 0 0 1
-33.400653 24.434969 -13.348170 43.483848 -0.631602 1.882802 0.054241 -0.009223 676863.000000 0 0 1
-32.369993 25.420269 -13.551070 43.331721 -0.665715 1.888861 0.048445 -0.010528 106627.000000 0 0 1
-31.406083 25.184269 -14.530370 42.798611 -0.675893 1.917188 0.043948 -0.005816 119347.000000 0 0 1
-30.011583 25.887669 -14.335170 42.146929 -0.711758 1.917845 0.042972 -0.002797 814348.000000 0 0 1
-29.142133 25.283869 -13.378870 40.835427 -0.714626 1.904589 0.031699 -0.009273 177091.000000 0 0 1
-29.579943 25.310069 -12.044070 40.750856 -0.707765 1.870831 0.043013 -0.006639 -828723.000000 0 0 1
-29.662083 26.691669 -11.262970 41.462500 -0.732737 1.845895 0.046989 0.005677 336468.000000 0 0 1
-28.409073 27.230569 -10.863770 40.824023 -0.764220 1.840154 0.033847 0.000661 27924.500000 0 0 1
-28.679993 28.389769 -10.093970 41.598188 -0.780313 1.815897 0.032624 -0.000931 719602.000000 0 0 1
-27.446413 29.288669 -9.683070 41.290357 -0.817858 1.807513 0.043917 -0.002971 475437.000000 0 0 1
-27.693983 30.462269 -8.928270 42.126245 -0.832963 1.784357 0.044274 -0.009606 -953153.000000 0 0 1
-26.717973 31.430569 -9.035270 42.229929 -0.866266 1.786417 0.071161 -0.003434 -719300.000000 0 0 1
34.834643 -24.712931 33.828495 54.484387 -0.617030 0.900926 0.016835 -0.013946 -604921.000000 0 0 1
34.055653 -23.604931 34.128367 53.681707 -0.606099 0.881811 0.012736 -0.016539 353372.000000 0 0 1
33.007903 -23.865531 -33.181890 52.536873 -0.626012 2.254402 -0.006343 -0.014530 499330.000000 0 0 1
32.334893 -22.544431 -32.767820 51.259406 -0.608856 2.264325 -0.008199 -0.010091 -78325.700000 0 0 1
31.855463 -21.785231 -33.888100 51.359226 -0.599823 2.291382 -0.001015 -0.012541 126506.000000 0 0 1
31.440763 -20.462531 -33.551000 50.327988 -0.576957 2.300498 0.008922 -0.011321 95642.400000 0 0 1
31.473283 -19.614731 33.406915 49.913197 -0.557317 0.837530 0.014594 -0.011331 -483315.000000 0 0 1
32.722103 -19.404331 32.834757 50.253212 -0.535259 0.858747 0.026274 -0.019507 -383954.000000 0 0 1
32.501093 -18.980031 31.486682 49.071109 -0.528558 0.874143 0.034314 -0.008364 493894.000000 0 0 1
33.792153 -18.878931 30.588062 49.335111 -0.509481 0.902046 0.032469 -0.013746 332670.000000 0 0 1
34.572263 -17.751331 30.956042 49.685286 -0.474354 0.898170 0.033397 -0.018076 694531.000000 0 0 1
35.681313 -17.683231 30.044732 49.885255 -0.460112 0.924446 0.038752 -0.015775 106976.000000 0 0 1
-36.387823 -16.549231 30.227072 50.116131 0.426840 0.923364 0.039243 -0.019027 -297492.000000 0 0 1
-35.470771 -16.410031 29.135432 48.747699 0.433312 0.930194 0.041728 -0.015263 892596.000000 0 0 1
-34.441190 -15.434631 29.327422 47.796664 0.421310 0.910201 0.034866 -0.015363 1074800.000000 0 0 1
-33.143903 -15.989031 30.011682 47.485456 0.449479 0.886641 0.055151 -0.021717 78221.900000 0 0 1
-32.156573 -15.099031 30.495132 46.818576 0.438990 0.861438 0.048293 -0.014227 565118.000000 0 0 1
-31.077093 -15.921531 30.969932 46.673521 0.473458 0.845250 0.052261 -0.020680 321845.000000 0 0 1
-29.961083 -15.164131 31.719952 46.192778 0.468538 0.813875 0.062649 -0.024800 -118407.000000 0 0 1
-30.263423 -14.597831 32.994466 47.091467 0.449435 0.794493 0.050623 -0.026455 1136720.000000 0 0 1
-29.074553 -13.915231 33.478085 46.473062 0.446386 0.766452 0.046101 -0.027008 884321.000000 0 0 1
-29.400683 -13.092431 -33.534860 46.480090 0.418947 2.376746 0.045251 -0.013341 -150536.000000 0 0 1
-29.443283 -13.896031 -32.378730 45.917195 0.440964 2.353438 0.049620 -0.015136 198615.000000 0 0 1
-29.684593 -13.140931 -31.217930 45.037965 0.416754 2.336642 0.050299 -0.008270 -318812.000000 0 0 1
-29.703323 -14.024131 -29.969590 44.465042 0.441112 2.310411 0.052064 -0.013513 -53237.800000 0 0 1
-30.998163 -14.570931 -29.887660 45.458447 0.439408 2.288255 0.048233 -0.011559 -1856.970000 0 0 1
-31.315083 -15.144231 -28.615240 45.042359 0.450448 2.259188 0.064277 -0.013876 440931.000000 0 0 1
-32.498153 -16.148731 -28.684200 46.256835 0.461174 2.239676 0.051134 -0.020625 79573.300000 0 0 1
-32.241933 -17.353431 -29.443910 46.985398 0.493758 2.248057 0.047847 -0.017383 467930.000000 0 0 1
-33.421903 -18.129031 -29.699640 48.246803 0.497012 2.233915 0.037500 -0.026929 140587.000000 0 0 1
-33.215513 -19.597731 -30.173280 48.967011 0.533047 2.234700 0.029941 -0.021175 121505.000000 0 0 1
-34.402317 -20.365231 -30.330950 50.181955 0.534496 2.219833 0.021017 -0.025818 16593.200000 0 0 1
-34.066485 -21.678931 -30.752530 50.756473 0.566735 2.221673 0.018603 -0.023864 9233.950000 0 0 1
-35.301923 -22.526831 -31.096640 52.160185 0.567978 2.209526 0.020973 -0.026587 318182.000000 0 0 1
-36.204103 -22.806931 -30.007140 52.262048 0.562154 2.182383 0.012709 -0.020658 803394.000000 0 0 1
35.773593 -23.694731 -30.303090 52.530634 -0.585010 2.185682 0.021030 -0.022223 299422.000000 0 0 1
36.136863 -25.169771 -30.571180 53.609582 -0.608381 2.177614 0.022782 -0.016325 -90222.500000 0 0 1
-36.070703 -25.386001 -31.688510 54.311199 0.613261 2.193781 0.033546 -0.017718 -13446.400000 0 0 1
-35.505202 -26.682901 -31.613850 54.516347 0.644474 2.189398 0.031225 -0.012820 -43009.900000 0 0 1
-35.770487 -27.497631 -32.863910 55.818313 0.655377 2.200327 0.046448 -0.014882 -59533.100000 0 0 1
36.006433 -28.039831 -32.788420 56.194091 -0.661646 2.193810 0.035682 -0.013388 -514670.000000 0 0 1
35.754473 -29.157211 -33.650720 57.104258 -0.684112 2.200971 0.049398 -0.016748 47181.200000 0 0 1
36.452083 -30.537301 -33.338870 58.075480 -0.697332 2.182253 0.064236 -0.017837 361596.000000 0 0 1
35.996923 -30.964991 -32.057830 57.291479 -0.710393 2.164647 0.057781 -0.021584 -133001.000000 0 0 1
-36.327083 -32.052671 -31.602150 57.842256 0.722969 2.148797 0.054725 -0.023823 -184947.000000 0 0 1
36.308923 -32.578631 -30.214730 57.381486 -0.731301 2.125344 0.044641 -0.026410 108057.000000 0 0 1
35.330703 -33.602181 -30.335320 57.424705 -0.760328 2.127349 0.068361 -0.023611 8773.570000 0 0 1
34.919003 -33.880161 -29.038580 56.660755 -0.770300 2.108889 0.066177 -0.019534 -296223.000000 0 0 1
33.728493 33.332799 -28.953250 55.560574 0.779498 2.118949 0.058461 -0.023543 -562578.000000 0 0 1
32.586963 33.805707 -29.590300 55.500647 0.803753 2.133119 0.063768 -0.016668 -1026890.000000 0 0 1
31.454123 33.118448 -29.142390 54.180000 0.811167 2.138718 0.049734 -0.018245 -383796.000000 0 0 1
30.222613 33.508626 -29.967840 54.169233 0.836913 2.157028 0.020911 -0.004610 -295403.000000 0 0 1
30.188253 33.049914 -31.348480 54.647549 0.830619 2.181749 0.027751 0.007427 722153.000000 0 0 1
28.976733 33.549211 -31.995230 54.670791 0.858398 2.195965 0.015332 0.017055 1161950.000000 0 0 1
28.820363 32.875795 -33.368680 54.999091 0.851036 2.222716 0.013626 -0.002817 -18749.200000 0 0 1
28.540183 31.480943 -33.246760 53.953117 0.834354 2.234725 0.011213 -0.000396 -25454.100000 0 0 1
28.190763 31.027543 33.736633 53.810668 0.833265 0.893163 0.016575 -0.005852 -40535.700000 0 0 1
28.210913 29.470223 33.658298 52.888852 0.807227 0.880978 0.026227 -0.016251 680331.000000 0 0 1
29.517813 28.895693 33.865673 53.414850 0.774748 0.884066 0.036797 -0.013110 466890.000000 0 0 1
29.470873 27.503603 34.015645 52.745091 0.750883 0.869896 0.041351 -0.017455 -1063720.000000 0 0 1
30.851593 26.964493 -34.101448 53.308662 0.718267 2.264902 0.058399 -0.020457 -1134620.000000 0 0 1
31.436563 27.392483 -32.896680 53.111177 0.716763 2.238765 0.056148 -0.015703 -695060.000000 0 0 1
32.636673 26.705203 -32.669170 53.344118 0.685775 2.229918 0.062484 -0.023762 -231899.000000 0 0 1
33.294163 26.913153 -31.310820 53.039481 0.679808 2.202264 0.082537 -0.023348 -299024.000000 0 0 1
33.949613 28.141643 -31.055450 53.934861 0.692130 2.184373 0.062921 -0.022030 56428.900000 0 0 1
33.136583 29.293173 -30.955640 53.984949 0.723912 2.181461 0.084830 -0.018510 2947.620000 0 0 1
32.363353 29.405683 -29.589710 52.798028 0.737552 2.165704 0.067087 -0.011192 -181277.000000 0 0 1
33.120573 29.691043 -28.424530 52.787160 0.730852 2.139422 0.049458 -0.012950 46103.800000 0 0 1
32.316233 29.871043 -27.216600 51.743226 0.746099 2.124679 0.052757 -0.009745 -104525.000000 0 0 1
33.033093 30.402273 -25.968890 51.863924 0.743949 2.095217 0.059986 -0.014035 -190093.000000 0 0 1
33.333283 31.777313 -26.070150 52.920299 0.761505 2.085906 0.057157 -0.012128 -125969.000000 0 0 1
33.848193 32.224434 -24.893170 52.950771 0.760828 2.060222 0.040288 -0.018727 -435290.000000 0 0 1
34.177143 33.684230 -24.799470 54.015906 0.778135 2.047794 0.045515 -0.011437 -682512.000000 0 0 1
33.079943 -33.639301 -24.844370 53.320989 -0.793782 2.055493 0.051000 -0.003515 -489672.000000 0 0 1
33.322583 -32.282751 -24.553570 52.492365 -0.769550 2.057545 0.044514 -0.007533 -1133090.000000 0 0 1
33.698013 -31.535631 -25.850500 52.898964 -0.752262 2.081369 0.036462 -0.011221 1248280.000000 0 0 1
35.003373 -31.836451 -26.418220 54.191494 -0.738053 2.080018 0.049105 -0.013755 1063730.000000 0 0 1
36.081313 -31.255681 -25.704370 54.217095 -0.713857 2.064739 0.050219 -0.012035 -331674.000000 0 0 1
-35.606137 -31.524981 -26.394100 54.389980 0.724679 2.077474 0.028486 -0.006605 261405.000000 0 0 1
-35.075814 -32.847441 -26.356840 54.808303 0.752603 2.072467 0.032457 -0.011743 -68708.500000 0 0 1
-34.841603 -33.364011 -25.022570 54.343569 0.763738 2.049300 0.042132 -0.002756 -433918.000000 0 0 1
-33.814033 -32.814711 -23.994770 52.876678 0.770401 2.041807 0.025698 -0.002941 -54557.300000 0 0 1
-34.055543 -31.460731 -23.788770 52.110106 0.745813 2.044865 -0.001776 -0.001671 -78130.600000 0 0 1
-33.423503 -30.982291 -22.581470 50.862124 0.747513 2.030825 0.026392 -0.005873 -41342.300000 0 0 1
-33.257573 -29.450551 -22.438270 49.768234 0.724762 2.038520 0.034144 0.002594 142149.000000 0 0 1
-34.462384 -28.724681 -22.594970 50.232419 0.694841 2.037347 0.017360 0.007530 -169239.000000 0 0 1
-34.703790 -28.253991 -23.915470 50.740425 0.683308 2.061594 0.030823 0.009596 -208762.000000 0 0 1
-35.957060 -27.393751 -24.073670 51.213957 0.651040 2.060156 0.025232 0.014433 -149772.000000 0 0 1
-35.753054 -26.095571 -23.580070 50.152561 0.630502 2.060276 0.027731 0.011247 85423.300000 0 0 1
36.500053 -25.164511 -24.304570 50.559060 -0.603602 2.072268 0.025545 0.006444 223054.000000 0 0 1
-36.177753 -24.781631 -25.812070 50.884398 0.600585 2.102809 0.022459 0.001185 915826.000000 0 0 1
-34.988943 -23.928931 -25.816920 49.631978 0.599839 2.117843 0.017525 -0.003721 1024310.000000 0 0 1
-34.824365 -23.183331 -27.032750 49.809365 0.587348 2.144474 0.016447 -0.011675 -159830.000000 0 0 1
-33.733553 -22.123031 -26.833910 48.450385 0.580453 2.157769 0.023220 -0.018467 -311089.000000 0 0 1
-33.972483 -21.118631 -25.881910 47.644511 0.556179 2.145075 0.035841 -0.017604 -120994.000000 0 0 1
-34.646473 -20.008931 -26.419160 47.944837 0.523724 2.154397 0.045360 -0.016756 1239940.000000 0 0 1
-35.962035 -19.609731 -25.571590 48.287843 0.499220 2.128885 0.056635 -0.014710 1324990.000000 0 0 1
-35.677173 -19.055331 -24.272670 47.171271 0.490557 2.111296 0.056503 -0.026264 -80434.000000 0 0 1
-35.052945 -19.846631 -23.288870 46.529230 0.515188 2.094997 0.041489 -0.020949 37628.000000 0 0 1
-35.895811 -21.102031 -22.848770 47.496013 0.531452 2.072668 0.050072 -0.003747 460303.000000 0 0 1
36.100493 -20.705831 -22.014270 47.080836 -0.520752 2.057353 0.054627 -0.002566 77500.100000 0 0 1
35.547243 -21.848631 -21.391470 46.888849 -0.551112 2.044535 0.054390 0.016520 -75927.600000 0 0 1
34.628743 -21.767231 -20.122770 45.583857 -0.561176 2.028005 0.056141 0.003004 144900.000000 0 0 1
33.341353 -21.431431 -20.600670 44.669225 -0.571289 2.050124 0.050066 0.008055 -730469.000000 0 0 1
32.380663 -21.395631 -19.607670 43.482653 -0.583898 2.038604 0.037438 0.014987 749402.000000 0 0 1
30.964023 -20.916231 -20.126770 42.442270 -0.594094 2.064869 0.038382 0.021136 359095.000000 0 0 1
30.298233 -21.738131 -21.017870 42.805141 -0.622356 2.084048 0.034175 0.019982 318708.000000 0 0 1
29.052423 -21.327031 -21.564170 41.998797 -0.633239 2.109994 0.048203 0.019497 449531.000000 0 0 1
29.055863 -20.010131 -22.401070 41.790626 -0.603087 2.136525 0.056777 0.017723 -545632.000000 0 0 1
29.310073 -18.872131 -21.618670 41.019564 -0.572060 2.125902 0.044295 0.013333 -36635.400000 0 0 1
29.363083 -17.673431 -22.322870 40.900505 -0.541810 2.148122 0.030498 0.016228 314596.000000 0 0 1
30.166713 -16.478131 -21.693170 40.646685 -0.499948 2.133767 0.019209 0.007443 342967.000000 0 0 1
29.466953 -16.018431 -20.527470 39.322620 -0.497921 2.120022 0.000850 0.008338 1118870.000000 0 0 1
30.327243 -15.321931 -19.567870 39.209753 -0.467815 2.093306 -0.008625 0.002258 628016.000000 0 0 1
31.330193 -16.136031 -18.677470 39.884839 -0.475600 2.058145 0.018294 -0.006210 -26517.900000 0 0 1
32.404663 -16.474431 -19.519070 41.260915 -0.470343 2.063562 0.024799 -0.009460 -536999.000000 0 0 1
33.203453 -17.455831 -18.940470 42.022812 -0.484014 2.038367 0.032264 -0.007704 -528256.000000 0 0 1
34.305563 -18.021231 -19.831470 43.530720 -0.483694 2.043813 0.052238 -0.024157 6567.170000 0 0 1
35.220193 -16.992531 -20.219570 44.023166 -0.449522 2.047996 0.049488 -0.031082 259742.000000 0 0 1
36.216043 -17.518331 -21.066670 45.412534 -0.450537 2.053184 0.066223 -0.029274 -461425.000000 0 0 1
-35.944262 -16.510331 -21.738370 45.134662 0.430587 2.073314 0.063982 -0.026381 -177615.000000 0 0 1
-34.950900 -16.057731 -20.816170 43.734758 0.430674 2.066856 0.075588 -0.036486 372930.000000 0 0 1
-34.239947 -14.944831 -21.380870 43.044902 0.411549 2.090601 0.084119 -0.034832 197405.000000 0 0 1
-32.973293 -14.538431 -20.553270 41.485430 0.415273 2.089130 0.094264 -0.029878 651874.000000 0 0 1
-31.823843 -15.363031 -20.699170 40.954064 0.449754 2.100670 0.099463 -0.039349 418026.000000 0 0 1
-31.823023 -16.620031 -20.025770 41.109144 0.481300 2.079604 0.094061 -0.042320 -233123.000000 0 0 1
-30.472363 -17.373531 -20.168970 40.462227 0.518175 2.092623 0.083027 -0.047725 128533.000000 0 0 1
-30.501443 -18.611831 -19.474970 40.694136 0.547882 2.069821 0.076943 -0.047604 525575.000000 0 0 1
-29.391523 -19.457231 -19.777370 40.417692 0.584766 2.082111 0.078453 -0.051986 141015.000000 0 0 1
-29.637833 -20.824331 -19.206570 40.999344 0.612487 2.058344 0.064653 -0.025229 -109800.000000 0 0 1
-30.597113 -21.574831 -19.935370 42.415512 0.614158 2.060089 0.065722 -0.020250 265628.000000 0 0 1
-30.893493 -22.733431 -19.151370 42.871806 0.634393 2.033884 0.052228 0.002899 -504022.000000 0 0 1
-31.955983 -23.477131 -19.936270 44.382602 0.633618 2.036656 0.040746 -0.002523 -590762.000000 0 0 1
-31.463613 -24.117331 -21.056870 44.888711 0.653987 2.059057 0.030316 -0.007942 851587.000000 0 0 1
-32.566233 -24.603431 -21.848670 46.295278 0.647005 2.062288 0.028199 0.003502 611298.000000 0 0 1
-32.280193 -24.631531 -23.352470 46.840805 0.651803 2.092721 0.022026 0.008524 -166124.000000 0 0 1
-31.182923 -25.425411 -23.727070 46.709743 0.684039 2.103621 0.026008 0.002632 -86448.000000 0 0 1
-31.321063 -25.764121 -25.093230 47.691395 0.688359 2.124873 0.026028 0.009186 1230070.000000 0 0 1
-29.923953 -26.191831 -25.712540 47.355989 0.718988 2.144758 0.029932 -0.004134 1631550.000000 0 0 1
-28.947183 -25.151021 -25.865770 46.255284 0.715341 2.164212 0.037315 -0.007240 1006220.000000 0 0 1
-27.647203 -25.635351 -26.223390 45.926085 0.747658 2.178509 0.039826 -0.012161 828143.000000 0 0 1
-26.507143 -24.639331 -26.380990 44.784840 0.748895 2.200692 0.055485 -0.015874 2319.090000 0 0 1
-26.665773 -23.996631 -27.605790 45.265676 0.732762 2.226682 0.060297 -0.014191 173448.000000 0 0 1
-25.729283 -22.923331 -27.720420 44.225522 0.727789 2.248232 0.071754 -0.017841 402335.000000 0 0 1
-25.570713 -22.351631 -29.113150 44.732899 0.718326 2.279463 0.065000 -0.013466 60829.300000 0 0 1
-25.067073 -23.271031 -30.067360 45.540588 0.748259 2.291924 0.066389 -0.007921 213724.000000 0 0 1
-24.977033 -22.681431 -31.339380 46.048412 0.737268 2.319343 0.061880 0.001771 -417613.000000 0 0 1
-24.385833 -23.656231 -32.392520 46.942108 0.770213 2.332358 0.056914 -0.007357 -272164.000000 0 0 1
-25.227353 -24.694531 -32.852580 48.223762 0.774725 2.320269 0.032970 -0.006782 -400518.000000 0 0 1
-24.626133 -25.621581 -33.721800 48.990526 0.805206 2.329985 0.053230 -0.003472 10720.300000 0 0 1
-19.651533 -14.735431 -12.110370 27.385703 0.643396 2.028863 0.056983 -0.012241 -29340.300000 0 0 1
-19.918133 -14.108031 -10.893370 26.728900 0.616275 1.990566 0.057759 -0.019591 20804.600000 0 0 1
-19.398433 -15.002031 -9.935170 26.458793 0.658287 1.955728 0.043098 -0.026152 -237437.000000 0 0 1
-19.567133 -14.647331 -8.452970 25.862515 0.642584 1.903757 0.061854 -0.025834 51358.900000 0 0 1
-20.871233 -14.814431 -7.903470 26.786948 0.617274 1.870303 0.086537 -0.036769 565860.000000 0 0 1
-20.907133 -14.342031 -6.571970 26.191465 0.601260 1.824427 0.074272 -0.037892 -123103.000000 0 0 1
-22.277233 -14.607931 -5.918970 27.289210 0.580395 1.789432 0.092399 -0.038235 -312506.000000 0 0 1
-22.408133 -15.884331 -5.323970 27.978225 0.616651 1.762254 0.071159 -0.036803 470315.000000 0 0 1
-21.927033 -15.905231 -3.965870 27.376984 0.627551 1.716169 0.077510 -0.035568 -155379.000000 0 0 1
-21.773133 -17.294031 -3.447070 28.018478 0.671245 1.694137 0.060470 -0.014521 -311220.000000 0 0 1
-22.966633 -17.939031 -3.079070 29.304534 0.663104 1.676062 0.056993 -0.013951 -105499.000000 0 0 1
-22.846733 -19.037231 -2.184570 29.818815 0.694694 1.644123 0.053127 -0.001656 -963409.000000 0 0 1
-24.080633 -19.873731 -2.118670 31.294262 0.689978 1.638550 0.036861 -0.011199 -919852.000000 0 0 1
-23.982233 -20.906631 -3.093570 31.965683 0.716989 1.667726 0.027338 -0.013551 -401334.000000 0 0 1
-25.044073 -21.807331 -3.067470 33.349282 0.716422 1.662907 0.040377 -0.008172 -449989.000000 0 0 1
-24.990633 -22.984331 -4.091970 34.198763 0.743603 1.690736 0.039181 -0.007880 -1064160.000000 0 0 1
-23.935933 -23.808131 -3.805070 33.974027 0.782721 1.683031 0.034445 -0.005858 -960683.000000 0 0 1
-23.628533 -24.709631 -4.835970 34.529119 0.807760 1.711313 0.028505 -0.002108 1939270.000000 0 0 1
-22.129033 -24.465931 -5.385170 33.425678 0.835510 1.732610 0.031100 0.003286 1727600.000000 0 0 1
-21.880633 -23.238631 -6.053870 32.487619 0.815487 1.758236 0.024114 0.007482 115483.000000 0 0 1
-21.649533 -22.037731 -5.265370 31.338283 0.794284 1.739614 0.025294 0.005874 -445890.000000 0 0 1
-21.654533 -20.654031 -5.990170 30.518682 0.761755 1.768358 0.037159 0.004134 171191.000000 0 0 1
-20.520333 -20.398531 -6.808370 29.724368 0.782421 1.801898 0.022439 0.003037 225761.000000 0 0 1
-20.620933 -19.095031 -7.300970 29.036998 0.746997 1.824961 0.016637 0.005079 -483528.000000 0 0 1
-19.425233 -18.609431 -8.076670 28.087065 0.763953 1.862473 0.031202 -0.001325 -650603.000000 0 0 1
-19.343933 -19.329831 -9.322670 28.891907 0.785034 1.899350 0.008447 -0.008990 1134830.000000 0 0 1
-17.975933 -19.448931 -9.803770 28.240202 0.824737 1.925334 0.048892 -0.011382 1340610.000000 0 0 1
-17.448233 -18.232631 -10.667570 27.398298 0.807378 1.970724 0.044465 -0.012127 -107796.000000 0 0 1
-17.068633 -17.037731 -9.965970 26.094886 0.784492 1.962661 0.060625 -0.021253 252947.000000 0 0 1
-15.822933 -17.079031 -9.288870 25.066743 0.823557 1.950414 0.076735 -0.025829 -221937.000000 0 0 1
-15.685133 -15.919731 -8.302070 23.840839 0.792821 1.926477 0.077214 -0.027840 -455217.000000 0 1 0
-16.504233 -16.055631 -7.207570 24.127206 0.771621 1.874160 0.072225 -0.020731 -141099.000000 0 1 0
-16.487333 -14.852231 -6.491970 23.120696 0.733272 1.855409 0.068090 -0.023490 -255690.000000 0 1 0
-17.068033 -14.979831 -5.098970 23.274720 0.720331 1.791665 0.059599 -0.027791 -301634.000000 0 1 0
-17.320733 -13.805331 -4.381270 22.578540 0.672934 1.766081 0.055417 -0.027938 35574.600000 0 1 0
-17.429233 -14.196431 -3.063470 22.687037 0.683531 1.706242 0.035115 -0.019859 -362688.000000 0 1 0
-18.474333 -13.379131 -2.276970 22.923497 0.626784 1.670289 0.045779 -0.014654 29790.200000 0 1 0
-19.826833 -13.537331 -2.687070 24.157462 0.599074 1.682258 0.063574 -0.028746 384896.000000 0 1 0
-20.510133 -12.567931 -1.938570 24.132478 0.549754 1.651213 0.063235 -0.027067 -487233.000000 0 1 0
-22.028333 -12.497831 -2.204270 25.422471 0.516068 1.657611 0.072841 -0.026958 -146111.000000 0 0 1
-22.404833 -11.744731 -3.346170 25.516898 0.482824 1.702311 0.086366 -0.027594 51061.800000 0 0 1
-23.725033 -12.140931 -3.618770 26.895630 0.472992 1.705754 0.082110 -0.025831 -57585.600000 0 0 1
-24.455733 -11.432531 -4.826870 27.424156 0.437294 1.747726 0.093533 -0.033038 131787.000000 0 0 1
-24.104033 -11.936731 -6.101570 27.581137 0.459814 1.793864 0.106739 -0.040769 511738.000000 0 0 1
-24.904333 -11.402431 -7.145870 28.307326 0.429362 1.825996 0.113089 -0.042551 398731.000000 0 0 1
-24.136333 -11.736631 -8.487170 28.148590 0.452599 1.877076 0.122645 -0.041142 616440.000000 0 0 1
-22.975433 -10.958931 -8.644970 26.883158 0.445066 1.898189 0.122082 -0.042426 12754.300000 0 0 1
-22.046833 -11.304031 -9.644370 26.586798 0.473778 1.942014 0.092288 -0.034207 -805167.000000 0 0 1
-20.827933 -10.454731 -9.529870 25.177820 0.465212 1.958974 0.095988 -0.040432 -1206680.000000 0 0 1
-21.029133 -9.216131 -10.096570 25.081910 0.413044 1.985090 0.092635 -0.027549 278655.000000 0 0 1
-19.949833 -8.384731 -9.780170 23.747658 0.397875 1.995266 0.101281 -0.026609 -356152.000000 0 1 0
-19.991833 -7.146331 -10.706770 23.777686 0.343307 2.037882 0.114639 -0.026086 21115.100000 0 1 0
-19.381033 -7.266131 -12.001470 23.926061 0.358691 2.096251 0.116520 -0.024336 604381.000000 0 1 0
-19.372233 -5.997831 -12.610770 23.880723 0.300250 2.127126 0.116434 -0.032983 -54885.000000 0 1 0
-18.790833 -5.976531 -14.110870 24.247288 0.307938 2.191929 0.136601 -0.020452 324736.000000 0 1 0
-19.613033 -6.574431 -15.120370 25.622642 0.323436 2.202001 0.133278 -0.033773 709684.000000 0 0 1
-19.002533 -6.400631 -16.403670 25.906461 0.324895 2.256462 0.121838 -0.036018 -132361.000000 0 0 1
-19.440733 -7.392331 -17.514170 27.190712 0.363365 2.270673 0.093733 -0.030295 -72959.300000 0 0 1
-20.739433 -7.084231 -17.993770 28.356413 0.329156 2.258232 0.088073 -0.037064 361555.000000 0 0 1
-21.175633 -8.078531 -18.856270 29.482690 0.364458 2.264736 0.091931 -0.039871 -933226.000000 0 0 1
-22.553433 -7.894031 -19.450970 30.810928 0.336688 2.254026 0.089960 -0.037448 -1789720.000000 0 0 1
-22.763533 -6.890931 -20.387770 31.326100 0.293948 2.279465 0.079434 -0.028723 102433.000000 0 0 1
-24.073933 -6.656031 -20.846470 32.533557 0.269744 2.266295 0.072114 -0.030909 135972.000000 0 0 1
-25.168833 -6.334231 -19.813870 32.652444 0.246549 2.222839 0.100986 -0.030292 -1439990.000000 0 0 1
-25.092383 -5.030931 -19.251270 32.024200 0.197873 2.215733 0.081617 -0.018348 -573428.000000 0 0 1
-26.089943 -4.571831 -18.422170 32.263960 0.173472 2.178499 0.106070 -0.014745 -1016890.000000 0 0 1
-25.939643 -3.039631 -18.036170 31.739689 0.116649 2.175177 0.082616 -0.015773 38957.400000 0 0 1
-26.319043 -2.041531 -18.985170 32.516097 0.077414 2.194284 0.100041 -0.013679 958693.000000 0 0 1
-27.672473 -2.104531 -19.464170 33.897621 0.075905 2.182429 0.130157 -0.010490 589740.000000 0 0 1
-28.044263 -0.869931 -20.404270 34.692531 0.031010 2.199561 0.130236 -0.011410 75572.000000 0 0 1
-27.347203 -0.704631 -21.642770 34.882310 0.025760 2.240114 0.112736 -0.005245 307825.000000 0 0 1
-27.887223 -1.586831 -22.638570 35.954417 0.056840 2.251894 0.118044 -0.001992 -17968.300000 0 0 1
-27.211223 -1.563431 -24.086370 36.373730 0.057392 2.294536 0.110180 -0.001991 -365007.000000 0 0 1
-27.237713 -0.326431 -24.743170 36.799783 0.011984 2.308206 0.107462 0.002095 283402.000000 0 0 1
-26.601983 0.821169 -24.157670 35.943468 -0.030859 2.307840 0.070544 0.002780 -56537.500000 0 0 1
-25.114663 0.733169 -23.738070 34.565587 -0.029185 2.327811 0.066639 -0.001490 -407794.000000 0 0 1
-24.339633 0.535969 -24.886270 34.814242 -0.022017 2.367178 0.051409 0.002378 -1154620.000000 0 0 1
-22.985933 0.399569 -24.643570 33.701904 -0.017381 2.390908 0.046785 0.001341 -794585.000000 0 0 1
-22.249633 -0.115231 -25.891270 34.138209 0.005179 2.431689 0.042016 0.002428 -242654.000000 0 0 1
-22.329633 0.771969 -26.999160 35.045158 -0.034558 2.450281 0.023366 0.006213 269578.000000 0 0 1
-21.522133 0.346769 -28.089140 35.388166 -0.016111 2.487736 0.013154 0.005592 103375.000000 0 0 1
-21.562933 1.414269 -29.213320 36.337010 -0.065494 2.504712 0.021808 0.014965 305107.000000 0 0 1
-20.519033 2.411769 -29.168320 35.744066 -0.117001 2.525310 0.040045 0.015020 691645.000000 0 0 1
-20.466433 3.295469 -30.322260 36.731110 -0.159648 2.541919 0.036480 0.009870 -195838.000000 0 0 1
-19.908933 2.613969 -31.603080 37.442665 -0.130550 2.575568 0.034098 0.007803 964859.000000 0 0 1
-18.517233 2.248869 -31.415690 36.536159 -0.120856 2.605776 0.024543 0.010169 975323.000000 0 0 1
-18.015333 1.795869 -32.634230 37.319839 -0.099357 2.635092 0.022916 0.009836 211451.000000 0 0 1
-16.463433 1.760369 -32.662250 36.619204 -0.106521 2.672421 0.022569 -0.003111 451107.000000 0 0 1
-15.758233 2.990569 -32.570680 36.305848 -0.187548 2.684002 0.026304 -0.001222 2077640.000000 0 0 1
-14.299933 2.784369 -32.481830 35.599299 -0.192306 2.719977 0.020614 0.003207 2202110.000000 0 0 1
-13.476933 4.023269 -32.945290 35.821873 -0.290108 2.738106 0.015223 0.004907 -334781.000000 0 0 1
-13.516133 5.068169 -31.995160 35.100748 -0.358746 2.717770 0.026443 -0.011445 179179.000000 0 0 1
-12.885333 6.258969 -32.444450 35.466165 -0.452178 2.725809 0.046720 -0.006513 -101420.000000 0 0 1
-12.413533 7.244969 -31.339590 34.478331 -0.528299 2.711590 0.053506 -0.017181 277226.000000 0 0 1
-11.332533 6.920469 -30.448690 33.218097 -0.548230 2.730362 0.066776 -0.025807 648033.000000 0 0 1
-11.619333 5.823269 -29.587490 32.316234 -0.464584 2.727697 0.075107 -0.026613 -829668.000000 0 0 1
-10.435933 4.933469 -29.302300 31.494009 -0.441602 2.766323 0.086566 -0.037381 -685868.000000 0 0 1
-9.809733 4.107469 -30.264370 32.078564 -0.396534 2.803670 0.069441 -0.035760 554069.000000 0 0 1
-10.675633 3.173269 -30.915290 32.860218 -0.288927 2.795815 0.078834 -0.028015 -329645.000000 0 0 1
-9.913433 2.280569 -31.931250 33.512414 -0.226114 2.833186 0.065188 -0.027652 -81346.600000 0 0 1
-10.690133 1.171169 -32.343340 34.084340 -0.109121 2.820594 0.060439 -0.024645 363924.000000 0 0 1
-10.233333 0.594069 -33.577890 35.107674 -0.057987 2.845302 0.045897 -0.012067 -524650.000000 0 0 1
-10.645533 1.349769 33.430875 35.110863 -0.126119 0.310595 0.038606 -0.006837 384006.000000 0 0 1
-12.050033 1.339669 33.184417 35.329924 -0.110721 0.350293 0.017234 -0.000499 268813.000000 0 0 1
-12.313933 1.449669 31.813342 34.144154 -0.117187 0.371631 0.010122 -0.002385 426148.000000 0 0 1
-13.826333 1.182069 31.532852 34.451205 -0.085287 0.414568 0.022590 0.003120 643700.000000 0 0 1
-14.655533 2.264969 31.919742 35.196373 -0.153334 0.434919 0.029283 0.014087 -78290.500000 0 0 1
-16.014733 1.880969 31.855962 35.704510 -0.116917 0.468579 0.028765 0.019104 154816.000000 0 0 1
-16.948833 2.952469 31.232302 35.657211 -0.172468 0.503490 0.033534 0.018837 -213443.000000 0 0 1
-17.320633 4.050669 32.074302 36.676602 -0.229735 0.506358 0.035539 0.006628 425481.000000 0 0 1
-16.333133 5.059069 32.302395 36.548737 -0.300371 0.486837 0.016351 0.008672 -184078.000000 0 0 1
-16.688033 5.823569 33.632988 37.994504 -0.335754 0.483858 0.010207 0.006238 1681330.000000 0 0 1
-18.007133 6.471169 33.600548 38.666907 -0.344995 0.517671 0.026358 0.002712 1013150.000000 0 0 1
-18.976533 5.738769 -33.966700 39.329111 -0.293670 2.613268 0.032185 -0.000452 -56422.400000 0 0 1
-20.438933 6.222069 34.126363 40.262548 -0.295509 0.559358 0.030132 0.000705 181207.000000 0 0 1
-20.694633 7.562069 -33.695690 40.259810 -0.350338 2.562494 0.037961 -0.001911 44172.800000 0 0 1
-20.177833 8.637269 33.802767 40.303529 -0.404457 0.575896 0.018359 -0.002320 -580722.000000 0 0 1
-20.340033 10.055169 -33.840080 40.742784 -0.459120 2.550942 0.036101 -0.009447 -421550.000000 0 0 1
-19.586633 10.119869 -32.622010 39.373132 -0.476896 2.547282 0.040359 -0.016481 415598.000000 0 0 1
-19.306533 11.447969 -32.166500 39.223487 -0.535226 2.532352 0.051452 -0.021818 661091.000000 0 0 1
-18.488333 12.440469 -33.133560 39.930146 -0.592293 2.549524 0.023895 -0.027907 446963.000000 0 0 1
-19.270133 12.756969 33.956293 41.074422 -0.584770 0.597576 0.036068 -0.024110 479749.000000 0 0 1
-18.435533 12.891769 32.823749 39.792777 -0.610249 0.600829 0.032408 -0.026433 -194434.000000 0 0 1
-19.015533 12.394369 31.493462 38.820730 -0.577641 0.624503 0.047221 -0.032429 -445670.000000 0 0 1
-19.115233 11.006669 31.392332 38.366879 -0.522440 0.612498 0.033217 -0.018054 647904.000000 0 0 1
-17.906233 10.299769 31.051792 37.295204 -0.521989 0.587020 0.038839 -0.014194 677172.000000 0 0 1
-18.083233 8.747669 31.064732 36.993819 -0.450559 0.574015 0.047131 -0.004650 332260.000000 0 0 1
-18.985633 8.211869 30.071742 36.499298 -0.408232 0.602539 0.046422 -0.014459 526720.000000 0 0 1
-19.125233 6.829269 30.186082 36.381493 -0.342970 0.592209 0.036322 -0.011048 -81720.700000 0 0 1
-19.649033 6.116369 28.930452 35.503036 -0.301774 0.618287 0.041928 -0.008216 326695.000000 0 0 1
-21.053933 6.140369 28.722432 36.137935 -0.283778 0.652118 0.066060 -0.021179 -17961.000000 0 0 1
-21.387833 5.187269 27.762102 35.427129 -0.237939 0.670293 0.060289 -0.020473 7264.760000 0 0 1
-22.902933 4.949669 27.544302 36.162580 -0.212842 0.704895 0.064254 -0.013692 -36683.900000 0 0 1
-23.515133 5.939969 26.812432 36.154547 -0.247426 0.735335 0.064309 -0.013523 -15976.400000 0 0 1
-24.929433 5.883169 26.881522 37.130911 -0.231753 0.761262 0.062953 -0.015016 -298712.000000 0 0 1
-25.418833 6.749669 25.711392 36.779761 -0.259548 0.796709 0.064555 -0.016049 -293164.000000 0 0 1
-25.343513 6.139769 24.400112 35.712125 -0.237683 0.818600 0.054020 -0.007311 337034.000000 0 0 1
-26.393163 5.212669 24.276042 36.236683 -0.194991 0.836682 0.050099 0.003912 -468400.000000 0 0 1
-26.351443 4.400069 22.957332 35.224967 -0.165450 0.860927 0.060069 -0.003404 -7217.660000 0 0 1
-26.923543 5.117469 21.863832 35.058420 -0.187834 0.897406 0.063813 0.000084 257617.000000 0 0 1
-26.743193 4.389669 20.711932 34.109408 -0.162691 0.918239 0.060580 0.005283 -90369.700000 0 0 1
-27.331713 5.024369 19.407732 33.895824 -0.181800 0.961159 0.104562 -0.005066 922870.000000 0 0 1
-28.762513 5.028969 19.287432 34.993967 -0.173095 0.987037 0.118355 -0.009757 702969.000000 0 0 1
-29.243963 5.628469 18.128732 34.864595 -0.190141 1.023974 0.115581 -0.013453 -315076.000000 0 0 1
-30.767063 5.434569 18.088832 36.101975 -0.174833 1.045987 0.125809 -0.016523 -494216.000000 0 0 1
-31.463613 6.330169 18.921432 37.256551 -0.198540 1.038088 0.146867 -0.008774 219191.000000 0 0 1
-32.828753 5.933169 19.051032 38.417071 -0.178801 1.051925 0.147138 -0.010764 376495.000000 0 0 1
-33.548343 7.052969 19.823732 39.600708 -0.207215 1.046516 0.163965 -0.010866 -344151.000000 0 0 1
-33.113823 7.138669 21.138932 39.929192 -0.212330 1.012891 0.123504 -0.015989 14751.100000 0 0 1
-33.406143 8.432969 21.730232 40.734363 -0.247272 1.008108 0.147204 -0.020098 180352.000000 0 0 1
0.193267 32.634569 12.003030 34.772477 1.564874 1.218358 0.049641 -0.022187 -158420.000000 0 0 1
-0.172933 32.811169 13.323530 35.413545 -1.565526 1.185076 0.038033 -0.017208 25141.600000 0 0 1
-0.133533 -34.017524 13.659230 36.657664 1.566871 1.188970 0.033414 -0.015597 -253821.000000 0 0 1
0.019467 -33.784024 15.224430 37.055957 -1.570220 1.147410 0.034170 -0.003743 -201587.000000 0 0 1
-1.173833 -33.876024 15.953030 37.462809 1.536159 1.130910 0.032902 0.000949 -317654.000000 0 0 1
-0.881233 -33.805924 17.343830 38.005598 1.544735 1.096908 0.023197 -0.001924 80313.000000 0 0 1
-2.129433 -33.499624 18.188630 38.178339 1.507316 1.074227 0.036385 -0.000887 -700315.000000 0 0 1
-3.015333 33.632469 18.280830 38.398229 -1.481380 1.074599 0.023776 0.002313 -819074.000000 0 0 1
-3.927333 34.029469 19.262930 39.299990 -1.455895 1.058533 0.025132 0.001530 -381346.000000 0 0 1
-4.942133 32.974069 19.757730 38.756700 -1.422024 1.035857 0.020435 -0.006088 125504.000000 0 0 1
-5.858933 32.611869 18.736530 38.064664 -1.393036 1.056148 0.024671 -0.009850 -607688.000000 0 0 1
-6.895233 31.905669 19.347930 37.945466 -1.357956 1.035742 0.029247 -0.026600 -368821.000000 0 0 1
-8.042133 31.688669 18.314530 37.473586 -1.322258 1.060161 0.002490 -0.023097 -232323.000000 0 0 1
-8.626433 32.932769 18.019630 38.518693 -1.314611 1.083979 0.017860 -0.026113 -269991.000000 0 0 1
-9.386633 32.955869 16.837130 38.179669 -1.293320 1.114087 0.037209 -0.019195 -168487.000000 0 0 1
-10.336033 -34.040124 16.628030 39.269008 1.276001 1.133558 0.094605 -0.030582 424185.000000 0 0 1
-11.591633 34.072469 17.300230 39.932406 -1.242874 1.122714 0.093871 -0.035708 919788.000000 0 0 1
-12.475333 -33.018824 16.933530 39.148705 1.209551 1.123484 0.074365 -0.035062 -113005.000000 0 0 1
-13.845233 -33.082924 17.577930 39.939378 1.174443 1.115069 0.098103 -0.037503 -519640.000000 0 0 1
-13.801933 -32.783724 18.947930 40.302481 1.172319 1.081344 0.082692 -0.026797 703716.000000 0 0 1
-15.071733 -33.086224 19.554230 41.282239 1.143354 1.077341 0.063407 -0.035902 846182.000000 0 0 1
-15.153533 -32.636924 21.016830 41.671399 1.136109 1.042171 0.063126 -0.040114 -146341.000000 0 0 1
-15.130833 -31.259124 21.121030 40.646929 1.119994 1.024388 0.088923 -0.038876 81601.100000 0 0 1
-15.100333 -30.911024 22.506430 41.110228 1.116383 0.991464 0.061584 -0.030692 55246.600000 0 0 1
-15.420333 -29.400124 22.675330 40.203539 1.087742 0.971558 0.079169 -0.038218 -147516.000000 0 0 1
-15.517533 -29.025624 24.081930 40.782595 1.079842 0.939124 0.079026 -0.033472 -235052.000000 0 0 1
-15.390133 -27.633824 24.298730 39.886247 1.062647 0.915744 0.086925 -0.029421 618134.000000 0 0 1
-16.694233 -26.827224 23.941130 39.643096 1.014150 0.922390 0.095174 -0.029390 307953.000000 0 0 1
-17.751533 -27.069924 24.814430 40.787910 0.990378 0.916782 0.092612 -0.025042 -720923.000000 0 0 1
-18.808433 -26.194324 24.569530 40.540863 0.948069 0.919719 0.092285 -0.025721 -409431.000000 0 0 1
-19.883533 -26.243724 25.740930 41.793341 0.922418 0.907256 0.084494 -0.015298 297887.000000 0 0 1
-20.603133 -27.437224 25.941330 43.014450 0.926707 0.923435 0.080570 -0.014894 390041.000000 0 0 1
-21.478633 -27.882024 24.914630 43.121662 0.914404 0.954796 0.069278 -0.016931 -235411.000000 0 0 1
-22.876733 -27.236524 24.801330 43.362185 0.872178 0.961906 0.047791 -0.003700 -444757.000000 0 0 1
-22.929033 -25.893324 24.429830 42.344083 0.846040 0.955824 0.060109 -0.011293 623501.000000 0 0 1
-24.184333 -25.645924 23.775630 42.519124 0.814721 0.977406 0.042006 -0.009425 383199.000000 0 0 1
-24.535533 -24.256324 23.249630 41.604169 0.779676 0.977823 0.038906 0.002693 -56108.500000 0 0 1
-24.999533 -23.505324 24.388430 42.098366 0.754603 0.952902 0.032846 0.003174 372043.000000 0 0 1
-25.653003 -22.275324 24.060130 41.631196 0.715041 0.954600 0.027108 -0.001001 321164.000000 0 0 1
-26.096643 -21.440424 25.286230 42.191468 0.687760 0.928144 0.035610 0.003787 518473.000000 0 0 1
-27.184413 -22.036524 26.003330 43.597865 0.681190 0.931743 0.024794 0.008521 430574.000000 0 0 1
-27.471853 -21.290524 27.156830 44.107624 0.659306 0.907529 0.016432 -0.000848 -699914.000000 0 0 1
-28.642133 -21.894824 27.959630 45.623415 0.652671 0.911153 0.010843 -0.005726 -1255570.000000 0 0 1
-29.948623 -21.757324 27.601630 46.175222 0.628283 0.930094 0.016677 -0.008116 -853082.000000 0 0 1
-30.340813 -22.482024 26.438730 46.097861 0.637705 0.959982 0.012060 -0.004362 -19137.500000 0 0 1
-31.890453 -22.688324 26.232530 47.115885 0.618366 0.980309 0.003396 -0.009913 828001.000000 0 0 1
-32.335253 -23.219724 24.983030 46.998680 0.622766 1.010345 -0.001916 -0.010892 -72914.100000 0 0 1
-31.836573 -24.446924 24.635330 47.096910 0.654852 1.020339 -0.007617 -0.010057 -844893.000000 0 0 1
-32.397253 -25.023524 23.301030 47.103044 0.657681 1.053327 0.006453 -0.007401 -824359.000000 0 0 1
-33.702183 -25.480424 23.373130 48.284494 0.647360 1.065495 0.034351 -0.009869 -767773.000000 0 0 1
-33.936163 -26.153324 22.141930 48.227840 0.656594 1.093802 0.046956 -0.000031 905324.000000 0 0 1
-35.280546 -26.987824 22.260330 49.684825 0.653000 1.106235 0.060688 -0.012096 798898.000000 0 0 1
-35.175546 -28.192624 23.094630 50.650814 0.675645 1.097348 0.050835 -0.015280 -176681.000000 0 0 1
-34.350294 -29.230624 22.655730 50.474292 0.705049 1.105311 0.034879 -0.006823 -589042.000000 0 0 1
-34.839538 -30.085124 21.436130 50.778103 0.712299 1.134977 0.046947 -0.001037 -165580.000000 0 0 1
-34.956045 -29.325124 20.294030 49.937317 0.698023 1.152297 0.042251 0.009569 501861.000000 0 0 1
-35.603827 -30.119224 19.315330 50.476550 0.702141 1.178123 0.046831 0.010798 -150043.000000 0 0 1
-36.005390 -29.493624 17.925230 49.875604 0.686306 1.203173 0.058482 0.018063 -220721.000000 0 0 1
-34.900095 -29.159624 17.106130 48.589299 0.696026 1.211030 0.073503 0.009688 133642.000000 0 0 1
-35.191215 -28.722824 15.820830 48.101153 0.684537 1.235650 0.070854 0.007113 -209553.000000 0 0 1
-35.622210 -29.828224 14.816930 48.766856 0.697104 1.262084 0.048394 0.011165 214473.000000 0 0 1
-34.629228 -30.741324 14.382630 48.487859 0.725993 1.269641 0.053959 0.002678 325280.000000 0 0 1
-35.228369 -31.708524 13.485430 49.278041 0.732862 1.293600 0.046530 0.000409 384448.000000 0 0 1
-35.478603 -31.336624 11.994530 48.832203 0.723486 1.322629 0.055532 -0.003798 230343.000000 0 0 1
-36.472193 -30.337124 11.816830 48.889666 0.693825 1.326675 0.049974 -0.007162 169863.000000 0 0 1
-36.378233 -29.624024 10.540030 48.083790 0.683420 1.349801 0.049341 -0.003321 -822716.000000 0 0 1
35.392563 -28.920824 10.280030 46.847909 -0.685108 1.349562 0.068830 0.003476 -730897.000000 0 0 1
35.583963 -27.872024 9.369930 46.161279 -0.664459 1.366394 0.080066 -0.036195 776683.000000 0 0 1
34.375293 -27.102524 9.232330 44.737495 -0.667646 1.362936 0.072640 -0.033504 611698.000000 0 0 1
34.431033 -26.017024 8.166930 43.921297 -0.647093 1.383763 0.061904 -0.033426 279495.000000 0 0 1
35.241763 -24.879524 8.414130 43.951907 -0.614719 1.378168 0.077268 -0.045039 37827.600000 0 0 1
34.974203 -23.973424 7.389930 43.041038 -0.600901 1.398246 0.075269 -0.045871 135278.000000 0 0 1
35.568333 -22.524424 7.446830 42.754079 -0.564526 1.395725 0.095502 -0.052918 -447598.000000 0 0 1
34.858683 -21.689124 8.293130 41.884626 -0.556584 1.371480 0.077622 -0.049128 -348337.000000 0 0 1
35.084353 -20.309524 8.125930 41.345124 -0.524743 1.372970 0.092876 -0.045992 80652.000000 0 0 1
34.314043 -19.429524 9.176630 40.486670 -0.515216 1.342151 0.095955 -0.037470 205807.000000 0 0 1
34.850773 -19.527124 10.477430 41.299655 -0.510722 1.314300 0.081963 -0.049047 -304532.000000 0 0 1
34.080893 -18.922824 11.481030 40.637354 -0.506852 1.284372 0.080992 -0.034089 -463731.000000 0 0 1
34.704813 -18.841424 12.855430 41.529331 -0.497380 1.256076 0.071776 -0.047546 261130.000000 0 0 1
35.833443 -17.986924 13.082830 42.174939 -0.465214 1.255389 0.042778 -0.029496 778876.000000 0 0 1
36.344693 -18.128324 14.409330 43.095262 -0.462678 1.229870 0.047381 -0.021001 -1013740.000000 0 0 1
-35.512931 -17.288524 14.640830 42.123808 0.453051 1.215822 0.052037 -0.023072 -521238.000000 0 0 1
-34.285207 -17.711724 14.075830 41.076874 0.476839 1.221038 0.040828 -0.022370 491662.000000 0 0 1
-33.162773 -16.896524 14.338730 39.885601 0.471221 1.203068 0.023863 -0.019811 128713.000000 0 0 1
-31.963723 -17.315524 13.476730 38.770210 0.496467 1.215780 0.041409 -0.027855 -421056.000000 0 0 1
-31.499853 -18.664724 13.514230 39.028798 0.534911 1.217212 0.036215 -0.027537 -210991.000000 0 0 1
-30.239903 -18.689224 12.900430 37.817455 0.553573 1.222684 0.014267 -0.015485 -278708.000000 0 0 1
-29.694153 -20.143924 12.623630 38.037829 0.596068 1.232511 0.004319 -0.018511 57737.600000 0 0 1
-30.382373 -20.740224 11.519330 38.547898 0.598980 1.267328 0.014582 -0.016033 80952.700000 0 0 1
-29.463583 -21.484724 10.714430 38.006514 0.630053 1.285012 0.004844 -0.015441 -133014.000000 0 0 1
-30.093653 -22.330424 9.551230 38.671718 0.638381 1.321231 0.021414 -0.022112 647346.000000 0 0 1
-30.834983 -23.527524 9.906730 40.031036 0.651778 1.320722 0.023522 -0.027997 1091560.000000 0 0 1
-32.099553 -23.261124 10.563030 41.024856 0.627082 1.310384 0.046309 -0.033656 248490.000000 0 0 1
-32.936333 -24.549024 10.693930 42.447812 0.640517 1.316121 0.070926 -0.035243 -340497.000000 0 0 1
-33.409383 -25.014324 9.458830 42.794541 0.642682 1.347927 0.069013 -0.027835 -37565.300000 0 0 1
-34.026303 -26.308824 9.525030 44.053033 0.658179 1.352858 0.083748 -0.023484 328621.000000 0 0 1
-34.119446 -27.081124 8.181030 44.322152 0.670897 1.385151 0.071540 -0.021708 255680.000000 0 0 1
-32.813333 -27.337724 7.716930 43.400656 0.694617 1.392039 0.054384 -0.025801 -147584.000000 0 0 1
-32.844863 -28.028924 6.488530 43.663562 0.706449 1.421641 0.049386 -0.020182 209743.000000 0 0 1
-31.417013 -28.481124 6.098230 42.841470 0.736423 1.427967 0.072003 -0.016960 787545.000000 0 0 1
-30.583673 -27.397524 5.616430 41.443089 0.730502 1.434857 0.079870 -0.012858 87387.700000 0 0 1
-29.598433 -27.817724 4.700030 40.889892 0.754394 1.455598 0.074343 -0.021273 59444.600000 0 0 1
-28.838333 -26.660524 4.016230 39.478641 0.746178 1.468888 0.069527 -0.014024 176733.000000 0 0 1
-29.530363 -26.097324 2.911230 39.516932 0.723762 1.497059 0.074098 -0.009682 30030.300000 0 0 1
-28.835603 -24.984024 2.396230 38.228724 0.713955 1.508074 0.063053 -0.017993 -117284.000000 0 0 1
-29.255493 -24.621924 0.957530 38.249704 0.699607 1.545760 0.071274 -0.017134 -369560.000000 0 0 1
-28.824643 -25.427724 -0.078270 38.437421 0.722867 1.572833 0.073536 -0.017937 -402776.000000 0 0 1
-28.815473 -24.911024 -1.433570 38.117525 0.712853 1.608414 0.082323 -0.024422 -883679.000000 0 0 1
-30.137863 -24.701224 -2.124570 39.025057 0.686583 1.625264 0.098042 -0.021750 -526307.000000 0 0 1
-31.043683 -23.772224 -1.562170 39.131436 0.653516 1.610728 0.081038 -0.012910 -279305.000000 0 0 1
-32.280133 -23.821324 -2.233470 40.180230 0.635748 1.626411 0.082176 -0.018393 -135461.000000 0 0 1
-33.102483 -22.529624 -2.080570 40.095974 0.597588 1.622709 0.069839 -0.016129 -380731.000000 0 0 1
-33.561363 -22.274724 -0.811670 40.288798 0.585947 1.590944 0.080438 -0.029504 97479.500000 0 0 1
-34.283279 -21.068424 -0.726370 40.246109 0.551042 1.588846 0.083776 -0.015266 -440625.000000 0 0 1
-34.429400 -20.385024 0.651330 40.016959 0.534577 1.554519 0.082735 -0.025337 -349619.000000 0 0 1
-35.214509 -21.178224 1.508130 41.119986 0.541453 1.534112 0.084697 -0.032406 165269.000000 0 0 1
-35.282221 -20.718724 2.837030 41.014014 0.530976 1.501569 0.092355 -0.029857 -869688.000000 0 0 1
-36.186453 -21.579924 3.738230 42.298072 0.537734 1.482303 0.098010 -0.025141 644074.000000 0 0 1
35.502483 -21.505924 3.395130 41.646824 -0.544643 1.489184 0.074048 -0.020943 492357.000000 0 0 1
34.800343 -20.348524 3.836630 40.495012 -0.529110 1.475911 0.077718 -0.025111 8524.370000 0 0 1
33.449963 -20.042824 3.125830 39.120143 -0.539822 1.490808 0.053815 -0.010478 664305.000000 0 0 1
32.442963 -21.000624 3.326830 38.789687 -0.574481 1.484925 0.039348 -0.008083 377453.000000 0 0 1
31.161583 -20.668724 2.797330 37.497539 -0.585651 1.496127 0.038371 -0.010261 1454500.000000 0 0 1
29.866493 -21.426224 3.236830 36.899425 -0.622309 1.482963 0.028919 0.007811 596866.000000 0 0 1
29.810353 -22.600924 2.482630 37.491630 -0.648701 1.504530 0.030123 0.001822 626152.000000 0 0 1
28.535663 -23.268124 2.567430 36.909096 -0.684064 1.501179 0.024778 0.005958 628291.000000 0 0 1
28.189863 -24.533324 1.771330 37.412431 -0.716156 1.523433 0.028096 0.004031 -104800.000000 0 0 1
27.899763 -24.151524 0.415630 36.903464 -0.713512 1.559533 0.025519 -0.004847 240659.000000 0 0 1
27.283963 -25.286824 -0.189170 37.200455 -0.747427 1.575882 0.017671 -0.010028 95339.800000 0 0 1
26.500763 -24.958424 -1.505270 36.434588 -0.755435 1.612122 0.029668 -0.016744 26084.600000 0 0 1
27.303663 -24.606724 -2.611370 36.848339 -0.733491 1.641724 0.019986 -0.028474 78998.100000 0 0 1
27.608663 -25.576124 -3.662870 37.812604 -0.747200 1.667817 0.019175 -0.027750 -65497.800000 0 0 1
26.410163 -26.083424 -4.572370 37.399843 -0.779174 1.693359 0.020643 -0.034774 657346.000000 0 0 1
25.895363 -25.179224 -5.532670 36.540027 -0.771378 1.722795 0.021240 -0.047695 -53514.200000 0 0 1
25.071763 -24.214424 -4.936570 35.203712 -0.768005 1.711489 0.042817 -0.043858 -928360.000000 0 0 1
24.346363 -23.218124 -5.817070 34.141836 -0.761682 1.742011 0.045321 -0.051000 875120.000000 0 0 1
23.302963 -23.803924 -6.686970 33.976027 -0.796032 1.768904 0.039354 -0.045012 987074.000000 0 0 1
22.339763 -22.917824 -7.188070 32.801829 -0.798170 1.791725 0.050122 -0.041902 -230396.000000 0 0 1
22.698563 -21.573624 -7.939870 32.306153 -0.759994 1.819110 0.048262 -0.039915 -739085.000000 0 0 1
23.146763 -21.674724 -9.293770 33.044522 -0.752568 1.855893 0.054083 -0.045342 293878.000000 0 0 1
23.142363 -20.393724 -9.920970 32.402139 -0.722347 1.881977 0.051700 -0.038452 -172592.000000 0 0 1
23.799063 -20.293424 -11.369570 33.278906 -0.706059 1.919463 0.042428 -0.029530 -648821.000000 0 0 1
25.178763 -20.333924 -11.380970 34.306924 -0.679347 1.908943 0.049716 -0.033240 -982077.000000 0 0 1
25.686363 -19.933724 -12.647370 34.886940 -0.659961 1.941772 0.039179 -0.031267 327764.000000 0 0 1
27.231363 -19.916024 -12.796870 36.082614 -0.631467 1.933341 0.035180 -0.025766 699167.000000 0 0 1
27.934063 -21.178224 -12.930270 37.363363 -0.648697 1.924173 0.025327 -0.024996 573660.000000 0 0 1
28.238943 -21.848024 -11.708270 37.574694 -0.658487 1.887673 0.042956 -0.032828 -293201.000000 0 0 1
28.708023 -23.354624 -11.928470 38.882868 -0.682932 1.882604 0.045190 -0.026745 944490.000000 0 0 1
29.787983 -23.501524 -12.920370 40.082185 -0.667973 1.899004 0.043481 -0.026798 1306460.000000 0 0 1
30.060103 -24.809924 -13.272670 41.174092 -0.690005 1.899012 0.054324 -0.022117 -171806.000000 0 0 1
-3.681033 -9.613931 -27.334300 29.208589 1.205130 2.781406 0.041017 -0.016350 -67811.600000 0 0 1
-3.530333 -8.241631 -26.975180 28.426187 1.166088 2.820703 0.044219 -0.009723 -492730.000000 0 0 1
-4.426233 -7.407131 -27.625400 28.941663 1.032170 2.838842 0.035946 -0.009987 -517422.000000 0 0 1
-4.483833 -5.981931 -27.133520 28.144559 0.927575 2.872742 0.036881 -0.010602 -125681.000000 0 0 1
-5.142533 -5.824531 -25.898850 27.039254 0.847504 2.850128 0.024460 -0.014359 115240.000000 0 0 1
-4.894933 -4.524531 -25.360890 26.222252 0.746095 2.884572 0.036924 -0.010734 -6516.530000 0 0 1
-5.352933 -4.325631 -23.896770 24.868064 0.679652 2.861183 0.024409 -0.008836 -222522.000000 0 1 0
-4.888433 -5.263431 -22.965170 24.062409 0.822320 2.838441 0.028339 -0.018603 331098.000000 0 1 0
-5.453533 -4.970031 -21.683170 22.904194 0.739046 2.813597 0.025827 -0.011595 -190542.000000 0 1 0
-4.997333 -5.865131 -20.519870 21.918900 0.865118 2.782376 0.029725 -0.020892 -116401.000000 0 1 0
-5.426333 -7.216831 -20.673670 22.559441 0.926081 2.729810 0.030680 -0.016820 373116.000000 0 1 0
-4.582733 -8.037531 -19.902770 21.948203 1.052602 2.706442 0.036297 -0.024381 -998884.000000 0 1 0
-5.100233 -9.524231 -19.777270 22.535833 1.079153 2.641613 0.045796 -0.026887 -51579.000000 0 1 0
-6.248833 -9.796631 -19.003270 22.274339 1.003006 2.592783 0.046619 -0.019808 1132550.000000 0 1 0
-7.454933 -9.100531 -19.439070 22.721645 0.884472 2.597372 0.041654 -0.018940 -194686.000000 0 1 0
-8.652833 -9.286631 -18.505670 22.440429 0.820713 2.540393 0.040480 -0.015124 -243751.000000 0 1 0
-9.322433 -10.554231 -18.668570 23.384077 0.847291 2.495339 0.070785 -0.011634 337987.000000 0 1 0
-10.120633 -10.823431 -17.537170 22.959229 0.818942 2.440038 0.065729 -0.010703 -83435.600000 0 1 0
-11.099733 -12.011131 -17.746770 24.133363 0.824814 2.396998 0.061768 -0.002643 -397213.000000 0 1 0
-12.287333 -11.748131 -18.423870 25.068628 0.762968 2.396371 0.067397 -0.015371 -527712.000000 0 0 1
-12.252133 -11.660231 -19.869970 26.093897 0.760650 2.436389 0.061238 -0.028452 -624883.000000 0 0 1
-13.678633 -11.377631 -20.411670 27.077514 0.693822 2.424658 0.039606 -0.021861 307865.000000 0 0 1
-14.638233 -12.416531 -20.423070 28.027663 0.703463 2.387182 0.026696 -0.023735 -19432.200000 0 0 1
-15.002433 -12.992531 -19.209170 27.620121 0.713726 2.339880 0.033671 -0.017967 -1319530.000000 0 0 1
-16.043333 -14.036831 -19.573770 28.940519 0.718792 2.313585 0.016798 -0.009318 -507377.000000 0 0 1
-15.476433 -15.220331 -20.050270 29.549819 0.777055 2.316548 0.025918 -0.001324 510033.000000 0 0 1
-16.405933 -15.984431 -20.909970 31.014247 0.772386 2.310684 0.013517 -0.006156 473956.000000 0 0 1
-16.040833 -17.387331 -21.358970 31.872138 0.825657 2.305201 0.006188 0.001170 -310568.000000 0 0 1
-16.246433 -18.330731 -20.313970 31.821685 0.845605 2.263174 0.010315 0.013743 281887.000000 0 0 1
-15.721833 -19.590231 -20.756570 32.585095 0.894512 2.261391 0.006763 0.013441 16960.400000 0 0 1
-16.189033 -20.824831 -19.945570 33.069384 0.909994 2.218232 0.011032 0.005809 -61360.700000 0 0 1
-15.929633 -22.041231 -20.570970 34.098884 0.944984 2.218396 0.007849 0.005395 -144376.000000 0 0 1
-16.613633 -23.059331 -19.933370 34.714331 0.946462 2.182437 0.019857 0.004261 -194076.000000 0 0 1
-16.155733 -24.473331 -20.392070 35.718177 0.987328 2.178417 0.022575 -0.005170 -146490.000000 0 0 1
-16.491733 -24.807531 -21.781070 36.902654 0.984096 2.202141 0.018059 -0.006392 444736.000000 0 0 1
-15.926133 -26.134971 -21.878970 37.621374 1.023508 2.191438 0.025412 -0.005174 -117015.000000 0 0 1
-15.871433 -26.739351 -23.292070 38.851201 1.035125 2.213698 0.034520 -0.009051 -118265.000000 0 0 1
-17.102733 -27.063641 -23.903570 39.954034 1.007218 2.212145 0.058204 -0.010002 -254457.000000 0 0 1
-17.395233 -28.444441 -23.673570 40.891543 1.021927 2.188219 0.062352 -0.009515 -91853.100000 0 0 1
-18.609633 -28.902271 -24.535670 42.233385 0.998734 2.190697 0.074991 -0.015465 -133907.000000 0 0 1
-18.453233 -28.970981 -25.952730 43.050944 1.003646 2.217849 0.074996 -0.018281 -99446.000000 0 0 1
-18.391433 -27.713081 -26.593940 42.585177 0.984894 2.245272 0.084233 -0.033292 350233.000000 0 0 1
-17.092033 -27.652811 -27.454600 42.550800 1.017179 2.272107 0.091966 -0.030667 92532.800000 0 0 1
-17.078433 -28.564491 -28.522390 43.830694 1.031929 2.279355 0.106974 -0.021569 -17231.900000 0 0 1
-15.911233 -28.438831 -29.311100 43.830070 1.060697 2.303315 0.063482 -0.006908 -80892.400000 0 0 1
-16.114633 -28.318541 -30.866790 44.881844 1.053446 2.329160 0.080531 -0.013764 -6304.160000 0 0 1
-16.520333 -29.583421 -31.405060 46.199329 1.061502 2.318250 0.065428 -0.008865 170051.000000 0 0 1
-16.923933 -29.348561 -32.776000 47.138347 1.047721 2.339654 0.070655 -0.010881 164525.000000 0 0 1
-16.918033 -30.648051 -33.627050 48.541749 1.066411 2.336085 0.056764 -0.013163 820685.000000 0 0 1
-15.579533 -31.108321 -33.886270 48.566746 1.106496 2.343014 0.057407 -0.002539 702557.000000 0 0 1
-15.607833 -32.120731 33.375007 48.879821 1.118483 0.819212 0.040337 0.001712 -58167.100000 0 0 1
-14.252433 -32.760821 33.052654 48.671154 1.160448 0.824258 0.024288 -0.000594 -45919.700000 0 0 1
-13.636733 -33.744841 33.859715 49.710714 1.186749 0.821484 0.029325 0.005040 299113.000000 0 0 1
-12.522133 33.850165 33.174783 49.022481 -1.216479 0.827490 0.028944 0.003247 259665.000000 0 0 1
-11.700933 32.835102 34.003266 48.695768 -1.228472 0.797805 0.028805 0.001682 -44116.500000 0 0 1
-10.862833 33.540214 -33.390450 48.557896 -1.257582 2.329033 0.033025 -0.001004 -152265.000000 0 0 1
-10.114133 32.752763 -32.443840 47.197902 -1.271284 2.328699 0.021387 -0.006656 238587.000000 0 0 1
-9.272033 33.557915 -31.447320 46.915223 -1.301222 2.305411 0.013531 -0.006449 108803.000000 0 0 1
-10.026733 -33.823751 -30.535820 46.658523 1.282608 2.284256 0.034286 -0.005199 -35618.600000 0 0 1
-9.216333 -32.838761 -29.914700 45.367547 1.297181 2.290797 0.039677 -0.010465 -32824.100000 0 0 1
-10.022433 -31.875731 -29.019570 44.256602 1.266161 2.285921 0.059240 -0.009909 64282.600000 0 0 1
-10.265833 -32.198591 -27.641950 43.660211 1.262156 2.256368 0.082553 -0.013805 -196976.000000 0 0 1
-11.011833 -33.369021 -27.338250 44.521140 1.252047 2.231979 0.076831 -0.013209 -103719.000000 0 0 1
-11.310433 -33.550021 -25.815540 43.817484 1.245640 2.200816 0.088281 -0.021116 -434417.000000 0 0 1
-10.198133 -33.695671 -25.002270 43.180015 1.276906 2.188328 0.091806 -0.030076 -812336.000000 0 0 1
-10.542233 -33.768011 -23.663370 42.560220 1.268189 2.160359 0.096025 -0.039906 438637.000000 0 0 1
-9.287933 -33.790411 -22.726670 41.767920 1.302552 2.146134 0.101813 -0.046854 455364.000000 0 0 1
-8.677233 33.129105 -22.703470 41.088679 -1.314629 2.156215 0.082369 -0.043813 -159988.000000 0 0 1
-7.609733 33.055618 -21.779570 40.310440 -1.344529 2.141585 0.090661 -0.042438 -80722.600000 0 0 1
-6.972733 31.684703 -21.472870 38.905315 -1.354183 2.155469 0.085087 -0.043238 -1260150.000000 0 0 1
-6.101233 31.332973 -22.446570 39.023438 -1.378480 2.183654 0.061258 -0.051835 -654548.000000 0 0 1
-5.238233 30.258233 -22.081470 37.823155 -1.399378 2.194208 0.040274 -0.037628 951515.000000 0 0 1
-3.770433 30.421483 -22.611270 38.091368 -1.447485 2.206329 0.052158 -0.045994 643428.000000 0 0 1
-3.753233 30.785683 -24.011970 39.222694 -1.449480 2.229631 0.067234 -0.037925 -410747.000000 0 0 1
-2.526133 31.403773 -24.306170 39.791559 -1.490529 2.227914 0.052286 -0.045571 -96318.500000 0 0 1
-2.264133 31.573153 -25.855690 40.871836 -1.499208 2.255707 0.064429 -0.018896 -845207.000000 0 0 1
-1.343933 32.516397 -26.233340 41.800841 -1.529489 2.249236 0.077373 -0.034816 -742632.000000 0 0 1
-1.787033 33.861414 -26.208810 42.856628 -1.518070 2.228810 0.060068 -0.023013 -260889.000000 0 0 1
-0.748433 -33.434551 -26.912190 42.926627 1.548415 2.248409 0.026701 -0.014478 313200.000000 0 0 1
0.354967 -33.215741 -26.021380 42.196252 -1.560110 2.235308 0.042225 -0.020162 432909.000000 0 0 1
1.238367 -32.190701 -26.581220 41.765249 -1.532346 2.260675 0.021385 -0.011961 292545.000000 0 0 1
2.425267 -31.846951 -25.692700 40.990548 -1.494789 2.248230 0.025573 -0.008433 -579482.000000 0 0 1
2.091167 -31.142721 -24.510670 39.686459 -1.503749 2.236494 0.027677 -0.008356 100708.000000 0 0 1
3.219467 -30.407181 -24.125970 38.948993 -1.465311 2.238806 0.017090 -0.002740 -368711.000000 0 0 1
3.044467 -29.800701 -22.731870 37.604368 -1.468989 2.219935 0.036088 -0.007119 -82141.500000 0 0 1
3.284467 -30.814081 -21.727270 37.846659 -1.464607 2.182285 0.036950 -0.010876 472287.000000 0 0 1
3.241067 -30.367091 -20.378670 36.714506 -1.464469 2.159229 0.053059 -0.018847 -261701.000000 0 0 1
3.405767 -31.535271 -19.382070 37.171726 -1.463215 2.119310 0.051931 -0.011551 -676509.000000 0 0 1
2.202667 -31.942411 -18.812170 37.135793 -1.501948 2.102007 0.056188 -0.014827 -360312.000000 0 0 1
1.949967 -33.334321 -18.860370 38.349614 -1.512366 2.084953 0.061460 0.001524 -262884.000000 0 0 1
2.790967 33.922717 -17.878470 38.447105 1.488707 2.054448 0.042092 -0.018597 815196.000000 0 0 1
4.127267 33.781743 -18.369370 38.673948 1.449224 2.065738 0.044277 -0.004605 122115.000000 0 0 1
4.759267 32.729379 -17.660670 37.493494 1.426396 2.061258 0.049831 -0.028045 -135197.000000 0 0 1
5.907467 32.092313 -18.423370 37.473127 1.388757 2.084771 0.058729 -0.025715 402728.000000 0 0 1
6.986867 32.984932 -18.745170 38.577240 1.362062 2.078203 0.089772 -0.023193 320686.000000 0 0 1
8.035367 32.332789 -19.450770 38.578605 1.327210 2.099235 0.061442 -0.017789 406844.000000 0 0 1
9.335667 33.167332 -19.561470 39.621682 1.296423 2.087143 0.047402 -0.028309 -28821.200000 0 0 1
10.082567 33.231437 -18.381770 39.292188 1.276219 2.057622 0.046801 -0.025050 -593136.000000 0 0 1
11.237467 34.002683 -18.507270 40.311067 1.251609 2.047791 0.046005 -0.018160 -292179.000000 0 0 1
11.981867 34.060305 -17.140270 39.968217 1.232533 2.014013 0.027223 -0.016590 -122152.000000 0 0 1
12.770967 32.901227 -16.896470 39.129005 1.200538 2.017300 0.023917 -0.017055 60618.300000 0 0 1
13.418467 33.104671 -15.641770 38.995378 1.185700 1.983534 0.029548 -0.019310 -687784.000000 0 0 1
14.508967 32.148576 -15.272970 38.435721 1.146854 1.979439 0.032820 -0.013188 -582811.000000 0 0 1
14.154567 30.858073 -14.921370 37.083955 1.140732 1.984898 0.052250 -0.012161 -296950.000000 0 0 1
15.348967 30.137283 -14.682870 36.870493 1.099735 1.980381 0.045184 -0.005873 206574.000000 0 0 1
15.264967 28.734483 -14.043370 35.438763 1.082469 1.978249 0.065090 -0.012342 -304227.000000 0 0 1
15.449967 28.720203 -12.647970 34.978889 1.077253 1.940768 0.075303 -0.020966 -177534.000000 0 0 1
14.285167 28.875873 -11.862270 34.330678 1.111390 1.923600 0.077460 -0.019396 108143.000000 0 0 1
13.474867 27.581613 -11.632670 32.827373 1.116354 1.933025 0.077179 -0.023636 -524542.000000 0 0 1
12.644367 27.225003 -12.704770 32.595889 1.136000 1.971174 0.061911 -0.019037 -148120.000000 0 0 1
12.094967 25.932573 -12.635670 31.280133 1.134388 1.986629 0.091610 -0.025181 569934.000000 0 0 1
11.126667 25.525563 -11.454370 30.109129 1.159727 1.961056 0.085346 -0.027299 980797.000000 0 0 1
9.876267 26.268453 -11.405870 30.293005 1.211172 1.956831 0.070261 -0.023976 960366.000000 0 0 1
9.277367 26.113063 -10.136770 29.507892 1.229428 1.921467 0.056043 -0.013064 -314322.000000 0 0 1
8.146067 27.128123 -10.011070 30.041887 1.279082 1.910531 0.052892 -0.014478 -131144.000000 0 0 1
8.742367 28.408853 -10.002170 31.361366 1.272259 1.895400 0.061084 -0.029850 419375.000000 0 0 1
7.777667 29.440033 -10.096870 32.080437 1.312511 1.890975 0.059028 -0.032683 683948.000000 0 0 1
8.528067 30.704133 -10.693670 33.612888 1.299875 1.894565 0.078122 -0.032958 850141.000000 0 0 1
9.365867 31.405763 -9.722170 34.184236 1.280972 1.859182 0.072960 -0.025433 241414.000000 0 0 1
9.765367 32.686694 -10.232270 35.615750 1.280481 1.862199 0.093933 -0.029506 -137598.000000 0 0 1
10.906767 32.752363 -11.252970 36.308458 1.249339 1.885913 0.084141 -0.030472 -939429.000000 0 0 1
12.164767 32.499499 -10.711470 36.317139 1.212634 1.870192 0.067676 -0.024515 -478940.000000 0 0 1
13.159867 32.827393 -11.670870 37.242838 1.189531 1.889538 0.079593 -0.023412 689446.000000 0 0 1
14.640167 32.681988 -11.199470 37.521660 1.149642 1.873896 0.070963 -0.023741 625057.000000 0 0 1
15.007267 33.601391 -10.222070 38.193746 1.150751 1.841736 0.075245 -0.019549 86689.000000 0 0 1
16.392167 33.918952 -10.245070 39.040490 1.120618 1.836327 0.049933 -0.023304 372783.000000 0 0 1
16.821867 -33.429881 -9.059570 38.504648 -1.104593 1.808308 0.059622 -0.018264 -61050.400000 0 0 1
16.924367 34.011507 -7.854070 38.793082 1.109065 1.774666 0.060191 -0.013297 -192894.000000 0 0 1
17.490367 -33.305891 -6.959370 38.257393 -1.087237 1.753724 0.060790 -0.008466 -846998.000000 0 0 1
17.850267 34.069097 -5.637070 38.873023 1.088178 1.716322 0.056264 -0.001361 173606.000000 0 0 1
18.863067 33.090592 -5.756970 38.522010 1.052695 1.720805 0.048088 -0.009105 417815.000000 0 0 1
20.196967 33.604117 -5.914270 39.650129 1.029622 1.720516 0.049283 -0.006925 237233.000000 0 0 1
21.080167 32.684482 -6.893470 39.498971 0.997973 1.746217 0.036993 -0.004799 513065.000000 0 0 1
21.251967 31.419323 -6.302970 38.451884 0.976087 1.735458 0.042774 0.002128 109948.000000 0 0 1
22.240167 31.475603 -5.272970 38.899136 0.955665 1.706770 0.032323 0.004277 -772525.000000 0 0 1
22.491467 30.042223 -4.776270 37.831389 0.928152 1.697386 0.019289 -0.002381 -345174.000000 0 0 1
23.184067 29.265483 -5.720570 37.771608 0.900831 1.722833 0.014080 0.000373 -200878.000000 0 0 1
23.621667 28.086343 -5.103270 37.052249 0.871529 1.708967 0.013035 0.008722 -590592.000000 0 0 1
24.582367 27.341043 -6.021170 37.256944 0.838478 1.733120 0.011092 0.007389 -804375.000000 0 0 1
25.804867 28.041563 -6.147170 38.600623 0.826913 1.730728 0.019139 0.004110 254508.000000 0 0 1
26.836867 27.210883 -6.702470 38.801710 0.792318 1.744404 0.007625 0.005831 1583.060000 0 0 1
27.543967 26.222833 -5.822670 38.473505 0.760832 1.722722 0.010400 0.005499 -1116190.000000 0 0 1
28.646767 26.869193 -5.212370 39.620191 0.753390 1.702737 0.024553 -0.000587 -46082.300000 0 0 1
29.454467 25.923163 -4.564170 39.501995 0.721717 1.686598 0.032906 0.001994 -366728.000000 0 0 1
30.733867 26.406033 -3.886270 40.705678 0.709801 1.666414 0.043626 -0.011178 -277354.000000 0 0 1
30.542167 27.333673 -2.880270 41.088314 0.730017 1.640953 0.057736 -0.020464 -353870.000000 0 0 1
31.760367 27.561963 -2.226870 42.111063 0.714743 1.623702 0.074741 -0.037806 -155393.000000 0 0 1
31.696167 28.581203 -1.068870 42.692794 0.733767 1.595835 0.067282 -0.026057 124266.000000 0 0 1
31.571167 29.905013 -1.594570 43.515411 0.758302 1.607448 0.046218 -0.014364 61117.400000 0 0 1
30.928167 30.792273 -0.685370 43.648428 0.783196 1.586499 0.064897 -0.020550 -182843.000000 0 0 1
32.845753 22.751669 19.088432 44.281488 0.605798 1.125118 0.093440 -0.035352 -236415.000000 0 0 1
33.318953 22.415569 20.343032 45.016101 0.592207 1.101896 0.095238 -0.037535 -259112.000000 0 0 1
34.239803 23.415469 20.715632 46.365782 0.599816 1.107626 0.116628 -0.039731 23262.100000 0 0 1
34.439213 23.686069 22.203132 47.329360 0.602467 1.082503 0.074278 -0.026491 -613235.000000 0 0 1
33.326973 24.305469 22.729932 47.096632 0.630123 1.067149 0.046202 -0.015541 -723337.000000 0 0 1
33.218143 24.356769 24.139742 47.743318 0.632686 1.040702 0.034881 -0.016237 777382.000000 0 0 1
31.856563 24.775769 24.836402 47.386984 0.661013 1.019116 0.053045 -0.017508 875182.000000 0 0 1
31.517843 26.136969 24.654682 47.795072 0.692339 1.028807 0.049556 -0.021803 656957.000000 0 0 1
30.317793 26.612169 25.278452 47.606473 0.720399 1.011031 0.043104 -0.023727 613005.000000 0 0 1
30.351793 28.197569 25.341432 48.564621 0.748621 1.021827 0.034079 -0.015076 -62062.000000 0 0 1
30.347413 28.855569 24.089002 48.310344 0.760205 1.048778 0.046436 -0.027748 208545.000000 0 0 1
30.348923 30.264569 24.344822 49.291700 0.784007 1.054235 0.049069 -0.025186 -204820.000000 0 0 1
30.719053 31.173669 23.154432 49.513489 0.792743 1.084179 0.044580 -0.021592 154364.000000 0 0 1
32.112443 31.362969 22.969632 50.422702 0.773591 1.097816 0.004948 -0.018811 -110223.000000 0 0 1
32.358713 32.144669 21.851932 50.575419 0.782080 1.124014 0.012671 -0.014441 634420.000000 0 0 1
33.815473 32.692369 21.722132 51.808573 0.768513 1.138148 0.005125 -0.023732 425876.000000 0 0 1
34.134693 33.586069 22.710132 52.999542 0.777297 1.127968 0.023832 -0.013057 -430266.000000 0 0 1
35.473763 33.979269 22.593132 54.068736 0.763883 1.139708 0.030267 -0.011341 -155412.000000 0 0 1
35.884713 -33.117924 23.622022 54.244902 -0.745323 1.120236 0.036685 -0.006206 -164355.000000 0 0 1
35.414383 -31.866224 23.130632 52.959049 -0.732710 1.118798 0.040976 -0.005838 182358.000000 0 0 1
35.661643 -30.858724 24.023752 52.925932 -0.713321 1.099645 0.062308 -0.010006 -753311.000000 0 0 1
34.670013 -29.672524 23.862142 51.496314 -0.707884 1.088996 0.059022 -0.015811 -82966.400000 0 0 1
33.344483 -29.947924 24.226032 50.947358 -0.731785 1.075251 0.038116 -0.006583 -473734.000000 0 0 1
32.565203 -30.244924 23.095432 50.086394 -0.748474 1.091548 0.031149 -0.002926 -475252.000000 0 0 1
31.900643 -31.664224 23.120332 50.545265 -0.781679 1.095706 0.014409 -0.002577 142659.000000 0 0 1
30.856103 -31.722524 24.083302 50.382766 -0.799243 1.072412 0.023347 -0.012264 29993.100000 0 0 1
30.302183 -32.999124 24.115822 50.879636 -0.827977 1.076993 0.017145 -0.018882 -263102.000000 0 0 1
29.472053 -33.292124 25.365862 51.189788 -0.846187 1.052356 0.026942 -0.019302 -115351.000000 0 0 1
29.014943 33.514869 25.397512 51.089598 0.857239 1.050523 0.044022 -0.031802 559586.000000 0 0 1
28.326623 33.226269 26.643012 51.149122 0.864831 1.022904 0.048600 -0.027456 -650318.000000 0 0 1
27.898763 31.740769 26.929372 50.109964 0.849730 1.003439 0.056616 -0.021841 1143320.000000 0 0 1
26.981963 31.225969 25.909822 48.727881 0.858181 1.010161 0.057520 -0.022671 636595.000000 0 0 1
25.720163 31.837769 25.804392 48.384264 0.891287 1.008273 0.049980 -0.030054 -1004240.000000 0 0 1
25.151063 31.708369 24.364182 47.239920 0.900216 1.028909 0.094141 -0.038318 -117307.000000 0 0 1
25.623063 32.599869 23.377592 47.600469 0.904659 1.057420 0.111469 -0.048089 78448.700000 0 0 1
26.921063 32.351769 22.878932 47.904344 0.876765 1.072880 0.093345 -0.035184 -287293.000000 0 0 1
27.382963 33.419669 21.931432 48.452953 0.884357 1.101080 0.108438 -0.032699 -380855.000000 0 0 1
28.521903 33.178169 21.142632 48.593217 0.860722 1.120653 0.091274 -0.031636 -66541.100000 0 0 1
28.349643 33.694969 19.839632 48.297663 0.871339 1.147489 0.078614 -0.027576 253127.000000 0 0 1
29.710903 -34.032324 19.228332 49.098529 -0.853089 1.168397 0.073859 -0.022823 758619.000000 0 0 1
30.569823 33.035969 18.908832 48.820419 0.824151 1.173080 0.075321 -0.034879 408326.000000 0 0 1
31.637043 33.471469 18.058632 49.470758 0.813566 1.197124 0.067628 -0.017538 -4090.420000 0 0 1
32.533923 32.315669 17.625232 49.126443 0.782033 1.203843 0.054260 -0.027308 -106886.000000 0 0 1
33.510843 31.890569 18.576732 49.850577 0.760629 1.188935 0.038668 -0.021788 301047.000000 0 0 1
34.323013 30.878369 18.014032 49.558534 0.732616 1.198785 0.042939 -0.026423 570319.000000 0 0 1
35.432103 30.310869 18.969932 50.339259 0.707657 1.184412 0.043897 -0.032450 503923.000000 0 0 1
36.398293 31.211169 19.449932 51.742368 0.708826 1.185429 0.064810 -0.029001 -62484.000000 0 0 1
-35.711379 30.583269 20.251032 51.193196 -0.708199 1.164096 0.072415 -0.028654 372823.000000 0 0 1
-34.607584 31.548169 20.802532 51.241753 -0.739185 1.152758 0.047883 -0.028777 66356.700000 0 0 1
-33.643503 31.969369 19.847632 50.476275 -0.759888 1.166679 0.054126 -0.024312 1106760.000000 0 0 1
-32.396163 32.478169 20.380432 50.196662 -0.786662 1.152711 0.062695 -0.008337 951024.000000 0 0 1
-32.416223 33.667969 21.391232 51.399694 -0.804338 1.141562 0.037247 0.000086 -747640.000000 0 0 1
-33.049723 33.399869 22.611032 52.144935 -0.790667 1.122291 0.053733 -0.006465 79144.900000 0 0 1
-33.009873 -33.583424 23.424872 52.594893 0.794011 1.109194 0.040658 -0.004620 -12431.700000 0 0 1
-33.255573 -33.814324 24.960372 53.594420 0.793729 1.086340 0.045479 -0.016248 -242050.000000 0 0 1
-34.625585 -33.927824 25.261292 54.664077 0.775220 1.090413 0.040364 -0.011886 -441507.000000 0 0 1
-34.729405 34.044469 26.615552 55.439563 -0.775439 1.070048 0.049148 -0.004680 -344878.000000 0 0 1
-36.113033 33.690869 27.129032 56.349004 -0.750713 1.068492 0.035183 -0.015435 -431412.000000 0 0 1
-36.017558 32.674569 28.147402 56.188684 -0.736770 1.046107 0.056994 -0.027953 51082.400000 0 0 1
35.789923 32.589869 28.776742 56.312690 0.738634 1.034429 0.069782 -0.024075 -62569.400000 0 0 1
35.864813 31.435469 29.806782 56.239824 0.719678 1.012203 0.070674 -0.023528 -23095.300000 0 0 1
35.853803 30.046269 29.482332 55.294497 0.697499 1.008433 0.050285 -0.019611 -2459.330000 0 0 1
-36.228993 29.673969 28.559532 54.851903 -0.686259 1.023165 0.053827 -0.024123 -502795.000000 0 0 1
-36.284103 28.165169 28.118142 53.855759 -0.660084 1.021484 0.057575 -0.026329 -348179.000000 0 0 1
35.761203 27.978869 27.154742 52.906151 0.663905 1.031814 0.041132 -0.013225 343811.000000 0 0 1
35.465783 26.676869 26.550412 51.714616 0.644899 1.031651 0.048231 -0.012364 345622.000000 0 0 1
34.793023 25.552469 27.402412 51.130963 0.633451 1.005192 0.044613 -0.008752 -15624.500000 0 0 1
35.784623 24.985569 28.248852 51.988610 0.609531 0.996355 0.037805 -0.006526 202911.000000 0 0 1
35.489673 23.744069 28.867942 51.542757 0.589645 0.976317 0.044389 -0.008779 -333235.000000 0 0 1
35.959973 22.656469 27.959272 50.873924 0.562220 0.988935 0.021596 -0.001599 -165894.000000 0 0 1
35.138163 22.355269 26.838092 49.545250 0.566620 0.998352 0.034297 -0.006625 -76927.200000 0 0 1
35.690823 21.404569 25.930852 49.034677 0.540215 1.013579 0.037162 -0.014873 -326641.000000 0 0 1
35.337873 19.963669 26.156762 48.285501 0.514239 0.998326 0.029304 -0.007095 -1917.110000 0 0 1
33.957383 19.663169 25.930622 47.033406 0.524876 0.986847 0.043880 -0.009932 929320.000000 0 0 1
33.499923 18.467569 26.637622 46.613934 0.503819 0.962522 0.048995 -0.017153 -451146.000000 0 0 1
33.538753 18.507069 28.222702 47.580253 0.504233 0.935818 0.026125 -0.009547 -168545.000000 0 0 1
32.518433 19.305869 28.825362 47.550674 0.535767 0.919519 0.032523 -0.014253 526084.000000 0 0 1
32.560943 20.702369 28.512992 47.977014 0.566331 0.934395 0.018396 -0.015110 -872113.000000 0 0 1
31.626893 21.597869 29.410092 48.287492 0.599154 0.915919 0.036927 -0.024431 -103205.000000 0 0 1
30.250483 21.381969 29.187402 47.161264 0.615296 0.903474 0.049310 -0.035417 -109667.000000 0 0 1
29.668703 22.013069 28.079612 46.403360 0.638337 0.920879 0.039102 -0.026917 -583071.000000 0 0 1
29.581843 23.567569 28.207592 47.182455 0.672720 0.929992 0.044328 -0.025912 -261459.000000 0 0 1
30.821163 24.236969 27.990092 48.174890 0.666377 0.950827 0.060288 -0.029596 263483.000000 0 0 1
31.107843 25.382169 28.775502 49.396173 0.684386 0.948940 0.048130 -0.019668 78932.200000 0 0 1
31.497063 25.374969 30.306952 50.541719 0.678164 0.927742 0.038688 -0.023678 1007350.000000 0 0 1
32.789343 24.717369 30.424012 51.104891 0.645944 0.933126 0.012458 -0.004978 929419.000000 0 0 1
33.333023 24.797069 31.751292 52.288905 0.639598 0.918229 0.030235 -0.011607 419592.000000 0 0 1
32.731643 23.676469 32.738280 51.997410 0.626227 0.889740 0.032965 -0.007905 -68523.400000 0 0 1
33.028123 23.884269 34.104964 53.145685 0.626094 0.874050 0.032913 -0.025030 -79710.600000 0 0 1
32.493733 22.845569 -33.419260 51.909630 0.612788 2.270246 0.038143 -0.028078 -254073.000000 0 0 1
33.049483 22.580669 -31.966560 51.225149 0.599388 2.244699 0.025836 -0.028821 -11621.600000 0 0 1
32.574823 23.610569 -31.052210 50.821431 0.627184 2.228127 0.017343 -0.026492 375549.000000 0 0 1
33.053273 23.402869 -29.700850 50.223039 0.616098 2.203564 0.032617 -0.024916 -108096.000000 0 0 1
34.509913 23.808369 -29.375530 51.192717 0.603915 2.181962 0.035510 -0.001200 -1301.130000 0 0 1
34.902863 23.250269 -28.165890 50.518336 0.587639 2.162213 0.017300 -0.007351 -749462.000000 0 0 1
36.178753 23.694169 -27.811430 51.417813 0.579826 2.142292 0.030386 0.000314 -442732.000000 0 0 1
-36.315373 22.791069 -26.719330 50.518925 -0.560458 2.128097 0.013121 0.007727 -173359.000000 0 0 1
-35.785260 21.586969 -27.270540 49.902550 -0.542796 2.148947 0.005006 0.015482 89720.100000 0 0 1
-35.921439 20.547869 -26.306390 49.036628 -0.519594 2.137038 -0.007014 0.019115 -964024.000000 0 0 1
-34.956711 19.410469 -26.484270 47.959926 -0.506882 2.155817 0.004300 0.030607 -947135.000000 0 0 1
-33.760843 19.843269 -25.883300 46.941401 -0.531371 2.154833 0.007889 0.024538 -485184.000000 0 0 1
-32.774633 18.815269 -26.058920 45.904883 -0.521143 2.174472 -0.003182 0.013846 236799.000000 0 0 1
-31.436563 19.143469 -25.375510 44.706224 -0.546978 2.174391 0.010268 0.020531 -253972.000000 0 0 1
-31.613443 19.294769 -24.026270 44.147022 -0.547984 2.146271 0.017481 0.015605 387868.000000 0 0 1
-30.361493 19.446069 -23.350770 42.956121 -0.569657 2.145512 0.033186 0.016763 675640.000000 0 0 1
-30.612643 19.838469 -21.834970 42.514288 -0.575002 2.110161 0.021524 0.005185 252563.000000 0 0 1
-31.147673 18.780969 -21.019870 42.008776 -0.542597 2.094821 0.003319 0.004096 118617.000000 0 0 1
-31.645053 19.237069 -19.780070 41.984823 -0.546209 2.061361 0.015570 0.007088 -641263.000000 0 0 1
-32.757393 18.351869 -19.184370 42.164890 -0.510668 2.043151 0.002241 -0.004525 123248.000000 0 0 1
-33.412093 18.913869 -18.049770 42.425189 -0.515104 2.010255 0.007759 -0.015375 428879.000000 0 0 1
-34.409170 19.876569 -18.420370 43.799304 -0.523826 2.004862 0.000162 -0.012338 -222934.000000 0 0 1
-35.474489 20.075969 -17.283270 44.274093 -0.514989 1.971830 0.007603 -0.019889 -73218.000000 0 0 1
-35.112193 20.797869 -16.095270 43.868841 -0.534758 1.946466 0.017794 -0.031437 -227329.000000 0 0 1
-36.019663 20.543969 -15.066870 44.118946 -0.518336 1.919315 0.019179 -0.016753 -856364.000000 0 0 1
-35.964664 21.520669 -13.821070 44.131828 -0.539230 1.889333 0.032307 -0.015361 -225397.000000 0 0 1
-36.410413 22.894769 -13.975970 45.224069 -0.561325 1.884978 0.046804 -0.015964 877736.000000 0 0 1
35.257933 22.991369 -14.232170 44.432866 0.577844 1.896850 0.055134 -0.009425 505497.000000 0 0 1
34.643793 24.352469 -14.677570 44.818146 0.612696 1.904444 0.065063 -0.011537 98624.500000 0 0 1
34.864613 25.341769 -13.759970 45.244704 0.628528 1.879814 0.060488 -0.009750 -99596.900000 0 0 1
34.686643 26.612169 -14.290170 45.995431 0.654429 1.886712 0.035528 0.000980 -57088.800000 0 0 1
36.002763 27.312669 -14.689570 47.518042 0.649000 1.885081 0.066738 0.003042 26814.300000 0 0 1
36.289233 27.112069 -16.062370 48.062173 0.641649 1.911552 0.064101 0.006256 594601.000000 0 0 1
-35.507508 27.738269 -16.330770 47.925867 -0.663169 1.918512 0.075159 -0.000801 512436.000000 0 0 1
-35.018569 27.401369 -17.748570 47.876372 -0.663967 1.950577 0.063126 -0.003157 -9490.720000 0 0 1
-34.711970 26.070769 -18.117270 47.040848 -0.644179 1.966155 0.059528 -0.013210 446356.000000 0 0 1
-33.502573 25.568269 -17.542870 45.649875 -0.651879 1.965237 0.074820 -0.011313 134398.000000 0 0 1
-33.161953 24.275069 -18.207670 44.950121 -0.631891 1.987845 0.067387 -0.006401 -285866.000000 0 0 1
-32.797873 24.511269 -19.540970 45.369068 -0.641799 2.016077 0.044757 0.002711 37290.900000 0 0 1
-32.324993 23.296069 -20.098370 44.626859 -0.624473 2.037970 0.037914 0.011083 13722.600000 0 0 1
-31.818773 23.495569 -21.575370 45.055218 -0.636048 2.070158 0.028283 0.028219 407323.000000 0 0 1
-32.878573 23.693269 -22.507470 46.356853 -0.624438 2.077761 0.026018 0.023410 451182.000000 0 0 1
-32.467443 23.368669 -23.787870 46.541297 -0.623863 2.107276 0.022398 0.030547 -456873.000000 0 0 1
-33.239623 24.135269 -24.786170 47.976432 -0.628028 2.113709 0.001947 0.024569 -417349.000000 0 0 1
-32.983283 25.556569 -24.817270 48.548245 -0.659206 2.107363 0.004731 0.029047 -91844.600000 0 0 1
-33.805313 26.119469 -25.821010 49.917436 -0.657836 2.114459 0.012083 0.017331 -286382.000000 0 0 1
-33.337763 27.488969 -26.278380 50.572751 -0.689538 2.117197 0.009975 0.012791 760543.000000 0 0 1
-32.036813 27.412469 -26.874510 50.000402 -0.707768 2.138249 -0.002342 0.005689 343210.000000 0 0 1
-31.480033 28.618269 -27.400950 50.604445 -0.737816 2.142985 0.008633 -0.006742 256679.000000 0 0 1
-30.219003 28.435969 -28.254270 50.200561 -0.755009 2.168599 0.032301 -0.014305 9684.730000 0 0 1
-29.128453 27.962769 -27.498500 48.852336 -0.764983 2.168675 0.019686 -0.004819 1581840.000000 0 0 1
-27.790693 28.059269 -28.113940 48.477199 -0.790207 2.189453 0.043049 -0.007454 2380830.000000 0 0 1
-26.997153 29.382769 -27.809550 48.637069 -0.827686 2.179466 0.049163 -0.025106 274967.000000 0 0 1
-26.534483 29.572369 -26.424530 47.716450 -0.839490 2.157696 0.049080 -0.019764 311187.000000 0 0 1
-27.564643 30.164469 -25.673250 48.257855 -0.830403 2.131759 0.025158 -0.005232 58073.800000 0 0 1
-27.097393 30.448769 -24.214270 47.410201 -0.843571 2.106841 0.001308 -0.006874 25911.400000 0 0 1
-26.358293 31.633869 -24.136770 47.728869 -0.876119 2.100996 0.001221 -0.001656 -232330.000000 0 0 1
-25.576043 31.755869 -22.988570 46.808584 -0.892774 2.084170 0.022507 0.008160 37595.300000 0 0 1
-24.818733 33.106469 -22.965370 47.322469 -0.927510 2.077497 0.018236 0.015941 32656.300000 0 0 1
-25.655453 -33.972424 -22.569770 48.184255 0.923985 2.058282 -0.006219 0.011310 246597.000000 0 0 1
-25.104893 -32.694024 -22.878870 47.144433 0.915954 2.077495 0.013021 0.012850 1564.760000 0 0 1
16.629667 8.242769 -24.951570 31.097748 0.460175 2.502034 0.042867 -0.013844 -1436910.000000 0 0 1
15.415167 7.688269 -24.710770 30.122401 0.462645 2.532811 0.049073 -0.014803 -1170610.000000 0 0 1
15.287367 6.486169 -25.381030 30.331018 0.401263 2.562211 0.054813 -0.018998 99964.100000 0 0 1
13.822567 5.996169 -25.278410 29.428140 0.409297 2.604086 0.047344 -0.021580 229441.000000 0 0 1
13.288967 5.943769 -23.956370 28.032708 0.420582 2.595550 0.073901 -0.036335 1704530.000000 0 0 1
11.904167 5.465369 -23.965570 27.311683 0.430407 2.641388 0.069900 -0.034335 1415650.000000 0 0 1
11.176167 5.743569 -22.630870 25.885355 0.474715 2.634733 0.079200 -0.037665 -212919.000000 0 0 1
11.601567 4.848669 -21.581670 24.977479 0.395869 2.614047 0.071471 -0.035243 535829.000000 0 1 0
11.019467 5.187069 -20.301270 23.674373 0.439949 2.601228 0.075798 -0.030207 21522.900000 0 1 0
11.734167 6.433669 -19.708370 23.822314 0.501526 2.545093 0.079398 -0.038013 -295527.000000 0 1 0
11.337867 6.789169 -18.390570 22.646261 0.539540 2.518504 0.073881 -0.024326 -129653.000000 0 1 0
11.836067 8.081169 -18.047570 23.045880 0.599060 2.470455 0.078630 -0.019879 -164913.000000 0 1 0
13.284867 8.070869 -17.565370 23.455679 0.545933 2.417159 0.083340 -0.028224 -589882.000000 0 1 0
13.539867 7.879769 -16.183570 22.523914 0.527055 2.372448 0.074451 -0.031123 445439.000000 0 1 0
14.945267 7.872269 -15.979170 23.252258 0.484810 2.328437 0.066298 -0.035009 -2392.790000 0 1 0
15.389367 7.869469 -14.525670 22.577782 0.472692 2.269677 0.066923 -0.033562 107310.000000 0 1 0
16.785967 7.518169 -14.468970 23.401766 0.421093 2.237356 0.067064 -0.041067 1115940.000000 0 1 0
17.280667 7.679469 -13.157970 23.037532 0.418184 2.178707 0.069016 -0.042076 -385250.000000 0 1 0
17.688767 9.145169 -12.807170 23.675942 0.477158 2.142346 0.079785 -0.039171 -988809.000000 0 1 0
16.669367 10.108369 -12.850970 23.349397 0.545115 2.153612 0.088249 -0.034299 194196.000000 0 1 0
17.219467 11.409469 -12.728570 24.263193 0.585176 2.123046 0.111308 -0.041926 -15116.400000 0 1 0
16.160267 12.518969 -12.862170 24.151899 0.659108 2.132411 0.122426 -0.028995 96092.200000 0 1 0
15.096667 12.517569 -11.923370 22.951376 0.692271 2.117069 0.108795 -0.015776 462717.000000 0 1 0
15.206767 13.487869 -10.906070 23.067526 0.725567 2.063249 0.076347 -0.017525 -338546.000000 0 1 0
14.886267 14.980169 -11.185870 23.898329 0.788542 2.057891 0.078203 -0.020822 -246905.000000 0 1 0
13.677267 15.321669 -10.549470 23.089229 0.842043 2.045303 0.086166 -0.023468 341430.000000 0 1 0
13.402667 16.733769 -10.633070 23.931417 0.895485 2.031205 0.082706 -0.022320 547908.000000 0 1 0
12.276567 17.285869 -9.680070 23.307062 0.953252 1.999099 0.075317 -0.017459 688658.000000 0 1 0
12.708767 17.144769 -8.340070 22.913154 0.932911 1.943340 0.065413 -0.016934 423950.000000 0 1 0
11.641267 17.430369 -7.477570 22.254234 0.981959 1.913470 0.056333 -0.013963 -191842.000000 0 1 0
12.093167 17.213569 -6.020370 21.881419 0.958370 1.849528 0.045588 -0.016092 320484.000000 0 1 0
12.973767 18.159069 -5.454570 22.974394 0.950437 1.810505 0.049456 -0.015974 202075.000000 0 1 0
13.503567 17.748869 -4.200070 22.693816 0.920411 1.756945 0.045391 -0.015498 21712.900000 0 1 0
14.711967 18.636969 -3.771070 24.041622 0.902554 1.728303 0.052747 -0.020941 -497422.000000 0 1 0
15.842367 18.325069 -4.517570 24.641372 0.857934 1.755172 0.067917 -0.035680 -880457.000000 0 1 0
16.516367 19.510869 -4.806470 26.010893 0.868325 1.756651 0.065005 -0.031655 124042.000000 0 0 1
17.863767 19.185869 -5.547370 26.795243 0.821068 1.779333 0.065868 -0.020496 78111.400000 0 0 1
18.747867 18.503569 -4.705170 26.758236 0.778840 1.747555 0.075407 -0.032489 -343738.000000 0 0 1
19.289667 17.453869 -5.473170 26.583536 0.735477 1.778165 0.086376 -0.044293 -75281.200000 0 0 1
20.424167 16.707269 -4.731270 26.807916 0.685629 1.748213 0.097619 -0.043643 422017.000000 0 0 1
21.719367 17.298569 -4.756370 28.170809 0.672578 1.740449 0.090059 -0.045966 661123.000000 0 0 1
22.677567 16.403669 -4.201370 28.302013 0.626222 1.719795 0.099104 -0.049463 455333.000000 0 0 1
24.162967 16.694169 -4.531770 29.716682 0.604592 1.723893 0.094324 -0.047034 325980.000000 0 0 1
24.753567 17.758369 -3.813070 30.702415 0.622313 1.695312 0.095931 -0.046735 122500.000000 0 0 1
26.161067 17.717969 -3.821370 31.826573 0.595304 1.691155 0.088559 -0.037653 23926.900000 0 0 1
26.906167 18.925169 -3.192670 33.049917 0.612989 1.667549 0.108761 -0.030103 -62479.200000 0 0 1
26.760767 20.078869 -3.961370 33.689644 0.643699 1.688653 0.093979 -0.033035 309946.000000 0 0 1
27.109167 21.162169 -3.118370 34.532138 0.662816 1.661223 0.113964 -0.010288 -399447.000000 0 0 1
27.045667 22.524169 -3.837070 35.405217 0.694435 1.679385 0.069349 -0.008661 114462.000000 0 0 1
27.975367 22.954169 -4.836370 36.508979 0.687125 1.703658 0.055314 -0.001004 444543.000000 0 0 1
28.373467 22.101769 -5.946270 36.454080 0.661779 1.734645 0.061044 -0.002231 194421.000000 0 0 1
29.423867 22.792069 -6.819470 37.838440 0.659067 1.752013 0.048270 -0.000786 -28363.400000 0 0 1
28.728467 23.606669 -7.758870 37.984204 0.687843 1.776510 0.029058 0.004500 255337.000000 0 0 1
29.474867 24.636569 -8.360470 39.314448 0.696222 1.785089 0.004765 0.001559 -392979.000000 0 0 1
30.643967 24.288869 -9.309470 40.195374 0.670222 1.804524 0.011844 -0.002730 -205626.000000 0 0 1
30.261967 23.681069 -10.505870 39.836579 0.664001 1.837677 0.012878 0.009058 -352950.000000 0 0 1
31.308467 23.573269 -11.424870 40.822136 0.645377 1.854454 0.010588 0.007556 -312022.000000 0 0 1
30.919167 22.771369 -12.672670 40.436700 0.634792 1.889563 0.003779 0.009769 -7734.970000 0 0 1
30.342567 23.521969 -13.706970 40.765616 0.659443 1.913716 0.009979 0.014858 74206.700000 0 0 1
30.255467 22.701869 -14.847570 40.635188 0.643718 1.944845 0.021462 0.011456 -82820.200000 0 0 1
30.295967 23.475769 -16.203870 41.611570 0.659236 1.970785 0.021202 0.004263 475890.000000 0 0 1
31.589367 23.946569 -16.601070 42.975828 0.648638 1.967401 0.006499 0.010902 309546.000000 0 0 1
31.561967 24.398269 -17.931070 43.737359 0.658077 1.993219 0.015573 0.002094 -548806.000000 0 0 1
32.891967 24.999869 -18.325170 45.196093 0.649908 1.988277 -0.002140 -0.002613 -589566.000000 0 0 1
33.869167 24.004869 -18.462170 45.433533 0.616576 1.989258 0.004216 0.003468 293454.000000 0 0 1
35.205367 24.554269 -18.627870 46.790251 0.609018 1.980257 0.024359 -0.002835 1247550.000000 0 0 1
36.225167 23.373269 -18.490870 46.909324 0.573009 1.975975 0.032360 -0.021072 -207603.000000 0 0 1
36.199367 22.522969 -19.562170 46.907961 0.556578 2.000975 0.013610 -0.012986 77184.800000 0 0 1
-36.172129 22.958669 -20.726170 47.593041 -0.565549 2.021376 0.009437 -0.001992 -228965.000000 0 0 1
-36.026329 21.964069 -21.882770 47.530752 -0.547497 2.049233 0.012060 0.000487 97528.700000 0 0 1
-35.426329 20.726269 -21.540970 46.353171 -0.529356 2.054108 0.001582 -0.000170 214894.000000 0 0 1
-35.063829 20.065369 -22.722870 46.351052 -0.519767 2.083155 0.003945 0.006237 158856.000000 0 0 1
-34.666429 18.612669 -22.519170 45.335480 -0.492736 2.090615 -0.002746 0.009856 -190603.000000 0 0 1
-35.806829 17.843269 -22.260870 45.782722 -0.462303 2.078565 0.000187 0.000443 -66426.500000 0 0 1
-35.504729 16.463869 -22.052370 44.921618 -0.434196 2.083928 0.000159 -0.000010 -598322.000000 0 0 1
36.347767 15.561169 -22.002570 45.248461 0.404509 2.078602 0.004671 -0.005984 -543306.000000 0 0 1
35.743467 15.473069 -23.283170 45.377498 0.408536 2.109588 0.057820 -0.005465 498283.000000 0 0 1
34.623267 14.571169 -23.212170 44.157609 0.398350 2.124295 0.094079 -0.011971 366342.000000 0 0 1
34.811867 13.199369 -23.915270 44.249628 0.362415 2.141783 0.060219 -0.017597 -182490.000000 0 0 1
34.872467 13.345369 -25.310850 45.109056 0.365496 2.166515 0.070001 -0.008075 95859.200000 0 0 1
35.318867 12.147269 -25.918620 45.461560 0.331258 2.177450 0.054629 -0.003163 -382463.000000 0 0 1
34.960967 12.100569 -27.395310 46.034726 0.333211 2.208188 0.072591 -0.009886 -269240.000000 0 0 1
33.562967 12.212369 -27.578650 45.124236 0.348972 2.228336 0.087237 -0.012847 100656.000000 0 0 1
33.134167 13.383969 -28.303080 45.585831 0.383892 2.240654 0.089784 -0.007899 -13809.100000 0 0 1
33.478867 13.413169 -29.820210 46.797357 0.381063 2.261682 0.084784 -0.014844 -486756.000000 0 0 1
34.813367 13.783969 -30.043130 48.005812 0.377001 2.246982 0.074150 -0.005536 -270134.000000 0 0 1
35.163067 13.578369 -31.422360 49.073191 0.368514 2.265706 0.067700 -0.012081 151655.000000 0 0 1
-36.398129 13.667669 -31.788330 50.220782 -0.359213 2.256182 0.053614 -0.009105 1006660.000000 0 0 1
-35.426429 12.776169 -31.200180 48.905149 -0.346122 2.262660 0.039234 -0.008207 741721.000000 0 0 1
-35.207829 12.851569 -29.803310 47.885189 -0.349993 2.242590 0.021097 -0.006508 -914806.000000 0 0 1
-34.146529 11.885569 -29.320110 46.550199 -0.334959 2.252169 0.022928 -0.012354 -324894.000000 0 0 1
-34.628829 10.580969 -29.364460 46.619569 -0.296544 2.252187 0.027621 -0.020346 378905.000000 0 0 1
-33.549929 9.673769 -29.348210 45.612465 -0.280725 2.269761 0.024407 -0.021007 -108908.000000 0 0 1
-33.887929 8.311469 -29.865770 45.928602 -0.240516 2.278730 0.037090 -0.019324 -597503.000000 0 0 1
-34.243129 8.236769 -31.225000 47.068428 -0.236053 2.296144 0.039082 -0.020130 157393.000000 0 0 1
-34.659029 7.023669 -31.770930 47.539165 -0.199943 2.302732 0.046743 -0.017915 143503.000000 0 0 1
-36.042629 6.448069 -31.359530 48.208597 -0.177028 2.279034 0.057133 -0.001625 -133761.000000 0 0 1
-35.859729 5.802369 -30.107500 47.181026 -0.160417 2.262860 0.055002 -0.010037 -180772.000000 0 0 1
36.059767 5.319069 -29.491760 46.886706 0.146451 2.251063 0.058195 -0.002744 -540488.000000 0 0 1
36.426867 4.429569 -28.248740 46.309060 0.121008 2.226863 0.053841 0.000398 15673.300000 0 0 1
-35.976129 3.208569 -28.449900 45.977969 -0.088951 2.237975 0.065167 0.001940 42373.800000 0 0 1
-36.245629 2.288469 -27.441640 45.519516 -0.063054 2.217870 0.073557 -0.001214 -31007.300000 0 0 1
-35.252029 1.096769 -27.366700 44.641290 -0.031102 2.230693 0.101282 -0.010757 75734.000000 0 0 1
-33.994329 1.319269 -26.787540 43.300429 -0.038789 2.237812 0.101190 -0.011171 -147531.000000 0 0 1
-33.212129 0.167069 -26.674140 42.597925 -0.005030 2.247446 0.107028 -0.012177 -462480.000000 0 0 1
-31.931929 0.310269 -25.884710 41.106722 -0.009716 2.251957 0.103710 -0.011320 -544742.000000 0 0 1
-32.287229 0.131869 -24.572770 40.574667 -0.004084 2.221339 0.095342 -0.006426 1236830.000000 0 0 1
-31.142329 0.156369 -23.684370 39.125676 -0.005021 2.220990 0.111594 -0.008657 792658.000000 0 0 1
-31.585929 -0.157231 -22.214870 38.616008 0.004978 2.183738 0.115914 -0.000371 -491953.000000 0 0 1
-32.031529 -1.513031 -22.028770 38.904689 0.047201 2.172714 0.139462 -0.014504 393159.000000 0 0 1
-32.390229 -1.650331 -20.660870 38.454156 0.050907 2.138012 0.121051 -0.015900 -610953.000000 0 0 1
-33.867129 -1.358031 -20.463670 39.592783 0.040077 2.113968 0.107966 -0.010702 -1064830.000000 0 0 1
-34.820629 -2.308631 -20.897270 40.675569 0.066204 2.110352 0.096717 -0.023803 336133.000000 0 0 1
-36.096629 -2.068331 -20.343570 41.486208 0.057237 2.083310 0.079021 -0.020286 -24926.900000 0 0 1
36.129467 -3.330531 -20.187770 41.520801 -0.091923 2.078542 0.062257 -0.019736 -447120.000000 0 0 1
35.815167 -4.083531 -21.332470 41.886462 -0.113527 2.105159 0.054164 -0.016858 319687.000000 0 0 1
-36.284529 -5.043531 -21.743970 42.600522 0.138115 2.106464 0.048128 -0.013344 -311156.000000 0 0 1
36.350567 -5.900331 -22.937070 43.385330 -0.160914 2.127844 0.048916 -0.014208 -49561.900000 0 0 1
35.461167 -6.957431 -22.523570 42.581820 -0.193738 2.128157 0.046954 -0.002009 539668.000000 0 0 1
34.882567 -7.614531 -23.620070 42.809839 -0.214919 2.155250 0.042732 0.002833 -858730.000000 0 0 1
33.567567 -7.152231 -24.164370 41.974430 -0.209930 2.184247 0.024768 0.004356 -1234500.000000 0 0 1
33.632667 -5.912231 -24.828270 42.220300 -0.174010 2.199460 0.030280 -0.002611 698308.000000 0 0 1
32.270767 -5.527431 -25.050080 41.224524 -0.169637 2.223895 0.023785 -0.007220 735051.000000 0 0 1
32.097867 -4.294031 -25.919340 41.479199 -0.132990 2.245769 0.057996 -0.037331 -118037.000000 0 0 1
32.206167 -4.719431 -27.276010 42.467528 -0.145503 2.268265 0.061776 -0.036719 193335.000000 0 0 1
31.902467 -3.750131 -28.214470 42.753798 -0.117013 2.291521 0.059061 -0.040938 -146078.000000 0 0 1
31.323767 -4.340031 -29.505800 43.250509 -0.137677 2.321573 0.068569 -0.038977 -34081.500000 0 0 1
30.868267 -3.397731 -30.406870 43.462308 -0.109631 2.345654 0.064796 -0.045628 -114983.000000 0 0 1
30.181167 -4.020231 -31.465420 43.785132 -0.132424 2.372630 0.069673 -0.043159 -638299.000000 0 0 1
29.774767 -3.025831 -32.541320 44.211197 -0.101276 2.398002 0.078399 -0.037115 -837037.000000 0 0 1
28.874867 -2.016231 -32.168080 43.273647 -0.069713 2.408882 0.067827 -0.038327 -144469.000000 0 0 1
27.526867 -2.339531 -31.933130 42.224716 -0.084787 2.428384 0.074117 -0.040657 -45257.700000 0 0 1
26.631567 -2.665031 -33.156330 42.610855 -0.099738 2.462462 0.067247 -0.043397 -660469.000000 0 0 1
27.159967 -3.734531 -33.878140 43.581406 -0.136644 2.461243 0.078822 -0.041683 -382187.000000 0 0 1
26.336267 -4.058331 33.297563 42.647353 -0.152894 0.674907 0.070219 -0.033997 -433750.000000 0 0 1
26.771567 -5.316831 32.498372 42.439718 -0.196049 0.698584 0.064863 -0.035516 266956.000000 0 0 1
28.029867 -5.394631 31.838142 42.760295 -0.190135 0.730902 0.076082 -0.033760 219302.000000 0 0 1
28.288467 -4.505331 30.741012 42.018391 -0.157937 0.750118 0.079433 -0.036909 -351319.000000 0 0 1
28.919267 -3.140231 31.118022 42.597140 -0.108162 0.751715 0.069629 -0.039328 -1407660.000000 0 0 1
30.217167 -3.321431 31.537892 43.803513 -0.109479 0.767015 0.072262 -0.035699 -1171530.000000 0 0 1
30.724167 -2.040131 31.873772 44.317874 -0.066304 0.768134 0.066230 -0.033175 -95785.200000 0 0 1
32.153367 -2.141131 32.440455 45.725339 -0.066493 0.782060 0.058512 -0.033448 117274.000000 0 0 1
33.146267 -2.385231 31.469612 45.767902 -0.071837 0.812630 0.063862 -0.029728 1574020.000000 0 0 1
34.515367 -2.242631 31.992552 47.115426 -0.064884 0.824363 0.073117 -0.026806 2198320.000000 0 0 1
35.631067 -2.694931 31.006032 47.309720 -0.075491 0.856105 0.073859 -0.017320 136568.000000 0 0 1
35.796467 -1.929831 29.820792 46.630365 -0.053859 0.876930 0.066047 -0.013620 708250.000000 0 0 1
-36.032629 -2.160431 29.118192 46.377656 0.059886 0.892009 0.064089 -0.013619 924958.000000 0 0 1
-35.852529 -1.475131 27.768342 45.372466 0.041121 0.912198 0.059281 -0.013477 129830.000000 0 0 1
36.502567 -2.025931 26.673262 45.254886 -0.055444 0.940480 0.046535 -0.020761 -391582.000000 0 0 1
-36.060829 -1.640031 25.469532 44.178843 0.045448 0.956346 0.050265 -0.017889 -706281.000000 0 0 1
-26.607583 15.152769 12.135930 32.937072 -0.517684 1.193446 0.061065 -0.011215 227907.000000 0 0 1
-27.705313 14.384369 12.630730 33.675359 -0.478883 1.186320 0.062120 -0.011033 801969.000000 0 0 1
-28.650343 15.207269 13.326930 35.067225 -0.487974 1.180957 0.063396 -0.008965 -814981.000000 0 0 1
-29.971713 14.547369 13.523030 35.955554 -0.451875 1.185208 0.076738 -0.009804 -481803.000000 0 0 1
-30.931743 15.332169 14.273030 37.357295 -0.460184 1.178763 0.090892 -0.015987 193362.000000 0 0 1
-32.139153 14.660069 14.512330 38.189665 -0.427951 1.180993 0.101658 -0.022380 121647.000000 0 0 1
-33.118913 15.431169 15.433830 39.663415 -0.436024 1.171120 0.109937 -0.026165 65136.600000 0 0 1
-32.623193 15.648069 16.793530 39.889315 -0.447244 1.136245 0.103581 -0.016117 288674.000000 0 0 1
-33.578203 16.228169 17.668030 41.267523 -0.450194 1.128369 0.133961 -0.030640 274482.000000 0 0 1
-32.977513 16.446869 19.091930 41.503225 -0.462631 1.092789 0.147210 -0.011269 229392.000000 0 0 1
-32.405433 15.259469 19.607930 40.834231 -0.440092 1.069932 0.131313 -0.012418 786329.000000 0 0 1
-31.507213 15.426669 20.768730 40.767962 -0.455312 1.036265 0.110223 -0.002714 893601.000000 0 0 1
-32.166203 15.859669 22.095330 42.123596 -0.458075 1.018627 0.115596 -0.016565 -511785.000000 0 0 1
-32.697153 17.169269 21.973230 42.973369 -0.483525 1.034074 0.133736 -0.023291 226324.000000 0 0 1
-33.126493 17.838369 23.184730 44.193932 -0.493965 1.018535 0.144304 -0.026202 352998.000000 0 0 1
-34.168304 17.031169 24.107330 45.151933 -0.462406 1.007571 0.143956 -0.026237 621458.000000 0 0 1
-35.381989 16.674969 23.454930 45.607823 -0.440412 1.030635 0.118662 -0.024854 665189.000000 0 0 1
-36.403533 17.673269 23.517630 46.804279 -0.451966 1.044346 0.094424 -0.025718 -613528.000000 0 0 1
35.291623 17.130269 23.171030 45.561402 0.451893 1.037277 0.070310 -0.027723 -401650.000000 0 0 1
34.665013 16.440069 24.277130 45.401740 0.442841 1.006622 0.067291 -0.022959 215069.000000 0 0 1
33.673033 15.548569 23.785330 44.061015 0.432583 1.000565 0.069757 -0.028024 77197.200000 0 0 1
33.136763 14.613369 24.864030 43.929666 0.415346 0.969155 0.058896 -0.024717 34309.800000 0 0 1
32.318833 15.350869 25.791730 44.106343 0.443434 0.946209 0.072537 -0.029354 310336.000000 0 0 1
32.275753 14.772369 27.109130 44.663766 0.429233 0.918566 0.062261 -0.027510 -518749.000000 0 0 1
31.557283 13.490569 27.405930 43.919728 0.403982 0.896945 0.052064 -0.018431 -524342.000000 0 0 1
31.913113 12.378569 26.569330 43.331340 0.370018 0.910733 0.061207 -0.016775 34041.600000 0 0 1
31.252393 11.252069 27.082830 42.857914 0.345590 0.886767 0.068654 -0.014019 80538.800000 0 0 1
31.989313 9.937869 26.674730 42.820773 0.301210 0.898302 0.086393 -0.012048 -78372.500000 0 0 1
33.056603 9.643369 27.547130 44.097369 0.283846 0.896063 0.087500 -0.008935 -366885.000000 0 0 1
33.518273 8.370169 27.263930 44.009729 0.244715 0.902694 0.094997 -0.003392 -310117.000000 0 0 1
34.648873 7.881769 28.183130 45.353671 0.223669 0.900258 0.073693 -0.000941 202535.000000 0 0 1
35.936073 8.441969 27.934030 46.292312 0.230733 0.923005 0.078521 -0.004931 -91544.400000 0 0 1
-36.227633 7.595469 28.566130 46.756351 -0.206666 0.913527 0.066936 -0.006270 238155.000000 0 0 1
-34.807180 8.209069 28.824130 45.932114 -0.231612 0.892410 0.066502 -0.006792 657251.000000 0 0 1
-34.063849 8.516469 27.664230 44.701070 -0.244993 0.903491 0.066151 -0.009541 225354.000000 0 0 1
-32.946403 9.317769 28.044630 44.258192 -0.275618 0.884522 0.072061 -0.008450 689805.000000 0 0 1
-32.065493 9.820869 26.807530 42.933541 -0.297204 0.896438 0.080361 -0.015264 304874.000000 0 0 1
-31.370813 8.832569 26.089130 41.746675 -0.274449 0.895743 0.079553 -0.014114 94070.600000 0 0 1
-30.627713 9.499069 25.070730 40.704184 -0.300739 0.907237 0.089905 -0.009602 405386.000000 0 0 1
-29.692063 8.567169 24.230030 39.269700 -0.280905 0.905851 0.078146 -0.008026 258813.000000 0 0 1
-28.851693 9.184169 23.302730 38.207151 -0.308181 0.914856 0.075098 -0.012740 -70092.000000 0 0 1
-28.114683 8.276069 22.508030 36.953215 -0.286282 0.915877 0.046662 0.001249 360797.000000 0 0 1
-27.045853 8.979369 21.599130 35.757931 -0.320555 0.922239 0.033188 0.000097 -70074.600000 0 0 1
-25.925873 9.431869 22.360830 35.512220 -0.348917 0.889673 0.035505 -0.003853 654670.000000 0 0 1
-25.009333 10.233769 21.612130 34.601747 -0.388410 0.896182 0.027835 0.004071 1261450.000000 0 0 1
-24.062733 9.492169 20.551130 33.037332 -0.375735 0.899428 0.028895 0.003366 151925.000000 0 0 1
-24.814233 9.421769 19.345630 32.844623 -0.362878 0.940970 0.021081 -0.000689 220559.000000 0 0 1
-24.130733 8.778969 18.345130 31.557984 -0.348923 0.950452 0.035453 -0.004706 -415938.000000 0 0 1
-24.098433 7.231869 18.460530 31.206178 -0.291546 0.937796 0.034019 0.006945 -160213.000000 0 0 1
-23.071233 6.903169 19.384830 30.914514 -0.290733 0.893041 0.030856 0.013354 540017.000000 0 0 1
-23.158033 5.489569 19.833630 30.980683 -0.232752 0.876046 0.036532 0.010288 -257054.000000 0 0 1
-23.088833 4.364069 18.783630 30.082620 -0.186808 0.896431 0.036975 0.002043 -820850.000000 0 0 1
-24.292833 4.128369 18.115930 30.583853 -0.168334 0.936841 0.068809 0.000960 -105672.000000 0 0 1
-24.238833 3.185969 17.043430 29.801844 -0.130692 0.961986 0.061624 -0.002970 -217789.000000 0 0 1
-24.305733 1.690869 17.439230 29.962550 -0.069455 0.949568 0.070561 -0.005336 -196310.000000 0 0 1
-23.041033 1.157469 17.757330 29.112741 -0.050193 0.914798 0.045889 0.001449 270719.000000 0 0 1
-23.170733 -0.206431 18.150030 29.433808 0.008909 0.906330 0.067996 -0.006344 -1472340.000000 0 0 1
-21.909433 -0.969331 18.297330 28.561427 0.044214 0.875477 0.054226 -0.001690 -1463030.000000 0 0 1
-21.125333 -0.568431 19.409630 28.693841 0.026901 0.827880 0.040429 0.001724 26099.300000 0 0 1
-20.315033 -1.698131 19.716030 28.360290 0.083396 0.802100 0.044092 0.000437 -709517.000000 0 0 1
-19.276133 -1.408731 20.785330 28.382807 0.072952 0.749072 0.037579 0.000679 -321045.000000 0 0 1
-19.752333 -1.308631 22.103930 29.672393 0.066155 0.730363 0.038918 -0.001416 -18826.600000 0 0 1
-18.655533 -1.153231 23.013930 29.647931 0.061739 0.682116 0.038318 -0.003363 428390.000000 0 0 1
-19.048433 -0.969731 24.528430 31.071322 0.050865 0.660927 0.044366 -0.008747 161497.000000 0 0 1
-19.764133 0.143569 25.016130 31.881787 -0.007264 0.668661 0.047487 -0.015489 995209.000000 0 0 1
-21.202533 0.087369 24.895130 32.700497 -0.004121 0.705469 0.061653 -0.020626 964327.000000 0 0 1
-21.933833 1.214769 25.702230 33.810846 -0.055327 0.707211 0.061261 -0.028928 -412480.000000 0 0 1
-21.724833 2.514269 25.200330 33.366848 -0.115220 0.714760 0.047922 -0.018114 -210501.000000 0 0 1
-22.692133 2.996869 24.324430 33.400479 -0.131307 0.755008 0.046545 -0.016076 -865528.000000 0 0 1
-22.066333 4.018569 23.291430 32.335161 -0.180139 0.766543 0.037709 -0.002779 196011.000000 0 0 1
-21.662833 3.347769 22.104530 31.130309 -0.153327 0.781206 0.042952 0.008022 -390250.000000 0 0 1
-20.418233 2.752569 22.151230 30.251576 -0.134002 0.749200 0.031693 0.005097 -1369420.000000 0 0 1
-19.853733 2.210569 20.844130 28.871007 -0.110886 0.764145 0.030761 0.009814 -116282.000000 0 0 1
-19.415533 3.158869 19.893830 27.976880 -0.161285 0.779762 0.022848 0.015520 375776.000000 0 0 1
-18.972433 2.554269 18.650730 26.726901 -0.133826 0.798438 0.026931 -0.003526 165955.000000 0 0 1
-18.635633 3.552869 17.479730 25.796330 -0.188388 0.826295 0.019912 0.003559 792351.000000 0 0 1
-17.302633 4.105069 17.494730 24.945907 -0.232944 0.793568 0.026238 -0.006442 874612.000000 0 1 0
-17.116233 4.696069 16.245430 24.061016 -0.267774 0.829593 0.041603 -0.010139 796018.000000 0 1 0
-15.592333 5.115169 16.191430 23.053160 -0.316994 0.792100 0.037938 -0.014715 691290.000000 0 1 0
-15.168833 6.074769 17.177730 23.708031 -0.380918 0.760410 0.033400 -0.011110 -45284.300000 0 1 0
-15.684733 7.387869 17.153830 24.389451 -0.440198 0.790725 0.025575 -0.022458 -785319.000000 0 1 0
-15.295433 8.370769 16.004130 23.667535 -0.500747 0.828196 0.011457 -0.020045 -137957.000000 0 1 0
-15.705633 8.076769 14.696430 22.975773 -0.474990 0.876755 0.017890 -0.013161 680618.000000 0 1 0
-17.125733 8.219969 14.572130 23.941712 -0.447502 0.916438 0.020675 -0.013445 239392.000000 0 1 0
-17.605133 7.540769 13.289130 23.311046 -0.404686 0.964195 0.029174 -0.015561 -395582.000000 0 1 0
-17.420433 6.160269 13.369830 22.807296 -0.339899 0.944425 0.029777 -0.018307 155819.000000 0 1 0
-17.903133 5.542469 12.243730 22.386381 -0.300223 0.992106 0.033248 -0.026344 -234908.000000 0 1 0
-17.476633 4.056469 12.127130 21.655367 -0.228070 0.976404 0.026888 -0.024298 -122457.000000 0 1 0
-17.889033 3.365369 13.255930 22.518057 -0.185951 0.941371 0.026909 -0.018270 201157.000000 0 1 0
-17.648733 1.956369 13.305830 22.188967 -0.110400 0.927721 0.023355 -0.022342 -457445.000000 0 1 0
-18.574933 1.278569 14.360030 23.513259 -0.068725 0.913826 0.031188 -0.016115 -116350.000000 0 1 0
-19.915433 1.240069 13.991530 24.370580 -0.062186 0.959273 0.049701 -0.012634 -920915.000000 0 1 0
-20.814033 1.012169 15.024930 25.690406 -0.048591 0.946106 0.057348 -0.010511 165900.000000 0 0 1
-22.195733 0.556369 14.425930 26.477680 -0.025061 0.994606 0.066563 -0.020085 296324.000000 0 0 1
-22.146633 -0.520031 13.609530 25.999290 0.023477 1.019892 0.074661 -0.020601 -602141.000000 0 0 1
-23.433933 -0.942831 13.351230 26.986913 0.040212 1.053272 0.106645 -0.029004 -903446.000000 0 0 1
-23.409233 -2.026631 12.236230 26.491975 0.086359 1.090678 0.098596 -0.031473 -91563.100000 0 0 1
-22.935133 -3.300331 12.689830 26.418635 0.142917 1.069758 0.074640 -0.027026 280207.000000 0 0 1
-23.187233 -4.243531 11.653430 26.295584 0.181008 1.111664 0.087722 -0.029433 121999.000000 0 0 1
-22.989933 -5.699831 12.075430 26.586483 0.243027 1.099329 0.083772 -0.029585 491722.000000 0 0 1
-24.092433 -6.085831 12.903130 27.999525 0.247427 1.091862 0.086031 -0.033825 593681.000000 0 0 1
-24.067833 -7.456231 13.222230 28.454935 0.300424 1.087531 0.084515 -0.033686 30522.100000 0 0 1
-24.881333 -7.989131 14.453430 29.863164 0.310691 1.065589 0.091556 -0.024458 -184733.000000 0 0 1
-26.255023 -7.795231 14.267730 30.881385 0.288614 1.090528 0.127109 -0.038461 -443348.000000 0 0 1
-26.929153 -8.102931 15.446130 32.084571 0.292281 1.068523 0.131436 -0.030794 533204.000000 0 0 1
-28.312873 -7.380631 15.741130 33.224624 0.255006 1.077219 0.148109 -0.039991 1767230.000000 0 0 1
-29.502643 -7.730531 14.963930 33.971845 0.256267 1.114663 0.126487 -0.034488 1603880.000000 0 0 1
-30.080493 -9.004731 15.039930 34.815524 0.290864 1.124099 0.129287 -0.044498 -401834.000000 0 0 1
-30.429853 -9.478831 16.427830 35.856628 0.301972 1.094880 0.125809 -0.044327 -890704.000000 0 0 1
-29.269933 -9.914031 17.093830 35.315945 0.326582 1.065547 0.127885 -0.015881 91070.900000 0 0 1
-29.573013 -10.412631 18.427330 36.366914 0.338544 1.039437 0.104296 -0.005902 846391.000000 0 0 1
-28.306993 -10.758331 19.317130 35.919062 0.363199 1.002976 0.114676 -0.006113 1140890.000000 0 0 1
-27.529493 -11.844531 18.795830 35.375827 0.406308 1.010640 0.097714 -0.004721 696485.000000 0 0 1
-26.247013 -11.951231 19.415630 34.766425 0.427283 0.978269 0.097184 -0.013574 172481.000000 0 0 1
-25.234593 -12.848531 18.737530 33.955330 0.470951 0.986241 0.076269 -0.010774 -461063.000000 0 0 1
-24.725233 -12.287531 17.566930 32.724877 0.461215 1.004149 0.076971 -0.009473 313041.000000 0 0 1
-23.867033 -13.229231 16.901030 32.098172 0.506130 1.016269 0.078581 -0.017102 255578.000000 0 0 1
-23.481333 -12.908631 15.441230 30.926321 0.502644 1.048016 0.073516 -0.012374 -188499.000000 0 0 1
-22.673933 -11.790331 15.258830 29.764929 0.479515 1.032534 0.063717 -0.015995 -495968.000000 0 0 1
-22.550233 -11.553031 13.903530 28.901447 0.473458 1.068925 0.060427 -0.013163 -168875.000000 0 0 1
-21.280533 -10.842131 13.432830 27.401712 0.471207 1.058456 0.061056 -0.021736 -690262.000000 0 0 1
-21.126133 -9.523031 13.918130 27.031758 0.423494 1.029928 0.067386 -0.020107 1480920.000000 0 0 1
-19.800233 -8.906431 13.822430 25.737780 0.422700 1.003862 0.070040 -0.016354 1164050.000000 0 0 1
-19.077033 -8.799731 12.478630 24.435316 0.432189 1.034821 0.058142 -0.006364 -527796.000000 0 1 0
-18.535233 -9.954731 11.872230 24.157843 0.492863 1.057049 0.051951 -0.016278 441893.000000 0 1 0
-18.089833 -9.774431 10.498930 23.086989 0.495387 1.098699 0.049689 -0.007093 -251632.000000 0 1 0
-17.613833 -10.980631 9.720830 22.919771 0.557455 1.132802 0.035178 -0.018068 499289.000000 0 1 0
-16.306333 -11.517331 9.896730 22.282070 0.614949 1.110564 0.042628 -0.015068 755818.000000 0 1 0
-15.866733 -11.888431 11.241030 22.791418 0.643032 1.055017 0.058449 -0.012336 218116.000000 0 1 0
-14.323133 -12.138631 11.250930 21.887940 0.703032 1.030927 0.048981 -0.013755 555711.000000 0 1 0
-14.042933 -13.418831 10.622530 22.138363 0.762676 1.070342 0.044898 -0.025897 -255743.000000 0 1 0
-12.685633 -13.707631 10.446830 21.400016 0.824101 1.060805 0.042952 -0.033463 -362896.000000 0 1 0
-12.500833 -15.207631 10.562630 22.340815 0.882778 1.078336 0.056582 -0.032139 -211132.000000 0 1 0
-12.757333 -15.898931 9.369430 22.434611 0.894592 1.139958 0.045023 -0.031206 57719.200000 0 1 0
-12.607433 -17.278731 9.498230 23.403382 0.940447 1.152889 0.048454 -0.022261 -30224.100000 0 1 0
-12.946633 -18.031731 8.250330 23.681777 0.948097 1.214951 0.045461 -0.017457 -677444.000000 0 1 0
-12.031333 -17.865531 7.200330 22.710678 0.978120 1.248183 0.035582 -0.020197 -400409.000000 0 1 0
-12.418033 -18.555331 6.013330 23.122889 0.981012 1.307712 0.028140 -0.013553 -293931.000000 0 1 0
-11.461533 -18.456931 4.815430 22.253391 1.015087 1.352680 0.033847 -0.006330 -282321.000000 0 1 0
-11.873733 -19.306431 3.778730 22.978307 1.019410 1.405598 0.044837 -0.005849 417367.000000 0 1 0
-10.896233 -19.391431 2.732830 22.410351 1.058855 1.448547 0.046483 -0.006017 85034.800000 0 1 0
-11.222533 -20.348731 1.574830 23.291547 1.066794 1.503131 0.061351 -0.004624 -152674.000000 0 1 0
-10.895833 -21.716631 1.833230 24.365795 1.105768 1.495487 0.042092 -0.013215 -423265.000000 0 1 0
-11.195233 -22.681131 0.795930 25.306134 1.112288 1.539339 0.042815 -0.018449 43594.900000 0 0 1
-10.280933 -22.724831 -0.461970 24.946521 1.145940 1.589316 0.058286 -0.011741 88782.200000 0 1 0
-10.428233 -21.632131 -1.323070 24.050938 1.121594 1.625835 0.063878 -0.020394 860616.000000 0 1 0
-11.567433 -21.701931 -2.234170 24.693538 1.081088 1.661396 0.076829 -0.014255 789634.000000 0 1 0
-12.512933 -20.511631 -2.323770 24.139188 1.023027 1.667211 0.070663 -0.010189 -75116.200000 0 1 0
-13.390433 -20.476831 -1.218170 24.496698 0.991663 1.620545 0.076370 -0.007797 245178.000000 0 1 0
-14.209633 -19.308231 -1.154770 24.001145 0.936357 1.618928 0.078936 -0.004117 474356.000000 0 1 0
26.683967 -20.267731 -4.089170 33.757019 -0.649583 1.692230 0.083568 -0.025923 135311.000000 0 0 1
25.404067 -20.309331 -3.470270 32.708994 -0.674407 1.677092 0.069860 -0.025440 294253.000000 0 0 1
25.339967 -21.395131 -2.626870 33.268093 -0.701189 1.649839 0.053493 -0.024291 -646594.000000 0 0 1
24.005567 -21.665531 -1.956270 32.395825 -0.734206 1.631220 0.043619 -0.017539 -755406.000000 0 0 1
23.076967 -22.273031 -2.814870 32.195618 -0.767673 1.658338 0.044215 -0.020144 -584349.000000 0 0 1
21.926367 -22.542331 -2.067370 31.515016 -0.799249 1.636443 0.044841 -0.008415 -346696.000000 0 0 1
20.817467 -23.267231 -2.849870 31.350482 -0.840911 1.661826 0.045215 -0.018354 161362.000000 0 0 1
20.120667 -22.476431 -3.793870 30.404352 -0.840645 1.695903 0.045285 -0.027912 -541273.000000 0 0 1
18.988567 -23.096031 -4.308770 30.208572 -0.882690 1.713918 0.048284 -0.027250 -218837.000000 0 0 1
18.182467 -22.188531 -5.272570 29.167328 -0.884306 1.752565 0.041908 -0.009813 178905.000000 0 0 1
17.235067 -21.235831 -4.751070 27.759336 -0.889020 1.742795 0.038339 -0.005398 464156.000000 0 0 1
17.704367 -20.280131 -3.788270 27.186013 -0.853105 1.710598 0.032540 -0.011729 -452645.000000 0 0 1
16.601867 -19.787231 -2.836370 25.984639 -0.872712 1.680170 0.051068 -0.006107 -6163.730000 0 0 1
16.078267 -20.823731 -1.955270 26.381082 -0.913293 1.644981 0.045833 -0.008771 519609.000000 0 0 1
15.283367 -20.347531 -0.862070 25.462649 -0.926581 1.604659 0.055072 -0.003898 -182572.000000 0 0 1
15.086667 -21.223731 0.370030 26.042104 -0.952832 1.556587 0.050112 0.001296 -36250.700000 0 0 1
14.216967 -22.323731 0.224030 26.467363 -1.003718 1.562332 0.069499 -0.007147 -302526.000000 0 0 1
13.613767 -22.552331 1.474430 26.384014 -1.027696 1.514884 0.060579 -0.001025 -200353.000000 0 0 1
12.605067 -23.681431 1.639330 26.877226 -1.081662 1.509765 0.067085 -0.007944 23772.400000 0 0 1
13.199267 -24.963631 1.771330 28.293835 -1.084422 1.508151 0.053879 -0.002726 509461.000000 0 0 1
12.181167 -25.939591 1.569630 28.700295 -1.131765 1.516079 0.064979 -0.010735 479818.000000 0 0 1
12.559967 -27.315991 2.131230 30.140641 -1.139820 1.500028 0.062304 -0.004139 32584.700000 0 0 1
12.397767 -27.263301 3.536730 30.157928 -1.144006 1.453252 0.073702 -0.006042 139819.000000 0 0 1
12.595867 -28.531341 4.103330 31.456805 -1.155055 1.439980 0.070395 -0.006892 -58261.800000 0 0 1
12.549067 -28.590751 5.651830 31.730952 -1.157194 1.391724 0.082770 -0.006573 -50119.000000 0 0 1
12.723367 -29.883071 6.161030 33.058135 -1.168272 1.383331 0.057370 -0.010775 -77365.300000 0 0 1
12.684867 -29.975691 7.609430 33.426805 -1.170475 1.341138 0.067463 -0.013847 138613.000000 0 0 1
12.313467 -31.373851 8.080330 34.658790 -1.196793 1.335492 0.037609 -0.009437 -111782.000000 0 0 1
12.268167 -31.441661 9.472130 35.054346 -1.198777 1.297182 0.043187 -0.007150 -184028.000000 0 0 1
11.478767 -32.548051 9.784530 35.873036 -1.231744 1.294541 0.039033 -0.005445 -24496.000000 0 0 1
11.229767 -32.802771 11.268530 36.456950 -1.240960 1.256559 0.042957 -0.008345 -318442.000000 0 0 1
12.353567 -33.379691 11.863430 37.517400 -1.216335 1.249063 0.040154 -0.011881 -175571.000000 0 0 1
12.141367 -33.723091 13.261930 38.216991 -1.225213 1.216408 0.047144 -0.013635 -2009.260000 0 0 1
11.043467 33.433758 13.621530 37.753415 1.251770 1.201668 0.052849 -0.010344 -216481.000000 0 0 1
11.282667 32.159390 13.076530 36.503706 1.233377 1.204431 0.058335 -0.012421 -422784.000000 0 0 1
10.176767 31.323243 13.213430 35.486713 1.256659 1.189258 0.062983 -0.008169 -496823.000000 0 0 1
10.048167 30.090913 12.224530 33.998056 1.248512 1.202994 0.059653 -0.013613 -238735.000000 0 0 1
9.785767 30.405213 10.882930 33.744279 1.259421 1.242414 0.034609 -0.011837 780456.000000 0 0 1
10.828167 31.168363 10.197430 34.535541 1.236432 1.271055 0.032494 -0.008228 747217.000000 0 0 1
10.437267 31.591013 8.789230 34.411905 1.251700 1.312522 0.031788 -0.008904 578277.000000 0 0 1
9.275367 32.441647 8.784630 34.866353 1.292316 1.316100 0.027646 -0.007098 573691.000000 0 0 1
8.693867 32.594782 7.493830 34.556629 1.310139 1.352203 0.021771 -0.005179 -109077.000000 0 0 1
9.246167 33.702996 6.589130 35.564029 1.303041 1.384445 0.034218 -0.002132 -313280.000000 0 0 1
8.765767 -33.271591 7.018030 35.115384 -1.313189 1.369585 0.031715 -0.003334 -181955.000000 0 0 1
9.347267 -32.193401 6.372330 34.123204 -1.288219 1.382949 0.045466 -0.009243 -563882.000000 0 0 1
8.556367 -30.904821 6.577530 32.735046 -1.300700 1.368487 0.052054 -0.007348 -83268.400000 0 0 1
8.601267 -30.449711 7.942730 32.622900 -1.295494 1.324853 0.064975 -0.008721 25956.800000 0 0 1
7.885967 -29.234511 8.099030 31.343889 -1.307319 1.309438 0.081872 -0.014474 -185380.000000 0 0 1
8.569367 -27.968031 7.629330 30.229976 -1.273480 1.315661 0.098205 -0.024306 140253.000000 0 0 1
9.505767 -27.398811 8.562030 30.238432 -1.236849 1.283719 0.089863 -0.024676 823198.000000 0 0 1
10.486767 -26.483071 8.050830 29.599682 -1.193760 1.295336 0.081692 -0.029190 418804.000000 0 0 1
9.986167 -25.212941 7.314930 28.087793 -1.193680 1.307328 0.088725 -0.025668 -296725.000000 0 0 1
9.511867 -25.454351 6.021030 27.832578 -1.213180 1.352742 0.087363 -0.023981 -559285.000000 0 0 1
8.776567 -24.416231 5.442630 26.510426 -1.225722 1.364025 0.084238 -0.021445 196909.000000 0 0 1
8.190967 -24.788531 4.055630 26.419904 -1.251658 1.416680 0.083748 -0.014413 826463.000000 0 0 1
7.237167 -25.880441 4.015030 27.171571 -1.298123 1.422487 0.061814 -0.015399 513225.000000 0 0 1
7.886267 -27.134411 4.139530 28.558802 -1.287951 1.425336 0.059985 -0.008747 74061.900000 0 0 1
6.962467 -28.318611 3.749930 29.402068 -1.329716 1.442908 0.062377 -0.011756 -17180.200000 0 0 1
5.961567 -28.522501 4.721230 29.518864 -1.364750 1.410167 0.049467 -0.007255 87331.500000 0 0 1
4.880367 -29.344261 4.266730 30.051765 -1.405991 1.428336 0.045663 -0.008530 458214.000000 0 0 1
5.098367 -30.853711 4.249530 31.559520 -1.407033 1.435735 0.038455 -0.004844 -24335.100000 0 0 1
6.165767 -31.274301 3.402230 32.057351 -1.376141 1.464467 0.044317 -0.006476 161707.000000 0 0 1
6.312067 -32.666341 3.599330 33.464715 -1.379920 1.463032 0.041865 -0.005313 68274.800000 0 0 1
7.418567 -33.472331 2.882230 34.405513 -1.352689 1.486926 0.045816 -0.005706 92983.900000 0 0 1
7.000567 -33.978621 1.609330 34.729592 -1.367611 1.524441 0.057815 -0.011439 -71652.900000 0 0 1
7.915567 33.250249 1.112330 34.197551 1.337086 1.538264 0.043511 -0.007978 -710835.000000 0 0 1
7.523167 32.719030 -0.334070 33.574463 1.344792 1.580747 0.068126 -0.007588 614986.000000 0 0 1
6.397367 31.856903 -0.463070 32.496199 1.372617 1.585047 0.051430 -0.006087 236232.000000 0 0 1
5.159467 32.438517 -0.101570 32.846427 1.413064 1.573889 0.057290 -0.013424 -602989.000000 0 0 1
3.979867 31.471753 0.015530 31.722402 1.445006 1.570307 0.061060 -0.014574 -144460.000000 0 0 1
3.697567 30.746383 -1.160970 30.989674 1.451111 1.608268 0.066883 -0.012543 416490.000000 0 0 1
2.474867 29.999553 -1.062870 30.120223 1.488486 1.606091 0.049494 -0.015130 690228.000000 0 0 1
2.325067 28.889573 -2.148570 29.062513 1.490488 1.644793 0.052169 -0.011415 -115803.000000 0 0 1
2.086367 29.449733 -3.418170 29.720760 1.500069 1.686061 0.057879 -0.022868 -42924.100000 0 0 1
2.195267 28.552423 -4.537470 28.993942 1.494062 1.727939 0.053364 -0.032143 -67127.200000 0 0 1
1.583567 29.196453 -5.817370 29.812452 1.516611 1.767189 0.065674 -0.031652 760428.000000 0 0 1
0.160467 29.383443 -5.848670 29.960297 1.565335 1.767272 0.065928 -0.030994 821870.000000 0 0 1
-0.248433 30.333123 -6.862370 31.100678 -1.562606 1.793277 0.055771 -0.027778 -193700.000000 0 0 1
-0.063533 29.942003 -8.381870 31.093139 -1.568674 1.843746 0.059988 -0.035235 -663907.000000 0 0 1
-1.021833 29.026423 -8.852670 30.363582 -1.535607 1.866649 0.057852 -0.029584 -73562.400000 0 0 1
-1.006133 28.807663 -10.260270 30.596844 -1.535885 1.912760 0.071157 -0.034575 -2550.850000 0 0 1
-1.247733 29.989673 -11.270470 32.061828 -1.529215 1.929994 0.057099 -0.039209 21505.100000 0 0 1
-0.158033 30.915363 -11.335670 32.928438 -1.565685 1.922238 0.057964 -0.029351 54398.600000 0 0 1
-0.538633 32.190931 -11.693070 34.253088 -1.554065 1.919173 0.048700 -0.036174 -163851.000000 0 0 1
-0.735233 33.226000 -10.550870 34.868732 -1.548672 1.878203 0.035023 -0.040365 -68711.800000 0 0 1
0.430467 33.363637 -9.761770 34.765064 1.557895 1.855416 0.033863 -0.040059 -238449.000000 0 0 1
0.189867 33.980841 -8.491870 35.026353 1.565209 1.815679 0.031380 -0.026646 -508117.000000 0 0 1
1.406967 -33.949391 -7.609970 34.820286 -1.529377 1.791125 0.043104 -0.031101 -129564.000000 0 0 1
2.297467 -32.948981 -8.075470 34.001866 -1.501181 1.810589 0.055034 -0.024290 -71039.700000 0 0 1
3.146467 -32.458111 -7.053470 33.364362 -1.474159 1.783811 0.061560 -0.025347 1101110.000000 0 0 1
4.429967 -31.626541 -7.626770 32.833372 -1.431631 1.805225 0.053050 -0.026179 1887560.000000 0 0 1
5.333367 -32.418001 -8.390170 33.908207 -1.407738 1.820831 0.060763 -0.020942 626058.000000 0 0 1
6.183267 -33.301301 -7.612070 34.715314 -1.387211 1.791864 0.082638 -0.012292 -564855.000000 0 0 1
6.688267 33.636123 -8.370770 35.301437 1.374515 1.810199 0.080358 -0.019616 78483.900000 0 0 1
5.750667 32.630305 -8.743470 34.267407 1.396351 1.828803 0.073212 -0.021632 747155.000000 0 0 1
4.661967 33.032913 -9.645470 34.726681 1.430591 1.852252 0.073084 -0.024932 944937.000000 0 0 1
3.677367 31.839983 -9.756970 33.503820 1.455811 1.866298 0.062961 -0.037806 -76202.000000 0 0 1
4.081767 30.710273 -10.518970 32.717433 1.438659 1.898120 0.059494 -0.030867 88730.100000 0 0 1
3.132167 29.652513 -10.309170 31.549342 1.465558 1.903673 0.057945 -0.043006 197562.000000 0 0 1
3.508867 28.253323 -10.852970 30.468826 1.447236 1.934993 0.052205 -0.045393 -142567.000000 0 0 1
3.591567 28.286463 -12.283370 31.046811 1.444501 1.977561 0.058158 -0.037259 441490.000000 0 0 1
4.933067 28.232603 -12.780770 31.380935 1.397813 1.990268 0.042806 -0.024611 421013.000000 0 0 1
5.161467 28.854703 -14.227370 32.583012 1.393791 2.022668 0.047687 -0.021829 -265554.000000 0 0 1
4.358767 28.298383 -15.225370 32.428525 1.417969 2.059527 0.057415 -0.017094 -178331.000000 0 0 1
4.388567 29.063213 -16.397070 33.657002 1.420928 2.079656 0.078306 -0.004421 243607.000000 0 0 1
3.395267 28.527333 -17.475970 33.626568 1.452336 2.117305 0.067234 -0.009696 331572.000000 0 0 1
3.727467 27.212053 -17.955170 32.814295 1.434665 2.149782 0.081411 -0.007288 31544.000000 0 0 1
2.830067 26.753833 -18.963270 32.914776 1.465407 2.184785 0.097475 -0.019116 411486.000000 0 0 1
3.347167 25.478333 -19.742370 32.405403 1.440171 2.225887 0.110178 -0.027836 313312.000000 0 0 1
3.404167 24.326103 -18.967470 31.034055 1.431760 2.228350 0.112832 -0.038419 19183.500000 0 0 1
4.384767 23.449973 -19.512470 30.819862 1.385947 2.256365 0.109025 -0.032178 139805.000000 0 0 1
4.689267 22.177463 -18.752370 29.419049 1.362423 2.261945 0.100862 -0.019314 -80656.000000 0 0 1
3.721767 21.178963 -18.530070 28.385974 1.396843 2.282057 0.127212 -0.016225 -210034.000000 0 0 1
4.377267 20.005263 -18.011770 27.272603 1.355385 2.292194 0.103745 -0.010956 391914.000000 0 0 1
3.363667 18.860463 -17.721370 26.097476 1.394307 2.317258 0.097591 -0.020262 504686.000000 0 0 1
2.681767 19.115563 -16.473370 25.376535 1.431414 2.277273 0.107954 -0.023034 705680.000000 0 0 1
1.722867 18.105563 -16.053570 24.258953 1.475925 2.293958 0.088814 -0.014319 1033750.000000 0 1 0
2.433967 16.924063 -15.284770 22.934086 1.427959 2.300254 0.060240 -0.012580 270898.000000 0 1 0
3.372467 16.171663 -16.022170 23.013173 1.365201 2.340911 0.072737 -0.019455 -268599.000000 0 1 0
2.867867 15.090263 -16.813570 22.773599 1.382989 2.401331 0.074820 -0.026750 -267368.000000 0 1 0
2.885067 15.398263 -18.292370 24.084039 1.385581 2.433375 0.071482 -0.023866 888739.000000 0 1 0
4.186467 15.595963 -18.906070 24.863629 1.308546 2.434711 0.084102 -0.022339 711885.000000 0 1 0
4.144367 15.995963 -20.296770 26.172609 1.317282 2.458298 0.076309 -0.015797 -402597.000000 0 0 1
4.419767 14.885763 -21.348770 26.398679 1.282175 2.512745 0.076124 -0.028059 -21419.200000 0 0 1
3.495667 13.850363 -21.590370 25.888150 1.323571 2.557090 0.065266 -0.022728 -777344.000000 0 0 1
2.298667 14.252263 -22.170770 26.456642 1.410889 2.564411 0.062630 -0.022812 -881141.000000 0 0 1
1.442867 13.124363 -22.687870 26.250147 1.461298 2.614543 0.068747 -0.020314 -368366.000000 0 0 1
0.749167 12.446363 -21.659670 24.992289 1.510677 2.619253 0.068581 -0.013249 -257910.000000 0 1 0
0.003567 11.391063 -22.162770 24.918762 1.570483 2.666829 0.044770 -0.012251 -287272.000000 0 1 0
-0.555233 10.522363 -20.971170 23.469520 -1.518078 2.675986 0.029700 -0.015890 -518221.000000 0 1 0
-1.679733 11.111863 -20.332070 23.231188 -1.420766 2.636657 0.028685 -0.013654 25694.300000 0 1 0
-2.172033 10.333863 -19.268370 21.972176 -1.363626 2.640263 0.018221 -0.009995 142449.000000 0 1 0
-3.151933 9.227063 -19.721970 22.000670 -1.241627 2.682434 0.013126 -0.013540 -616921.000000 0 1 0
-2.493533 8.224563 -20.447770 22.180452 -1.276424 2.743708 0.006884 -0.015079 140493.000000 0 1 0
-3.461333 7.422663 -21.157470 22.687338 -1.134454 2.772257 0.004332 -0.001548 790003.000000 0 1 0
-2.730733 6.264763 -21.882770 22.925091 -1.159740 2.838888 0.002617 -0.007312 276187.000000 0 1 0
-2.108633 5.345163 -21.002070 21.773931 -1.195046 2.874534 0.013361 -0.011441 -71501.400000 0 1 0
-1.956633 4.150463 -21.731870 22.211009 -1.130269 2.933505 0.023045 -0.018153 -504432.000000 0 1 0
-1.128033 3.059463 -21.054070 21.305085 -1.217558 2.987936 0.022251 -0.014211 666249.000000 0 1 0
0.294667 3.270463 -21.063470 21.317892 1.480939 2.986942 0.016512 -0.007571 366063.000000 0 1 0
0.845067 2.251263 -20.280470 20.422532 1.211697 3.023574 0.018742 -0.004663 812912.000000 0 1 0
2.412567 2.372063 -20.195370 20.476820 0.776933 2.975602 0.018136 -0.009542 943886.000000 0 1 0
3.075267 1.836763 -21.324170 21.622932 0.538409 2.975166 0.033323 -0.011082 950598.000000 0 1 0
4.513267 1.855263 -21.156370 21.711830 0.390012 2.914907 0.050903 -0.013226 995858.000000 0 1 0
5.094967 0.726163 -22.063170 22.655452 0.141572 2.912430 0.052451 -0.023812 756279.000000 0 1 0
6.523567 0.607863 -21.958170 22.914791 0.092911 2.851625 0.054662 -0.023873 830900.000000 0 1 0
7.144867 0.197563 -23.146170 24.224644 0.027644 2.842080 0.050468 -0.024694 909943.000000 0 1 0
8.718467 0.315663 -23.096970 24.689701 0.036190 2.780440 0.050303 -0.027341 1028420.000000 0 1 0
9.123667 1.688363 -23.121070 24.913365 0.182983 2.759963 0.043717 -0.040075 250499.000000 0 1 0
10.459967 1.773763 -23.588770 25.864787 0.167978 2.718938 0.043547 -0.023349 -11607.000000 0 0 1
14.135167 -21.664631 21.879332 33.880147 -0.992698 0.868744 0.046352 0.011976 401328.000000 0 0 1
12.948167 -22.408931 22.278532 34.148912 -1.046851 0.860058 0.028417 0.019424 889593.000000 0 0 1
11.731867 -21.745931 22.023032 33.098885 -1.076052 0.842806 0.027632 0.013646 132596.000000 0 0 1
11.280267 -21.300331 20.609532 31.712795 -1.083764 0.863369 0.030401 -0.001666 -1023840.000000 0 0 1
11.839867 -20.111331 20.161332 30.840353 -1.038715 0.858290 0.026921 -0.002430 19706.800000 0 0 1
11.428467 -19.955731 18.823532 29.718116 -1.050699 0.884854 0.046533 -0.005712 -45244.800000 0 0 1
11.647567 -18.534731 18.269632 28.512831 -1.009743 0.875320 0.054614 -0.015453 121004.000000 0 0 1
10.808567 -17.547131 18.887632 27.954777 -1.018714 0.828951 0.062229 -0.018421 134275.000000 0 0 1
11.046667 -16.261331 18.372232 26.907223 -0.974084 0.819209 0.067896 -0.010231 681977.000000 0 0 1
9.970567 -15.213931 18.909332 26.238116 -0.990664 0.766011 0.083056 -0.015488 1384040.000000 0 0 1
8.660367 -15.487331 18.424032 25.579373 -1.060925 0.766606 0.072607 -0.013135 -438659.000000 0 0 1
7.659767 -14.843931 19.133432 25.398869 -1.094415 0.717703 0.060330 -0.013328 -208154.000000 0 0 1
6.240567 -15.176231 18.635732 24.830489 -1.180667 0.721951 0.049668 -0.006149 -448595.000000 0 1 0
5.999467 -14.865231 17.285732 23.574674 -1.187198 0.747732 0.044046 -0.006115 76533.800000 0 1 0
4.640767 -14.940231 16.882532 23.016670 -1.269623 0.747352 0.029824 -0.007587 163642.000000 0 1 0
3.945767 -16.341831 16.885532 23.827415 -1.333879 0.783199 0.026193 -0.000210 -660228.000000 0 1 0
2.636567 -16.238731 16.412932 23.238593 -1.409838 0.786568 0.033267 -0.004988 -685554.000000 0 1 0
1.931567 -17.452031 16.478132 24.079725 -1.460566 0.817132 0.046806 -0.010135 911127.000000 0 1 0
0.397967 -17.395231 16.175832 23.757314 -1.547922 0.821836 0.052802 -0.006311 668928.000000 0 1 0
0.046467 -17.123331 14.860232 22.672387 -1.568083 0.856040 0.048622 -0.012977 -83268.900000 0 1 0
-1.322033 -17.468131 14.704132 22.871267 1.495258 0.872507 0.030356 -0.003063 170476.000000 0 1 0
-1.698033 -17.997031 13.300732 22.442948 1.476724 0.936456 0.025606 -0.006546 -1013890.000000 0 1 0
-3.010933 -18.387931 13.163132 22.813368 1.408492 0.955755 0.018294 -0.006118 -1024090.000000 0 1 0
-3.135033 -19.484831 12.305432 23.257488 1.411267 1.013262 0.029845 -0.014569 -638213.000000 0 1 0
-4.533933 -20.028331 12.139232 23.854801 1.348173 1.036913 0.026241 -0.014440 -588269.000000 0 1 0
-5.102533 -20.517231 13.323032 24.989914 1.327046 1.008493 0.023630 -0.010485 -670808.000000 0 1 0
-6.438933 -20.878531 13.144232 25.497917 1.271651 1.029203 0.025749 -0.015207 -590080.000000 0 0 1
-6.980433 -21.610631 14.379232 26.879511 1.258366 1.006346 0.030749 -0.013039 48606.500000 0 0 1
-8.387133 -21.454931 14.393432 27.163007 1.198143 1.012324 0.045299 -0.015979 -373164.000000 0 0 1
-8.953633 -22.442531 15.248032 28.571616 1.191188 1.007853 0.048427 -0.016276 -180462.000000 0 0 1
-10.421733 -22.044931 15.422532 28.852140 1.129186 1.006837 0.078051 -0.023289 -339103.000000 0 0 1
-10.557233 -20.784131 16.007032 28.278266 1.100811 0.969085 0.069390 -0.024594 -701589.000000 0 0 1
-11.878133 -20.325031 15.945632 28.433433 1.041920 0.975438 0.067461 -0.022698 -132472.000000 0 0 1
-12.231033 -19.185231 16.950532 28.372377 1.003242 0.930503 0.058092 -0.021785 -331803.000000 0 0 1
-12.361933 -19.626831 18.266732 29.524623 1.008718 0.903716 0.059425 -0.029061 -267347.000000 0 0 1
-12.717533 -18.572531 19.088732 29.513628 0.970379 0.867446 0.050322 -0.026877 -216440.000000 0 0 1
-13.239333 -19.066731 20.456332 30.939969 0.963860 0.848430 0.056253 -0.031563 -722049.000000 0 0 1
-14.544633 -19.515531 20.322632 31.708227 0.930320 0.875092 0.070486 -0.027212 -767038.000000 0 0 1
-15.052333 -20.036731 21.524432 33.035504 0.926504 0.861164 0.078952 -0.020405 -213766.000000 0 0 1
-16.428333 -20.669631 21.257132 33.896747 0.899231 0.892953 0.084407 -0.028111 -1089450.000000 0 0 1
-16.429633 -21.741831 20.287732 33.973992 0.923677 0.930847 0.097086 -0.031362 680546.000000 0 0 1
-17.738333 -22.031931 19.781332 34.516019 0.892942 0.960505 0.077246 -0.024125 567117.000000 0 0 1
-18.695233 -22.730831 20.776132 36.025686 0.882509 0.956109 0.080640 -0.028842 -810220.000000 0 0 1
-19.167033 -21.862931 21.792132 36.335381 0.851009 0.927608 0.079931 -0.026603 -235043.000000 0 0 1
-19.914533 -22.606631 22.723532 37.736021 0.848626 0.924579 0.056840 -0.015387 -138353.000000 0 0 1
-20.595033 -21.733231 23.815862 38.258123 0.812281 0.898857 0.048531 -0.005785 -55905.700000 0 0 1
-21.646433 -20.924931 23.329052 38.087603 0.768452 0.911564 0.051124 -0.002505 147158.000000 0 0 1
-21.655133 -19.672431 24.043862 37.868940 0.737460 0.882887 0.054585 -0.006292 85768.900000 0 0 1
-22.745633 -18.662131 23.659682 37.754728 0.687099 0.893526 0.058585 -0.010937 -119927.000000 0 0 1
-22.393633 -18.002031 22.484032 36.483964 0.677109 0.906797 0.067706 -0.005269 432952.000000 0 0 1
-23.395333 -17.069731 22.063132 36.407405 0.630331 0.919765 0.062843 -0.008566 154509.000000 0 0 1
-23.011633 -16.481531 20.694632 35.063427 0.621533 0.939483 0.070405 -0.008112 300487.000000 0 0 1
-21.983433 -15.494031 20.743132 33.964892 0.613943 0.913823 0.076205 -0.009513 419489.000000 0 0 1
-21.344133 -15.305331 19.455732 32.685634 0.622094 0.933234 0.073921 -0.008381 679005.000000 0 0 1
-20.504733 -13.980831 19.250132 31.408204 0.598430 0.911069 0.075702 -0.016175 536141.000000 0 0 1
-20.099833 -14.014431 17.883932 30.335501 0.608872 0.940309 0.073439 -0.021816 205731.000000 0 0 1
-19.288333 -12.911631 17.459132 29.044299 0.589893 0.925893 0.072741 -0.027700 -326243.000000 0 0 1
-18.805033 -13.081531 16.026132 27.956978 0.607794 0.960339 0.067583 -0.029958 318017.000000 0 0 1
-18.122033 -11.988231 15.383432 26.622843 0.584437 0.954731 0.057957 -0.018597 908843.000000 0 0 1
-16.846833 -11.639231 15.944932 25.952425 0.604583 0.909183 0.052759 -0.029287 259982.000000 0 0 1
-16.186033 -10.392431 15.285932 24.569290 0.570774 0.899303 0.047378 -0.020051 186853.000000 0 1 0
-16.822833 -9.148131 15.633432 24.720441 0.498065 0.886137 0.051947 -0.015225 -6114.120000 0 1 0
-16.411133 -8.053131 14.874332 23.567434 0.456189 0.887775 0.034811 -0.007105 -822726.000000 0 1 0
-16.765033 -6.631731 15.433232 23.732485 0.376681 0.862817 0.047527 -0.005887 417722.000000 0 1 0
-15.981633 -6.221831 16.541532 23.827423 0.371258 0.803457 0.047303 -0.007598 1081750.000000 0 1 0
-14.561533 -6.033231 16.391232 22.740066 0.392796 0.765828 0.041105 -0.011136 578180.000000 0 1 0
-13.815333 -5.989231 17.724832 23.257343 0.409065 0.704219 0.037361 -0.004533 -199085.000000 0 1 0
-13.775833 -7.152431 18.582132 24.212114 0.478890 0.695907 0.029958 -0.011220 410601.000000 0 1 0
-13.096433 -8.329731 18.053232 23.807985 0.566492 0.710118 0.015095 -0.012044 92493.800000 0 1 0
-13.231733 -9.426831 19.085132 25.063643 0.619027 0.705223 0.029880 -0.016864 289107.000000 0 0 1
-14.436733 -10.162931 19.139432 26.038861 0.613381 0.745080 0.033224 -0.018678 98734.300000 0 0 1
-15.377833 -9.750131 20.103932 27.123991 0.565072 0.735960 0.043028 -0.010471 -161741.000000 0 0 1
-16.709133 -10.573031 20.224632 28.284622 0.564167 0.774115 0.050162 -0.012157 1328920.000000 0 0 1
-17.636433 -10.452731 19.107632 28.025077 0.535018 0.820569 0.066938 -0.017091 869354.000000 0 0 1
-18.176033 -9.137531 18.827632 27.718990 0.465825 0.824080 0.043488 -0.014857 -337999.000000 0 0 1
-19.202733 -9.129231 17.648732 27.632690 0.443785 0.878001 0.059388 -0.004852 -48031.500000 0 0 1
-20.500133 -9.384031 18.117132 28.923105 0.429284 0.893883 0.064235 -0.003893 -729415.000000 0 0 1
-21.471633 -9.162831 17.137932 28.960270 0.403345 0.937539 0.080633 -0.009231 -610242.000000 0 0 1
-22.877733 -9.467531 17.644832 30.403370 0.392373 0.951628 0.075643 -0.010662 -564249.000000 0 0 1
-23.345033 -8.372331 18.408632 30.886311 0.344346 0.932270 0.087613 -0.011917 1362900.000000 0 0 1
-24.742033 -8.556831 18.757032 32.205804 0.332966 0.949104 0.086062 -0.007481 1341100.000000 0 0 1
-25.415883 -7.345631 19.523032 32.879693 0.281351 0.935058 0.108384 -0.013670 -24647.500000 0 0 1
-25.236983 -7.398731 20.895932 33.589977 0.285179 0.899389 0.108728 -0.018619 452798.000000 0 0 1
-25.972433 -6.310031 21.455532 34.274242 0.238333 0.894388 0.104887 -0.024486 -552640.000000 0 0 1
-25.920993 -6.383631 23.016032 35.247502 0.241467 0.859279 0.106440 -0.023830 418522.000000 0 0 1
-24.768333 -5.963331 23.739452 34.822309 0.236268 0.820670 0.072742 -0.021893 261823.000000 0 0 1
-23.629233 -6.791031 23.563802 34.054538 0.279857 0.806619 0.073793 -0.020403 -127404.000000 0 0 1
-22.592033 -6.501331 24.704642 34.102590 0.280200 0.760602 0.069114 -0.017819 172333.000000 0 0 1
-22.016033 -5.192631 24.721322 33.508401 0.231624 0.741043 0.062858 -0.012495 -252602.000000 0 0 1
-21.295033 -5.084831 25.876042 33.895479 0.234391 0.702225 0.063774 -0.022280 -302328.000000 0 0 1
-20.566133 -3.698931 25.860302 33.247604 0.177953 0.679623 0.052729 -0.023489 -321866.000000 0 0 1
-19.676233 -3.397531 26.889872 33.492725 0.170986 0.638724 0.059185 -0.022770 -456537.000000 0 0 1
-20.219833 -3.212631 28.187772 34.838386 0.157568 0.628176 0.061682 -0.031445 -120764.000000 0 0 1
-21.137833 -2.010331 28.499562 35.539759 0.094821 0.640317 0.069588 -0.035902 -772630.000000 0 0 1
-22.356433 -2.140131 27.890692 35.808951 0.095437 0.677926 0.066978 -0.037691 -1596980.000000 0 0 1
-23.277933 -1.224331 28.403602 36.744058 0.052548 0.687221 0.058530 -0.030431 490623.000000 0 0 1
-24.655233 -1.218031 27.666732 37.078460 0.049362 0.728510 0.057179 -0.032981 -250492.000000 0 0 1
-24.507633 -0.562931 26.417842 36.039470 0.022966 0.748037 0.048630 -0.032491 936377.000000 0 0 1
-25.732183 -0.149831 25.760232 36.410950 0.005823 0.784862 0.072761 -0.029254 585207.000000 0 0 1
-26.720293 -1.254331 25.386002 36.878131 0.046909 0.811549 0.078045 -0.027141 -630166.000000 0 0 1
-27.515793 -1.850831 26.404182 38.180169 0.067163 0.807139 0.076742 -0.024771 201710.000000 0 0 1
-27.906773 -3.198231 26.053232 38.311716 0.114106 0.822989 0.077395 -0.025096 -198222.000000 0 0 1
-26.791243 -4.236131 26.131472 37.663900 0.156818 0.804035 0.073038 -0.030382 -249330.000000 0 0 1
-26.409613 -4.673331 27.395862 38.338505 0.175143 0.774775 0.056961 -0.025271 -414365.000000 0 0 1
-25.564603 -5.818431 27.278032 37.835091 0.223785 0.765593 0.061546 -0.027901 -85152.700000 0 0 1
-25.135533 -6.325931 28.652132 38.636215 0.246552 0.735363 0.043376 -0.025673 -139942.000000 0 0 1
-26.197563 -6.747631 29.503882 40.029013 0.252088 0.742083 0.052268 -0.015343 81391.700000 0 0 1
-25.871423 -7.669031 30.504592 40.726830 0.288177 0.724238 0.049321 -0.008030 -614335.000000 0 0 1
-27.120853 -8.177931 31.245062 42.174319 0.292866 0.736454 0.017388 -0.007631 -8040.310000 0 0 1
-27.979003 -9.013631 30.534022 42.383920 0.311658 0.766395 0.007948 -0.008276 -18239.600000 0 0 1
-29.225443 -9.238031 31.154032 43.704021 0.306157 0.777255 0.018737 -0.000677 -273143.000000 0 0 1
-30.213133 -10.027031 30.321142 43.963012 0.320439 0.809726 0.020001 -0.014740 -546682.000000 0 0 1
-29.853113 -11.355631 30.137342 43.913758 0.363482 0.814428 0.030240 -0.013876 383002.000000 0 0 1
-30.778293 -11.983931 29.256232 44.123067 0.371303 0.845897 0.017713 -0.004928 83986.200000 0 0 1
-30.099163 -13.131031 28.559542 43.520467 0.411368 0.854982 0.027999 -0.015129 336437.000000 0 0 1
-29.108863 -12.668731 27.633262 42.088239 0.410494 0.854553 0.046006 -0.021271 610274.000000 0 0 1
-28.253993 -13.692431 27.084652 41.465036 0.451268 0.859003 0.058588 -0.029644 369344.000000 0 0 1
-26.965603 -13.134631 26.387032 39.949190 0.453265 0.849292 0.072517 -0.032904 413309.000000 0 0 1
-25.996123 -12.660231 27.337702 39.792334 0.453197 0.813431 0.065603 -0.037296 246628.000000 0 0 1
-26.302043 -11.464331 28.062992 40.134273 0.411043 0.796480 0.064261 -0.042186 -767878.000000 0 0 1
-26.468693 -10.116331 27.335842 39.372327 0.365068 0.803362 0.064930 -0.033506 455771.000000 0 0 1
-25.231703 -9.620931 26.825432 38.063171 0.364285 0.788710 0.059416 -0.028076 256539.000000 0 0 1
-24.856433 -10.131631 25.533632 37.046708 0.387046 0.810373 0.050262 -0.031010 -155383.000000 0 0 1
-25.721093 -9.773731 24.274882 36.692920 0.363137 0.847888 0.066185 -0.023644 333669.000000 0 0 1
-26.822303 -10.694231 24.204352 37.678285 0.379391 0.873177 0.070241 -0.025743 -215458.000000 0 0 1
-27.511003 -10.560231 23.002932 37.383267 0.366511 0.907996 0.092394 -0.017578 -1188380.000000 0 0 1
-28.685573 -11.512031 22.992132 38.523072 0.381642 0.931239 0.090606 -0.028123 -775702.000000 0 0 1
-29.826833 -11.009731 23.639782 39.619357 0.353607 0.931448 0.095314 -0.028213 -292328.000000 0 0 1
-29.825003 -10.968831 25.081472 40.483655 0.352420 0.902633 0.095586 -0.035250 -1571590.000000 0 0 1
-31.167803 -10.622731 25.670502 41.752234 0.328477 0.908627 0.051028 -0.027031 -1053660.000000 0 0 1
-31.541223 -9.243431 25.576932 41.646959 0.285077 0.909505 0.066294 -0.037059 330385.000000 0 0 1
-32.940423 -8.994531 25.710142 42.743239 0.266557 0.925416 0.061766 -0.020354 1010820.000000 0 0 1
-33.546033 -9.192131 27.191722 44.149987 0.267451 0.907276 0.044151 -0.016512 -189453.000000 0 0 1
-33.691603 -10.514031 27.723482 44.880513 0.302490 0.904959 0.042240 -0.021309 64966.600000 0 0 1
-34.490727 -10.370131 28.873442 46.160866 0.292066 0.895029 0.046949 -0.017582 -562285.000000 0 0 1
-34.956775 -11.712431 29.525982 47.232836 0.323299 0.895517 0.047517 -0.006950 1347410.000000 0 0 1
-36.100213 -12.421031 28.934332 47.903058 0.331383 0.922263 0.038039 -0.011023 228259.000000 0 0 1
35.732893 -11.899431 29.208832 47.661221 -0.321460 0.911143 0.057075 -0.011945 -802955.000000 0 0 1
34.530793 -12.692431 28.619022 46.610320 -0.352239 0.909670 0.065227 -0.015477 338150.000000 0 0 1
34.366653 -12.578031 27.252952 45.628906 -0.350853 0.930699 0.060792 -0.010171 309307.000000 0 0 1
33.110243 -13.056931 26.762742 44.531068 -0.375624 0.926057 0.066235 -0.002449 315615.000000 0 0 1
32.840403 -12.473231 25.296942 43.289824 -0.362984 0.946702 0.061456 -0.005824 68025.500000 0 0 1
32.525163 -11.100131 25.202572 42.617705 -0.328884 0.938047 0.056478 -0.019881 57605.900000 0 0 1
32.607113 -10.682531 23.851782 41.788130 -0.316594 0.963342 0.047215 -0.022213 -453020.000000 0 0 1
32.314563 -9.217931 23.593762 41.059309 -0.277876 0.958649 0.036050 0.000150 -862401.000000 0 0 1
30.944043 -8.986231 23.641452 39.965040 -0.282629 0.937812 0.046572 -0.007956 -947978.000000 0 0 1
30.656893 -7.668131 23.392632 39.317433 -0.245099 0.933570 0.037246 0.002400 295497.000000 0 0 1
29.148183 -7.320831 23.208832 37.971845 -0.246069 0.913206 0.043014 0.012161 471458.000000 0 0 1
28.619483 -8.148931 22.185732 37.117201 -0.277393 0.930141 0.032626 0.014630 115959.000000 0 0 1
27.240163 -7.943931 21.912732 35.851086 -0.283756 0.913201 0.042215 -0.009109 219195.000000 0 0 1
15.185567 -18.242831 25.499152 34.836893 -0.876602 0.749605 0.060300 0.021265 127505.000000 0 0 1
14.219567 -19.264231 25.363032 34.879651 -0.934933 0.756623 0.057563 0.018624 303017.000000 0 0 1
14.868567 -20.513431 25.531742 35.968667 -0.943605 0.781535 0.062276 0.002436 -473180.000000 0 0 1
13.843067 -21.660131 25.640182 36.307172 -1.002119 0.786677 0.032591 -0.003672 399724.000000 0 0 1
13.009167 -21.747131 26.776712 36.866902 -1.031700 0.757861 0.037766 -0.008564 721100.000000 0 0 1
12.149267 -20.630431 27.100142 36.161265 -1.038578 0.723604 0.045518 -0.000168 17070.100000 0 0 1
11.476567 -20.763331 28.515332 37.093823 -1.065858 0.693935 0.042551 -0.000680 1035480.000000 0 0 1
12.433667 -20.444131 29.575082 38.042661 -1.024385 0.680245 0.044728 0.001580 1040580.000000 0 0 1
11.839467 -19.682131 30.651702 38.302560 -1.029250 0.643081 0.044594 0.001500 156132.000000 0 0 1
11.483767 -18.214031 30.417832 37.267578 -1.008259 0.615992 0.059422 -0.000156 824578.000000 0 0 1
12.662167 -17.410031 30.334512 37.197074 -0.941988 0.617190 0.056614 0.005800 362602.000000 0 0 1
12.216667 -16.168431 29.873972 36.098744 -0.923729 0.596044 0.059670 -0.000426 -247887.000000 0 0 1
13.205167 -15.050931 30.087062 36.140535 -0.850628 0.587188 0.054097 0.000872 -454439.000000 0 0 1
12.725467 -13.783531 29.803532 35.216101 -0.825290 0.561788 0.080203 -0.004453 -449496.000000 0 0 1
13.527667 -12.819631 30.401522 35.659406 -0.758531 0.549946 0.072970 -0.001356 -134446.000000 0 0 1
13.046867 -11.327731 30.110982 34.716127 -0.714985 0.520946 0.075475 -0.014773 35932.600000 0 0 1
13.211567 -10.765431 28.781442 33.448639 -0.683730 0.534611 0.085088 -0.010671 12030.700000 0 0 1
14.563567 -10.573031 28.417052 33.636518 -0.627958 0.564554 0.069350 -0.006821 -164381.000000 0 0 1
14.806167 -9.573731 27.315362 32.511658 -0.573984 0.573197 0.061130 -0.005319 -44705.300000 0 0 1
15.000467 -8.241331 27.692562 32.554747 -0.502386 0.553584 0.059771 -0.015205 1090660.000000 0 0 1
16.388567 -7.935131 27.987682 33.389546 -0.450917 0.576791 0.057326 -0.015073 737699.000000 0 0 1
16.742967 -6.452931 28.029892 33.281258 -0.367867 0.569422 0.051882 -0.017951 -197130.000000 0 0 1
18.145067 -6.319331 28.001102 33.959375 -0.335130 0.601395 0.040824 -0.018506 -118784.000000 0 0 1
18.505367 -5.012331 27.600282 33.605768 -0.264512 0.607117 0.052986 -0.018108 -1178630.000000 0 0 1
19.988667 -4.873931 27.415892 34.277298 -0.239168 0.643790 0.057514 -0.020387 -1647470.000000 0 0 1
20.497967 -5.655131 26.376592 33.880257 -0.269191 0.678486 0.059763 -0.011951 157326.000000 0 0 1
21.885067 -5.670831 26.138972 34.559519 -0.253542 0.713086 0.078982 -0.006975 1028630.000000 0 0 1
22.992267 -6.043131 27.226702 36.144946 -0.257020 0.717785 0.070630 -0.016431 346571.000000 0 0 1
23.270867 -4.858931 27.936042 36.681943 -0.205842 0.705057 0.078058 -0.022972 -6440.930000 0 0 1
24.147167 -5.062031 29.030252 38.098102 -0.206640 0.704421 0.083146 -0.031421 -90303.600000 0 0 1
24.780467 -3.727231 29.483532 38.694218 -0.149291 0.704459 0.082851 -0.034337 -904013.000000 0 0 1
25.727567 -3.330631 28.566152 38.587898 -0.128742 0.737298 0.079960 -0.027934 -613545.000000 0 0 1
25.944967 -1.960631 28.729782 38.760622 -0.075425 0.735924 0.074067 -0.032892 267959.000000 0 0 1
27.053267 -1.425031 27.739042 38.773244 -0.052626 0.773575 0.078898 -0.030255 562297.000000 0 0 1
28.380467 -1.643431 28.155172 40.010817 -0.057843 0.790220 0.088012 -0.026885 -429468.000000 0 0 1
29.251367 -1.190731 27.146492 39.924834 -0.040684 0.823115 0.072495 -0.011153 696584.000000 0 0 1
30.787867 -1.316031 27.408522 41.241384 -0.042719 0.843854 0.053752 -0.010896 708453.000000 0 0 1
31.143867 -0.429531 28.464852 42.194464 -0.013791 0.830359 0.043722 -0.000740 859284.000000 0 0 1
32.552467 -0.451131 28.777732 43.451404 -0.013858 0.846916 0.051598 -0.012127 1149800.000000 0 0 1
32.921267 0.723269 29.767042 44.389298 0.021966 0.835792 0.056340 -0.015451 -18124.000000 0 0 1
32.819967 2.022369 29.169402 43.955594 0.061542 0.845161 0.052807 -0.005241 113209.000000 0 0 1
33.067767 3.056069 30.071962 44.801113 0.092157 0.834926 0.056020 -0.003423 -4790.550000 0 0 1
32.737367 4.472769 29.492372 44.289286 0.135785 0.842093 0.060264 -0.003421 -134220.000000 0 0 1
33.024267 5.453069 30.491712 45.277839 0.163646 0.831950 0.063098 0.002207 -204453.000000 0 0 1
31.940367 6.269869 30.826552 44.830510 0.193835 0.812584 0.056358 0.001036 -374976.000000 0 0 1
32.070767 7.042269 32.171972 45.969158 0.216155 0.795595 0.043160 -0.000257 -64564.100000 0 0 1
32.240767 6.200669 33.288123 46.754834 0.190004 0.778494 0.040183 0.007898 55040.000000 0 0 1
32.721567 6.857769 -33.837920 47.568212 0.206589 2.362222 0.033785 0.000575 -219568.000000 0 0 1
33.302167 5.863369 -32.813790 47.118555 0.174280 2.341178 0.055072 0.007951 -177343.000000 0 0 1
32.392467 4.967469 -32.199950 45.943274 0.152167 2.347403 0.036234 0.014315 137933.000000 0 0 1
32.275867 3.706669 -32.893710 46.232750 0.114342 2.362399 0.057944 0.003559 -32959.400000 0 0 1
31.940667 2.607369 -31.864700 45.192518 0.081451 2.353344 0.061462 -0.009423 -133828.000000 0 0 1
32.297867 1.299569 -32.236960 45.651536 0.040215 2.354846 0.059172 -0.004505 73376.300000 0 0 1
32.463467 0.356769 -31.142590 44.987386 0.010989 2.335401 0.045535 -0.012873 -44339.200000 0 0 1
32.792967 -1.059331 -31.703770 45.624883 -0.032292 2.339048 0.061836 -0.036169 -287437.000000 0 0 1
34.001567 -1.129531 -32.471370 47.029483 -0.033208 2.332903 0.063975 -0.029599 336104.000000 0 0 1
34.807767 -2.217531 -32.090560 47.395170 -0.063622 2.314591 0.072915 -0.024473 281258.000000 0 0 1
35.719067 -2.012431 -30.858090 47.245353 -0.056281 2.282527 0.085147 -0.020257 -419102.000000 0 0 1
34.936067 -2.079931 -29.645940 45.866509 -0.059465 2.273591 0.070495 -0.025519 518021.000000 0 0 1
35.718767 -1.955031 -28.479190 45.724356 -0.054679 2.243170 0.075992 -0.028549 -383651.000000 0 0 1
34.874067 -1.527531 -27.303310 44.317092 -0.043773 2.234565 0.075238 -0.033122 -428995.000000 0 0 1
34.391167 -0.205631 -27.400100 43.972266 -0.005979 2.243525 0.068761 -0.028857 309210.000000 0 0 1
33.486767 0.000869 -26.333760 42.600827 0.000026 2.237185 0.068522 -0.030275 -873.187000 0 0 1
32.833167 1.436469 -26.374730 42.139135 0.043723 2.247077 0.059162 -0.024599 -48818.600000 0 0 1
31.917767 1.589269 -27.427690 42.113511 0.049752 2.280066 0.065321 -0.031094 37956.500000 0 0 1
31.300367 2.860169 -27.311130 41.638821 0.091125 2.286178 0.045401 -0.011207 -274124.000000 0 0 1
30.426267 3.106869 -28.518910 41.817922 0.101759 2.321260 0.056491 -0.012941 -476103.000000 0 0 1
29.774967 4.346369 -28.513180 41.454083 0.144950 2.329286 0.048006 -0.006977 145864.000000 0 0 1
28.898267 4.484069 -29.649010 41.644694 0.153940 2.363070 0.051438 -0.005117 1681790.000000 0 0 1
27.641967 5.443269 -29.320720 40.662171 0.194433 2.376158 0.040742 -0.015912 1836880.000000 0 0 1
26.616667 4.950869 -28.433980 39.261295 0.183905 2.380705 0.046321 -0.018294 1464860.000000 0 0 1
25.693767 5.887769 -27.829490 38.331658 0.225263 2.383311 0.054844 -0.021310 670744.000000 0 0 1
24.325967 5.324969 -27.368000 37.001560 0.215501 2.403338 0.048793 -0.013009 171299.000000 0 0 1
23.488267 5.043469 -28.483560 37.261890 0.211511 2.440930 0.061379 -0.018617 -450532.000000 0 0 1
22.216867 4.691969 -28.030260 36.073526 0.208131 2.460732 0.063646 -0.015791 -364968.000000 0 0 1
21.278267 4.412769 -29.253560 36.441844 0.204485 2.502683 0.062059 -0.016901 -36520.000000 0 0 1
21.507767 3.088969 -29.749680 36.839778 0.142646 2.510770 0.057070 -0.016937 455206.000000 0 0 1
20.680367 2.643669 -30.833310 37.220419 0.127145 2.547037 0.043769 -0.021537 191361.000000 0 0 1
21.087967 3.343069 -32.155210 38.598394 0.157221 2.555433 0.051372 -0.017767 142996.000000 0 0 1
22.221667 2.699669 -32.707700 39.634384 0.120896 2.541415 0.046410 -0.018890 -283127.000000 0 0 1
22.421967 3.315869 -33.944300 40.816113 0.146821 2.552850 0.050033 -0.016295 647344.000000 0 0 1
23.762567 3.054269 33.532708 41.212021 0.127832 0.620370 0.050668 -0.013317 672164.000000 0 0 1
23.858167 1.683869 33.111010 40.845888 0.070461 0.625565 0.057944 -0.022900 -120820.000000 0 0 1
25.129167 1.293769 32.642791 41.215297 0.051439 0.656707 0.055646 -0.025160 -655326.000000 0 0 1
25.242867 -0.239331 32.460644 41.121200 -0.009481 0.660982 0.054111 -0.028427 -706092.000000 0 0 1
24.603267 -0.898031 31.406172 39.905825 -0.036484 0.664853 0.065945 -0.031257 127256.000000 0 0 1
23.185967 -0.872831 31.482782 39.109033 -0.037627 0.635120 0.063509 -0.036111 -280820.000000 0 0 1
22.583367 -1.995431 32.411799 39.553950 -0.088130 0.610376 0.055979 -0.039043 -549590.000000 0 0 1
22.808067 -3.317531 31.930142 39.379537 -0.144441 0.625226 0.066446 -0.048690 485519.000000 0 0 1
22.048967 -4.293031 32.698952 39.671256 -0.192298 0.601924 0.055318 -0.036302 242521.000000 0 0 1
22.112867 -5.743031 32.246217 39.519360 -0.254101 0.616408 0.057547 -0.035011 221852.000000 0 0 1
23.400467 -6.332731 32.392208 40.459121 -0.264293 0.642474 0.066480 -0.029437 148020.000000 0 0 1
23.357667 -7.717731 32.148822 40.480746 -0.319122 0.653146 0.058727 -0.031414 -200070.000000 0 0 1
24.744767 -8.405531 32.057252 41.359689 -0.327460 0.683948 0.066608 -0.022229 162869.000000 0 0 1
25.113367 -8.213731 30.723882 40.522877 -0.316099 0.710270 0.072455 -0.026536 -230070.000000 0 0 1
26.410467 -8.709331 30.427682 41.221464 -0.318538 0.740470 0.069548 -0.019153 361793.000000 0 0 1
26.848467 -8.298031 28.970392 40.360638 -0.299756 0.770176 0.070213 -0.020565 439190.000000 0 0 1
26.072467 -8.883631 27.919082 39.219480 -0.328391 0.778642 0.059510 -0.019677 -118485.000000 0 0 1
26.497267 -8.325731 26.704012 38.529563 -0.304443 0.805045 0.069113 -0.011030 83633.000000 0 0 1
25.803667 -8.977431 25.506142 37.376287 -0.334814 0.819735 0.039557 -0.012274 428924.000000 0 0 1
24.477667 -8.519531 25.257902 36.189781 -0.334939 0.798295 0.046650 -0.008011 187141.000000 0 0 1
23.897367 -9.328131 24.231632 35.288386 -0.372152 0.813892 0.047670 -0.011789 -794020.000000 0 0 1
22.505467 -8.919131 23.833342 33.971682 -0.377321 0.793205 0.036837 -0.011422 -321857.000000 0 0 1
21.508067 -9.155531 24.849862 34.116511 -0.402446 0.754838 0.034797 -0.005541 464269.000000 0 0 1
20.257067 -8.633331 24.415572 32.878615 -0.402877 0.733856 0.038965 -0.002671 246876.000000 0 0 1
19.167467 -8.759431 25.483962 33.068894 -0.428655 0.690963 0.038769 -0.005501 -257845.000000 0 0 1
18.589367 -10.015731 25.822752 33.357068 -0.494195 0.685455 0.047284 -0.005013 69350.200000 0 0 1
19.381867 -10.860231 26.663872 34.706822 -0.510739 0.694677 0.033372 -0.004813 -137884.000000 0 0 1
18.653267 -11.897731 27.528762 35.317604 -0.567777 0.676988 0.034739 -0.000585 -54921.500000 0 0 1
17.972967 -12.892631 26.798472 34.747742 -0.622265 0.690026 0.055437 -0.005680 66059.800000 0 0 1
17.163967 -13.771731 27.535062 35.248291 -0.676180 0.674252 0.051693 -0.002814 18867.200000 0 0 1
17.941167 -14.956131 28.213492 36.627482 -0.694908 0.691513 0.069197 0.006463 128293.000000 0 0 1
17.062967 -15.890331 28.856342 37.099002 -0.749828 0.679607 0.057442 0.006177 463902.000000 0 0 1
17.714767 -17.051731 29.395942 38.323569 -0.766329 0.696572 0.057198 0.006383 -361809.000000 0 0 1
18.050467 -18.168531 28.326282 38.187605 -0.788658 0.735096 0.057684 0.005274 359110.000000 0 0 1
19.332367 -17.906631 27.764692 38.278793 -0.747131 0.759285 0.061177 0.003954 275894.000000 0 0 1
19.599867 -18.855331 26.760812 38.155201 -0.766039 0.793482 0.061872 0.006107 516560.000000 0 0 1
20.812467 -18.518931 25.820772 37.984495 -0.727151 0.823345 0.057608 -0.006692 1684750.000000 0 0 1
22.096967 -18.364131 26.494152 39.082699 -0.693401 0.825894 0.058537 -0.005799 1389170.000000 0 0 1
23.078467 -17.831931 25.591522 38.801023 -0.657850 0.850566 0.045374 -0.005859 219160.000000 0 0 1
24.446467 -17.703531 26.289712 40.027412 -0.626768 0.854239 0.046670 -0.013408 -28147.500000 0 0 1
25.085667 -18.935831 26.575052 41.159322 -0.646596 0.868905 0.053033 -0.012301 1058520.000000 0 0 1
26.518267 -18.785231 26.524782 41.948390 -0.616334 0.886253 0.045488 -0.016686 690196.000000 0 0 1
27.327267 -20.050731 26.745002 43.175299 -0.633004 0.902753 0.026482 -0.014101 -255792.000000 0 0 1
27.034467 -20.644631 28.012222 44.065267 -0.652174 0.881883 0.027539 -0.007953 -42080.200000 0 0 1
27.713667 -21.847431 28.158342 45.146980 -0.667583 0.897324 0.019215 -0.016396 -90005.900000 0 0 1
26.988767 -22.833431 29.118842 45.800285 -0.702187 0.881779 0.028575 -0.011327 123091.000000 0 0 1
27.114167 -22.516231 30.496232 46.606640 -0.693018 0.857497 0.040416 -0.012222 31108.400000 0 0 1
26.383167 -23.534931 31.156572 47.124266 -0.728402 0.848435 0.056563 -0.009123 -413943.000000 0 0 1
26.196067 -23.381731 32.703242 47.983761 -0.728693 0.820920 0.047745 -0.010350 -485425.000000 0 0 1
25.257967 -24.288131 33.120737 48.216817 -0.765826 0.813564 0.054734 -0.015286 -475139.000000 0 0 1
25.095567 -24.291831 -33.755020 48.572440 -0.769125 2.339135 0.075069 -0.019249 -298458.000000 0 0 1
24.916967 -25.684151 -33.059250 48.718014 -0.800558 2.316629 0.069490 -0.018281 -551608.000000 0 0 1
23.731367 -26.384131 -33.204520 48.598769 -0.838282 2.322984 0.086123 -0.022244 -770775.000000 0 0 1
23.369967 -26.798631 33.753391 49.026660 -0.853635 0.811419 0.076522 -0.024762 -144079.000000 0 0 1
22.033467 -27.560341 33.700632 48.793224 -0.896383 0.808364 0.099736 -0.026676 212139.000000 0 0 1
22.200767 -28.931851 34.065687 49.903879 -0.916285 0.819446 0.091053 -0.027253 -368138.000000 0 0 1
20.928867 -29.487901 -34.112910 49.711612 -0.953561 2.327071 0.129916 -0.032847 -651927.000000 0 0 1
20.806267 -31.037971 -34.056255 50.557738 -0.980249 2.309880 0.097355 -0.029823 -247601.000000 0 0 1
21.310367 -31.591781 -32.870420 50.325311 -0.977353 2.282545 0.058893 -0.026138 318218.000000 0 0 1
22.627167 -32.093301 -32.981740 51.281223 -0.956694 2.269407 0.028992 -0.012068 -214160.000000 0 0 1
23.275867 -32.772661 -31.753290 51.225821 -0.953243 2.239372 0.015512 -0.011232 -206878.000000 0 0 1
24.567067 -33.321161 -32.030090 52.342786 -0.935485 2.229294 0.007049 -0.002317 426878.000000 0 0 1
25.168567 -33.993781 -30.944100 52.407740 -0.933476 2.202411 0.001812 0.011146 215416.000000 0 0 1
25.777367 -33.016261 -29.880580 51.452844 -0.907905 2.190430 -0.003764 0.006996 -467199.000000 0 0 1
26.313367 -33.746281 -28.785660 51.573433 -0.908531 2.162950 0.014679 0.011768 315935.000000 0 0 1
26.963267 -32.909211 -27.796440 50.820036 -0.884384 2.149523 0.018925 0.004597 -309682.000000 0 0 1
27.076867 -33.499141 -26.382510 50.511246 -0.891024 2.120353 0.032843 0.003619 597390.000000 0 0 1
28.174867 33.793560 -26.100140 51.157063 0.875821 2.106209 0.030649 0.029824 475068.000000 0 0 1
29.429567 -33.733181 -26.016770 51.777401 -0.853428 2.097254 0.034480 0.013412 -162951.000000 0 0 1
-27.204593 -29.925924 9.205830 41.477682 0.832996 1.346986 0.047313 -0.022254 -147862.000000 0 0 1
-27.151433 -31.022524 10.069730 42.438152 0.851844 1.331231 0.054771 -0.022412 191077.000000 0 0 1
-25.873493 -31.346024 10.602230 42.004977 0.880749 1.315632 0.049954 -0.026762 219542.000000 0 0 1
-25.956603 -32.661024 11.423630 43.254908 0.899279 1.303525 0.041551 -0.021274 302158.000000 0 0 1
-26.365003 -33.795424 10.653630 44.167226 0.908286 1.327183 0.049969 -0.018073 -293704.000000 0 0 1
-27.065123 33.471769 11.404030 44.530126 -0.890836 1.311814 0.030138 -0.014791 -538796.000000 0 0 1
-26.767983 32.011169 11.121630 43.184841 -0.874364 1.310326 0.044001 -0.009317 86901.700000 0 0 1
-27.161773 31.524169 9.857630 42.763396 -0.859596 1.338189 0.074616 -0.021061 126658.000000 0 0 1
-26.526893 30.255469 9.601630 41.367388 -0.850968 1.336554 0.087238 -0.016896 41888.800000 0 0 1
-25.841583 30.257069 8.240630 40.634784 -0.863946 1.366582 0.070424 -0.010692 184393.000000 0 0 1
-24.498033 29.793169 8.343630 39.463942 -0.882623 1.357765 0.058302 -0.003159 248227.000000 0 0 1
-24.087833 29.594069 6.993030 38.793493 -0.887612 1.389543 0.056120 -0.006738 47235.200000 0 0 1
-22.721333 28.862269 6.912430 37.377416 -0.903889 1.384790 0.085908 -0.001979 -27252.800000 0 0 1
-22.657533 27.501269 7.122930 36.337580 -0.881668 1.373498 0.067478 -0.011341 100558.000000 0 0 1
-23.103433 26.731169 6.013830 35.839785 -0.858066 1.402201 0.061324 -0.018373 -278949.000000 0 0 1
-23.202533 25.271869 6.317730 34.884647 -0.828062 1.388688 0.056207 -0.015341 -185347.000000 0 0 1
-24.358433 25.030369 7.099930 35.640730 -0.799002 1.370246 0.073597 -0.019126 248831.000000 0 0 1
-24.532833 23.660769 7.495830 34.898128 -0.767305 1.354318 0.072568 -0.030462 8454.760000 0 0 1
-25.283733 22.844669 6.386130 34.668844 -0.734763 1.385535 0.063769 -0.034536 262396.000000 0 0 1
-26.662993 23.221069 6.206530 35.897831 -0.716509 1.397029 0.061607 -0.034402 728275.000000 0 0 1
-27.152113 22.756469 4.966630 35.773755 -0.697551 1.431512 0.050703 -0.030498 5019.660000 0 0 1
-26.854263 23.636669 3.707330 35.966483 -0.721758 1.467536 0.038394 -0.032496 -213178.000000 0 0 1
-25.484223 23.627569 3.357630 34.913913 -0.747612 1.474479 0.049313 -0.033607 221240.000000 0 0 1
-25.235133 24.440669 2.213230 35.200236 -0.769407 1.507879 0.047039 -0.032075 -381171.000000 0 0 1
-23.977833 25.301069 2.309130 34.934405 -0.812244 1.504649 0.060965 -0.027895 -452612.000000 0 0 1
-23.555633 25.551169 1.000530 34.766811 -0.826012 1.542014 0.046240 -0.030292 -99439.300000 0 0 1
-22.409033 26.391369 1.022830 34.636907 -0.866822 1.541262 0.055612 -0.029515 -92039.800000 0 0 1
-21.893933 26.971369 -0.333070 34.740610 -0.888933 1.580384 0.073064 -0.029914 327428.000000 0 0 1
-21.443733 26.033169 -1.311670 33.753223 -0.881765 1.609667 0.063642 -0.028437 807581.000000 0 0 1
-20.357833 25.133669 -0.968070 32.358613 -0.889998 1.600718 0.052160 -0.034758 534179.000000 0 0 1
-19.941333 24.084669 -2.080470 31.337779 -0.879233 1.637234 0.060779 -0.042988 47631.300000 0 0 1
-20.992533 23.224969 -2.473270 31.403865 -0.835843 1.649635 0.059592 -0.039566 42911.700000 0 0 1
-20.583233 22.288469 -3.416270 30.530579 -0.825153 1.682928 0.061933 -0.033495 -281129.000000 0 0 1
-21.850133 21.804169 -4.111870 31.140931 -0.784345 1.703224 0.050160 -0.029205 -159323.000000 0 0 1
-22.311033 22.654669 -5.150470 32.210923 -0.793040 1.731384 0.040643 -0.021797 -79821.000000 0 0 1
-23.476533 22.101269 -5.722570 32.746931 -0.755233 1.746450 0.038952 -0.013610 -8124.860000 0 0 1
-23.778733 22.849069 -7.045070 33.721523 -0.765463 1.781266 0.037979 -0.011346 17086.400000 0 0 1
-23.060633 22.269269 -8.123170 33.071121 -0.767942 1.818963 0.041128 -0.014839 107410.000000 0 0 1
-22.804633 23.168369 -9.187470 33.782159 -0.793310 1.846228 0.036391 -0.014980 -855580.000000 0 0 1
-22.055733 22.409769 -10.237470 33.067490 -0.793360 1.885562 0.032488 -0.017363 -559903.000000 0 0 1
-22.838633 21.637669 -11.106870 33.363969 -0.758402 1.910174 0.010501 -0.010560 -281141.000000 0 0 1
-22.038833 20.994569 -12.038970 32.732536 -0.761137 1.947437 0.004859 -0.005977 43145.300000 0 0 1
-22.830233 20.604469 -13.358270 33.529197 -0.734199 1.980576 -0.008564 -0.004845 618481.000000 0 0 1
-23.653533 19.443369 -13.224470 33.352974 -0.688017 1.978498 0.000971 0.000858 -10637.200000 0 0 1
-24.532733 19.274469 -14.282370 34.312480 -0.665938 2.000107 0.009378 -0.005976 269509.000000 0 0 1
-25.461653 18.029869 -14.318470 34.327694 -0.616154 2.001061 0.040550 -0.013946 601176.000000 0 0 1
-24.800233 17.010069 -15.045670 33.626867 -0.601189 2.034686 0.035293 -0.024386 988327.000000 0 0 1
-25.770793 15.993869 -15.360970 33.998486 -0.555443 2.039593 0.075258 -0.037424 520193.000000 0 0 1
-25.190793 15.043569 -16.406570 33.616374 -0.538347 2.080654 0.084127 -0.028872 675576.000000 0 0 1
-24.055533 14.284569 -15.961170 32.209883 -0.535860 2.089249 0.095007 -0.029524 463965.000000 0 0 1
-23.619033 13.530269 -17.056270 32.122317 -0.520220 2.130552 0.107953 -0.046329 -665233.000000 0 0 1
-22.533433 12.532569 -16.738370 30.740754 -0.507573 2.146590 0.113213 -0.032506 -792556.000000 0 0 1
-21.328433 13.138369 -16.348970 29.913335 -0.552103 2.149029 0.107243 -0.037164 -63696.800000 0 0 1
-20.272233 12.158869 -16.410870 28.777043 -0.540257 2.177639 0.094671 -0.036912 -478771.000000 0 0 1
-19.041233 12.777669 -15.800970 27.847945 -0.591033 2.174143 0.091349 -0.031910 -1055200.000000 0 0 1
-18.400333 13.768169 -16.589170 28.343170 -0.642384 2.196043 0.082411 -0.021744 253317.000000 0 0 1
-17.389133 14.339169 -15.756670 27.500298 -0.689565 2.180914 0.082868 -0.001638 153233.000000 0 0 1
-16.508433 15.444069 -16.380270 27.917036 -0.752100 2.197834 0.048662 0.005955 190119.000000 0 0 1
-15.791633 14.951769 -17.523670 27.928661 -0.758086 2.249063 0.077367 -0.008153 -380670.000000 0 0 1
-14.826633 15.848569 -17.919970 28.144831 -0.818701 2.261015 0.047169 -0.008104 -734973.000000 0 0 1
-14.111533 15.369869 -19.173870 28.337353 -0.828055 2.313971 0.039122 -0.007525 -487110.000000 0 0 1
-13.369333 14.251069 -18.852470 27.152305 -0.817311 2.338275 0.040780 -0.005322 -547294.000000 0 0 1
-12.066533 14.428969 -19.395970 27.018513 -0.874327 2.371544 0.051492 -0.009826 458074.000000 0 0 1
-11.196633 13.128569 -19.287870 25.879449 -0.864653 2.411776 0.039446 -0.015683 -65930.800000 0 0 1
-11.614633 12.130169 -20.123970 26.210969 -0.807106 2.446148 0.060316 -0.000760 -408393.000000 0 0 1
-10.977833 10.931069 -19.907170 25.224919 -0.783264 2.480280 0.032358 0.003769 -487865.000000 0 0 1
-11.343233 9.830969 -20.946570 25.769666 -0.714099 2.519805 0.052985 -0.003559 -295476.000000 0 0 1
-10.811633 9.892369 -22.214270 26.612482 -0.741027 2.558441 0.066920 -0.009654 -257557.000000 0 0 1
-11.351233 8.906369 -23.077070 27.216265 -0.665290 2.582836 0.082128 0.004975 -32573.800000 0 0 1
-10.938533 9.054569 -24.563370 28.372450 -0.691445 2.617438 0.077826 -0.009774 1048520.000000 0 0 1
-9.551633 8.648569 -24.718170 27.875068 -0.735820 2.661059 0.057456 -0.006452 858927.000000 0 0 1
-9.178933 7.993769 -25.951980 28.664585 -0.716493 2.703040 0.021730 -0.013526 -329460.000000 0 0 1
-9.251233 8.851569 -27.244620 30.103238 -0.763324 2.702269 0.056074 -0.015006 520662.000000 0 0 1
-8.144233 9.765869 -27.441580 30.244687 -0.875695 2.707659 0.033630 -0.017157 793858.000000 0 0 1
-8.105533 10.874269 -26.512750 29.780452 -0.930254 2.668742 0.017787 -0.010008 284289.000000 0 0 1
-6.677733 11.523369 -26.480050 29.640736 -1.045591 2.675580 0.022956 -0.007125 580551.000000 0 0 1
-6.298333 12.152069 -27.688390 30.886708 -1.092622 2.682489 0.024166 -0.020073 201845.000000 0 0 1
-4.938233 12.535869 -27.576680 30.692140 -1.195535 2.687121 0.038106 -0.013547 122089.000000 0 0 1
-4.222633 12.324169 -28.940620 31.737600 -1.240702 2.718617 0.051241 -0.019237 899539.000000 0 0 1
-2.824133 12.669669 -28.939860 31.717688 -1.351477 2.719956 0.064999 -0.024344 793381.000000 0 0 1
-2.214333 12.570569 -30.203490 32.789835 -1.396433 2.741753 0.067789 -0.021484 37657.900000 0 0 1
-0.694733 12.384769 -30.028140 32.489296 -1.514759 2.749855 0.078188 -0.022982 -215877.000000 0 0 1
-0.318033 11.113269 -29.475440 31.502500 -1.542187 2.780904 0.062761 -0.010550 -449276.000000 0 0 1
1.050067 10.837969 -29.533680 31.477015 1.474210 2.788367 0.080979 -0.016039 -199172.000000 0 0 1
1.593367 10.211369 -30.862570 32.547029 1.416006 2.818460 0.090566 -0.027772 -287215.000000 0 0 1
1.656767 11.072169 -31.972870 33.876279 1.422265 2.804780 0.091305 -0.028554 249409.000000 0 0 1
1.944567 10.313969 -33.137350 34.759794 1.384447 2.834856 0.091149 -0.025801 -30936.600000 0 0 1
1.821067 11.184769 33.851686 35.698067 1.409396 0.323030 0.091911 -0.033370 -901239.000000 0 0 1
2.845767 12.085669 33.672233 35.888454 1.339543 0.353268 0.090118 -0.034375 -842115.000000 0 0 1
2.981867 12.634869 32.368485 34.874780 1.339034 0.381427 0.089235 -0.031213 213771.000000 0 0 1
4.435667 13.103969 32.095502 34.950113 1.244405 0.406973 0.106777 -0.029846 717677.000000 0 0 1
5.311667 12.032369 31.657192 34.280746 1.155077 0.393772 0.092279 -0.032543 330694.000000 0 0 1
6.516967 12.512969 31.101422 34.151775 1.090634 0.425863 0.096407 -0.022631 -125209.000000 0 0 1
7.474767 11.416669 30.677752 33.575839 0.991107 0.418535 0.084595 -0.017628 -370284.000000 0 0 1
6.962167 10.709869 29.585252 32.225149 0.994372 0.407588 0.077844 -0.025738 92481.300000 0 0 1
7.878867 9.834569 28.936032 31.560882 0.895361 0.410724 0.081758 -0.028090 64712.900000 0 0 1
7.208867 9.051269 27.824532 30.134662 0.898225 0.394107 0.070360 -0.019960 160649.000000 0 0 1
6.445367 7.963669 28.346832 30.141428 0.890382 0.346813 0.070607 -0.023436 18616.300000 0 0 1
5.911567 7.161169 27.306392 28.842123 0.880697 0.327797 0.076457 -0.028494 -301560.000000 0 0 1
5.154967 5.946669 27.885722 28.974991 0.856592 0.275068 0.082534 -0.040137 277492.000000 0 0 1
5.981867 4.868369 28.369892 29.399567 0.683132 0.265442 0.063404 -0.031183 261112.000000 0 0 1
5.265867 4.148169 29.347272 30.103140 0.667225 0.224567 0.068012 -0.031720 -299129.000000 0 0 1
5.961667 2.960769 29.948562 30.679374 0.460952 0.218706 0.071565 -0.022175 -265242.000000 0 0 1
6.143167 1.907569 29.034042 29.738072 0.301079 0.218029 0.070111 -0.027653 -82621.300000 0 0 1
7.510267 1.564169 28.960172 29.959011 0.205335 0.258948 0.065193 -0.019435 -21039.500000 0 0 1
7.710067 0.182569 28.289502 29.321910 0.023675 0.266150 0.055053 -0.025350 -39702.400000 0 0 1
7.628267 -0.932331 29.189452 30.184165 -0.121617 0.257439 0.030309 -0.027296 -62872.600000 0 0 1
7.815967 -2.151231 28.518002 29.647826 -0.268585 0.276957 0.047618 -0.029511 -330076.000000 0 0 1
8.237667 -3.404331 29.318072 30.643074 -0.391888 0.295144 0.031771 -0.019214 1126480.000000 0 0 1
9.626567 -3.332831 29.712962 31.410805 -0.333296 0.330294 0.019351 -0.025496 909741.000000 0 0 1
10.481567 -4.092131 28.871752 30.986882 -0.372214 0.371618 0.034580 -0.019349 -734708.000000 0 0 1
11.944967 -3.872831 29.277482 31.856742 -0.313529 0.405169 0.020394 -0.015122 304193.000000 0 0 1
12.950767 -4.767331 28.768972 31.907735 -0.352718 0.447273 0.035859 -0.016519 658413.000000 0 0 1
12.967067 -5.965231 29.543462 32.810745 -0.431163 0.450061 0.044229 -0.015415 -680232.000000 0 0 1
12.309967 -7.207431 28.910812 32.238446 -0.529686 0.458357 0.059012 -0.018506 16677.200000 0 0 1
10.916467 -7.060231 28.661642 31.472303 -0.574087 0.425835 0.062560 -0.017083 -70524.300000 0 0 1
10.327167 -8.320331 28.498632 31.433268 -0.678191 0.435547 0.072953 -0.019758 -774708.000000 0 0 1
8.819367 -8.221731 28.351112 30.808500 -0.750342 0.402111 0.072098 -0.015412 -531730.000000 0 0 1
8.229767 -7.854431 29.636422 31.744900 -0.762067 0.366519 0.078662 -0.020845 -142283.000000 0 0 1
6.866467 -7.591931 29.402592 31.133555 -0.835532 0.335025 0.072540 -0.017048 -192493.000000 0 0 1
6.208467 -6.871931 30.587012 31.958314 -0.836077 0.294005 0.066256 -0.019583 -135041.000000 0 0 1
6.138967 -7.681131 31.792362 33.278236 -0.896527 0.299954 0.069213 -0.017481 224913.000000 0 0 1
5.511167 -7.115831 32.953539 34.160559 -0.911803 0.266622 0.067611 -0.014076 42907.600000 0 0 1
6.237767 -5.906631 33.617387 34.697648 -0.758138 0.250186 0.073709 -0.012236 56602.000000 0 0 1
6.183067 -4.689731 32.831862 33.736554 -0.648906 0.232108 0.080549 -0.012864 -115909.000000 0 0 1
6.763467 -3.606031 33.529333 34.394246 -0.489825 0.224736 0.066036 -0.009370 -363066.000000 0 0 1
6.755367 -2.352331 32.650547 33.424941 -0.335085 0.215676 0.050672 -0.011014 -355021.000000 0 0 1
5.494167 -1.827331 32.358777 32.872716 -0.321086 0.177060 0.075511 -0.018364 -445017.000000 0 0 1
5.731367 -0.770931 31.529702 32.055655 -0.133708 0.181398 0.065124 -0.016800 -837240.000000 0 0 1
4.467067 -0.047031 31.150422 31.469123 -0.010528 0.142440 0.091551 -0.025753 -926801.000000 0 0 1
3.829967 0.498869 32.263540 32.493900 0.129525 0.119145 0.098326 -0.024510 -444671.000000 0 0 1
2.738267 1.268469 31.800342 31.943214 0.433808 0.094615 0.105021 -0.022003 271288.000000 0 0 1
1.528767 1.300869 32.780558 32.841961 0.705032 0.061159 0.096459 -0.030094 395606.000000 0 0 1
1.877867 2.136669 33.900717 34.019853 0.849775 0.083714 0.086241 -0.022514 597256.000000 0 0 1
0.957267 1.926969 -33.264390 33.333905 1.109733 3.077000 0.069569 -0.017460 422411.000000 0 0 1
1.234267 2.914869 -32.117080 32.272693 1.170249 3.043351 0.067629 -0.012644 -87852.700000 0 0 1
2.336367 2.548769 -31.332850 31.523045 0.828850 3.031687 0.056944 -0.012252 -391327.000000 0 0 1
2.745267 3.615969 -30.509370 30.845314 0.921429 2.993869 0.046012 -0.007022 62905.800000 0 0 1
3.982667 3.246769 -29.669260 30.110931 0.683956 2.970104 0.049497 -0.012475 274666.000000 0 0 1
3.533967 2.472069 -28.539490 28.863516 0.610402 2.991611 0.056010 -0.023901 291829.000000 0 0 1
4.565567 2.405069 -27.604370 28.082557 0.484845 2.956788 0.068692 -0.028193 -202902.000000 0 0 1
4.089367 1.669569 -26.306700 26.674948 0.387616 2.975238 0.062932 -0.031686 41563.700000 0 0 1
4.001467 0.325369 -26.494770 26.797210 0.081134 2.991210 0.072006 -0.033779 143510.000000 0 0 1
3.643667 -0.390431 -25.310030 25.573939 -0.106746 2.997806 0.078169 -0.032636 -475106.000000 0 0 1
4.035567 -1.839431 -25.145830 25.533940 -0.427671 2.967017 0.072202 -0.035331 -94.943100 0 0 1
5.437467 -1.935131 -24.982370 25.640390 -0.341911 2.914551 0.059759 -0.034607 232240.000000 0 0 1
5.881267 -3.302731 -25.038890 25.931513 -0.511681 2.878452 0.056985 -0.034178 -1067290.000000 0 0 1
7.286867 -3.534731 -24.566070 25.866669 -0.451642 2.823134 0.058982 -0.033548 -64993.000000 0 0 1
8.361067 -3.055531 -25.386620 26.902123 -0.350370 2.804336 0.043746 -0.031770 416531.000000 0 0 1
9.640167 -3.252331 -24.820370 26.824639 -0.325382 2.752576 0.035097 -0.024239 280475.000000 0 0 1
-29.921243 -4.026231 17.386832 34.839536 0.133758 1.048289 0.164391 -0.040740 1158240.000000 0 0 1
-31.343903 -3.904631 17.600132 36.158693 0.123935 1.062434 0.166012 -0.036175 722864.000000 0 0 1
-31.835023 -4.892631 18.442332 37.115039 0.152494 1.050777 0.150905 -0.033705 748956.000000 0 0 1
-33.319633 -4.659531 18.900632 38.589417 0.138942 1.058950 0.127313 -0.030927 849521.000000 0 0 1
-34.287109 -4.987631 17.917632 39.006716 0.144453 1.093536 0.114120 -0.030420 48152.100000 0 0 1
-35.574317 -4.911731 18.505532 40.399404 0.137202 1.094980 0.084847 -0.017828 1095120.000000 0 0 1
36.321403 -4.982731 17.403332 40.582606 -0.136333 1.127591 0.058667 -0.017318 1879130.000000 0 0 1
35.034843 -5.388931 17.923832 39.720833 -0.152620 1.102636 0.023803 -0.001789 1598050.000000 0 0 1
34.032303 -5.213531 16.857232 38.334643 -0.152012 1.115488 0.017665 -0.001669 1244990.000000 0 0 1
32.568663 -5.589531 17.212232 37.258846 -0.169967 1.090588 0.016800 0.005234 -54606.400000 0 0 1
32.022093 -4.850731 18.208832 37.155156 -0.150338 1.058620 0.022554 0.000852 -678259.000000 0 0 1
30.913273 -5.517531 18.703632 36.549958 -0.176624 1.033602 0.026971 -0.000668 -673572.000000 0 0 1
30.330523 -4.964731 20.023232 36.681317 -0.162249 0.993369 0.029287 0.007043 -361238.000000 0 0 1
29.469463 -3.861431 19.887132 35.761123 -0.130289 0.981098 0.047346 -0.000375 98042.100000 0 0 1
30.044303 -2.643531 19.434932 35.879869 -0.087762 0.998378 0.047658 -0.002842 391085.000000 0 0 1
29.028323 -1.421031 19.602732 35.056098 -0.048914 0.977398 0.052712 0.001329 468301.000000 0 0 1
29.572503 -0.151431 19.372532 35.353230 -0.005121 0.990860 0.057503 -0.004091 -249443.000000 0 0 1
28.532923 0.750069 19.580132 34.613175 0.026282 0.969533 0.063540 -0.008095 -139987.000000 0 0 1
28.760373 2.258569 19.205232 34.656906 0.078370 0.983451 0.062115 -0.002243 43401.300000 0 0 1
28.882673 2.372069 17.827132 34.024141 0.081944 1.019308 0.042241 -0.007576 57102.000000 0 0 1
28.723033 3.690269 17.369532 33.768793 0.127778 1.030528 0.039993 -0.002208 117534.000000 0 0 1
28.706613 3.759269 15.846832 33.004906 0.130214 1.069987 0.043306 -0.007546 -114419.000000 0 0 1
28.552603 5.018769 15.259332 32.761050 0.173995 1.086284 0.045416 -0.010598 332679.000000 0 0 1
28.132433 4.790169 13.914332 31.748829 0.168655 1.117131 0.060294 -0.010397 -279180.000000 0 0 1
27.535063 6.038869 13.174532 31.116168 0.215897 1.133603 0.054478 -0.008338 1202710.000000 0 0 1
26.259163 6.374969 13.801032 30.342254 0.238164 1.098598 0.057059 -0.012533 1358230.000000 0 0 1
25.682463 7.547869 13.218732 29.854549 0.285844 1.112109 0.059921 -0.025098 -154342.000000 0 0 1
24.476063 8.119569 14.054032 29.368706 0.320311 1.071808 0.064319 -0.026939 1171240.000000 0 0 1
23.162663 7.649269 13.740132 27.996634 0.318965 1.057814 0.067269 -0.016662 828736.000000 0 0 1
22.968263 6.248769 13.970632 27.600123 0.265632 1.040047 0.077497 -0.015982 -742095.000000 0 0 1
21.502263 5.785869 13.722232 26.155750 0.262856 1.018510 0.087501 -0.020496 95449.200000 0 0 1
21.136463 5.788569 12.373332 25.166584 0.267312 1.056804 0.093642 -0.027279 -197853.000000 0 0 1
19.991663 5.032569 12.197732 23.953664 0.246609 1.036516 0.097816 -0.024943 -895778.000000 0 1 0
19.676863 4.812969 10.737632 22.926848 0.239890 1.083382 0.102858 -0.025766 -289071.000000 0 1 0
20.664063 4.002269 10.141332 23.363824 0.191314 1.121800 0.099004 -0.028095 473744.000000 0 1 0
20.505463 3.839169 8.722232 22.611735 0.185084 1.174787 0.119901 -0.031968 -472070.000000 0 1 0
21.702463 3.181869 8.046432 23.363781 0.145576 1.219199 0.109985 -0.027627 -1389520.000000 0 1 0
21.777663 1.795269 8.397132 23.409430 0.082250 1.203914 0.097676 -0.026807 363188.000000 0 1 0
22.612563 1.091269 7.544532 23.862918 0.048222 1.249116 0.079472 -0.018725 -618154.000000 0 1 0
24.138963 1.310669 7.451432 25.296862 0.054244 1.271802 0.073754 -0.017920 -428810.000000 0 0 1
24.883163 0.904169 8.581732 26.336960 0.036321 1.238892 0.065216 -0.005706 449415.000000 0 0 1
24.879963 1.799069 9.670632 26.753884 0.072184 1.200956 0.057053 -0.011079 -927756.000000 0 0 1
25.471563 1.204569 11.002432 27.772379 0.047256 1.163460 0.041048 -0.005638 -1473000.000000 0 0 1
26.835963 1.272269 10.970032 29.019462 0.047374 1.183136 0.042742 -0.007002 -1290260.000000 0 0 1
27.408163 0.617369 12.099532 29.966435 0.022521 1.155163 0.044588 -0.009239 -356319.000000 0 0 1
28.941103 0.600569 12.056032 31.357551 0.020748 1.176163 0.072000 -0.014697 -138843.000000 0 0 1
29.483593 1.875469 12.427332 32.050557 0.063525 1.172616 0.063066 -0.004321 170574.000000 0 0 1
30.887533 1.815169 12.526532 33.380362 0.058700 1.186112 0.063117 -0.007809 -286193.000000 0 0 1
31.627183 3.078969 12.951532 34.314734 0.097046 1.183773 0.062013 -0.016236 -429304.000000 0 0 1
31.714383 4.050469 11.900632 34.115003 0.127029 1.214465 0.070439 -0.014046 438783.000000 0 0 1
32.431713 5.209369 12.344432 35.090434 0.159265 1.211315 0.068610 -0.015710 488837.000000 0 0 1
33.904803 5.234869 11.839632 36.292098 0.153189 1.238482 0.074084 -0.014994 103316.000000 0 0 1
34.645903 4.111269 12.299832 36.993607 0.118113 1.231859 0.070648 -0.020179 -365829.000000 0 0 1
35.950543 4.169669 11.822032 38.073457 0.115468 1.255071 0.085909 -0.016931 -995080.000000 0 0 1
-36.121593 3.278569 12.529732 38.373333 -0.090517 1.238175 0.123829 -0.013949 -906997.000000 0 0 1
-36.017602 1.910169 12.198532 38.075197 -0.052985 1.244666 0.101327 -0.013067 320183.000000 0 0 1
36.005803 1.035169 12.586432 38.156358 0.028742 1.234636 0.089007 -0.013444 -62097.300000 0 0 1
35.813173 0.897569 14.110032 38.503013 0.025057 1.195589 0.080804 -0.004373 -58980.200000 0 0 1
-36.338103 -0.005731 14.677232 39.190291 0.000158 1.186926 0.082893 -0.014571 330292.000000 0 0 1
36.248963 -0.260131 15.997732 39.623004 -0.007176 1.155186 0.090363 -0.019609 -185752.000000 0 0 1
-35.959416 -1.158231 16.908832 39.753361 0.032198 1.131455 0.094991 -0.019336 -256514.000000 0 0 1
-34.722802 -0.510931 17.166432 38.737842 0.014713 1.111694 0.122533 -0.025467 86362.900000 0 0 1
-33.893353 -1.111331 18.144632 38.460657 0.032777 1.079498 0.107842 -0.025469 -26703.500000 0 0 1
-34.260178 -0.959031 19.591632 39.477989 0.027985 1.051502 0.118959 -0.028372 -251120.000000 0 0 1
-35.175333 -1.946531 20.072732 40.546364 0.055282 1.052897 0.084178 -0.025762 285472.000000 0 0 1
-35.412037 -1.801631 21.470932 41.451890 0.050832 1.026318 0.078544 -0.021074 29441.100000 0 0 1
-35.771023 -3.182231 22.104432 42.169878 0.088728 1.019049 0.046018 -0.019707 328331.000000 0 0 1
-34.711014 -4.175631 22.010932 41.313092 0.119722 1.008910 0.075895 -0.021687 663253.000000 0 0 1
-34.911815 -5.405931 22.634732 41.957002 0.153625 1.000983 0.073613 -0.023334 -218862.000000 0 0 1
-35.043082 -5.424131 24.171042 42.914777 0.153566 0.972502 0.059539 -0.033369 832227.000000 0 0 1
-33.788883 -5.073531 24.782452 42.208995 0.149040 0.943279 0.077312 -0.034875 545338.000000 0 0 1
-33.878703 -5.061031 26.234822 43.146801 0.148290 0.917212 0.082741 -0.040294 204749.000000 0 0 1
-32.698103 -4.316731 26.905352 42.564047 0.131259 0.886517 0.084134 -0.031013 181385.000000 0 0 1
-32.633943 -2.903931 26.875882 42.375938 0.088751 0.883791 0.069649 -0.023717 -124147.000000 0 0 1
-32.137663 -2.380431 25.624162 41.171514 0.073935 0.899022 0.063456 -0.022597 -77418.600000 0 0 1
-32.058313 -0.859531 25.516492 40.982504 0.026805 0.898711 0.065225 -0.024062 -109283.000000 0 0 1
-33.282963 -0.178131 25.442702 41.894134 0.005352 0.918127 0.063887 -0.025811 -424275.000000 0 0 1
-33.066573 1.116269 24.911172 41.415104 -0.033745 0.925419 0.067976 -0.008320 -391016.000000 0 0 1
-34.327617 1.883369 24.501502 42.216774 -0.054810 0.951609 0.075028 -0.005593 -185800.000000 0 0 1
-35.038362 1.041169 23.595542 42.255420 -0.029706 0.978337 0.077203 0.002015 -344413.000000 0 0 1
-36.205603 1.579869 23.007532 42.926545 -0.043608 1.005135 0.069269 0.004335 9278.550000 0 0 1
-36.212673 2.756569 21.966732 42.444007 -0.075975 1.026816 0.083868 -0.008162 -159174.000000 0 0 1
-35.762474 2.323269 20.684132 41.378563 -0.064873 1.047341 0.104971 -0.023525 -18242.900000 0 0 1
-36.360033 3.108469 19.716332 41.478288 -0.085284 1.075445 0.101881 -0.015610 -96155.000000 0 0 1
-36.027674 2.635869 18.263832 40.478496 -0.073032 1.102689 0.113282 -0.020621 470532.000000 0 0 1
-34.676541 3.034669 18.003032 39.189040 -0.087291 1.093489 0.138161 -0.021977 707940.000000 0 0 1
-34.116643 2.473469 16.816932 38.116566 -0.072374 1.113864 0.151633 -0.026857 453330.000000 0 0 1
-33.040823 3.415469 16.173432 36.945112 -0.103005 1.117680 0.150177 -0.028663 116037.000000 0 0 1
-33.595533 4.562469 15.622732 37.330225 -0.134980 1.139002 0.155233 -0.037292 -66931.700000 0 0 1
-32.689533 5.237169 14.780432 36.255961 -0.158859 1.150896 0.159727 -0.027376 -263059.000000 0 0 1
-33.331663 6.424569 14.038032 36.733380 -0.190412 1.178664 0.176161 -0.041556 74774.600000 0 0 1
-32.385323 7.029469 13.194632 35.669608 -0.213742 1.191882 0.181210 -0.032078 73286.400000 0 0 1
-32.829453 8.315869 12.905332 36.241886 -0.248087 1.206717 0.162267 -0.034010 -258088.000000 0 0 1
-31.880423 9.071769 11.994932 35.249635 -0.277229 1.223576 0.167169 -0.035464 -310321.000000 0 0 1
-32.247343 10.436069 11.819032 35.895574 -0.312988 1.235275 0.143382 -0.026473 563688.000000 0 0 1
-31.308453 11.089369 10.940732 34.969887 -0.340409 1.252592 0.120938 -0.027155 574712.000000 0 0 1
-31.683193 12.582969 10.794432 35.758574 -0.378047 1.264143 0.111560 -0.022355 112124.000000 0 0 1
-30.817003 13.190469 9.865432 34.942852 -0.404431 1.284574 0.104606 -0.019765 5097.660000 0 0 1
-31.002003 14.585669 9.742332 35.619924 -0.439750 1.293758 0.088094 -0.010597 -71745.000000 0 0 1
-30.100293 15.322869 8.717732 34.882902 -0.470870 1.318205 0.091642 -0.013570 -675244.000000 0 0 1
-28.778563 15.465569 9.131732 33.923120 -0.493117 1.298245 0.092162 -0.007136 -374738.000000 0 0 1
-28.108493 16.417069 8.280532 33.588313 -0.528617 1.321698 0.063083 -0.014824 -243599.000000 0 0 1
-26.633203 16.634569 8.636232 32.567175 -0.558297 1.302404 0.059077 -0.008024 -356487.000000 0 0 1
-26.369013 17.217269 9.904532 33.013012 -0.578436 1.266084 0.045046 -0.007689 243958.000000 0 0 1
-26.706973 18.590069 10.011532 34.045321 -0.608087 1.272319 0.056551 -0.019010 -249804.000000 0 0 1
-26.688933 18.997869 11.465932 34.708584 -0.618619 1.234123 0.065177 -0.007737 985033.000000 0 0 1
-25.342683 19.084469 11.988732 33.914573 -0.645454 1.209488 0.050023 -0.002042 1041380.000000 0 0 1
-25.350733 19.585269 13.318132 34.693156 -0.657791 1.176798 0.047971 -0.010690 163689.000000 0 0 1
-25.987433 18.659969 14.405132 35.086307 -0.622730 1.147725 0.042084 -0.009658 140655.000000 0 0 1
-25.214833 17.472869 14.580332 33.965792 -0.605985 1.127117 0.051062 -0.016662 94733.500000 0 0 1
-25.632643 16.631169 15.609432 34.311551 -0.575551 1.098500 0.050497 -0.010198 284012.000000 0 0 1
-24.546633 15.520969 16.014132 33.164591 -0.563835 1.066869 0.042572 -0.012794 701558.000000 0 0 1
-23.519833 16.089269 16.811632 33.085920 -0.599956 1.037795 0.040598 -0.013712 -834397.000000 0 0 1
-22.476233 15.237169 17.069432 32.073633 -0.595755 1.009605 0.027279 -0.034047 -884988.000000 0 0 1
-22.791233 14.055269 18.030932 32.281658 -0.552606 0.978159 0.045173 -0.025595 -620495.000000 0 0 1
-22.794833 14.442069 19.361332 33.212031 -0.564737 0.948428 0.046403 -0.018985 313336.000000 0 0 1
-23.080033 13.314969 20.185032 33.427711 -0.523264 0.922485 0.043699 -0.017021 -1098140.000000 0 0 1
-22.821033 13.633069 21.719832 34.327995 -0.538499 0.885742 0.023073 -0.006324 -374997.000000 0 0 1
-21.475333 13.804469 22.067732 33.745194 -0.571301 0.858000 0.027444 -0.013549 -165990.000000 0 0 1
-20.976533 15.119469 21.898332 33.884366 -0.624537 0.868114 0.037610 -0.005917 -129185.000000 0 0 1
-19.473633 15.206569 22.349832 33.316319 -0.662973 0.835459 0.070260 -0.018895 997565.000000 0 0 1
-18.543933 14.420069 21.627332 31.930508 -0.660943 0.826676 0.051296 -0.021017 -92336.000000 0 0 1
-18.181733 15.051269 20.429732 31.216824 -0.691478 0.857346 0.052698 -0.014182 -1334720.000000 0 0 1
-16.978533 14.309569 19.751332 29.717831 -0.700301 0.843799 0.046070 -0.014803 1628910.000000 0 0 1
-15.724533 14.181769 20.458032 29.443414 -0.733857 0.802619 0.044727 -0.015087 1078830.000000 0 0 1
-15.149333 15.422669 20.876132 30.052852 -0.794339 0.802867 0.040298 -0.013252 -201033.000000 0 0 1
-14.006433 15.263469 21.973532 30.199169 -0.828318 0.755950 0.025763 -0.010465 1500960.000000 0 0 1
-12.929433 14.412969 21.521432 28.949542 -0.839603 0.732639 0.022135 -0.000837 1325840.000000 0 0 1
-11.769333 14.373769 22.390232 29.093727 -0.884693 0.692598 0.033518 0.000614 1077480.000000 0 0 1
-10.542433 13.749069 21.710032 27.775984 -0.916646 0.673551 0.037903 -0.003059 -1091100.000000 0 0 1
-10.319333 12.414869 22.152332 27.410645 -0.877314 0.629766 0.041208 -0.010674 1036550.000000 0 0 1
-9.020833 11.848969 21.880932 26.467881 -0.920091 0.597584 0.047810 -0.009468 1916020.000000 0 0 1
-7.690233 12.593069 22.312332 26.750052 -1.022567 0.584289 0.042470 -0.002672 294418.000000 0 0 1
-7.292733 13.526669 21.334232 26.292665 -1.076331 0.624229 0.043354 -0.006190 -775955.000000 0 0 1
-6.505033 14.585469 21.700532 26.943728 -1.151279 0.634443 0.028345 0.001020 -831968.000000 0 0 1
-7.112533 15.631869 22.649832 28.424609 -1.143790 0.648751 0.034510 -0.009728 279173.000000 0 0 1
-8.176133 16.415969 22.092332 28.712442 -1.108702 0.692842 0.006915 -0.001357 179368.000000 0 0 1
-7.753733 17.343769 21.051532 28.356546 -1.150389 0.734170 0.011889 0.006189 -913349.000000 0 0 1
-8.711033 17.296569 19.816732 27.708416 -1.104251 0.773903 0.013127 0.007389 560224.000000 0 0 1
-9.943733 17.952769 19.835632 28.541760 -1.064977 0.802420 -0.001201 0.010341 -571296.000000 0 0 1
-10.813933 17.550169 20.857532 29.325522 -1.018570 0.779533 0.006996 0.004183 -576510.000000 0 0 1
-12.026133 18.551669 21.094232 30.557470 -0.995652 0.808874 0.007606 0.004817 823658.000000 0 0 1
-12.886533 18.479469 19.977832 30.110917 -0.961856 0.845343 0.009405 0.005944 374905.000000 0 0 1
-14.109433 19.204969 20.218132 31.251877 -0.937175 0.867230 0.006578 0.002891 953740.000000 0 0 1
-14.981633 19.289869 18.923132 30.897141 -0.910451 0.911633 0.019986 -0.003031 -21761.500000 0 0 1
-15.682633 18.128969 18.566632 30.320362 -0.857624 0.911768 0.038421 -0.005429 162305.000000 0 0 1
-16.426633 18.315969 17.368532 30.116024 -0.839726 0.956088 0.052351 -0.019267 -970248.000000 0 0 1
-17.132233 17.051669 16.748932 29.407475 -0.783041 0.964842 0.054043 -0.027031 387423.000000 0 0 1
-18.251433 16.590169 17.487132 30.234886 -0.737754 0.954060 0.051555 -0.019261 -179585.000000 0 0 1
-19.372533 17.415969 17.433032 31.345201 -0.732264 0.981035 0.050524 -0.022145 -1277190.000000 0 0 1
34.266863 -9.653331 12.346230 37.680686 -0.274594 1.236977 0.051745 -0.027532 229925.000000 0 0 1
33.064583 -10.122431 11.731830 36.515285 -0.297081 1.243710 0.043248 -0.014786 416551.000000 0 0 1
32.595203 -11.288731 12.332630 36.632997 -0.333403 1.227436 0.050553 -0.016824 -499240.000000 0 0 1
31.185013 -11.734531 11.918730 35.387291 -0.359899 1.227271 0.051527 -0.006096 -1151650.000000 0 0 1
30.271983 -10.825231 12.440230 34.472277 -0.343428 1.201589 0.052623 -0.001572 -1264720.000000 0 0 1
28.942673 -11.163731 12.358730 33.392295 -0.368135 1.191672 0.061396 -0.006441 -800612.000000 0 0 1
28.400983 -12.145231 13.384330 33.663968 -0.404100 1.161912 0.050398 -0.006573 -919796.000000 0 0 1
28.648293 -11.647731 14.696030 34.239854 -0.386163 1.127180 0.051562 -0.012175 634602.000000 0 0 1
27.780963 -12.197931 15.719530 34.171260 -0.413732 1.092776 0.055974 -0.017266 -734699.000000 0 0 1
26.450363 -11.562131 15.880530 32.946863 -0.412096 1.067855 0.047129 -0.029224 -1482480.000000 0 0 1
26.348063 -10.172131 16.130730 32.525269 -0.368438 1.051874 0.033329 -0.012386 -125756.000000 0 0 1
25.539863 -9.482431 15.162430 31.178524 -0.355505 1.062935 0.042509 -0.014263 262165.000000 0 0 1
25.241363 -8.062431 15.675630 30.787247 -0.309171 1.036588 0.051407 -0.024569 -313189.000000 0 0 1
26.341763 -7.216331 15.909030 31.607928 -0.267390 1.043355 0.033600 -0.016573 -551848.000000 0 0 1
26.082263 -5.948231 16.461530 31.410951 -0.224222 1.019174 0.037200 -0.009265 569229.000000 0 0 1
27.248563 -4.881031 16.344030 32.147099 -0.177250 1.037455 0.040255 -0.005237 783243.000000 0 0 1
27.528163 -4.437931 15.007630 31.665816 -0.159839 1.077039 0.041947 -0.005228 175629.000000 0 0 1
28.803203 -3.842231 14.890330 32.651327 -0.132613 1.097255 0.051637 -0.001628 -119928.000000 0 0 1
29.063553 -3.326631 13.472030 32.206399 -0.113965 1.139220 0.055830 -0.005471 -316217.000000 0 0 1
29.415463 -4.253331 12.463930 32.229021 -0.143600 1.173713 0.037466 -0.002416 357753.000000 0 0 1
29.543883 -3.561331 11.255530 31.815264 -0.119965 1.209189 0.055373 -0.007632 -45220.100000 0 0 1
30.107763 -4.390631 10.071630 32.049848 -0.144810 1.251131 0.053941 -0.006235 264481.000000 0 0 1
31.455363 -4.843131 10.114330 33.394542 -0.152769 1.263090 0.079303 -0.015641 490634.000000 0 0 1
31.943343 -5.262031 8.891430 33.572662 -0.163264 1.302757 0.072593 -0.021110 1701.410000 0 0 1
33.316583 -5.968731 8.850130 34.984929 -0.177271 1.315048 0.071435 -0.024564 813350.000000 0 0 1
34.497773 -5.145931 8.982730 36.017584 -0.148075 1.318737 0.085952 -0.029599 712951.000000 0 0 1
35.616263 -5.945131 8.624830 37.124796 -0.165397 1.336334 0.091606 -0.036865 -207.099000 0 0 1
-36.181223 -5.118331 8.407130 37.496107 0.140531 1.344661 0.095081 -0.034800 -121933.000000 0 0 1
-36.204893 -4.398131 7.211830 37.177255 0.120887 1.375574 0.092985 -0.031110 94994.600000 0 0 1
-34.918935 -3.893531 6.932330 35.812690 0.111043 1.375995 0.100882 -0.021687 -197235.000000 0 0 1
-34.867122 -3.106731 5.575830 35.446549 0.088867 1.412838 0.115505 -0.032714 -361881.000000 0 0 1
-34.795761 -3.892031 4.427130 35.291534 0.111391 1.445020 0.106530 -0.036387 72418.200000 0 0 1
-34.711156 -3.126631 3.235330 35.001536 0.089833 1.478230 0.102358 -0.028985 92265.600000 0 0 1
-34.155796 -3.896831 2.000330 34.435520 0.113599 1.512674 0.127012 -0.032020 73246.300000 0 0 1
-34.916065 -5.032131 1.631930 35.314546 0.143135 1.524569 0.110008 -0.026099 -76455.900000 0 0 1
-35.660565 -4.942831 0.424030 36.003990 0.137730 1.559019 0.092336 -0.020196 -749948.000000 0 0 1
-34.956260 -4.887531 -0.903370 35.307849 0.138918 1.596385 0.115572 -0.018976 -1388400.000000 0 0 1
-34.483014 -6.151331 -1.226570 35.048846 0.176530 1.605800 0.110493 -0.029586 522565.000000 0 0 1
-33.416993 -6.186331 -2.178970 34.054574 0.183053 1.634825 0.106390 -0.027314 73258.700000 0 0 1
-32.029823 -5.872131 -1.618370 32.603843 0.181320 1.620454 0.127508 -0.033933 -923418.000000 0 0 1
-31.578143 -6.902031 -0.760070 32.332566 0.215186 1.594306 0.129529 -0.031956 -330141.000000 0 0 1
-30.669873 -6.470631 0.199330 31.345652 0.207928 1.564437 0.119761 -0.032491 -574296.000000 0 0 1
-30.207203 -7.689031 0.932430 31.184383 0.249250 1.540891 0.104524 -0.028941 -397819.000000 0 0 1
-29.224603 -8.427331 0.242730 30.416381 0.280748 1.562816 0.097529 -0.021585 323356.000000 0 0 1
-28.887333 -9.562531 0.973330 30.444497 0.319675 1.538820 0.095336 -0.020221 -188983.000000 0 0 1
-28.579563 -10.796331 0.071230 30.550896 0.361192 1.568465 0.074851 -0.015281 -652700.000000 0 0 1
-27.299823 -10.804531 -0.483670 29.364130 0.376857 1.587269 0.083669 -0.021944 -357097.000000 0 0 1
-26.846583 -11.975531 -1.099370 29.417018 0.419583 1.608177 0.074105 -0.011750 -456066.000000 0 0 1
-27.698823 -12.747631 -2.121470 30.565136 0.431323 1.640260 0.074180 -0.017284 -156734.000000 0 0 1
-28.778473 -13.482431 -1.528370 31.816857 0.438123 1.618851 0.084526 -0.020071 691475.000000 0 0 1
-28.876413 -14.750931 -2.179170 32.499015 0.472274 1.637900 0.067233 -0.018769 174628.000000 0 0 1
-29.993463 -15.724931 -1.661970 33.906392 0.482881 1.619832 0.075422 -0.012260 160317.000000 0 0 1
-29.626703 -16.265331 -0.426570 33.800658 0.502082 1.583417 0.053033 -0.006298 27693.300000 0 0 1
-30.584023 -16.974631 0.322630 34.980347 0.506686 1.561573 0.066071 -0.000816 -53434.600000 0 0 1
-31.041333 -18.429431 -0.078370 36.100061 0.535779 1.572967 0.063061 -0.002633 887851.000000 0 0 1
-29.906453 -19.336631 0.050030 35.613252 0.573961 1.569392 0.079395 -0.010083 1058250.000000 0 0 1
-30.145713 -20.731131 -0.159770 36.586464 0.602421 1.575163 0.078131 -0.016046 15270.600000 0 0 1
-30.887573 -21.406031 1.039630 37.594430 0.606033 1.543139 0.085058 -0.017975 -98089.800000 0 0 1
-30.092913 -21.410231 2.211430 36.998268 0.618383 1.510990 0.077851 -0.013009 86838.200000 0 0 1
-30.822993 -21.833931 3.319730 37.918307 0.616318 1.483135 0.083076 -0.015139 -393962.000000 0 0 1
-29.919123 -22.010931 4.515730 37.416932 0.634274 1.449815 0.070248 -0.013699 -497647.000000 0 0 1
-29.485983 -20.788531 5.024030 36.425638 0.614094 1.432430 0.053160 -0.008567 31560.100000 0 0 1
-28.855983 -20.959831 6.297630 36.216604 0.628199 1.396020 0.040378 -0.011063 115358.000000 0 0 1
-28.260253 -19.673731 6.938430 35.126050 0.608146 1.371959 0.048570 -0.008714 -5145.370000 0 0 1
-27.692943 -19.899931 8.227630 35.079912 0.623095 1.334051 0.041346 -0.013418 -5533.950000 0 0 1
-27.155713 -18.639631 8.694930 34.065678 0.601539 1.312700 0.054965 -0.012555 13628.500000 0 0 1
-26.267483 -18.898031 9.928030 33.847925 0.623658 1.273106 0.055953 -0.014329 -127003.000000 0 0 1
-26.931703 -19.263231 11.142330 34.936230 0.620896 1.246192 0.044966 -0.018203 244089.000000 0 0 1
-25.998673 -19.563431 12.185030 34.743831 0.645085 1.212467 0.056568 -0.019840 -31202.900000 0 0 1
-25.429993 -18.369831 12.958430 33.941952 0.625581 1.179073 0.055717 -0.019682 -593077.000000 0 0 1
-24.418633 -17.714631 12.218630 32.548006 0.627607 1.185964 0.064016 -0.013387 10053.800000 0 0 1
-23.921533 -16.506031 12.818430 31.764775 0.603988 1.155411 0.070726 -0.008474 582350.000000 0 0 1
-23.065933 -16.597731 14.123330 31.733112 0.623745 1.109548 0.068786 -0.011753 -68529.400000 0 0 1
-23.857333 -17.030031 15.216230 33.026170 0.619946 1.091976 0.065933 -0.018092 -70559.300000 0 0 1
-23.106333 -17.196831 16.386530 33.138376 0.639809 1.053551 0.075319 -0.022971 -237156.000000 0 0 1
-23.910433 -17.874131 17.500730 34.604464 0.641928 1.040561 0.057020 -0.006060 91297.900000 0 0 1
-24.899133 -17.014331 18.050030 35.146235 0.599450 1.031457 0.068037 -0.008947 135185.000000 0 0 1
-25.854193 -17.786031 18.752730 36.557449 0.602583 1.032160 0.044450 -0.000399 -544642.000000 0 0 1
-26.906413 -16.956531 19.448930 37.279215 0.562333 1.021943 0.047627 -0.004311 -453987.000000 0 0 1
-26.371183 -16.255231 20.607230 37.206582 0.552392 0.983803 0.056170 -0.011902 190862.000000 0 0 1
-27.288803 -15.348431 21.160330 37.789055 0.512347 0.976460 0.059889 -0.015980 -155322.000000 0 0 1
-26.710743 -14.626531 22.404230 37.806728 0.500991 0.936515 0.064714 -0.019316 498906.000000 0 0 1
-25.653413 -13.728831 22.051130 36.507954 0.491383 0.922275 0.064964 -0.016572 1047280.000000 0 0 1
-24.592333 -13.598631 23.014730 36.323317 0.505115 0.884589 0.058958 -0.019772 786717.000000 0 0 1
-23.397733 -12.736431 22.493030 34.865556 0.498491 0.869595 0.061305 -0.015249 143734.000000 0 0 1
-23.601433 -11.363631 22.249830 34.368804 0.448723 0.866649 0.075352 -0.010762 -57772.000000 0 0 1
-22.531833 -10.871231 21.485130 32.976931 0.449536 0.861210 0.074252 -0.011457 -501518.000000 0 0 1
-22.155233 -9.446331 21.871730 32.533983 0.403031 0.833521 0.071797 -0.009945 281511.000000 0 0 1
-21.459633 -9.255131 23.148930 32.894471 0.407179 0.790158 0.073039 -0.011931 861673.000000 0 0 1
-20.052433 -9.476531 23.073830 32.004786 0.441478 0.765625 0.058717 -0.003222 233030.000000 0 0 1
-19.489133 -9.560731 24.504330 32.736769 0.456073 0.724960 0.052646 -0.011633 -52033.800000 0 0 1
-19.610933 -10.795831 25.075930 33.614594 0.503227 0.728786 0.063348 -0.010006 -67926.500000 0 0 1
-19.059933 -10.894931 26.369730 34.312435 0.519286 0.694274 0.062943 -0.015869 -545557.000000 0 0 1
-19.269933 -12.322831 27.079630 35.446986 0.568948 0.701388 0.062290 -0.030061 791738.000000 0 0 1
-20.567933 -12.442331 27.655330 36.642444 0.544043 0.715546 0.061025 -0.028918 518674.000000 0 0 1
-21.642333 -12.927031 26.843530 36.824907 0.538434 0.754009 0.056113 -0.024928 672492.000000 0 0 1
-22.840733 -13.424331 27.696430 38.327587 0.531353 0.763206 0.051166 -0.027888 32778.900000 0 0 1
-22.580133 -14.571031 28.483530 39.159786 0.573066 0.756319 0.037532 -0.019540 -366262.000000 0 0 1
-21.845133 -14.336831 29.652430 39.522413 0.580787 0.722328 0.028884 -0.013253 -5792.290000 0 0 1
-22.229933 -15.351131 30.803530 40.971753 0.604363 0.719973 0.014179 -0.013299 -381230.000000 0 0 1
-21.747033 -16.669431 30.564730 41.048825 0.653987 0.730869 0.021216 -0.012308 -259127.000000 0 0 1
-22.010433 -17.693531 31.522930 42.322751 0.677096 0.730528 0.016280 -0.006772 219382.000000 0 0 1
-23.495033 -18.043831 31.952230 43.572255 0.654912 0.747610 0.047339 -0.008649 914168.000000 0 0 1
-24.114633 -17.022931 32.674730 44.033324 0.614686 0.734680 0.051229 -0.012103 -863861.000000 0 0 1
-25.316613 -17.454631 33.220730 45.268222 0.603613 0.746803 0.064724 -0.017211 -234375.000000 0 0 1
-26.139783 -16.366331 34.052830 45.942793 0.559396 0.735939 0.062345 -0.019233 244784.000000 0 0 1
-25.617173 -16.030031 -32.936073 44.698841 0.559141 2.399187 0.063416 -0.018131 -54500.000000 0 0 1
-26.453613 -15.147531 -32.166473 44.316174 0.520034 2.383052 0.075352 -0.022294 50887.000000 0 0 1
-25.909973 -14.743831 -30.746773 42.826059 0.517344 2.371643 0.069556 -0.017099 -110128.000000 0 0 1
-26.307233 -15.658731 -29.715973 42.665037 0.536901 2.341297 0.067970 -0.007110 72032.800000 0 0 1
-25.730933 -15.353531 -28.444773 41.314851 0.537986 2.330198 0.074089 -0.005331 -223962.000000 0 0 1
-26.261763 -16.148531 -27.228973 41.132374 0.551308 2.294259 0.061707 -0.003856 862542.000000 0 0 1
-27.522333 -15.730431 -26.651773 41.415484 0.519239 2.269887 0.073228 -0.010403 911099.000000 0 0 1
-27.601423 -14.406831 -26.079973 40.614780 0.481061 2.268070 0.079620 -0.017108 -81452.000000 0 0 1
-26.669323 -14.232231 -24.815473 39.110317 0.490208 2.258157 0.089725 -0.022476 157744.000000 0 0 1
-25.351713 -13.780631 -25.103373 38.246496 0.497899 2.286777 0.074082 -0.023347 567880.000000 0 0 1
-24.446433 -14.120731 -24.056573 37.090994 0.523801 2.276517 0.078579 -0.024851 213240.000000 0 0 1
-23.840033 -15.556631 -24.079973 37.285400 0.578160 2.272904 0.073255 -0.023425 -766275.000000 0 0 1
-22.920233 -15.750431 -25.123673 37.478155 0.602073 2.305484 0.046799 -0.018751 41546.600000 0 0 1
-22.437433 -17.098031 -25.097573 37.758035 0.651157 2.297882 0.047726 -0.017784 55591.700000 0 0 1
-21.581633 -17.272531 -26.395273 38.220644 0.674945 2.333118 0.041220 -0.011816 23828.000000 0 0 1
-22.291733 -17.346831 -27.641773 39.520900 0.661290 2.345384 0.048913 -0.006631 479895.000000 0 0 1
-23.041733 -18.570831 -27.813773 40.612845 0.678368 2.325196 0.060372 -0.015103 48410.600000 0 0 1
-23.893933 -18.597031 -29.062773 41.969207 0.661378 2.335715 0.055323 -0.009896 -311298.000000 0 0 1
-23.059033 -18.619131 -30.189173 42.305759 0.679270 2.365413 0.059189 -0.000341 35951.400000 0 0 1
-23.756533 -18.356331 -31.358973 43.413281 0.657863 2.377971 0.052452 -0.005700 -127741.000000 0 0 1
-22.922933 -18.778331 -32.618173 44.068490 0.686336 2.404119 0.053246 -0.004220 754874.000000 0 0 1
-21.685433 -18.074431 -32.861573 43.322350 0.694826 2.431860 0.038246 -0.001276 1023560.000000 0 0 1
-20.461133 -18.685831 -32.509873 42.716625 0.740080 2.435740 0.031885 -0.004537 242914.000000 0 0 1
-20.059833 -19.936631 -33.330873 43.712850 0.782318 2.437959 0.036767 -0.003041 -968496.000000 0 0 1
-19.793833 -19.519631 33.636130 43.637152 0.778424 0.690678 0.032211 -0.005040 -3372.980000 0 0 1
-19.523133 -20.517531 32.731430 43.283580 0.810228 0.713297 0.037377 -0.005858 -339812.000000 0 0 1
-20.693133 -21.335431 32.146930 43.781634 0.800679 0.746226 0.031081 -0.001241 -561944.000000 0 0 1
-21.392933 -22.057931 33.106530 45.169151 0.800702 0.748155 0.029407 0.001567 280902.000000 0 0 1
-22.702433 -22.396931 32.634130 45.629041 0.778624 0.773879 0.040358 0.006255 556339.000000 0 0 1
-22.829133 -23.621731 31.628130 45.601470 0.802460 0.804354 0.043929 0.013489 -539567.000000 0 0 1
-22.445933 -24.855431 32.211230 46.466931 0.836293 0.804866 0.046628 0.015198 58362.600000 0 0 1
-22.395533 -25.937861 31.282630 46.399735 0.858557 0.830917 0.048686 0.015852 -166716.000000 0 0 1
-21.838333 -27.261691 31.838430 47.263074 0.895408 0.831670 0.070929 0.001904 -165944.000000 0 0 1
-22.479233 -27.680631 33.056630 48.623801 0.888725 0.823246 0.060540 -0.003821 50181.700000 0 0 1
-22.017333 -28.913921 33.518730 49.439691 0.919989 0.825796 0.067303 -0.017407 -853363.000000 0 0 1
-23.088233 -29.622361 -33.904373 50.597009 0.908731 2.305122 0.061898 -0.016825 -117290.000000 0 0 1
-24.007133 -30.457651 33.636930 51.336673 0.903284 0.856320 0.037474 -0.009878 485901.000000 0 0 1
-25.120553 -29.704691 33.166730 51.121843 0.868818 0.864819 0.030732 -0.001916 -57704.800000 0 0 1
-26.408893 -29.654981 34.051930 52.310433 0.843233 0.861950 0.022432 -0.011474 -579518.000000 0 0 1
-27.229403 -28.636811 33.611330 51.877055 0.810585 0.865967 0.021105 0.002822 -760688.000000 0 0 1
-28.173083 -28.396661 -33.622073 52.254538 0.789350 2.269765 0.021259 0.010043 -302662.000000 0 0 1
-29.271143 -27.396211 -33.985973 52.558525 0.752324 2.273956 0.013588 0.002574 -325883.000000 0 0 1
-30.210063 -27.942821 33.383930 52.989960 0.746430 0.889237 0.010628 -0.001055 780284.000000 0 0 1
-31.396053 -27.093941 33.309830 53.191527 0.711977 0.894095 0.019058 -0.009524 1012420.000000 0 0 1
