# x y z rho theta phi s1 s2 stress_xx np intf bulk
-0.934292 -10.741885 -14.383401 17.976185 1.484038 2.498319 -0.013005 0.008845 -533204.000000 1 0 0
1.940108 -13.634785 -13.088901 18.999756 -1.429454 2.330765 -0.010244 0.017229 961231.000000 1 0 0
1.874908 -11.280585 -14.701901 18.625595 -1.406095 2.480527 -0.008808 0.016736 -1064470.000000 1 0 0
-5.732992 -6.184585 -16.473801 18.506821 0.823273 2.668465 -0.006495 -0.004898 -591827.000000 1 0 0
4.326608 -14.179685 -11.551001 18.793846 -1.274642 2.232696 -0.008134 0.008772 730353.000000 1 0 0
13.823308 -10.819785 -8.077301 19.323416 -0.664115 2.002045 0.004673 -0.002010 355330.000000 1 0 0
7.156308 10.787415 -10.762301 16.834732 0.985063 2.264373 0.011793 -0.010270 463734.000000 1 0 0
5.578808 -4.230785 -12.544901 14.366530 -0.648835 2.632533 -0.003575 0.002896 2553200.000000 1 0 0
13.624608 0.437315 -10.043501 16.932014 0.032086 2.205782 0.002716 0.004809 1709610.000000 1 0 0
14.182408 5.105115 -10.365401 18.293290 0.345521 2.173198 0.007841 0.005151 -149530.000000 1 0 0
4.064308 4.298715 -13.430001 14.675234 0.813420 2.726670 0.005221 0.000831 2718850.000000 1 0 0
10.136708 -5.053985 -13.800601 17.853633 -0.462513 2.454330 0.010454 0.001756 -1041930.000000 1 0 0
2.385708 -7.656285 -12.008501 14.440028 -1.268730 2.552800 -0.007865 0.007398 1619500.000000 1 0 0
-5.660292 -1.986685 -15.100901 16.248786 0.337553 2.763460 -0.004077 -0.007578 270385.000000 1 0 0
10.573508 0.023015 -9.605601 14.285209 0.002177 2.308264 0.007985 0.003522 2034850.000000 1 0 0
-1.843492 -9.578085 -16.966501 19.570394 1.380652 2.619841 0.002290 0.005599 210880.000000 1 0 0
8.534008 1.669315 -18.068201 20.051828 0.193168 2.693038 0.002660 0.008508 665275.000000 1 0 0
16.170208 -6.188885 -9.025001 19.525076 -0.365534 2.051300 0.009534 -0.007625 -1439880.000000 1 0 0
10.078508 7.522315 -9.861401 15.981514 0.641175 2.235785 0.013611 -0.002062 522368.000000 1 0 0
13.729008 -2.365385 -10.673601 17.550113 -0.170616 2.224560 0.011116 -0.002709 -802636.000000 1 0 0
7.095208 -1.905485 -13.615001 15.470653 -0.262369 2.646771 0.007079 0.001638 1791110.000000 1 0 0
-2.764192 6.668315 -13.857701 15.625078 -1.177830 2.661362 0.002486 -0.001314 1484320.000000 1 0 0
11.239908 1.774515 -13.925601 17.983515 0.156584 2.456489 0.002775 0.005684 1460190.000000 1 0 0
-2.283392 10.727815 -12.932901 16.957589 -1.361078 2.438214 0.004799 -0.000401 -1351090.000000 1 0 0
2.783008 -1.043385 -15.262901 15.549596 -0.358694 2.949268 0.010373 -0.002006 602548.000000 1 0 0
-9.128192 0.477415 -15.207601 17.743251 -0.052254 2.600395 -0.002767 -0.003071 -516198.000000 1 0 0
2.325608 -1.745585 -18.071701 18.304150 -0.643880 2.982055 0.022426 -0.006947 534780.000000 1 0 0
1.094908 7.911515 -13.198201 15.426711 1.433276 2.597393 0.005294 -0.005253 -1462970.000000 1 0 0
9.177808 -9.072885 -9.934401 16.286244 -0.779649 2.226841 0.005749 0.001971 -871887.000000 1 0 0
3.915808 7.264115 -13.490101 15.814037 1.076390 2.592591 0.000678 -0.003124 581590.000000 1 0 0
-2.671392 9.125315 -15.501301 18.185105 -1.286009 2.591388 0.003290 -0.001754 293116.000000 1 0 0
5.277308 -7.737685 -15.329901 17.964621 -0.972235 2.593152 -0.001961 0.012163 -465326.000000 1 0 0
4.210108 7.325015 -16.382401 18.432686 1.049144 2.665449 0.002289 -0.003911 1857.280000 1 0 0
-0.247292 5.128615 -13.480801 14.425528 -1.522616 2.777677 0.010777 -0.006711 1127110.000000 1 0 0
8.800908 4.247715 -16.731501 19.376331 0.449668 2.612969 0.003491 0.005881 -172688.000000 1 0 0
5.233708 0.281215 -14.403601 15.327574 0.053680 2.792602 0.007446 0.001128 885017.000000 1 0 0
6.256108 7.977215 -11.566701 15.380619 0.905735 2.421934 0.006618 -0.003285 -1453160.000000 1 0 0
2.591908 -8.491885 -15.000901 17.431498 -1.274556 2.607170 -0.006021 0.008108 210039.000000 1 0 0
4.060108 11.470915 -13.869801 18.450955 1.230609 2.421450 0.009396 -0.014775 -1419110.000000 1 0 0
0.426908 -4.522385 -13.797401 14.525925 -1.476676 2.823541 0.000131 0.001831 2165170.000000 1 0 0
8.456608 -0.122885 -11.614001 14.367127 -0.014530 2.512180 0.002795 0.003972 954090.000000 1 0 0
-1.111292 -5.088085 -16.277301 17.090176 1.355763 2.831929 -0.000455 -0.004581 854470.000000 1 0 0
4.409208 0.860715 -11.758401 12.587372 0.192784 2.776645 0.002530 -0.000754 -1493820.000000 1 0 0
-3.110292 -7.187585 -15.618801 17.472328 1.162396 2.676804 -0.005463 0.000459 2198180.000000 1 0 0
11.296908 -3.893785 -11.464601 16.559552 -0.331925 2.335503 0.016455 -0.000782 1472600.000000 1 0 0
6.297208 -7.107385 -12.641601 15.810751 -0.845765 2.497354 -0.005523 0.006338 -2107380.000000 1 0 0
3.266908 -3.933085 -14.621801 15.489962 -0.877660 2.805205 0.008812 0.002971 2355340.000000 1 0 0
-0.643692 -1.430485 -18.323401 18.390423 1.147958 3.056192 0.020800 -0.012810 2020820.000000 1 0 0
14.880008 2.832415 -8.551001 17.394161 0.188100 2.084725 0.002136 0.009512 -845039.000000 1 0 0
6.868308 4.298215 -14.357801 16.486199 0.559177 2.627823 0.003741 0.004906 3292750.000000 1 0 0
9.858908 -9.574685 -14.139801 19.718180 -0.770774 2.370421 0.012756 0.007095 -2220680.000000 1 0 0
8.943108 -3.020185 -15.586101 18.221615 -0.325685 2.597048 0.005158 -0.001521 -899241.000000 1 0 0
-5.477192 -2.044585 -18.033301 18.957318 0.357271 2.828086 -0.008894 -0.002239 -978646.000000 1 0 0
4.787908 -9.182785 -11.245701 15.287688 -1.090175 2.397356 -0.009155 0.005720 1978370.000000 1 0 0
-2.533692 4.003815 -17.075201 17.720401 -1.006594 2.870915 0.007234 -0.005722 964121.000000 1 0 0
9.464308 9.189715 -14.507601 19.608531 0.770679 2.403661 0.022195 -0.011825 -1073930.000000 1 0 0
9.818108 9.920315 -11.634801 18.170760 0.790576 2.265690 0.017383 -0.008763 -362521.000000 1 0 0
11.795308 -6.026185 -9.698401 16.416552 -0.472327 2.202809 0.020458 -0.005186 -564434.000000 1 0 0
8.175808 6.818415 -13.595301 17.267508 0.695117 2.477270 0.010966 0.001001 75799.400000 1 0 0
3.912008 -4.144185 -17.548901 18.451071 -0.814210 2.827590 0.023843 -0.003135 292369.000000 1 0 0
9.053208 -7.463985 -12.389501 17.063745 -0.689477 2.383388 0.006178 0.000171 -983430.000000 1 0 0
11.820708 -8.710985 -8.904501 17.172668 -0.635081 2.115924 0.013952 -0.004283 1457350.000000 1 0 0
-3.027892 -2.460485 -13.826401 14.366332 0.682381 2.866562 0.001173 -0.004549 -2978690.000000 1 0 0
-0.409992 6.120915 -17.636801 18.673255 -1.503914 2.806851 0.011700 -0.005967 198482.000000 1 0 0
0.857608 -8.530785 -17.444901 19.437962 -1.470602 2.684786 0.002384 0.003100 1240710.000000 1 0 0
0.132808 8.568215 -16.017301 18.165514 1.555297 2.650339 0.009717 -0.003778 -135355.000000 1 0 0
1.689108 3.420415 -14.969801 15.448213 1.112096 2.892073 0.012146 -0.005168 833532.000000 1 0 0
-2.018692 -0.361785 -15.752301 15.885245 0.177335 3.012127 0.007892 -0.009529 1033740.000000 1 0 0
13.948008 -4.402485 -8.556901 16.945482 -0.305739 2.100139 0.014818 -0.005359 1475390.000000 1 0 0
0.456208 0.675915 -14.515901 14.538789 0.977082 3.085474 0.008804 -0.004476 2095740.000000 1 0 0
8.796008 2.728815 -12.617601 15.621141 0.300819 2.511081 0.001044 0.006212 1990570.000000 1 0 0
5.837108 1.081215 -17.221701 18.216143 0.183155 2.809643 0.015765 0.005301 261671.000000 1 0 0
15.161108 1.480015 -12.420201 19.654797 0.097311 2.254821 -0.002673 0.003979 -1815140.000000 1 0 0
8.567008 -11.221485 -12.069701 18.573988 -0.918745 2.278141 0.004045 0.004907 2841070.000000 1 0 0
-4.668992 0.807915 -15.043601 15.772195 -0.171342 2.836453 0.004263 -0.008587 853960.000000 1 0 0
2.349008 5.152315 -17.299601 18.202758 1.143036 2.825263 0.010151 -0.003776 2268420.000000 1 0 0
5.657708 -11.742785 -12.470301 18.039154 -1.121812 2.334070 -0.008132 0.009242 327250.000000 1 0 0
12.784508 7.170315 -8.663201 17.026689 0.511143 2.104588 0.007008 0.003260 65805.000000 1 0 0
-5.181692 3.608215 -15.634101 16.861028 -0.608265 2.757751 -0.000190 -0.004587 1435080.000000 1 0 0
-0.818092 -4.312485 -19.096301 19.594273 1.383321 2.915661 0.017515 -0.005802 -1999.480000 1 0 0
9.747708 4.438615 -10.284001 14.848562 0.427294 2.335873 0.004868 0.005371 956175.000000 1 0 0
13.387908 3.664615 -12.872201 18.930374 0.267181 2.318526 0.004580 0.002892 265712.000000 1 0 0
-6.261692 5.844815 -17.038801 19.070695 -0.750978 2.675775 -0.008875 0.000654 -938411.000000 1 0 0
-10.172992 3.188415 -15.424201 18.749979 -0.303722 2.536809 -0.010673 0.004366 -1715340.000000 1 0 0
10.714408 13.462815 -8.365801 19.131978 0.898590 2.023355 0.017496 -0.000910 -639204.000000 1 0 0
7.487008 13.332615 -12.327801 19.641502 1.059124 2.249315 0.026463 -0.013337 -407839.000000 1 0 0
5.382708 15.087815 -11.290501 19.598243 1.228113 2.184743 0.015735 -0.012742 -1416410.000000 1 0 0
14.118208 9.453815 -9.986601 19.708644 0.590043 2.102163 0.019271 -0.002899 -1255480.000000 1 0 0
8.287708 -17.163385 -2.103201 19.175279 -1.120945 1.680700 0.010886 -0.004034 -868663.000000 1 0 0
0.704708 -16.087385 0.002799 16.102813 -1.527019 1.570623 0.008249 -0.008999 2989560.000000 1 0 0
-9.056992 -11.721885 7.631199 16.663339 0.912952 1.095093 0.004892 -0.002568 -326807.000000 1 0 0
2.027308 -15.961085 -2.615601 16.300539 -1.444457 1.731954 0.010936 -0.008469 1225480.000000 1 0 0
-1.374792 -11.157085 -9.462901 14.694118 1.448193 2.270502 -0.009017 0.003237 375557.000000 1 0 0
-4.885592 -12.698585 -13.077601 18.871850 1.203518 2.336395 -0.004572 0.004177 -955020.000000 1 0 0
-8.136292 -17.979085 -1.696101 19.807158 1.145830 1.656532 -0.004356 -0.000841 -1307620.000000 1 0 0
-11.429992 -7.006585 -8.845601 16.061806 0.549924 2.154026 0.010463 -0.000225 2864960.000000 1 0 0
-13.455592 -11.501385 -4.778301 18.334856 0.707255 1.834453 -0.001978 0.004345 -621275.000000 1 0 0
-5.749392 -13.412085 9.794199 17.574580 1.165819 0.979674 0.005537 -0.004318 1847910.000000 1 0 0
0.168708 -14.066685 -3.717001 14.550470 -1.558803 1.829115 0.005814 -0.000519 281427.000000 1 0 0
-14.596892 -11.660585 1.961099 18.785217 0.674033 1.466210 -0.017794 0.002139 -1059030.000000 1 0 0
-3.981592 -16.483685 -7.614201 18.588733 1.333789 1.992827 -0.014271 0.003352 472705.000000 1 0 0
0.532408 -15.293585 -9.281701 17.897686 -1.535998 2.116007 -0.003807 0.008819 1207040.000000 1 0 0
4.466808 -14.154585 -2.670601 15.081007 -1.265114 1.748819 0.005311 -0.001781 -370989.000000 1 0 0
-3.568792 -18.136485 -2.486801 18.650805 1.376504 1.704529 -0.010639 -0.007571 1861410.000000 1 0 0
-0.958492 -13.618285 0.672899 13.668547 1.500530 1.521547 0.000148 -0.005010 2413800.000000 1 0 0
-8.456092 -11.278085 -10.677101 17.683359 0.927436 2.219048 0.007546 0.000939 1787850.000000 1 0 0
-3.739592 -14.208985 -0.409701 14.698559 1.313447 1.598673 -0.003413 -0.000866 4289510.000000 1 0 0
-1.543992 -15.024585 -7.299001 16.774906 1.468391 2.020962 -0.010644 0.007860 -187105.000000 1 0 0
-14.140092 -7.996385 -1.786501 16.342458 0.514674 1.680332 -0.003719 0.004257 844787.000000 1 0 0
-10.862392 -7.162785 -11.687101 17.489579 0.582963 2.302626 0.008783 -0.000184 1658780.000000 1 0 0
-9.431892 -14.724685 6.833299 18.774208 1.001093 1.198267 -0.005840 0.002739 -267371.000000 1 0 0
-2.599292 -14.411485 -12.437401 19.212916 1.392352 2.274893 -0.004565 0.009163 586657.000000 1 0 0
2.295908 -17.958785 -4.662701 18.695720 -1.443643 1.822856 0.011703 -0.003708 141868.000000 1 0 0
-6.550192 -9.691385 -9.214201 14.890583 0.976444 2.238003 -0.003991 -0.001001 395638.000000 1 0 0
-10.901992 -15.370885 0.247599 18.846189 0.953881 1.557658 -0.009499 0.001297 -319816.000000 1 0 0
-12.625492 -11.196485 4.220699 17.394787 0.725483 1.325708 0.001398 0.004470 2591620.000000 1 0 0
-16.905092 -9.006885 -1.611401 19.222453 0.489535 1.654724 -0.010322 0.006415 -432251.000000 1 0 0
-1.361992 -19.411185 -3.917201 19.849272 1.500746 1.769448 -0.012783 0.000905 -322411.000000 1 0 0
3.297108 -14.374585 -8.856101 17.202620 -1.345326 2.111584 -0.003123 0.006667 -206451.000000 1 0 0
-4.443392 -7.997785 -13.051001 15.938536 1.063681 2.530172 -0.007394 -0.001097 1113930.000000 1 0 0
5.524908 -16.645085 1.180799 17.577763 -1.250314 1.503570 0.018705 -0.007475 3186530.000000 1 0 0
-2.824692 -13.876785 -3.197901 14.517941 1.369985 1.792890 -0.004274 0.001572 -575164.000000 1 0 0
-0.346392 -14.039985 3.629699 14.505719 1.546130 1.317883 0.003332 0.001135 -2991320.000000 1 0 0
1.174408 -16.129385 7.114499 17.667835 -1.498113 1.156353 0.008212 -0.007672 1876740.000000 1 0 0
-5.551192 -10.280985 -14.551201 18.661507 1.075704 2.465053 -0.002159 -0.003973 -1315510.000000 1 0 0
-0.405592 -17.414385 -5.836001 18.370743 1.547510 1.894077 -0.000582 -0.000036 -603488.000000 1 0 0
-6.478392 -13.446985 -1.356401 14.987688 1.121837 1.661421 -0.004937 -0.001268 2030270.000000 1 0 0
-1.764792 -17.766985 -0.192501 17.855456 1.471791 1.581578 -0.007068 -0.008623 438316.000000 1 0 0
-9.422292 -9.782585 -4.914501 14.444060 0.804156 1.917972 0.007120 -0.000877 1883250.000000 1 0 0
-0.820092 -16.690385 4.898299 17.413639 1.521700 1.285657 0.013052 -0.007142 1026440.000000 1 0 0
-6.798792 -9.897585 -6.311201 13.565287 0.968907 2.054709 0.005605 -0.001431 1070700.000000 1 0 0
-6.106292 -14.518785 -8.664601 17.976574 1.172677 2.073725 -0.006591 0.000223 381078.000000 1 0 0
-5.743092 -12.135085 -10.412801 16.990286 1.128766 2.230481 -0.007093 0.000869 -311951.000000 1 0 0
-10.633392 -12.240585 -8.988501 18.538988 0.855546 2.076980 0.016684 -0.004611 -1580950.000000 1 0 0
3.946608 -17.240985 6.678599 18.905845 -1.345765 1.209747 0.013710 -0.004681 2456800.000000 1 0 0
-6.664992 -14.368385 -4.225501 16.392909 1.136472 1.831504 -0.005991 -0.002539 -405710.000000 1 0 0
-2.888992 -12.362685 -7.141001 14.566267 1.341230 2.083164 -0.004367 0.003507 896186.000000 1 0 0
-6.956592 -12.918385 4.419099 15.323422 1.076823 1.278253 -0.001831 0.003003 3598270.000000 1 0 0
2.577008 -16.504885 2.321899 16.865450 -1.415911 1.432686 0.011371 -0.007368 2849320.000000 1 0 0
-6.173192 -12.048585 7.230299 15.347766 1.097311 1.080261 0.001786 0.001050 1466130.000000 1 0 0
-11.197192 -12.829985 -1.084301 17.063450 0.853250 1.634384 -0.004767 0.006540 -1209340.000000 1 0 0
-14.205492 -8.799185 4.627599 17.338867 0.554578 1.300630 -0.002529 0.001291 226658.000000 1 0 0
-7.984392 -15.549085 4.367699 18.016696 1.096410 1.325932 -0.005415 0.002144 -716141.000000 1 0 0
-16.300492 -9.312685 1.199299 18.811444 0.519059 1.506999 -0.019960 0.006314 -1253710.000000 1 0 0
-6.723292 -17.100985 2.243099 18.511559 1.196207 1.449325 -0.006639 0.001770 1995810.000000 1 0 0
-11.523992 -14.963185 -4.810101 19.489391 0.914519 1.820179 0.016352 0.000801 -1320420.000000 1 0 0
-9.947392 -9.787385 -12.686801 18.859969 0.777290 2.308627 0.004517 0.001958 -11569.100000 1 0 0
-4.292392 -16.099085 -4.608901 17.287195 1.310234 1.840668 -0.011247 -0.000762 -320270.000000 1 0 0
-11.753492 -8.317485 0.063899 14.398931 0.615849 1.566359 -0.007031 0.003216 1447930.000000 1 0 0
-9.587792 -11.289885 3.574799 15.237009 0.866745 1.333976 -0.004572 0.004420 2431590.000000 1 0 0
-14.073492 -13.043285 -0.598001 19.197605 0.747425 1.601951 -0.009934 0.011157 242308.000000 1 0 0
5.612708 -15.034085 -7.215801 17.595283 -1.213489 1.993359 0.004522 0.000275 1674700.000000 1 0 0
-7.447192 -10.615185 -1.301201 13.032112 0.959024 1.670809 -0.003379 0.001665 1444400.000000 1 0 0
-11.615592 -8.228885 -6.172601 15.515718 0.616364 1.979946 0.008849 -0.000838 127429.000000 1 0 0
-14.441292 -6.629085 -9.181501 18.351993 0.430343 2.094741 0.003221 0.000351 3039620.000000 1 0 0
-3.937592 -16.558385 1.387799 17.076613 1.337332 1.489438 -0.001340 -0.003941 1108610.000000 1 0 0
-7.952892 -15.581285 0.016499 17.493576 1.098853 1.569853 -0.003779 0.001768 -42984.700000 1 0 0
1.038008 -18.592285 3.715099 18.988219 -1.515024 1.373873 0.013421 -0.009998 515800.000000 1 0 0
-14.041792 -8.732285 -4.604601 17.164704 0.556351 1.842383 -0.001524 0.003174 -14173.700000 1 0 0
-3.223692 -14.440485 11.184299 18.547462 1.351158 0.923528 -0.014052 -0.007623 294158.000000 1 0 0
-10.729292 -12.174485 -3.866601 16.681918 0.848413 1.804708 0.006454 -0.001259 963295.000000 1 0 0
-9.924292 -10.794085 0.582399 14.674571 0.827355 1.531098 -0.004241 0.004881 1571240.000000 1 0 0
-0.216392 -13.281085 -11.172601 17.356873 1.554505 2.270118 -0.005071 0.006345 345012.000000 1 0 0
-5.878292 -12.584985 -6.376501 15.283845 1.133823 2.001164 -0.008846 -0.000317 1451550.000000 1 0 0
1.633508 -15.827585 9.976799 18.780770 -1.467954 1.010752 0.002480 -0.004744 87932.800000 1 0 0
-8.955292 -15.724785 -5.557001 18.930039 1.053104 1.868740 0.010302 -0.003736 -197721.000000 1 0 0
-3.287692 -15.467785 5.905799 16.880158 1.361362 1.213368 -0.001779 -0.000680 -1165530.000000 1 0 0
-17.517092 -5.325085 -6.451601 19.412063 0.295117 1.909591 -0.002217 0.005199 1355380.000000 1 0 0
18.720508 5.496015 -3.017001 19.742490 0.285559 1.724215 -0.014652 0.016712 -1443910.000000 1 0 0
12.711608 -12.548585 -5.894401 18.809464 -0.778944 1.889540 0.002556 0.002790 725191.000000 1 0 0
11.030308 -13.578885 -1.767401 17.583445 -0.888592 1.671481 0.008206 -0.001679 2305360.000000 1 0 0
18.579208 -2.834185 4.304799 19.280842 -0.151379 1.345630 0.000280 -0.000813 -1195030.000000 1 0 0
8.622608 -16.975885 4.827199 19.642604 -1.100823 1.322501 0.012740 -0.015362 286695.000000 1 0 0
18.034108 -1.028285 6.567099 19.220125 -0.056957 1.222094 0.024558 -0.001725 -980310.000000 1 0 0
17.809108 -4.345685 -5.228901 19.062810 -0.239338 1.848657 0.011590 -0.005303 -256517.000000 1 0 0
5.413008 -11.831985 14.698899 19.630439 -1.141732 0.724575 0.003708 0.007498 532911.000000 1 0 0
16.010308 -9.007685 -0.858801 18.390375 -0.512479 1.617512 0.014712 0.000061 510299.000000 1 0 0
13.913508 -12.699785 -1.551301 18.901767 -0.739824 1.652960 0.015193 -0.000229 -242597.000000 1 0 0
10.938708 -2.024985 13.810899 17.734059 -0.183049 0.678081 -0.008086 -0.000384 507009.000000 1 0 0
16.836508 -6.233285 -1.599801 18.024462 -0.354577 1.659670 0.008294 -0.002965 -1664300.000000 1 0 0
17.630408 3.570815 -1.021301 18.017355 0.199834 1.627511 -0.006083 0.006255 28390.500000 1 0 0
9.718508 -11.133785 9.496799 17.567008 -0.853166 0.999641 0.010581 -0.001019 853117.000000 1 0 0
9.011408 -11.130485 4.167299 14.915078 -0.890220 1.287625 -0.000006 -0.005170 -1048630.000000 1 0 0
14.068208 -10.079485 6.649899 18.540002 -0.621696 1.203945 0.017867 -0.007394 -167853.000000 1 0 0
16.172108 -0.654785 -4.807301 16.884193 -0.040466 1.859513 0.010607 0.001195 -951422.000000 1 0 0
15.739308 -0.616685 -1.767901 15.850287 -0.039161 1.682566 0.010763 0.000343 1146920.000000 1 0 0
12.773808 -5.258485 -0.375101 13.818920 -0.390519 1.597944 0.011701 -0.002504 1359520.000000 1 0 0
14.175508 -7.560185 0.950799 16.093646 -0.489953 1.511683 0.017963 -0.002353 1677780.000000 1 0 0
15.503308 2.467715 3.656599 16.118713 0.157849 1.341950 0.013702 -0.003273 2365080.000000 1 0 0
15.902108 -7.114085 4.788499 18.067013 -0.420662 1.302550 0.014015 -0.000906 -1564380.000000 1 0 0
13.614708 -12.235185 3.220099 18.585722 -0.732082 1.396661 0.011047 -0.002785 293399.000000 1 0 0
13.950508 -0.947985 9.250499 16.765652 -0.067849 0.986332 0.018690 -0.001438 577625.000000 1 0 0
14.067508 -2.917385 -1.681301 14.464878 -0.204486 1.687293 0.008734 -0.000303 982849.000000 1 0 0
15.032108 1.773315 9.184399 17.704861 0.117426 1.025408 0.031903 -0.001948 -1805210.000000 1 0 0
14.379408 -10.303685 -3.128801 17.964484 -0.621753 1.745855 0.013221 -0.001482 -138358.000000 1 0 0
7.374308 -12.690185 6.032799 15.868707 -1.044387 1.180817 0.001190 -0.005581 -667468.000000 1 0 0
12.420808 -4.728885 6.930999 14.989249 -0.363778 1.090099 0.010006 0.000616 3255410.000000 1 0 0
14.921208 -9.213585 -5.877301 18.495277 -0.553175 1.894176 0.013909 -0.002426 1214120.000000 1 0 0
14.269608 -4.646785 4.519299 15.672855 -0.314813 1.278291 0.015512 -0.000643 478897.000000 1 0 0
17.038108 -4.223985 0.753399 17.570054 -0.243014 1.527903 0.003799 -0.001125 -1243010.000000 1 0 0
10.168108 -14.501985 0.992599 17.739314 -0.959297 1.514812 0.008901 -0.007709 1214370.000000 1 0 0
16.296508 -2.522785 8.428599 18.519771 -0.153586 1.098297 0.016365 -0.005044 1451310.000000 1 0 0
15.993008 -2.588585 3.040399 16.483965 -0.160466 1.385288 0.007970 -0.001153 455959.000000 1 0 0
7.763208 -15.256185 2.587399 17.312227 -1.100089 1.420779 0.005526 -0.010361 2155660.000000 1 0 0
16.635708 -6.959085 7.680499 19.600146 -0.396201 1.168145 0.013143 0.001076 -712451.000000 1 0 0
10.224808 -8.605285 5.111599 14.308252 -0.699602 1.205476 0.005587 -0.003489 -414102.000000 1 0 0
10.876508 -11.893685 2.043899 16.246098 -0.830040 1.444653 0.007204 -0.008767 1521520.000000 1 0 0
12.274108 -7.354785 11.965499 18.652607 -0.539839 0.874355 -0.002211 0.000673 -726269.000000 1 0 0
15.235608 -9.926985 4.061299 18.632309 -0.577474 1.351062 0.015485 -0.001561 -2155950.000000 1 0 0
7.436308 -10.337585 7.754799 14.909770 -0.947204 1.023810 0.000165 -0.001195 674860.000000 1 0 0
15.083708 -3.410485 -4.423801 16.084766 -0.222365 1.849418 0.011404 -0.001788 484210.000000 1 0 0
11.816408 -9.068485 9.702599 17.776539 -0.654575 0.993442 0.006168 -0.002772 -1111810.000000 1 0 0
16.873008 -6.644885 2.229499 18.270839 -0.375165 1.448466 0.007900 0.001163 1082010.000000 1 0 0
17.572308 3.916315 1.955299 18.109300 0.219285 1.462613 0.006285 -0.000543 659026.000000 1 0 0
14.759508 -4.907885 8.641699 17.793521 -0.321022 1.063672 0.013511 -0.000004 -169567.000000 1 0 0
12.804708 -12.574685 6.018899 18.929089 -0.776335 1.247208 0.011042 -0.007694 -200217.000000 1 0 0
18.158708 0.652615 -0.915901 18.193501 0.035924 1.621160 0.009415 -0.000377 147817.000000 1 0 0
11.620108 -2.138185 10.948199 16.107818 -0.181972 0.823467 0.001788 -0.001240 850984.000000 1 0 0
5.752808 -12.475885 10.514499 17.300208 -1.138738 0.917550 -0.002624 -0.000085 -1220750.000000 1 0 0
10.754708 -5.024285 11.013999 16.193065 -0.437041 0.822805 -0.000165 0.001089 639060.000000 1 0 0
17.829808 1.390015 5.036299 18.579519 0.077803 1.296295 0.022529 -0.001031 -289009.000000 1 0 0
12.294808 -7.792985 7.075199 16.184912 -0.564933 1.118371 0.014958 -0.001761 104755.000000 1 0 0
10.644908 -7.982285 14.231299 19.482321 -0.643417 0.751783 0.003412 -0.002336 326399.000000 1 0 0
14.044108 -0.265285 3.728099 14.532931 -0.018887 1.311368 0.011460 -0.001669 2077750.000000 1 0 0
11.635508 -7.717385 2.574199 14.197520 -0.585641 1.388475 0.011088 -0.004040 2900790.000000 1 0 0
9.257508 6.178615 3.472999 11.659265 0.588522 1.268331 0.001402 0.000313 1166840.000000 1 0 0
-3.914392 14.802515 -9.824301 18.192136 -1.312273 2.141269 -0.004028 0.000468 -283807.000000 1 0 0
8.807408 -6.467485 9.222199 14.298523 -0.633392 0.869805 -0.000372 0.001178 -748512.000000 1 0 0
5.710208 -10.757985 -8.666501 14.948209 -1.082823 2.189241 -0.005250 0.005042 -8395.060000 1 0 0
5.389008 1.018615 0.510199 5.508111 0.186813 1.478037 -0.005934 0.004589 2992710.000000 1 0 0
-0.545292 9.929215 11.041499 14.859386 -1.515934 0.733157 0.003158 -0.000215 105501.000000 1 0 0
-6.322392 -5.237385 0.995499 8.270058 0.691812 1.450130 0.002900 0.000646 1966570.000000 1 0 0
-1.021192 3.960515 -10.872201 11.616078 -1.318450 2.781776 0.007106 -0.003737 265845.000000 1 0 0
10.886708 5.791415 1.225199 12.392014 0.488896 1.471765 0.000016 0.001873 119529.000000 1 0 0
-10.179992 -1.686585 -13.518301 17.006507 0.164185 2.489623 0.001354 -0.006297 546795.000000 1 0 0
7.475208 10.864215 -6.003101 14.489553 0.968130 1.997976 0.007532 -0.003149 -37489.100000 1 0 0
-12.423392 -2.820185 -9.449001 15.861202 0.223223 2.208971 0.001015 -0.001702 898841.000000 1 0 0
-3.874092 -8.690985 2.484099 9.834254 1.151474 1.315433 0.002916 0.002519 -661881.000000 1 0 0
7.891908 -6.712885 -5.956401 11.950889 -0.704844 2.092556 0.000038 -0.002451 267086.000000 1 0 0
14.251508 3.097015 -4.194001 15.175198 0.213984 1.850813 0.006446 0.007300 1387480.000000 1 0 0
-2.526492 -4.913185 9.897199 11.334774 1.095832 0.509125 -0.000267 -0.000020 1067140.000000 1 0 0
3.424008 -2.002485 -4.622101 6.090780 -0.529195 2.432370 -0.006620 0.002378 -1774260.000000 1 0 0
-3.903292 8.426515 -3.460501 9.910445 -1.137007 1.927489 -0.005258 -0.000090 -174678.000000 1 0 0
5.820608 0.111215 11.648499 13.022265 0.019105 0.463470 -0.007535 -0.001713 715816.000000 1 0 0
7.266708 4.739215 12.331199 15.077257 0.577907 0.613101 0.005204 -0.002285 993588.000000 1 0 0
1.146808 -14.500385 12.518999 19.191187 -1.491872 0.860141 -0.017028 0.000532 -38363.000000 1 0 0
3.007208 8.705615 -9.172001 12.998332 1.238196 2.354107 -0.001376 -0.003096 -185544.000000 1 0 0
-4.429192 -8.904885 -4.635301 10.972727 1.109240 2.006930 0.001483 0.000133 1775410.000000 1 0 0
5.670808 -6.629285 -4.035501 9.612011 -0.863165 2.004065 -0.003158 -0.002672 3153770.000000 1 0 0
-3.091992 3.470415 8.713699 9.875867 -0.843000 0.490022 -0.002572 0.000833 3200970.000000 1 0 0
-3.760892 3.180615 -11.098901 12.142744 -0.701997 2.723921 0.002740 -0.006197 1351460.000000 1 0 0
3.035008 -6.131485 8.512599 10.921114 -1.111167 0.676989 -0.011434 0.002354 -111566.000000 1 0 0
-5.121492 -8.702985 10.495299 14.564440 1.038894 0.766113 0.006183 0.001041 1280360.000000 1 0 0
-13.162092 -2.463885 6.575699 14.918150 0.185054 1.114323 0.002887 0.002325 232013.000000 1 0 0
3.780808 -5.978985 -8.444901 11.016312 -1.006929 2.444297 -0.009356 -0.000057 3245850.000000 1 0 0
2.996908 -0.583485 12.317099 12.689872 -0.192290 0.242984 -0.006459 -0.002679 449942.000000 1 0 0
1.435708 -1.488685 -7.551001 7.829116 -0.803512 2.874252 -0.004140 -0.002177 -586254.000000 1 0 0
3.589408 -3.567285 3.432799 6.115021 -0.782307 0.974754 -0.004802 0.002857 2569560.000000 1 0 0
1.504108 0.402115 -11.834101 11.936079 0.261235 3.010781 0.001647 -0.003131 -171183.000000 1 0 0
4.021908 3.532015 -10.542001 11.823057 0.720636 2.671768 -0.001767 0.002457 1611720.000000 1 0 0
2.786308 3.282815 3.349999 5.455537 0.867025 0.909608 -0.007933 0.005633 6103.570000 1 0 0
-5.338092 0.876715 2.663299 6.029678 -0.162784 1.113305 -0.001909 0.000627 899418.000000 1 0 0
-9.415492 -9.341285 5.669899 14.424245 0.781442 1.166816 0.002162 0.001995 -2247780.000000 1 0 0
-2.962992 3.818015 -0.583501 4.867960 -0.910827 1.690951 -0.000442 -0.004427 18587.200000 1 0 0
-15.834692 -6.585285 4.905699 17.837301 0.394118 1.292181 0.005057 0.001228 1616990.000000 1 0 0
0.982008 6.746015 -8.109901 10.594506 1.426243 2.442586 -0.000514 0.000652 58442.900000 1 0 0
-1.654192 6.476915 -9.445601 11.571783 -1.320744 2.525706 0.001127 0.001040 851067.000000 1 0 0
2.130508 -0.305285 5.310699 5.730252 -0.142323 0.385042 -0.003631 0.003991 2305680.000000 1 0 0
-3.437892 -0.634285 -6.223301 7.137989 0.182447 2.629776 0.007894 -0.008051 130640.000000 1 0 0
1.994608 -1.170085 -2.414101 3.342970 -0.530526 2.377691 -0.005264 0.001509 2512350.000000 1 0 0
2.353708 -8.675485 -7.760701 11.875709 -1.305868 2.282987 -0.009979 0.003032 3058620.000000 1 0 0
-2.443292 14.081515 -5.546001 15.330260 -1.398996 1.940960 -0.004653 0.004336 2749390.000000 1 0 0
6.731408 -5.142285 -8.274301 11.841411 -0.652353 2.344459 -0.002625 -0.002415 3605690.000000 1 0 0
-14.145292 -5.026285 -2.144401 15.164144 0.341418 1.712685 -0.001676 0.001480 -151443.000000 1 0 0
-2.693292 6.910715 -6.754801 10.031906 -1.199177 2.309502 -0.001807 0.000122 -2607120.000000 1 0 0
-5.682892 -1.063185 -8.073001 9.929701 0.184947 2.520109 0.010731 -0.008118 239384.000000 1 0 0
-5.688692 -10.674085 3.387399 12.560723 1.081142 1.297734 0.000345 0.001932 -3734300.000000 1 0 0
8.071908 -7.612385 6.623799 12.922028 -0.756108 1.032589 0.001092 -0.002933 1600470.000000 1 0 0
8.792908 -5.991785 13.130299 16.900339 -0.598156 0.681029 0.000981 0.005482 848864.000000 1 0 0
-4.810992 9.490015 -0.814301 10.670947 -1.101602 1.647181 -0.003462 0.001937 1976310.000000 1 0 0
2.776308 6.556915 12.093399 14.033935 1.170267 0.532136 0.004548 -0.001939 1465470.000000 1 0 0
6.075108 -2.856185 10.883099 12.786969 -0.439480 0.552703 -0.008669 0.002709 18019.100000 1 0 0
-9.680992 -6.511885 -1.201401 11.729007 0.592131 1.673406 0.000465 0.000911 903442.000000 1 0 0
0.912108 -13.357085 6.273799 14.785270 -1.502616 1.132577 0.001130 0.002308 417605.000000 1 0 0
-0.482692 -3.230585 8.831799 9.416493 1.422480 0.354248 -0.004835 -0.000589 1012000.000000 1 0 0
4.219108 0.790915 3.421499 5.489360 0.185310 0.897845 -0.008362 0.006506 790792.000000 1 0 0
-10.203492 5.616815 8.396899 14.358543 -0.503211 0.946161 -0.004246 -0.004891 276223.000000 1 0 0
9.433008 8.054915 -0.042001 12.404236 0.706758 1.574182 0.000797 0.003041 502113.000000 1 0 0
4.325408 2.992115 8.117599 9.672503 0.605170 0.574903 -0.006278 0.000104 3761120.000000 1 0 0
1.305508 2.629615 -9.716901 10.150734 1.109982 2.848175 0.004078 -0.003109 1182390.000000 1 0 0
-1.373492 -10.194885 2.953199 10.702502 1.436879 1.291234 0.001475 -0.000716 -2661600.000000 1 0 0
-9.893392 9.580715 9.058099 16.483885 -0.769344 0.989016 -0.002621 -0.009173 2846440.000000 1 0 0
9.690808 -2.081785 -7.647101 12.518936 -0.211605 2.227921 0.007320 -0.000586 1663440.000000 1 0 0
-5.096992 -1.919685 6.683599 8.621775 0.360200 0.683765 -0.001912 0.001715 426243.000000 1 0 0
3.020008 -7.913385 -4.985901 9.828597 -1.206223 2.102828 -0.007464 -0.000401 2868560.000000 1 0 0
-5.148492 4.952115 -13.077301 14.901215 -0.765959 2.641628 -0.002734 -0.005754 1695390.000000 1 0 0
-5.634192 9.674515 5.466499 12.458851 -1.043438 1.116573 -0.001802 -0.003015 1117120.000000 1 0 0
-0.557392 -1.762285 -9.366401 9.547031 1.264463 2.946759 -0.000732 -0.005622 1389720.000000 1 0 0
-16.573592 0.221415 6.490399 17.800512 -0.013359 1.197573 0.001716 -0.002762 -235797.000000 1 0 0
-5.877092 -2.891385 4.068399 7.710524 0.457207 1.014974 -0.005300 0.003264 1384090.000000 1 0 0
0.897708 -5.804185 -5.165701 7.821695 -1.417346 2.292191 -0.005152 0.001235 -626941.000000 1 0 0
-7.038292 1.442615 -8.291301 10.971069 -0.202167 2.427583 -0.000079 -0.001883 1445020.000000 1 0 0
7.984308 1.986815 4.748899 9.499929 0.243887 1.047327 -0.006535 0.003160 134263.000000 1 0 0
0.492008 -8.099085 -0.528101 8.131183 -1.510122 1.635790 -0.000660 0.000674 1134700.000000 1 0 0
5.398608 5.538615 -3.348601 8.428188 0.798198 1.979380 -0.003504 0.002055 -688919.000000 1 0 0
-0.646392 -0.312685 -1.202701 1.400744 0.450554 2.603360 -0.002081 0.000102 1399120.000000 1 0 0
9.054608 6.372015 -6.283801 12.730855 0.613226 2.087007 0.000341 0.001093 1498770.000000 1 0 0
-14.901392 -7.203885 2.468099 16.734364 0.450310 1.422769 -0.011019 0.002508 956247.000000 1 0 0
-6.292792 6.894315 8.888899 12.889660 -0.830981 0.809839 -0.007109 0.000700 814079.000000 1 0 0
-9.490692 -3.168285 -9.525201 13.814511 0.322198 2.331604 0.007511 -0.003867 -96774.300000 1 0 0
14.774708 3.357715 -1.227301 15.201070 0.223465 1.651622 -0.008754 0.006619 741349.000000 1 0 0
11.977208 1.653515 -5.776601 13.399879 0.137188 2.016501 0.005682 0.005210 -1218240.000000 1 0 0
1.678408 -9.380585 12.766999 15.931374 -1.393746 0.641207 -0.009507 -0.000316 -990341.000000 1 0 0
-3.513192 6.389515 7.937199 10.778105 -1.068078 0.743035 -0.003649 0.001192 850863.000000 1 0 0
-3.972392 13.084015 -12.345301 18.422210 -1.276034 2.305182 -0.003886 -0.001230 1587320.000000 1 0 0
-10.248192 7.837115 6.527699 14.458792 -0.652863 1.102385 -0.002499 -0.005683 58627.900000 1 0 0
7.880108 -9.373285 -7.213101 14.212087 -0.871727 2.103115 0.001199 0.001023 -54685.700000 1 0 0
5.846908 -3.867685 -0.415301 7.022663 -0.584412 1.629968 -0.002092 0.000111 -2206870.000000 1 0 0
-1.652192 -4.451485 4.124399 6.289366 1.215401 0.855590 -0.003026 0.002958 255248.000000 1 0 0
9.809708 -2.084685 -2.562601 10.351001 -0.209397 1.820968 -0.001707 -0.000938 -1417140.000000 1 0 0
13.526808 7.026315 1.411199 15.308009 0.479075 1.478478 -0.000039 0.003846 -1091270.000000 1 0 0
5.403108 -3.836785 -3.282901 7.395400 -0.617477 2.030755 -0.004294 -0.000869 -1690370.000000 1 0 0
-12.232592 -5.960385 1.951999 13.746737 0.453399 1.428318 -0.006839 0.003279 586507.000000 1 0 0
3.718808 -5.793285 -0.309901 6.891134 -1.000124 1.615782 -0.003401 0.001197 -159019.000000 1 0 0
-5.195992 3.683115 -8.580601 10.685990 -0.616633 2.503069 0.003419 -0.003749 1304590.000000 1 0 0
-1.674392 -9.229885 7.236499 11.847416 1.391338 0.913715 -0.003228 0.001498 2474220.000000 1 0 0
-7.457592 -7.473085 2.598099 10.872570 0.786436 1.329503 0.002971 -0.000115 -2997560.000000 1 0 0
-5.691292 13.056815 -8.444901 16.558610 -1.159741 2.105982 -0.002606 -0.001576 2250090.000000 1 0 0
9.169008 -13.924585 -4.267601 17.209799 -0.988485 1.821386 0.005780 0.002247 727564.000000 1 0 0
-6.515492 -5.114685 -6.725901 10.670022 0.665530 2.252807 0.005595 -0.004673 741634.000000 1 0 0
3.418608 0.284615 -6.248701 7.128405 0.083063 2.639530 -0.005324 -0.000550 1986740.000000 1 0 0
-3.633192 5.835515 5.011499 8.506964 -1.013925 0.940845 -0.001991 0.002032 -1080680.000000 1 0 0
-2.625392 -10.886285 -2.893401 11.566142 1.334150 1.823643 0.000563 0.000988 1355340.000000 1 0 0
-12.497692 -0.440685 1.870599 12.644589 0.035247 1.422315 -0.003159 -0.002725 -150187.000000 1 0 0
8.408508 -11.983485 -6.208401 15.901294 -0.958947 1.971899 0.001458 0.000682 233698.000000 1 0 0
6.126108 3.898415 0.990699 7.328597 0.566727 1.435199 -0.004302 0.002708 -1255090.000000 1 0 0
3.247808 -4.884485 -10.998901 12.465243 -0.984002 2.651662 -0.004715 0.000911 517264.000000 1 0 0
-7.632892 4.347015 8.598499 12.291939 -0.517699 0.796066 -0.010470 0.003497 981867.000000 1 0 0
8.165008 8.810715 4.102599 12.693596 0.823417 1.241685 0.008437 -0.000987 720715.000000 1 0 0
0.258608 10.593815 -6.295101 12.325749 1.546390 2.106827 -0.003146 0.002867 52915.900000 1 0 0
5.430308 8.128415 3.232999 10.296197 0.981826 1.251394 0.003641 0.000763 3359600.000000 1 0 0
8.013308 6.649915 -3.711701 11.054918 0.692684 1.913199 -0.004148 0.001957 568047.000000 1 0 0
10.442308 2.472115 -8.215101 13.514475 0.232461 2.224177 0.001215 0.004135 1309970.000000 1 0 0
3.256208 -12.552185 -0.286401 12.970824 -1.316978 1.592879 0.004083 -0.003934 -1831840.000000 1 0 0
0.645508 2.195815 5.272699 5.748012 1.284879 0.409529 -0.004937 0.004148 748372.000000 1 0 0
-4.785092 13.414215 1.512799 14.322250 -1.228149 1.464973 -0.003831 0.003058 1573720.000000 1 0 0
8.175708 4.133315 -8.036801 12.186742 0.468086 2.290911 0.000751 0.003855 -422147.000000 1 0 0
-13.953592 -0.638485 -3.506701 14.401643 0.045726 1.816762 -0.002507 0.000344 250040.000000 1 0 0
-8.476492 -0.052385 -0.411401 8.486631 0.006180 1.619292 -0.000427 -0.002659 -114689.000000 1 0 0
1.762908 -3.854585 -1.091001 4.376751 -1.141844 1.822725 -0.001759 0.001308 -2212740.000000 1 0 0
7.993508 -5.718885 -0.264201 9.832173 -0.621014 1.597671 -0.001147 -0.003537 910873.000000 1 0 0
-2.301092 -1.291885 7.447399 7.901123 0.511571 0.340539 -0.002840 0.002295 1106420.000000 1 0 0
-5.850092 8.953515 -11.672201 15.831276 -0.992045 2.399843 -0.002346 0.004464 95638.400000 1 0 0
-6.024992 9.175415 -8.830701 14.087940 -0.989764 2.248270 -0.007853 0.001574 -933122.000000 1 0 0
-1.447992 13.991315 -8.364201 16.365007 -1.467671 2.107264 0.006789 -0.000324 546766.000000 1 0 0
-1.458592 7.203215 9.838199 12.280226 -1.371006 0.641596 -0.000432 -0.003271 -243093.000000 1 0 0
9.969008 2.295115 -4.009401 10.987446 0.226282 1.944330 -0.002430 0.003774 -2464940.000000 1 0 0
-3.038492 -7.515685 -7.022501 10.725366 1.186600 2.284657 -0.000352 -0.000138 1023840.000000 1 0 0
-5.585692 -5.027185 -1.620301 7.687517 0.732821 1.783159 0.002178 0.000638 1612510.000000 1 0 0
5.678908 7.473315 -8.735401 12.822156 0.920995 2.320298 -0.001937 -0.000812 235635.000000 1 0 0
-9.544592 5.342715 -7.359801 13.183721 -0.510308 2.163070 -0.011817 0.005916 1369020.000000 1 0 0
-0.399392 6.137615 -5.331401 8.139636 -1.505815 2.284969 -0.000146 0.000429 -1570290.000000 1 0 0
-8.257292 2.819415 -6.194001 10.700356 -0.329034 2.188125 0.000213 -0.000796 1375110.000000 1 0 0
3.728008 1.379415 -2.099801 4.495553 0.354392 2.056786 -0.008250 0.004570 2169830.000000 1 0 0
-6.632992 12.492215 -3.468201 14.562982 -1.082681 1.811259 -0.007300 -0.000318 588186.000000 1 0 0
-6.531292 3.147515 -2.235401 7.586939 -0.449074 1.869873 0.003384 -0.004309 -2449930.000000 1 0 0
12.003808 3.969215 -0.726201 12.663864 0.319345 1.628172 -0.000653 0.003778 899563.000000 1 0 0
2.314908 12.370015 -5.530501 13.746364 1.385797 1.984851 0.000532 0.001404 -335901.000000 1 0 0
-9.224192 -1.330085 -4.229901 10.234593 0.143208 1.996865 0.000067 -0.002171 -886467.000000 1 0 0
-1.193792 5.895715 3.484599 6.951764 -1.371013 1.045749 0.000303 0.002889 1148940.000000 1 0 0
11.572908 2.641715 12.055699 16.918946 0.224422 0.777662 0.012699 -0.000065 1095390.000000 1 0 0
-7.045592 -2.297285 -5.738401 9.372680 0.315190 2.229697 0.009119 -0.006076 -294902.000000 1 0 0
7.488708 -7.434185 10.810399 15.106706 -0.781744 0.773310 0.000200 0.001261 -681828.000000 1 0 0
-5.547892 -1.916485 -10.936301 12.411877 0.332610 2.649013 0.006263 -0.007446 -668170.000000 1 0 0
0.782408 -6.162385 4.434199 7.632121 -1.444507 0.950850 -0.006856 0.001446 2279230.000000 1 0 0
-4.792492 -9.413985 7.426299 12.912823 1.099909 0.958057 -0.001045 0.001590 1220790.000000 1 0 0
-8.708392 9.356215 1.762699 12.902789 -0.821244 1.433754 0.001063 -0.002617 165857.000000 1 0 0
-8.031792 7.228715 -9.039801 14.088364 -0.732822 2.267444 -0.007498 0.003332 -645652.000000 1 0 0
-1.249292 -10.693285 -0.130001 10.766799 1.454494 1.582871 0.001508 0.000598 200809.000000 1 0 0
-3.939692 10.299815 7.811899 13.514182 -1.205466 0.954457 0.001768 -0.001064 517327.000000 1 0 0
-7.475592 12.137315 2.037299 14.399635 -1.018755 1.428837 -0.001959 -0.003298 2367000.000000 1 0 0
-8.222092 -8.271485 -2.850601 12.006089 0.788393 1.810515 0.006470 0.000235 -571276.000000 1 0 0
5.414808 4.665515 -8.022501 10.744659 0.711202 2.413808 -0.003286 0.002872 364450.000000 1 0 0
-8.995792 -0.131885 -10.075201 13.507455 0.014660 2.412680 0.001217 -0.004069 -761373.000000 1 0 0
-15.118392 -2.230885 -1.403101 15.346378 0.146504 1.662353 -0.005056 -0.002364 -605350.000000 1 0 0
-7.124692 -5.702285 8.706399 12.612639 0.674958 0.808904 -0.001743 0.003143 -811256.000000 1 0 0
8.105908 3.452715 -0.974101 8.864303 0.402675 1.680909 -0.004168 0.004753 316243.000000 1 0 0
11.879908 7.309915 -5.882701 15.138469 0.551606 1.969900 0.002692 0.001054 -972017.000000 1 0 0
3.819808 13.279815 -9.531401 16.786662 1.290717 2.174622 0.000759 -0.006596 700510.000000 1 0 0
-9.742192 5.452215 -0.511101 11.175785 -0.510222 1.616545 -0.002614 -0.000411 671165.000000 1 0 0
11.208608 -1.370085 -5.192601 12.428722 -0.121632 2.001808 0.007622 0.000895 -17130.400000 1 0 0
10.571108 1.682915 -1.277501 10.780192 0.157875 1.689580 -0.003562 0.002900 908971.000000 1 0 0
14.563808 5.089715 4.793999 16.155251 0.336209 1.269513 0.008006 -0.003473 3522040.000000 1 0 0
0.956208 -0.796585 10.196699 10.272368 -0.694581 0.121453 -0.003749 -0.002263 1605740.000000 1 0 0
-7.972792 1.409815 -12.504401 14.896746 -0.175019 2.566984 -0.002980 -0.005178 -491031.000000 1 0 0
3.025008 -11.634185 -7.961801 14.418572 -1.316419 2.155786 -0.007024 0.005411 403520.000000 1 0 0
2.860708 5.052715 -6.762901 8.913496 1.055621 2.432151 -0.003632 0.002716 -2472350.000000 1 0 0
6.478108 8.067915 0.516699 10.359736 0.894261 1.520900 0.004076 0.001057 730575.000000 1 0 0
-9.049692 -5.497285 6.710699 12.535970 0.545883 1.005915 -0.002499 0.001850 -1931590.000000 1 0 0
-0.455792 -6.829285 -11.931901 13.755622 1.504154 2.620790 -0.008280 0.004493 1822890.000000 1 0 0
6.401208 -13.416285 -4.734101 15.600765 -1.125618 1.879111 0.000423 0.000833 2222950.000000 1 0 0
-3.173792 -0.245485 10.032099 10.525028 0.077194 0.307260 -0.000527 0.001540 120948.000000 1 0 0
8.608108 8.535615 6.982299 13.989594 0.781170 1.048229 0.002704 -0.000015 -2404850.000000 1 0 0
-7.882692 5.686015 -2.640201 10.071656 -0.624898 1.836037 0.000357 -0.003707 881657.000000 1 0 0
-5.376892 5.816215 -6.372201 10.165838 -0.824627 2.248268 -0.000640 -0.001221 -1221510.000000 1 0 0
3.283508 -13.731285 2.562299 14.349041 -1.336078 1.391264 0.006096 -0.006606 -2154090.000000 1 0 0
-11.262892 -7.094385 6.513299 14.819112 0.562108 1.115732 0.004857 0.001168 -227196.000000 1 0 0
-12.938692 -3.665185 -6.650201 15.002283 0.276041 2.030050 0.004946 -0.002157 -589205.000000 1 0 0
5.953508 0.306615 -7.332201 9.449839 0.051456 2.458949 -0.004868 0.003807 526301.000000 1 0 0
-1.400892 2.221815 -2.458801 3.597869 -1.008240 2.323213 0.000461 -0.001954 1283800.000000 1 0 0
7.519908 0.913115 -4.963901 9.056661 0.120835 2.150880 -0.005725 0.003855 279754.000000 1 0 0
3.723408 -4.519885 10.820499 12.303509 -0.881720 0.496060 -0.012386 0.003325 796421.000000 1 0 0
5.947108 -2.540785 2.045499 6.782901 -0.403758 1.264461 -0.004749 0.001033 -1456230.000000 1 0 0
-6.382092 7.743215 1.059599 10.090155 -0.881462 1.465589 -0.003625 -0.000268 1388120.000000 1 0 0
6.047308 -3.515085 7.914099 10.562136 -0.526529 0.723808 -0.006779 -0.000613 -207041.000000 1 0 0
6.646108 -2.304985 -7.918101 10.591508 -0.333837 2.415222 -0.004331 -0.000489 565251.000000 1 0 0
12.013608 -8.213585 -5.931901 15.715509 -0.599696 1.957843 0.011485 -0.002564 1580800.000000 1 0 0
5.541708 -9.686385 9.857999 14.890155 -1.051134 0.847248 -0.007368 0.004485 1478690.000000 1 0 0
-6.526192 7.565215 -4.328801 10.888626 -0.859000 1.979644 -0.003403 -0.003028 387843.000000 1 0 0
-1.199392 -7.525585 9.724499 12.354709 1.412750 0.664689 -0.000589 -0.000956 -532346.000000 1 0 0
10.019308 -9.266685 0.761699 13.668876 -0.746394 1.515042 0.009310 -0.006441 -784432.000000 1 0 0
11.140208 6.018715 9.734599 15.971587 0.495342 0.915373 0.006287 -0.001956 1842220.000000 1 0 0
-15.295092 -4.229785 -4.869201 16.599398 0.269802 1.868511 -0.006189 0.000599 1049690.000000 1 0 0
-4.657692 -4.650585 7.876699 10.264717 0.784635 0.696088 0.000976 0.000654 -396358.000000 1 0 0
3.014408 10.897715 -11.117301 15.856899 1.300935 2.347738 0.000477 -0.007263 -690273.000000 1 0 0
9.878408 -1.405385 1.536999 10.095565 -0.141320 1.417957 -0.004413 0.002056 -551286.000000 1 0 0
-1.521092 -2.634085 0.535099 3.088439 1.047112 1.396659 -0.001832 0.002254 -813836.000000 1 0 0
1.559508 3.008415 0.843199 3.491935 1.092551 1.326916 -0.006089 0.004199 -1483220.000000 1 0 0
-8.833892 -2.471985 4.291299 10.127369 0.272851 1.133234 -0.006684 0.001697 3250610.000000 1 0 0
9.917708 4.879115 -2.689601 11.375441 0.457195 1.809496 -0.003430 0.004336 721838.000000 1 0 0
2.520608 8.441915 2.509399 9.160594 1.280640 1.293315 -0.000479 0.000970 718458.000000 1 0 0
-8.152392 -0.083685 2.543499 8.540368 0.010265 1.268387 -0.004854 0.000322 1206330.000000 1 0 0
6.958708 2.015915 13.678699 15.478835 0.281978 0.487080 -0.002349 -0.001351 -831777.000000 1 0 0
6.766308 4.457315 3.727199 8.918666 0.582503 1.139653 -0.004893 0.002256 1114080.000000 1 0 0
-0.301692 3.353315 7.770999 8.469012 -1.481070 0.408846 -0.005082 0.000524 246483.000000 1 0 0
2.731008 -10.233385 9.130999 13.984124 -1.310002 0.859317 -0.007864 0.001984 845173.000000 1 0 0
1.342008 -4.547585 6.892999 8.366298 -1.283838 0.602537 -0.008650 0.000938 -239201.000000 1 0 0
-0.195992 10.960315 -1.983401 11.140054 -1.552916 1.749793 -0.002996 0.002041 2952610.000000 1 0 0
8.763608 5.574215 7.949999 13.079571 0.566516 0.917486 -0.000060 0.000792 -1472640.000000 1 0 0
2.626508 11.463115 -2.908201 12.114421 1.345557 1.813225 -0.000305 0.001268 2400070.000000 1 0 0
1.499208 2.457815 -6.674001 7.268478 1.023074 2.734338 -0.002916 -0.000774 991707.000000 1 0 0
-13.503892 -2.250085 3.641799 14.166181 0.165108 1.310800 -0.002953 -0.000170 306141.000000 1 0 0
-0.993392 -10.706685 -5.398101 12.031601 1.478279 2.036062 -0.003719 0.003038 -652894.000000 1 0 0
-5.648492 2.900715 0.458499 6.366304 -0.474419 1.498714 0.001623 -0.002973 887411.000000 1 0 0
3.804408 7.316315 -5.030501 9.659603 1.091285 2.118557 -0.002167 0.000889 -3180400.000000 1 0 0
3.014808 9.783515 -6.528301 12.141868 1.271878 2.138466 -0.000647 0.000486 1279420.000000 1 0 0
-12.206492 1.672615 -2.450201 12.561830 -0.136179 1.767106 -0.001270 0.000265 1105640.000000 1 0 0
-2.406092 9.655115 -5.754501 11.494556 -1.326567 2.095121 -0.007656 0.002649 57131.500000 1 0 0
-1.320692 3.487515 1.785999 4.134825 -1.208793 1.124153 -0.000538 0.000478 -404223.000000 1 0 0
12.889408 3.672515 9.648599 16.514226 0.277570 0.946829 0.021232 0.000906 -190309.000000 1 0 0
-2.515192 -9.570885 11.538799 15.201049 1.313811 0.708899 -0.009965 -0.002242 2690110.000000 1 0 0
-0.542292 -9.011585 -7.586001 11.791953 1.510692 2.269623 -0.006657 0.002513 2566950.000000 1 0 0
2.381108 7.667715 -0.519001 8.045676 1.269701 1.635348 -0.000837 0.003082 375108.000000 1 0 0
-11.872492 -1.266585 -5.501401 13.146319 0.106280 2.002562 -0.000934 0.001046 -424359.000000 1 0 0
-6.333192 -7.064485 -10.928001 14.471955 0.839928 2.426627 -0.001195 -0.001251 1509240.000000 1 0 0
-4.764292 -2.299385 -1.315301 5.451207 0.449654 1.814487 0.000258 -0.001379 -2275490.000000 1 0 0
-10.435292 3.748315 4.528399 11.977127 -0.344844 1.183067 -0.006136 -0.002639 3395740.000000 1 0 0
6.764708 9.394015 -3.581901 12.117707 0.946702 1.870872 0.001895 0.000766 292992.000000 1 0 0
1.166408 -2.722785 -11.593001 11.965439 -1.166060 2.891437 -0.002314 -0.002277 -1806280.000000 1 0 0
1.331408 8.788415 7.583999 11.684431 1.420444 0.864437 -0.000927 0.003629 515857.000000 1 0 0
10.306108 0.424415 10.482299 14.706277 0.041158 0.777346 0.002454 0.000439 474625.000000 1 0 0
-5.287392 -0.849685 -3.880201 6.613202 0.159338 2.197818 0.004307 -0.005221 160706.000000 1 0 0
11.643208 5.803015 5.364799 14.071970 0.462370 1.179659 0.001375 0.000612 1304140.000000 1 0 0
9.921408 -3.487685 3.629899 11.125397 -0.338038 1.238440 0.006229 -0.002889 -252979.000000 1 0 0
7.188008 -1.717885 -3.425001 8.145503 -0.234593 2.004768 -0.004946 0.002127 -2774490.000000 1 0 0
2.339408 9.237415 10.462899 14.151852 1.322758 0.738721 0.002886 0.000982 2065130.000000 1 0 0
2.437108 -10.864885 6.283299 12.785346 -1.350138 1.057048 -0.008274 0.002158 592078.000000 1 0 0
5.871808 -7.596385 -1.264601 9.684132 -0.912753 1.701755 -0.001796 -0.003915 1305540.000000 1 0 0
-0.318092 -5.631085 -2.332401 6.103310 1.514368 1.962922 0.000052 0.001315 1784660.000000 1 0 0
7.692308 -5.051685 2.711999 9.594064 -0.581084 1.284215 -0.000474 -0.003829 1769220.000000 1 0 0
-2.673692 -12.540585 4.571299 13.612923 1.360738 1.228336 0.000509 -0.000692 -850213.000000 1 0 0
4.790008 -10.350685 -1.109201 11.459109 -1.137372 1.667745 -0.000963 -0.003370 738353.000000 1 0 0
0.865708 0.196715 1.137799 1.443168 0.223436 0.662587 -0.004190 0.003525 -1450080.000000 1 0 0
-1.616092 8.651715 2.515299 9.153724 -1.386130 1.292431 -0.003692 0.003465 786174.000000 1 0 0
-7.517792 0.675415 -2.982301 8.115879 -0.089602 1.947078 0.004465 -0.004223 -158994.000000 1 0 0
4.484208 -6.416985 12.892499 15.083181 -0.960874 0.545708 -0.008541 0.002210 -9822.860000 1 0 0
-5.134992 13.033615 8.565599 16.419889 -1.195490 1.022001 0.002773 -0.006844 2061620.000000 1 0 0
0.575608 6.089915 8.203499 10.233073 1.476558 0.640721 -0.002034 0.002100 -84457.700000 1 0 0
7.910808 -0.589585 -0.716001 7.964996 -0.074391 1.660811 -0.004901 0.002751 1914960.000000 1 0 0
2.384508 -9.281785 -2.423701 9.884925 -1.319332 1.818514 -0.005744 0.000671 520914.000000 1 0 0
-7.098392 12.224015 4.916599 14.966184 -1.044695 1.236067 -0.002371 -0.006962 381975.000000 1 0 0
-14.870592 0.242415 0.321199 14.876035 -0.016300 1.549203 -0.003087 -0.004957 -685059.000000 1 0 0
6.838108 -0.495385 3.926599 7.900842 -0.072318 1.050676 -0.006445 0.004659 1070820.000000 1 0 0
-4.151592 -5.127485 5.129499 8.356948 0.890184 0.909931 -0.000416 0.000847 553131.000000 1 0 0
2.942408 5.196315 6.852099 9.089044 1.055564 0.716840 -0.004951 0.001347 -428296.000000 1 0 0
2.081608 -7.218685 1.758299 7.715836 -1.290049 1.340895 -0.004989 0.000204 2078760.000000 1 0 0
-2.316392 6.486115 -1.686801 7.090886 -1.227783 1.810982 -0.003984 0.000684 1708800.000000 1 0 0
2.570208 -3.896685 -6.561901 8.052867 -0.987710 2.523271 -0.006073 -0.001226 -868675.000000 1 0 0
-5.099992 0.960015 -12.133001 13.196259 -0.186061 2.737418 0.003961 -0.006159 246311.000000 1 0 0
-7.504992 6.473315 -11.899301 15.486190 -0.711726 2.447105 -0.007014 0.001705 2260900.000000 1 0 0
-0.933692 11.223115 -9.040001 14.441320 -1.487794 2.247186 0.000288 0.000825 323727.000000 1 0 0
4.636308 5.891515 -0.621301 7.522720 0.904066 1.653480 -0.001725 0.002271 -19976.300000 1 0 0
-2.668192 13.419815 3.658499 14.163167 -1.374531 1.309523 -0.000232 0.003001 2119810.000000 1 0 0
1.492508 -7.926985 10.226899 13.025135 -1.384693 0.667831 -0.009004 0.002145 -929344.000000 1 0 0
12.943408 -0.318785 -1.142001 12.997600 -0.024624 1.658772 0.005856 0.001072 79363.900000 1 0 0
-1.056392 3.116915 -5.351901 6.282831 -1.244024 2.590264 0.001458 -0.003841 971043.000000 1 0 0
6.546508 1.018515 7.335499 9.884518 0.154344 0.734568 -0.005876 0.002403 1075510.000000 1 0 0
5.397308 -6.238885 6.834199 10.712651 -0.857596 0.878955 -0.004521 -0.000029 373698.000000 1 0 0
12.176308 -4.906985 2.496299 13.363102 -0.383085 1.382887 0.009877 -0.003382 -486765.000000 1 0 0
4.382308 -9.238885 13.864799 17.227718 -1.127892 0.635465 -0.005418 0.007330 -335575.000000 1 0 0
-2.776292 -4.322085 -1.415801 5.328481 0.999818 1.839731 0.003169 -0.000881 1387460.000000 1 0 0
-9.298892 -5.142385 -7.491401 13.001331 0.505152 2.184871 0.011164 -0.004111 204785.000000 1 0 0
-10.505492 -3.165185 7.898599 13.519305 0.292639 0.946846 -0.002123 0.004092 378734.000000 1 0 0
12.011208 -0.529385 1.610599 12.130268 -0.044046 1.437628 0.002509 -0.001034 685618.000000 1 0 0
-7.571692 4.838815 4.351799 9.984127 -0.568651 1.119790 -0.004274 0.000226 2935100.000000 1 0 0
-1.039292 10.582015 7.074899 12.771584 -1.472897 0.983688 -0.001164 0.002859 2016040.000000 1 0 0
7.370208 -9.983185 1.810999 12.540481 -0.934850 1.425877 0.001763 -0.005942 1794250.000000 1 0 0
-4.247592 -1.650185 1.659599 4.849682 0.370553 1.221531 -0.003075 0.002358 2084000.000000 1 0 0
6.632708 -14.975585 -1.018101 16.410286 -1.153861 1.632877 0.010573 -0.005117 -1293900.000000 1 0 0
-10.373092 1.701515 2.435899 10.790264 -0.162584 1.343084 -0.007893 0.000991 -618787.000000 1 0 0
-3.022292 8.241715 -11.424901 14.407931 -1.219316 2.486447 0.001929 0.000051 -941524.000000 1 0 0
-1.302692 -5.228385 -6.921001 8.771161 1.326611 2.480079 -0.004656 -0.001400 -460093.000000 1 0 0
12.697008 -0.467485 6.446899 14.247634 -0.036802 1.101242 0.012483 -0.001902 1675640.000000 1 0 0
5.962508 -13.341585 3.686799 15.071227 -1.150514 1.323663 0.002556 -0.003276 -69519.500000 1 0 0
-5.569492 3.490215 -4.863101 8.176221 -0.559797 2.207796 0.005077 -0.005053 1202270.000000 1 0 0
-4.457992 8.070515 3.342299 9.807031 -1.066128 1.223022 -0.000168 0.001714 -545126.000000 1 0 0
13.961608 6.123315 -4.037801 15.771028 0.413319 1.829706 0.008501 0.006995 328201.000000 1 0 0
-6.668892 -8.581585 5.311099 12.096507 0.910165 1.116244 0.004890 0.000535 1198050.000000 1 0 0
1.663408 11.382115 2.701699 11.816034 1.425681 1.340109 0.000843 0.000193 1274890.000000 1 0 0
-7.415192 7.315115 6.011499 12.026392 -0.778604 1.047360 -0.005495 -0.003264 -847188.000000 1 0 0
-17.322592 -4.088285 5.165399 18.532879 0.231768 1.288340 0.008877 -0.002129 -1818180.000000 1 0 0
7.470208 -13.187185 -8.643601 17.447570 -1.055393 2.089097 -0.002934 0.007295 -652598.000000 1 0 0
-2.318192 12.934615 -2.783501 13.432281 -1.393455 1.779534 -0.004848 0.005077 1778500.000000 1 0 0
-5.437392 13.873715 -5.742801 15.969501 -1.197274 1.938647 -0.003486 0.000842 2073910.000000 1 0 0
-5.658192 2.564415 7.447499 9.698278 -0.425530 0.695209 -0.003357 0.002342 78216.100000 1 0 0
-7.475392 5.119815 1.414199 9.170275 -0.600512 1.415963 -0.001097 -0.002981 1531910.000000 1 0 0
10.558908 -5.804585 -5.023501 13.054475 -0.502639 1.965799 0.009956 -0.003319 2508940.000000 1 0 0
-9.315992 -0.844885 6.802299 11.566019 0.090444 0.942054 -0.008194 0.003630 2029570.000000 1 0 0
-11.255392 -4.589585 -2.550701 12.419912 0.387185 1.777640 0.000735 -0.001742 -861211.000000 1 0 0
6.517608 -4.293385 13.491699 15.586478 -0.582492 0.524443 -0.007508 0.001177 -1091770.000000 1 0 0
0.271808 10.300015 -11.717901 15.603634 1.544413 2.420330 0.000061 -0.003382 -854569.000000 1 0 0
-11.751792 -3.217685 1.475199 12.273317 0.267254 1.450309 -0.007104 -0.000430 3112150.000000 1 0 0
5.236608 6.099315 5.436799 9.704767 0.861356 0.976146 -0.002038 0.002486 -4611060.000000 1 0 0
-6.914992 0.010715 8.130599 10.673512 -0.001550 0.704779 -0.005707 0.004517 -554030.000000 1 0 0
1.807908 2.109715 9.623099 10.016160 0.862285 0.281077 -0.002132 -0.001049 2246340.000000 1 0 0
10.360208 -5.018385 -2.093401 11.700446 -0.451082 1.750681 0.005710 -0.001873 794851.000000 1 0 0
-9.599292 -2.399685 -1.658001 10.032639 0.244965 1.736819 0.000172 -0.001611 -1730460.000000 1 0 0
-2.099192 -5.202485 -9.966201 11.436679 1.187278 2.628895 -0.000462 -0.004158 877368.000000 1 0 0
7.602508 -1.632385 6.535799 10.157730 -0.211505 0.871824 -0.005456 0.001666 1394440.000000 1 0 0
1.479208 -11.920485 -2.613801 12.293005 -1.447338 1.785057 0.001657 0.002726 -3444810.000000 1 0 0
-0.714692 -1.495085 4.863799 5.138346 1.124881 0.328371 -0.003830 0.004494 4004070.000000 1 0 0
7.654708 1.482315 9.868499 12.576927 0.191280 0.668663 -0.006712 0.001761 64763.800000 1 0 0
-3.742092 10.757815 -7.990601 13.913430 -1.236039 2.182556 -0.008179 0.004690 2110750.000000 1 0 0
-9.578892 12.696215 6.407899 17.146726 -0.924442 1.187791 -0.003079 -0.008262 1714910.000000 1 0 0
-2.640592 -2.427185 -11.032701 11.601054 0.743312 2.827278 0.005953 -0.006315 -1244520.000000 1 0 0
1.233708 -11.886585 11.077399 16.294837 -1.467377 0.823292 -0.010601 0.003149 1681270.000000 1 0 0
1.434908 3.427315 -1.965601 4.203456 1.174301 2.057388 -0.005681 0.002610 2572130.000000 1 0 0
-2.013892 -9.366785 -12.044201 15.390101 1.359017 2.469618 -0.010615 0.002172 132507.000000 1 0 0
1.307308 -2.676285 1.594299 3.378364 -1.116408 1.079335 -0.001831 0.003875 2371630.000000 1 0 0
-1.091592 -2.318185 -6.633501 7.111181 1.130713 2.772977 -0.001855 -0.004616 435776.000000 1 0 0
1.789808 5.868215 4.005999 7.327168 1.274758 0.992340 -0.005510 0.004167 -1462200.000000 1 0 0
-10.906592 8.626715 3.709499 14.392162 -0.669207 1.310109 -0.011562 -0.004170 1657810.000000 1 0 0
-16.290792 -1.457685 3.985999 16.834575 0.089241 1.331752 0.004550 -0.004422 48563.700000 1 0 0
-12.075292 0.262115 6.847999 13.884396 -0.021703 1.055014 -0.002441 0.002918 836843.000000 1 0 0
-5.147592 3.137415 4.687899 7.636588 -0.547370 0.909838 -0.005425 0.001742 1101060.000000 1 0 0
5.169708 -6.201785 3.888299 8.961411 -0.875910 1.121986 -0.004266 -0.002531 414726.000000 1 0 0
9.928108 3.549115 6.214899 12.238812 0.343324 1.038164 -0.002934 0.001873 597565.000000 1 0 0
-12.100992 5.881715 3.193099 13.828393 -0.452427 1.337785 -0.005022 -0.001469 790349.000000 1 0 0
-4.792292 12.364215 -1.238501 13.318174 -1.201031 1.663924 -0.009100 0.004669 1966380.000000 1 0 0
-1.690592 -12.199385 10.308899 16.061024 1.433093 0.873877 -0.007831 -0.001339 2182220.000000 1 0 0
5.288608 6.396115 13.821399 16.121747 0.879898 0.540767 0.002140 -0.001904 2113280.000000 1 0 0
12.752608 -3.851085 -5.982101 14.602925 -0.293276 1.992868 0.008427 -0.002457 806918.000000 1 0 0
3.549808 -2.579085 6.361999 7.728379 -0.628318 0.603773 -0.007410 0.002866 1006030.000000 1 0 0
7.244008 -11.856585 -0.661001 13.910111 -1.022350 1.618334 0.008014 -0.005170 966345.000000 1 0 0
-6.101292 -6.590385 -4.087801 9.867576 0.823916 1.997933 0.005906 -0.001219 -91806.200000 1 0 0
0.307808 -8.948585 5.042399 10.276074 -1.536412 1.057911 -0.002583 -0.000050 3035480.000000 1 0 0
-10.200092 2.461215 -0.336701 10.498229 -0.236768 1.602874 -0.003007 -0.000229 -66708.300000 1 0 0
-1.890592 9.015015 -0.327801 9.216957 -1.364076 1.606369 -0.002790 0.002747 1066330.000000 1 0 0
-3.484092 2.275115 -6.570401 7.777224 -0.578482 2.577036 0.007631 -0.006108 -821413.000000 1 0 0
-12.588992 3.005615 6.478099 14.473500 -0.234362 1.106735 0.001417 -0.006114 -1079530.000000 1 0 0
11.282408 1.649915 7.942599 13.896037 0.145209 0.962375 0.008526 -0.000774 -2146740.000000 1 0 0
6.035008 2.704215 -3.220101 7.355485 0.421263 2.023927 -0.006888 0.004408 390657.000000 1 0 0
10.476408 -2.437785 6.391899 12.512166 -0.228624 1.034618 0.008790 -0.002533 2889120.000000 1 0 0
-0.923492 11.120915 4.229299 11.933757 -1.487945 1.208526 0.001540 0.001352 1916790.000000 1 0 0
-1.516692 -12.187885 7.409699 14.343937 1.446990 1.027952 -0.003741 0.003879 -211514.000000 1 0 0
8.067808 8.685015 -7.728201 14.150764 0.822223 2.148538 0.007011 -0.004073 -547111.000000 1 0 0
-4.765292 -5.899585 -8.773601 11.596947 0.891358 2.428808 0.001833 -0.003362 824025.000000 1 0 0
-8.682992 -5.209285 -11.643601 15.430633 0.540376 2.425806 0.008159 -0.002371 1359390.000000 1 0 0
5.938508 -0.676085 -9.979001 11.632001 -0.113360 2.601949 0.001337 0.003453 -1073230.000000 1 0 0
-11.235192 -5.476585 -5.356701 13.598410 0.453557 1.975690 0.003939 -0.004158 -1756620.000000 1 0 0
3.833108 8.987715 -2.773801 10.157053 1.167670 1.847401 0.004175 -0.000687 1193320.000000 1 0 0
11.659308 -10.431285 -4.025801 16.154202 -0.729865 1.822662 0.005646 -0.004028 741313.000000 1 0 0
3.895208 -11.426185 3.845999 12.669730 -1.242250 1.262372 -0.004771 -0.002144 -58304.200000 1 0 0
-0.967992 0.894015 3.291999 3.545917 -0.745690 0.380736 -0.001965 0.002089 -1517020.000000 1 0 0
-10.571292 -5.102085 4.521999 12.579028 0.449660 1.203078 0.001662 0.001468 4721870.000000 1 0 0
4.534108 -8.821285 2.656999 10.268050 -1.096014 1.309054 -0.003671 -0.002588 4887810.000000 1 0 0
-3.740792 -5.709585 2.547099 7.285643 0.990790 1.213647 -0.000011 0.001661 2836250.000000 1 0 0
10.095008 5.146715 12.329999 16.745947 0.471479 0.743214 0.009909 0.003046 369455.000000 1 0 0
1.591408 -12.342085 -5.330801 13.537987 -1.442562 1.975522 -0.000155 0.004531 1884660.000000 1 0 0
9.890708 -10.823985 -1.756701 14.767219 -0.830422 1.690038 0.011873 -0.006460 1011970.000000 1 0 0
9.502108 -4.457985 -9.273701 14.005900 -0.438671 2.294451 0.008530 -0.003073 2172240.000000 1 0 0
-7.548392 -2.979885 -13.024501 15.345865 0.375990 2.584376 -0.003473 -0.002456 2345420.000000 1 0 0
0.577708 6.225515 -2.548601 6.751752 1.478264 1.957862 -0.003394 0.001456 2547800.000000 1 0 0
-6.000592 -9.517985 0.970899 11.293440 1.008289 1.484720 -0.000331 0.001535 1017510.000000 1 0 0
-8.946592 -4.110985 0.603599 9.864382 0.430728 1.509568 -0.005070 0.000745 2283220.000000 1 0 0
1.798308 3.795215 12.072799 12.782411 1.128298 0.334772 -0.000570 -0.004628 384558.000000 1 0 0
6.710708 4.309015 9.594699 12.476356 0.570809 0.693473 -0.003913 0.003405 2885940.000000 1 0 0
-8.206192 9.909715 -3.501201 13.334258 -0.879157 1.836483 -0.007091 0.000363 2348430.000000 1 0 0
16.371608 2.053115 -6.032801 17.568140 0.124756 1.921325 0.007197 0.006234 946775.000000 1 0 0
-11.029292 2.744315 -4.955201 12.398813 -0.243868 1.981933 -0.009761 0.003748 3634100.000000 1 0 0
-13.685692 4.039415 1.569599 14.355440 -0.287007 1.461239 -0.003354 0.001598 -1117940.000000 1 0 0
-17.333192 10.503115 3.459199 20.560180 -0.544786 1.401745 0.018838 -0.007837 -1242450.000000 1 0 0
-14.286192 2.858115 -1.012701 14.604440 -0.197455 1.640194 -0.000381 0.000286 35313.900000 1 0 0
-14.297792 5.102715 5.253299 16.064299 -0.342798 1.237651 0.001870 -0.004452 1292710.000000 1 0 0
-17.313092 7.606015 3.223999 19.183034 -0.413938 1.401930 0.004919 -0.000359 -880704.000000 1 0 0
-14.548992 12.649115 -3.270701 19.554303 -0.715658 1.738849 0.018318 -0.001510 -1158950.000000 1 0 0
-8.431692 12.521815 -9.559501 17.868222 -0.978174 2.135304 -0.007783 -0.004031 159816.000000 1 0 0
-12.227492 9.047215 -9.910001 18.154112 -0.637011 2.148238 -0.013850 0.011105 -1756040.000000 1 0 0
-13.902892 -3.401385 -12.088201 18.734578 0.239940 2.272127 -0.003061 0.001437 -860847.000000 1 0 0
-14.632592 5.897315 -7.605801 17.513974 -0.383112 2.020025 0.006338 0.011923 -1901090.000000 1 0 0
-10.694492 13.542815 -8.307501 19.151882 -0.902380 2.019468 -0.004983 -0.004414 -1231330.000000 1 0 0
-10.826692 13.672815 4.046099 17.903465 -0.901050 1.342832 -0.002841 -0.008006 -1342130.000000 1 0 0
-15.158092 3.357415 3.156999 15.843188 -0.217974 1.370188 0.000663 0.000240 395214.000000 1 0 0
-11.028192 9.625715 -12.563001 19.290008 -0.717599 2.280053 -0.013499 0.004310 -957973.000000 1 0 0
-12.966492 11.724115 -9.005601 19.664324 -0.735123 2.046503 0.003353 -0.003479 -570008.000000 1 0 0
-8.761992 14.558815 -3.406201 17.330141 -1.029029 1.768632 -0.008447 -0.005606 362421.000000 1 0 0
-16.581592 8.354215 -3.952201 18.983203 -0.466703 1.780525 0.028791 0.005206 -384512.000000 1 0 0
-16.833692 6.808215 0.423599 18.163271 -0.384328 1.547472 0.016229 0.006519 -496324.000000 1 0 0
-10.449792 2.875615 -12.492001 16.538361 -0.268537 2.426961 -0.010611 0.000196 25194.100000 1 0 0
-16.820192 0.939215 2.416699 17.018854 -0.055781 1.428313 0.007638 -0.006968 -276255.000000 1 0 0
-12.758792 1.228615 -6.801501 14.510571 -0.096000 2.058646 -0.000423 0.001101 794413.000000 1 0 0
-12.190292 9.094115 -5.463201 16.160220 -0.640944 1.915656 -0.000080 0.005773 366698.000000 1 0 0
-9.572492 14.057415 1.345599 17.060309 -0.972966 1.491841 0.004554 -0.006806 1282500.000000 1 0 0
-12.229792 11.171715 2.987399 16.831505 -0.740215 1.392362 -0.004784 -0.007234 651798.000000 1 0 0
-12.525592 6.956015 -3.647201 14.784406 -0.506937 1.820062 -0.006225 0.006656 400549.000000 1 0 0
-15.486892 3.757715 -9.404301 18.504192 -0.238038 2.103919 -0.011866 0.008895 -1601950.000000 1 0 0
-15.057592 5.905515 -4.604401 16.816857 -0.373760 1.848135 0.011116 0.008637 1411730.000000 1 0 0
-18.014492 5.299015 7.534099 20.232749 -0.286084 1.189233 0.023225 -0.005240 -684930.000000 1 0 0
-15.715192 10.189215 -1.913801 18.826842 -0.575227 1.672625 0.027258 0.005067 -1777810.000000 1 0 0
-8.612592 9.963415 -8.273701 15.553151 -0.857989 2.131713 -0.008990 -0.001477 -622674.000000 1 0 0
-16.999192 4.294215 -1.086601 17.566830 -0.247436 1.632691 0.011819 0.002828 733575.000000 1 0 0
-10.186192 5.524515 -4.497101 12.429911 -0.496954 1.940991 -0.006461 0.004151 443435.000000 1 0 0
-18.264592 2.698115 6.190799 19.473087 -0.146663 1.247266 0.015660 -0.003498 553756.000000 1 0 0
-10.100292 10.195915 -5.709201 15.445632 -0.790110 1.949409 -0.008651 -0.001288 2842180.000000 1 0 0
-15.445392 0.356715 -5.785701 16.497324 -0.023091 1.929121 0.001830 0.002281 -1961310.000000 1 0 0
-16.385292 -4.083285 -8.778001 19.031666 0.244230 2.050179 -0.009404 -0.000978 -1529640.000000 1 0 0
-9.968592 9.804615 -0.973901 14.016126 -0.777105 1.640337 -0.008833 -0.000483 2237470.000000 1 0 0
-17.323292 -2.921585 -3.124401 17.843598 0.167078 1.746803 -0.002406 -0.001491 222936.000000 1 0 0
-11.904192 5.187215 -11.538901 17.371333 -0.410938 2.297286 -0.009925 0.005230 267360.000000 1 0 0
-16.250092 7.097315 6.030899 18.729899 -0.411785 1.242962 0.005892 -0.003299 157328.000000 1 0 0
-12.036092 6.257715 -8.778801 16.158399 -0.479450 2.145155 -0.006506 0.009267 1143100.000000 1 0 0
-14.509292 8.478515 -0.000001 16.804903 -0.528833 1.570796 0.010277 0.003714 1211870.000000 1 0 0
-14.967192 11.989515 4.011899 19.592362 -0.675383 1.364569 0.008620 -0.013067 883014.000000 1 0 0
-17.182092 4.115515 -3.928201 18.099517 -0.235094 1.789571 0.007522 0.002505 -1665010.000000 1 0 0
-13.872192 13.623915 -0.575501 19.451991 -0.776369 1.600386 0.019543 -0.002448 -39039.600000 1 0 0
-10.063992 6.966915 -13.127301 17.948478 -0.605514 2.391151 -0.017837 0.003414 215859.000000 1 0 0
-15.888892 -1.119585 -8.339401 17.979320 0.070347 2.053113 -0.003564 -0.000011 187445.000000 1 0 0
-11.488092 12.004515 0.165699 16.616621 -0.807377 1.560824 0.003710 -0.005081 -9547.560000 1 0 0
-11.930592 7.485015 -0.875701 14.111390 -0.560309 1.632893 -0.009720 0.004469 1669840.000000 1 0 0
-11.504492 0.254615 -11.595601 16.336344 -0.022128 2.360016 -0.003313 -0.003016 -684698.000000 1 0 0
-19.041892 -1.094485 -4.594001 19.618776 0.057415 1.807154 -0.000707 -0.007110 -1004560.000000 1 0 0
-17.899692 1.552815 -4.958501 18.638587 -0.086534 1.840073 -0.003926 0.000504 -688361.000000 1 0 0
-13.310992 -0.020085 -9.382501 16.285399 0.001509 2.184782 -0.004081 -0.000105 -403109.000000 1 0 0
-6.060592 11.300715 -13.316201 18.486702 -1.078531 2.375049 -0.014632 0.004002 -2162670.000000 1 0 0
16.360208 5.874715 7.035499 18.752785 0.344746 1.186215 0.022645 -0.004040 -409065.000000 1 0 0
14.840208 10.134115 -5.635801 18.833330 0.599145 1.874699 0.022350 0.001459 -414631.000000 1 0 0
2.395408 16.916715 4.406699 17.644609 1.430131 1.318377 0.013893 -0.003771 536840.000000 1 0 0
-3.875992 18.404615 -5.805001 19.683780 -1.363231 1.870161 -0.001819 0.004019 1512420.000000 1 0 0
5.461208 14.564415 5.587799 16.527870 1.212053 1.225917 0.007113 -0.005512 2279410.000000 1 0 0
9.740808 5.973715 15.110399 18.944466 0.550117 0.647465 0.013862 0.000805 -1156560.000000 1 0 0
4.693008 12.818615 -1.081001 13.693421 1.219843 1.649822 0.007216 -0.000498 1328980.000000 1 0 0
3.622408 13.818415 12.932499 19.269664 1.314422 0.835061 -0.004359 -0.007025 577668.000000 1 0 0
-0.766292 12.327215 9.288599 15.453980 -1.508714 0.925983 0.001373 -0.003376 308426.000000 1 0 0
-7.790592 13.960815 8.417499 18.067982 -1.061807 1.086168 0.010221 -0.013884 1698170.000000 1 0 0
11.369508 12.956015 -4.198001 17.741118 0.850526 1.809688 0.023951 0.004675 1633940.000000 1 0 0
-5.787592 16.107215 0.921899 17.140259 -1.225846 1.516985 -0.003442 0.000631 1564070.000000 1 0 0
3.285208 10.629615 6.794999 13.036615 1.271047 1.022512 0.004252 0.002423 1858660.000000 1 0 0
-1.209092 15.585115 2.520799 15.833892 -1.493372 1.410913 0.000334 0.000758 -2605330.000000 1 0 0
9.937608 8.828415 9.511699 16.345317 0.726360 0.949706 0.004478 0.001142 2563870.000000 1 0 0
7.415208 12.359115 6.108499 15.653971 1.030392 1.169925 0.007398 -0.004667 544056.000000 1 0 0
11.832008 14.164015 -1.550201 18.520769 0.874865 1.654595 0.024402 0.004915 -430337.000000 1 0 0
9.625808 16.077315 -1.189001 18.776314 1.031319 1.634163 0.017492 0.000300 889011.000000 1 0 0
10.198108 13.743815 2.898699 17.357889 0.932426 1.403014 0.020071 -0.005069 1728210.000000 1 0 0
-6.037592 14.594315 6.317799 17.010618 -1.178540 1.190276 -0.003156 -0.008004 -1201270.000000 1 0 0
-0.930392 18.265115 -6.207301 19.313484 -1.519902 1.898001 0.014112 0.005135 1638470.000000 1 0 0
-3.566792 15.802715 5.484499 17.103436 -1.348809 1.244363 -0.000215 -0.003595 2255900.000000 1 0 0
7.064408 12.288815 10.610699 17.706151 1.049064 0.928212 -0.000842 -0.002875 2762610.000000 1 0 0
1.459208 14.583715 6.311199 15.957608 1.471071 1.164187 0.005541 -0.002516 994584.000000 1 0 0
17.388408 7.572415 -1.407801 19.017889 0.410719 1.644889 -0.002711 0.008219 476533.000000 1 0 0
2.054208 16.242615 -3.305501 16.702355 1.444994 1.770018 -0.000822 0.002790 -1058680.000000 1 0 0
6.687908 11.187115 0.593199 13.047281 1.031980 1.525315 0.011490 0.000443 2830850.000000 1 0 0
12.756108 9.331315 3.160099 16.117629 0.631567 1.373453 0.009981 -0.000800 -2485180.000000 1 0 0
5.990408 14.345615 -3.466601 15.927931 1.175229 1.790195 0.001469 0.004534 538514.000000 1 0 0
3.159208 16.639515 1.581299 17.010425 1.383168 1.477701 0.009729 -0.003068 -353807.000000 1 0 0
2.659008 19.038815 -2.634201 19.403243 1.432031 1.706978 0.005196 -0.002819 -1034870.000000 1 0 0
3.989808 11.908315 10.699799 16.498856 1.247507 0.865161 -0.001786 -0.006162 2388970.000000 1 0 0
8.121608 11.526515 3.308999 14.483458 0.956988 1.340293 0.009584 -0.000314 1255350.000000 1 0 0
0.794208 12.622615 0.246999 12.649988 1.507960 1.551269 0.002161 0.001660 -597560.000000 1 0 0
12.010408 9.984115 -4.659401 16.298542 0.693530 1.860719 0.014790 0.005200 2169560.000000 1 0 0
-1.208992 16.391415 9.959499 19.218006 -1.497172 1.026007 -0.000348 -0.007236 554475.000000 1 0 0
8.136408 14.818815 -8.059401 18.728384 1.068676 2.015656 0.016930 0.003166 1158550.000000 1 0 0
14.392308 7.570915 -1.381301 16.320701 0.484261 1.655533 -0.000269 0.006276 389363.000000 1 0 0
12.488608 8.371315 6.000499 16.187966 0.590525 1.191059 0.003478 -0.000925 376699.000000 1 0 0
-3.003892 14.151615 10.251499 17.730900 -1.361636 0.954311 0.006223 -0.015051 1934300.000000 1 0 0
-4.647692 17.195515 -3.110901 18.082159 -1.306819 1.743699 0.004146 -0.000242 645162.000000 1 0 0
-7.150192 16.420615 -1.700701 17.990393 -1.160116 1.665472 0.003127 -0.002392 -182327.000000 1 0 0
8.406608 11.348915 -1.880601 14.248003 0.933247 1.703173 0.010080 0.002863 -1694160.000000 1 0 0
8.527108 13.066315 -4.187701 16.154783 0.992594 1.833015 0.017358 0.003756 744307.000000 1 0 0
2.590108 14.778015 -7.407501 16.732288 1.397291 2.029412 -0.000877 -0.001740 -675050.000000 1 0 0
11.460508 11.306715 9.773899 18.833857 0.778643 1.025170 0.009927 0.001291 321082.000000 1 0 0
8.619408 15.928215 1.572099 18.178937 1.074780 1.484209 0.019477 -0.000095 1121360.000000 1 0 0
6.134908 10.071415 7.660399 14.062440 1.023683 0.994715 0.008545 0.002674 2240700.000000 1 0 0
14.534208 11.406215 2.597199 18.657181 0.665394 1.431136 0.018802 -0.001447 1061900.000000 1 0 0
12.205008 12.699915 1.025399 17.643739 0.805267 1.512647 0.022213 -0.002024 1168100.000000 1 0 0
5.145708 15.788615 8.235599 18.536013 1.255739 1.110401 0.012018 -0.006915 -784487.000000 1 0 0
11.639408 14.912815 5.035199 19.576034 0.908061 1.310660 0.023277 -0.007602 -682837.000000 1 0 0
6.015808 17.126815 1.857799 18.247443 1.233008 1.468808 0.012351 -0.003368 558988.000000 1 0 0
-0.614192 16.244515 -4.180201 16.784981 -1.533005 1.822489 0.004623 0.001638 1398830.000000 1 0 0
16.014308 6.401415 2.521799 17.429735 0.380274 1.425603 -0.007491 -0.001175 405147.000000 1 0 0
7.513808 16.861715 -3.170601 18.730389 1.151596 1.740891 0.005689 0.005974 -44654.900000 1 0 0
14.848808 8.176815 7.504199 18.538080 0.503359 1.154037 0.020187 -0.001410 541029.000000 1 0 0
2.083708 12.853515 8.635799 15.624715 1.410083 0.985194 0.005339 -0.004858 1501000.000000 1 0 0
15.898808 7.379215 -5.967801 18.515928 0.434547 1.898961 0.003484 0.010922 -2431060.000000 1 0 0
-2.983392 17.028415 0.755099 17.304269 -1.397356 1.527146 -0.004748 0.002137 1292440.000000 1 0 0
-2.890592 18.672915 4.599199 19.447003 -1.417214 1.332035 0.002085 -0.002075 1399630.000000 1 0 0
-0.926692 19.153615 0.951699 19.199621 -1.522452 1.521207 0.001818 -0.000907 1096250.000000 1 0 0
6.934808 16.847115 -6.138701 19.224997 1.180303 1.895796 0.005273 0.005136 -226968.000000 1 0 0
11.134508 10.119815 0.738899 15.064326 0.737694 1.521727 0.010685 0.001127 -2674650.000000 1 0 0
9.075008 8.665315 14.278699 19.008543 0.762308 0.720959 0.005665 -0.004448 968647.000000 1 0 0
6.450808 12.409915 -8.380401 16.304909 1.091426 2.110615 0.010971 -0.004260 1296420.000000 1 0 0
6.298008 9.079415 13.284599 17.279504 0.964339 0.693823 0.000383 -0.006451 713397.000000 1 0 0
16.743908 9.343315 2.855799 19.385861 0.508974 1.422945 0.008278 -0.004938 -1302400.000000 1 0 0
2.603708 14.823215 -0.701701 15.066499 1.396919 1.617387 0.002912 0.002861 562793.000000 1 0 0
9.197508 12.866515 8.364599 17.891559 0.950179 1.084317 0.012325 -0.006182 2278010.000000 1 0 0
7.206608 9.401315 10.462599 15.804617 0.916785 0.847317 0.001219 -0.002735 1161810.000000 1 0 0
4.274408 15.857715 -5.317901 17.263191 1.307506 1.883937 -0.000370 0.004461 2522760.000000 1 0 0
0.232108 16.388615 -8.230901 18.340892 1.556634 2.036188 0.009890 0.003472 116652.000000 1 0 0
-2.402092 15.808115 -1.970201 16.110501 -1.419997 1.693396 -0.003563 0.005655 -364938.000000 1 0 0
13.363408 10.567515 7.628699 18.666818 0.669094 1.149792 0.010229 0.001887 2449410.000000 1 0 0
-0.990192 15.806015 7.118599 17.363325 -1.508232 1.148365 0.000702 -0.008900 2417300.000000 1 0 0
13.378008 13.342915 6.721799 20.054602 0.784085 1.229005 0.014153 -0.005746 -1355860.000000 1 0 0
5.331208 17.409015 4.634599 18.787632 1.273631 1.321540 0.010347 -0.006519 1040550.000000 1 0 0
10.834708 9.614115 -1.908201 14.610385 0.725779 1.701776 0.010120 0.005230 1097860.000000 1 0 0
3.190108 12.730315 4.744699 13.955282 1.325261 1.223887 0.005269 0.000927 707843.000000 1 0 0
-0.188392 18.066715 3.586999 18.420322 -1.560369 1.374814 0.005639 -0.004463 3452480.000000 1 0 0
-7.672992 15.971115 -5.769201 18.634243 -1.122928 1.885571 0.005870 -0.004760 730178.000000 1 0 0
-12.290992 -9.186785 8.326099 17.458219 0.641861 1.073654 0.005499 0.002625 -906029.000000 1 0 0
-13.230792 -11.745585 6.948599 19.007778 0.726004 1.196555 0.004963 0.005382 -1279480.000000 1 0 0
-6.541492 -12.306685 12.354899 18.624960 1.082236 0.845507 0.014563 -0.003550 -197954.000000 1 0 0
-1.733892 -10.567785 14.345899 17.902214 1.408172 0.641251 -0.008777 -0.004159 958324.000000 1 0 0
-8.754392 2.920415 11.014899 14.369975 -0.321985 0.697389 -0.007384 0.005290 142104.000000 1 0 0
0.650808 10.125115 15.191999 18.268507 1.506608 0.588823 0.009033 -0.008389 837061.000000 1 0 0
1.066508 -6.758985 16.667099 18.017034 -1.414295 0.389565 -0.003919 -0.004061 3056070.000000 1 0 0
6.094508 2.407315 17.703299 18.877102 0.376186 0.354504 0.005822 -0.005519 2300300.000000 1 0 0
-5.037692 -2.986285 17.706499 18.649835 0.535100 0.319417 0.027752 -0.018567 1669180.000000 1 0 0
-4.380892 8.097215 13.105799 16.016213 -1.074861 0.612378 0.001971 -0.005886 805107.000000 1 0 0
0.189108 -4.797485 18.641799 19.250150 -1.531398 0.252073 0.009322 -0.013461 927740.000000 1 0 0
-11.453192 2.006715 11.291999 16.208385 -0.173450 0.800042 0.003465 0.002374 -310680.000000 1 0 0
-3.256592 -6.026985 14.418699 15.963358 1.075404 0.443542 0.011494 -0.011588 2260930.000000 1 0 0
-7.405992 -2.292785 14.635999 16.562549 0.300227 0.487129 0.009290 -0.004269 2876700.000000 1 0 0
-6.078192 -1.114685 10.639399 12.303810 0.181375 0.526196 0.000611 0.002741 1739720.000000 1 0 0
-3.954392 2.451715 11.239099 12.164106 -0.554994 0.392499 -0.003783 0.004038 888460.000000 1 0 0
-6.418392 6.176015 13.678999 16.323416 -0.766156 0.577191 -0.005036 -0.002341 454462.000000 1 0 0
-8.999492 5.438415 12.612899 16.421097 -0.543577 0.694942 -0.006413 -0.000204 -1500610.000000 1 0 0
-12.141592 -2.317585 15.973299 20.197419 0.188611 0.658586 0.010579 0.005795 433896.000000 1 0 0
-3.356792 -7.562885 17.015999 18.921139 1.153068 0.452604 0.017652 -0.012014 -1887980.000000 1 0 0
-0.417092 -5.302485 14.459999 15.407202 1.492298 0.352472 0.002287 -0.004473 1908430.000000 1 0 0
-14.098992 -2.293185 13.752899 19.828830 0.161237 0.804348 0.005737 0.004181 -349395.000000 1 0 0
-6.449192 1.503115 12.263199 13.936911 -0.228982 0.495128 -0.004459 0.003321 853253.000000 1 0 0
2.338708 -2.229185 14.511899 14.867213 -0.761426 0.219066 -0.005227 -0.001769 -59145.700000 1 0 0
-12.485992 3.958715 9.329699 16.081502 -0.307027 0.951882 -0.000536 0.000690 -843015.000000 1 0 0
-9.057692 -3.052985 12.571699 15.792723 0.325101 0.650066 0.000844 0.004359 2200220.000000 1 0 0
-7.063892 -7.250385 15.420999 18.446513 0.798426 0.580872 0.022204 -0.008505 -1114610.000000 1 0 0
-3.061592 6.177415 19.448999 20.634858 -1.110667 0.340669 0.012917 -0.005483 265833.000000 1 0 0
0.762708 5.447315 16.250499 17.156156 1.431685 0.326374 0.005654 -0.006698 1116160.000000 1 0 0
3.467408 1.484915 16.625099 17.047633 0.404620 0.223108 -0.000022 -0.003178 1685390.000000 1 0 0
-11.749792 11.450115 7.875099 18.198349 -0.772482 1.123270 0.008037 -0.013935 -566026.000000 1 0 0
0.709708 -9.373785 15.489599 18.119029 -1.495228 0.545476 -0.012869 0.003903 390802.000000 1 0 0
-2.360792 -3.512785 18.811399 19.281642 0.979071 0.221305 0.025337 -0.022455 1429980.000000 1 0 0
-12.728792 2.160515 13.854799 18.937936 -0.168132 0.750145 -0.000415 0.000230 410.447000 1 0 0
-5.260792 -0.617185 15.860699 16.721801 0.116784 0.322316 0.013791 -0.005353 1815940.000000 1 0 0
-4.467592 -5.978385 11.734399 13.906710 0.929031 0.566482 0.004560 -0.002632 826961.000000 1 0 0
2.480408 1.740115 13.881199 14.208030 0.611761 0.214905 -0.004172 -0.003706 774657.000000 1 0 0
0.146608 3.320615 14.338299 14.718519 1.526674 0.227793 0.009204 -0.004702 -381769.000000 1 0 0
-13.001192 7.118415 12.143399 19.161549 -0.500937 0.884421 0.012845 -0.000504 662381.000000 1 0 0
0.924008 1.353315 18.183699 18.257386 0.971725 0.089875 0.002197 -0.001441 65679.400000 1 0 0
-2.058392 6.433015 12.543099 14.246052 -1.261118 0.493962 -0.002756 -0.002003 1045880.000000 1 0 0
-13.441692 -2.674385 10.927099 17.528060 0.196397 0.897705 0.009132 0.004349 -513124.000000 1 0 0
-2.526492 3.623415 13.604099 14.303279 -0.961906 0.313962 0.003241 0.001596 -50959.600000 1 0 0
3.643908 6.056315 16.354199 17.816196 1.029149 0.407940 0.002421 -0.002984 -102948.000000 1 0 0
-3.685092 12.367715 12.461399 17.939530 -1.281212 0.802886 0.005887 -0.010435 1311190.000000 1 0 0
3.788008 -1.459485 17.040499 17.517354 -0.367762 0.233864 -0.001594 0.001102 283756.000000 1 0 0
-15.591092 0.700415 9.300099 18.167679 -0.044894 1.033397 0.002235 -0.001128 -356904.000000 1 0 0
-4.702692 4.571515 15.307799 16.653611 -0.771255 0.404783 0.006188 -0.001951 -551993.000000 1 0 0
-7.927192 -8.136785 10.504799 15.472506 0.798445 0.824488 0.010281 0.001001 3076350.000000 1 0 0
-2.549892 -0.448385 14.752999 14.978450 0.174065 0.173722 0.012980 -0.005554 1938390.000000 1 0 0
-1.802292 1.004815 17.226399 17.349545 -0.508599 0.119217 0.008764 -0.005465 493465.000000 1 0 0
-0.551492 -2.436685 14.370299 14.585852 1.348218 0.172132 0.006650 -0.005797 191748.000000 1 0 0
5.146808 -8.384585 16.546499 19.250390 -1.020261 0.536426 -0.004451 0.013492 1007640.000000 1 0 0
-4.499092 9.955315 10.767499 15.339138 -1.146340 0.792647 0.001896 -0.005129 -1838580.000000 1 0 0
-6.167292 2.060215 15.313099 16.636435 -0.322400 0.401552 0.005359 0.003040 -25657.200000 1 0 0
-4.956992 6.867415 17.309399 19.270403 -0.945580 0.455054 0.013174 -0.005097 -1225310.000000 1 0 0
-4.120492 9.185115 15.710799 18.659421 -1.149103 0.569860 0.010107 -0.014253 -618810.000000 1 0 0
-4.520192 -9.867685 18.382599 21.347676 1.141243 0.533357 0.028574 -0.012564 -1311540.000000 1 0 0
-6.783792 -4.090285 11.103099 13.639247 0.542586 0.619696 0.003365 0.003501 2160420.000000 1 0 0
-2.278892 -0.689285 19.577699 19.721936 0.293717 0.121016 0.018874 -0.007360 -198994.000000 1 0 0
-5.666892 -4.517385 15.340199 16.965911 0.673003 0.441346 0.019439 -0.010821 2224300.000000 1 0 0
-12.696592 -0.021585 9.788199 16.031617 0.001700 0.914034 0.002008 0.003968 1889170.000000 1 0 0
-14.415792 8.613315 10.169999 19.632451 -0.538573 1.026262 0.012721 -0.006652 -1251290.000000 1 0 0
-8.256592 10.509015 12.897899 18.573274 -0.904856 0.803164 0.000654 -0.013848 -719635.000000 1 0 0
-10.400492 7.238615 10.765299 16.627069 -0.608028 0.866555 -0.003236 -0.000225 123328.000000 1 0 0
-9.708192 -6.564585 14.829599 18.901316 0.594567 0.668778 0.010897 -0.007853 -127190.000000 1 0 0
-0.737092 -13.327585 14.460099 19.678981 1.515547 0.745426 -0.018118 -0.007367 -790480.000000 1 0 0
3.959908 -5.753985 16.948699 18.331601 -0.968032 0.390912 -0.005566 0.002779 1951880.000000 1 0 0
-7.248592 9.393115 10.369499 15.757512 -0.913556 0.852548 -0.003040 -0.008643 -219177.000000 1 0 0
-10.270892 -6.709385 11.839099 17.049086 0.578651 0.803193 0.007076 -0.001933 2738580.000000 1 0 0
-10.923592 -3.989585 10.718199 15.815228 0.350175 0.826147 0.004886 0.006993 -473534.000000 1 0 0
-9.970492 -10.315985 9.910399 17.436922 0.802427 0.966289 0.008475 -0.001031 1883850.000000 1 0 0
-9.814292 -3.652285 15.262699 18.509713 0.356260 0.601341 0.014501 -0.007192 -307832.000000 1 0 0
5.662508 -3.424785 16.075099 17.383957 -0.543954 0.390526 -0.004579 0.003474 301337.000000 1 0 0
-11.216892 0.407215 15.602399 19.220284 -0.036288 0.623624 0.005806 0.008419 -1122890.000000 1 0 0
-3.031992 3.337015 18.740099 19.274853 -0.833253 0.236105 0.013574 -0.005430 502277.000000 1 0 0
0.504208 7.377415 13.959199 15.796826 1.502558 0.487149 0.004128 -0.007172 1247180.000000 1 0 0
-13.076392 -7.578385 12.269899 19.467264 0.525245 0.888878 0.003740 0.001016 1017690.000000 1 0 0
-1.362492 -0.999585 12.082299 12.199898 0.632951 0.138959 0.002585 -0.001548 682052.000000 1 0 0
2.129108 -4.856785 13.110299 14.142185 -1.157649 0.384370 -0.009205 -0.001818 705147.000000 1 0 0
-14.531392 -4.106485 8.644299 17.399668 0.275413 1.050879 0.006999 -0.001170 -1336680.000000 1 0 0
8.121708 0.919715 16.095299 18.051777 0.112761 0.469889 0.003446 -0.000651 -335108.000000 1 0 0
-1.185392 11.386415 13.451999 17.663858 -1.467064 0.705087 0.001984 -0.005961 -353379.000000 1 0 0
2.597508 -12.406985 -13.812101 18.747119 -1.364419 2.399060 -0.007108 0.016398 -455816.000000 1 0 0
0.616508 -10.748385 -13.972101 17.638806 -1.513501 2.485076 -0.016524 0.015231 -2269810.000000 1 0 0
3.019508 -14.621985 -12.398601 19.407349 -1.367154 2.263813 -0.010017 0.016507 351427.000000 1 0 0
-5.257292 -9.972885 -16.110801 19.663557 1.085659 2.531025 -0.008711 -0.002919 -941469.000000 1 0 0
-1.387092 -12.134985 -15.043801 19.377766 1.456985 2.459640 -0.007742 0.012281 -181204.000000 1 0 0
5.560908 -15.038385 -12.065101 20.065976 -1.216609 2.215888 -0.007145 0.008961 -225472.000000 1 0 0
1.602808 -11.931385 -16.146801 20.140659 -1.437260 2.500933 -0.009548 0.017286 -848794.000000 1 0 0
0.953408 -14.389485 -14.111101 20.176457 -1.504636 2.345332 -0.009640 0.019965 -270883.000000 1 0 0
-1.274992 -10.648985 -15.921501 19.196892 1.451635 2.548792 -0.008888 0.006778 -426428.000000 1 0 0
-6.104292 -5.520785 -15.065701 17.167318 0.735246 2.641588 0.000487 -0.004835 251661.000000 1 0 0
-6.604592 -7.531985 -16.531901 19.330162 0.850907 2.596807 -0.003674 -0.001941 366651.000000 1 0 0
4.729208 -12.656585 -11.569501 17.787858 -1.213205 2.278928 -0.008107 0.012460 -542657.000000 1 0 0
-1.977292 -15.655485 -13.238401 20.597552 1.445161 2.268836 -0.005757 0.012843 73287.400000 1 0 0
15.347108 -7.592285 -8.981301 19.334950 -0.459402 2.053879 -0.008341 -0.003484 424652.000000 1 0 0
19.115908 -3.592585 -4.663201 20.001752 -0.185770 1.806101 -0.009053 -0.001681 771538.000000 1 0 0
14.567908 -11.834785 -9.113901 20.865025 -0.682249 2.022838 0.001944 0.000341 510605.000000 1 0 0
17.718908 -3.679785 -6.714801 19.302567 -0.204765 1.926096 0.023214 -0.004836 545844.000000 1 0 0
9.393808 -9.120885 -15.616601 20.379215 -0.770658 2.443859 0.021397 0.004626 44999.100000 1 0 0
1.169408 1.918115 -15.217801 15.382723 1.023300 2.995029 0.012152 -0.007934 196895.000000 1 0 0
4.621408 -4.359485 -13.872201 15.257801 -0.756242 2.712125 -0.000264 0.007483 451795.000000 1 0 0
12.859808 -5.576985 -8.636501 16.464100 -0.409196 2.123001 0.017617 -0.007649 -874617.000000 1 0 0
2.947508 0.884415 -12.249701 12.630328 0.291507 2.895469 0.001984 -0.001447 -4306090.000000 1 0 0
0.654708 6.369115 -12.988601 14.480954 1.468362 2.683604 0.011642 -0.005508 450470.000000 1 0 0
3.018108 -1.152385 -16.802001 17.109769 -0.364739 2.951634 0.019591 -0.005411 -302981.000000 1 0 0
13.214808 4.534815 -11.552201 18.128681 0.330570 2.261699 0.006334 0.006458 1601240.000000 1 0 0
-3.810892 9.488715 -16.605901 19.501655 -1.188891 2.589659 0.002251 0.001053 376682.000000 1 0 0
-0.454092 -5.105785 -17.746001 18.471486 1.482093 2.860396 0.007864 -0.002544 562407.000000 1 0 0
-0.722692 -8.685785 -17.580401 19.622325 1.487784 2.681336 0.003519 0.003565 -2098470.000000 1 0 0
5.244908 -10.220185 -12.393301 16.898377 -1.096652 2.394109 -0.009879 0.009553 526860.000000 1 0 0
1.465708 -9.876985 -18.185201 20.746197 -1.423475 2.639455 0.002513 0.013575 -141010.000000 1 0 0
10.983408 8.669015 -14.516901 20.162527 0.668172 2.374590 0.023070 -0.009560 5100.170000 1 0 0
10.952408 -3.946085 -13.013501 17.460757 -0.345816 2.411781 0.017676 -0.000092 184724.000000 1 0 0
4.927808 7.458015 -12.253601 15.167598 0.986908 2.511343 0.001299 -0.001292 -306687.000000 1 0 0
9.264808 -5.888985 -12.737901 16.815794 -0.566206 2.430266 0.002341 -0.000128 -1186110.000000 1 0 0
-3.402992 0.398815 -15.960301 16.323928 -0.116663 2.930127 0.004749 -0.007820 -1045690.000000 1 0 0
-0.698292 10.791515 -12.881301 16.818809 -1.506179 2.443216 0.000044 -0.002850 -1218970.000000 1 0 0
6.381008 -5.566485 -12.475801 15.078085 -0.717328 2.545281 -0.002468 0.005415 -811491.000000 1 0 0
17.565308 -6.439785 -8.320301 20.475309 -0.351403 1.989261 -0.000674 -0.011417 -649646.000000 1 0 0
13.371008 4.704615 -14.113501 20.002704 0.338324 2.354037 0.018800 0.000775 553034.000000 1 0 0
14.042008 0.811015 -11.524001 18.183464 0.057692 2.257204 0.001332 0.003116 -375821.000000 1 0 0
15.207308 6.185515 -10.921401 19.718008 0.386309 2.157813 0.014042 -0.003485 -168996.000000 1 0 0
8.302308 1.459815 -11.699201 14.419802 0.174053 2.517218 0.003176 0.006425 1052510.000000 1 0 0
9.767608 1.222715 -8.935101 13.294256 0.124533 2.307841 -0.000138 0.004727 492658.000000 1 0 0
-0.309492 -5.815185 -13.177901 14.407263 1.517625 2.725489 -0.005725 0.001364 223632.000000 1 0 0
10.315008 -5.791885 -9.139301 14.948985 -0.511630 2.228582 0.010761 -0.005159 -1107830.000000 1 0 0
10.249308 8.454315 -11.134901 17.335218 0.689721 2.268329 0.016849 -0.007438 901941.000000 1 0 0
8.411108 8.018115 -14.624001 18.678820 0.761482 2.470140 0.020377 -0.004760 547641.000000 1 0 0
8.744108 10.565715 -10.642201 17.359442 0.879456 2.230711 0.021772 -0.009341 -153460.000000 1 0 0
6.940708 1.860615 -18.061701 19.438631 0.261915 2.762945 0.011526 0.012237 -1151890.000000 1 0 0
12.208808 2.578115 -12.897501 17.945674 0.208111 2.372723 0.005603 0.003706 -611719.000000 1 0 0
2.654308 -0.817285 -19.295701 19.494548 -0.298697 2.998642 0.029513 -0.012421 -183984.000000 1 0 0
10.183208 -2.024285 -15.439701 18.605909 -0.196229 2.549595 0.006533 -0.001630 -206338.000000 1 0 0
8.232308 -0.908485 -13.049301 15.455760 -0.109911 2.576054 0.008933 0.002491 830731.000000 1 0 0
0.478208 4.386015 -14.702201 15.349936 1.462195 2.850052 0.011619 -0.006783 -612401.000000 1 0 0
3.798208 -7.847085 -15.801701 18.047074 -1.120008 2.637437 0.002201 0.010381 -2991220.000000 1 0 0
11.176908 -5.938585 -14.563101 19.294403 -0.488393 2.426121 0.017487 0.000097 -1215550.000000 1 0 0
-6.028692 4.306915 -16.777001 18.340186 -0.620327 2.725728 0.000555 -0.005021 84040.600000 1 0 0
11.378208 7.817315 -9.024101 16.492678 0.601977 2.149761 0.014678 -0.003507 -1612730.000000 1 0 0
9.558608 6.049515 -13.472501 17.591814 0.564250 2.443142 0.011449 0.002054 -924948.000000 1 0 0
12.018108 0.552415 -10.063701 15.684966 0.045933 2.267398 0.005668 0.004840 -292905.000000 1 0 0
5.303808 -7.282485 -13.868501 16.537844 -0.941331 2.565489 -0.004439 0.010288 -936689.000000 1 0 0
8.447108 -10.223585 -10.795001 17.099923 -0.880260 2.254011 0.001832 0.004792 416453.000000 1 0 0
10.081708 4.967615 -16.066201 19.607164 0.457819 2.531168 0.007900 0.008580 406308.000000 1 0 0
9.866308 -0.473285 -10.936401 14.736788 -0.047933 2.407018 0.004459 0.003837 -218396.000000 1 0 0
-1.713692 5.495815 -13.997901 15.135454 -1.268533 2.751416 0.005930 -0.005958 -358310.000000 1 0 0
1.242408 -0.698185 -14.994201 15.061776 -0.511980 3.046831 0.010513 -0.003145 146511.000000 1 0 0
11.135908 -10.497685 -14.259901 20.917806 -0.755905 2.320895 0.023631 0.003102 -793896.000000 1 0 0
9.218808 -7.713885 -10.812801 16.168089 -0.696754 2.303355 0.007261 -0.000148 -736663.000000 1 0 0
13.971208 -1.097185 -9.764001 17.080228 -0.078371 2.179318 0.003578 0.001880 805561.000000 1 0 0
4.065008 11.117615 -12.286301 17.061033 1.220260 2.374798 0.009678 -0.012108 -703375.000000 1 0 0
-1.528092 2.846115 -16.792401 17.100297 -1.078063 2.951542 0.008984 -0.011174 -576339.000000 1 0 0
5.754708 -0.382385 -17.888901 18.795629 -0.066350 2.829713 0.002947 0.010209 6180.760000 1 0 0
6.080808 -6.705485 -16.282001 18.629099 -0.834215 2.634189 0.006994 0.012520 185299.000000 1 0 0
-1.885392 -5.037585 -20.064601 20.773064 1.212670 2.879675 0.017027 -0.003285 -682245.000000 1 0 0
-0.183292 -4.335085 -15.274301 15.878628 1.528541 2.864815 0.002345 -0.001759 -539748.000000 1 0 0
0.445008 0.749715 -12.948001 12.977320 1.035118 3.074360 0.005487 -0.006019 347952.000000 1 0 0
15.252508 0.597115 -13.761401 20.551684 0.039129 2.304466 -0.008826 0.002136 712368.000000 1 0 0
-0.021292 7.014515 -16.339801 17.781816 -1.567761 2.736092 0.012003 -0.004806 -436418.000000 1 0 0
-5.255392 -0.471685 -18.122801 18.875316 0.089513 2.858272 -0.001813 -0.008630 -384413.000000 1 0 0
10.170308 -8.349885 -13.155801 18.607280 -0.687419 2.356078 0.008852 -0.004974 814233.000000 1 0 0
4.216808 8.691415 -17.222401 19.746728 1.119083 2.630406 0.007873 -0.011657 -70439.800000 1 0 0
9.066608 0.368215 -17.288301 19.524967 0.040590 2.658249 0.001943 0.013115 -58434.000000 1 0 0
3.431408 4.831615 -18.520501 19.445514 0.953258 2.831911 0.013809 -0.002472 749348.000000 1 0 0
1.337908 -8.185585 -15.954301 17.981477 -1.408782 2.662174 -0.005621 0.006410 75330.000000 1 0 0
4.523908 7.811915 -14.883901 17.407535 1.045884 2.596398 0.002278 -0.003597 1039990.000000 1 0 0
-5.730492 -0.386085 -15.133501 16.186737 0.067272 2.778864 -0.002460 -0.007502 -414732.000000 1 0 0
2.762408 3.360315 -13.769001 14.439806 0.882743 2.835588 0.007241 -0.003092 1106440.000000 1 0 0
-2.691992 -10.351985 -18.105901 21.029362 1.316385 2.607993 0.009476 0.005631 -13789.300000 1 0 0
6.025408 -9.171185 -15.432301 18.936000 -0.989520 2.523476 -0.003959 0.014105 172273.000000 1 0 0
-1.747092 5.372115 -17.283101 18.182891 -1.256370 2.825684 0.006848 -0.009906 -139821.000000 1 0 0
9.879208 -12.192385 -11.833901 19.654369 -0.889820 2.216925 0.013268 0.007143 1161440.000000 1 0 0
10.802008 3.562615 -9.364301 14.733151 0.318577 2.259574 0.001652 0.003796 -604731.000000 1 0 0
4.798908 -0.493085 -11.062201 12.068345 -0.102390 2.730362 0.001956 -0.000095 -123483.000000 1 0 0
6.273208 9.550315 -11.323601 16.086815 0.989615 2.351678 0.009154 -0.009615 453782.000000 1 0 0
10.596508 -9.611685 -9.489901 17.167664 -0.736703 2.156490 0.016090 0.000851 -644957.000000 1 0 0
3.062008 -2.385885 -14.446601 14.959032 -0.661922 2.879093 0.011738 -0.000912 -160501.000000 1 0 0
9.146408 -4.383785 -14.824501 17.962188 -0.446943 2.541560 0.013744 0.000749 975.627000 1 0 0
-4.191992 -6.542485 -16.635201 18.360469 1.000963 2.704612 -0.009984 -0.000308 -840396.000000 1 0 0
5.677708 -7.838385 -11.357201 14.921885 -0.943916 2.435820 -0.006520 0.003688 173962.000000 1 0 0
5.425508 6.351015 -16.825201 18.784540 0.863826 2.680786 0.011895 -0.014000 -525278.000000 1 0 0
8.983208 1.488315 -19.595301 21.607613 0.164186 2.706593 0.005006 0.001835 457351.000000 1 0 0
13.126408 5.768115 -9.392701 17.140495 0.414028 2.150747 0.003169 0.004115 676555.000000 1 0 0
-1.519192 -0.594385 -17.250701 17.327664 0.372941 3.047307 0.008228 -0.009866 702539.000000 1 0 0
-0.551592 -0.461085 -19.583001 19.596193 0.696261 3.104897 0.019641 -0.011970 -128711.000000 1 0 0
2.857508 6.476115 -16.555801 18.005554 1.155253 2.737560 0.009110 -0.003580 -561246.000000 1 0 0
7.673508 3.857015 -15.682301 17.879985 0.465758 2.640560 0.005406 0.005076 335179.000000 1 0 0
2.893808 -10.082085 -14.890901 18.214321 -1.291285 2.527919 -0.003942 0.015073 130741.000000 1 0 0
8.759408 -10.479485 -13.460101 19.176057 -0.874567 2.348889 0.005765 0.007188 -514765.000000 1 0 0
3.689808 0.169015 -14.794501 15.248623 0.045774 2.896929 0.010968 -0.002342 -1627850.000000 1 0 0
-1.352592 -2.804685 -18.814201 19.070132 1.121440 2.977577 0.018779 -0.004743 546173.000000 1 0 0
9.202708 9.924215 -13.120401 18.850061 0.823102 2.340664 0.019701 -0.013974 328038.000000 1 0 0
4.556808 2.073415 -10.775601 11.881798 0.427016 2.706663 -0.000872 0.004459 73205.300000 1 0 0
-0.706092 7.077215 -18.876201 20.171676 -1.471356 2.781254 0.018253 -0.007726 328765.000000 1 0 0
0.786508 -1.807285 -17.683201 17.792709 -1.160328 3.030589 0.025749 -0.008069 -1391680.000000 1 0 0
-4.535092 -2.219385 -14.027601 14.908599 0.455116 2.796094 0.002769 -0.008421 -4561470.000000 1 0 0
10.050708 6.013315 -10.402901 15.665154 0.539167 2.297058 0.008837 0.003400 26284.900000 1 0 0
8.091708 5.216115 -17.811801 20.247070 0.572587 2.646074 0.011269 -0.000120 296371.000000 1 0 0
11.247608 0.193815 -13.589101 17.641143 0.017230 2.450119 0.001378 0.004879 329898.000000 1 0 0
6.858808 11.979915 -11.746501 18.125725 1.050824 2.275827 0.020588 -0.015750 -43945.600000 1 0 0
-1.071692 0.617815 -14.962701 15.013748 -0.522950 3.059107 0.009838 -0.007280 -593341.000000 1 0 0
-4.581192 -2.875485 -19.046301 19.799427 0.560518 2.864893 -0.010471 -0.000690 -162652.000000 1 0 0
5.577308 -12.225885 -14.040201 19.434657 -1.142808 2.378108 -0.007696 0.011154 123197.000000 1 0 0
2.026708 -4.779885 -14.048801 14.977438 -1.169766 2.787604 0.000447 0.003201 920237.000000 1 0 0
11.823908 1.884015 -15.448501 19.545089 0.158011 2.482263 0.007020 0.003904 471950.000000 1 0 0
9.708808 2.264715 -13.834401 17.052289 0.229166 2.517157 0.001987 0.004930 384213.000000 1 0 0
-2.412292 -4.107885 -16.395901 17.073940 1.039816 2.858829 -0.002011 -0.006908 -255356.000000 1 0 0
-2.866392 10.103215 -14.300101 17.742155 -1.294350 2.508152 0.004631 -0.004751 285849.000000 1 0 0
3.563808 5.749515 -13.732601 15.308233 1.015913 2.683897 0.001432 0.000515 -275624.000000 1 0 0
-5.180792 -2.512685 -16.545401 17.518690 0.451576 2.806692 -0.007708 -0.005740 341186.000000 1 0 0
-4.295792 6.179515 -13.642501 15.580695 -0.963322 2.637479 -0.004378 0.001008 1102970.000000 1 0 0
5.725908 -1.143485 -13.961501 15.133311 -0.197111 2.745479 0.007996 0.000919 -1002930.000000 1 0 0
6.746508 -3.088085 -12.623501 14.642555 -0.429264 2.610216 0.003006 0.003243 1779100.000000 1 0 0
2.820208 -3.234485 -18.347801 18.842964 -0.853714 2.911835 0.022925 -0.005311 663433.000000 1 0 0
7.178008 -12.041285 -12.080101 18.505275 -1.033237 2.282061 -0.000455 0.007953 -155746.000000 1 0 0
-6.274892 -5.303185 -17.632101 19.452224 0.701668 2.705552 0.010707 -0.004385 170599.000000 1 0 0
0.544508 8.734415 -11.963801 14.822923 1.508536 2.510045 -0.000026 -0.003910 101363.000000 1 0 0
0.383508 8.531915 -14.464301 16.797520 1.525877 2.608221 0.006575 -0.005857 242939.000000 1 0 0
7.593508 -2.407285 -15.045401 17.024115 -0.306996 2.654655 0.006984 -0.003763 -286900.000000 1 0 0
14.345808 1.402815 -8.995901 16.991067 0.097476 2.128747 0.001555 0.006935 437342.000000 1 0 0
2.807408 10.940815 -14.687501 18.528510 1.319616 2.486017 0.009457 -0.002687 -1089990.000000 1 0 0
6.066608 0.944015 -15.621801 16.784981 0.154370 2.767121 0.011796 0.001537 392266.000000 1 0 0
16.432508 -5.786885 -10.574201 20.379625 -0.338598 2.116315 0.026261 -0.009678 709691.000000 1 0 0
4.723408 -4.246385 -11.216201 12.889745 -0.732267 2.626333 -0.003645 0.002037 -250983.000000 1 0 0
8.805908 -3.356385 -17.116301 19.539117 -0.364153 2.638305 0.005456 0.002804 295604.000000 1 0 0
13.131008 -9.623185 -8.865801 18.537300 -0.632441 2.069478 0.013410 -0.004201 -275996.000000 1 0 0
2.269208 -7.735585 -13.629501 15.835147 -1.285455 2.607463 -0.005850 0.007320 79894.100000 1 0 0
-7.035792 -2.355585 -18.234801 19.686521 0.323070 2.755157 0.000009 -0.009775 -1014450.000000 1 0 0
-1.676992 -6.486985 -15.736101 17.103162 1.317818 2.739055 -0.004494 -0.000026 229254.000000 1 0 0
1.326908 -7.349485 -18.413101 19.870025 -1.392176 2.756270 0.009186 0.003551 244397.000000 1 0 0
5.329608 10.703415 -14.519101 18.808831 1.108802 2.452668 0.016579 -0.024556 340322.000000 1 0 0
5.314608 -3.421085 -17.326601 18.443427 -0.571943 2.791806 0.017319 -0.001818 -903776.000000 1 0 0
4.227808 13.077815 -14.025801 19.637380 1.258120 2.366334 0.009661 -0.016685 -186005.000000 1 0 0
9.182208 10.197715 -15.692201 20.845899 0.837750 2.423059 0.024711 -0.022992 380275.000000 1 0 0
2.360408 3.910815 -16.321201 16.948381 1.027764 2.868698 0.012147 -0.005002 318426.000000 1 0 0
16.571908 1.368015 -11.677801 20.319219 0.082363 2.183055 -0.000248 0.007370 -185184.000000 1 0 0
9.906208 -3.693585 -10.644701 15.002840 -0.356889 2.359602 0.010143 -0.000572 668905.000000 1 0 0
14.584708 -2.196485 -12.016901 19.024831 -0.149479 2.254467 0.010493 -0.002493 284890.000000 1 0 0
-2.805292 -8.676085 -16.070901 18.477499 1.258070 2.625502 -0.007488 0.006679 -719199.000000 1 0 0
13.935908 8.246315 -8.971701 18.512230 0.534317 2.076744 0.017413 0.001849 731167.000000 1 0 0
-8.308792 0.000115 -16.509701 18.482593 -0.000014 2.675335 -0.009608 -0.007195 -392363.000000 1 0 0
-3.638592 4.033615 -15.847001 16.752219 -0.836840 2.811352 0.004137 -0.005389 728445.000000 1 0 0
15.040908 3.879515 -9.752001 18.340695 0.252429 2.131419 0.005911 0.013156 763428.000000 1 0 0
5.317708 1.119415 -13.038201 14.125360 0.207478 2.746692 0.004330 0.002794 155066.000000 1 0 0
7.656208 -7.817485 -12.920201 16.931101 -0.795820 2.438900 0.001124 0.005786 -5361740.000000 1 0 0
3.140408 -6.229985 -11.922801 13.814053 -1.103890 2.612157 -0.004324 0.005104 -1102430.000000 1 0 0
-3.243592 3.607615 -18.442301 19.069721 -0.838481 2.884364 0.006452 -0.007514 -249630.000000 1 0 0
0.870508 5.237415 -17.916601 18.686704 1.406092 2.853504 0.012327 -0.005453 -369966.000000 1 0 0
6.355108 7.179915 -10.173201 13.979721 0.846262 2.385775 0.003865 -0.000759 653528.000000 1 0 0
9.667308 3.770515 -11.748601 15.674925 0.371880 2.418126 0.003787 0.007256 600225.000000 1 0 0
4.485508 1.841615 -17.689401 18.341926 0.389585 2.874054 0.019199 0.002230 113784.000000 1 0 0
2.646608 8.141415 -13.211601 15.742731 1.256492 2.566642 0.005194 -0.006134 -2801510.000000 1 0 0
14.236708 -3.624885 -9.931601 17.733030 -0.249318 2.165257 0.016805 -0.005022 163683.000000 1 0 0
-1.264392 9.335915 -16.216901 18.754890 -1.436182 2.615301 0.009423 -0.003526 -1016820.000000 1 0 0
-5.421092 2.021415 -15.624601 16.661408 -0.356911 2.786954 0.000989 -0.009668 230088.000000 1 0 0
4.415608 4.369915 -11.895501 13.420011 0.780197 2.660306 0.001169 0.000742 677410.000000 1 0 0
9.320308 2.929315 -17.453401 20.001756 0.304518 2.631283 0.006921 -0.002504 1113170.000000 1 0 0
-4.035492 14.242015 -13.449901 20.000501 -1.294683 2.308348 -0.004535 0.000433 -189989.000000 1 0 0
15.340208 -5.128285 -8.145901 18.110135 -0.322623 2.037335 0.012130 -0.004499 1150940.000000 1 0 0
1.269408 9.406715 -16.803601 19.299189 1.436660 2.627399 0.010293 -0.000036 33511.900000 1 0 0
0.276208 -3.206285 -12.851101 13.247919 -1.484863 2.896220 -0.002417 -0.000098 254279.000000 1 0 0
7.449608 3.433115 -13.163301 15.509850 0.431836 2.584330 0.002816 0.007650 631583.000000 1 0 0
-2.844492 7.603515 -15.131801 17.171953 -1.212813 2.649176 -0.001539 -0.000491 360935.000000 1 0 0
12.031008 -5.298685 -11.087101 17.197239 -0.414858 2.271430 0.025163 -0.004455 -226107.000000 1 0 0
0.528508 -4.187785 -20.016201 20.456421 -1.445258 2.933758 0.023510 -0.006478 280205.000000 1 0 0
3.304908 -4.454885 -16.130501 17.057593 -0.932524 2.810382 0.009968 0.001058 415803.000000 1 0 0
-5.814492 4.156815 -14.270201 15.960140 -0.620660 2.677248 -0.003564 -0.005919 810214.000000 1 0 0
12.059208 -7.559585 -9.984101 17.385457 -0.559945 2.182519 0.016186 -0.002801 -149520.000000 1 0 0
-2.188092 -1.746285 -15.012801 15.271590 0.673573 2.957235 0.005337 -0.004766 585866.000000 1 0 0
7.015508 5.837415 -14.098501 16.794657 0.693994 2.567091 0.004173 0.000231 287051.000000 1 0 0
4.141108 -5.523985 -18.365301 19.620078 -0.927513 2.782017 0.025584 -0.005696 -13760.900000 1 0 0
7.549408 7.407015 -12.238201 16.175012 0.775878 2.428912 0.006846 -0.003144 -797841.000000 1 0 0
12.185708 -2.636785 -11.050101 16.659798 -0.213098 2.295989 0.015713 -0.003409 -245838.000000 1 0 0
7.370008 -0.656085 -10.587901 12.917086 -0.088787 2.531652 0.000744 0.005467 -2291940.000000 1 0 0
5.274208 4.034415 -14.457001 15.909075 0.652990 2.711020 0.008438 0.001466 496446.000000 1 0 0
14.818208 2.965815 -12.909201 19.875181 0.197537 2.277741 0.003249 -0.000259 17326.300000 1 0 0
-6.644892 6.789415 -15.776701 18.416163 -0.796156 2.599589 -0.006502 0.005101 659351.000000 1 0 0
-11.223892 3.884815 -16.379101 20.232214 -0.333214 2.514191 -0.001980 -0.007445 -434765.000000 1 0 0
-5.056892 6.419915 -17.911201 19.687524 -0.903608 2.713536 -0.003888 0.004980 -358209.000000 1 0 0
-9.981692 1.685915 -15.731601 18.707211 -0.167322 2.569810 -0.004818 -0.004209 -144585.000000 1 0 0
-7.585392 5.805115 -17.969301 20.350266 -0.653223 2.653014 -0.015385 0.002630 247680.000000 1 0 0
-8.806492 3.981915 -15.605001 18.355544 -0.424646 2.587070 -0.008245 0.002807 -1361950.000000 1 0 0
9.049108 13.339715 -12.021201 20.108298 0.974743 2.211579 0.034651 -0.021681 -1289910.000000 1 0 0
13.852308 9.091515 -11.502001 20.170229 0.580804 2.177602 0.019315 -0.004790 448601.000000 1 0 0
8.415908 15.839515 -9.259601 20.185588 1.082405 2.047354 0.031692 -0.006906 -122382.000000 1 0 0
7.248908 13.428315 -13.931401 20.662775 1.075800 2.310714 0.026415 -0.017532 -93304.900000 1 0 0
4.762608 15.884315 -12.571401 20.809470 1.279495 2.219456 0.034859 -0.019479 258423.000000 1 0 0
11.106108 10.859815 -11.667801 19.427270 0.774186 2.215034 0.019786 -0.008258 -208184.000000 1 0 0
15.657408 9.902215 -9.881501 20.996485 0.563924 2.060797 0.023269 0.005900 57189.200000 1 0 0
13.244808 10.734915 -9.501801 19.517878 0.681111 2.079248 0.033893 -0.002559 300652.000000 1 0 0
10.455408 11.848915 -8.287401 17.843581 0.847794 2.053807 0.016907 0.004045 138304.000000 1 0 0
5.467008 16.072215 -10.035801 19.721095 1.242921 2.104687 0.015423 -0.012654 -210560.000000 1 0 0
6.808108 14.564315 -11.614801 19.833639 1.133525 2.196430 0.026650 -0.007155 -2251100.000000 1 0 0
10.894408 13.907115 -9.904901 20.253470 0.906279 2.081793 0.032208 -0.000565 -106567.000000 1 0 0
8.218108 -18.547585 -1.251901 20.325291 -1.153710 1.632429 0.017503 0.001572 -1095340.000000 1 0 0
7.426408 -17.278985 -3.446801 19.120546 -1.164872 1.752054 0.021190 -0.000677 -328237.000000 1 0 0
4.436008 -18.547285 5.858699 19.950045 -1.336034 1.272734 0.014187 0.007831 186395.000000 1 0 0
9.811608 -17.001985 -2.550701 19.794980 -1.047396 1.700012 0.009364 0.003973 -1253950.000000 1 0 0
-9.683792 -12.198985 -10.252901 18.647065 0.899835 2.152969 0.015596 0.000884 -395252.000000 1 0 0
-5.251792 -6.949485 -12.116201 14.922432 0.923651 2.518274 -0.005726 -0.001735 362318.000000 1 0 0
-10.785192 -9.489785 -5.724701 15.464429 0.721593 1.950005 0.008233 -0.001732 -94551.900000 1 0 0
-4.639592 -11.488385 -14.073901 18.750560 1.186975 2.419744 -0.002286 0.001489 -47171.600000 1 0 0
-3.046492 -15.369485 7.501999 17.371878 1.375116 1.124256 -0.002668 -0.000802 241983.000000 1 0 0
-4.751692 -12.069285 -11.625501 17.418338 1.195732 2.301547 -0.010169 0.004386 -131117.000000 1 0 0
-14.207592 -12.867085 -4.442201 19.676145 0.735927 1.798525 -0.003671 0.003218 -559688.000000 1 0 0
-3.230692 -12.333885 -3.166101 13.137210 1.314615 1.814195 -0.000195 -0.000739 558619.000000 1 0 0
-2.472992 -17.371085 -1.582001 17.617406 1.429384 1.660715 -0.013289 -0.006639 -363944.000000 1 0 0
-5.736392 -12.228385 3.627199 13.985570 1.132169 1.308444 0.000568 0.000071 477661.000000 1 0 0
-8.681892 -10.517285 -12.027001 18.183434 0.880706 2.293515 -0.000116 0.002510 454102.000000 1 0 0
-9.769992 -12.015185 -7.665401 17.279345 0.888096 2.030426 0.011893 -0.001287 84405.800000 1 0 0
-10.841292 -14.976185 6.137299 19.480404 0.944208 1.250287 -0.005977 -0.005163 -1080480.000000 1 0 0
-9.425992 -15.850385 0.496599 18.448052 1.034294 1.543874 -0.001910 0.004819 -3341270.000000 1 0 0
-14.905192 -7.827685 -8.214401 18.732693 0.483576 2.024732 -0.001476 0.005696 -12062.400000 1 0 0
-2.337192 -16.570685 5.266499 17.543833 1.430677 1.265904 0.002316 -0.002270 -2022900.000000 1 0 0
4.430108 -15.952385 5.790799 17.539606 -1.299914 1.234328 0.009775 -0.002755 52593.500000 1 0 0
4.199208 -14.705085 -10.084901 18.318791 -1.292638 2.153786 0.002611 0.004556 -669463.000000 1 0 0
-7.620892 -14.084185 -0.408701 16.019029 1.074815 1.596313 -0.003270 0.001362 906899.000000 1 0 0
2.885808 -14.851085 9.726599 17.985809 -1.378872 0.999417 0.001462 -0.005995 -271538.000000 1 0 0
2.255208 -17.273585 10.435699 20.306809 -1.440972 1.031070 0.009679 -0.005072 3383.540000 1 0 0
-8.247692 -17.158685 -5.889201 19.928060 1.122731 1.870799 0.007372 -0.000082 -53445.200000 1 0 0
-6.392392 -9.173785 -7.690801 13.570903 0.962214 2.173307 0.005061 -0.001915 130717.000000 1 0 0
-6.047592 -13.021885 -4.802801 15.139675 1.136018 1.893606 -0.005249 -0.000744 449582.000000 1 0 0
2.339908 -19.553085 -4.686601 20.242592 -1.451693 1.804438 0.014922 -0.006202 319300.000000 1 0 0
-5.476892 -12.925285 8.339799 16.328245 1.169998 1.034729 0.003312 0.000567 564906.000000 1 0 0
2.175108 -17.503985 3.500899 17.982683 -1.447166 1.374863 0.010521 -0.010684 35036.200000 1 0 0
-17.483292 -10.088485 -2.617601 20.354234 0.523363 1.699756 -0.005733 0.001855 410780.000000 1 0 0
-3.570292 -15.600685 2.581899 16.210939 1.345816 1.410846 -0.002570 0.001457 229931.000000 1 0 0
-9.879092 -10.038185 -14.293001 20.066178 0.793386 2.363556 0.001334 0.003449 -512070.000000 1 0 0
6.043908 -14.643085 -5.735601 16.847726 -1.179349 1.918179 0.000618 0.000429 412241.000000 1 0 0
-7.243192 -12.276385 -10.901801 17.944991 1.037755 2.223721 -0.002176 -0.000608 -2148050.000000 1 0 0
-7.114992 -14.346085 3.825399 16.464110 1.110391 1.336306 -0.005216 0.004501 885568.000000 1 0 0
3.131208 -14.881885 -3.130501 15.526590 -1.363417 1.773810 0.005886 -0.006096 -999290.000000 1 0 0
-7.515592 -11.407685 7.828199 15.744843 0.988247 1.050438 0.003170 -0.003595 -2041800.000000 1 0 0
-12.694092 -12.397785 -1.101801 17.778048 0.773590 1.632811 -0.006020 0.010070 -2044370.000000 1 0 0
-1.871592 -13.702285 3.951899 14.383079 1.435047 1.292456 -0.001737 0.002105 -2073300.000000 1 0 0
-3.044792 -13.999385 5.273899 15.266550 1.356637 1.218073 -0.003015 0.000694 100631.000000 1 0 0
-14.368092 -10.249185 -4.541501 18.223970 0.619616 1.822655 -0.004801 0.004759 76007.800000 1 0 0
-6.373392 -8.562285 -10.380301 14.889039 0.930917 2.342249 -0.003475 -0.001295 152109.000000 1 0 0
0.751708 -19.423885 2.330599 19.577642 -1.532115 1.451469 0.010894 -0.016310 158677.000000 1 0 0
6.566408 -14.431785 -8.373201 17.930550 -1.143795 2.056668 -0.000052 0.007802 -1179690.000000 1 0 0
-4.041592 -16.811085 -6.042301 18.315470 1.334862 1.906996 -0.010223 0.001978 34665.400000 1 0 0
-3.718992 -13.719385 -13.371801 19.515570 1.306082 2.325656 -0.000333 0.005940 -680274.000000 1 0 0
-8.180092 -14.745985 -4.563001 17.469372 1.064326 1.835062 -0.000769 -0.002391 -809595.000000 1 0 0
-4.573792 -14.390285 10.343199 18.302503 1.263055 0.970212 -0.001882 0.002521 -37515.100000 1 0 0
-0.343892 -12.205885 -10.069201 15.826898 1.542630 2.260370 -0.000102 0.007397 502887.000000 1 0 0
2.336108 -17.236485 6.932399 18.724635 -1.436084 1.191541 0.009105 -0.007412 828747.000000 1 0 0
-2.825692 -19.362385 -3.302001 19.844135 1.425882 1.737971 -0.013046 -0.000433 -188553.000000 1 0 0
0.643308 -15.408585 -3.081801 15.726914 -1.529071 1.768030 0.006706 -0.006698 -1589140.000000 1 0 0
6.074408 -17.924585 0.368799 18.929479 -1.244056 1.551312 0.016924 -0.009510 -1088490.000000 1 0 0
-7.048492 -16.683485 3.784499 18.502495 1.171059 1.364803 -0.005832 0.001606 363414.000000 1 0 0
-5.316892 -13.497385 -9.658701 17.428116 1.195542 2.158201 -0.012414 0.001232 483174.000000 1 0 0
5.578708 -15.181185 -2.204701 16.323329 -1.218639 1.706275 0.010907 -0.002798 -114592.000000 1 0 0
-8.817392 -10.354285 -0.490501 13.608755 0.865392 1.606847 -0.004324 0.003333 -362381.000000 1 0 0
-7.524992 -18.228685 -3.169001 19.973808 1.179295 1.730127 0.008798 -0.007272 173532.000000 1 0 0
7.883508 -15.950885 -1.142101 17.829325 -1.111770 1.634898 0.007707 -0.003952 -536087.000000 1 0 0
-8.012692 -10.181985 -9.575001 16.110763 0.904065 2.207220 0.006396 -0.000740 -1491270.000000 1 0 0
-9.191492 -15.080885 -7.035101 19.010767 1.023436 1.949869 0.014713 -0.004593 -270963.000000 1 0 0
-11.321392 -10.311585 -12.030201 19.473788 0.738753 2.236692 0.009405 0.006975 -322908.000000 1 0 0
6.575008 -16.327685 2.348699 17.757827 -1.187972 1.438145 0.014981 -0.006756 112586.000000 1 0 0
-2.239292 -11.253485 -6.183501 13.034225 1.374375 2.065084 0.000048 0.001717 -915098.000000 1 0 0
-12.284992 -15.264085 -3.419801 19.889906 0.893117 1.743591 0.002074 -0.005844 -295705.000000 1 0 0
-0.230692 -19.704085 -2.811001 19.904922 1.559089 1.712491 -0.004641 -0.011274 -106208.000000 1 0 0
-5.797592 -15.608785 -4.715701 17.305608 1.215158 1.846782 -0.011964 -0.004074 -1816020.000000 1 0 0
1.972408 -16.067785 -1.029701 16.221109 -1.448652 1.634318 0.013365 -0.010685 1390030.000000 1 0 0
-13.275592 -12.034185 5.409599 18.717016 0.736389 1.277593 0.009700 0.005907 373606.000000 1 0 0
2.106508 -15.354785 -9.042801 17.943775 -1.434458 2.098965 -0.000481 0.008824 -1896040.000000 1 0 0
-11.788892 -16.663685 -0.110801 20.412463 0.955081 1.576224 0.004937 -0.003313 236510.000000 1 0 0
-7.550592 -16.671685 -1.042001 18.331456 1.145534 1.627669 -0.005394 0.003847 317158.000000 1 0 0
-3.039392 -14.575185 -1.803301 14.997527 1.365211 1.691328 -0.003741 -0.002120 282229.000000 1 0 0
-1.966092 -10.341385 -13.273501 16.940944 1.382920 2.471101 -0.008375 0.002640 -412592.000000 1 0 0
1.576808 -19.658585 4.843799 20.307847 -1.490758 1.329956 0.020927 -0.010306 -4126.040000 1 0 0
-17.270192 -9.548485 2.467499 19.887726 0.505058 1.446404 -0.005949 0.008834 -298399.000000 1 0 0
-2.677092 -15.719685 -8.125301 17.896811 1.402113 2.042055 -0.011244 0.007331 -1104250.000000 1 0 0
-10.541692 -12.168885 0.186399 16.101049 0.856925 1.559219 -0.005938 0.007041 -187527.000000 1 0 0
-6.948192 -11.444385 -6.575301 14.915961 1.025153 2.027312 -0.003251 -0.002342 23367.400000 1 0 0
-2.217092 -13.718985 -6.741201 15.445706 1.410574 2.022440 -0.009736 0.004343 357741.000000 1 0 0
-14.077392 -14.581685 -1.031501 20.294395 0.802993 1.621645 -0.002516 0.007814 -259759.000000 1 0 0
-9.504192 -11.296685 -4.427601 15.412605 0.871360 1.862173 0.005008 -0.002700 849964.000000 1 0 0
9.327208 -15.177685 -5.273901 18.578831 -1.019758 1.858620 0.002012 0.007151 -49914.100000 1 0 0
-5.471192 -10.865685 -9.475101 15.419941 1.104329 2.232511 -0.007462 0.002463 187844.000000 1 0 0
-10.380392 -16.032685 -4.936701 19.727406 0.996215 1.823730 0.015926 -0.001163 -1989650.000000 1 0 0
2.157108 -17.425785 -3.187101 17.845692 -1.447635 1.750352 0.008865 -0.004810 424759.000000 1 0 0
-0.298992 -14.558585 -8.140701 16.682710 1.550262 2.080562 -0.001255 0.006667 -423957.000000 1 0 0
-0.712192 -18.369585 -7.092801 19.704230 1.532046 1.939025 -0.008054 0.003839 49082.700000 1 0 0
-1.841292 -10.104885 -10.608501 14.766156 1.390556 2.372344 -0.008513 0.001991 224850.000000 1 0 0
-5.171892 -17.420585 1.908999 18.272097 1.282201 1.466129 -0.002850 -0.002757 1123.130000 1 0 0
0.199808 -12.881085 -2.667101 13.155824 -1.555286 1.774943 -0.001077 0.000580 -1228920.000000 1 0 0
2.600608 -15.053785 2.986999 15.566045 -1.399730 1.377707 0.012270 -0.003440 -1178020.000000 1 0 0
-9.239692 -13.142785 6.861899 17.469698 0.958044 1.167134 -0.004555 0.000872 -566936.000000 1 0 0
-1.146992 -17.985485 -4.571701 18.592840 1.507109 1.819229 -0.008034 -0.003150 -422582.000000 1 0 0
-9.697292 -17.845685 -2.021201 20.410566 1.073037 1.669986 0.008426 0.001694 -965558.000000 1 0 0
1.290708 -16.396185 1.412799 16.507477 -1.492238 1.485106 0.005554 -0.011227 -355899.000000 1 0 0
-0.393292 -18.117385 4.274199 18.618891 1.549092 1.339168 0.017957 -0.008877 258307.000000 1 0 0
-17.222692 -9.384185 -0.101501 19.613626 0.498899 1.575971 -0.016751 0.005063 766884.000000 1 0 0
-14.935192 -7.106185 -10.626401 19.659049 0.444102 2.141869 0.014860 -0.000050 624087.000000 1 0 0
2.768808 -12.860185 -8.912401 15.889668 -1.358733 2.166260 -0.005852 0.005954 484852.000000 1 0 0
-11.487692 -14.628185 1.565799 18.665545 0.905076 1.486811 -0.013724 0.001749 81187.200000 1 0 0
-2.275692 -15.552285 10.564499 18.938347 1.425502 0.979020 -0.006640 -0.002512 -456284.000000 1 0 0
-7.106892 -15.837285 1.301899 17.407540 1.148987 1.495937 -0.006616 0.000233 -1128760.000000 1 0 0
-12.467292 -14.996085 -6.101501 20.433899 0.877218 1.874019 0.009162 -0.003263 -74401.200000 1 0 0
0.942808 -13.759985 -5.101901 14.705627 -1.502385 1.925098 0.002170 0.002220 339887.000000 1 0 0
5.857808 -16.601185 -7.332301 19.070288 -1.231580 1.965450 0.007296 -0.002254 198669.000000 1 0 0
-6.405192 -13.001285 5.956099 15.669557 1.113039 1.180885 0.002351 0.001487 59251.400000 1 0 0
-2.585892 -13.762285 0.650099 14.018201 1.385065 1.524404 0.001697 -0.005602 1930160.000000 1 0 0
-4.315692 -15.599085 0.147399 16.185746 1.300885 1.561689 -0.005979 -0.002024 165138.000000 1 0 0
-17.581692 -7.599985 -2.034901 19.261788 0.408010 1.676638 -0.017054 0.006304 579230.000000 1 0 0
1.079008 -12.938085 -11.940701 17.639122 -1.487591 2.314399 -0.005233 0.011497 -1517220.000000 1 0 0
1.160208 -17.368885 -5.633001 18.296310 -1.504097 1.883756 0.007577 -0.001199 -1199760.000000 1 0 0
-12.842492 -6.328685 -9.120001 16.975166 0.457865 2.137976 0.004384 0.002870 498733.000000 1 0 0
-11.359992 -13.670085 -9.021501 19.932589 0.877430 2.040476 0.016265 -0.004566 510386.000000 1 0 0
-4.279992 -9.958885 3.430199 11.369432 1.164896 1.264317 0.002732 0.002142 -4806280.000000 1 0 0
-7.094692 -14.324385 9.691799 18.693678 1.110926 1.025755 0.008653 -0.004618 -102061.000000 1 0 0
-5.315992 -15.845185 -8.224601 18.627230 1.247101 2.028107 -0.014658 -0.000066 -165335.000000 1 0 0
-0.209192 -13.563785 2.070199 13.722454 1.555375 1.419356 0.001678 -0.004912 431000.000000 1 0 0
-10.959992 -13.440085 -4.783801 17.990054 0.886693 1.839948 0.014076 -0.001276 -924892.000000 1 0 0
-9.673692 -10.541885 6.698499 15.798150 0.828319 1.132933 0.002537 0.000136 -439763.000000 1 0 0
-15.453092 -7.998685 -4.767101 18.041681 0.477637 1.838199 0.001115 0.004536 -538218.000000 1 0 0
-14.512892 -7.420185 5.453999 17.188056 0.472633 1.247901 0.007937 0.001940 1002660.000000 1 0 0
-1.608892 -19.362885 -0.145001 19.430154 1.487895 1.578259 -0.001871 -0.012217 -236114.000000 1 0 0
-15.313392 -12.302685 -1.306301 19.686606 0.676807 1.637200 -0.007374 0.011568 457523.000000 1 0 0
-4.415892 -12.154185 -6.871301 14.643739 1.222302 2.059216 -0.004142 0.001049 -1843370.000000 1 0 0
-7.645092 -18.353985 1.882399 19.971470 1.176117 1.476402 -0.000660 -0.000548 -206558.000000 1 0 0
-2.558692 -11.897685 -8.646001 14.928334 1.358965 2.188503 -0.008022 0.003270 507385.000000 1 0 0
-1.287192 -20.544385 -5.077201 21.201570 1.508224 1.812619 -0.013962 0.007093 -20413.100000 1 0 0
-5.435392 -8.986385 -13.715901 17.274969 1.026820 2.488117 -0.005423 -0.005236 -500316.000000 1 0 0
-7.919892 -19.325685 -0.797301 20.900777 1.181860 1.608953 -0.011341 0.014603 43174.400000 1 0 0
-17.152792 -7.375885 5.419499 19.442040 0.406107 1.288302 0.012858 0.004022 200351.000000 1 0 0
-3.546392 -14.722185 -4.354501 15.756945 1.334412 1.850795 -0.008862 0.000916 -2141790.000000 1 0 0
-3.202092 -14.946385 -11.065101 18.870195 1.359748 2.197379 -0.011586 0.007363 -309531.000000 1 0 0
-0.118492 -16.586285 6.344399 17.758668 1.563652 1.205467 0.013484 -0.011433 -1445600.000000 1 0 0
-11.076892 -11.667385 4.036999 16.586825 0.811355 1.324941 -0.004775 0.003933 706005.000000 1 0 0
-0.192992 -14.779185 -0.108301 14.780842 1.557739 1.578124 0.001977 -0.004973 851344.000000 1 0 0
-7.335892 -9.539985 -2.516001 12.294587 0.915269 1.776895 0.002390 0.000821 -434981.000000 1 0 0
-11.020692 -14.411485 -1.041601 18.172272 0.917943 1.628146 -0.006034 -0.000289 -166104.000000 1 0 0
0.131808 -14.729185 -10.657101 18.180761 -1.561848 2.197125 -0.008055 0.009180 27760.800000 1 0 0
-1.404392 -13.999085 -3.882801 14.595302 1.470811 1.840070 -0.004973 0.001068 -2294650.000000 1 0 0
-11.318592 -8.129385 -7.731301 15.936450 0.622858 2.077312 0.009911 -0.000187 578958.000000 1 0 0
-0.287692 -17.287685 -0.273701 17.292245 1.554156 1.586625 0.007501 -0.012645 -1732240.000000 1 0 0
-12.819792 -9.612485 4.625199 16.677511 0.643383 1.289781 0.000239 0.001717 -79731.700000 1 0 0
3.973708 -16.911785 1.556299 17.441929 -1.340016 1.481450 0.017009 -0.011092 2208890.000000 1 0 0
-3.847092 -17.961885 -8.203301 20.117743 1.359803 1.990801 -0.011139 0.002862 -114777.000000 1 0 0
-13.251292 -11.452885 2.740599 17.727836 0.712729 1.415581 -0.016091 0.005453 -816349.000000 1 0 0
-8.457492 -12.214285 4.270999 15.458310 0.965172 1.290863 -0.002353 0.002629 2116890.000000 1 0 0
-8.223992 -9.390085 -5.903601 13.807977 0.851504 2.012577 0.008599 -0.002569 -1415720.000000 1 0 0
3.743608 -17.493885 -5.202901 18.631178 -1.359981 1.853817 -0.000776 0.003381 234749.000000 1 0 0
-2.486192 -13.045885 11.383499 17.491721 1.382482 0.862167 -0.014655 -0.001798 30251.100000 1 0 0
-0.009492 -16.823585 -9.417701 19.280202 1.570232 2.081126 -0.005415 0.008823 -78870.600000 1 0 0
-7.059392 -10.779985 -14.499901 19.398201 0.991011 2.415067 -0.003893 0.002935 -1957820.000000 1 0 0
-4.647192 -18.721785 -1.438801 19.343520 1.327490 1.645247 -0.000242 -0.013146 -439745.000000 1 0 0
-2.574392 -17.341485 1.107599 17.566484 1.423420 1.507703 0.000713 -0.007975 5043.820000 1 0 0
4.051108 -14.692285 -7.482701 16.978384 -1.301751 2.027196 0.000340 0.003173 826744.000000 1 0 0
-0.983492 -15.987085 -6.162001 17.161713 1.509356 1.938052 -0.005825 0.004592 29140.700000 1 0 0
-9.464592 -15.350585 8.301899 19.852971 1.018288 1.139368 -0.004471 0.001616 -234697.000000 1 0 0
-7.129292 -12.085785 -1.810201 14.148138 1.037843 1.699094 -0.005051 0.001518 853633.000000 1 0 0
-7.461592 -14.980985 -9.426201 19.208293 1.108693 2.083731 0.008015 -0.005540 171507.000000 1 0 0
-5.082392 -13.301285 -0.529901 14.249059 1.205817 1.607993 -0.003311 -0.001005 1909930.000000 1 0 0
-6.435192 -13.702385 -7.331401 16.820121 1.131730 2.021802 -0.007741 -0.002667 334938.000000 1 0 0
5.648608 -15.403685 0.167499 16.407570 -1.219318 1.560588 0.014682 -0.005925 558246.000000 1 0 0
-14.257992 -12.865285 0.975699 19.229089 0.734096 1.520034 -0.018393 0.001569 990767.000000 1 0 0
0.737708 -15.294785 11.201899 18.972538 -1.522601 0.939209 -0.006786 -0.000514 319959.000000 1 0 0
-9.283892 -11.171585 1.966599 14.658188 0.877421 1.436227 -0.002130 0.003025 -160892.000000 1 0 0
-9.503692 -8.839285 -3.594701 13.467553 0.749193 1.840988 0.003324 0.000127 -571539.000000 1 0 0
-12.389492 -7.130785 -12.351001 18.891660 0.522248 2.283366 0.008146 0.004746 1977400.000000 1 0 0
-13.223092 -8.487485 -0.514101 15.721064 0.570638 1.603504 -0.008352 0.004104 -298525.000000 1 0 0
-11.068892 -9.629185 0.700599 14.687832 0.715953 1.523079 -0.006669 0.005005 1344160.000000 1 0 0
-15.645892 -12.191685 3.002199 20.061014 0.661945 1.420579 -0.005027 0.007440 -1164720.000000 1 0 0
-10.407492 -12.402585 -2.361901 16.362108 0.872642 1.715654 0.002467 -0.000815 174049.000000 1 0 0
-3.488092 -8.809685 -12.047401 15.327009 1.193796 2.475148 -0.011273 0.000607 -1020460.000000 1 0 0
-0.280292 -15.611985 3.870799 16.087129 1.552845 1.327797 0.009346 -0.004579 -718112.000000 1 0 0
-15.696792 -7.787485 1.233599 17.565761 0.460538 1.500511 -0.010480 0.003358 192024.000000 1 0 0
-6.276892 -13.386885 -13.433601 19.976729 1.132350 2.308327 0.003092 0.001451 -458767.000000 1 0 0
-15.173892 -10.434385 1.127699 18.449799 0.602392 1.509636 -0.011405 0.003573 -310056.000000 1 0 0
-9.938092 -8.242285 -12.402701 17.903294 0.692391 2.336107 0.008022 -0.003885 406861.000000 1 0 0
-13.173092 -11.636185 -6.336801 18.683848 0.723528 1.916819 0.006997 0.001637 -243824.000000 1 0 0
-12.090992 -11.365585 -3.944101 17.056510 0.754482 1.804146 0.002053 0.003694 -1386280.000000 1 0 0
-11.763292 -11.164285 -9.032801 18.563614 0.759278 2.078974 0.015519 -0.001128 -525088.000000 1 0 0
-13.160992 -8.369185 -5.899101 16.674962 0.566405 1.932395 0.001632 0.001379 -1572480.000000 1 0 0
-13.458292 -8.205485 -3.204801 16.084973 0.547519 1.771381 0.001469 0.001353 -148825.000000 1 0 0
-4.338792 -17.061185 -3.353901 17.920876 1.321767 1.759057 -0.008482 -0.004535 369539.000000 1 0 0
-15.333392 -8.993585 -1.813101 17.868542 0.530461 1.672440 -0.005768 0.006448 -2930130.000000 1 0 0
-9.360892 -15.521985 3.590099 18.478288 1.028120 1.375265 -0.005625 -0.001439 -1524600.000000 1 0 0
4.734408 -17.263285 8.074199 19.637421 -1.303130 1.147066 0.020207 -0.014599 309444.000000 1 0 0
-8.291392 -15.505785 5.955399 18.564571 1.079753 1.244229 -0.004304 0.007265 567299.000000 1 0 0
0.762008 -15.980985 8.665599 18.195195 -1.523150 1.074403 0.004402 -0.005860 373814.000000 1 0 0
-10.823592 -7.565585 -10.184001 16.676393 0.610048 2.227720 0.008544 0.000226 905201.000000 1 0 0
-4.806492 -15.903285 5.667299 17.553778 1.277293 1.242053 -0.005779 -0.004309 -734821.000000 1 0 0
-1.484392 -13.304385 -12.162601 18.086983 1.459684 2.308311 -0.009786 0.008740 -276114.000000 1 0 0
-6.407492 -14.368885 -2.636101 15.952111 1.151334 1.736809 -0.004463 0.000383 545136.000000 1 0 0
-17.753492 -6.768285 -7.130701 20.293916 0.364227 1.929832 -0.002850 0.000188 -128359.000000 1 0 0
-17.259992 -4.218485 -10.130401 20.453067 0.239709 2.088976 -0.007274 0.000378 469517.000000 1 0 0
-15.355792 -5.320085 -8.850301 18.504904 0.333513 2.069478 -0.006962 -0.005066 171430.000000 1 0 0
-16.219192 -5.374985 -5.472601 17.941628 0.320006 1.880758 -0.001846 0.005896 626294.000000 1 0 0
-15.365692 -4.084385 -12.327101 20.118253 0.259804 2.230309 0.007216 0.000574 582634.000000 1 0 0
-18.811392 -4.933985 -5.539601 20.221272 0.256509 1.848293 -0.002060 0.001576 250593.000000 1 0 0
-17.374692 -4.205485 -7.554501 19.407125 0.237479 1.970629 -0.016376 -0.000035 122950.000000 1 0 0
12.222208 -7.929285 8.673799 16.955551 -0.575503 1.033796 0.012296 -0.000211 80664.500000 1 0 0
15.980008 -3.304685 1.561699 16.392697 -0.203927 1.475384 0.009060 -0.002976 397538.000000 1 0 0
11.799808 -2.283385 12.525899 17.359362 -0.191148 0.764737 -0.008405 -0.002032 13955.000000 1 0 0
9.567508 -10.060085 5.123499 14.798404 -0.810489 1.217258 0.002199 -0.004736 -21384.400000 1 0 0
16.783008 -1.877085 7.101299 18.319969 -0.111381 1.172741 0.013691 -0.005102 698200.000000 1 0 0
5.192608 -12.899185 9.068499 16.600898 -1.188091 0.992897 -0.001121 0.002061 107895.000000 1 0 0
15.348108 -9.333185 -2.274801 18.106559 -0.546354 1.696763 0.015399 0.000970 982047.000000 1 0 0
11.125808 -8.644385 6.428799 15.486719 -0.660538 1.142725 0.015213 -0.003562 -2037470.000000 1 0 0
19.882108 -2.994185 3.366399 20.386172 -0.149474 1.404905 0.004199 -0.004614 616676.000000 1 0 0
13.669308 -8.523985 6.669999 17.435515 -0.557582 1.178239 0.014694 -0.002757 -1030960.000000 1 0 0
8.277908 -11.156185 8.809999 16.449933 -0.932434 1.005620 0.001870 0.000835 -2020550.000000 1 0 0
16.778808 -0.104085 -0.688801 16.793263 -0.006203 1.611824 0.007831 -0.000135 -770703.000000 1 0 0
12.395608 -12.412485 2.246499 17.685238 -0.786078 1.443425 0.005897 -0.008221 -945351.000000 1 0 0
10.322308 -11.620285 3.478999 15.927476 -0.844483 1.350594 0.000922 -0.005415 -1110080.000000 1 0 0
16.372808 2.890415 2.374099 16.794633 0.174737 1.428961 0.008601 -0.002267 464442.000000 1 0 0
18.200708 -3.236585 0.193599 18.487259 -0.175988 1.560324 -0.001533 -0.001313 608747.000000 1 0 0
13.655008 -11.847585 -0.219401 18.079620 -0.714644 1.582932 0.018833 -0.000496 -247382.000000 1 0 0
17.016308 -7.730885 -1.066001 18.720515 -0.426442 1.627770 0.022262 -0.002159 1234260.000000 1 0 0
10.112908 -5.762385 9.758299 15.188825 -0.517921 0.873085 0.002982 0.000403 -878811.000000 1 0 0
11.282208 -13.136385 6.189299 18.389134 -0.861186 1.227520 0.005521 -0.004249 700796.000000 1 0 0
13.029508 -1.756785 10.277699 16.687884 -0.134023 0.907297 0.010587 -0.002142 259338.000000 1 0 0
15.507008 -2.171085 -1.577101 15.737476 -0.139102 1.671178 0.008667 -0.001780 584817.000000 1 0 0
10.479708 -12.490185 8.998799 18.622765 -0.872702 1.066473 0.011627 -0.010067 240236.000000 1 0 0
14.462708 1.254615 3.351999 14.898990 0.086532 1.343872 0.012571 -0.001004 1440310.000000 1 0 0
14.788308 -6.052985 4.993399 16.741168 -0.388505 1.267916 0.007605 -0.002055 -1490910.000000 1 0 0
14.130008 -3.504985 -3.135901 14.892143 -0.243145 1.782959 0.006042 -0.001219 1265390.000000 1 0 0
14.105808 0.579615 9.635099 17.092247 0.041067 0.971924 0.025981 -0.000256 -63935.500000 1 0 0
15.395008 -3.584685 4.159699 16.345010 -0.228771 1.313472 0.009285 -0.001800 -1123880.000000 1 0 0
18.283308 4.950915 -4.505901 19.470338 0.264447 1.804337 -0.032243 0.016961 723016.000000 1 0 0
18.137608 -5.933985 -5.263901 19.796304 -0.316189 1.839937 0.035530 -0.007885 606287.000000 1 0 0
17.400108 0.124415 5.787999 18.337944 0.007150 1.249676 0.027617 0.000362 276161.000000 1 0 0
17.016008 -6.661285 3.772099 18.658671 -0.373133 1.367230 0.009702 0.001453 41225.600000 1 0 0
9.736908 -6.675885 14.198199 18.465202 -0.601014 0.693652 -0.000477 0.004438 -920278.000000 1 0 0
8.545908 -12.364085 5.036499 15.851481 -0.966009 1.247461 -0.001476 -0.005140 -2325110.000000 1 0 0
16.809108 -10.325185 -0.352201 19.730170 -0.550840 1.588648 0.011607 0.004837 87257.600000 1 0 0
14.827508 -8.796485 0.157999 17.241175 -0.535445 1.561632 0.020103 -0.006735 -253121.000000 1 0 0
9.961708 -12.923185 1.287799 16.367736 -0.914090 1.492036 0.005029 -0.009239 -345475.000000 1 0 0
16.949908 -8.130385 8.717799 20.722031 -0.447253 1.136577 0.010308 0.005223 407392.000000 1 0 0
19.145408 -0.091285 -1.959601 19.245650 -0.004768 1.672794 0.009137 0.000328 -115313.000000 1 0 0
13.279708 -1.149385 7.772199 15.429803 -0.086337 1.042904 0.011919 -0.004208 152330.000000 1 0 0
12.843908 -9.926285 -3.080801 16.522362 -0.657959 1.758357 0.008122 -0.001927 -1702320.000000 1 0 0
8.773208 -15.245985 1.351199 17.641853 -1.048629 1.494131 0.010354 -0.002503 -108527.000000 1 0 0
11.459508 -8.351985 11.078899 17.994943 -0.629811 0.907564 0.007563 -0.000966 -451545.000000 1 0 0
13.858508 -4.071985 -0.617701 14.457554 -0.285783 1.613534 0.010860 -0.003354 -306833.000000 1 0 0
7.142408 -13.251685 10.790299 18.521655 -1.076452 0.948900 0.012031 0.004625 371785.000000 1 0 0
15.355108 -6.778685 1.685599 16.869237 -0.415730 1.470708 0.014142 -0.001478 -345538.000000 1 0 0
15.803308 -6.281185 -2.826001 17.239029 -0.378315 1.735470 0.010686 -0.003509 144587.000000 1 0 0
11.154608 -8.577885 3.827499 14.582700 -0.655550 1.305217 0.012859 -0.005277 181624.000000 1 0 0
10.676408 -14.548785 -0.555701 18.054408 -0.937721 1.601580 0.016109 -0.000360 640205.000000 1 0 0
13.408608 -12.937085 4.602599 19.192260 -0.767503 1.328621 0.009903 -0.004101 358986.000000 1 0 0
12.816708 -11.055285 6.399999 18.095506 -0.711745 1.209295 0.009282 -0.006317 125798.000000 1 0 0
10.836108 -10.460985 1.378099 15.124570 -0.767786 1.479553 0.010361 -0.010141 8689.250000 1 0 0
13.864808 -7.585885 11.831599 19.742474 -0.500639 0.928174 0.005751 -0.000275 -283318.000000 1 0 0
15.243108 -1.955685 -4.999701 16.160881 -0.127603 1.885327 0.013166 -0.000240 -55861.400000 1 0 0
12.727208 -11.547685 -7.179201 18.624494 -0.736846 1.966514 0.007216 0.001362 126951.000000 1 0 0
17.613508 -5.358585 1.687199 18.487746 -0.295334 1.479409 0.005489 0.001562 149612.000000 1 0 0
10.552208 -9.840885 9.113699 17.066096 -0.750532 1.007444 0.002092 -0.004331 -1015590.000000 1 0 0
16.438008 1.590915 9.919199 19.264725 0.096482 1.029918 0.030264 -0.005085 -135189.000000 1 0 0
18.071808 3.674715 0.493599 18.448236 0.200605 1.544037 -0.007004 0.002019 316645.000000 1 0 0
13.290608 -4.133985 5.668399 15.028668 -0.301559 1.184055 0.013915 -0.003990 -651110.000000 1 0 0
12.069408 -6.272785 6.623799 15.129215 -0.479304 1.117629 0.011945 -0.002237 -98129.800000 1 0 0
16.568508 -10.304485 3.361099 19.798860 -0.556390 1.400208 0.007178 0.001655 -1597530.000000 1 0 0
16.256008 -8.295685 -5.796401 19.148746 -0.471866 1.878325 0.012149 -0.001008 682728.000000 1 0 0
13.813808 -0.331285 5.313399 14.804164 -0.023978 1.203694 0.014366 -0.001404 271804.000000 1 0 0
18.224408 -4.277785 4.869399 19.342687 -0.230554 1.316315 0.009849 -0.001275 51302.300000 1 0 0
13.692608 -13.302385 7.085499 20.362840 -0.770944 1.215400 0.018742 -0.013179 -644026.000000 1 0 0
15.089008 -13.683285 -1.112701 20.399720 -0.736580 1.625368 0.011906 0.003218 269880.000000 1 0 0
17.790808 -5.831085 7.805299 20.283912 -0.316725 1.175803 0.018368 0.000389 -193608.000000 1 0 0
14.390108 3.282115 9.363299 17.479098 0.224245 1.005477 0.026837 -0.003850 -569914.000000 1 0 0
18.769408 3.654115 3.013499 19.357800 0.192279 1.414487 0.021433 -0.003482 -224617.000000 1 0 0
14.796708 -10.413485 8.027699 19.794625 -0.613252 1.153217 0.008836 -0.007714 -302985.000000 1 0 0
15.005908 -4.851385 10.247999 18.807836 -0.312692 0.994551 0.011758 -0.003277 73897.600000 1 0 0
17.754108 -7.912385 1.786899 19.519406 -0.419243 1.479123 0.010792 0.000500 -9095.300000 1 0 0
18.266408 -5.754685 -2.117501 19.268157 -0.305199 1.680915 0.002567 -0.003270 -524853.000000 1 0 0
14.214608 -13.101185 -5.505801 20.100000 -0.744660 1.848263 0.003875 0.001619 652268.000000 1 0 0
15.388408 -1.570985 9.379599 18.089997 -0.101736 1.025705 0.014440 -0.004235 -655491.000000 1 0 0
12.985208 -10.087085 10.126899 19.311111 -0.660442 1.018777 0.002411 -0.006147 -1264530.000000 1 0 0
16.502508 2.263915 4.884299 17.358412 0.136335 1.285565 0.017480 -0.003530 -243633.000000 1 0 0
14.882508 2.305515 -0.057401 15.060138 0.153693 1.574608 -0.001290 0.000991 -1161270.000000 1 0 0
14.948408 -10.056085 -7.229901 19.412656 -0.592181 1.952425 0.011723 0.000271 820466.000000 1 0 0
16.129908 -0.227785 -3.268001 16.459212 -0.014121 1.770676 0.009997 0.001691 103715.000000 1 0 0
12.191708 2.519715 13.566299 18.412799 0.203805 0.742491 0.028424 -0.005603 117188.000000 1 0 0
17.639008 -3.000785 9.228999 20.132405 -0.168509 1.094585 0.022756 -0.011049 1065340.000000 1 0 0
7.558508 -18.143085 4.413099 20.143933 -1.176057 1.349927 0.018466 -0.013070 324848.000000 1 0 0
6.880108 -11.304985 6.598899 14.787969 -1.024084 1.108243 0.000979 -0.003502 87341.800000 1 0 0
17.776508 2.076015 -1.524501 17.962132 0.116258 1.655772 -0.006869 0.004114 159433.000000 1 0 0
17.449808 -2.210685 3.418899 17.918477 -0.126017 1.378816 0.000917 0.002528 -3307390.000000 1 0 0
12.630608 -13.576085 -1.951501 18.645394 -0.821460 1.675652 0.008240 0.001379 91713.000000 1 0 0
15.068608 -8.335285 4.130599 17.708805 -0.505263 1.335377 0.018593 0.000774 -119950.000000 1 0 0
11.507708 -2.992685 14.918599 19.077424 -0.254423 0.672924 -0.010038 0.002782 138871.000000 1 0 0
11.910208 -13.913085 -6.368601 19.390360 -0.862804 1.905450 -0.001708 0.002226 49835.200000 1 0 0
10.765808 -12.091085 -1.280301 16.239955 -0.843315 1.649715 0.011178 -0.008176 -944347.000000 1 0 0
13.134208 -8.069985 2.022999 15.547495 -0.550959 1.440309 0.018794 -0.003406 39312.900000 1 0 0
8.760208 -7.899185 10.010899 15.471150 -0.733760 0.867063 0.003053 -0.000540 -2101310.000000 1 0 0
15.511408 -3.765985 7.873799 17.798403 -0.238180 1.112537 0.011813 -0.006594 -1210450.000000 1 0 0
10.122708 -17.542485 5.017699 20.865888 -1.047431 1.327942 0.012586 -0.013201 197373.000000 1 0 0
15.227508 -6.340785 8.075899 18.365803 -0.394567 1.115504 0.013397 0.002806 -832946.000000 1 0 0
16.481808 -5.064885 -0.522901 17.250406 -0.298142 1.601113 0.010879 -0.004654 -732478.000000 1 0 0
14.052808 -10.686785 3.332299 17.966441 -0.650170 1.384243 0.019541 -0.004942 -256737.000000 1 0 0
14.922308 -10.207985 -4.636401 18.664792 -0.599958 1.821828 0.015507 -0.004162 499815.000000 1 0 0
13.481808 -6.660585 -0.157701 15.038199 -0.458870 1.581283 0.012623 -0.003811 -54096.100000 1 0 0
17.699908 -1.050285 -5.010101 18.425281 -0.059269 1.846178 0.003119 -0.000487 -662031.000000 1 0 0
14.349208 0.135115 -1.663501 14.445943 0.009416 1.686206 0.007173 0.001263 -2380390.000000 1 0 0
4.721908 -12.805185 11.687199 17.968300 -1.217517 0.862640 -0.007677 0.003405 -535389.000000 1 0 0
11.992108 -7.534985 13.476199 19.549798 -0.560989 0.810237 -0.002265 -0.000184 267828.000000 1 0 0
11.984508 -5.855085 11.528999 17.630323 -0.454449 0.858029 -0.002030 0.001572 -360508.000000 1 0 0
13.245308 -4.683485 8.298499 16.316811 -0.339875 1.037255 0.014455 -0.003286 -2234780.000000 1 0 0
15.276908 -1.135985 3.098099 15.629223 -0.074223 1.371250 0.011155 -0.002422 1187640.000000 1 0 0
15.207708 -10.390885 5.595799 19.249879 -0.599405 1.275846 0.016137 -0.003427 -79253.300000 1 0 0
13.621408 -8.229685 -5.818201 16.944673 -0.543482 1.921293 0.012983 -0.000976 546753.000000 1 0 0
9.320108 -2.160285 13.581599 16.612979 -0.227765 0.613689 -0.014037 0.000104 1166160.000000 1 0 0
9.913608 -9.200285 13.495899 19.106652 -0.748096 0.786474 0.013485 -0.000177 -457214.000000 1 0 0
20.199108 6.058015 -3.120101 21.317565 0.291379 1.717687 0.002819 0.002572 -956649.000000 1 0 0
11.207808 -3.582685 10.483499 15.759262 -0.309394 0.842997 0.006514 0.000211 614488.000000 1 0 0
10.265408 -13.994385 -3.104101 17.631133 -0.937915 1.747777 0.004691 -0.001319 342884.000000 1 0 0
14.806708 -13.030085 2.465399 19.877120 -0.721662 1.446444 0.003975 0.005912 226937.000000 1 0 0
11.292308 -0.533185 14.310399 18.236996 -0.047182 0.668600 0.012425 0.001229 245929.000000 1 0 0
18.926108 -1.897385 5.570899 19.820004 -0.099918 1.285883 0.012853 -0.003005 458526.000000 1 0 0
18.931708 -0.521785 7.775099 20.472762 -0.027554 1.181240 0.032336 -0.003528 14922.800000 1 0 0
18.848708 0.733815 0.524699 18.870284 0.038912 1.542987 0.002641 -0.003822 45888.300000 1 0 0
18.530308 0.730815 3.716399 18.913435 0.039418 1.373014 0.013537 -0.004853 307496.000000 1 0 0
16.542908 -4.062285 -4.320001 17.573628 -0.240796 1.819165 0.009486 -0.002821 -351605.000000 1 0 0
11.033608 -8.378485 15.746399 20.973521 -0.649465 0.721562 0.008741 0.000018 345378.000000 1 0 0
16.573708 -7.540085 6.205399 19.236623 -0.426957 1.242340 0.009682 0.002371 676357.000000 1 0 0
18.855308 2.190815 6.027999 19.916302 0.115672 1.263307 0.026282 -0.001273 543314.000000 1 0 0
15.271008 1.628615 7.632599 17.149713 0.106246 1.109558 0.027031 -0.003240 96261.600000 1 0 0
8.667408 -15.769785 3.820099 18.395740 -1.068244 1.361612 0.008260 -0.015708 791194.000000 1 0 0
11.298508 -15.140785 1.963299 18.993530 -0.929712 1.467245 0.001266 -0.003462 304072.000000 1 0 0
8.136108 -16.296385 6.169299 19.230930 -1.107742 1.244221 0.013942 -0.006429 -99663.100000 1 0 0
14.578708 -11.786285 -2.691501 18.939362 -0.679877 1.713391 0.008761 -0.000861 987359.000000 1 0 0
13.641808 -5.011885 3.099099 14.860092 -0.352084 1.360702 0.012274 0.000022 -1904480.000000 1 0 0
-0.982992 10.259715 -5.477901 11.671993 -1.475277 2.059317 -0.004952 0.004802 -3377640.000000 1 0 0
8.174408 -1.854885 -8.090101 11.649519 -0.223135 2.338463 -0.002178 -0.000852 -2221200.000000 1 0 0
3.009808 -10.209585 7.608299 13.083607 -1.284115 0.950208 -0.008435 0.002411 500376.000000 1 0 0
-6.314892 1.418815 8.362199 10.574368 -0.221008 0.658683 -0.005264 0.005731 -63033.100000 1 0 0
7.101708 -6.288485 -7.236401 11.930834 -0.724740 2.222484 -0.001903 -0.002075 -76379.000000 1 0 0
-11.365292 -4.542285 -4.085701 12.903300 0.380216 1.892981 0.002247 -0.002445 140959.000000 1 0 0
2.083208 -3.259885 2.910999 4.841541 -1.002162 0.925726 -0.003873 0.003499 1095140.000000 1 0 0
-3.530492 -4.263985 8.901999 10.482916 0.879226 0.556345 -0.000706 0.001387 -3139410.000000 1 0 0
-4.814092 -1.167185 -2.378001 5.494787 0.237862 2.018364 0.001254 -0.002201 98544.400000 1 0 0
4.917708 -5.284485 -3.659701 8.093395 -0.821333 2.040008 -0.003888 0.000091 529741.000000 1 0 0
2.708108 14.227015 -8.931801 17.015254 1.382697 2.123428 0.003001 -0.004989 -275384.000000 1 0 0
5.535308 -5.518585 13.663499 15.741208 -0.783885 0.519619 -0.005176 0.002726 -1731110.000000 1 0 0
-4.610892 -0.926785 9.997399 11.048404 0.198356 0.439716 0.001040 0.002589 -1750970.000000 1 0 0
-0.889792 12.175915 -2.724701 12.508742 -1.497848 1.790380 -0.003740 0.001929 754317.000000 1 0 0
3.086608 9.359115 -10.587301 14.464133 1.252232 2.392004 0.001907 -0.005509 -627553.000000 1 0 0
-10.531992 2.705615 1.190199 10.938911 -0.251457 1.461776 -0.006508 0.000626 332950.000000 1 0 0
5.606208 -9.066385 -0.709501 10.683272 -1.016993 1.637258 -0.000568 -0.004776 468300.000000 1 0 0
-6.903992 5.515515 9.366599 12.877080 -0.674062 0.756292 -0.008530 0.002232 173386.000000 1 0 0
-5.685492 -1.841185 5.221399 7.935854 0.313182 0.852702 -0.005283 0.002626 -177129.000000 1 0 0
6.420108 -3.813885 -7.455601 10.552227 -0.536035 2.355397 -0.003300 -0.001033 731817.000000 1 0 0
6.252808 4.688615 11.065999 13.547585 0.643400 0.614912 -0.003190 0.000526 836303.000000 1 0 0
3.676408 -10.076085 3.070999 11.156814 -1.220941 1.291939 -0.007325 -0.001608 1225530.000000 1 0 0
-6.553592 6.630015 -5.636901 10.894096 -0.791195 2.114638 -0.004538 -0.001734 43307.200000 1 0 0
-11.087192 8.478715 5.325399 14.939019 -0.652862 1.206303 -0.003378 -0.005959 307812.000000 1 0 0
-9.143292 -5.597785 5.111699 11.877055 0.549363 1.125878 -0.002729 0.001101 -742320.000000 1 0 0
3.269708 9.838915 -8.087201 13.149071 1.249954 2.233233 0.000268 -0.002908 879354.000000 1 0 0
-8.077892 -8.626285 6.031099 13.267979 0.818216 1.098918 0.003799 0.001701 -2762300.000000 1 0 0
-7.774792 -5.625685 -7.490801 12.174063 0.626377 2.233573 0.011977 -0.005230 -1768750.000000 1 0 0
9.163708 -1.644585 6.926899 11.604316 -0.177577 0.931134 -0.000920 -0.002143 1084870.000000 1 0 0
-4.079992 -0.377785 -4.816401 6.323510 0.092331 2.436676 0.006804 -0.007432 -532512.000000 1 0 0
9.031508 1.122215 -4.525901 10.164216 0.123622 2.032281 -0.005231 0.004418 -2716080.000000 1 0 0
-1.746892 -10.691085 10.692999 15.221404 1.408831 0.791896 -0.012232 -0.001139 -17323.100000 1 0 0
-12.952392 0.281715 -2.647901 13.223282 -0.021747 1.772405 -0.002943 -0.001188 59717.600000 1 0 0
-9.864292 -5.127185 -6.033401 12.648881 0.479340 2.068024 0.007334 -0.004602 -1371890.000000 1 0 0
-5.811892 8.309215 -0.320901 10.145152 -0.960439 1.602433 -0.004610 0.001343 861596.000000 1 0 0
6.365808 9.618815 0.341099 11.539561 0.986165 1.541233 0.007718 0.000022 567255.000000 1 0 0
-0.685792 -12.223285 -0.085801 12.242809 1.514750 1.577805 0.003092 -0.000350 -63627.700000 1 0 0
6.140708 4.770015 2.297299 8.107954 0.660425 1.283522 -0.002128 0.001541 337245.000000 1 0 0
3.415908 -7.561285 -8.345501 11.768128 -1.146477 2.359104 -0.007934 -0.000036 1047520.000000 1 0 0
-6.505092 -9.965485 4.588099 12.754519 0.992482 1.202825 0.002975 0.000985 -1766970.000000 1 0 0
-0.092192 6.492915 -9.197201 11.258550 -1.556598 2.526826 0.000300 0.000359 -2027030.000000 1 0 0
-17.169892 -2.752585 4.302599 17.913522 0.158962 1.328238 0.008573 -0.003681 354928.000000 1 0 0
-8.389292 0.855215 -8.997701 12.331676 -0.101590 2.388594 -0.003364 -0.002004 1568880.000000 1 0 0
-10.158492 -5.761785 -11.920301 16.687921 0.515944 2.366430 0.010299 0.003415 -418822.000000 1 0 0
2.189408 9.504715 6.467599 11.703117 1.344396 0.985269 -0.001824 0.003369 -228482.000000 1 0 0
-11.363892 1.584115 -1.067601 11.523334 -0.138506 1.663576 -0.002297 -0.001575 -258000.000000 1 0 0
-6.014892 -5.338485 -3.121301 8.626753 0.725891 1.941012 0.006858 -0.001215 488462.000000 1 0 0
-7.049492 -8.390485 1.368299 11.043904 0.872033 1.446581 0.002721 0.001405 112998.000000 1 0 0
0.035808 10.983115 -7.818501 13.481805 1.567536 2.189439 0.000278 0.001327 112747.000000 1 0 0
-2.848192 9.303015 -4.239801 10.612926 -1.273700 1.981761 -0.005941 0.002090 -347108.000000 1 0 0
3.491808 -4.805585 9.275899 11.014929 -0.942431 0.569593 -0.009342 0.000035 -1339030.000000 1 0 0
-8.883592 1.525315 -0.330301 9.019639 -0.170042 1.607425 -0.002390 -0.001408 -980766.000000 1 0 0
2.428308 3.589515 -10.332201 11.204271 0.976017 2.744441 0.000098 -0.000159 -145998.000000 1 0 0
-13.614892 0.555515 1.239499 13.682479 -0.040779 1.480082 -0.002217 -0.002572 -296655.000000 1 0 0
9.396308 -12.586385 -5.134001 16.524699 -0.929510 1.886712 0.005239 0.001699 -2272340.000000 1 0 0
-4.591792 9.444515 -8.265401 13.364141 -1.118261 2.237598 -0.007405 0.002997 -1812480.000000 1 0 0
-2.280392 7.244915 8.470499 11.377097 -1.265856 0.730978 0.000373 -0.000625 -1790480.000000 1 0 0
-10.759392 -1.181485 -4.389401 11.680208 0.109371 1.956054 0.000635 -0.002032 -3336280.000000 1 0 0
2.754008 -7.143385 9.691599 12.350692 -1.202824 0.668583 -0.009923 0.001864 -1208460.000000 1 0 0
-16.049992 -6.561485 3.357199 17.661430 0.388083 1.379546 -0.000499 0.002419 -242934.000000 1 0 0
-10.622692 -0.084985 6.240799 12.320567 0.008000 1.039635 -0.004641 0.002626 690052.000000 1 0 0
-8.348192 9.991515 9.390199 16.052991 -0.874764 0.945978 -0.001403 -0.008992 816884.000000 1 0 0
-0.007992 -6.016985 -3.830001 7.132537 1.569468 2.137645 -0.003967 0.001916 786869.000000 1 0 0
4.951408 1.546615 -3.103101 6.044642 0.302756 2.109896 -0.008548 0.004392 -780970.000000 1 0 0
0.277508 5.446815 3.885599 6.696468 1.519892 0.951766 -0.002403 0.004154 -1890350.000000 1 0 0
5.992208 -11.285885 -1.564701 12.873463 -1.082699 1.692642 0.000472 -0.004721 -92287.600000 1 0 0
6.262008 -13.526985 5.258499 15.806451 -1.137244 1.231652 0.002292 -0.005862 -164545.000000 1 0 0
7.907308 -8.320085 -5.998701 12.951207 -0.810830 2.052373 -0.000354 -0.001765 604856.000000 1 0 0
-13.164892 -1.368485 -4.640601 14.025773 0.103578 1.908014 -0.002198 -0.000169 -3333140.000000 1 0 0
-6.865692 -1.520485 -7.131801 10.015597 0.217944 2.363238 0.005956 -0.005642 -464572.000000 1 0 0
-5.543792 12.803315 -4.576801 14.683515 -1.162172 1.887774 -0.006668 0.001650 69678.300000 1 0 0
-4.253992 6.871315 -6.669001 10.477929 -1.016455 2.260723 -0.001633 0.000979 -2927540.000000 1 0 0
-9.499292 -3.627185 -7.969301 12.919086 0.364752 2.235547 0.008031 -0.004623 453738.000000 1 0 0
-2.091492 -6.298085 9.242999 11.378631 1.250171 0.622691 -0.000299 0.000411 -304662.000000 1 0 0
7.458708 -6.036185 9.993999 13.854525 -0.680374 0.765043 -0.002019 0.002030 70851.100000 1 0 0
9.635808 -4.974485 12.186599 16.312802 -0.476563 0.727172 -0.000233 0.003028 311781.000000 1 0 0
-6.556192 2.857215 -8.898001 11.415855 -0.410986 2.464572 -0.000161 -0.002603 859383.000000 1 0 0
7.455108 5.488415 8.851699 12.808353 0.634607 0.807803 -0.001075 0.001163 -695927.000000 1 0 0
12.699708 3.326715 11.166799 17.235052 0.256196 0.865956 0.021784 0.000452 -208938.000000 1 0 0
-7.523592 -7.271285 -3.817601 11.137778 0.768346 1.920651 0.005992 -0.002442 -846901.000000 1 0 0
2.240408 1.330515 -5.818801 6.375590 0.535901 2.720563 -0.003693 0.001542 836005.000000 1 0 0
12.788308 6.903115 -7.095301 16.172110 0.494978 2.024989 0.003921 0.003806 -269598.000000 1 0 0
0.748608 -7.656385 0.973399 7.754234 -1.473330 1.444933 -0.001525 0.000416 839194.000000 1 0 0
-10.220392 -5.980285 -8.466001 14.556558 0.529416 2.191483 0.008209 -0.002171 787471.000000 1 0 0
-6.685792 0.157615 3.188699 7.408944 -0.023570 1.125877 -0.003717 -0.000027 340410.000000 1 0 0
10.724208 -7.912885 1.252699 13.386248 -0.635681 1.477078 0.006822 -0.005773 2648.130000 1 0 0
6.275908 1.139515 10.542099 12.321581 0.179613 0.544126 -0.005419 0.000441 -1239130.000000 1 0 0
-12.917992 5.387015 1.875699 14.121356 -0.395089 1.437576 -0.005279 -0.000459 282242.000000 1 0 0
2.133408 7.397515 3.639799 8.516032 1.290020 1.129175 -0.005122 0.002499 -18411.500000 1 0 0
10.008108 -9.539485 -0.806601 13.849715 -0.761429 1.629069 0.007286 -0.004441 709221.000000 1 0 0
6.666708 -11.906385 -9.183701 16.448324 -1.060363 2.163176 -0.007322 0.006326 -524625.000000 1 0 0
10.267308 3.590915 11.969599 16.173546 0.336445 0.737618 0.003345 -0.000312 -510822.000000 1 0 0
-10.966892 -3.121285 -1.915401 11.562175 0.277278 1.737225 -0.005200 -0.001400 -1389850.000000 1 0 0
12.284308 1.024015 6.876099 14.115012 0.083167 1.061975 0.011536 -0.000781 -132713.000000 1 0 0
-9.489792 9.219515 3.177899 13.607154 -0.770953 1.335073 -0.004217 -0.004053 967591.000000 1 0 0
-6.529792 7.683315 -8.776401 13.367750 -0.866380 2.287013 -0.004605 0.000734 -1080780.000000 1 0 0
8.600908 5.519615 11.969899 15.739131 0.570552 0.706685 0.007608 -0.001606 -2591920.000000 1 0 0
1.380008 4.847815 -2.695701 5.715990 1.293466 2.061909 -0.004794 0.001320 373266.000000 1 0 0
1.623808 0.470915 9.474499 9.624170 0.282264 0.176590 -0.004020 -0.001447 691692.000000 1 0 0
2.548008 12.647915 -3.979201 13.501709 1.372000 1.869957 0.000259 0.002830 515752.000000 1 0 0
2.132208 0.572515 12.884099 13.071882 0.262321 0.169705 -0.003278 -0.005836 -590645.000000 1 0 0
-12.145792 -1.734985 0.945999 12.305500 0.141887 1.493844 -0.006667 -0.001968 -229923.000000 1 0 0
3.213408 8.843115 -1.289001 9.496747 1.222252 1.706947 0.000989 0.001573 355492.000000 1 0 0
3.578008 -2.925685 -5.845401 7.451878 -0.685432 2.472556 -0.006271 0.001271 -1321860.000000 1 0 0
-7.739592 -7.082485 9.278399 14.005412 0.741094 0.846663 0.002609 0.003081 -154298.000000 1 0 0
-6.957692 10.943315 -3.401801 13.406635 -1.004473 1.827341 -0.006485 0.001076 618878.000000 1 0 0
0.409408 0.559615 2.586399 2.677731 0.939183 0.261930 -0.004787 0.003299 -2002760.000000 1 0 0
-7.002992 4.608515 -1.910101 8.598185 -0.582033 1.794817 0.001205 -0.003559 -574143.000000 1 0 0
-6.984392 -3.844085 -5.897601 9.916674 0.503137 2.207708 0.002655 -0.005705 -160596.000000 1 0 0
3.032308 -6.115685 13.524499 15.149540 -1.110494 0.467421 -0.012561 0.002868 -411430.000000 1 0 0
-5.481092 -0.544985 -11.777201 13.001609 0.099104 2.704123 0.004738 -0.008521 -494792.000000 1 0 0
11.767708 2.409715 -0.528301 12.023510 0.201981 1.614749 -0.001901 0.003394 -1122070.000000 1 0 0
6.122208 -10.912785 10.687299 16.455658 -1.059538 0.863922 0.000481 0.001101 471722.000000 1 0 0
-8.132192 6.445115 -10.426201 14.709783 -0.670178 2.358583 -0.009594 0.002300 263701.000000 1 0 0
2.947308 7.884915 11.160999 13.979500 1.213086 0.646191 0.004022 0.001875 1464770.000000 1 0 0
-6.203492 -10.186685 -0.416401 11.934205 1.023800 1.605695 0.003454 0.001505 37824.200000 1 0 0
11.294508 4.362615 5.966799 13.498186 0.368606 1.112920 0.004702 -0.000939 390762.000000 1 0 0
-7.843892 10.678615 1.593099 13.345315 -0.937262 1.451136 -0.001558 -0.001990 308094.000000 1 0 0
4.166908 -2.963185 -3.632801 6.272227 -0.618152 2.188529 -0.007323 0.000803 -3741910.000000 1 0 0
6.408508 6.502315 6.309399 11.097639 0.792664 0.966072 0.000834 0.001254 -6429990.000000 1 0 0
-0.347792 10.403315 -10.233101 14.596790 -1.537378 2.347667 -0.001366 -0.000612 -220020.000000 1 0 0
13.852808 6.534615 -2.480201 15.516214 0.440767 1.731331 0.001181 0.006800 839311.000000 1 0 0
1.443308 9.525015 -6.188101 11.449963 1.420412 2.141765 -0.002930 0.001713 521320.000000 1 0 0
0.666808 7.366015 7.215599 10.332845 1.480517 0.797753 -0.003581 0.002710 120351.000000 1 0 0
12.213008 6.340915 1.867899 13.887182 0.478884 1.435882 -0.000619 0.000571 -2504910.000000 1 0 0
-6.697292 6.662615 -3.037501 9.923234 -0.782803 1.881890 -0.003197 -0.002864 700547.000000 1 0 0
1.041608 9.799815 11.186899 14.908656 1.464905 0.722186 0.002788 -0.001266 -861483.000000 1 0 0
-3.518992 13.719515 -10.951801 17.903920 -1.319714 2.229002 -0.003847 0.004607 201047.000000 1 0 0
-10.028292 -5.534085 -2.360501 11.694644 0.504260 1.774037 0.002576 -0.000186 -990054.000000 1 0 0
-4.038792 4.024815 -12.432101 13.677285 -0.783665 2.711578 0.003004 -0.007117 -240447.000000 1 0 0
-3.218292 8.534115 2.510099 9.459869 -1.210178 1.302238 -0.001961 0.004333 -1847880.000000 1 0 0
7.107508 8.916815 7.123899 13.445304 0.897832 1.012381 0.008268 0.000470 -2153160.000000 1 0 0
-1.451592 -2.227285 -8.182601 8.603655 0.993205 2.827448 0.001262 -0.005917 -1390580.000000 1 0 0
0.932008 -1.284385 4.908699 5.158838 -0.943065 0.312680 -0.004328 0.003526 1231740.000000 1 0 0
2.672908 -8.912785 -6.209501 11.186603 -1.279435 2.159260 -0.009093 0.001493 307832.000000 1 0 0
5.418108 4.000415 8.682399 10.988324 0.635998 0.659746 -0.006137 0.001555 -21425.900000 1 0 0
6.142608 -7.538985 -2.816201 10.124175 -0.887108 1.852681 -0.001456 -0.003631 936645.000000 1 0 0
1.767408 2.271015 -8.256901 8.744007 0.909462 2.806235 -0.001939 -0.001333 227975.000000 1 0 0
-5.388492 10.971115 -0.672201 12.241449 -1.114252 1.625736 -0.003914 0.002442 694477.000000 1 0 0
-5.437692 3.354615 -3.320801 7.200670 -0.552767 2.050120 0.003990 -0.004705 -472694.000000 1 0 0
2.032508 13.695915 -6.388601 15.248718 1.423469 2.003096 -0.003785 0.000247 774401.000000 1 0 0
-5.057092 -2.603885 2.699099 6.295993 0.475495 1.127742 -0.002812 0.002960 560432.000000 1 0 0
10.277608 -3.446585 -1.880601 11.002038 -0.323563 1.742572 -0.000574 -0.000953 238454.000000 1 0 0
2.316508 -3.335085 7.014799 8.105332 -0.963712 0.524739 -0.007863 0.000604 -1889580.000000 1 0 0
-2.804092 9.830615 -11.694001 15.532340 -1.292935 2.423225 0.000963 0.001218 -2225430.000000 1 0 0
0.553608 -2.061185 9.227199 9.470806 -1.308402 0.227301 -0.004838 -0.001345 249727.000000 1 0 0
9.406608 2.669115 4.982399 10.974186 0.276482 1.099535 -0.004615 0.001335 -469684.000000 1 0 0
13.330908 2.053015 -5.035701 14.397440 0.152804 1.928115 0.005243 0.006184 -1211040.000000 1 0 0
-6.473592 3.904115 7.640499 10.748336 -0.542684 0.780084 -0.009019 0.002681 -543278.000000 1 0 0
10.503108 0.053015 1.766399 10.650740 0.005048 1.404179 -0.002773 0.002633 1647030.000000 1 0 0
15.344408 6.552815 -4.697701 17.333743 0.403605 1.845243 0.007319 0.009364 -5905.350000 1 0 0
7.935408 -4.875285 -9.289701 13.154378 -0.550919 2.354921 0.002175 -0.002094 616206.000000 1 0 0
4.372308 5.633715 -2.188201 7.459494 0.910801 1.868520 -0.002697 0.001062 -315455.000000 1 0 0
-1.663692 -10.548685 1.399799 10.770425 1.414369 1.440461 0.001488 -0.000167 -791532.000000 1 0 0
-2.716392 12.212715 -12.809901 17.905942 -1.351936 2.367992 0.001036 -0.001668 74282.700000 1 0 0
8.288508 4.291415 -9.645001 13.421686 0.477750 2.372602 0.002690 0.003727 -751234.000000 1 0 0
4.119208 7.596215 -8.969201 12.454595 1.073906 2.374818 -0.000032 -0.002663 -1771760.000000 1 0 0
-1.751992 -4.899485 -2.501701 5.773468 1.227379 2.018959 0.002172 0.000399 101209.000000 1 0 0
-3.267092 -9.067785 7.361099 12.127835 1.224978 0.918568 -0.000961 0.003303 -1759750.000000 1 0 0
1.119008 7.257315 -1.428401 7.480717 1.417811 1.762920 -0.001588 0.001294 224755.000000 1 0 0
0.566008 -0.442785 -2.206601 2.320671 -0.663851 2.826754 -0.005670 -0.001112 -1008410.000000 1 0 0
4.152008 -6.832585 7.612399 11.039565 -1.024751 0.809920 -0.006319 0.001138 -991711.000000 1 0 0
-13.822792 3.840215 6.077199 15.580410 -0.270984 1.170106 0.000016 -0.005232 -1659780.000000 1 0 0
4.273508 6.323015 12.565799 14.701792 0.976452 0.545800 0.001544 -0.000350 -692082.000000 1 0 0
8.357608 10.120115 -7.136801 14.939889 0.880496 2.068832 0.013497 -0.005920 122095.000000 1 0 0
12.555608 5.280515 9.454499 16.580552 0.398113 0.964027 0.024170 0.000514 735762.000000 1 0 0
7.590208 3.936115 0.449799 8.561926 0.478399 1.518237 -0.003123 0.004659 -1658860.000000 1 0 0
-10.856492 -7.636185 -1.072301 13.316327 0.612987 1.651409 -0.002343 0.002561 -481931.000000 1 0 0
10.447508 6.899515 0.169499 12.521281 0.583650 1.557259 0.002712 0.001851 -931329.000000 1 0 0
14.563808 3.686315 4.055799 15.560943 0.247908 1.307112 0.011628 -0.004375 631241.000000 1 0 0
2.099308 5.554115 8.205499 10.128450 1.209421 0.626399 -0.003403 0.002601 157599.000000 1 0 0
4.249308 0.043615 11.576499 12.331823 0.010264 0.351811 -0.006209 -0.001557 -2343910.000000 1 0 0
-1.291692 -1.728785 -0.778001 2.294003 0.929111 1.916805 -0.000866 -0.000977 -1250960.000000 1 0 0
2.868008 -5.249085 -9.526001 11.248247 -1.070735 2.580901 -0.009242 -0.000254 515748.000000 1 0 0
-3.992192 -5.370185 -1.391401 6.834653 0.931533 1.775810 0.002267 -0.000429 943516.000000 1 0 0
-0.998192 -8.385085 8.398999 11.910047 1.452310 0.788087 -0.004682 0.005505 -779238.000000 1 0 0
3.963208 8.599115 -6.011301 11.215505 1.138927 2.136466 0.001167 0.000173 63292.400000 1 0 0
-14.189192 -1.845285 -2.602901 14.543498 0.129323 1.750739 -0.004721 -0.002809 -766412.000000 1 0 0
8.824608 -10.538285 -6.676101 15.280690 -0.873671 2.022943 -0.001890 0.002103 353899.000000 1 0 0
14.757008 6.038015 1.604799 16.025052 0.388380 1.470485 -0.007451 0.003102 -443417.000000 1 0 0
-5.769392 0.481815 -8.408001 10.208453 -0.083319 2.538581 0.008817 -0.006987 -313066.000000 1 0 0
-8.249892 -4.436785 -12.981701 16.008446 0.493428 2.516533 0.000133 -0.001844 676890.000000 1 0 0
0.933308 -10.577785 12.000899 16.024424 -1.482791 0.724376 -0.007456 -0.000713 -812277.000000 1 0 0
0.250508 11.772215 3.343799 12.240457 1.549520 1.294103 0.002844 0.001536 -561794.000000 1 0 0
5.146508 -13.220285 -3.762501 14.677156 -1.199558 1.830041 0.003801 -0.000427 490580.000000 1 0 0
-7.459392 1.606015 -6.822001 10.235307 -0.212064 2.300323 0.001656 -0.002261 547844.000000 1 0 0
1.415508 2.866315 4.087399 5.189052 1.112087 0.663735 -0.006172 0.004792 -1072850.000000 1 0 0
17.281008 5.478615 2.249199 18.267659 0.307007 1.447358 -0.000310 -0.000708 135756.000000 1 0 0
2.302308 -8.270585 -3.634701 9.322781 -1.299297 1.971290 -0.007712 0.001279 543757.000000 1 0 0
-0.116292 -9.563485 -0.396301 9.572399 1.558637 1.612209 0.004840 0.001889 -644226.000000 1 0 0
0.810808 11.900815 -5.596901 13.176195 1.502771 2.009508 0.000130 0.003363 -1097720.000000 1 0 0
6.028308 -5.059485 7.689199 11.002848 -0.698242 0.797026 -0.005569 0.001028 -734053.000000 1 0 0
-6.036992 -1.791385 -9.444501 11.351340 0.288458 2.553529 0.008776 -0.006541 -406112.000000 1 0 0
2.091908 -1.289785 11.200499 11.466944 -0.552506 0.215993 -0.006434 -0.002219 -402005.000000 1 0 0
17.989608 2.212015 -5.980501 19.086262 0.122347 1.889505 0.001457 0.009891 625659.000000 1 0 0
-8.908692 4.890115 7.785699 12.802153 -0.502010 0.917061 -0.007106 -0.002907 -200618.000000 1 0 0
11.441608 -7.101885 -4.888301 14.326293 -0.555506 1.919002 0.009553 -0.003710 346797.000000 1 0 0
10.704408 0.598315 8.961299 13.973089 0.055836 0.874572 0.003629 0.000514 -337457.000000 1 0 0
-8.393492 -7.415585 -1.545701 11.306228 0.723620 1.707938 0.003461 -0.000041 -684020.000000 1 0 0
10.252108 -10.413085 -3.227701 14.965163 -0.793188 1.788185 0.009954 -0.003624 872711.000000 1 0 0
7.638408 -13.873285 -3.825001 16.292451 -1.067505 1.807780 0.007216 -0.004539 -1470250.000000 1 0 0
1.699508 -1.215485 -11.678301 11.863745 -0.620853 2.964550 -0.001071 -0.002825 374538.000000 1 0 0
-11.858292 -2.604685 -6.250301 13.655392 0.216217 2.046222 0.002349 -0.003409 -255962.000000 1 0 0
2.611008 -12.167385 -6.514301 14.046307 -1.359411 2.053046 -0.003611 0.004580 15571.700000 1 0 0
-5.535592 1.487715 1.220799 5.860582 -0.262551 1.360953 -0.001749 -0.001497 601682.000000 1 0 0
0.183008 6.834915 -3.977701 7.910225 1.544027 2.097696 -0.001320 0.000519 1099350.000000 1 0 0
5.431508 -11.846785 3.620599 13.526135 -1.140913 1.299818 -0.004215 -0.004790 -1563940.000000 1 0 0
-4.425092 -9.187085 1.137499 10.260500 1.121925 1.459706 0.002493 0.001990 86812.300000 1 0 0
7.077808 -6.264385 -4.719901 10.564817 -0.724507 2.033933 -0.000426 -0.002465 -187520.000000 1 0 0
-6.947792 -6.045585 2.168799 9.461744 0.716074 1.339522 0.001003 0.001716 -282426.000000 1 0 0
-5.670192 -0.598385 7.345999 9.299077 0.105143 0.660035 -0.002823 0.004469 4952.730000 1 0 0
4.234608 -5.104585 3.208299 7.367623 -0.878283 1.120248 -0.006015 0.000996 -670975.000000 1 0 0
-2.384892 10.601515 -8.827201 13.999975 -1.349522 2.253013 -0.003086 0.002709 -362619.000000 1 0 0
-2.408392 -4.727985 2.712699 5.959272 1.099664 1.098192 -0.002278 0.004054 1249890.000000 1 0 0
15.138008 5.146815 6.320399 17.192918 0.327732 1.194352 0.021582 -0.006639 166191.000000 1 0 0
6.838108 0.302415 0.143199 6.846290 0.044196 1.549879 -0.003685 0.003714 3191130.000000 1 0 0
-9.739992 9.358515 0.567799 13.519306 -0.765427 1.528785 -0.007047 -0.002980 -1760020.000000 1 0 0
7.282308 10.549415 -2.645601 13.088979 0.966607 1.774323 0.003308 0.002619 -310424.000000 1 0 0
1.463308 -4.340585 -5.439801 7.111497 -1.245639 2.441730 -0.004935 0.000084 -406022.000000 1 0 0
0.802008 -8.220285 -7.991001 11.492276 -1.473540 2.339685 -0.010983 0.002223 1305190.000000 1 0 0
-10.486892 0.351615 -10.363901 14.748186 -0.033516 2.350015 -0.004016 -0.003723 -3316100.000000 1 0 0
5.882408 -2.519785 0.452199 6.415335 -0.404713 1.500251 -0.002789 0.001131 -600583.000000 1 0 0
-3.193992 5.336415 -1.043701 6.306205 -1.031460 1.737065 0.001380 -0.002444 932778.000000 1 0 0
-0.374592 4.534315 -5.078001 6.818096 -1.488371 2.411006 -0.000178 -0.001235 -829791.000000 1 0 0
3.967408 -9.755885 10.009799 14.529752 -1.184555 0.810802 -0.008436 0.003734 -2788930.000000 1 0 0
7.159608 -13.467785 -0.651001 15.266467 -1.082182 1.613452 0.009281 -0.005942 706234.000000 1 0 0
12.936808 -0.034485 0.430099 12.944002 -0.002666 1.537563 0.001001 -0.001840 86285.100000 1 0 0
9.217608 2.367315 -0.715201 9.543584 0.251392 1.645807 -0.002811 0.004483 -193272.000000 1 0 0
-0.811892 -5.820085 4.243199 7.248261 1.432193 0.945412 -0.005687 0.001232 1144970.000000 1 0 0
11.464108 -3.761585 3.310899 12.511489 -0.317050 1.302977 0.008393 -0.003507 -1109690.000000 1 0 0
1.840508 -8.217085 11.733299 14.442239 -1.350448 0.622490 -0.014144 0.001178 129596.000000 1 0 0
9.326008 -6.088985 -6.000701 12.651426 -0.578414 2.064977 0.002448 -0.003578 -1978840.000000 1 0 0
3.208708 6.343415 -0.117101 7.109742 1.102493 1.587268 -0.003004 0.003300 -995748.000000 1 0 0
6.437508 -1.320285 11.325599 13.094039 -0.202287 0.525759 -0.008469 -0.000404 371060.000000 1 0 0
-4.957192 -7.618185 -3.852901 9.871947 0.993926 1.971741 0.002749 -0.000264 -685822.000000 1 0 0
-3.512792 -8.531785 -5.877901 10.939871 1.180219 2.138019 0.001097 0.001976 -438912.000000 1 0 0
9.724808 5.432215 2.184099 11.351262 0.509417 1.377179 0.000749 0.000144 -787789.000000 1 0 0
8.823108 -1.507285 0.313799 8.956429 -0.169200 1.535753 -0.003881 0.002058 1051940.000000 1 0 0
-3.883492 9.670115 9.277699 13.952359 -1.188914 0.843362 -0.000022 -0.002444 338370.000000 1 0 0
-14.425692 -3.602685 -6.069001 16.059660 0.244735 1.958327 -0.005932 0.001409 -379897.000000 1 0 0
10.615408 6.387615 -5.949501 13.743547 0.541691 2.018497 0.004101 -0.001268 -1524200.000000 1 0 0
-1.828292 4.726915 2.602799 5.697450 -1.201735 1.096362 0.001001 0.003691 405023.000000 1 0 0
6.883308 -3.682885 2.686399 8.255926 -0.491290 1.239372 -0.003388 -0.000860 -1247890.000000 1 0 0
8.413208 -11.383285 -1.648001 14.250514 -0.934318 1.686701 0.006699 -0.007574 -1831000.000000 1 0 0
4.545308 0.494115 1.781899 4.907050 0.108284 1.199171 -0.006839 0.005588 62073.800000 1 0 0
-10.787692 2.390315 3.759599 11.671439 -0.218055 1.242829 -0.006185 0.000381 74842.700000 1 0 0
-0.864892 -3.054285 4.294899 5.340679 1.294848 0.636492 -0.003181 0.002249 76033.700000 1 0 0
8.377608 -8.750585 -8.581901 14.846080 -0.807170 2.187144 0.001369 0.001364 -485588.000000 1 0 0
11.985008 -4.794785 0.935599 12.942401 -0.380563 1.498444 0.007034 -0.003929 178698.000000 1 0 0
2.864908 4.873015 3.459899 6.627585 1.039312 1.021549 -0.007192 0.003609 -492003.000000 1 0 0
6.188308 7.543215 1.967499 9.953206 0.883751 1.371811 0.001591 0.000177 -407653.000000 1 0 0
-1.752192 -1.257585 -10.302701 10.526032 0.622521 2.935232 0.006178 -0.007112 1637010.000000 1 0 0
-1.115692 -8.713585 5.833499 10.545190 1.443449 0.984607 -0.007559 0.001066 1611730.000000 1 0 0
-4.269592 -0.230985 2.351099 4.879593 0.054047 1.068063 -0.004034 0.002362 -62122.500000 1 0 0
-8.293592 6.149915 -7.914301 13.009277 -0.638056 2.224787 -0.008662 0.003134 -576848.000000 1 0 0
6.536808 11.210015 -9.408701 16.028661 1.042879 2.198135 0.007279 -0.007420 39601.600000 1 0 0
-11.134892 -5.757085 3.135899 12.921443 0.477179 1.325659 -0.004889 0.002249 612548.000000 1 0 0
1.647008 -6.384385 3.083299 7.278718 -1.318326 1.133375 -0.011157 0.001333 254276.000000 1 0 0
10.097208 2.377715 7.245099 12.653008 0.231269 0.961124 0.000270 0.001017 -1426480.000000 1 0 0
-4.138892 -2.527685 -10.559701 11.620108 0.548261 2.711061 0.006310 -0.007301 -2534770.000000 1 0 0
-8.320592 11.841015 5.891699 15.625428 -0.958266 1.184178 -0.000118 -0.006420 814182.000000 1 0 0
6.863108 5.927815 -2.876101 9.513843 0.712406 1.877908 -0.001289 0.003114 -2741280.000000 1 0 0
3.843308 -9.930185 -2.317501 10.897266 -1.201518 1.785101 -0.005823 -0.002470 -1490220.000000 1 0 0
8.526608 -12.901385 -7.501101 17.187650 -0.986792 2.022417 0.002963 0.001891 603872.000000 1 0 0
-1.223692 9.608815 3.760499 10.390770 -1.444127 1.200483 -0.003519 0.002232 381117.000000 1 0 0
0.525008 -13.298285 4.714399 14.118979 -1.531337 1.230353 0.001469 0.001580 -2033800.000000 1 0 0
-11.168792 -7.049185 -5.172201 14.183955 0.563010 1.944055 0.004637 -0.001417 34229.400000 1 0 0
3.571308 10.340715 -3.436901 11.467211 1.238258 1.875191 0.001594 -0.000034 -789436.000000 1 0 0
11.437808 -8.186085 -7.433201 15.908737 -0.621188 2.056963 0.018282 -0.004494 403872.000000 1 0 0
11.521508 -4.856085 -5.894201 13.822747 -0.398885 2.011320 0.011166 -0.004928 151630.000000 1 0 0
1.259908 -10.363785 -2.674001 10.777091 -1.449822 1.821534 -0.005896 0.003515 -994654.000000 1 0 0
2.379708 -12.003685 -3.949901 12.858973 -1.375086 1.883015 -0.000472 0.003686 -891858.000000 1 0 0
-7.608392 -5.732685 7.166199 11.920810 0.645717 0.925857 -0.002095 0.003471 -3188180.000000 1 0 0
-7.131992 -0.835985 9.490899 11.901317 0.116684 0.647712 -0.002353 0.004948 -168052.000000 1 0 0
16.128208 2.611115 -7.572301 18.007686 0.160505 2.004797 0.000482 0.009620 -212509.000000 1 0 0
-1.983992 6.240115 -5.496001 8.548759 -1.262962 2.269075 -0.001424 0.001557 -396331.000000 1 0 0
7.664208 1.019315 8.376799 11.399555 0.132221 0.745372 -0.004581 0.001082 -1520700.000000 1 0 0
7.845608 8.232615 -3.663701 11.947896 0.809464 1.882457 0.002183 0.001371 37646.600000 1 0 0
8.024208 0.564315 3.977399 8.973632 0.070211 1.111596 -0.006207 0.004173 215470.000000 1 0 0
-6.920792 5.970215 5.307999 10.569564 -0.711792 1.044659 -0.002211 -0.003415 -212440.000000 1 0 0
-6.053992 -2.059185 -4.548801 7.847461 0.327861 2.189099 0.006427 -0.005771 -1402490.000000 1 0 0
-15.016292 -2.089285 3.204399 15.495880 0.138247 1.362503 -0.000510 -0.002205 -1011240.000000 1 0 0
1.214708 1.216915 -10.516101 10.655739 0.786306 2.979523 0.001901 -0.004245 292339.000000 1 0 0
1.548508 -9.204185 9.308199 13.181709 -1.404118 0.786757 -0.008255 0.001465 -1342860.000000 1 0 0
-0.288292 -6.866285 -1.276501 6.989881 1.528834 1.754448 -0.000282 0.001761 421283.000000 1 0 0
-0.484992 -10.322285 -8.476701 13.365599 1.523846 2.257793 -0.007476 0.002427 -677163.000000 1 0 0
-4.334492 6.536315 3.773999 8.703695 -0.985239 1.122302 -0.001960 0.000618 -569227.000000 1 0 0
10.687908 -1.140985 -8.500801 13.703899 -0.106352 2.239947 0.009987 -0.001335 794908.000000 1 0 0
3.111208 -1.042385 6.318399 7.119575 -0.323287 0.478973 -0.006953 0.003238 508038.000000 1 0 0
2.063008 -12.327585 6.623799 14.145673 -1.404984 1.083480 -0.004148 0.002129 -41230.400000 1 0 0
2.836308 -4.981385 -1.332901 5.885190 -1.053195 1.799263 -0.001409 0.000383 -1680130.000000 1 0 0
-1.199392 9.724715 -1.575601 9.924270 -1.448082 1.730233 -0.004300 0.003076 821586.000000 1 0 0
4.490308 -2.541785 2.593899 5.775106 -0.515090 1.104981 -0.004865 0.003152 -2151430.000000 1 0 0
17.748008 6.700615 -2.676701 19.158674 0.360997 1.710967 -0.007045 0.016173 409168.000000 1 0 0
-7.121892 3.478015 -5.270001 9.517922 -0.454289 2.157588 0.001642 -0.002493 -263974.000000 1 0 0
-13.785292 -6.051685 2.282299 15.227148 0.413665 1.420346 -0.008397 0.001745 -40199.100000 1 0 0
6.662508 -6.144085 3.298099 9.644493 -0.744939 1.221787 -0.002855 -0.003457 277938.000000 1 0 0
-4.673692 2.069515 3.577199 6.238801 -0.416851 0.960172 -0.002133 0.000547 800038.000000 1 0 0
6.894308 -12.118485 -5.632201 15.036983 -1.053552 1.954715 0.001203 0.003859 382938.000000 1 0 0
2.846408 -12.496585 3.439199 13.270070 -1.346842 1.308634 0.000904 -0.005836 -1616620.000000 1 0 0
3.369708 11.303315 -6.122101 13.289093 1.281068 2.049564 -0.001383 0.001632 89554.600000 1 0 0
-5.477992 -8.387085 6.398999 11.886916 0.992213 1.002351 0.001085 0.004468 497252.000000 1 0 0
-3.989092 6.624515 6.370599 10.019061 -1.028782 0.881690 -0.001462 0.000368 457004.000000 1 0 0
4.263408 4.384415 -6.978101 9.278666 0.799390 2.421976 -0.006188 0.003463 -2078000.000000 1 0 0
-0.293392 -2.772585 1.589199 3.209183 1.465370 1.052727 -0.002323 0.003108 -500625.000000 1 0 0
-13.112292 -0.887385 6.672099 14.738947 0.067573 1.101022 0.000722 0.001591 -476030.000000 1 0 0
-0.558392 -9.276185 -5.973901 11.047484 1.510673 2.142122 -0.005929 0.003651 378039.000000 1 0 0
2.021908 -1.732285 -3.914201 4.733909 -0.708404 2.544268 -0.003824 0.001451 -711483.000000 1 0 0
11.349408 -1.922685 1.102999 11.563840 -0.167815 1.475268 -0.000001 -0.001363 842236.000000 1 0 0
0.518108 -4.342885 -1.924901 4.778528 -1.452057 1.985395 -0.000670 0.000599 -2020080.000000 1 0 0
0.940108 -7.331785 -11.331101 13.528959 -1.443269 2.563569 -0.012219 0.003137 -20068.800000 1 0 0
-4.460692 4.091115 -9.942501 11.639945 -0.742209 2.594750 0.001374 -0.003338 829722.000000 1 0 0
-0.920692 5.795815 -2.041101 6.213312 -1.413258 1.905516 0.000035 0.000086 322989.000000 1 0 0
-11.245892 1.821215 -3.703101 11.979143 -0.160551 1.885073 -0.004954 0.002404 40876.000000 1 0 0
-1.738892 -11.325085 4.018999 12.142226 1.418443 1.233440 0.003933 -0.000381 30612.600000 1 0 0
-3.659292 -5.416685 -9.796901 11.777528 0.976663 2.553193 -0.003015 -0.001985 -1527490.000000 1 0 0
-12.832292 -3.732385 -8.228401 15.694107 0.283049 2.122688 -0.000776 0.001118 205447.000000 1 0 0
11.301408 4.431515 0.582399 12.153162 0.373695 1.522856 0.000162 0.003942 114246.000000 1 0 0
-8.849392 -2.354585 -3.064801 9.656542 0.260048 1.893763 0.003859 -0.003339 22023.100000 1 0 0
-2.559592 -6.109885 -6.481901 9.268077 1.174081 2.345325 -0.001378 -0.001395 -477491.000000 1 0 0
-0.012392 2.744715 -1.930101 3.355429 -1.566282 2.183666 -0.001134 0.000577 -1645190.000000 1 0 0
8.000708 6.057715 -5.131401 11.271137 0.648060 2.043471 -0.002068 0.001875 -111094.000000 1 0 0
-9.691992 -0.956085 -0.921801 9.782562 0.098329 1.665165 -0.002415 -0.002821 -264555.000000 1 0 0
6.021908 0.465115 -8.895601 10.752276 0.077084 2.545121 -0.000890 0.002524 440444.000000 1 0 0
-4.193992 2.603615 7.964299 9.370082 -0.555571 0.554866 -0.003672 0.003082 -2333270.000000 1 0 0
-10.124292 -3.423785 1.499099 10.792168 0.326102 1.431440 -0.005164 0.000940 1926080.000000 1 0 0
-1.876492 -8.137285 -7.879001 11.481084 1.344154 2.327130 -0.005341 0.000185 -344290.000000 1 0 0
-9.422192 -9.878285 4.187699 14.279182 0.809025 1.273148 -0.000588 0.002483 -89942.700000 1 0 0
-1.099192 -10.678785 7.335299 13.001972 1.468225 0.971371 -0.002505 0.001227 -125269.000000 1 0 0
9.509008 3.786715 -3.792001 10.915114 0.378974 1.925602 -0.004083 0.004458 -706376.000000 1 0 0
12.722808 -0.766585 3.023399 13.099559 -0.060180 1.337895 0.006565 -0.002185 -1212510.000000 1 0 0
6.634008 11.940215 -6.865001 15.287480 1.063662 2.036510 0.004286 -0.001492 282143.000000 1 0 0
-11.876892 0.011715 -6.424101 13.502954 -0.000986 2.066619 -0.004353 0.002534 121131.000000 1 0 0
-7.696592 -6.470685 -11.517901 15.289517 0.699082 2.423892 0.007429 -0.001222 -1104800.000000 1 0 0
4.169008 6.171015 6.646499 9.981884 0.976649 0.842156 -0.004043 0.001553 -2177050.000000 1 0 0
-4.311492 -1.406285 -7.300001 8.593987 0.315291 2.585703 0.008143 -0.008768 -740224.000000 1 0 0
9.806708 9.305615 0.892899 13.548552 0.759186 1.504845 0.012662 0.000082 -1871560.000000 1 0 0
-8.851992 3.945415 4.854299 10.839201 -0.419280 1.106441 -0.006147 -0.000791 2039020.000000 1 0 0
-7.070692 8.000315 -12.054301 16.102978 -0.847003 2.416708 -0.003576 0.001265 -494288.000000 1 0 0
11.141908 -3.716885 7.180299 13.766410 -0.321986 1.022093 0.008879 -0.002652 1059640.000000 1 0 0
11.826208 7.017715 6.420199 15.176511 0.535555 1.134004 0.004947 -0.002088 -510987.000000 1 0 0
-10.193892 -0.590785 -14.695301 17.894589 0.057890 2.534333 0.003375 -0.004421 444966.000000 1 0 0
1.761008 -13.049785 12.075099 17.866338 -1.436661 0.828669 -0.011146 0.001892 -9650.520000 1 0 0
2.893308 2.943115 12.903599 13.547547 0.793932 0.309560 -0.006171 -0.003351 -819923.000000 1 0 0
-2.439492 -1.309785 10.962199 11.306479 0.492737 0.247409 0.001759 -0.000246 -677033.000000 1 0 0
2.457108 -10.190085 -8.377301 13.418435 -1.334186 2.245048 -0.010363 0.003643 -1226260.000000 1 0 0
13.792608 3.495015 -7.573701 16.118689 0.248174 2.059941 0.000696 0.008072 -3061980.000000 1 0 0
7.193608 -1.592985 4.999999 8.904246 -0.217928 0.974563 -0.006705 0.002962 581450.000000 1 0 0
-1.142792 8.716415 10.184999 13.454221 -1.440432 0.712069 -0.001542 -0.002761 -5779.290000 1 0 0
-12.213092 -4.692485 0.971999 13.119596 0.366827 1.496641 -0.006334 0.001065 23761.800000 1 0 0
-4.907592 4.843415 -5.245401 8.663565 -0.778817 2.221134 0.001064 -0.003673 -222769.000000 1 0 0
-11.194592 0.394115 2.027299 11.383503 -0.035191 1.391750 -0.006019 0.001311 -2897880.000000 1 0 0
-1.381592 2.214415 -4.075801 4.839895 -1.012983 2.572010 0.001211 -0.003936 745504.000000 1 0 0
3.118108 -9.870985 13.150999 16.736419 -1.264829 0.666854 -0.006723 0.003489 -3048230.000000 1 0 0
8.951808 4.649015 -1.493301 10.196968 0.478998 1.717770 -0.002339 0.001645 -2075830.000000 1 0 0
4.031408 2.359715 3.745899 5.987676 0.529565 0.894894 -0.008947 0.005328 120769.000000 1 0 0
-5.425492 -3.284485 7.475599 9.803488 0.544366 0.703559 -0.001306 0.001025 -111261.000000 1 0 0
1.777408 -5.832085 7.632699 9.768853 -1.274975 0.674002 -0.008039 0.000136 -1396480.000000 1 0 0
-6.048792 -6.166785 -9.674601 12.969773 0.795057 2.412733 0.000185 -0.001590 -497697.000000 1 0 0
-11.727592 -5.825085 5.564699 14.227926 0.461003 1.168958 0.006142 0.002294 129246.000000 1 0 0
10.547008 6.294915 4.369899 13.036923 0.538095 1.228985 0.001413 0.000006 -1815230.000000 1 0 0
1.548908 -3.730485 0.463399 4.065756 -1.177253 1.456572 -0.002156 0.001487 -971056.000000 1 0 0
8.793108 4.436415 6.866299 12.006107 0.467268 0.961976 -0.003750 0.003388 -369155.000000 1 0 0
-7.886692 12.190615 3.581299 14.954488 -0.996570 1.328966 -0.002259 -0.004816 -211074.000000 1 0 0
-6.202592 13.176615 -6.946201 16.135211 -1.130840 2.015842 -0.000396 -0.002667 679413.000000 1 0 0
4.408308 -7.027885 -0.999101 8.355989 -1.010574 1.690650 -0.003572 -0.001828 -853417.000000 1 0 0
-1.824892 -8.229485 11.052099 13.899768 1.352577 0.651577 -0.004748 -0.001829 -47454.000000 1 0 0
11.606308 8.881615 -5.796601 15.722279 0.653184 1.948393 0.011823 0.001615 614453.000000 1 0 0
-3.380292 -2.911585 -1.854501 4.831446 0.711042 1.964747 0.003263 -0.001590 -2869750.000000 1 0 0
-2.074492 6.042815 4.836299 8.013047 -1.240104 0.922846 0.001061 0.002955 -820920.000000 1 0 0
0.316008 -11.474385 -5.790101 12.856385 -1.543263 2.037973 -0.004373 0.001160 -566584.000000 1 0 0
-8.902192 6.288115 -1.578401 11.012754 -0.614979 1.714616 -0.000188 -0.000975 -549004.000000 1 0 0
2.939108 -0.029585 3.944799 4.919418 -0.010066 0.640356 -0.007088 0.004852 -239009.000000 1 0 0
-9.954192 3.925615 -0.989601 10.745962 -0.375642 1.663018 0.001832 -0.000841 -107194.000000 1 0 0
6.599408 5.500115 13.547099 16.041426 0.694793 0.565152 0.008617 -0.002099 -135998.000000 1 0 0
-8.621692 -1.806085 5.726599 10.506638 0.206496 0.994353 -0.007527 0.002673 -74684.800000 1 0 0
12.842008 -1.894885 -1.522101 13.069987 -0.146497 1.687519 0.005216 0.000921 -1388370.000000 1 0 0
5.072208 -5.691985 5.412799 9.350101 -0.842912 0.953414 -0.004697 -0.002615 218835.000000 1 0 0
-8.996692 -1.220985 3.291299 9.657324 0.134891 1.223020 -0.007959 0.002372 343935.000000 1 0 0
2.091408 5.541715 5.565299 8.127555 1.209929 0.816543 -0.004661 0.001596 -1550980.000000 1 0 0
9.211508 3.098015 -7.382101 12.204303 0.324436 2.220408 0.000672 0.003323 -242655.000000 1 0 0
2.261808 -2.457185 -1.554701 3.683834 -0.826777 2.006484 -0.003492 0.003031 -101381.000000 1 0 0
-6.232092 0.406815 -3.903301 7.364796 -0.065185 2.129390 0.004757 -0.003611 -1327110.000000 1 0 0
-4.017292 4.261215 5.116199 7.776379 -0.814854 0.852749 -0.002346 0.001237 1202330.000000 1 0 0
-6.450192 1.779915 -12.285401 13.989430 -0.269247 2.642865 -0.001594 -0.004495 -2072100.000000 1 0 0
-0.195792 3.063915 6.267099 6.978713 -1.506981 0.455524 -0.004454 0.001725 1309110.000000 1 0 0
-8.653192 9.613315 -1.940901 13.079016 -0.837912 1.719745 -0.007164 0.001652 1523850.000000 1 0 0
-1.328292 -3.836685 -6.161801 7.379180 1.237504 2.558975 -0.003104 -0.001318 -105372.000000 1 0 0
-3.256792 7.094215 -2.879401 8.320188 -1.140420 1.924180 -0.001366 0.001026 1305360.000000 1 0 0
6.873308 -0.371785 -4.281001 8.106020 -0.054038 2.127189 -0.005712 0.002807 -232274.000000 1 0 0
-5.073092 -10.909585 6.939999 13.889524 1.135529 1.047593 0.000632 0.000593 658108.000000 1 0 0
9.820608 8.433515 -1.540501 13.036168 0.709556 1.689244 0.004214 0.002462 295641.000000 1 0 0
13.635508 4.572815 -4.352701 15.026102 0.323574 1.864685 0.001648 0.004635 892835.000000 1 0 0
4.660008 1.099215 -6.819301 8.332276 0.231648 2.529452 -0.006498 0.002116 -994461.000000 1 0 0
8.979308 -4.770585 3.572599 10.777287 -0.488362 1.232910 -0.000075 -0.002775 -959847.000000 1 0 0
-8.759692 -3.364985 -0.772601 9.415531 0.366763 1.652945 -0.002489 -0.000612 -309698.000000 1 0 0
-8.655592 -4.268185 -10.345301 14.147859 0.458123 2.390916 0.006207 -0.004273 -64242.600000 1 0 0
10.423408 -1.131585 10.673199 14.961454 -0.108138 0.776487 0.000076 0.000193 336466.000000 1 0 0
2.198908 -11.541885 9.857399 15.336839 -1.382537 0.872744 -0.007304 -0.000497 -85860.900000 1 0 0
-6.448192 -10.575085 2.026599 12.550645 1.023236 1.408613 0.002254 0.000798 -771954.000000 1 0 0
-3.555092 -1.631885 6.571699 7.647807 0.430336 0.536913 -0.002388 0.000480 -3303080.000000 1 0 0
4.662208 -7.710685 3.842499 9.795695 -1.026970 1.167705 -0.005883 -0.002682 252080.000000 1 0 0
11.488208 -9.530185 -5.289701 15.836170 -0.692509 1.911369 0.009746 -0.001870 332408.000000 1 0 0
11.311208 1.193315 11.427499 16.123125 0.105110 0.783051 0.002784 -0.000889 -322015.000000 1 0 0
-10.119192 -3.484985 4.360399 11.556653 0.331672 1.183910 -0.000373 0.001573 1175740.000000 1 0 0
2.097208 8.699815 9.011099 12.699802 1.334246 0.781942 0.001167 0.001670 -195510.000000 1 0 0
6.565908 8.914315 4.119399 11.812943 0.935954 1.214592 0.006886 -0.000019 539063.000000 1 0 0
-4.213792 3.576615 0.456699 5.545880 -0.703790 1.488354 0.001460 -0.002813 130614.000000 1 0 0
5.004308 7.035015 4.232399 9.614975 0.952498 1.114988 -0.000522 0.001839 -1028020.000000 1 0 0
-8.201392 13.234615 1.186299 15.614902 -1.016023 1.494751 -0.006804 -0.000997 36441.200000 1 0 0
8.839608 8.211015 -9.050601 15.082202 0.748549 2.214404 0.007887 -0.007484 -455420.000000 1 0 0
7.096108 1.883815 6.104999 9.548535 0.259486 0.877124 -0.006483 0.003321 -33720.600000 1 0 0
11.481508 -6.206285 2.973299 13.385945 -0.495556 1.346807 0.009214 -0.003225 -402852.000000 1 0 0
11.376808 4.728215 -2.014801 12.483878 0.393883 1.732898 -0.000703 0.003935 351434.000000 1 0 0
-3.942592 14.392015 -5.987501 16.078691 -1.303413 1.952376 -0.007343 0.005015 -819778.000000 1 0 0
7.110208 -3.077385 6.901499 10.375743 -0.408469 0.843092 -0.004889 0.000607 -1437030.000000 1 0 0
-7.914292 -0.521985 0.996299 7.993816 0.065859 1.445838 -0.001789 0.000022 269097.000000 1 0 0
-3.151992 1.151115 10.817399 11.325910 -0.350154 0.300793 -0.000294 0.002294 -254751.000000 1 0 0
6.999608 -1.276985 -1.873501 7.357664 -0.180452 1.828264 -0.003359 0.002342 -1373060.000000 1 0 0
-7.882492 5.439115 2.921199 10.012545 -0.604000 1.274736 -0.003015 -0.000777 825327.000000 1 0 0
9.427608 -2.180485 2.843299 10.085567 -0.227291 1.285004 -0.003601 0.000741 -1193240.000000 1 0 0
0.241708 3.541315 1.542999 3.870424 1.502648 1.160737 -0.001270 0.002926 -3228920.000000 1 0 0
-7.422092 -3.130285 3.799799 8.906436 0.399117 1.130027 -0.004804 0.001917 248077.000000 1 0 0
-2.200392 8.409615 -6.709901 10.981171 -1.314882 2.228166 -0.005516 0.000999 -694305.000000 1 0 0
4.586208 9.850515 7.354599 13.120826 1.135061 0.975772 0.004249 0.003596 365520.000000 1 0 0
-11.775592 -3.185085 6.906799 14.018316 0.264161 1.055609 0.001797 0.002625 -541555.000000 1 0 0
-4.723092 2.374815 -5.626201 7.720200 -0.465893 2.387311 0.006985 -0.007146 -929937.000000 1 0 0
-2.715592 2.951815 -1.912701 4.443656 -0.827055 2.015770 0.002441 -0.001839 716985.000000 1 0 0
2.379308 5.131415 11.430699 12.753564 1.136629 0.459499 -0.000476 -0.003237 270766.000000 1 0 0
-0.694492 1.641415 4.617699 4.949718 -1.170532 0.368353 -0.002818 0.003671 452283.000000 1 0 0
5.093508 1.572215 7.793199 9.441909 0.299392 0.599915 -0.006406 0.003353 1303360.000000 1 0 0
3.310508 -8.289685 1.769099 9.099893 -1.190848 1.375142 -0.003190 -0.002356 2193900.000000 1 0 0
5.060108 6.553515 -4.574901 9.459544 0.913287 2.075591 0.001339 0.000422 -3870640.000000 1 0 0
-4.065592 2.767415 -7.958001 9.355074 -0.597650 2.588039 0.007347 -0.004741 -98701.000000 1 0 0
-8.755892 -1.953785 -12.861101 15.680907 0.219543 2.532515 -0.002046 -0.004864 -832854.000000 1 0 0
-7.895392 8.154515 1.273399 11.421684 -0.801542 1.459074 0.000994 -0.002376 -2124310.000000 1 0 0
7.258408 0.900215 -6.558101 9.823623 0.123394 2.301756 -0.005908 0.004043 1055070.000000 1 0 0
8.954908 8.887615 5.500699 13.763640 0.781627 1.159657 0.007940 0.000168 554294.000000 1 0 0
9.314308 -1.129485 -1.350001 9.479166 -0.120674 1.713700 -0.003829 0.001601 177171.000000 1 0 0
5.416808 0.206615 4.279599 6.906480 0.038125 0.902500 -0.008669 0.005231 -1093280.000000 1 0 0
-4.281192 -7.209385 -8.001901 11.590265 1.034922 2.332836 0.004246 -0.004352 -166561.000000 1 0 0
-1.996392 7.443715 -0.476801 7.721516 -1.308765 1.632585 -0.000595 0.000594 717263.000000 1 0 0
13.233408 -3.466985 -7.455501 15.579717 -0.256229 2.069786 0.011705 -0.003541 1384530.000000 1 0 0
-4.806192 -5.071485 1.467599 7.139558 0.812250 1.363762 0.000502 0.002609 337562.000000 1 0 0
-8.860192 1.346615 2.669799 9.351160 -0.150831 1.281263 -0.005653 0.000637 -1700580.000000 1 0 0
-1.186292 11.163815 10.263599 15.211164 -1.464931 0.830182 -0.003241 -0.004376 83832.000000 1 0 0
-8.201292 0.187715 7.272199 10.962723 -0.022884 0.845500 -0.005147 0.002169 -1215160.000000 1 0 0
-5.969892 13.048415 -2.135801 14.507322 -1.141708 1.718556 -0.011654 0.002465 1082570.000000 1 0 0
-12.795692 -0.811285 3.411099 13.267385 0.063318 1.310772 -0.002111 -0.001345 675645.000000 1 0 0
-6.710592 12.812615 8.858299 16.960678 -1.088331 1.021269 0.008797 -0.008890 1042330.000000 1 0 0
-8.101192 0.854215 -14.011101 16.207095 -0.105055 2.614959 -0.006705 -0.004732 148923.000000 1 0 0
7.250708 2.919815 3.728499 8.660242 0.382826 1.125716 -0.005697 0.004155 -404876.000000 1 0 0
-1.691292 0.698615 -1.949201 2.673559 -0.391719 2.387753 0.001799 -0.001889 1459940.000000 1 0 0
-6.060892 9.732715 -10.338201 15.438217 -1.013828 2.304534 -0.006357 0.003330 -25196.300000 1 0 0
-9.992892 13.834015 5.390299 17.896737 -0.945233 1.264857 -0.009354 -0.007290 251234.000000 1 0 0
-5.691492 8.294815 2.386599 10.338902 -0.969426 1.337859 -0.002690 0.000113 -1650690.000000 1 0 0
-2.406192 -10.674685 -1.288501 11.018116 1.349091 1.688008 0.000687 0.001657 674671.000000 1 0 0
-2.224492 -12.442485 8.801499 15.402278 1.393883 0.962535 -0.008305 0.002686 297370.000000 1 0 0
-14.698392 -6.468685 -1.707301 16.149349 0.414586 1.676714 0.004862 0.002603 430287.000000 1 0 0
-2.721892 -9.451485 3.242199 10.356211 1.290398 1.252375 0.000400 0.000631 -1582170.000000 1 0 0
4.629008 -2.828485 7.499799 9.256081 -0.548494 0.626207 -0.008889 0.001860 -641004.000000 1 0 0
-14.812092 -1.308885 -0.154201 14.870609 0.088137 1.581166 -0.007918 -0.005696 -418647.000000 1 0 0
5.446908 8.943715 -2.809301 10.842095 1.023770 1.832898 0.003103 0.003049 -547368.000000 1 0 0
-5.568992 -5.800385 8.515899 11.712330 0.805748 0.756725 0.000203 0.001205 -2860440.000000 1 0 0
3.483708 3.695915 6.931199 8.592877 0.814946 0.632383 -0.005600 0.001776 488520.000000 1 0 0
3.311308 2.631515 9.355499 10.267180 0.671504 0.424598 -0.003288 -0.001700 736186.000000 1 0 0
9.921708 -3.255885 5.161599 11.648313 -0.317085 1.111720 0.008162 -0.001893 -111238.000000 1 0 0
6.484908 10.038715 -5.047501 12.973323 0.997245 1.970416 0.003227 -0.001334 441720.000000 1 0 0
-4.430892 12.058915 -8.541301 15.427380 -1.218673 2.157532 -0.007247 0.002771 -208217.000000 1 0 0
-3.311192 -7.233085 2.186299 8.249934 1.141488 1.302584 0.002461 -0.000766 925167.000000 1 0 0
-7.433392 -4.061785 1.158299 8.549565 0.500094 1.434898 -0.000729 0.000061 1931550.000000 1 0 0
-2.071892 -3.985085 -10.995501 11.877486 1.091347 2.753792 0.001624 -0.004237 -472455.000000 1 0 0
-5.145792 8.288115 -4.414801 10.708057 -1.015177 1.995760 -0.002700 -0.001919 -2134550.000000 1 0 0
-10.980992 -3.207985 -10.071201 15.241471 0.284230 2.292649 0.007364 0.000079 -732458.000000 1 0 0
4.599908 -11.457785 -7.777701 14.592211 -1.189027 2.132943 -0.005292 0.002981 -1530580.000000 1 0 0
-9.420192 -4.071985 7.224899 12.550707 0.408005 0.957389 -0.004406 0.002177 -1276370.000000 1 0 0
-5.747692 -9.706885 -5.128901 12.392143 1.036187 1.997512 0.004367 -0.002524 290834.000000 1 0 0
4.909008 4.298815 -9.458501 11.490928 0.719226 2.537694 -0.003816 0.005995 445332.000000 1 0 0
-3.483192 -7.222985 -14.073401 16.197677 1.121460 2.623677 -0.013235 0.001993 68981.700000 1 0 0
0.625008 -0.834285 -8.750601 8.812473 -0.927836 3.023024 -0.001487 -0.006372 874942.000000 1 0 0
-7.729392 2.247815 -2.721401 8.497187 -0.283008 1.896812 0.005264 -0.004384 -750013.000000 1 0 0
-2.268492 7.465715 -12.542401 14.771418 -1.275807 2.585074 -0.000288 -0.003185 -165723.000000 1 0 0
-9.748892 8.962615 7.570899 15.254110 -0.743402 1.051443 -0.005914 -0.007441 -195342.000000 1 0 0
-10.690492 -3.046585 -14.270101 18.088783 0.277621 2.479801 0.003289 -0.001415 -226344.000000 1 0 0
-3.169492 4.883515 7.985299 9.882277 -0.995111 0.629975 -0.001916 0.000613 -320563.000000 1 0 0
8.605708 -2.318185 -3.552501 9.594397 -0.263132 1.950094 -0.002297 0.000344 -5103070.000000 1 0 0
1.920308 -8.345485 -1.235201 8.652192 -1.344632 1.714047 -0.004267 0.000940 -702306.000000 1 0 0
-13.565892 -2.852985 5.140299 14.784979 0.207285 1.215711 0.001982 -0.000123 345194.000000 1 0 0
7.002908 2.748815 -1.926901 7.765929 0.374046 1.821538 -0.005317 0.004196 482645.000000 1 0 0
-11.042592 4.504715 9.062499 14.978657 -0.387332 0.920996 -0.002905 -0.001916 -3140220.000000 1 0 0
-1.690892 -2.582385 8.041399 8.613473 0.991069 0.366510 -0.002931 -0.001158 -1296690.000000 1 0 0
3.159508 11.887915 -9.913001 15.797867 1.311027 2.249121 0.001063 -0.007862 533843.000000 1 0 0
3.434308 -5.109785 -7.136401 9.425105 -0.979039 2.429765 -0.008614 -0.001047 24136.200000 1 0 0
8.288808 -13.708285 -9.912001 18.837972 -1.026960 2.124888 -0.001235 0.005632 -125398.000000 1 0 0
-6.322192 -5.862385 -0.494701 8.636110 0.747679 1.628111 0.003393 -0.000062 -752398.000000 1 0 0
-1.226092 -3.978085 10.037399 10.866363 1.271823 0.393134 -0.003714 0.000987 667980.000000 1 0 0
2.743508 3.248415 1.777199 4.608414 0.869464 1.174893 -0.009168 0.005110 -1575260.000000 1 0 0
-9.145992 13.347915 7.789199 17.957940 -0.970072 1.122149 0.000515 -0.016486 459060.000000 1 0 0
3.982308 -11.162585 0.012299 11.851676 -1.228116 1.569759 0.000520 -0.004401 -89036.200000 1 0 0
-12.496992 -1.338085 -8.985701 15.450181 0.106666 2.191481 0.000771 0.000021 157332.000000 1 0 0
-4.266092 1.004715 -13.503001 14.196479 -0.231297 2.827741 0.005112 -0.007319 407856.000000 1 0 0
4.006708 -3.055285 4.883899 7.017189 -0.651480 0.800998 -0.005525 0.003451 195291.000000 1 0 0
1.712408 -1.204485 1.121899 2.375244 -0.612995 1.078864 -0.003427 0.003665 799122.000000 1 0 0
8.178408 -9.032885 7.275599 14.192030 -0.835004 1.032523 0.001560 -0.001502 -1816630.000000 1 0 0
-0.046292 2.322215 -6.332901 6.745403 -1.550865 2.790063 -0.000782 -0.003840 -689717.000000 1 0 0
-3.699992 -9.807985 -3.481101 11.045568 1.210061 1.891420 0.004655 0.000804 867618.000000 1 0 0
-9.502692 2.287115 -5.405801 11.169366 -0.236189 2.075999 -0.003181 0.001015 1166660.000000 1 0 0
8.986208 -7.672385 5.309699 12.954163 -0.706693 1.148470 0.002142 -0.003234 -138728.000000 1 0 0
-5.463192 -4.316085 4.733299 8.418977 0.668632 0.973731 -0.002011 0.001290 -376967.000000 1 0 0
-0.101292 -12.481085 10.353199 16.216549 1.562681 0.878334 -0.005833 0.001737 271251.000000 1 0 0
-14.120692 -8.421285 3.093599 16.729684 0.537753 1.384809 -0.012515 0.000069 -1464150.000000 1 0 0
10.869508 -1.409485 -3.601301 11.536994 -0.128954 1.888254 0.006465 0.001920 229691.000000 1 0 0
-13.612492 3.049415 2.831999 14.234433 -0.220378 1.370506 -0.002469 0.000723 -1063000.000000 1 0 0
-6.323392 6.151115 1.011299 8.879427 -0.771589 1.456656 -0.001459 -0.001320 551466.000000 1 0 0
7.083708 -6.969185 -0.434001 9.946699 -0.777249 1.614443 0.001724 -0.004785 -636672.000000 1 0 0
-6.808092 7.893715 10.058199 14.485448 -0.859107 0.803258 -0.004221 -0.002312 113585.000000 1 0 0
-12.584792 -5.143785 -1.981101 13.739005 0.388010 1.715496 -0.003723 -0.000375 -3697220.000000 1 0 0
-9.461492 -5.612085 0.141599 11.001608 0.535368 1.557925 -0.001320 0.000566 -641995.000000 1 0 0
-1.698092 1.992415 2.331399 3.505518 -0.864981 0.843215 0.001052 0.001427 119689.000000 1 0 0
-6.981492 7.397615 7.576899 12.683664 -0.814330 0.930573 -0.006007 -0.002984 -71680.100000 1 0 0
5.559408 7.173015 -0.452001 9.086444 0.911458 1.620561 0.000580 0.001324 -1529470.000000 1 0 0
-0.031292 -4.168585 7.586399 8.656300 1.563290 0.502457 -0.006214 0.000746 -799077.000000 1 0 0
6.258908 0.683215 13.067299 14.505000 0.108728 0.448998 -0.007539 -0.000957 661778.000000 1 0 0
5.701608 6.229415 -7.829301 11.515724 0.829608 2.318394 -0.006464 0.001477 -38099.300000 1 0 0
9.962408 5.317115 8.950199 14.409280 0.490257 0.900598 0.000398 0.001884 -2091260.000000 1 0 0
-1.261892 -5.000185 -8.579701 10.010269 1.323589 2.600390 0.001918 -0.003228 981777.000000 1 0 0
9.988008 -3.594385 -8.020901 13.304690 -0.345441 2.217881 0.007721 -0.006039 485537.000000 1 0 0
8.304308 -5.454985 1.265599 10.015994 -0.581201 1.444100 0.001147 -0.004344 1090710.000000 1 0 0
15.650908 3.060715 -4.991401 16.710266 0.193124 1.874129 0.004494 0.007728 184477.000000 1 0 0
-6.943292 3.611815 1.084199 7.901265 -0.479667 1.433144 -0.001973 -0.002391 855284.000000 1 0 0
-1.682892 3.812615 0.295799 4.177997 -1.155116 1.499938 0.001873 -0.002480 -1751720.000000 1 0 0
-2.549892 10.004215 7.067999 12.511710 -1.321228 0.970471 -0.000646 0.002430 669405.000000 1 0 0
5.342308 -5.750385 -8.838701 11.820737 -0.822169 2.415431 -0.006278 -0.001616 869264.000000 1 0 0
-1.163092 -1.036685 6.325199 6.514264 0.727998 0.241515 -0.005577 0.004250 567323.000000 1 0 0
-5.697592 4.915415 -7.669301 10.744396 -0.711831 2.365699 0.000197 0.000143 -97204.900000 1 0 0
6.625108 -1.252185 2.568599 7.215104 -0.186802 1.206809 -0.007500 0.005584 -1261990.000000 1 0 0
8.777108 7.640415 3.211399 12.071730 0.716272 1.301528 0.005440 -0.001129 -256594.000000 1 0 0
-5.242092 -4.820985 -7.693201 10.483643 0.743576 2.394738 0.004199 -0.005566 1537200.000000 1 0 0
-2.380292 7.815515 -10.025701 12.933010 -1.275162 2.457832 0.001834 0.000807 1000170.000000 1 0 0
-2.732392 -2.153485 1.455099 3.771044 0.667462 1.174655 -0.003238 0.003483 37089.500000 1 0 0
5.860108 -2.087485 -9.304501 11.192507 -0.342205 2.552266 -0.004029 0.001929 1062860.000000 1 0 0
0.992008 -7.550785 5.202899 9.223263 -1.440166 0.971446 -0.006591 0.000557 212954.000000 1 0 0
1.841308 11.974115 1.259699 12.180176 1.418217 1.467189 0.003370 0.000300 554832.000000 1 0 0
-0.990592 7.184415 2.656899 7.723743 -1.433780 1.219632 -0.002242 0.002723 585846.000000 1 0 0
8.582308 7.841615 -6.580701 13.358614 0.740330 2.085893 0.008209 -0.003514 133835.000000 1 0 0
3.715808 -10.985285 5.365799 12.777931 -1.244624 1.137431 -0.006367 0.003522 230177.000000 1 0 0
7.905908 -7.104485 12.358399 16.300525 -0.732058 0.710310 -0.000250 0.003864 292057.000000 1 0 0
-8.727692 0.127915 -3.827001 9.530735 -0.014655 1.983998 0.002599 -0.003918 -1029970.000000 1 0 0
-3.264092 -5.012485 11.292999 12.779324 0.993583 0.487102 0.001899 -0.003624 220731.000000 1 0 0
-8.298292 0.228415 -11.469701 14.158667 -0.027519 2.515091 -0.003826 -0.004602 -1422720.000000 1 0 0
1.292908 -4.958385 5.338999 7.400142 -1.315724 0.764870 -0.008337 0.001280 -739807.000000 1 0 0
6.690708 3.832615 -7.649901 10.861653 0.520199 2.352238 -0.005269 0.002939 -2348130.000000 1 0 0
16.175908 4.171515 -1.262101 16.752745 0.252385 1.646205 -0.011099 0.010796 -288871.000000 1 0 0
7.918108 7.596415 0.061199 10.972954 0.764666 1.565219 0.002254 0.000115 -1633520.000000 1 0 0
5.439308 -10.419785 13.892799 18.198018 -1.089690 0.702199 -0.000450 0.004447 -206771.000000 1 0 0
-5.319392 -9.074785 8.916699 13.789676 1.040606 0.867649 0.002628 -0.002151 -11406.600000 1 0 0
-12.601092 -3.244385 2.849099 13.320319 0.251995 1.355240 -0.005026 -0.000549 -299739.000000 1 0 0
-2.117392 -1.430385 -5.833301 6.368418 0.594121 2.728723 0.003480 -0.006943 -506823.000000 1 0 0
-2.540392 13.082815 -4.334001 14.014179 -1.379005 1.885209 -0.004860 0.006051 197663.000000 1 0 0
3.976208 -0.543885 -5.032201 6.436543 -0.135941 2.468372 -0.005876 0.001838 -868363.000000 1 0 0
-8.879092 3.879815 -7.231101 12.090495 -0.411958 2.211901 -0.005595 0.002531 1038360.000000 1 0 0
-4.584392 7.969815 -11.406301 14.650539 -1.048797 2.463162 -0.000007 0.001959 -1152380.000000 1 0 0
-10.076192 -6.564385 7.456699 14.150023 0.577411 1.015760 0.001204 0.003133 -209772.000000 1 0 0
8.083408 5.334015 4.096399 10.515403 0.583284 1.170641 -0.003138 0.001788 -618214.000000 1 0 0
-6.707892 -7.683485 4.008799 10.959116 0.853085 1.196309 0.004223 0.002372 -557695.000000 1 0 0
-4.166992 11.827715 8.140799 14.950962 -1.232067 0.995003 0.001776 -0.003142 190985.000000 1 0 0
-7.056592 9.945815 -7.910401 14.535789 -0.953721 2.146234 -0.009001 -0.001816 -1487630.000000 1 0 0
13.024208 5.573115 4.616799 14.899814 0.404328 1.255755 0.001373 -0.002041 258904.000000 1 0 0
5.370308 4.027115 -3.789501 7.708319 0.643428 2.084736 -0.005245 0.004158 670099.000000 1 0 0
-2.833992 -4.227385 5.128999 7.225574 0.980221 0.781526 -0.001572 0.001288 -1507660.000000 1 0 0
12.344308 -2.468885 -5.306801 13.661606 -0.197397 1.969741 0.008312 -0.002438 -2261130.000000 1 0 0
-5.152792 9.726815 7.005999 13.047843 -1.083632 1.003982 -0.002440 -0.002093 -800921.000000 1 0 0
1.872608 3.785615 -0.488801 4.251643 1.111426 1.686019 -0.008905 0.003828 561912.000000 1 0 0
0.052208 9.692215 7.807699 12.445960 1.565410 0.892679 -0.001179 0.001946 -1137930.000000 1 0 0
-5.579992 2.197215 5.899499 8.412381 -0.375121 0.793594 -0.004185 0.001847 524910.000000 1 0 0
8.836308 0.958615 10.799299 13.986570 0.108063 0.688627 -0.000665 0.000876 -1525980.000000 1 0 0
0.340808 -2.823385 -10.237701 10.625355 -1.450668 2.870639 -0.003411 -0.004753 -1291960.000000 1 0 0
1.203008 10.678815 -2.711001 11.083043 1.458616 1.817912 -0.000807 0.002586 408102.000000 1 0 0
2.317708 -4.392285 11.599599 12.618028 -1.085253 0.404529 -0.010442 -0.001219 42244.600000 1 0 0
6.584208 -3.209485 9.406999 11.922425 -0.453559 0.661589 -0.006229 0.001419 375041.000000 1 0 0
-10.560492 -8.237785 5.621999 14.525562 0.662462 1.173375 0.000357 0.000989 -658988.000000 1 0 0
-2.962392 0.802415 -6.779801 7.442133 -0.264520 2.716505 0.008999 -0.007671 669941.000000 1 0 0
10.960308 2.607715 -5.116301 12.373564 0.233581 1.997076 0.000208 0.004978 -3633580.000000 1 0 0
-2.049892 -4.071085 -0.003801 4.558048 1.104333 1.571630 -0.000107 0.000575 1132860.000000 1 0 0
-1.470292 -6.432285 -10.735501 12.601073 1.346077 2.590497 -0.005883 -0.000904 817267.000000 1 0 0
0.324908 6.831115 -6.601501 9.505236 1.523269 2.338538 -0.000751 0.002658 -3216390.000000 1 0 0
2.050508 3.845515 -6.144601 7.533173 1.080927 2.524687 -0.004817 0.001490 -1587520.000000 1 0 0
1.667108 -14.744485 6.519499 16.207497 -1.458208 1.156821 0.003267 -0.001352 287000.000000 1 0 0
-1.681692 5.345615 -10.547101 11.943409 -1.266006 2.653203 0.004814 -0.001548 -647852.000000 1 0 0
13.614608 4.235915 -0.665601 14.273877 0.301636 1.617444 -0.001559 0.006177 190423.000000 1 0 0
-2.379092 3.345215 -6.187301 7.425176 -0.952598 2.555823 0.004852 -0.004366 -1304740.000000 1 0 0
5.730508 7.856715 14.179599 17.193828 0.940625 0.601140 0.001435 -0.002640 385268.000000 1 0 0
15.798508 0.508315 -5.836701 16.849876 0.032164 1.924521 0.003985 0.003364 709781.000000 1 0 0
6.186408 -8.364985 10.519199 14.795207 -0.934010 0.779896 -0.006162 0.004136 1021610.000000 1 0 0
-0.004392 -6.034785 -6.430201 8.818511 1.570069 2.387906 -0.005416 0.000232 -690319.000000 1 0 0
8.675808 5.513115 -7.551501 12.754970 0.566085 2.204389 0.002556 0.002136 -167266.000000 1 0 0
-15.858992 -0.689085 5.367399 16.756832 0.043423 1.244738 0.001478 -0.005522 -111655.000000 1 0 0
-0.286192 4.065115 -12.271501 12.930460 -1.500510 2.820966 0.006605 -0.004522 498894.000000 1 0 0
-11.275792 3.681015 5.900399 13.247945 -0.315545 1.109195 -0.001929 -0.005127 -760231.000000 1 0 0
5.040908 -9.822385 -9.785301 14.752699 -1.096640 2.296001 -0.007626 0.005491 18890.000000 1 0 0
1.582508 11.200215 -11.725401 16.292151 1.430433 2.374161 0.002611 -0.005013 -1972600.000000 1 0 0
5.821708 2.356615 1.260199 6.405781 0.384636 1.372776 -0.005972 0.005133 -324666.000000 1 0 0
5.688008 4.651715 4.889699 8.826157 0.685507 0.983634 -0.005969 0.002813 -43471.200000 1 0 0
0.367508 -1.645385 -6.349101 6.569128 -1.351046 2.882044 -0.002247 -0.002611 318261.000000 1 0 0
12.682608 6.902415 -4.563601 15.143261 0.498412 1.876917 0.005354 0.003422 153181.000000 1 0 0
7.420508 3.158415 12.682599 15.029566 0.402407 0.566390 0.000576 -0.001099 -563897.000000 1 0 0
-2.483492 -0.211885 8.603399 8.957181 0.085111 0.281992 -0.003553 0.002162 370916.000000 1 0 0
2.193408 -15.388285 13.320899 20.470874 -1.429212 0.862258 -0.017425 0.003561 -282145.000000 1 0 0
18.734608 4.393415 -1.844701 19.331078 0.230346 1.666368 -0.006891 0.012817 954470.000000 1 0 0
-0.255292 -13.139885 7.307399 15.037281 1.551370 1.063344 -0.006837 0.001336 -2112480.000000 1 0 0
4.409808 1.579115 -0.651501 4.729109 0.343865 1.709000 -0.007167 0.004448 761352.000000 1 0 0
2.783408 -0.656685 -7.387201 7.921448 -0.231692 2.772228 -0.007666 -0.000878 124751.000000 1 0 0
7.206908 -11.295685 0.860899 13.426584 -1.002887 1.506633 0.001810 -0.004499 245967.000000 1 0 0
-11.716692 -7.322985 1.317999 13.879629 0.558603 1.475694 -0.006158 0.003281 188747.000000 1 0 0
0.223208 -6.978385 10.097899 12.276613 -1.538822 0.604949 -0.008741 -0.001136 -2376330.000000 1 0 0
-4.597692 -7.180085 10.672199 13.659730 1.001242 0.674068 0.002779 0.001204 -1018280.000000 1 0 0
11.829508 0.730215 -1.709301 11.974648 0.061650 1.714029 0.000521 0.001658 1108540.000000 1 0 0
6.407908 -9.803185 -7.604901 13.964177 -0.991855 2.146709 -0.006677 0.001539 -1209600.000000 1 0 0
-10.953092 4.914515 3.573799 12.525762 -0.421762 1.281460 -0.006631 -0.002723 -863316.000000 1 0 0
6.005708 -9.153285 1.994299 11.127820 -0.990127 1.390605 -0.001984 -0.005961 2182790.000000 1 0 0
11.421108 -1.282385 5.909499 12.923173 -0.111814 1.095863 0.012585 -0.002860 -863822.000000 1 0 0
-6.433592 3.753715 4.054299 8.480496 -0.528166 1.072337 -0.005345 0.000900 -1734910.000000 1 0 0
9.494808 6.312715 -3.194601 11.840914 0.586751 1.843975 -0.000779 0.002711 402916.000000 1 0 0
-2.309792 6.530415 10.978999 12.981521 -1.230831 0.562845 -0.002348 -0.002790 -281893.000000 1 0 0
1.902508 9.802315 3.024499 10.433241 1.379092 1.276684 -0.000045 0.000332 240704.000000 1 0 0
2.876608 6.166015 -5.610301 8.818736 1.134284 2.260333 -0.005291 0.001912 -1579630.000000 1 0 0
11.834408 0.072115 -5.713201 13.141503 0.006094 2.020551 0.006098 0.002071 673603.000000 1 0 0
-2.487292 -12.569285 6.173899 14.222889 1.375434 1.121777 0.001042 0.001872 169449.000000 1 0 0
10.811308 1.762315 -2.795701 11.305135 0.161585 1.820684 0.000090 0.002698 197677.000000 1 0 0
-8.895392 5.422115 0.776399 10.446536 -0.547406 1.496407 -0.002141 -0.002450 -1056550.000000 1 0 0
1.177208 -10.161685 5.613299 11.668538 -1.455463 1.068930 -0.004502 0.000545 -720178.000000 1 0 0
9.300508 -5.794585 -1.196801 11.023112 -0.557188 1.679583 0.006330 -0.003111 72178.800000 1 0 0
-7.777292 8.570515 -4.317901 12.352500 -0.833882 1.927894 -0.008771 -0.000410 49257.100000 1 0 0
-7.377692 -0.029885 -1.569801 7.542911 0.004051 1.780445 0.000991 -0.002726 -1433960.000000 1 0 0
4.090708 8.786415 2.607799 10.036713 1.135068 1.307954 0.004549 -0.001779 327984.000000 1 0 0
-1.336692 -10.679085 -3.847601 11.429507 1.446275 1.914140 0.000885 0.002718 -635188.000000 1 0 0
3.121808 7.920915 -3.711701 9.287804 1.195367 1.981911 0.002582 0.000603 -40096.400000 1 0 0
-4.297592 1.666915 -11.004401 11.930832 -0.370008 2.744915 0.004632 -0.007829 -484096.000000 1 0 0
1.285208 2.750915 10.954099 11.367127 1.133737 0.270398 -0.000669 -0.001529 -99654.400000 1 0 0
2.125408 5.643615 -8.042101 10.052022 1.210620 2.498172 -0.003608 0.001513 -337842.000000 1 0 0
15.506408 6.134415 3.999199 17.148567 0.376712 1.335420 0.003537 -0.003795 575984.000000 1 0 0
-4.505992 8.944015 4.677799 11.053559 -1.104114 1.133829 -0.000334 -0.000123 -745006.000000 1 0 0
-0.975492 -8.227285 -12.426301 14.934951 1.452779 2.553550 -0.010745 0.004514 -431858.000000 1 0 0
14.130208 -4.295085 -5.324501 15.699072 -0.295090 1.916820 0.011587 -0.003563 478058.000000 1 0 0
-6.040592 -6.253385 -5.709001 10.401263 0.802705 2.151815 0.005393 -0.002662 544412.000000 1 0 0
-8.891292 2.696015 -12.258401 15.381546 -0.294408 2.493034 -0.006431 -0.000163 -710126.000000 1 0 0
10.508208 5.467015 13.794899 18.182682 0.479725 0.709507 0.014359 0.002353 612187.000000 1 0 0
-0.423192 10.965515 5.725499 12.377518 -1.532223 1.089902 0.001302 0.002761 200458.000000 1 0 0
0.361508 11.404015 -0.611901 11.426140 1.539107 1.624375 -0.000311 0.001175 239928.000000 1 0 0
-1.452192 -0.569185 3.750599 4.061998 0.373547 0.394110 -0.002638 0.004072 450051.000000 1 0 0
-4.700392 6.711015 8.959599 12.141080 -0.959802 0.740758 -0.006760 -0.001400 -709559.000000 1 0 0
3.215508 -8.786185 -11.317001 14.683700 -1.219963 2.450765 -0.007477 0.005161 367384.000000 1 0 0
6.744208 -3.721185 12.000599 14.259942 -0.504194 0.570631 -0.002437 0.004179 -529893.000000 1 0 0
-2.595692 -1.848985 -12.488201 12.888426 0.618952 2.891732 0.006000 -0.008749 584040.000000 1 0 0
-15.994592 -5.040785 5.355199 17.604392 0.305302 1.261701 0.004024 0.000278 1635970.000000 1 0 0
-8.966292 7.281115 5.848699 12.946671 -0.682048 1.102067 -0.010601 -0.003068 -4490940.000000 1 0 0
-12.808292 1.489315 6.164099 14.292183 -0.115758 1.124872 0.000578 -0.002968 568054.000000 1 0 0
-3.525492 3.611815 10.240699 11.416927 -0.797492 0.457917 -0.002113 0.002434 751644.000000 1 0 0
1.977308 -12.224985 -1.143401 12.436534 -1.410442 1.662865 0.004692 -0.000376 -2912450.000000 1 0 0
10.090408 -5.205985 -3.643401 11.924470 -0.476313 1.881302 0.011986 -0.001233 392002.000000 1 0 0
3.114608 -13.477685 0.996899 13.868763 -1.343689 1.498853 0.005433 -0.003837 415889.000000 1 0 0
9.947008 -1.788285 -6.093201 11.801188 -0.177881 2.113346 0.006558 0.000844 177104.000000 1 0 0
11.832908 -5.430385 -1.675201 13.126808 -0.430249 1.698762 0.010908 -0.002041 -913837.000000 1 0 0
1.517308 1.034915 5.932699 6.210490 0.598593 0.300223 -0.005506 0.002369 298233.000000 1 0 0
-10.848592 11.733315 6.635899 17.303115 -0.824557 1.177204 -0.004812 -0.011444 -301746.000000 1 0 0
4.755708 -14.149385 3.027699 15.231179 -1.246551 1.370680 0.004824 -0.004597 -2528580.000000 1 0 0
5.275208 -3.504785 -1.792401 6.582100 -0.586423 1.846594 -0.003218 0.000768 -1710470.000000 1 0 0
1.912808 -3.001085 -7.748801 8.526973 -1.003350 2.711051 -0.006471 -0.001295 -293397.000000 1 0 0
-2.773892 14.831215 -8.742001 17.437947 -1.385902 2.095921 0.005445 -0.000327 -1263530.000000 1 0 0
-2.284292 6.076415 -8.046801 10.338850 -1.211213 2.462762 0.002257 -0.001425 -221227.000000 1 0 0
2.449208 -3.575385 -11.420301 12.214961 -0.970195 2.778897 -0.005902 0.001159 -2223490.000000 1 0 0
14.495108 2.735815 -2.660001 14.988944 0.186546 1.749205 0.000668 0.007409 562241.000000 1 0 0
-3.426092 13.079615 2.285999 13.712776 -1.314611 1.403309 -0.002511 0.002737 -402368.000000 1 0 0
7.865008 -4.997885 13.978099 16.799537 -0.566085 0.587998 -0.004638 0.005108 -928814.000000 1 0 0
-11.352492 7.268015 2.950199 13.798796 -0.569464 1.355332 -0.007864 -0.000669 1185320.000000 1 0 0
-2.255592 12.036515 4.311999 12.983017 -1.385549 1.232240 -0.000598 0.002198 688782.000000 1 0 0
1.700608 1.421115 0.608799 2.298320 0.696105 1.302708 -0.006291 0.003480 -723285.000000 1 0 0
-6.898892 8.685515 5.355199 12.317103 -0.899542 1.121005 -0.003760 -0.004047 -441597.000000 1 0 0
-1.207892 9.268415 1.101599 9.411485 -1.441203 1.453479 -0.002036 0.003439 436879.000000 1 0 0
4.961208 12.999815 -8.464001 16.286439 1.206220 2.117292 0.001296 -0.010076 -1116980.000000 1 0 0
8.933308 6.977915 7.138199 13.395864 0.663117 1.008813 -0.001748 0.000147 -1685090.000000 1 0 0
7.222708 -13.755885 2.835299 15.793378 -1.087300 1.390293 0.008416 -0.008317 -760443.000000 1 0 0
4.077408 -13.381985 -1.339501 14.053364 -1.275039 1.666257 0.001560 -0.001601 -2665850.000000 1 0 0
12.040208 -11.864185 -4.615001 17.522093 -0.778035 1.837322 0.000930 0.000245 -1391300.000000 1 0 0
3.204808 -0.138285 -2.058301 3.811368 -0.043122 2.141284 -0.005832 0.003400 1350680.000000 1 0 0
-13.555592 -3.061285 -10.580901 17.466568 0.222106 2.221542 -0.005382 -0.001833 380374.000000 1 0 0
-6.568192 13.727515 5.097199 16.048902 -1.124521 1.247595 -0.000572 -0.006892 253848.000000 1 0 0
7.235608 -4.450385 -0.764501 8.529034 -0.551425 1.660552 -0.003218 -0.000443 -3209470.000000 1 0 0
11.711308 2.040715 -7.328301 13.965073 0.172519 2.123229 0.006817 0.004821 -1602340.000000 1 0 0
-7.433892 -4.494085 9.677599 13.004440 0.543751 0.731495 0.002015 0.003587 335828.000000 1 0 0
1.007708 2.703315 8.384299 8.866784 1.213984 0.331408 -0.000329 0.000208 -1465020.000000 1 0 0
1.624508 8.130115 -8.693701 12.013253 1.373580 2.379910 0.000041 -0.001860 -914258.000000 1 0 0
-8.587592 -1.924585 -5.539801 10.399046 0.220469 2.132610 0.005957 -0.003803 -239826.000000 1 0 0
6.606008 -0.547085 7.153399 9.752423 -0.082628 0.747340 -0.005783 0.001577 371974.000000 1 0 0
-10.855992 6.568315 7.288899 14.632955 -0.544118 1.049372 -0.002620 -0.005330 -71762.600000 1 0 0
-5.919292 11.160215 4.872299 13.539856 -1.083132 1.202691 -0.002388 -0.003012 790.014000 1 0 0
6.051208 -1.243785 -6.907501 9.267022 -0.202720 2.411909 -0.005523 0.002334 -995669.000000 1 0 0
4.522808 -5.805985 11.413899 13.580955 -0.908998 0.572712 -0.009743 0.002673 -1409830.000000 1 0 0
-9.020792 -7.380985 2.819999 11.991914 0.685752 1.333415 -0.002650 0.000265 -2805990.000000 1 0 0
-1.203192 12.764115 -9.307101 15.842741 -1.476810 2.198723 0.004860 0.000046 727517.000000 1 0 0
-4.494792 9.368515 -2.361401 10.655911 -1.123458 1.794256 -0.004821 0.000222 176526.000000 1 0 0
-3.386592 9.561915 -0.064301 10.144129 -1.230407 1.577135 -0.000627 0.000886 -47591.500000 1 0 0
-3.301892 10.764515 -6.443101 12.972695 -1.273169 2.090550 -0.007629 0.003140 232868.000000 1 0 0
4.897808 -4.904385 0.315899 6.938394 -0.786069 1.525251 -0.003892 -0.000235 -1188780.000000 1 0 0
-2.184192 2.912415 -10.907101 11.498596 -0.927322 2.819450 0.005607 -0.003920 -633066.000000 1 0 0
-3.504292 12.083315 -2.165401 12.766187 -1.288529 1.741240 -0.004250 0.005007 -692428.000000 1 0 0
-0.391892 0.251615 0.217399 0.513957 -0.570768 1.134053 -0.001374 0.002564 -1703240.000000 1 0 0
-4.863392 -1.651985 0.147099 5.138411 0.327449 1.542165 -0.003380 0.000807 474823.000000 1 0 0
2.533908 2.364515 -2.551401 4.303635 0.750831 2.205387 -0.010471 0.004062 1510250.000000 1 0 0
6.076308 -9.801285 8.376199 14.252979 -1.015837 0.942607 -0.004398 0.001941 -666333.000000 1 0 0
-4.187292 -5.555285 6.629699 9.609761 0.924900 0.809456 0.000851 -0.000190 164557.000000 1 0 0
-6.259592 5.425315 -12.034201 14.609536 -0.714121 2.538741 -0.003456 -0.002518 753055.000000 1 0 0
-12.715792 3.084615 8.072399 15.374324 -0.237984 1.018014 0.001827 -0.003465 640101.000000 1 0 0
4.592508 -7.519385 -4.875401 10.069847 -1.022506 2.076197 -0.006372 -0.001207 1704610.000000 1 0 0
-5.845292 2.466915 -1.018801 6.425812 -0.399356 1.730016 0.001921 -0.004490 -848581.000000 1 0 0
-6.954892 -2.697685 -14.507001 16.312606 0.370017 2.666636 -0.007013 -0.003739 -132294.000000 1 0 0
2.759108 -6.114085 0.895899 6.767374 -1.146886 1.438022 -0.002709 -0.000005 -377278.000000 1 0 0
4.854708 -7.977685 13.030299 16.031230 -1.024124 0.621841 -0.005813 0.005428 -184348.000000 1 0 0
-9.845492 -1.701785 8.037999 12.823385 0.171158 0.893327 -0.003287 0.005280 225907.000000 1 0 0
-4.403992 13.316715 -0.031701 14.026085 -1.251407 1.573056 -0.005425 0.003796 513945.000000 1 0 0
6.821208 2.241915 -4.503301 8.475541 0.317546 2.130965 -0.006202 0.004960 -1724150.000000 1 0 0
5.066208 4.478715 -0.000301 6.762053 0.723925 1.570841 -0.006257 0.001896 -1075150.000000 1 0 0
-5.857692 12.312215 1.954199 13.773964 -1.126726 1.428440 -0.005150 0.000382 700469.000000 1 0 0
6.500808 -7.282685 6.497299 11.726589 -0.842063 0.983556 -0.003294 -0.000661 -1009370.000000 1 0 0
-0.271392 4.938415 7.563599 9.037125 -1.515896 0.579115 -0.003295 0.001289 -1320170.000000 1 0 0
-5.799192 -3.455285 -1.455001 6.905552 0.537342 1.783088 0.002256 -0.001102 -1739380.000000 1 0 0
2.219108 -6.563985 -5.095401 8.600782 -1.244786 2.204874 -0.008206 0.001623 -2064340.000000 1 0 0
-14.388792 -4.832385 -3.710901 15.625622 0.324008 1.810576 -0.001600 -0.000576 -489612.000000 1 0 0
-12.422692 -5.112785 -6.277501 14.828043 0.390439 2.007940 0.004703 -0.003885 -1992620.000000 1 0 0
-14.675592 -3.768185 -1.198101 15.198936 0.251336 1.649706 -0.002709 -0.001262 756343.000000 1 0 0
11.929608 2.865015 8.717399 15.050479 0.235696 0.953036 0.012411 0.000977 -1486540.000000 1 0 0
8.718608 -6.594285 7.624499 13.327855 -0.647550 0.961766 0.004933 -0.003836 -104959.000000 1 0 0
-8.918792 -1.697785 -9.676801 13.269054 0.188110 2.388059 0.003557 -0.004694 -166364.000000 1 0 0
-8.747392 5.152315 -3.866201 10.863274 -0.532301 1.934670 0.000980 -0.001564 -223127.000000 1 0 0
-4.092092 -6.312985 4.022899 8.531278 0.995686 1.079752 0.001646 0.001971 -1106330.000000 1 0 0
-0.150692 -9.342185 3.530499 9.988170 1.554667 1.209520 -0.003345 0.000199 619212.000000 1 0 0
7.858908 -10.450985 3.263799 13.477311 -0.926031 1.326195 0.002083 -0.003841 146805.000000 1 0 0
-0.091592 6.402315 9.615899 11.552642 -1.556491 0.587453 -0.000793 -0.000830 -238127.000000 1 0 0
-0.036192 3.484315 -9.726001 10.331353 -1.560410 2.797572 0.005652 -0.003343 -784625.000000 1 0 0
4.523608 -3.168685 11.092999 12.391861 -0.611046 0.461952 -0.009809 -0.000455 -1767850.000000 1 0 0
8.559308 -9.072985 1.262699 12.536954 -0.814523 1.469907 0.005269 -0.005083 -2061310.000000 1 0 0
-0.155092 -0.360385 11.267699 11.274527 1.164403 0.034806 0.001414 -0.001389 -2062280.000000 1 0 0
10.971208 5.996515 11.311799 16.860676 0.500205 0.835377 0.013872 0.001950 -196032.000000 1 0 0
-6.401792 -2.890285 -11.858301 13.782452 0.424085 2.606833 0.000718 -0.006774 491567.000000 1 0 0
-1.640292 2.783915 8.421699 9.020297 -1.038354 0.366356 -0.001939 0.000783 626007.000000 1 0 0
-1.562792 13.500415 -6.817401 15.204621 -1.455550 2.035745 0.003957 0.001815 1296730.000000 1 0 0
7.780008 3.063415 9.712999 12.816216 0.375111 0.710757 -0.002258 0.002596 1360280.000000 1 0 0
6.521708 8.576315 -7.906701 13.364198 0.920652 2.203879 0.005298 -0.005005 -1516120.000000 1 0 0
6.584408 -3.080185 -4.009801 8.301836 -0.437557 2.074876 -0.003025 0.001332 -1536480.000000 1 0 0
1.966608 8.211115 0.942299 8.495757 1.335719 1.459654 -0.000833 0.002805 1085930.000000 1 0 0
-17.612592 6.423515 6.513299 19.846612 -0.349720 1.236418 0.012369 -0.000901 90313.300000 1 0 0
-14.239892 3.068415 -10.186601 17.775166 -0.212235 2.181056 -0.012221 0.005286 -183419.000000 1 0 0
-18.325592 0.252515 -4.148001 18.790875 -0.013779 1.793375 0.013150 -0.002396 216242.000000 1 0 0
-13.009292 7.941815 0.187199 15.243003 -0.548084 1.558515 -0.007006 0.003310 -396648.000000 1 0 0
-12.765692 -4.284685 -12.689501 18.502563 0.323826 2.326532 0.004885 0.004430 -1247380.000000 1 0 0
-17.416392 -0.737985 -8.690301 19.478107 0.042348 2.033263 -0.007400 -0.000222 198819.000000 1 0 0
-16.618092 -2.108985 -1.914701 16.860453 0.126234 1.684604 0.000036 -0.003472 -293502.000000 1 0 0
-15.251892 4.205015 1.807599 15.923874 -0.269021 1.457036 0.000365 0.000756 -1428650.000000 1 0 0
-13.154692 5.866715 4.424399 15.067832 -0.419505 1.272772 -0.001462 -0.005316 477201.000000 1 0 0
-9.923892 14.292015 2.894799 17.638741 -0.963861 1.405935 0.005353 -0.010238 -13991.200000 1 0 0
-11.972492 2.502815 -6.232801 13.727798 -0.206079 2.042077 -0.003186 0.005180 357424.000000 1 0 0
-15.861792 10.684515 4.040699 19.546932 -0.592788 1.362577 0.011637 -0.010460 -713738.000000 1 0 0
-12.929492 1.164415 -8.400801 15.462894 -0.089817 2.145145 -0.003048 0.002210 591664.000000 1 0 0
-12.186392 14.501915 4.083899 19.377614 -0.871943 1.358451 -0.001898 -0.013467 -161907.000000 1 0 0
-10.609992 11.271715 -0.971501 15.510232 -0.815630 1.633473 -0.004259 -0.002145 617487.000000 1 0 0
-17.402792 5.609015 9.003199 20.380770 -0.311793 1.113248 0.037251 -0.003040 526383.000000 1 0 0
-11.700392 12.654915 -9.172801 19.523994 -0.824570 2.059885 -0.000480 -0.000149 -900024.000000 1 0 0
-17.114692 -0.445785 3.130699 17.404386 0.026041 1.389932 0.008366 -0.005111 482601.000000 1 0 0
-13.123592 15.055315 -0.396501 19.976195 -0.853843 1.590646 0.021157 -0.004816 347785.000000 1 0 0
-16.089192 4.818215 -10.455701 19.783806 -0.290970 2.127627 0.004505 0.010640 464425.000000 1 0 0
-11.677292 7.804915 -9.039401 16.702892 -0.589191 2.142645 -0.016004 0.011975 -536992.000000 1 0 0
-14.742592 13.480715 -1.904001 20.067359 -0.740717 1.665820 0.032968 -0.011026 635014.000000 1 0 0
-11.695092 10.624315 -5.455801 16.715771 -0.737460 1.903274 0.005334 -0.002004 3546810.000000 1 0 0
-17.750792 2.953315 -0.641001 18.006209 -0.164866 1.606403 0.020845 -0.003127 180028.000000 1 0 0
-9.485892 15.497915 0.695299 18.183810 -1.021545 1.532550 0.007003 -0.009766 -45296.400000 1 0 0
-8.022392 13.184615 -3.751201 15.882832 -1.024175 1.809229 -0.006383 -0.003447 -1088680.000000 1 0 0
-17.716392 11.575915 2.344199 21.292431 -0.578763 1.460477 0.033103 -0.000267 -344136.000000 1 0 0
-8.157592 15.774015 -7.312401 19.205131 -1.093520 1.961406 0.015456 -0.006611 226457.000000 1 0 0
-6.276892 15.199615 -5.456501 17.326312 -1.179164 1.891175 -0.004532 -0.001121 95329.300000 1 0 0
-17.392692 5.410815 -0.062501 18.215009 -0.301606 1.574228 0.021432 0.005257 577243.000000 1 0 0
-5.396592 12.313315 -12.280401 18.208492 -1.157737 2.310992 -0.016205 0.000422 629899.000000 1 0 0
-11.109992 3.833715 -11.377301 16.357636 -0.332275 2.339960 -0.007561 0.001831 241312.000000 1 0 0
-11.723592 11.112615 1.456299 16.218928 -0.758650 1.480885 -0.003908 -0.003386 198961.000000 1 0 0
-12.933692 0.381215 -10.909301 16.924496 -0.029466 2.271279 -0.000459 -0.000899 20029.100000 1 0 0
-14.000392 -2.059185 -13.044301 19.245909 0.146033 2.315522 -0.011441 0.003278 211206.000000 1 0 0
-18.723692 -2.282585 -3.572301 19.197608 0.121310 1.757968 0.001130 -0.002046 1069100.000000 1 0 0
-18.221192 4.828615 -4.962201 19.492326 -0.259046 1.828201 0.028624 0.002270 429736.000000 1 0 0
-8.200092 15.360115 -2.188901 17.548958 -1.080432 1.695853 -0.001243 -0.007294 -858216.000000 1 0 0
-15.894592 9.223015 -5.110601 19.074074 -0.525779 1.842045 0.024796 0.005956 51416.600000 1 0 0
-18.257792 1.637715 2.376999 18.484566 -0.089460 1.441846 0.018162 -0.009272 -406517.000000 1 0 0
-15.663492 -2.656085 -8.727701 18.126570 0.167974 2.073146 -0.010686 0.001448 -667184.000000 1 0 0
-9.335292 10.651115 -7.032801 15.813103 -0.851139 2.031686 -0.006830 -0.004909 305124.000000 1 0 0
-13.803392 12.093415 -7.698501 19.901036 -0.719463 1.967998 0.011242 -0.002771 171955.000000 1 0 0
-10.957692 6.656815 -3.730301 13.352878 -0.545917 1.853927 -0.006859 0.003456 -918082.000000 1 0 0
-13.125192 5.030715 -12.622301 18.891830 -0.366016 2.302496 -0.002522 0.002685 1321180.000000 1 0 0
-17.531692 9.081815 2.751999 19.935222 -0.477962 1.432307 0.014088 -0.005354 722505.000000 1 0 0
-13.251892 8.846315 -6.644101 17.263082 -0.588615 1.965867 -0.007326 0.007732 -27453.800000 1 0 0
-15.744992 7.029915 -3.664501 17.628189 -0.419928 1.780201 0.014984 0.009581 -723964.000000 1 0 0
-14.909492 -0.202485 -9.258701 17.551567 0.013580 2.126468 -0.002326 -0.000614 795221.000000 1 0 0
-9.986692 5.972315 -5.998701 13.091485 -0.538968 2.046781 -0.010001 0.006127 547839.000000 1 0 0
-12.830192 12.419315 -0.536601 17.864522 -0.769127 1.600838 0.014746 -0.004688 -1588110.000000 1 0 0
-10.645492 3.403715 -13.941301 17.868174 -0.309461 2.465831 -0.012183 0.002912 546774.000000 1 0 0
-10.888892 6.376915 -11.906401 17.349219 -0.529790 2.327157 -0.017613 0.005167 -543900.000000 1 0 0
-5.594092 11.609715 -14.783001 19.611641 -1.121777 2.424603 -0.011129 -0.005706 -322076.000000 1 0 0
-15.736092 13.340715 3.601899 20.942133 -0.703203 1.397944 0.013083 -0.015166 -83926.300000 1 0 0
-15.039892 11.158915 -2.982101 18.963456 -0.638332 1.728707 0.030100 0.004581 684329.000000 1 0 0
-18.075092 7.969715 -4.442901 20.247584 -0.415280 1.792025 0.036553 0.005906 478938.000000 1 0 0
-3.976992 16.296615 -10.433801 19.755008 -1.331437 2.127228 0.008057 0.000783 227844.000000 1 0 0
-15.723192 4.497915 -4.339001 16.919720 -0.278627 1.830140 0.010035 0.005945 -1466080.000000 1 0 0
-18.572392 -1.596485 -6.022901 19.589738 0.085749 1.883310 -0.009964 -0.000096 390443.000000 1 0 0
-10.647092 8.687015 -5.807401 14.918133 -0.684364 1.970651 -0.010321 0.003141 1638790.000000 1 0 0
-11.143592 13.461415 -6.741601 18.730684 -0.879322 1.938982 0.000546 -0.004226 347011.000000 1 0 0
-9.361192 10.594215 -4.349801 14.791554 -0.847109 1.869282 -0.011007 -0.001080 -787455.000000 1 0 0
-11.098492 6.245315 -0.264401 12.737754 -0.512555 1.591555 -0.009072 0.001133 -774601.000000 1 0 0
-14.527292 9.433715 -1.254701 17.366965 -0.575938 1.643106 0.014905 0.003754 -826368.000000 1 0 0
-18.705992 3.368015 4.783899 19.599575 -0.178141 1.324224 0.010838 -0.002904 250132.000000 1 0 0
-14.835192 13.395615 0.734899 20.001637 -0.734449 1.534046 0.016898 -0.001524 629369.000000 1 0 0
-16.536292 2.607415 -8.999501 19.006277 -0.156391 2.064058 -0.004487 0.004752 11623.600000 1 0 0
-9.010592 8.474815 -8.702201 15.124204 -0.754766 2.183868 -0.010812 0.003517 -2073080.000000 1 0 0
-17.541392 4.686615 -2.511201 18.329509 -0.261077 1.708232 0.008202 0.005540 893297.000000 1 0 0
-13.484092 5.868215 -4.309401 15.324086 -0.410474 1.855859 -0.003829 0.011141 -660464.000000 1 0 0
-12.117892 9.611915 3.383199 15.832822 -0.670581 1.355453 -0.009653 -0.005121 721103.000000 1 0 0
-17.344092 2.544215 -3.881401 17.954270 -0.145652 1.788699 0.005111 0.000656 780323.000000 1 0 0
-11.255892 1.511715 -12.537101 16.916243 -0.133505 2.405545 -0.003594 0.000068 -35952.900000 1 0 0
-11.198192 12.155415 3.736599 16.944491 -0.826363 1.348449 -0.004920 -0.007529 244458.000000 1 0 0
-15.436092 13.356515 -4.453501 20.892656 -0.713297 1.785606 0.004212 0.005608 1044350.000000 1 0 0
-11.008292 4.214615 -4.443201 12.597123 -0.365642 1.931268 -0.007468 0.003552 -697423.000000 1 0 0
-11.022892 15.048915 -8.809401 20.629579 -0.938609 2.011999 0.001043 -0.004265 473627.000000 1 0 0
-15.411192 7.190615 -0.176301 17.007083 -0.436559 1.581163 0.009092 0.009510 -1015010.000000 1 0 0
-12.773892 8.449315 -4.103601 15.855686 -0.584384 1.832586 -0.002478 0.005588 984157.000000 1 0 0
-19.174492 2.135315 -5.718501 20.122673 -0.110905 1.858949 0.019967 -0.000743 35979.000000 1 0 0
-12.501892 10.242915 -8.889401 18.445489 -0.686404 2.073650 -0.008026 0.002881 718151.000000 1 0 0
-16.455592 11.081515 -0.750901 19.853220 -0.592663 1.608628 0.018275 0.003463 585189.000000 1 0 0
-10.801092 6.495015 -14.503301 19.214436 -0.541397 2.426165 -0.009146 -0.003247 291455.000000 1 0 0
-13.004792 12.672515 -3.642401 18.519836 -0.772458 1.768763 0.007243 -0.011589 -709124.000000 1 0 0
-17.949892 7.855315 -0.086301 19.593673 -0.412515 1.575201 0.031074 0.005048 499342.000000 1 0 0
-12.740192 6.848515 -2.088001 14.614185 -0.493236 1.714162 -0.009743 0.008642 344344.000000 1 0 0
-13.591892 8.573615 -10.596701 19.249324 -0.562751 2.153756 -0.006915 0.005826 -782688.000000 1 0 0
-14.895592 1.387815 -0.799501 14.981451 -0.092901 1.624188 -0.002033 -0.000138 -510758.000000 1 0 0
-13.319592 2.822615 -2.273101 13.803828 -0.208825 1.736222 -0.001868 0.002932 417033.000000 1 0 0
-11.204292 9.504415 -11.010501 18.360316 -0.703497 2.213910 -0.014901 0.006789 -331966.000000 1 0 0
-15.059792 4.431815 -8.046001 17.640194 -0.286202 2.044424 -0.005195 0.007153 668447.000000 1 0 0
-18.372492 10.648915 4.664099 21.741703 -0.525293 1.354593 0.016404 -0.009888 322167.000000 1 0 0
-15.276292 6.174015 -6.196201 17.603308 -0.384085 1.930493 0.012907 0.011556 736858.000000 1 0 0
-7.628792 11.319815 -13.166001 18.965238 -0.977780 2.338129 -0.018163 0.006785 -1935180.000000 1 0 0
-16.731592 9.179115 -2.549201 19.253590 -0.501775 1.703588 0.027357 0.004226 315677.000000 1 0 0
-20.640892 -0.871585 -4.704701 21.188211 0.042201 1.794706 0.014014 -0.007715 834450.000000 1 0 0
-15.414992 4.396015 4.342799 16.607433 -0.277804 1.306223 0.006563 -0.000570 330530.000000 1 0 0
-6.867692 12.592115 -9.423701 17.161955 -1.071495 2.152088 -0.005631 -0.000961 -1508930.000000 1 0 0
-17.187692 1.516215 5.787899 18.199325 -0.087987 1.247147 0.008610 -0.005209 1059270.000000 1 0 0
-10.294392 14.153215 -3.114101 17.775984 -0.941947 1.746891 0.008801 -0.012351 337325.000000 1 0 0
-10.047892 8.517315 -13.149301 18.612063 -0.703141 2.355328 -0.018801 0.006649 144169.000000 1 0 0
-13.719892 11.726015 3.039399 18.302262 -0.707200 1.403957 0.000037 -0.010353 -97625.100000 1 0 0
-16.709092 6.772115 2.017599 18.141830 -0.385063 1.459353 0.006207 0.004556 617750.000000 1 0 0
-9.174092 13.257915 -8.377701 18.169264 -0.965479 2.050022 0.000283 -0.006390 -2218120.000000 1 0 0
-5.560192 9.890715 -12.906601 17.184945 -1.058663 2.420434 -0.002610 0.003038 -444189.000000 1 0 0
-15.903392 1.937315 3.223799 16.342091 -0.121220 1.372224 0.004177 -0.003246 -819281.000000 1 0 0
-18.510992 -4.828485 4.540499 19.661821 0.255159 1.337763 0.006071 0.000776 -1822570.000000 1 0 0
-5.251592 14.475615 -9.057901 17.865280 -1.222774 2.102510 -0.003504 -0.000584 -660276.000000 1 0 0
-15.522692 -0.861085 -6.800301 16.968781 0.055416 1.983136 0.003860 -0.000234 802527.000000 1 0 0
-8.813492 10.978115 -9.471001 16.967513 -0.894336 2.162992 -0.012764 -0.004139 519407.000000 1 0 0
-16.732292 1.187315 -6.009501 17.818345 -0.070841 1.914806 0.001352 0.002339 -1173240.000000 1 0 0
-11.079492 8.776515 -1.416301 14.205220 -0.669930 1.670665 -0.007568 0.000538 -472778.000000 1 0 0
-10.526492 11.073315 -12.990701 20.054517 -0.810709 2.275449 -0.009342 0.007865 -635611.000000 1 0 0
-13.921292 11.892715 -10.329301 21.022214 -0.706975 2.084437 0.007456 0.003780 629386.000000 1 0 0
-13.083892 6.070215 -7.586001 16.296722 -0.434390 2.054987 -0.005037 0.011460 -2185630.000000 1 0 0
-8.801392 15.391115 -4.760201 18.357844 -1.051333 1.833094 0.002035 -0.009171 937122.000000 1 0 0
-8.641092 6.290715 -13.002401 16.831637 -0.629272 2.453561 -0.012126 0.001842 -1075420.000000 1 0 0
-16.302792 7.508815 4.462499 18.495330 -0.431621 1.327115 0.009076 -0.001548 330637.000000 1 0 0
-12.574492 5.647815 -10.178101 17.135034 -0.422146 2.206810 -0.005798 0.009709 303751.000000 1 0 0
-12.454192 9.442515 -13.250601 20.490154 -0.648716 2.274022 0.003163 -0.001236 -1221920.000000 1 0 0
-10.765792 5.341615 -8.409001 14.667870 -0.460575 2.181317 -0.010065 0.009180 -86218.500000 1 0 0
-17.646192 -4.387485 -2.577801 18.365271 0.243695 1.711624 -0.007448 -0.001557 339349.000000 1 0 0
-8.960392 13.118815 -10.989601 19.317434 -0.971559 2.175959 0.000181 -0.006732 153927.000000 1 0 0
-14.994592 6.143615 6.296599 17.384733 -0.388859 1.200179 0.004803 -0.004831 355540.000000 1 0 0
-16.279292 -3.116985 -4.342001 17.134290 0.189180 1.827000 -0.011905 0.000869 -292353.000000 1 0 0
-11.200292 -1.146685 -12.379201 16.733381 0.102024 2.403556 0.000087 -0.003962 257207.000000 1 0 0
-15.283692 6.960315 -8.608101 18.871582 -0.427342 2.044450 0.005170 0.013311 -34126.400000 1 0 0
-14.932992 9.272715 1.321499 17.627361 -0.555685 1.495757 0.009628 -0.002391 -583760.000000 1 0 0
-19.608392 5.352615 7.694599 21.733531 -0.266483 1.208906 0.021101 -0.004728 -766405.000000 1 0 0
-16.227892 0.539315 1.003199 16.267813 -0.033222 1.509089 0.004428 -0.006147 -1285140.000000 1 0 0
-17.550592 3.850115 7.045199 19.299779 -0.215952 1.197120 0.014638 -0.003394 678323.000000 1 0 0
-15.410192 3.966315 -1.174801 15.955746 -0.251915 1.644492 0.004859 0.003850 -253862.000000 1 0 0
-10.811592 13.394615 0.556599 17.222544 -0.891705 1.538473 0.003941 -0.009283 -308769.000000 1 0 0
-13.376492 3.415315 0.151399 13.806442 -0.249981 1.559830 0.000345 0.001183 -337689.000000 1 0 0
-15.236992 -0.077085 -4.262401 15.822134 0.005059 1.843561 0.003316 0.002999 -376822.000000 1 0 0
-18.757092 6.934615 3.589099 20.317456 -0.354122 1.393213 0.009839 -0.000500 1320630.000000 1 0 0
-14.221392 1.294915 -6.157701 15.551272 -0.090804 1.977911 -0.001472 0.002698 -564806.000000 1 0 0
-14.231492 12.294215 5.384899 19.562214 -0.712494 1.291925 0.005636 -0.011508 166814.000000 1 0 0
17.711008 5.538315 6.219199 19.571183 0.303071 1.247416 0.018751 -0.004823 111996.000000 1 0 0
18.471608 7.244715 -0.238801 19.842964 0.373771 1.582831 0.007772 -0.000766 482776.000000 1 0 0
16.541008 5.270315 8.530899 19.343149 0.308452 1.114051 0.027118 -0.000922 391458.000000 1 0 0
11.729408 12.195815 11.105499 20.239788 0.804890 0.989992 0.006745 0.002446 470388.000000 1 0 0
-2.298392 16.284115 -0.451901 16.451724 -1.430579 1.598268 -0.003445 0.002236 -347069.000000 1 0 0
15.236508 12.578315 3.386899 20.045855 0.690120 1.401024 0.019087 -0.003795 175047.000000 1 0 0
13.799308 11.853115 6.756599 19.405383 0.709675 1.215166 0.017209 0.005276 978475.000000 1 0 0
-0.585492 15.812715 8.628799 18.023344 -1.533787 1.071558 0.000448 -0.005027 -463632.000000 1 0 0
0.710308 12.808115 9.470699 15.945109 1.515395 0.934829 0.002231 -0.005611 -1466420.000000 1 0 0
0.773208 15.523215 -3.833901 16.008337 1.521028 1.812641 -0.000888 0.003303 -1331690.000000 1 0 0
5.336008 10.327315 13.583599 17.878495 1.093887 0.707832 -0.001193 -0.006195 294179.000000 1 0 0
-1.342292 16.609315 -2.807201 16.898268 -1.490156 1.737694 -0.002468 0.005305 -548282.000000 1 0 0
8.645308 10.026715 3.263699 13.635546 0.859246 1.329098 0.009616 -0.002008 446160.000000 1 0 0
12.629708 13.604415 -5.024701 19.231154 0.822535 1.835144 0.035670 -0.003679 1272250.000000 1 0 0
2.451908 11.566115 7.787099 14.157181 1.361898 0.988377 0.007141 -0.002147 351808.000000 1 0 0
-0.305492 15.034515 -8.810301 17.428465 -1.550480 2.100772 0.004516 0.004777 -803105.000000 1 0 0
2.406508 16.089015 0.273299 16.270291 1.422322 1.553998 0.004273 0.003438 -18699.600000 1 0 0
1.915708 13.341615 5.390099 14.516260 1.428182 1.190372 0.007011 -0.000559 -980914.000000 1 0 0
17.454808 9.092215 -1.813601 19.764308 0.480228 1.662687 -0.007352 0.003608 330276.000000 1 0 0
-7.210092 14.923015 7.278499 18.101336 -1.120717 1.156990 0.004722 -0.014837 -1949270.000000 1 0 0
8.543008 16.096915 0.001499 18.223437 1.082873 1.570714 0.016771 -0.000680 453468.000000 1 0 0
15.635208 10.344215 2.088799 18.863340 0.584485 1.459836 0.007531 -0.003704 1022480.000000 1 0 0
14.140208 7.433815 8.793699 18.235576 0.484013 1.067601 0.022923 -0.001018 -610640.000000 1 0 0
4.063908 18.738015 -1.900401 19.267592 1.357224 1.669589 0.012693 -0.004249 -148002.000000 1 0 0
-0.313292 17.664115 -4.882201 18.329075 -1.553062 1.840415 0.006605 0.005835 433499.000000 1 0 0
1.367008 13.836215 -0.608101 13.916873 1.472317 1.614505 -0.000553 0.001676 -326364.000000 1 0 0
10.337908 14.595815 4.205299 18.373751 0.954536 1.339874 0.020257 -0.010933 -475904.000000 1 0 0
-1.628292 15.399015 -5.133801 16.313703 -1.465448 1.890929 -0.000260 0.002579 1100630.000000 1 0 0
15.009408 8.664815 -6.173101 18.397514 0.523555 1.912975 0.009503 0.005097 -355379.000000 1 0 0
-2.411992 18.521515 0.955099 18.702311 -1.441299 1.519706 -0.004917 0.000428 271939.000000 1 0 0
-3.735192 19.525715 3.516299 20.188352 -1.381784 1.395729 -0.002268 -0.000421 124911.000000 1 0 0
1.857408 17.656515 -2.665701 17.952951 1.465985 1.719830 -0.000180 -0.000141 -439670.000000 1 0 0
2.886608 12.197215 3.312099 12.964357 1.338411 1.312455 0.007602 0.001882 385513.000000 1 0 0
-2.575792 16.109315 2.000799 16.436178 -1.412244 1.448762 -0.000656 -0.001405 -2312300.000000 1 0 0
11.794808 13.010015 -2.676401 17.763477 0.834350 1.722041 0.017293 0.009435 635829.000000 1 0 0
7.289608 11.709015 4.694299 14.569690 1.013951 1.242748 0.006637 -0.002079 392749.000000 1 0 0
7.109808 15.986615 2.049799 17.615985 1.152329 1.454172 0.015458 -0.002033 -1176740.000000 1 0 0
5.495908 12.277815 10.268699 16.923236 1.149916 0.918792 0.000704 0.002186 63015.400000 1 0 0
-1.313792 14.234815 3.303999 14.672165 -1.478763 1.343660 -0.000073 0.002548 283026.000000 1 0 0
4.714508 16.298515 1.497299 17.032618 1.289222 1.482775 0.009542 -0.003324 -1650120.000000 1 0 0
7.289308 13.064115 12.021999 19.192019 1.061859 0.893862 -0.003770 -0.000958 5930.790000 1 0 0
0.582108 17.332215 -9.477901 19.762974 1.537224 2.070971 0.014489 0.003396 328182.000000 1 0 0
9.816008 9.596715 15.335899 20.582535 0.774102 0.730122 0.012475 -0.009700 -280922.000000 1 0 0
13.454708 7.461815 -0.108901 15.385699 0.506359 1.577874 -0.003662 0.006757 71018.600000 1 0 0
12.543008 13.621615 -0.239501 18.518445 0.826599 1.583730 0.031327 -0.001987 587860.000000 1 0 0
9.493308 12.372315 3.288599 15.937753 0.916313 1.362963 0.013060 0.000276 869255.000000 1 0 0
-0.619992 13.037115 0.894999 13.082499 -1.523276 1.502331 0.000911 0.001177 -78893.100000 1 0 0
15.901908 7.198515 -0.996601 17.483779 0.425082 1.627829 -0.005337 0.006341 -959185.000000 1 0 0
-4.374492 18.535315 -2.249501 19.176922 -1.339029 1.688370 0.004131 0.005370 286841.000000 1 0 0
11.684108 9.336215 -3.225401 15.299886 0.674163 1.783202 0.014112 0.003970 584465.000000 1 0 0
14.780808 9.756415 7.766799 19.338643 0.583424 1.157510 0.012633 0.000419 1294460.000000 1 0 0
4.454908 13.739815 4.644199 15.172255 1.257258 1.259705 0.009046 -0.001409 862229.000000 1 0 0
2.156808 15.896015 5.659799 17.010833 1.435938 1.231613 0.007417 -0.003680 370937.000000 1 0 0
6.039708 18.349315 5.726699 20.148710 1.252814 1.282602 0.016337 -0.014810 -245080.000000 1 0 0
10.644008 17.291515 -1.024201 20.330775 1.019012 1.621195 0.035638 -0.007879 -920488.000000 1 0 0
9.932708 13.644115 -4.528201 17.473557 0.941534 1.832934 0.028235 0.002675 -561026.000000 1 0 0
16.604608 7.873415 2.201999 18.508173 0.442771 1.451539 -0.004292 -0.002294 431896.000000 1 0 0
4.022808 14.107115 -0.423601 14.675596 1.293008 1.599665 0.006984 0.000234 892096.000000 1 0 0
5.595408 13.167015 -2.340901 14.496851 1.168963 1.732983 0.006609 -0.000373 -542578.000000 1 0 0
-6.161992 16.741315 -2.899501 18.073430 -1.218114 1.731922 0.002204 -0.004843 -1247720.000000 1 0 0
18.189008 9.900315 2.612399 20.872970 0.498458 1.445310 0.010987 -0.002743 -1360550.000000 1 0 0
7.990408 12.935915 9.464199 17.909651 1.017470 1.014033 0.006308 -0.002534 1004120.000000 1 0 0
-2.559192 15.699815 6.741799 17.276733 -1.409210 1.169921 0.001700 -0.007391 554479.000000 1 0 0
11.205508 15.877715 6.225099 20.406301 0.956230 1.260797 0.016874 -0.009694 -384748.000000 1 0 0
13.597008 12.035615 1.429799 18.214802 0.724559 1.492219 0.021690 -0.001974 53249.000000 1 0 0
17.393608 7.873515 -5.818801 19.959667 0.425070 1.866620 -0.006411 0.019297 -1035780.000000 1 0 0
9.551008 9.317715 8.017699 15.566794 0.773035 1.029729 0.005877 -0.002185 10175.600000 1 0 0
-1.993092 14.288315 -1.915801 14.553304 -1.432200 1.702820 -0.004364 0.003583 807291.000000 1 0 0
11.052308 11.675315 0.721999 16.093097 0.812803 1.525917 0.012295 0.003343 -393659.000000 1 0 0
11.854308 9.863315 -0.660701 15.435224 0.693977 1.613614 0.009500 0.005015 -533947.000000 1 0 0
-0.217292 16.200315 11.232599 19.714682 -1.557384 0.964585 0.000685 -0.003071 -387120.000000 1 0 0
1.947208 20.266515 -1.845801 20.443342 1.475010 1.661208 0.007896 -0.004500 -331664.000000 1 0 0
9.212608 14.469115 1.855199 17.253093 1.003822 1.463060 0.017069 -0.004759 407505.000000 1 0 0
8.409108 11.741815 -5.095601 15.314976 0.949302 1.909983 0.013655 -0.000068 -1063680.000000 1 0 0
10.754008 9.960915 10.244699 17.883579 0.747131 0.960811 0.004696 -0.001506 303577.000000 1 0 0
-5.127792 15.834915 5.891299 17.656336 -1.257625 1.230608 -0.006031 -0.005400 591767.000000 1 0 0
14.418508 9.082415 -1.908701 17.147209 0.562125 1.682340 0.016639 0.006747 -511184.000000 1 0 0
12.226608 9.725715 6.833699 17.052241 0.671963 1.158460 0.006856 -0.001363 -385585.000000 1 0 0
3.190608 12.928315 9.753999 16.506417 1.328839 0.938596 -0.002881 -0.003524 -913904.000000 1 0 0
8.493608 12.685215 -2.656001 15.495496 0.980788 1.743052 0.013392 0.003687 -800202.000000 1 0 0
9.576008 17.073115 2.199299 19.698429 1.059637 1.458915 0.021721 -0.005750 373296.000000 1 0 0
9.547108 14.290415 -7.591301 18.788057 0.981817 1.986736 0.020742 -0.005987 -353638.000000 1 0 0
6.478508 11.585815 7.143699 15.074303 1.060936 1.077083 0.006927 0.000705 -643159.000000 1 0 0
5.443408 16.946115 -5.617901 18.664467 1.259988 1.876532 0.005060 0.005377 -1103880.000000 1 0 0
-4.235892 17.330415 -4.675401 18.443032 -1.331077 1.827098 -0.001790 0.004353 504350.000000 1 0 0
-0.197792 18.641015 -0.414401 18.646670 -1.560186 1.593022 -0.002181 0.001707 308476.000000 1 0 0
6.455908 15.716915 -2.778601 17.216875 1.181047 1.732893 0.008683 0.007280 459062.000000 1 0 0
-0.898292 20.779615 1.018499 20.823945 -1.527594 1.521867 0.005950 0.002533 119071.000000 1 0 0
-1.297192 18.900515 4.383999 19.445607 -1.502271 1.343392 0.006547 -0.002650 365795.000000 1 0 0
7.226608 13.969915 -4.429501 16.340223 1.093406 1.845311 0.007841 0.007822 226095.000000 1 0 0
-1.003392 11.974115 7.765599 14.307018 -1.487195 0.997050 0.000305 0.002535 520093.000000 1 0 0
7.676608 10.842415 10.908999 17.189955 0.954710 0.883286 0.000627 -0.001594 464279.000000 1 0 0
1.528708 15.961015 -7.403401 17.660728 1.475310 2.003362 0.004488 -0.000396 -282781.000000 1 0 0
8.727108 7.197415 14.863499 18.678565 0.689633 0.650549 0.012005 -0.002163 362314.000000 1 0 0
11.364508 11.466415 -4.799501 16.842385 0.789862 1.859767 0.020417 0.005186 62322.100000 1 0 0
-3.334392 17.117515 4.522799 18.016193 -1.378411 1.317041 -0.000949 -0.002738 -459719.000000 1 0 0
3.948508 15.292615 -6.748801 17.175596 1.318118 1.974612 0.002163 -0.005598 -455553.000000 1 0 0
-4.469492 13.994315 9.599099 17.548787 -1.261657 0.992026 0.009356 -0.011166 -89949.500000 1 0 0
6.287408 18.166715 0.655599 19.235146 1.237605 1.536706 0.009975 0.002190 -247732.000000 1 0 0
9.868808 10.843015 -2.022301 14.800475 0.832400 1.707863 0.015649 0.005178 -2191600.000000 1 0 0
7.098608 18.263815 -2.589201 19.765150 1.200095 1.702172 0.011567 0.003848 91141.000000 1 0 0
3.546808 10.325315 10.413399 15.087440 1.239918 0.809027 0.001425 -0.001484 1272230.000000 1 0 0
0.033008 18.622715 2.119199 18.742935 1.569024 1.457487 0.006711 -0.006680 649479.000000 1 0 0
-0.879992 17.134415 -7.363501 18.670397 -1.519483 1.976205 0.013018 0.000965 -142528.000000 1 0 0
10.055808 8.648615 12.995099 18.568533 0.710306 0.795616 0.007946 -0.004565 160097.000000 1 0 0
3.685808 11.396215 5.474799 13.169371 1.257991 1.142060 0.005437 -0.000546 872843.000000 1 0 0
13.079608 13.973215 8.185599 20.816602 0.818418 1.166660 0.005027 -0.002107 -294882.000000 1 0 0
-0.492492 17.308915 6.784199 18.597485 -1.542351 1.197388 -0.001405 -0.008218 -232074.000000 1 0 0
12.243408 13.583915 5.693099 19.152942 0.837254 1.268991 0.018818 -0.007065 -1437880.000000 1 0 0
4.772008 14.625315 -4.421301 16.006868 1.255403 1.850648 -0.002055 0.005720 -1157060.000000 1 0 0
3.738408 17.654015 4.777299 18.667151 1.362119 1.311997 0.012103 -0.005339 -956267.000000 1 0 0
7.121008 11.663715 2.077699 13.822729 1.022673 1.419914 0.012092 0.000758 546240.000000 1 0 0
6.383208 8.812415 11.695299 15.974480 0.943919 0.749362 -0.001896 -0.002811 403516.000000 1 0 0
-5.287892 14.903115 1.846499 15.920873 -1.229836 1.454555 -0.006058 0.003153 -45802.400000 1 0 0
6.930308 13.846415 5.872299 16.560081 1.106739 1.208304 0.005972 -0.002053 2257180.000000 1 0 0
5.853708 15.934915 4.884699 17.664872 1.218748 1.290625 0.007076 -0.007985 872891.000000 1 0 0
1.260108 18.034115 4.384499 18.602178 1.501036 1.332859 0.012057 -0.002435 1243820.000000 1 0 0
7.257208 18.037915 -7.145001 20.714355 1.188282 1.922960 0.009017 0.004041 343570.000000 1 0 0
-2.362192 18.977315 -5.845001 19.997062 -1.446959 1.867420 0.008249 0.007848 996256.000000 1 0 0
13.610108 10.325915 -4.632701 17.700890 0.649042 1.835602 0.019348 0.011179 927203.000000 1 0 0
-1.584492 17.897515 9.733899 20.434785 -1.482495 1.074309 0.009339 -0.014700 -590003.000000 1 0 0
3.444208 11.869015 -1.524701 12.452341 1.288368 1.693547 0.003633 0.001772 1297050.000000 1 0 0
4.475608 13.851915 -10.885701 18.177049 1.258280 2.212886 0.004292 -0.018572 -338398.000000 1 0 0
11.610408 13.549315 2.210599 17.979774 0.862310 1.447535 0.021546 -0.003584 -610542.000000 1 0 0
15.800608 6.356915 -7.171601 18.479758 0.382506 1.969342 -0.004127 0.011771 99164.800000 1 0 0
2.565808 16.135115 2.994099 16.609935 1.413097 1.389546 0.009025 -0.001421 126980.000000 1 0 0
13.619508 10.569115 3.562899 17.603734 0.659952 1.366994 0.016915 0.001139 -1085770.000000 1 0 0
-4.946392 19.595715 -5.823601 21.032669 -1.323539 1.851346 -0.000879 0.004226 119659.000000 1 0 0
5.375408 12.007215 0.076299 13.155761 1.149872 1.564997 0.009054 0.001717 719938.000000 1 0 0
4.877108 15.226915 9.645599 18.673048 1.260826 1.027977 0.006395 -0.007347 -375417.000000 1 0 0
7.721408 9.427415 13.905499 18.489435 0.884554 0.719587 -0.003508 -0.005744 -1113270.000000 1 0 0
-5.032492 13.720415 7.143199 16.266562 -1.219244 1.116162 -0.001189 -0.002574 -1927640.000000 1 0 0
-4.578992 17.151815 0.680299 17.765549 -1.309912 1.532494 -0.001551 0.002027 65798.000000 1 0 0
-0.658692 16.581215 3.634499 16.987647 -1.531092 1.355180 0.001965 -0.003433 -1538640.000000 1 0 0
7.767308 17.008915 -4.777901 19.299290 1.142417 1.820966 0.004891 0.006060 447952.000000 1 0 0
2.977908 16.469615 -4.584001 17.353075 1.391917 1.838130 -0.002454 0.002673 272669.000000 1 0 0
9.582608 14.371315 8.244999 19.140039 0.982710 1.125448 0.016052 -0.008494 217074.000000 1 0 0
12.877908 10.965215 9.127299 19.219367 0.705350 1.075945 0.007114 -0.002106 93506.000000 1 0 0
3.694408 12.358615 12.231399 17.776140 1.280318 0.811957 -0.002887 -0.001580 568834.000000 1 0 0
-3.273192 19.311015 6.020399 20.490834 -1.402893 1.272587 0.010328 -0.008465 153223.000000 1 0 0
-2.611792 15.677415 10.290499 18.934021 -1.405717 0.996204 0.007631 -0.014309 131871.000000 1 0 0
2.062308 14.221515 7.775499 16.339002 1.426787 1.074825 0.006512 -0.003508 64793.300000 1 0 0
4.383308 17.148115 7.964399 19.408835 1.320540 1.147959 0.012510 -0.008790 -297528.000000 1 0 0
-1.925292 13.411015 9.408899 16.495134 -1.428210 0.963798 0.001794 -0.006866 -1340940.000000 1 0 0
5.763308 17.920515 3.227499 19.099145 1.259639 1.400995 0.004590 -0.006386 338696.000000 1 0 0
7.165108 15.438315 -6.918401 18.372388 1.136269 1.956882 0.007012 0.002613 266689.000000 1 0 0
10.972408 7.575315 9.390899 16.308529 0.604252 0.957180 0.005291 -0.002429 712579.000000 1 0 0
8.930908 16.378915 -2.582601 18.833476 1.071593 1.708358 0.014295 -0.001701 -44865.400000 1 0 0
14.560208 11.115915 -6.872701 19.565205 0.652050 1.929725 0.029414 0.000802 555888.000000 1 0 0
10.858208 6.394015 16.164299 20.495577 0.532192 0.662149 0.015450 -0.003129 -280926.000000 1 0 0
8.543308 8.521515 10.285199 15.855272 0.784121 0.864931 0.002383 0.001057 757448.000000 1 0 0
16.576208 9.299815 4.422199 19.514433 0.511275 1.342199 0.018051 -0.003331 224464.000000 1 0 0
-3.436192 14.460015 4.600799 15.558496 -1.337490 1.270598 -0.000024 0.002131 -1339540.000000 1 0 0
4.911508 14.702515 12.526399 19.929815 1.248393 0.891140 -0.002254 -0.006085 -829487.000000 1 0 0
16.176208 10.600015 -4.925301 19.957170 0.580081 1.820166 0.024052 0.001208 -382604.000000 1 0 0
14.648608 14.177615 6.178099 21.301535 0.769061 1.276537 0.004913 0.004078 -484405.000000 1 0 0
6.219008 9.623615 9.213099 14.702762 0.997080 0.893583 0.002292 -0.002748 720136.000000 1 0 0
10.578508 12.144415 8.769899 18.338560 0.854202 1.072167 0.009231 -0.001156 274118.000000 1 0 0
7.948508 11.555815 -0.358901 14.030127 0.968281 1.596380 0.009206 0.001488 807515.000000 1 0 0
7.449008 13.551915 -8.820201 17.802755 1.068211 2.089138 0.020777 -0.002214 -955673.000000 1 0 0
2.748208 15.307415 -2.205101 15.707708 1.393154 1.711645 -0.001421 0.002900 621406.000000 1 0 0
12.117808 13.815415 -7.767401 19.950927 0.850766 1.970695 0.012590 -0.004563 -921741.000000 1 0 0
-8.286392 14.775715 9.706799 19.524548 -1.059690 1.050475 0.023232 -0.016954 208406.000000 1 0 0
11.604308 9.707315 2.189899 15.286844 0.696620 1.427048 0.016856 0.000178 -2393570.000000 1 0 0
12.139508 8.702015 4.487699 15.595902 0.621935 1.278921 0.005752 -0.001400 352805.000000 1 0 0
14.062808 7.949615 6.124199 17.276133 0.514509 1.208429 0.008359 -0.001504 -730609.000000 1 0 0
16.263708 7.508315 7.190299 19.302420 0.432509 1.189087 0.022959 -0.003043 -88018.700000 1 0 0
13.643408 8.335315 2.320499 16.155643 0.548425 1.426664 0.002225 0.000287 -2262890.000000 1 0 0
-4.051892 17.632315 -7.193401 19.469499 -1.344919 1.949235 0.000717 0.004978 -97484.500000 1 0 0
2.875008 19.524415 -4.136001 20.163704 1.424595 1.777384 0.000907 -0.004296 540308.000000 1 0 0
-0.134492 14.758615 6.295099 16.045656 -1.561684 1.167639 0.002913 -0.003470 -340188.000000 1 0 0
6.736508 16.043615 8.222099 19.245286 1.173264 1.129373 0.013067 -0.008752 -502758.000000 1 0 0
12.702908 15.332015 -2.196301 20.031433 0.878904 1.680660 0.032878 -0.002507 -667278.000000 1 0 0
12.676008 15.657015 4.061699 20.550443 0.890226 1.371841 0.028617 -0.006894 -444357.000000 1 0 0
3.001608 18.228315 1.438499 18.529717 1.407594 1.493086 0.018723 -0.004343 -457401.000000 1 0 0
10.345408 14.663115 -1.279701 17.990888 0.956362 1.641987 0.024791 0.009017 -873211.000000 1 0 0
-6.424292 15.655015 -0.493801 16.929113 -1.181385 1.599969 -0.001853 -0.000810 343423.000000 1 0 0
-3.897292 15.911215 -2.492601 16.570115 -1.330586 1.721797 -0.002030 0.003042 -1100150.000000 1 0 0
-6.942892 16.912215 1.687999 18.359633 -1.181250 1.478726 -0.000729 -0.004195 -14570.200000 1 0 0
0.038108 19.465115 -6.585701 20.549054 1.568839 1.897040 0.018315 0.003404 -49.192600 1 0 0
4.834708 14.775115 7.039299 17.065467 1.254558 1.145613 0.011614 -0.007107 -270639.000000 1 0 0
8.824708 12.455515 6.840299 16.727374 0.954390 1.149517 0.013501 -0.004707 -607514.000000 1 0 0
-7.491592 17.548015 -5.579201 19.879242 -1.167301 1.855272 0.005125 -0.004454 321707.000000 1 0 0
-7.904892 17.785415 -1.278301 19.504932 -1.152560 1.636381 0.009626 -0.004145 388208.000000 1 0 0
-13.529992 -9.246185 9.322799 18.853837 0.599487 1.053563 0.004409 0.002009 -627923.000000 1 0 0
-12.679192 -13.011385 7.781999 19.764047 0.798328 1.166094 0.010703 0.004808 225302.000000 1 0 0
-3.741692 -14.996585 12.606799 19.945656 1.326286 0.886591 -0.010648 -0.007599 496459.000000 1 0 0
-2.070392 -13.909185 15.038099 20.588744 1.423031 0.751883 -0.003673 -0.005527 -1873130.000000 1 0 0
-7.252492 -13.763985 12.641499 20.046282 1.085847 0.888450 0.020928 -0.009228 456980.000000 1 0 0
-9.675392 -11.660385 9.103399 17.676245 0.878167 1.029780 0.002143 -0.001350 534656.000000 1 0 0
-10.503592 -10.615085 11.422899 18.801279 0.790677 0.917812 0.010348 -0.002734 350545.000000 1 0 0
-5.951292 -12.215785 10.870499 17.401466 1.117457 0.896064 0.010958 -0.002552 561075.000000 1 0 0
-12.388392 -10.445885 7.350199 17.793656 0.700533 1.144963 0.001725 0.002698 -499108.000000 1 0 0
-7.607792 -11.168985 12.646499 18.508340 0.972831 0.818542 0.012488 -0.004813 -332115.000000 1 0 0
-14.724392 -11.517685 7.485199 20.136856 0.663804 1.189939 0.009535 0.012774 -379088.000000 1 0 0
-10.956692 -9.295385 9.179399 17.050356 0.703550 1.002295 0.004755 0.001539 -1168250.000000 1 0 0
-5.335492 -12.028985 13.406199 18.785370 1.153317 0.776100 0.013378 -0.001601 -259092.000000 1 0 0
3.909708 -12.435885 14.676299 19.629845 -1.266191 0.726276 -0.006788 0.004257 49295.200000 1 0 0
6.449708 -12.911885 14.111199 20.185179 -1.107535 0.796676 0.009458 0.003932 40572.500000 1 0 0
6.677208 -8.730485 16.143799 19.530200 -0.917881 0.597745 -0.002113 0.017465 123527.000000 1 0 0
0.847808 -1.654885 14.418299 14.537702 -1.097352 0.128254 0.003648 -0.004783 -1434640.000000 1 0 0
-0.122192 -6.279885 15.681599 16.892733 1.551341 0.380970 -0.002013 -0.003659 254555.000000 1 0 0
-1.332792 -4.519085 18.198699 18.798699 1.284002 0.253331 0.014731 -0.025889 -1114780.000000 1 0 0
-5.166292 12.763915 13.020799 18.951235 -1.186195 0.813349 0.011765 -0.011127 674343.000000 1 0 0
-4.257092 8.623515 11.570999 15.045792 -1.112233 0.693439 -0.000079 -0.005186 -611001.000000 1 0 0
-0.392692 -3.837385 15.058499 15.544713 1.468818 0.250770 0.006269 -0.006893 -398430.000000 1 0 0
-4.400792 9.266915 14.154499 17.481205 -1.127435 0.627159 0.006362 -0.014012 201676.000000 1 0 0
-13.314792 -2.511685 17.027899 21.761010 0.186448 0.672132 0.010450 0.008823 -777158.000000 1 0 0
-0.224692 0.819615 17.266199 17.287102 -1.303227 0.049181 0.004317 -0.000469 -1943520.000000 1 0 0
-3.141592 -7.164885 15.476299 17.341309 1.157571 0.468043 0.014438 -0.009987 142526.000000 1 0 0
-7.454392 5.560915 12.653899 15.703913 -0.640931 0.633805 -0.007042 0.000234 -2695450.000000 1 0 0
-9.766592 10.227615 13.349999 19.447696 -0.808452 0.814191 0.008419 -0.006365 -158533.000000 1 0 0
-5.549992 2.304615 11.195199 12.706146 -0.393581 0.492644 -0.003283 0.004606 -916585.000000 1 0 0
-7.167892 -7.451385 16.996099 19.893948 0.804787 0.546526 0.022302 -0.014040 -274441.000000 1 0 0
-4.636592 3.106115 18.779399 19.591114 -0.590247 0.288867 0.015991 -0.002756 -121984.000000 1 0 0
0.962608 -8.330785 16.668199 18.658978 -1.455758 0.466146 -0.004195 0.000352 588325.000000 1 0 0
-14.664692 -3.780885 13.836199 20.513134 0.252327 0.830503 0.004942 -0.001327 143119.000000 1 0 0
-14.133392 1.983515 13.095099 19.369272 -0.139432 0.828372 -0.001049 0.002496 -471514.000000 1 0 0
-5.326092 0.970315 16.176999 17.058841 -0.180205 0.322942 0.013533 -0.005422 325602.000000 1 0 0
4.657308 5.767315 15.165599 16.880398 0.891478 0.454650 0.005594 -0.000959 63351.200000 1 0 0
-0.975992 -11.875185 13.870699 18.285756 1.488793 0.709708 -0.010270 -0.007046 -428140.000000 1 0 0
-5.828592 -4.026085 16.814899 18.246168 0.604489 0.398722 0.022837 -0.016190 -165267.000000 1 0 0
-12.849292 -1.555385 9.930699 16.313868 0.120462 0.916341 0.000270 0.006883 -652584.000000 1 0 0
-14.665592 10.180815 10.005099 20.465351 -0.606821 1.059991 0.018956 -0.002449 567462.000000 1 0 0
-3.476192 -3.424985 17.684499 18.345461 0.777978 0.269247 0.024788 -0.019675 -354411.000000 1 0 0
-7.807192 9.370515 11.868099 17.017948 -0.876157 0.799051 -0.006485 -0.009972 125139.000000 1 0 0
-4.102092 10.673415 16.300099 19.910856 -1.203873 0.611733 0.011165 -0.018154 216891.000000 1 0 0
-12.451292 12.760415 8.464099 19.735851 -0.797659 1.127556 0.004898 -0.014956 -2465.540000 1 0 0
-12.448092 3.123015 10.672199 16.691436 -0.245810 0.877102 0.000693 0.002095 651322.000000 1 0 0
-10.088392 -3.533085 13.705099 17.380681 0.336864 0.662390 0.008013 0.002022 -1025570.000000 1 0 0
-4.189992 -6.457685 17.763199 19.359467 0.995238 0.408932 0.026204 -0.015046 -552154.000000 1 0 0
1.188808 -3.612385 18.226399 18.618921 -1.252867 0.205701 0.001697 0.000164 -668902.000000 1 0 0
-5.958692 1.837415 13.731199 15.080714 -0.299108 0.426271 -0.000389 0.003880 -765644.000000 1 0 0
-10.474392 8.774215 10.325699 17.126581 -0.697300 0.923659 0.001270 -0.005790 -68230.800000 1 0 0
4.575508 2.557015 17.105699 17.890739 0.509611 0.297336 -0.000575 -0.004179 1202520.000000 1 0 0
0.631008 -5.364085 13.255699 14.313809 -1.453699 0.386915 -0.004008 -0.002118 -1202200.000000 1 0 0
-3.875692 5.947115 20.801799 21.979627 -0.993232 0.328855 0.018881 -0.004420 -113993.000000 1 0 0
-10.810192 10.859415 8.983399 17.761999 -0.787670 1.040528 0.008949 -0.010216 -508921.000000 1 0 0
0.713408 4.185915 13.162099 13.830101 1.401988 0.312072 0.006051 -0.005398 -2604830.000000 1 0 0
-3.193192 7.067115 13.402499 15.484430 -1.146415 0.524555 0.000124 -0.001639 -1400340.000000 1 0 0
0.762708 8.907415 14.182599 16.765139 1.485378 0.562438 0.007008 -0.002856 221622.000000 1 0 0
-4.089692 -6.600885 13.168899 15.287811 1.016113 0.532780 0.012237 -0.006677 309285.000000 1 0 0
-5.123792 8.252915 16.501499 19.148455 -1.015190 0.532055 0.014017 -0.008774 -61075.100000 1 0 0
1.523308 -10.723885 15.790699 19.148586 -1.429692 0.601230 -0.011316 0.008419 -307363.000000 1 0 0
-15.199192 -1.355885 14.508599 21.055956 0.088972 0.810619 0.015356 0.005118 917419.000000 1 0 0
-13.501792 -5.350685 8.569399 16.863060 0.377308 1.037731 0.010239 0.001878 -591445.000000 1 0 0
-14.028792 -1.939285 12.218599 18.704598 0.137365 0.858940 0.006673 0.004274 277374.000000 1 0 0
9.410108 1.315815 16.918199 19.403787 0.138929 0.511723 0.010813 -0.000328 -1130050.000000 1 0 0
5.112608 -6.808685 16.756099 18.795313 -0.926723 0.470142 -0.006521 0.004584 -142783.000000 1 0 0
-5.985592 -2.646885 11.125499 12.907751 0.416356 0.531744 0.003065 0.002541 873124.000000 1 0 0
0.643208 -6.217485 18.119499 19.167344 -1.467711 0.332186 0.006110 -0.008570 -16331.800000 1 0 0
-8.132392 11.985215 12.257399 18.974325 -0.974622 0.868465 0.003033 -0.011134 -60665.300000 1 0 0
-6.558092 -5.790885 14.982999 17.350307 0.723351 0.528512 0.019770 -0.009139 -912478.000000 1 0 0
-4.264992 -8.889585 17.153199 19.785022 1.123460 0.521688 0.025453 -0.012469 218159.000000 1 0 0
2.563908 -6.230285 16.292699 17.630715 -1.180396 0.392100 -0.006023 0.000273 899039.000000 1 0 0
2.325508 5.248315 16.043099 17.039185 1.153698 0.343619 0.004902 -0.004187 -2159630.000000 1 0 0
1.020408 -8.778085 14.067999 16.613386 -1.455071 0.560881 -0.009610 -0.000256 -883090.000000 1 0 0
-9.930492 -2.797785 11.204099 15.230696 0.274619 0.744206 -0.004488 0.005495 654485.000000 1 0 0
-1.168792 10.134215 12.470999 16.111927 -1.455972 0.685626 -0.003442 -0.004595 -519457.000000 1 0 0
-12.330392 -3.709185 11.410899 17.204802 0.292206 0.845658 0.006110 0.007676 -1457170.000000 1 0 0
-1.677992 6.918515 19.798399 21.039442 -1.332854 0.345183 0.007909 -0.007213 6618.780000 1 0 0
0.341208 -13.390885 15.642599 20.594250 -1.545321 0.708158 -0.016653 -0.005709 -538398.000000 1 0 0
4.132008 -8.872385 15.380599 18.230621 -1.134950 0.566716 -0.006302 0.009460 -113818.000000 1 0 0
4.448808 -4.469385 16.186099 17.371157 -0.787705 0.371510 -0.007120 0.004789 -412208.000000 1 0 0
8.117708 1.589115 14.665199 16.837177 0.193314 0.513560 0.002097 -0.000039 -113014.000000 1 0 0
-6.302192 -0.086385 11.898499 13.464745 0.013706 0.487134 0.000357 0.004209 295832.000000 1 0 0
-3.447892 -11.080585 18.442999 21.790170 1.269128 0.561625 0.018565 -0.002047 63690.100000 1 0 0
3.369108 -1.485785 13.595299 14.085120 -0.415346 0.264497 -0.006777 -0.001618 -237260.000000 1 0 0
-2.573092 8.743215 15.790199 18.231703 -1.284581 0.523480 0.009257 -0.014729 -511351.000000 1 0 0
-3.295692 3.979615 14.959899 15.827113 -0.879129 0.332568 0.006145 0.001252 -1107820.000000 1 0 0
-4.505392 -8.936085 19.733599 22.126163 1.103811 0.469340 0.031987 -0.018439 -147230.000000 1 0 0
-5.673892 -3.102885 19.182199 20.242967 0.500437 0.325164 0.025380 -0.018324 -716912.000000 1 0 0
-6.532492 -8.551485 11.203299 15.534325 0.918457 0.765268 0.012908 -0.001315 -1151960.000000 1 0 0
-11.477792 2.182315 12.862199 17.376374 -0.187891 0.737411 0.000959 -0.001148 47249.000000 1 0 0
-11.605192 -7.576185 11.574199 18.056609 0.578360 0.875002 0.007094 -0.001650 811673.000000 1 0 0
-10.847492 -7.309385 15.744299 20.468955 0.592947 0.693240 0.012496 -0.013628 918292.000000 1 0 0
0.339208 5.549815 17.811299 18.658989 1.509752 0.302585 0.006014 -0.006270 -71708.800000 1 0 0
-2.150792 -0.101885 13.219599 13.393808 0.047335 0.161462 0.009587 -0.002403 731113.000000 1 0 0
-5.969792 -10.455385 18.186999 21.811016 1.051990 0.584760 0.025768 -0.012141 -1409860.000000 1 0 0
0.437308 2.538615 19.141699 19.314255 1.400208 0.133772 0.006867 -0.005205 -529069.000000 1 0 0
-0.725792 10.927415 14.895599 18.488214 -1.504474 0.633972 0.007184 -0.007763 458515.000000 1 0 0
-12.680992 -2.208685 14.461099 19.359990 0.172443 0.727321 0.006678 0.006938 -1170700.000000 1 0 0
-13.839592 8.302515 11.584299 19.866103 -0.540354 0.948234 0.023331 -0.005378 -295375.000000 1 0 0
-17.839692 -0.585985 7.020699 19.180412 0.032835 1.196052 0.007415 -0.005658 -374746.000000 1 0 0
-1.988492 -7.763685 17.799799 19.520803 1.320059 0.423059 0.010956 -0.010585 -1944880.000000 1 0 0
5.794508 2.761715 14.445299 15.807279 0.444760 0.418158 0.000551 -0.001671 -2097000.000000 1 0 0
-14.152392 -6.909885 11.273899 19.368466 0.454202 0.949518 0.020112 0.001814 682757.000000 1 0 0
3.308108 7.633315 16.391599 18.381937 1.161851 0.469658 0.003250 -0.010013 -84524.500000 1 0 0
1.078608 2.055515 14.588799 14.772325 1.087554 0.157794 0.002388 -0.003762 -1415290.000000 1 0 0
-14.131792 0.690115 9.871399 17.251907 -0.048795 0.961620 0.002664 0.002265 -2174800.000000 1 0 0
-9.435492 -5.166785 15.537799 18.898343 0.500991 0.605570 0.012528 -0.004989 -518542.000000 1 0 0
-2.536492 0.038015 18.225499 18.401197 -0.014986 0.138300 0.015818 -0.008048 -255330.000000 1 0 0
6.807908 3.853415 17.544199 19.209251 0.515060 0.419432 0.014120 0.001034 -613706.000000 1 0 0
-4.079092 -0.919685 14.812499 15.391391 0.221755 0.275135 0.011874 -0.002967 -363220.000000 1 0 0
4.734108 -9.076385 17.941299 20.656300 -1.090030 0.518501 -0.008370 0.014692 -144602.000000 1 0 0
1.930008 6.914415 13.425899 15.224613 1.298596 0.491015 0.004940 -0.002370 -502239.000000 1 0 0
-3.685492 -0.843085 20.341799 20.690153 0.224888 0.183762 0.030505 -0.013748 -721423.000000 1 0 0
-10.544092 1.518915 16.575799 19.703860 -0.143069 0.571212 0.003921 0.008034 -52613.200000 1 0 0
-3.947492 7.118515 18.507099 20.218028 -1.064475 0.414355 0.016240 -0.004977 -239546.000000 1 0 0
-12.517892 0.932715 14.869799 19.459663 -0.074373 0.701098 0.004532 0.004591 -237504.000000 1 0 0
-15.955892 -4.800085 8.480399 18.696215 0.292222 1.100008 0.015207 -0.001743 -1420330.000000 1 0 0
-2.186292 0.733515 15.716199 15.884484 -0.323705 0.145692 0.011939 -0.003998 -30892.700000 1 0 0
-13.477392 -9.111585 12.495399 20.513314 0.594481 0.915826 -0.008698 -0.004193 271376.000000 1 0 0
6.150708 -3.149685 14.551899 16.109298 -0.473269 0.443342 -0.007222 0.002514 630757.000000 1 0 0
-15.575392 0.632915 7.700899 17.386697 -0.040613 1.111944 0.002794 0.000020 848033.000000 1 0 0
-13.945292 5.847915 12.429099 19.574263 -0.397073 0.882825 0.004262 -0.001853 86009.000000 1 0 0
0.711508 9.678615 16.734699 19.345076 1.497415 0.525522 0.013108 -0.009534 -280870.000000 1 0 0
-10.388692 -5.491885 10.815699 15.970756 0.486297 0.826820 0.008309 0.001864 242737.000000 1 0 0
-3.125092 -10.952585 15.058299 18.880616 1.292853 0.647568 0.010318 -0.005035 -617351.000000 1 0 0
-3.505092 2.752615 12.707099 13.465991 -0.665725 0.337324 0.002854 0.001894 -1320250.000000 1 0 0
-12.344392 -7.848085 7.457399 16.419173 0.566300 1.099335 0.010224 -0.000401 295115.000000 1 0 0
-8.166292 -1.880085 13.276699 15.700120 0.226282 0.563027 0.001652 0.001026 155554.000000 1 0 0
-9.696892 6.521015 9.553399 15.093733 -0.592020 0.885454 -0.006216 -0.002370 -1098070.000000 1 0 0
-17.778092 -3.515685 6.584999 19.281670 0.195235 1.222267 0.006084 -0.005956 301703.000000 1 0 0
-1.234292 0.062715 20.503399 20.540613 -0.050767 0.060204 0.015446 -0.002670 -1240760.000000 1 0 0
-2.582492 2.875215 20.223199 20.589169 -0.838982 0.188827 0.016463 -0.001835 -598162.000000 1 0 0
-3.776192 11.202915 11.366799 16.400276 -1.245685 0.805035 0.001792 -0.010060 -1314920.000000 1 0 0
-4.100292 -4.772585 14.974399 16.242616 0.861023 0.397787 0.014372 -0.012301 1263350.000000 1 0 0
-0.214492 -14.308485 13.354599 19.573555 1.555807 0.819923 -0.015698 -0.007303 196521.000000 1 0 0
-11.867092 0.345115 8.452299 14.573549 -0.029074 0.952098 -0.001830 0.002937 -17522.600000 1 0 0
-7.691992 1.874115 15.756299 17.633491 -0.238989 0.465619 0.001802 0.011797 -857083.000000 1 0 0
3.551108 -1.950785 18.538999 18.976575 -0.502340 0.215165 -0.004625 0.004714 -502656.000000 1 0 0
-2.093492 4.884615 12.760199 13.822621 -1.165890 0.394630 0.000042 -0.001519 -259405.000000 1 0 0
-10.352592 -6.276385 13.373999 18.039762 0.545011 0.735698 0.006156 -0.004199 -515173.000000 1 0 0
2.463208 -3.729985 14.171599 14.859825 -0.987158 0.305537 -0.008478 -0.002854 -794610.000000 1 0 0
6.838208 1.283515 16.950299 18.322695 0.185539 0.389501 0.002655 -0.003230 -1775300.000000 1 0 0
-1.840692 -5.568585 13.827599 15.019979 1.251554 0.401147 0.003519 -0.008495 -1571600.000000 1 0 0
-12.716192 3.510715 14.708399 19.757623 -0.269372 0.731098 -0.005796 0.003868 242014.000000 1 0 0
-13.167092 -6.692285 13.589199 20.070508 0.470232 0.827018 0.002200 -0.004509 -635214.000000 1 0 0
-9.484392 6.867015 12.024699 16.784009 -0.626674 0.772113 -0.004465 0.000887 -82755.000000 1 0 0
-0.886192 -2.358285 12.810499 13.055869 1.211344 0.194181 0.003308 -0.002148 367707.000000 1 0 0
0.175708 6.693915 15.402699 16.795312 1.544553 0.410094 0.008299 -0.005980 707281.000000 1 0 0
-16.367392 -0.544085 10.015799 19.196452 0.033230 1.021892 0.010572 0.001789 85010.200000 1 0 0
-1.210492 2.767715 13.824799 14.150993 -1.158502 0.215128 0.008193 -0.002362 -2564260.000000 1 0 0
-11.065692 -3.476385 16.198399 19.922924 0.304395 0.621419 0.008837 -0.005236 -980258.000000 1 0 0
-5.054292 -1.439285 17.210099 17.994580 0.277422 0.296364 0.025865 -0.008918 310940.000000 1 0 0
-11.860692 6.667115 11.090999 17.553823 -0.512100 0.886887 0.005822 0.003081 -818589.000000 1 0 0
-2.601892 4.885215 18.698699 19.500680 -1.081406 0.287787 0.010643 -0.004631 335231.000000 1 0 0
5.204208 -1.991285 16.476299 17.393028 -0.365443 0.326118 -0.004061 0.003219 2268.950000 1 0 0
-7.999692 -4.188285 12.194799 15.173988 0.482314 0.637368 0.005971 0.000780 -477807.000000 1 0 0
-11.472792 -0.982585 16.331599 19.982781 0.085436 0.614115 0.015449 0.002955 -476262.000000 1 0 0
2.084908 1.926815 17.277899 17.509576 0.746011 0.162854 -0.001341 -0.004686 -1591030.000000 1 0 0
-8.881892 -7.498585 11.635599 16.447004 0.701150 0.784898 0.009475 -0.003518 592314.000000 1 0 0
-7.195892 6.689415 14.965699 17.902549 -0.748939 0.580928 -0.003354 -0.003392 -954531.000000 1 0 0
-5.680292 3.503515 15.855399 17.202732 -0.552670 0.398410 0.004664 0.001512 -448784.000000 1 0 0
-9.378992 4.236315 11.644799 15.540695 -0.424251 0.723777 -0.009014 0.002034 -304081.000000 1 0 0
-10.153292 -0.001985 14.491799 17.694676 0.000195 0.611144 0.001183 0.008478 -940081.000000 1 0 0
8.101808 -0.637885 15.921099 17.875335 -0.078572 0.471970 -0.007745 0.004782 92716.400000 1 0 0
-8.451292 -7.477585 14.705599 18.536268 0.724346 0.654517 0.018850 -0.010056 -2824560.000000 1 0 0
-0.007092 4.163715 15.723199 16.265164 -1.569093 0.258872 0.005507 -0.004859 217340.000000 1 0 0
-8.118792 3.214115 9.612499 12.986356 -0.376955 0.737429 -0.010533 0.005110 -618268.000000 1 0 0
-2.165492 -9.679485 13.093699 16.426403 1.350701 0.648298 -0.007819 -0.003272 807463.000000 1 0 0
-6.000892 10.333915 10.447999 15.873285 -1.044690 0.852354 0.003125 -0.011170 -3039430.000000 1 0 0
-8.558392 -2.798085 15.691999 18.091826 0.315986 0.520938 0.016540 -0.008479 223178.000000 1 0 0
4.153508 5.673115 17.807099 19.144938 0.938825 0.376056 0.003140 -0.002455 -40718.100000 1 0 0
-6.675292 -1.020985 15.243599 16.672409 0.151774 0.417018 0.008999 -0.003158 -144128.000000 1 0 0
-0.873892 -9.668985 15.415299 18.217695 1.480660 0.562036 -0.010636 -0.006068 214727.000000 1 0 0
-4.362492 5.760415 16.339699 17.866154 -0.922625 0.416374 0.008168 -0.004042 -31781.900000 1 0 0
3.901208 0.120815 17.249899 17.685956 0.030959 0.222520 0.001659 -0.004833 -644617.000000 1 0 0
1.392108 0.200915 19.169599 19.221130 0.143335 0.073242 -0.005321 -0.001332 -716257.000000 1 0 0
-6.396292 6.546415 17.880199 20.086553 -0.796997 0.473105 0.014899 -0.003047 -1438850.000000 1 0 0
-11.933592 0.514715 11.069899 16.285521 -0.043105 0.823390 0.002725 0.003796 -442356.000000 1 0 0
-5.275792 5.105515 13.927599 15.744150 -0.768997 0.485117 -0.001796 0.000283 -1605060.000000 1 0 0
-8.605192 -9.451685 9.959899 16.204421 0.832243 0.908866 0.014765 -0.001267 -21296.200000 1 0 0
6.886608 -3.817285 17.060499 18.789829 -0.506143 0.432395 -0.006482 0.008990 11767.700000 1 0 0
-16.382392 2.064115 9.623799 19.111798 -0.125336 1.043090 0.001684 -0.001490 666059.000000 1 0 0
-4.136192 -9.681185 11.286999 15.434694 1.167030 0.750608 0.002770 0.000093 1595360.000000 1 0 0
-11.099492 -3.896585 9.160899 14.909868 0.337619 0.909148 0.001579 0.005008 -395986.000000 1 0 0
3.736808 -5.494385 18.481999 19.640170 -0.973542 0.345133 -0.011057 0.001375 -240801.000000 1 0 0
2.637408 -1.894085 16.044199 16.369478 -0.622811 0.199686 -0.005358 -0.001123 -748429.000000 1 0 0
-2.969392 -4.264785 20.130299 20.790253 0.962586 0.252637 0.029337 -0.020914 -779218.000000 1 0 0
-6.227092 -3.372285 14.339699 15.992997 0.496333 0.458712 0.014634 -0.004187 839163.000000 1 0 0
-9.652892 5.156115 14.050399 17.809479 -0.490595 0.661734 -0.002300 0.000368 308734.000000 1 0 0
-5.886092 -5.253085 11.709699 14.119420 0.728632 0.592884 0.008080 -0.001302 -649983.000000 1 0 0
6.018508 1.971615 19.233099 20.248995 0.316574 0.318105 0.004926 -0.007031 249053.000000 1 0 0
-2.684992 11.868315 13.607499 18.254591 -1.348310 0.729618 0.009556 -0.015911 -1272790.000000 1 0 0
3.492008 1.365715 15.042999 15.503261 0.372808 0.244279 -0.003977 -0.000139 -1050440.000000 1 0 0
-5.833992 7.455615 13.016999 16.095463 -0.906820 0.628794 -0.002808 -0.005342 -740528.000000 1 0 0
-1.635892 -1.666085 15.200699 15.378987 0.794542 0.152417 0.013504 -0.008015 -684726.000000 1 0 0
-7.262392 10.377715 14.197699 19.026664 -0.960200 0.728461 0.018049 -0.020114 490358.000000 1 0 0
-9.993892 2.008515 10.682199 14.765547 -0.198332 0.762003 -0.007966 0.005174 -2075480.000000 1 0 0
-13.611392 5.099915 9.311699 17.262296 -0.358490 1.001043 0.001541 0.001898 94031.600000 1 0 0
0.317608 -4.812485 20.243699 20.810291 -1.504895 0.233885 0.005261 -0.012675 -310090.000000 1 0 0
-14.333292 -2.982985 7.520999 16.459249 0.205187 1.096237 0.006247 -0.000451 342516.000000 1 0 0
-2.243192 2.530215 17.583499 17.905679 -0.845456 0.189986 0.007466 -0.004657 388126.000000 1 0 0
-6.053392 -8.301685 14.794499 18.012182 0.940756 0.607004 0.016126 -0.008403 -642151.000000 1 0 0
-7.940192 1.976315 12.023899 14.543954 -0.243943 0.597529 -0.006433 0.005628 -1175200.000000 1 0 0
-14.543192 -3.448985 10.107599 18.043378 0.232853 0.976189 0.012926 0.001102 -68514.500000 1 0 0
-0.600892 7.042015 12.879299 14.691065 -1.485673 0.501888 0.002783 -0.001383 -151008.000000 1 0 0
-1.680092 -2.129585 19.292399 19.482158 0.902842 0.139686 0.020947 -0.013471 244524.000000 1 0 0
-12.846692 10.358115 7.412899 18.090857 -0.678562 1.148606 0.008104 -0.015368 17307.300000 1 0 0
-19.510892 2.063815 7.023599 20.839030 -0.105386 1.227025 0.012339 -0.003021 876499.000000 1 0 0
-15.877792 8.460915 6.845299 19.249662 -0.489602 1.207234 0.001875 -0.000650 597276.000000 1 0 0
-12.258092 7.515915 13.512799 19.731840 -0.550025 0.816437 0.014703 0.003935 216382.000000 1 0 0
-15.879992 7.962415 10.102999 20.436359 -0.464776 1.053693 0.005857 -0.008000 -74397.900000 1 0 0
1.918908 11.031515 14.764099 18.529845 1.398572 0.648859 -0.000925 -0.017284 -25678.300000 1 0 0
2.283708 14.617215 12.480799 19.355843 1.415815 0.870024 -0.013171 -0.004660 -118171.000000 1 0 0
-3.011592 13.597215 11.758799 18.226994 -1.352829 0.869602 -0.002206 -0.015847 -191719.000000 1 0 0
8.958008 4.708815 15.690699 18.671285 0.483960 0.572840 0.015604 -0.003391 -80131.800000 1 0 0
-0.323892 12.622115 12.956899 18.091543 -1.545141 0.772475 -0.001023 -0.009193 -701602.000000 1 0 0
3.719908 13.734115 14.519599 20.329348 1.306291 0.775289 -0.009648 -0.002526 103320.000000 1 0 0
-2.831692 -4.050985 -13.708501 14.572301 0.960733 2.795552 -0.005651 -0.004076 -826288.000000 1 0 0
5.793908 -11.619185 16.206399 20.765890 -1.108229 0.675437 0.000328 0.007558 117910.000000 1 0 0
8.041908 -13.577385 7.204299 17.347034 -1.036057 1.142519 0.003012 -0.006216 -207858.000000 1 0 0
-0.114292 15.664815 1.381899 15.726066 -1.563500 1.482810 -0.001584 0.003148 -2168500.000000 1 0 0
-13.530692 8.070115 8.958999 18.123742 -0.537791 1.053739 0.001009 -0.008282 99309.100000 1 0 0
-15.434892 -9.806185 4.907399 18.933560 0.565990 1.308612 0.006598 0.004625 -838380.000000 1 0 0
9.646808 -11.201485 11.081999 18.475521 -0.859831 0.927519 0.016241 -0.002289 -271254.000000 1 0 0
-5.384592 -10.700385 -16.708301 20.558682 1.104580 2.519589 -0.004912 0.002725 -7347.180000 1 0 0
-2.264792 -12.389485 -14.784301 19.421745 1.389993 2.435995 -0.003919 0.006939 -249333.000000 1 0 0
5.527108 -15.982285 -11.962801 20.714511 -1.237844 2.186470 0.000118 0.009171 247006.000000 1 0 0
2.325008 -12.093685 -16.742201 20.783748 -1.380864 2.507388 -0.000140 0.017355 119848.000000 1 0 0
0.064608 -14.056385 -14.150601 19.945567 -1.566200 2.359529 -0.010058 0.014628 241866.000000 1 0 0
-6.673992 -5.995385 -14.471801 17.027032 0.731887 2.586650 -0.001831 -0.005071 -3157.480000 1 0 0
-6.218592 -8.192285 -17.095301 19.950783 0.921510 2.599971 -0.015544 -0.002458 -183659.000000 1 0 0
-2.597292 -16.374485 -13.205101 21.195386 1.413489 2.243391 -0.000215 0.005799 380850.000000 1 0 0
15.630208 -8.295785 -9.553501 20.109521 -0.487947 2.065844 -0.014795 0.001764 30564.500000 1 0 0
18.977408 -2.984785 -3.946401 19.611860 -0.156003 1.773405 -0.011959 -0.005349 15207.300000 1 0 0
15.452308 -11.539185 -9.295401 21.408669 -0.641425 2.019934 0.004428 -0.002448 208856.000000 1 0 0
18.568708 -3.465885 -7.081501 20.173174 -0.184529 1.929473 0.137308 -0.006195 -488361.000000 1 0 0
9.448208 -9.774785 -16.303601 21.227870 -0.802385 2.446553 0.048859 0.020201 73138.400000 1 0 0
-4.671492 9.527315 -16.205201 19.370109 -1.114918 2.561859 -0.000730 -0.004189 411126.000000 1 0 0
2.384008 -9.899385 -18.427501 21.053601 -1.334472 2.636782 0.008267 0.021389 97737.100000 1 0 0
11.117008 7.785815 -14.840301 20.110727 0.610962 2.400794 0.022265 -0.034658 318840.000000 1 0 0
18.269208 -6.346385 -8.951301 21.311179 -0.334340 2.004273 0.005442 -0.004491 84423.000000 1 0 0
13.454308 5.599215 -13.804901 20.073488 0.394364 2.329137 0.041884 0.001446 -139945.000000 1 0 0
16.136108 6.049515 -10.775401 20.324367 0.358688 2.129599 0.012975 -0.000576 310295.000000 1 0 0
3.172908 -0.043285 -19.109901 19.371565 -0.013641 2.977044 0.028818 -0.013158 115170.000000 1 0 0
10.481708 -1.990885 -14.538401 18.033162 -0.187703 2.508503 0.013303 -0.004802 239162.000000 1 0 0
11.846508 -6.187885 -13.937001 19.309834 -0.481358 2.377133 0.013136 0.003348 89065.600000 1 0 0
10.267108 6.551515 -13.087101 17.877586 0.567969 2.392107 0.015371 0.002437 382567.000000 1 0 0
10.537908 5.524815 -16.685701 20.493504 0.482882 2.522137 0.002710 0.007797 103434.000000 1 0 0
11.144608 -10.899185 -15.120801 21.717117 -0.774265 2.340973 0.018637 0.013978 256031.000000 1 0 0
-1.527992 2.085315 -17.361401 17.552822 -0.938434 2.993773 0.003714 -0.012777 161954.000000 1 0 0
6.449808 -0.971085 -17.619301 18.787837 -0.149438 2.787045 0.017483 0.020874 150237.000000 1 0 0
6.291308 -5.858585 -15.906701 18.081115 -0.749798 2.646114 -0.014782 0.007091 284424.000000 1 0 0
-2.516792 -4.423585 -20.420701 21.045365 1.053522 2.897340 0.024822 -0.013075 248764.000000 1 0 0
15.685508 -0.203985 -13.490801 20.690058 -0.013004 2.281072 -0.004887 0.004320 -7255.160000 1 0 0
-4.355692 -0.213585 -18.285201 18.798038 0.048997 2.907471 0.000187 -0.015674 186887.000000 1 0 0
3.853908 9.455915 -16.790801 19.651920 1.183785 2.595211 0.010760 -0.031347 105127.000000 1 0 0
9.937308 0.440215 -16.915301 19.623234 0.044270 2.610006 0.014919 -0.009749 -131526.000000 1 0 0
4.339708 4.680615 -18.287001 19.368935 0.823173 2.805774 0.014909 -0.004169 496280.000000 1 0 0
-2.368292 -11.240785 -18.193601 21.516765 1.363146 2.578400 0.007156 0.005809 256170.000000 1 0 0
6.492108 -9.361785 -16.237501 19.835497 -0.964467 2.529780 0.022395 0.010121 376512.000000 1 0 0
9.995408 -12.369085 -10.907701 19.284201 -0.891138 2.171992 -0.002185 0.009398 139200.000000 1 0 0
6.142008 6.780815 -17.277301 19.550163 0.834790 2.654595 0.019152 -0.006730 264276.000000 1 0 0
8.225408 1.569015 -20.162501 21.832215 0.188488 2.747957 -0.004999 0.002307 191963.000000 1 0 0
-0.990992 -0.733885 -20.379901 20.417175 0.637430 3.081158 0.017816 -0.004137 30657.100000 1 0 0
-1.319092 6.719115 -19.507601 20.674453 -1.376942 2.804018 0.011719 -0.014210 49170.000000 1 0 0
8.436808 6.100515 -17.776301 20.600799 0.626051 2.611764 0.005949 -0.013241 79651.700000 1 0 0
11.955808 0.049715 -12.972601 17.641774 0.004158 2.396956 -0.010071 0.001990 -22792.200000 1 0 0
-4.619892 -2.525685 -19.928701 20.612511 0.500304 2.883292 -0.004701 -0.002818 369237.000000 1 0 0
4.993708 -11.677785 -14.551601 19.314680 -1.166705 2.424008 -0.027860 0.013417 -127483.000000 1 0 0
11.756508 2.751715 -15.829401 19.908726 0.229920 2.489967 0.025400 0.002782 -116945.000000 1 0 0
-3.066092 -4.341585 -17.044401 17.853904 0.955911 2.839311 -0.003159 -0.007488 310929.000000 1 0 0
-6.840892 -4.605985 -17.322301 19.185281 0.592582 2.697254 0.002559 -0.012512 -14012.100000 1 0 0
2.837608 10.009115 -14.870201 18.148203 1.294543 2.531118 0.001125 -0.027698 190031.000000 1 0 0
16.952408 -6.380385 -11.103301 21.245629 -0.359972 2.120713 0.033809 -0.008763 -101220.000000 1 0 0
9.475308 -2.975885 -17.672801 20.272278 -0.304312 2.629604 -0.001356 0.003136 -10645.200000 1 0 0
-7.508292 -1.653985 -18.667301 20.188567 0.216825 2.750904 -0.004103 -0.003190 412718.000000 1 0 0
0.911308 -7.448485 -19.261601 20.671712 -1.449053 2.770097 0.007969 0.000991 225112.000000 1 0 0
6.144608 10.540615 -14.058901 18.614873 1.043011 2.426833 0.020867 -0.013465 459539.000000 1 0 0
5.843308 -3.599485 -18.095401 19.353141 -0.552102 2.779087 0.017803 -0.002398 466170.000000 1 0 0
4.320408 13.390615 -14.918001 20.506615 1.258696 2.385428 0.021354 -0.014389 142505.000000 1 0 0
9.292808 11.119415 -15.490001 21.211738 0.874646 2.389493 0.039458 -0.025005 108338.000000 1 0 0
16.930308 0.499815 -11.820401 20.654468 0.029513 2.180095 0.004828 0.008542 122878.000000 1 0 0
14.831508 -3.000885 -12.457901 19.600466 -0.199637 2.259572 0.010843 -0.001573 161848.000000 1 0 0
-8.542292 0.518615 -17.270701 19.274772 -0.060637 2.681533 -0.012795 -0.012196 351391.000000 1 0 0
-3.593392 4.381615 -18.867801 19.700379 -0.883915 2.849829 0.020648 -0.012247 11570.600000 1 0 0
4.238008 2.625615 -17.213401 17.920819 0.554663 2.859681 0.016427 -0.000380 287967.000000 1 0 0
-4.877892 14.485315 -13.815601 20.603131 -1.245976 2.305757 -0.005608 -0.003835 152896.000000 1 0 0
0.908108 9.909415 -17.524201 20.152389 1.479411 2.625156 0.011576 -0.002290 244844.000000 1 0 0
0.484208 -4.576585 -20.881801 21.382919 -1.465387 2.924671 0.015285 0.028112 340137.000000 1 0 0
3.678608 -6.241785 -17.948801 19.355916 -1.038243 2.757939 0.020030 -0.010245 244383.000000 1 0 0
-7.301992 7.475415 -15.775101 18.922334 -0.797133 2.556528 -0.008484 0.002378 2267.500000 1 0 0
-11.896892 3.268715 -16.643801 20.718027 -0.268137 2.503694 0.012714 -0.016591 256005.000000 1 0 0
-4.497492 6.987015 -17.393601 19.276493 -0.998868 2.695922 -0.002865 0.011374 352078.000000 1 0 0
-8.271392 5.217115 -17.675601 20.200522 -0.562718 2.636247 -0.009569 -0.002221 351871.000000 1 0 0
-8.331892 4.395615 -14.893601 17.622747 -0.485456 2.577614 -0.025142 -0.015724 372871.000000 1 0 0
9.590208 12.950715 -12.698201 20.516760 0.933393 2.238161 0.034534 -0.036457 381384.000000 1 0 0
14.084808 9.776315 -12.117901 20.995278 0.606758 2.186059 0.030576 -0.009754 -11775.100000 1 0 0
8.527808 15.529715 -10.150701 20.418920 1.068623 2.091075 0.014891 -0.009513 -11065.300000 1 0 0
7.940008 13.939315 -14.336001 21.514394 1.053020 2.300092 0.037738 -0.025363 94302.200000 1 0 0
4.172208 15.379815 -13.118701 20.640890 1.305894 2.259541 0.027586 -0.019036 197080.000000 1 0 0
11.316808 11.293215 -10.849101 19.321228 0.784355 2.167008 0.027153 -0.030041 155705.000000 1 0 0
15.887708 10.299415 -10.713201 21.754767 0.575153 2.085702 0.024889 0.007197 135600.000000 1 0 0
13.782108 11.517815 -9.473701 20.306590 0.696138 2.056164 0.053382 -0.004491 -112147.000000 1 0 0
10.571008 11.342715 -7.491801 17.220061 0.820599 2.020904 0.004287 -0.004515 21773.400000 1 0 0
6.006708 16.817615 -10.271501 20.601370 1.227750 2.092760 0.044293 -0.002666 80998.800000 1 0 0
11.813008 13.876815 -10.145001 20.857474 0.865562 2.078757 0.038541 -0.018924 148547.000000 1 0 0
8.313108 -19.332785 -1.778101 21.119327 -1.164698 1.655089 0.015340 0.002192 213671.000000 1 0 0
7.934508 -17.513985 -4.214301 19.683913 -1.145419 1.786565 0.020941 0.018069 220768.000000 1 0 0
3.765708 -18.765985 5.221899 19.839631 -1.372760 1.304453 0.026045 -0.017274 -126257.000000 1 0 0
10.381908 -16.772785 -1.826201 19.810233 -1.016542 1.663112 0.009185 -0.030281 477454.000000 1 0 0
-2.161392 -15.209285 7.807499 17.232266 1.429632 1.100585 -0.002401 -0.018730 184607.000000 1 0 0
-15.138492 -12.738185 -4.581601 20.308283 0.699506 1.798358 -0.008506 0.006530 139105.000000 1 0 0
-9.461392 -12.816785 -7.259701 17.506889 0.934888 1.998384 0.012475 -0.001788 159506.000000 1 0 0
-11.536092 -15.203585 6.743999 20.241342 0.921703 1.231123 -0.004617 0.000004 197170.000000 1 0 0
-15.816892 -7.721285 -7.969301 19.321026 0.454136 1.995958 0.076861 -0.003081 -358313.000000 1 0 0
5.292808 -16.012885 5.397799 17.707697 -1.251567 1.261039 0.014801 -0.005635 190773.000000 1 0 0
2.725808 -14.089685 9.181399 17.036647 -1.379696 1.001641 -0.002234 -0.000906 390657.000000 1 0 0
3.102808 -17.569085 10.124599 20.513597 -1.395993 1.054623 0.004041 -0.000021 222262.000000 1 0 0
-7.450592 -17.257685 -5.381901 19.552592 1.163242 1.849649 -0.032259 -0.002696 -73889.400000 1 0 0
2.157608 -20.062885 -3.906001 20.553138 -1.463666 1.762003 0.020195 -0.001046 -3356.230000 1 0 0
-17.760892 -10.856385 -2.132101 20.925014 0.548652 1.672866 -0.042776 0.007108 -7505.440000 1 0 0
-4.231092 -14.921485 2.649599 15.734460 1.294492 1.401595 -0.002109 0.001925 231603.000000 1 0 0
-10.666892 -9.801085 -14.768201 20.686798 0.743123 2.365841 0.007900 0.011343 157694.000000 1 0 0
0.197408 -20.192185 2.401699 20.335473 -1.561020 1.452416 0.009322 -0.018436 252698.000000 1 0 0
7.015908 -17.967985 0.488199 19.295331 -1.198535 1.545492 0.022605 -0.014710 -289537.000000 1 0 0
-7.437492 -19.145585 -3.401601 20.819236 1.200269 1.734920 -0.004827 -0.005005 142228.000000 1 0 0
-9.047692 -15.686185 -7.753101 19.698419 1.047615 1.975330 0.019094 -0.004775 -148162.000000 1 0 0
-11.672492 -11.047785 -12.517301 20.371142 0.757910 2.232501 0.003580 0.011857 339727.000000 1 0 0
-13.225992 -15.137585 -3.452301 20.395875 0.852692 1.740880 0.000790 -0.003655 133266.000000 1 0 0
-0.019992 -20.604585 -2.593701 20.767200 1.569826 1.696017 -0.001469 -0.003451 328255.000000 1 0 0
-11.723292 -16.923585 -1.022201 20.612816 0.964974 1.620407 -0.004019 0.004848 2156.560000 1 0 0
1.249908 -20.549285 4.795999 21.138519 -1.510046 1.341919 0.023448 -0.007246 94918.400000 1 0 0
-18.175692 -9.429485 2.206199 20.594617 0.478571 1.463465 0.009454 0.020454 -56774.500000 1 0 0
-14.711392 -15.128285 -0.582301 21.109929 0.799368 1.598384 -0.004630 0.003752 -166555.000000 1 0 0
10.164208 -15.625985 -5.305401 19.381172 -0.994092 1.848076 0.002643 0.013019 -135027.000000 1 0 0
-0.587492 -19.293185 -6.909101 20.501410 1.540355 1.914532 -0.009368 0.002783 128969.000000 1 0 0
-9.848792 -17.125585 -2.622001 19.928855 1.048893 1.702747 0.001483 0.009119 463623.000000 1 0 0
-14.810192 -6.455685 -11.307401 19.719913 0.411062 2.181446 0.017581 0.001300 145866.000000 1 0 0
-12.076592 -15.154885 2.093299 19.490934 0.897962 1.463190 -0.010424 -0.002892 287966.000000 1 0 0
-2.681092 -16.408285 10.491399 19.659337 1.408829 1.007874 -0.006241 -0.008655 266964.000000 1 0 0
-12.157092 -14.463385 -6.824301 20.088690 0.871818 1.917403 0.000179 0.000386 81110.700000 1 0 0
6.261508 -17.074185 -6.614101 19.351501 -1.219301 1.919615 0.028622 -0.010972 -45828.100000 1 0 0
-17.395792 -7.527485 -2.963701 19.184893 0.408390 1.725898 -0.031069 0.009667 38352.600000 1 0 0
-11.831992 -13.728585 -9.843901 20.624560 0.859462 2.068365 0.014911 -0.006311 -6711.580000 1 0 0
-7.055492 -15.044385 9.073299 18.932465 1.132273 1.071001 0.003022 0.002877 420716.000000 1 0 0
-15.840192 -8.108685 -5.627701 18.663694 0.473127 1.877095 0.011381 0.008122 427497.000000 1 0 0
-0.729292 -19.677485 -0.317501 19.693554 1.533751 1.586919 0.006176 -0.011492 241274.000000 1 0 0
-15.097092 -11.587685 -1.893201 19.125397 0.654635 1.669948 0.002968 0.010987 116979.000000 1 0 0
-7.116192 -19.126885 1.723099 20.480405 1.214613 1.486563 -0.006010 -0.001442 258513.000000 1 0 0
-2.147492 -20.946285 -5.048001 21.652734 1.468630 1.806096 -0.015973 0.008642 123710.000000 1 0 0
-8.530392 -20.046785 -0.896001 21.804678 1.168482 1.611900 -0.018802 0.017623 60614.700000 1 0 0
-17.885192 -7.397985 4.814799 19.944737 0.392207 1.326981 0.018362 0.005579 130711.000000 1 0 0
-3.097292 -15.886885 -10.981201 19.559476 1.378253 2.166904 -0.008971 0.013743 127239.000000 1 0 0
-2.940992 -18.245785 -8.232601 20.232000 1.410983 1.989865 -0.016803 0.006998 68986.100000 1 0 0
4.101408 -18.050385 -5.884701 19.423379 -1.347370 1.878604 0.004004 0.031873 353040.000000 1 0 0
0.424408 -17.531485 -8.956201 19.691283 -1.546593 2.042978 -0.007703 0.011070 -4955.990000 1 0 0
-7.692092 -10.475785 -15.140001 19.953195 0.937436 2.432228 -0.003576 0.006696 232300.000000 1 0 0
-4.540492 -19.658785 -1.323801 20.219702 1.343812 1.636314 -0.011045 -0.000814 414278.000000 1 0 0
-9.977392 -16.146685 8.225299 20.686211 1.017303 1.161872 -0.006453 -0.001247 93219.100000 1 0 0
-7.521892 -14.690985 -10.328801 19.470183 1.097589 2.129979 0.018446 -0.016181 245262.000000 1 0 0
-12.752692 -8.004585 -12.434301 19.527324 0.560523 2.261091 0.006094 0.004433 391591.000000 1 0 0
-15.555192 -13.117285 3.196299 20.597172 0.700576 1.414985 -0.001730 0.007158 147420.000000 1 0 0
-6.254992 -14.314285 -13.228801 20.470096 1.158826 2.273457 -0.010670 0.006087 374383.000000 1 0 0
-13.913292 -11.917385 -6.861701 19.562379 0.708283 1.929179 0.006007 0.003206 157640.000000 1 0 0
-12.084892 -10.795085 -8.218701 18.169356 0.729085 2.040182 0.032242 0.004371 220745.000000 1 0 0
-9.828592 -14.696285 3.633299 18.049456 0.981332 1.368115 -0.010083 -0.001748 494357.000000 1 0 0
4.922208 -18.137285 8.395699 20.583416 -1.305793 1.150658 0.024324 -0.011600 248313.000000 1 0 0
-4.829492 -16.438485 4.882699 17.815401 1.285045 1.293172 -0.006995 -0.004804 313431.000000 1 0 0
-18.610392 -7.148785 -6.977801 21.122062 0.366750 1.907477 -0.005903 0.002918 -30162.300000 1 0 0
-17.035092 -3.569485 -10.786701 20.476535 0.206549 2.125608 0.002186 -0.002923 -368234.000000 1 0 0
-15.683392 -3.936185 -13.210101 20.879873 0.245899 2.255794 -0.004085 0.001868 256281.000000 1 0 0
-19.360192 -4.362885 -6.064101 20.751509 0.221651 1.867348 -0.002326 0.004688 -326382.000000 1 0 0
5.826208 -13.434885 8.605899 16.985356 -1.161611 1.039483 0.017367 -0.003466 217426.000000 1 0 0
19.802608 -2.465485 2.581099 20.121729 -0.123866 1.442168 0.001485 -0.003457 100050.000000 1 0 0
17.881908 -2.650685 -0.482901 18.083749 -0.147161 1.597503 0.001612 -0.001556 179906.000000 1 0 0
14.367508 -11.425685 0.246199 18.358436 -0.671835 1.557385 0.021140 0.000213 -37017.000000 1 0 0
10.836008 -13.426785 5.402499 18.079951 -0.891775 1.267349 -0.007193 -0.007283 357153.000000 1 0 0
9.894508 -13.232385 8.903299 18.768752 -0.928737 1.076550 0.010893 -0.005578 151972.000000 1 0 0
18.584008 4.108315 -4.825601 19.634919 0.217568 1.819106 0.022546 0.023521 -154779.000000 1 0 0
18.923308 -6.154885 -4.777801 20.464642 -0.314462 1.806437 0.025805 -0.008593 -23836.600000 1 0 0
17.730608 -10.100385 -0.405301 20.409716 -0.517810 1.590656 0.020379 0.004043 214224.000000 1 0 0
17.202508 -8.919285 8.252599 21.061465 -0.478328 1.168172 0.017679 0.003364 152168.000000 1 0 0
20.050708 0.149515 -1.801401 20.132022 0.007457 1.660396 0.023636 -0.001582 -345619.000000 1 0 0
7.096108 -13.964785 11.416299 19.383030 -1.100656 0.940995 0.003828 0.011781 212510.000000 1 0 0
16.264308 -6.557585 -3.609401 17.904117 -0.383252 1.773784 0.023281 -0.003599 188151.000000 1 0 0
14.263808 -7.021285 11.179999 19.435716 -0.457424 0.957912 0.000566 -0.030715 393670.000000 1 0 0
16.504108 1.272215 10.811799 19.771169 0.076933 0.992203 0.037789 -0.012037 149152.000000 1 0 0
16.397908 -10.491285 2.445399 19.619848 -0.569167 1.445832 -0.007641 0.006285 177327.000000 1 0 0
16.234608 -7.474385 -6.273301 18.941574 -0.431467 1.908363 0.015287 0.001233 273483.000000 1 0 0
18.971608 -4.636985 5.333299 20.245188 -0.239717 1.304215 0.129548 -0.007564 -161901.000000 1 0 0
13.290108 -13.920885 7.683799 20.723387 -0.808575 1.190949 0.017376 -0.004926 50253.200000 1 0 0
15.011508 -14.462285 -1.651001 20.910018 -0.766766 1.649836 0.001857 0.005786 212046.000000 1 0 0
18.628008 -6.194685 8.068499 21.224455 -0.321043 1.180837 0.013226 0.003645 -22236.100000 1 0 0
19.537808 3.394115 2.519099 19.989793 0.172004 1.444441 0.014413 -0.005457 154228.000000 1 0 0
15.049108 -11.321585 8.147199 20.519035 -0.644977 1.162490 -0.000789 -0.005566 271565.000000 1 0 0
14.462308 -4.242985 10.734799 18.503978 -0.285374 0.951902 0.011209 0.000177 47207.100000 1 0 0
18.674608 -7.682385 1.834699 20.276246 -0.390279 1.480187 0.005158 0.002192 -262831.000000 1 0 0
18.995108 -5.880585 -1.521201 19.942655 -0.300226 1.647149 0.006829 -0.005396 109841.000000 1 0 0
14.469908 -13.891785 -5.966401 20.927443 -0.765017 1.859906 0.002119 0.006626 344807.000000 1 0 0
13.835808 -9.665685 10.088499 19.662982 -0.609785 1.032038 0.005806 -0.003664 478864.000000 1 0 0
14.285708 2.330115 0.681399 14.490521 0.161684 1.523755 -0.003483 -0.000171 -133635.000000 1 0 0
13.079708 2.848915 13.641199 19.112232 0.214462 0.775970 0.028102 -0.008441 180395.000000 1 0 0
18.261608 -2.287985 9.311199 20.625703 -0.124640 1.102422 0.016578 -0.008266 156179.000000 1 0 0
7.681608 -18.945085 4.907099 21.023867 -1.185586 1.335217 0.032298 -0.009124 425236.000000 1 0 0
12.450908 -2.964485 15.027699 19.739428 -0.233742 0.705475 -0.008607 0.012017 426245.000000 1 0 0
11.816608 -14.023685 -7.307401 19.740671 -0.870604 1.949988 0.012053 0.012524 243685.000000 1 0 0
10.748608 -17.274185 4.355299 20.806217 -1.014188 1.359910 0.011715 -0.021436 435833.000000 1 0 0
18.032308 -1.318685 -5.858601 19.005954 -0.072999 1.884150 0.000013 0.005115 343380.000000 1 0 0
4.263908 -13.635885 11.634899 18.425231 -1.267731 0.887355 -0.004603 -0.002047 169202.000000 1 0 0
8.991508 -2.938885 14.015599 16.909207 -0.315905 0.593705 -0.012010 0.001306 40540.600000 1 0 0
9.062708 -9.438085 13.845099 19.049853 -0.805685 0.757170 0.011137 -0.002985 385039.000000 1 0 0
20.893408 5.445715 -2.906501 21.786190 0.254970 1.704606 0.009154 0.004545 453877.000000 1 0 0
14.672208 -13.708885 1.814499 20.161836 -0.751469 1.480678 0.005852 0.001336 105209.000000 1 0 0
11.569708 -0.512685 15.218799 19.124143 -0.044284 0.650486 0.025516 0.001218 -13422.100000 1 0 0
19.615308 0.095115 7.541499 21.015318 0.004849 1.203753 0.060217 -0.006919 86597.000000 1 0 0
19.622008 1.284615 0.557799 19.671924 0.065375 1.542437 -0.002025 -0.002058 209890.000000 1 0 0
18.044208 0.180415 3.113799 18.311793 0.009998 1.399923 0.012647 -0.002836 -97668.700000 1 0 0
10.394908 -8.814785 16.297999 21.245689 -0.703326 0.696456 0.018166 0.014566 81277.300000 1 0 0
19.296208 2.857015 5.513899 20.270897 0.146993 1.295315 0.036950 -0.005179 96735.200000 1 0 0
15.052108 2.347315 7.051099 16.786716 0.154700 1.137307 0.022419 -0.006238 -3518.150000 1 0 0
11.443508 -16.073485 1.855899 19.818051 -0.952096 1.477012 -0.008286 0.002281 286036.000000 1 0 0
8.622908 -16.459485 6.968599 19.845165 -1.088222 1.211999 0.016038 -0.001311 194529.000000 1 0 0
6.190408 6.699915 7.212699 11.628974 0.824904 0.901754 0.003066 0.002036 -1513390.000000 1 0 0
18.406208 1.857515 -6.757201 19.695142 0.100577 1.921001 -0.007540 0.012076 154784.000000 1 0 0
14.123808 4.282715 -7.158601 16.403328 0.294414 2.022403 0.009303 0.003290 329046.000000 1 0 0
-10.750292 -3.826085 -13.730301 17.852979 0.341926 2.448191 0.003128 -0.005120 -469577.000000 1 0 0
7.769708 -14.262085 -10.483101 19.330568 -1.071969 2.143977 -0.004239 0.008996 59964.100000 1 0 0
2.020708 -15.389485 14.255099 21.074329 -1.440239 0.827905 -0.018933 -0.003668 290955.000000 1 0 0
-9.335192 -8.234085 2.544599 12.705154 0.722808 1.369152 0.002102 0.002095 360449.000000 1 0 0
-13.443292 3.153715 -9.675901 16.860933 -0.230427 2.182014 -0.011422 0.004679 274834.000000 1 0 0
-13.095592 -4.792185 -13.421701 19.354628 0.350803 2.337080 0.009160 0.005490 220322.000000 1 0 0
-17.584292 0.192215 -8.594801 19.573320 -0.010931 2.025402 0.003086 -0.005263 435878.000000 1 0 0
-12.102892 15.447515 4.045899 20.036841 -0.906207 1.367475 -0.001403 -0.015472 346537.000000 1 0 0
-17.973392 6.165215 9.520499 21.253061 -0.330442 1.106315 0.063090 -0.004080 143109.000000 1 0 0
-13.621692 15.667515 0.132399 20.761480 -0.855134 1.564419 0.020848 -0.018009 201773.000000 1 0 0
-15.506892 5.513615 -10.738301 19.651330 -0.341619 2.148906 -0.012878 0.009232 -68238.300000 1 0 0
-18.056592 2.947115 0.258399 18.297343 -0.161789 1.556674 0.027972 -0.003806 -60857.100000 1 0 0
-10.006892 15.614715 -0.090501 18.546304 -1.000871 1.575676 0.006447 -0.011213 30674.200000 1 0 0
-18.340492 12.208215 2.680799 22.194613 -0.587293 1.449715 0.032611 -0.010294 -292372.000000 1 0 0
-7.504592 15.956615 -7.977801 19.354012 -1.131180 1.995668 0.008859 -0.017668 80980.200000 1 0 0
-14.835292 -1.657585 -13.254601 19.962914 0.111271 2.296900 -0.016131 -0.002434 133409.000000 1 0 0
-19.054092 5.061815 -4.569201 20.237539 -0.259658 1.798538 0.056315 -0.001334 -48439.400000 1 0 0
-16.493692 9.780915 -5.592601 19.974618 -0.535264 1.854575 0.031828 0.017709 -179532.000000 1 0 0
-18.960492 1.000815 2.321899 19.128332 -0.052735 1.449111 0.019630 -0.008195 76872.700000 1 0 0
-13.255192 12.179415 -6.927401 19.288005 -0.743128 1.938160 0.005454 0.006454 -121039.000000 1 0 0
-12.982492 5.011615 -13.561301 19.431167 -0.368404 2.343278 0.001244 -0.001649 -115190.000000 1 0 0
-13.955692 9.483915 -6.668101 18.143030 -0.596885 1.947148 0.002261 0.003793 199554.000000 1 0 0
-6.273992 11.902915 -15.378301 20.433661 -1.085707 2.422793 -0.011285 -0.005813 89334.500000 1 0 0
-15.179992 14.044215 3.288299 20.940034 -0.746553 1.413110 0.017387 -0.015940 42875.900000 1 0 0
-18.623192 8.685615 -4.742301 21.089158 -0.436398 1.797605 0.046868 -0.000088 104913.000000 1 0 0
-4.070792 16.977815 -9.778301 20.010815 -1.335468 2.081339 0.005279 0.003113 82093.500000 1 0 0
-19.233092 -1.705385 -6.696801 20.436910 0.088438 1.904645 -0.005966 -0.002063 -306594.000000 1 0 0
-10.413592 13.612915 -6.152901 18.210232 -0.917778 1.915461 -0.001647 -0.013743 12181.600000 1 0 0
-19.331692 2.769015 4.393799 20.017173 -0.142269 1.349493 0.022874 -0.004164 12189.200000 1 0 0
-15.072992 12.476715 0.773299 19.582173 -0.691436 1.531296 0.009629 -0.004847 65545.300000 1 0 0
-16.890192 2.753215 -8.130001 18.946126 -0.161586 2.014305 -0.023454 -0.000698 140924.000000 1 0 0
-16.179292 13.913915 -4.254401 21.759284 -0.710261 1.767585 0.010200 0.040209 38880.200000 1 0 0
-10.670092 15.705715 -8.220701 20.690584 -0.974046 1.979387 0.008137 -0.008966 135533.000000 1 0 0
-19.423892 1.669115 -6.507701 20.552948 -0.085720 1.892972 0.040718 -0.010513 -51540.800000 1 0 0
-16.554292 10.626715 0.077299 19.671747 -0.570682 1.566867 -0.001995 0.005728 -208228.000000 1 0 0
-11.637392 6.933015 -14.608801 19.922667 -0.537291 2.393923 -0.003644 -0.004731 276801.000000 1 0 0
-12.816592 12.978715 -4.521801 18.792519 -0.791683 1.813798 0.022186 0.000677 441151.000000 1 0 0
-18.744792 7.367515 -0.267101 20.142464 -0.374495 1.584057 0.022332 0.004749 -19199.400000 1 0 0
-14.381892 9.077315 -10.439501 19.955441 -0.563019 2.121328 -0.001405 0.011798 561160.000000 1 0 0
-18.676192 11.509115 4.929399 22.484636 -0.552279 1.349767 0.015662 -0.012672 170389.000000 1 0 0
-8.189592 11.969915 -13.572601 19.863630 -0.970766 2.323054 -0.023287 0.003342 489618.000000 1 0 0
-21.092592 -1.546885 -5.197101 21.778433 0.073207 1.811757 0.006976 -0.012281 244697.000000 1 0 0
-10.495092 13.269115 -2.830401 17.153062 -0.901603 1.736563 0.004857 -0.008192 305397.000000 1 0 0
-18.626892 -4.708085 3.605299 19.548026 0.247572 1.385302 0.007779 -0.004318 -18616.700000 1 0 0
-11.152992 11.641615 -13.423301 20.978595 -0.806831 2.265109 -0.005689 0.010453 64329.800000 1 0 0
-14.816792 11.611015 -10.183301 21.402164 -0.664685 2.066678 0.010489 0.006682 177104.000000 1 0 0
-12.601492 10.043015 -13.971901 21.327770 -0.672891 2.285116 0.009547 -0.000787 58273.400000 1 0 0
-18.214492 -4.831885 -3.195901 19.113571 0.259304 1.738791 -0.020497 -0.000444 -265258.000000 1 0 0
-9.755192 12.732815 -11.338501 19.643064 -0.917042 2.186125 0.009597 -0.005961 172771.000000 1 0 0
-15.387692 7.864515 -8.335901 19.186425 -0.472481 2.020245 -0.000429 0.010507 -28367.300000 1 0 0
-14.669492 8.753015 2.071799 17.207603 -0.537976 1.450103 0.011400 -0.002281 -86473.500000 1 0 0
-20.006892 6.211415 7.772699 22.344401 -0.301029 1.215510 0.025188 -0.005484 235508.000000 1 0 0
-18.710692 6.025715 3.861699 20.032772 -0.311558 1.376813 0.003907 0.001185 206162.000000 1 0 0
-14.459092 13.154715 5.716999 20.366540 -0.738197 1.286267 0.004274 -0.014175 120771.000000 1 0 0
18.043208 6.284215 5.733699 19.948033 0.335148 1.279252 0.011247 -0.003667 172002.000000 1 0 0
18.439308 7.695315 0.596899 19.989554 0.395358 1.540931 0.018870 0.004756 -267625.000000 1 0 0
16.968308 4.423015 8.487199 19.481250 0.254989 1.120025 0.034515 -0.006394 23494.800000 1 0 0
12.633508 12.486415 11.131299 20.962393 0.779543 1.011001 0.024491 -0.003847 86465.500000 1 0 0
15.690808 12.255815 4.156399 20.339177 0.663099 1.364992 0.020484 -0.006118 219511.000000 1 0 0
5.247708 10.457815 14.520499 18.648036 1.105712 0.678267 -0.000957 0.001430 244147.000000 1 0 0
13.266908 12.986915 -5.364101 19.324710 0.774734 1.852068 0.031386 -0.006720 219148.000000 1 0 0
17.499108 9.146815 -2.761001 19.937556 0.481644 1.709725 -0.013860 0.002728 -121885.000000 1 0 0
14.759008 7.221215 9.482499 18.970821 0.455031 1.047375 0.033358 -0.002997 125247.000000 1 0 0
4.515108 19.538015 -1.657601 20.121329 1.343690 1.653270 0.006685 -0.000182 492007.000000 1 0 0
-4.671492 19.364715 3.519099 20.228670 -1.334082 1.395941 -0.004600 -0.001652 289158.000000 1 0 0
8.193708 13.054515 12.312599 19.727071 1.010291 0.896757 0.040885 0.000148 75935.700000 1 0 0
0.132408 17.079615 -10.275701 19.932908 1.563044 2.112404 0.015425 0.007795 -47975.500000 1 0 0
10.524808 9.180615 15.812199 21.096941 0.717289 0.723487 0.018753 -0.007464 252545.000000 1 0 0
-1.344092 12.428115 0.809899 12.526794 -1.463066 1.506098 -0.003976 0.003430 487476.000000 1 0 0
-4.961192 19.178515 -2.629701 19.983598 -1.317661 1.702772 0.002157 0.012742 49321.800000 1 0 0
5.409508 18.695415 6.347599 20.471281 1.289139 1.255526 0.016505 -0.004618 191780.000000 1 0 0
10.899808 17.855915 -1.744301 20.992430 1.022742 1.653984 0.030045 0.003409 359476.000000 1 0 0
18.298108 10.669815 3.158699 21.415954 0.527908 1.422763 -0.004599 0.000359 236527.000000 1 0 0
11.669108 16.706415 6.256099 21.316922 0.961091 1.272931 0.021144 -0.000349 -37187.500000 1 0 0
18.071808 7.433315 -6.317501 20.536681 0.390228 1.883487 -0.008305 0.022233 369688.000000 1 0 0
0.685508 16.049615 10.978299 19.457212 1.528110 0.971299 -0.007737 0.009283 554461.000000 1 0 0
1.030908 20.235115 -2.094501 20.369330 1.519894 1.673805 0.000102 -0.003851 140009.000000 1 0 0
14.387408 9.680115 -1.170901 17.380252 0.592250 1.638217 0.015065 -0.001037 -94684.500000 1 0 0
10.518008 17.103415 2.080499 20.186228 1.019445 1.467548 0.050918 -0.019285 322170.000000 1 0 0
0.265008 17.812115 -0.447901 17.819716 1.555919 1.595934 -0.006609 0.005208 70696.400000 1 0 0
-0.007192 21.032915 1.228799 21.068781 -1.570454 1.512440 0.014274 0.001790 280079.000000 1 0 0
6.031108 17.972915 -0.238501 18.959347 1.247037 1.583376 0.011947 -0.002528 -114206.000000 1 0 0
6.417908 18.778115 -3.007201 20.071134 1.241467 1.721190 -0.002995 -0.007147 -16086.200000 1 0 0
10.534008 9.467615 12.939599 19.184220 0.732133 0.830520 0.013455 -0.000112 141716.000000 1 0 0
12.479108 14.709015 8.166899 20.947112 0.867233 1.170293 -0.003106 -0.001054 287649.000000 1 0 0
0.263108 17.545415 7.309099 19.008781 1.555802 1.176118 0.004249 -0.004847 254343.000000 1 0 0
7.726408 17.799515 -7.935901 20.964223 1.161260 1.959020 0.024975 -0.006781 27768.900000 1 0 0
-0.965592 18.542815 9.413099 20.817656 -1.518770 1.101601 0.016643 -0.011988 50068.200000 1 0 0
15.924108 6.757915 -8.024001 19.069117 0.401348 2.005107 0.019725 0.010203 -389682.000000 1 0 0
-5.309792 19.747715 -6.688101 21.515037 -1.308127 1.886891 0.003424 0.000205 277753.000000 1 0 0
4.185708 15.649015 10.141899 19.112037 1.309440 1.011423 0.000668 -0.003463 233699.000000 1 0 0
9.514008 14.841115 7.422099 19.127535 1.000733 1.172301 0.022932 -0.007795 -131383.000000 1 0 0
-2.574992 19.385415 6.660199 20.658731 -1.438738 1.242542 0.009902 -0.008949 -14490.900000 1 0 0
4.825308 17.811515 8.481099 20.309178 1.306237 1.139995 0.014561 -0.013873 326070.000000 1 0 0
15.363908 11.312415 -7.339401 20.442290 0.634674 1.938025 0.042685 -0.020983 -58150.000000 1 0 0
11.637208 6.773515 15.774899 20.740120 0.527121 0.706562 0.025301 -0.002625 296349.000000 1 0 0
17.364808 8.914915 4.786099 20.097737 0.474302 1.330345 0.014549 -0.003530 253363.000000 1 0 0
5.618108 14.703515 13.161399 20.517771 1.205822 0.874392 -0.006524 0.002175 385657.000000 1 0 0
16.106508 10.665615 -3.980101 19.723493 0.584899 1.773987 0.035549 0.001815 235805.000000 1 0 0
15.491108 13.791415 6.386599 21.701756 0.727419 1.272084 0.008209 0.011142 250263.000000 1 0 0
12.444708 14.699315 -7.887401 20.812298 0.868269 1.959488 0.019831 -0.005442 289712.000000 1 0 0
-8.888992 15.422615 9.359199 20.111336 -1.047940 1.086744 0.029939 -0.017992 66410.500000 1 0 0
-4.784392 17.029015 -7.149001 19.078417 -1.296902 1.954888 -0.003412 0.014234 43426.300000 1 0 0
2.149608 19.424215 -4.741101 20.109674 1.460578 1.808799 -0.003836 -0.011655 -55789.200000 1 0 0
7.210908 15.695715 8.967999 19.462212 1.140137 1.091911 0.013448 -0.030809 552088.000000 1 0 0
13.372208 15.669215 -1.612501 20.662537 0.864328 1.648916 0.048394 -0.008485 195641.000000 1 0 0
12.631608 16.603115 3.988999 21.239893 0.920421 1.381867 0.030682 -0.013380 254091.000000 1 0 0
2.552108 18.610815 0.694199 18.797809 1.434516 1.533858 0.013644 -0.006464 14433.300000 1 0 0
-7.187792 17.800515 1.456999 19.252157 -1.187021 1.495044 -0.017657 0.014816 309068.000000 1 0 0
-0.143692 20.260315 -6.098701 21.158808 -1.563704 1.863179 0.012086 0.015723 60177.600000 1 0 0
-7.799292 17.942015 -6.387001 20.580054 -1.160743 1.886357 0.026264 -0.007456 79357.300000 1 0 0
-7.391492 18.582015 -1.344401 20.043274 -1.192208 1.637922 0.002532 0.000323 -31711.100000 1 0 0
-14.327592 -9.602685 8.949699 19.431638 0.590461 1.092155 0.010717 0.011550 305585.000000 1 0 0
-13.343892 -13.561685 8.179399 20.709450 0.793493 1.164772 0.013678 0.006355 -361182.000000 1 0 0
-3.901492 -15.931985 12.561799 20.660314 1.330638 0.917237 0.008172 -0.006768 24943.500000 1 0 0
-2.456992 -14.686785 14.652799 20.891218 1.405039 0.793457 -0.002423 -0.029382 289385.000000 1 0 0
-6.907792 -14.140785 13.442499 20.697347 1.116390 0.863897 -0.023434 0.005848 146074.000000 1 0 0
-10.079492 -11.357485 11.836899 19.253592 0.844944 0.908678 0.023194 0.004618 52590.300000 1 0 0
-7.319792 -10.588085 13.340899 18.538244 0.965917 0.767510 0.016188 0.003098 311341.000000 1 0 0
-15.254192 -12.306185 7.493099 20.982828 0.678838 1.205628 0.006232 0.015024 226872.000000 1 0 0
-4.479592 -11.998185 12.994999 18.245360 1.213468 0.778118 0.008923 -0.018569 326450.000000 1 0 0
3.509108 -12.677585 13.849499 19.100880 -1.300761 0.759658 -0.007058 0.004677 496732.000000 1 0 0
6.917608 -13.437185 14.749699 21.117880 -1.095370 0.797573 0.031988 0.005429 334248.000000 1 0 0
7.201708 -9.190985 16.788299 20.449591 -0.906159 0.607706 0.002924 0.017380 641375.000000 1 0 0
-5.178392 13.407315 13.719699 19.869624 -1.202211 0.808636 0.006419 -0.005676 525368.000000 1 0 0
-13.248992 -1.832985 17.689399 22.176800 0.137476 0.647402 0.014306 -0.002728 334722.000000 1 0 0
-10.099592 9.382615 13.071399 18.997281 -0.748613 0.811975 0.001380 -0.006010 376389.000000 1 0 0
-6.521692 -8.041585 17.365499 20.217816 0.889386 0.537638 0.017046 -0.006772 -502016.000000 1 0 0
-4.982692 2.652815 18.019699 18.883172 -0.489235 0.303578 0.021766 -0.010399 565702.000000 1 0 0
-15.603492 -3.888885 13.933299 21.277434 0.244255 0.856826 0.026103 -0.008679 -60384.800000 1 0 0
-14.338592 2.746915 12.568299 19.264031 -0.189282 0.860019 0.000328 0.005539 156529.000000 1 0 0
-13.808192 10.583615 10.077099 20.105397 -0.653961 1.045796 -0.037377 0.023768 27828.800000 1 0 0
-3.564992 11.298815 15.827899 19.771059 -1.265163 0.642569 -0.011133 -0.014290 165067.000000 1 0 0
-12.826092 13.272315 7.756999 20.020839 -0.802494 1.172936 0.006102 -0.021782 51477.200000 1 0 0
-3.766692 -6.066085 18.518199 19.847142 1.015120 0.368021 0.027837 -0.018841 146098.000000 1 0 0
0.776508 -2.907185 17.741499 17.994873 -1.309790 0.168009 0.005120 -0.015324 154528.000000 1 0 0
-4.149292 6.768615 21.192599 22.630886 -1.020859 0.358438 0.017208 -0.001937 176446.000000 1 0 0
2.147708 -10.769085 16.505199 19.824415 -1.373946 0.587066 -0.007736 0.005874 303105.000000 1 0 0
-15.092892 -0.436385 14.294599 20.792339 0.028905 0.812764 -0.000320 0.012737 172491.000000 1 0 0
-13.760892 -5.940685 7.871499 16.929689 0.407539 1.087216 0.008312 0.001232 36929.900000 1 0 0
10.208108 1.221015 16.411399 19.365701 0.119047 0.559639 0.018911 0.003687 380933.000000 1 0 0
-7.279792 12.178415 11.885799 18.508954 -1.032024 0.873477 0.009006 -0.019166 -53115.800000 1 0 0
-1.929892 7.616515 20.391599 21.852988 -1.322637 0.367784 0.012786 -0.003256 544712.000000 1 0 0
0.523208 -14.288085 15.896599 21.380481 -1.534194 0.732493 -0.028224 0.020210 505621.000000 1 0 0
-3.558092 -11.597585 17.653699 21.420016 1.273116 0.602064 0.016178 -0.011691 430883.000000 1 0 0
-2.265192 8.950915 16.664599 19.051478 -1.322932 0.505951 0.016273 -0.019599 488146.000000 1 0 0
-5.381192 -9.002185 20.095599 22.667811 1.032022 0.481015 0.067364 -0.032531 205214.000000 1 0 0
-6.474892 -3.613385 19.161399 20.546045 0.509011 0.369224 0.023309 -0.019322 222232.000000 1 0 0
-10.398492 -7.807785 16.416899 20.942891 0.644050 0.669892 0.010252 -0.014389 316321.000000 1 0 0
0.127108 6.377315 18.226999 19.310872 1.550868 0.336632 0.007056 -0.000596 44567.600000 1 0 0
-6.112592 -11.207585 18.749399 22.682894 1.071493 0.597779 0.029254 -0.009148 535504.000000 1 0 0
0.170308 3.322215 18.675799 18.969754 1.519578 0.176274 0.005584 -0.006425 2080.300000 1 0 0
-18.089892 -0.495985 7.932799 19.759035 0.027411 1.157667 -0.008244 -0.001567 110542.000000 1 0 0
-1.471392 -8.424585 17.354599 19.347370 1.397886 0.457860 0.007110 -0.016949 -236.140000 1 0 0
6.035808 3.501915 14.989699 16.534372 0.525726 0.435692 0.003577 -0.001712 343176.000000 1 0 0
-13.712392 -6.639885 10.476399 18.489800 0.450948 0.968417 0.010956 0.001002 221571.000000 1 0 0
4.047308 8.193815 16.596399 18.946234 1.112003 0.503346 0.004916 -0.013221 143394.000000 1 0 0
6.360508 4.482315 16.990199 18.687270 0.613880 0.429472 0.014865 -0.031096 111011.000000 1 0 0
4.572308 -10.003885 17.814499 20.936573 -1.142092 0.553139 -0.020319 0.010292 435341.000000 1 0 0
-4.477092 -0.808085 19.817599 20.333091 0.178571 0.225656 0.030525 -0.012002 842343.000000 1 0 0
-11.175392 2.037715 17.060399 20.496314 -0.180358 0.587436 0.029120 -0.001173 225216.000000 1 0 0
-16.599592 -4.160485 8.761699 19.225593 0.245579 1.097603 0.013597 -0.006058 234018.000000 1 0 0
-12.748992 -9.637185 12.804699 20.478585 0.647278 0.895315 -0.016293 -0.005588 122793.000000 1 0 0
-14.433792 5.909115 13.241599 20.459519 -0.388579 0.866878 -0.001195 0.002878 265017.000000 1 0 0
1.487508 9.150915 16.882099 19.260249 1.409653 0.502200 0.015275 -0.027280 124862.000000 1 0 0
-3.696392 -10.198985 15.148999 18.632626 1.223094 0.621448 0.019144 -0.008633 626247.000000 1 0 0
-18.594592 -3.030085 6.577299 19.954977 0.161535 1.234909 0.081616 -0.009448 -258125.000000 1 0 0
-0.448992 -0.381685 20.800699 20.809045 0.704548 0.028323 0.018807 -0.007857 509941.000000 1 0 0
-1.689092 2.552315 20.229899 20.460111 -0.986179 0.150153 0.008316 -0.011163 -38904.200000 1 0 0
-7.831092 2.233815 16.624499 18.511885 -0.277870 0.455492 -0.001245 0.017613 468881.000000 1 0 0
3.455608 -2.895785 18.521599 19.062435 -0.697484 0.238776 0.012991 -0.001934 -64818.500000 1 0 0
-12.176292 4.173615 14.294199 19.235521 -0.330216 0.733083 -0.015590 0.001678 159301.000000 1 0 0
-13.250392 -5.760285 13.425099 19.722754 0.410079 0.822091 0.008997 0.001163 -10529.200000 1 0 0
-17.301292 -0.515185 9.844499 19.912666 0.029768 1.053671 0.018950 -0.005750 -52507.000000 1 0 0
-7.165092 7.638915 14.959599 18.261467 -0.817394 0.610800 -0.001033 -0.007237 -178492.000000 1 0 0
-9.496192 0.683415 14.459599 17.312559 -0.071843 0.582284 0.008418 0.008056 71180.000000 1 0 0
7.713308 -0.910685 15.098199 16.978813 -0.117523 0.475120 -0.000994 0.002371 141514.000000 1 0 0
3.908508 6.295715 18.481499 19.911762 1.015208 0.381331 0.006602 -0.002269 41092.900000 1 0 0
2.282908 0.165715 19.497699 19.631592 0.072462 0.116859 0.000852 -0.015843 241309.000000 1 0 0
-6.922392 7.337415 17.874899 20.524843 -0.814494 0.513784 0.008949 -0.002326 511928.000000 1 0 0
7.620908 -3.221085 16.971499 18.880821 -0.399891 0.453601 -0.008485 0.019134 419308.000000 1 0 0
-16.213792 2.870615 9.150899 18.837899 -0.175232 1.063552 0.008289 -0.005322 -28759.800000 1 0 0
4.249908 -5.998485 19.102599 20.468337 -0.954390 0.367369 -0.001033 -0.000558 112870.000000 1 0 0
-3.656092 -3.791285 20.585099 21.248227 0.803549 0.250489 0.027199 -0.017534 467317.000000 1 0 0
-9.722792 5.890115 14.649599 18.542839 -0.544677 0.659921 0.002277 0.002575 -84330.500000 1 0 0
6.021608 2.702315 19.840299 20.909322 0.421830 0.321149 0.008227 -0.005058 16144.600000 1 0 0
-7.222892 11.169815 14.720599 19.840135 -0.996784 0.734806 0.017770 -0.022536 282343.000000 1 0 0
-14.418692 4.897315 9.769799 18.092300 -0.327425 1.000362 0.001712 0.004580 391629.000000 1 0 0
1.122608 -5.252085 20.490899 21.183049 -1.360220 0.256337 0.010330 -0.010903 251971.000000 1 0 0
-6.000892 -8.307485 13.845999 17.226047 0.945229 0.637170 0.015240 -0.004001 364175.000000 1 0 0
-13.012292 10.275815 6.480999 17.802119 -0.668429 1.198175 0.000729 -0.018205 244313.000000 1 0 0
-19.385292 1.925015 7.954999 21.042272 -0.098978 1.183109 -0.018860 0.000867 67697.500000 1 0 0
-15.619392 9.138315 6.231399 19.139084 -0.529363 1.239166 -0.000846 -0.005435 37605.800000 1 0 0
-12.650992 8.224615 14.008799 20.589763 -0.576457 0.822520 0.006941 0.007099 194116.000000 1 0 0
-16.650892 8.476915 10.311399 21.340929 -0.470899 1.066519 0.012947 -0.010829 536999.000000 1 0 0
2.527408 10.647315 14.143999 17.883115 1.337735 0.658496 -0.005321 -0.055037 382318.000000 1 0 0
1.651508 14.653115 13.188999 19.783603 1.458563 0.841073 -0.011487 -0.018534 563886.000000 1 0 0
8.728608 4.810515 16.606899 19.367983 0.503703 0.540521 0.018585 -0.006167 -166112.000000 1 0 0
-0.310092 13.317015 13.604499 19.039996 -1.547515 0.774855 -0.000165 0.005284 172451.000000 1 0 0
3.828208 12.801915 14.666999 19.840995 1.280226 0.738875 -0.010893 -0.003949 112996.000000 1 0 0
-3.580692 -4.635085 -13.729301 14.926455 0.913038 2.738358 -0.008332 -0.003971 20300.500000 1 0 0
5.287408 -12.217585 16.742799 21.390357 -1.162363 0.671762 -0.037990 0.030812 247044.000000 1 0 0
8.724208 -14.104785 6.805799 17.926954 -1.016864 1.181389 0.000462 -0.002881 254453.000000 1 0 0
-0.487392 15.434315 0.539099 15.451416 -1.539228 1.535899 -0.004000 0.005080 -759956.000000 1 0 0
-14.038392 7.593015 8.313099 17.995498 -0.495810 1.090599 0.007605 -0.010887 3557.670000 1 0 0
-15.906592 -9.803385 5.731999 19.544355 0.552326 1.273139 0.002079 0.007408 176448.000000 1 0 0
8.764608 -11.366385 11.393399 18.325463 -0.913928 0.899853 -0.007232 0.012821 88491.500000 1 0 0
-24.980892 5.963015 31.353742 40.529738 -0.234318 0.686296 0.030801 -0.012027 -315264.000000 0 0 1
-23.897092 5.096415 31.392312 39.780921 -0.210117 0.661405 0.029352 -0.011997 -119169.000000 0 0 1
-22.847792 5.518815 32.263132 39.917272 -0.237007 0.629622 0.025743 -0.006357 283596.000000 0 0 1
-21.484792 4.886515 31.939432 38.802083 -0.223636 0.603883 0.032659 -0.006702 -212461.000000 0 0 1
-21.301292 3.522115 32.268472 38.825309 -0.163865 0.589678 0.018797 -0.006321 237856.000000 0 0 1
-19.996592 3.095415 31.876532 37.756570 -0.153578 0.565605 0.025526 -0.005024 479774.000000 0 0 1
-19.551192 1.799415 32.622102 38.074776 -0.091778 0.541783 0.023904 -0.012739 100752.000000 0 0 1
-20.320792 0.628215 32.320592 38.183110 -0.030905 0.561489 0.035261 -0.012989 180342.000000 0 0 1
-20.302792 -0.250585 33.423742 39.107706 0.012342 0.545903 0.023096 -0.008756 -68933.700000 0 0 1
-20.792892 -1.702585 33.272526 39.272180 0.081701 0.560049 0.020333 -0.024868 -65576.400000 0 0 1
-20.003292 -2.446385 32.343762 38.108207 0.121695 0.557208 0.031364 -0.022273 243428.000000 0 0 1
-20.291992 -3.891785 32.367432 38.400021 0.189488 0.568143 0.035534 -0.026559 1031130.000000 0 0 1
-21.751292 -4.425885 32.020952 38.962142 0.200736 0.606149 0.027457 -0.018137 1635930.000000 0 0 1
-22.826192 -4.174685 32.934482 40.288251 0.180891 0.613790 0.020237 -0.016317 610417.000000 0 0 1
-22.900292 -4.986285 34.086405 41.366283 0.214393 0.602336 0.001353 -0.008096 -375712.000000 0 0 1
-23.987392 -4.488185 -34.090302 41.924783 0.184967 2.520306 0.008775 -0.004845 17020.500000 0 0 1
-24.020292 -5.134285 -32.817271 40.991567 0.210579 2.499069 0.005898 0.005165 38114.200000 0 0 1
-24.876592 -4.406385 -31.958081 40.737943 0.175311 2.472653 0.002343 0.007175 -117693.000000 0 0 1
-24.906692 -4.917685 -30.482471 39.669988 0.194937 2.447136 -0.012760 0.014554 -651984.000000 0 0 1
-25.430392 -6.224385 -30.440501 40.150615 0.240042 2.431280 -0.009456 0.013357 473169.000000 0 0 1
-24.939592 -6.984685 -29.337121 39.133563 0.273068 2.418354 -0.018289 0.017660 -167672.000000 0 0 1
-25.335332 -8.461185 -29.266381 39.623121 0.322321 2.401815 -0.013078 0.014815 -785500.000000 0 0 1
-26.663752 -8.701285 -28.933911 40.296888 0.315438 2.371748 -0.000909 0.001624 -660927.000000 0 0 1
-26.860432 -10.083685 -28.561631 40.483704 0.359130 2.353938 0.003054 0.002401 33355.500000 0 0 1
-28.343612 -10.390485 -28.283311 41.367477 0.351377 2.323629 0.036024 -0.012534 107044.000000 0 0 1
-28.578582 -11.451485 -27.365001 41.191202 0.381111 2.297408 0.041196 -0.015498 -771137.000000 0 0 1
-29.935652 -11.700585 -27.161481 42.080791 0.372600 2.272422 0.030003 -0.016314 -681839.000000 0 0 1
-30.077482 -12.483685 -25.821901 41.560412 0.393414 2.241210 0.016700 -0.014954 -286396.000000 0 0 1
-29.821882 -11.606585 -24.727701 40.441521 0.371159 2.228680 0.021976 -0.012203 130892.000000 0 0 1
-30.151312 -12.067885 -23.444801 40.054889 0.380717 2.196067 0.021999 -0.008788 -48540.800000 0 0 1
-29.434152 -11.251785 -22.288301 38.597154 0.365129 2.186410 0.023604 -0.008116 216625.000000 0 0 1
-29.214652 -11.938585 -21.129101 37.979792 0.387941 2.160753 0.018356 -0.000240 423407.000000 0 0 1
-27.907052 -12.498185 -21.060801 37.129038 0.421065 2.173938 0.018331 -0.016439 -155356.000000 0 0 1
-27.613932 -13.202385 -19.732701 36.417189 0.445979 2.143435 0.010991 -0.018832 -411670.000000 0 0 1
-27.247952 -12.279685 -18.811701 35.314609 0.423406 2.132571 0.010583 -0.015700 61810.700000 0 0 1
-26.883872 -12.803085 -17.601901 34.590294 0.444457 2.104666 -0.002614 0.001683 -99909.000000 0 0 1
-26.564062 -11.715685 -16.557101 33.422212 0.415374 2.089083 0.002991 -0.011137 103494.000000 0 0 1
-25.425152 -10.875585 -16.709501 32.309814 0.404197 2.114331 0.013671 -0.014731 560081.000000 0 0 1
-25.538402 -9.788485 -15.869001 31.620398 0.366014 2.096544 0.033827 -0.019744 -445401.000000 0 0 1
-24.340392 -8.814485 -15.914901 30.388055 0.347444 2.122011 0.035075 -0.021367 604010.000000 0 0 1
-23.210192 -9.421585 -15.241801 29.322206 0.385603 2.117418 -0.003239 -0.019067 1066770.000000 0 0 1
-22.032892 -8.639585 -15.407301 28.239612 0.373697 2.147891 0.025351 -0.040212 393368.000000 0 0 1
-20.798892 -9.023985 -14.563301 26.946538 0.409358 2.141770 0.007178 -0.004052 -251115.000000 0 0 1
-20.214292 -10.210485 -14.969101 27.146742 0.467729 2.154855 0.003398 0.000512 -72472.000000 0 0 1
-19.125092 -10.462485 -14.101001 25.962876 0.500580 2.144947 0.008026 0.014518 -418949.000000 0 0 1
-18.394492 -11.749585 -14.481301 26.193857 0.568430 2.156578 0.011971 0.010943 -227423.000000 0 0 1
-17.432692 -11.529785 -15.507601 26.025379 0.584340 2.209138 0.025794 -0.001979 365816.000000 0 0 1
-18.004692 -11.463385 -16.800801 27.163303 0.566961 2.237643 0.016185 -0.008191 -511716.000000 0 0 1
-17.201392 -10.711085 -17.877301 27.022456 0.556934 2.293710 0.015192 -0.004225 -427029.000000 0 0 1
-17.722192 -10.874185 -19.171201 28.281777 0.550353 2.315650 0.005204 -0.011907 215502.000000 0 0 1
-17.054092 -10.211085 -20.221201 28.354987 0.539498 2.364770 0.004265 -0.009607 -107176.000000 0 0 1
-17.756292 -10.550585 -21.581801 29.872644 0.536135 2.378151 0.002771 -0.005561 23923.700000 0 0 1
-19.035892 -9.987685 -21.642501 30.504375 0.483193 2.359568 0.009273 -0.022680 -59571.000000 0 0 1
-19.983492 -10.723385 -22.407201 31.881242 0.492507 2.350169 0.005373 -0.012902 136490.000000 0 0 1
-21.194592 -9.847985 -22.728301 32.600141 0.434967 2.342258 0.009959 -0.016821 -475695.000000 0 0 1
-20.836692 -8.879485 -23.663401 32.756213 0.402841 2.378077 0.003863 -0.013084 311702.000000 0 0 1
-21.928992 -8.297185 -24.337201 33.793835 0.361718 2.374839 0.000748 -0.013156 16976.500000 0 0 1
-21.382292 -7.531585 -25.587021 34.185126 0.338664 2.416569 -0.009630 -0.012904 166501.000000 0 0 1
-20.495192 -8.280685 -26.385621 34.421267 0.383976 2.444248 0.002559 -0.011811 91264.800000 0 0 1
-19.929192 -7.467285 -27.390801 34.687015 0.358500 2.481044 0.005505 -0.014548 44962.300000 0 0 1
-18.735392 -8.105185 -28.134371 34.759916 0.408302 2.513911 0.029668 -0.010452 167974.000000 0 0 1
-19.199392 -9.210085 -28.953111 35.940575 0.447282 2.507455 0.033598 -0.002396 840716.000000 0 0 1
-18.047992 -9.843785 -29.504121 35.960023 0.499322 2.533029 0.008745 0.006847 330147.000000 0 0 1
-18.330492 -11.128785 -30.326471 37.142316 0.545637 2.526108 0.021292 0.006829 -291597.000000 0 0 1
-18.774692 -10.832185 -31.616431 38.333067 0.523304 2.540613 0.018240 0.008894 243827.000000 0 0 1
-18.694892 -11.976785 -32.408851 39.284551 0.569770 2.540958 -0.001443 0.010689 -125727.000000 0 0 1
-19.230992 -11.871485 -33.862311 40.711415 0.553050 2.553075 -0.015938 0.007342 -295931.000000 0 0 1
-18.479392 -10.992585 34.477419 40.632712 0.536629 0.557626 -0.006791 0.004585 -134093.000000 0 0 1
-18.919792 -11.008085 33.172458 39.743533 0.526951 0.583276 0.004529 -0.001552 -247178.000000 0 0 1
-18.475592 -12.135285 32.182232 39.042396 0.581160 0.601850 0.016223 -0.001253 95026.600000 0 0 1
-17.082392 -12.048085 31.907722 38.145343 0.614269 0.579973 0.028516 -0.005893 638721.000000 0 0 1
-16.455592 -12.945985 30.990472 37.400460 0.666592 0.594172 0.026860 -0.006820 300868.000000 0 0 1
-16.477692 -14.420385 31.410122 38.289132 0.718913 0.608790 0.024361 0.003502 -460348.000000 0 0 1
-17.749992 -15.020785 31.218332 38.926475 0.702308 0.640190 0.010285 0.004463 143702.000000 0 0 1
-17.731092 -16.420185 31.394472 39.618518 0.747032 0.656032 0.019959 -0.000633 -109693.000000 0 0 1
-17.948092 -16.830285 32.871552 41.060095 0.753268 0.642548 0.000675 -0.007226 131323.000000 0 0 1
-16.915692 -16.461085 33.786312 41.214352 0.771779 0.609786 0.012514 -0.003485 194958.000000 0 0 1
-17.458892 -16.108585 -34.072956 41.536318 0.745193 2.532762 0.007526 -0.005155 -456859.000000 0 0 1
-16.487592 -15.487185 -33.146271 40.129401 0.754121 2.542743 0.022148 0.000289 -572739.000000 0 0 1
-16.096692 -14.207585 -33.559941 39.840038 0.723141 2.572457 0.015559 0.006501 -96821.300000 0 0 1
-14.979492 -13.611985 -32.912391 38.638023 0.737605 2.590234 0.018699 0.004574 210141.000000 0 0 1
-15.171492 -13.152585 -31.422481 37.289904 0.714240 2.572989 0.022177 0.005751 -253952.000000 0 0 1
-14.964192 -14.184085 -30.502521 36.817375 0.758641 2.547187 0.023709 -0.000551 -122625.000000 0 0 1
-15.446792 -13.901585 -29.192921 35.834119 0.732796 2.522953 0.022775 0.001054 -68181.800000 0 0 1
-15.345592 -15.107485 -28.290721 35.554018 0.777580 2.490977 0.028577 0.005753 1727020.000000 0 0 1
-13.953692 -15.494485 -28.060841 34.959911 0.837673 2.502534 0.015773 -0.005203 1383030.000000 0 0 1
-13.431692 -16.400785 -29.025791 35.942908 0.884597 2.510787 0.013154 -0.010007 187331.000000 0 0 1
-11.986492 -16.885085 -28.666081 35.362781 0.953466 2.516021 0.006322 -0.003632 938110.000000 0 0 1
-11.065192 -15.812785 -28.857751 34.716746 0.960230 2.552121 0.014125 -0.000533 722.722000 0 0 1
-9.736892 -16.067485 -28.441821 34.086776 1.025977 2.557830 0.008474 -0.005199 683828.000000 0 0 1
-8.889592 -14.775785 -28.243151 33.091151 1.029177 2.593453 0.004485 0.000772 152855.000000 0 0 1
-9.179292 -14.119185 -27.022871 31.840954 0.994330 2.584286 -0.004908 -0.000854 -429102.000000 0 0 1
-8.300892 -13.086485 -26.753001 30.917373 1.005530 2.616558 -0.010908 0.004487 -766235.000000 0 0 1
-8.308192 -11.815985 -27.625691 31.174065 0.957972 2.659821 -0.020108 0.000602 79902.900000 0 0 1
-7.427292 -11.923885 -28.764391 32.011465 1.013714 2.687285 -0.002239 -0.002132 455746.000000 0 0 1
-7.460092 -10.735285 -29.619311 32.375962 0.963492 2.725945 -0.006940 0.004748 -34165.500000 0 0 1
-6.403492 -10.768385 -30.764731 33.217939 1.034315 2.754865 -0.007092 0.011172 -84952.000000 0 0 1
-5.036192 -10.759085 -30.417711 32.655142 1.133003 2.769265 0.008176 0.006537 142903.000000 0 0 1
-4.201192 -10.584685 -31.533211 33.526541 1.192955 2.795027 0.015348 0.003351 -120701.000000 0 0 1
-3.891492 -9.090485 -31.934761 33.430668 1.166316 2.841312 -0.002427 0.005587 -1065310.000000 0 0 1
-2.783392 -8.813185 -32.748511 34.027702 1.264889 2.866527 -0.005633 0.003924 -257778.000000 0 0 1
-2.745992 -7.451985 -33.127531 34.066198 1.217744 2.906298 -0.022781 0.001840 -833899.000000 0 0 1
-1.441792 -6.875485 -33.633801 34.359622 1.364091 2.935685 -0.011179 -0.003478 -631338.000000 0 0 1
-1.045792 -7.306085 34.215978 35.002939 1.428622 0.212450 0.003198 -0.011938 220283.000000 0 0 1
0.224208 -6.781285 33.842093 34.515553 -1.537746 0.197866 -0.000853 -0.003614 652040.000000 0 0 1
0.847808 -7.352885 32.509002 33.340950 -1.456000 0.223862 -0.002270 0.002638 154268.000000 0 0 1
0.086308 -7.077885 31.338072 32.127538 -1.558603 0.222145 -0.015398 0.007293 -64481.900000 0 0 1
0.713608 -7.590585 30.218272 31.165208 -1.477060 0.247142 -0.011314 0.002405 -139248.000000 0 0 1
0.117708 -7.127785 28.849622 29.717333 -1.554284 0.242248 -0.013929 0.006703 -61318.600000 0 0 1
0.333808 -5.739885 28.708442 29.278531 -1.512706 0.197660 -0.021672 0.012243 171198.000000 0 0 1
0.071908 -5.334285 27.342462 27.858033 -1.557317 0.192689 -0.010015 0.015507 -38785.200000 0 0 1
-1.185292 -4.482785 27.053442 27.447933 1.312302 0.169746 -0.003159 0.018727 -535461.000000 0 0 1
-2.379992 -5.155485 27.015632 27.605937 1.138303 0.207171 0.016147 0.008777 -1000760.000000 0 0 1
-3.433892 -4.340485 26.518892 27.090276 0.901487 0.205749 0.011340 0.001501 1387880.000000 0 0 1
-4.875892 -4.826385 26.988052 27.846423 0.780296 0.248937 0.011735 0.005945 1246790.000000 0 0 1
-5.246692 -6.089785 26.519192 27.710662 0.859631 0.294308 0.012272 0.004933 -459131.000000 0 0 1
-6.558492 -6.428085 26.876852 28.402452 0.775357 0.329246 0.005915 0.002963 9034.400000 0 0 1
-6.669992 -7.989885 26.792112 28.742727 0.875190 0.370530 0.003038 -0.002694 276268.000000 0 0 1
-5.744892 -8.567985 27.698482 29.557065 0.980140 0.356515 0.010285 -0.005179 194612.000000 0 0 1
-5.805592 -9.953285 27.625802 29.932553 1.042759 0.395160 0.010413 -0.008276 -99542.100000 0 0 1
-5.134992 -10.616485 28.824902 31.144067 1.120289 0.388352 0.021885 -0.011982 -177449.000000 0 0 1
-5.077192 -12.018185 28.792862 31.610814 1.171080 0.425446 0.041657 -0.016735 557466.000000 0 0 1
-4.237492 -12.514385 29.847472 32.641044 1.244305 0.416735 0.046178 -0.019970 95912.400000 0 0 1
-4.217392 -14.105185 29.904522 33.332013 1.280261 0.457474 0.059514 -0.026602 -432547.000000 0 0 1
-5.493792 -14.632385 30.110112 33.925025 1.211627 0.478799 0.072514 -0.027912 -376974.000000 0 0 1
-5.403092 -16.036685 30.228212 34.642654 1.245821 0.510353 0.048327 -0.028614 77170.900000 0 0 1
-5.595492 -16.444685 31.697302 36.144933 1.242824 0.501318 0.060615 -0.024521 -993395.000000 0 0 1
-6.885992 -16.439185 32.167232 36.774917 1.174124 0.505968 0.052295 -0.021068 -1192070.000000 0 0 1
-7.008892 -16.777885 33.508882 38.124365 1.175086 0.497169 0.041298 -0.015795 -1057550.000000 0 0 1
-8.444492 -16.908185 33.956203 38.861548 1.107603 0.507888 0.050623 -0.010899 -448427.000000 0 0 1
-9.173792 -18.076685 33.593653 39.235934 1.101172 0.542935 0.034050 -0.009356 557835.000000 0 0 1
-9.696792 -18.122585 32.225742 38.222432 1.079490 0.567754 0.040508 -0.012386 -396389.000000 0 0 1
-10.175492 -19.490685 31.746012 38.616534 1.089649 0.605736 0.043835 -0.018489 -3101.890000 0 0 1
-11.234892 -20.082285 32.481282 39.806465 1.060732 0.616374 0.052431 -0.020437 156322.000000 0 0 1
-11.343892 -21.478985 32.310652 40.422876 1.084892 0.644640 0.040780 -0.019314 -165465.000000 0 0 1
-10.790792 -22.338585 33.499408 41.685296 1.120795 0.637432 0.031299 -0.022914 -202425.000000 0 0 1
-9.381292 -22.351785 33.594573 41.427120 1.173414 0.625053 0.018436 -0.019874 -126057.000000 0 0 1
-8.967392 -23.231485 -34.511696 42.557880 1.202415 2.516545 -0.002316 -0.015499 2596.910000 0 0 1
-9.299092 -24.761585 34.512624 43.482530 1.211548 0.653908 0.008478 -0.003919 -481243.000000 0 0 1
-8.685492 -25.516975 33.510881 43.006197 1.242716 0.677391 0.014126 -0.010372 -106219.000000 0 0 1
-8.830892 -26.914435 33.798116 44.098573 1.253754 0.697544 0.016369 -0.005327 -383124.000000 0 0 1
-8.325392 -27.844315 32.625572 43.692631 1.280259 0.727700 0.014257 -0.004861 1150340.000000 0 0 1
-6.914592 -27.855225 32.353742 43.249159 1.327481 0.725635 -0.009132 -0.002438 783216.000000 0 0 1
-6.096992 -28.577095 33.267827 44.278347 1.360596 0.720715 -0.003287 0.002666 969451.000000 0 0 1
-4.636992 -27.980315 33.416217 43.829708 1.406566 0.703767 -0.005074 0.006896 849530.000000 0 0 1
-4.464092 -26.755705 34.142055 43.605915 1.405473 0.671373 -0.013826 0.008600 72571.600000 0 0 1
-4.907592 -25.525025 33.550042 42.440743 1.380848 0.659147 -0.008122 -0.002768 -66261.100000 0 0 1
-4.559792 -24.253685 34.412017 42.346427 1.384961 0.622144 -0.011136 0.001953 -535972.000000 0 0 1
-3.228792 -23.961185 -34.462442 42.097784 1.436852 2.529815 -0.022071 0.006806 -650364.000000 0 0 1
-3.013092 -22.561585 -34.226995 41.104635 1.438032 2.554726 -0.017159 -0.004965 -241400.000000 0 0 1
33.880539 -15.401785 2.100299 37.276228 -0.426665 1.514422 0.060257 -0.039399 -415117.000000 0 0 1
34.530354 -16.053785 3.199199 38.213927 -0.435190 1.486980 0.041717 -0.040580 506071.000000 0 0 1
33.719469 -16.621685 4.239999 37.832005 -0.457984 1.458486 0.054640 -0.040907 -29664.000000 0 0 1
34.543836 -16.705585 5.547899 38.770251 -0.450446 1.427207 0.041671 -0.022367 519392.000000 0 0 1
-34.586277 -17.618585 5.398099 39.188832 0.471147 1.432611 0.050671 -0.025469 551919.000000 0 0 1
-33.858012 -17.726885 6.623599 38.787620 0.482322 1.399189 0.040749 -0.016634 146282.000000 0 0 1
-32.605372 -18.609785 6.603299 38.118734 0.518641 1.396688 0.024046 -0.014078 -55497.900000 0 0 1
-32.904062 -19.970885 6.736199 39.075438 0.545509 1.397541 0.042256 -0.016049 669484.000000 0 0 1
-31.682032 -20.578585 7.168999 38.452878 0.576048 1.383263 0.020232 -0.001785 335053.000000 0 0 1
-31.767992 -22.109285 7.430899 39.411217 0.608010 1.381113 0.016917 0.003491 -759859.000000 0 0 1
-31.667302 -22.874585 6.240099 39.560125 0.625563 1.412398 0.042584 -0.000953 -100332.000000 0 0 1
-31.926662 -24.261185 6.528999 40.626896 0.649809 1.409390 0.064056 -0.005521 -216368.000000 0 0 1
-31.651192 -25.125915 5.292699 40.756867 0.670972 1.440568 0.056052 -0.004920 95527.000000 0 0 1
-32.397222 -24.802185 4.123299 41.008901 0.653389 1.470080 0.060609 -0.007494 142942.000000 0 0 1
-31.923602 -25.533505 2.993999 40.988294 0.674638 1.497686 0.057950 -0.001181 -51812.300000 0 0 1
-32.455622 -25.209265 1.569299 41.125869 0.660390 1.532629 0.048665 -0.004080 -530531.000000 0 0 1
-33.697972 -25.767635 1.227899 42.438568 0.652820 1.541859 0.056053 -0.000320 -356862.000000 0 0 1
-34.158955 -25.140215 0.077899 42.413095 0.634466 1.568960 0.053113 0.001688 291695.000000 0 0 1
34.956559 -24.054185 0.379699 42.434762 -0.602706 1.561848 0.067367 -0.007782 -26288.200000 0 0 1
33.627859 -24.471985 0.235199 41.590459 -0.629095 1.565141 0.044404 -0.001878 -124315.000000 0 0 1
32.707609 -23.510885 0.716099 40.287246 -0.623246 1.553021 0.063505 -0.014332 1063350.000000 0 0 1
31.182449 -23.634285 0.384599 39.128921 -0.648561 1.560967 0.005201 -0.004096 787081.000000 0 0 1
30.947469 -23.443585 -0.973801 38.836784 -0.648302 1.595873 0.003404 -0.014054 -867201.000000 0 0 1
29.592079 -23.459385 -1.269201 37.784187 -0.670310 1.604393 -0.010588 -0.008529 -568455.000000 0 0 1
29.215289 -23.273385 -2.733101 37.452015 -0.672674 1.643837 -0.023491 0.006682 -228321.000000 0 0 1
29.700409 -22.029285 -3.163001 37.113451 -0.638179 1.656125 -0.009233 -0.007361 285758.000000 0 0 1
29.727169 -21.877685 -4.548101 37.189016 -0.634448 1.693400 -0.005726 -0.027227 -196987.000000 0 0 1
30.140329 -20.466485 -4.874901 36.757055 -0.596520 1.703813 0.018175 -0.029041 511406.000000 0 0 1
29.027969 -19.641685 -4.518701 35.338894 -0.594880 1.699015 0.013205 -0.024812 681368.000000 0 0 1
29.316649 -18.248985 -4.629801 34.841447 -0.556784 1.704073 0.030894 -0.026620 798205.000000 0 0 1
28.276369 -17.475485 -3.681601 33.443980 -0.553567 1.681103 0.037755 -0.020443 628035.000000 0 0 1
28.519129 -17.379385 -2.248101 33.472940 -0.547298 1.638009 0.034008 -0.015350 -81508.900000 0 0 1
28.810679 -18.592385 -1.512701 34.322300 -0.573085 1.614884 0.015571 -0.006125 -214902.000000 0 0 1
27.661239 -19.585885 -1.162401 33.913157 -0.616117 1.605079 -0.004303 -0.002976 -491725.000000 0 0 1
27.035619 -19.233385 0.021199 33.179033 -0.618342 1.570157 -0.000779 0.007983 -467275.000000 0 0 1
26.333779 -20.360185 0.379299 33.288871 -0.658159 1.559402 -0.019036 0.013559 -991016.000000 0 0 1
25.372479 -20.249385 1.583299 32.500879 -0.673572 1.522061 -0.012991 0.023186 -1502830.000000 0 0 1
24.845519 -21.522185 1.886499 32.925114 -0.713847 1.513468 -0.023768 0.030665 -19653.400000 0 0 1
24.030219 -21.470285 3.079299 32.371386 -0.729196 1.475528 -0.027374 0.029606 60605.400000 0 0 1
22.590019 -21.051885 2.716799 30.997933 -0.750168 1.483039 -0.028321 0.019465 -1272980.000000 0 0 1
22.340719 -19.756785 2.173499 29.902548 -0.724095 1.498046 -0.001042 0.007963 42131.300000 0 0 1
22.493119 -18.765185 3.139799 29.460667 -0.695287 1.464018 0.007268 0.004181 -696162.000000 0 0 1
22.498019 -17.256685 2.756599 28.487767 -0.654312 1.473880 0.010432 0.008158 77894.800000 0 0 1
21.277119 -16.729485 2.267999 27.161283 -0.666311 1.487198 0.008502 0.009505 -86667.600000 0 0 1
21.396919 -15.416985 1.664199 26.425010 -0.624368 1.507776 0.018040 -0.005900 885910.000000 0 0 1
20.003319 -14.857585 1.184799 24.945628 -0.638849 1.523283 0.004703 0.002229 592446.000000 0 1 0
18.978819 -14.659885 2.098099 24.073010 -0.657705 1.483530 0.001127 -0.003447 123111.000000 0 1 0
18.270119 -13.393585 2.003199 22.741991 -0.632589 1.482598 0.020501 -0.011453 36551.000000 0 1 0
19.023419 -12.052785 2.236099 22.630958 -0.564743 1.471828 0.028361 -0.006531 -813578.000000 0 1 0
19.699719 -11.586485 1.112099 22.881484 -0.531664 1.522175 0.017438 -0.008983 -40235.600000 0 1 0
20.287019 -10.394385 1.495999 22.843914 -0.473492 1.505262 0.026031 -0.009084 -611896.000000 0 1 0
21.007719 -9.638285 0.397999 23.116643 -0.430146 1.553578 0.027625 0.002477 -336055.000000 0 1 0
20.184419 -9.165885 -0.657401 22.177836 -0.426264 1.600443 0.013028 0.007902 792371.000000 0 1 0
21.065419 -8.735685 -1.677201 22.866506 -0.393108 1.644210 0.017916 0.009083 -257087.000000 0 1 0
20.382719 -8.137585 -2.931301 22.141998 -0.379851 1.703573 0.034700 0.004025 -436827.000000 0 1 0
21.127519 -7.754485 -4.091001 22.874448 -0.351767 1.750610 0.021495 0.004377 749336.000000 0 1 0
22.122719 -8.600385 -4.718601 24.200135 -0.370778 1.767036 0.022471 0.005702 37462.100000 0 1 0
21.708719 -9.971585 -5.362301 24.483776 -0.430590 1.791601 0.017265 0.002988 -147930.000000 0 1 0
20.897519 -9.866485 -6.533601 24.015449 -0.441110 1.846328 0.000217 0.001318 622873.000000 0 1 0
19.530919 -9.528685 -6.370601 22.645909 -0.453902 1.855959 -0.001576 -0.000468 -320528.000000 0 1 0
18.763419 -9.361085 -7.692901 22.335544 -0.462768 1.922422 -0.002895 0.002634 -545231.000000 0 1 0
18.667819 -10.597485 -8.427201 23.061047 -0.516321 1.944891 -0.000704 0.003833 449713.000000 0 1 0
19.766719 -10.915785 -9.243301 24.399102 -0.504554 1.959336 -0.003998 0.002151 -347857.000000 0 1 0
19.610919 -12.388985 -9.642001 25.120575 -0.563431 1.964736 -0.011459 0.000563 -330897.000000 0 0 1
18.583419 -12.509285 -10.580301 24.774351 -0.592472 2.012043 0.006090 -0.001689 -55949.300000 0 1 0
18.437419 -13.819785 -11.075701 25.565524 -0.643214 2.018868 0.015830 0.006778 37704.800000 0 0 1
17.429519 -14.078985 -12.225401 25.523840 -0.679459 2.070288 0.026953 0.003637 100799.000000 0 0 1
17.293719 -15.433285 -12.496901 26.333088 -0.728612 2.065272 0.026936 0.003787 308341.000000 0 0 1
16.553119 -15.692985 -13.693001 26.604019 -0.758730 2.111450 0.044066 -0.000297 -23609.400000 0 0 1
16.541519 -17.181685 -14.096901 27.704779 -0.804379 2.104616 0.035491 -0.005038 -376698.000000 0 0 1
15.761619 -17.906485 -13.188201 27.258017 -0.849018 2.075820 0.030985 -0.003006 202373.000000 0 0 1
15.774919 -19.317685 -13.502401 28.360816 -0.886012 2.067003 0.035034 -0.005141 -679566.000000 0 0 1
14.862619 -20.131585 -12.608601 28.020617 -0.934842 2.037535 0.027708 -0.007603 -839656.000000 0 0 1
13.517019 -19.881185 -12.848501 27.259041 -0.973695 2.061615 0.021920 -0.009504 -964749.000000 0 0 1
12.665719 -20.662885 -12.069901 27.075040 -1.020895 2.032858 0.016653 -0.005257 312008.000000 0 0 1
11.157019 -20.323785 -12.201001 26.199232 -1.068749 2.055223 0.010637 -0.006025 -77675.300000 0 0 1
10.357319 -20.947285 -11.282601 25.949179 -1.111601 2.020608 -0.002914 -0.003414 -558776.000000 0 0 1
8.995319 -20.735785 -11.614301 25.412212 -1.161490 2.045456 -0.007177 -0.002763 601148.000000 0 0 1
8.048519 -21.329685 -10.506201 25.102079 -1.209977 2.002632 -0.010255 -0.005922 257715.000000 0 0 1
8.118319 -22.747085 -10.500001 26.336040 -1.227992 1.980888 0.002478 0.000308 -16747.400000 0 0 1
7.134419 -23.213585 -9.609101 26.117145 -1.272621 1.947571 0.001438 -0.008505 25082.600000 0 0 1
7.065419 -24.781485 -9.710901 27.538042 -1.293057 1.931183 0.006380 -0.002091 -129288.000000 0 0 1
8.248119 -25.343275 -9.234401 28.206156 -1.256152 1.904336 -0.004493 0.008649 -700282.000000 0 0 1
8.229419 -26.728605 -9.530901 29.546230 -1.272119 1.899246 -0.017480 0.005141 674896.000000 0 0 1
9.631119 -27.418675 -9.534201 30.585016 -1.232998 1.887807 -0.013287 0.011739 382949.000000 0 0 1
10.254319 -27.479515 -8.304801 30.483512 -1.213638 1.846720 -0.002100 0.003478 -485136.000000 0 0 1
11.422019 -28.270695 -8.415601 31.630951 -1.186826 1.840095 0.023354 0.016111 -136030.000000 0 0 1
12.008319 -28.514005 -6.983801 31.717845 -1.172202 1.792801 0.019444 0.000932 -153860.000000 0 0 1
11.546619 -29.581575 -6.216901 32.358057 -1.198653 1.764127 0.028251 -0.009923 -81363.800000 0 0 1
10.211119 -29.493275 -5.754701 31.736994 -1.237494 1.753130 0.022560 -0.004946 58260.400000 0 0 1
9.842719 -30.627725 -4.783301 32.524093 -1.259854 1.718401 0.033924 -0.008192 11255.400000 0 0 1
9.894919 -31.976985 -5.278701 33.886600 -1.270703 1.727209 0.047378 -0.016065 -244931.000000 0 0 1
8.990819 -32.367375 -6.304501 34.179358 -1.299853 1.756312 0.044206 -0.010886 236418.000000 0 0 1
9.177419 -33.841705 -6.571201 35.674454 -1.305979 1.756053 0.043049 -0.010838 -119345.000000 0 0 1
8.744119 -34.610600 -5.447701 36.111365 -1.323332 1.722233 0.042059 -0.010605 -62733.600000 0 0 1
8.990119 33.363945 -5.594001 35.003827 1.307591 1.731296 0.041354 -0.008830 -150923.000000 0 0 1
8.629219 32.505595 -4.338101 33.910120 1.311313 1.699077 0.022985 -0.001480 115586.000000 0 0 1
7.230019 32.386345 -4.179501 33.445728 1.351155 1.696088 0.018066 -0.000018 -264710.000000 0 0 1
6.975419 31.304195 -3.330001 32.244348 1.351551 1.674255 0.006914 -0.000187 70383.500000 0 0 1
5.740919 30.502285 -3.780901 31.267279 1.384760 1.692015 0.002234 -0.004006 -41759.800000 0 0 1
5.940019 29.723735 -4.984901 30.718618 1.373554 1.733793 -0.002151 0.000409 663.948000 0 0 1
5.429619 30.456755 -6.031701 31.519456 1.394377 1.763348 -0.007768 -0.003918 -394441.000000 0 0 1
5.517919 29.646885 -7.360601 31.041322 1.386781 1.810199 0.017979 -0.007713 8032.350000 0 0 1
4.708519 28.483135 -7.457701 29.817385 1.406969 1.823593 0.016628 -0.009203 78326.100000 0 0 1
5.120619 27.379725 -6.650201 28.637305 1.385910 1.805157 0.004523 -0.008475 -411966.000000 0 0 1
4.367119 26.114915 -7.049201 27.399849 1.405102 1.830994 0.011788 -0.005759 541625.000000 0 0 1
2.978119 25.954135 -6.759101 26.984658 1.456551 1.823972 0.004785 -0.011817 -406289.000000 0 0 1
2.114419 26.543935 -7.619601 27.696743 1.491307 1.849499 0.009959 -0.015176 -873483.000000 0 0 1
1.669019 25.726705 -8.868501 27.263516 1.506012 1.902113 0.020168 -0.016096 402400.000000 0 0 1
2.701819 25.726195 -9.898601 27.696917 1.466158 1.936268 0.016142 -0.014160 857125.000000 0 0 1
2.428919 24.872515 -11.030201 27.316789 1.473450 1.986450 0.034687 -0.013178 -478977.000000 0 0 1
2.180719 23.371185 -10.847001 25.857789 1.477758 2.003676 0.048302 -0.009459 58954.200000 0 0 1
0.983019 23.048485 -10.167001 25.210452 1.528172 1.985900 0.058048 -0.009891 70259.000000 0 0 1
0.861919 21.664385 -9.987101 23.871126 1.531032 2.002453 0.037500 -0.005531 469850.000000 0 1 0
-0.364981 21.162785 -9.134301 23.052812 -1.553552 1.978207 0.046857 -0.000746 2216240.000000 0 1 0
-1.646481 21.130385 -9.847101 23.370269 -1.493033 2.005732 0.052885 -0.004786 1738130.000000 0 1 0
-2.724381 20.537285 -9.093001 22.624875 -1.438911 1.984390 0.040735 -0.004277 355044.000000 0 1 0
-3.944581 20.394985 -9.995901 23.052834 -1.379746 2.019290 0.038742 -0.006258 -63896.800000 0 1 0
-4.967981 19.562385 -9.446801 22.284743 -1.322098 2.008558 0.028241 -0.010346 -135244.000000 0 1 0
-6.041281 19.399585 -10.314101 22.786436 -1.268902 2.040523 0.029207 -0.002649 -504185.000000 0 1 0
-6.946081 18.205885 -9.858801 21.838000 -1.206314 2.039188 0.029247 -0.001174 203534.000000 0 1 0
-7.844881 18.313485 -8.787101 21.774734 -1.166078 1.986185 0.026272 -0.007665 -325594.000000 0 1 0
-9.078381 18.840985 -9.192301 22.845089 -1.121780 1.984906 0.023308 -0.008942 -324086.000000 0 1 0
-10.066981 19.061785 -8.005401 22.995265 -1.084904 1.926375 0.029117 -0.015621 106244.000000 0 1 0
-10.320981 17.864685 -7.331701 21.895740 -1.046912 1.912238 0.028741 -0.017336 196517.000000 0 1 0
-11.262481 18.157985 -6.284401 22.272171 -1.015620 1.856845 0.027202 -0.016624 -222272.000000 0 1 0
-11.795481 16.904785 -5.602101 21.360914 -0.961575 1.836159 0.023528 -0.025623 23403.300000 0 1 0
-12.713081 17.319285 -4.581801 21.967543 -0.937587 1.780910 0.035456 -0.017411 282378.000000 0 1 0
-13.264481 16.267985 -3.858601 21.342038 -0.886751 1.752594 0.046867 -0.014492 -350631.000000 0 1 0
-14.460181 16.751885 -3.002301 22.332404 -0.858690 1.705642 0.041915 -0.008634 488605.000000 0 1 0
-15.493281 17.188885 -3.932201 23.472574 -0.837233 1.739113 0.046400 -0.010281 640442.000000 0 1 0
-16.644481 17.667585 -3.283301 24.494129 -0.815207 1.705245 0.046555 -0.006000 -654502.000000 0 1 0
-17.888981 17.702085 -4.149301 25.506786 -0.780147 1.734197 0.039610 -0.016316 -742464.000000 0 0 1
-17.798981 18.558285 -5.259401 26.246427 -0.806280 1.772548 0.032024 -0.019554 651826.000000 0 0 1
-19.043781 18.854085 -5.899901 27.439951 -0.780393 1.787500 0.011730 -0.013828 498961.000000 0 0 1
-18.773581 19.731885 -7.112401 28.149260 -0.810281 1.826232 0.009287 -0.006893 -27587.500000 0 0 1
-18.296381 21.006985 -6.705001 28.653237 -0.854255 1.806991 0.008968 -0.013941 251169.000000 0 0 1
-18.462181 21.933685 -7.739701 29.695818 -0.871125 1.834474 0.010008 -0.002958 -97057.000000 0 0 1
-18.428281 23.440585 -7.331801 30.705339 -0.904545 1.811905 0.009122 -0.007972 -376949.000000 0 0 1
-17.164481 23.846685 -6.902101 30.181497 -0.946915 1.801525 0.012159 -0.008559 -192136.000000 0 0 1
-17.315881 24.642885 -5.723901 30.657373 -0.958279 1.758604 0.008770 -0.014048 60972.900000 0 0 1
-15.930981 25.032645 -5.157001 30.116841 -1.004035 1.742877 0.004564 -0.011244 -432106.000000 0 0 1
-15.959281 25.775455 -3.986501 30.577196 -1.016403 1.701543 -0.002339 -0.007806 -61921.300000 0 0 1
-14.735081 26.333795 -3.570601 30.386519 -1.060650 1.688575 0.001498 -0.004518 29571.100000 0 0 1
-14.074381 27.405015 -4.470001 31.130434 -1.096352 1.714884 0.009996 -0.005600 -67160.000000 0 0 1
-14.787181 28.630445 -4.408201 32.523766 -1.094048 1.706753 0.011222 -0.001066 403787.000000 0 0 1
-14.140981 29.520515 -5.317901 33.161849 -1.124071 1.731854 0.015881 -0.002638 -43057.100000 0 0 1
-14.518281 30.969635 -4.953301 34.560584 -1.132426 1.714614 0.018759 -0.002236 607808.000000 0 0 1
-15.842381 31.458045 -5.161701 35.598213 -1.104270 1.716308 0.033570 -0.002226 360377.000000 0 0 1
-16.101581 32.558995 -4.315301 36.578284 -1.111530 1.689046 0.034847 -0.008735 147188.000000 0 0 1
12.558808 -8.382285 19.106082 24.352182 -0.588540 0.668788 0.020338 0.007754 -255292.000000 0 1 0
12.956908 -9.648285 19.459082 25.290843 -0.640064 0.692876 0.025444 0.009854 -97222.600000 0 0 1
13.142708 -10.523685 18.367082 24.916429 -0.675182 0.741957 0.020688 -0.002072 -217989.000000 0 1 0
13.412008 -11.949385 18.798882 26.001303 -0.727791 0.762665 0.035190 -0.004462 -73626.200000 0 0 1
14.701708 -12.127785 19.353382 27.162047 -0.689755 0.777719 0.031754 -0.004061 244419.000000 0 0 1
14.813608 -13.317885 20.134182 28.323036 -0.732279 0.780053 0.033831 -0.009475 -275576.000000 0 0 1
15.372508 -14.588485 19.511682 28.807007 -0.759236 0.826677 0.034669 -0.009646 -284720.000000 0 0 1
14.608108 -15.072885 18.398682 27.912366 -0.801056 0.851097 0.038229 -0.012060 343990.000000 0 0 1
15.075308 -16.281085 17.879282 28.495743 -0.823833 0.892539 0.043043 -0.012638 -234458.000000 0 0 1
14.653608 -16.461985 16.380682 27.460006 -0.843451 0.931627 0.048865 -0.014323 995151.000000 0 0 1
13.237708 -16.438085 16.098882 26.544709 -0.892828 0.919168 0.071681 -0.016647 927667.000000 0 0 1
12.969408 -16.400085 14.671782 25.542700 -0.901682 0.958923 0.083783 -0.033324 16225.300000 0 0 1
12.358808 -17.713585 14.091082 25.788948 -0.961614 0.992736 0.059651 -0.018563 558845.000000 0 0 1
13.349908 -18.772685 13.948282 26.929321 -0.952636 1.026333 0.054761 -0.011587 597496.000000 0 0 1
12.890608 -19.890185 13.230282 27.144569 -0.995766 1.061686 0.047566 -0.012973 -177270.000000 0 0 1
14.034708 -20.899385 12.929982 28.300915 -0.979430 1.096317 0.046195 -0.007512 81343.800000 0 0 1
14.427008 -21.569385 14.147582 29.555558 -0.981273 1.071648 0.044492 -0.008027 58808.300000 0 0 1
14.768108 -22.909485 13.874682 30.585100 -0.998206 1.099949 0.011886 -0.000784 -731034.000000 0 0 1
15.552908 -23.647285 14.940582 32.004813 -0.989025 1.085101 0.012172 -0.003635 580552.000000 0 0 1
16.957608 -23.340585 14.972582 32.504178 -0.942487 1.092085 -0.006552 0.001789 534622.000000 0 0 1
17.555608 -23.857285 16.145082 33.734746 -0.936407 1.071749 0.003128 -0.006208 -799368.000000 0 0 1
18.946008 -23.298685 16.383682 34.208259 -0.888071 1.071350 -0.003446 -0.005345 211713.000000 0 0 1
19.938108 -24.017185 15.608382 34.899498 -0.877934 1.107121 0.008209 -0.016937 -54538.100000 0 0 1
21.181808 -23.379485 15.614782 35.200721 -0.834676 1.111193 0.013587 -0.005774 -62968.800000 0 0 1
22.398608 -24.127385 15.021882 36.186811 -0.822538 1.142721 0.006765 -0.012572 5407.360000 0 0 1
22.831708 -25.046525 15.970882 37.465776 -0.831625 1.130421 0.022244 -0.009964 749742.000000 0 0 1
24.007408 -25.716505 15.445282 38.422012 -0.819756 1.157107 0.027109 -0.018637 559442.000000 0 0 1
24.369308 -26.835025 16.407382 39.789244 -0.833515 1.145756 0.034053 -0.018408 -211321.000000 0 0 1
24.841608 -26.409185 17.650882 40.324982 -0.815975 1.117740 0.015047 -0.001294 132068.000000 0 0 1
25.457908 -27.465785 18.379382 41.716617 -0.823319 1.114555 0.032488 0.001870 99413.800000 0 0 1
25.772008 -27.153735 19.861782 42.379383 -0.811499 1.083016 0.024790 0.004484 847534.000000 0 0 1
24.535208 -26.938565 20.579082 41.846880 -0.832055 1.056674 0.042327 0.006713 854289.000000 0 0 1
24.742108 -26.385025 21.813782 42.239585 -0.817521 1.028120 0.031790 0.011268 268985.000000 0 0 1
23.374508 -26.358695 22.549582 41.828604 -0.845330 1.001434 0.029516 0.002230 390513.000000 0 0 1
22.840908 -27.636865 22.687482 42.429061 -0.880125 1.006625 0.028785 0.003046 -575888.000000 0 0 1
21.589108 -27.709765 23.295082 42.149514 -0.908920 0.985223 0.026026 -0.003116 -440769.000000 0 0 1
20.956508 -29.073855 23.228682 42.708734 -0.946245 0.995735 0.038989 -0.007581 -63150.700000 0 0 1
21.693408 -29.998425 24.082052 44.163953 -0.944701 0.994064 0.027719 -0.013652 575778.000000 0 0 1
22.028108 -31.157515 23.382482 44.752305 -0.955393 1.021032 0.044478 -0.016458 -69759.200000 0 0 1
23.149908 -31.988025 24.052582 46.235038 -0.944337 1.023683 0.007206 -0.013318 151485.000000 0 0 1
22.742208 -32.334785 25.364302 46.969077 -0.957835 1.000334 0.009687 -0.012168 407770.000000 0 0 1
23.867808 -32.403655 26.229582 48.038111 -0.935941 0.993195 0.015456 -0.004834 -14182.500000 0 0 1
23.361308 -32.605665 27.736752 48.766869 -0.949095 0.965796 0.003136 -0.011020 564498.000000 0 0 1
22.828608 -33.951685 27.988932 49.570582 -0.978845 0.970814 0.004741 -0.013514 546364.000000 0 0 1
21.673208 -34.394732 27.281342 48.959138 -1.008515 0.979754 0.007771 -0.011525 -385911.000000 0 0 1
21.150908 33.535366 27.796482 48.421339 1.008105 0.959347 0.049151 -0.026237 -496513.000000 0 0 1
20.436208 33.702324 28.989502 48.927257 1.025703 0.936635 0.044015 -0.014876 77560.900000 0 0 1
20.027408 32.418905 29.496062 48.188175 1.017413 0.912081 0.049959 -0.022748 225419.000000 0 0 1
19.462608 32.492175 30.939832 48.906112 1.031117 0.885842 0.035261 -0.024259 858980.000000 0 0 1
20.561708 32.829635 31.812852 50.126104 1.011252 0.883233 0.021241 -0.010332 1020740.000000 0 0 1
20.081908 33.294118 33.051882 51.031444 1.028052 0.866265 -0.000997 -0.002718 22802.600000 0 0 1
21.253808 33.277810 34.066847 52.150619 1.002421 0.858941 -0.012861 0.007226 283372.000000 0 0 1
21.575608 32.010775 34.496473 51.770679 0.977727 0.841517 -0.009874 -0.000075 -118820.000000 0 0 1
22.731308 31.992445 -33.849401 51.826739 0.953044 2.282502 -0.021880 0.007372 -74910.200000 0 0 1
23.302008 30.602895 -33.474391 50.990741 0.920019 2.286939 -0.012471 0.009151 -19853.200000 0 0 1
23.817508 29.803615 -34.486823 51.428301 0.896575 2.305788 -0.003934 0.004480 -127620.000000 0 0 1
22.874308 28.780815 34.428483 50.367547 0.899249 0.818188 0.002429 -0.007613 89020.000000 0 0 1
23.170608 27.959805 33.117362 49.146592 0.878792 0.831391 0.033393 -0.016980 549994.000000 0 0 1
24.331008 27.113155 33.116582 49.232399 0.839426 0.833001 0.021036 -0.022821 879882.000000 0 0 1
24.309308 26.348645 31.915802 47.998042 0.825633 0.843383 0.035821 -0.029239 -560568.000000 0 0 1
25.576808 25.531825 31.698652 48.071320 0.784518 0.850764 0.014042 -0.022068 -391561.000000 0 0 1
25.551008 24.435695 32.593322 48.086192 0.763090 0.826016 0.022500 -0.024167 225480.000000 0 0 1
26.695508 24.448985 33.411638 49.261959 0.741501 0.825426 0.030963 -0.031219 -569416.000000 0 0 1
26.557908 23.460785 -34.507688 49.462223 0.723558 2.342919 0.028409 -0.030587 -903755.000000 0 0 1
25.733908 23.862685 -33.460491 48.489857 0.747687 2.332356 0.029085 -0.015943 218172.000000 0 0 1
24.360108 23.524085 -33.529111 47.654997 0.767941 2.351219 0.020297 -0.014723 -163581.000000 0 0 1
24.034908 22.015685 -33.374091 46.649728 0.741578 2.368020 0.011652 -0.006605 -862071.000000 0 0 1
23.940608 21.544085 -32.080401 45.458250 0.732758 2.354223 0.004584 -0.011332 317349.000000 0 0 1
23.889308 20.115685 -32.052901 44.751852 0.699853 2.369190 0.011078 -0.007749 -360446.000000 0 0 1
23.690508 19.498085 -30.664591 43.378942 0.688629 2.355903 0.011198 -0.004459 69370.700000 0 0 1
22.369008 19.670385 -30.178191 42.403064 0.721293 2.362709 0.001097 -0.014416 376435.000000 0 0 1
22.246208 18.911785 -28.990611 41.146141 0.704560 2.352623 0.005113 -0.014852 575396.000000 0 0 1
20.842608 19.233585 -28.366581 40.112442 0.745271 2.356293 0.016713 -0.022512 317320.000000 0 0 1
20.625408 18.840385 -27.044351 38.881416 0.740199 2.339995 0.018771 -0.016663 -9877.790000 0 0 1
21.380808 19.614185 -26.107901 39.031753 0.742331 2.303509 0.013847 -0.014859 -69597.800000 0 0 1
21.500008 18.950085 -24.701001 37.835110 0.722443 2.282149 0.018982 -0.007193 92988.700000 0 0 1
22.225608 17.715285 -24.765101 37.697735 0.672950 2.287547 0.036582 -0.023953 378022.000000 0 0 1
22.444808 17.130385 -23.500101 36.735191 0.651910 2.264925 0.044656 -0.026625 -634720.000000 0 0 1
23.341808 15.896385 -23.588601 36.796157 0.597878 2.266677 0.048909 -0.028361 61931.400000 0 0 1
24.712108 16.360085 -23.598101 37.884179 0.584784 2.243242 0.058932 -0.033632 1166790.000000 0 0 1
25.711908 15.339985 -23.708001 38.190139 0.537923 2.240544 0.054611 -0.033606 437951.000000 0 0 1
25.846108 14.332785 -22.576001 37.190400 0.506325 2.223125 0.044110 -0.028993 -465038.000000 0 0 1
24.648608 13.592485 -22.320501 35.923729 0.503956 2.241236 0.028576 -0.022805 392421.000000 0 0 1
24.563608 13.068085 -21.033201 34.878951 0.488926 2.218096 0.016221 -0.026890 -532715.000000 0 0 1
23.181508 12.473085 -20.803201 33.551950 0.493631 2.239577 0.017204 -0.009429 -669260.000000 0 0 1
22.153708 13.394685 -20.650001 33.115358 0.543813 2.244107 0.042165 -0.014335 293269.000000 0 0 1
21.016208 12.994785 -21.460701 32.727773 0.553783 2.285950 0.037425 -0.014123 356073.000000 0 0 1
19.864908 13.988685 -21.441201 32.404058 0.613533 2.293857 0.040989 -0.014423 -1051510.000000 0 0 1
20.164208 15.284085 -21.977001 33.513984 0.648589 2.285980 0.032047 -0.010911 -251931.000000 0 0 1
19.075208 16.143885 -21.956401 33.265179 0.702358 2.291670 0.017522 -0.003307 -361067.000000 0 0 1
17.927908 15.840785 -22.975601 33.169543 0.723670 2.335983 0.017829 0.008689 124950.000000 0 0 1
16.947908 14.996585 -22.387101 31.832553 0.724389 2.350793 0.006591 0.005927 509224.000000 0 0 1
15.845308 14.684485 -23.219101 31.714895 0.747394 2.392225 0.005228 -0.006345 -23006.200000 0 0 1
14.590408 14.072585 -22.621301 30.375005 0.767334 2.410933 -0.000822 -0.009476 -163141.000000 0 0 1
13.479908 14.206685 -23.488001 30.581433 0.811642 2.446583 0.016057 -0.012417 -1303030.000000 0 0 1
12.373608 13.606585 -22.957201 29.415615 0.832821 2.466170 0.030509 -0.013770 -1234910.000000 0 0 1
11.151508 13.988485 -23.815201 29.785863 0.897770 2.497337 0.023854 -0.007335 -587141.000000 0 0 1
10.889808 15.378685 -23.700501 30.278798 0.954648 2.469857 -0.001481 -0.005767 -2866.590000 0 0 1
10.145408 15.961285 -24.735001 31.136991 1.004592 2.488804 0.009421 -0.009985 -932182.000000 0 0 1
10.223708 17.513085 -24.490801 31.796725 1.042392 2.449999 -0.003036 0.003751 1100680.000000 0 0 1
11.518808 18.183385 -24.445901 32.571775 1.006122 2.419651 -0.007898 -0.001244 1398730.000000 0 0 1
12.502308 17.909585 -25.466951 33.550358 0.961361 2.432674 -0.000627 -0.006027 16916.000000 0 0 1
12.207108 18.064285 -26.966041 34.677071 0.976525 2.461689 0.012295 -0.014309 -813474.000000 0 0 1
13.234708 17.604885 -27.800231 35.467483 0.926168 2.471595 0.003493 -0.019227 -292652.000000 0 0 1
12.801808 17.119685 -29.053481 36.070413 0.928716 2.507257 0.012102 -0.027928 -150264.000000 0 0 1
13.767308 17.587485 -30.156531 37.526987 0.906638 2.504109 0.012708 -0.015348 721878.000000 0 0 1
15.054508 16.952785 -30.189771 37.755230 0.844636 2.497456 -0.002724 -0.019751 254578.000000 0 0 1
15.842708 17.528885 -31.190701 39.129440 0.835883 2.493300 -0.004755 -0.011374 -543072.000000 0 0 1
17.072408 16.658885 -31.416751 39.446138 0.773139 2.492193 0.013711 -0.018112 -1061270.000000 0 0 1
17.990608 16.640085 -30.344081 39.004073 0.746420 2.462228 0.017863 -0.016324 824440.000000 0 0 1
19.119508 15.789285 -30.662141 39.433793 0.690288 2.461572 0.028893 -0.014770 1847300.000000 0 0 1
20.359108 16.442085 -31.448651 40.912750 0.679360 2.447565 0.026160 -0.015373 584264.000000 0 0 1
20.155508 16.827185 -32.785871 42.003714 0.695643 2.466337 0.023078 -0.013446 108113.000000 0 0 1
21.276708 17.581885 -33.172231 43.153423 0.690599 2.447610 0.024800 -0.002718 -34552.500000 0 0 1
21.061408 18.108585 34.566639 44.343616 0.710156 0.676901 0.019828 0.017397 -183074.000000 0 0 1
22.152908 18.877485 34.177236 44.890915 0.705738 0.705419 0.016007 0.009967 -43506.000000 0 0 1
21.942608 19.234785 32.824482 43.919263 0.719733 0.726683 0.030756 0.002113 41645.200000 0 0 1
22.763708 20.479685 32.374722 44.561492 0.732629 0.757555 0.036533 -0.001272 86028.400000 0 0 1
24.102608 20.220885 32.038482 44.903054 0.698044 0.776311 0.026460 -0.004202 -447740.000000 0 0 1
24.787308 21.455185 31.881292 45.729120 0.713465 0.799344 0.034983 -0.020123 1318650.000000 0 0 1
26.342908 21.227485 31.625682 46.311324 0.678276 0.819081 0.013953 -0.018641 1478570.000000 0 0 1
27.000308 20.737985 32.784292 47.264051 0.654963 0.804265 0.017102 -0.013824 -188974.000000 0 0 1
28.376208 20.536485 32.507292 47.787869 0.626470 0.822704 0.006676 -0.010421 384212.000000 0 0 1
29.152008 19.792585 33.629824 48.708840 0.596454 0.808719 -0.001979 -0.012698 171658.000000 0 0 1
29.198608 20.544685 -34.279388 49.494639 0.613150 2.335867 -0.003402 -0.012570 246725.000000 0 0 1
27.992008 20.286385 -33.583551 48.196938 0.627125 2.341721 -0.003522 -0.012227 16012.000000 0 0 1
28.056308 20.636385 -32.055711 47.334823 0.634179 2.314763 0.010055 -0.011831 29280.300000 0 0 1
29.129208 19.985685 -31.404261 47.266965 0.601339 2.297490 0.016545 -0.020834 103333.000000 0 0 1
29.462208 20.388685 -30.134091 46.816489 0.605356 2.270073 0.001629 -0.020327 24627.900000 0 0 1
30.773608 19.806885 -29.549391 47.037157 0.571886 2.250052 0.056876 -0.010713 1118710.000000 0 0 1
31.951608 20.410785 -30.122611 48.423931 0.568464 2.242168 0.016557 -0.008657 1651740.000000 0 0 1
33.220708 20.089485 -29.521141 48.771925 0.543889 2.220926 0.051299 -0.010399 568435.000000 0 0 1
34.436708 20.813885 -30.069781 50.232424 0.543656 2.212565 0.047498 -0.010424 -545986.000000 0 0 1
35.086208 20.281085 -31.215081 51.154137 0.524113 2.227130 0.026142 -0.003712 -62289.900000 0 0 1
-34.191602 21.240385 -31.629421 51.192186 -0.555874 2.236810 0.031637 -0.012751 -350747.000000 0 0 1
-33.270802 20.752485 -32.744421 51.086290 -0.557696 2.266549 0.012632 -0.012405 -517169.000000 0 0 1
-32.323802 19.807285 -32.368681 49.848654 -0.549761 2.277511 0.027898 -0.009695 -350276.000000 0 0 1
-31.577202 19.407885 -33.463061 49.935580 -0.551098 2.305173 0.022555 0.000442 -355887.000000 0 0 1
-30.869002 18.017885 -33.367091 48.896853 -0.528339 2.321834 0.010330 0.005008 5248.710000 0 0 1
-31.679602 16.864885 -33.230021 48.910693 -0.489198 2.317744 0.009787 0.007265 51325.400000 0 0 1
-30.897302 15.688785 -33.143371 47.950645 -0.469846 2.333941 -0.001857 0.012825 -199585.000000 0 0 1
-31.768002 14.445485 -33.362051 48.279441 -0.426771 2.333695 -0.006619 0.013830 -344570.000000 0 0 1
-31.173702 13.195485 -33.640621 47.724333 -0.400421 2.353071 0.000109 0.008220 433432.000000 0 0 1
-32.223002 12.219685 -33.519631 48.075027 -0.362467 2.342331 0.007340 0.003023 444533.000000 0 0 1
-31.745802 10.752885 -33.688511 47.521956 -0.326589 2.358740 0.000536 0.005360 -144093.000000 0 0 1
-31.335602 10.370485 34.177445 47.513837 -0.319603 0.767980 -0.008106 0.003479 139283.000000 0 0 1
-31.678002 9.014285 33.954171 47.303688 -0.277232 0.770172 -0.002991 -0.003683 -286140.000000 0 0 1
-30.703202 8.332185 32.965162 45.812813 -0.264996 0.767625 0.015800 -0.006543 -276081.000000 0 0 1
-29.501502 8.080285 33.629918 45.459884 -0.267338 0.738066 0.010029 0.000851 -864658.000000 0 0 1
-28.614102 7.314985 32.862492 44.183925 -0.250282 0.732110 0.012034 0.002977 -152195.000000 0 0 1
19.210308 -4.044885 -31.792901 37.365567 -0.207527 2.588418 0.001337 -0.016025 -117783.000000 0 0 1
20.244108 -3.969385 -32.757271 38.711998 -0.193620 2.579570 0.023203 -0.033557 -316431.000000 0 0 1
21.334208 -3.254985 -32.258901 38.812112 -0.151404 2.551979 0.017733 -0.023753 -342790.000000 0 0 1
21.591808 -1.837585 -32.835371 39.341384 -0.084901 2.558251 0.013558 -0.018345 -202223.000000 0 0 1
22.605708 -1.105785 -32.169111 39.333097 -0.048877 2.528485 0.012555 -0.021198 360126.000000 0 0 1
22.519308 0.196915 -32.773281 39.764884 0.008744 2.539543 -0.001383 -0.016256 -224910.000000 0 0 1
23.453208 1.182515 -32.051281 39.733310 0.050378 2.509276 0.017304 -0.016979 584438.000000 0 0 1
24.820308 1.020615 -32.463891 40.877788 0.041097 2.488436 0.038248 -0.027712 296790.000000 0 0 1
25.627408 1.933015 -31.726341 40.829662 0.075285 2.460748 0.045018 -0.020975 -58235.700000 0 0 1
27.145808 1.828015 -31.924711 41.945485 0.067239 2.435804 0.040329 -0.023067 -42773.900000 0 0 1
27.691608 2.331015 -33.130671 43.242342 0.083980 2.443645 0.042264 -0.024192 -59961.600000 0 0 1
27.819108 1.299915 -34.102287 44.029065 0.046693 2.456784 0.029131 -0.025996 -425500.000000 0 0 1
28.654908 1.707615 33.786346 44.334376 0.059522 0.704277 0.021631 -0.035136 -145178.000000 0 0 1
28.139008 2.679215 32.893472 43.370065 0.094927 0.709884 0.024557 -0.023819 -4614.050000 0 0 1
28.149608 3.988915 33.325208 43.805039 0.140767 0.706310 0.018856 -0.014205 364189.000000 0 0 1
27.221808 4.977615 32.501272 42.686487 0.180856 0.705334 0.018809 -0.006382 174601.000000 0 0 1
27.517908 6.317515 32.796862 43.275634 0.225668 0.710770 0.014514 -0.000797 -19774.400000 0 0 1
26.996208 7.187115 31.800852 42.328998 0.260192 0.720800 0.013180 0.001721 -625948.000000 0 0 1
27.311908 8.697915 31.955112 42.926953 0.308311 0.731150 0.002293 0.013384 708559.000000 0 0 1
28.704408 9.038915 31.869642 43.832855 0.305067 0.756749 -0.010766 0.013672 221306.000000 0 0 1
28.886808 10.411915 31.806912 44.210127 0.345944 0.767788 -0.010242 0.007961 -537452.000000 0 0 1
30.289308 10.792415 31.332262 44.895758 0.342286 0.798350 -0.015525 0.015069 -1002250.000000 0 0 1
31.275308 10.480915 32.292432 46.160542 0.323356 0.796004 -0.017122 0.014917 271948.000000 0 0 1
32.565708 10.933415 31.897542 46.877693 0.323910 0.822431 -0.020137 0.017125 155732.000000 0 0 1
32.868908 12.424415 31.862512 47.433648 0.361397 0.834257 -0.009567 0.012845 -963378.000000 0 0 1
33.022608 12.933715 33.189227 48.572610 0.373298 0.818536 0.002669 0.012597 -63644.600000 0 0 1
33.429808 14.265815 33.272613 49.276083 0.403343 0.829522 -0.000662 0.016076 119843.000000 0 0 1
32.340708 15.359715 33.044952 48.721773 0.443395 0.825434 0.012417 0.007505 -952162.000000 0 0 1
31.899808 15.427815 31.737452 47.569750 0.450469 0.840384 0.008367 0.007116 166912.000000 0 0 1
30.941308 16.474215 31.585582 47.184885 0.489257 0.837395 0.007784 0.006489 842717.000000 0 0 1
29.468508 16.103215 31.972042 46.367208 0.500117 0.809943 0.015625 0.010330 -23762.500000 0 0 1
28.824308 15.385915 30.939542 44.998027 0.490307 0.812652 0.006476 0.015623 1051340.000000 0 0 1
27.499408 14.895415 31.269572 44.225298 0.496420 0.785476 0.003876 0.013841 947398.000000 0 0 1
26.835708 14.199215 30.122022 42.768086 0.486669 0.789345 0.003102 0.018068 -197347.000000 0 0 1
27.235508 12.843715 29.940722 42.463876 0.440654 0.788251 -0.007420 0.016794 -67707.000000 0 0 1
26.511308 12.237015 28.905482 41.086749 0.432440 0.790453 -0.000981 0.011084 -263120.000000 0 0 1
26.545008 10.730415 28.822512 40.626549 0.384152 0.782079 -0.004258 0.018869 -179608.000000 0 0 1
27.661408 10.192415 28.137182 40.752176 0.353034 0.808691 -0.012570 0.014270 -156782.000000 0 0 1
27.380808 8.837015 27.782782 39.996056 0.312191 0.802880 0.001430 0.012589 512910.000000 0 0 1
28.543208 8.058015 27.037402 40.133122 0.275149 0.831602 -0.013543 0.002700 270859.000000 0 0 1
28.717908 8.244715 25.673632 39.393261 0.279574 0.860938 -0.010126 0.006258 321151.000000 0 0 1
29.740508 7.425715 25.095952 39.616233 0.244681 0.884758 -0.012109 0.012882 177225.000000 0 0 1
30.006908 7.905215 23.624382 39.000236 0.257594 0.920089 -0.006628 0.014990 -283654.000000 0 0 1
30.721908 9.148815 23.518982 39.757754 0.289432 0.937808 -0.008155 0.006441 527101.000000 0 0 1
29.990308 10.373215 23.182582 39.299546 0.333005 0.939868 -0.005709 0.005074 54973.300000 0 0 1
29.407608 10.448415 21.751082 38.040589 0.341385 0.962115 -0.011185 0.026457 -80172.900000 0 0 1
30.470308 10.526215 20.833482 38.383263 0.332623 0.997058 0.001948 0.012451 94001.000000 0 0 1
30.103108 10.540815 19.472582 37.369605 0.336815 1.022680 -0.001620 0.010095 -1071420.000000 0 0 1
31.058808 11.343115 18.572182 37.924158 0.350164 1.059029 0.018258 -0.007769 331099.000000 0 0 1
32.254408 10.692615 18.162082 38.529730 0.320107 1.079943 0.028313 0.000004 690424.000000 0 0 1
33.288408 10.672615 19.137882 39.853248 0.310257 1.069904 0.035532 0.005115 212069.000000 0 0 1
34.636008 9.946215 18.811182 40.650226 0.279639 1.089693 0.031320 -0.006688 490885.000000 0 0 1
34.497808 8.542415 18.593782 40.109854 0.242739 1.088775 0.032463 -0.003239 104.753000 0 0 1
-34.694002 8.005415 17.815882 39.814145 -0.226774 1.106855 0.025731 0.005946 -496478.000000 0 0 1
-34.870602 6.505615 17.582282 39.590638 -0.184444 1.110625 0.019322 0.012226 -529196.000000 0 0 1
34.168208 6.112615 16.939882 38.623699 0.177025 1.116770 0.002447 0.023297 -62875.700000 0 0 1
34.265008 4.859915 16.265582 38.239753 0.140893 1.131439 0.002659 0.020729 -3893.870000 0 0 1
33.151808 3.835315 16.610682 37.278235 0.115177 1.108967 -0.006967 0.019209 55729.300000 0 0 1
33.358308 3.167415 17.821982 37.953028 0.094667 1.081981 0.007422 0.027399 -53815.900000 0 0 1
32.142808 2.604915 18.244982 37.051654 0.080865 1.055928 -0.000178 0.025860 -72759.600000 0 0 1
32.297608 1.827615 19.591982 37.819591 0.056526 1.026241 0.005852 0.011589 239089.000000 0 0 1
32.970408 0.579415 19.416082 38.267059 0.017572 1.038650 0.010190 0.010629 -102754.000000 0 0 1
32.911708 -0.170985 20.625882 38.841174 -0.005195 1.010979 0.018420 0.001174 379196.000000 0 0 1
33.368208 -1.664485 20.528182 39.212423 -0.049841 1.019828 0.031758 0.003847 123623.000000 0 0 1
32.962708 -2.471785 21.603782 39.488901 -0.074847 0.991919 0.046489 0.009602 -35006.700000 0 0 1
33.322408 -3.854185 21.516482 39.852185 -0.115152 1.000469 0.035356 0.008426 -210322.000000 0 0 1
32.695008 -4.601885 22.646682 40.037646 -0.139833 0.969594 0.017425 0.009569 -178433.000000 0 0 1
33.233208 -4.204785 23.867882 41.131523 -0.125855 0.951721 0.020103 0.003408 396526.000000 0 0 1
32.497208 -4.799585 24.949172 41.250040 -0.146632 0.921247 0.017958 -0.002445 298204.000000 0 0 1
32.979508 -4.273385 26.330492 42.417032 -0.128859 0.901094 0.007264 -0.001711 -80746.700000 0 0 1
32.244108 -4.703885 27.470882 42.619930 -0.144862 0.870355 0.012193 -0.002033 -17044.100000 0 0 1
32.525108 -3.952285 28.600772 43.491464 -0.120922 0.853144 0.005427 0.002183 -313505.000000 0 0 1
31.528608 -4.275385 29.703662 43.527458 -0.134781 0.819739 0.009525 -0.008967 -282886.000000 0 0 1
31.634008 -5.568385 30.228482 44.107579 -0.174240 0.815732 0.013566 -0.011922 -132323.000000 0 0 1
30.551108 -6.014085 31.010822 43.945541 -0.194368 0.787435 0.032826 -0.024777 -201184.000000 0 0 1
30.639708 -7.528485 31.336822 44.468711 -0.240937 0.788805 0.029454 -0.025563 -621245.000000 0 0 1
31.703808 -7.873685 32.136712 45.824608 -0.243426 0.793579 0.018818 -0.025306 -988548.000000 0 0 1
32.353908 -9.001985 31.600902 46.113210 -0.271371 0.815795 0.009127 -0.011573 -783049.000000 0 0 1
33.684308 -9.285185 32.241922 47.543547 -0.268973 0.825546 0.006271 -0.005767 -637289.000000 0 0 1
33.489108 -9.676985 33.555477 48.385271 -0.281297 0.804452 0.009058 -0.015274 81347.100000 0 0 1
34.760108 -9.850485 34.145651 49.711393 -0.276145 0.813612 0.000145 -0.012575 -335335.000000 0 0 1
34.718708 -10.071085 -33.503821 49.288148 -0.282328 2.318224 0.021206 -0.019547 -619061.000000 0 0 1
34.365008 -8.897285 -32.794821 48.328209 -0.253342 2.316631 0.011674 -0.025524 518771.000000 0 0 1
-34.834302 -8.020485 -32.303471 48.179571 0.226303 2.305653 0.019210 -0.019024 -44377.400000 0 0 1
34.804808 -6.870085 -31.510601 47.449876 -0.194884 2.297061 0.017253 -0.021938 -169123.000000 0 0 1
34.611508 -7.071485 -30.147341 46.441626 -0.201537 2.277256 0.014325 -0.016743 332628.000000 0 0 1
33.997708 -5.959385 -29.513161 45.413491 -0.173525 2.278218 0.020049 -0.022310 -225391.000000 0 0 1
34.461008 -5.800885 -28.090241 44.836068 -0.166768 2.247864 0.005454 -0.019357 -413563.000000 0 0 1
-34.482202 -5.257885 -27.936141 44.688876 0.151316 2.246088 0.004669 -0.017917 -528649.000000 0 0 1
-34.218102 -5.158085 -26.555761 43.619867 0.149615 2.225343 0.003278 -0.012227 -32872.500000 0 0 1
-32.761602 -5.002785 -26.082481 42.174000 0.151532 2.237564 -0.011465 -0.007236 -849907.000000 0 0 1
-32.593402 -4.315485 -24.841101 41.207203 0.131638 2.217845 -0.004066 0.000581 148093.000000 0 0 1
-31.312602 -4.422885 -24.247601 39.849556 0.140321 2.224938 0.003047 -0.001230 45459.100000 0 0 1
-30.325502 -3.355885 -24.774201 39.302151 0.110214 2.252803 0.011084 -0.002105 -468902.000000 0 0 1
-30.069702 -3.569485 -26.163481 40.018196 0.118154 2.283378 0.016998 0.000149 -591722.000000 0 0 1
-28.990302 -2.864085 -26.673271 39.498152 0.098475 2.312174 0.015911 -0.004780 -470145.000000 0 0 1
-28.365702 -3.580585 -27.872311 39.928679 0.125565 2.343470 0.017685 0.008049 304918.000000 0 0 1
-29.292302 -3.730985 -28.969061 41.366239 0.126689 2.346624 0.014202 0.006845 396590.000000 0 0 1
-28.680202 -4.453385 -29.979851 41.727427 0.154047 2.372395 0.019406 -0.000434 -859485.000000 0 0 1
-29.547802 -4.549685 -31.247831 43.245800 0.152777 2.378300 0.004792 0.001601 435900.000000 0 0 1
-30.683302 -5.455185 -31.297531 44.167404 0.175951 2.358325 0.008179 -0.003447 1472700.000000 0 0 1
-31.784102 -5.035785 -30.466371 44.314648 0.157131 2.328839 0.025924 -0.013081 98569.900000 0 0 1
-32.764802 -3.938685 -31.027131 45.296009 0.119637 2.325381 0.042855 -0.015329 -745601.000000 0 0 1
-32.248902 -2.669985 -31.427101 45.108571 0.082605 2.341582 0.044585 -0.007478 -126560.000000 0 0 1
-31.813902 -1.822685 -30.362601 44.015158 0.057230 2.332039 0.027210 -0.002859 -139021.000000 0 0 1
-31.532402 -0.426285 -30.871181 44.130533 0.013518 2.345553 0.028625 -0.002826 19894.100000 0 0 1
-32.707202 0.189015 -31.347031 45.303788 -0.005779 2.334955 0.032751 -0.005220 -152548.000000 0 0 1
-32.529602 1.559615 -31.666451 45.424350 -0.047908 2.342176 0.038804 0.000423 1116540.000000 0 0 1
-33.843402 2.283715 -32.212961 46.778907 -0.067377 2.330383 0.015955 -0.003110 1014800.000000 0 0 1
-34.246502 1.943715 -33.507021 47.951240 -0.056696 2.344477 0.011156 -0.008274 1424900.000000 0 0 1
34.647408 2.511515 -33.760831 48.441143 0.072361 2.341925 0.002524 -0.011342 1377110.000000 0 0 1
33.805208 1.930815 34.220112 48.140796 0.057054 0.780113 -0.002055 -0.012359 -115702.000000 0 0 1
34.175408 2.231415 32.884602 47.479836 0.065200 0.805707 -0.014177 -0.001081 345306.000000 0 0 1
-34.988502 1.403415 32.409922 47.713394 -0.040089 0.824039 -0.020317 0.004124 -195734.000000 0 0 1
-34.776002 1.642015 30.884952 46.539734 -0.047182 0.845141 -0.011066 -0.000910 -350278.000000 0 0 1
-34.254902 2.942015 30.633292 46.048370 -0.085676 0.842979 0.001193 -0.001141 221174.000000 0 0 1
-34.031902 3.104415 29.249522 44.981578 -0.090969 0.862876 0.008691 -0.004604 -12710.900000 0 0 1
-33.672202 4.489615 28.799122 44.534967 -0.132551 0.867595 0.017060 -0.002860 -209676.000000 0 0 1
-33.264502 4.545615 27.412292 43.343091 -0.135809 0.886086 0.020023 -0.003424 292207.000000 0 0 1
-32.776802 5.807815 27.039272 42.885566 -0.175373 0.888601 0.021796 0.002639 -398399.000000 0 0 1
-31.904802 5.863515 25.773622 41.431592 -0.181753 0.899404 0.026784 0.001502 -334565.000000 0 0 1
-30.597702 5.368515 26.014902 40.519323 -0.173687 0.873644 0.016286 0.003278 867602.000000 0 0 1
-29.642302 5.684815 24.960702 39.166566 -0.189480 0.879812 0.012439 0.001060 497163.000000 0 0 1
-29.928302 5.299815 23.463482 38.396957 -0.175267 0.913376 0.027499 -0.002138 -587771.000000 0 0 1
-29.919002 3.905515 23.228582 38.078430 -0.129802 0.914711 0.019596 0.007758 -57102.200000 0 0 1
-30.572102 3.679215 22.024882 37.858757 -0.119770 0.949900 0.030565 0.007314 -845498.000000 0 0 1
-30.563302 2.219115 21.597682 37.489996 -0.072480 0.956857 0.019820 0.013359 214632.000000 0 0 1
-29.327702 1.743015 21.070582 36.154138 -0.059363 0.948628 0.006458 0.023671 197526.000000 0 0 1
-29.097002 2.163515 19.776382 35.248002 -0.074219 0.975126 0.009739 0.018348 -377177.000000 0 0 1
-27.897502 1.412015 19.179082 33.883648 -0.050571 0.969117 0.005755 0.024586 -289310.000000 0 0 1
-28.153802 0.049115 18.947382 33.935856 -0.001745 0.978426 0.014071 0.017463 -282111.000000 0 0 1
-27.161702 -0.652985 18.270782 32.741502 0.024036 0.978785 0.016400 0.016425 -521751.000000 0 0 1
-27.163102 -0.488185 16.730982 31.906085 0.017970 1.018807 0.024910 0.018801 62274.900000 0 0 1
-26.877302 0.835415 16.215682 31.401205 -0.031073 1.028151 0.022860 0.018776 267756.000000 0 0 1
-26.944002 0.841915 14.812982 30.758942 -0.031237 1.068336 0.032444 0.019674 -9921.340000 0 0 1
-26.518302 2.227315 14.273882 30.198096 -0.083795 1.078473 0.030182 0.016148 -270574.000000 0 0 1
-25.137902 2.431715 14.127982 28.938336 -0.096435 1.060759 0.029732 0.012293 -180978.000000 0 0 1
-24.942802 3.687515 13.459582 28.581489 -0.146776 1.080463 0.031511 0.010168 -258604.000000 0 0 1
-23.471602 4.065415 13.242882 27.254681 -0.171504 1.063411 0.026104 0.007745 -226029.000000 0 0 1
-22.779002 4.422015 14.418682 27.319143 -0.191742 1.014804 0.015326 0.013750 386353.000000 0 0 1
-21.448102 4.827115 14.155182 26.147492 -0.221372 0.998744 0.024974 0.012507 232554.000000 0 0 1
-20.535402 5.315615 15.306182 26.157938 -0.253292 0.945738 0.006437 0.017621 -24351.000000 0 0 1
-20.847002 6.570615 15.919182 27.040541 -0.305327 0.941328 0.002187 0.027050 470080.000000 0 0 1
-19.964202 6.823815 17.005982 27.098658 -0.329353 0.892383 -0.004955 0.029032 -369.418000 0 0 1
-20.054702 8.236315 17.564482 27.902312 -0.389690 0.889888 -0.014338 0.030763 -260100.000000 0 0 1
-19.505202 9.174515 16.652582 27.238450 -0.439658 0.913014 -0.006353 0.032744 453177.000000 0 0 1
-19.969702 10.495515 16.855282 28.161062 -0.483895 0.929130 0.005624 0.034156 -25186.700000 0 0 1
-19.460402 11.266815 18.169582 28.909896 -0.524806 0.891186 0.013332 0.029088 -42771.900000 0 0 1
-19.832002 10.612115 19.361182 29.677950 -0.491332 0.860081 0.008200 0.021145 395483.000000 0 0 1
-19.590102 11.369715 20.545582 30.580443 -0.525869 0.834088 0.021476 0.013835 -355285.000000 0 0 1
-12.261992 -33.452855 -21.764501 41.750969 1.219458 2.119162 0.047471 0.007441 62354.700000 0 0 1
-12.928992 -34.356955 -20.831301 42.207846 1.210874 2.086953 0.065666 0.008312 922493.000000 0 0 1
-13.986092 -33.721455 -20.086201 41.667766 1.177636 2.073796 0.063636 -0.009735 953518.000000 0 0 1
-14.844992 34.498715 -19.254601 42.205151 -1.164440 2.044533 0.063191 -0.007259 -1272070.000000 0 0 1
-15.455792 33.562815 -20.119701 42.073108 -1.139242 2.069410 0.045285 -0.010727 38647.300000 0 0 1
-16.378792 32.701615 -19.462101 41.429866 -1.106464 2.059815 0.049928 -0.008025 1175540.000000 0 0 1
-17.693892 33.478915 -19.010701 42.371197 -1.084603 2.036073 0.050231 -0.003429 -632273.000000 0 0 1
-17.523792 34.136215 -17.767401 42.285281 -1.096527 2.004439 0.055741 -0.013750 798512.000000 0 0 1
-18.801992 34.554215 -17.245301 42.952405 -1.072471 1.983948 0.033831 -0.014947 757425.000000 0 0 1
-19.131092 33.910715 -15.900501 42.056643 -1.057146 1.958511 0.037357 -0.010826 -129533.000000 0 0 1
-19.211892 32.511215 -15.903001 40.975375 -1.037072 1.969378 0.039399 -0.015758 262783.000000 0 0 1
-19.838992 32.173315 -14.658101 40.540939 -1.018239 1.940740 0.037637 -0.012437 -96606.000000 0 0 1
-19.823492 30.648415 -14.386801 39.233611 -0.996672 1.946251 0.027474 -0.012710 323646.000000 0 0 1
-18.548192 30.118915 -14.059301 38.063741 -1.018817 1.949119 0.023519 -0.019810 439031.000000 0 0 1
-18.719992 28.712715 -14.161201 37.086355 -0.993033 1.962587 0.025474 -0.019511 -89628.800000 0 0 1
-17.430792 28.067215 -13.644001 35.745767 -1.015052 1.962426 0.030218 -0.016888 -143671.000000 0 0 1
-16.348092 28.242415 -14.523201 35.718587 -1.046074 1.989526 0.045591 -0.026003 686133.000000 0 0 1
-15.149692 27.564215 -14.045901 34.446864 -1.068249 1.990791 0.050602 -0.026313 1516230.000000 0 0 1
-13.837792 27.925715 -14.803601 34.503285 -1.110738 2.014236 0.053807 -0.027231 115532.000000 0 0 1
-13.822792 27.564715 -16.154501 34.811650 -1.105976 2.053363 0.040951 -0.029662 284439.000000 0 0 1
-12.727292 28.208715 -16.823101 35.224030 -1.146959 2.068721 0.054671 -0.022536 292103.000000 0 0 1
-12.916692 28.173115 -18.331701 36.008563 -1.140916 2.104927 0.068468 -0.040235 -86544.300000 0 0 1
-12.648092 26.929815 -18.977801 35.289462 -1.131707 2.138592 0.041906 -0.030878 181578.000000 0 0 1
-12.769292 27.052615 -20.364301 36.188445 -1.129785 2.168480 0.042262 -0.034958 -11725.800000 0 0 1
-11.958192 25.945315 -21.063801 35.494245 -1.138915 2.206126 0.019286 -0.025147 -985480.000000 0 0 1
-10.588892 26.018115 -20.950101 35.042455 -1.184286 2.211612 0.007563 -0.020352 -1015540.000000 0 0 1
-9.949792 25.068315 -21.824901 34.695030 -1.192959 2.251127 0.028060 -0.026319 333837.000000 0 0 1
-8.805192 25.591115 -22.709901 35.329537 -1.239412 2.268947 0.030713 -0.022136 83895.600000 0 0 1
-9.338492 26.359815 -23.742201 36.684321 -1.230323 2.274706 0.030877 -0.019834 999951.000000 0 0 1
-8.236292 26.541315 -24.671101 37.161016 -1.269899 2.296815 0.014020 -0.015265 730995.000000 0 0 1
-8.532892 27.249615 -26.065001 38.661816 -1.267330 2.310649 0.010170 -0.008814 949.212000 0 0 1
-9.409792 26.457315 -26.899441 38.885905 -1.229089 2.334710 0.012271 -0.008472 98008.200000 0 0 1
-9.786292 27.117415 -28.025421 40.206342 -1.224457 2.342057 0.021912 -0.004687 107730.000000 0 0 1
-11.058492 26.521015 -28.688191 40.603778 -1.175746 2.355393 0.012750 0.001036 380780.000000 0 0 1
-11.508892 27.333415 -29.813281 42.052371 -1.172271 2.358813 0.022207 0.003806 -156544.000000 0 0 1
-12.807092 26.936115 -30.164701 42.420338 -1.126971 2.361844 0.015398 0.007230 -716813.000000 0 0 1
-13.069092 27.162315 -31.672521 43.723462 -1.122344 2.380935 0.016188 0.000398 -67355.300000 0 0 1
-12.181292 26.632315 -32.671391 43.875778 -1.141816 2.410783 0.011832 0.003814 190595.000000 0 0 1
-12.078192 25.195215 -32.665321 42.984937 -1.123777 2.433994 0.006131 0.001828 -69328.200000 0 0 1
-11.204092 24.719715 -33.852851 43.389071 -1.145247 2.465808 -0.003426 0.005933 279145.000000 0 0 1
-11.832992 24.687915 34.011458 43.661106 -1.123843 0.677747 0.005174 0.006659 268922.000000 0 0 1
-10.966492 23.984115 33.105349 42.325712 -1.141938 0.672676 0.004980 0.004602 313285.000000 0 0 1
-11.460592 24.067515 31.626132 41.361851 -1.126382 0.700344 0.001470 0.012949 -588599.000000 0 0 1
-12.642492 23.357215 31.450562 41.164669 -1.074683 0.701278 0.019246 0.001058 -576562.000000 0 0 1
-13.065592 23.482215 30.078672 40.334237 -1.063050 0.729158 0.022165 0.006632 -148033.000000 0 0 1
-14.340692 22.692515 29.798452 40.106776 -1.007210 0.733288 0.014944 0.000044 -5368.450000 0 0 1
-14.055692 21.306115 29.797842 39.235499 -0.987631 0.708312 -0.017058 -0.001419 132946.000000 0 0 1
-15.285792 20.602515 29.724742 39.264225 -0.932475 0.712020 -0.007765 -0.014972 316013.000000 0 0 1
-15.118492 19.073015 29.830502 38.499449 -0.900545 0.684351 -0.014524 -0.021594 -53477.800000 0 0 1
-14.555292 18.571215 28.627382 37.098161 -0.906039 0.689340 -0.009725 -0.014965 -111845.000000 0 0 1
-14.279792 17.204215 28.635332 36.330149 -0.878018 0.662922 -0.020102 -0.012179 -219208.000000 0 0 1
-13.922892 16.558415 27.315192 34.844623 -0.871647 0.669851 0.000407 -0.015377 187407.000000 0 0 1
-12.654192 17.008615 26.878112 34.232360 -0.931155 0.667831 -0.024780 -0.015317 -152484.000000 0 0 1
-12.109792 16.209015 25.842562 32.820988 -0.929152 0.664250 -0.033015 -0.007817 799848.000000 0 0 1
-10.921492 16.970515 25.105622 32.211328 -0.998964 0.677083 -0.020591 -0.004610 545326.000000 0 0 1
-11.210192 18.077415 24.217552 32.232766 -1.015713 0.720716 -0.010688 -0.004823 -16563.800000 0 0 1
-11.890392 19.222615 24.786302 33.544763 -1.016840 0.739357 -0.006492 -0.013571 269005.000000 0 0 1
-10.993892 20.134315 25.664892 34.423001 -1.071008 0.729401 -0.033259 -0.004821 181432.000000 0 0 1
-10.742192 19.551815 26.953352 34.987874 -1.068397 0.691387 -0.032873 -0.003700 80773.100000 0 0 1
-11.725192 19.943715 27.899462 36.243784 -1.039311 0.692312 -0.010205 0.000457 -96456.300000 0 0 1
-11.277292 19.477315 29.330642 36.970660 -1.045964 0.654505 -0.013488 -0.000824 84612.800000 0 0 1
-10.128892 20.139315 29.848632 37.404910 -1.104799 0.646849 -0.034922 0.002912 4755.310000 0 0 1
-10.210392 20.123615 31.295762 38.582855 -1.101259 0.624712 -0.033063 -0.000321 -561232.000000 0 0 1
-9.095492 20.865515 31.956792 39.234351 -1.159721 0.618911 -0.034244 -0.001361 -942909.000000 0 0 1
-7.907492 20.210715 32.235662 38.860512 -1.197854 0.592544 -0.036505 -0.004175 -792947.000000 0 0 1
-7.017892 21.072315 32.874262 39.673800 -1.249311 0.594169 -0.034401 0.000419 494003.000000 0 0 1
-5.675792 20.458715 33.409726 39.585142 -1.300176 0.566105 -0.023075 0.003728 419757.000000 0 0 1
-5.857592 19.638915 34.565905 40.184576 -1.280932 0.535177 -0.018366 -0.006954 -82611.000000 0 0 1
-4.687592 18.987615 -34.124626 39.331834 -1.328760 2.621168 -0.023250 -0.003151 164390.000000 0 0 1
-4.114892 17.849115 34.144834 38.747812 -1.344217 0.492387 -0.032338 -0.001245 -74230.600000 0 0 1
-4.893592 16.649815 34.178604 38.331979 -1.284934 0.469826 -0.027376 -0.000493 309335.000000 0 0 1
-4.594092 15.889615 33.005572 36.918198 -1.289346 0.464559 -0.034421 0.008842 -15832.100000 0 0 1
-5.278592 14.479415 32.995622 36.417415 -1.221211 0.436966 -0.010334 -0.002792 -270656.000000 0 0 1
-4.730292 13.551315 33.942397 36.852410 -1.234955 0.400064 -0.009789 -0.002766 -146343.000000 0 0 1
-5.361492 12.310515 33.930897 36.491097 -1.160048 0.376817 -0.000265 0.006005 300804.000000 0 0 1
-4.423792 11.097015 34.400416 36.415688 -1.191457 0.334242 0.004020 -0.009192 718524.000000 0 0 1
-4.023892 11.180315 -33.365401 35.418091 -1.225322 2.799468 0.016790 -0.010838 696355.000000 0 0 1
-3.096792 10.086615 -33.075791 34.717976 -1.272912 2.832794 0.013880 -0.005081 638690.000000 0 0 1
-3.146792 9.639015 -31.620141 33.206117 -1.255241 2.831281 0.028187 -0.004645 -57290.000000 0 0 1
-4.326092 8.917315 -31.373551 32.901874 -1.119112 2.835602 0.030732 -0.001195 5067.490000 0 0 1
-4.654092 8.679915 -30.015361 31.589926 -1.078617 2.824533 0.041475 0.002437 153597.000000 0 0 1
-5.810992 7.707915 -29.692031 31.221728 -0.924804 2.827268 0.044733 0.001053 -41543.000000 0 0 1
-5.737592 7.122415 -28.381801 29.819044 -0.892669 2.829852 0.042444 0.004571 -70904.400000 0 0 1
-6.594892 6.028515 -28.143501 29.527822 -0.740561 2.834175 0.048131 -0.005442 -389166.000000 0 0 1
-6.447192 5.251115 -26.760721 28.022789 -0.683509 2.840331 0.038394 -0.007722 -336571.000000 0 0 1
-6.857092 5.835415 -25.560291 27.099820 -0.705077 2.802902 0.022409 -0.003690 3993.420000 0 0 1
-6.381592 7.172215 -25.306271 27.066081 -0.843664 2.779002 0.029528 0.001697 -374241.000000 0 0 1
-7.021192 7.872115 -24.115901 26.321930 -0.842471 2.729265 0.012770 0.003665 96090.400000 0 0 1
-6.708592 7.268915 -22.891901 24.937551 -0.825464 2.733726 0.001797 0.003854 901587.000000 0 1 0
-7.846792 7.387615 -22.002401 24.500095 -0.755267 2.686121 -0.002940 -0.001559 832634.000000 0 1 0
-7.376392 7.634515 -20.550301 23.130323 -0.802592 2.664769 -0.015397 0.000377 -249389.000000 0 1 0
-6.909392 8.954915 -20.320901 23.256595 -0.913629 2.633696 -0.024678 0.001805 77544.800000 0 1 0
-6.762792 9.217715 -18.970301 22.148904 -0.937826 2.599226 -0.014654 0.002896 -94158.100000 0 1 0
-8.100692 9.584915 -18.290601 22.181927 -0.869125 2.540242 -0.025315 0.015383 -385957.000000 0 1 0
-7.936692 9.519115 -16.891201 20.950353 -0.875804 2.508580 -0.021462 0.008087 -446253.000000 0 1 0
-9.011992 9.945015 -16.117701 20.973784 -0.834576 2.447241 -0.012263 0.004576 -507648.000000 0 1 0
-9.497992 11.426315 -16.325501 22.074748 -0.877296 2.403206 -0.016245 0.001788 -868765.000000 0 1 0
-8.492492 12.382815 -16.149401 22.051297 -0.969645 2.392572 -0.030582 0.009506 13662.200000 0 1 0
-9.015292 13.677815 -16.358801 23.150993 -0.988038 2.355497 -0.021211 0.001984 638619.000000 0 1 0
-7.875392 14.773715 -16.146701 23.259416 -1.081046 2.338105 -0.010208 0.005648 693664.000000 0 1 0
-7.306892 14.863415 -14.830701 22.231992 -1.113889 2.301090 -0.009029 0.007731 222126.000000 0 1 0
-8.138092 15.294215 -13.769501 22.130086 -1.081798 2.242355 -0.016920 -0.005770 -1178610.000000 0 1 0
-7.305492 15.970415 -12.702601 21.674419 -1.141773 2.196989 -0.021612 -0.004350 -29347.900000 0 1 0
-6.973292 17.323115 -12.887301 22.689197 -1.188100 2.174861 -0.004879 -0.007207 64076.200000 0 1 0
-6.171192 17.568415 -14.044801 23.323577 -1.232994 2.217015 0.017866 -0.001486 -491214.000000 0 1 0
-6.155292 19.039215 -14.496701 24.708980 -1.258107 2.197771 0.042184 0.001134 -242975.000000 0 1 0
-5.641992 19.899015 -13.502101 24.700397 -1.294516 2.149137 0.044080 -0.006191 -102823.000000 0 1 0
-5.504392 21.252815 -13.895501 25.982021 -1.317369 2.135082 0.044871 -0.009121 78893.400000 0 0 1
-5.072792 22.226915 -12.749001 26.120988 -1.346412 2.080679 0.050026 -0.005897 -707798.000000 0 0 1
-5.026392 23.623915 -13.066001 27.460415 -1.361155 2.066684 0.042496 -0.009033 -171259.000000 0 0 1
-6.209092 24.355215 -13.341501 28.455667 -1.321175 2.058787 0.033708 -0.011834 345348.000000 0 0 1
-7.204892 24.483115 -12.121401 28.253526 -1.284595 2.014207 0.021673 -0.012127 37265.000000 0 0 1
-7.779592 23.228715 -11.837901 27.207189 -1.247625 2.020948 0.022556 -0.007074 -357671.000000 0 0 1
-8.481692 23.120415 -10.582001 26.804318 -1.219191 1.976633 0.025229 -0.006225 225762.000000 0 0 1
-7.664392 23.330715 -9.265101 26.247043 -1.253392 1.931568 0.026075 -0.004139 9255.320000 0 0 1
-7.299192 24.708615 -9.109701 27.327285 -1.283555 1.910657 0.023931 -0.006893 -112210.000000 0 0 1
-6.828692 24.973015 -7.792501 27.037115 -1.303878 1.863159 0.028118 -0.008029 2038.550000 0 0 1
-6.707892 26.495115 -7.431701 28.323438 -1.322832 1.836291 0.022327 -0.008857 -23849.000000 0 0 1
-5.681492 27.202215 -8.074101 28.938400 -1.364895 1.853559 0.019550 -0.009665 -316545.000000 0 0 1
-5.676192 27.273615 -9.483201 29.427884 -1.365605 1.898904 0.022455 -0.010282 -216332.000000 0 0 1
-5.026092 28.588015 -10.052101 30.717763 -1.396764 1.904178 0.016793 -0.008783 322650.000000 0 0 1
-5.862692 29.734615 -10.021901 31.921106 -1.376126 1.890156 0.008330 -0.004118 75810.000000 0 0 1
-6.704192 29.864415 -11.148501 32.574815 -1.349970 1.920099 0.009940 -0.002070 65139.500000 0 0 1
-7.780592 30.973615 -11.189001 33.839270 -1.324688 1.907790 0.008158 0.006357 220941.000000 0 0 1
-8.950092 30.590815 -10.477601 33.551188 -1.286166 1.888396 0.016667 0.008029 247988.000000 0 0 1
-9.951592 31.597815 -10.596001 34.781192 -1.265685 1.880365 0.010267 -0.000700 372609.000000 0 0 1
-11.177192 31.361615 -9.686101 34.674213 -1.228434 1.853909 0.026119 0.005275 248846.000000 0 0 1
-11.882492 30.150615 -9.987801 33.911788 -1.195383 1.869753 0.037176 -0.001215 -315033.000000 0 0 1
-13.064592 30.112815 -9.216801 34.094202 -1.161449 1.844536 0.053517 0.000533 154794.000000 0 0 1
-13.979992 29.023915 -9.845101 33.686107 -1.121919 1.867385 0.055744 -0.006702 -208037.000000 0 0 1
-13.859392 27.703715 -9.287601 32.339420 -1.106931 1.862090 0.043806 -0.006777 -24916.400000 0 0 1
-14.658892 26.753915 -9.952901 32.089178 -1.069555 1.886162 0.043485 -0.010169 -222254.000000 0 0 1
-14.874192 25.406815 -9.231601 30.854016 -1.041151 1.874653 0.033016 -0.009074 -341610.000000 0 0 1
-13.796292 24.515115 -9.231401 29.606542 -1.058204 1.887886 0.025601 -0.002261 -24735.100000 0 0 1
-14.243792 23.247115 -8.819201 28.654708 -1.021082 1.883650 0.033292 -0.007870 -49310.000000 0 0 1
-13.255292 22.125215 -9.192601 27.381231 -1.031036 1.913173 0.028941 -0.001152 -176928.000000 0 0 1
-13.186892 21.799915 -10.582501 27.588399 -1.026778 1.964472 0.021008 0.003378 209185.000000 0 0 1
-12.347592 20.677415 -10.674701 26.343268 -1.032472 1.988011 0.013277 -0.001939 -337831.000000 0 0 1
-12.374292 20.012615 -12.076101 26.447308 -1.017012 2.044977 0.008155 0.001384 -362639.000000 0 0 1
-13.611392 19.457615 -12.417901 26.796885 -0.960379 2.052634 0.011201 0.006058 -402693.000000 0 0 1
-13.544892 18.877015 -13.720001 26.982295 -0.948400 2.104217 0.003518 0.006577 821774.000000 0 0 1
-14.983792 18.616715 -14.293201 27.845856 -0.893101 2.109819 0.011569 0.019594 772725.000000 0 0 1
-15.647992 19.795915 -14.681701 29.194010 -0.901896 2.097748 0.001918 0.018563 311971.000000 0 0 1
-16.878492 19.455515 -15.345801 29.981564 -0.856206 2.108123 0.010681 0.015196 733335.000000 0 0 1
-17.462392 20.687815 -16.136301 31.516679 -0.869743 2.108299 0.016515 0.009931 190519.000000 0 0 1
-18.009592 21.799415 -15.412901 32.204307 -0.880312 2.069853 0.002763 0.004440 524589.000000 0 0 1
-18.506892 22.850415 -16.245701 33.594186 -0.890039 2.075544 0.014743 -0.000160 83891.200000 0 0 1
-18.769592 24.145415 -15.467401 34.271550 -0.910016 2.039039 0.016021 -0.002439 419321.000000 0 0 1
-19.996892 24.075215 -14.741201 34.594720 -0.877673 2.010986 0.007330 -0.000756 525104.000000 0 0 1
-20.397392 25.292515 -14.084201 35.413693 -0.892129 1.979810 0.009756 -0.008939 -44223.500000 0 0 1
-25.087252 -1.170085 3.855899 25.408803 0.046607 1.418453 0.012034 -0.020000 -293569.000000 0 0 1
-25.411592 -0.201885 4.828899 25.867122 0.007944 1.383014 0.012305 -0.018496 167958.000000 0 0 1
-26.542962 -0.525185 5.601099 27.132581 0.019784 1.362867 0.026081 -0.018770 -375372.000000 0 0 1
-26.874662 0.304215 6.855599 27.736965 -0.011319 1.321043 0.031502 -0.015163 -626608.000000 0 0 1
-27.463302 1.552715 6.600799 28.288061 -0.056478 1.335283 0.031323 -0.007677 328850.000000 0 0 1
-27.788162 2.503715 7.651199 28.930803 -0.089857 1.303147 0.031997 0.002872 -262321.000000 0 0 1
-26.547802 2.969015 8.421699 28.009388 -0.111374 1.265397 0.022154 -0.004449 -267000.000000 0 0 1
-26.023242 1.958215 9.227999 27.680312 -0.075107 1.230912 0.032953 -0.009731 -724827.000000 0 0 1
-24.878992 2.303515 9.902599 26.876232 -0.092326 1.193453 0.032454 -0.016155 -922540.000000 0 0 1
-24.225292 1.050015 10.539499 26.439522 -0.043317 1.160777 0.025406 -0.011487 -271695.000000 0 0 1
-23.473092 0.247115 9.653199 25.381713 -0.010527 1.180653 0.018376 -0.017007 866557.000000 0 0 1
-24.255592 -0.746185 8.942299 25.862236 0.030754 1.217741 0.014228 -0.008805 138592.000000 0 0 1
-23.264192 -1.691985 8.206299 24.727086 0.072601 1.232506 0.022107 -0.012322 307202.000000 0 1 0
-22.371992 -2.368485 9.068499 24.255997 0.105475 1.187622 0.016843 -0.009328 111333.000000 0 1 0
-21.155992 -2.674785 8.450299 22.937698 0.125764 1.193507 0.018055 -0.008918 -249498.000000 0 1 0
-19.890892 -2.673085 9.337599 22.135576 0.133587 1.135326 0.008588 -0.004116 80545.200000 0 1 0
-19.438192 -1.370285 9.707199 21.770408 0.070378 1.108628 0.010355 -0.004369 -205375.000000 0 1 0
-20.206092 -0.788285 10.691599 22.873955 0.038992 1.084433 0.016634 -0.008534 -896155.000000 0 1 0
-19.920492 0.698515 10.981499 22.757575 -0.035051 1.067241 0.016063 -0.002573 -293858.000000 0 1 0
-20.367592 1.665215 10.069199 22.781582 -0.081577 1.112982 0.005988 0.005076 458324.000000 0 1 0
-20.303892 2.897115 10.710999 23.137994 -0.141731 1.089512 0.000677 0.002551 -377472.000000 0 1 0
-21.166692 3.921815 9.968099 23.722826 -0.183205 1.137141 0.003247 0.001846 -626321.000000 0 1 0
-21.194992 5.212115 10.546499 24.240925 -0.241128 1.120680 -0.005071 0.007697 500984.000000 0 1 0
-21.960492 6.167315 9.862199 24.850793 -0.273785 1.162707 -0.002399 0.009579 -613598.000000 0 1 0
-22.224092 7.409715 10.722199 25.763922 -0.321819 1.141566 0.005370 0.016493 12022.300000 0 0 1
-23.244992 7.052115 11.648399 26.939695 -0.294557 1.123657 0.006387 0.017040 434167.000000 0 0 1
-23.384492 8.082415 12.536699 27.736775 -0.332778 1.101803 0.004515 0.020281 -172684.000000 0 0 1
-24.205892 7.634515 13.779799 28.880683 -0.305524 1.073412 0.013648 0.016382 -361761.000000 0 0 1
-25.545702 7.398115 13.453299 29.804467 -0.281891 1.102479 0.022031 0.015998 -537225.000000 0 0 1
-26.251882 7.073515 14.620799 30.870110 -0.263197 1.077396 0.028395 0.014273 -1131370.000000 0 0 1
-27.672052 6.681815 14.330999 31.871094 -0.236929 1.104417 0.028105 0.025230 -1204940.000000 0 0 1
-27.727592 5.530815 13.516099 31.338382 -0.196886 1.124868 0.033909 0.030790 136010.000000 0 0 1
-28.846032 5.517915 12.646399 31.976121 -0.189005 1.164190 0.010308 0.006062 -95198.500000 0 0 1
-29.116482 4.133315 11.974699 31.752909 -0.141016 1.184110 0.033618 0.008353 -166682.000000 0 0 1
-29.516292 3.152915 12.913799 32.371570 -0.106416 1.160453 0.029357 0.011577 80179.900000 0 0 1
-29.985462 2.096315 12.140599 32.417844 -0.069797 1.186935 0.025694 0.012573 -667475.000000 0 0 1
-31.085422 1.303615 12.802399 33.643785 -0.041912 1.180429 0.025185 0.020130 -995728.000000 0 0 1
-30.658642 0.136515 13.377799 33.450507 -0.004453 1.159358 0.034155 0.011597 -125077.000000 0 0 1
-31.764342 -0.516885 13.980399 34.708675 0.016271 1.156230 0.032996 0.014346 -2435.970000 0 0 1
-31.421102 -1.698985 14.937099 34.832300 0.054019 1.127600 0.024457 0.014452 -102153.000000 0 0 1
-31.075762 -2.904785 14.267799 34.317792 0.093203 1.142023 0.017233 0.010739 118395.000000 0 0 1
-31.257612 -4.046785 15.079599 34.940078 0.128749 1.124548 0.017638 0.017824 -120426.000000 0 0 1
-31.145182 -5.380285 14.297099 34.689722 0.171060 1.145992 0.016392 0.010977 -248809.000000 0 0 1
-32.252382 -5.477685 13.447199 35.370161 0.168233 1.180800 -0.001245 0.000539 -305549.000000 0 0 1
-32.314842 -6.673685 12.682699 35.350218 0.203658 1.203843 -0.001580 0.004559 -1158080.000000 0 0 1
-33.544372 -6.763585 11.787299 36.192698 0.198963 1.239064 0.003080 0.023853 130653.000000 0 0 1
-34.798112 -6.850785 12.463799 37.592394 0.194386 1.232849 -0.013802 0.020339 389129.000000 0 0 1
34.947992 -5.603285 12.992099 37.703496 -0.158979 1.218999 -0.001955 0.010719 799072.000000 0 0 1
33.355129 -5.510285 12.877299 36.176687 -0.163722 1.206860 0.010039 0.006596 1500050.000000 0 0 1
32.641919 -6.455385 13.634099 35.959081 -0.195244 1.181912 0.003034 0.015374 153724.000000 0 0 1
31.272229 -6.278785 13.266199 34.545151 -0.198144 1.176645 0.003394 0.015167 830181.000000 0 0 1
30.285089 -7.365985 13.831099 34.099027 -0.238589 1.153144 -0.008920 0.012105 304719.000000 0 0 1
30.022349 -7.196085 15.218399 34.419831 -0.235253 1.112813 0.004216 0.016654 76647.400000 0 0 1
28.898379 -8.015585 15.482199 33.750028 -0.270570 1.094229 0.020569 0.018480 73958.700000 0 0 1
28.492209 -8.078085 16.970899 34.133163 -0.276269 1.050431 0.003818 0.024106 -21898.700000 0 0 1
29.466689 -8.719285 17.782999 35.504179 -0.287694 1.046192 -0.011744 0.032938 57967.600000 0 0 1
28.925549 -8.977685 19.108999 35.811172 -0.300945 1.007940 -0.003173 0.021389 -381855.000000 0 0 1
29.874249 -9.553585 20.193399 37.303017 -0.309515 0.998773 -0.010141 0.024837 586588.000000 0 0 1
30.940009 -8.677885 20.603299 38.171793 -0.273449 1.000654 -0.001583 0.019086 472066.000000 0 0 1
32.086889 -8.828385 19.764999 38.706124 -0.268496 1.034864 -0.010972 0.026967 -134231.000000 0 0 1
33.307579 -8.104285 20.413399 39.897132 -0.238679 1.033691 0.010574 0.017429 202526.000000 0 0 1
33.737219 -8.788585 21.559999 40.991130 -0.254837 1.016944 0.008912 0.015168 87549.000000 0 0 1
34.848724 -8.191085 22.213899 42.130568 -0.230856 1.015420 -0.003902 0.015250 414664.000000 0 0 1
-34.879472 -8.768685 23.548799 42.988525 0.246295 0.991073 -0.004394 0.017122 375645.000000 0 0 1
34.616330 -8.169585 24.643299 43.270366 -0.231763 0.964876 0.002121 0.007876 432648.000000 0 0 1
34.902311 -8.876985 25.823199 44.314894 -0.249057 0.948724 -0.003192 0.003711 -243830.000000 0 0 1
34.423962 -8.166385 27.131999 44.585248 -0.232924 0.916574 0.012386 0.002677 -497967.000000 0 0 1
-34.868668 -7.422485 27.825999 45.223926 0.209739 0.908038 -0.016082 -0.005163 -1216990.000000 0 0 1
34.812960 -6.827085 28.965099 45.798780 -0.193650 0.886094 -0.015171 -0.010511 -164596.000000 0 0 1
-34.457048 -6.262385 30.063599 46.155450 0.179782 0.861427 -0.009693 -0.002158 405219.000000 0 0 1
-33.998492 -7.329685 30.919799 46.536606 0.212339 0.844080 -0.011827 0.002170 240950.000000 0 0 1
-32.583872 -7.306285 31.112599 45.640818 0.220582 0.820735 -0.012187 -0.004037 595952.000000 0 0 1
-32.118322 -8.022285 32.421799 46.336990 0.244765 0.795825 -0.016660 0.001574 -140135.000000 0 0 1
-32.224182 -9.409085 32.329099 46.605787 0.284091 0.804223 -0.010177 0.001489 105584.000000 0 0 1
-31.729602 -10.048185 33.469499 47.201070 0.306690 0.782599 -0.008572 -0.000318 -395640.000000 0 0 1
-31.943772 -11.581985 33.563499 47.760395 0.347832 0.791544 0.008259 -0.001992 -118336.000000 0 0 1
-33.309332 -11.931085 33.633699 48.816883 0.343953 0.810720 -0.006189 -0.004052 -98950.200000 0 0 1
-33.396542 -13.375885 33.719199 49.307481 0.380952 0.817762 0.004763 -0.009302 1254700.000000 0 0 1
-34.918765 -13.797585 33.841299 50.546286 0.376304 0.837246 0.012286 -0.008897 1142560.000000 0 0 1
35.065317 -15.132085 34.130299 51.219466 -0.407397 0.841488 0.012420 -0.011104 -522209.000000 0 0 1
33.715449 -15.400285 34.353999 50.538080 -0.428472 0.823355 0.002460 -0.009124 -557564.000000 0 0 1
33.384299 -16.837885 -34.412185 50.815591 -0.467134 2.314743 0.002565 -0.003634 -136632.000000 0 0 1
34.024129 -17.233285 -33.204685 50.568553 -0.468836 2.287134 0.006385 -0.008599 320521.000000 0 0 1
33.973449 -18.642285 -33.102085 50.965459 -0.501868 2.277723 0.008124 -0.014024 84869.800000 0 0 1
34.507042 -19.221185 -31.773985 50.692958 -0.508218 2.248227 0.018579 -0.017229 211093.000000 0 0 1
33.475919 -19.162885 -30.816285 49.371011 -0.519907 2.244875 0.009459 -0.011428 -164945.000000 0 0 1
33.885369 -19.900885 -29.666785 49.238009 -0.531029 2.217449 0.003143 -0.001774 -573225.000000 0 0 1
32.795939 -19.883585 -28.554385 47.815097 -0.545026 2.210781 -0.008639 0.004674 1537320.000000 0 0 1
31.562869 -20.591185 -28.893185 47.487132 -0.578051 2.224893 0.002111 -0.002280 1415450.000000 0 0 1
30.762649 -19.864085 -29.832585 47.232463 -0.573361 2.254427 -0.007484 0.004188 -1394520.000000 0 0 1
29.403139 -20.485585 -30.163785 46.840769 -0.608517 2.270465 -0.015834 0.009970 -586843.000000 0 0 1
28.554609 -19.577685 -30.791685 46.333350 -0.601011 2.297713 -0.027975 0.016265 -922621.000000 0 0 1
27.268509 -20.119685 -30.700785 45.726486 -0.635671 2.306893 -0.025267 0.010733 -748150.000000 0 0 1
26.366279 -19.447285 -31.714085 45.597815 -0.635506 2.339936 -0.024463 0.017999 -376610.000000 0 0 1
26.672479 -19.966785 -32.954785 46.862687 -0.642599 2.350713 -0.022929 0.008129 173391.000000 0 0 1
25.604229 -19.770485 -33.870885 46.836796 -0.657531 2.379175 -0.012341 0.009429 330502.000000 0 0 1
26.058719 -20.031385 33.798299 47.144864 -0.655363 0.771446 -0.006977 0.002260 265618.000000 0 0 1
26.825709 -18.957985 33.261299 46.747597 -0.615215 0.779154 -0.017355 0.002684 234166.000000 0 0 1
27.110929 -19.067285 31.900599 46.002305 -0.612941 0.804521 -0.013809 0.009980 356385.000000 0 0 1
26.011159 -18.377485 31.005199 44.448113 -0.615090 0.798811 -0.011903 0.004179 191020.000000 0 0 1
26.082399 -16.962585 31.035599 43.945753 -0.576618 0.786644 -0.009927 -0.000209 643384.000000 0 0 1
25.080419 -16.350285 30.215099 42.536002 -0.577720 0.780813 0.007887 -0.006257 162047.000000 0 0 1
24.806619 -14.910985 30.688099 42.183708 -0.541220 0.756144 0.011747 -0.010554 -670660.000000 0 0 1
25.882549 -14.021485 30.612699 42.469350 -0.496476 0.765814 0.016417 -0.013833 -205310.000000 0 0 1
25.620029 -12.742585 31.169399 42.311828 -0.461540 0.742679 0.029433 -0.021465 -528031.000000 0 0 1
26.850649 -11.853085 31.143499 42.794515 -0.415717 0.755768 0.025660 -0.025756 -259474.000000 0 0 1
27.462749 -11.581985 29.892699 42.212775 -0.399101 0.783931 0.025090 -0.018210 -1268980.000000 0 0 1
28.719359 -11.108285 30.128899 43.080693 -0.369065 0.796295 0.026158 -0.014597 -1249360.000000 0 0 1
29.431409 -10.618485 28.883399 42.581813 -0.346253 0.825345 0.017534 -0.011907 -197113.000000 0 0 1
29.149069 -9.267085 28.663099 41.918019 -0.307815 0.817853 0.019608 -0.008050 -58728.400000 0 0 1
29.807759 -8.866085 27.480799 41.500654 -0.289109 0.847075 0.019111 0.000319 55696.200000 0 0 1
29.930589 -7.350185 27.248799 41.138333 -0.240809 0.846818 0.025564 0.001675 278218.000000 0 0 1
28.654529 -6.769285 27.039399 39.975422 -0.231985 0.827932 0.034306 -0.005343 -39755.800000 0 0 1
28.652639 -5.340085 27.112299 39.806620 -0.184259 0.821532 0.034913 -0.009014 -213882.000000 0 0 1
27.257909 -4.711985 26.999199 38.654277 -0.171175 0.797527 0.034185 -0.005214 -187754.000000 0 0 1
26.753119 -4.961485 25.712199 37.436117 -0.183371 0.813680 0.025564 0.003360 379832.000000 0 0 1
25.325349 -4.883985 25.752899 36.447749 -0.190511 0.786157 0.034046 -0.004625 382109.000000 0 0 1
24.616719 -5.167585 24.381999 35.030967 -0.206917 0.800967 0.026886 0.005860 -219488.000000 0 0 1
25.020819 -4.314685 23.297799 34.459329 -0.170764 0.828346 0.038402 0.016335 148168.000000 0 0 1
24.873719 -4.856785 21.948199 33.526314 -0.192832 0.857069 0.035361 0.014638 -86330.800000 0 0 1
25.083619 -3.755385 20.892399 32.860055 -0.148611 0.881753 0.043317 0.009101 -289055.000000 0 0 1
23.954719 -3.002585 20.628299 31.754855 -0.124694 0.863724 0.039829 0.012724 -509390.000000 0 0 1
24.374719 -1.822085 19.982299 31.571177 -0.074614 0.885466 0.047406 0.007070 168810.000000 0 0 1
23.191519 -0.992385 19.443099 30.279787 -0.042765 0.873543 0.010871 0.007471 -528805.000000 0 0 1
22.432719 -1.605385 18.466399 29.100035 -0.071443 0.883327 0.028450 0.001786 -217885.000000 0 0 1
21.471119 -0.707885 17.920299 27.975832 -0.032957 0.875564 0.023666 0.002313 614669.000000 0 0 1
20.268319 -1.371685 17.165299 26.595747 -0.067573 0.869230 0.010215 0.003597 148230.000000 0 0 1
20.585719 -1.980585 15.938699 26.110088 -0.095916 0.914178 0.018387 -0.012851 -22351.700000 0 0 1
19.525219 -2.715985 15.369399 24.996583 -0.138214 0.908588 0.019170 -0.010634 -4244.300000 0 1 0
19.912319 -3.253685 13.984099 24.548767 -0.161969 0.964722 0.020772 -0.025754 -371167.000000 0 1 0
18.819719 -3.812585 13.315899 23.367302 -0.199879 0.964471 0.016093 -0.024022 95358.100000 0 1 0
19.140619 -4.265885 12.016199 22.998915 -0.219287 1.021053 0.012061 -0.016572 -230061.000000 0 1 0
18.192419 -5.388885 11.548099 22.211771 -0.287982 1.024052 0.003942 -0.008571 -259877.000000 0 1 0
18.306519 -6.563885 12.303699 23.012915 -0.344275 1.006711 0.017757 -0.005884 640455.000000 0 1 0
17.229519 -7.426485 11.982399 22.261781 -0.406969 1.002437 0.006229 0.002082 -168464.000000 0 1 0
17.411619 -8.812085 12.543099 23.197988 -0.468519 0.999530 0.023251 -0.003259 -282639.000000 0 1 0
18.281019 -9.563185 11.732099 23.733780 -0.481973 1.053743 0.012882 -0.009617 280166.000000 0 1 0
17.927219 -10.921285 11.728199 24.046004 -0.547158 1.061297 0.019937 -0.015919 -286345.000000 0 1 0
18.676619 -11.699485 10.684699 24.491975 -0.559623 1.119366 0.030194 -0.013000 -126384.000000 0 1 0
18.243619 -11.305785 9.388899 23.426520 -0.554787 1.158427 0.036267 -0.010081 366310.000000 0 1 0
18.778819 -12.156585 8.408099 23.898174 -0.574514 1.211271 0.026617 -0.012839 -258092.000000 0 1 0
18.539619 -11.610485 6.973699 22.959820 -0.559500 1.262186 0.020837 0.002406 113513.000000 0 1 0
19.269219 -10.381685 6.867399 22.939995 -0.494181 1.266771 0.041804 0.011099 689133.000000 0 1 0
19.544519 -10.048185 5.578999 22.673321 -0.474878 1.322183 0.012670 0.008218 -235343.000000 0 1 0
20.058019 -8.648685 5.424199 22.506573 -0.407096 1.327395 0.031539 0.014019 -394083.000000 0 1 0
20.497219 -8.249785 4.150399 22.481565 -0.382645 1.385118 0.016402 0.001505 459036.000000 0 1 0
20.589219 -6.854185 4.069499 22.078420 -0.321362 1.385416 0.007495 0.000871 -22112.600000 0 1 0
21.321619 -6.231585 2.780599 22.386957 -0.284346 1.446269 0.013912 -0.002616 442041.000000 0 1 0
20.401519 -6.292985 1.718399 21.419070 -0.299197 1.490482 -0.012116 -0.009464 291847.000000 0 1 0
20.947319 -5.725385 0.542899 21.722453 -0.266806 1.545801 -0.000904 -0.000170 -36604.600000 0 1 0
-25.248852 -16.294985 -0.238501 30.051421 0.573117 1.578733 0.006458 0.013884 -280369.000000 0 0 1
-24.273092 -15.583085 -0.950401 28.860332 0.570724 1.603733 -0.001936 0.020265 -522118.000000 0 0 1
-22.945092 -15.780085 -0.559001 27.853201 0.602445 1.590867 0.008026 0.010069 -42084.900000 0 0 1
-22.395492 -15.068985 0.726699 27.002971 0.592277 1.543881 0.006817 0.003631 -415058.000000 0 0 1
-22.690292 -15.646985 1.966999 27.632346 0.603705 1.499551 0.012938 0.015670 -120859.000000 0 0 1
-22.012992 -15.076585 3.062399 26.856163 0.600516 1.456518 0.023269 0.019040 2002.140000 0 0 1
-22.290292 -15.793085 4.422499 27.673762 0.616420 1.410300 0.027285 0.023966 -298445.000000 0 0 1
-21.743892 -17.082585 4.550599 28.023552 0.665915 1.407689 0.032026 0.014175 136487.000000 0 0 1
-22.116092 -17.655885 5.777399 28.883042 0.673720 1.369410 0.027469 0.006671 -143334.000000 0 0 1
-22.525992 -19.121385 5.597299 30.072868 0.703831 1.383580 0.023050 0.009205 -28525.900000 0 0 1
-22.964592 -19.744385 6.760199 31.030847 0.710142 1.351181 0.014582 0.009390 -24331.200000 0 0 1
-23.262492 -21.149385 6.609399 32.126689 0.737854 1.363588 0.011721 0.012272 174237.000000 0 0 1
-23.966992 -21.848085 7.799699 33.355521 0.739182 1.334776 0.004757 0.013738 180540.000000 0 0 1
-23.077192 -22.136185 8.853899 33.180702 0.764589 1.300685 0.003502 0.015532 193759.000000 0 0 1
-23.794792 -22.855285 9.862199 34.435724 0.765261 1.280335 0.004584 0.016547 871561.000000 0 0 1
-22.805492 -23.346385 10.996499 34.439325 0.797117 1.245805 -0.016050 0.013818 621573.000000 0 0 1
-22.416392 -22.350485 11.934999 33.830208 0.783926 1.210244 -0.002741 0.018464 81998.300000 0 0 1
-21.670892 -22.917485 12.994099 34.112831 0.813349 1.180010 0.007943 0.017946 -445775.000000 0 0 1
-22.184592 -22.325585 14.343399 34.587873 0.788566 1.143189 0.000455 0.025214 1106130.000000 0 0 1
-23.506092 -22.823785 14.671299 35.898586 0.770672 1.149781 0.003217 0.023929 734858.000000 0 0 1
-23.955492 -22.289785 15.866999 36.365667 0.749395 1.119294 0.003642 0.027830 -1682890.000000 0 0 1
-25.246352 -22.896085 16.313299 37.785350 0.736618 1.124380 -0.025498 0.035436 -1639200.000000 0 0 1
-26.283122 -22.405185 15.468999 37.842895 0.705918 1.149692 -0.024059 0.034734 -55524.000000 0 0 1
-26.674792 -23.396985 14.572899 38.357956 0.720029 1.181088 -0.024782 0.027770 -338990.000000 0 0 1
-27.593362 -24.539385 15.085499 39.889188 0.726884 1.182961 -0.010715 0.027780 -805727.000000 0 0 1
-26.885262 -25.430915 15.896499 40.277132 0.757606 1.165079 -0.020470 0.034679 -141884.000000 0 0 1
-27.651012 -26.499195 16.448199 41.681279 0.764131 1.165144 -0.033305 0.030504 -234493.000000 0 0 1
-27.558462 -27.813805 15.628299 42.158276 0.790010 1.191028 -0.017102 0.022978 14181.900000 0 0 1
-28.269372 -27.854235 14.415199 42.223379 0.778001 1.222387 -0.015470 0.009580 -768421.000000 0 0 1
-29.614432 -28.190565 14.541299 43.395528 0.760771 1.229098 0.003417 -0.004324 -745927.000000 0 0 1
-30.172042 -28.459065 13.151999 43.511442 0.756190 1.263728 0.018281 -0.019380 -76569.000000 0 0 1
-29.464152 -29.546415 12.558499 43.575713 0.786792 1.278450 0.025466 -0.021577 419577.000000 0 0 1
-30.075512 -29.910015 11.333999 43.904498 0.782639 1.309688 0.027707 -0.010682 79741.400000 0 0 1
-29.370282 -31.120895 10.675399 44.103148 0.814330 1.326313 0.033818 -0.019963 -125161.000000 0 0 1
-29.543632 -32.321905 11.383699 45.245114 0.830276 1.316463 0.018182 -0.007818 -15305.500000 0 0 1
-28.953652 -33.319585 10.591899 45.394901 0.855393 1.335298 0.031486 -0.006534 -208563.000000 0 0 1
-29.202032 34.494030 11.119599 46.542907 -0.868290 1.329552 0.021404 0.002680 285917.000000 0 0 1
-30.560752 34.096273 11.187799 47.134724 -0.840025 1.331151 0.007653 0.016510 -43846.000000 0 0 1
-30.618902 32.813475 11.730799 46.388069 -0.819981 1.315136 0.004633 0.015449 -528838.000000 0 0 1
-32.000112 32.397025 12.240299 47.152935 -0.791562 1.308202 0.020951 0.011940 291424.000000 0 0 1
-33.124282 32.284735 11.366399 47.631052 -0.772564 1.329837 0.001435 0.013228 491010.000000 0 0 1
-33.672732 33.555294 11.033299 48.801068 -0.783651 1.342737 0.012910 0.021173 -1133740.000000 0 0 1
-35.067503 33.476858 10.432799 49.591058 -0.762196 1.358836 0.003240 0.028777 -503696.000000 0 0 1
-35.105082 32.942225 9.132499 48.999587 -0.753624 1.383321 -0.012729 0.021966 -135357.000000 0 0 1
33.782769 32.864675 8.700599 47.927683 0.771624 1.388248 -0.005895 0.028387 -217854.000000 0 0 1
33.683389 32.379145 7.247999 47.281214 0.765658 1.416894 -0.009307 0.014131 -78543.800000 0 0 1
33.964239 31.028705 7.090099 46.546961 0.740262 1.417880 -0.003124 0.005731 66665.500000 0 0 1
33.797569 30.622745 5.759799 45.969593 0.736155 1.445170 0.012478 -0.001076 -20466.400000 0 0 1
33.991689 29.088955 5.558699 45.083271 0.707832 1.447183 0.016386 -0.000984 421444.000000 0 0 1
33.039399 28.269985 6.271899 43.933252 0.707762 1.427547 0.016957 -0.002497 456864.000000 0 0 1
33.557409 27.767585 7.499199 44.197019 0.691265 1.400295 0.005579 -0.001132 -51143.700000 0 0 1
32.637449 26.640535 7.972299 42.877485 0.684575 1.383776 0.006729 0.000186 -256575.000000 0 0 1
32.789469 25.435785 7.217499 42.121500 0.659766 1.398597 0.016101 -0.007562 547166.000000 0 0 1
31.698419 24.573765 7.570399 40.816304 0.659458 1.384241 0.007464 0.000958 68022.200000 0 0 1
31.707759 23.167185 6.862999 39.864786 0.631000 1.397777 0.008894 0.006757 772509.000000 0 0 1
32.719699 22.199985 7.231099 40.195856 0.596143 1.389915 0.019198 0.005804 -129807.000000 0 0 1
34.051149 22.485085 6.935699 41.390382 0.583605 1.402434 0.040589 -0.002187 -1069930.000000 0 0 1
34.923866 21.267085 6.895499 41.467014 0.546979 1.403731 0.035205 0.003586 -772599.000000 0 0 1
34.652467 20.362885 5.890399 40.621883 0.531275 1.425278 0.050311 -0.002983 -35823.600000 0 0 1
-34.964692 19.119885 6.171899 40.326071 -0.500409 1.417143 0.045478 -0.006783 -152889.000000 0 0 1
34.905152 17.932485 5.269799 39.594374 0.474586 1.437306 0.039472 -0.004900 -144057.000000 0 0 1
-34.587342 17.883585 4.058999 39.148209 -0.477199 1.466927 0.042733 -0.003857 318793.000000 0 0 1
-35.109908 16.804385 3.264799 39.060874 -0.446400 1.487116 0.020107 -0.001516 -766862.000000 0 0 1
-34.290458 16.322185 2.040799 38.031751 -0.444262 1.517110 0.026868 0.013484 142232.000000 0 0 1
-33.161092 15.513685 2.304799 36.683028 -0.437580 1.507925 0.037991 0.007587 -100194.000000 0 0 1
-31.993702 16.198085 2.606399 35.955086 -0.468667 1.498242 0.051941 0.003842 -1805770.000000 0 0 1
-30.810412 15.362985 2.950399 34.554415 -0.462551 1.485308 0.037339 0.005895 -1084630.000000 0 0 1
-30.852752 14.704085 4.217099 34.436700 -0.444744 1.448029 0.044346 -0.001934 1081080.000000 0 0 1
-29.566632 14.152785 4.570999 33.096541 -0.446442 1.432242 0.028196 0.005105 659614.000000 0 0 1
-29.487342 13.597585 6.039499 33.028369 -0.432073 1.386904 0.024772 -0.004017 -199994.000000 0 0 1
-29.531612 12.168785 6.130799 32.523562 -0.390859 1.381158 0.020726 0.008666 412382.000000 0 0 1
-29.343072 11.825685 7.484699 32.509743 -0.383102 1.338483 -0.004286 0.008589 -23915.200000 0 0 1
-29.219692 10.288185 7.724099 31.926460 -0.338542 1.326438 -0.004584 0.009976 -214229.000000 0 0 1
-30.462862 9.663985 7.649499 32.861731 -0.307196 1.335863 -0.004435 0.002936 -257894.000000 0 0 1
-30.230332 8.272685 7.646099 32.261015 -0.267115 1.331512 -0.003569 0.005975 -190936.000000 0 0 1
-31.478192 7.424985 7.479899 33.195720 -0.231643 1.343517 -0.001635 0.008017 -293233.000000 0 0 1
-32.410952 7.344785 8.543699 34.313415 -0.222850 1.319159 0.000599 0.004308 520539.000000 0 0 1
-33.594702 6.687585 8.101299 35.198847 -0.196498 1.338556 0.007426 0.008866 726580.000000 0 0 1
-34.517050 6.135785 9.234099 36.253871 -0.175923 1.313252 0.002440 0.012263 328917.000000 0 0 1
35.078087 7.040685 10.159099 37.192079 0.198083 1.294128 0.004369 0.016983 13072.300000 0 0 1
-34.259122 7.642385 11.038999 36.796100 -0.219482 1.266099 0.001832 0.004072 -481281.000000 0 0 1
-34.917456 8.759085 11.890799 37.912285 -0.245780 1.251773 0.015137 -0.006172 -440617.000000 0 0 1
34.504836 8.326185 12.937199 37.779362 0.236778 1.221283 0.013454 -0.002412 61537.400000 0 0 1
34.118249 9.466685 13.703599 37.966586 0.270658 1.201522 0.028212 -0.005038 -310036.000000 0 0 1
33.391559 9.148285 15.019999 37.739736 0.267408 1.161473 0.011389 -0.000920 644203.000000 0 0 1
32.018349 8.747585 14.832199 36.355042 0.266697 1.150554 0.009116 -0.000952 1037020.000000 0 0 1
31.532149 8.235285 16.040699 36.323551 0.255465 1.113408 0.000049 0.010594 -35953.600000 0 0 1
30.057989 7.779285 16.074699 34.962779 0.253252 1.093065 -0.009296 0.018744 -289068.000000 0 0 1
29.129719 8.835885 16.106899 34.439013 0.294508 1.084117 -0.017642 0.014796 871245.000000 0 0 1
27.765369 8.430085 16.330799 33.296802 0.294773 1.058177 -0.009872 0.021028 932888.000000 0 0 1
27.295199 7.837985 17.694799 33.459943 0.279632 1.013569 -0.006922 0.017453 -622211.000000 0 0 1
27.131719 8.856285 18.676599 34.108347 0.315514 0.991343 0.004677 0.011818 324130.000000 0 0 1
26.454149 8.442885 19.875099 34.148556 0.308933 0.949587 0.009935 0.016012 -308337.000000 0 0 1
27.113409 7.389685 20.739699 34.926774 0.266084 0.935016 0.015110 0.010896 -511560.000000 0 0 1
26.350669 6.940985 21.824899 34.912193 0.257558 0.895489 0.005993 0.014722 70247.800000 0 0 1
27.001139 5.872985 22.537599 35.658054 0.214173 0.886603 0.005095 0.012953 -413393.000000 0 0 1
26.489399 5.640185 23.981599 36.174812 0.209789 0.846062 0.002065 0.008059 687163.000000 0 0 1
25.248129 4.907085 24.104899 35.250442 0.191961 0.817813 0.021044 0.003965 592440.000000 0 0 1
24.204019 5.850085 24.209699 34.729923 0.237151 0.799473 0.012130 0.012475 -44909.600000 0 0 1
22.736519 5.348385 24.215499 33.644389 0.231033 0.767356 0.007985 0.001800 633905.000000 0 0 1
22.144419 4.878485 23.007899 32.303844 0.216839 0.778121 0.001886 0.005113 -672401.000000 0 0 1
20.768319 4.821985 23.091399 31.429084 0.228138 0.745551 0.013221 -0.004266 -1456240.000000 0 0 1
20.144919 3.906585 22.036899 30.111527 0.191547 0.749774 0.008237 0.003180 1187480.000000 0 0 1
18.746419 4.073785 21.671199 28.942440 0.213983 0.724594 0.011246 -0.001306 1915750.000000 0 0 1
17.824719 3.440585 22.594699 28.984110 0.190678 0.676842 0.017714 -0.000829 22961.800000 0 0 1
16.384819 3.450585 22.071699 27.704309 0.207563 0.649000 0.022347 0.006798 -898979.000000 0 0 1
16.191319 2.650385 20.930399 26.594453 0.162253 0.664831 0.013065 0.006501 -244434.000000 0 0 1
14.873719 2.486785 20.468099 25.423507 0.165661 0.634977 0.030172 -0.003579 -74831.900000 0 0 1
13.965519 1.591985 21.352299 25.563466 0.113504 0.582180 0.036650 -0.003670 -446851.000000 0 0 1
14.445019 0.235985 21.357699 25.784987 0.016335 0.594730 0.012687 -0.002182 385540.000000 0 0 1
13.724019 -0.550415 22.281299 26.174567 -0.040084 0.552419 0.020750 -0.000761 -25245.400000 0 0 1
14.012919 -2.025515 22.199299 26.330087 -0.143552 0.567746 0.004195 -0.003762 -171338.000000 0 0 1
13.302419 -2.630015 21.152999 25.126096 -0.195192 0.570051 -0.004594 0.012171 74512.900000 0 0 1
13.678719 -3.977315 20.979399 25.358659 -0.282964 0.596499 -0.002599 0.020493 -103069.000000 0 0 1
13.535219 -4.365515 19.480999 24.119892 -0.311996 0.630601 -0.000342 0.010773 191218.000000 0 1 0
12.169119 -4.398915 19.074399 23.049308 -0.346867 0.596071 0.000090 0.005412 290601.000000 0 1 0
11.996119 -4.985415 17.802899 22.038703 -0.393870 0.630383 0.007796 0.008359 459631.000000 0 1 0
10.545719 -5.389315 17.435799 21.077571 -0.472443 0.596654 0.013155 0.006108 693819.000000 0 1 0
9.892119 -6.381115 18.207599 21.681543 -0.572902 0.573929 0.010277 0.014318 -474465.000000 0 1 0
8.492119 -6.409015 18.203999 21.084998 -0.646503 0.528900 0.001313 0.009267 -24571.800000 0 1 0
7.915219 -7.333115 19.313499 22.123212 -0.747242 0.509482 0.006931 0.011858 -36856.900000 0 1 0
7.896319 -8.739115 19.025499 22.376184 -0.836018 0.554324 0.002171 0.015697 363286.000000 0 1 0
9.020019 -9.445715 19.578999 23.535494 -0.808447 0.588287 0.018822 0.012934 556317.000000 0 1 0
9.117919 -10.853415 18.923599 23.643935 -0.872080 0.642905 0.027035 0.004903 153959.000000 0 1 0
9.533019 -10.742415 17.574599 22.696794 -0.844976 0.685155 0.039915 0.006129 -27133.900000 0 1 0
9.753819 -12.000715 17.017199 22.994330 -0.888317 0.737636 0.032844 -0.000238 192932.000000 0 1 0
9.778719 -12.043115 15.484999 21.919059 -0.888796 0.786309 0.035489 -0.003493 46563.100000 0 1 0
10.322819 -13.188615 14.966799 22.461194 -0.906689 0.841506 0.028557 -0.006368 -280935.000000 0 1 0
10.171519 -13.181215 13.589299 21.491237 -0.913571 0.886255 0.030213 -0.008604 -32367.700000 0 1 0
10.874719 -14.287315 12.726699 22.008084 -0.920200 0.954185 0.044461 -0.018935 1397140.000000 0 1 0
12.294119 -14.129515 12.469899 22.500821 -0.854747 0.983398 0.037508 -0.019516 1171040.000000 0 1 0
12.529719 -13.360715 11.297299 21.520491 -0.817484 1.018134 0.018201 -0.012059 -197692.000000 0 1 0
13.991219 -13.501115 10.789499 22.236178 -0.767573 1.064178 0.020127 -0.015075 365290.000000 0 1 0
14.291519 -14.730515 10.207799 22.922364 -0.800523 1.109264 0.021385 -0.014841 -818609.000000 0 1 0
15.544219 -14.659315 9.632099 23.437056 -0.756109 1.147270 0.017249 -0.016914 -412116.000000 0 1 0
16.374119 -15.990415 9.387799 24.737339 -0.773543 1.181541 0.024182 -0.018475 641256.000000 0 1 0
16.803519 -16.570415 10.631899 25.883860 -0.778414 1.147515 0.031660 -0.014382 -483392.000000 0 0 1
15.847719 -17.427715 11.132599 26.053987 -0.832845 1.129303 0.049013 -0.008676 -360227.000000 0 0 1
16.089619 -17.980015 12.592999 27.216547 -0.840828 1.089762 0.033637 -0.006004 -1297620.000000 0 0 1
17.254719 -18.696115 12.665899 28.419976 -0.825470 1.108875 0.044818 -0.007110 -1117100.000000 0 0 1
17.524119 -19.279815 13.911099 29.535143 -0.833066 1.080370 0.027288 -0.009224 90391.900000 0 0 1
18.782319 -20.168015 13.695599 30.774889 -0.820959 1.109594 -0.003356 -0.009995 404843.000000 0 0 1
19.862819 -19.353415 13.260699 30.739753 -0.772409 1.124768 -0.000369 -0.003658 -472745.000000 0 0 1
21.031819 -20.152915 13.115399 31.945126 -0.764061 1.147728 -0.011742 -0.009049 306382.000000 0 0 1
22.011619 -19.463815 12.142899 31.793104 -0.724046 1.178907 -0.019326 0.001633 -574181.000000 0 0 1
21.621819 -19.502315 10.787199 31.051683 -0.733905 1.216005 -0.011973 -0.000039 852401.000000 0 0 1
20.400419 -18.830015 10.354499 29.630427 -0.745389 1.213807 0.000123 -0.001929 1113160.000000 0 0 1
20.397119 -17.317515 10.267499 28.659385 -0.703924 1.204393 0.022886 -0.016105 -5051.030000 0 0 1
21.114719 -16.789715 9.166099 28.491109 -0.671787 1.243253 0.015986 -0.011228 31105.600000 0 0 1
21.084019 -15.373915 9.248999 27.684601 -0.630039 1.230162 0.025516 -0.019926 -18597.200000 0 0 1
-33.695832 25.121515 7.758999 42.739930 -0.640639 1.388244 0.022030 0.007468 -325596.000000 0 0 1
-32.792052 24.613715 8.654299 41.905256 -0.643885 1.362779 0.018394 0.005668 -681988.000000 0 0 1
-31.767402 25.437215 9.080999 41.697533 -0.675188 1.351254 0.012954 0.000542 -95407.900000 0 0 1
-30.640452 24.718215 9.896699 40.592759 -0.678824 1.324509 0.009101 -0.009371 569294.000000 0 0 1
-29.793212 23.888615 9.076599 39.251574 -0.675846 1.337443 0.003944 -0.012984 718982.000000 0 0 1
-28.858912 23.114915 9.862499 38.267545 -0.675328 1.310130 0.001173 -0.014589 443447.000000 0 0 1
-28.042702 22.222915 8.868499 36.863279 -0.670131 1.327835 0.008996 -0.024311 -324537.000000 0 0 1
-28.743222 21.170015 8.308699 36.652105 -0.634819 1.342118 0.018025 -0.022223 -137850.000000 0 0 1
-28.063182 20.594715 7.224299 35.551019 -0.633097 1.366162 0.014100 -0.022030 169667.000000 0 0 1
-29.087242 19.831515 6.310999 35.765700 -0.598403 1.393414 0.029191 -0.017481 73000.100000 0 0 1
-29.716282 18.767115 6.959299 35.828674 -0.563291 1.375315 0.036519 -0.015014 511676.000000 0 0 1
-30.767072 18.238215 6.154099 36.292122 -0.535096 1.400402 0.048425 -0.010385 130861.000000 0 0 1
-31.367782 16.870015 6.577399 36.218743 -0.493439 1.388181 0.052322 -0.008271 -573274.000000 0 0 1
-32.233832 17.037415 7.650899 37.253586 -0.486231 1.363951 0.043572 -0.008420 -206583.000000 0 0 1
-32.984162 15.867915 7.833999 37.431500 -0.448395 1.359949 0.045579 -0.007266 695955.000000 0 0 1
-34.130955 15.989915 8.942999 38.737278 -0.438121 1.337832 0.028586 -0.007543 1007440.000000 0 0 1
35.005615 16.839815 8.637399 39.794185 0.448381 1.352003 0.030574 -0.009012 608431.000000 0 0 1
34.066659 16.998015 9.704099 39.289176 0.462818 1.321222 0.036609 -0.004944 262705.000000 0 0 1
33.171019 18.241015 9.645499 39.065161 0.502773 1.321308 0.024927 -0.003987 -904844.000000 0 0 1
32.093659 18.113615 8.808799 37.890645 0.513831 1.336170 0.005554 -0.003142 -845323.000000 0 0 1
31.533419 19.396115 8.600899 38.007121 0.551446 1.342522 0.001638 0.001532 -407755.000000 0 0 1
30.107039 19.336415 8.058799 36.677991 0.570912 1.349271 -0.011500 0.000596 -336149.000000 0 0 1
29.640739 20.727815 7.865799 37.014680 0.610257 1.356659 -0.022829 -0.003174 649757.000000 0 0 1
28.297359 20.982515 7.426399 36.002193 0.638039 1.363028 -0.032269 -0.004804 810193.000000 0 0 1
28.121749 20.771715 5.904499 35.456453 0.636188 1.403489 -0.045998 0.017077 -490859.000000 0 0 1
28.161419 19.441215 5.587099 34.673362 0.604220 1.408956 -0.032139 0.015026 13330.100000 0 0 1
28.009629 19.153715 4.241899 34.196459 0.599788 1.446431 -0.027228 0.010540 -212493.000000 0 0 1
26.587289 19.306015 3.674899 33.062230 0.628053 1.459415 0.000529 0.015933 -706993.000000 0 0 1
25.625769 18.491815 4.320099 31.894992 0.625083 1.434931 0.002620 0.009542 1409950.000000 0 0 1
24.241819 18.872615 4.103899 30.994893 0.661502 1.438001 0.015682 0.006079 1292150.000000 0 0 1
23.696519 20.181315 4.794999 31.492896 0.705455 1.417945 0.019695 0.002730 -631964.000000 0 0 1
24.059219 21.406015 4.195499 32.475617 0.727108 1.441245 0.004401 -0.001042 445274.000000 0 0 1
23.352919 22.562015 4.678699 32.806914 0.768174 1.427695 -0.018103 0.002687 -13890.600000 0 0 1
24.148419 23.855915 4.485599 34.239910 0.779305 1.439414 -0.022782 -0.004427 -76685.900000 0 0 1
25.408799 23.859515 5.125299 35.229990 0.753963 1.424797 -0.020542 -0.007640 390887.000000 0 0 1
26.172319 25.003815 4.734399 36.504734 0.762569 1.440737 -0.011106 -0.011469 17487.600000 0 0 1
27.558349 25.185415 5.437599 37.727115 0.740439 1.426163 -0.018842 -0.004550 14368.400000 0 0 1
28.538669 24.196915 5.253299 37.782847 0.703253 1.431305 -0.029572 -0.004422 85996.300000 0 0 1
29.092159 24.173615 3.907799 38.026153 0.693320 1.467848 -0.021881 -0.012895 -1191960.000000 0 0 1
30.053839 25.233615 3.489499 39.397274 0.698433 1.482108 -0.004190 -0.024070 -2212770.000000 0 0 1
29.537849 26.526715 3.268499 39.835088 0.731741 1.488653 -0.008363 -0.022430 -308617.000000 0 0 1
30.472719 27.384115 2.645499 41.054537 0.732065 1.506313 0.021305 -0.022507 -697269.000000 0 0 1
29.901229 28.805815 2.548599 41.597522 0.766741 1.509490 0.016073 -0.017637 491493.000000 0 0 1
28.691369 28.909815 1.804299 40.770425 0.789191 1.526527 0.024230 -0.021353 744792.000000 0 0 1
27.525599 28.633515 2.620899 39.804597 0.805124 1.504905 0.008790 -0.020422 -195412.000000 0 0 1
26.255129 29.181215 1.971899 39.303480 0.838132 1.520604 -0.004706 -0.017610 -389303.000000 0 0 1
25.980289 30.514015 2.209799 40.136813 0.865478 1.515712 0.000017 -0.021424 -376146.000000 0 0 1
24.599719 30.736015 2.156299 39.427128 0.895839 1.516078 0.001029 -0.015814 -359200.000000 0 0 1
24.174419 32.063215 2.821099 40.254328 0.924765 1.500657 0.017911 -0.020327 -398049.000000 0 0 1
24.203419 32.182315 4.238899 40.490433 0.925970 1.465915 -0.005771 -0.034040 -1227070.000000 0 0 1
25.481949 32.325315 4.709299 41.429859 0.903232 1.456881 -0.001029 -0.033325 -1283270.000000 0 0 1
25.575079 32.269215 6.290399 41.652804 0.900612 1.419196 0.014308 -0.041233 -124882.000000 0 0 1
25.203799 31.058715 7.010099 40.608087 0.889089 1.397299 0.014924 -0.042120 190605.000000 0 0 1
25.936549 29.924915 6.618199 40.149791 0.856675 1.405203 0.005900 -0.042485 -409489.000000 0 0 1
25.380189 28.601915 7.153899 38.902466 0.845009 1.385851 0.008250 -0.032214 -600960.000000 0 0 1
24.161619 28.313615 6.534599 37.790814 0.864357 1.397008 -0.004105 -0.035600 -605389.000000 0 0 1
23.709019 27.071715 6.992199 36.659053 0.851522 1.378885 0.009943 -0.022225 282334.000000 0 0 1
22.335219 26.665715 6.340099 35.357025 0.873545 1.390505 0.019114 -0.008626 373542.000000 0 0 1
22.388119 26.467315 4.940999 35.016569 0.868700 1.429219 -0.000375 -0.013613 186594.000000 0 0 1
22.633419 27.619215 4.156799 35.949571 0.884289 1.454908 -0.001003 -0.011730 -397567.000000 0 0 1
22.460019 27.575915 2.645499 35.663458 0.887289 1.496549 0.000105 0.001555 -490087.000000 0 0 1
23.508119 26.815815 2.133599 35.724947 0.851032 1.511038 -0.014456 0.016801 -95082.800000 0 0 1
23.286119 26.388215 0.823099 35.203107 0.847766 1.547413 -0.001139 0.020132 1178650.000000 0 0 1
24.616519 25.764815 0.131999 35.634480 0.808186 1.567092 0.006653 0.018161 352470.000000 0 0 1
25.640609 26.758115 0.189899 37.060405 0.806722 1.565672 -0.009318 0.020929 787971.000000 0 0 1
26.825589 26.455515 -0.579301 37.680792 0.778453 1.586171 -0.001047 0.035497 768345.000000 0 0 1
27.693849 25.342015 0.034399 37.538889 0.741083 1.569880 -0.007221 0.023231 -1545400.000000 0 0 1
27.071689 24.097515 0.010299 36.243161 0.727339 1.570512 0.000271 0.010192 -472580.000000 0 0 1
27.830379 23.074915 0.575699 36.156786 0.692251 1.554873 -0.001176 0.009733 -539731.000000 0 0 1
27.050199 21.892615 1.127699 34.817691 0.680406 1.538402 0.008726 0.007190 64943.700000 0 0 1
26.399549 21.131415 0.089999 33.815396 0.675013 1.568135 0.022084 0.000830 884742.000000 0 0 1
25.343089 20.336815 0.614499 32.499782 0.676239 1.551887 0.020821 0.012689 97666.900000 0 0 1
24.647219 19.276815 -0.274901 31.291478 0.663736 1.579582 0.029663 0.001616 414573.000000 0 0 1
23.475319 18.732915 0.359899 30.035683 0.673510 1.558814 0.024539 0.002719 769012.000000 0 0 1
23.037519 17.647115 -0.485201 29.023842 0.653673 1.587514 0.033840 -0.015324 -24167.500000 0 0 1
21.767519 16.911315 -0.023601 27.564797 0.660500 1.571653 0.046242 -0.006036 -969083.000000 0 0 1
21.281219 15.817015 -0.856901 26.529277 0.639159 1.603102 0.054505 -0.016470 234274.000000 0 0 1
19.952119 15.481315 -0.531801 25.259473 0.659887 1.591851 0.063889 -0.019040 482998.000000 0 0 1
18.868519 16.510715 -1.071901 25.095292 0.718853 1.613523 0.060870 -0.025187 -445487.000000 0 0 1
18.806419 17.716115 -0.401301 25.839953 0.755554 1.586327 0.035670 -0.013200 422979.000000 0 0 1
17.868519 18.607315 -1.054101 25.819126 0.805650 1.611634 0.033730 -0.019618 583771.000000 0 0 1
17.760319 19.989915 -0.436701 26.743529 0.844391 1.587126 0.019759 -0.000903 -207215.000000 0 0 1
17.288419 20.063215 0.889599 26.499310 0.859550 1.537219 0.026864 -0.002689 188625.000000 0 0 1
17.442419 21.414915 1.401899 27.655052 0.887277 1.520082 0.029129 -0.001815 -445351.000000 0 0 1
16.479119 22.476515 0.865399 27.883759 0.938153 1.539755 0.032586 -0.007514 -1046630.000000 0 0 1
15.224519 22.392415 1.443599 27.116235 0.973691 1.517534 0.024062 -0.007325 -781062.000000 0 0 1
14.478319 23.556715 1.187299 27.675806 1.019699 1.527883 0.011770 -0.001193 37852.400000 0 0 1
13.004719 23.512115 1.647599 26.919451 1.065571 1.509553 0.010082 0.002147 108470.000000 0 0 1
12.763519 23.503015 3.036999 26.916956 1.073298 1.457727 0.002785 0.009960 -1554410.000000 0 0 1
11.444319 23.434615 3.357499 26.294989 1.116511 1.442761 -0.011258 0.009119 -1257590.000000 0 0 1
11.095619 23.356315 4.907399 26.319437 1.127300 1.383243 -0.005429 0.010623 -127195.000000 0 0 1
11.676719 22.341815 5.720099 25.849990 1.089201 1.347669 0.008212 -0.018906 190212.000000 0 0 1
11.024019 22.343615 6.994899 25.878461 1.112454 1.297094 -0.000397 -0.004096 -517117.000000 0 0 1
11.589819 21.292815 8.022899 25.535755 1.072335 1.251200 0.003306 0.000861 1741130.000000 0 0 1
12.841119 21.624815 8.734599 26.623677 1.034938 1.236530 0.014375 0.004976 1153240.000000 0 0 1
13.952319 21.607515 7.869799 26.897689 0.997439 1.273870 0.010659 0.006682 -1174670.000000 0 0 1
15.218619 21.855515 8.698799 28.016763 0.962539 1.255093 0.023682 0.008068 -500173.000000 0 0 1
15.624119 20.783315 9.526499 27.691397 0.926168 1.219597 0.028011 0.004797 1007800.000000 0 0 1
16.891219 20.985815 10.196499 28.804276 0.893082 1.208960 0.035900 0.005141 815233.000000 0 0 1
16.964019 21.858115 11.435799 29.938815 0.910801 1.178867 0.023183 0.010297 -602549.000000 0 0 1
16.361219 21.381315 12.593099 29.722656 0.917631 1.133285 0.021413 0.008877 -207549.000000 0 0 1
16.588419 22.204915 13.761699 30.945408 0.929179 1.109947 0.015241 0.006170 426903.000000 0 0 1
17.747419 21.625015 14.682299 31.594020 0.883567 1.087481 0.022202 0.009768 -169019.000000 0 0 1
18.992519 21.925215 14.174999 32.285623 0.856949 1.116255 0.041730 0.009441 -1145200.000000 0 0 1
19.969819 21.259315 14.995899 32.796786 0.816664 1.095911 0.035878 0.015248 -958362.000000 0 0 1
21.364119 21.652515 14.658999 33.766007 0.792102 1.121719 0.039650 0.010413 -1440650.000000 0 0 1
21.787419 21.140815 13.429799 33.196162 0.770337 1.154300 0.048061 0.012581 -884149.000000 0 0 1
23.082719 21.552315 13.185099 34.222230 0.751125 1.175286 0.029088 0.013327 -828858.000000 0 0 1
23.825319 21.022215 11.943999 33.944638 0.722976 1.211231 0.025155 0.016267 -53582.400000 0 0 1
23.500119 21.613615 10.659699 33.660558 0.743606 1.248567 0.015596 0.017173 535964.000000 0 0 1
24.334919 21.167515 9.579099 33.645373 0.715901 1.282095 0.033127 0.006308 151713.000000 0 0 1
23.997319 22.086715 8.365799 33.670178 0.743963 1.319703 0.012109 -0.001919 24139.700000 0 0 1
24.185619 23.437115 8.664699 34.775272 0.769682 1.318981 0.013649 -0.006170 -439712.000000 0 0 1
25.454469 23.875015 8.328999 35.879222 0.753391 1.336519 -0.003143 -0.006990 -1115110.000000 0 0 1
25.884359 25.089415 9.147499 37.190799 0.769804 1.322285 0.007993 -0.010145 333923.000000 0 0 1
27.139949 25.542515 8.608099 38.250442 0.755086 1.343806 -0.011960 -0.011130 611918.000000 0 0 1
27.775939 26.479315 9.430899 39.517070 0.761504 1.329817 -0.009693 -0.010742 72808.800000 0 0 1
28.968699 27.112815 8.676799 40.614986 0.752318 1.355502 -0.006286 -0.016511 -31066.100000 0 0 1
28.593539 28.069815 7.691599 40.800315 0.776156 1.381143 0.000512 -0.019029 -401600.000000 0 0 1
29.763459 28.473715 7.047299 41.788520 0.763255 1.401345 0.007586 -0.009726 -665120.000000 0 0 1
29.673929 29.522715 5.918999 42.274902 0.782844 1.430323 0.021433 -0.003963 -190158.000000 0 0 1
29.677029 30.904615 6.353699 43.315018 0.805659 1.423579 0.021535 -0.012156 55729.000000 0 0 1
29.473529 31.813415 5.270199 43.687038 0.823559 1.449866 0.030383 -0.014723 -85342.400000 0 0 1
29.537239 33.305115 5.646099 44.872682 0.845284 1.444637 -0.001595 -0.005292 -675959.000000 0 0 1
28.566449 33.731915 6.510499 44.679645 0.868124 1.424561 -0.012999 -0.011155 -786446.000000 0 0 1
28.536699 -34.143355 6.693299 44.999023 -0.874610 1.421499 -0.010776 -0.001140 -405273.000000 0 0 1
27.143229 -33.642055 7.043999 43.796811 -0.891908 1.409261 0.013062 -0.008208 -138755.000000 0 0 1
26.119499 -33.918655 6.114999 43.244613 -0.914578 1.428916 0.015522 -0.015199 257774.000000 0 0 1
24.879219 -33.282755 6.439999 42.049862 -0.928890 1.417040 0.004860 -0.016203 742204.000000 0 0 1
23.814919 -33.485755 5.346099 41.437023 -0.952596 1.441418 0.018156 -0.015879 46382.700000 0 0 1
24.258219 -32.712955 4.246999 40.946741 -0.932727 1.466889 0.001412 0.001245 -95346.100000 0 0 1
23.387519 -32.816055 3.154699 40.420559 -0.951607 1.492670 0.022315 -0.004379 -201763.000000 0 0 1
23.944819 -32.096855 1.906599 40.089869 -0.929849 1.523220 0.027771 0.012826 34154.500000 0 0 1
23.968319 -30.706755 2.071099 39.008647 -0.908025 1.517678 0.028019 0.023682 129821.000000 0 0 1
24.579319 -30.070855 0.937999 38.849441 -0.885547 1.546650 0.009588 0.027999 -774564.000000 0 0 1
24.760319 -28.535955 1.068299 37.795706 -0.856122 1.542527 -0.002160 0.019543 -186832.000000 0 0 1
23.603419 -27.724955 1.189299 36.430879 -0.865524 1.538145 -0.008947 0.021243 -187703.000000 0 0 1
22.773519 -27.717955 0.045899 35.873671 -0.883013 1.569517 -0.008649 0.026635 501295.000000 0 0 1
21.576519 -26.698755 0.251799 34.328313 -0.891107 1.563461 -0.001601 0.021583 945369.000000 0 0 1
22.089719 -25.334155 0.144199 33.612436 -0.853705 1.566506 -0.010136 0.015315 319439.000000 0 0 1
22.323119 -24.589555 1.361099 33.238839 -0.833672 1.529836 -0.020025 0.011675 -171500.000000 0 0 1
21.073619 -24.369455 2.220299 32.293923 -0.857798 1.501989 -0.019626 0.008229 -351199.000000 0 0 1
21.301519 -23.747355 3.485799 32.091157 -0.839638 1.461960 -0.028566 0.009126 764662.000000 0 0 1
20.058719 -23.548855 4.210899 31.219104 -0.865263 1.435502 -0.009455 0.006805 900807.000000 0 0 1
20.261419 -22.877255 5.599699 31.068481 -0.845962 1.389569 -0.007575 0.003009 -236720.000000 0 0 1
20.497819 -21.495955 5.674299 30.239615 -0.809162 1.382033 0.004113 0.007072 -150108.000000 0 0 1
19.508419 -20.676155 5.103199 28.881212 -0.814449 1.393168 -0.003831 0.005977 -680078.000000 0 0 1
19.448619 -19.286755 5.737299 27.984715 -0.781219 1.364317 -0.002590 0.003728 -284235.000000 0 0 1
18.775519 -19.225755 6.950599 27.757172 -0.797246 1.317695 0.011534 -0.000803 -741402.000000 0 0 1
17.494219 -18.699155 6.812499 26.497476 -0.818677 1.310776 0.009724 -0.007703 -438822.000000 0 0 1
18.121308 -26.496705 -12.476501 34.440097 -0.970952 1.941495 0.068179 -0.014847 197626.000000 0 0 1
18.321108 -25.113025 -12.720401 33.587730 -0.940515 1.959211 0.070475 -0.015061 -180171.000000 0 0 1
17.164608 -24.603385 -13.344501 32.833307 -0.961648 1.989342 0.045873 -0.005421 -26901.300000 0 0 1
17.310108 -23.119785 -13.783701 32.002417 -0.928119 2.016074 0.039660 -0.009751 392.589000 0 0 1
17.421408 -22.146285 -12.713601 30.912765 -0.904248 1.994647 0.044703 -0.011770 -576880.000000 0 0 1
18.661008 -22.086485 -12.054501 31.326619 -0.869267 1.965788 0.046018 -0.016732 -890374.000000 0 0 1
18.720808 -22.825485 -10.685301 31.395017 -0.883876 1.918086 0.049159 -0.011349 40003.600000 0 0 1
17.873708 -22.363485 -9.641901 30.208627 -0.896521 1.895657 0.043369 -0.008957 199380.000000 0 0 1
16.504008 -22.670785 -9.886801 29.733745 -0.941534 1.909761 0.044990 0.005053 113513.000000 0 0 1
15.590508 -22.107485 -8.755301 28.433433 -0.956580 1.883805 0.034068 0.006211 -1267040.000000 0 0 1
15.434108 -20.697485 -8.750701 27.261188 -0.930053 1.897576 0.019898 0.000150 455638.000000 0 0 1
14.423108 -20.313285 -7.802001 26.106069 -0.953368 1.874292 -0.002587 0.006291 1936160.000000 0 0 1
12.947308 -20.577385 -8.372401 25.713006 -1.009182 1.902453 0.000441 0.011595 663092.000000 0 0 1
12.629208 -21.992885 -8.378001 26.709077 -1.049533 1.889858 0.003100 0.015849 -1406730.000000 0 0 1
11.265208 -22.146785 -8.240601 26.178092 -1.100244 1.891032 -0.003562 0.017715 -959041.000000 0 0 1
10.776208 -23.525985 -7.769901 27.017957 -1.141264 1.862498 -0.006890 0.019947 -12290.900000 0 0 1
11.216708 -23.916885 -6.459501 27.194799 -1.132265 1.810616 -0.000674 0.025468 238538.000000 0 0 1
10.390708 -24.924085 -5.900201 27.640355 -1.175811 1.785915 -0.014895 0.025425 47492.300000 0 0 1
10.864908 -25.498305 -4.578201 28.092165 -1.167992 1.734497 0.009451 0.019897 -516780.000000 0 0 1
9.796108 -26.143265 -3.918301 28.191969 -1.212281 1.710234 0.018615 0.002389 -411005.000000 0 0 1
10.143008 -26.819355 -2.708601 28.800954 -1.209225 1.664981 0.015675 -0.001459 -685951.000000 0 0 1
9.072808 -27.682475 -2.060501 29.204125 -1.254083 1.641410 0.003166 0.001793 -273501.000000 0 0 1
8.014808 -26.917175 -1.547501 28.127677 -1.281398 1.625841 0.000845 0.007656 -320863.000000 0 0 1
7.598408 -27.414285 -0.245501 28.448886 -1.300414 1.579426 0.009238 -0.000755 234924.000000 0 0 1
7.001008 -26.343455 0.736099 27.267812 -1.311042 1.543798 0.011948 -0.000414 -343879.000000 0 0 1
5.731408 -25.912035 0.388499 26.541167 -1.353114 1.556158 0.021089 -0.003792 -1027190.000000 0 0 1
5.194808 -25.091415 1.392399 25.661331 -1.366645 1.516509 0.030176 -0.012674 918493.000000 0 0 1
3.646408 -24.875285 1.190999 25.169318 -1.425245 1.523459 0.005772 -0.006075 1167710.000000 0 0 1
2.888808 -26.069895 0.970199 26.247398 -1.460436 1.533824 -0.001653 -0.003523 -42036.500000 0 0 1
1.625408 -25.780115 0.408199 25.834529 -1.507831 1.554995 -0.007400 0.001098 -105084.000000 0 0 1
0.871408 -27.053035 0.073399 27.067165 -1.538596 1.568085 -0.002213 0.003939 -335203.000000 0 0 1
0.478908 -27.853785 1.185399 27.883111 -1.553604 1.528270 -0.003132 0.006207 -131783.000000 0 0 1
0.521408 -29.184845 0.798099 29.200411 -1.552933 1.543461 -0.004026 0.011982 -209142.000000 0 0 1
0.032808 -30.197905 1.794599 30.251200 -1.569710 1.511438 0.000950 0.008149 -283854.000000 0 0 1
0.788208 -30.218575 2.959299 30.373360 -1.544719 1.473211 -0.000860 0.012779 70214.900000 0 0 1
0.026608 -30.848795 3.992199 31.106053 -1.569934 1.442100 0.007813 0.007049 193540.000000 0 0 1
0.557408 -30.569125 5.448299 31.055854 -1.552564 1.394448 0.013108 0.006167 168009.000000 0 0 1
1.756108 -31.246535 5.808099 31.830235 -1.514654 1.387297 0.000636 0.018592 182825.000000 0 0 1
2.037508 -31.105325 7.207799 31.994453 -1.505386 1.343563 0.012967 0.016981 -229338.000000 0 0 1
3.414308 -31.546355 7.699199 32.651304 -1.462985 1.332754 0.020513 0.012961 -252015.000000 0 0 1
3.557108 -32.930315 7.418299 33.942449 -1.463194 1.350463 0.019967 0.006991 88388.500000 0 0 1
4.840008 -33.445845 7.727599 34.666497 -1.427082 1.345995 0.013625 0.006284 151883.000000 0 0 1
4.852908 34.335161 7.471999 35.472310 1.430387 1.358564 0.005973 0.005938 -357392.000000 0 0 1
4.747008 33.979844 6.040599 34.837519 1.431994 1.396522 -0.000540 0.000329 25264.400000 0 0 1
4.680408 32.585315 5.878799 33.440533 1.428137 1.394079 -0.015415 -0.001049 -398115.000000 0 0 1
4.936508 32.110225 4.428699 32.787940 1.418254 1.435311 -0.015180 -0.002624 685626.000000 0 0 1
6.263808 32.427295 3.956899 33.262919 1.379982 1.451556 -0.006898 0.003187 1277240.000000 0 0 1
7.089908 31.221835 4.059399 32.273030 1.347501 1.444679 -0.008941 0.002962 -1090050.000000 0 0 1
8.478608 31.247315 3.542999 32.570452 1.305837 1.461801 -0.018537 0.008465 -756386.000000 0 0 1
9.439608 31.916985 4.414799 33.575148 1.283239 1.438924 -0.005086 0.004769 -301757.000000 0 0 1
10.663208 31.844325 3.755199 33.791516 1.247678 1.459438 0.004949 0.001747 26040.800000 0 0 1
11.894408 32.196215 4.674299 34.639894 1.216913 1.435444 0.016578 -0.007278 519983.000000 0 0 1
12.281908 31.169445 5.544699 33.957669 1.195441 1.406779 0.017645 -0.003294 1243080.000000 0 0 1
13.558708 31.465195 6.199899 34.818613 1.163929 1.391779 0.023070 -0.003945 1218460.000000 0 0 1
14.022408 30.327785 7.137099 34.166367 1.137710 1.360354 0.031013 -0.005381 -529208.000000 0 0 1
13.390408 30.235805 8.353699 34.107055 1.153891 1.323353 0.012486 0.001880 33621.100000 0 0 1
13.931008 29.091425 8.987299 33.483661 1.124195 1.299056 0.009509 -0.005792 294772.000000 0 0 1
13.628008 29.180095 10.529299 33.883133 1.133870 1.254811 0.005682 0.003598 300652.000000 0 0 1
14.502408 30.102005 11.140399 35.221571 1.121834 1.248975 0.015717 -0.003171 193825.000000 0 0 1
13.833208 30.462285 12.305799 35.647456 1.144530 1.218336 0.005711 0.002413 -293774.000000 0 0 1
14.505008 31.480785 13.227799 37.099997 1.139033 1.206230 0.011106 -0.003404 -141436.000000 0 0 1
15.455808 30.964005 14.115699 37.375186 1.107826 1.183512 0.012762 -0.005226 -296341.000000 0 0 1
16.318008 31.899555 14.648999 38.709846 1.097957 1.182696 0.016244 -0.002768 -296793.000000 0 0 1
17.475308 31.322085 15.513299 39.078406 1.061891 1.162574 0.009174 -0.002193 504302.000000 0 0 1
18.580508 30.910815 14.697199 38.945108 1.029568 1.183828 0.025208 -0.007308 346926.000000 0 0 1
18.970308 29.550815 14.977299 38.176468 1.000097 1.167647 0.017663 -0.007767 255412.000000 0 0 1
20.329108 29.142695 14.321299 38.310167 0.961702 1.187667 0.036185 -0.006294 -35874.700000 0 0 1
21.379708 29.597715 15.107699 39.514038 0.945232 1.178472 0.025873 -0.008342 -742219.000000 0 0 1
22.627908 29.216895 14.581599 39.727474 0.911811 1.194971 0.023716 -0.005916 251698.000000 0 0 1
23.838308 29.359515 15.549799 40.890614 0.888814 1.180700 0.025888 -0.010343 219589.000000 0 0 1
23.782408 28.379395 16.581599 40.570216 0.873300 1.149752 0.012735 -0.008106 -549253.000000 0 0 1
24.599808 28.587495 17.659599 41.644410 0.860233 1.132876 0.010617 -0.012206 -474433.000000 0 0 1
25.738708 27.608965 18.053899 41.841120 0.820442 1.124656 -0.007971 -0.005034 -92775.300000 0 0 1
25.316208 26.394065 18.626999 41.042931 0.806239 1.099724 0.006731 0.001006 -53524.200000 0 0 1
24.758008 26.483065 19.940199 41.375394 0.819051 1.067936 0.029322 -0.003324 100898.000000 0 0 1
24.246108 25.143015 20.506599 40.503896 0.803556 1.039923 0.040228 -0.004306 770562.000000 0 0 1
25.345008 24.227585 20.653199 40.692750 0.762861 1.038469 0.014353 -0.003293 297968.000000 0 0 1
24.740208 22.971585 20.844499 39.677005 0.748346 1.017664 0.030468 -0.010247 208736.000000 0 0 1
25.577108 21.661285 20.881099 39.489493 0.702692 1.013638 0.007225 -0.006370 173292.000000 0 0 1
24.745108 20.507685 21.091299 38.441233 0.692031 0.990032 0.008563 0.008261 348376.000000 0 0 1
25.479608 19.280585 20.996999 38.233825 0.647779 0.989422 -0.003042 0.004441 307257.000000 0 0 1
26.083808 18.866585 22.355199 39.192703 0.626197 0.963813 0.003357 0.012490 617561.000000 0 0 1
25.030008 18.514485 23.253699 38.859001 0.636871 0.929279 -0.004384 0.025485 695777.000000 0 0 1
25.653208 18.254485 24.522199 39.908039 0.618460 0.909085 0.011257 0.030239 430422.000000 0 0 1
24.802208 17.368085 25.465299 39.563637 0.610903 0.871533 0.013019 0.028896 31723.100000 0 0 1
24.740608 15.940685 25.144999 38.710129 0.572367 0.863776 0.004859 0.026825 661660.000000 0 0 1
23.647208 15.259885 25.780399 38.166523 0.573074 0.829192 0.001230 0.027414 459982.000000 0 0 1
23.176908 14.039085 24.983799 36.857227 0.544626 0.825957 -0.004497 0.026119 -1066120.000000 0 0 1
21.943308 13.610085 25.399599 36.219923 0.555168 0.793632 -0.001579 0.018184 -798998.000000 0 0 1
21.433008 12.587785 24.515199 34.911619 0.531035 0.792303 -0.004248 0.018990 113046.000000 0 0 1
20.226508 11.829185 25.109399 34.344187 0.529195 0.750848 0.013731 0.012985 -546948.000000 0 0 1
19.092008 12.612685 25.110099 33.972072 0.583809 0.739004 0.018868 0.007099 -596471.000000 0 0 1
17.921708 11.843085 25.344199 33.223105 0.583946 0.703089 0.017658 0.010025 44925.300000 0 0 1
16.635008 12.654585 25.476199 32.952978 0.650327 0.687070 0.016619 -0.001016 -244295.000000 0 0 1
16.572608 13.347085 26.723199 34.160290 0.678007 0.672465 0.016096 0.005511 153169.000000 0 0 1
15.341408 14.035885 26.826099 33.941191 0.740987 0.659384 0.017131 0.008956 3046.080000 0 0 1
15.016708 14.571385 28.218899 35.130230 0.770349 0.638039 0.017318 0.011802 -164322.000000 0 0 1
14.609908 13.504985 29.084799 35.238609 0.746118 0.599944 0.023138 0.009428 -89341.800000 0 0 1
14.755408 13.710585 30.487699 36.540416 0.748710 0.583834 0.021601 0.014502 -381012.000000 0 0 1
16.183708 13.516585 31.038999 37.523725 0.695837 0.596720 0.018494 0.017081 -498551.000000 0 0 1
17.060908 14.451385 30.506199 37.822550 0.702777 0.632485 0.016178 0.011245 -1179830.000000 0 0 1
18.353808 13.948985 30.563999 38.283084 0.649874 0.646216 0.011195 0.029174 -604321.000000 0 0 1
19.423108 15.044185 30.218699 38.945531 0.659029 0.682621 0.015080 0.018839 27569.400000 0 0 1
19.162708 15.779585 29.006199 38.178060 0.688879 0.707851 0.017235 0.007808 209785.000000 0 0 1
19.296608 15.062185 27.838899 37.070646 0.662775 0.721268 0.028366 0.007516 -349192.000000 0 0 1
19.072208 15.894485 26.552499 36.351327 0.694769 0.751829 0.011006 0.006369 125695.000000 0 0 1
20.133008 16.795485 26.211599 37.073903 0.695265 0.785536 0.016303 0.006440 359501.000000 0 0 1
19.985708 17.452885 24.969099 36.434704 0.717848 0.815766 0.007704 0.004921 -1032060.000000 0 0 1
21.143008 18.301685 24.554799 37.214468 0.713489 0.850219 0.010805 0.009266 -1089910.000000 0 0 1
21.016108 18.851585 23.281299 36.593414 0.731159 0.881213 0.011275 0.003731 246971.000000 0 0 1
22.112108 19.656785 22.808799 37.357407 0.726682 0.914034 0.026745 0.006438 148765.000000 0 0 1
22.311708 21.047185 23.396399 38.577037 0.756242 0.919164 0.040390 -0.010931 443788.000000 0 0 1
21.280008 21.900485 22.873999 38.153503 0.799767 0.927888 0.045975 -0.004512 548304.000000 0 0 1
21.409008 23.185585 23.475899 39.332363 0.825215 0.931215 0.051166 -0.005306 150566.000000 0 0 1
20.481808 24.225585 22.815699 39.076074 0.868943 0.947298 0.046346 -0.014993 136284.000000 0 0 1
20.998508 24.874075 21.632899 39.085026 0.869683 0.984256 0.053294 -0.013483 -63580.500000 0 0 1
20.169108 25.924695 21.251999 39.121991 0.909622 0.996524 0.060323 -0.018514 -652718.000000 0 0 1
20.820808 26.811275 20.206699 39.505205 0.910507 1.033873 0.053536 -0.016760 -306459.000000 0 0 1
20.762208 26.149675 18.955899 38.395324 0.899740 1.054453 0.039908 -0.015789 216685.000000 0 0 1
21.229008 26.975355 17.852499 38.691760 0.904046 1.091220 0.045255 -0.023781 -306750.000000 0 0 1
21.228508 26.241325 16.582399 37.606285 0.890608 1.114142 0.034055 -0.008694 -955407.000000 0 0 1
19.951108 25.933875 16.163499 36.494812 0.915053 1.111967 0.038210 -0.009508 -1200550.000000 0 0 1
19.957808 25.501945 14.815099 35.611100 0.906756 1.141727 0.042929 -0.003260 -748248.000000 0 0 1
18.651208 25.046205 14.162499 34.289303 0.930714 1.145018 0.035947 -0.006020 275635.000000 0 0 1
17.668808 26.065495 13.936399 34.435738 0.975083 1.154137 0.024758 -0.003049 -216488.000000 0 0 1
16.894808 26.495905 14.980399 34.812065 1.003160 1.125947 0.026106 -0.005957 -1241180.000000 0 0 1
15.388308 26.394005 14.709199 33.908761 1.042954 1.122104 0.016963 -0.007467 -697638.000000 0 0 1
14.913108 25.082005 14.615599 32.636230 1.034376 1.106455 0.019462 -0.000182 -31340.100000 0 0 1
14.532908 24.430465 15.834999 32.539211 1.034159 1.062553 0.026718 0.005116 218872.000000 0 0 1
13.355408 25.021235 16.678099 32.902707 1.080505 1.039222 0.037202 -0.001854 -16530.300000 0 0 1
13.743008 26.171015 17.362299 34.281799 1.087253 1.039724 0.034949 -0.008490 58578.600000 0 0 1
12.684208 26.818265 18.037199 34.719577 1.129006 1.024518 0.034793 -0.010201 53905.800000 0 0 1
13.212508 28.083375 18.691799 36.230231 1.131047 1.028718 0.031420 -0.010943 -77086.900000 0 0 1
13.589508 29.091795 17.763299 36.695259 1.133793 1.065489 0.031618 -0.004592 264705.000000 0 0 1
14.311008 30.117095 18.490499 38.127981 1.127202 1.064480 0.028421 -0.007089 95259.200000 0 0 1
14.337108 31.481095 17.761299 38.885418 1.143445 1.096447 0.019130 -0.009290 -599612.000000 0 0 1
13.084808 32.057335 17.524999 38.807351 1.183268 1.102250 0.019941 0.001494 -622856.000000 0 0 1
13.123508 33.311885 16.934299 39.606548 1.195509 1.129001 0.019391 -0.000964 -700252.000000 0 0 1
11.778408 34.017444 16.840899 39.743342 1.237470 1.133224 0.018452 -0.001989 -475936.000000 0 0 1
11.740308 -33.968465 16.222199 39.431601 -1.238025 1.146806 0.015593 -0.002238 -159484.000000 0 0 1
12.130108 -32.779725 16.970799 38.854316 -1.216373 1.118780 0.015787 -0.005845 78330.300000 0 0 1
11.620808 -32.597005 18.426499 39.206425 -1.228343 1.081521 0.027604 -0.016593 158938.000000 0 0 1
12.388608 -33.472565 19.280299 40.566244 -1.216318 1.075515 0.035887 -0.016962 846505.000000 0 0 1
11.915408 -33.298025 20.597999 40.926922 -1.227153 1.043398 0.036162 -0.018259 8175.150000 0 0 1
12.978208 -33.829935 21.586599 42.176767 -1.204480 1.033503 0.053400 -0.019167 -98793.000000 0 0 1
14.137908 -33.061565 21.659799 41.977308 -1.166705 1.028635 0.051449 -0.023128 -171578.000000 0 0 1
15.133308 -33.649205 22.495799 43.212810 -1.148161 1.023264 0.050671 -0.022691 455989.000000 0 0 1
16.564108 -33.131135 22.249999 43.210002 -1.107184 1.029874 0.067562 -0.028797 164474.000000 0 0 1
16.800808 -31.813075 22.671799 42.524691 -1.084914 1.008483 0.063750 -0.025566 9272.270000 0 0 1
18.086508 -31.354125 22.302299 42.515826 -1.047576 1.018593 0.065316 -0.019463 -209744.000000 0 0 1
-4.542592 13.061615 18.369682 22.993176 -1.236099 0.645301 0.015354 -0.006074 -269395.000000 0 1 0
-4.223992 14.277715 17.761982 23.177215 -1.283156 0.697648 0.011376 -0.011354 852686.000000 0 1 0
-5.439892 15.014615 17.486882 23.681684 -1.223200 0.740081 0.010838 -0.008163 831680.000000 0 1 0
-5.183892 16.510015 17.164982 24.373961 -1.266559 0.789452 0.017988 -0.017422 68576.200000 0 1 0
-4.630092 17.175715 18.309082 25.527739 -1.307483 0.770987 0.008390 -0.003004 283545.000000 0 0 1
-4.618692 18.581815 18.224382 26.433772 -1.327174 0.810087 0.011221 0.005894 -399802.000000 0 0 1
-3.880592 19.167715 19.455382 27.585725 -1.371042 0.787992 -0.002587 0.008784 -467523.000000 0 0 1
-4.739592 19.368715 20.542882 28.629021 -1.330809 0.770512 -0.025145 0.011973 -164430.000000 0 0 1
-4.117092 19.986915 21.676782 29.770961 -1.367648 0.755224 -0.029839 0.017785 238357.000000 0 0 1
-5.154592 20.350815 22.791182 30.986505 -1.322727 0.744363 -0.041596 0.021237 682171.000000 0 0 1
-5.721692 19.210915 23.510582 30.895704 -1.281327 0.705995 -0.041119 0.013978 338012.000000 0 0 1
-6.446992 19.510215 24.712472 32.139049 -1.251650 0.693641 -0.049800 0.012810 1078300.000000 0 0 1
-5.493492 20.205215 25.792182 33.221467 -1.305329 0.681909 -0.056992 0.010677 -450312.000000 0 0 1
-5.333092 21.603715 25.587052 33.909580 -1.328775 0.715802 -0.053504 0.007917 5074.350000 0 0 1
-4.336392 22.224615 26.380912 34.766224 -1.378101 0.709314 -0.035051 0.021019 166783.000000 0 0 1
-2.860992 21.807415 26.238012 34.237142 -1.440348 0.697639 -0.020323 0.019427 -761574.000000 0 0 1
-2.677992 20.440815 26.528272 33.596842 -1.440526 0.660629 -0.014828 0.023719 126706.000000 0 0 1
-1.249492 20.237415 26.500242 33.367305 -1.509133 0.653110 -0.005303 0.019870 978588.000000 0 0 1
-0.770792 18.931915 27.020012 33.001403 -1.530105 0.611560 -0.011006 0.022825 -283785.000000 0 0 1
-1.185592 17.822015 26.246312 31.747421 -1.504370 0.597539 -0.003530 0.020859 -197138.000000 0 0 1
-0.622792 16.565115 26.685382 31.414973 -1.533217 0.555858 -0.003458 0.017854 863552.000000 0 0 1
0.890208 16.358815 26.281082 30.969317 1.516432 0.557431 0.011611 0.018085 527250.000000 0 0 1
1.141808 16.141715 24.928942 29.720546 1.500177 0.575761 0.008212 0.013117 -289468.000000 0 0 1
0.975408 14.787915 24.632092 28.746719 1.504932 0.541636 0.021889 0.010055 -221546.000000 0 0 1
1.069308 14.510815 23.151182 27.343819 1.497239 0.561101 0.020465 -0.000935 253872.000000 0 0 1
2.403508 14.535515 22.669882 27.036672 1.406925 0.576297 0.023928 -0.004740 42557.800000 0 0 1
2.584408 13.983115 21.382282 25.678954 1.388035 0.586871 0.017539 -0.007262 1473820.000000 0 0 1
4.118608 13.795315 20.955982 25.424926 1.280669 0.601956 0.007801 -0.008357 1479430.000000 0 0 1
4.588708 14.958115 20.351582 25.670769 1.273140 0.655420 0.000809 -0.006445 -930476.000000 0 0 1
5.951908 14.770915 20.125882 25.664300 1.187751 0.669394 0.004795 -0.004922 -426216.000000 0 0 1
6.546808 15.932715 19.258282 25.837832 1.180926 0.729733 0.008413 -0.007419 -113779.000000 0 0 1
6.100008 15.702115 17.971282 24.631961 1.200257 0.753071 -0.000237 -0.013150 -117445.000000 0 1 0
6.447008 16.709415 17.065082 24.738341 1.202564 0.809551 -0.010188 -0.004526 -136348.000000 0 1 0
6.322808 16.236415 15.609682 23.393616 1.199443 0.840269 -0.013227 -0.004956 742424.000000 0 1 0
7.234108 15.221415 15.080682 22.615278 1.127137 0.840841 -0.016382 -0.004708 637352.000000 0 1 0
7.499908 14.045115 15.867682 22.478817 1.080330 0.787111 -0.007408 -0.005437 -315319.000000 0 1 0
8.505508 13.027415 15.255282 21.789467 0.992390 0.795228 -0.009692 -0.006667 164226.000000 0 1 0
9.751508 13.697215 15.120182 22.612508 0.952106 0.838385 -0.010843 -0.009930 -545721.000000 0 1 0
10.572508 12.863515 14.352182 21.982563 0.882844 0.859404 -0.019974 -0.002053 -76569.400000 0 1 0
12.007708 13.447215 14.218482 22.960355 0.841889 0.902993 -0.006864 0.002170 -341972.000000 0 1 0
12.571308 13.571815 15.538282 24.159267 0.823650 0.872178 0.004654 0.004071 645269.000000 0 1 0
13.929808 13.989115 15.652082 25.193701 0.787522 0.900434 0.008040 0.010092 716243.000000 0 0 1
15.022308 13.067715 15.064982 24.967752 0.715927 0.923066 -0.004378 0.007877 -760855.000000 0 1 0
16.335708 13.532315 15.274382 26.139734 0.691813 0.946735 0.008720 0.002206 686861.000000 0 0 1
17.255508 12.775815 14.435582 25.871994 0.637323 0.978869 0.010913 0.001663 -311990.000000 0 0 1
18.664708 13.322615 14.383682 27.069424 0.619919 1.010588 0.018860 0.005458 -740644.000000 0 0 1
19.411808 12.981515 15.521882 28.040451 0.589439 0.984172 0.008421 -0.005189 -258991.000000 0 0 1
20.696708 13.547915 15.454082 29.167249 0.579597 1.012380 0.021653 0.005146 -148066.000000 0 0 1
21.496808 13.429915 16.770982 30.393112 0.558412 0.986273 0.029724 0.008115 -7537.580000 0 0 1
21.965208 12.115315 16.928182 30.262429 0.504047 0.977159 0.017626 0.006815 84168.800000 0 0 1
22.966208 12.015115 17.901882 31.500589 0.482007 0.966354 0.002575 0.005863 -364724.000000 0 0 1
23.394208 10.593515 18.281782 31.523564 0.425202 0.952141 0.008791 0.012029 -444795.000000 0 0 1
22.357108 9.905515 18.931182 30.924896 0.417067 0.911999 -0.012239 0.006626 166373.000000 0 0 1
22.277508 8.589015 18.459982 30.179952 0.367985 0.912634 -0.006873 0.015109 111173.000000 0 0 1
21.078308 7.769715 19.018782 29.434294 0.353158 0.868276 0.007501 0.007074 23555.300000 0 0 1
20.992908 6.445415 18.505482 28.717564 0.297892 0.870563 0.011119 0.011624 714977.000000 0 0 1
19.797608 5.886515 19.057182 28.102892 0.289010 0.825592 0.003073 0.017278 202812.000000 0 0 1
19.556408 4.479215 18.554382 27.327305 0.225157 0.824439 0.016916 0.009017 -676719.000000 0 0 1
19.293308 4.410615 17.156282 26.192046 0.224746 0.856589 0.034811 -0.001276 285186.000000 0 0 1
19.375808 3.105515 16.529182 25.656969 0.158926 0.870770 0.020619 0.000396 20639.000000 0 0 1
18.288508 2.038115 16.867082 24.962410 0.110984 0.828883 0.026528 0.003879 114673.000000 0 1 0
18.504708 1.370915 18.117082 25.933228 0.073950 0.797350 0.012021 0.001862 610658.000000 0 0 1
17.341308 0.663915 18.585182 25.427756 0.038266 0.751155 0.009163 0.000997 264529.000000 0 0 1
17.689608 -0.165785 19.853482 26.591549 -0.009372 0.727847 0.001805 -0.002240 -49287.600000 0 0 1
18.089008 -1.451585 19.542282 26.668711 -0.080075 0.748399 0.006806 0.003581 -13462.300000 0 0 1
17.197708 -2.326485 20.208282 26.637349 -0.134462 0.709566 0.012189 0.003511 125734.000000 0 0 1
17.228308 -3.752485 19.632382 26.387993 -0.214460 0.731775 -0.000135 0.006812 -279683.000000 0 0 1
16.714908 -3.824385 18.320782 25.093129 -0.224929 0.752311 -0.016769 0.006325 155549.000000 0 0 1
16.696508 -5.144985 17.810182 24.948885 -0.298915 0.775792 0.002745 0.007788 -424229.000000 0 1 0
16.463708 -5.162285 16.282782 23.724078 -0.303846 0.814352 -0.004798 0.003493 -78249.000000 0 1 0
15.186908 -4.817785 15.786482 22.429139 -0.307191 0.790010 -0.013092 0.003158 -1437.500000 0 1 0
15.025508 -4.969485 14.399082 21.396150 -0.319412 0.832572 -0.006597 0.002402 374016.000000 0 1 0
15.556008 -3.745785 13.565582 20.977257 -0.236295 0.867572 -0.003704 0.003627 -49375.200000 0 1 0
14.712408 -2.660985 13.790982 20.340280 -0.178932 0.825740 -0.005704 0.003146 154774.000000 0 1 0
15.314508 -1.501185 13.208682 20.279473 -0.097712 0.861457 0.007634 -0.002474 13102.300000 0 1 0
14.408108 -0.239185 13.201982 19.543365 -0.016599 0.829123 0.014826 -0.002707 -775014.000000 0 1 0
14.896008 1.018415 12.837082 19.690579 0.068262 0.860656 0.025598 -0.003023 3156.060000 0 1 0
15.870808 1.573115 13.711882 21.032664 0.098797 0.860666 0.034201 -0.007463 90000.500000 0 1 0
16.289008 2.996615 13.253582 21.212471 0.181931 0.895919 0.043889 -0.006882 -277928.000000 0 1 0
15.274008 3.914315 13.537482 20.781738 0.250874 0.861352 0.053014 -0.001853 216312.000000 0 1 0
15.493408 5.072015 12.801782 20.728161 0.316370 0.905105 0.055402 -0.004573 -898173.000000 0 1 0
14.357708 6.038715 12.876182 20.209056 0.398130 0.880003 0.055917 -0.010113 -929989.000000 0 1 0
14.480108 7.229415 12.047882 20.176458 0.463060 0.930883 0.039597 -0.016580 418018.000000 0 1 0
13.436908 8.186915 12.227282 19.926930 0.547219 0.910177 0.025580 -0.013938 -8548.470000 0 1 0
13.627908 9.136415 13.434382 21.205579 0.590596 0.884688 0.030341 -0.019096 18028.500000 0 1 0
13.112308 8.691715 14.684182 21.519846 0.585367 0.819816 0.023196 -0.015924 640958.000000 0 1 0
13.845508 9.298515 15.749182 22.938989 0.591404 0.814038 0.041967 -0.017489 -51290.500000 0 1 0
13.417408 8.903815 17.192882 23.556315 0.585878 0.752675 0.047005 -0.014617 79803.800000 0 1 0
12.186908 9.512915 17.583382 23.413492 0.662790 0.721231 0.040561 -0.010756 611774.000000 0 1 0
11.444008 8.801715 18.566582 23.519215 0.655621 0.660930 0.042968 -0.003754 514081.000000 0 1 0
12.102008 8.947115 20.009382 25.037669 0.636623 0.644881 0.048719 -0.004982 -334380.000000 0 0 1
13.354708 8.368115 20.180682 25.605342 0.559752 0.663010 0.035584 -0.002362 -691089.000000 0 0 1
13.837908 8.284015 21.471982 26.854397 0.539424 0.644217 0.033073 -0.004698 -1025030.000000 0 0 1
15.334908 8.102615 21.406582 27.550927 0.486091 0.680938 0.030039 -0.000301 -1153290.000000 0 0 1
15.992808 9.254215 21.002482 27.973464 0.524572 0.721524 0.039878 0.006477 -487208.000000 0 0 1
17.182308 8.937615 20.329882 28.078761 0.479648 0.761168 0.037608 -0.000866 -391697.000000 0 0 1
17.871608 10.122915 19.668082 28.437673 0.515366 0.807066 0.035134 0.002736 -265662.000000 0 0 1
18.692408 10.810315 20.582182 29.831113 0.524331 0.809367 0.017400 0.000694 103328.000000 0 0 1
19.615608 11.594315 19.841882 30.214244 0.533832 0.854353 0.017542 0.009220 -49807.400000 0 0 1
20.474608 12.532915 20.672882 31.680461 0.549284 0.859860 0.000766 0.014537 -270464.000000 0 0 1
19.741608 13.703215 21.008882 31.919936 0.606775 0.852405 0.010199 0.008406 518315.000000 0 0 1
20.405108 14.636415 21.858282 33.292305 0.622237 0.854552 -0.016449 0.019451 16582.100000 0 0 1
21.671808 15.483015 21.549482 34.260345 0.620346 0.890540 -0.013198 0.024751 261812.000000 0 0 1
22.812208 14.669515 21.542982 34.636565 0.571478 0.899537 -0.009258 0.022453 -832860.000000 0 0 1
24.000208 15.387015 21.414582 35.656059 0.570107 0.926561 -0.004049 0.026551 -173128.000000 0 0 1
25.250508 14.479115 21.300782 36.068771 0.520645 0.939043 -0.006920 0.022691 -59103.000000 0 0 1
25.345908 13.706815 20.130982 35.150367 0.495745 0.960988 -0.019588 0.016185 -825227.000000 0 0 1
26.465208 12.927815 20.062182 35.637436 0.454392 0.972843 -0.015557 0.007151 -919354.000000 0 0 1
26.783508 12.260515 18.683682 34.882037 0.429291 1.005549 -0.007598 0.006731 -476007.000000 0 0 1
27.197008 13.177615 17.692582 35.019341 0.451191 1.041156 -0.005341 0.005612 316800.000000 0 0 1
27.644608 12.471515 16.508982 34.529836 0.423799 1.072297 0.003177 -0.002227 274108.000000 0 0 1
26.540208 11.971715 15.508282 32.988050 0.423750 1.081372 0.003751 -0.009149 97024.400000 0 0 1
25.827308 12.959015 14.861082 32.493656 0.465052 1.095780 0.017759 -0.010524 28610.700000 0 0 1
24.700308 12.381915 14.214382 31.071944 0.464676 1.095652 0.018000 -0.004334 257405.000000 0 0 1
24.136908 13.276115 13.096182 30.501731 0.502869 1.127014 0.021692 0.003846 -151833.000000 0 0 1
23.496608 14.449315 13.500482 30.710525 0.551342 1.115638 0.021912 0.003729 258129.000000 0 0 1
23.027108 15.210515 12.388882 30.250486 0.583755 1.148843 0.004476 0.007051 -43711.200000 0 0 1
22.323908 16.508815 12.760082 30.556792 0.636755 1.140010 0.019150 0.015402 -1042650.000000 0 0 1
21.089408 16.342415 13.341982 29.830289 0.659254 1.107094 0.031328 0.014110 -321926.000000 0 0 1
20.242408 17.475815 13.589982 29.997447 0.712180 1.100626 0.024964 0.018712 164826.000000 0 0 1
19.646808 18.270315 12.325882 29.525055 0.749111 1.140135 0.037515 0.020497 260189.000000 0 0 1
18.556408 17.632415 11.669082 28.132007 0.759871 1.143076 0.023289 0.020969 -55861.500000 0 0 1
17.337808 17.737115 12.344182 27.705301 0.796782 1.109004 0.011480 0.021425 -935983.000000 0 0 1
16.184608 17.008515 11.629982 26.200909 0.810215 1.110876 0.008536 0.020215 -260338.000000 0 0 1
16.124808 15.663115 11.915482 25.442511 0.770875 1.083397 0.002016 0.024079 1131400.000000 0 0 1
14.935808 15.076815 11.344782 24.064347 0.790096 1.079879 -0.005372 0.014806 920841.000000 0 1 0
15.357508 13.816715 10.490082 23.168869 0.732634 1.100931 0.006222 0.009685 -85232.800000 0 1 0
15.841008 12.732515 11.260882 23.234930 0.677035 1.064830 0.024540 0.014503 378243.000000 0 1 0
16.325808 11.728415 10.444982 22.653596 0.622967 1.091591 0.026781 0.008976 -411132.000000 0 1 0
16.715708 10.445915 11.138482 22.640624 0.558539 1.056447 0.036187 -0.002827 -1057830.000000 0 1 0
17.161308 9.346415 10.411882 22.142115 0.498704 1.081245 0.027625 -0.002652 457105.000000 0 1 0
17.692408 8.236815 11.123282 22.463166 0.435715 1.052756 0.033118 0.000723 383382.000000 0 1 0
18.963008 8.504115 11.972582 23.984545 0.421571 1.048145 0.019927 -0.001026 -335786.000000 0 1 0
18.665508 9.270015 13.128082 24.630894 0.460955 1.008663 0.020094 -0.001594 409094.000000 0 1 0
19.865308 9.477615 13.872482 26.017329 0.445155 1.008416 0.027930 -0.004604 -136310.000000 0 0 1
19.688008 9.814715 15.377082 26.840286 0.462457 0.960744 0.029743 0.006661 -102559.000000 0 0 1
19.143508 8.745215 16.126082 26.514208 0.428514 0.916999 0.043843 0.005629 1055390.000000 0 0 1
17.713508 8.617615 16.108882 25.446567 0.452789 0.885313 0.049648 -0.006493 440586.000000 0 0 1
17.306708 7.173015 16.630182 25.050694 0.392913 0.844826 0.044397 0.004247 840164.000000 0 0 1
15.904508 7.014015 16.933682 24.267249 0.415351 0.798475 0.037599 -0.002494 853559.000000 0 1 0
15.751308 5.668115 17.430182 24.166971 0.345423 0.765206 0.052874 0.007563 -198942.000000 0 1 0
14.288708 5.272415 17.692682 23.345161 0.353493 0.710749 0.044739 -0.004016 -137746.000000 0 1 0
13.876108 3.921615 17.772282 22.886229 0.275433 0.681626 0.056531 -0.002861 87798.500000 0 1 0
13.641508 3.287315 16.508082 21.665963 0.236470 0.704499 0.067079 -0.004924 -226162.000000 0 1 0
13.296708 1.822315 16.566082 21.320375 0.136202 0.680899 0.039372 -0.004263 -357728.000000 0 1 0
14.370408 1.017215 17.011682 22.292167 0.070668 0.702663 0.018907 0.002827 -71594.700000 0 1 0
14.259908 -0.389885 16.934982 22.142507 -0.027335 0.700038 0.011612 0.012978 -682828.000000 0 1 0
13.225308 -1.060585 17.819982 22.216782 -0.080022 0.640000 0.012644 0.011378 645212.000000 0 1 0
11.868708 -0.969285 17.366582 21.057159 -0.081486 0.601062 0.013619 0.001426 820028.000000 0 1 0
10.920008 -1.411285 18.340682 21.392030 -0.128526 0.540677 0.005757 0.000971 462181.000000 0 1 0
-25.450492 14.596515 29.286632 41.454706 -0.520726 0.786294 0.031655 -0.016264 -55899.900000 0 0 1
-24.352692 14.489115 30.184152 41.401342 -0.536713 0.753846 0.044765 -0.015689 409134.000000 0 0 1
-23.793392 13.206615 30.175202 40.633521 -0.506715 0.733825 0.044920 -0.002539 392486.000000 0 0 1
-22.554892 13.016515 31.116582 40.575787 -0.523414 0.696838 0.047913 -0.016791 530175.000000 0 0 1
-22.966392 13.190315 32.457212 41.891648 -0.521332 0.684414 0.051209 -0.018834 -208085.000000 0 0 1
-21.860392 13.113315 33.307313 41.942972 -0.540321 0.653255 0.033653 -0.008659 -420599.000000 0 0 1
-22.214392 13.177515 -34.329831 42.961185 -0.535402 2.496576 0.026186 0.000873 67168.700000 0 0 1
-22.912292 12.062015 -33.776801 42.559812 -0.484578 2.487551 0.017300 -0.001003 139438.000000 0 0 1
-23.352392 12.385315 -32.498201 41.891089 -0.487644 2.458744 -0.005121 -0.000048 115906.000000 0 0 1
-24.148192 11.275915 -31.747481 41.450983 -0.436857 2.443243 -0.018889 -0.002448 205670.000000 0 0 1
-23.315492 10.351315 -31.062491 40.195027 -0.417826 2.454029 -0.021921 -0.004039 65950.500000 0 0 1
-22.991792 9.228515 -31.818971 40.326603 -0.381698 2.480028 -0.022102 -0.000052 169812.000000 0 0 1
-22.159592 8.184615 -31.004951 38.978743 -0.353807 2.490517 -0.017710 0.007707 -574991.000000 0 0 1
-22.865792 7.459415 -30.053321 38.492719 -0.315340 2.466667 -0.025025 0.007694 -382946.000000 0 0 1
-22.087792 6.588915 -29.313031 37.289920 -0.289902 2.475245 -0.028172 0.014273 -406212.000000 0 0 1
-22.855592 5.869315 -28.145441 36.728637 -0.251368 2.443871 -0.024811 0.011127 -30420.000000 0 0 1
-23.684592 4.823015 -28.584061 37.433540 -0.200888 2.439659 -0.017551 0.004919 -160419.000000 0 0 1
-24.038992 4.051815 -27.474641 36.730726 -0.166982 2.415842 0.008946 0.002960 -454914.000000 0 0 1
-24.736892 2.721415 -27.820221 37.326728 -0.109574 2.411806 0.013940 0.001426 2001280.000000 0 0 1
-26.095752 2.739415 -28.405311 38.669812 -0.104592 2.395815 0.003277 0.001511 1852590.000000 0 0 1
-26.189462 3.452115 -29.678941 39.732160 -0.131058 2.414297 0.005703 -0.000959 -750198.000000 0 0 1
-27.601312 3.351815 -30.288701 41.115356 -0.120845 2.398938 0.015209 -0.008628 -871340.000000 0 0 1
-28.541352 4.091615 -29.602871 41.324086 -0.142387 2.369366 0.014783 -0.001914 -464731.000000 0 0 1
-29.752822 4.164415 -30.327961 42.689085 -0.139064 2.360917 0.018906 -0.009876 70801.800000 0 0 1
-29.927582 5.542015 -30.908491 43.378669 -0.183107 2.363890 0.019964 -0.029122 -884545.000000 0 0 1
-29.044632 5.742015 -31.988771 43.587187 -0.195179 2.394847 0.023411 -0.019677 198242.000000 0 0 1
-29.143572 7.033615 -32.607141 44.294979 -0.236815 2.398140 0.019626 -0.018252 -457460.000000 0 0 1
-28.534972 8.260515 -31.807441 43.522339 -0.281785 2.390334 0.004862 -0.018725 -398754.000000 0 0 1
-27.162822 8.332315 -31.542901 42.452338 -0.297642 2.408367 -0.034766 -0.017026 -140367.000000 0 0 1
-26.666142 7.484515 -30.521331 41.214715 -0.273634 2.404677 -0.026551 -0.012989 -619151.000000 0 0 1
-26.678752 8.174115 -29.115751 40.327397 -0.297309 2.377462 -0.029469 -0.004414 732910.000000 0 0 1
-28.021182 8.443815 -28.663181 40.964162 -0.292683 2.345793 -0.030978 -0.003250 1165820.000000 0 0 1
-28.599322 7.323515 -27.932971 40.642416 -0.250686 2.328543 -0.024900 0.007824 -903865.000000 0 0 1
-29.942712 7.747215 -27.380491 41.307101 -0.253182 2.295418 -0.017548 0.000434 -840414.000000 0 0 1
-29.877032 8.667415 -26.293021 40.731856 -0.282352 2.272494 -0.031515 0.011466 108955.000000 0 0 1
-30.086152 7.979715 -25.086591 39.977361 -0.259260 2.249160 -0.032979 0.011213 -163308.000000 0 0 1
-29.559212 8.741915 -23.828101 38.960833 -0.287546 2.228867 -0.030499 0.016037 -868266.000000 0 0 1
-30.309682 9.806815 -23.370701 39.510000 -0.312923 2.203731 -0.028515 0.013930 -132397.000000 0 0 1
-29.446992 10.632215 -22.665801 38.651104 -0.346496 2.197429 -0.035169 0.009960 -320101.000000 0 0 1
-30.257182 11.607715 -21.808101 39.061866 -0.366320 2.163127 -0.034228 0.014464 -142986.000000 0 0 1
-30.875972 10.952215 -20.728001 38.767598 -0.340870 2.134917 -0.043213 0.003996 257408.000000 0 0 1
-31.598392 11.764615 -19.828501 39.115649 -0.356416 2.102404 -0.029392 0.004606 312963.000000 0 0 1
-30.699822 12.579915 -18.803601 38.135400 -0.388902 2.086417 -0.045647 0.017174 394313.000000 0 0 1
-30.210192 11.909915 -17.598601 36.935248 -0.375527 2.067434 -0.032838 0.018249 706743.000000 0 0 1
-31.169732 11.711115 -16.560501 37.188070 -0.359402 2.032325 -0.031140 0.017293 -63890.600000 0 0 1
-31.477112 12.810115 -15.540201 37.368509 -0.386497 1.999688 -0.033392 0.017988 -258121.000000 0 0 1
-31.937002 13.988415 -16.155801 38.427305 -0.412830 2.004710 -0.031119 0.017710 364664.000000 0 0 1
-32.592952 14.892515 -15.284201 38.957596 -0.428597 1.973959 -0.030640 0.016688 -138673.000000 0 0 1
-33.301842 16.042315 -15.982001 40.271490 -0.448921 1.978886 -0.027725 0.019111 397102.000000 0 0 1
-34.279113 15.641015 -16.958501 41.319362 -0.428068 1.993716 -0.013691 0.006925 847505.000000 0 0 1
-35.053812 16.735715 -17.445301 42.581597 -0.445429 1.992912 -0.009609 0.004005 -417044.000000 0 0 1
34.717276 16.657315 -18.890401 42.890590 0.447357 2.026876 -0.006910 -0.003109 -64186.900000 0 0 1
33.536549 15.969915 -19.204601 41.815727 0.444422 2.047967 0.021888 -0.012718 393175.000000 0 0 1
32.339159 16.710115 -18.969801 41.047564 0.476930 2.051205 0.064695 -0.027025 -57326.600000 0 0 1
31.066219 15.856215 -19.206101 39.817130 0.471933 2.074141 0.066725 -0.031856 -148480.000000 0 0 1
30.813229 15.467715 -20.532301 40.128303 0.465233 2.107919 0.059067 -0.031742 155223.000000 0 0 1
29.690699 14.645615 -20.668601 39.028486 0.458251 2.128899 0.040604 -0.027816 -314918.000000 0 0 1
30.118909 13.175215 -20.708301 38.853169 0.412360 2.132925 0.029930 0.005430 28892.800000 0 0 1
30.495549 12.728615 -19.419301 38.328911 0.395409 2.102090 0.033352 0.000197 138488.000000 0 0 1
31.064319 11.432615 -19.385801 38.360213 0.352646 2.100598 0.027121 0.013362 -191035.000000 0 0 1
31.426319 10.997115 -17.969701 37.834643 0.336615 2.065708 0.014832 0.013952 -218408.000000 0 0 1
30.264379 10.721815 -17.235901 36.441271 0.340475 2.063463 0.020962 0.007661 -188349.000000 0 0 1
30.642009 10.310315 -15.966701 36.057882 0.324577 2.029524 -0.010486 0.009343 -132385.000000 0 0 1
30.259739 11.284415 -14.857101 35.548886 0.356945 2.001967 0.011258 -0.002028 370386.000000 0 0 1
28.854959 11.562015 -14.831601 34.442202 0.381105 2.015979 0.001912 0.007791 638477.000000 0 0 1
28.533899 12.613115 -13.952401 34.175189 0.416214 1.991345 -0.000970 0.011293 -354615.000000 0 0 1
27.019639 12.803115 -13.776101 32.920535 0.442505 2.002551 0.030371 -0.000835 -286057.000000 0 0 1
26.445799 11.603815 -13.169601 31.740624 0.413482 1.998644 0.004283 0.015023 920746.000000 0 0 1
25.024019 11.489115 -13.337001 30.595374 0.430415 2.021852 0.008357 0.015310 503876.000000 0 0 1
24.664119 10.750515 -14.720401 30.668919 0.411047 2.071426 -0.003191 0.009496 -592674.000000 0 0 1
24.789819 9.347015 -14.725001 30.310518 0.360567 2.078080 -0.014765 0.015268 -625420.000000 0 0 1
26.045989 8.894615 -15.047901 31.367930 0.329079 2.071135 -0.011587 0.011021 -1181930.000000 0 0 1
26.460399 7.604315 -14.268401 31.009121 0.279843 2.048944 -0.019138 0.011492 -165252.000000 0 0 1
25.755279 6.390315 -14.582601 30.279082 0.243205 2.073283 -0.001272 0.005174 577795.000000 0 0 1
25.633329 5.573015 -13.409201 29.460698 0.214081 2.043343 -0.012619 0.004792 -511058.000000 0 0 1
24.730119 4.395615 -13.646901 28.585628 0.175906 2.068495 -0.006621 0.006537 -598925.000000 0 0 1
24.732219 3.667815 -12.435201 27.924358 0.147228 2.032325 -0.027694 0.002098 49298.300000 0 0 1
23.955019 2.512815 -12.462501 27.119571 0.104515 2.048272 -0.027043 -0.002683 -304538.000000 0 0 1
23.059019 2.299215 -11.200201 25.738090 0.099382 2.021013 -0.031654 0.002861 -162667.000000 0 0 1
23.758119 2.034115 -10.004001 25.858575 0.085409 1.968035 -0.032240 0.004918 103856.000000 0 0 1
22.947819 2.178815 -8.880001 24.702309 0.094663 1.938508 -0.032114 0.010004 -775473.000000 0 1 0
23.546919 1.637315 -7.524101 24.773984 0.069422 1.879380 -0.030856 0.009047 -166740.000000 0 1 0
23.635419 0.219215 -7.415801 24.772469 0.009275 1.874815 -0.039385 0.001438 903086.000000 0 1 0
24.612819 -0.391785 -8.277201 25.970299 -0.015917 1.895173 -0.012971 -0.004967 -226818.000000 0 0 1
24.687219 -1.907485 -8.010701 26.024385 -0.077113 1.883692 0.002367 -0.011245 -697633.000000 0 0 1
25.282369 -2.314585 -6.797301 26.282291 -0.091295 1.832397 0.016340 -0.004494 541380.000000 0 0 1
25.288649 -3.711485 -6.588401 26.395036 -0.145724 1.823071 0.013641 -0.001954 -300977.000000 0 0 1
26.541939 -4.162685 -5.800701 27.485462 -0.155567 1.783441 0.012027 -0.006309 -150770.000000 0 0 1
27.750479 -4.144685 -6.514901 28.804712 -0.148260 1.798945 0.017858 -0.006903 349704.000000 0 0 1
28.837169 -4.565685 -5.673901 29.742578 -0.157023 1.762740 0.025872 -0.001082 589391.000000 0 0 1
30.141239 -4.745585 -6.514101 31.200134 -0.156163 1.781128 0.034330 -0.008099 -27312.700000 0 0 1
30.107059 -5.686285 -7.561901 31.558695 -0.186670 1.812764 0.014941 -0.005657 57026.200000 0 0 1
30.951709 -5.491485 -8.698301 32.616333 -0.175594 1.840749 0.013066 -0.011262 -893555.000000 0 0 1
30.694929 -6.523185 -9.819401 32.880865 -0.209401 1.874059 0.010134 -0.002978 -27734.100000 0 0 1
29.431209 -6.418285 -10.443001 31.881762 -0.214716 1.904510 0.015577 -0.004060 80422.400000 0 0 1
28.398989 -6.985285 -9.671501 30.803161 -0.241182 1.890176 0.020506 -0.010144 -968451.000000 0 0 1
27.206599 -6.048785 -9.406101 29.415329 -0.218770 1.896282 0.009276 -0.006233 -772819.000000 0 0 1
26.508429 -5.675385 -10.585301 29.102498 -0.210913 1.943060 -0.002074 -0.001141 653009.000000 0 0 1
25.333129 -4.936585 -10.331401 27.800632 -0.192455 1.951555 -0.003339 0.000349 743955.000000 0 0 1
23.988319 -5.628885 -9.925701 26.563948 -0.230481 1.953741 0.011593 -0.005598 -801171.000000 0 0 1
23.986219 -6.295685 -8.665501 26.269093 -0.256681 1.906967 0.007430 -0.003090 -529725.000000 0 0 1
22.882519 -7.090385 -8.451301 25.402908 -0.300478 1.909951 0.004167 -0.007423 -825448.000000 0 0 1
21.731919 -6.291085 -7.765701 23.919870 -0.281783 1.901443 -0.005524 -0.002350 -236159.000000 0 1 0
21.139819 -5.325985 -8.621501 23.443301 -0.246805 1.947395 -0.006672 -0.003888 409759.000000 0 1 0
21.224019 -4.027685 -8.049301 23.053687 -0.187540 1.927465 -0.007950 -0.005203 -442117.000000 0 1 0
21.125819 -2.967285 -9.111901 23.197667 -0.139545 1.974464 -0.006039 -0.001388 199124.000000 0 1 0
22.253919 -3.002585 -10.018301 24.588997 -0.134114 1.990435 -0.013868 -0.001821 1177660.000000 0 1 0
22.140819 -2.044485 -11.021701 24.816803 -0.092079 2.030991 -0.007143 -0.003449 -471187.000000 0 1 0
23.379519 -1.999785 -11.931001 26.323941 -0.085328 2.041190 -0.001198 -0.007162 -376683.000000 0 0 1
24.397419 -1.154585 -11.444801 26.973146 -0.047289 2.008989 -0.008871 -0.007820 162254.000000 0 0 1
25.518939 -1.195185 -12.288901 28.348930 -0.046801 2.019155 0.002261 -0.007987 -407127.000000 0 0 1
26.630449 -0.243885 -11.795701 29.126944 -0.009158 1.987748 0.005764 -0.004835 -104919.000000 0 0 1
27.910569 -0.592485 -12.324601 30.516335 -0.021225 1.986538 0.013700 -0.010241 311562.000000 0 0 1
28.858749 0.428215 -12.262801 31.359003 0.014837 1.972564 0.023425 -0.008874 -365097.000000 0 0 1
28.720879 1.695715 -13.088901 31.608285 0.058973 1.997747 0.019856 -0.006011 -641995.000000 0 0 1
29.141019 1.367915 -14.400301 32.533657 0.046907 2.029323 0.030473 -0.008678 386548.000000 0 0 1
29.021629 2.549415 -15.196901 32.858793 0.087620 2.051599 0.014376 -0.002290 -25598.900000 0 0 1
29.360299 2.354215 -16.660301 33.839845 0.080012 2.085559 0.012982 -0.007248 -102503.000000 0 0 1
28.316309 1.693415 -17.334201 33.243880 0.059732 2.119317 0.015110 -0.000668 -17595.900000 0 0 1
28.615279 1.627715 -18.722501 34.234715 0.056821 2.149437 0.003584 -0.000859 397935.000000 0 0 1
27.545999 0.803415 -19.554201 33.790447 0.029158 2.187918 0.002690 0.005673 415015.000000 0 0 1
27.387749 -0.558785 -19.303701 33.511698 -0.020400 2.184658 0.010562 0.007584 -27946.600000 0 0 1
26.736839 -1.118485 -20.406401 33.653095 -0.041809 2.222290 0.000314 0.007032 -350207.000000 0 0 1
26.497819 -2.635085 -20.435101 33.565927 -0.099119 2.225350 -0.005026 0.010189 -183407.000000 0 0 1
25.452359 -3.039785 -19.580601 32.256206 -0.118867 2.223119 0.011017 0.005789 264914.000000 0 0 1
25.126719 -4.463285 -19.575601 32.163288 -0.175797 2.225131 0.011335 0.004358 -45048.800000 0 0 1
25.998369 -5.271485 -18.592801 32.394382 -0.200050 2.182119 -0.004588 0.007710 -876243.000000 0 0 1
27.328199 -5.356385 -18.954801 33.686879 -0.193549 2.168416 -0.010954 0.007863 -867196.000000 0 0 1
28.092929 -5.465785 -17.760801 33.682837 -0.192160 2.126211 -0.013892 0.012279 -942709.000000 0 0 1
29.586859 -5.393585 -17.956301 35.027157 -0.180317 2.109052 -0.011732 0.017841 -1073030.000000 0 0 1
30.113839 -6.432385 -18.750901 36.052950 -0.210440 2.117757 -0.026784 0.018600 -473941.000000 0 0 1
31.505589 -6.288285 -18.700801 37.173440 -0.197004 2.097942 -0.025208 0.020811 -745431.000000 0 0 1
32.246439 -7.327485 -19.484301 38.381804 -0.223440 2.103245 -0.027776 0.027055 -446235.000000 0 0 1
32.389579 -8.518685 -18.737601 38.376432 -0.257183 2.080889 -0.023892 0.019928 368352.000000 0 0 1
33.168269 -9.552485 -19.368901 39.579520 -0.280412 2.082160 -0.021538 0.021649 -203912.000000 0 0 1
33.886539 -10.396085 -18.308501 39.894578 -0.297675 2.047578 -0.016713 0.015221 -978582.000000 0 0 1
33.097409 -11.179885 -17.429301 39.041118 -0.325754 2.033573 -0.024649 0.015788 -83182.900000 0 0 1
33.817419 -11.994585 -16.502601 39.494604 -0.340844 2.001868 -0.000686 0.005490 -419003.000000 0 0 1
34.814860 -11.305485 -15.536301 39.765125 -0.313989 1.972190 0.005579 0.003219 -614828.000000 0 0 1
-34.946500 -12.115485 -14.444601 39.707547 0.333720 1.943113 -0.002674 0.003590 640886.000000 0 0 1
-34.041182 -13.201785 -14.658601 39.344171 0.369961 1.952577 -0.005051 0.009491 739253.000000 0 0 1
-32.650732 -12.883685 -15.332801 38.303452 0.375835 1.982639 -0.014214 0.011377 -63278.700000 0 0 1
-32.668652 -12.659985 -16.715201 38.818990 0.369708 2.015946 -0.014716 0.018562 651586.000000 0 0 1
-31.321422 -12.523485 -17.186901 37.858403 0.380366 2.042022 -0.011757 0.012295 468500.000000 0 0 1
-31.217712 -11.522685 -18.411601 38.030315 0.353594 2.076164 -0.006140 0.011988 53425.000000 0 0 1
-31.342282 -10.127985 -18.052101 37.560525 0.312550 2.072151 0.008828 0.008883 513873.000000 0 0 1
-32.698042 -9.720685 -18.149401 38.640062 0.288965 2.059752 -0.003539 0.005475 -366029.000000 0 0 1
-32.920082 -8.275185 -17.782701 38.320163 0.246269 2.053365 0.004892 0.009608 262217.000000 0 0 1
-34.314330 -7.985485 -17.785301 39.465911 0.228646 2.038289 0.002733 0.007281 483696.000000 0 0 1
-34.509283 -6.573585 -17.533301 39.262186 0.188232 2.033724 0.003702 0.006975 -380292.000000 0 0 1
23.825108 27.522115 -27.827341 45.819903 0.857274 2.223479 0.004452 0.019991 75100.600000 0 0 1
24.141408 26.648315 -26.770771 44.828724 0.834717 2.210776 -0.003364 0.011607 424305.000000 0 0 1
25.439208 26.088415 -26.967791 45.332334 0.797997 2.207926 -0.002144 0.010779 372453.000000 0 0 1
25.963708 25.288715 -25.757481 44.464380 0.772229 2.188646 0.003184 0.000741 -315304.000000 0 0 1
26.133808 26.038315 -24.559601 44.318662 0.783568 2.158149 0.007708 0.009246 275612.000000 0 0 1
26.525008 25.195715 -23.482901 43.472368 0.759702 2.141447 0.016671 0.006335 -114045.000000 0 0 1
27.194508 26.016115 -22.345801 43.768874 0.763256 2.106610 0.017501 0.011061 448769.000000 0 0 1
26.354508 27.024615 -21.721901 43.551474 0.797951 2.092968 0.009791 0.016554 334483.000000 0 0 1
27.039508 27.674415 -20.689101 43.875360 0.797002 2.061836 -0.003329 0.021888 -80383.400000 0 0 1
26.197808 28.766415 -20.001601 43.748095 0.832097 2.045640 -0.001708 0.033389 -705262.000000 0 0 1
25.298108 28.324715 -19.072001 42.497353 0.841781 2.036197 0.006308 0.023553 -562892.000000 0 0 1
24.492508 29.394015 -18.596701 42.540903 0.876108 2.023222 0.002209 0.021571 -310378.000000 0 0 1
23.503008 28.863115 -17.561901 41.156909 0.887401 2.011644 0.003515 0.018183 -365267.000000 0 0 1
22.541108 28.038815 -18.142101 40.291594 0.893667 2.037864 0.017132 0.013250 755245.000000 0 0 1
21.309808 27.913115 -17.369801 39.178565 0.918753 2.030129 0.004023 0.013530 1232570.000000 0 0 1
20.368108 26.784615 -17.864001 38.097218 0.920647 2.058848 -0.002732 0.011932 -294878.000000 0 0 1
19.804608 27.237315 -19.108001 38.719628 0.942104 2.086902 -0.002971 0.014068 -149937.000000 0 0 1
19.088008 26.170515 -19.697701 37.911045 0.940629 2.117152 0.005269 0.010998 97554.900000 0 0 1
18.351008 26.525915 -21.037701 38.509331 0.965585 2.148738 -0.010342 0.017870 197802.000000 0 0 1
17.451808 27.576115 -20.932001 38.770561 1.006565 2.141108 -0.022218 0.025337 -1197940.000000 0 0 1
16.351808 27.401715 -21.748601 38.616542 1.032774 2.169042 -0.021361 0.017373 -171926.000000 0 0 1
15.191408 28.400315 -21.404201 38.671651 1.079618 2.157340 -0.022534 0.025350 245426.000000 0 0 1
14.737708 28.137615 -20.125001 37.602408 1.088312 2.135547 -0.016716 0.027120 -618772.000000 0 0 1
13.638608 28.929615 -19.795301 37.613671 1.130256 2.125015 -0.029997 0.024784 -203094.000000 0 0 1
13.343008 28.812415 -18.294601 36.645376 1.137103 2.093510 -0.024540 0.020254 -838890.000000 0 0 1
12.626908 27.697615 -18.018701 35.373299 1.143060 2.105269 -0.030985 0.024839 -776893.000000 0 0 1
12.165508 27.719915 -16.668001 34.557424 1.157234 2.074106 -0.013435 0.022793 -336637.000000 0 0 1
11.239808 26.562015 -16.336801 33.147625 1.170491 2.086158 0.006116 0.015519 -859075.000000 0 0 1
11.869408 25.301015 -16.398101 32.402499 1.132150 2.101424 -0.000266 0.012541 -463917.000000 0 0 1
10.978008 24.263815 -16.171301 31.157028 1.145912 2.116507 0.019839 0.004467 -218183.000000 0 0 1
11.798108 22.990515 -16.380101 30.595210 1.096666 2.135755 0.005645 0.006153 292169.000000 0 0 1
12.153208 22.806015 -17.740101 31.345271 1.081180 2.172391 -0.005742 0.011994 -70895.000000 0 0 1
13.125508 21.794215 -17.965101 31.145010 1.028726 2.185628 -0.003648 0.013446 104850.000000 0 0 1
12.536308 20.343415 -18.030201 29.934958 1.018525 2.217191 0.007394 0.003435 154952.000000 0 0 1
12.024008 19.784615 -16.840501 28.628836 1.024701 2.199672 0.015182 -0.001336 -48963.000000 0 0 1
11.518908 18.465815 -17.022501 27.630366 1.013063 2.234552 0.013142 -0.003792 36448.500000 0 0 1
12.587308 17.330215 -17.211301 27.477365 0.942622 2.247698 -0.004909 -0.000534 115068.000000 0 0 1
13.356708 17.191715 -16.049001 27.046759 0.910283 2.206048 -0.000432 0.001347 -224963.000000 0 0 1
14.346308 16.216115 -16.228601 27.058205 0.846502 2.214005 0.000226 0.006069 -715003.000000 0 0 1
14.813708 15.487815 -14.947701 26.129526 0.807641 2.179814 0.008482 0.013572 -983557.000000 0 0 1
15.506908 16.210015 -13.951801 26.417448 0.807563 2.127191 -0.010993 0.022809 2091240.000000 0 0 1
16.900908 16.590615 -14.207501 27.617790 0.776134 2.111143 -0.022077 0.024453 1009320.000000 0 0 1
17.896308 15.484215 -14.598801 27.805823 0.713263 2.123543 -0.025014 0.020222 -1341180.000000 0 0 1
18.228208 14.533415 -13.654001 27.017022 0.673095 2.100625 -0.009643 0.019693 391360.000000 0 0 1
18.988708 15.030115 -12.572901 27.286503 0.669554 2.049663 -0.012616 0.019759 -846858.000000 0 0 1
19.589408 13.956915 -11.683501 26.740318 0.619048 2.022973 0.005416 0.013251 -132797.000000 0 0 1
18.650808 13.243615 -10.861201 25.322158 0.617461 2.014094 0.016804 0.009301 875603.000000 0 0 1
19.246008 12.107915 -10.138001 24.895572 0.561552 1.990206 0.025061 0.009215 431183.000000 0 1 0
19.909108 10.905515 -10.933801 25.196247 0.501126 2.019664 0.021564 0.011893 7101.090000 0 0 1
21.083208 11.250915 -11.673001 26.595934 0.490199 2.025172 0.004281 0.014918 932087.000000 0 0 1
21.617908 10.223215 -12.513401 26.989503 0.441738 2.052895 -0.005636 0.016614 -78652.900000 0 0 1
22.318908 9.045015 -11.784701 26.810915 0.385035 2.025892 -0.004378 0.022155 -896032.000000 0 0 1
21.390208 8.301815 -11.047101 25.465655 0.370217 2.019507 -0.003079 0.020614 321679.000000 0 0 1
21.901108 7.181715 -10.372001 25.274770 0.316867 1.993656 -0.016212 0.023681 -1124200.000000 0 0 1
22.354508 5.941315 -11.169301 25.686116 0.259772 2.020655 -0.008911 0.020000 -499208.000000 0 0 1
21.406308 5.090215 -11.766801 24.951912 0.233455 2.061877 0.018045 0.014077 538574.000000 0 1 0
20.603308 5.601815 -12.860501 24.925271 0.265472 2.112927 -0.004713 0.013149 -64736.300000 0 1 0
19.412308 4.687815 -13.132101 23.901159 0.236950 2.152483 -0.008297 0.000290 -519022.000000 0 1 0
19.785808 3.562315 -13.945001 24.466944 0.178136 2.177245 -0.017871 0.001221 96962.200000 0 1 0
18.772408 2.601415 -14.082401 23.611114 0.137700 2.209844 -0.009498 0.006524 -867959.000000 0 1 0
19.165608 1.309915 -14.798201 24.249189 0.068241 2.227179 -0.005976 -0.001833 -349580.000000 0 1 0
20.023608 0.568015 -13.956401 24.414108 0.028360 2.179316 -0.015997 -0.005465 6895.370000 0 1 0
21.349908 0.559615 -14.427001 25.773438 0.026206 2.164895 -0.002738 -0.010660 -437346.000000 0 0 1
21.793008 -0.855585 -14.943401 26.438088 -0.039239 2.171499 0.012098 -0.009248 -218638.000000 0 0 1
21.155608 -1.287185 -16.160201 26.652743 -0.060769 2.222226 0.007864 -0.004228 326041.000000 0 0 1
21.776008 -2.450185 -16.652801 27.522967 -0.112046 2.220626 0.013451 -0.009881 -176882.000000 0 0 1
20.880208 -3.157885 -17.706801 27.558776 -0.150101 2.268566 0.012885 -0.007551 592950.000000 0 0 1
19.700308 -3.752985 -17.174701 26.403738 -0.188248 2.278992 0.019403 -0.009545 215254.000000 0 0 1
18.971708 -4.480185 -18.109401 26.607296 -0.231902 2.319402 0.029161 -0.007850 -341726.000000 0 0 1
18.167708 -5.578785 -17.441201 25.795038 -0.297932 2.313315 0.032461 -0.010640 -439056.000000 0 0 1
18.936908 -6.688685 -17.031801 26.333007 -0.339531 2.274158 0.039683 -0.007503 112464.000000 0 0 1
18.162408 -7.576585 -16.307001 25.557699 -0.395209 2.262755 0.049661 -0.004606 -190673.000000 0 0 1
19.026508 -8.747585 -15.730501 26.191161 -0.430939 2.215052 0.058671 -0.007612 156858.000000 0 0 1
19.587808 -9.566485 -16.735801 27.482484 -0.454316 2.225548 0.063962 -0.010335 112811.000000 0 0 1
20.578608 -10.360085 -16.157501 28.140279 -0.466395 2.182395 0.056705 -0.012176 -604717.000000 0 0 1
21.153908 -11.492085 -17.096501 29.527042 -0.497654 2.188312 0.050720 -0.013816 -314250.000000 0 0 1
22.190708 -11.152485 -17.988101 30.665571 -0.465705 2.197638 0.046889 -0.008457 47022.900000 0 0 1
22.622308 -12.309385 -18.671601 31.810666 -0.498322 2.198096 0.044056 -0.010731 -355024.000000 0 0 1
21.875608 -12.617585 -20.005601 32.217538 -0.523177 2.240755 0.049195 -0.012741 83845.300000 0 0 1
20.491608 -12.826385 -19.891101 31.306199 -0.559270 2.259287 0.044475 -0.001277 -302286.000000 0 0 1
20.155908 -14.194785 -19.955301 31.716977 -0.613572 2.251278 0.033924 -0.003640 258091.000000 0 0 1
18.636208 -14.514185 -20.081501 31.003814 -0.661690 2.275372 0.041243 -0.001770 371190.000000 0 0 1
18.117508 -14.010085 -21.270601 31.256440 -0.658241 2.319267 0.041364 -0.000216 -1340640.000000 0 0 1
16.738908 -14.004985 -21.272201 30.476830 -0.696706 2.343368 0.047279 0.004991 -1006380.000000 0 0 1
16.276808 -13.057885 -22.361701 30.585757 -0.676104 2.390751 0.047555 0.003026 -280233.000000 0 0 1
16.420808 -13.745485 -23.594501 31.863487 -0.696944 2.404591 0.043706 0.006799 264761.000000 0 0 1
16.015508 -13.040385 -24.772201 32.252288 -0.683361 2.446627 0.055421 -0.002291 20414.400000 0 0 1
15.916808 -13.890385 -26.062731 33.549270 -0.717518 2.460443 0.050719 -0.011631 547448.000000 0 0 1
14.874508 -14.903785 -25.976711 33.438949 -0.786381 2.460428 0.048478 -0.013873 881247.000000 0 0 1
14.766208 -15.630485 -27.107261 34.599950 -0.813824 2.470991 0.048969 -0.012964 -83264.200000 0 0 1
15.680908 -16.883085 -27.233061 35.673086 -0.822299 2.439367 0.044511 -0.010604 -478337.000000 0 0 1
17.056808 -16.687985 -27.322021 36.275562 -0.774469 2.423679 0.049280 -0.007217 -572012.000000 0 0 1
17.694708 -17.927885 -27.310711 37.153556 -0.791944 2.396576 0.037057 -0.004109 438201.000000 0 0 1
19.253008 -17.980485 -27.319091 37.951402 -0.751235 2.374374 0.016558 -0.000270 576587.000000 0 0 1
19.823408 -17.378585 -26.169401 37.145932 -0.719775 2.352518 0.019139 0.000188 378095.000000 0 0 1
21.148608 -16.897985 -26.382001 37.799676 -0.674138 2.343317 0.015919 0.007354 394854.000000 0 0 1
21.815208 -16.270085 -25.150481 37.056250 -0.640817 2.316802 0.021253 0.007896 -25005.400000 0 0 1
21.554708 -14.874485 -24.917101 36.148550 -0.604038 2.331315 0.030200 -0.001486 9209.450000 0 0 1
20.348108 -14.678285 -24.194701 34.855145 -0.624917 2.338035 0.039604 -0.000523 333809.000000 0 0 1
20.327808 -13.255285 -23.585801 33.840987 -0.577834 2.341945 0.038668 0.000564 7908.360000 0 0 1
20.320808 -12.148885 -24.443901 34.029913 -0.538840 2.372161 0.044534 -0.001830 38057.300000 0 0 1
19.754508 -11.086485 -23.767001 32.833231 -0.511411 2.380192 0.047489 -0.002693 -92329.800000 0 0 1
19.951708 -9.779185 -24.553101 33.114316 -0.455731 2.406047 0.052915 0.003146 -18908.400000 0 0 1
19.328108 -8.659685 -23.972201 31.988003 -0.421219 2.417970 0.045680 -0.004090 117509.000000 0 0 1
19.444708 -7.525485 -24.862201 32.447783 -0.369267 2.443737 0.033913 0.000528 -202947.000000 0 0 1
19.060908 -6.242685 -24.151201 31.393787 -0.316503 2.448539 0.027781 -0.002827 6124.670000 0 0 1
17.734608 -6.406785 -23.676501 30.267804 -0.346670 2.469040 0.043022 -0.002630 -206437.000000 0 0 1
17.328808 -5.516085 -22.645601 29.043726 -0.308177 2.464994 0.026931 -0.001291 -163731.000000 0 0 1
17.954308 -5.669285 -21.242801 28.385817 -0.305854 2.416382 0.027197 -0.004019 -360960.000000 0 0 1
17.522408 -6.742185 -20.393201 27.719569 -0.367313 2.397491 0.041517 0.000909 77364.400000 0 0 1
17.873308 -8.005585 -20.873401 28.622429 -0.421112 2.388047 0.053339 0.001176 -146293.000000 0 0 1
17.408608 -9.144885 -19.897201 27.974760 -0.483689 2.362079 0.056035 -0.004799 -128921.000000 0 0 1
16.030608 -9.150485 -19.635301 26.949153 -0.518682 2.387080 0.040227 -0.005378 -365398.000000 0 0 1
15.616808 -10.381085 -19.024901 26.713264 -0.586666 2.363408 0.047939 -0.005453 270677.000000 0 0 1
14.072608 -10.453785 -18.858501 25.748068 -0.638907 2.392672 0.046795 -0.001199 309030.000000 0 0 1
13.396508 -9.831585 -17.790301 24.343815 -0.633112 2.390280 0.048418 0.000377 153681.000000 0 1 0
13.418408 -8.416185 -17.787901 23.817961 -0.560188 2.414075 0.036063 -0.011003 -498283.000000 0 1 0
12.121108 -7.786685 -17.235001 22.463281 -0.571019 2.445342 0.026608 -0.005144 -162114.000000 0 1 0
11.085308 -7.787585 -18.202801 22.690802 -0.612411 2.501785 0.021169 -0.006714 7397.760000 0 1 0
10.127708 -6.817285 -17.786901 21.573588 -0.592465 2.540072 -0.001689 -0.001808 -467560.000000 0 1 0
8.759308 -6.792085 -18.429001 21.505487 -0.659568 2.600107 -0.002407 0.007457 -481657.000000 0 1 0
8.739008 -6.477985 -19.810901 22.601026 -0.637892 2.639441 0.011395 0.001439 -823571.000000 0 1 0
7.435308 -6.121685 -20.116101 22.302833 -0.688803 2.695067 0.016919 0.003920 -536469.000000 0 1 0
7.156408 -5.895785 -21.630301 23.533899 -0.689114 2.736618 0.028410 -0.005246 -93452.200000 0 1 0
7.108708 -7.110685 -22.369701 24.525479 -0.785537 2.719175 0.032520 -0.012765 216600.000000 0 1 0
6.472808 -6.909885 -23.657801 25.482059 -0.818046 2.760907 0.042846 -0.014515 -58769.600000 0 0 1
6.431908 -8.119685 -24.583901 26.677086 -0.900868 2.742815 0.039280 -0.016891 -315919.000000 0 0 1
5.437908 -9.045885 -24.255601 26.452468 -1.029534 2.731165 0.032049 -0.009431 -146748.000000 0 0 1
5.429908 -9.972185 -25.300351 27.731501 -1.072181 2.719742 0.020675 0.002339 -94364.100000 0 0 1
4.655008 -11.290685 -25.095511 27.909377 -1.179742 2.688685 0.023954 -0.002063 47498.900000 0 0 1
5.176508 -12.061985 -24.045201 27.394514 -1.165408 2.641917 0.018090 -0.003645 60156.900000 0 0 1
4.435708 -13.275185 -23.940801 27.732075 -1.248324 2.612547 0.025433 -0.002551 -419993.000000 0 0 1
5.027308 -14.289585 -22.946901 27.495933 -1.232504 2.558123 0.022140 -0.002364 409880.000000 0 0 1
6.229808 -15.013985 -23.238501 28.359446 -1.177483 2.531207 0.030165 -0.003582 463334.000000 0 0 1
7.443808 -14.306085 -23.361101 28.386888 -1.091022 2.537388 0.028965 -0.007287 -32719.700000 0 0 1
8.140608 -13.763785 -22.136401 27.308085 -1.036686 2.516002 0.030297 -0.001604 -658901.000000 0 0 1
8.611808 -14.648385 -21.124701 27.110725 -1.039320 2.464186 0.032449 0.007503 110898.000000 0 0 1
7.654708 -15.266585 -20.274201 26.508610 -1.106027 2.441552 0.030184 0.009646 48561.400000 0 0 1
8.292208 -15.865985 -18.996601 26.102893 -1.089201 2.385844 0.016867 0.012374 596122.000000 0 0 1
9.182908 -16.995085 -19.171601 27.215970 -1.075410 2.352409 0.026557 0.011403 45419.200000 0 0 1
9.690208 -17.385085 -17.906801 26.773024 -1.062300 2.303440 0.032285 0.010836 -86179.600000 0 0 1
8.695008 -18.163485 -16.985601 26.344373 -1.124327 2.271496 0.010086 0.001784 -412260.000000 0 0 1
8.391308 -19.475885 -17.336401 27.391147 -1.163976 2.256115 0.011179 -0.000153 -119153.000000 0 0 1
7.644708 -19.819785 -18.489901 28.162775 -1.202668 2.287015 0.007017 0.006573 724525.000000 0 0 1
6.111908 -19.484585 -18.308401 27.426302 -1.266838 2.301708 0.012195 0.003277 463217.000000 0 0 1
5.757508 -18.128885 -18.089601 26.249553 -1.263283 2.331097 0.011350 0.004686 49066.100000 0 0 1
4.347808 -17.944285 -18.027601 25.804945 -1.333083 2.344250 0.003564 0.004522 499939.000000 0 0 1
4.079108 -16.572585 -17.482601 24.432172 -1.329458 2.368217 -0.006416 0.015609 -14730.900000 0 1 0
4.460608 -16.402285 -16.108101 23.418004 -1.305267 2.329321 -0.010299 0.018531 169271.000000 0 1 0
4.371208 -15.050485 -15.759501 22.225806 -1.288136 2.358965 -0.009330 0.023689 65186.400000 0 1 0
10.424408 30.656215 -18.013401 37.053400 1.243020 2.078472 0.003629 0.005905 -690949.000000 0 0 1
9.566308 30.002915 -18.905701 36.730297 1.262141 2.111474 0.010853 0.008518 -359458.000000 0 0 1
8.608408 29.228315 -18.247601 35.515828 1.284372 2.110390 0.017223 0.005976 158401.000000 0 0 1
7.504308 28.655815 -19.204201 35.302574 1.314671 2.145980 0.023970 0.003420 634889.000000 0 0 1
6.576108 29.656415 -19.662301 36.185000 1.352584 2.145258 0.030854 -0.014708 -239258.000000 0 0 1
6.017108 29.111215 -20.790101 36.275291 1.366973 2.181105 0.033401 -0.014950 582298.000000 0 0 1
4.821008 29.970615 -21.399801 37.140697 1.411305 2.184846 0.038646 -0.017963 1220890.000000 0 0 1
3.666308 30.070615 -20.576901 36.620931 1.449472 2.167464 0.041925 -0.023231 -271021.000000 0 0 1
2.760008 31.028015 -21.064301 37.603991 1.482078 2.165377 0.026370 -0.021164 -612611.000000 0 0 1
1.375908 30.775115 -20.397301 36.946593 1.526118 2.155647 0.035497 -0.023031 -10042.900000 0 0 1
0.755108 29.585115 -20.788101 36.166205 1.545279 2.183148 0.035651 -0.026215 75393.200000 0 0 1
0.239808 29.560115 -22.129401 36.926526 1.562684 2.213400 0.029443 -0.027184 -834428.000000 0 0 1
-0.114492 28.139015 -22.596501 36.089045 -1.566728 2.247379 0.033380 -0.021823 -201420.000000 0 0 1
-1.106892 27.671715 -21.720901 35.195832 -1.530817 2.235904 0.037440 -0.022630 -329377.000000 0 0 1
-1.549992 26.422515 -22.182301 34.534132 -1.512202 2.268331 0.035877 -0.028218 -362129.000000 0 0 1
-2.485992 25.796815 -21.148701 33.450312 -1.474725 2.255240 0.021322 -0.022909 432988.000000 0 0 1
-3.777492 26.397915 -21.198301 34.065926 -1.428663 2.242439 0.015741 -0.020737 809252.000000 0 0 1
-4.794792 25.884915 -20.336901 33.265724 -1.387637 2.228558 0.013261 -0.018280 804540.000000 0 0 1
-6.127392 26.681015 -20.339801 34.104677 -1.345057 2.209797 0.017677 -0.018989 937154.000000 0 0 1
-7.090392 26.192215 -19.383401 33.346994 -1.306427 2.191077 0.026592 -0.025631 84355.100000 0 0 1
-8.009792 27.103515 -18.811301 33.950292 -1.283449 2.158058 0.026015 -0.030071 362574.000000 0 0 1
-9.202092 26.424415 -18.115001 33.332889 -1.235688 2.145347 0.032372 -0.029927 51896.200000 0 0 1
-8.899092 25.671015 -16.975601 32.036946 -1.237101 2.129250 0.021088 -0.023035 439238.000000 0 0 1
-10.179292 25.142815 -16.591601 31.797175 -1.186108 2.119750 0.007781 -0.020984 980025.000000 0 0 1
-9.983292 24.336215 -15.243401 30.401953 -1.181508 2.096007 0.012022 -0.019665 -76584.700000 0 0 1
-9.455892 23.064715 -15.358701 29.279424 -1.181723 2.122990 0.004310 -0.010913 -278432.000000 0 0 1
-9.642192 22.424715 -14.108501 28.193785 -1.164715 2.094871 0.023038 -0.005100 -246743.000000 0 0 1
-9.342192 20.926715 -14.226401 26.973959 -1.150920 2.126348 0.042263 -0.000917 -91536.100000 0 0 1
-10.309892 20.060315 -14.822801 26.989360 -1.096055 2.152214 0.007920 0.001394 -321600.000000 0 0 1
-10.501792 20.112115 -16.211101 27.885204 -1.089576 2.191185 0.016974 -0.001513 455723.000000 0 0 1
-9.289992 19.974415 -17.210701 27.955133 -1.135461 2.234012 0.009215 -0.003465 473514.000000 0 0 1
-8.693492 18.712115 -17.319201 26.938351 -1.135874 2.269101 0.003869 -0.002099 -56679.900000 0 0 1
-7.697092 18.768315 -18.337501 27.345179 -1.181604 2.305805 0.011650 -0.005959 337354.000000 0 0 1
-7.086292 17.357115 -18.657201 26.449502 -1.183186 2.353769 0.013231 -0.010003 32659.400000 0 0 1
-8.012192 16.508915 -19.299201 26.630784 -1.118957 2.381388 0.007726 -0.012954 -268314.000000 0 0 1
-7.513792 15.729415 -20.365101 26.806882 -1.125155 2.433643 0.005198 -0.010123 -551469.000000 0 0 1
-6.390692 14.760815 -20.064501 25.715886 -1.162211 2.465842 0.012885 -0.006793 -537258.000000 0 0 1
-6.727692 13.620615 -19.269001 24.537265 -1.112013 2.473969 -0.000738 -0.001963 568608.000000 0 1 0
-5.548792 12.877115 -18.933401 23.560197 -1.163936 2.504146 0.004858 0.004422 837112.000000 0 1 0
-4.758792 13.269215 -17.664301 22.599684 -1.226451 2.468051 0.015622 0.004185 56105.400000 0 1 0
-4.069992 14.495315 -17.699001 23.236472 -1.297065 2.436715 0.008865 -0.003752 -244062.000000 0 1 0
-3.721492 15.042215 -16.417301 22.575330 -1.328263 2.385064 0.018878 0.003511 23808.100000 0 1 0
-2.982392 16.390315 -16.592501 23.512724 -1.390805 2.354181 0.029260 -0.000839 193956.000000 0 1 0
-3.781592 17.565015 -16.612801 24.470704 -1.358742 2.317040 0.017118 -0.005777 107263.000000 0 1 0
-2.917592 18.685815 -16.543101 25.126604 -1.415908 2.289474 0.023544 -0.010935 263723.000000 0 0 1
-3.493792 19.920715 -17.280301 26.601697 -1.397177 2.277847 0.037107 -0.018581 257347.000000 0 0 1
-3.480892 19.689815 -18.713401 27.386070 -1.395818 2.323094 0.040293 -0.019847 -297764.000000 0 0 1
-3.962692 20.750815 -19.456501 28.720284 -1.382103 2.315084 0.043929 -0.017640 -417595.000000 0 0 1
-3.021192 21.941115 -19.743001 29.670292 -1.433961 2.298843 0.034908 -0.020565 -407887.000000 0 0 1
-1.818592 21.516915 -20.357801 29.677011 -1.486478 2.326744 0.051535 -0.021921 -632123.000000 0 0 1
-0.798992 22.437315 -20.253001 30.236659 -1.535201 2.304757 0.044713 -0.019583 -197253.000000 0 0 1
0.088808 22.221115 -18.941701 29.198868 1.566800 2.276689 0.049160 -0.016229 -413206.000000 0 0 1
-0.386392 22.474815 -17.652701 28.581191 -1.553606 2.236526 0.047031 -0.016789 -525761.000000 0 0 1
0.595508 22.048815 -16.733901 27.686248 1.543794 2.219824 0.051102 -0.014341 -26098.500000 0 0 1
0.116708 22.162815 -15.269801 26.914138 1.565530 2.174083 0.060492 -0.018718 -910123.000000 0 0 1
-0.719192 21.168815 -14.866001 25.877287 -1.536835 2.182766 0.053446 -0.010456 -633964.000000 0 0 1
-0.698092 20.958515 -13.476701 24.927257 -1.537500 2.141995 0.066053 -0.010487 150043.000000 0 1 0
-1.683292 19.833315 -13.092001 23.824239 -1.486127 2.152591 0.042040 -0.005218 248067.000000 0 1 0
-1.187892 18.557015 -13.497001 22.977009 -1.506870 2.198655 0.035167 -0.005184 538516.000000 0 1 0
-2.004392 17.507615 -12.930901 21.857319 -1.456806 2.203845 0.029330 -0.005116 448859.000000 0 1 0
-1.310392 16.125415 -13.005601 20.757933 -1.489712 2.247898 0.011539 -0.001686 221564.000000 0 1 0
-0.164192 15.913315 -12.135101 20.013027 -1.560479 2.222272 0.014816 0.000060 949211.000000 0 1 0
0.333008 14.631815 -11.987401 18.918211 1.548041 2.257050 0.022326 -0.002120 154250.000000 0 1 0
0.938308 13.989015 -13.237001 19.281887 1.503822 2.327460 0.007373 -0.009321 -333383.000000 0 1 0
-0.065092 13.728315 -14.212801 19.760430 -1.566055 2.373527 0.012797 -0.018142 346026.000000 0 1 0
0.468708 12.913215 -15.204901 19.953943 1.534515 2.437192 0.015314 -0.015907 -272132.000000 0 1 0
-0.493592 12.814315 -16.434601 20.845777 -1.532297 2.478984 0.014561 -0.013865 253917.000000 0 1 0
-0.626192 14.001015 -17.160601 22.156416 -1.526101 2.456753 0.020374 -0.019977 -55818.100000 0 1 0
-0.606192 13.832515 -18.587501 23.177600 -1.527001 2.501365 0.024068 -0.014938 -478084.000000 0 1 0
-1.184292 15.011715 -19.391701 24.551827 -1.492068 2.481324 0.027541 -0.010707 -452936.000000 0 1 0
-0.420392 16.169615 -19.410101 25.266286 -1.544803 2.446855 0.026431 -0.016396 -555430.000000 0 0 1
-1.133792 17.245815 -19.926001 26.377057 -1.505148 2.427105 0.040386 -0.017965 -272906.000000 0 0 1
-0.246892 18.454115 -20.174701 27.342895 -1.557418 2.400662 0.040886 -0.015083 115014.000000 0 0 1
0.462108 18.465415 -21.409901 28.276651 1.545776 2.429748 0.046205 -0.018813 -15310.000000 0 0 1
1.395008 19.508315 -21.444701 29.024052 1.499409 2.402173 0.047080 -0.019501 -193782.000000 0 0 1
2.010708 19.660915 -22.829401 30.195630 1.468881 2.428053 0.047934 -0.028820 -86449.300000 0 0 1
3.034708 18.750715 -23.155601 29.949635 1.410343 2.454591 0.032059 -0.024119 15704.400000 0 0 1
2.978708 18.604915 -24.529401 30.930682 1.412040 2.486587 0.020058 -0.035341 36343.900000 0 0 1
3.950608 17.481915 -24.913101 30.690182 1.348547 2.517958 0.011494 -0.018231 369190.000000 0 0 1
5.318308 17.716615 -24.566901 30.752162 1.279167 2.496206 0.006806 -0.008061 560282.000000 0 0 1
6.208408 16.687015 -24.959701 30.659215 1.214614 2.521976 0.002812 -0.005070 215598.000000 0 0 1
6.646808 16.530415 -26.453371 31.893817 1.188485 2.548865 -0.002167 -0.012297 -188907.000000 0 0 1
7.831908 17.267915 -26.822901 32.847948 1.144992 2.526253 -0.013858 -0.007621 608998.000000 0 0 1
8.164808 17.196515 -28.181541 34.008580 1.127516 2.547505 -0.004725 -0.015523 -122992.000000 0 0 1
8.636908 15.828815 -28.709211 33.902306 1.071303 2.580777 0.001502 -0.013621 -161677.000000 0 0 1
9.958008 15.524215 -28.277371 33.760523 1.000455 2.563647 0.013342 -0.017553 252776.000000 0 0 1
10.249008 14.114315 -28.577141 33.479980 0.942739 2.593575 0.010158 -0.014944 -172739.000000 0 0 1
9.722108 13.082215 -27.563671 32.022175 0.931691 2.607573 0.008409 -0.010836 -68785.600000 0 0 1
8.341708 12.816015 -27.729021 31.665959 0.993802 2.637624 0.003306 -0.007431 -183206.000000 0 0 1
7.807208 12.295715 -26.526331 30.261913 1.005071 2.639460 0.020687 -0.001756 -737405.000000 0 0 1
6.315608 12.069615 -26.545051 29.836257 1.088710 2.667464 -0.003977 -0.005317 -971351.000000 0 0 1
5.546808 13.221815 -26.692131 30.299395 1.173577 2.648654 -0.010723 -0.005382 -247093.000000 0 0 1
4.192808 12.904315 -26.389851 29.673645 1.256641 2.666688 -0.008627 -0.002681 569675.000000 0 0 1
3.219308 14.038415 -26.817211 30.440169 1.345373 2.648728 0.008655 0.005817 -490513.000000 0 0 1
2.771708 14.184115 -28.122241 31.618538 1.377819 2.666877 0.012657 -0.002916 317581.000000 0 0 1
3.718908 14.880915 -28.929331 32.744131 1.325901 2.654071 0.019568 -0.019556 311542.000000 0 0 1
3.400508 14.614315 -30.439721 33.936975 1.342181 2.683615 0.036963 -0.017531 -49712.200000 0 0 1
4.184708 13.567815 -30.968311 34.068074 1.271625 2.711705 0.027681 -0.018236 -48785.700000 0 0 1
4.092308 13.524315 -32.389971 35.337860 1.276966 2.730238 0.029122 -0.017899 -567719.000000 0 0 1
5.248308 12.582615 -32.794091 35.515058 1.175629 2.747605 0.033717 -0.011851 374476.000000 0 0 1
6.581208 13.087915 -32.731661 35.860389 1.104874 2.720768 0.039219 -0.012776 801362.000000 0 0 1
7.188308 13.215715 -31.410801 34.827652 1.072632 2.694927 0.023288 -0.009554 -390348.000000 0 0 1
7.154408 11.973315 -30.505441 33.542924 1.032195 2.712743 0.017850 -0.008013 -252612.000000 0 0 1
8.131208 10.984015 -30.859551 33.750215 0.933547 2.724699 0.023727 -0.003430 389655.000000 0 0 1
8.144908 9.970015 -29.825691 32.485575 0.885811 2.734109 0.020022 0.001896 156091.000000 0 0 1
9.140108 8.800815 -30.071141 32.638466 0.766489 2.742311 0.012816 0.001152 940884.000000 0 0 1
10.528308 9.062415 -29.875991 32.947648 0.710711 2.706359 0.017072 -0.007010 346004.000000 0 0 1
11.320508 7.901715 -30.031971 33.053144 0.609382 2.710708 -0.004875 -0.005399 347340.000000 0 0 1
12.560308 7.896515 -29.071891 32.638798 0.561247 2.669714 -0.004694 0.003625 689942.000000 0 0 1
13.228408 6.653715 -28.863751 32.440389 0.466034 2.667588 0.007135 0.003555 601376.000000 0 0 1
14.136508 6.217015 -29.905721 33.657752 0.414326 2.664915 0.000544 0.001219 -113411.000000 0 0 1
14.859708 4.913615 -29.550291 33.439113 0.319349 2.654515 0.003274 -0.006267 -172764.000000 0 0 1
15.653908 5.117715 -28.407771 32.836524 0.315976 2.616200 -0.005895 -0.002550 -151805.000000 0 0 1
16.408308 3.976115 -28.131531 32.808918 0.237741 2.601062 0.000480 -0.001773 -30329.800000 0 0 1
17.235808 4.051315 -26.801851 32.122040 0.230861 2.557796 0.001357 -0.003338 548259.000000 0 0 1
18.180808 5.144915 -26.783341 32.777421 0.275776 2.527207 0.019341 -0.003471 289114.000000 0 0 1
18.605608 5.441515 -25.465321 32.004083 0.284531 2.490942 0.024316 0.002965 -408235.000000 0 0 1
19.798108 6.363915 -25.540541 32.936056 0.311009 2.458237 0.021230 0.007680 -390541.000000 0 0 1
19.281708 7.688415 -25.788981 33.105401 0.379421 2.463860 0.032285 0.003118 528249.000000 0 0 1
20.210708 8.465415 -26.504171 34.389055 0.396657 2.450759 0.039882 -0.011341 -482999.000000 0 0 1
20.422208 8.270415 -28.066441 35.681809 0.384785 2.476040 0.039121 -0.007058 -102360.000000 0 0 1
19.352608 8.749315 -28.857791 35.830798 0.424599 2.507131 0.035660 0.002673 -407122.000000 0 0 1
18.320408 7.813315 -28.898831 35.097403 0.403125 2.538155 0.026515 0.006261 -1349260.000000 0 0 1
17.092508 8.441015 -29.542561 35.159174 0.458710 2.568544 0.015422 0.004623 -866884.000000 0 0 1
17.068808 8.661215 -30.938041 36.380259 0.469573 2.587555 0.014601 0.007622 302326.000000 0 0 1
15.896008 9.385615 -31.269711 36.312087 0.533359 2.608300 0.004224 0.011271 261794.000000 0 0 1
15.258908 9.071815 -32.667611 37.179362 0.536385 2.643822 -0.001891 0.017897 10696.100000 0 0 1
14.695408 7.781115 -32.744591 36.724774 0.486963 2.671710 -0.005661 0.016096 313272.000000 0 0 1
13.484808 7.960815 -33.491611 36.971647 0.533297 2.704232 -0.007928 0.011693 476869.000000 0 0 1
12.995108 6.589815 -34.000081 36.990594 0.469311 2.736726 -0.003476 -0.000967 -23779.300000 0 0 1
12.652508 5.706915 -32.933831 35.739223 0.423727 2.742731 0.006264 -0.002812 -133868.000000 0 0 1
11.810608 4.662315 -33.324671 35.661763 0.375978 2.777550 0.008304 -0.015059 -348435.000000 0 0 1
11.537608 3.685215 -32.188311 34.391635 0.309167 2.781699 0.013276 -0.016752 774510.000000 0 0 1
12.677808 2.984115 -31.574981 34.155691 0.231173 2.750368 0.016646 -0.022258 929569.000000 0 0 1
12.307008 1.973815 -30.728971 33.160640 0.159027 2.756251 0.018425 -0.018658 -238010.000000 0 0 1
11.713108 0.675615 -31.354001 33.477257 0.057616 2.783526 0.016821 -0.016680 290172.000000 0 0 1
12.579508 -0.190285 -32.094421 34.472193 -0.015125 2.768004 0.019701 -0.014089 486391.000000 0 0 1
13.435708 -1.032185 -31.290651 34.068879 -0.076673 2.734947 0.017126 -0.018593 830079.000000 0 0 1
14.043208 -2.317985 -31.967971 34.993370 -0.163586 2.722709 0.027546 -0.017187 138494.000000 0 0 1
13.055808 -3.283385 -32.200091 34.901012 -0.246379 2.745594 0.038530 -0.017907 36989.900000 0 0 1
13.583908 -4.517585 -32.709911 35.705314 -0.321062 2.729058 0.023271 -0.014126 154039.000000 0 0 1
12.498608 -5.626185 -32.765511 35.516868 -0.422974 2.745392 0.035713 -0.014976 156689.000000 0 0 1
12.193608 -6.164585 -31.454671 34.294060 -0.468085 2.731803 0.043946 -0.019213 192353.000000 0 0 1
11.928608 -7.582085 -31.586491 34.604713 -0.566201 2.720836 0.056302 -0.021906 -11044.900000 0 0 1
11.857108 -8.291185 -30.230181 33.514155 -0.610228 2.695205 0.054973 -0.019072 140038.000000 0 0 1
13.111108 -8.251785 -29.544321 33.359557 -0.561738 2.658651 0.042453 -0.014905 505695.000000 0 0 1
13.192608 -8.993785 -28.309551 32.501750 -0.598358 2.628063 0.049045 -0.018289 -225529.000000 0 0 1
13.271608 -10.546585 -28.495281 33.156403 -0.671484 2.604931 0.048763 -0.020926 569914.000000 0 0 1
12.029008 -11.183885 -28.841031 33.190080 -0.749007 2.623904 0.045523 -0.020215 726214.000000 0 0 1
12.303608 -12.506685 -29.276501 34.130770 -0.793583 2.601721 0.030098 -0.021156 199129.000000 0 0 1
-10.119692 -2.440385 -17.624101 20.468820 0.236634 2.608072 0.000018 -0.013544 -388975.000000 0 1 0
-10.832992 -2.102885 -18.825601 21.821528 0.191734 2.611396 -0.003698 -0.012278 238066.000000 0 1 0
-11.667392 -3.160185 -19.242101 22.723848 0.264510 2.580699 -0.003129 -0.010952 -354291.000000 0 1 0
-12.605192 -2.749685 -20.394301 24.132533 0.214775 2.577541 0.005526 -0.022198 -1007340.000000 0 1 0
-13.600992 -1.874185 -20.056001 24.305200 0.136935 2.541305 0.004995 -0.018721 -499300.000000 0 1 0
-14.439492 -1.634585 -21.204301 25.705898 0.112723 2.540788 0.010821 -0.009561 439015.000000 0 0 1
-15.151292 -0.268585 -21.118401 25.992704 0.017725 2.519180 0.001091 -0.004908 216493.000000 0 0 1
-14.319692 0.842315 -21.419201 25.778775 -0.058754 2.551493 -0.002273 -0.004429 179605.000000 0 0 1
-15.090492 2.009715 -21.268301 26.155354 -0.132398 2.520345 -0.006468 0.004734 -72344.100000 0 0 1
-14.453392 3.280715 -21.807501 26.367228 -0.223204 2.544668 -0.002726 -0.002105 881863.000000 0 0 1
-13.205192 3.683115 -21.181101 25.230566 -0.272002 2.567162 0.002213 -0.003134 1242390.000000 0 0 1
-12.760092 4.870315 -21.808001 25.731864 -0.364617 2.582072 0.004484 -0.005874 -274399.000000 0 0 1
-11.538492 5.519715 -21.150101 24.717015 -0.446198 2.597679 -0.014345 -0.005481 -164907.000000 0 1 0
-11.938492 6.151915 -19.958201 24.056256 -0.475813 2.549271 -0.002182 -0.009739 757453.000000 0 1 0
-10.831992 6.323415 -19.072801 22.827382 -0.528402 2.559880 -0.009943 -0.007485 239850.000000 0 1 0
-11.267192 6.994015 -17.750301 22.157144 -0.555531 2.499943 0.001305 -0.009447 279386.000000 0 1 0
-11.662792 8.434415 -17.889201 22.960479 -0.626121 2.464073 -0.002412 -0.006537 396626.000000 0 1 0
-12.658992 8.695215 -16.925201 22.854305 -0.601867 2.404714 0.011171 -0.005589 -151232.000000 0 1 0
-13.310192 10.113915 -17.105101 23.917294 -0.649783 2.367674 0.019978 0.000550 -271891.000000 0 1 0
-12.600792 11.171715 -16.469801 23.555074 -0.725356 2.345080 -0.007256 0.020847 5804.020000 0 1 0
-13.212192 12.424915 -16.597701 24.585040 -0.754699 2.311915 0.009413 0.000266 -704893.000000 0 1 0
-12.570492 13.571815 -15.866201 24.371044 -0.823682 2.279733 0.012489 0.011853 -865620.000000 0 1 0
-12.512392 13.393615 -14.488101 23.363517 -0.819401 2.239687 0.035156 0.009442 392263.000000 0 1 0
-12.033592 14.616315 -13.859401 23.463312 -0.882009 2.202703 0.017631 0.008983 -772691.000000 0 1 0
-12.458992 14.618115 -12.381601 22.852129 -0.864970 2.143390 0.013710 0.004306 244254.000000 0 1 0
-13.794692 14.855515 -11.998601 23.557298 -0.822408 2.105210 0.002509 0.003629 188160.000000 0 1 0
-14.766992 13.927315 -12.451501 23.813316 -0.756144 2.121022 0.013832 0.001133 670668.000000 0 1 0
-16.209792 14.336115 -11.929601 24.710260 -0.724135 2.074622 0.003540 0.001618 1255950.000000 0 1 0
-17.366992 13.693615 -12.411001 25.360608 -0.667680 2.082176 0.015353 0.001228 73626.100000 0 0 1
-18.513792 14.132115 -11.745201 26.084994 -0.651977 2.037860 0.047139 0.000217 -1008690.000000 0 0 1
-19.828492 13.708915 -12.348701 27.084938 -0.604914 2.044208 0.029772 0.002564 -784730.000000 0 0 1
-20.164292 12.334515 -12.028901 26.522319 -0.548979 2.041528 0.040456 -0.009109 -240702.000000 0 0 1
-21.104892 11.815315 -12.897901 27.411202 -0.510365 2.060692 0.050024 -0.000457 -691806.000000 0 0 1
-21.771492 10.628715 -12.200601 27.126041 -0.454158 2.037309 0.041804 -0.006260 54969.100000 0 0 1
-20.917092 9.478315 -12.243001 26.024109 -0.425460 2.060595 0.051932 -0.009252 947522.000000 0 0 1
-21.454692 8.447715 -11.369801 25.708755 -0.375104 2.028907 0.046692 -0.009177 197649.000000 0 0 1
-20.570192 7.161915 -11.396301 24.582544 -0.335043 2.052843 0.060488 -0.009603 73598.200000 0 1 0
-20.682492 6.360115 -12.562601 25.020701 -0.298334 2.096808 0.076877 -0.003078 1163660.000000 0 0 1
-19.470092 5.572315 -12.645901 23.875803 -0.278747 2.128988 0.061066 -0.008078 871339.000000 0 1 0
-19.375692 4.580915 -13.823201 24.238051 -0.232163 2.177679 0.054408 -0.011886 -5131.260000 0 1 0
-20.314292 3.499615 -13.752701 24.780124 -0.170599 2.159146 0.048485 -0.015390 485002.000000 0 1 0
-19.945392 2.402715 -14.537201 24.797619 -0.119887 2.197198 0.036553 -0.020050 -448718.000000 0 1 0
-20.644292 1.066815 -14.189401 25.073172 -0.051630 2.172345 0.027592 -0.014304 -661451.000000 0 0 1
-21.816392 0.957315 -14.928801 26.452609 -0.043852 2.170454 0.026530 -0.021476 -427717.000000 0 0 1
-22.411692 -0.288085 -14.625601 26.763317 0.012854 2.148951 0.017491 -0.027215 -200497.000000 0 0 1
-23.661992 -0.668885 -15.439601 28.261609 0.028261 2.148749 0.029193 -0.021756 -367201.000000 0 0 1
-24.764892 0.140215 -15.141001 29.027047 -0.005662 2.119541 0.054558 -0.038116 518776.000000 0 0 1
-25.987342 -0.456785 -15.642401 30.335380 0.017575 2.112561 0.043409 -0.034890 910484.000000 0 0 1
-27.234902 0.100215 -14.912101 31.050293 -0.003680 2.071743 0.052402 -0.034379 -415522.000000 0 0 1
-27.396562 -0.368585 -13.592501 30.585348 0.013453 2.031314 0.065398 -0.031719 429568.000000 0 0 1
-28.719192 -0.068685 -13.171601 31.595692 0.002392 2.000806 0.072122 -0.033164 237277.000000 0 0 1
-29.037552 -0.579785 -11.760701 31.334161 0.019964 1.955551 0.067692 -0.026801 -641584.000000 0 0 1
-29.309242 -1.972385 -11.539501 31.560767 0.067194 1.945104 0.072682 -0.026069 652358.000000 0 0 1
-28.343212 -2.978485 -11.887201 30.879031 0.104702 1.965961 0.071477 -0.031350 -149512.000000 0 0 1
-28.485432 -4.313185 -11.115701 30.880126 0.150276 1.939025 0.059235 -0.029366 -494719.000000 0 0 1
-29.767522 -4.885385 -11.245201 32.193584 0.162668 1.927620 0.058619 -0.030659 211070.000000 0 0 1
-29.896922 -6.180985 -10.695601 32.348514 0.203871 1.907774 0.056128 -0.029289 -181885.000000 0 0 1
-29.298302 -7.368485 -11.491001 32.322255 0.246389 1.934260 0.037528 -0.017616 -228863.000000 0 0 1
-27.916832 -7.534585 -11.330001 31.056213 0.263613 1.944238 0.036701 -0.019525 -452191.000000 0 0 1
-27.332342 -8.528485 -12.119201 31.091269 0.302456 1.971205 0.042538 -0.016572 55162.800000 0 0 1
-25.806442 -8.649985 -11.913701 29.710788 0.323418 1.983393 0.034215 -0.018136 -718857.000000 0 0 1
-25.085332 -7.509185 -12.247801 28.907963 0.290856 2.008303 0.026317 -0.018151 377052.000000 0 0 1
-23.727492 -7.586485 -11.824201 27.574632 0.309462 2.013968 0.021425 -0.021357 306291.000000 0 0 1
-23.501792 -7.353285 -10.289101 26.688398 0.303233 1.966575 0.013692 -0.018738 -716871.000000 0 0 1
-23.680792 -6.066885 -9.734901 26.312645 0.250800 1.949774 0.009635 -0.017152 477345.000000 0 0 1
-25.034792 -5.674285 -9.526501 27.380514 0.222890 1.926159 0.019570 -0.025848 -66164.600000 0 0 1
-25.292062 -4.264485 -8.934601 27.160657 0.167039 1.905992 0.034369 -0.030452 -455499.000000 0 0 1
-25.082902 -4.105985 -7.558801 26.516910 0.162257 1.859861 0.021225 -0.023046 320049.000000 0 0 1
-25.112322 -2.794885 -7.083601 26.241522 0.110839 1.844126 0.049298 -0.024584 -125350.000000 0 0 1
-24.927292 -2.690485 -5.537901 25.676388 0.107517 1.788185 0.036413 -0.017163 912135.000000 0 0 1
-23.592792 -2.974485 -5.067401 24.313493 0.125414 1.780755 -0.012186 -0.010394 1040890.000000 0 1 0
-23.426892 -2.762385 -3.678901 23.874345 0.117373 1.725507 -0.033396 -0.002409 -670312.000000 0 1 0
-22.202192 -3.476385 -3.172101 22.695480 0.155317 1.711023 -0.031970 -0.005539 -538380.000000 0 1 0
-22.474292 -4.874385 -3.115401 23.206877 0.213579 1.705448 -0.002701 -0.002479 544010.000000 0 1 0
-21.268292 -5.552185 -2.815001 22.160578 0.255356 1.698168 -0.003960 -0.009364 74120.600000 0 1 0
-21.450892 -7.094385 -2.749501 22.760290 0.319403 1.691895 0.006700 -0.002362 54012.800000 0 1 0
-22.146192 -7.481885 -1.566801 23.428343 0.325802 1.637723 0.013544 0.006840 335181.000000 0 1 0
-22.597392 -8.780085 -1.817201 24.311195 0.370592 1.645614 0.000443 0.005959 -15252.300000 0 1 0
-22.918792 -9.641185 -0.508501 24.869299 0.398195 1.591245 -0.011749 0.002057 -24423.400000 0 1 0
-21.734392 -10.105985 0.096599 23.969231 0.435238 1.566766 -0.020689 0.011720 71750.800000 0 1 0
-21.915292 -10.850785 1.249099 24.486318 0.459739 1.519762 -0.031188 0.013966 -87039.600000 0 1 0
-20.557292 -11.305485 1.816999 23.531207 0.502805 1.493503 -0.028944 0.012380 186667.000000 0 1 0
-19.864892 -12.197685 0.922499 23.329133 0.550674 1.531243 -0.022899 0.017729 442536.000000 0 1 0
-18.843792 -12.879185 1.610099 22.881309 0.599546 1.500371 -0.031917 0.013858 -455327.000000 0 1 0
-18.182292 -14.069885 0.898899 23.007942 0.658575 1.531717 -0.017274 0.017462 -202519.000000 0 1 0
-18.957892 -15.267185 0.700999 24.351180 0.677977 1.542005 -0.009579 0.021448 393409.000000 0 1 0
-18.241992 -16.324485 0.093399 24.479947 0.729982 1.566981 -0.014185 0.014554 368893.000000 0 1 0
-17.063192 -17.024085 0.831199 24.117688 0.784251 1.536325 -0.005006 0.013996 220633.000000 0 1 0
-15.842792 -16.298685 0.903099 22.747676 0.799581 1.531085 -0.008244 0.010846 -300745.000000 0 1 0
-14.866292 -16.965285 1.621899 22.615439 0.851243 1.499018 0.003413 0.007310 -352061.000000 0 1 0
-14.871892 -16.845185 3.202799 22.697827 0.847534 1.429218 0.003614 0.002316 -548227.000000 0 1 0
-14.723192 -15.501685 3.570199 21.675353 0.811149 1.405330 -0.001490 0.002033 78707.000000 0 1 0
-13.908492 -15.259385 4.703099 21.175791 0.831680 1.346831 -0.012831 -0.000170 -268247.000000 0 1 0
-14.393192 -15.781885 6.102399 22.214210 0.831387 1.292511 -0.000435 0.005032 -933954.000000 0 1 0
-15.246692 -14.889985 6.780799 22.364089 0.773562 1.262747 -0.002218 0.006725 -29002.300000 0 1 0
-15.468092 -15.204085 8.122699 23.160404 0.776791 1.212462 0.000200 0.001543 -466943.000000 0 1 0
-16.325292 -16.442285 8.518199 24.686506 0.788969 1.218499 -0.003010 0.006764 -225965.000000 0 1 0
-15.776792 -17.732385 8.258799 25.130706 0.843692 1.235940 -0.001431 0.014051 218249.000000 0 0 1
-16.544992 -18.744485 8.931199 26.549177 0.847645 1.227703 0.004108 0.009175 118060.000000 0 0 1
-16.255092 -18.975485 10.436299 27.077913 0.862462 1.175136 -0.000261 0.008440 603787.000000 0 0 1
-14.913192 -19.443285 10.598599 26.697845 0.916497 1.162569 -0.002288 0.004949 496400.000000 0 0 1
-14.655692 -19.798585 11.960399 27.382922 0.933571 1.118777 0.002716 0.000166 -643117.000000 0 0 1
-13.282492 -20.343085 12.271199 27.218523 0.992368 1.103090 0.003045 -0.001249 153757.000000 0 0 1
-12.202992 -19.376385 12.211899 25.951643 1.008762 1.080867 0.005014 -0.008072 744260.000000 0 0 1
-10.983992 -19.976385 12.640199 26.066811 1.068069 1.064530 0.005938 -0.008033 566287.000000 0 0 1
-9.847692 -18.988685 12.980699 25.020906 1.092373 1.025357 0.002434 -0.019651 412338.000000 0 0 1
-9.053792 -18.648485 11.839899 23.873004 1.118818 1.051864 -0.004411 -0.012200 -350985.000000 0 1 0
-7.884292 -18.010085 12.252599 23.165737 1.158159 1.013480 -0.004730 -0.008551 -441672.000000 0 1 0
-7.186192 -17.248985 11.118799 21.743885 1.176049 1.034038 0.004444 -0.013859 227876.000000 0 1 0
-6.415992 -18.166185 10.325299 21.858340 1.231288 1.078815 -0.002132 -0.013146 -108702.000000 0 1 0
-5.842792 -17.498185 9.217799 20.622621 1.248528 1.107415 0.000602 -0.007027 -597735.000000 0 1 0
-4.748492 -18.379985 8.627899 20.852162 1.317973 1.144210 -0.001338 -0.002089 -183904.000000 0 1 0
-3.568192 -18.432685 9.404099 20.998403 1.379582 1.106439 0.003046 -0.003775 -395751.000000 0 1 0
-2.484192 -18.796885 8.599599 20.819395 1.439398 1.144988 0.006706 -0.008739 -54823.300000 0 1 0
-1.151292 -19.038585 9.346599 21.240341 1.510398 1.115153 0.003142 -0.012823 -421560.000000 0 1 0
-0.291892 -19.830785 8.596099 21.615692 1.556078 1.161811 0.019268 0.002389 -1224520.000000 0 1 0
0.888708 -19.909085 9.348499 22.012630 -1.526188 1.132179 0.020646 -0.003321 -463419.000000 0 1 0
2.044808 -20.333485 8.389999 22.091264 -1.470570 1.181229 0.025937 -0.023366 -178407.000000 0 1 0
1.916608 -21.608985 7.819299 23.059988 -1.482333 1.224852 0.025284 -0.018955 -188235.000000 0 1 0
2.297908 -22.599385 8.775999 24.352222 -1.469464 1.202124 0.033391 -0.019494 -187237.000000 0 1 0
1.906908 -24.004985 8.259999 25.457871 -1.491525 1.240358 0.027027 -0.009347 173010.000000 0 0 1
1.825408 -24.975585 9.257399 26.698528 -1.497838 1.216705 0.026104 -0.003293 -178864.000000 0 0 1
1.575008 -26.265785 8.677999 27.707035 -1.510904 1.252230 0.033142 -0.004357 -891329.000000 0 0 1
1.730908 -27.437445 9.650299 29.136535 -1.507794 1.233211 0.027927 0.000169 91791.200000 0 0 1
0.943708 -27.473535 10.822799 29.543505 -1.536460 1.195730 0.013374 -0.004898 436737.000000 0 0 1
-0.470292 -27.562755 10.606199 29.536724 1.553735 1.203509 0.006038 0.001233 556771.000000 0 0 1
-1.239392 -27.536055 11.965099 30.048860 1.525817 1.161256 -0.001922 -0.001251 91744.400000 0 0 1
-1.022792 -28.765585 12.683899 31.454511 1.535255 1.155735 -0.015500 -0.009394 9149.060000 0 0 1
-1.161692 -28.557495 14.073699 31.858265 1.530140 1.113237 -0.023523 -0.005811 -408478.000000 0 0 1
-1.109392 -29.945735 14.799199 33.421461 1.533767 1.112071 -0.046397 -0.001385 17030.300000 0 0 1
-0.986692 -29.832045 16.194399 33.958548 1.537733 1.073686 -0.036834 0.000672 -97720.500000 0 0 1
-0.798792 -31.126825 16.805099 35.382604 1.545139 1.075885 -0.052851 0.000671 65831.700000 0 0 1
-0.825492 -31.051065 18.351399 36.078025 1.544218 1.037170 -0.038030 -0.000068 786885.000000 0 0 1
-2.204192 -30.978395 18.733499 36.269317 1.499763 1.028025 -0.042470 0.005813 497648.000000 0 0 1
-2.371392 -30.489775 20.043799 36.565062 1.493176 0.990624 -0.027470 0.001167 574283.000000 0 0 1
-3.850592 -30.618025 20.529899 37.064366 1.445691 0.983757 -0.004852 -0.004135 593609.000000 0 0 1
-4.827792 -29.764735 19.918999 36.138809 1.409998 0.987018 -0.005978 -0.004951 245086.000000 0 0 1
-6.024592 -29.644275 20.630599 36.615575 1.370297 0.972255 0.008798 -0.006632 -38092.000000 0 0 1
-5.894792 -28.612535 21.799899 36.450807 1.367618 0.929714 0.014633 -0.015228 -110114.000000 0 0 1
-4.924892 -28.939075 22.809399 37.175170 1.402230 0.910228 0.014463 -0.011760 351308.000000 0 0 1
-4.881392 -27.949505 23.836899 37.056721 1.397890 0.872055 0.017970 -0.017513 -183591.000000 0 0 1
-3.777892 -28.126895 24.914599 37.764162 1.437279 0.850321 0.021569 -0.015169 86556.000000 0 0 1
-4.048692 -29.331415 25.670299 39.187856 1.433630 0.856538 0.010041 -0.013579 370871.000000 0 0 1
-3.640692 -30.567205 25.069599 39.700043 1.452250 0.887342 0.006891 -0.014819 -194550.000000 0 0 1
-3.964192 -31.834975 25.922499 41.245077 1.446911 0.891174 0.010029 -0.013666 -124632.000000 0 0 1
-3.407392 -31.731995 27.211599 41.940445 1.463826 0.864770 0.014226 -0.016821 230007.000000 0 0 1
-3.894992 -32.795235 27.986299 43.288928 1.452583 0.867808 0.019345 -0.017992 -377076.000000 0 0 1
-3.535292 -32.729315 29.472399 44.185163 1.463197 0.840594 0.024492 -0.009277 -1233500.000000 0 0 1
-2.170092 -32.850575 29.589499 44.265201 1.504833 0.838661 0.020983 -0.011479 -945127.000000 0 0 1
-1.686492 -32.567795 30.870599 44.905449 1.519059 0.812814 0.021464 -0.007923 -41437.800000 0 0 1
-27.856632 2.968415 -10.433801 29.894274 -0.106160 1.927325 0.066461 -0.008843 -360518.000000 0 0 1
-28.760872 2.584015 -11.447301 31.062929 -0.089604 1.948212 0.059679 -0.028504 122760.000000 0 0 1
-29.425042 3.704715 -11.981501 31.986159 -0.125244 1.954744 0.041197 -0.024628 -46557.800000 0 0 1
-30.326702 3.333115 -13.181301 33.234999 -0.109468 1.978616 0.037370 -0.021432 -300843.000000 0 0 1
-31.375442 2.484115 -12.844801 33.993795 -0.079009 1.958277 0.033808 -0.019025 112865.000000 0 0 1
-32.424432 2.607215 -13.810801 35.339490 -0.080236 1.972301 0.042239 -0.022636 212831.000000 0 0 1
-33.546412 1.569215 -13.787101 36.303007 -0.046743 1.960353 0.018742 -0.015386 -140727.000000 0 0 1
-33.077002 0.219015 -13.979101 35.910323 -0.006621 1.970644 0.040627 -0.013238 123726.000000 0 0 1
-32.959842 -0.510685 -12.740801 35.340345 0.015493 1.939619 0.021775 -0.012321 -147639.000000 0 0 1
-32.385722 -1.933685 -12.909601 34.917501 0.059637 1.949501 0.005278 -0.019432 -301974.000000 0 0 1
-33.245812 -2.967585 -13.352201 35.949573 0.089026 1.951329 0.014164 -0.005853 -49330.900000 0 0 1
-32.578302 -4.201385 -13.340201 35.453608 0.128255 1.956566 0.023369 -0.018527 -161558.000000 0 0 1
-33.413172 -5.484885 -13.591101 36.486190 0.162702 1.952498 0.011184 0.000097 -46388.100000 0 0 1
-32.652032 -6.665085 -13.304601 35.883017 0.201358 1.950642 0.028904 -0.015906 530767.000000 0 0 1
-33.085102 -7.739485 -14.113901 36.793013 0.229794 1.964491 0.020770 -0.002029 -497291.000000 0 0 1
-32.707302 -9.092485 -13.533801 36.545925 0.271149 1.950153 0.019707 -0.003216 -60851.000000 0 0 1
-31.346702 -9.418885 -13.345401 35.347289 0.291892 1.957946 0.025740 -0.010300 9614.110000 0 0 1
-30.742302 -9.862685 -14.478701 35.383534 0.310445 1.992366 0.018792 -0.008400 -978430.000000 0 0 1
-29.548722 -10.762185 -14.172501 34.493642 0.349285 1.994208 0.010716 -0.007284 -415902.000000 0 0 1
-30.009032 -12.027485 -13.706301 35.115026 0.381192 1.971782 -0.002986 0.002635 1245980.000000 0 0 1
-28.888452 -12.903485 -13.431501 34.372195 0.420078 1.972260 -0.003055 0.004062 579367.000000 0 0 1
-29.264672 -14.302485 -13.853901 35.396506 0.454590 1.972940 0.000291 0.009694 -127871.000000 0 0 1
-29.430002 -14.363785 -15.249001 36.124443 0.454055 2.006584 -0.001224 0.010715 45327.600000 0 0 1
-29.560682 -15.629985 -15.896901 37.024881 0.486376 2.014577 -0.001630 0.008162 -376198.000000 0 0 1
-28.374662 -16.639685 -15.785201 36.485245 0.530380 2.018222 -0.018105 0.013819 1040780.000000 0 0 1
-27.136682 -16.017685 -16.203801 35.433443 0.533227 2.045756 -0.014774 0.000301 130990.000000 0 0 1
-26.171452 -17.011885 -16.411501 35.265939 0.576387 2.054842 -0.010819 -0.004018 -399975.000000 0 0 1
-24.896992 -16.455085 -17.042001 34.366551 0.584018 2.089655 -0.007691 -0.009532 -293515.000000 0 0 1
-24.925792 -16.198885 -18.403701 34.962768 0.576294 2.125134 0.005642 -0.014830 80981.700000 0 0 1
-23.660292 -15.756585 -18.870201 34.119845 0.587507 2.156825 0.007978 -0.012176 -297529.000000 0 0 1
-23.741292 -15.320485 -20.328201 34.808073 0.573071 2.194454 0.023930 -0.021412 68310.500000 0 0 1
-24.253692 -16.280385 -21.247901 36.121542 0.591172 2.199669 0.019841 -0.029334 821208.000000 0 0 1
-25.674862 -16.403485 -21.325801 37.189550 0.568527 2.181489 0.027468 -0.029446 174656.000000 0 0 1
-26.116992 -17.634585 -22.104101 38.492429 0.593897 2.182478 0.021823 -0.024315 -306623.000000 0 0 1
-25.858502 -17.515385 -23.507901 39.090564 0.595366 2.216011 0.027722 -0.018392 40123.500000 0 0 1
-26.387022 -18.653885 -24.118601 40.323061 0.615365 2.211967 0.010972 -0.012052 -712545.000000 0 0 1
-25.809942 -18.851685 -25.571141 40.931924 0.630841 2.245574 0.016073 -0.012460 1036840.000000 0 0 1
-24.460592 -19.351385 -25.480561 40.274752 0.669306 2.255790 0.033538 -0.021946 570013.000000 0 0 1
-24.319292 -20.716885 -25.100761 40.628383 0.705579 2.236755 0.025544 -0.019961 -772951.000000 0 0 1
-22.870592 -21.185585 -24.947001 39.928008 0.747170 2.245671 0.028094 -0.014652 -133212.000000 0 0 1
-22.111592 -21.164485 -26.128841 40.243934 0.763516 2.277410 0.024127 -0.022326 -469785.000000 0 0 1
-20.776092 -21.491985 -25.839181 39.512209 0.802334 2.283596 0.031169 -0.012697 113052.000000 0 0 1
-19.820892 -21.324885 -27.065881 39.751483 0.821935 2.319756 0.031791 -0.018057 -76780.800000 0 0 1
-19.926392 -22.361485 -28.021691 41.016000 0.842918 2.322918 0.053060 -0.012513 269929.000000 0 0 1
-20.724392 -21.904085 -29.135551 41.930534 0.813065 2.339012 0.053443 -0.025445 128096.000000 0 0 1
-19.955992 -22.150485 -30.449531 42.615250 0.837469 2.366737 0.058383 -0.027475 289989.000000 0 0 1
-19.611892 -23.501885 -30.791841 43.417766 0.875381 2.359158 0.061732 -0.028057 -147624.000000 0 0 1
-18.882092 -23.495485 -31.987971 43.952264 0.893835 2.385889 0.071550 -0.029723 95893.700000 0 0 1
-18.292892 -24.863585 -32.483811 44.811000 0.936491 2.381696 0.060409 -0.024501 -49361.500000 0 0 1
-17.648492 -24.883085 -33.724871 45.475313 0.953885 2.406261 0.058578 -0.021408 -230735.000000 0 0 1
-18.473692 -24.785385 34.263606 46.147452 0.930280 0.734030 0.054635 -0.014137 -128664.000000 0 0 1
-17.696492 -24.811485 32.929742 44.868068 0.951241 0.746715 0.049306 -0.010166 235493.000000 0 0 1
-17.006992 -23.626985 32.474302 43.612527 0.946897 0.730847 0.052160 -0.018327 116084.000000 0 0 1
-16.308592 -23.785685 31.263142 42.533669 0.969768 0.745099 0.052616 -0.009951 318105.000000 0 0 1
-15.281992 -22.702685 30.915092 41.287941 0.978328 0.724595 0.036576 -0.000994 -112453.000000 0 0 1
-16.032392 -21.567485 30.537212 40.678192 0.931559 0.721672 0.036100 -0.005020 -82352.300000 0 0 1
-15.392292 -20.319085 30.375692 39.654389 0.922494 0.698184 0.031919 -0.006904 -256065.000000 0 0 1
-14.465992 -19.763985 31.496752 39.898940 0.938956 0.660944 0.035237 -0.013482 62554.900000 0 0 1
-14.162992 -18.368185 31.225062 38.897109 0.913952 0.638886 0.035237 -0.013418 -76729.500000 0 0 1
-13.512992 -17.754485 32.334622 39.285500 0.920227 0.604005 0.042103 -0.013682 1320.990000 0 0 1
-13.147592 -16.226885 32.097922 38.294224 0.889846 0.576836 0.037092 -0.010161 26383.400000 0 0 1
-12.266792 -15.946785 31.033982 36.984891 0.915099 0.575172 0.051345 -0.014809 -96299.800000 0 0 1
-11.989392 -14.579285 30.836672 36.155241 0.882570 0.549288 0.045315 -0.015445 427197.000000 0 0 1
-10.481392 -14.289685 30.589272 35.351920 0.937943 0.525090 0.048449 -0.017198 478524.000000 0 0 1
-10.162092 -12.924585 30.403962 34.564634 0.904489 0.495720 0.049306 -0.018852 -1535360.000000 0 0 1
-8.821292 -12.721485 30.577302 34.272770 0.964502 0.468659 0.050028 -0.021413 -1164770.000000 0 0 1
-8.421392 -11.222285 30.519782 33.590425 0.927028 0.430911 0.047049 -0.019283 -464660.000000 0 0 1
-8.908392 -10.458585 31.593402 34.451190 0.865271 0.410182 0.048138 -0.016716 69296.100000 0 0 1
-8.832092 -9.033985 31.396072 33.842755 0.796698 0.382581 0.026064 -0.010247 -5326.100000 0 0 1
-9.512992 -8.369385 32.652112 35.024335 0.721534 0.370160 0.019093 -0.011648 -154412.000000 0 0 1
-10.906992 -8.326185 32.464792 35.245575 0.652010 0.399893 0.025855 -0.012963 146151.000000 0 0 1
-11.731392 -7.681985 33.460657 36.280215 0.579758 0.396848 0.030702 -0.016940 374303.000000 0 0 1
-11.389892 -6.241885 33.795419 36.205264 0.501322 0.366912 0.012465 -0.009203 -594428.000000 0 0 1
-11.524892 -5.295885 32.762002 35.131443 0.430740 0.369370 0.014817 -0.009967 122392.000000 0 0 1
-11.507792 -3.986085 33.336040 35.490981 0.333447 0.350264 0.003099 -0.011034 -259414.000000 0 0 1
-11.230392 -2.900785 32.261062 34.282829 0.252773 0.345144 -0.000738 0.004077 -130317.000000 0 0 1
-9.840992 -2.929585 32.032672 33.638069 0.289338 0.310194 -0.006169 0.007876 -71279.800000 0 0 1
-9.492892 -1.807885 31.264602 32.723979 0.188193 0.299773 -0.014394 0.015886 -524938.000000 0 0 1
-8.054792 -1.312285 31.338592 32.383779 0.161501 0.254755 -0.009478 0.019836 -437703.000000 0 0 1
-7.789792 -0.653885 32.548272 33.473847 0.083745 0.235708 -0.003754 0.007398 1144380.000000 0 0 1
-6.462592 -0.049885 32.546622 33.182077 0.007719 0.196020 -0.001407 0.011755 1196100.000000 0 0 1
-6.061792 0.511115 33.943003 34.483823 -0.084119 0.177338 0.007341 -0.002979 -668503.000000 0 0 1
-6.610492 1.746515 34.367442 35.040976 -0.258301 0.196383 0.020657 0.001039 -391217.000000 0 0 1
-6.112292 2.912015 33.711815 34.384974 -0.444606 0.198199 0.025451 0.005036 -162939.000000 0 0 1
-6.932692 4.258215 33.831478 34.796028 -0.550812 0.236005 0.027306 -0.003843 610611.000000 0 0 1
-8.179092 4.125115 33.138396 34.381207 -0.467121 0.269696 0.012206 0.007378 492618.000000 0 0 1
-9.005692 5.246815 33.243164 34.838765 -0.527535 0.303821 0.004225 0.009131 -186533.000000 0 0 1
-10.295692 5.213915 32.412762 34.406007 -0.468768 0.342056 -0.010111 0.011289 108854.000000 0 0 1
-11.129692 6.341015 32.666762 35.088401 -0.517871 0.373695 -0.007455 0.010355 231385.000000 0 0 1
-12.354792 6.240015 31.961402 34.829727 -0.467694 0.408677 -0.018995 0.014572 525121.000000 0 0 1
-13.323192 7.458615 32.187312 35.625292 -0.510353 0.442939 -0.011588 0.011470 409377.000000 0 0 1
-13.876392 7.604715 33.542070 37.087146 -0.501331 0.440796 -0.002916 0.012361 354038.000000 0 0 1
-14.568492 8.819615 33.698601 37.757414 -0.544373 0.467932 -0.006624 0.015160 -282582.000000 0 0 1
-15.353892 8.900815 -34.121549 38.460975 -0.525367 2.661979 0.002054 0.017017 -440913.000000 0 0 1
-14.606792 9.139715 -32.958721 37.190994 -0.559115 2.659878 -0.000905 0.015044 -783908.000000 0 0 1
-15.269892 9.724915 -31.874011 36.656461 -0.567089 2.625053 0.001479 0.013865 -1603630.000000 0 0 1
-14.492792 9.905515 -30.516131 35.205035 -0.599552 2.619568 0.014790 0.002099 574111.000000 0 0 1
-13.611392 11.032015 -30.499701 35.173955 -0.681110 2.620168 0.018657 0.000082 386598.000000 0 0 1
-12.489692 10.942715 -31.387501 35.509304 -0.719475 2.654983 0.035630 -0.005684 -696676.000000 0 0 1
-11.729992 12.276115 -31.274951 35.586771 -0.808144 2.644214 0.034121 -0.010517 -464738.000000 0 0 1
-12.171792 13.413715 -31.979391 36.752710 -0.833900 2.626249 0.018278 -0.015791 -248084.000000 0 0 1
-11.223692 14.458415 -31.975351 36.843454 -0.910691 2.621696 0.016164 -0.015163 -43962.100000 0 0 1
-11.621392 15.694215 -31.157581 36.771728 -0.933410 2.581723 0.023328 -0.012358 91257.100000 0 0 1
-12.779492 16.325615 -31.675211 37.857101 -0.906639 2.562034 0.010129 -0.013967 82343.500000 0 0 1
-13.208292 17.411615 -30.888401 37.838032 -0.921820 2.525828 -0.016720 -0.002862 -548460.000000 0 0 1
-14.569492 17.913115 -31.351381 38.936601 -0.887973 2.506793 -0.026920 -0.003538 -651662.000000 0 0 1
-14.516092 18.836915 -32.456641 40.236549 -0.914229 2.509251 -0.014934 -0.006047 77875.800000 0 0 1
-15.783792 19.440215 -32.656071 41.151780 -0.888833 2.487420 -0.016992 -0.008167 319083.000000 0 0 1
-16.142792 20.593115 -31.688371 41.095243 -0.905954 2.451357 -0.032063 -0.012019 -545258.000000 0 0 1
-15.436592 21.744215 -32.091731 41.725034 -0.953446 2.448266 -0.018090 -0.010782 103352.000000 0 0 1
-15.975692 22.907815 -31.522701 42.114978 -0.961824 2.416581 -0.031213 -0.001620 1534420.000000 0 0 1
-17.411592 23.399815 -32.063041 43.344590 -0.931088 2.403457 -0.013949 -0.010051 1305030.000000 0 0 1
-18.456192 22.590815 -31.593151 43.001199 -0.885789 2.396027 -0.017422 -0.005024 -1422020.000000 0 0 1
-19.543892 22.693515 -32.407971 44.127496 -0.859830 2.395603 0.014979 -0.015016 -1482620.000000 0 0 1
-20.811992 21.955315 -31.897941 43.961955 -0.812125 2.382674 0.023195 -0.022164 -573414.000000 0 0 1
-21.663192 22.720315 -31.073941 44.171217 -0.809212 2.351090 0.034235 -0.027269 525050.000000 0 0 1
-22.417392 23.804515 -31.686511 45.532729 -0.815399 2.340477 0.049935 -0.023237 -482967.000000 0 0 1
-23.647192 23.311015 -32.451001 46.429092 -0.778239 2.344706 0.046934 -0.028433 -1263130.000000 0 0 1
-23.294592 22.422315 -33.497171 46.555974 -0.766321 2.373883 0.066104 -0.028236 286420.000000 0 0 1
-24.486992 21.888815 -34.081287 47.331460 -0.729432 2.374679 0.080191 -0.026613 392721.000000 0 0 1
-24.305992 20.882015 33.886159 46.638092 -0.709771 0.757470 0.088189 -0.019324 28139.600000 0 0 1
-23.837492 19.628515 34.419994 46.241114 -0.688865 0.731222 0.093074 -0.019050 273751.000000 0 0 1
-23.661492 18.672515 33.335518 44.942027 -0.668091 0.735128 0.084017 -0.028079 -93187.400000 0 0 1
-23.343092 17.228215 33.809183 44.550782 -0.635805 0.709188 0.064441 -0.017485 -343289.000000 0 0 1
-24.463092 16.443415 34.114537 45.084702 -0.591805 0.712582 0.064630 -0.010827 85376.700000 0 0 1
-24.806792 15.600715 33.033932 44.158803 -0.561391 0.725645 0.068487 -0.014062 -553627.000000 0 0 1
-25.761592 14.465115 33.401696 44.593413 -0.511629 0.724203 0.044263 -0.009145 -369390.000000 0 0 1
-27.076472 14.884015 33.737304 45.747950 -0.502615 0.741494 0.039575 -0.006175 534214.000000 0 0 1
-28.069002 13.842015 33.575611 45.899803 -0.458147 0.750280 0.011645 0.006098 506654.000000 0 0 1
-28.068112 12.478515 34.340077 46.073562 -0.418337 0.729764 -0.009147 0.008644 -1070430.000000 0 0 1
-27.066022 11.655115 33.888200 44.909034 -0.406619 0.715757 -0.001159 0.000542 -575651.000000 0 0 1
-27.462872 10.326315 34.234756 45.087256 -0.359656 0.708559 -0.004342 -0.000186 96664.500000 0 0 1
-26.227482 9.446415 34.558445 44.400470 -0.345708 0.678787 -0.005753 -0.005276 466389.000000 0 0 1
-25.272072 9.145015 33.550538 42.987760 -0.347203 0.675384 0.008530 -0.002990 207875.000000 0 0 1
-24.250092 10.097915 33.385181 42.480645 -0.394570 0.666660 0.003233 -0.003220 -816004.000000 0 0 1
-23.050992 9.496715 32.657752 41.086063 -0.390797 0.652016 0.013803 -0.002247 -518904.000000 0 0 1
-23.270892 9.351415 31.264872 40.080863 -0.382100 0.676059 0.021135 -0.002322 230894.000000 0 0 1
-22.085692 9.008915 30.561712 38.767984 -0.387304 0.662717 0.021208 -0.001188 337701.000000 0 0 1
-22.242392 8.913315 29.025962 37.638779 -0.381140 0.690117 0.030351 -0.007634 -49613.000000 0 0 1
-22.658992 10.207215 28.582022 37.875442 -0.423245 0.715703 0.021457 -0.014622 288622.000000 0 0 1
-22.544292 10.257715 27.186462 36.777297 -0.427006 0.738887 0.013849 -0.014405 -850261.000000 0 0 1
-22.482492 11.702215 26.679172 36.799219 -0.479916 0.759772 0.015917 -0.016374 -55550.300000 0 0 1
-23.658392 12.483915 26.709422 37.801599 -0.485541 0.786159 0.028291 -0.010755 263594.000000 0 0 1
-24.620292 12.071015 25.721512 37.596068 -0.455847 0.817353 0.017908 -0.011361 -445657.000000 0 0 1
-26.026922 12.585915 26.008832 38.887855 -0.450420 0.838181 0.006189 -0.005868 -604845.000000 0 0 1
-26.266882 13.884115 25.574182 39.201486 -0.486248 0.860079 0.013695 -0.009894 -393827.000000 0 0 1
-27.433452 14.392515 26.164522 40.550228 -0.483160 0.869462 0.003627 -0.015715 -432539.000000 0 0 1
-27.757842 15.765815 25.594382 40.916147 -0.516540 0.894982 0.005725 -0.022152 -593116.000000 0 0 1
-26.829262 16.808415 25.781722 40.829270 -0.559674 0.887372 0.021842 -0.021834 -282488.000000 0 0 1
-27.053892 17.951715 24.980182 40.965676 -0.585845 0.915009 0.022751 -0.026743 -66358.600000 0 0 1
-22.292492 -9.275785 32.749792 40.688380 0.394304 0.635301 0.006697 0.007888 -142020.000000 0 0 1
-21.382492 -8.708785 31.830372 39.322086 0.386771 0.627533 0.015971 -0.005227 -110138.000000 0 0 1
-21.723492 -9.049985 30.537052 38.552871 0.394733 0.656583 0.017376 -0.008206 -278857.000000 0 0 1
-20.596792 -8.908785 29.489462 37.057019 0.408234 0.650492 0.033915 -0.003971 -250984.000000 0 0 1
-20.339392 -7.582385 29.075722 36.284722 0.356834 0.641296 0.039727 -0.013133 621281.000000 0 0 1
-19.048392 -7.162885 29.540482 35.871831 0.359679 0.603242 0.038423 -0.010859 -232444.000000 0 0 1
-17.794592 -7.322285 28.701182 34.554612 0.390372 0.590606 0.042536 -0.007547 -817199.000000 0 0 1
-17.205792 -8.577985 28.551592 34.421135 0.462489 0.592623 0.042578 -0.013763 87399.300000 0 0 1
-16.795192 -9.223385 29.720602 35.361893 0.502204 0.572647 0.040641 -0.010652 -792179.000000 0 0 1
-15.376592 -8.901585 30.252702 35.084238 0.524764 0.531027 0.033652 -0.013058 -481212.000000 0 0 1
-14.352092 -9.575585 29.646432 34.301389 0.588365 0.527054 0.034871 -0.008547 -1474860.000000 0 0 1
-13.080192 -9.303385 30.133552 34.141988 0.618241 0.489442 0.027871 -0.015063 417406.000000 0 0 1
-11.976692 -10.273585 29.532572 33.483735 0.709004 0.490712 0.026758 -0.010692 257872.000000 0 0 1
-11.658192 -9.983385 28.205582 32.111311 0.708164 0.498357 0.025062 -0.010470 -23482.100000 0 0 1
-10.551192 -10.772785 27.790712 31.618100 0.795790 0.497141 0.027671 -0.012202 -32750.700000 0 0 1
-10.046592 -10.384885 26.372122 30.071060 0.801954 0.501227 0.012327 -0.012245 261841.000000 0 0 1
-10.999692 -10.675285 25.344192 29.618964 0.770432 0.543944 0.010287 -0.012311 62783.500000 0 0 1
-10.522492 -10.251285 24.082072 28.209181 0.772344 0.547754 -0.011219 -0.011783 -555197.000000 0 0 1
-11.362192 -10.527985 22.834982 27.593011 0.747308 0.596042 -0.010310 -0.011392 -824776.000000 0 0 1
-11.290992 -11.909185 22.544882 27.885245 0.812038 0.629218 -0.004051 -0.006477 277149.000000 0 0 1
-12.531292 -12.499985 22.207182 28.397920 0.784147 0.672928 -0.007711 -0.006025 333209.000000 0 0 1
-13.609092 -12.651885 23.316782 29.815263 0.748965 0.672861 -0.003726 -0.004516 -273956.000000 0 0 1
-14.814292 -13.220185 22.849882 30.271334 0.728597 0.715393 -0.002869 0.003597 -382251.000000 0 0 1
-15.790192 -13.167685 23.847282 31.486679 0.695082 0.711510 0.003765 0.003546 54349.200000 0 0 1
-17.156592 -13.789185 23.451582 32.163131 0.677008 0.753725 0.018902 0.003725 -178171.000000 0 0 1
-16.997392 -15.193685 23.404782 32.673280 0.729425 0.772271 0.005622 0.006627 950390.000000 0 0 1
-18.270892 -15.859385 23.456382 33.697885 0.714859 0.800875 0.019143 0.007935 356622.000000 0 0 1
-19.185392 -15.798885 24.668092 35.017121 0.688898 0.789137 0.016434 0.005242 -776227.000000 0 0 1
-18.723992 -16.505285 25.800192 35.897942 0.722502 0.768852 0.014818 0.012516 266952.000000 0 0 1
-19.755492 -16.611485 26.782522 37.195758 0.699160 0.766933 0.016167 0.008321 141178.000000 0 0 1
-19.395492 -17.480585 28.032812 38.309196 0.733517 0.749908 0.015496 0.005707 -209350.000000 0 0 1
-19.253492 -18.837885 27.733402 38.661408 0.774488 0.770818 0.020223 0.009435 112096.000000 0 0 1
-18.865392 -19.562885 28.894412 39.667323 0.803547 0.754786 0.021923 0.003761 -131614.000000 0 0 1
-18.716292 -21.111685 28.695042 40.241872 0.845469 0.776937 0.030438 0.007266 -73510.300000 0 0 1
-19.977392 -21.748285 28.697222 41.177842 0.827814 0.799717 0.015422 0.011539 -149328.000000 0 0 1
-19.830592 -23.087985 28.294332 41.555705 0.861150 0.821837 0.019497 0.012085 100655.000000 0 0 1
-21.084192 -23.818385 27.734362 42.202529 0.846215 0.853734 0.018553 0.014557 -314646.000000 0 0 1
-21.850292 -24.327985 28.772152 43.555974 0.839002 0.849207 0.002905 0.012547 -232753.000000 0 0 1
-22.893692 -25.053305 28.093472 44.057149 0.830409 0.879340 -0.015062 0.013082 33117.800000 0 0 1
-23.743192 -25.864095 29.066032 45.579873 0.828126 0.879295 -0.014482 0.009373 -603581.000000 0 0 1
-24.624792 -25.081335 29.831002 46.101436 0.794583 0.867057 -0.012854 0.015675 68911.900000 0 0 1
-25.411052 -25.974245 30.598422 47.504172 0.796358 0.870923 -0.011683 0.008045 -194728.000000 0 0 1
-26.392622 -25.332065 31.597882 48.339530 0.764897 0.858378 0.016007 -0.007124 -621033.000000 0 0 1
-27.438552 -24.753185 30.915892 48.180771 0.733992 0.874130 0.010671 -0.007581 -1519980.000000 0 0 1
-28.536282 -24.607885 31.736392 49.265261 0.711613 0.870827 0.016133 -0.013161 -1443620.000000 0 0 1
-29.695772 -23.931185 31.058962 49.185360 0.678315 0.887352 0.028188 -0.017782 -1387010.000000 0 0 1
-30.232752 -24.800585 30.107042 49.351011 0.687010 0.914661 0.025321 -0.010774 124240.000000 0 0 1
-31.488932 -24.456785 29.547082 49.625772 0.660358 0.933035 0.015406 -0.010698 314297.000000 0 0 1
-32.691392 -24.940585 30.396382 51.134137 0.651712 0.934222 0.016162 -0.011200 -494685.000000 0 0 1
-32.849712 -26.349595 30.407032 51.942202 0.676036 0.945421 0.026209 -0.017703 -227271.000000 0 0 1
-33.887632 -26.699995 31.266912 53.281152 0.667318 0.943660 0.035703 -0.016091 -177371.000000 0 0 1
-33.781772 -28.248555 31.406012 54.088137 0.696432 0.951275 0.042742 -0.023136 494565.000000 0 0 1
-32.690692 -28.559155 32.275762 54.092804 0.718046 0.931446 0.035906 -0.019214 330003.000000 0 0 1
-32.543372 -29.972675 32.271962 54.762321 0.744301 0.940592 0.032613 -0.022530 -268783.000000 0 0 1
-31.593132 -30.496965 33.320833 55.122307 0.767746 0.921672 0.039003 -0.015540 -532248.000000 0 0 1
-32.059022 -30.387275 -34.516914 56.058761 0.758634 2.234105 0.043443 -0.016351 222561.000000 0 0 1
-30.984282 -30.625035 -33.578131 55.003721 0.779567 2.227450 0.024248 -0.015885 561483.000000 0 0 1
-31.300852 -30.365025 -32.031461 54.109080 0.770224 2.204309 0.020029 -0.018087 -137895.000000 0 0 1
-31.269132 -29.059195 -31.603771 53.113028 0.748783 2.208098 0.021047 -0.011228 -153266.000000 0 0 1
-29.989682 -28.545915 -31.324351 51.917870 0.760738 2.218484 0.018828 -0.003590 -545599.000000 0 0 1
-30.176342 -27.024905 -31.125111 51.085513 0.730360 2.225942 0.016359 -0.000332 124401.000000 0 0 1
-30.854782 -26.623575 -29.947551 50.573591 0.711917 2.204530 0.014685 -0.011094 2395.680000 0 0 1
-30.951222 -25.191905 -29.915611 49.875385 0.683173 2.214056 0.016737 0.000054 46473.200000 0 0 1
-29.662812 -24.458385 -29.456061 48.432990 0.689530 2.224564 0.006178 -0.004741 -141882.000000 0 0 1
-29.724892 -23.049585 -29.176991 47.604090 0.659579 2.230534 0.006317 -0.003852 -397924.000000 0 0 1
-28.489092 -22.673985 -28.644161 46.327377 0.672226 2.237373 -0.004134 -0.001933 -545240.000000 0 0 1
-28.369472 -21.192085 -28.396001 45.390134 0.641580 2.246695 0.004104 -0.012081 -139620.000000 0 0 1
-27.958282 -20.624485 -29.634981 45.664724 0.635575 2.277025 0.008113 -0.008669 326799.000000 0 0 1
-27.816152 -19.223285 -29.467651 44.851036 0.604717 2.287644 0.008557 -0.013662 -230558.000000 0 0 1
-27.160332 -18.654185 -30.763391 45.078248 0.601824 2.321898 0.016502 -0.009551 32650.500000 0 0 1
-27.942482 -18.508385 -31.941951 46.299361 0.585025 2.332148 0.018654 -0.006885 81929.500000 0 0 1
-28.884182 -17.452285 -31.846301 46.401132 0.543514 2.327222 0.024075 -0.009848 -204192.000000 0 0 1
-29.496182 -16.929985 -33.201411 47.528758 0.521061 2.344171 0.026804 -0.008678 393385.000000 0 0 1
-30.344852 -17.847285 -33.882621 48.860696 0.531660 2.337068 0.028387 -0.010537 -263966.000000 0 0 1
-31.708312 -17.677385 -33.697531 49.532117 0.508583 2.318991 0.036166 -0.016918 -745133.000000 0 0 1
-32.611092 -18.276985 34.374365 50.785121 0.510833 0.827309 0.026579 -0.015614 -301666.000000 0 0 1
-32.777522 -19.695385 34.462930 51.477837 0.541067 0.837300 0.025987 -0.019009 527069.000000 0 0 1
-33.822862 -19.981685 33.519457 51.641144 0.533608 0.864416 0.031732 -0.022606 109540.000000 0 0 1
-34.336843 -21.438985 33.573652 52.591244 0.558148 0.878393 0.025138 -0.017783 -225010.000000 0 0 1
-33.368672 -22.399785 33.263382 52.169639 0.591191 0.879417 0.034832 -0.025100 -278393.000000 0 0 1
-33.630812 -23.597185 33.986637 53.319322 0.611835 0.879655 0.034193 -0.023209 240139.000000 0 0 1
-32.369282 -24.545685 34.171857 53.084620 0.648793 0.871441 0.028836 -0.015866 1035200.000000 0 0 1
-31.498482 -24.166685 -33.923631 52.220645 0.654440 2.277882 0.019093 -0.018531 259586.000000 0 0 1
-30.631712 -23.047085 -34.139970 51.332324 0.645031 2.298394 0.019145 -0.019420 34668.000000 0 0 1
-29.329922 -23.076485 -33.264931 49.993241 0.666634 2.298811 0.016669 -0.011360 198724.000000 0 0 1
-28.376412 -23.960485 -33.840831 50.244676 0.701223 2.309758 0.017540 -0.010211 454935.000000 0 0 1
-27.048642 -23.885185 -33.343891 49.131926 0.723369 2.316733 0.020655 -0.006900 410939.000000 0 0 1
-26.682052 -24.301185 -31.908631 48.173024 0.738733 2.294782 0.010687 0.006443 -1254350.000000 0 0 1
-26.858952 -25.659815 -31.644631 48.797664 0.762570 2.276391 0.027180 0.006180 -151466.000000 0 0 1
-26.370182 -25.840575 -30.352961 47.795649 0.775255 2.258879 0.005683 0.010823 -500706.000000 0 0 1
-26.050662 -27.278135 -30.062031 48.233384 0.808411 2.243703 0.010550 0.007371 -502684.000000 0 0 1
-27.021212 -28.247165 -30.276081 49.443799 0.807576 2.229805 -0.001591 0.012766 -636363.000000 0 0 1
-26.618142 -29.422755 -29.624981 49.516295 0.835402 2.212159 -0.005546 0.008847 -32350.600000 0 0 1
-27.464882 -30.711295 -29.916341 50.916508 0.841143 2.198833 0.003900 0.014523 -79998.100000 0 0 1
-27.371632 -31.105435 -31.277561 51.913776 0.849162 2.217414 0.023164 -0.000652 223504.000000 0 0 1
-27.982722 -32.339525 -31.545301 53.141167 0.857498 2.206338 0.042725 0.009272 -610621.000000 0 0 1
-27.569642 -32.943655 -32.896801 54.107015 0.873973 2.224329 0.018998 -0.009727 154192.000000 0 0 1
-26.177972 -33.226275 -32.962181 53.626271 0.903496 2.232757 0.019894 -0.002681 37741.800000 0 0 1
-25.863432 -33.675755 -34.240858 54.547318 0.915866 2.249427 0.023231 -0.005568 -451279.000000 0 0 1
-24.350792 -33.899685 -34.371554 54.069894 0.947881 2.259695 0.020626 -0.003663 -137772.000000 0 0 1
-24.182092 -34.384111 33.481599 53.740656 0.957864 0.898196 0.019099 0.003582 -90554.500000 0 0 1
-23.054192 34.031181 33.451038 52.996122 -0.975370 0.887700 0.007350 0.005297 -194165.000000 0 0 1
-22.857892 33.195295 32.099082 51.524382 -0.967770 0.898239 0.013166 -0.001596 -328899.000000 0 0 1
-23.932992 32.338205 31.812902 51.289456 -0.933672 0.901720 0.014998 -0.021818 -330500.000000 0 0 1
-23.713492 31.622255 30.639682 50.010867 -0.927360 0.911374 0.000196 -0.012533 -420790.000000 0 0 1
-25.031092 31.172995 30.010252 49.989263 -0.894245 0.926878 0.010340 -0.019053 -277556.000000 0 0 1
-25.674122 30.130495 30.699502 50.094577 -0.865086 0.911158 0.017531 -0.023466 -1077150.000000 0 0 1
-26.859032 29.739395 30.134372 50.139003 -0.836246 0.926024 0.019401 -0.026532 -979585.000000 0 0 1
-27.480432 28.693025 31.059162 50.429509 -0.806981 0.907278 0.040655 -0.035466 -308121.000000 0 0 1
-26.703012 27.518375 31.066652 49.350265 -0.800435 0.889870 0.033685 -0.034489 56045.400000 0 0 1
-27.260932 26.355695 31.731312 49.443475 -0.768516 0.873993 0.039003 -0.030099 256430.000000 0 0 1
-28.105622 25.441095 30.815142 48.854358 -0.735678 0.888270 0.039432 -0.026274 794703.000000 0 0 1
-27.345432 24.969075 29.685732 47.460194 -0.740005 0.895041 0.027106 -0.027079 404098.000000 0 0 1
-28.268412 24.332085 28.813322 47.131316 -0.710703 0.913042 0.023848 -0.014388 599070.000000 0 0 1
-27.557712 23.974085 27.504232 45.723812 -0.715968 0.925382 0.038028 -0.025890 -24345.400000 0 0 1
-26.775032 22.797885 27.550192 44.672799 -0.705341 0.906239 0.038769 -0.022448 -235441.000000 0 0 1
-26.191282 22.479185 26.320582 43.405876 -0.709276 0.919292 0.024428 -0.007587 -923476.000000 0 0 1
-24.926192 21.680485 26.522282 42.364961 -0.715870 0.894328 0.029584 -0.013422 -733557.000000 0 0 1
-25.170902 20.326285 26.913892 42.084317 -0.679316 0.876919 0.050818 -0.030358 1340700.000000 0 0 1
-23.873592 19.695085 27.040952 41.098149 -0.689784 0.852689 0.047490 -0.014936 1017330.000000 0 0 1
-23.944892 18.545085 28.012502 41.255040 -0.658992 0.824386 0.060803 -0.030608 -624640.000000 0 0 1
-22.728392 18.012685 28.412042 40.599024 -0.670163 0.795650 0.058860 -0.027262 -557601.000000 0 0 1
-22.814092 17.217385 29.543112 41.106163 -0.646491 0.768861 0.063344 -0.021685 -505217.000000 0 0 1
-21.560592 16.396785 29.806112 40.275526 -0.650186 0.737644 0.056303 -0.020552 -123460.000000 0 0 1
-20.408992 17.093585 30.234712 40.284680 -0.697223 0.721938 0.077240 -0.017916 -366790.000000 0 0 1
-19.283392 16.265785 30.273222 39.406763 -0.700716 0.694734 0.049417 -0.011078 45390.200000 0 0 1
-18.143392 16.949785 31.077292 39.777833 -0.751399 0.674096 0.037531 -0.016518 -31090.600000 0 0 1
-18.185992 16.531585 32.408922 40.673847 -0.737781 0.648816 0.023555 -0.014870 1221040.000000 0 0 1
-16.966892 16.861085 33.137511 40.868891 -0.782270 0.625236 0.011047 -0.008672 311182.000000 0 0 1
-16.959792 16.396485 -34.540415 41.827258 -0.768512 2.542393 -0.005547 -0.009566 65828.100000 0 0 1
-17.951892 16.952485 -33.693131 41.771812 -0.756773 2.509173 0.020559 -0.008156 -767479.000000 0 0 1
-19.211592 16.425385 -33.886901 42.275295 -0.707374 2.500724 0.035853 -0.006793 -1286480.000000 0 0 1
-20.302692 17.301285 -33.221481 42.605171 -0.705751 2.465066 0.039805 -0.025638 -128890.000000 0 0 1
-20.397192 17.202385 -31.787571 41.502014 -0.700633 2.443280 0.024532 -0.017417 -97003.700000 0 0 1
-21.551492 17.859485 -31.351021 42.027545 -0.691991 2.412777 0.022811 -0.020095 -546624.000000 0 0 1
-21.809492 17.796685 -29.808511 40.999064 -0.684425 2.384817 0.015542 -0.011192 -81945.800000 0 0 1
-22.475992 16.690585 -29.235421 40.477842 -0.638746 2.377857 0.014514 -0.012897 1112170.000000 0 0 1
-23.902192 16.705085 -29.492371 41.474987 -0.609983 2.361841 0.031544 -0.013486 1333770.000000 0 0 1
-24.755492 15.599985 -28.765581 41.032335 -0.562303 2.347660 0.027513 -0.012935 39293.500000 0 0 1
-24.418492 14.270885 -29.044231 40.539959 -0.528892 2.369475 -0.004260 -0.005853 205835.000000 0 0 1
-25.360792 13.445785 -28.367191 40.356616 -0.487499 2.350281 -0.025255 0.003201 256736.000000 0 0 1
-25.011892 11.906385 -28.455781 39.712570 -0.444288 2.369631 -0.017088 -0.001374 468797.000000 0 0 1
-23.949692 11.557485 -27.552731 38.292508 -0.449609 2.373926 -0.022855 -0.003122 325733.000000 0 0 1
-23.443992 10.278585 -27.831131 37.813250 -0.413192 2.397962 -0.027520 0.004069 506571.000000 0 0 1
-22.167292 9.843685 -27.042821 36.326314 -0.417906 2.410495 -0.006177 0.000100 551551.000000 0 0 1
-22.549792 9.151685 -25.870471 35.517991 -0.385534 2.386746 -0.003494 0.004403 355305.000000 0 0 1
-21.401092 8.678185 -25.190501 34.174244 -0.385240 2.399594 0.012545 0.011367 -299384.000000 0 0 1
-21.861792 7.570585 -24.225201 33.497941 -0.333369 2.379199 0.021822 0.012399 259849.000000 0 0 1
-22.352992 6.439285 -24.895901 34.072372 -0.280479 2.390109 0.014079 -0.010596 42538.300000 0 0 1
-22.462392 5.345985 -24.083201 33.363740 -0.233650 2.377250 0.022954 -0.001932 -152433.000000 0 0 1
34.014469 24.914015 -10.997201 43.573280 0.632176 1.825940 -0.026290 0.003613 -494293.000000 0 0 1
34.865578 24.494315 -10.014101 43.770564 0.612426 1.801627 -0.018428 0.001382 -390180.000000 0 0 1
-34.549738 23.404515 -10.458601 43.021367 -0.595407 1.816359 -0.010332 0.005132 -128528.000000 0 0 1
-33.599252 22.844915 -9.400501 41.703349 -0.597124 1.798164 -0.017520 0.002165 -464282.000000 0 0 1
-34.178348 21.998915 -8.431301 41.511427 -0.571899 1.775327 -0.010945 -0.004199 -441366.000000 0 0 1
-33.282932 21.688815 -7.405501 40.410391 -0.577534 1.755095 0.001417 -0.008064 -651850.000000 0 0 1
-33.736282 20.769915 -6.305301 40.115868 -0.551851 1.728628 -0.012240 -0.005769 -535218.000000 0 0 1
-33.790702 19.413615 -6.718201 39.545344 -0.521478 1.741510 -0.008801 -0.005383 490971.000000 0 0 1
-34.254753 18.519815 -5.711401 39.357232 -0.495636 1.716427 -0.013709 -0.015918 -45244.100000 0 0 1
-35.089964 17.342015 -6.312101 39.647114 -0.459010 1.730684 -0.010843 -0.004310 -773739.000000 0 0 1
33.940559 17.733015 -6.875501 38.906219 0.481464 1.748449 0.001523 -0.012524 -792805.000000 0 0 1
33.440089 16.668415 -7.666401 38.142487 0.462412 1.773169 0.013768 -0.004983 1006170.000000 0 0 1
32.069009 16.983215 -8.411501 37.250561 0.487033 1.798569 0.020289 -0.017986 971250.000000 0 0 1
31.797839 15.961915 -9.289901 36.772103 0.465231 1.826198 0.025063 -0.017716 421300.000000 0 0 1
31.014659 16.342615 -10.445701 36.580088 0.484960 1.860384 0.042076 -0.018171 -185196.000000 0 0 1
30.496119 15.128115 -11.264201 35.857431 0.460496 1.890345 0.039380 -0.013794 -221062.000000 0 0 1
29.285919 14.477915 -10.942101 34.452934 0.459129 1.893989 0.027988 -0.004077 291248.000000 0 0 1
29.123749 13.973815 -9.580301 33.693359 0.447364 1.859112 0.028154 -0.004790 -270861.000000 0 0 1
27.795299 13.173215 -9.451201 32.178214 0.442581 1.868907 0.022694 0.001703 136953.000000 0 0 1
28.074579 11.943415 -9.986901 32.102420 0.402224 1.887141 0.016295 0.007814 576544.000000 0 0 1
26.976619 11.066915 -10.100401 30.858268 0.389304 1.904258 0.012113 0.012193 -584150.000000 0 0 1
27.433709 9.685315 -10.523901 30.938103 0.339384 1.917883 0.000663 0.012963 182539.000000 0 0 1
28.386259 9.062715 -9.646701 31.320462 0.309035 1.883886 0.015154 0.020717 1013610.000000 0 0 1
28.638179 7.694415 -10.036701 31.306305 0.262478 1.897156 0.004041 0.020195 -92685.300000 0 0 1
29.671839 6.992815 -9.086601 31.810121 0.231448 1.860482 0.027580 0.015016 -910907.000000 0 0 1
30.965319 7.349715 -9.382401 33.179794 0.233041 1.857482 0.026142 0.015741 -1038530.000000 0 0 1
31.839529 6.635015 -8.525501 33.622362 0.205449 1.827162 0.026207 0.006390 -354697.000000 0 0 1
33.320729 6.863415 -8.834101 35.148525 0.203139 1.824857 0.019753 0.007059 -399586.000000 0 0 1
33.591679 6.435215 -10.136301 35.672924 0.189278 1.858911 0.010821 0.006657 725470.000000 0 0 1
34.989794 6.398915 -10.432101 37.068323 0.180881 1.856079 0.018892 -0.002048 -287581.000000 0 0 1
-34.882728 5.835315 -11.844801 37.298189 -0.165749 1.893962 0.015512 0.000568 -1197990.000000 0 0 1
-33.549732 5.644215 -12.172401 36.133212 -0.166674 1.914393 0.016298 -0.002931 -344275.000000 0 0 1
-32.908492 6.804115 -12.656601 35.908973 -0.203886 1.930999 0.006172 0.001755 -341375.000000 0 0 1
-32.068472 7.658015 -11.639101 34.964278 -0.234412 1.910158 0.005934 0.014572 -915294.000000 0 0 1
-32.749412 8.491015 -10.738901 35.495708 -0.253686 1.878154 0.018687 0.005376 146604.000000 0 0 1
-33.100412 9.779015 -11.276401 36.310103 -0.287263 1.886577 0.018134 0.002448 -15992.600000 0 0 1
-33.827042 10.747615 -10.279901 36.952082 -0.307636 1.852711 0.024576 0.003384 44774.700000 0 0 1
-33.021792 11.392415 -9.348401 36.161007 -0.332211 1.832288 0.002298 0.001231 -283764.000000 0 0 1
-33.836192 12.282915 -8.639701 37.018945 -0.348219 1.806355 0.021141 -0.005128 -108512.000000 0 0 1
-33.104722 13.196715 -7.627101 36.445144 -0.379329 1.781631 0.020479 0.000009 -992.716000 0 0 1
-32.186102 14.079515 -8.214401 36.078446 -0.412361 1.800492 0.006133 -0.003912 -348669.000000 0 0 1
-31.491372 14.888915 -7.336201 35.597839 -0.441646 1.778369 -0.003773 0.000354 -329524.000000 0 0 1
-30.655242 15.915315 -8.121901 35.482480 -0.478867 1.801743 -0.015033 0.001005 -328499.000000 0 0 1
-31.367812 16.832315 -8.947401 36.705891 -0.492506 1.817036 -0.012438 -0.000094 -117247.000000 0 0 1
-30.761692 18.090215 -9.112101 36.831616 -0.531606 1.820791 -0.022258 0.006519 85812.200000 0 0 1
-31.674852 19.000815 -9.967301 38.257996 -0.540324 1.834366 -0.036215 0.005425 338051.000000 0 0 1
-31.293292 19.053615 -11.338601 38.351978 -0.546918 1.870928 -0.045031 0.013145 -486846.000000 0 0 1
-32.373122 19.458315 -12.109001 39.664505 -0.541201 1.881035 -0.047560 0.007540 -728592.000000 0 0 1
-32.089032 19.396415 -13.612501 39.890188 -0.543690 1.919042 -0.052791 0.020862 -249507.000000 0 0 1
-31.342482 20.546315 -13.985701 40.001276 -0.580261 1.927974 -0.053179 0.014606 140262.000000 0 0 1
-31.188212 20.670815 -15.391501 40.458441 -0.585305 1.961055 -0.069591 0.020091 -870288.000000 0 0 1
-30.262962 21.862515 -15.705501 40.502829 -0.625614 1.969000 -0.041530 0.005927 465.186000 0 0 1
-28.880902 21.718815 -15.396501 39.279329 -0.644788 1.973573 -0.041003 0.008551 603144.000000 0 0 1
-28.249432 23.010015 -15.345401 39.534447 -0.683538 1.969423 -0.036670 0.008577 -13707.000000 0 0 1
-27.592542 23.418815 -16.649001 39.836899 -0.703760 2.001961 -0.028108 0.000959 -265559.000000 0 0 1
-28.524492 24.062415 -17.554201 41.240713 -0.700749 2.010479 -0.030694 0.008286 819681.000000 0 0 1
-27.873942 24.846515 -18.584701 41.709676 -0.728037 2.032610 -0.026629 0.004951 524273.000000 0 0 1
-26.989872 26.097615 -18.182001 41.714792 -0.768592 2.021795 -0.004308 0.006050 813226.000000 0 0 1
-27.734062 27.330115 -18.150901 42.960081 -0.778062 2.007005 -0.000200 0.008084 299714.000000 0 0 1
-26.908102 28.438015 -17.802901 43.008254 -0.813034 1.997576 0.005609 0.005039 -12279.900000 0 0 1
-27.646252 29.714515 -17.441201 44.175368 -0.821440 1.976665 -0.004743 0.007302 -84798.600000 0 0 1
-28.176202 29.878315 -16.130301 44.122542 -0.814709 1.945052 -0.005295 0.002113 -413974.000000 0 0 1
-27.177432 29.901215 -15.195201 43.169313 -0.833082 1.930493 -0.001780 0.006396 -713498.000000 0 0 1
-27.605502 30.468115 -13.841001 43.381368 -0.834651 1.895528 -0.002704 0.002193 -215910.000000 0 0 1
-27.087392 31.785015 -13.729901 43.960484 -0.865023 1.888434 0.009291 0.003831 242332.000000 0 0 1
-27.583932 32.435215 -12.557501 44.391523 -0.866052 1.857592 -0.000695 -0.004829 75536.000000 0 0 1
-27.059012 33.876915 -12.369301 45.086973 -0.896821 1.848703 -0.012915 -0.001712 -91638.400000 0 0 1
-27.383302 -34.568055 -13.406301 46.092565 0.900856 1.865918 -0.018662 -0.008113 87840.200000 0 0 1
-26.489792 -33.451055 -13.528501 44.762735 0.901016 1.877824 -0.004664 -0.007025 225845.000000 0 0 1
-26.797192 -32.594655 -14.775601 44.708158 0.882704 1.907619 -0.020105 0.000435 39344.400000 0 0 1
-26.213752 -33.054555 -16.012301 45.123809 0.900311 1.933553 -0.021349 -0.000271 163200.000000 0 0 1
-26.639542 -32.305455 -17.149501 45.248348 0.881226 1.959521 -0.021828 0.010364 -134602.000000 0 0 1
-25.839642 -32.735255 -18.374501 45.573087 0.902582 1.985794 -0.027506 0.015616 -725779.000000 0 0 1
-26.110722 -34.007155 -18.890801 46.852094 0.916000 1.985808 -0.027445 0.017680 -89149.000000 0 0 1
-25.357632 34.200815 -18.342601 46.358993 -0.932800 1.977587 -0.024188 0.010666 -569975.000000 0 0 1
-25.446302 32.834715 -19.156901 45.745160 -0.911498 2.002892 -0.013252 -0.005477 544620.000000 0 0 1
-26.755482 32.242615 -19.201201 46.088265 -0.878137 2.000518 -0.004966 -0.002183 416169.000000 0 0 1
-27.326792 32.559415 -20.465501 47.177386 -0.872553 2.019501 -0.007246 0.009932 -1242980.000000 0 0 1
-28.793272 32.259115 -20.566701 47.882066 -0.842106 2.014767 -0.003849 0.002275 -1073650.000000 0 0 1
-29.039072 30.958215 -20.935801 47.328496 -0.817374 2.029015 -0.006845 -0.004157 -23180.900000 0 0 1
-30.424622 30.743615 -21.072701 48.113264 -0.790613 2.024148 -0.000991 -0.004246 -199150.000000 0 0 1
-30.772522 29.328615 -21.543501 47.657509 -0.761378 2.039857 0.003324 -0.004650 -624670.000000 0 0 1
-32.105842 28.905315 -21.449001 48.232375 -0.732988 2.031637 0.003811 -0.004981 -227701.000000 0 0 1
-32.336802 27.721415 -22.217401 48.039135 -0.708700 2.051593 0.009696 -0.000610 -59061.400000 0 0 1
-33.807622 27.258815 -22.348201 48.840970 -0.678566 2.046058 0.023645 0.002422 120220.000000 0 0 1
-34.520841 28.029815 -23.300901 50.202500 -0.681996 2.053458 0.017032 0.003740 -788763.000000 0 0 1
34.506664 27.402815 -23.607601 49.989429 0.671152 2.062640 0.033607 0.004639 -483029.000000 0 0 1
33.680689 27.985615 -24.766701 50.308776 0.693306 2.085519 0.039235 0.000403 -241764.000000 0 0 1
34.343377 27.891915 -25.965751 51.299578 0.682105 2.101522 0.039944 -0.006912 -585871.000000 0 0 1
33.539579 28.250115 -27.066281 51.532087 0.700002 2.123784 0.046597 -0.005287 -354299.000000 0 0 1
34.298747 28.430215 -28.363081 52.812362 0.692116 2.137737 0.042771 -0.012944 -7379.290000 0 0 1
34.789608 27.224915 -28.940131 52.811401 0.664015 2.150756 0.036676 -0.002034 230183.000000 0 0 1
-34.735517 27.476815 -30.205411 53.608753 -0.669247 2.169342 0.017905 -0.000021 29434.200000 0 0 1
-34.122691 26.127515 -30.747021 52.843016 -0.653469 2.191805 0.016298 -0.001093 1398630.000000 0 0 1
-32.914172 25.690015 -30.072631 51.455638 -0.662747 2.194984 0.036374 -0.005245 362388.000000 0 0 1
-31.708732 26.238515 -30.550001 51.256277 -0.691277 2.209337 0.024441 0.007314 -138804.000000 0 0 1
-30.489112 25.695415 -29.780061 49.766378 -0.700284 2.212295 0.014468 -0.000579 -433964.000000 0 0 1
-30.231582 24.281215 -30.035141 49.047280 -0.676673 2.229853 0.034078 -0.009929 14506.700000 0 0 1
-31.076542 23.407315 -29.314821 48.713577 -0.645555 2.216523 0.029566 -0.011507 -206601.000000 0 0 1
-30.901882 21.935215 -29.800781 48.209610 -0.617296 2.237184 0.008960 -0.011184 -1140340.000000 0 0 1
-29.572372 21.586815 -29.771391 47.189527 -0.630555 2.253496 0.013851 0.001962 -1109630.000000 0 0 1
-29.457352 20.233715 -30.254561 46.823896 -0.601867 2.273306 0.009264 -0.002225 -383958.000000 0 0 1
-28.076902 19.589515 -30.445401 45.814670 -0.609187 2.297666 0.025646 -0.009154 -557528.000000 0 0 1
-27.500042 19.963015 -31.683721 46.461085 -0.627915 2.321210 0.046761 -0.019657 516622.000000 0 0 1
-26.249012 19.296615 -31.899831 45.595715 -0.633921 2.345667 0.047757 -0.018809 474477.000000 0 0 1
-26.295562 17.870515 -32.492111 45.459313 -0.596904 2.367065 0.049717 -0.012773 -225277.000000 0 0 1
-26.746152 16.896315 -31.530751 44.665763 -0.563423 2.354527 0.026340 -0.005500 239354.000000 0 0 1
-26.741842 15.704315 -32.288731 44.769563 -0.530996 2.376359 0.006572 0.002199 -127585.000000 0 0 1
-27.084592 14.475515 -31.491951 43.987028 -0.490831 2.368762 0.002520 0.004479 257170.000000 0 0 1
-28.478472 14.414115 -31.167971 44.612022 -0.468548 2.344298 -0.010475 0.005479 644695.000000 0 0 1
-29.008192 13.081415 -31.047301 44.458222 -0.423649 2.343883 -0.019769 0.010554 -110865.000000 0 0 1
-28.625102 12.111415 -29.938611 43.155570 -0.400264 2.337461 -0.040499 0.000581 -491967.000000 0 0 1
-29.103952 12.635015 -28.697011 42.780861 -0.409582 2.306071 -0.043625 0.007425 460515.000000 0 0 1
-28.935392 11.658815 -27.643491 41.681500 -0.383026 2.295893 -0.036434 0.007219 -13248.300000 0 0 1
-29.076432 12.209115 -26.229241 41.017977 -0.397541 2.264588 -0.040348 0.008512 -290984.000000 0 0 1
-27.847862 12.756315 -25.858871 40.086259 -0.429546 2.271925 -0.041208 0.001827 -326173.000000 0 0 1
-27.971442 13.684115 -24.803101 39.810179 -0.454984 2.243412 -0.041941 0.006412 282498.000000 0 0 1
-26.573032 14.008015 -24.213501 38.582951 -0.485132 2.249224 -0.041222 0.014833 -471133.000000 0 0 1
-25.685202 14.620715 -25.099961 38.775030 -0.517485 2.274863 -0.027125 0.009512 300248.000000 0 0 1
-24.320992 14.700715 -24.704801 37.655662 -0.543682 2.286398 -0.017154 -0.000157 637529.000000 0 0 1
-24.032992 15.595315 -23.445801 37.020321 -0.575611 2.256635 -0.022114 0.007754 -1094120.000000 0 0 1
-24.445592 16.935315 -23.495201 37.900083 -0.605861 2.239443 -0.004869 0.004871 43362.900000 0 0 1
-24.527692 17.375315 -22.135801 37.329652 -0.616339 2.205553 -0.008850 0.011763 1095830.000000 0 0 1
-25.998272 17.395015 -21.531001 37.974738 -0.589674 2.173634 -0.026929 0.018820 1024830.000000 0 0 1
-26.545042 16.104015 -21.403001 37.710304 -0.545308 2.174340 -0.030619 0.022356 128127.000000 0 0 1
-27.673812 16.012115 -20.554001 38.009139 -0.524537 2.142142 -0.027005 0.031433 -612315.000000 0 0 1
-28.610782 14.863215 -21.027201 38.492014 -0.479123 2.148706 -0.050110 0.019216 447914.000000 0 0 1
-29.454622 14.932615 -22.206001 39.795279 -0.469208 2.162777 -0.048792 0.024609 697444.000000 0 0 1
-30.150072 16.101615 -22.403601 40.868205 -0.490514 2.150997 -0.050009 0.018078 -1007030.000000 0 0 1
-30.633132 16.306115 -23.837501 42.101124 -0.489155 2.172680 -0.036805 0.022455 -314673.000000 0 0 1
-31.579272 15.339915 -24.242401 42.664475 -0.452190 2.175126 -0.016628 0.016897 36245.000000 0 0 1
-31.944402 15.494915 -25.621011 43.783255 -0.451623 2.195896 0.008012 0.000037 -278866.000000 0 0 1
-33.107952 14.619415 -26.089601 44.615368 -0.415820 2.195389 0.006921 0.003974 -256671.000000 0 0 1
-32.877582 13.251215 -26.051261 43.990889 -0.383130 2.204579 0.008442 0.002551 80376.400000 0 0 1
-33.058952 12.651415 -24.740601 43.186224 -0.365498 2.180814 -0.010812 0.009587 -205176.000000 0 0 1
-33.181482 11.136915 -24.657901 42.814176 -0.323822 2.184536 -0.000421 0.011762 -84396.000000 0 0 1
-34.297346 10.672615 -25.388511 43.986238 -0.301681 2.186082 0.021655 0.003812 -145637.000000 0 0 1
-34.040662 9.545015 -26.150231 43.973953 -0.273380 2.207658 0.018700 0.008174 -18059.500000 0 0 1
34.918076 8.863915 -26.745221 44.868117 0.248598 2.209413 0.030028 0.011020 -23060.000000 0 0 1
34.281246 8.118215 -25.738831 43.630227 0.232529 2.201770 0.014392 0.019075 -526770.000000 0 0 1
33.227499 7.431415 -26.354921 43.056643 0.220032 2.229508 0.016944 0.018067 -294570.000000 0 0 1
32.416259 6.479715 -25.415781 41.698471 0.197291 2.226243 0.013990 0.012414 523307.000000 0 0 1
33.047599 5.203915 -25.026101 41.779544 0.156185 2.213053 0.008934 0.010093 725520.000000 0 0 1
32.174589 4.517815 -24.132301 40.472000 0.139504 2.209645 0.008275 0.009736 632550.000000 0 0 1
33.036359 3.537815 -23.250201 40.552300 0.106682 2.181371 -0.003615 0.005724 377110.000000 0 0 1
33.532359 2.428715 -23.998701 41.306845 0.072303 2.190736 -0.005633 0.003459 -208886.000000 0 0 1
34.481744 1.815015 -23.173101 41.584583 0.052588 2.161869 0.000213 -0.000629 -24852.000000 0 0 1
-34.922124 0.717415 -23.899001 42.322945 -0.020540 2.170844 0.012833 -0.004877 250838.000000 0 0 1
34.483181 -0.414785 -24.023901 42.028677 -0.012028 2.179260 -0.003382 -0.009414 -1.519090 0 0 1
-34.946580 -1.485785 -24.456701 42.680220 0.042490 2.180985 0.004817 -0.012829 192619.000000 0 0 1
-22.224292 29.661515 27.779212 46.318563 -0.927767 0.927617 -0.004293 -0.010819 -916499.000000 0 0 1
-23.394892 30.096415 27.134782 46.791148 -0.910031 0.952175 -0.016619 -0.013962 134906.000000 0 0 1
-23.493792 29.729215 25.782482 45.831440 -0.902023 0.973329 -0.020155 -0.004497 -461111.000000 0 0 1
-23.829392 28.248615 25.546462 44.927118 -0.870053 0.965969 -0.010782 -0.007217 820539.000000 0 0 1
-25.179042 27.939415 25.992462 45.718740 -0.837318 0.966079 -0.009627 -0.011360 1126280.000000 0 0 1
-25.400032 27.564615 27.366012 46.409786 -0.826244 0.940158 0.003862 -0.016350 -797266.000000 0 0 1
-24.626892 26.258815 27.847272 45.513512 -0.817458 0.912404 0.013959 -0.018259 550663.000000 0 0 1
-23.269092 26.341615 28.243272 45.088954 -0.847252 0.893883 0.008820 -0.013898 74535.600000 0 0 1
-23.150392 26.888815 29.578212 46.193286 -0.859970 0.875889 0.010794 -0.019696 346523.000000 0 0 1
-21.783392 26.566015 30.229342 45.761146 -0.883995 0.849192 0.030942 -0.010678 346514.000000 0 0 1
-20.572092 27.146615 29.793262 45.252493 -0.922313 0.852134 0.027483 -0.007864 343270.000000 0 0 1
-19.423692 26.724115 30.507502 44.968498 -0.942294 0.825187 0.032770 -0.009948 385415.000000 0 0 1
-18.750592 25.361515 30.173422 43.648901 -0.934157 0.807543 0.033652 -0.001813 -406542.000000 0 0 1
-18.228192 25.348115 28.857912 42.515562 -0.947357 0.824722 0.027789 -0.001214 -305638.000000 0 0 1
-18.760092 24.420215 27.931432 41.574666 -0.915736 0.834109 0.035257 -0.006499 -240427.000000 0 0 1
-18.515192 22.870615 28.107402 40.692793 -0.890252 0.808309 0.028254 0.001533 -68584.600000 0 0 1
-19.375492 22.264315 29.030402 41.398957 -0.854664 0.793668 0.037574 -0.002995 -159753.000000 0 0 1
-19.300592 20.850515 29.080852 40.656522 -0.823981 0.773770 0.047408 -0.004412 172292.000000 0 0 1
-19.792592 20.270715 30.434502 41.580134 -0.797332 0.749620 0.055072 -0.008340 -473319.000000 0 0 1
-18.893692 20.544115 31.425112 42.030583 -0.827223 0.726246 0.044292 -0.016311 -583345.000000 0 0 1
-19.342592 20.147915 32.713482 43.014489 -0.805788 0.706679 0.047675 -0.009701 -84502.700000 0 0 1
-18.458592 20.763515 33.805515 43.756783 -0.844097 0.687905 0.040110 -0.013104 -734004.000000 0 0 1
-18.549292 22.170515 33.944151 44.584901 -0.874095 0.705423 0.024493 -0.021775 -351931.000000 0 0 1
-17.665892 22.942315 33.168953 44.029683 -0.914609 0.717683 0.029396 -0.002082 810153.000000 0 0 1
-16.126492 22.832415 33.510569 43.638758 -0.955856 0.695227 0.014473 0.003531 922990.000000 0 0 1
-15.510992 21.577915 33.285557 42.592553 -0.947540 0.673750 0.012325 -0.013612 518198.000000 0 0 1
-14.154192 21.538715 33.776970 42.486952 -0.989410 0.651795 -0.012136 -0.006006 300048.000000 0 0 1
-13.455292 20.160715 33.538849 41.380596 -0.982285 0.625796 -0.016313 -0.002702 870291.000000 0 0 1
-12.058092 20.081515 33.864100 41.175747 -1.030041 0.605130 -0.022510 -0.010577 760273.000000 0 0 1
-11.895092 20.178915 -33.852361 41.166299 -1.038147 2.536293 -0.010206 0.001126 -1246670.000000 0 0 1
-10.448092 20.062115 -33.411271 40.348037 -1.090658 2.546465 -0.013216 0.003204 -133550.000000 0 0 1
-9.646792 21.241415 -33.555751 40.868652 -1.144497 2.534068 -0.006846 -0.002805 71352.800000 0 0 1
-8.385792 21.133215 -32.931111 40.017401 -1.193046 2.537327 -0.010928 0.000203 26490.000000 0 0 1
-7.534392 22.423915 -32.935031 40.550158 -1.246649 2.518718 -0.022572 -0.000643 -64032.700000 0 0 1
-7.768192 23.460615 -31.986521 40.421316 -1.251042 2.483774 -0.016399 0.006179 187253.000000 0 0 1
-7.215792 23.105515 -30.709761 39.102710 -1.268096 2.474076 -0.012931 0.000087 -16302.500000 0 0 1
-6.983992 24.385515 -29.827611 39.155024 -1.291864 2.436856 -0.010707 -0.003288 -394312.000000 0 0 1
-6.104692 25.302415 -30.359371 39.989635 -1.334052 2.432850 -0.012307 -0.000123 -358214.000000 0 0 1
-5.914792 26.353815 -29.407491 39.928797 -1.350017 2.398675 -0.012551 0.005732 293114.000000 0 0 1
-4.636192 27.218715 -29.638651 40.506819 -1.402084 2.391602 -0.018128 0.001925 -229616.000000 0 0 1
-3.450192 26.634215 -29.157651 39.641567 -1.441974 2.397248 -0.016314 0.006592 558363.000000 0 0 1
-2.287992 27.191915 -29.816091 40.418244 -1.486852 2.400437 -0.019396 0.006502 807311.000000 0 0 1
-1.732392 28.537215 -29.248441 40.900430 -1.510164 2.367583 -0.024472 0.010101 -640141.000000 0 0 1
-1.171492 28.305415 -27.990361 39.824983 -1.529432 2.350170 -0.016140 -0.000562 462654.000000 0 0 1
-0.596592 29.538115 -27.458971 40.334244 -1.550602 2.319631 -0.017566 0.006760 -738520.000000 0 0 1
-0.093092 29.462715 -25.977761 39.279821 -1.567637 2.293415 -0.000746 -0.007303 673088.000000 0 0 1
1.038008 28.651615 -25.650281 38.469851 1.534584 2.300654 0.023782 -0.017086 624899.000000 0 0 1
2.238508 28.952915 -26.312231 39.186933 1.493634 2.306966 0.029788 -0.019121 -114233.000000 0 0 1
3.588708 28.738915 -25.548481 38.620318 1.446567 2.293653 0.034906 -0.014880 595826.000000 0 0 1
3.984708 27.409915 -25.230991 37.467109 1.426433 2.309618 0.043056 -0.011498 -658098.000000 0 0 1
5.163608 27.515715 -24.527801 37.220834 1.385293 2.290259 0.031325 -0.007850 -946249.000000 0 0 1
5.799108 26.261515 -23.893701 35.975072 1.353463 2.297184 0.034602 -0.009500 443234.000000 0 0 1
6.984908 26.662115 -23.202201 36.027760 1.314576 2.270523 0.025174 -0.011152 65846.000000 0 0 1
7.689008 25.543815 -22.675601 35.011287 1.278411 2.275313 0.018244 -0.008147 -310164.000000 0 0 1
9.138608 25.807015 -22.312101 35.317787 1.230462 2.254608 -0.006124 0.008650 -1017640.000000 0 0 1
9.283808 26.374115 -21.016001 34.977927 1.232337 2.215343 -0.004470 0.016958 895845.000000 0 0 1
10.646908 26.580615 -20.594501 35.270657 1.189815 2.194320 0.002541 0.013562 1348410.000000 0 0 1
11.577108 25.372115 -20.222301 34.448732 1.142722 2.198177 -0.013193 0.022918 79976.900000 0 0 1
11.903108 24.574815 -21.348001 34.660391 1.119737 2.234349 -0.012578 0.015573 -94360.800000 0 0 1
11.958008 23.213015 -21.029301 33.527146 1.095108 2.248790 -0.017874 0.019350 -447770.000000 0 0 1
11.984908 22.218915 -22.200301 33.618025 1.076127 2.292106 -0.024609 0.013827 -1124570.000000 0 0 1
10.867608 22.053715 -22.995001 33.663650 1.112942 2.322769 -0.016691 0.001666 -643962.000000 0 0 1
11.123108 21.332415 -24.224101 34.140922 1.090161 2.359631 -0.020053 -0.003498 -592736.000000 0 0 1
10.079708 21.558015 -25.292271 34.728195 1.133434 2.386623 0.011789 -0.007436 -139438.000000 0 0 1
8.791008 21.081115 -24.896301 33.786403 1.175714 2.399230 0.005287 -0.008638 33346.100000 0 0 1
8.125008 20.848415 -26.148041 34.415000 1.199185 2.433780 0.001294 -0.005145 303638.000000 0 0 1
6.606008 20.484115 -25.983181 33.739651 1.258833 2.449807 0.010683 -0.014232 854567.000000 0 0 1
5.732108 21.540315 -25.594321 33.939822 1.310713 2.425093 0.034548 -0.014920 11453.600000 0 0 1
5.892608 22.030415 -24.287801 33.316052 1.309438 2.387674 0.039553 -0.015068 -1018440.000000 0 0 1
4.615008 22.364815 -23.509401 32.774612 1.367301 2.370723 0.047225 -0.015412 -46541.000000 0 0 1
3.882608 23.462715 -24.060001 33.829829 1.406803 2.362010 0.044715 -0.017642 310727.000000 0 0 1
2.478808 23.314015 -23.875001 33.461971 1.464872 2.365272 0.050735 -0.022952 137163.000000 0 0 1
1.914808 24.639215 -24.351601 34.695214 1.493238 2.348819 0.042780 -0.009733 -555730.000000 0 0 1
0.510908 24.721015 -24.407201 34.743360 1.550132 2.349700 0.041170 -0.024672 -89530.600000 0 0 1
0.245208 25.333815 -25.671751 36.068007 1.561118 2.362796 0.019823 -0.010830 903198.000000 0 0 1
-1.263292 25.081615 -26.056341 36.188620 -1.520472 2.374620 0.020399 -0.010888 639621.000000 0 0 1
-1.474992 23.872115 -26.633571 35.796656 -1.509088 2.409869 0.036519 -0.018946 -555651.000000 0 0 1
-2.664992 23.925915 -27.353391 36.438436 -1.459868 2.419878 0.030436 -0.006908 -288123.000000 0 0 1
-3.180792 22.520515 -27.785811 35.907413 -1.430485 2.455644 0.024846 -0.005393 38429.900000 0 0 1
-2.236692 21.938915 -28.698421 36.192792 -1.469196 2.486402 0.016496 -0.002703 372530.000000 0 0 1
-2.672292 20.697415 -29.224571 35.910997 -1.442394 2.521467 0.010969 -0.002743 -390787.000000 0 0 1
-3.885292 20.638315 -30.162591 36.753469 -1.384718 2.533385 0.012541 -0.003725 -87687.200000 0 0 1
-3.642492 21.196515 -31.426861 38.081591 -1.400615 2.541442 -0.008724 -0.002839 -17388.200000 0 0 1
-3.495992 22.638215 -31.549211 38.987991 -1.417578 2.513591 0.001212 -0.003077 -195186.000000 0 0 1
-3.428492 22.980115 -33.038981 40.390773 -1.422695 2.528693 -0.008247 0.003292 -3958.710000 0 0 1
-2.393392 22.226615 -33.632551 40.384394 -1.463528 2.554962 -0.017372 0.000029 43723.000000 0 0 1
-2.250092 22.474415 34.111675 40.911718 -1.471011 0.584864 -0.020839 0.008066 -175244.000000 0 0 1
-1.013292 21.748015 33.556885 40.000843 -1.524238 0.575529 -0.012026 0.009483 103367.000000 0 0 1
-1.260392 20.355715 33.351545 39.093085 -1.508957 0.548837 -0.029176 0.014034 -162488.000000 0 0 1
-0.080192 19.736515 32.956842 38.414710 -1.566733 0.539584 -0.019951 0.016497 -540344.000000 0 0 1
-0.449992 18.289315 32.730532 37.496524 -1.546197 0.509691 -0.020465 0.033986 367263.000000 0 0 1
-1.183392 18.206315 31.482312 36.386898 -1.505889 0.525227 -0.031407 0.025693 152321.000000 0 0 1
-1.422892 16.881215 31.148172 35.457139 -1.486707 0.498138 -0.029306 0.021338 -73387.800000 0 0 1
-2.474892 16.728815 30.011462 34.448022 -1.423920 0.513134 -0.025812 0.030534 590600.000000 0 0 1
-3.773292 17.204915 30.344002 35.085685 -1.354900 0.525936 -0.042087 0.018320 91555.900000 0 0 1
-4.013892 18.443115 29.674772 35.168906 -1.356502 0.566511 -0.041616 0.021856 55381.900000 0 0 1
-5.533892 18.788015 29.743522 35.613068 -1.284353 0.582326 -0.043638 0.016254 526077.000000 0 0 1
-6.228192 17.794815 28.991192 34.582294 -1.234121 0.576593 -0.050538 0.015648 240922.000000 0 0 1
-7.622692 18.109015 29.029872 35.053892 -1.172375 0.594998 -0.051698 0.012931 215671.000000 0 0 1
-8.580492 17.277415 28.157102 34.131457 -1.109848 0.600664 -0.044420 0.009496 -43302.500000 0 0 1
-8.956292 15.961615 28.575152 33.934166 -1.059460 0.569675 -0.032606 -0.002891 -269854.000000 0 0 1
-9.903292 15.961215 29.616852 35.071263 -1.015469 0.565210 -0.032700 0.001112 -897551.000000 0 0 1
-10.357992 14.486115 29.894572 34.796853 -0.950055 0.537254 -0.023948 0.003649 -273149.000000 0 0 1
-9.407592 13.455415 30.063292 34.254234 -0.960629 0.499855 -0.015496 0.007875 -49060.100000 0 0 1
-8.481892 13.692615 31.137282 35.056534 -1.016198 0.477379 -0.020002 0.015885 -29494.700000 0 0 1
-8.934692 13.249215 32.590982 36.297969 -0.977489 0.455881 0.007409 0.001389 -385351.000000 0 0 1
-9.044092 11.867915 32.765012 36.002625 -0.919620 0.427336 0.003573 0.006990 288239.000000 0 0 1
-9.507792 11.677615 34.073272 37.252552 -0.887463 0.416140 0.000308 0.009448 -113579.000000 0 0 1
-10.047392 10.217215 34.339531 37.209474 -0.793778 0.395327 0.008382 0.009338 71711.100000 0 0 1
-8.960992 9.305415 34.501997 36.841253 -0.804252 0.358271 0.014451 0.004196 482838.000000 0 0 1
-8.944192 8.590015 -33.428591 35.654700 -0.765202 2.786358 0.031507 -0.004371 -627196.000000 0 0 1
-8.247892 9.306215 -32.289951 34.601652 -0.845615 2.773988 0.026187 -0.002923 -728582.000000 0 0 1
-8.892492 10.403315 -31.731511 34.557115 -0.863537 2.734394 0.035239 -0.003876 144536.000000 0 0 1
-8.067992 11.151215 -30.816061 33.750136 -0.944467 2.721533 0.033765 -0.000662 731312.000000 0 0 1
-7.069292 12.191415 -31.446951 34.460357 -1.045319 2.720284 0.017594 -0.004946 391333.000000 0 0 1
-7.800092 13.247615 -32.017191 35.516774 -1.038659 2.693943 0.028302 -0.013983 -253100.000000 0 0 1
-6.944392 14.214315 -32.526561 36.169718 -1.116351 2.688908 0.010598 -0.012415 -346964.000000 0 0 1
-7.508592 15.599915 -32.997351 37.263407 -1.122202 2.658400 0.008070 -0.012265 -385022.000000 0 0 1
-8.088692 15.675515 -34.233362 38.510671 -1.094424 2.665804 0.002025 -0.015340 -318903.000000 0 0 1
-8.671192 16.944715 -34.434728 39.345437 -1.097805 2.636624 0.014177 -0.012905 -836331.000000 0 0 1
-9.312992 17.144715 33.292113 38.588054 -1.073190 0.530099 -0.013944 -0.009628 1190690.000000 0 0 1
-10.500192 16.439515 32.862032 38.215505 -1.002394 0.535696 -0.023237 -0.005935 1178640.000000 0 0 1
-11.593892 16.602515 33.780063 39.384699 -0.961198 0.540026 -0.015060 -0.016004 -335283.000000 0 0 1
-12.990292 16.568115 33.086204 39.216668 -0.905855 0.566700 -0.012750 -0.015118 296847.000000 0 0 1
-13.462092 15.326115 32.529042 38.396046 -0.850057 0.560108 -0.024940 -0.008175 457079.000000 0 0 1
-13.876492 14.281215 33.420967 38.903357 -0.799771 0.537333 -0.008755 -0.003085 -114167.000000 0 0 1
-13.078492 12.978915 33.124884 37.904579 -0.781577 0.507624 -0.025609 0.013837 103580.000000 0 0 1
-13.307092 12.369915 31.847932 36.665846 -0.748916 0.518428 -0.038157 0.011588 16172.600000 0 0 1
-12.383392 11.337115 31.616432 35.797728 -0.741318 0.488162 -0.028595 0.005051 -231932.000000 0 0 1
-12.535892 10.753415 30.192952 34.415097 -0.709011 0.500553 -0.015573 0.002323 -26803.200000 0 0 1
-13.601092 9.874315 29.905152 34.304663 -0.627960 0.512030 -0.024434 0.008246 4078.020000 0 0 1
-13.650592 9.521115 28.563742 33.058700 -0.609038 0.527574 -0.026349 0.009862 -192828.000000 0 0 1
-14.513792 8.316615 28.331322 32.901065 -0.520341 0.533354 -0.015118 0.008346 -263828.000000 0 0 1
-13.975592 7.128315 28.851082 32.840752 -0.471659 0.498052 -0.028039 0.011179 -145508.000000 0 0 1
-14.826592 6.057715 28.574452 32.757031 -0.387873 0.510879 -0.019206 0.013274 -156755.000000 0 0 1
-14.048592 4.706715 28.547212 32.163013 -0.323278 0.478734 -0.016640 0.011883 81325.900000 0 0 1
-13.132792 4.516215 27.500042 30.807771 -0.331220 0.467643 -0.015696 0.007991 -392446.000000 0 0 1
-13.702292 4.367115 26.215182 29.900841 -0.308536 0.501760 -0.006754 0.006843 -355472.000000 0 0 1
-12.726792 4.424715 25.023392 28.420406 -0.334597 0.493938 0.001911 0.016752 807660.000000 0 0 1
-11.734492 3.323715 25.029132 27.842465 -0.276014 0.453418 -0.007491 0.012786 1014540.000000 0 0 1
-11.447892 2.802015 23.756482 26.519351 -0.240043 0.460530 0.006722 0.006347 -144793.000000 0 0 1
-10.473592 1.572415 23.726382 25.982876 -0.149018 0.419839 0.004711 -0.000985 61119.100000 0 0 1
-9.161992 2.009815 23.985382 25.754223 -0.215944 0.372780 0.016463 -0.008640 -305757.000000 0 0 1
-8.316492 0.947515 24.396542 25.792501 -0.113443 0.330509 0.005470 0.000612 598599.000000 0 0 1
-6.818892 1.377815 24.333622 25.308513 -0.199374 0.278461 0.029354 -0.006022 -21650.500000 0 0 1
-6.269192 1.518115 23.053482 23.938891 -0.237581 0.272824 0.028664 -0.007258 1304260.000000 0 1 0
-4.822792 1.572815 22.952182 23.506079 -0.315246 0.217518 0.027085 -0.005623 1493680.000000 0 1 0
-4.035492 2.787115 23.444382 23.951874 -0.604424 0.206219 0.023626 -0.005774 -622897.000000 0 1 0
-3.963392 2.784015 24.861382 25.328789 -0.612357 0.192409 0.026934 -0.005679 -148313.000000 0 0 1
-3.501092 3.981715 25.377542 25.925496 -0.849540 0.205964 0.030787 -0.006581 -273530.000000 0 0 1
4.111808 -23.694185 13.204099 27.434824 -1.398971 1.068671 0.024914 -0.004464 259553.000000 0 0 1
3.923308 -24.866485 13.905399 28.759251 -1.414311 1.066136 0.030899 -0.008326 -562755.000000 0 0 1
2.613908 -25.300875 13.620699 28.852907 -1.467849 1.079155 0.017391 0.001515 97609.500000 0 0 1
2.466508 -26.763605 14.206799 30.400779 -1.478897 1.084543 0.010105 0.009492 -17970.200000 0 0 1
2.350508 -26.730945 15.601499 31.039895 -1.483090 1.044161 -0.006788 0.001850 -121666.000000 0 0 1
2.320808 -28.001465 16.153999 32.410181 -1.488104 1.049017 -0.016589 -0.003257 -332203.000000 0 0 1
1.859408 -28.051215 17.645999 33.192007 -1.504607 1.010268 -0.028731 0.002217 -197357.000000 0 0 1
2.657608 -27.313505 18.530199 33.112818 -1.473801 0.976884 -0.014814 -0.003426 -75968.700000 0 0 1
2.442008 -27.650595 19.894899 34.151512 -1.482708 0.948936 -0.015857 -0.010171 -161395.000000 0 0 1
3.046808 -26.672265 20.897799 34.020740 -1.457058 0.909340 -0.009337 -0.003778 -125821.000000 0 0 1
2.439808 -25.448285 21.048199 33.114869 -1.475215 0.881996 -0.012935 0.001310 507596.000000 0 0 1
3.369408 -24.693185 21.848799 33.143269 -1.435183 0.851012 0.009314 -0.006213 927366.000000 0 0 1
2.631108 -23.446085 22.450699 32.568014 -1.459044 0.810208 0.010397 -0.005189 366517.000000 0 0 1
2.108608 -22.414285 21.572699 31.180567 -1.476998 0.806729 0.005262 0.001913 -79759.200000 0 0 1
3.063208 -21.584985 20.975899 30.253647 -1.429824 0.804690 0.008960 0.006056 -473491.000000 0 0 1
2.467408 -20.484485 20.062899 28.778849 -1.450921 0.799395 -0.003976 -0.004604 -129582.000000 0 0 1
2.007108 -19.357385 20.780299 28.470294 -1.467479 0.752629 -0.003622 -0.005026 33303.900000 0 0 1
1.157908 -18.507985 20.054599 27.314340 -1.508315 0.746287 -0.010936 -0.007322 215353.000000 0 0 1
0.796208 -17.169585 20.787899 26.973419 -1.524456 0.690887 -0.012112 -0.003275 460752.000000 0 0 1
1.949308 -16.349785 20.688399 26.440974 -1.452131 0.672227 -0.027991 0.007554 246285.000000 0 0 1
1.592408 -15.055685 21.096299 25.966579 -1.465420 0.622471 -0.020035 0.006112 879967.000000 0 0 1
2.634908 -13.883485 20.784499 25.133430 -1.383240 0.597106 -0.029555 0.009233 255160.000000 0 0 1
2.882108 -13.760485 19.398999 23.957852 -1.364333 0.627132 -0.025704 0.008751 57565.400000 0 1 0
1.807308 -13.230885 18.604399 22.900793 -1.435039 0.622555 -0.013840 0.011433 505423.000000 0 1 0
1.070608 -11.907685 19.075299 22.512356 -1.481128 0.559867 -0.015766 0.003374 -141643.000000 0 1 0
1.810808 -10.704385 18.943099 21.833549 -1.403218 0.520412 -0.011865 0.006293 -354911.000000 0 1 0
1.686308 -9.770085 20.005099 22.327162 -1.399881 0.460122 -0.014666 0.000057 53374.000000 0 1 0
0.360108 -8.984185 20.077699 21.999074 -1.530735 0.421048 -0.000227 -0.007240 211019.000000 0 1 0
0.086108 -8.380885 21.325899 22.913765 -1.560522 0.374467 0.004511 -0.006433 -1007430.000000 0 1 0
-1.183592 -7.845485 21.200499 22.636556 1.421063 0.358112 0.011828 -0.013294 -595407.000000 0 1 0
-1.724492 -7.216985 22.496199 23.688345 1.336245 0.318604 0.022906 -0.011226 -261447.000000 0 1 0
-1.823692 -8.207485 23.510099 24.968248 1.352150 0.343446 0.018802 -0.005123 122116.000000 0 1 0
-1.966692 -7.635085 24.837799 26.059138 1.318691 0.307372 0.011805 0.011011 -162844.000000 0 0 1
-1.827192 -8.670085 25.954199 27.424978 1.363089 0.328985 0.014165 0.006705 478204.000000 0 0 1
-0.551692 -9.288485 26.152999 27.758956 1.511471 0.341819 0.008855 0.003802 438596.000000 0 0 1
-0.632592 -10.221685 27.198899 29.063088 1.508988 0.360113 0.018343 -0.007118 458637.000000 0 0 1
0.649308 -11.115085 27.343699 29.523627 -1.512446 0.386688 0.012699 -0.009269 277286.000000 0 0 1
1.573208 -10.646385 28.258599 30.238533 -1.424089 0.363880 -0.004173 -0.002854 -122898.000000 0 0 1
2.698608 -11.494285 28.453599 30.805979 -1.340194 0.393328 -0.005067 -0.009416 496103.000000 0 0 1
3.711608 -10.993685 29.493999 31.694370 -1.245199 0.374815 -0.002677 -0.000824 97063.600000 0 0 1
3.086308 -11.117685 30.738299 32.832472 -1.300011 0.359092 -0.002139 0.000516 733938.000000 0 0 1
3.826808 -10.236985 31.609099 33.445111 -1.213059 0.332884 -0.010441 0.005012 339578.000000 0 0 1
3.185408 -10.186985 33.008499 34.691245 -1.267735 0.312742 -0.010471 0.005561 4840.850000 0 0 1
3.476208 -11.355585 33.799699 35.825312 -1.273731 0.337883 -0.004845 -0.001736 357775.000000 0 0 1
2.790208 -11.363885 -34.100385 36.052176 -1.330026 2.811037 -0.002256 -0.002621 -87304.600000 0 0 1
3.354408 -10.364485 -33.027985 34.778188 -1.257791 2.822994 -0.016967 0.003913 -2043.340000 0 0 1
2.942508 -9.008985 -33.154585 34.482556 -1.255101 2.863164 -0.016144 -0.001476 148908.000000 0 0 1
3.310708 -8.332485 -32.010485 33.242476 -1.192598 2.868492 -0.010188 -0.002463 -231726.000000 0 0 1
2.695408 -6.897985 -32.024685 32.869862 -1.198287 2.914332 -0.025712 -0.007992 -115403.000000 0 0 1
3.295108 -5.957085 -32.889585 33.586744 -1.065545 2.937489 0.004289 -0.009474 -111218.000000 0 0 1
3.247008 -4.666585 -32.330985 32.827011 -0.962895 2.967532 -0.003477 -0.003819 -41149.100000 0 0 1
3.219708 -3.428785 -33.317385 33.647752 -0.816835 3.001346 0.000170 0.004895 -315506.000000 0 0 1
2.054808 -3.399585 -34.077185 34.307928 -1.027126 3.025548 -0.006321 0.005793 -381810.000000 0 0 1
2.398408 -2.554085 33.956699 34.136976 -0.816822 0.102817 0.005474 0.010812 121134.000000 0 0 1
1.805308 -3.116585 32.648799 32.846861 -1.045768 0.109872 -0.001022 0.012106 828837.000000 0 0 1
0.411008 -2.810685 32.507999 32.631869 -1.425595 0.087159 -0.001353 0.006140 326704.000000 0 0 1
-0.037392 -3.405985 31.302499 31.487276 1.559819 0.108389 -0.002869 0.009725 676744.000000 0 0 1
-1.582192 -3.548385 31.087099 31.328934 1.151365 0.124332 -0.000548 0.003546 484564.000000 0 0 1
-2.255992 -2.365785 30.783799 30.956885 0.809149 0.105796 -0.002131 0.004728 -159512.000000 0 0 1
-3.598892 -2.747485 30.523699 30.857688 0.652038 0.147262 -0.004165 0.007725 -105711.000000 0 0 1
-4.370092 -1.716185 29.736299 30.104658 0.374207 0.156595 0.013178 0.005503 -433405.000000 0 0 1
-4.000392 -1.617085 28.364099 28.690420 0.384149 0.150967 0.018666 0.009338 -218937.000000 0 0 1
-5.003592 -1.093385 27.532999 28.005311 0.215138 0.183917 0.013144 0.005511 -24607.800000 0 0 1
-5.298992 0.405415 27.638899 28.145202 -0.076359 0.189964 0.020542 0.004036 411643.000000 0 0 1
-6.278092 0.783515 28.619199 29.310184 -0.124160 0.217569 0.009158 0.008337 -54008.500000 0 0 1
-6.490392 2.170415 28.704599 29.509149 -0.322714 0.234048 0.015213 0.008234 -238322.000000 0 0 1
-7.723492 2.655415 29.514499 30.623671 -0.331150 0.269964 0.007838 0.003216 -445966.000000 0 0 1
-8.827292 2.206015 28.815899 30.218266 -0.244893 0.305848 -0.002684 0.015854 -753472.000000 0 0 1
-10.069392 2.612615 29.363099 31.151404 -0.253863 0.340484 -0.016619 0.018493 597606.000000 0 0 1
-11.306692 2.019015 28.624399 30.842729 -0.176706 0.381584 -0.020291 0.016749 134360.000000 0 0 1
-11.596492 0.705615 28.947299 31.191708 -0.060772 0.381668 -0.015173 0.019061 -63914.300000 0 0 1
-11.954092 -0.093885 27.826399 30.285600 0.007854 0.405768 -0.006864 0.020432 -690144.000000 0 0 1
-11.952192 -1.617485 28.160799 30.634976 0.134512 0.404659 -0.008178 0.018527 1004360.000000 0 0 1
-10.657192 -2.234885 28.313699 30.335392 0.206711 0.367147 -0.015342 0.016697 1406100.000000 0 0 1
-9.682192 -2.174385 27.243999 28.994970 0.220911 0.349304 -0.020958 0.012450 207394.000000 0 0 1
-9.788192 -3.152585 26.098399 28.051273 0.311589 0.375343 -0.023718 0.014997 -567422.000000 0 0 1
-10.679392 -2.681485 25.137599 27.443372 0.246004 0.412851 -0.018126 0.017914 -99614.100000 0 0 1
-10.474192 -3.332485 23.853899 26.264475 0.308034 0.431787 -0.017655 0.013092 -404651.000000 0 0 1
-9.607692 -2.593485 22.827799 24.902657 0.263654 0.411101 0.006977 0.005373 -989682.000000 0 1 0
-8.278392 -2.655085 23.160099 24.738056 0.310360 0.359100 0.016408 0.000503 -1763360.000000 0 1 0
-7.485492 -2.250485 22.113799 23.454581 0.292050 0.339759 0.019967 -0.004817 -284084.000000 0 1 0
-5.970492 -2.230585 22.456099 23.343064 0.357544 0.276550 0.034012 -0.008994 611878.000000 0 1 0
-5.227692 -3.454985 22.318999 23.181963 0.584000 0.273711 0.030017 -0.016514 163645.000000 0 1 0
-5.460192 -4.348985 23.383399 24.403088 0.672597 0.290102 0.019956 -0.008893 -226127.000000 0 1 0
-5.217092 -5.872985 23.086499 24.386398 0.844472 0.327978 0.016216 -0.011209 50098.900000 0 1 0
-6.204392 -6.441285 22.235999 23.967150 0.804129 0.382405 0.019446 -0.017284 315071.000000 0 1 0
-5.812892 -6.272085 20.880899 22.564146 0.823377 0.388702 0.027279 -0.023166 308163.000000 0 1 0
-7.057092 -6.342085 19.950699 22.091966 0.732087 0.443920 0.032867 -0.020550 154734.000000 0 1 0
-7.969192 -5.302685 20.116899 22.278153 0.587124 0.444123 0.026460 -0.019208 -183361.000000 0 1 0
-8.998192 -5.235785 19.139399 21.787553 0.526983 0.498176 0.029074 -0.017967 693031.000000 0 1 0
-9.724292 -3.850285 19.259799 21.916350 0.377006 0.497482 0.023357 -0.015283 103866.000000 0 1 0
-8.813492 -2.902185 18.831199 20.993198 0.318106 0.457829 0.021053 -0.015929 -296453.000000 0 1 0
-9.369092 -1.628785 18.889499 21.148191 0.172126 0.466391 0.014102 -0.016291 -658121.000000 0 1 0
-8.474392 -0.536285 18.357199 20.225965 0.063199 0.433251 0.015037 -0.007718 -488550.000000 0 1 0
-7.445892 -0.246485 19.307199 20.694685 0.033091 0.368262 0.019324 0.002208 209720.000000 0 1 0
-7.724592 0.693215 20.366299 21.793026 -0.089502 0.363852 0.035443 0.000379 -307866.000000 0 1 0
-7.445292 2.153215 19.967399 21.418817 -0.281524 0.370252 0.023118 -0.011474 -564497.000000 0 1 0
-8.293092 2.662915 18.994799 20.896623 -0.310701 0.429944 0.007217 -0.016696 -204132.000000 0 1 0
-8.152392 4.055515 18.904199 20.982789 -0.461616 0.448869 0.007798 -0.008990 102717.000000 0 1 0
-9.105792 4.710815 17.859199 20.592674 -0.477425 0.521125 0.009452 -0.001978 -648879.000000 0 1 0
-10.409292 4.900215 18.320499 21.633450 -0.439978 0.560744 0.001384 0.010141 -359880.000000 0 1 0
-11.313292 5.244415 17.284199 21.312860 -0.434075 0.624979 0.005115 0.019116 68305.400000 0 1 0
-11.497992 6.740915 17.005999 21.606660 -0.530262 0.664748 0.008882 0.017037 61137.800000 0 1 0
-10.273192 7.406015 16.689199 20.950343 -0.624620 0.649134 0.010244 0.009262 623049.000000 0 1 0
-10.599392 8.780615 16.557099 21.530997 -0.691824 0.693538 0.015110 0.003030 435001.000000 0 1 0
-9.396792 9.787015 16.524999 21.381322 -0.805737 0.687444 0.013150 -0.000863 -2230.280000 0 1 0
-8.811692 9.896215 17.845199 22.226833 -0.843305 0.638707 0.025221 0.007391 -37451.500000 0 1 0
-7.854092 10.927515 17.983899 22.461477 -0.947601 0.642408 0.031708 -0.003770 837.867000 0 1 0
-8.256792 12.381915 17.697699 23.123472 -0.982672 0.699201 0.022571 0.003409 -278726.000000 0 1 0
-8.220492 12.628115 16.292499 22.192145 -0.993741 0.746373 0.017726 -0.014031 -50776.300000 0 1 0
-9.022892 13.778315 16.098199 23.030557 -0.991011 0.796808 0.033274 -0.016971 83158.300000 0 1 0
-8.741092 14.421615 14.761399 22.411795 -1.025896 0.851781 0.024620 -0.010688 740285.000000 0 1 0
-7.471392 15.090115 14.760599 22.392154 -1.111062 0.851060 0.024572 -0.000955 363054.000000 0 1 0
-7.187092 15.516615 13.471599 21.769327 -1.137031 0.903539 0.016747 -0.014695 -346819.000000 0 1 0
-6.067892 16.559215 13.464399 22.188217 -1.219555 0.918734 -0.007885 -0.009733 -498035.000000 0 1 0
-4.775392 16.047815 13.542499 21.534531 -1.281568 0.890693 -0.009943 -0.019476 -605931.000000 0 1 0
-3.849792 17.131515 13.665099 22.249599 -1.349749 0.909459 -0.007999 -0.017486 239020.000000 0 1 0
-2.356092 16.775515 13.718599 21.798372 -1.431261 0.890092 0.007525 -0.024798 -155166.000000 0 1 0
-1.786092 16.244715 14.894599 22.111761 -1.461287 0.831720 0.009253 -0.021466 2956.750000 0 1 0
-2.148592 14.889615 15.243099 21.416562 -1.427484 0.778819 0.020438 -0.022034 -250572.000000 0 1 0
-1.124792 14.410515 16.286599 21.775707 -1.492901 0.725866 0.014591 -0.011177 428687.000000 0 1 0
0.131808 13.998215 15.713999 21.045122 1.561381 0.727737 -0.011308 -0.024667 488691.000000 0 1 0
1.040508 13.617115 16.739699 21.603842 1.494533 0.684321 -0.002490 -0.001572 272629.000000 0 1 0
1.902408 14.755315 17.397499 22.891296 1.442573 0.707476 -0.007116 -0.005930 67079.700000 0 1 0
1.212208 15.718815 18.232199 24.103188 1.493830 0.712970 -0.013903 -0.007812 212613.000000 0 1 0
2.103708 16.801015 18.484099 25.067142 1.446231 0.741608 -0.002764 -0.008371 544225.000000 0 0 1
1.294008 18.047715 19.076199 26.292505 1.499220 0.758981 -0.005485 -0.000169 580406.000000 0 0 1
0.695008 18.872215 18.112999 26.167237 1.533986 0.806261 -0.014980 0.000971 832016.000000 0 0 1
-0.583492 18.395615 17.621799 25.480717 -1.539088 0.807131 -0.007273 -0.002707 651218.000000 0 0 1
-1.405392 19.492815 16.888799 25.829760 -1.498823 0.858134 -0.014230 0.000721 -478675.000000 0 0 1
-1.825292 20.603015 17.590199 27.151998 -1.482434 0.866048 -0.014317 0.007564 -215722.000000 0 0 1
-2.546992 21.368215 16.639399 27.202158 -1.452161 0.912596 -0.001948 0.000998 -587919.000000 0 0 1
-3.324192 22.527315 17.230899 28.555806 -1.424291 0.923024 -0.003231 0.014293 -250636.000000 0 0 1
-4.300592 22.120015 18.182699 28.955150 -1.378771 0.891866 -0.001327 0.013146 13850.000000 0 0 1
-4.787492 23.193715 18.929999 30.318532 -1.367242 0.896471 -0.004754 0.025032 -336318.000000 0 0 1
-5.860592 22.783515 19.942799 30.840725 -1.319025 0.867627 -0.024446 0.026103 -994310.000000 0 0 1
-7.013292 22.420515 19.280999 30.391161 -1.267632 0.883528 -0.020350 0.021884 -1159050.000000 0 0 1
-7.944792 21.841715 20.181599 30.781117 -1.221930 0.855755 -0.039091 0.018815 160247.000000 0 0 1
-9.361792 22.375915 19.861799 31.349893 -1.174540 0.884660 -0.026741 0.015890 -174513.000000 0 0 1
-9.539692 23.765115 20.117499 32.565322 -1.189070 0.904907 -0.027750 0.018906 -95527.200000 0 0 1
-10.540492 24.204615 19.233599 32.663384 -1.160087 0.941170 -0.019348 0.015492 -126130.000000 0 0 1
-10.946492 25.668415 19.433799 34.005378 -1.167692 0.962474 -0.012748 0.013732 72376.000000 0 0 1
-11.575392 25.882615 20.694899 35.102397 -1.150251 0.940285 -0.017867 0.010886 223854.000000 0 0 1
-12.284492 27.100215 20.649599 36.217901 -1.145203 0.964109 -0.018309 0.010432 -902867.000000 0 0 1
-13.171992 27.511115 21.776899 37.477942 -1.124262 0.950767 -0.005523 -0.002430 -551250.000000 0 0 1
-14.409592 26.813515 21.805899 37.444601 -1.077678 0.949179 0.000476 -0.003764 166530.000000 0 0 1
-15.105392 27.009215 23.032699 38.576881 -1.060865 0.930966 -0.003082 -0.001800 423052.000000 0 0 1
-16.606892 26.643415 22.895299 38.856854 -1.013419 0.940701 0.016472 0.001354 227212.000000 0 0 1
-16.860392 25.250615 23.071799 38.133637 -0.982063 0.920999 0.022140 0.000322 111301.000000 0 0 1
-18.228092 25.026215 23.414399 38.817636 -0.941289 0.923302 0.027208 0.000557 476213.000000 0 0 1
26.538508 25.033415 23.892782 43.609968 0.756222 0.990975 0.038415 -0.023704 68662.400000 0 0 1
26.657608 24.168915 25.010942 43.821362 0.736473 0.963380 0.043611 -0.028203 -37489.100000 0 0 1
26.210208 22.918315 24.538882 42.595551 0.718492 0.956859 0.041260 -0.018157 -470129.000000 0 0 1
26.006208 21.874815 25.668092 42.587338 0.699327 0.923895 0.060573 -0.015709 -304620.000000 0 0 1
24.852408 22.168615 26.411802 42.504976 0.728384 0.900292 0.058039 -0.018719 -348376.000000 0 0 1
24.767608 21.476115 27.589202 42.846494 0.714341 0.871201 0.065884 -0.016578 1394930.000000 0 0 1
23.273908 21.507615 28.151362 42.388106 0.745976 0.844462 0.053057 -0.018646 1361960.000000 0 0 1
23.008008 22.781515 28.713612 43.276292 0.780452 0.845316 0.053011 -0.031425 -313224.000000 0 0 1
21.822108 22.719315 29.454862 43.127261 0.805539 0.818968 0.064408 -0.025915 -340327.000000 0 0 1
21.349008 23.973915 30.203872 44.077235 0.843249 0.815851 0.063125 -0.033258 -489264.000000 0 0 1
21.076208 24.950115 29.227412 43.828717 0.869367 0.840816 0.071776 -0.031853 -88575.300000 0 0 1
20.900908 26.255515 29.785932 44.870946 0.898464 0.844890 0.060998 -0.028456 -148591.000000 0 0 1
19.497908 26.385315 30.411762 44.735093 0.934393 0.823281 0.077501 -0.027503 -825458.000000 0 0 1
18.464408 26.714815 29.469872 43.853040 0.966023 0.833871 0.070272 -0.035445 1514410.000000 0 0 1
17.262108 27.210215 30.138832 44.121711 1.005467 0.818819 0.050963 -0.028915 1699020.000000 0 0 1
16.329508 26.122315 30.815382 43.573111 1.012113 0.785251 0.041289 -0.016153 -166102.000000 0 0 1
16.805508 25.663815 32.037572 44.356088 0.991031 0.763701 0.033225 -0.019846 642781.000000 0 0 1
15.727208 24.984215 32.735622 44.081482 1.008978 0.733828 0.023294 -0.012788 871373.000000 0 0 1
16.071308 24.564915 34.190354 45.063315 0.991447 0.709453 0.030029 -0.013075 -233575.000000 0 0 1
16.201508 25.665115 -34.111775 45.659612 1.007704 2.414468 0.025654 -0.019482 212243.000000 0 0 1
16.737708 25.292415 -32.822041 44.689412 0.986193 2.395649 0.000913 -0.002094 85989.400000 0 0 1
17.116008 26.452815 -31.872191 44.816802 0.996505 2.361952 -0.003448 0.012045 681843.000000 0 0 1
16.016908 27.077915 -31.144871 44.269152 1.036641 2.351155 0.005486 -0.009586 1141130.000000 0 0 1
16.531108 28.244715 -30.550041 44.769928 1.041270 2.321808 0.019389 -0.011179 63844.300000 0 0 1
15.820108 28.560015 -29.195541 43.798743 1.064945 2.300413 0.029985 -0.011694 -326986.000000 0 0 1
16.190608 27.633415 -28.208851 42.678809 1.040804 2.292889 0.009352 0.002758 184608.000000 0 0 1
15.916008 28.095315 -26.864111 42.004125 1.055373 2.264721 0.003803 0.010882 -489779.000000 0 0 1
16.586208 27.195515 -25.783161 40.981334 1.023138 2.251248 -0.005607 0.005340 -752699.000000 0 0 1
17.966708 27.356915 -25.863191 41.714603 0.989689 2.239543 0.005879 0.007619 -1404640.000000 0 0 1
18.577308 26.693015 -24.813601 40.906579 0.962786 2.222563 -0.000161 0.012092 -1323820.000000 0 0 1
20.065308 26.816915 -25.013201 41.802198 0.928427 2.212262 -0.004497 0.016729 -1227250.000000 0 0 1
20.683208 26.346215 -23.835501 41.110209 0.905235 2.189274 -0.002201 0.018300 -154253.000000 0 0 1
22.087008 26.509015 -24.011301 42.036965 0.876143 2.178757 -0.000207 0.022755 606594.000000 0 0 1
22.882708 26.575715 -22.673101 41.760705 0.859929 2.144717 0.012958 0.014506 134736.000000 0 0 1
22.622208 25.427515 -21.921101 40.482805 0.843715 2.143007 0.017228 0.005557 81290.900000 0 0 1
22.819408 25.595815 -20.560301 39.982460 0.842681 2.110909 0.002951 0.008272 -444179.000000 0 0 1
22.383608 24.334215 -19.801201 38.539169 0.827127 2.110398 0.003908 0.009226 -579080.000000 0 0 1
23.072508 23.086815 -20.030801 38.295883 0.785708 2.121226 0.009253 0.009879 136328.000000 0 0 1
22.929008 22.131815 -18.991101 37.097420 0.767709 2.108221 0.016620 0.008855 -1048540.000000 0 0 1
23.053808 20.638915 -19.365401 36.502899 0.730184 2.130006 0.023358 -0.002591 263359.000000 0 0 1
22.192708 20.048415 -20.354401 36.176745 0.734679 2.168369 0.009929 -0.010499 678462.000000 0 0 1
20.815308 20.031615 -20.000801 35.136515 0.766214 2.176367 -0.002796 -0.003294 588892.000000 0 0 1
19.778808 19.811015 -21.175401 35.100929 0.786212 2.218394 0.004575 0.002777 504277.000000 0 0 1
19.834808 20.664515 -22.336001 36.322703 0.805882 2.233096 0.004443 -0.001109 7553.430000 0 0 1
19.894108 22.065015 -22.123701 37.041849 0.837091 2.210880 -0.001248 0.006654 -163173.000000 0 0 1
19.421308 22.880515 -23.328001 38.011851 0.866991 2.231539 0.004086 0.007042 -217965.000000 0 0 1
18.047908 22.797415 -23.576001 37.433634 0.901159 2.252102 0.002352 0.002441 -647365.000000 0 0 1
17.681708 23.236515 -24.892601 38.369520 0.920327 2.276750 -0.001907 0.003948 1679780.000000 0 0 1
16.089908 23.188515 -25.007701 37.709117 0.964194 2.295848 -0.007249 0.004106 1581610.000000 0 0 1
15.414608 24.219415 -24.316001 37.622575 1.004001 2.273540 -0.013499 0.005066 21251.400000 0 0 1
14.009708 24.157715 -24.384201 37.073662 1.045267 2.288588 -0.014307 0.003416 73597.300000 0 0 1
13.269208 25.425315 -23.878201 37.318722 1.089791 2.265093 -0.015983 0.008769 -29790.800000 0 0 1
13.637108 26.604415 -24.610001 38.722316 1.097129 2.259518 -0.019530 0.008819 -1827.080000 0 0 1
12.814708 27.703615 -24.253401 38.986337 1.137543 2.242218 -0.008878 0.018665 30661.300000 0 0 1
13.020508 29.024115 -25.050601 40.490314 1.149099 2.237859 -0.002315 0.012702 -132627.000000 0 0 1
12.593008 28.975015 -26.429461 41.190433 1.160809 2.267432 0.011734 -0.002464 -145744.000000 0 0 1
12.074308 30.200515 -26.930531 42.226929 1.190458 2.262379 0.043306 -0.008949 -210008.000000 0 0 1
12.837908 31.566915 -26.884961 43.406027 1.184537 2.238753 0.050971 -0.009591 1948110.000000 0 0 1
14.181208 31.463515 -27.513311 44.136626 1.147345 2.243838 0.033479 0.002361 1570670.000000 0 0 1
14.741808 32.756615 -27.592611 45.295352 1.147909 2.225811 0.032489 -0.001141 535063.000000 0 0 1
16.198908 32.591215 -28.155231 46.014226 1.109525 2.229233 0.027782 0.018788 594278.000000 0 0 1
17.031908 31.880415 -27.267701 45.276642 1.080131 2.217109 0.004332 0.020017 177144.000000 0 0 1
18.302508 31.554815 -27.819011 45.875762 1.045196 2.222320 -0.007017 0.020130 734479.000000 0 0 1
19.310308 30.814315 -26.839291 45.196876 1.010999 2.206608 -0.011153 0.029848 253750.000000 0 0 1
19.719008 31.523515 -25.641471 45.166983 1.011814 2.174510 -0.005521 0.024126 292856.000000 0 0 1
20.542808 32.683515 -25.757781 46.407784 1.009657 2.159197 -0.005061 0.022128 698930.000000 0 0 1
22.040508 32.520315 -26.181501 47.210443 0.975163 2.158643 -0.012373 0.026396 400417.000000 0 0 1
22.084808 31.944415 -27.479501 47.574230 0.965899 2.186598 -0.017439 0.031510 31885.500000 0 0 1
23.136808 32.544815 -28.224021 48.898592 0.952778 2.186086 -0.025797 0.036378 -556214.000000 0 0 1
23.230408 32.004515 -29.712731 49.465010 0.942933 2.215150 -0.021606 0.035627 -126224.000000 0 0 1
22.213608 32.380415 -30.635761 49.804473 0.969515 2.233335 -0.017888 0.020935 532863.000000 0 0 1
21.098908 31.464815 -30.486621 48.627488 0.980106 2.248418 -0.020666 0.025343 401804.000000 0 0 1
19.846808 31.938015 -31.285401 48.915324 1.014778 2.264752 -0.021301 0.021799 -694846.000000 0 0 1
19.413008 33.254515 -30.858121 49.345226 1.042396 2.246378 -0.010872 0.017574 163794.000000 0 0 1
18.473708 33.817615 -31.753581 49.931943 1.070818 2.260019 -0.012847 0.009783 102351.000000 0 0 1
17.015508 33.311315 -31.692781 49.026560 1.098544 2.273707 0.009512 0.005513 -632064.000000 0 0 1
16.646908 31.996815 -32.177251 48.335197 1.091066 2.299242 0.018473 -0.005075 99637.800000 0 0 1
17.026408 31.615615 -33.513511 49.118236 1.076791 2.321704 0.014949 -0.009160 -534096.000000 0 0 1
16.548408 32.528315 34.448119 50.185795 1.100182 0.814253 0.034283 -0.009672 -290369.000000 0 0 1
16.956408 33.916715 34.425192 51.214814 1.107195 0.833657 0.018208 0.000190 -2421.110000 0 0 1
16.593408 34.607015 33.240118 50.772947 1.123698 0.857035 0.024937 -0.008548 -925193.000000 0 0 1
15.158308 -34.235855 33.049702 49.941474 -1.153978 0.847621 0.042498 -0.011831 -1260840.000000 0 0 1
14.229908 34.023115 32.744392 49.317927 1.174663 0.844714 0.048868 -0.012018 64543.300000 0 0 1
12.875508 34.429515 32.716952 49.209442 1.212931 0.843502 0.036856 -0.007863 315773.000000 0 0 1
12.431408 -34.192155 31.365912 48.036068 -1.222080 0.859303 0.023533 0.000987 -789676.000000 0 0 1
13.041208 -32.929855 31.087972 47.126537 -1.193717 0.850416 0.042157 -0.001812 210281.000000 0 0 1
12.469908 -32.338955 29.948402 45.806259 -1.202765 0.858193 0.034406 -0.008398 -131147.000000 0 0 1
12.964708 -30.888555 29.691082 44.763231 -1.173402 0.845587 0.019839 -0.009469 -46261.100000 0 0 1
12.687008 -30.031255 30.761192 44.822844 -1.171079 0.814429 -0.000785 0.007770 268564.000000 0 0 1
13.082608 -28.676055 30.477682 43.844724 -1.142781 0.802199 0.012548 -0.000217 -327201.000000 0 0 1
12.689808 -27.734855 31.663112 43.963690 -1.141690 0.766691 0.006917 -0.000619 -174433.000000 0 0 1
11.320208 -27.438355 31.718462 43.440434 -1.179502 0.752240 -0.009984 0.003873 -218733.000000 0 0 1
10.792908 -26.423355 30.828122 42.012542 -1.183017 0.746922 -0.020281 0.003940 78667.700000 0 0 1
11.171708 -24.921955 31.181032 41.450786 -1.149384 0.719338 -0.022826 0.006367 44811.200000 0 0 1
10.387108 -24.522955 32.277112 41.845899 -1.170140 0.689864 -0.005091 0.004069 124178.000000 0 0 1
10.705808 -23.184255 32.551152 41.372715 -1.138197 0.665224 -0.011520 0.005930 -5018.980000 0 0 1
9.918308 -22.682755 33.771842 41.873829 -1.158586 0.632564 -0.006447 0.010966 -391254.000000 0 0 1
10.016808 -23.409955 -34.163799 42.609008 -1.166483 2.501093 0.000361 0.012115 616232.000000 0 0 1
11.317408 -23.668055 -33.617031 42.642295 -1.124763 2.478918 0.008212 0.009020 1080920.000000 0 0 1
12.099208 -22.476055 -32.923831 41.659843 -1.076968 2.482097 0.015036 0.005489 204722.000000 0 0 1
12.534008 -21.437355 -33.758471 41.908184 -1.041717 2.507373 -0.000202 0.014467 -21441.100000 0 0 1
13.560608 -20.766555 -33.057701 41.327370 -0.992313 2.497922 -0.000701 0.014617 -96488.100000 0 0 1
13.773008 -19.386455 -33.591601 41.157333 -0.953095 2.525557 -0.020768 0.009418 -550240.000000 0 0 1
14.449108 -19.403655 34.319932 41.989717 -0.930722 0.614015 -0.016425 0.015498 -21229.500000 0 0 1
13.983508 -18.504755 33.330089 40.606149 -0.923676 0.607962 -0.033609 0.013113 -573189.000000 0 0 1
14.759808 -17.191655 33.199768 40.194895 -0.861362 0.598876 -0.019312 0.010326 -936424.000000 0 0 1
14.478608 -16.226455 34.159366 40.494323 -0.842261 0.566919 -0.023800 0.017263 456134.000000 0 0 1
15.248608 -15.033055 33.900176 40.096568 -0.778280 0.563364 0.003927 -0.001945 565592.000000 0 0 1
16.732808 -15.056755 34.367679 41.083210 -0.732724 0.579862 0.018651 -0.002475 220154.000000 0 0 1
17.541908 -15.861955 33.515863 41.019913 -0.735148 0.614498 0.010730 0.000649 -414591.000000 0 0 1
18.898608 -15.549955 33.692372 41.642940 -0.688495 0.628215 0.024012 -0.001617 -342970.000000 0 0 1
19.825308 -16.286655 32.696302 41.561354 -0.687719 0.665352 0.021191 -0.005815 -399524.000000 0 0 1
19.878108 -15.624755 31.426512 40.334821 -0.666163 0.677502 0.009683 0.005044 707824.000000 0 0 1
20.682508 -16.324055 30.460992 40.275464 -0.668163 0.713132 0.002471 0.002660 -4736.140000 0 0 1
20.906908 -15.553455 29.183722 39.124141 -0.639610 0.728872 0.005249 0.004152 -63187.100000 0 0 1
21.928608 -14.587055 29.331262 39.420413 -0.586991 0.731665 0.000657 -0.000938 203826.000000 0 0 1
21.964808 -13.735655 28.172162 38.272598 -0.558850 0.743517 0.003773 0.000644 185022.000000 0 0 1
22.662008 -12.352355 28.330942 38.324791 -0.499049 0.738866 0.011472 -0.000946 104577.000000 0 0 1
21.871108 -11.469855 29.077792 38.149980 -0.483000 0.704096 0.010977 -0.004445 -201765.000000 0 0 1
22.430808 -10.206955 29.130352 38.156264 -0.427039 0.702160 0.014863 -0.013908 -544434.000000 0 0 1
21.479208 -9.031055 29.215682 37.369405 -0.398015 0.673237 0.026670 -0.013882 -166892.000000 0 0 1
20.562108 -9.042155 30.288062 37.708455 -0.414296 0.638121 0.033265 -0.016727 306379.000000 0 0 1
19.552808 -8.019355 30.088992 36.769142 -0.389216 0.612311 0.045704 -0.018688 690918.000000 0 0 1
18.410408 -8.072855 31.160322 37.082069 -0.413244 0.572947 0.028208 -0.007232 -5230.590000 0 0 1
18.599108 -7.689555 32.558242 38.276562 -0.392036 0.553661 0.033525 -0.008983 -110915.000000 0 0 1
19.127608 -8.732255 33.332309 39.410158 -0.428268 0.562772 0.038806 -0.013340 -441229.000000 0 0 1
19.337808 -8.362555 -34.332878 40.281878 -0.408160 2.591193 0.042131 -0.025259 -540583.000000 0 0 1
18.090308 -8.187255 -33.739861 39.149312 -0.424995 2.609653 0.026955 -0.022698 -281774.000000 0 0 1
18.192008 -7.329055 -32.616001 38.058741 -0.382980 2.600199 0.021048 -0.022394 354341.000000 0 0 1
16.834308 -7.193855 -31.872451 36.755933 -0.403845 2.620223 0.019730 -0.021195 328382.000000 0 0 1
16.974008 -6.273855 -30.762131 35.690152 -0.354042 2.609845 0.010203 -0.011376 -583464.000000 0 0 1
15.785108 -6.006255 -30.115031 34.527668 -0.363585 2.630478 0.014328 -0.007929 -724399.000000 0 0 1
15.908208 -4.680955 -29.264561 33.636245 -0.286171 2.626061 -0.000538 -0.001526 268581.000000 0 0 1
16.863308 -4.618655 -28.188381 33.170589 -0.267332 2.586403 0.002434 0.007192 256130.000000 0 0 1
16.786208 -5.440355 -27.047631 32.294715 -0.313415 2.563534 0.008217 0.000051 -827280.000000 0 0 1
15.512508 -5.353555 -26.207551 30.921420 -0.332314 2.582154 0.018155 -0.005204 -132922.000000 0 0 1
15.367908 -4.187355 -25.358201 29.945699 -0.266016 2.580748 -0.019539 0.008705 -423765.000000 0 0 1
14.068208 -4.234355 -24.834101 28.854407 -0.292362 2.607379 0.017086 -0.005714 -85060.200000 0 0 1
13.791008 -3.038355 -23.916801 27.774753 -0.216850 2.608223 0.012960 0.002095 -34603.000000 0 0 1
13.614208 -1.797355 -24.593901 28.168016 -0.131261 2.632351 -0.009206 0.000158 75168.700000 0 0 1
13.022108 -0.802355 -23.819301 27.158391 -0.061537 2.640486 -0.009708 0.001412 -231904.000000 0 0 1
13.377008 0.581645 -24.301101 27.745742 0.043454 2.637990 -0.010007 -0.000677 -452094.000000 0 0 1
12.710608 1.023645 -25.445641 28.462046 0.080361 2.677036 -0.013286 -0.002995 153365.000000 0 0 1
13.311508 2.258645 -25.817511 29.134887 0.168075 2.659739 -0.008296 0.003944 -246299.000000 0 0 1
12.785208 2.795645 -27.114651 30.107831 0.215274 2.691909 -0.005969 -0.003204 -349039.000000 0 0 1
11.599808 3.531645 -26.962731 29.563778 0.295541 2.718977 -0.000373 -0.009030 23276.500000 0 0 1
11.020708 3.983645 -28.197321 30.535461 0.346856 2.747717 0.002680 -0.007794 621014.000000 0 0 1
9.627408 4.673645 -28.012471 29.987139 0.451942 2.776665 0.007438 -0.006891 442184.000000 0 0 1
9.678908 5.857645 -27.277751 29.530814 0.544232 2.748437 0.007566 -0.014610 -304374.000000 0 0 1
8.457908 6.542645 -27.246631 29.269802 0.658406 2.767607 0.012577 -0.016693 -255612.000000 0 0 1
8.264508 5.660015 -32.172431 33.695744 0.600491 2.839756 0.013534 -0.021790 -284998.000000 0 0 1
8.292508 4.721115 -31.135171 32.564605 0.517557 2.844203 -0.001270 -0.007635 119667.000000 0 0 1
7.799608 3.522815 -31.618671 32.756442 0.424238 2.877255 0.000702 -0.004468 -326302.000000 0 0 1
7.374008 2.502815 -30.528691 31.506207 0.327210 2.891841 0.004521 -0.011404 -1237170.000000 0 0 1
8.446308 1.942815 -29.904971 31.135542 0.226087 2.859507 0.013906 -0.016822 -641012.000000 0 0 1
8.083908 0.959515 -28.943681 30.066708 0.118142 2.867417 0.018097 -0.016961 -379599.000000 0 0 1
9.249908 0.523515 -28.051761 29.542109 0.056536 2.822600 0.018030 -0.014881 -305624.000000 0 0 1
10.225908 -0.258185 -28.697601 30.466181 -0.025243 2.799186 0.027888 -0.013493 23354.700000 0 0 1
11.099808 -0.753085 -27.698341 29.849137 -0.067743 2.759656 0.017989 -0.013315 -9535.580000 0 0 1
11.947808 -1.969785 -28.137071 30.632090 -0.163396 2.735190 0.010924 -0.010235 -199637.000000 0 0 1
11.213808 -3.163085 -28.059121 30.382049 -0.274928 2.748014 0.022343 -0.012712 -312022.000000 0 0 1
11.829008 -4.302385 -28.528581 31.181980 -0.348840 2.726071 0.028432 -0.016115 -334883.000000 0 0 1
11.087408 -5.565285 -27.993501 30.619261 -0.465204 2.724436 0.021615 -0.015380 303132.000000 0 0 1
11.301208 -5.652385 -26.578941 29.429694 -0.463774 2.697809 0.028399 -0.014043 130121.000000 0 0 1
10.319708 -6.463785 -25.990421 28.701548 -0.559572 2.703449 0.030431 -0.023491 -124413.000000 0 0 1
10.163608 -6.375685 -24.475001 27.257549 -0.560255 2.685809 0.027211 -0.017997 -456676.000000 0 0 1
11.262308 -6.852185 -23.744601 27.158758 -0.546586 2.634765 0.020865 -0.008833 -382034.000000 0 0 1
11.080208 -6.800585 -22.355601 25.861011 -0.550476 2.614855 0.020010 -0.011933 -71286.900000 0 0 1
12.327008 -6.858885 -21.436501 25.661703 -0.507752 2.559565 0.026312 -0.005282 17704.500000 0 0 1
13.016808 -5.649285 -21.329401 25.618257 -0.409468 2.554556 0.008731 0.002240 496012.000000 0 0 1
14.080308 -5.816185 -20.331501 25.405768 -0.391725 2.498543 0.014473 -0.002982 974411.000000 0 0 1
14.561508 -4.464085 -19.799101 24.979391 -0.297471 2.485886 0.011613 -0.001077 -145195.000000 0 1 0
15.229308 -3.590585 -20.690001 25.940321 -0.231540 2.494102 0.007453 -0.002028 82007.600000 0 0 1
15.562608 -2.375285 -20.108801 25.538219 -0.151459 2.477377 0.001263 0.002129 -258900.000000 0 0 1
16.548908 -1.474885 -20.887501 26.689499 -0.088888 2.469646 -0.004762 -0.001100 -746085.000000 0 0 1
17.822108 -2.000085 -20.907201 27.545216 -0.111757 2.432593 -0.001771 -0.005679 -775165.000000 0 0 1
18.655208 -1.218485 -21.780401 28.703438 -0.065223 2.432277 0.001512 -0.002753 410868.000000 0 0 1
19.994608 -1.929785 -22.140301 29.894838 -0.096217 2.404768 0.003112 -0.003060 160610.000000 0 0 1
20.958408 -2.004585 -21.066501 29.783732 -0.095356 2.356490 0.008757 -0.001905 356656.000000 0 0 1
22.076608 -2.806185 -21.286701 30.795697 -0.126433 2.333977 0.006748 0.000062 301285.000000 0 0 1
23.173608 -2.218185 -22.255701 32.206408 -0.095430 2.333714 0.009307 -0.003305 -949660.000000 0 0 1
22.830708 -2.136985 -23.609301 32.912111 -0.093329 2.370779 0.011312 -0.001003 16157.300000 0 0 1
23.661908 -1.298885 -24.380601 33.999805 -0.054838 2.370401 0.012735 0.004402 258018.000000 0 0 1
25.092008 -1.763585 -24.747501 35.286795 -0.070169 2.348050 0.020560 -0.008854 -604945.000000 0 0 1
26.067408 -1.779885 -23.715001 35.285678 -0.068174 2.307818 0.022726 -0.003844 787711.000000 0 0 1
27.224908 -2.578385 -24.040501 36.411391 -0.094425 2.291944 0.015288 -0.001937 1118850.000000 0 0 1
28.239808 -1.943885 -25.077711 37.817417 -0.068727 2.295784 0.016601 -0.007724 -847894.000000 0 0 1
27.717208 -1.795785 -26.376301 38.303756 -0.064699 2.330365 0.031403 -0.012750 -340996.000000 0 0 1
28.361708 -0.862785 -27.155671 39.275455 -0.030411 2.334243 0.033016 -0.017064 -1253650.000000 0 0 1
27.779208 -0.604585 -28.558691 39.845311 -0.021760 2.369911 0.046180 -0.022322 381833.000000 0 0 1
26.402608 -0.234785 -28.577491 38.907915 -0.008892 2.395712 0.034472 -0.013588 408731.000000 0 0 1
26.102008 1.061515 -28.070571 38.345777 0.040646 2.392105 0.020412 -0.007395 -1759680.000000 0 0 1
24.683608 1.511415 -28.237731 37.535774 0.061155 2.422325 0.013428 -0.004812 -806587.000000 0 0 1
23.814808 1.076615 -27.187081 36.158562 0.045177 2.421713 0.026463 -0.003308 318501.000000 0 0 1
22.457308 1.224415 -27.539271 35.556172 0.054468 2.456766 0.010359 -0.001286 2013.570000 0 0 1
21.421408 1.021615 -26.424981 34.032338 0.047655 2.459836 0.015761 0.005219 -61067.000000 0 0 1
21.491408 1.954015 -25.357401 33.297096 0.090671 2.436498 0.020726 0.004783 41099.800000 0 0 1
20.588408 1.568815 -24.354601 31.929459 0.076052 2.438371 0.015781 0.004051 -89008.100000 0 0 1
20.824708 2.252715 -22.957801 31.077385 0.107756 2.401981 0.016776 0.001471 -145979.000000 0 0 1
20.575408 3.590415 -22.878001 30.978080 0.172761 2.401672 0.018172 0.000741 291905.000000 0 0 1
20.889508 3.919515 -21.539701 30.260418 0.185474 2.362870 0.013216 -0.000544 -401988.000000 0 0 1
20.500808 5.325415 -21.149401 29.932263 0.254149 2.355443 0.012123 0.007838 -206373.000000 0 0 1
21.293908 6.375315 -21.707601 31.069199 0.290903 2.344355 -0.000486 0.015067 239122.000000 0 0 1
21.002708 7.761615 -21.301401 30.904791 0.353987 2.331262 -0.005618 0.005454 -652643.000000 0 0 1
21.479208 8.063015 -19.856001 30.341875 0.359110 2.284197 -0.014271 0.008851 -865610.000000 0 0 1
22.858508 8.308615 -19.794901 31.358932 0.348633 2.253943 -0.023346 0.009733 -122773.000000 0 0 1
23.327208 8.641215 -18.507801 31.005934 0.354763 2.210442 -0.013980 0.003696 -193172.000000 0 0 1
23.071308 10.119615 -18.069501 31.003206 0.413353 2.193000 -0.008232 -0.006192 -335697.000000 0 0 1
21.727908 10.316515 -17.691201 29.858183 0.443289 2.204964 -0.000723 -0.008269 -89618.900000 0 0 1
21.569808 11.641415 -17.385901 30.050769 0.494908 2.187747 0.006176 -0.003178 70658.000000 0 0 1
20.065708 12.031915 -17.207101 29.042795 0.540144 2.204923 0.002672 -0.003066 1175710.000000 0 0 1
19.209208 11.960015 -18.386401 29.156395 0.556885 2.253139 0.004866 0.002434 790153.000000 0 0 1
18.800808 10.624515 -18.691901 28.561125 0.514370 2.284255 0.008186 0.003933 -703794.000000 0 0 1
17.900008 10.433815 -19.920301 28.741837 0.527747 2.336545 0.020830 -0.006011 -171929.000000 0 0 1
18.583508 10.795815 -21.069501 30.096848 0.526283 2.346273 0.030643 -0.013104 59367.100000 0 0 1
17.987908 10.188815 -22.173701 30.315835 0.515367 2.391203 0.024668 -0.014953 8997.000000 0 0 1
18.869408 10.424415 -23.436801 31.843471 0.504723 2.397939 0.045354 -0.015405 23399.000000 0 0 1
18.743708 11.704415 -23.954301 32.590313 0.558200 2.396482 0.031651 -0.011776 453059.000000 0 0 1
19.575008 11.947615 -25.094961 33.995346 0.547995 2.401177 0.037017 -0.019359 132659.000000 0 0 1
19.697008 13.491015 -25.290971 34.779489 0.600538 2.385002 0.047407 -0.033359 -77446.300000 0 0 1
20.371408 13.962815 -26.459261 36.194571 0.600868 2.390624 0.051422 -0.040322 209024.000000 0 0 1
20.247508 15.419915 -26.612581 36.823428 0.650866 2.378509 0.054277 -0.034313 -698045.000000 0 0 1
18.941208 15.919615 -27.169231 36.747390 0.698938 2.402903 0.046867 -0.030267 -343309.000000 0 0 1
17.760508 15.488915 -26.494081 35.458123 0.717184 2.414626 0.040847 -0.033495 240997.000000 0 0 1
16.629408 15.869515 -27.275061 35.669422 0.762020 2.441313 0.030832 -0.028879 -72556.000000 0 0 1
15.280108 15.414315 -26.732011 34.433752 0.789770 2.459621 0.021930 -0.029096 -448070.000000 0 0 1
15.070808 14.004515 -26.872201 33.843329 0.748741 2.488186 0.032228 -0.025387 -382226.000000 0 0 1
13.746608 13.704315 -26.547141 32.886596 0.783857 2.510245 0.012215 -0.022649 -580895.000000 0 0 1
13.557608 12.217615 -26.247901 31.969222 0.733457 2.534021 0.009990 -0.021907 147989.000000 0 0 1
12.229108 11.814915 -25.954121 31.028370 0.768173 2.561596 0.021307 -0.018186 115232.000000 0 0 1
12.286708 10.461915 -25.677901 30.327701 0.705354 2.580514 0.028855 -0.017331 180265.000000 0 0 1
10.920908 9.826315 -25.335441 29.286640 0.732688 2.616117 0.015648 -0.017438 83790.600000 0 0 1
10.212008 10.277015 -24.223501 28.225523 0.788571 2.602574 0.025080 -0.018065 -436584.000000 0 0 1
9.058808 9.536215 -23.948701 27.322915 0.811066 2.639352 0.012106 -0.017637 -284502.000000 0 0 1
8.211708 10.229715 -22.850901 26.348490 0.894392 2.620462 0.005158 -0.015358 -130128.000000 0 0 1
7.697108 11.452415 -23.358501 27.129741 0.979045 2.608014 0.004086 -0.017148 12073.400000 0 0 1
7.207708 12.379415 -22.364201 26.558586 1.043543 2.571907 0.013199 -0.008383 406336.000000 0 0 1
8.328808 13.132515 -21.598001 26.614012 1.005600 2.517558 0.011834 -0.015439 196840.000000 0 0 1
9.070108 12.347015 -20.685801 25.741368 0.937225 2.504118 0.023030 -0.022352 -726335.000000 0 0 1
10.057908 13.069015 -20.062001 25.970071 0.914869 2.453572 0.022413 -0.016338 -1065690.000000 0 0 1
11.061308 12.266715 -19.207601 25.332919 0.837024 2.431355 0.020639 -0.022192 -175155.000000 0 0 1
12.094608 11.595515 -19.895501 26.010892 0.764334 2.441669 0.026298 -0.026549 106471.000000 0 0 1
11.650908 10.598115 -20.873801 26.149174 0.738115 2.495195 0.036938 -0.030329 -864673.000000 0 0 1
12.737908 9.953715 -21.742801 27.093914 0.663311 2.502266 0.042738 -0.027281 -194911.000000 0 0 1
13.518208 9.036115 -21.002401 26.561141 0.589229 2.482779 0.044656 -0.025852 -137670.000000 0 0 1
14.242208 8.254415 -21.880901 27.381558 0.525265 2.496611 0.040816 -0.026461 -361121.000000 0 0 1
14.920408 7.031015 -21.215701 26.873030 0.440372 2.480757 0.051694 -0.020481 349995.000000 0 0 1
16.009108 7.234415 -20.329701 26.868663 0.424428 2.428943 0.038865 -0.018858 354824.000000 0 0 1
16.300108 6.011115 -19.644001 26.224298 0.353304 2.417463 0.023329 -0.019463 105603.000000 0 0 1
17.089008 6.203715 -18.324901 25.813219 0.348230 2.360158 0.027588 -0.018093 483000.000000 0 0 1
18.424608 6.710415 -18.506201 26.962480 0.349277 2.327280 0.025387 -0.017761 1124520.000000 0 0 1
19.112708 7.171715 -17.339501 26.784089 0.358975 2.274939 0.010635 -0.009414 -39638.300000 0 0 1
19.691208 6.084015 -16.470701 26.382625 0.299667 2.245033 -0.006995 -0.010819 -309036.000000 0 0 1
20.869508 5.519215 -17.036701 27.499951 0.258544 2.238924 -0.006967 -0.012115 861839.000000 0 0 1
21.492308 4.469215 -16.285901 27.333565 0.205023 2.209083 0.006298 -0.017111 -440930.000000 0 0 1
22.639708 3.718815 -16.932801 28.515009 0.162807 2.206595 -0.005087 0.001309 -628662.000000 0 0 1
23.194108 2.731715 -16.109301 28.371438 0.117236 2.174627 -0.011252 -0.002751 859862.000000 0 0 1
24.421208 2.345615 -16.771501 29.718354 0.095755 2.170440 -0.005467 -0.002396 778464.000000 0 0 1
25.288008 1.208215 -16.163101 30.036461 0.047742 2.138997 0.004510 -0.013321 -127387.000000 0 0 1
24.814408 -0.101485 -16.122601 29.592287 -0.004090 2.146976 0.013090 -0.014628 286096.000000 0 0 1
25.919308 -1.026985 -16.080101 30.519418 -0.039602 2.125723 0.017269 -0.006545 398165.000000 0 0 1
25.507008 -2.514885 -16.115701 30.276194 -0.098278 2.132099 0.012546 -0.007953 -348337.000000 0 0 1
24.989408 -3.084085 -14.949701 29.282686 -0.122795 2.106598 0.013555 -0.008328 430331.000000 0 0 1
24.737508 -4.491485 -15.087101 29.321296 -0.179609 2.111272 0.006601 -0.002773 -982072.000000 0 0 1
24.087108 -5.178785 -13.817201 28.247542 -0.211778 2.081908 0.005471 -0.002715 517922.000000 0 0 1
22.703708 -4.940985 -13.600201 26.922800 -0.214288 2.100358 0.011207 -0.001176 506509.000000 0 0 1
21.899608 -5.615385 -14.576001 26.899539 -0.251007 2.143455 0.022017 -0.001695 -96024.600000 0 0 1
20.390608 -5.723185 -14.163601 25.478213 -0.273637 2.160254 0.029290 -0.005985 267710.000000 0 0 1
20.074808 -6.723585 -13.199301 24.948468 -0.323184 2.128292 0.028160 -0.004735 431867.000000 0 1 0
20.344508 -6.372285 -11.820201 24.376673 -0.303540 2.077043 0.033300 -0.004984 -594972.000000 0 1 0
20.104308 -7.626285 -10.892201 24.103599 -0.362567 2.039680 0.033182 -0.005096 -563103.000000 0 1 0
18.793708 -8.128985 -10.892301 23.193234 -0.408238 2.059671 0.032740 -0.007603 359819.000000 0 1 0
18.557908 -9.055685 -11.951601 23.858796 -0.453977 2.095470 0.038417 -0.006392 -1261470.000000 0 1 0
17.146708 -9.598185 -11.917701 22.981870 -0.510312 2.115974 0.049614 -0.005112 -934696.000000 0 1 0
16.209508 -8.627485 -12.262301 22.080437 -0.489112 2.159576 0.047869 -0.006287 -779264.000000 0 1 0
14.942208 -9.053685 -12.638401 21.563116 -0.544756 2.197048 0.040608 -0.000505 -364765.000000 0 1 0
13.926408 -7.892285 -12.560101 20.346723 -0.515585 2.236107 0.032436 -0.010015 -542883.000000 0 1 0
13.974208 -6.913485 -13.557201 20.660892 -0.459424 2.286538 0.031334 -0.015555 68606.900000 0 1 0
15.063508 -6.027385 -13.546901 21.136631 -0.380620 2.266493 0.033620 -0.015472 -190458.000000 0 1 0
14.849208 -5.043485 -14.756701 21.533601 -0.327422 2.325794 0.014606 -0.009380 -457131.000000 0 1 0
13.855108 -4.152085 -14.438401 20.437007 -0.291162 2.355313 0.020016 -0.007989 -509815.000000 0 1 0
13.557008 -3.094385 -15.346801 20.709708 -0.224406 2.405420 0.013493 -0.012645 18886.000000 0 1 0
14.705208 -2.090085 -15.586601 21.530298 -0.141187 2.380290 0.012893 -0.012513 -871891.000000 0 1 0
15.682408 -2.376885 -16.569801 22.937869 -0.150419 2.378031 0.003574 -0.005254 195602.000000 0 1 0
16.780908 -1.484785 -16.420601 23.525297 -0.088251 2.343394 0.005931 -0.000389 343631.000000 0 1 0
17.831508 -1.935985 -15.352001 23.609207 -0.108147 2.278716 0.016072 -0.001028 -1183020.000000 0 1 0
17.430708 -2.144185 -14.049201 22.490157 -0.122397 2.245521 0.014028 -0.000327 362275.000000 0 1 0
18.582508 -2.498585 -13.262501 22.966203 -0.133657 2.186434 0.016483 -0.001080 459120.000000 0 1 0
18.294208 -2.733485 -11.766501 21.922604 -0.148321 2.137352 0.015660 -0.000942 -227927.000000 0 1 0
17.902208 -1.586185 -11.035901 21.090191 -0.088372 2.121482 0.009923 0.001789 857886.000000 0 1 0
17.379308 -1.971585 -9.749901 20.024687 -0.112961 2.079327 0.005634 -0.001681 -1446750.000000 0 1 0
17.311608 -0.847885 -8.703701 19.394976 -0.048939 2.036174 0.001425 0.003158 -51555.800000 0 1 0
18.529508 -0.455385 -8.053601 20.209170 -0.024571 1.980690 -0.006576 0.007287 960620.000000 0 1 0
19.564208 0.071315 -8.856501 21.475590 0.003645 1.995882 -0.014006 0.006685 -654910.000000 0 1 0
19.275508 1.381515 -9.654401 21.602344 0.071550 2.034110 -0.014851 0.009571 -924480.000000 0 1 0
19.015008 2.500115 -8.858901 21.125843 0.130731 2.003514 -0.021884 0.012465 680601.000000 0 1 0
18.714508 3.650915 -9.669101 21.378810 0.192665 2.040111 -0.018002 0.011306 -219181.000000 0 1 0
18.762908 4.960415 -8.846001 21.328483 0.258460 1.998465 0.007742 0.011159 -137260.000000 0 1 0
18.443308 6.084915 -9.657101 21.689662 0.318680 2.032238 0.035740 0.009718 706676.000000 0 1 0
18.560608 7.322415 -8.981501 21.881072 0.375768 1.993765 0.030319 -0.000473 -575450.000000 0 1 0
-24.732692 -29.227685 5.644199 38.701687 0.868508 1.424436 0.007517 0.003354 -550307.000000 0 0 1
-24.978592 -28.316645 6.685099 38.346486 0.847950 1.395567 0.009118 0.006799 -330221.000000 0 0 1
-23.924792 -27.408775 6.901299 37.030589 0.853164 1.383333 0.002627 0.009334 -766905.000000 0 0 1
-24.181092 -26.456195 8.084699 36.742588 0.830297 1.348945 -0.008038 0.019626 -40329.400000 0 0 1
-25.196662 -25.489595 7.719699 36.663128 0.791177 1.358651 -0.012586 0.010545 1379710.000000 0 0 1
-26.563652 -25.921195 7.886899 37.943894 0.773158 1.361413 -0.017720 0.014372 757036.000000 0 0 1
-27.083912 -26.140315 9.354399 38.786068 0.767671 1.327215 -0.012701 0.009842 -861013.000000 0 0 1
-26.486142 -27.189615 10.004499 39.254055 0.798503 1.313088 -0.014213 0.008092 -445288.000000 0 0 1
-26.908532 -27.360425 11.345599 40.017303 0.793725 1.283336 -0.012148 0.010093 -1103340.000000 0 0 1
-26.105272 -28.384275 12.107399 40.419567 0.827198 1.266583 -0.004131 0.001977 1781710.000000 0 0 1
-24.710192 -27.955875 12.340699 39.299076 0.846948 1.251372 -0.007053 0.006419 1585030.000000 0 0 1
-24.603792 -27.021595 13.374299 38.915100 0.832198 1.219965 -0.001166 0.013065 -646016.000000 0 0 1
-23.197992 -26.523105 13.773699 37.833011 0.852174 1.198167 0.003526 0.018681 -72353.000000 0 0 1
-22.432892 -27.393915 14.532599 38.273459 0.884636 1.181320 0.016426 0.009984 -501738.000000 0 0 1
-21.422392 -26.771465 15.294099 37.543836 0.895937 1.151228 0.010225 0.009386 -230460.000000 0 0 1
-20.617392 -27.849595 16.041999 38.184061 0.933524 1.137216 0.016374 0.003024 -526607.000000 0 0 1
-21.296192 -28.559265 17.036199 39.489131 0.930063 1.124736 0.019669 0.007234 -250515.000000 0 0 1
-20.531492 -29.652685 17.415299 40.051423 0.965190 1.120954 0.010946 0.007664 -350747.000000 0 0 1
-21.230792 -30.597815 18.405099 41.541792 0.964199 1.111798 -0.010999 0.002843 -65456.900000 0 0 1
-22.311592 -31.288315 17.809599 42.355018 0.951335 1.136818 0.003454 -0.003775 25968.900000 0 0 1
-22.981192 -32.180355 18.649699 43.720952 0.950645 1.130108 -0.003698 -0.002615 -105020.000000 0 0 1
-24.162892 -32.857985 17.937099 44.555943 0.936722 1.156468 -0.004462 -0.006614 140217.000000 0 0 1
-23.677192 -33.809565 16.967899 44.627409 0.959862 1.180770 -0.000969 -0.003533 307267.000000 0 0 1
-24.714092 34.562876 16.622699 45.625572 -0.950043 1.197885 0.001719 -0.003362 -503945.000000 0 0 1
-24.531792 33.885620 15.234499 44.521163 -0.944171 1.221554 0.002932 -0.004007 429986.000000 0 0 1
-23.402492 32.998315 15.170499 43.205433 -0.953921 1.212024 -0.006308 -0.007324 1021570.000000 0 0 1
-22.197992 33.693634 14.832799 42.988646 -0.988247 1.218515 0.003026 -0.001202 322309.000000 0 0 1
-20.902892 32.833385 14.750099 41.623641 -1.003874 1.208558 0.007274 -0.013845 186881.000000 0 0 1
-20.884292 31.963135 13.653499 40.548905 -0.992044 1.227368 0.015029 -0.005873 -304969.000000 0 0 1
-19.856292 31.026115 13.637899 39.279567 -1.001493 1.216212 0.010127 -0.013815 -300689.000000 0 0 1
-19.847292 30.197185 12.338699 38.184139 -0.989337 1.241754 0.009721 -0.003534 92655.900000 0 0 1
-19.397892 30.945205 11.226299 38.208817 -1.010870 1.272581 0.006554 0.001923 -21392.000000 0 0 1
-19.614892 30.158615 10.007999 37.342283 -0.994146 1.299472 0.009812 0.001758 -214016.000000 0 0 1
-19.048492 30.632845 8.670499 37.099781 -1.014478 1.334907 -0.003145 0.002285 -222968.000000 0 0 1
-17.646492 30.858505 8.773099 36.614386 -1.051331 1.328834 -0.009577 0.000467 268924.000000 0 0 1
-17.064992 31.431355 7.573399 36.558178 -1.073398 1.362125 -0.004494 0.002583 429938.000000 0 0 1
-16.411792 30.402235 6.609399 35.175658 -1.075801 1.381776 -0.004336 0.001432 31133.600000 0 0 1
-17.342892 29.438545 6.079599 34.703967 -1.038414 1.394703 -0.008500 0.005665 337684.000000 0 0 1
-17.295592 28.266135 6.806099 33.829497 -1.021684 1.368225 -0.008819 0.003100 197244.000000 0 0 1
-18.455992 27.276615 6.453499 33.560170 -0.975932 1.377295 -0.003948 0.005658 242294.000000 0 0 1
-18.270192 26.806885 5.133799 32.844556 -0.972562 1.413847 0.000999 0.000220 -250036.000000 0 0 1
-19.322392 26.098265 4.596799 32.796415 -0.933486 1.430172 0.011997 -0.001822 -1177980.000000 0 0 1
-18.828192 25.256905 3.380999 31.683485 -0.930203 1.463881 0.019767 -0.005160 -1200550.000000 0 0 1
-18.429492 25.935355 2.213099 31.893363 -0.952996 1.501350 0.014312 -0.007355 283453.000000 0 0 1
-17.151192 26.547315 2.096199 31.675185 -0.997195 1.504570 0.008531 -0.008374 110368.000000 0 0 1
-15.922592 25.595845 2.249399 30.228066 -1.014302 1.496313 0.005176 -0.008579 -581932.000000 0 0 1
-15.751592 24.535805 1.324199 29.186844 -1.000077 1.525411 0.015648 -0.012605 82006.500000 0 0 1
-15.553292 24.978595 -0.037001 29.425099 -1.013878 1.572054 0.010855 -0.015218 -393346.000000 0 0 1
-15.251492 23.813885 -0.999401 28.296783 -1.001167 1.606122 0.017006 -0.018225 515210.000000 0 0 1
-16.309292 22.829185 -1.093601 28.077761 -0.950468 1.609755 0.024588 -0.024571 962127.000000 0 0 1
-15.919192 21.725285 -1.937401 27.003003 -0.938427 1.642606 0.025187 -0.022266 24821.700000 0 0 1
-15.044192 20.594085 -1.357101 25.539886 -0.939886 1.623958 0.023419 -0.024321 305836.000000 0 0 1
-15.784992 19.795585 -0.406601 25.321857 -0.897643 1.586854 0.034915 -0.029750 949521.000000 0 0 1
-14.891092 18.873885 0.242299 24.042189 -0.902812 1.560718 0.053703 -0.037042 158304.000000 0 1 0
-15.551292 17.846685 1.203599 23.702225 -0.854019 1.519994 0.043318 -0.034729 58375.500000 0 1 0
-16.093792 16.764985 0.433999 23.243563 -0.805822 1.552123 0.042244 -0.036464 654676.000000 0 1 0
-17.146792 16.215785 1.219499 23.631575 -0.757500 1.519169 0.047518 -0.033189 334905.000000 0 1 0
-17.906392 14.969385 0.639499 23.348026 -0.696298 1.543403 0.077139 -0.029066 -177278.000000 0 1 0
-18.855892 15.239185 -0.361301 24.246813 -0.679716 1.585698 0.071213 -0.028450 168372.000000 0 1 0
-19.567192 14.019785 -0.553601 24.077704 -0.621711 1.593791 0.058140 -0.020873 -278108.000000 0 1 0
-20.563992 14.173585 -1.723301 25.034736 -0.603470 1.639687 0.068831 -0.014875 -721317.000000 0 0 1
-21.517092 13.193085 -2.109201 25.327681 -0.550029 1.654169 0.053541 -0.011725 2153330.000000 0 0 1
-22.647292 12.949785 -1.202801 26.115962 -0.519428 1.616869 0.043603 -0.004443 691285.000000 0 0 1
-23.664492 14.083385 -1.026001 27.557260 -0.536829 1.608037 0.006686 0.003089 -1081130.000000 0 0 1
-23.105792 15.195285 -0.367001 27.656988 -0.581727 1.584066 -0.011770 -0.004807 203209.000000 0 0 1
-24.043892 16.230885 -0.247501 29.010543 -0.593786 1.579328 -0.031022 -0.003011 -355972.000000 0 0 1
-23.506692 17.466285 0.508199 29.289826 -0.639028 1.553445 -0.031874 -0.010311 -17884.200000 0 0 1
-22.991392 17.060585 1.767199 28.684327 -0.638389 1.509149 -0.029055 -0.013823 530112.000000 0 0 1
-22.294292 18.111685 2.464499 28.829539 -0.682251 1.485207 -0.030089 -0.018438 -16947.500000 0 0 1
-23.158792 19.235985 3.093399 30.264201 -0.693130 1.468404 -0.026762 -0.016419 -859832.000000 0 0 1
-23.763092 18.938785 4.356699 30.697604 -0.672899 1.428392 -0.019713 -0.022180 246995.000000 0 0 1
-25.113542 19.319185 4.446199 31.995149 -0.655723 1.431380 -0.019604 -0.028052 -41827.200000 0 0 1
-26.132852 18.493985 3.613499 32.218175 -0.615869 1.458403 0.022686 -0.020177 -1311500.000000 0 0 1
-27.327212 19.191085 3.414499 33.566844 -0.612248 1.468898 0.035568 -0.015168 -610745.000000 0 0 1
-28.015832 18.549685 2.396299 33.685603 -0.584844 1.499599 0.042624 -0.003370 -283195.000000 0 0 1
-29.353342 19.243785 2.064599 35.159700 -0.580296 1.512042 0.038809 -0.013462 -458232.000000 0 0 1
-30.369722 19.151785 2.997099 36.029064 -0.562631 1.487515 0.072454 -0.009011 -573344.000000 0 0 1
-31.559282 19.735285 2.551099 37.309219 -0.558844 1.502366 0.047681 -0.016808 -355852.000000 0 0 1
-32.299152 20.365485 3.727999 38.365168 -0.562564 1.473471 0.047231 -0.014220 -485646.000000 0 0 1
-31.508012 21.382385 4.313999 38.321949 -0.596241 1.457985 0.040053 -0.016277 182897.000000 0 0 1
-32.036552 21.939185 5.455599 39.210101 -0.600463 1.431206 0.028408 -0.011157 -341152.000000 0 0 1
-31.015162 22.971985 6.018999 39.062523 -0.637503 1.416094 0.025585 -0.007552 158078.000000 0 0 1
-30.983232 24.142585 5.188699 39.620041 -0.661938 1.439458 0.020092 -0.006164 681318.000000 0 0 1
-29.949342 24.975275 5.699499 39.410807 -0.695083 1.425670 0.007431 -0.004078 113042.000000 0 0 1
-30.220962 26.399885 5.254499 40.470609 -0.718015 1.440594 0.003237 0.002386 -292499.000000 0 0 1
-31.203212 26.964455 6.095399 41.687842 -0.712655 1.424055 0.008339 0.004569 87659.900000 0 0 1
-31.376992 28.363315 5.905299 42.706742 -0.734995 1.432076 0.011039 0.004233 5130.100000 0 0 1
-32.446432 28.955765 6.860899 44.025892 -0.728610 1.414321 -0.001099 0.011668 -234383.000000 0 0 1
-32.019752 28.999905 8.183499 43.968496 -0.735949 1.383583 -0.002695 0.014303 305247.000000 0 0 1
-32.828492 29.789225 9.063799 45.246660 -0.736899 1.369112 0.003838 0.016459 -32545.300000 0 0 1
-34.067594 29.191145 9.761399 45.913057 -0.708463 1.356555 0.009393 0.013651 -255570.000000 0 0 1
-33.763082 28.061275 10.538999 45.149212 -0.693432 1.335197 0.014500 0.001656 659891.000000 0 0 1
-34.812691 27.529905 11.373899 45.816860 -0.669106 1.319926 0.023633 -0.000827 336806.000000 0 0 1
-34.240122 26.279865 12.028299 44.807334 -0.654618 1.299018 0.028206 0.006000 604988.000000 0 0 1
-33.123562 26.552885 12.887699 44.365739 -0.675735 1.276060 0.019948 -0.006155 438761.000000 0 0 1
-32.930272 25.467145 13.731799 43.835380 -0.658288 1.252174 0.028582 -0.009471 -348905.000000 0 0 1
-31.744682 25.766365 14.644199 43.429056 -0.681819 1.226857 0.029051 -0.011607 -280738.000000 0 0 1
-31.999712 26.728575 15.681099 44.545428 -0.695883 1.211063 0.022985 -0.015652 74964.900000 0 0 1
-30.879062 26.885565 16.534099 44.155707 -0.716374 1.186993 0.048521 -0.013552 30518.400000 0 0 1
-31.137522 27.913015 17.590199 45.366251 -0.730846 1.172620 0.036088 -0.015599 -673231.000000 0 0 1
-31.107312 29.212305 17.076799 45.963471 -0.753992 1.190140 0.051433 -0.013928 -51398.900000 0 0 1
-31.482872 30.183715 17.981699 47.175940 -0.764334 1.179743 0.034375 -0.013309 -288679.000000 0 0 1
-31.186842 31.592385 17.434399 47.693355 -0.791858 1.196571 0.020982 -0.005431 877675.000000 0 0 1
-29.778462 31.832085 17.268399 46.885350 -0.818718 1.193604 0.014011 -0.001208 660140.000000 0 0 1
-29.644902 33.044055 16.622399 47.402889 -0.839568 1.212518 0.010581 0.011111 943828.000000 0 0 1
-28.267832 33.190495 15.819199 46.378080 -0.865325 1.222718 0.022247 0.004963 979368.000000 0 0 1
-28.252312 32.509655 14.574699 45.469689 -0.855350 1.244500 0.014624 0.005747 241760.000000 0 0 1
-27.911092 31.138595 14.777999 44.351216 -0.840001 1.231097 0.008638 0.001948 -231312.000000 0 0 1
-29.007382 30.130535 14.360999 44.221212 -0.804388 1.240045 0.025561 0.001068 96334.300000 0 0 1
-28.955902 29.802555 12.983999 43.534133 -0.799806 1.267939 0.024705 -0.001633 46443.000000 0 0 1
-29.959422 28.887425 12.579099 43.477396 -0.767183 1.277275 0.035793 -0.001796 200900.000000 0 0 1
-30.030852 28.694415 11.045499 42.979350 -0.762645 1.310884 0.023336 0.006182 -321763.000000 0 0 1
-28.939832 27.976865 10.557199 41.613378 -0.768481 1.314296 0.006164 0.012119 -301052.000000 0 0 1
-28.910812 28.236995 9.167399 41.439162 -0.773608 1.347725 0.006561 0.002976 695553.000000 0 0 1
-27.825182 27.358735 8.382999 39.912602 -0.776946 1.359187 0.003845 -0.000834 817925.000000 0 0 1
-27.587922 27.777885 7.081899 39.785143 -0.788829 1.391839 -0.003544 0.000778 239418.000000 0 0 1
-26.560682 26.990115 6.429699 38.409337 -0.793417 1.402605 0.001845 -0.001353 324609.000000 0 0 1
-26.230672 27.362135 4.963299 38.227855 -0.806507 1.440594 0.003130 -0.002600 -271349.000000 0 0 1
-25.412602 28.502115 4.831899 38.490494 -0.842639 1.444929 0.008058 0.002669 247460.000000 0 0 1
-25.050892 28.703105 3.453599 38.253663 -0.853237 1.480392 0.004460 0.003865 -193688.000000 0 0 1
-23.968892 29.756175 3.196499 38.342604 -0.892705 1.487333 0.004866 0.001446 312998.000000 0 0 1
-22.662292 29.375405 3.634999 37.278775 -0.913694 1.473133 0.007872 -0.000933 83460.500000 0 0 1
-21.750092 30.363445 3.257899 37.491588 -0.949198 1.483790 0.014109 -0.000781 97897.400000 0 0 1
-20.278492 29.892655 3.333599 36.275349 -0.974730 1.478769 0.004147 -0.001670 310424.000000 0 0 1
-19.332592 30.719165 2.728299 36.398624 -1.009087 1.495770 0.006290 0.005094 471753.000000 0 0 1
-17.956492 30.371035 2.987699 35.408497 -1.036845 1.486318 0.008615 0.000097 1238880.000000 0 0 1
-17.029492 31.464865 2.405399 35.858433 -1.074717 1.503665 0.014964 -0.003246 -123707.000000 0 0 1
-17.070492 32.735195 3.112599 37.049736 -1.090119 1.486686 0.009977 0.000575 938337.000000 0 0 1
-15.844992 33.461245 2.843799 37.132275 -1.128546 1.494136 0.012974 0.004128 959935.000000 0 0 1
-15.643292 -34.552125 3.746299 38.112946 1.145662 1.472343 0.010419 0.005945 380773.000000 0 0 1
-16.516992 -33.473685 3.308499 37.473254 1.112417 1.482392 0.010561 -0.002130 709784.000000 0 0 1
-16.475292 -32.450175 4.265199 36.642066 1.100999 1.454130 0.004830 0.000884 -200508.000000 0 0 1
-17.724292 -31.556245 4.180799 36.433860 1.059035 1.455793 -0.000064 0.001552 -200914.000000 0 0 1
-17.793192 -30.638715 3.131499 35.568733 1.044657 1.482641 0.011168 -0.007830 489150.000000 0 0 1
-19.018992 -29.906865 3.257999 35.591532 1.004368 1.479129 0.013440 -0.012794 35895.200000 0 0 1
-19.311592 -28.825455 2.188299 34.765400 0.980525 1.507810 0.008695 -0.013901 -349990.000000 0 0 1
-18.448292 -27.741585 2.295799 33.394695 0.983945 1.501995 0.004546 -0.003129 -437771.000000 0 0 1
-18.821492 -26.757565 1.377599 32.743146 0.957787 1.528711 0.005134 -0.001847 29353.500000 0 0 1
-17.963792 -25.483655 1.493399 31.214495 0.956780 1.522935 0.005294 0.004258 232217.000000 0 0 1
-16.666192 -25.638225 0.961799 30.594208 0.994384 1.539354 0.007088 0.001289 -688472.000000 0 0 1
-15.931992 -24.467885 1.027599 29.215778 0.993621 1.535616 0.007328 0.000315 632475.000000 0 0 1
-14.462492 -24.484585 0.486399 28.441082 1.037260 1.553694 0.019222 -0.005681 347323.000000 0 0 1
-14.274192 -24.566585 -0.927301 28.427619 1.044434 1.603422 0.025743 0.000076 30964.100000 0 0 1
-14.440292 -23.386485 -1.658801 27.535456 1.017635 1.631075 0.024276 -0.007466 -309191.000000 0 0 1
-14.751092 -23.616885 -3.152301 28.023008 1.012485 1.683525 0.003194 0.002875 -26234.700000 0 0 1
-13.589892 -24.087085 -3.800301 27.916216 1.057118 1.707353 0.027847 -0.003615 105487.000000 0 0 1
-13.792492 -24.181285 -5.188601 28.317644 1.052442 1.755066 0.022330 -0.004177 -6612.440000 0 0 1
-12.592892 -24.723885 -5.989301 28.385263 1.099704 1.783395 0.041272 -0.008099 -197093.000000 0 0 1
-12.405192 -26.124445 -5.820101 29.499983 1.127470 1.769391 0.026322 -0.008078 -111404.000000 0 0 1
-11.510892 -26.674015 -6.767201 29.829494 1.163400 1.799652 0.029824 -0.006132 -86560.400000 0 0 1
22.211908 12.627815 28.656012 38.392677 0.516947 0.728171 0.014733 0.018637 180085.000000 0 0 1
23.271008 11.688315 28.880782 38.887738 0.465461 0.733747 0.007783 0.018941 639491.000000 0 0 1
23.026508 10.852815 29.995632 39.341348 0.440440 0.703712 0.018664 0.011395 -419826.000000 0 0 1
23.072508 11.480915 31.405852 40.626095 0.461727 0.687167 0.030150 0.009245 281886.000000 0 0 1
21.955008 12.317615 31.657522 40.446814 0.511279 0.671812 0.030043 0.013420 293064.000000 0 0 1
22.187008 12.868415 32.903302 41.719141 0.525582 0.662128 0.022920 0.012815 -533143.000000 0 0 1
21.200608 13.948315 33.330445 41.892003 0.581923 0.650753 0.013684 0.019663 -792106.000000 0 0 1
19.902208 13.484015 33.516245 41.246276 0.595474 0.622217 0.014610 0.023892 -436684.000000 0 0 1
19.106408 14.399815 34.245554 41.775202 0.645842 0.609808 0.016819 0.014839 -522025.000000 0 0 1
18.043508 13.746815 -34.037791 40.903720 0.651055 2.553759 0.018557 0.015652 -585973.000000 0 0 1
16.895408 13.430815 34.348882 40.567072 0.671647 0.561010 0.009156 0.019517 420839.000000 0 0 1
16.081608 12.446015 -34.091365 39.695624 0.658640 2.603757 0.006400 0.005594 627957.000000 0 0 1
14.728808 12.090215 34.378518 39.306407 0.687329 0.506127 0.006293 0.007872 338790.000000 0 0 1
14.824908 11.296515 33.184630 38.060594 0.651134 0.511749 -0.000510 0.022668 -837885.000000 0 0 1
13.576308 10.866215 32.782242 37.108843 0.674973 0.487711 0.015305 0.013303 -667413.000000 0 0 1
13.704908 9.717015 31.717192 35.891854 0.616752 0.487113 0.021674 0.011035 -86168.800000 0 0 1
14.171608 8.591915 32.398782 36.391436 0.545022 0.472824 0.012134 0.012056 -258986.000000 0 0 1
14.696808 7.717415 31.475032 35.584158 0.483532 0.485324 0.015036 -0.000080 -13463.800000 0 0 1
15.149508 6.359115 32.050612 36.016492 0.397422 0.473699 0.039969 -0.010268 -581671.000000 0 0 1
14.082708 5.514715 32.314962 35.679007 0.373240 0.437736 0.025335 -0.006948 -661956.000000 0 0 1
14.532308 4.227815 32.719822 36.050647 0.283111 0.433248 0.031290 -0.013612 -378392.000000 0 0 1
13.491208 3.140515 32.789812 35.595608 0.228709 0.399705 0.006163 -0.006958 -178846.000000 0 0 1
14.054108 1.921815 33.241590 36.141592 0.135901 0.403328 0.020420 -0.017188 193820.000000 0 0 1
12.965308 1.090715 33.600817 36.031983 0.083928 0.369446 0.019739 -0.017516 244736.000000 0 0 1
13.409408 -0.309285 34.013128 36.562286 -0.023061 0.375624 0.013241 -0.015709 -148294.000000 0 0 1
13.555908 -1.239785 32.968892 35.668580 -0.091203 0.391568 0.002685 -0.004295 -182287.000000 0 0 1
14.245208 -2.341385 33.461435 36.442773 -0.162906 0.407306 0.015382 -0.008122 -474414.000000 0 0 1
14.220808 -3.546185 32.480132 35.633774 -0.244382 0.423883 0.020942 -0.011910 -1248490.000000 0 0 1
14.505508 -4.835985 32.948002 36.323097 -0.321801 0.434498 0.024252 -0.013281 1200300.000000 0 0 1
15.839308 -5.190185 33.409635 37.336650 -0.316652 0.462765 0.017372 -0.013923 2128680.000000 0 0 1
17.142408 -4.747785 32.640372 37.172537 -0.270189 0.498966 0.018395 -0.013216 -31571.300000 0 0 1
17.194208 -3.320185 32.645312 37.045659 -0.190751 0.492363 0.015992 -0.016204 -710927.000000 0 0 1
17.928608 -2.755785 31.629772 36.461923 -0.152515 0.520694 0.044933 -0.027900 -655010.000000 0 0 1
17.851608 -1.204785 31.597252 36.311400 -0.067387 0.515240 0.046841 -0.034182 -271251.000000 0 0 1
18.428108 -0.525185 32.710722 37.548134 -0.028491 0.513221 0.019140 -0.025501 119469.000000 0 0 1
18.487608 0.925215 32.738682 37.609427 0.050003 0.514597 0.010189 -0.022952 414669.000000 0 0 1
19.726208 1.526415 31.986832 37.611311 0.077226 0.553941 0.032013 -0.032358 81779.500000 0 0 1
19.856308 1.265115 30.589792 36.491217 0.063628 0.576679 0.041650 -0.032317 -187211.000000 0 0 1
20.635708 2.222515 29.912212 36.407588 0.107289 0.606597 0.042186 -0.025982 -122564.000000 0 0 1
20.052208 3.676515 29.795272 36.102162 0.181333 0.600055 0.039819 -0.019257 -266002.000000 0 0 1
19.879508 4.243315 31.094042 37.148890 0.210296 0.578998 0.037397 -0.021541 396156.000000 0 0 1
19.312508 5.529515 31.054562 36.985597 0.278858 0.574177 0.038062 -0.016050 -263899.000000 0 0 1
19.183808 6.220815 32.427542 38.187204 0.313575 0.556379 0.030144 -0.009644 -157.485000 0 0 1
18.145008 5.665815 33.218805 38.273121 0.302659 0.519755 0.029749 -0.014796 240482.000000 0 0 1
18.000908 6.328715 34.485154 39.412069 0.338080 0.505382 0.022772 -0.002856 -24640.100000 0 0 1
16.903708 5.731515 -33.748011 38.177400 0.326903 2.655101 0.025158 -0.002922 -91548.500000 0 0 1
17.104208 4.369315 -33.386631 37.766546 0.250104 2.655204 0.007622 -0.013940 -365531.000000 0 0 1
15.915308 3.818915 -32.897461 36.744035 0.235500 2.679933 0.010996 -0.015787 -233091.000000 0 0 1
15.845308 2.234415 -33.081721 36.748696 0.140091 2.691059 0.007888 -0.024254 282047.000000 0 0 1
16.996408 1.542615 -32.602221 36.798945 0.090513 2.659346 -0.019177 -0.018691 171728.000000 0 0 1
17.011708 0.223915 -33.107111 37.222697 0.013162 2.666900 -0.002248 -0.020051 253685.000000 0 0 1
18.129408 -0.678685 -32.461501 37.187163 -0.037418 2.631957 0.002360 -0.017169 59784.800000 0 0 1
17.959808 -0.992185 -31.069811 35.900868 -0.055189 2.616811 0.001552 -0.013565 59542.800000 0 0 1
18.142808 0.099715 -30.175611 35.209927 0.005496 2.600255 -0.000136 -0.007389 -215797.000000 0 0 1
17.629008 -0.118285 -28.722341 33.701169 -0.006710 2.591097 -0.016130 0.003234 -281959.000000 0 0 1
16.247408 -0.114485 -28.444021 32.757499 -0.007046 2.622603 -0.008279 -0.004546 46084.100000 0 0 1
15.849508 -0.273985 -27.079121 31.377712 -0.017285 2.611984 -0.002579 -0.001139 54331.600000 0 0 1
16.518608 -1.402085 -26.223541 31.024255 -0.084676 2.577847 0.004597 0.006723 -95787.000000 0 0 1
17.875508 -1.212685 -25.856281 31.457140 -0.067737 2.535627 0.008413 0.005458 192460.000000 0 0 1
18.632108 -2.386085 -25.626061 31.773320 -0.127370 2.509051 0.004569 0.010908 314007.000000 0 0 1
19.366208 -2.978985 -26.858181 33.245846 -0.152628 2.511318 0.009645 0.000886 -123605.000000 0 0 1
20.478508 -2.147585 -27.198281 34.113457 -0.104488 2.493587 0.018939 0.002756 -75183.600000 0 0 1
20.746508 -2.359585 -28.549771 35.370534 -0.113247 2.510126 0.022440 -0.001014 -922398.000000 0 0 1
22.147208 -1.905685 -28.911821 36.469492 -0.085835 2.486132 0.010475 -0.007585 -831710.000000 0 0 1
23.047408 -2.898885 -28.477871 36.750180 -0.125122 2.457360 0.007601 -0.008857 -938972.000000 0 0 1
24.319408 -2.608685 -28.981151 37.922895 -0.106859 2.440616 0.012853 -0.015103 -665936.000000 0 0 1
25.345108 -3.637585 -28.498761 38.311694 -0.142549 2.409633 0.031429 -0.016926 -449780.000000 0 0 1
25.386308 -4.870985 -29.228741 39.019360 -0.189570 2.417473 0.029902 -0.020335 158255.000000 0 0 1
26.621808 -5.555385 -29.174181 39.883779 -0.205726 2.391286 0.026715 -0.016869 -31329.200000 0 0 1
26.788708 -6.640585 -28.091951 39.381341 -0.242989 2.365037 0.014120 -0.006400 -77449.100000 0 0 1
26.695108 -6.034885 -26.765761 38.281257 -0.222330 2.345056 0.006078 0.003259 204697.000000 0 0 1
26.484108 -7.043485 -25.816701 37.649977 -0.259934 2.326365 -0.011492 0.005983 -338302.000000 0 0 1
26.491508 -6.647985 -24.273101 36.540103 -0.245870 2.297335 -0.018374 0.011752 -280401.000000 0 0 1
27.792608 -6.363085 -23.843801 37.167792 -0.225070 2.267272 -0.027244 0.016410 74354.200000 0 0 1
27.698508 -5.838685 -22.538101 36.183748 -0.207753 2.243214 -0.021699 0.011907 -327578.000000 0 0 1
29.075908 -5.433585 -22.010201 36.869788 -0.184745 2.210517 -0.022896 0.017189 -395649.000000 0 0 1
29.553708 -4.245285 -22.621901 37.459238 -0.142670 2.219190 -0.003439 0.009799 99145.500000 0 0 1
30.803108 -3.883985 -22.051201 38.081128 -0.125429 2.188370 -0.011649 0.011654 130155.000000 0 0 1
31.404108 -2.616585 -22.706501 38.841341 -0.083128 2.195179 -0.000947 0.001743 -585640.000000 0 0 1
30.618408 -1.504885 -22.703401 38.147032 -0.049110 2.208255 -0.006838 -0.000332 -139949.000000 0 0 1
31.345608 -0.424885 -23.266001 39.038884 -0.013554 2.209269 -0.006545 -0.003141 -66095.400000 0 0 1
30.475008 0.806315 -23.065901 38.228420 0.026452 2.218517 0.002574 0.000739 443473.000000 0 0 1
29.310808 0.780115 -23.902501 37.829375 0.026609 2.254734 0.007500 0.001869 638311.000000 0 0 1
28.297208 1.595015 -23.315201 36.699791 0.056307 2.259187 0.005651 0.009808 766739.000000 0 0 1
27.045508 1.852615 -24.219401 36.352044 0.068393 2.299960 0.006834 0.004094 106613.000000 0 0 1
26.077508 2.721615 -23.730501 35.363545 0.103990 2.306413 0.003330 0.010141 -168849.000000 0 0 1
25.295108 3.154515 -24.828701 35.584517 0.124068 2.343033 0.021407 0.009945 81025.400000 0 0 1
24.177208 4.164015 -24.474101 34.653399 0.170556 2.354989 0.015197 0.017638 107737.000000 0 0 1
24.686808 5.427015 -24.205101 34.996827 0.216393 2.334549 -0.000850 0.025259 -144016.000000 0 0 1
23.639608 6.280415 -23.845201 34.159454 0.259675 2.343475 -0.001123 0.015020 -266267.000000 0 0 1
24.056608 7.612215 -23.088201 34.201334 0.306461 2.311852 0.001435 0.012845 -497810.000000 0 0 1
24.768708 8.485715 -23.903601 35.452481 0.330066 2.310736 -0.004628 0.015728 -115839.000000 0 0 1
24.832708 9.805915 -23.316401 35.446776 0.376084 2.288672 0.000464 0.011042 -163404.000000 0 0 1
25.693508 10.785715 -24.134901 36.864366 0.397444 2.284575 0.023693 0.001974 -266019.000000 0 0 1
25.236508 11.005615 -25.461631 37.500661 0.411234 2.317148 0.032921 -0.004422 458975.000000 0 0 1
24.117408 11.873915 -25.619441 37.134822 0.457499 2.332152 0.042060 -0.012498 296899.000000 0 0 1
23.796308 12.086715 -27.084731 38.025460 0.469967 2.363536 0.041014 -0.020606 -125201.000000 0 0 1
23.334708 11.004315 -27.889281 37.992309 0.440659 2.395103 0.029753 -0.004479 605682.000000 0 0 1
24.324808 10.028815 -28.280971 38.627539 0.391054 2.392263 0.020282 -0.009675 477259.000000 0 0 1
25.155308 10.316215 -29.575521 40.173689 0.389184 2.398222 0.022016 0.001399 -179367.000000 0 0 1
26.101908 11.341115 -29.243991 40.806146 0.409884 2.369793 0.021941 -0.000528 1028150.000000 0 0 1
26.988208 11.795415 -30.310751 42.263895 0.412039 2.370541 0.021361 0.011744 929921.000000 0 0 1
28.006608 10.858715 -31.001071 43.166517 0.369875 2.371971 0.016976 0.005040 -824539.000000 0 0 1
27.350308 9.769715 -31.586561 42.909178 0.343081 2.398125 0.008901 0.007759 340129.000000 0 0 1
28.151608 8.597915 -31.910271 43.413162 0.296417 2.396517 0.010514 0.006037 431317.000000 0 0 1
27.302808 7.615115 -32.781401 43.336516 0.272001 2.428647 0.008514 0.007621 722402.000000 0 0 1
26.204008 6.972615 -32.131311 42.043889 0.260064 2.440647 0.018563 0.002503 308290.000000 0 0 1
25.644408 6.007515 -32.980721 42.207273 0.230113 2.467701 0.008623 0.003666 -138424.000000 0 0 1
24.323108 5.348615 -32.504811 40.948553 0.216453 2.487822 0.023078 0.005243 845815.000000 0 0 1
23.089008 6.030415 -32.744631 40.517639 0.255474 2.511813 0.017841 0.011751 606148.000000 0 0 1
22.846608 7.095015 -31.776381 39.774931 0.301107 2.496268 0.025580 0.012981 -712744.000000 0 0 1
21.440208 7.696715 -31.812021 39.127058 0.344657 2.520158 0.032044 0.009901 -224895.000000 0 0 1
21.166408 8.554115 -32.863721 40.015171 0.384067 2.534450 0.037320 0.011154 -1351370.000000 0 0 1
19.930408 9.109115 -32.742711 39.399014 0.428698 2.551797 0.022056 0.014254 -1252060.000000 0 0 1
19.696408 10.098315 -33.923641 40.506023 0.473755 2.563481 0.018887 0.019758 -78833.700000 0 0 1
19.463808 9.534615 33.918157 40.251585 0.455506 0.568603 0.018472 0.015088 65799.900000 0 0 1
19.300408 10.561215 32.994102 39.656725 0.500692 0.588107 0.015282 0.013637 -428885.000000 0 0 1
18.154008 10.242115 32.036872 38.220808 0.513664 0.576813 0.019220 0.011978 -361595.000000 0 0 1
18.339908 9.142415 31.205792 37.332793 0.462446 0.581060 0.020246 0.002376 51928.300000 0 0 1
19.376808 9.167515 30.232212 37.060635 0.441912 0.616772 0.032103 0.000897 -516142.000000 0 0 1
19.213608 9.983215 28.921892 36.128980 0.479197 0.642638 0.044390 -0.006365 -297707.000000 0 0 1
18.247808 9.618215 27.975262 34.757846 0.485083 0.635354 0.024482 0.004011 390446.000000 0 0 1
16.899308 9.904115 28.309422 34.425303 0.530111 0.605279 0.013452 -0.000738 131244.000000 0 0 1
15.798708 9.076115 27.620812 33.089036 0.521447 0.583132 0.025862 -0.000102 -424358.000000 0 0 1
15.747008 9.395815 26.181152 31.964079 0.537970 0.610990 0.028598 0.001285 -572324.000000 0 0 1
14.539908 9.099815 25.556542 30.779091 0.559211 0.591112 0.032725 0.002352 -380464.000000 0 0 1
14.193308 7.577215 25.332292 30.009819 0.490366 0.565849 0.035827 0.000854 -311513.000000 0 0 1
14.102508 6.872715 26.551582 30.839933 0.453468 0.533666 0.030860 -0.002169 -72271.500000 0 0 1
13.586708 5.590515 26.353712 30.172349 0.390355 0.508575 0.027590 -0.007728 -132510.000000 0 0 1
13.768008 4.799715 27.701752 31.304671 0.335439 0.484500 0.037634 -0.008782 1268600.000000 0 0 1
15.122208 4.288715 27.870232 31.997252 0.276347 0.513522 0.021220 -0.009115 1399730.000000 0 0 1
15.321608 3.861715 29.200122 33.201079 0.246901 0.496000 0.022643 -0.014328 171137.000000 0 0 1
16.290708 2.679815 29.460402 33.771051 0.163039 0.510794 0.035989 -0.017416 306601.000000 0 0 1
15.673408 1.456515 29.081252 33.068057 0.092663 0.496119 0.025436 -0.018847 410930.000000 0 0 1
14.728208 0.949915 30.007802 33.440853 0.064407 0.457092 0.012548 -0.014581 135976.000000 0 0 1
14.479808 -0.588285 29.904192 33.230583 -0.040606 0.451257 0.017588 -0.012354 -307913.000000 0 0 1
13.817108 -1.148985 28.749812 31.918402 -0.082966 0.449353 0.016605 -0.016134 346488.000000 0 0 1
14.507308 -1.301885 27.490232 31.110605 -0.089500 0.487239 0.022939 -0.011733 -193961.000000 0 0 1
15.658308 -2.443385 27.521612 31.758336 -0.154796 0.522459 0.024844 -0.009267 1501660.000000 0 0 1
16.881008 -2.180785 28.201172 32.939799 -0.128474 0.543038 0.023963 -0.020006 424467.000000 0 0 1
17.540608 -0.984985 27.739802 32.835039 -0.056096 0.564562 0.019811 -0.020476 -953337.000000 0 0 1
19.024408 -0.905985 28.185392 34.017132 -0.047586 0.594257 0.052425 -0.021374 594923.000000 0 0 1
19.920108 -1.541285 27.286822 33.819476 -0.077219 0.632017 0.034199 -0.019944 -39405.100000 0 0 1
21.287308 -1.433385 27.586852 34.874611 -0.067234 0.658306 0.044167 -0.028906 169649.000000 0 0 1
22.300508 -2.122885 26.639662 34.806478 -0.094908 0.699188 0.038998 -0.017184 -54100.600000 0 0 1
22.401408 -1.622285 25.318282 33.844798 -0.072293 0.725647 0.039831 -0.001812 400705.000000 0 0 1
21.316108 -2.027985 24.495132 32.534608 -0.094853 0.718347 0.032612 0.012441 -306551.000000 0 0 1
21.420308 -1.419685 23.079182 31.519736 -0.066181 0.749230 0.026589 -0.010491 -161553.000000 0 0 1
20.680708 -0.232185 22.997782 30.929656 -0.011227 0.732431 0.011214 -0.002712 68114.500000 0 0 1
20.828508 0.122915 21.686782 30.069227 0.005901 0.765222 0.016756 0.006456 -182694.000000 0 0 1
-28.957992 -27.937855 -10.204401 41.511671 0.767470 1.819162 -0.013319 0.003262 -207886.000000 0 0 1
-29.090942 -26.791055 -9.386301 40.646601 0.744265 1.803824 -0.012139 0.005211 -530891.000000 0 0 1
-29.831642 -27.065955 -8.244501 41.115259 0.736828 1.772687 0.004530 -0.001806 -1043380.000000 0 0 1
-30.111872 -25.763155 -7.429201 40.319449 0.707725 1.756114 0.025165 -0.007303 -154167.000000 0 0 1
-29.032402 -25.005655 -6.910101 38.934722 0.711019 1.749221 0.012441 -0.012373 -752417.000000 0 0 1
-28.384192 -25.690455 -5.863601 38.730396 0.735624 1.722776 0.000026 -0.006528 358787.000000 0 0 1
-27.160662 -24.773555 -5.449201 37.163481 0.739466 1.717955 -0.012324 -0.004348 192495.000000 0 0 1
-27.346642 -23.763955 -4.437801 36.500115 0.715416 1.692681 -0.001391 -0.008723 -12085.900000 0 0 1
-28.250132 -22.712955 -4.773101 36.561328 0.677172 1.701721 0.006915 -0.018846 -2142.710000 0 0 1
-28.158912 -21.604355 -3.745501 35.688951 0.654437 1.675938 0.009802 -0.020034 1022910.000000 0 0 1
-26.979652 -20.740955 -3.929701 34.256844 0.655402 1.685762 0.012474 -0.022917 1321820.000000 0 0 1
-26.999022 -19.746255 -2.929701 33.577446 0.631470 1.658159 0.011106 -0.010788 167347.000000 0 0 1
-25.947032 -18.609055 -3.207201 32.090988 0.622173 1.670904 0.013330 -0.011979 328039.000000 0 0 1
-26.161582 -17.747855 -4.331801 31.908920 0.596077 1.706972 0.011207 -0.011146 78439.000000 0 0 1
-25.133892 -16.776855 -4.401501 30.537658 0.588579 1.715434 0.013193 -0.009109 122059.000000 0 0 1
-25.380582 -15.703555 -5.496901 30.347841 0.554073 1.752932 0.000113 -0.018407 186377.000000 0 0 1
-26.449532 -14.791955 -5.233201 30.753309 0.509919 1.741796 -0.005076 -0.006704 357538.000000 0 0 1
-26.599722 -13.897655 -6.267001 30.658853 0.481464 1.776658 0.019800 -0.023260 495128.000000 0 0 1
-27.876502 -12.996855 -6.014901 31.340016 0.436268 1.763919 0.019836 -0.011437 423384.000000 0 0 1
-29.004622 -13.703955 -6.424801 32.716120 0.441386 1.768461 0.022562 -0.009372 -721601.000000 0 0 1
-30.218572 -13.051455 -6.212801 33.497783 0.407702 1.757345 0.016250 -0.013543 -349322.000000 0 0 1
-31.449282 -13.672755 -6.881401 34.976495 0.410105 1.768832 -0.001908 -0.011618 -247319.000000 0 0 1
-31.969322 -14.827455 -6.281901 35.795994 0.434273 1.747202 0.000080 -0.011507 61212.700000 0 0 1
-31.787622 -15.961355 -7.087101 36.269060 0.465346 1.767465 -0.002220 -0.013249 -804510.000000 0 0 1
-32.600992 -17.189155 -6.607601 37.442651 0.485216 1.748198 -0.002790 -0.012337 888423.000000 0 0 1
-34.024982 -16.999355 -6.715701 38.623543 0.463339 1.745560 0.006672 -0.018540 924578.000000 0 0 1
-34.535498 -16.355655 -5.546401 38.613088 0.442297 1.714935 0.009010 -0.017227 -487156.000000 0 0 1
34.138249 -16.289455 -5.479101 38.220243 -0.445210 1.714648 0.032066 -0.029908 -59474.600000 0 0 1
33.535979 -15.470555 -6.488301 37.497973 -0.432221 1.744702 0.025386 -0.027200 1055880.000000 0 0 1
32.125039 -15.203355 -6.411301 36.114608 -0.442024 1.749269 0.040053 -0.034116 1077800.000000 0 0 1
31.550599 -14.425855 -5.162401 35.074150 -0.428849 1.718518 0.051385 -0.041550 -512147.000000 0 0 1
31.634999 -15.203755 -3.983201 35.324117 -0.448007 1.683798 0.050297 -0.036516 372279.000000 0 0 1
31.070089 -14.461555 -2.917001 34.394707 -0.435627 1.655708 0.062175 -0.036641 -1099710.000000 0 0 1
30.940129 -15.306955 -1.630001 34.557942 -0.459421 1.617981 0.064551 -0.033387 -576876.000000 0 0 1
32.117179 -15.597155 -0.938701 35.716461 -0.452088 1.597081 0.076040 -0.029979 52085.300000 0 0 1
33.128309 -16.369555 -1.598801 36.986529 -0.458937 1.614036 0.057255 -0.033550 -573800.000000 0 0 1
32.835859 -17.805855 -2.105501 37.412234 -0.496888 1.627104 0.048405 -0.029659 -805295.000000 0 0 1
32.802019 -18.745455 -1.031301 37.794551 -0.519179 1.598087 0.055961 -0.032523 391502.000000 0 0 1
32.364199 -20.070655 -1.445001 38.109849 -0.555104 1.608722 0.048220 -0.028830 -78242.900000 0 0 1
33.332949 -20.898255 -2.327801 39.411181 -0.560004 1.629895 0.037140 -0.025260 16517.900000 0 0 1
33.610329 -20.175955 -3.490701 39.356173 -0.540633 1.659608 0.023883 -0.029306 211571.000000 0 0 1
34.520379 -20.817855 -4.390001 40.550114 -0.542666 1.679270 0.034035 -0.026786 -8876.770000 0 0 1
34.627442 -20.180055 -5.742101 40.487851 -0.527659 1.713099 0.044573 -0.030455 -421603.000000 0 0 1
33.444769 -20.220055 -6.505301 39.619719 -0.543781 1.735737 0.037436 -0.036398 26004.500000 0 0 1
33.472539 -19.383255 -7.631401 39.425369 -0.524895 1.765592 0.036070 -0.034007 26663.000000 0 0 1
32.440449 -19.725955 -8.740701 38.960183 -0.546330 1.797072 0.035542 -0.035840 -45377.700000 0 0 1
32.718789 -20.952355 -9.360701 39.964272 -0.569580 1.807219 0.037861 -0.028749 113395.000000 0 0 1
31.744939 -21.271755 -10.319801 39.581902 -0.590364 1.834564 0.045308 -0.036093 -407899.000000 0 0 1
31.772869 -22.693255 -10.810401 40.513748 -0.620215 1.840902 0.039087 -0.024079 -128590.000000 0 0 1
31.278759 -23.522155 -9.779501 40.339697 -0.644791 1.815665 0.028929 -0.020287 3018.710000 0 0 1
31.026379 -24.819955 -10.279401 41.040619 -0.674718 1.823961 0.018792 -0.001657 -447348.000000 0 0 1
30.136169 -25.763355 -9.463001 40.761348 -0.707331 1.805090 0.008232 0.000426 -232385.000000 0 0 1
28.849559 -25.195155 -9.384901 39.435634 -0.717883 1.811082 0.004620 -0.002553 -264188.000000 0 0 1
27.855869 -26.120455 -8.938201 39.218861 -0.753258 1.800723 -0.019997 0.005117 1154920.000000 0 0 1
26.451159 -25.408855 -9.074701 37.783911 -0.765302 1.813341 0.000743 -0.006054 667827.000000 0 0 1
26.095609 -25.040155 -10.414401 37.635753 -0.764761 1.851171 0.015412 -0.002252 -525733.000000 0 0 1
24.801719 -24.526055 -10.361501 36.386994 -0.779810 1.859551 0.029419 -0.014038 -473858.000000 0 0 1
23.993819 -24.394155 -11.678701 36.154809 -0.793671 1.899714 0.053056 -0.026120 -88183.600000 0 0 1
23.332619 -25.591555 -12.014201 36.656238 -0.831538 1.904721 0.047223 -0.018449 9375.790000 0 0 1
22.502819 -25.399155 -13.130101 36.385347 -0.845788 1.939989 0.058198 -0.006870 -181605.000000 0 0 1
21.876419 -26.794055 -13.402701 37.096246 -0.886096 1.940453 0.066198 -0.015294 -190719.000000 0 0 1
22.797819 -27.614455 -14.077701 38.477010 -0.880654 1.945367 0.053029 -0.011218 224437.000000 0 0 1
22.420019 -29.007855 -14.081501 39.273421 -0.912803 1.937511 0.063414 -0.017363 -109900.000000 0 0 1
23.160819 -29.971355 -15.076501 40.767714 -0.912884 1.949606 0.054437 -0.018528 -102552.000000 0 0 1
22.950419 -29.651255 -16.407501 40.928288 -0.912104 1.983278 0.051569 -0.023932 247600.000000 0 0 1
23.283519 -30.810555 -17.176901 42.266517 -0.923658 1.989301 0.045341 -0.024617 -347346.000000 0 0 1
23.168919 -30.776155 -18.736001 42.836996 -0.925493 2.023478 0.037519 -0.019668 1146440.000000 0 0 1
21.800419 -30.563355 -19.197701 42.165491 -0.951209 2.043499 0.043641 -0.015482 1220480.000000 0 0 1
21.636119 -30.739555 -20.604701 42.867185 -0.957489 2.072208 0.032362 -0.005338 -250159.000000 0 0 1
20.148019 -30.656255 -20.959201 42.249695 -0.989360 2.089874 0.029334 0.002635 -305592.000000 0 0 1
20.108919 -30.574255 -22.368701 42.889538 -0.989022 2.119454 0.010793 0.006980 474441.000000 0 0 1
18.808019 -30.203355 -22.805401 42.261928 -1.013843 2.140783 0.018173 0.007044 -63515.400000 0 0 1
18.612119 -30.331055 -24.315001 43.099920 -1.020413 2.170205 0.022346 0.010935 -110681.000000 0 0 1
19.434119 -29.421855 -25.042501 43.248785 -0.987052 2.188339 0.022599 0.012244 534494.000000 0 0 1
19.368619 -29.710255 -26.437171 44.235355 -0.993075 2.211361 0.018501 0.005514 -207050.000000 0 0 1
19.967519 -28.452655 -27.199561 44.136963 -0.958876 2.234773 0.005728 0.001943 211554.000000 0 0 1
19.181019 -27.276855 -27.318571 43.107338 -0.957928 2.257167 0.025114 -0.009129 237044.000000 0 0 1
18.027119 -27.463455 -28.155541 43.266071 -0.989932 2.279373 0.031630 -0.010263 137558.000000 0 0 1
17.298519 -26.136955 -28.321081 42.242902 -0.986142 2.305590 0.032190 -0.008574 -564847.000000 0 0 1
16.579919 -25.772855 -27.181881 40.963257 -0.999139 2.296374 0.030270 -0.001095 -414920.000000 0 0 1
16.114919 -24.471955 -27.307081 40.053013 -0.988465 2.320980 0.014142 0.004233 -386056.000000 0 0 1
15.001919 -24.044755 -26.346821 38.695772 -1.012977 2.319747 0.017835 -0.001135 119915.000000 0 0 1
13.820619 -24.831755 -26.561481 38.899072 -1.062923 2.322427 0.042412 -0.007277 247333.000000 0 0 1
12.682019 -24.501355 -25.766021 37.749673 -1.093164 2.322042 0.041190 -0.008656 457660.000000 0 0 1
12.738719 -24.629455 -24.197101 36.801966 -1.093472 2.288285 0.021148 0.003862 -775850.000000 0 0 1
13.663619 -23.774555 -23.600301 36.178697 -1.049175 2.281445 -0.001743 0.002861 -608910.000000 0 0 1
13.796219 -24.064855 -22.218701 35.540450 -1.050246 2.246141 0.006386 0.003808 -97913.900000 0 0 1
14.968419 -23.395055 -21.509201 35.128733 -1.001617 2.229758 0.002339 0.002856 -207868.000000 0 0 1
14.821019 -22.018855 -21.277701 34.018129 -0.978349 2.246544 0.002504 0.002877 -337811.000000 0 0 1
16.062919 -21.459355 -20.959801 34.026968 -0.928238 2.234421 0.014249 -0.002104 -574717.000000 0 0 1
15.930619 -20.049055 -20.454801 32.774199 -0.899368 2.244792 0.019756 0.002893 477141.000000 0 0 1
15.213419 -19.953255 -19.184601 31.585272 -0.919373 2.223568 0.021190 -0.003212 353811.000000 0 0 1
13.830319 -19.737155 -19.371001 30.920360 -0.959584 2.247826 0.022348 -0.005215 -495428.000000 0 0 1
13.036619 -19.980055 -18.099401 29.945690 -0.992679 2.219818 0.027208 -0.003413 -324912.000000 0 0 1
13.160319 -18.944155 -17.156001 28.747232 -0.963643 2.210288 0.042108 -0.000639 82168.200000 0 0 1
12.608619 -19.295255 -15.923801 28.015202 -0.991995 2.175354 0.042518 0.001097 -208990.000000 0 0 1
12.591919 -18.040955 -15.064001 26.663769 -0.961439 2.171183 0.040604 -0.001978 -204206.000000 0 0 1
11.523919 -17.170455 -15.355701 25.756995 -0.979698 2.209526 0.025369 -0.002558 152812.000000 0 0 1
11.858119 -15.930355 -14.822501 24.780995 -0.930907 2.211974 0.022670 -0.003573 329537.000000 0 1 0
10.583319 -15.067455 -14.621301 23.512067 -0.958464 2.241917 0.025698 -0.001786 16790.900000 0 1 0
9.906519 -14.644455 -15.789501 23.704589 -0.976038 2.299757 0.032106 0.013864 534876.000000 0 1 0
8.785519 -13.865255 -15.338301 22.465398 -1.006011 2.322319 0.023849 0.005437 570303.000000 0 1 0
7.967119 -12.991555 -16.335601 22.340710 -1.020688 2.390881 0.015225 0.003138 -29649.600000 0 1 0
8.593919 -11.843255 -16.863201 22.326793 -0.943070 2.426893 0.020923 0.013055 575330.000000 0 1 0
9.649119 -12.170155 -17.792401 23.617530 -0.900430 2.423946 0.033248 0.014544 427234.000000 0 1 0
9.979619 -11.114455 -18.882901 24.076708 -0.839145 2.472332 0.042044 0.014286 -271501.000000 0 1 0
9.027419 -10.937855 -19.897301 24.434270 -0.880796 2.522352 0.033532 0.013258 -52342.600000 0 1 0
9.163819 -9.718555 -20.650701 24.594254 -0.814768 2.567445 0.029550 0.001108 -2626.300000 0 1 0
8.689119 -9.933355 -22.070801 25.715610 -0.852113 2.602675 0.029945 -0.000822 159208.000000 0 0 1
9.692319 -10.555255 -22.846301 26.968647 -0.827992 2.581382 0.025445 -0.004382 -132523.000000 0 0 1
9.330819 -10.456355 -24.177801 27.945762 -0.842219 2.616283 0.031653 -0.005121 348259.000000 0 0 1
10.493419 -11.094555 -24.987301 29.284231 -0.813237 2.593017 0.052733 -0.010626 182442.000000 0 0 1
10.513119 -12.476655 -24.720701 29.619346 -0.870600 2.558227 0.039917 -0.010828 -220288.000000 0 0 1
11.571119 -13.133055 -25.373301 30.824865 -0.848540 2.537722 0.045368 -0.014919 9675.240000 0 0 1
11.477019 -14.644555 -25.132631 31.270339 -0.906070 2.504319 0.029956 -0.009107 -143461.000000 0 0 1
10.419919 -15.228155 -25.840631 31.752317 -0.970717 2.521490 0.023565 -0.008941 -371163.000000 0 0 1
10.117719 -16.506155 -25.320211 31.873727 -1.020897 2.488801 0.019984 -0.011463 49850.800000 0 0 1
8.977319 -17.188455 -26.078921 32.498390 -1.089478 2.502216 0.031741 -0.009029 35674.600000 0 0 1
9.431719 -18.201955 -26.934821 33.848974 -1.092718 2.491017 0.023054 -0.015573 211519.000000 0 0 1
8.313719 -18.812355 -27.567891 34.394930 -1.154675 2.500613 0.029768 -0.011866 -129735.000000 0 0 1
8.687019 -19.671755 -28.756241 35.907710 -1.154951 2.499489 0.028000 -0.012608 -478029.000000 0 0 1
9.278419 -20.888855 -28.325621 36.397447 -1.152793 2.462640 0.025683 -0.014608 119889.000000 0 0 1
9.655119 -21.749655 -29.409271 37.830861 -1.153010 2.461300 0.038013 -0.014222 156405.000000 0 0 1
10.105719 -23.170455 -28.971181 38.448990 -1.159522 2.424161 0.034585 -0.008927 20192.300000 0 0 1
9.920819 -24.153555 -29.981421 39.758049 -1.181066 2.425074 0.041674 -0.007235 60502.300000 0 0 1
10.576519 -25.428755 -29.889701 40.643309 -1.176635 2.397075 0.047963 -0.006438 347262.000000 0 0 1
10.006819 -26.413855 -28.778451 40.324030 -1.208657 2.365534 0.042132 -0.008636 309849.000000 0 0 1
10.314619 -26.109855 -27.449841 39.263337 -1.194567 2.344964 0.043092 -0.004751 -974661.000000 0 0 1
9.327819 -26.558355 -26.590591 38.722267 -1.233035 2.327736 0.032176 0.002638 -222209.000000 0 0 1
8.547519 -25.386055 -25.986521 37.320385 -1.246018 2.341038 0.023911 0.007064 102352.000000 0 0 1
9.416919 -24.512955 -25.277831 36.449034 -1.204018 2.337148 0.020440 0.005346 340574.000000 0 0 1
8.683219 -23.305755 -24.949601 35.228385 -1.214150 2.357776 0.004151 0.007147 553962.000000 0 0 1
9.602619 -22.057655 -25.061801 34.739665 -1.160199 2.376643 0.018333 0.003283 347157.000000 0 0 1
10.388819 -22.010955 -23.861601 34.084978 -1.129812 2.346281 0.017009 0.007786 191959.000000 0 0 1
11.224819 -20.830655 -23.920501 33.646740 -1.076546 2.361617 0.025225 -0.002546 41525.200000 0 0 1
11.875619 -20.540855 -22.565001 32.743493 -1.046601 2.331104 0.015929 0.001089 417593.000000 0 0 1
10.949919 -20.072955 -21.541201 31.414130 -1.071410 2.326385 0.003800 0.008427 459180.000000 0 0 1
10.472719 -18.728655 -21.671801 30.497661 -1.060931 2.361155 0.017217 0.001961 -321888.000000 0 0 1
11.508319 -17.618555 -21.580501 30.142543 -0.992180 2.368778 0.020073 0.000095 143974.000000 0 0 1
12.450519 -17.590755 -22.637001 31.255142 -0.954863 2.380764 0.021021 0.001758 191252.000000 0 0 1
13.519519 -16.673355 -22.524301 31.114664 -0.889477 2.380253 0.029985 0.005216 1006980.000000 0 0 1
14.748119 -16.785355 -23.495501 32.423660 -0.849914 2.381309 0.024264 0.000869 1279710.000000 0 0 1
15.887819 -17.539355 -23.040201 33.028815 -0.834765 2.342809 0.022892 0.002730 631225.000000 0 0 1
17.022819 -17.243355 -23.818001 33.976563 -0.791834 2.347613 0.020491 -0.003804 432461.000000 0 0 1
18.358619 -17.476855 -23.032201 34.248527 -0.760797 2.308381 0.011765 0.003963 352999.000000 0 0 1
18.631919 -18.853155 -22.736501 34.921889 -0.791300 2.279786 0.004207 0.010106 1148540.000000 0 0 1
19.941319 -18.965755 -22.116801 35.305934 -0.760329 2.247765 -0.000421 0.006023 1106320.000000 0 0 1
20.210819 -20.405755 -21.679001 35.984040 -0.790198 2.217378 0.011707 0.000799 -91584.200000 0 0 1
19.502219 -20.889655 -20.543201 35.195700 -0.819734 2.194056 0.007495 -0.000017 278073.000000 0 0 1
19.974719 -22.163355 -20.156101 36.006556 -0.837291 2.164928 0.021325 0.017791 -255748.000000 0 0 1
-15.596792 13.741415 29.714582 36.263519 -0.722241 0.610421 0.013628 -0.002861 25006.600000 0 0 1
-16.884192 13.889315 29.165142 36.449891 -0.688384 0.643262 0.031548 -0.013450 -217140.000000 0 0 1
-16.888892 13.569515 27.790732 35.237639 -0.676846 0.662160 0.030969 -0.018855 -24316.100000 0 0 1
-18.170092 14.073415 27.115152 35.544968 -0.659021 0.703101 0.046927 -0.016481 -61846.500000 0 0 1
-18.319992 15.469315 27.158812 36.228758 -0.701231 0.723266 0.051427 -0.015821 -79930.600000 0 0 1
-19.476392 15.896615 26.469472 36.505687 -0.684541 0.759649 0.054796 -0.022761 -350078.000000 0 0 1
-19.561692 17.460415 26.555742 37.319343 -0.728702 0.779050 0.065148 -0.018089 570737.000000 0 0 1
-18.601292 18.339615 25.912962 36.794445 -0.778315 0.789412 0.054888 -0.006419 1205890.000000 0 0 1
-17.334992 18.389315 26.606592 36.695771 -0.814902 0.759677 0.033350 0.003888 665483.000000 0 0 1
-16.197492 19.201315 25.962582 36.126236 -0.870052 0.768919 0.027668 -0.000066 10936.300000 0 0 1
-16.397492 20.599315 25.972082 36.983220 -0.898486 0.792220 0.037701 0.000233 -135044.000000 0 0 1
-15.201592 21.264715 25.613202 36.596621 -0.950157 0.795568 0.044764 -0.005798 195229.000000 0 0 1
-15.338492 22.795315 25.396252 37.414775 -0.978505 0.824702 0.031835 0.000769 36281.700000 0 0 1
-15.210292 23.539115 26.604412 38.642434 -0.997118 0.811410 0.022261 0.007099 -38562.500000 0 0 1
-15.254392 24.947815 26.304522 39.332148 -1.021999 0.838231 0.014727 0.001658 -178936.000000 0 0 1
-14.959592 25.864215 27.445272 40.570802 -1.046418 0.827826 0.005056 0.008992 167590.000000 0 0 1
-13.570892 25.949615 27.725732 40.327012 -1.088941 0.812724 0.003800 0.003983 9392.300000 0 0 1
-13.236992 26.887515 28.758532 41.535643 -1.113320 0.806011 0.006390 0.007783 -723953.000000 0 0 1
-11.751292 26.858715 29.060422 41.279433 -1.158367 0.789792 0.013157 0.006249 -635717.000000 0 0 1
-11.112492 27.280015 27.880942 40.559014 -1.183971 0.812870 0.013707 0.008562 -1368170.000000 0 0 1
-9.735292 27.296615 28.051082 40.332919 -1.228211 0.801697 0.004438 0.007900 -1170970.000000 0 0 1
-9.099992 27.823915 26.837832 39.714599 -1.254706 0.828791 0.002376 0.003252 -307913.000000 0 0 1
-7.681992 27.789615 26.776842 39.348126 -1.301098 0.822336 0.010399 -0.002147 610058.000000 0 0 1
-7.171792 28.616915 25.701392 39.127024 -1.325240 0.854135 0.004249 -0.001403 431482.000000 0 0 1
-5.625392 28.506515 25.560632 38.698997 -1.375963 0.849314 -0.003903 0.002948 227480.000000 0 0 1
-4.811292 29.292115 26.422352 39.740625 -1.407998 0.843476 0.005502 -0.001006 533287.000000 0 0 1
-3.447392 28.887715 26.317702 39.230168 -1.452020 0.835437 -0.002691 -0.000302 268573.000000 0 0 1
-2.575992 29.742815 25.433422 39.218997 -1.484403 0.865187 -0.008854 0.006235 -814862.000000 0 0 1
-2.853292 29.582315 24.016582 38.210612 -1.474641 0.891132 -0.017121 0.016054 -147005.000000 0 0 1
-2.555892 30.706515 23.194082 38.566671 -1.487752 0.925541 -0.017372 0.014385 -228917.000000 0 0 1
-3.079792 30.648215 21.726582 37.694066 -1.470644 0.956489 -0.023484 0.023792 75513.800000 0 0 1
-4.434092 30.415915 21.439282 37.475751 -1.426034 0.961752 -0.024393 0.024432 -344504.000000 0 0 1
-4.842492 29.023115 21.563282 36.479667 -1.405470 0.938369 -0.015443 0.024414 32876.300000 0 0 1
-6.268692 28.758815 21.021182 36.169822 -1.356179 0.950618 -0.021522 0.022652 -297050.000000 0 0 1
-6.433292 28.948415 19.666582 35.583317 -1.352117 0.985206 -0.023969 0.022759 88430.400000 0 0 1
-7.288892 28.089315 18.923482 34.644419 -1.316906 0.992951 -0.026870 0.023681 -848935.000000 0 0 1
-6.695792 26.763515 18.439282 33.183226 -1.325645 0.981615 -0.038515 0.020219 89064.600000 0 0 1
-5.778192 26.760515 17.361882 32.418322 -1.358139 1.005628 -0.032033 0.021372 -811692.000000 0 0 1
-4.494192 27.124615 17.693682 32.695702 -1.406601 0.998978 -0.028483 0.028719 -1326150.000000 0 0 1
-3.495292 27.211915 16.518182 32.024299 -1.443049 1.028853 -0.015118 0.024047 -70564.300000 0 0 1
-3.112792 25.951315 16.066382 30.680431 -1.451419 1.019645 -0.007844 0.016426 -180014.000000 0 0 1
-2.554592 25.921315 14.781782 29.948983 -1.472562 1.054612 -0.005647 0.007044 -637865.000000 0 0 1
-2.093592 24.558615 14.288982 28.490064 -1.485753 1.045415 -0.008969 -0.000023 -460748.000000 0 0 1
-0.881892 24.326515 14.941382 28.562247 -1.534560 1.020293 -0.003807 -0.000255 -545928.000000 0 0 1
-0.153192 23.314015 14.308382 27.355010 -1.564226 1.020356 -0.004785 -0.013159 -450171.000000 0 0 1
1.130608 22.846915 15.004282 27.356687 1.521350 0.990265 -0.009456 -0.007313 40476.400000 0 0 1
2.098108 23.877215 15.136582 28.348538 1.483151 1.007536 -0.004067 -0.011089 -156098.000000 0 0 1
3.211008 23.428215 15.855882 28.471053 1.434588 0.980133 -0.007191 -0.004134 -240404.000000 0 0 1
4.443908 24.338415 15.765282 29.336852 1.390198 1.003459 0.007971 0.000668 500488.000000 0 0 1
5.679608 23.646315 15.949982 29.082780 1.335072 0.990306 0.007856 0.002346 199075.000000 0 0 1
6.772708 24.527815 15.938882 30.025510 1.301386 1.011199 0.011812 0.000938 -906715.000000 0 0 1
8.162608 23.915415 15.919382 29.866402 1.241883 1.008631 0.013237 0.007040 -623707.000000 0 0 1
8.587608 23.379015 14.659282 28.900172 1.218775 1.038819 0.013735 0.005080 -141672.000000 0 0 1
9.197808 24.395515 13.887082 29.539666 1.210248 1.081374 0.013695 0.003900 -662883.000000 0 0 1
9.845608 23.942715 12.604482 28.793447 1.180659 1.117696 0.020300 0.008904 -582688.000000 0 0 1
10.948408 23.122715 12.861782 28.634822 1.128580 1.104965 0.021865 0.005800 -536209.000000 0 0 1
11.450008 22.553915 11.694882 27.866684 1.101029 1.137712 0.032365 0.012939 1170830.000000 0 0 1
12.662608 21.541415 11.999282 27.719253 1.039376 1.123104 0.006210 0.009783 1388630.000000 0 0 1
12.193708 20.334515 12.581982 26.841857 1.030630 1.082927 0.010822 0.012279 24691.200000 0 0 1
13.304508 19.509515 12.863982 26.890764 0.972288 1.071988 0.014567 0.010363 -15515.100000 0 0 1
13.721908 19.453115 14.353082 27.797939 0.956466 1.028229 0.015018 0.006985 -281063.000000 0 0 1
14.766208 18.520715 14.481682 27.762870 0.897716 1.022047 0.010981 0.015394 -91763.900000 0 0 1
14.879508 18.124715 15.835882 28.296294 0.883410 0.976839 0.003257 0.009695 -381568.000000 0 0 1
16.043208 17.160815 15.943482 28.391420 0.819044 0.974527 -0.002259 0.007702 -508962.000000 0 0 1
16.430208 16.820515 17.242482 29.157926 0.797136 0.938067 0.018425 0.004012 203972.000000 0 0 1
17.601608 16.029015 17.308482 29.433476 0.738671 0.942145 0.011734 0.004499 402320.000000 0 0 1
18.143408 15.676915 18.763282 30.446834 0.712598 0.906807 0.021359 0.000098 315948.000000 0 0 1
18.760008 16.645115 19.608782 31.835548 0.725735 0.907218 0.015157 0.005423 640684.000000 0 0 1
17.812608 17.561215 20.136982 32.112044 0.778292 0.892991 0.012033 0.006220 11545.600000 0 0 1
18.460008 18.531015 21.148182 33.636528 0.787318 0.890882 0.006936 0.003563 188745.000000 0 0 1
17.581708 19.586215 21.561782 34.024208 0.839277 0.884445 0.015489 0.006323 129088.000000 0 0 1
18.249208 20.554415 22.321682 35.408687 0.844735 0.888726 0.013555 0.005345 -61797.200000 0 0 1
17.381908 21.785615 22.733482 35.966025 0.897361 0.886559 0.025486 0.003075 25676.000000 0 0 1
16.468908 21.520915 23.738982 36.026574 0.917606 0.851401 0.013651 -0.000817 -170961.000000 0 0 1
15.711208 22.656515 24.199972 36.685125 0.964478 0.850421 0.024298 -0.018176 630968.000000 0 0 1
14.962908 22.340715 25.548992 37.091066 0.980656 0.810939 0.030071 -0.014574 238658.000000 0 0 1
13.983008 21.349315 25.322912 35.952297 0.990940 0.789293 0.021332 -0.008246 -291294.000000 0 0 1
13.270708 21.067715 26.513772 36.372248 1.008676 0.754001 0.023416 -0.006599 -338734.000000 0 0 1
12.368508 19.849015 26.534832 35.370337 1.013543 0.722432 0.034949 -0.006872 -286367.000000 0 0 1
13.002408 18.599815 26.482212 34.875827 0.960701 0.708516 0.022837 -0.005210 -340388.000000 0 0 1
13.637708 18.108515 25.310782 33.978539 0.925308 0.730404 0.026947 -0.010408 -214126.000000 0 0 1
12.736308 17.934115 24.042282 32.586460 0.953276 0.740991 0.043372 -0.008901 -415477.000000 0 0 1
12.565608 19.058915 23.201782 32.549339 0.987909 0.777287 0.048717 -0.009201 -116093.000000 0 0 1
13.624608 19.489715 22.356882 32.639074 0.960697 0.816230 0.035885 -0.006406 256805.000000 0 0 1
14.250408 18.454615 21.402682 31.649988 0.913246 0.828163 0.025247 -0.001989 -461631.000000 0 0 1
13.278708 17.978115 20.500582 30.328379 0.934629 0.828538 0.030210 0.000682 10516.300000 0 0 1
13.792408 17.112315 19.511982 29.390123 0.892412 0.844780 0.028079 -0.002617 -251702.000000 0 0 1
12.628808 16.491715 18.739582 27.975622 0.917281 0.836784 0.012850 0.003652 -290036.000000 0 0 1
12.038408 17.320315 17.773482 27.582844 0.963403 0.870601 0.010786 0.004980 228183.000000 0 0 1
11.065008 16.497115 17.101282 26.211507 0.979990 0.860004 -0.003631 0.006378 303356.000000 0 0 1
10.710508 16.948215 15.654082 25.436338 1.007211 0.907875 -0.001045 0.009379 95663.600000 0 0 1
10.121008 18.228815 15.643982 26.066429 1.063954 0.927097 -0.004693 0.001874 892.248000 0 0 1
9.965608 18.607815 14.306582 25.499852 1.079107 0.975148 -0.004806 0.004849 -603670.000000 0 0 1
8.945408 19.731715 14.126282 25.863348 1.145159 0.992988 0.004210 0.002325 -631493.000000 0 0 1
7.722008 19.398615 14.699582 25.534553 1.191955 0.957368 -0.003544 -0.000123 -717887.000000 0 0 1
6.887108 20.540915 14.841082 26.260601 1.247288 0.970186 -0.009167 -0.000157 98038.100000 0 0 1
5.639908 20.261315 15.686482 26.237286 1.299310 0.929955 -0.005694 -0.000299 -655488.000000 0 0 1
4.632508 19.595015 15.016982 25.118410 1.338646 0.929983 0.004547 -0.004346 -871223.000000 0 0 1
3.427608 19.595215 15.754582 25.375733 1.397628 0.900967 -0.004650 -0.000444 137477.000000 0 0 1
2.324408 18.849715 14.983682 24.191432 1.448103 0.902844 -0.015884 -0.006314 26548.800000 0 1 0
1.623708 19.604415 13.984582 24.135825 1.488161 0.952789 -0.009070 -0.016313 335072.000000 0 1 0
0.832708 18.775715 13.110982 22.915469 1.526475 0.961677 -0.008454 -0.027902 124397.000000 0 1 0
-0.193192 19.646115 12.322582 23.191662 -1.560963 1.010619 0.006602 -0.030872 -358075.000000 0 1 0
-1.242092 20.212915 13.046182 24.089575 -1.509423 0.998493 0.008228 -0.024874 -765758.000000 0 1 0
-2.307592 20.293215 12.134282 23.756691 -1.457570 1.034712 0.008830 -0.037959 -87798.200000 0 1 0
-3.486792 21.149615 12.659382 24.894254 -1.407403 1.037324 0.007819 -0.019655 351021.000000 0 1 0
-4.213592 20.577915 13.754682 25.107693 -1.368825 0.991031 0.009590 -0.022110 -76894.500000 0 0 1
-5.256892 21.418115 14.142882 26.199078 -1.330113 1.000569 0.005889 -0.010792 -734792.000000 0 0 1
-6.120792 20.966715 15.294582 26.664424 -1.286760 0.959908 0.007847 -0.011713 -402550.000000 0 0 1
-7.049892 19.898515 15.016082 25.906266 -1.230303 0.952520 0.013549 -0.011687 792548.000000 0 0 1
-7.817392 19.354715 16.099682 26.361267 -1.186931 0.913811 0.006294 0.002746 659700.000000 0 0 1
-8.895692 20.323515 16.811482 27.835311 -1.158214 0.922333 0.002703 0.009664 944801.000000 0 0 1
-10.062992 20.545915 16.024482 27.931747 -1.115358 0.959779 -0.003646 0.000666 412376.000000 0 0 1
-11.064692 19.592715 16.354082 27.816504 -1.056711 0.942302 -0.006724 0.003754 -572447.000000 0 0 1
-12.314392 19.556115 15.491482 27.822148 -1.008828 0.980263 -0.000070 -0.000965 -180029.000000 0 0 1
-13.214692 20.664215 15.570182 29.052856 -1.001840 1.005192 -0.013457 0.008440 523622.000000 0 0 1
-14.012392 20.714115 14.384982 28.850466 -0.976040 1.048808 -0.006313 -0.010547 -185649.000000 0 0 1
-14.926292 21.939915 14.319982 30.153208 -0.973397 1.075937 -0.008244 -0.011346 -820453.000000 0 0 1
-15.942692 21.905415 15.239182 31.084551 -0.941657 1.058420 -0.008192 -0.013471 -1372240.000000 0 0 1
-16.923592 22.826415 15.001382 32.132455 -0.932820 1.085059 0.009886 -0.016000 -1694690.000000 0 0 1
-18.191692 22.640715 15.763282 33.045736 -0.893928 1.073542 0.038973 -0.021079 -2543360.000000 0 0 1
-18.999192 21.533015 15.280682 32.529053 -0.847831 1.081783 0.047452 -0.022535 763638.000000 0 0 1
-20.200492 21.437315 16.058582 33.548419 -0.815094 1.071658 0.047703 -0.016913 923163.000000 0 0 1
-21.152092 22.690815 16.013782 34.910246 -0.820480 1.094250 0.040295 -0.018823 -1750380.000000 0 0 1
-21.963992 22.756015 14.861382 34.944439 -0.803107 1.131518 0.043976 -0.016629 355835.000000 0 0 1
-22.738192 23.961415 14.757582 36.179566 -0.811586 1.150645 0.044754 -0.024076 -56207.100000 0 0 1
-22.063092 25.225815 14.152482 36.378765 -0.852180 1.171216 0.038207 -0.021407 -254060.000000 0 0 1
-20.807492 25.474915 14.742282 36.045220 -0.885905 1.149445 0.037436 -0.028482 -126462.000000 0 0 1
-20.248992 26.636515 14.151082 36.328759 -0.920801 1.170677 0.016526 -0.016282 -438606.000000 0 0 1
-18.750692 26.804015 14.412582 35.745856 -0.960374 1.155790 0.010096 -0.014078 -183497.000000 0 0 1
-17.948592 26.028515 13.538082 34.393535 -0.967102 1.166227 0.013911 -0.008822 -148635.000000 0 0 1
-16.602192 26.425715 13.590182 34.038864 -1.009857 1.160092 -0.012657 0.001679 -250357.000000 0 0 1
-15.581792 25.723015 12.690482 32.642213 -1.026157 1.171495 -0.001121 -0.003857 -537182.000000 0 0 1
-14.331092 26.316315 12.727482 32.556373 -1.072131 1.169147 -0.009056 0.007231 -480619.000000 0 0 1
-13.470992 25.915115 11.664482 31.450293 -1.091425 1.190833 -0.003640 -0.003365 -135313.000000 0 0 1
-12.059192 26.467415 11.830082 31.399029 -1.143275 1.184494 -0.011316 0.006180 -841161.000000 0 0 1
-10.993492 25.711315 11.285082 30.154298 -1.166747 1.187214 -0.016606 0.005172 1203370.000000 0 0 1
-9.671092 26.149015 11.641982 30.213189 -1.216552 1.175233 0.004234 0.002134 838495.000000 0 0 1
-9.188092 27.450115 10.980382 30.959629 -1.247799 1.208238 -0.006757 0.001798 -545337.000000 0 0 1
-8.235092 28.225515 11.718482 31.651529 -1.286916 1.191535 0.022060 -0.013332 410480.000000 0 0 1
-7.839092 29.374315 11.013682 32.335784 -1.310005 1.223238 0.022584 -0.009477 38383.800000 0 0 1
-6.608092 30.093015 11.666182 32.944745 -1.354638 1.208830 0.017280 -0.010621 597450.000000 0 0 1
-5.489592 29.242215 11.452882 31.881206 -1.385228 1.203347 0.025451 -0.014043 633182.000000 0 0 1
-4.257892 29.698615 12.051682 32.332343 -1.428397 1.188832 0.013414 -0.011021 595257.000000 0 0 1
-3.043892 29.316415 11.197082 31.529227 -1.467338 1.207740 0.022305 -0.015177 -446901.000000 0 0 1
-2.953092 30.016515 9.992482 31.773600 -1.472730 1.250877 0.038129 -0.021394 714712.000000 0 0 1
-1.708792 29.650015 9.384782 31.146709 -1.513228 1.264731 0.034336 -0.021972 617647.000000 0 0 1
-1.489692 30.421515 8.074482 31.510078 -1.521867 1.311655 0.031328 -0.023924 -123476.000000 0 0 1
-2.378592 30.080015 7.035782 30.983338 -1.491885 1.341715 0.035487 -0.024358 128337.000000 0 0 1
-2.464292 31.008315 5.970082 31.673810 -1.491491 1.381176 0.032938 -0.020208 -25161.100000 0 0 1
9.809808 -34.431455 -26.978501 44.828528 -1.293242 2.216569 0.096541 -0.017665 244882.000000 0 0 1
10.744208 -34.458355 -25.901971 44.426662 -1.268547 2.193247 0.063384 -0.011846 1190760.000000 0 0 1
11.931308 -33.651555 -26.143551 44.252328 -1.230070 2.202826 0.060543 -0.002912 1121140.000000 0 0 1
12.726908 -33.532555 -24.794401 43.602394 -1.208052 2.175657 0.041049 0.017356 -432792.000000 0 0 1
12.116208 -32.665355 -23.864901 42.229864 -1.215608 2.171374 0.031193 0.018771 26756.700000 0 0 1
12.450208 -32.808755 -22.477801 41.673416 -1.208105 2.140497 0.010314 0.019466 770879.000000 0 0 1
13.963408 -32.537455 -22.088901 41.732269 -1.165417 2.128572 -0.002915 0.020161 1376250.000000 0 0 1
14.914408 -33.457855 -22.640401 43.063388 -1.151468 2.124388 0.018393 0.020919 1178510.000000 0 0 1
16.244508 -33.151255 -22.163701 43.059486 -1.115171 2.111481 0.015705 0.010180 795324.000000 0 0 1
17.346008 -34.146255 -22.533801 44.436729 -1.100776 2.102611 0.005492 0.018337 -498218.000000 0 0 1
18.571108 -33.866355 -21.921101 44.411155 -1.069210 2.087014 0.001997 0.021567 293142.000000 0 0 1
19.524508 34.353115 -22.115501 45.281766 1.053976 2.081049 -0.006142 0.029699 461856.000000 0 0 1
20.991508 34.628915 -21.711201 45.947595 1.025842 2.062945 -0.005890 0.027566 343472.000000 0 0 1
21.750708 -34.034055 -22.767701 46.365703 -1.002131 2.084087 -0.012995 0.022219 -805653.000000 0 0 1
23.099508 -34.147655 -22.518301 46.975775 -0.976045 2.070721 -0.020324 0.024479 -565601.000000 0 0 1
24.090108 -33.702455 -23.637301 47.696025 -0.950214 2.089301 -0.003829 0.009253 439682.000000 0 0 1
24.229208 -32.297955 -23.852901 46.895344 -0.927181 2.104402 0.005156 0.000352 384249.000000 0 0 1
23.075208 -31.868355 -24.587501 46.396147 -0.944092 2.129334 -0.002499 0.008855 635792.000000 0 0 1
22.849208 -30.359455 -24.490401 45.205780 -0.925619 2.143319 0.010618 -0.009299 115806.000000 0 0 1
23.720408 -29.563455 -25.287251 45.564248 -0.894621 2.159135 0.025503 -0.016170 -78046.000000 0 0 1
23.603408 -28.210855 -25.031501 44.492126 -0.874087 2.168330 0.019130 -0.006719 154288.000000 0 0 1
24.306308 -27.353755 -26.081431 44.936239 -0.844320 2.190028 0.010063 0.003009 648430.000000 0 0 1
23.539808 -27.279055 -27.332181 45.225187 -0.858846 2.219756 0.007074 -0.000207 463930.000000 0 0 1
24.279408 -26.532255 -28.288001 45.756543 -0.829706 2.237283 0.005603 0.002353 321.216000 0 0 1
23.368908 -26.151455 -29.518151 45.840219 -0.841529 2.270428 -0.001441 -0.000074 657321.000000 0 0 1
22.597308 -24.974455 -29.372221 44.688803 -0.835326 2.287975 0.012701 -0.002832 387326.000000 0 0 1
21.421008 -25.116755 -28.568721 43.656417 -0.864646 2.284184 0.001543 0.002771 -66408.300000 0 0 1
20.736908 -23.854955 -28.055561 42.263373 -0.855209 2.296720 0.002953 0.009837 67660.100000 0 0 1
20.175608 -23.098355 -29.120501 42.291757 -0.852836 2.330301 0.013233 0.006324 150975.000000 0 0 1
19.592308 -21.875855 -28.700501 41.062517 -0.840410 2.344720 0.010847 0.015844 -572633.000000 0 0 1
18.601808 -21.289455 -29.691571 40.998263 -0.852671 2.380692 0.014438 0.010248 -565713.000000 0 0 1
17.430708 -22.072155 -29.666471 40.879201 -0.902358 2.382863 0.011976 0.007845 -269078.000000 0 0 1
16.390508 -21.342255 -30.312541 40.533822 -0.915885 2.415589 0.004667 0.005610 67596.100000 0 0 1
15.072308 -22.138755 -30.145311 40.324170 -0.973065 2.415199 0.013587 0.003926 -299566.000000 0 0 1
15.162008 -23.336855 -30.959001 41.628776 -0.994630 2.409373 0.014904 0.005201 -11140.400000 0 0 1
14.427608 -24.446555 -30.525811 41.684710 -1.037637 2.392493 0.025442 0.003265 -171141.000000 0 0 1
14.678708 -25.657855 -31.451191 43.162106 -1.051149 2.387183 0.036451 -0.000600 73739.600000 0 0 1
14.005508 -26.773455 -30.941941 43.247842 -1.088831 2.368073 0.052108 -0.007631 15405.400000 0 0 1
14.544508 -28.019855 -31.402591 44.528392 -1.092003 2.353539 0.050984 -0.009192 556912.000000 0 0 1
13.911408 -29.240555 -30.597241 44.550292 -1.126730 2.327877 0.062514 -0.011407 343365.000000 0 0 1
14.276608 -29.253655 -29.223201 43.744638 -1.116772 2.302369 0.082325 -0.019074 58754.600000 0 0 1
13.598108 -28.324755 -28.401831 42.354035 -1.123212 2.305789 0.072609 -0.012331 -104660.000000 0 0 1
14.369508 -28.198655 -27.075061 41.649800 -1.099513 2.278466 0.057135 -0.008946 -82304.000000 0 0 1
14.312908 -29.328255 -26.211831 41.857687 -1.116775 2.247483 0.052272 -0.008967 150900.000000 0 0 1
15.018908 -29.197355 -24.976401 41.253772 -1.095701 2.221106 0.052590 -0.006584 -571974.000000 0 0 1
14.397508 -28.138555 -23.973501 39.671088 -1.097860 2.219692 0.025651 0.000466 137130.000000 0 0 1
13.257308 -28.506255 -23.258401 39.106470 -1.135484 2.207745 0.024484 0.003208 -27745.000000 0 0 1
12.062008 -28.529155 -24.042801 39.210470 -1.170794 2.230867 0.021437 0.011648 -281590.000000 0 0 1
10.805808 -28.200955 -23.206601 38.086817 -1.204881 2.225984 -0.002546 0.015087 -65339.500000 0 0 1
10.816208 -26.896255 -22.750101 36.850590 -1.188442 2.236179 -0.010297 0.015485 -291189.000000 0 0 1
9.676408 -26.602055 -21.995101 35.848105 -1.221928 2.231362 -0.004510 0.017147 -429158.000000 0 0 1
9.469008 -25.070255 -21.836001 34.568638 -1.209662 2.254503 -0.000936 0.011348 151619.000000 0 0 1
10.265608 -24.530155 -20.798501 33.759278 -1.174453 2.234556 -0.009496 0.009164 163096.000000 0 0 1
9.800408 -23.258155 -20.565501 32.556560 -1.172000 2.254522 -0.007803 0.005571 -419826.000000 0 0 1
10.302408 -22.605455 -19.242201 31.423057 -1.143172 2.229838 -0.008264 0.006832 -68706.000000 0 0 1
9.603008 -22.950055 -18.054301 30.738910 -1.174503 2.198569 -0.003830 -0.000122 65077.800000 0 0 1
9.986808 -22.230255 -16.912201 29.663835 -1.148571 2.177459 -0.001287 -0.002506 -466816.000000 0 0 1
9.130408 -22.498155 -15.671201 28.898406 -1.185275 2.143952 -0.004004 -0.000952 -126351.000000 0 0 1
9.311408 -23.806055 -15.261401 29.771478 -1.197954 2.109028 -0.009621 -0.001963 247172.000000 0 0 1
8.778508 -24.001555 -13.966201 29.123729 -1.220162 2.070935 -0.009876 -0.000383 -189835.000000 0 0 1
8.802208 -25.492055 -13.442801 30.133580 -1.238322 2.033207 -0.008849 0.007560 -237808.000000 0 0 1
10.052308 -26.049155 -13.119101 30.849930 -1.202506 2.010040 -0.008572 0.002728 -409045.000000 0 0 1
10.055108 -27.440355 -13.322501 32.118021 -1.219556 1.998517 -0.013630 -0.006931 -854402.000000 0 0 1
11.243208 -28.276855 -12.850001 33.031996 -1.192351 1.970360 0.004074 -0.005859 3362.480000 0 0 1
12.528608 -28.069155 -13.411901 33.536883 -1.150984 1.982220 0.008170 0.000394 331912.000000 0 0 1
12.697908 -28.317055 -14.767901 34.368348 -1.149258 2.014951 0.010681 -0.004054 -78586.400000 0 0 1
14.085508 -27.776155 -15.283201 34.691390 -1.101479 2.027005 0.001367 0.000580 777965.000000 0 0 1
15.172808 -28.638455 -14.961601 35.696284 -1.083590 2.003290 0.029709 -0.003527 91842.800000 0 0 1
16.274008 -28.108355 -15.685901 36.068968 -1.045981 2.020708 0.038886 -0.009782 364939.000000 0 0 1
17.618108 -28.875155 -15.655601 37.272914 -1.022949 2.004271 0.037631 -0.013500 424524.000000 0 0 1
17.691008 -30.021855 -16.440101 38.529994 -1.038303 2.011619 0.031729 -0.007730 527705.000000 0 0 1
19.049108 -30.476555 -16.555701 39.569940 -1.012167 2.002469 0.043765 -0.010682 917662.000000 0 0 1
19.264208 -31.653855 -17.483101 40.972369 -1.024085 2.011642 0.027486 -0.010282 -164770.000000 0 0 1
18.948508 -32.936755 -17.091901 41.665440 -1.048737 1.993489 0.015353 0.005173 -169808.000000 0 0 1
19.662408 -33.874455 -17.843901 43.040606 -1.044876 1.998281 0.004750 0.007783 -4103.550000 0 0 1
19.292208 33.925715 -17.619601 42.820483 1.053740 1.994869 -0.012546 0.010472 -489366.000000 0 0 1
20.076308 33.469215 -16.553801 42.394279 1.030492 1.971941 0.001197 0.002335 40733.500000 0 0 1
19.897408 32.098715 -16.294601 41.130869 1.015886 1.978132 -0.007336 0.003988 -272998.000000 0 0 1
20.678908 31.617615 -15.050101 40.666895 0.991592 1.949894 0.001532 0.002002 -433566.000000 0 0 1
22.059908 31.602015 -15.329201 41.476636 0.961378 1.949360 0.004665 0.006365 106733.000000 0 0 1
22.913708 31.280115 -14.217701 41.299233 0.938568 1.922248 0.013109 0.008560 466941.000000 0 0 1
22.710408 29.886815 -13.482501 39.884360 0.921002 1.915630 0.013625 0.007230 -996580.000000 0 0 1
23.125708 28.752015 -14.206801 39.538715 0.893429 1.938329 0.014207 0.013095 -51816.700000 0 0 1
22.875108 27.480815 -13.627401 38.264499 0.876607 1.934927 0.004665 0.018364 848793.000000 0 0 1
21.364008 27.189815 -13.259001 37.033877 0.904814 1.936947 -0.011394 0.016937 1186300.000000 0 0 1
20.556508 26.989715 -14.471301 36.884052 0.919886 1.973977 -0.008987 0.013092 1394640.000000 0 0 1
19.130308 26.859615 -14.326401 35.953489 0.951907 1.980645 -0.010037 0.005311 856994.000000 0 0 1
18.315308 28.178515 -14.220601 36.492530 0.994439 1.971086 -0.000060 0.008235 -192046.000000 0 0 1
18.159108 28.879015 -15.428901 37.440643 1.009469 1.995543 -0.002934 0.005357 -148361.000000 0 0 1
17.414208 28.317315 -16.465101 37.097501 1.019444 2.030668 -0.012833 0.012124 -921015.000000 0 0 1
17.578208 29.167615 -17.781201 38.417630 1.028422 2.051992 -0.017243 0.018870 -162722.000000 0 0 1
16.933708 30.456215 -17.853201 39.154416 1.063357 2.044257 -0.016915 0.015607 47085.500000 0 0 1
17.259408 31.228615 -18.933201 40.392817 1.065898 2.058645 -0.020171 0.024925 -757624.000000 0 0 1
16.257408 32.281015 -19.358401 41.001402 1.104256 2.062513 -0.024775 0.027811 -448152.000000 0 0 1
16.336308 33.461315 -18.581301 41.614893 1.116621 2.033653 -0.021294 0.009300 -296659.000000 0 0 1
15.343508 34.352815 -18.979501 42.139775 1.150736 2.038003 -0.014478 0.018327 -328585.000000 0 0 1
15.361108 -33.552255 -18.157901 41.126960 -1.141453 2.028076 -0.015338 0.019161 357913.000000 0 0 1
14.292908 -32.630355 -18.391601 40.090875 -1.157945 2.047382 -0.016283 0.024114 292444.000000 0 0 1
14.094308 -31.723855 -17.334401 38.801211 -1.152708 2.033925 -0.007252 0.018130 153074.000000 0 0 1
12.964808 -30.684255 -17.543601 37.648209 -1.171025 2.055547 -0.002700 0.013402 464285.000000 0 0 1
11.660508 -31.126455 -17.198701 37.424844 -1.212361 2.048288 -0.015868 0.013709 55117.100000 0 0 1
10.682008 -30.140855 -17.506801 36.456337 -1.230204 2.071694 -0.038393 0.025125 730627.000000 0 0 1
9.391108 -30.851655 -18.057701 36.960764 -1.275312 2.081240 -0.015749 0.017348 -483240.000000 0 0 1
8.688708 -31.577355 -17.121901 36.956494 -1.302285 2.052510 -0.005122 0.014184 341164.000000 0 0 1
7.721108 -32.539555 -17.595901 37.789600 -1.337821 2.055141 0.015823 0.013451 430665.000000 0 0 1
6.411508 -32.000255 -18.194701 37.365370 -1.373057 2.079379 0.013992 0.018084 -942397.000000 0 0 1
6.380108 -31.500355 -19.534401 37.610782 -1.370959 2.116925 -0.001495 0.024548 -16610.700000 0 0 1
6.278808 -32.599655 -20.460401 38.997294 -1.380523 2.123114 0.004233 0.015587 -688312.000000 0 0 1
6.313508 -32.152355 -21.962401 39.445929 -1.376901 2.161291 -0.012025 0.032004 632095.000000 0 0 1
7.548708 -31.592055 -22.456001 39.488136 -1.336251 2.175693 0.000465 0.022502 1688330.000000 0 0 1
8.735508 -32.407455 -22.620001 40.474889 -1.307502 2.163813 0.006592 0.018553 612110.000000 0 0 1
8.726508 -33.577355 -23.633001 41.977487 -1.316529 2.168798 0.015754 0.022236 -632307.000000 0 0 1
7.761308 -34.536955 -23.258701 42.355712 -1.349744 2.152117 0.018953 0.006867 -160905.000000 0 0 1
7.625708 33.722315 -24.284401 42.250185 1.348404 2.183127 0.026424 -0.001765 -153933.000000 0 0 1
6.439508 32.757815 -24.023901 41.130154 1.376692 2.194560 0.027012 -0.007575 1337810.000000 0 0 1
5.100108 33.289615 -24.026301 41.369950 1.418774 2.190467 0.025108 -0.004380 924332.000000 0 0 1
4.761408 33.858815 -22.758701 41.073700 1.431087 2.158071 0.014775 -0.006387 -509806.000000 0 0 1
3.503008 -34.519755 -22.874901 41.558942 -1.469664 2.153664 0.009600 0.000286 617897.000000 0 0 1
2.278208 34.003715 -22.852201 41.032499 1.503897 2.161480 0.006270 -0.010196 288131.000000 0 0 1
1.190608 -34.502955 -23.284101 41.641575 -1.536303 2.164163 0.000043 -0.005712 70252.600000 0 0 1
-0.171892 34.224715 -22.754401 41.098947 -1.565774 2.157536 -0.002648 -0.014725 208747.000000 0 0 1
-0.451192 34.269515 -21.361801 40.384772 -1.557631 2.128167 -0.005196 -0.008293 -623054.000000 0 0 1
-1.635092 33.645315 -21.005601 39.697809 -1.522237 2.128380 0.003343 -0.003759 -590672.000000 0 0 1
-1.751492 33.634415 -19.492701 38.914098 -1.518769 2.095453 0.013468 -0.003343 76207.600000 0 0 1
-0.896492 32.808015 -18.704301 37.775924 -1.543478 2.088790 0.016467 -0.013394 180997.000000 0 0 1
-1.428392 32.612115 -17.387001 36.985107 -1.527025 2.060210 0.006342 -0.010743 105315.000000 0 0 1
-0.598092 31.579115 -16.534501 35.650918 -1.551859 2.053063 -0.009886 -0.016040 523769.000000 0 0 1
0.471908 32.264315 -15.908501 35.976230 1.556171 2.028841 0.005107 -0.011557 -363862.000000 0 0 1
1.284408 31.405015 -15.169401 34.900364 1.529921 2.020445 0.019215 -0.011167 -321018.000000 0 0 1
2.206308 32.143915 -14.206401 35.212511 1.502265 1.986078 0.023811 -0.010312 -874300.000000 0 0 1
3.216308 32.834615 -14.837301 36.174606 1.473153 1.993424 0.026057 -0.010061 -644210.000000 0 0 1
4.079708 33.449215 -13.905401 36.453452 1.449429 1.962168 0.024944 -0.011766 -765941.000000 0 0 1
5.451108 33.730715 -14.484501 37.111676 1.410575 1.971748 0.033408 -0.022127 -822247.000000 0 0 1
6.189008 32.567515 -14.644001 36.240773 1.382999 1.986764 0.031242 -0.012937 -1006060.000000 0 0 1
7.267408 32.732215 -15.511801 36.943594 1.352314 2.004107 0.025017 0.003787 -449140.000000 0 0 1
8.153408 31.480515 -15.503101 36.025644 1.317367 2.015660 0.012027 -0.000653 -313562.000000 0 0 1
8.812508 31.364815 -14.254401 35.561213 1.296890 1.983231 0.001876 -0.004651 -175417.000000 0 0 1
9.745008 30.303315 -14.104801 34.816684 1.259659 1.987902 -0.001541 0.003072 481819.000000 0 0 1
9.126108 28.861015 -13.894601 33.306215 1.264536 2.001134 0.015415 0.000367 38406.400000 0 0 1
8.744608 28.201715 -15.084801 33.156540 1.270123 2.043120 0.022727 -0.004814 33537.100000 0 0 1
8.091808 26.957715 -14.896301 31.844867 1.279187 2.057570 0.021972 -0.001441 -190769.000000 0 0 1
7.301408 26.299015 -16.074401 31.675466 1.299986 2.103044 0.022130 0.000596 272791.000000 0 0 1
8.106808 25.727715 -17.085601 31.930447 1.265544 2.135408 0.024411 0.006112 -417000.000000 0 0 1
7.377408 24.760715 -17.821401 31.386645 1.281223 2.174630 0.019245 0.011577 -172375.000000 0 0 1
8.228908 23.803915 -18.654401 31.342112 1.237961 2.208294 0.009092 0.025116 -403734.000000 0 0 1
7.519608 22.824215 -19.373901 30.868064 1.252538 2.249309 0.021700 0.012464 -392400.000000 0 0 1
8.354008 21.809915 -19.890801 30.677448 1.204998 2.276258 0.006011 0.011231 -294239.000000 0 0 1
7.727408 21.013915 -21.000401 30.697139 1.218416 2.324187 0.008067 -0.006942 -79968.400000 0 0 1
6.778908 20.091615 -20.514801 29.503960 1.245390 2.339666 0.015894 -0.004473 77170.300000 0 0 1
6.166608 19.222715 -21.462301 29.464728 1.260370 2.386790 0.021517 -0.006676 183455.000000 0 0 1
24.420208 -13.223085 -9.754101 29.433638 -0.496279 1.908576 0.039701 0.002906 327962.000000 0 0 1
25.089108 -12.427085 -8.772201 29.340200 -0.459895 1.874422 0.045261 -0.002396 1039120.000000 0 0 1
24.091408 -12.336685 -7.755901 28.155705 -0.473263 1.849869 0.033765 0.004487 235560.000000 0 0 1
24.620508 -11.732685 -6.423301 28.019353 -0.444705 1.802098 0.018060 0.002088 -363711.000000 0 0 1
24.813808 -10.355285 -6.408901 27.641111 -0.395347 1.804787 0.007534 0.005538 913512.000000 0 0 1
25.949608 -9.794285 -7.097601 28.630161 -0.360904 1.821315 0.018096 0.002791 -392772.000000 0 0 1
26.093008 -8.268085 -6.794101 28.202236 -0.306861 1.814096 0.028532 0.005651 -255091.000000 0 0 1
26.593708 -7.865985 -5.541501 28.280864 -0.287584 1.768018 0.025564 -0.001458 349753.000000 0 0 1
27.920708 -8.281185 -5.293701 29.600122 -0.288331 1.750604 0.033099 -0.005743 -478645.000000 0 0 1
28.295708 -8.280085 -3.805701 29.726928 -0.284679 1.699171 0.038721 -0.008621 -512784.000000 0 0 1
28.410408 -6.947285 -3.389501 29.443247 -0.239827 1.686172 0.043191 -0.000698 371162.000000 0 0 1
29.000108 -6.905385 -2.107901 29.885345 -0.233763 1.641388 0.055440 -0.000368 -61400.300000 0 0 1
29.490708 -5.506385 -1.635101 30.044895 -0.184590 1.625245 0.049053 -0.011148 22517.200000 0 0 1
28.399708 -4.726985 -1.204701 28.815606 -0.164933 1.612616 0.051324 -0.002702 126873.000000 0 0 1
28.771608 -3.403085 -0.856201 28.984815 -0.117732 1.600340 0.046958 0.001940 -157274.000000 0 0 1
29.474208 -3.176185 0.487299 29.648854 -0.107347 1.554360 0.044694 -0.009132 -372719.000000 0 0 1
28.660108 -3.413385 1.625799 28.908411 -0.118540 1.514527 0.051794 -0.012716 228518.000000 0 0 1
29.291108 -3.100785 2.838099 29.591193 -0.105468 1.474738 0.044148 -0.003635 -409223.000000 0 0 1
28.769708 -3.900185 4.082599 29.318512 -0.134744 1.431092 0.048165 -0.011792 -134972.000000 0 0 1
29.145308 -5.266285 4.051499 29.893100 -0.178762 1.434845 0.046484 -0.019441 209423.000000 0 0 1
28.862508 -5.842285 5.351899 29.930244 -0.199719 1.391017 0.049021 -0.021617 -96196.800000 0 0 1
29.489508 -7.233285 5.483499 30.854826 -0.240535 1.392128 0.033654 -0.018293 1101050.000000 0 0 1
30.932808 -7.230085 5.414699 32.224707 -0.229613 1.401966 0.028490 -0.013697 930202.000000 0 0 1
31.517708 -8.492685 5.563499 33.112598 -0.263206 1.401978 0.020562 -0.012872 -962997.000000 0 0 1
33.018608 -8.345085 5.640899 34.520844 -0.247555 1.406655 0.025800 -0.011217 -945248.000000 0 0 1
33.586508 -7.970385 4.379399 34.795973 -0.232999 1.444602 0.028339 -0.010506 981549.000000 0 0 1
35.020808 -7.878685 4.493999 36.176328 -0.221287 1.446250 0.037992 -0.008775 1057750.000000 0 0 1
-34.392302 -7.498285 3.258199 35.350680 0.214663 1.478497 0.041588 -0.008123 -224257.000000 0 0 1
-34.324802 -8.594085 2.414299 35.466593 0.245332 1.502671 0.056115 -0.018707 388317.000000 0 0 1
-33.325002 -8.404885 1.418899 34.397836 0.247057 1.529535 0.076498 -0.024542 120782.000000 0 0 1
-33.047802 -9.748785 0.671199 34.462248 0.286855 1.551319 0.072618 -0.020209 48470.100000 0 0 1
-32.384902 -10.655985 1.581199 34.129637 0.317883 1.524451 0.068083 -0.021523 608062.000000 0 0 1
-32.444902 -11.965885 1.078199 34.597928 0.353330 1.539628 0.059259 -0.023183 -772724.000000 0 0 1
-32.110502 -13.048285 2.140099 34.726390 0.385973 1.509130 0.045882 -0.036408 924845.000000 0 0 1
-30.776602 -13.117785 2.659399 33.561108 0.402909 1.491473 0.031824 -0.028020 717832.000000 0 0 1
-29.794802 -13.625985 1.799499 32.812131 0.428931 1.515926 0.025216 -0.007932 -859760.000000 0 0 1
-28.492902 -14.019585 2.503199 31.853732 0.457258 1.492131 0.009635 -0.001488 -206110.000000 0 0 1
-27.592002 -12.929085 2.636999 30.584859 0.438198 1.484470 0.004064 -0.000020 621723.000000 0 0 1
-26.336402 -13.391085 3.131299 29.710811 0.470395 1.465208 0.012898 0.003064 180488.000000 0 0 1
-25.423102 -12.295385 3.686899 28.479885 0.450466 1.440976 -0.002741 0.013606 -465256.000000 0 0 1
-24.331302 -12.841185 4.373899 27.857482 0.485611 1.413134 0.000582 0.017350 -336102.000000 0 0 1
-23.744702 -11.844985 5.155299 27.031309 0.462725 1.378905 -0.001703 0.028560 60632.700000 0 0 1
-22.533202 -12.272985 6.025999 26.356859 0.498736 1.340125 0.001865 0.040258 285201.000000 0 0 1
-22.882302 -13.204385 7.062099 27.346458 0.523379 1.309591 0.017659 0.022084 -328906.000000 0 0 1
-21.736802 -13.651885 7.706099 26.800121 0.560792 1.279139 0.025661 0.033064 -359975.000000 0 0 1
-21.495902 -12.954185 9.070299 26.686233 0.542355 1.224000 0.037963 0.030939 -288719.000000 0 0 1
-21.134702 -11.571385 9.034299 25.733075 0.500927 1.212075 0.036325 0.022645 621889.000000 0 0 1
-22.202602 -10.633685 9.208799 26.283698 0.446657 1.212839 0.032165 0.021436 -382653.000000 0 0 1
-22.654502 -10.340485 10.665699 27.090759 0.428199 1.166140 0.035997 0.016719 187873.000000 0 0 1
-23.511902 -11.248185 11.350999 28.428443 0.446222 1.160061 0.037018 0.002335 69618.100000 0 0 1
-24.854202 -11.241385 10.932699 29.387481 0.424759 1.189613 0.042189 0.004872 173882.000000 0 0 1
-25.864802 -11.033085 12.143399 30.629710 0.403198 1.163141 0.034270 -0.009336 139136.000000 0 0 1
-25.762602 -12.005685 13.156299 31.319903 0.436090 1.137283 0.050028 -0.012109 -21130.100000 0 0 1
-26.550302 -11.795185 14.306599 32.384004 0.418069 1.113215 0.024979 -0.012528 31014.600000 0 0 1
-25.992102 -12.640785 15.452499 32.774358 0.452653 1.079827 0.019185 -0.009150 -180722.000000 0 0 1
-26.348702 -13.993985 15.269399 33.514777 0.488223 1.097748 0.021262 -0.002154 293818.000000 0 0 1
-25.730902 -14.878685 16.183899 33.843363 0.524267 1.072192 0.002173 0.003386 -712196.000000 0 0 1
-25.817102 -16.365285 15.815599 34.416253 0.564969 1.093321 0.003821 0.006019 335604.000000 0 0 1
-27.019402 -17.030285 16.248999 35.834462 0.562400 1.100168 -0.015108 0.016670 626617.000000 0 0 1
-26.714102 -18.450685 16.233699 36.298816 0.604438 1.107137 -0.019188 0.021023 -101661.000000 0 0 1
-27.757202 -19.392185 16.825999 37.810493 0.609810 1.109612 -0.039604 0.036810 -346514.000000 0 0 1
-27.842902 -19.240385 18.209799 38.431971 0.604683 1.077174 -0.018050 0.029954 39059.800000 0 0 1
-28.499402 -20.279785 18.901399 39.758628 0.618460 1.075373 -0.011300 0.033813 -35142.700000 0 0 1
-27.614302 -21.537685 19.119399 39.899536 0.662393 1.071066 -0.021397 0.040169 282444.000000 0 0 1
-26.621202 -21.424285 20.152599 39.671345 0.677650 1.037948 -0.012658 0.035369 420729.000000 0 0 1
-25.791402 -22.562185 20.132299 39.743655 0.718714 1.039613 -0.011153 0.034576 -307683.000000 0 0 1
-24.440202 -22.361285 20.832799 39.132545 0.741007 1.009404 0.002035 0.038028 -49025.700000 0 0 1
-23.418602 -21.940585 19.945999 37.784429 0.752825 1.014683 0.002511 0.034260 -68760.500000 0 0 1
-22.187302 -21.834085 20.633199 37.346118 0.777375 0.985453 0.012070 0.031571 469226.000000 0 0 1
-20.957202 -21.685285 19.675399 36.008016 0.802471 0.992716 0.012457 0.031218 272625.000000 0 0 1
-20.696002 -22.768785 18.845599 36.081833 0.833051 1.021249 0.002967 0.038496 228807.000000 0 0 1
-19.591102 -22.513585 17.990199 34.847095 0.854697 1.028317 0.001566 0.024925 -62265.100000 0 0 1
-19.520802 -23.253485 16.680599 34.641430 0.872442 1.068406 -0.003544 0.029249 -579292.000000 0 0 1
-19.446102 -24.682785 16.692299 35.581226 0.903514 1.082488 0.005288 0.020626 239920.000000 0 0 1
-18.238802 -25.241555 17.182699 35.567333 0.945082 1.066601 0.005103 0.016005 777917.000000 0 0 1
-16.893102 -25.062755 16.393999 34.384325 0.977712 1.073800 -0.003161 0.011093 235444.000000 0 0 1
-16.301802 -23.804985 16.357399 33.166106 0.970340 1.055036 0.002100 0.013846 245206.000000 0 0 1
-15.044502 -23.999585 15.681399 32.376278 1.010857 1.065178 0.008322 0.009076 376073.000000 0 0 1
-14.205902 -22.715785 15.607699 31.006690 1.011927 1.043307 0.017424 0.011679 -439280.000000 0 0 1
-14.768402 -21.721785 14.802999 30.150795 0.973696 1.057599 0.009864 0.010462 36929.600000 0 0 1
-15.794202 -20.923585 15.415199 30.411866 0.924197 1.039234 0.012463 0.011589 70170.800000 0 0 1
-15.435402 -19.977285 16.616499 30.223362 0.912958 0.988684 0.009549 0.003135 -565011.000000 0 0 1
-14.642902 -18.867585 16.185499 28.850836 0.910807 0.975195 0.003412 -0.000314 -58557.600000 0 0 1
-14.845802 -17.692785 16.923399 28.632742 0.872671 0.938436 -0.015930 -0.003236 -653694.000000 0 0 1
-14.068002 -16.405385 16.372099 27.112561 0.861951 0.922466 -0.010614 -0.002963 236758.000000 0 0 1
-14.641102 -15.750485 15.253099 26.364686 0.821885 0.953855 -0.015466 -0.003348 40600.500000 0 0 1
-14.592102 -16.570585 14.051099 26.171494 0.848802 1.004055 -0.009462 -0.002339 15343.100000 0 0 1
-15.414402 -15.853985 12.956599 25.628619 0.799456 1.040775 -0.005177 0.003677 -287107.000000 0 0 1
-16.803802 -15.882085 13.134499 26.591793 0.757206 1.054192 -0.013660 0.000260 -447617.000000 0 0 1
-17.446102 -14.822285 12.457699 26.062634 0.704264 1.072430 -0.006830 -0.000225 775539.000000 0 0 1
-19.001102 -14.845885 12.796899 27.298403 0.663245 1.082889 0.017602 0.001349 1543780.000000 0 0 1
-19.748002 -15.947985 12.228699 28.175573 0.679343 1.121849 0.033042 -0.001448 188775.000000 0 0 1
-19.879402 -15.917685 10.800899 27.662660 0.675175 1.169675 0.034088 0.006851 -761125.000000 0 0 1
-20.762202 -16.989085 10.191599 28.697853 0.685782 1.207738 0.032612 0.004898 -109147.000000 0 0 1
-20.115302 -18.250785 10.145299 28.993855 0.736838 1.213319 0.032878 0.011354 39444.900000 0 0 1
-20.822902 -19.218085 9.346799 29.837740 0.745340 1.252178 0.024674 0.009998 85270.500000 0 0 1
-20.266902 -20.644985 9.279799 30.382189 0.794639 1.260401 0.026930 0.016088 -457553.000000 0 0 1
-19.246802 -20.872485 8.360699 29.597319 0.825897 1.284416 0.038891 0.015142 -727201.000000 0 0 1
-18.993402 -22.219885 8.277599 30.380771 0.863526 1.294846 0.020180 0.011779 -1156220.000000 0 0 1
-17.682102 -22.434785 7.598899 29.558748 0.903319 1.310799 0.013860 0.004514 -2079800.000000 0 0 1
-16.606102 -22.073785 8.336699 28.853339 0.925825 1.277684 0.009511 0.005927 -1111260.000000 0 0 1
-15.415002 -22.103285 7.562999 27.988863 0.961812 1.297180 0.015330 0.004117 -501695.000000 0 0 1
-14.195602 -21.744585 8.383399 27.287790 0.992431 1.258524 -0.024832 0.002827 -705972.000000 0 0 1
-13.003202 -21.891485 7.634499 26.582061 1.034812 1.279489 -0.009842 0.003325 -378877.000000 0 0 1
-11.902902 -21.929585 8.496099 26.358480 1.073515 1.242608 -0.003162 0.004578 -412413.000000 0 0 1
-10.645902 -22.446085 7.800199 26.038530 1.127929 1.266561 -0.000922 0.008549 -260978.000000 0 0 1
-10.659302 -23.869485 7.666999 27.242539 1.150802 1.285507 0.002065 0.013380 -452453.000000 0 0 1
-9.380302 -24.387985 7.443799 27.169358 1.203611 1.293270 0.012567 0.012194 -179344.000000 0 0 1
-9.435802 -25.977415 7.445699 28.623397 1.222383 1.307643 0.003730 0.011839 24016.300000 0 0 1
-10.241302 -26.559905 6.423099 29.181656 1.202771 1.348872 0.011654 0.006590 -157177.000000 0 0 1
-10.199702 -27.955475 6.437399 30.446389 1.220949 1.357755 0.021706 0.015371 729909.000000 0 0 1
-8.976802 -28.578385 5.665399 30.486125 1.266444 1.383874 0.027354 0.009625 600137.000000 0 0 1
-7.702802 -28.333935 6.235399 30.017082 1.305354 1.361544 0.025961 0.003319 -370033.000000 0 0 1
-6.723702 -29.232635 5.760699 30.544079 1.344722 1.381057 0.020721 0.007234 230005.000000 0 0 1
-6.694202 -30.630765 6.378899 31.996038 1.355634 1.370086 0.018777 0.005589 -393963.000000 0 0 1
-6.504402 -30.515715 7.736999 32.146186 1.360790 1.327728 0.015645 0.007285 127015.000000 0 0 1
-6.742702 -31.780955 8.321099 33.537051 1.361735 1.320061 0.031033 0.001735 -63207.500000 0 0 1
-6.817102 -31.748105 9.848099 33.932287 1.359283 1.276331 0.022771 -0.002173 595014.000000 0 0 1
-5.581102 -31.330265 10.468499 33.501100 1.394508 1.252991 0.007153 0.004042 1028760.000000 0 0 1
-5.653502 -31.503745 11.856599 34.132491 1.393231 1.216031 0.002566 -0.001974 -709438.000000 0 0 1
-4.825102 -30.478215 12.534699 33.306484 1.413786 1.184949 -0.001047 -0.000432 -503860.000000 0 0 1
-5.333202 -29.153625 12.552299 32.185977 1.389862 1.170173 0.002629 -0.001220 -12055.200000 0 0 1
-4.641102 -28.424725 13.536699 31.823687 1.408948 1.131431 -0.006311 -0.000689 -738150.000000 0 0 1
-5.442602 -28.098735 14.799799 32.221031 1.379470 1.093566 -0.007509 -0.002261 -189582.000000 0 0 1
-5.662802 -29.192855 15.684599 33.619886 1.379197 1.085436 0.010104 -0.005220 137654.000000 0 0 1
-4.511102 -29.545035 16.409799 34.096050 1.419281 1.068680 0.009970 -0.003344 -136603.000000 0 0 1
-4.763102 -31.005525 16.937299 35.649710 1.418367 1.075715 0.007577 -0.005781 -105666.000000 0 0 1
-4.809102 -31.992525 15.929399 36.060988 1.421594 1.113265 -0.000580 -0.001546 126761.000000 0 0 1
-5.052102 -33.229345 16.569299 37.473387 1.419914 1.112789 -0.005530 -0.001087 -228173.000000 0 0 1
-4.801102 -34.425975 15.708799 38.143999 1.432228 1.146336 -0.018169 -0.003872 213228.000000 0 0 1
-5.729402 34.583526 14.612899 37.978719 -1.406619 1.175843 0.006931 -0.012208 622770.000000 0 0 1
-5.350302 33.548139 13.677499 36.622088 -1.412647 1.188042 -0.004741 -0.005519 -604784.000000 0 0 1
-4.123102 33.834593 12.835699 36.421626 -1.449534 1.210641 0.007543 -0.011240 -809761.000000 0 0 1
-4.495102 34.302402 11.582099 36.482951 -1.440495 1.247740 0.005833 -0.009783 58998.900000 0 0 1
-3.402102 -34.545144 10.814099 36.357750 1.472630 1.268790 0.011799 -0.008992 -919093.000000 0 0 1
-3.901102 -34.247413 9.420799 35.733113 1.457376 1.303999 0.013157 -0.009427 -658781.000000 0 0 1
-4.183102 33.947196 8.513799 35.247627 -1.448191 1.326841 0.027996 -0.020155 525947.000000 0 0 1
-5.100102 32.952695 8.982299 34.533648 -1.417244 1.307668 0.040316 -0.018736 532739.000000 0 0 1
-6.574102 33.369178 9.294999 35.257877 -1.376276 1.304014 0.031382 -0.009195 332009.000000 0 0 1
-7.237702 33.947108 8.154599 35.655125 -1.360736 1.340046 0.034107 -0.003811 114502.000000 0 0 1
-8.649202 34.025664 8.259999 36.066357 -1.321872 1.339723 0.029496 -0.001510 309260.000000 0 0 1
-9.304102 34.212129 6.896999 36.119312 -1.305265 1.378666 0.032608 -0.003021 -262425.000000 0 0 1
-9.263202 -33.703595 6.436499 35.541071 1.302576 1.388691 0.032580 0.001402 198367.000000 0 0 1
-9.897102 -33.751465 5.170299 35.550612 1.285558 1.424844 0.030490 0.007511 -510929.000000 0 0 1
-9.857202 -32.371355 4.405699 34.124467 1.275213 1.441328 0.016130 0.012533 -72904.700000 0 0 1
-10.739702 -31.368005 4.809499 33.502600 1.240928 1.426743 0.022563 0.007881 -199187.000000 0 0 1
-12.113902 -31.633045 4.614199 34.186064 1.205073 1.435410 0.019878 0.010387 -100042.000000 0 0 1
-13.050602 -30.584195 5.261299 33.665895 1.167478 1.413873 0.005503 0.004137 -300399.000000 0 0 1
-13.087402 -30.851275 6.596099 34.155377 1.169595 1.376455 0.002954 0.017896 -64606.200000 0 0 1
-14.079702 -30.185305 7.346899 34.108175 1.134353 1.353695 -0.003299 0.015837 25532.500000 0 0 1
32.709639 -13.521285 -12.913601 37.676342 -0.391981 1.920640 0.008240 -0.005407 -383782.000000 0 0 1
31.867049 -13.489485 -11.803501 36.562244 -0.400434 1.899518 0.013427 -0.003686 34857.700000 0 0 1
31.411829 -14.757985 -11.341101 36.511939 -0.439216 1.886635 0.028300 -0.013944 30681.300000 0 0 1
32.350359 -15.494785 -10.361901 37.336351 -0.446681 1.852017 0.013801 -0.015400 1437680.000000 0 0 1
33.708349 -15.773685 -10.823501 38.758355 -0.437677 1.853815 0.023346 -0.012312 1424260.000000 0 0 1
34.571976 -16.023685 -9.717601 39.324443 -0.434013 1.820497 0.013117 -0.008659 -491674.000000 0 0 1
-34.167792 -16.042985 -10.038401 39.058736 0.438980 1.830721 -0.008107 -0.002941 -635336.000000 0 0 1
-33.743832 -14.702785 -10.327901 38.229355 0.410914 1.844352 -0.013464 0.007298 1304100.000000 0 0 1
-32.298342 -14.626185 -10.446201 36.962566 0.425218 1.857316 -0.007144 0.000710 1290760.000000 0 0 1
-31.830182 -13.232985 -10.816801 36.128597 0.393999 1.874857 -0.003634 -0.002524 -255361.000000 0 0 1
-32.033432 -12.277185 -9.800701 35.678057 0.365994 1.849072 0.016638 -0.012562 316600.000000 0 0 1
-31.818512 -11.011485 -10.322501 35.216821 0.333171 1.868277 0.011816 -0.006616 -379758.000000 0 0 1
-32.215272 -9.835985 -9.446401 34.982922 0.296331 1.844219 0.019489 -0.014495 -187607.000000 0 0 1
-31.346772 -9.567685 -8.387001 33.830496 0.296240 1.821321 0.034013 -0.016046 328519.000000 0 0 1
-32.047572 -8.731985 -7.493701 34.050697 0.266012 1.792688 0.047186 -0.021547 -175447.000000 0 0 1
-31.510462 -8.759385 -6.045201 33.259292 0.271138 1.753572 0.042361 -0.015850 254389.000000 0 0 1
-30.280002 -7.999585 -6.063601 31.900456 0.258286 1.762039 0.048620 -0.025375 1153800.000000 0 0 1
-29.439202 -8.089585 -4.911101 30.922919 0.268171 1.730289 0.053782 -0.024408 -238178.000000 0 0 1
-28.632312 -9.412285 -4.593201 30.487668 0.317601 1.722030 0.042916 -0.017822 -649083.000000 0 0 1
-29.230322 -10.558185 -4.066401 31.343621 0.346623 1.700899 0.064347 -0.017053 -32996.200000 0 0 1
-29.829042 -10.409385 -2.795801 31.716613 0.335755 1.659060 0.028596 -0.015440 -119384.000000 0 0 1
-30.502452 -11.669885 -2.175601 32.731010 0.365407 1.637314 0.032561 -0.012351 -165130.000000 0 0 1
-31.634792 -12.061985 -2.923201 33.982299 0.364273 1.656924 0.043410 -0.028420 201377.000000 0 0 1
-31.932722 -13.407685 -2.558901 34.727694 0.397520 1.644548 0.045474 -0.034676 -432909.000000 0 0 1
-33.443932 -13.637985 -2.398801 36.197313 0.387201 1.637115 0.014932 -0.028807 -307091.000000 0 0 1
-34.082680 -12.857685 -1.422501 36.455077 0.360742 1.609827 0.028829 -0.031736 -403812.000000 0 0 1
34.751307 -12.965785 -1.571201 37.124569 -0.357106 1.613131 0.065566 -0.032944 -502064.000000 0 0 1
34.029269 -12.194785 -0.435301 36.150981 -0.344104 1.582838 0.060814 -0.032276 -307542.000000 0 0 1
34.189958 -12.538385 0.909599 36.427897 -0.351498 1.545824 0.072289 -0.028468 178285.000000 0 0 1
33.906079 -11.383285 1.738599 35.808157 -0.323906 1.522224 0.064917 -0.026309 -180880.000000 0 0 1
34.149539 -11.591385 3.267599 36.210888 -0.327228 1.480435 0.058969 -0.029827 306787.000000 0 0 1
33.140309 -12.316885 3.966199 35.576909 -0.355838 1.459082 0.052972 -0.032052 61775.200000 0 0 1
33.591599 -12.598885 5.247199 36.258248 -0.358824 1.425569 0.054082 -0.027586 -547182.000000 0 0 1
32.595179 -13.159185 6.286399 35.708944 -0.383705 1.393829 0.037043 -0.008187 -317697.000000 0 0 1
31.856639 -11.996085 6.708199 34.695121 -0.360142 1.376224 0.026240 -0.009707 -111359.000000 0 0 1
32.054699 -11.831185 8.130199 35.122369 -0.353582 1.337195 -0.008338 0.008724 -110323.000000 0 0 1
31.494329 -10.448385 8.653899 34.292149 -0.320329 1.315680 -0.015587 0.003437 -816088.000000 0 0 1
30.130449 -10.373185 8.874299 33.078696 -0.331566 1.299191 0.002077 0.001036 -741771.000000 0 0 1
29.789699 -9.004485 9.150299 32.438170 -0.293537 1.284830 0.004265 0.008368 -1178610.000000 0 0 1
28.353899 -8.633285 9.499499 31.124230 -0.295565 1.260635 0.021756 -0.002209 -370578.000000 0 0 1
27.566199 -8.311985 8.363999 29.982343 -0.292858 1.288081 0.035965 -0.007648 388470.000000 0 0 1
27.029959 -9.449085 7.589899 29.622803 -0.336299 1.311689 0.044795 -0.020138 -441548.000000 0 0 1
25.974259 -9.065985 6.546199 28.279090 -0.335817 1.337192 0.046617 -0.020728 40569.700000 0 0 1
24.746619 -8.594585 7.110099 27.144347 -0.334270 1.305768 0.043629 -0.014182 547707.000000 0 0 1
23.749719 -8.278685 6.170999 25.897239 -0.335410 1.330194 0.029201 -0.010769 -173435.000000 0 0 1
23.913919 -6.918185 5.449299 25.483949 -0.281607 1.355300 0.024615 -0.004055 -930490.000000 0 0 1
24.724719 -6.881285 4.303899 26.022824 -0.271446 1.404644 0.017931 -0.009608 311302.000000 0 0 1
25.124719 -5.607385 3.829899 26.026187 -0.219583 1.423104 0.032956 -0.013460 201995.000000 0 0 1
25.928179 -5.638785 2.514799 26.653153 -0.214143 1.476303 0.040152 -0.017563 -53324.200000 0 0 1
25.028719 -5.777685 1.449199 25.727779 -0.226868 1.514438 0.028704 -0.010194 -203080.000000 0 0 1
25.666789 -5.767785 0.183299 26.307509 -0.221046 1.563829 0.023959 -0.006223 -378620.000000 0 0 1
24.924719 -6.212385 -1.092101 25.710466 -0.244269 1.613286 0.025471 -0.009249 162202.000000 0 0 1
23.770619 -5.435785 -1.399101 24.424324 -0.224811 1.628111 0.015431 -0.001751 454478.000000 0 1 0
23.426619 -5.353785 -2.791701 24.192211 -0.224676 1.686451 0.015603 -0.001450 -394859.000000 0 1 0
22.355319 -4.271485 -2.933101 22.947962 -0.188797 1.698962 0.001002 -0.000203 -362016.000000 0 1 0
22.705619 -2.843785 -2.837601 23.058279 -0.124597 1.694171 -0.007641 -0.003426 265315.000000 0 1 0
23.367519 -2.313485 -3.967301 23.814547 -0.098683 1.738168 -0.000105 -0.005148 -92127.900000 0 1 0
22.413119 -1.514085 -4.918401 22.996327 -0.067451 1.786339 0.001434 0.002235 212745.000000 0 1 0
21.898019 -0.380385 -4.236401 22.307287 -0.017369 1.761868 -0.022576 0.008776 532610.000000 0 1 0
21.031419 0.444315 -5.011001 21.624711 0.021123 1.804648 -0.008182 0.014523 -188710.000000 0 1 0
20.693819 1.801215 -4.415401 21.236155 0.086822 1.780243 -0.008070 0.015810 -505447.000000 0 1 0
21.767019 2.718215 -4.386301 22.370325 0.124235 1.768152 -0.000795 0.012400 496482.000000 0 1 0
22.615119 2.587015 -3.252301 22.993776 0.113898 1.712715 0.017802 0.008920 -546843.000000 0 1 0
23.678119 3.672515 -3.223001 24.177023 0.153876 1.704503 0.003921 0.007505 -930240.000000 0 1 0
23.251419 5.026815 -3.068401 23.985672 0.212917 1.699074 0.002077 0.002915 214134.000000 0 1 0
24.330419 5.937915 -2.964301 25.219342 0.239374 1.688609 0.002756 0.004295 -321146.000000 0 0 1
23.996219 7.434015 -3.054101 25.306336 0.300423 1.691776 0.005884 -0.001655 -368516.000000 0 0 1
23.323219 7.910115 -1.893501 24.700766 0.326978 1.647529 0.024598 -0.003787 515943.000000 0 1 0
22.317419 8.779315 -2.381201 24.100077 0.374790 1.669763 0.009933 -0.001343 -133134.000000 0 1 0
21.146519 9.102115 -1.438301 23.067130 0.406462 1.633190 0.001967 0.000671 -421818.000000 0 1 0
21.605619 9.940815 -0.384101 23.785923 0.431224 1.586945 -0.013313 0.007030 437419.000000 0 1 0
20.725119 10.052815 0.679899 23.044564 0.451620 1.541288 -0.009139 -0.000518 -696598.000000 0 1 0
21.572819 10.316015 1.915799 23.989101 0.446052 1.490850 0.025458 -0.006254 -497230.000000 0 1 0
22.499919 11.345115 2.030599 25.280058 0.467025 1.490386 0.034139 -0.008570 276857.000000 0 0 1
22.069019 12.717315 1.785199 25.533481 0.522775 1.500823 0.037841 -0.005571 -816764.000000 0 0 1
21.010319 13.341715 2.687199 25.033096 0.565764 1.463243 0.025823 0.002661 -131022.000000 0 0 1
19.696119 12.807615 2.509499 23.627732 0.576559 1.464386 0.080403 -0.006235 1416320.000000 0 1 0
18.689819 13.580215 3.225399 23.326697 0.628363 1.432081 0.055301 -0.007944 384443.000000 0 1 0
18.595619 13.529415 4.784399 23.488989 0.628984 1.365674 0.032920 0.001153 -844527.000000 0 1 0
17.993219 12.347215 5.317999 22.460872 0.601414 1.331759 0.012138 0.002622 565097.000000 0 1 0
17.965919 12.230315 6.718999 22.748622 0.597690 1.270966 -0.001644 -0.002968 -380910.000000 0 1 0
18.044619 10.741115 7.173699 22.191030 0.536922 1.241613 -0.017156 -0.011951 410451.000000 0 1 0
19.257419 10.124915 6.708899 22.767772 0.484048 1.271690 -0.011060 -0.010669 732026.000000 0 1 0
19.464719 8.875515 7.409499 22.639583 0.427815 1.237372 0.002283 -0.005965 -152395.000000 0 1 0
20.467319 7.984315 6.705199 22.969983 0.371943 1.274572 0.016480 -0.007174 -429312.000000 0 1 0
19.974919 7.589515 5.459799 22.054649 0.363105 1.320638 0.003346 -0.012602 700813.000000 0 1 0
20.884919 6.811715 4.680799 22.460837 0.315276 1.360859 0.006719 -0.017365 -32749.300000 0 1 0
20.288519 6.496015 3.275199 21.553402 0.309868 1.418248 -0.005214 -0.014040 -807911.000000 0 1 0
21.169719 5.793615 2.449199 22.084419 0.267134 1.459666 -0.010357 -0.015673 126399.000000 0 1 0
20.800919 5.657115 1.108399 21.584942 0.265542 1.519423 -0.009523 -0.006321 -964137.000000 0 1 0
21.799619 4.760515 0.332899 22.315840 0.215001 1.555878 0.003078 -0.007010 116644.000000 0 1 0
21.757819 3.400115 0.665299 22.031934 0.155017 1.540595 -0.000371 -0.003211 675420.000000 0 1 0
22.998319 2.758615 0.422399 23.167025 0.119378 1.552563 0.010009 -0.001424 208817.000000 0 1 0
22.877119 1.220415 0.522999 22.915617 0.053296 1.547972 0.025310 -0.002624 -231482.000000 0 1 0
22.087119 0.675415 -0.512401 22.103384 0.030570 1.593980 0.010513 -0.004695 689750.000000 0 1 0
22.359219 -0.678585 -0.849601 22.385642 -0.030340 1.608758 0.013906 -0.003340 -1212630.000000 0 1 0
21.970619 -1.809485 0.124099 22.045357 -0.082174 1.565167 0.018149 -0.002214 346470.000000 0 1 0
22.760619 -1.920785 1.347099 22.881212 -0.084191 1.511889 0.018819 -0.006756 1385470.000000 0 1 0
24.101719 -2.398185 1.170499 24.249005 -0.099176 1.522508 0.026838 -0.003764 483558.000000 0 1 0
25.055019 -1.956085 2.299699 25.236261 -0.077914 1.479543 0.036832 -0.006395 -183413.000000 0 0 1
25.074619 -0.568285 2.422899 25.197816 -0.022660 1.474492 0.033422 -0.012111 661923.000000 0 0 1
26.175349 -0.191885 3.238199 26.375588 -0.007331 1.447713 0.043759 -0.006232 224063.000000 0 0 1
26.062369 1.275415 3.847199 26.375646 0.048898 1.424412 0.049494 -0.003287 -136419.000000 0 0 1
25.925059 2.381815 2.973899 26.203546 0.091616 1.457059 0.039902 -0.000733 29436.300000 0 0 1
27.134449 2.778015 2.377799 27.379730 0.102024 1.483842 0.048282 -0.008370 -339172.000000 0 0 1
27.105849 3.907515 1.267599 27.415371 0.143171 1.524543 0.039337 -0.018401 -724791.000000 0 0 1
26.506919 3.639615 0.039099 26.755655 0.136455 1.569335 0.036723 -0.003152 450204.000000 0 0 1
27.145279 4.281615 -1.096801 27.502752 0.156441 1.610687 0.044037 0.006182 -634987.000000 0 0 1
28.503719 3.744715 -1.508701 28.788211 0.130628 1.623227 0.037457 0.005112 -873715.000000 0 0 1
29.498949 4.111915 -0.583101 29.789862 0.138500 1.590371 0.051702 -0.007650 -562301.000000 0 0 1
30.772679 3.736215 -1.038801 31.016064 0.120822 1.604295 0.021829 -0.009110 258703.000000 0 0 1
31.930109 4.300715 -0.130501 32.218707 0.133886 1.574847 -0.002865 -0.000728 227423.000000 0 0 1
32.098829 3.547115 1.064499 32.311763 0.110060 1.537846 0.002276 0.004608 664844.000000 0 0 1
31.238389 4.043915 2.115299 31.569997 0.128737 1.503743 0.011705 0.011557 353900.000000 0 0 1
31.110469 3.112715 3.387999 31.448829 0.099722 1.462856 0.025446 0.008849 -305854.000000 0 0 1
30.331709 1.988615 3.113499 30.555868 0.065469 1.468724 0.025934 0.006733 35171.100000 0 0 1
30.572099 0.861715 4.000299 30.844743 0.028179 1.440739 0.023209 0.005843 344675.000000 0 0 1
31.862779 -0.009885 3.834599 32.092693 -0.000310 1.451025 0.032214 0.006194 488343.000000 0 0 1
33.065849 0.610815 4.260599 33.344807 0.018471 1.442672 0.025130 0.004295 -245804.000000 0 0 1
34.139039 -0.182485 3.863299 34.357421 -0.005345 1.458114 0.021586 0.000056 -541669.000000 0 0 1
-34.736700 0.534515 4.212899 34.995321 -0.015386 1.450119 0.031526 -0.007568 201890.000000 0 0 1
-34.404860 1.670415 3.459599 34.618687 -0.048514 1.470695 0.021415 -0.002561 205714.000000 0 0 1
-34.345170 1.596615 2.044999 34.443024 -0.046454 1.511388 0.018490 -0.001030 -1036590.000000 0 0 1
-34.019002 2.982315 1.374799 34.177138 -0.087443 1.530560 0.007799 0.001165 968238.000000 0 0 1
-32.727162 3.521615 1.688599 32.959373 -0.107193 1.519541 0.009488 -0.006354 1960840.000000 0 0 1
-31.554372 2.816615 1.169399 31.701407 -0.089026 1.533900 0.001635 -0.006076 574918.000000 0 0 1
-30.243782 3.565015 1.520199 30.491092 -0.117335 1.520919 -0.006350 0.000466 -213649.000000 0 0 1
-29.978852 3.355515 2.897999 30.304941 -0.111465 1.475022 0.004223 -0.003202 260688.000000 0 0 1
-29.269372 4.423515 3.550099 29.813869 -0.149996 1.451438 0.008847 0.001613 -551994.000000 0 0 1
-29.551112 4.433915 5.134199 30.319759 -0.148931 1.400641 0.015247 -0.000709 -444105.000000 0 0 1
-30.844422 4.828615 5.500899 31.701006 -0.155287 1.396389 0.013993 0.000264 348589.000000 0 0 1
-31.856232 3.810915 5.413399 32.536863 -0.119063 1.403642 0.022957 -0.001963 -154091.000000 0 0 1
-31.835972 2.775015 6.602099 32.631542 -0.086946 1.367067 0.024266 0.003311 -651478.000000 0 0 1
-32.220932 3.470515 7.800199 33.332807 -0.107296 1.334597 0.019144 0.009379 373665.000000 0 0 1
-32.353812 2.669215 9.002599 33.688880 -0.082314 1.300281 0.020836 0.012245 -176057.000000 0 0 1
-33.409032 1.554215 9.190199 34.684849 -0.046487 1.302631 0.017058 0.014020 -471186.000000 0 0 1
-33.404822 0.498315 8.201999 34.400628 -0.014916 1.330052 0.027755 0.001723 986423.000000 0 0 1
-34.573300 -0.365985 8.198699 35.534007 0.010585 1.337970 0.036555 0.003959 870727.000000 0 0 1
-34.720343 -1.338685 9.414899 35.999092 0.038537 1.306188 0.018689 0.015643 333632.000000 0 0 1
-33.472452 -2.059285 9.411099 34.831228 0.061444 1.297204 0.027160 -0.014973 1105560.000000 0 0 1
-33.437712 -2.961685 10.550799 35.187661 0.088343 1.266268 0.019183 0.004780 -277961.000000 0 0 1
-32.045812 -3.579185 10.707899 33.976517 0.111229 1.250175 0.004902 -0.002308 -380121.000000 0 0 1
-31.740462 -4.496385 9.684599 33.488294 0.140725 1.277412 0.010740 -0.011732 548572.000000 0 0 1
-30.482042 -5.156985 9.881199 32.455931 0.167594 1.261436 0.010555 -0.014724 346783.000000 0 0 1
-30.291482 -6.156985 8.752199 32.126053 0.200526 1.294875 0.009330 -0.009641 65350.700000 0 0 1
-31.245762 -7.198185 8.836799 33.259593 0.226423 1.301875 0.003001 -0.006828 97315.300000 0 0 1
-31.255922 -8.034785 7.720199 33.182704 0.251616 1.335987 0.017755 -0.007929 -600158.000000 0 0 1
-32.176852 -9.217685 7.693299 34.343884 0.278998 1.344871 0.011781 -0.008766 913769.000000 0 0 1
-33.568462 -8.811485 7.802999 35.572049 0.256702 1.349640 0.009832 -0.014393 1071870.000000 0 0 1
-34.471051 -9.871085 7.757699 36.686149 0.278895 1.357727 0.005546 -0.005725 -189278.000000 0 0 1
7.993508 -23.968185 10.670799 27.426921 -1.248891 1.171182 0.047324 -0.016603 -116732.000000 0 0 1
7.282808 -24.695185 9.670299 27.502839 -1.284018 1.211505 0.047514 -0.012489 -84090.000000 0 0 1
5.997208 -25.100905 10.085399 27.708071 -1.336269 1.198251 0.053754 -0.013831 205808.000000 0 0 1
5.409308 -26.143125 9.149899 28.221344 -1.366764 1.240610 0.037339 -0.003204 -205791.000000 0 0 1
5.005308 -25.539135 7.928199 27.205824 -1.377264 1.275090 0.041984 -0.003950 -321346.000000 0 0 1
4.837608 -26.526345 6.944299 27.843719 -1.390409 1.318733 0.037106 0.003410 -152236.000000 0 0 1
4.164408 -26.043065 5.607899 26.963532 -1.412234 1.361286 0.035087 0.005357 -75120.400000 0 0 1
2.778608 -25.916205 5.526599 26.644204 -1.463989 1.361857 0.026896 -0.002896 -528816.000000 0 0 1
2.063408 -27.052745 5.035399 27.594635 -1.494670 1.387291 0.018438 0.001659 392293.000000 0 0 1
0.534808 -26.834665 4.868799 27.278022 -1.550869 1.391347 0.019679 0.000968 468779.000000 0 0 1
-0.128292 -26.473945 6.072499 27.161765 1.565950 1.345323 0.023646 0.000256 -774421.000000 0 0 1
-1.475592 -26.778665 6.224199 27.532071 1.515749 1.342754 0.009346 -0.002020 -73943.800000 0 0 1
-2.049192 -28.251955 6.442099 29.049488 1.498390 1.347174 0.007660 0.004569 -295516.000000 0 0 1
-1.730592 -28.902785 7.646699 29.947252 1.510991 1.312598 0.004752 0.001440 153270.000000 0 0 1
-2.487392 -30.086705 7.910599 31.208565 1.488310 1.314525 0.013703 0.004267 80831.300000 0 0 1
-2.354092 -30.717635 9.358699 32.197827 1.494309 1.275877 0.003904 0.001550 886874.000000 0 0 1
-1.005692 -31.173895 9.587199 32.630316 1.538547 1.272583 0.001875 0.002208 739984.000000 0 0 1
-0.806892 -31.591225 10.904399 33.429964 1.545260 1.238530 -0.008173 0.005315 -452682.000000 0 0 1
0.652708 -31.850595 11.256599 33.787534 -1.550306 1.231145 0.009729 0.004208 -826021.000000 0 0 1
1.098308 -33.093545 10.766999 34.818347 -1.537621 1.256409 0.012914 0.005151 871136.000000 0 0 1
2.537808 -33.157255 10.853199 34.980508 -1.494407 1.255325 0.029945 0.004580 1137820.000000 0 0 1
3.094308 -33.763295 12.201299 36.033408 -1.479405 1.225356 0.022248 0.002219 -337979.000000 0 0 1
2.734408 -33.068825 13.356399 35.768947 -1.488296 1.188117 0.003339 0.008702 146206.000000 0 0 1
3.485708 -33.519065 14.473799 36.676542 -1.467177 1.165127 0.003085 0.015428 -246782.000000 0 0 1
3.133708 -32.756845 15.766899 36.488712 -1.475421 1.123972 -0.002339 0.009602 150258.000000 0 0 1
3.591808 -31.378155 15.810699 35.319511 -1.456824 1.106663 -0.010366 0.002089 2175070.000000 0 0 1
5.042208 -31.156215 15.999199 35.385137 -1.410351 1.101628 0.005095 0.008269 1807270.000000 0 0 1
5.378108 -29.682595 15.512399 33.920716 -1.391554 1.095824 0.017712 0.006363 -430492.000000 0 0 1
5.433208 -29.516155 14.115699 33.165888 -1.388758 1.131162 0.023062 0.011088 89814.700000 0 0 1
4.209708 -29.766295 13.424099 32.923554 -1.430303 1.150824 0.014053 0.012039 -157891.000000 0 0 1
4.310908 -29.763105 11.860399 32.327935 -1.426956 1.195146 0.018500 0.007939 317227.000000 0 0 1
4.889608 -30.967565 11.313899 33.330206 -1.414195 1.224465 0.021852 0.009025 -408578.000000 0 0 1
6.281108 -31.096015 11.324599 33.684729 -1.371487 1.227924 0.019419 0.006856 -667148.000000 0 0 1
6.685308 -32.336165 10.583699 34.674711 -1.366925 1.260618 0.010254 0.007121 -259916.000000 0 0 1
6.792708 -33.535755 11.357099 36.052343 -1.370949 1.250322 0.011518 0.007357 210782.000000 0 0 1
6.986208 34.575573 10.517199 36.808814 1.371424 1.281033 0.021952 0.003517 -239356.000000 0 0 1
6.742408 33.256295 11.278199 35.758062 1.370767 1.249915 0.022459 0.002286 839425.000000 0 0 1
5.396808 33.017905 11.725799 35.451403 1.408778 1.233691 0.013940 -0.003038 715698.000000 0 0 1
5.285208 31.705255 12.130899 34.355717 1.405617 1.209917 0.017328 -0.002786 -421948.000000 0 0 1
4.059308 31.407375 12.978699 34.224959 1.442262 1.181846 0.011095 0.004784 -402352.000000 0 0 1
4.045308 32.084555 14.227399 35.329903 1.445375 1.156330 0.028178 0.009730 839188.000000 0 0 1
2.879808 31.737255 15.015599 35.228041 1.480305 1.130464 0.021728 0.007220 743675.000000 0 0 1
3.122108 31.775145 16.514699 35.946386 1.472854 1.093448 0.017533 0.004845 -8513.930000 0 0 1
3.210308 33.072985 17.115999 37.377611 1.474032 1.095141 0.009037 0.006596 102319.000000 0 0 1
3.862008 32.960365 18.345699 37.919196 1.454157 1.065793 0.006081 0.005910 -69364.400000 0 0 1
4.262608 34.313471 18.991599 39.449524 1.447204 1.068528 0.007106 0.008921 -178625.000000 0 0 1
3.169708 -34.145114 19.303899 39.351955 -1.478231 1.058081 -0.002001 0.000688 -218030.000000 0 0 1
3.611908 -33.119175 20.183599 38.952577 -1.462168 1.026100 -0.003038 -0.006808 172668.000000 0 0 1
2.450708 -32.217815 20.638599 38.339866 -1.494876 1.002370 -0.015209 -0.004404 218960.000000 0 0 1
1.518608 -32.966975 21.410499 39.338748 -1.524764 0.995290 -0.014999 -0.001445 536307.000000 0 0 1
0.576008 -32.085475 22.103399 38.966264 -1.552846 0.967640 -0.012698 -0.003852 804663.000000 0 0 1
-0.542292 -32.896675 22.842099 40.053050 1.554313 0.963930 -0.015419 0.001457 8112.920000 0 0 1
-1.572892 -33.309055 21.970399 39.933264 1.523610 0.988219 -0.038250 0.003280 -302130.000000 0 0 1
-2.349092 -34.380513 22.404299 41.103412 1.502576 0.994322 -0.026127 0.002087 6993.740000 0 0 1
-3.684192 -33.983275 23.080899 41.245171 1.462806 0.976890 -0.004863 0.000725 922978.000000 0 0 1
-4.737592 -33.658095 22.119299 40.553366 1.430959 0.993886 -0.019181 0.001163 1168480.000000 0 0 1
-5.944392 -33.198565 22.742399 40.677970 1.393618 0.977516 -0.004432 0.004593 1279220.000000 0 0 1
-7.202092 -33.146555 21.798699 40.320559 1.356842 0.999605 0.005070 -0.004008 530912.000000 0 0 1
-7.766492 -34.386424 21.447599 41.264319 1.348664 1.024225 0.013976 0.008916 -925548.000000 0 0 1
-8.804092 -34.147038 20.586199 40.832877 1.318463 1.042390 0.023894 -0.007183 -940766.000000 0 0 1
-9.888392 34.057798 20.700599 41.063715 -1.288224 1.042446 0.042581 -0.006756 -261896.000000 0 0 1
-10.386592 34.025668 21.997199 41.827074 -1.274523 1.017014 0.050995 0.001196 -566674.000000 0 0 1
-11.561792 33.271633 22.162799 41.615697 -1.236353 1.009176 0.029083 0.000804 -408782.000000 0 0 1
-11.870392 33.361164 23.662199 42.588415 -1.228951 0.981710 0.026113 0.004148 -250032.000000 0 0 1
-12.171492 34.616796 24.261599 43.989691 -1.232691 0.986600 0.035526 -0.000537 453847.000000 0 0 1
-11.031592 -33.958435 24.814499 43.481383 1.256695 0.963447 0.026160 0.000277 480733.000000 0 0 1
-11.176792 -32.487135 25.237499 42.629402 1.239443 0.937232 0.026862 -0.001922 -39759.300000 0 0 1
-11.747992 -32.248905 26.520199 43.374279 1.221447 0.912934 0.034852 0.001037 46523.800000 0 0 1
-12.381692 -30.988225 26.578899 42.661625 1.190668 0.898203 0.042374 -0.004529 -362087.000000 0 0 1
-12.993892 -30.786475 27.975799 43.580885 1.171414 0.873786 0.050763 -0.013094 -231368.000000 0 0 1
-12.134792 -30.486105 29.032199 43.812376 1.191978 0.846447 0.046496 -0.012753 -15776.500000 0 0 1
-12.986692 -30.152805 30.115599 44.551039 1.164111 0.828503 0.037922 -0.012252 508747.000000 0 0 1
-12.294292 -29.684645 31.447299 44.958429 1.178140 0.796134 0.040555 -0.006229 -352814.000000 0 0 1
-13.289092 -29.372205 32.375899 45.689443 1.145917 0.783273 0.044049 -0.006259 302561.000000 0 0 1
-12.783692 -28.892095 33.629299 46.142233 1.154228 0.754202 0.043693 -0.005171 65013.800000 0 0 1
-12.013892 -29.849755 -34.549485 47.212375 1.188155 2.391739 0.035324 0.004640 577052.000000 0 0 1
-10.637592 -30.065865 34.293699 46.831318 1.230732 0.749130 0.014901 0.007613 336901.000000 0 0 1
-10.256992 -31.253915 -34.144485 47.411590 1.253689 2.374846 0.016557 0.016194 818815.000000 0 0 1
-8.754292 -31.657905 -34.371385 47.542114 1.301010 2.378884 0.005809 0.015480 940027.000000 0 0 1
-7.878392 -30.887255 -33.594985 46.311063 1.321052 2.382441 0.011211 0.011935 -144842.000000 0 0 1
-6.525792 -31.307245 -33.568785 46.363702 1.365295 2.380426 0.005017 0.008809 458537.000000 0 0 1
-5.714092 -30.522455 -32.480185 44.935882 1.385729 2.378659 -0.009083 0.014933 67065.700000 0 0 1
-6.259092 -30.714395 -31.201985 44.227979 1.369765 2.353897 -0.012631 0.014433 5625.520000 0 0 1
-5.768892 -29.790555 -30.231185 42.833186 1.379516 2.354332 -0.030391 0.020927 -69229.900000 0 0 1
-6.466592 -29.925215 -28.872485 42.082724 1.357977 2.326896 -0.015019 0.020026 -22007.100000 0 0 1
-5.988892 -31.096305 -28.234385 42.426731 1.380534 2.298941 -0.029874 0.020696 -233149.000000 0 0 1
-6.789492 -31.448805 -27.148485 42.097087 1.358169 2.271691 -0.017071 0.021660 -164481.000000 0 0 1
-6.405092 -32.773525 -26.440885 42.594008 1.377794 2.240515 -0.018212 0.013026 575877.000000 0 0 1
-5.414092 -32.588445 -25.423285 41.685279 1.406165 2.226714 -0.025830 0.006921 118297.000000 0 0 1
-5.257992 -33.761735 -24.690185 42.155740 1.416299 2.196527 -0.016671 -0.001845 184572.000000 0 0 1
-4.468492 -33.656625 -23.319785 41.189175 1.438801 2.172640 -0.009752 -0.005319 268102.000000 0 0 1
-4.980792 -32.866995 -22.238085 39.994750 1.420397 2.160392 -0.000335 0.003797 -126177.000000 0 0 1
-5.026892 -31.514485 -22.587285 39.097542 1.412618 2.186724 -0.007488 0.010534 -244962.000000 0 0 1
-5.566992 -30.696815 -21.430885 37.849289 1.391392 2.172704 0.011312 0.001468 -297535.000000 0 0 1
-6.967092 -30.591315 -21.417585 37.987917 1.346868 2.169776 0.021339 0.006318 -232486.000000 0 0 1
-7.543392 -29.529715 -20.599485 36.786486 1.320694 2.165151 0.029814 -0.009579 117826.000000 0 0 1
-7.686792 -28.153235 -21.273885 36.114672 1.304259 2.200697 0.026813 -0.018709 333805.000000 0 0 1
-6.474692 -27.534305 -21.762085 35.688204 1.339842 2.226584 0.019121 -0.011655 317357.000000 0 0 1
-6.542392 -27.314935 -23.176785 36.415270 1.335708 2.260693 0.032012 -0.016110 -1055430.000000 0 0 1
-5.404392 -27.954075 -23.960785 37.212323 1.379821 2.270373 0.018595 -0.003335 115611.000000 0 0 1
-4.111992 -27.364465 -23.900885 36.564665 1.421645 2.283208 0.010234 -0.003660 543912.000000 0 0 1
-3.415092 -27.557765 -22.657385 35.839229 1.447500 2.255179 -0.006071 -0.004766 -985017.000000 0 0 1
-1.949792 -27.115945 -22.706585 35.421253 1.499014 2.266654 0.008967 -0.003342 -580467.000000 0 0 1
-1.679492 -25.723535 -22.896885 34.478809 1.505599 2.297067 0.010015 -0.004118 243083.000000 0 0 1
-2.304692 -24.790785 -21.979885 33.211594 1.478097 2.294032 0.025988 -0.004494 -600580.000000 0 0 1
-2.236192 -23.304885 -22.584885 32.529913 1.475135 2.338216 0.033667 0.003187 -58107.600000 0 0 1
-3.017392 -22.979385 -23.716585 33.160717 1.440235 2.367708 0.014821 -0.004907 690160.000000 0 0 1
-4.426592 -23.029385 -23.389685 33.121362 1.380897 2.354886 0.007941 -0.008506 383894.000000 0 0 1
-5.223392 -23.158585 -24.688885 34.251203 1.348960 2.375778 0.002252 -0.006286 -349222.000000 0 0 1
-5.049292 -22.026985 -25.489785 34.064828 1.345457 2.416251 0.010719 -0.006368 98793.100000 0 0 1
-5.586092 -22.243785 -26.771085 35.251686 1.324754 2.433228 0.008720 -0.002525 -124660.000000 0 0 1
-5.377192 -21.002685 -27.695685 35.172118 1.320156 2.477430 0.012155 0.000112 78233.900000 0 0 1
-5.673692 -21.375385 -29.011085 36.479321 1.311348 2.490257 0.005964 -0.001399 705673.000000 0 0 1
-4.466992 -21.440185 -29.802485 36.984100 1.365388 2.507853 0.003971 -0.007627 369243.000000 0 0 1
-4.652592 -21.748685 -31.319185 38.412800 1.360048 2.524099 0.004348 -0.012069 -201558.000000 0 0 1
-5.144392 -20.629285 -32.038385 38.451141 1.326408 2.555708 0.032166 -0.017330 -392813.000000 0 0 1
-6.282992 -20.964985 -32.768885 39.405664 1.279624 2.552739 0.016879 -0.008235 -440243.000000 0 0 1
-6.345892 -20.230585 -34.099985 40.154151 1.266839 2.585316 0.017373 -0.013261 -56223.700000 0 0 1
-5.385992 -20.681085 34.133099 40.271387 1.316025 0.559394 0.014940 -0.011285 -641067.000000 0 0 1
-5.577792 -20.025485 32.842099 38.868178 1.299147 0.564304 0.012123 -0.009636 578161.000000 0 0 1
-4.386992 -20.406785 31.909799 38.130274 1.359042 0.579270 0.004213 -0.009213 -360457.000000 0 0 1
-4.333292 -21.694385 31.453099 38.454144 1.373648 0.612979 -0.004442 -0.004826 91176.600000 0 0 1
-3.294792 -22.005585 30.518199 37.768530 1.422175 0.629992 0.003657 -0.004134 1221840.000000 0 0 1
-1.832292 -22.093985 31.126799 38.214906 1.488054 0.618895 0.003554 -0.004166 312175.000000 0 0 1
-1.289292 -20.821885 31.166499 37.504184 1.508955 0.589868 0.003417 -0.008966 -839824.000000 0 0 1
-0.177992 -20.637485 31.975699 38.057624 1.562172 0.573160 0.006011 -0.004756 -514056.000000 0 0 1
-0.486892 -20.197485 33.402099 39.036850 1.546694 0.543980 -0.001685 -0.009285 -69103.100000 0 0 1
-1.204292 -18.967385 33.446399 38.469125 1.507389 0.516739 0.000041 -0.019037 -23930.700000 0 0 1
-1.506892 -18.594585 -34.359785 39.097623 1.489934 2.644180 0.000252 -0.019448 175060.000000 0 0 1
-2.670992 -17.617285 -34.129785 38.501235 1.420330 2.660434 -0.012039 -0.014846 344202.000000 0 0 1
-2.216692 -16.326885 -34.509985 38.241599 1.435852 2.696150 0.008436 -0.020399 244355.000000 0 0 1
-3.241192 -15.374885 -34.274785 37.704818 1.363028 2.711745 0.016968 -0.019074 179055.000000 0 0 1
-2.933592 -13.912385 34.384699 37.208439 1.362979 0.392096 0.018825 -0.013953 -616209.000000 0 0 1
-2.026692 -13.292285 -33.898485 36.467788 1.419490 2.763976 0.011963 -0.008858 -282409.000000 0 0 1
-1.794992 -11.919685 -34.005985 36.079189 1.421329 2.800942 0.003680 -0.004706 -169314.000000 0 0 1
-1.082192 -11.400585 33.893699 35.776072 1.476156 0.325832 0.002326 -0.007534 -620165.000000 0 0 1
-1.866792 -11.432285 32.709799 34.700331 1.408934 0.340354 0.007876 -0.012026 155190.000000 0 0 1
-1.231192 -11.020585 31.480799 33.376786 1.459540 0.338679 0.005453 -0.006628 222610.000000 0 0 1
-0.281692 -12.150485 30.919699 33.222604 1.547617 0.374522 0.001225 -0.010945 445614.000000 0 0 1
-0.952292 -13.256885 30.343399 33.126631 1.499086 0.412848 0.020055 -0.017817 -328796.000000 0 0 1
-0.006892 -14.168585 29.925599 33.110275 1.570310 0.442191 0.010074 -0.020113 -409809.000000 0 0 1
-0.340092 -15.611085 30.462299 34.231174 1.549015 0.473672 0.016482 -0.024264 -375423.000000 0 0 1
-1.307592 -16.256185 29.728299 33.907891 1.490533 0.501761 0.024382 -0.023478 -575822.000000 0 0 1
-1.556092 -17.469785 30.321499 35.028675 1.481957 0.524410 0.023534 -0.020681 -299984.000000 0 0 1
-2.154192 -18.492985 29.375499 34.778599 1.454832 0.564898 0.022399 -0.020799 -148023.000000 0 0 1
-3.408892 -18.082085 28.850399 34.218823 1.384460 0.567747 0.036219 -0.021951 529959.000000 0 0 1
-4.104492 -19.156585 28.148499 34.295183 1.359727 0.608037 0.036183 -0.016951 699782.000000 0 0 1
-3.495792 -19.325685 26.693499 33.139788 1.391843 0.634308 0.033366 -0.021745 373279.000000 0 0 1
-4.326392 -20.168985 25.841499 33.064916 1.359491 0.673668 0.040309 -0.020108 219729.000000 0 0 1
-4.353392 -21.551985 26.193399 34.198453 1.371483 0.698320 0.025863 -0.015205 -327219.000000 0 0 1
-28.370102 34.501115 -0.367401 44.669056 -0.882608 1.579021 -0.013067 0.002334 -403904.000000 0 0 1
-27.633402 -33.609255 -0.196301 43.511210 0.882667 1.575308 0.000582 0.014660 -130059.000000 0 0 1
-28.202872 -32.905355 0.889699 43.346925 0.862200 1.550270 -0.014074 0.010846 -49419.400000 0 0 1
-27.551592 -31.527055 1.158299 41.885403 0.852588 1.543139 0.005801 0.000559 -544006.000000 0 0 1
-26.206652 -31.535555 1.504399 41.031001 0.877425 1.534123 0.004434 -0.006644 -773467.000000 0 0 1
-25.695282 -30.230955 1.860399 39.719255 0.866322 1.523940 0.017028 -0.007711 33158.400000 0 0 1
-24.213592 -30.217655 2.235899 38.786646 0.895259 1.513118 0.022200 -0.005608 -328203.000000 0 0 1
-23.873892 -31.037455 3.362599 39.301315 0.915122 1.485132 0.019693 -0.005856 -352945.000000 0 0 1
-22.463692 -30.992855 3.399999 38.428303 0.943618 1.482204 0.022116 -0.000799 -330880.000000 0 0 1
-21.874692 -31.629655 4.699499 38.743031 0.965738 1.449198 0.020912 -0.006204 -179266.000000 0 0 1
-22.150292 -30.794755 5.785799 38.372227 0.947242 1.419438 0.013868 -0.008516 -392849.000000 0 0 1
-21.806892 -31.439655 6.958899 38.889827 0.964371 1.390889 0.007401 0.002744 -190898.000000 0 0 1
-22.249692 -30.720755 8.276399 38.824120 0.943976 1.355971 0.001924 0.010008 14865.700000 0 0 1
-21.548692 -29.529055 8.694099 37.575238 0.940385 1.337302 0.006204 0.011240 357818.000000 0 0 1
-22.222392 -28.951155 9.835399 37.798665 0.916137 1.307562 -0.005289 0.017812 138646.000000 0 0 1
-21.479792 -27.785655 10.505899 36.657850 0.912704 1.280127 0.003861 0.010303 434183.000000 0 0 1
-20.254192 -28.227855 11.091799 36.470153 0.948405 1.261768 -0.002547 0.007939 56739.500000 0 0 1
-19.718392 -27.200955 11.910799 35.645112 0.943544 1.230094 0.009630 0.002511 370137.000000 0 0 1
-18.380092 -27.706455 12.546799 35.537270 0.985068 1.209956 0.007225 0.010430 456952.000000 0 0 1
-18.489992 -28.601855 13.667599 36.698081 0.996913 1.189166 0.005007 0.013855 -153959.000000 0 0 1
-17.186692 -28.946755 14.101699 36.498697 1.034996 1.174113 0.007785 0.012351 95389.200000 0 0 1
-17.135392 -29.901055 15.312499 37.711634 1.050414 1.152678 0.002457 -0.001920 85495.200000 0 0 1
-17.538192 -31.183455 14.890699 38.752147 1.058468 1.176396 0.002801 0.000576 -44856.800000 0 0 1
-16.960892 -32.141355 15.748199 39.607377 1.085238 1.161888 0.030502 -0.001734 73166.100000 0 0 1
-17.476692 -33.425055 15.235999 40.679291 1.089027 1.186896 0.009184 -0.005157 86469.800000 0 0 1
-17.106092 -34.510055 16.064999 41.733038 1.110607 1.175646 0.028858 -0.001863 -122888.000000 0 0 1
-17.159992 33.475415 15.405999 40.649890 -1.097108 1.182089 0.013736 -0.003450 -99112.800000 0 0 1
-16.639292 32.386515 16.257399 39.875499 -1.096192 1.150858 0.023437 -0.010455 -221953.000000 0 0 1
-17.580792 32.225615 17.291199 40.577827 -1.071373 1.130592 0.024313 -0.017871 330470.000000 0 0 1
-17.259592 31.118315 18.126299 39.935019 -1.064395 1.099665 0.009409 -0.016524 308055.000000 0 0 1
-18.112392 31.189715 19.450299 40.977691 -1.044676 1.076223 0.014696 -0.016404 278133.000000 0 0 1
-17.768492 32.172015 20.365799 42.018134 -1.066192 1.064787 0.009506 -0.012254 -315350.000000 0 0 1
-18.676892 32.202215 21.422799 42.950498 -1.045222 1.048607 0.008516 -0.006029 -120380.000000 0 0 1
-18.244992 33.196015 22.533199 44.074938 -1.068250 1.034161 -0.007351 0.002263 536845.000000 0 0 1
-17.012492 32.922415 23.209799 43.726480 -1.093843 1.011258 -0.000707 -0.005455 210510.000000 0 0 1
-16.945392 33.544315 24.483999 44.853468 -1.103026 0.993374 -0.005333 -0.002754 -732358.000000 0 0 1
-17.799692 32.971615 25.560899 45.357645 -1.075780 0.972130 -0.010374 -0.004625 -1614300.000000 0 0 1
-19.106792 33.333415 25.345499 46.028039 -1.050314 0.987649 -0.017729 -0.007346 -1308130.000000 0 0 1
-19.983892 32.454915 26.038799 46.159468 -1.018881 0.971447 -0.022467 -0.004285 -918048.000000 0 0 1
-21.437792 32.814015 25.886599 46.972912 -0.992096 0.987119 -0.006427 -0.016586 -1267560.000000 0 0 1
-21.800992 32.555415 24.575699 46.250441 -0.980726 1.010590 -0.004505 -0.007164 783700.000000 0 0 1
-23.151492 32.981015 24.316399 47.064065 -0.958753 1.027844 -0.019367 -0.009875 577699.000000 0 0 1
-23.508892 32.512915 22.924699 46.209301 -0.944759 1.051688 -0.023578 -0.008933 -543032.000000 0 0 1
-22.990392 33.243215 21.885599 45.963561 -0.965743 1.074524 -0.019643 -0.011028 -145945.000000 0 0 1
-23.052392 32.405415 20.739899 44.851612 -0.952477 1.090083 -0.018286 -0.001833 -168122.000000 0 0 1
-22.551292 33.178615 19.533199 44.619806 -0.973829 1.117680 -0.010830 -0.002205 -835403.000000 0 0 1
-21.273492 33.654415 19.754699 44.445801 -1.007096 1.110217 0.000491 0.002964 -779135.000000 0 0 1
-20.627592 34.196415 18.601899 44.055908 -1.028020 1.134888 -0.000087 0.005997 184393.000000 0 0 1
-19.309592 -34.382955 18.969999 43.759670 1.059088 1.122419 0.012341 -0.003233 -104992.000000 0 0 1
-19.609992 -33.280555 19.764399 43.390996 1.038332 1.097868 0.009191 -0.003761 168068.000000 0 0 1
-18.455892 -32.661855 20.304199 42.657674 1.056465 1.074718 0.010232 -0.005191 -289400.000000 0 0 1
-18.767492 -31.660955 21.382399 42.565735 1.035714 1.044495 0.009043 -0.006141 -296896.000000 0 0 1
-19.179692 -30.402955 20.882799 41.572725 1.008002 1.044517 0.013922 0.000064 81142.900000 0 0 1
-19.378792 -29.540055 21.972099 41.604393 0.990203 1.014412 0.019174 0.003324 36107.600000 0 0 1
-20.173092 -28.221655 21.658599 40.896336 0.950200 1.012670 0.001632 0.003371 -242373.000000 0 0 1
-19.442892 -27.241155 20.922499 39.469703 0.950913 1.012090 0.006065 0.012791 210297.000000 0 0 1
-20.098292 -26.053155 20.422699 38.727184 0.913718 1.015320 0.004731 0.025754 -499039.000000 0 0 1
-21.188292 -26.240455 19.345899 38.881473 0.891519 1.050012 0.005136 0.017270 -77881.800000 0 0 1
-22.473092 -26.317755 19.946399 39.943997 0.864035 1.047937 -0.003103 0.014196 -186155.000000 0 0 1
-23.441792 -26.221955 18.936399 39.946160 0.841320 1.076914 -0.003018 0.016757 398083.000000 0 0 1
-24.873792 -26.635855 19.452499 41.310700 0.819593 1.080505 -0.014954 0.015835 657564.000000 0 0 1
-25.114282 -27.979055 19.832599 42.507489 0.839303 1.085391 -0.020094 0.008520 -182275.000000 0 0 1
-25.198522 -28.901355 18.767099 42.690254 0.853736 1.115631 -0.016303 0.005307 -449526.000000 0 0 1
-26.243462 -30.001355 19.014899 44.162959 0.852112 1.125681 -0.006204 -0.006440 -233055.000000 0 0 1
-27.511642 -29.450355 19.238399 44.657920 0.819420 1.125423 -0.003561 -0.006834 -1306680.000000 0 0 1
-28.506942 -29.999355 18.490399 45.326613 0.810901 1.150603 -0.004933 -0.001617 86570.100000 0 0 1
-29.914882 -29.350855 18.834799 45.946953 0.775882 1.148425 -0.004911 -0.007941 934695.000000 0 0 1
-30.113352 -28.053655 18.368899 45.069257 0.750003 1.151004 0.003896 0.002165 -466096.000000 0 0 1
-31.431792 -27.610755 18.500499 45.744724 0.720772 1.154442 -0.003362 0.013293 -507719.000000 0 0 1
-31.862912 -26.338455 17.711999 44.974151 0.690762 1.166006 -0.011653 0.005014 -181424.000000 0 0 1
-32.115422 -26.463655 16.334099 44.704900 0.689215 1.196760 0.018318 -0.006602 306373.000000 0 0 1
-32.506972 -25.236755 15.656299 44.030861 0.660152 1.207267 0.015065 -0.007821 -359838.000000 0 0 1
-31.390442 -24.247555 15.269999 42.502666 0.657715 1.203309 -0.010158 0.010104 -172854.000000 0 0 1
-30.861712 -23.556555 16.411699 42.150924 0.651955 1.170864 -0.018948 0.023341 157542.000000 0 0 1
-30.475472 -22.193155 16.196899 41.032061 0.629422 1.165014 -0.026091 0.026490 16843.900000 0 0 1
-31.566442 -21.096555 16.415599 41.363955 0.589148 1.162706 -0.015309 0.011924 87538.100000 0 0 1
-31.851272 -20.828855 17.761799 41.997931 0.579141 1.134130 -0.009692 0.013631 232261.000000 0 0 1
-32.655122 -19.648355 17.739699 42.037028 0.541663 1.135144 -0.002157 0.010730 -126474.000000 0 0 1
-33.047772 -19.269155 19.145699 42.778655 0.527878 1.106770 0.004012 0.001308 -62260.900000 0 0 1
-34.050542 -20.138555 19.668799 44.179887 0.534095 1.109401 0.005650 0.005145 363457.000000 0 0 1
-34.385219 -19.775155 21.007599 44.885624 0.521914 1.083742 0.006113 0.011102 632183.000000 0 0 1
34.456389 -20.253355 21.621099 45.441314 -0.531398 1.074920 0.001762 0.013227 649329.000000 0 0 1
34.196969 -21.626255 21.642399 45.885957 -0.563905 1.079628 0.003583 0.011817 70847.900000 0 0 1
34.949398 -22.266655 22.674599 47.237716 -0.567261 1.070130 -0.008104 0.024632 30401.000000 0 0 1
34.341263 -23.639555 23.178499 47.701087 -0.602879 1.063391 0.000334 0.031607 1047160.000000 0 0 1
33.131059 -23.466355 23.961099 47.143092 -0.616267 1.037629 0.021941 0.015578 880205.000000 0 0 1
32.953549 -24.603955 24.765899 48.006674 -0.641338 1.028756 0.030077 0.007011 180850.000000 0 0 1
31.878839 -24.422055 25.914399 47.793862 -0.653719 0.997729 0.035843 0.002905 1035100.000000 0 0 1
30.516019 -24.561955 25.531399 46.758629 -0.677714 0.993184 0.045267 0.006294 226671.000000 0 0 1
29.704539 -24.780355 26.668699 46.985584 -0.695266 0.967217 0.027252 0.015112 -748380.000000 0 0 1
28.351779 -25.341155 26.318299 46.245544 -0.729386 0.965386 0.017715 0.005689 -403039.000000 0 0 1
27.368789 -24.361255 25.910399 44.876164 -0.727325 0.955286 0.016445 0.006578 137832.000000 0 0 1
26.107649 -25.000055 25.928499 44.484819 -0.763730 0.948550 0.011483 0.017854 267220.000000 0 0 1
24.957019 -24.007555 25.530799 43.023682 -0.766010 0.935504 0.016865 0.012808 -23683.300000 0 0 1
24.910319 -23.472955 24.157199 41.893602 -0.755699 0.956196 0.034576 0.008905 806679.000000 0 0 1
26.039469 -22.591555 23.899399 41.947748 -0.714617 0.964604 0.027474 0.008457 858826.000000 0 0 1
25.890269 -21.813555 22.566199 40.686245 -0.700146 0.982867 0.035774 0.005651 582833.000000 0 0 1
24.930419 -20.742855 22.636999 39.550291 -0.693969 0.961415 0.026131 -0.004232 538641.000000 0 0 1
24.760619 -20.150855 21.364199 38.413203 -0.683115 0.981028 0.006524 0.001092 -65269.700000 0 0 1
24.210419 -18.685655 21.301599 37.270044 -0.657309 0.962406 0.028264 0.003673 -139951.000000 0 0 1
25.010619 -17.677755 21.881899 37.641089 -0.615282 0.950434 0.028820 -0.011607 10488.400000 0 0 1
24.987519 -17.643855 23.275399 38.437298 -0.614813 0.920350 0.029600 -0.007445 -146998.000000 0 0 1
25.077419 -16.200355 23.733999 38.139627 -0.573568 0.899129 0.033044 -0.003284 -308457.000000 0 0 1
23.876819 -15.501655 23.546499 36.943760 -0.575837 0.879728 0.008087 0.002018 -332965.000000 0 0 1
23.932019 -14.323055 24.244499 36.955205 -0.539308 0.855222 0.000224 0.005218 -26229.600000 0 0 1
22.643919 -13.526755 23.960399 35.634546 -0.538482 0.833360 -0.010414 0.005202 1067260.000000 0 0 1
21.481819 -14.083355 24.620499 35.580590 -0.580298 0.806590 0.011644 0.002983 616219.000000 0 0 1
20.301319 -13.328055 24.466899 34.473319 -0.580939 0.781675 0.022238 0.004215 261098.000000 0 0 1
19.006519 -14.077855 24.859599 34.313750 -0.637513 0.760518 0.021372 0.009878 95271.300000 0 0 1
18.680219 -15.238155 24.075699 34.070386 -0.684264 0.786050 0.025936 0.008716 836529.000000 0 0 1
17.412019 -15.826955 24.438299 33.924937 -0.737747 0.766470 0.018801 0.016215 802830.000000 0 0 1
17.027419 -16.941255 23.412599 33.542345 -0.782862 0.798194 0.005204 0.008218 -186259.000000 0 0 1
17.743119 -18.136555 23.576499 34.635303 -0.796363 0.822069 -0.003841 0.007863 -9805.200000 0 0 1
17.237919 -19.187655 22.751999 34.394264 -0.838874 0.847972 -0.000116 0.011179 -7519.930000 0 0 1
17.562219 -20.636455 23.125399 35.624133 -0.865705 0.864330 -0.011508 0.014535 -523015.000000 0 0 1
16.894119 -20.965955 24.308899 36.275406 -0.892536 0.836425 -0.016577 0.015435 -1358.190000 0 0 1
17.010419 -22.346555 24.700599 37.401102 -0.920159 0.849413 0.000579 0.009012 -219803.000000 0 0 1
16.414019 -23.468955 23.787799 37.229978 -0.960478 0.877674 -0.002947 0.001276 45376.300000 0 0 1
17.219519 -23.647055 22.634999 36.987000 -0.941401 0.912245 0.003988 0.004573 140449.000000 0 0 1
18.256419 -24.582755 22.863399 38.214443 -0.932015 0.929428 0.016140 0.000432 -152792.000000 0 0 1
19.272319 -24.694355 21.714999 38.115281 -0.908100 0.964632 0.030879 0.010019 -498334.000000 0 0 1
18.819819 -25.466355 20.653099 37.805705 -0.934368 0.992861 0.047971 -0.009414 60824.700000 0 0 1
19.719519 -25.728855 19.580899 37.871427 -0.916859 1.027412 0.034788 -0.006857 294795.000000 0 0 1
18.955919 -26.329155 18.356799 37.276310 -0.946800 1.055891 0.043481 -0.015896 505257.000000 0 0 1
18.261219 -27.548655 18.612099 37.931659 -0.985426 1.057933 0.059535 -0.023268 383410.000000 0 0 1
17.595319 -28.107355 17.467899 37.479943 -1.011475 1.085964 0.057354 -0.023047 53928.100000 0 0 1
16.890919 -29.443755 17.797499 38.327390 -1.049964 1.087891 0.065808 -0.028617 68633.000000 0 0 1
15.930019 -29.285955 18.809999 38.278567 -1.072612 1.057103 0.047204 -0.028617 -148583.000000 0 0 1
15.172819 -30.425055 19.163399 39.027352 -1.108193 1.057531 0.049526 -0.026480 465157.000000 0 0 1
13.875819 -30.065155 19.964299 38.665554 -1.138400 1.028233 0.042293 -0.019266 -79624.500000 0 0 1
13.027919 -29.358055 19.116999 37.377556 -1.153144 1.033917 0.048669 -0.021916 -789470.000000 0 0 1
11.785519 -29.182755 19.747499 37.155018 -1.186974 1.010438 0.025862 -0.018093 94415.600000 0 0 1
10.734819 -28.411655 18.903199 35.774144 -1.209546 1.014077 0.029282 -0.020320 52119.000000 0 0 1
10.397919 -29.099355 17.723799 35.623338 -1.227611 1.050043 0.025379 -0.012720 -315132.000000 0 0 1
9.684719 -28.227555 16.899199 34.295357 -1.240287 1.055544 0.032580 -0.008366 -81053.200000 0 0 1
9.416719 -28.987155 15.594799 34.236347 -1.256693 1.097858 0.030264 -0.004500 173897.000000 0 0 1
8.615719 -30.142155 15.773999 35.094147 -1.292384 1.104617 0.010440 0.004893 -34141.800000 0 0 1
9.093419 -31.094555 14.813699 35.623128 -1.286286 1.141925 0.018794 0.009283 89421.800000 0 0 1
8.163419 -32.261455 14.410199 36.264262 -1.322959 1.162151 0.009791 0.007016 -258888.000000 0 0 1
8.008819 -33.331555 15.351199 37.560525 -1.334989 1.149761 0.009315 0.003897 -57744.400000 0 0 1
7.185319 -34.369755 14.867899 38.130870 -1.364705 1.170254 0.000370 0.007008 -67235.000000 0 0 1
6.975919 33.735815 15.856099 37.923404 1.366889 1.139434 0.029559 0.007320 579042.000000 0 0 1
8.151619 32.931615 15.969499 37.496201 1.328142 1.130844 0.015685 0.008278 417289.000000 0 0 1
7.897819 31.850915 16.828299 36.878828 1.327737 1.096949 0.026775 0.003733 -157139.000000 0 0 1
9.202719 31.128115 17.149499 36.711782 1.283344 1.084744 0.010791 0.007228 -159720.000000 0 0 1
9.712719 30.488815 16.002199 35.776740 1.262394 1.107075 0.026499 0.003654 1440550.000000 0 0 1
11.066719 29.942215 16.195499 35.795289 1.216766 1.101288 0.023969 0.004171 1204480.000000 0 0 1
11.511019 29.105015 14.990199 34.703192 1.194176 1.124138 0.017836 0.003016 -317825.000000 0 0 1
10.883219 27.889215 14.605199 33.310128 1.198740 1.116911 0.014062 -0.001700 -152104.000000 0 0 1
11.446719 27.447515 13.401399 32.618874 1.175687 1.147412 0.017674 0.000413 52323.600000 0 0 1
-9.371092 -9.167085 19.325582 23.352322 0.774394 0.596039 0.013173 -0.017885 29746.500000 0 1 0
-9.766292 -9.449885 18.000882 22.554657 0.768934 0.646660 0.022994 -0.016289 -107014.000000 0 1 0
-9.613592 -10.830085 17.682382 22.855602 0.844833 0.686205 0.013383 -0.014710 -94277.900000 0 1 0
-10.036492 -11.114985 16.213582 22.071572 0.836343 0.745732 0.026712 -0.012822 1193090.000000 0 1 0
-11.491392 -11.122385 16.158582 22.734540 0.769082 0.780232 0.021128 -0.009927 1400820.000000 0 1 0
-12.023092 -11.607085 14.931182 22.410251 0.767795 0.841606 0.032651 -0.001551 -16353.400000 0 1 0
-11.846792 -13.105585 14.660982 22.957509 0.835803 0.878101 0.022155 -0.006295 -654498.000000 0 1 0
-10.568692 -13.339185 14.095782 22.098013 0.900766 0.879060 0.023833 -0.013093 151916.000000 0 1 0
-10.248992 -14.727785 13.947582 22.726296 0.962831 0.910033 0.016140 -0.014021 -75563.200000 0 1 0
-9.831192 -15.402085 15.316182 23.842441 1.002688 0.873182 0.010714 -0.017279 11829.200000 0 1 0
-10.857092 -15.526085 16.298782 24.991720 0.960553 0.860356 -0.000362 -0.007988 265934.000000 0 1 0
-10.276392 -15.851285 17.603082 25.821231 0.995617 0.820673 0.011424 -0.006248 489169.000000 0 0 1
-11.209092 -15.388585 18.795482 26.752989 0.941261 0.791813 -0.000502 -0.002107 -265459.000000 0 0 1
-11.434192 -13.991085 18.827882 26.095600 0.885626 0.764835 -0.003200 -0.009584 -171796.000000 0 0 1
-12.609292 -13.573985 18.189582 25.963594 0.822225 0.794586 -0.008048 -0.012338 -865978.000000 0 0 1
-13.901692 -13.739085 18.961282 27.231410 0.779515 0.800564 -0.035061 -0.007706 -1008200.000000 0 0 1
-14.335892 -15.080385 19.203582 28.314543 0.810702 0.825454 -0.031928 -0.003835 -67684.400000 0 0 1
-15.200692 -15.028785 20.336782 29.504408 0.779711 0.810302 -0.018326 -0.001303 71651.900000 0 0 1
-15.776392 -16.414685 20.716882 30.781904 0.805224 0.832510 0.000878 0.002486 -56069.200000 0 0 1
-16.656192 -16.948485 19.745782 30.896210 0.794096 0.877468 0.006583 0.005993 -195802.000000 0 0 1
-17.121992 -18.212985 20.163182 32.115874 0.816264 0.892039 -0.008632 0.006481 -312856.000000 0 0 1
-18.332692 -18.778185 19.422382 32.648687 0.797402 0.933667 0.007440 0.010040 -401691.000000 0 0 1
-18.189992 -18.832085 18.039082 31.795152 0.802740 0.967508 0.006010 0.008983 -126500.000000 0 0 1
-18.472192 -17.672985 17.299582 30.867974 0.763291 0.975882 0.007630 0.007806 -976927.000000 0 0 1
-18.243992 -17.827885 15.780882 29.995216 0.773863 1.016773 0.007088 0.002136 -957915.000000 0 0 1
-19.144792 -18.709985 15.233782 30.800239 0.773912 1.053422 0.011926 0.001311 -419648.000000 0 0 1
-18.969892 -18.658185 13.785482 29.967051 0.777114 1.092777 0.016798 -0.004516 30186.300000 0 0 1
-19.167692 -20.015085 13.073182 30.641673 0.807021 1.130014 0.021671 0.002030 725183.000000 0 0 1
-18.155092 -21.026485 13.335582 30.814902 0.858552 1.123240 0.011360 0.013001 557051.000000 0 0 1
-18.330592 -22.096685 12.441182 31.289888 0.878287 1.161885 0.003975 0.013216 -575574.000000 0 0 1
-17.485692 -23.337085 12.804182 31.848328 0.927765 1.157057 0.001294 0.011504 -10541.600000 0 0 1
-17.651892 -24.461185 11.929682 32.438498 0.945701 1.194194 0.004979 0.006060 148124.000000 0 0 1
-16.833992 -24.349385 10.765682 31.498821 0.965898 1.221986 0.006821 0.004425 -128565.000000 0 0 1
-16.802892 -25.579015 9.817382 32.140382 0.989585 1.260382 0.019176 0.005127 -532096.000000 0 0 1
-17.996092 -25.792995 9.146882 32.753677 0.961607 1.287770 0.006792 0.007845 -911918.000000 0 0 1
-17.871592 -26.784135 8.164482 33.218104 0.982393 1.322468 0.006142 0.011509 143022.000000 0 0 1
-19.018792 -26.791225 7.134182 33.621135 0.953464 1.356977 0.005272 0.007621 122829.000000 0 0 1
-18.977392 -25.626755 6.389082 32.522182 0.933383 1.373057 0.007787 0.004748 -39851.500000 0 0 1
-19.872392 -25.540705 5.296282 32.791617 0.909573 1.408572 0.011787 0.001187 -7287.020000 0 0 1
-20.055292 -24.151685 4.686282 31.740823 0.877798 1.422612 0.016381 0.000475 111941.000000 0 0 1
-20.936192 -24.229185 3.578282 32.220826 0.858179 1.459512 0.015285 0.001401 -242119.000000 0 0 1
-20.894192 -22.949685 2.971082 31.178239 0.832246 1.475358 0.018615 0.012204 302239.000000 0 0 1
-21.662792 -22.826785 1.643082 31.512511 0.811555 1.518632 0.007607 0.011101 106254.000000 0 0 1
-20.918992 -23.507385 0.665982 31.474512 0.843595 1.549635 0.005718 0.007360 153841.000000 0 0 1
-21.390592 -23.206985 -0.625618 31.567593 0.826104 1.590616 0.003902 0.001299 -108764.000000 0 0 1
-20.769892 -24.123785 -1.724318 31.879753 0.859967 1.624911 0.009303 0.001653 -568633.000000 0 0 1
-19.372392 -24.054585 -1.765218 30.935879 0.892801 1.627888 0.015125 0.003786 -553213.000000 0 0 1
-18.789792 -24.492885 -2.963618 31.011945 0.916407 1.666506 0.009698 0.006896 27986.300000 0 0 1
-18.612492 -26.001695 -3.115218 32.128143 0.949533 1.667911 0.014284 -0.002826 -799307.000000 0 0 1
-19.773592 -26.616235 -3.535818 33.345478 0.931845 1.677032 0.034986 -0.008268 -884096.000000 0 0 1
-19.409292 -27.872575 -4.003618 34.199854 0.962519 1.688131 0.043720 -0.011908 101615.000000 0 0 1
-20.543192 -28.680755 -4.650418 35.584193 0.949234 1.701859 0.045151 -0.009095 35631.200000 0 0 1
-21.006392 -28.131545 -5.875018 35.597305 0.929398 1.736596 0.028264 -0.006636 136237.000000 0 0 1
-22.021192 -28.979135 -6.429518 36.960274 0.920990 1.745643 0.030241 -0.017117 133765.000000 0 0 1
-22.441192 -28.550245 -7.856018 37.154281 0.904635 1.783848 0.007327 0.002132 309484.000000 0 0 1
-21.312792 -28.507355 -8.752418 36.653911 0.928817 1.811911 0.019705 -0.000662 770375.000000 0 0 1
-21.747192 -28.558245 -10.116918 37.294312 0.919974 1.845511 0.015145 0.006021 -128316.000000 0 0 1
-22.404192 -27.263355 -10.629018 36.853960 0.882922 1.863361 -0.005354 0.014089 -209268.000000 0 0 1
-21.623592 -26.081345 -10.833018 35.569236 0.878572 1.880274 -0.011205 0.019467 -32852.300000 0 0 1
-21.182192 -25.485815 -9.667818 34.520700 0.877356 1.854651 -0.011505 0.015947 -165053.000000 0 0 1
-20.915092 -23.985185 -9.709118 33.271566 0.853668 1.866919 -0.019201 0.007440 220626.000000 0 0 1
-22.042292 -23.277885 -10.194218 33.639926 0.812655 1.878677 -0.026831 0.015870 117503.000000 0 0 1
-21.653492 -21.983985 -10.517818 32.600518 0.792972 1.899300 -0.023575 0.020142 -23334.200000 0 0 1
-22.828592 -21.006385 -10.472818 32.742827 0.743852 1.896368 -0.020862 0.019504 -243613.000000 0 0 1
-23.838392 -21.311185 -11.394118 33.944977 0.729482 1.913107 -0.032981 0.037038 911394.000000 0 0 1
-25.055192 -20.523385 -11.498018 34.368246 0.686295 1.911928 -0.033328 0.038409 1151420.000000 0 0 1
-24.999792 -18.982985 -11.654618 33.483928 0.649443 1.926304 -0.027794 0.026633 -1184280.000000 0 0 1
-24.441992 -18.606985 -12.925818 33.327280 0.650676 1.969089 -0.025377 0.022473 344529.000000 0 0 1
-24.293892 -17.219085 -13.075018 32.521472 0.616596 1.984543 -0.011859 0.011873 -62665.900000 0 0 1
-23.103792 -16.612285 -12.312318 31.005586 0.623383 1.979151 -0.030765 0.017883 -801663.000000 0 0 1
-23.435492 -16.611585 -10.906318 30.726451 0.616622 1.933656 -0.011270 0.009755 29954.200000 0 0 1
-22.418892 -16.930785 -9.978818 29.813336 0.646822 1.912094 -0.027329 0.013577 -339433.000000 0 0 1
-22.968792 -17.285585 -8.576318 29.998501 0.645143 1.860733 -0.031516 0.003536 19678.000000 0 0 1
-23.428992 -18.618785 -8.492718 31.107926 0.671495 1.847315 -0.032957 0.005865 -278501.000000 0 0 1
-23.973092 -18.782485 -7.234618 31.302245 0.664588 1.804026 -0.012160 0.003268 -287720.000000 0 0 1
-24.423792 -20.206185 -6.960518 32.453972 0.691176 1.786949 -0.012178 -0.001160 103562.000000 0 0 1
-25.536302 -20.504385 -7.801818 33.666019 0.676537 1.804664 -0.014920 -0.010208 147706.000000 0 0 1
-26.085162 -21.811085 -7.617018 34.845058 0.696398 1.791173 -0.013459 -0.002747 -218907.000000 0 0 1
-25.436272 -22.916385 -8.459418 35.266505 0.733331 1.813029 -0.040974 0.007973 -224934.000000 0 0 1
-26.125312 -24.122985 -8.488418 36.558221 0.745571 1.805124 -0.021762 0.002577 -818428.000000 0 0 1
-25.426922 -25.125365 -9.142518 36.897126 0.779433 1.821189 -0.024188 0.003744 -102067.000000 0 0 1
-25.913692 -26.566265 -8.901818 38.164489 0.797832 1.806214 -0.018805 -0.000905 -622262.000000 0 0 1
-25.384262 -27.192875 -7.769318 38.002309 0.819784 1.776691 -0.009564 -0.007280 -110646.000000 0 0 1
-26.109072 -28.312995 -7.220618 39.184775 0.825873 1.756126 -0.002866 -0.011994 -148940.000000 0 0 1
-25.686552 -28.693185 -5.769718 38.940820 0.840632 1.719510 0.002266 -0.013061 -296953.000000 0 0 1
-26.194242 -27.892035 -4.712918 38.552762 0.816778 1.693349 -0.008201 -0.008707 135542.000000 0 0 1
-25.495112 -27.973465 -3.447818 38.005301 0.831717 1.661641 -0.010220 -0.015652 163414.000000 0 0 1
-25.575372 -29.279985 -2.613718 38.964711 0.852830 1.637926 0.003557 -0.009344 -307233.000000 0 0 1
-25.381992 -30.460785 -3.394418 39.794811 0.876097 1.656198 0.025341 -0.009566 -5048.110000 0 0 1
-25.623422 -31.778785 -2.808518 40.918684 0.892222 1.639487 0.023170 -0.006007 -316131.000000 0 0 1
-24.850992 -32.118605 -1.528618 40.638814 0.912283 1.608420 0.026609 -0.016506 1121120.000000 0 0 1
-23.434392 -31.953325 -1.834118 39.667993 0.938008 1.617050 0.042284 -0.028888 940012.000000 0 0 1
-22.696892 -32.370535 -0.687718 39.540781 0.959293 1.588190 0.085635 -0.017542 934398.000000 0 0 1
-21.298892 -31.695475 -0.483118 38.190042 0.979121 1.583447 0.057993 -0.020244 804624.000000 0 0 1
-21.499892 -30.339615 -0.014618 37.185182 0.954295 1.571189 0.032935 -0.014608 -70085.500000 0 0 1
-21.657092 -29.346725 -0.997818 36.486374 0.935037 1.598147 0.027107 -0.016808 -86398.700000 0 0 1
-22.328492 -28.025705 -0.525618 35.836824 0.898062 1.585464 0.016092 -0.012617 1029330.000000 0 0 1
-23.741492 -28.206925 -0.251618 36.869396 0.871146 1.577621 0.014503 -0.012607 966907.000000 0 0 1
-24.451992 -27.040885 0.122182 36.457157 0.835633 1.567445 0.009796 -0.007875 71110.100000 0 0 1
-23.951792 -26.149005 1.287282 35.484023 0.829226 1.534511 0.004980 -0.000087 -544704.000000 0 0 1
-23.998392 -26.710555 2.574682 36.000077 0.838832 1.499216 -0.000917 0.005857 -131137.000000 0 0 1
-23.459792 -25.854385 3.577482 35.094293 0.833918 1.468680 0.011756 0.001085 -162119.000000 0 0 1
-24.412392 -24.762585 4.181482 35.023353 0.792519 1.451120 0.024937 0.003498 35005.400000 0 0 1
-24.678492 -23.709785 3.219682 34.373656 0.765381 1.476992 0.015992 0.011073 37713.800000 0 0 1
-25.612692 -22.777785 3.747282 34.480133 0.726881 1.461902 -0.002039 0.013850 -149074.000000 0 0 1
-25.725962 -21.514085 2.832682 33.655684 0.696474 1.486530 -0.002093 0.013022 -44371.900000 0 0 1
-24.533592 -20.758985 2.775782 32.257364 0.702252 1.484639 0.011096 0.014783 58001.200000 0 0 1
-24.625792 -19.823785 1.713382 31.659876 0.677783 1.516651 0.000054 0.011063 860193.000000 0 0 1
-23.288292 -19.012485 1.691982 30.111159 0.684659 1.514576 0.009846 0.016917 652511.000000 0 0 1
-22.092192 -19.666285 1.351482 29.608347 0.727370 1.525135 0.015214 0.011640 123922.000000 0 0 1
-20.967192 -18.924685 1.842182 28.304778 0.734242 1.505666 0.015297 0.013305 686176.000000 0 0 1
-19.657192 -19.689285 1.484682 27.861755 0.786214 1.517484 0.012541 0.000978 6245.420000 0 0 1
-19.280992 -19.624485 0.106582 27.511605 0.794227 1.566922 0.003124 0.002757 694191.000000 0 0 1
-18.138392 -20.495385 -0.052718 27.369049 0.846331 1.572723 0.009511 0.003717 743665.000000 0 0 1
-17.960892 -20.995185 -1.478118 27.669049 0.863131 1.624243 0.012677 0.000779 -324212.000000 0 0 1
-17.533992 -20.004385 -2.324018 26.702384 0.851113 1.657941 0.005233 -0.001696 -102270.000000 0 0 1
-17.282392 -20.549685 -3.638018 27.096232 0.871547 1.705466 0.004567 0.000184 -125301.000000 0 0 1
-16.649992 -19.559885 -4.573918 26.090842 0.865588 1.747014 0.009311 0.005149 417901.000000 0 0 1
-15.268092 -19.296585 -4.317018 24.982183 0.901424 1.744472 0.029433 -0.005454 480305.000000 0 1 0
-14.776292 -18.563585 -5.453918 24.345240 0.898510 1.796738 0.042168 -0.001977 -806676.000000 0 1 0
-13.298392 -18.222385 -5.347918 23.184106 0.940360 1.803564 0.060167 -0.012330 -914195.000000 0 1 0
-12.508392 -19.368985 -5.368118 23.673490 0.997383 1.799542 0.049282 -0.014126 -665249.000000 0 1 0
-11.268692 -19.136985 -5.972718 22.997412 1.038620 1.833521 0.041940 -0.016754 115169.000000 0 1 0
-10.230292 -20.294885 -5.978818 23.500797 1.103888 1.828033 0.038500 -0.018370 507258.000000 0 1 0
-10.713992 -21.390685 -6.737018 24.854344 1.106451 1.845290 0.044202 -0.016102 218510.000000 0 1 0
-9.677092 -22.339485 -6.989318 25.328822 1.162015 1.850367 0.047878 -0.012119 350163.000000 0 0 1
-9.981092 -23.465985 -8.031318 26.735308 1.168635 1.875910 0.040025 -0.007822 -186497.000000 0 0 1
-10.490492 -23.044285 -9.304118 26.975101 1.143600 1.922945 0.034079 -0.004491 226829.000000 0 0 1
-10.557792 -24.109285 -10.234418 28.239474 1.158039 1.941654 0.045072 -0.003755 -171255.000000 0 0 1
-11.255092 -23.675085 -11.534618 28.639730 1.127023 1.985314 0.055973 -0.007579 -200210.000000 0 0 1
-10.508392 -22.949685 -12.505718 28.169262 1.141402 2.030797 0.049254 -0.008586 -72454.200000 0 0 1
-11.342692 -22.379985 -13.505818 28.494341 1.101705 2.064604 0.050341 -0.016156 -291416.000000 0 0 1
-10.752892 -21.161785 -14.309218 27.716413 1.100668 2.113289 0.047083 -0.014367 -152827.000000 0 0 1
-10.659392 -20.024685 -13.434318 26.364588 1.081634 2.105469 0.052472 -0.014669 -14666.300000 0 0 1
-10.873992 -18.869085 -14.212618 26.005472 1.047996 2.149004 0.041623 -0.005406 -139522.000000 0 0 1
-10.254792 -17.592285 -13.592318 24.482654 1.043035 2.159378 0.047813 -0.001656 -433942.000000 0 1 0
-10.924992 -17.197285 -12.430718 23.866814 1.004843 2.118627 0.037377 -0.005913 -125146.000000 0 1 0
-10.311692 -16.133685 -11.733518 22.456674 1.002093 2.120572 0.026866 -0.005929 -58097.000000 0 1 0
-10.256192 -14.742385 -12.375018 21.809824 0.962966 2.174148 0.039254 0.003120 379400.000000 0 1 0
-11.542592 -14.252585 -12.733318 22.327225 0.890072 2.177673 0.044864 0.012865 337891.000000 0 1 0
-11.585892 -14.064385 -14.148218 23.069718 0.881725 2.231004 0.047389 0.001197 598367.000000 0 1 0
-12.868992 -13.297285 -14.654618 23.604799 0.801765 2.240600 0.049066 0.004995 306467.000000 0 1 0
-12.938492 -11.895785 -14.334518 22.680226 0.743436 2.254963 0.029069 0.015002 311888.000000 0 1 0
-13.987492 -11.237985 -15.049418 23.418523 0.676830 2.268721 0.010947 0.014100 233584.000000 0 1 0
-14.254792 -9.776585 -14.563318 22.602454 0.601163 2.270936 0.005568 0.004070 1095080.000000 0 1 0
-13.086892 -8.899485 -14.643318 21.561408 0.597197 2.317393 0.008405 0.005637 1246320.000000 0 1 0
-13.169592 -7.981785 -15.736818 22.018049 0.544876 2.367025 0.009902 -0.000019 -1121960.000000 0 1 0
-12.115292 -6.973785 -15.731118 21.044763 0.522299 2.415098 0.002472 0.002210 -958564.000000 0 1 0
-10.805192 -7.440585 -15.966718 20.665201 0.603042 2.453782 0.002728 0.001565 540494.000000 0 1 0
-9.807292 -6.431285 -15.726318 19.617886 0.580418 2.500816 -0.003646 0.003574 508461.000000 0 1 0
11.072308 21.939515 16.006282 29.328133 1.103416 0.993494 0.027563 0.007106 -439735.000000 0 0 1
11.752008 22.090015 17.241182 30.386458 1.081873 0.967455 0.039924 -0.003416 -117951.000000 0 0 1
12.206108 20.811915 17.694382 29.920161 1.040365 0.938019 0.027229 -0.000916 -515361.000000 0 0 1
13.245908 21.017815 18.772282 31.138420 1.008450 0.923708 0.024581 -0.006645 -274059.000000 0 0 1
14.399908 21.726115 18.320082 31.859172 0.985481 0.958152 0.022540 -0.005999 358385.000000 0 0 1
15.528208 21.184815 19.056582 32.451117 0.938272 0.943152 0.025521 -0.002889 -52192.600000 0 0 1
16.795708 21.565915 18.329182 32.911145 0.909112 0.980112 0.031693 0.000875 -1706170.000000 0 0 1
16.917308 22.940315 18.334382 33.891045 0.935376 0.999194 0.039331 -0.003519 724520.000000 0 0 1
18.167408 23.472315 17.820782 34.620580 0.912116 1.030086 0.038182 -0.000373 1070370.000000 0 0 1
19.434208 23.236515 18.644182 35.570066 0.874272 1.019075 0.023056 -0.004159 -621858.000000 0 0 1
19.823608 21.843615 18.590782 34.867408 0.833840 1.008435 0.031286 0.004548 -947703.000000 0 0 1
21.093908 21.542015 19.034182 35.655455 0.795908 1.007665 0.046130 -0.004250 -746569.000000 0 0 1
21.407608 20.003015 18.792282 34.807416 0.751492 1.000486 0.043485 0.002124 -190091.000000 0 0 1
21.828608 19.648515 17.482582 34.178838 0.732885 1.033863 0.025995 0.008172 131561.000000 0 0 1
21.692808 18.301915 17.175782 33.174471 0.700817 1.026588 0.026218 0.016164 -33458.200000 0 0 1
22.707508 17.398115 17.928582 33.760323 0.653778 1.010951 0.007272 0.016189 -240376.000000 0 0 1
23.956408 17.316715 17.281582 34.240783 0.625893 1.041753 0.012878 0.014441 -44703.500000 0 0 1
24.737808 16.338415 17.976382 34.670640 0.583696 1.025712 0.001724 0.016437 -444556.000000 0 0 1
26.127808 16.125415 17.397882 35.289909 0.552952 1.055263 0.011396 0.008687 -1652020.000000 0 0 1
26.989708 17.224415 17.619982 36.545706 0.568024 1.067706 0.009889 0.009706 2362270.000000 0 0 1
28.439008 16.947015 17.558282 37.473615 0.537405 1.083147 0.018700 0.006127 2617290.000000 0 0 1
29.034308 15.883915 16.509682 36.984584 0.500594 1.108065 0.017360 -0.000602 -942963.000000 0 0 1
28.730308 16.222915 15.223082 36.336701 0.514030 1.138513 0.022580 -0.003392 69103.100000 0 0 1
29.174708 15.099315 14.409682 35.871881 0.477587 1.157425 0.051764 -0.016914 305594.000000 0 0 1
28.588908 15.181515 12.981182 34.875710 0.488161 1.189404 0.028165 0.001839 24730.700000 0 0 1
29.261408 16.223215 12.270682 35.636952 0.506233 1.219277 0.020199 0.008681 309957.000000 0 0 1
28.629708 16.604415 11.000582 34.876634 0.525562 1.249903 0.004090 0.013410 1088570.000000 0 0 1
27.289008 17.436015 11.134282 34.244370 0.568560 1.239634 0.000145 0.016636 572704.000000 0 0 1
27.415208 18.744715 11.681882 35.205459 0.599726 1.232564 -0.012018 0.024856 -168904.000000 0 0 1
27.784108 18.917615 13.033582 36.051451 0.597777 1.200891 -0.001052 0.022754 -864414.000000 0 0 1
26.798308 18.606215 14.178282 35.571959 0.606894 1.160828 -0.009149 0.016758 -608405.000000 0 0 1
25.784008 19.551215 14.251082 35.357580 0.648772 1.155943 -0.003304 0.032386 -422217.000000 0 0 1
25.120308 19.601415 15.523882 35.443424 0.662614 1.117434 0.003829 0.028102 138323.000000 0 0 1
25.809408 20.410215 16.711682 36.905051 0.669109 1.100860 0.011220 0.006572 -7691.970000 0 0 1
25.704808 21.817015 16.729882 37.637857 0.703769 1.110185 -0.000582 0.009377 -65805.900000 0 0 1
24.448108 22.340215 17.118782 37.280664 0.740377 1.093717 0.014255 0.007571 -22648.900000 0 0 1
24.246108 23.826315 16.726082 37.885735 0.776666 1.113540 0.011868 0.009024 -8386.060000 0 0 1
23.971708 24.135415 15.326782 37.310472 0.788801 1.147476 0.016421 0.000321 13721.100000 0 0 1
24.509608 25.364215 14.898082 38.288604 0.802532 1.171142 0.019178 -0.006933 -357581.000000 0 0 1
24.316908 25.735015 13.439482 37.871133 0.813723 1.208017 0.015342 -0.008901 -309944.000000 0 0 1
22.981108 26.089315 13.161582 37.175408 0.848655 1.208909 0.030948 -0.008243 13012.600000 0 0 1
22.650108 26.331915 11.787682 36.678967 0.860424 1.243616 0.020036 -0.022867 -2391.240000 0 0 1
22.321708 25.103015 10.911882 35.319813 0.843978 1.256713 0.028269 -0.016665 -60577.800000 0 0 1
21.036608 24.579815 11.286382 34.264977 0.862916 1.235144 0.035188 -0.016005 769076.000000 0 0 1
20.683708 23.310315 10.663282 32.937701 0.845031 1.241116 0.030850 0.001533 40953.800000 0 0 1
20.384408 23.488715 9.141282 32.416152 0.856037 1.284921 0.034727 0.014556 -796633.000000 0 0 1
19.231308 24.173015 8.764482 32.109096 0.898763 1.294328 0.047354 0.015938 -335790.000000 0 0 1
19.345008 24.488715 7.364282 32.064921 0.902210 1.339060 0.041645 0.004577 -681255.000000 0 0 1
18.058508 24.630815 6.577182 31.241737 0.938155 1.358684 0.023174 0.008133 -1343070.000000 0 0 1
17.415008 23.405815 6.261682 29.838287 0.931117 1.359371 0.033963 0.011815 283968.000000 0 0 1
16.685208 23.416015 5.057182 29.193853 0.951694 1.396690 0.042959 0.005595 178381.000000 0 0 1
15.317008 24.172715 5.089582 29.066041 1.006002 1.394785 0.048842 0.002935 -345092.000000 0 0 1
15.327508 25.581415 5.125782 30.259130 1.030990 1.400579 0.068967 -0.005271 -63119.800000 0 0 1
14.006908 25.988315 5.355882 30.004524 1.076461 1.391332 0.044844 -0.003078 -315774.000000 0 0 1
13.746408 27.343615 4.605782 30.949156 1.104968 1.421424 0.048057 -0.005420 -300493.000000 0 0 1
13.553508 27.266615 3.192482 30.616300 1.109493 1.466332 0.039334 0.000238 411972.000000 0 0 1
13.274708 28.551315 2.722382 31.603906 1.135586 1.484549 0.035064 -0.002411 -316538.000000 0 0 1
12.717408 28.606615 1.269382 31.331809 1.152474 1.530271 0.046507 -0.000468 -292049.000000 0 0 1
13.650808 28.474415 0.231282 31.578321 1.123759 1.563472 0.070889 -0.004290 -288077.000000 0 0 1
14.121808 27.144315 0.029582 30.598042 1.091081 1.569830 0.047749 0.004481 -454476.000000 0 0 1
15.079208 27.051515 -1.121918 30.990736 1.062270 1.607006 0.049160 0.000281 70204.400000 0 0 1
14.494708 27.429915 -2.388118 31.115911 1.084667 1.647621 0.042737 -0.007454 130792.000000 0 0 1
15.576208 27.456715 -3.292318 31.738444 1.054768 1.674716 0.049744 -0.005381 302527.000000 0 0 1
15.187908 27.884715 -4.733118 32.103462 1.072056 1.718769 0.048479 0.002949 132110.000000 0 0 1
14.231408 26.978415 -5.277618 30.955147 1.085383 1.742126 0.050435 -0.005145 -111786.000000 0 0 1
13.859008 27.452215 -6.577618 31.447755 1.103283 1.781512 0.040224 -0.000547 612265.000000 0 0 1
12.660408 26.675915 -7.205718 30.394288 1.127674 1.810150 0.036049 -0.002162 650343.000000 0 0 1
13.008308 25.326015 -7.583518 29.464095 1.096301 1.831108 0.043063 -0.010772 206660.000000 0 0 1
11.809008 24.800015 -8.127818 28.645329 1.126394 1.858488 0.027690 0.008295 293426.000000 0 0 1
11.898408 23.356215 -8.672018 27.609578 1.099631 1.890299 0.026951 -0.009176 -394985.000000 0 0 1
12.488508 23.178615 -9.964218 28.151317 1.076597 1.932590 0.023207 -0.006742 22610.000000 0 0 1
12.064008 21.943115 -10.435118 27.128072 1.068118 1.965637 0.029582 -0.007607 -264163.000000 0 0 1
12.590808 21.487915 -11.818318 27.566857 1.040773 2.013866 0.032978 -0.005447 -234179.000000 0 0 1
12.202308 20.127715 -12.164818 26.495359 1.025798 2.047812 0.038372 -0.005979 -153736.000000 0 0 1
12.526808 19.772415 -13.492718 27.017083 1.006072 2.093719 0.037958 -0.002263 139175.000000 0 0 1
14.022208 19.477415 -13.769718 27.669426 0.946825 2.091685 -0.004986 -0.001074 -149990.000000 0 0 1
14.798208 20.642915 -13.726418 28.870945 0.948840 2.066261 0.000637 0.007303 -1175390.000000 0 0 1
16.138308 20.279815 -13.894118 29.406843 0.898633 2.062898 0.022050 0.013974 -326627.000000 0 0 1
17.087108 21.487215 -13.667818 30.667229 0.898976 2.032732 -0.001176 0.018691 -129820.000000 0 0 1
16.977208 22.602815 -14.559918 31.797863 0.926585 2.046416 -0.004921 0.016392 -324127.000000 0 0 1
15.737208 23.265715 -14.544218 31.630484 0.976077 2.048585 0.003581 0.009283 -248037.000000 0 0 1
15.816108 24.797115 -14.923218 32.981034 1.003031 2.040339 0.006797 0.012123 77527.300000 0 0 1
16.112908 24.923415 -16.309218 33.864333 0.996888 2.073281 -0.006215 0.014348 254756.000000 0 0 1
14.908108 25.079415 -17.044218 33.789556 1.034478 2.099510 -0.022592 0.015454 -72103.900000 0 0 1
15.143708 24.919915 -18.571118 34.571961 1.024738 2.137878 -0.012822 0.018734 99765.400000 0 0 1
15.511308 23.604315 -19.045418 34.065999 0.989419 2.164065 -0.009301 0.019764 -50536.400000 0 0 1
15.623508 23.655815 -20.445918 34.953214 0.987109 2.195616 -0.009103 0.019643 -260147.000000 0 0 1
15.965708 22.311115 -21.104718 34.613564 0.949681 2.226509 -0.007441 0.015917 -309108.000000 0 0 1
14.879008 21.435715 -21.059618 33.531810 0.964026 2.249840 0.000839 0.016965 -312596.000000 0 0 1
15.213008 20.297415 -21.802518 33.448026 0.927612 2.280795 0.000745 0.015385 -70188.300000 0 0 1
14.106608 19.230015 -21.958818 32.418815 0.937892 2.314948 0.000799 0.011606 -526434.000000 0 0 1
13.892608 18.492615 -20.760818 31.080427 0.926495 2.302275 -0.006569 0.008860 317147.000000 0 0 1
13.216008 17.233015 -20.951918 30.176523 0.916566 2.338260 -0.008704 0.001968 246888.000000 0 0 1
11.698808 17.262715 -21.255218 29.776631 0.975199 2.365737 0.000307 -0.004726 -267577.000000 0 0 1
10.907008 17.376115 -20.076318 28.704542 1.010257 2.345372 0.008651 -0.007547 473843.000000 0 0 1
9.529208 17.489915 -20.432318 28.533884 1.071923 2.368955 0.011881 -0.005362 382397.000000 0 0 1
8.539808 17.045215 -19.362418 27.172981 1.106342 2.363939 0.023917 -0.017931 -532512.000000 0 0 1
8.449008 15.634615 -19.336518 26.262670 1.075350 2.398344 0.014243 -0.018633 -522919.000000 0 0 1
7.327108 15.138515 -18.686918 25.140844 1.120027 2.408770 0.030928 -0.025523 -583151.000000 0 0 1
7.252908 15.245115 -17.151618 24.066495 1.126734 2.364102 0.033799 -0.028606 -194096.000000 0 1 0
6.972008 16.592715 -16.796218 24.617880 1.173011 2.321669 0.040707 -0.024466 -24184.000000 0 1 0
6.277308 16.682615 -15.541018 23.648202 1.210905 2.287862 0.041160 -0.032841 269397.000000 0 1 0
5.907208 18.161215 -15.136818 24.368999 1.256325 2.241006 0.038182 -0.020663 348711.000000 0 1 0
7.057108 18.969615 -14.913018 25.140548 1.214639 2.205807 0.039976 -0.019056 158122.000000 0 0 1
7.547908 19.605115 -16.084218 26.458147 1.203290 2.224224 0.049980 -0.008321 617704.000000 0 0 1
8.763408 20.591815 -15.906718 27.456217 1.168437 2.188725 0.040920 0.005011 617218.000000 0 0 1
8.412308 21.844815 -15.286518 27.957834 1.203206 2.149299 0.032611 -0.001076 -2385.290000 0 0 1
8.398208 21.864915 -13.882418 27.227301 1.204076 2.105831 0.031143 -0.006206 -30276.000000 0 0 1
8.222608 23.211315 -13.221018 27.949450 1.230340 2.063527 0.034625 -0.001908 721534.000000 0 0 1
6.834508 23.587415 -13.239718 27.899225 1.288767 2.065255 0.033446 0.000512 587712.000000 0 0 1
6.613708 24.748215 -12.507418 28.507031 1.309659 2.025002 0.023369 -0.000119 101673.000000 0 0 1
5.988508 24.534915 -11.086018 27.581227 1.331396 1.984432 0.016617 0.003460 279972.000000 0 0 1
6.937008 24.077115 -10.080918 27.008415 1.290277 1.953307 0.013036 0.002083 736414.000000 0 0 1
6.219708 23.472015 -9.034518 25.908353 1.311766 1.926991 0.017035 -0.003977 472168.000000 0 0 1
7.147608 23.160215 -7.807418 25.464478 1.271454 1.882416 0.007580 -0.011112 424659.000000 0 0 1
7.196908 24.218715 -6.835118 26.173660 1.281944 1.835004 -0.004047 -0.008158 -467229.000000 0 0 1
8.456908 24.248515 -6.243018 26.428868 1.235227 1.809270 0.009670 -0.000896 -479590.000000 0 0 1
8.563208 25.550015 -5.291518 27.461463 1.247407 1.764698 0.002680 0.001220 -23965.700000 0 0 1
8.821408 26.724815 -6.026818 28.781166 1.251974 1.781759 0.015096 0.004820 -65871.000000 0 0 1
9.187108 27.767315 -5.184418 29.703618 1.251273 1.746233 0.005645 0.001969 158649.000000 0 0 1
9.386908 29.098015 -5.941218 31.146534 1.258740 1.762723 0.015116 0.000990 897594.000000 0 0 1
10.548708 29.087715 -6.806518 31.681211 1.222895 1.787328 0.021070 -0.001930 518733.000000 0 0 1
10.536308 30.263315 -7.613618 32.937049 1.235767 1.804063 0.024745 -0.004906 922109.000000 0 0 1
11.890208 30.409015 -8.401218 33.714473 1.198064 1.822637 0.023870 -0.005706 1420450.000000 0 0 1
13.099508 30.567115 -7.667918 34.128326 1.165923 1.797410 0.022593 -0.003861 -554994.000000 0 0 1
14.064308 31.169715 -8.443518 35.222846 1.146931 1.812871 0.025140 -0.001872 -239825.000000 0 0 1
15.335308 31.571815 -7.648018 35.922742 1.118632 1.785340 0.023210 -0.007799 209418.000000 0 0 1
16.124308 30.440915 -7.334418 35.219828 1.083678 1.780578 0.025893 -0.000923 -722730.000000 0 0 1
17.320708 30.874215 -6.758218 36.040222 1.059540 1.759432 0.029782 0.003921 -63437.500000 0 0 1
18.403508 29.778015 -6.538618 35.611414 1.017230 1.755454 0.026389 0.000986 62470.700000 0 0 1
18.116808 28.936815 -5.445818 34.571881 1.011420 1.728977 0.043903 -0.009942 137686.000000 0 0 1
19.117408 27.950515 -5.169118 34.255312 0.970908 1.722275 0.033306 -0.004042 47693.900000 0 0 1
19.199308 26.724915 -6.082118 33.463812 0.947825 1.753564 0.027401 0.010410 -102165.000000 0 0 1
19.553508 27.047415 -7.421818 34.190433 0.944843 1.789611 0.016401 0.014010 189944.000000 0 0 1
19.465108 26.002415 -8.364818 33.540814 0.928199 1.822849 0.003190 0.012965 -328711.000000 0 0 1
20.113108 26.413015 -9.753918 34.602361 0.919985 1.856555 0.004022 0.008821 939467.000000 0 0 1
21.536008 26.357215 -9.904818 35.448665 0.885726 1.853979 -0.008404 0.015623 819991.000000 0 0 1
22.111508 25.034015 -10.012118 34.869230 0.847308 1.862029 -0.004773 0.017384 69911.000000 0 0 1
23.656608 25.028515 -9.926218 35.841198 0.813570 1.851415 -0.017914 0.020743 75736.500000 0 0 1
24.326008 25.435415 -11.085018 36.899765 0.807689 1.875918 -0.004407 0.014941 -1217440.000000 0 0 1
25.685108 25.442715 -10.820218 37.737695 0.780657 1.861599 -0.009376 0.016138 -908929.000000 0 0 1
26.474508 25.771615 -12.102518 38.878615 0.771945 1.887346 0.001431 0.010687 -352744.000000 0 0 1
26.211208 27.078515 -12.682318 39.763232 0.801672 1.895413 -0.000282 0.012715 -202296.000000 0 0 1
26.907508 27.314915 -13.872918 40.774703 0.792912 1.917961 0.005191 0.010593 -278305.000000 0 0 1
26.531808 28.589515 -14.629018 41.656997 0.822711 1.929625 0.006758 0.007945 -115337.000000 0 0 1
27.140608 29.835215 -14.284118 42.787717 0.832657 1.911167 0.010264 -0.004286 -54260.000000 0 0 1
26.887008 30.730215 -15.324918 43.613191 0.852002 1.929844 0.009029 0.010633 -108975.000000 0 0 1
27.309908 32.182415 -15.163518 44.849428 0.867117 1.915692 0.009948 -0.003873 -404384.000000 0 0 1
28.683708 32.394815 -15.031818 45.805401 0.846083 1.905159 0.007506 -0.006876 -361679.000000 0 0 1
29.036708 33.763315 -15.016818 46.995709 0.860521 1.896036 0.013156 -0.015784 -32503.300000 0 0 1
14.781708 -32.780555 -29.851551 46.735198 -1.147170 2.263653 0.046313 -0.005150 -192623.000000 0 0 1
15.848008 -33.244755 -29.073831 46.921858 -1.125956 2.239058 0.035901 0.003929 -12997.300000 0 0 1
16.153008 -32.418155 -27.980141 45.768381 -1.108533 2.228552 0.036772 -0.003074 -194716.000000 0 0 1
17.229508 -32.965655 -26.992041 45.958249 -1.089193 2.198536 0.013286 0.005769 -207643.000000 0 0 1
18.583708 -32.796255 -27.217751 46.494672 -1.055267 2.196164 0.020830 0.000432 -605156.000000 0 0 1
19.144408 -33.525955 -28.255371 47.842073 -1.051949 2.202594 0.009298 0.009937 -337360.000000 0 0 1
20.667408 -33.258755 -28.416921 48.381897 -1.014781 2.198572 0.011455 0.013312 286890.000000 0 0 1
20.931408 -31.905155 -28.718021 47.757591 -0.990179 2.215960 0.011368 0.000212 -121884.000000 0 0 1
22.255608 -31.519755 -28.425601 47.925169 -0.955999 2.205731 -0.000945 0.003078 -368430.000000 0 0 1
22.758508 -30.221755 -29.042801 47.694742 -0.925346 2.225508 -0.014344 0.009232 -96439.800000 0 0 1
22.914508 -30.408955 -30.407121 48.727530 -0.925030 2.244677 -0.012074 -0.005085 -248163.000000 0 0 1
23.474308 -29.312155 -30.998611 48.694553 -0.895544 2.260869 -0.012120 -0.009463 -83293.900000 0 0 1
23.576308 -29.515855 -32.505431 49.836042 -0.896807 2.281342 -0.007441 0.000440 126632.000000 0 0 1
24.628108 -30.388155 -32.865801 51.089574 -0.889715 2.269594 0.000737 -0.008385 -235278.000000 0 0 1
24.706308 -30.628855 -34.240488 52.162625 -0.892023 2.286857 -0.003172 -0.011127 -276195.000000 0 0 1
26.040508 -31.357255 -34.477091 53.385909 -0.877764 2.272878 -0.010340 -0.010133 -295399.000000 0 0 1
27.133808 -30.557655 -34.169210 53.268647 -0.844676 2.267184 -0.001720 -0.015057 -1164720.000000 0 0 1
28.346108 -31.168855 -34.510974 54.461057 -0.832792 2.257100 0.009918 -0.011604 228892.000000 0 0 1
29.499408 -30.117955 34.509246 54.481138 -0.795773 0.884836 0.015616 -0.020774 102314.000000 0 0 1
29.544008 -29.409155 33.302702 53.355569 -0.783111 0.896733 0.016243 -0.010389 840325.000000 0 0 1
30.703908 -28.544255 33.156965 53.449872 -0.748963 0.901623 0.018710 -0.015037 918330.000000 0 0 1
30.829208 -27.923055 31.703722 52.299743 -0.735974 0.919532 0.011242 -0.012771 -260614.000000 0 0 1
32.094308 -27.287755 31.596812 52.659517 -0.704631 0.927269 0.018885 -0.023868 470931.000000 0 0 1
32.283708 -26.560055 30.362502 51.667745 -0.688435 0.942646 0.031194 -0.005632 -105451.000000 0 0 1
32.986408 -27.337855 29.187362 51.839787 -0.692034 0.972749 0.030591 -0.006054 -325536.000000 0 0 1
32.240808 -28.386255 28.640342 51.628659 -0.721906 0.982749 0.022685 -0.014371 560477.000000 0 0 1
31.108908 -27.982855 27.865772 50.272314 -0.732546 0.983279 0.026339 -0.011084 166597.000000 0 0 1
30.636108 -28.958255 26.801732 49.954825 -0.757251 1.004489 0.009263 0.006814 -698083.000000 0 0 1
29.436108 -28.557755 26.245162 48.691256 -0.770254 1.001533 0.009585 0.007497 -613919.000000 0 0 1
28.984308 -29.485255 25.269572 48.456389 -0.793966 1.022199 -0.002873 0.005547 528459.000000 0 0 1
27.552808 -29.160555 24.720262 47.123100 -0.813739 1.018564 -0.003550 0.011103 1212130.000000 0 0 1
26.505708 -29.206255 25.706502 47.078468 -0.833834 0.993172 -0.005296 0.010168 542703.000000 0 0 1
25.288508 -28.680755 25.223782 45.807571 -0.848171 0.987658 -0.005735 0.011104 216757.000000 0 0 1
24.124008 -28.591555 26.208532 45.676383 -0.869944 0.959674 -0.004457 0.008658 138656.000000 0 0 1
24.341708 -27.432855 27.000282 45.542239 -0.845031 0.936188 -0.018636 0.007682 -208259.000000 0 0 1
23.193508 -27.242055 27.770482 45.290927 -0.865498 0.910745 -0.014320 -0.005747 -577055.000000 0 0 1
23.141308 -26.026655 28.697932 45.127356 -0.844014 0.881581 -0.017180 0.009372 -37118.400000 0 0 1
22.155008 -26.159355 29.755222 45.393055 -0.868090 0.855950 -0.004570 0.000873 731062.000000 0 0 1
21.933808 -24.994755 30.534092 45.145991 -0.850532 0.828012 -0.002419 0.003402 -195929.000000 0 0 1
21.201808 -23.793855 29.885612 43.689976 -0.842941 0.817512 -0.010628 0.005826 -360813.000000 0 0 1
21.977608 -23.163055 28.867142 43.044794 -0.811653 0.835738 -0.013568 0.006681 210899.000000 0 0 1
21.552708 -21.856055 28.450292 41.852425 -0.792386 0.823339 -0.005720 0.011627 -31767.100000 0 0 1
22.092708 -20.697455 29.348602 42.164118 -0.752803 0.800906 0.003377 0.008816 -235369.000000 0 0 1
21.793708 -20.665555 30.707812 42.953470 -0.758834 0.774303 -0.000049 0.009672 31404.100000 0 0 1
22.660408 -19.748655 31.353772 43.434577 -0.716847 0.764307 0.004114 0.011131 -132800.000000 0 0 1
22.206108 -19.218755 32.754252 43.992190 -0.713408 0.730940 0.017858 0.000608 -136190.000000 0 0 1
22.192808 -20.176555 33.757561 45.157359 -0.737846 0.726425 -0.001378 0.001297 245215.000000 0 0 1
21.622708 -19.628055 -34.177769 44.954665 -0.737081 2.434528 0.008621 -0.001320 -314156.000000 0 0 1
21.501708 -20.685755 -33.099811 44.562556 -0.766059 2.407997 0.001714 0.005769 1108110.000000 0 0 1
22.779708 -21.100055 -32.531971 44.971731 -0.747138 2.379492 0.001508 0.002484 1139430.000000 0 0 1
22.522408 -22.019055 -31.484631 44.535151 -0.774098 2.355989 -0.000107 0.006628 -15272.900000 0 0 1
23.701208 -22.304055 -30.532851 44.625924 -0.755038 2.324296 -0.013706 0.012787 21980.100000 0 0 1
24.752008 -23.061055 -31.085331 45.943138 -0.750047 2.313938 -0.010697 0.009935 -539949.000000 0 0 1
25.685408 -23.392755 -30.083451 45.956231 -0.738718 2.284464 -0.009134 0.004749 -61030.600000 0 0 1
26.908708 -24.193755 -30.582981 47.378635 -0.732320 2.272476 -0.020026 0.010294 -372413.000000 0 0 1
27.782308 -23.438855 -31.371361 48.014569 -0.700803 2.282826 -0.012840 0.011572 -291082.000000 0 0 1
27.602808 -23.461555 -32.797751 48.867699 -0.704477 2.306561 -0.011291 0.010081 -240499.000000 0 0 1
27.928108 -24.830655 -33.454751 50.157363 -0.726756 2.300966 -0.009501 -0.005315 -383560.000000 0 0 1
27.075308 -25.885355 -33.057011 49.958882 -0.762933 2.293859 0.003579 -0.013767 -185654.000000 0 0 1
27.440308 -27.167955 -33.458761 51.093610 -0.780411 2.284783 0.004677 -0.020499 -336331.000000 0 0 1
26.713508 -27.509555 34.443405 51.543528 -0.800078 0.838957 0.002166 -0.005007 -463090.000000 0 0 1
27.319608 -26.776455 33.406129 50.786898 -0.775358 0.852941 -0.007346 0.001034 100855.000000 0 0 1
26.621208 -26.936755 32.170192 49.691033 -0.791290 0.866623 -0.004201 -0.000560 38031.700000 0 0 1
27.465208 -26.615055 30.890422 49.162150 -0.769679 0.891382 -0.009058 -0.002216 108796.000000 0 0 1
27.899508 -25.256055 30.663332 48.543700 -0.735709 0.887098 -0.022309 0.009751 809922.000000 0 0 1
28.996208 -24.771255 31.464482 49.440963 -0.706981 0.880968 -0.004883 0.006986 -441847.000000 0 0 1
29.059908 -23.220155 31.529332 48.762205 -0.674158 0.867686 -0.011482 0.020556 551818.000000 0 0 1
30.268108 -22.648755 31.029792 48.907796 -0.642394 0.883493 -0.000646 0.009292 686623.000000 0 0 1
31.412808 -22.844755 31.856102 50.234038 -0.628777 0.883883 0.003506 0.002637 716612.000000 0 0 1
32.774508 -22.269755 31.306192 50.499387 -0.596824 0.902140 0.014719 -0.001773 747247.000000 0 0 1
33.297008 -22.802955 30.130252 50.363654 -0.600475 0.929476 0.015952 -0.004723 512131.000000 0 0 1
34.441308 -22.051155 29.697992 50.541348 -0.569493 0.942709 0.006120 -0.002916 553638.000000 0 0 1
34.938408 -22.457655 28.267282 50.240202 -0.571282 0.973217 0.008074 -0.001301 -11632.800000 0 0 1
-34.716802 -23.770155 28.257342 50.682877 0.600375 0.979386 0.014943 -0.005899 130616.000000 0 0 1
-34.230802 -24.038055 26.975952 49.772260 0.612224 0.997996 0.000488 0.005955 -450331.000000 0 0 1
-34.089602 -25.516255 26.709662 50.265160 0.642544 1.010573 0.000194 -0.003425 -292447.000000 0 0 1
34.895308 -26.178355 26.526592 51.055351 -0.643627 1.024454 0.012458 0.002107 -142879.000000 0 0 1
34.897308 -27.475755 26.030072 51.481102 -0.666968 1.040691 0.009221 0.004058 -295323.000000 0 0 1
-34.665202 -28.545855 26.877212 52.334755 0.688891 1.031464 0.013775 -0.002270 -1017400.000000 0 0 1
-34.601702 -29.837255 26.242312 52.689643 0.711595 1.049443 0.015225 -0.002577 512715.000000 0 0 1
-33.576302 -30.694955 26.762732 52.780604 0.740597 1.039030 0.024852 -0.013079 720347.000000 0 0 1
-32.098702 -30.263055 26.629832 51.529866 0.755971 1.027706 0.026392 -0.007602 -482853.000000 0 0 1
-31.609102 -30.092955 25.319922 50.456117 0.760831 1.045094 0.018111 -0.001336 268148.000000 0 0 1
-30.294602 -29.558555 25.295802 49.308708 0.773101 1.032110 -0.007442 -0.000721 351152.000000 0 0 1
-29.570802 -29.503455 23.939782 48.145606 0.784258 1.050385 -0.017950 -0.000830 -205193.000000 0 0 1
-29.472902 -30.785655 23.377682 48.609922 0.807180 1.069088 -0.009589 -0.005233 261652.000000 0 0 1
-28.789102 -30.857155 22.157882 47.664957 0.820056 1.087312 -0.006105 -0.009806 -733152.000000 0 0 1
-28.807902 -32.249555 21.451482 48.271059 0.841706 1.110296 -0.005256 -0.008416 -150237.000000 0 0 1
-27.891002 -33.256755 21.850582 48.593906 0.872925 1.104415 -0.007556 -0.016826 -194408.000000 0 0 1
-26.618402 -32.996355 21.299482 47.444354 0.891979 1.105222 0.001737 -0.009883 -695143.000000 0 0 1
-25.850602 -34.313655 21.145382 47.883272 0.925147 1.113412 -0.006525 -0.008421 -618053.000000 0 0 1
-26.358002 34.044015 20.185282 47.551918 -0.911966 1.132399 -0.018537 -0.006299 -12098.800000 0 0 1
-27.475802 33.244615 20.534982 47.768291 -0.880120 1.126428 -0.012758 -0.007439 39825.100000 0 0 1
-27.378202 32.203815 21.689882 47.508975 -0.866213 1.096691 -0.009549 -0.007304 -333068.000000 0 0 1
-26.581802 31.083315 21.368082 46.144985 -0.863303 1.089347 -0.012787 -0.005086 -41657.100000 0 0 1
-26.527402 30.090415 22.352882 45.921537 -0.848246 1.062417 -0.007681 -0.007876 223139.000000 0 0 1
-25.565902 28.914115 21.941582 44.396784 -0.846779 1.053864 -0.007059 -0.005614 4845.540000 0 0 1
-24.209802 29.244715 21.948382 43.853157 -0.879312 1.046623 -0.004113 -0.003232 -343589.000000 0 0 1
-23.377102 28.250015 21.313282 42.412360 -0.879506 1.044279 -0.000309 -0.005907 1534210.000000 0 0 1
-21.864702 28.689915 21.518582 42.002688 -0.919593 1.032919 -0.000423 -0.001167 1002640.000000 0 0 1
-21.391902 28.546815 22.874782 42.376760 -0.927704 1.000602 0.003295 -0.006833 349391.000000 0 0 1
-20.027702 28.898215 22.957482 41.991210 -0.964755 0.992353 0.019412 -0.010901 -26548.800000 0 0 1
-19.445102 28.947715 24.404562 42.563657 -0.979295 0.960188 0.007333 -0.006995 -228320.000000 0 0 1
-19.343302 27.671315 25.074752 42.054824 -0.960716 0.931987 0.009232 -0.010815 131343.000000 0 0 1
-19.270702 27.775615 26.463002 42.931751 -0.964244 0.906637 0.015989 -0.010087 1727160.000000 0 0 1
-17.856802 28.237515 27.130232 43.038032 -1.006909 0.888756 0.012133 0.002136 1480900.000000 0 0 1
-17.563102 29.613415 26.942412 43.718537 -1.035481 0.906799 -0.004963 -0.001438 1281460.000000 0 0 1
-16.288302 30.036615 27.533022 43.881367 -1.073898 0.892532 -0.003902 -0.003786 1166780.000000 0 0 1
-16.212302 30.093315 29.081032 44.879314 -1.076643 0.865863 -0.010661 0.004820 -552869.000000 0 0 1
-16.227702 28.829415 29.746522 44.489652 -1.058113 0.838449 -0.001639 0.000974 151683.000000 0 0 1
-16.406302 29.033215 31.132622 45.621645 -1.056444 0.819743 -0.007714 0.008291 -84210.600000 0 0 1
-16.013602 27.670515 31.846012 45.124953 -1.046168 0.787344 -0.006565 0.006357 -346550.000000 0 0 1
-14.631802 27.415115 31.929732 44.555426 -1.080543 0.771839 -0.000008 0.016479 -145623.000000 0 0 1
-14.300602 26.437015 32.891092 44.556110 -1.074942 0.740406 0.011308 0.014300 -133569.000000 0 0 1
-14.585502 26.711415 34.381086 45.916181 -1.070998 0.724578 0.023651 0.010474 6503.650000 0 0 1
-15.965502 26.448715 -34.500221 46.310874 -1.027705 2.411286 0.034227 -0.000544 168011.000000 0 0 1
-16.509902 27.287515 -33.462731 46.227046 -1.026683 2.380203 0.031476 -0.010458 86965.900000 0 0 1
-17.949102 26.815715 -33.157201 46.267190 -0.980938 2.369778 0.015305 -0.010457 -284413.000000 0 0 1
-18.753502 26.789815 -34.279857 47.376119 -0.960055 2.379754 -0.002540 -0.011668 -206771.000000 0 0 1
-20.038402 26.292515 -33.902041 47.351688 -0.919575 2.368798 0.007831 -0.019190 561743.000000 0 0 1
-21.153802 26.232815 34.165453 47.988771 -0.892173 0.778530 0.023352 -0.031547 -188606.000000 0 0 1
-21.091802 25.358215 33.067452 46.705028 -0.876991 0.784125 0.030770 -0.026599 -217531.000000 0 0 1
-21.205302 23.945615 33.307294 46.178276 -0.846016 0.765153 0.036098 -0.024033 -372855.000000 0 0 1
-21.535802 23.227515 31.978892 45.010641 -0.823173 0.780625 0.048082 -0.024411 -1271660.000000 0 0 1
-22.841902 23.349115 31.612012 45.456056 -0.796378 0.801763 0.046319 -0.021996 -1656980.000000 0 0 1
-23.158802 22.812415 30.331502 44.460504 -0.777863 0.820012 0.054245 -0.023042 77634.500000 0 0 1
-24.661702 22.579115 30.117862 45.001129 -0.741342 0.837572 0.048858 -0.025025 128115.000000 0 0 1
-25.140602 21.362615 30.742772 45.094670 -0.704335 0.820660 0.062994 -0.029989 735799.000000 0 0 1
-26.459902 21.013715 30.283532 45.373946 -0.671177 0.840056 0.054563 -0.026095 803477.000000 0 0 1
-26.926502 19.578315 30.679942 45.272573 -0.628685 0.826204 0.070626 -0.022654 -196951.000000 0 0 1
-27.490902 19.639415 31.985272 46.524338 -0.620323 0.812762 0.069313 -0.023884 22508.000000 0 0 1
-27.636702 18.384815 32.667932 46.572337 -0.587009 0.793373 0.057263 -0.014487 371196.000000 0 0 1
-28.620602 17.286215 32.116142 46.361608 -0.543339 0.805527 0.026414 -0.009910 348765.000000 0 0 1
-29.995302 17.597615 32.055022 47.296075 -0.530567 0.826095 0.021903 -0.009777 56006.900000 0 0 1
-30.777302 16.438215 31.771162 47.189660 -0.490555 0.832180 0.013046 0.001729 -798260.000000 0 0 1
-32.246002 16.738515 31.693072 48.212378 -0.478801 0.853481 0.000163 0.010214 -907519.000000 0 0 1
-32.816902 17.154215 32.955592 49.571032 -0.481662 0.843549 0.003057 0.012501 622991.000000 0 0 1
-34.228802 17.147115 33.065972 50.586490 -0.464412 0.858396 0.006461 0.006374 135233.000000 0 0 1
-34.704602 17.553315 34.456456 51.959366 -0.468271 0.845787 0.016737 0.016450 -774288.000000 0 0 1
34.142708 17.643315 -34.491308 51.639727 0.476959 2.302209 0.014629 0.007016 -768406.000000 0 0 1
33.859708 18.125515 -33.193811 50.762617 0.491497 2.283528 0.011683 -0.000377 -498886.000000 0 0 1
32.351608 18.273715 -33.038961 49.720501 0.514171 2.297612 0.008883 -0.003554 -459053.000000 0 0 1
31.727708 17.000715 -33.080171 48.887314 0.491900 2.314015 0.009905 0.007297 746416.000000 0 0 1
30.389008 17.059115 -32.538251 47.678538 0.511522 2.321907 0.001025 0.008459 416107.000000 0 0 1
29.852908 15.687215 -32.664391 46.949412 0.483826 2.340240 -0.002828 0.008769 -720276.000000 0 0 1
29.360108 15.515615 -33.984711 47.515375 0.486155 2.367758 0.005735 0.006879 49007.300000 0 0 1
28.656108 14.280015 -34.143726 46.806895 0.462306 2.388328 0.000637 0.008532 45068.400000 0 0 1
29.561708 13.031615 -34.289118 47.111158 0.415200 2.385955 0.000489 0.008169 -8232.840000 0 0 1
30.071208 12.579415 -33.088371 46.447385 0.396200 2.363686 0.005636 0.012871 -247651.000000 0 0 1
30.786208 11.402315 -33.342581 46.792426 0.354706 2.363942 0.020554 0.005115 -260474.000000 0 0 1
17.209808 -21.808885 10.273999 29.620264 -0.902725 1.216578 -0.015633 0.002286 239533.000000 0 0 1
16.650408 -23.100985 10.388499 30.311920 -0.946269 1.220986 -0.009691 -0.000137 462324.000000 0 0 1
17.502208 -23.839685 11.256099 31.644235 -0.937508 1.207125 -0.035766 0.002874 762677.000000 0 0 1
16.695408 -25.093315 11.811299 32.371560 -0.983718 1.197307 -0.027643 0.000212 504656.000000 0 0 1
16.463608 -26.103025 10.866699 32.718549 -1.008097 1.232239 -0.015117 0.000083 -566581.000000 0 0 1
15.177808 -26.608485 11.016999 32.553826 -1.052417 1.225555 -0.006235 -0.005262 -778814.000000 0 0 1
14.606108 -27.267605 9.805699 32.450153 -1.079031 1.263820 -0.010734 -0.014919 -245085.000000 0 0 1
14.385408 -26.384875 8.753099 31.300453 -1.071635 1.287369 -0.015926 -0.005347 75718.500000 0 0 1
13.781408 -26.965115 7.637999 31.231133 -1.098322 1.323727 -0.005172 -0.002179 -592038.000000 0 0 1
13.867008 -26.115655 6.338899 30.240750 -1.082669 1.359616 0.005477 0.001102 195245.000000 0 0 1
13.014408 -24.965385 6.510999 28.897030 -1.090256 1.343528 0.009820 -0.007049 280863.000000 0 0 1
12.801408 -24.254785 5.341499 27.941050 -1.085165 1.378442 0.018861 0.000475 -221245.000000 0 0 1
12.045408 -22.966785 5.653899 26.543015 -1.087764 1.356143 0.026608 -0.005560 -295261.000000 0 0 1
11.767608 -22.301385 4.451999 25.605637 -1.085264 1.396040 0.036214 -0.005812 -168867.000000 0 0 1
11.043108 -21.126885 4.664899 24.291085 -1.089151 1.377554 0.041460 -0.008314 -458619.000000 0 1 0
10.287408 -20.665185 3.436699 23.338628 -1.108899 1.423005 0.035052 -0.010130 -460586.000000 0 1 0
11.043508 -19.984385 2.440699 22.962834 -1.065954 1.464306 0.018720 -0.005666 130357.000000 0 1 0
10.256008 -19.501385 1.348899 22.075082 -1.086635 1.509653 0.009966 0.000118 177791.000000 0 1 0
11.161608 -19.104385 0.184899 22.126753 -1.042043 1.562440 -0.000873 0.007031 177527.000000 0 1 0
11.934908 -17.887585 0.365799 21.506779 -0.982413 1.553787 0.002055 0.001694 -390339.000000 0 1 0
12.844908 -17.858285 -0.674701 22.008299 -0.947255 1.601458 0.023427 0.007840 -1185690.000000 0 1 0
13.914608 -16.848185 -0.250601 21.852699 -0.880472 1.582264 0.018417 0.006746 -165961.000000 0 1 0
14.672608 -17.272485 0.887399 22.680645 -0.866605 1.531661 0.003851 -0.004928 188929.000000 0 1 0
15.839108 -16.514685 1.117599 22.909849 -0.806276 1.521994 0.001945 -0.009622 284453.000000 0 1 0
16.983108 -17.279085 1.833299 24.297196 -0.794037 1.495271 -0.005763 0.004852 26951.900000 0 1 0
17.616008 -18.240185 1.016999 25.378384 -0.802804 1.530712 0.007146 0.009408 -199294.000000 0 0 1
18.553308 -18.975885 1.740099 26.595815 -0.796658 1.505322 -0.001840 0.011032 -69370.200000 0 0 1
18.905608 -20.305485 0.975299 27.761231 -0.821084 1.535657 -0.004996 0.007879 129130.000000 0 0 1
17.987608 -21.348385 1.228799 27.943113 -0.870629 1.526807 -0.003699 0.014986 11804.100000 0 0 1
18.386708 -22.542085 0.618699 29.096382 -0.886578 1.549531 0.007396 0.011328 -764035.000000 0 0 1
17.393008 -23.683185 0.637499 29.390753 -0.937352 1.549104 0.008012 0.009800 -579635.000000 0 0 1
17.272608 -24.359885 1.868399 29.920526 -0.954016 1.508310 0.001206 0.010376 156746.000000 0 0 1
16.198108 -25.282755 1.827199 30.082139 -1.001002 1.510019 0.005017 0.010223 -200963.000000 0 0 1
16.075908 -26.209815 3.026599 30.895785 -1.020615 1.472677 -0.004107 0.008853 387680.000000 0 0 1
17.027408 -27.267425 3.205599 32.306670 -1.012586 1.471409 0.003107 0.002820 520610.000000 0 0 1
18.254908 -26.841125 3.781999 32.680134 -0.973545 1.454809 0.008011 0.004556 328076.000000 0 0 1
19.379408 -27.914935 3.875299 34.202675 -0.963953 1.457249 0.022821 0.003022 206202.000000 0 0 1
19.706408 -28.422465 2.572999 34.681398 -0.964555 1.496539 0.008097 0.014007 419434.000000 0 0 1
20.652608 -29.524195 2.592099 36.123777 -0.960396 1.498979 0.011751 0.020063 939371.000000 0 0 1
20.032308 -30.958875 3.029999 36.999003 -0.996489 1.488810 0.024990 0.020711 423441.000000 0 0 1
19.991608 -31.256905 4.458599 37.370277 -1.001774 1.451203 0.040621 0.011717 -131329.000000 0 0 1
19.120608 -32.347545 4.687699 37.867345 -1.036947 1.446685 0.037575 -0.008312 -149258.000000 0 0 1
18.966108 -32.638815 6.168299 38.249881 -1.044397 1.408826 0.034327 -0.009595 -357252.000000 0 0 1
19.998508 -33.358635 6.795599 39.483149 -1.030744 1.397821 0.025241 -0.020717 -175924.000000 0 0 1
19.573308 -34.037129 7.950099 40.060512 -1.048919 1.371018 0.022076 -0.013335 -391503.000000 0 0 1
20.584308 34.282906 8.593499 40.900851 1.030065 1.359113 0.030150 -0.019173 -64218.500000 0 0 1
21.732008 -34.281251 9.035599 41.582766 -1.005799 1.351757 0.036425 -0.018106 946879.000000 0 0 1
22.898108 34.131544 9.134699 42.103781 0.979884 1.352100 0.045132 -0.022256 736888.000000 0 0 1
24.001008 -34.573817 10.029599 43.266501 -0.963976 1.336859 0.040766 -0.007251 -500982.000000 0 0 1
24.353008 -33.258935 9.605199 42.325945 -0.938769 1.341868 0.023449 -0.005875 -297316.000000 0 0 1
25.258408 -32.668215 10.483899 42.604126 -0.912624 1.322166 0.015415 0.002417 -364076.000000 0 0 1
25.862908 -31.420565 9.774799 41.853179 -0.882116 1.335070 0.005476 -0.000968 -269357.000000 0 0 1
25.047008 -30.266695 9.687199 40.463159 -0.879485 1.329040 0.008775 -0.007168 77674.600000 0 0 1
25.538908 -29.409815 8.636099 39.896808 -0.855728 1.352608 0.008471 -0.005534 35961.700000 0 0 1
25.033908 -27.969055 8.577199 38.503674 -0.840719 1.346148 0.000777 0.004060 -122159.000000 0 0 1
25.667808 -27.138545 9.516599 38.547408 -0.813242 1.321337 0.002454 -0.005039 -38790.600000 0 0 1
25.052008 -25.874635 9.606999 37.274580 -0.801550 1.310118 0.008812 -0.010833 -165236.000000 0 0 1
25.898208 -24.921785 10.489999 37.441323 -0.766187 1.286823 0.025362 -0.028078 79743.700000 0 0 1
27.242508 -24.832585 10.082299 38.216021 -0.739153 1.303812 0.033008 -0.021404 -193172.000000 0 0 1
28.031808 -24.059185 10.968799 38.534935 -0.709282 1.282160 0.026846 -0.026761 -146630.000000 0 0 1
29.489708 -23.854885 10.564099 39.373832 -0.680158 1.299166 0.041965 -0.030941 -217773.000000 0 0 1
29.608108 -22.877185 9.595499 38.627442 -0.657850 1.319756 0.048981 -0.027013 -322671.000000 0 0 1
30.850008 -22.840685 8.932599 39.410801 -0.637315 1.342156 0.045903 -0.032252 -114616.000000 0 0 1
30.792408 -22.235685 7.540099 38.722748 -0.625415 1.374824 0.045126 -0.012367 -436868.000000 0 0 1
30.559608 -20.871285 7.503299 37.759763 -0.599205 1.370753 0.039172 0.003801 -96109.800000 0 0 1
30.648708 -20.365085 6.168999 37.311346 -0.586479 1.404695 0.022236 0.005303 -233253.000000 0 0 1
30.271908 -18.851485 6.059199 36.172929 -0.556971 1.402496 0.028106 0.001906 -381633.000000 0 0 1
31.019308 -18.010585 6.867599 36.520440 -0.526051 1.381622 0.026497 0.008977 -208663.000000 0 0 1
30.667908 -16.634385 6.754599 35.536572 -0.496992 1.379558 0.022138 0.014354 -9923.540000 0 0 1
30.922708 -16.004885 8.112399 35.751661 -0.477610 1.341893 0.018302 -0.013006 821625.000000 0 0 1
32.322008 -15.936985 8.423899 37.008942 -0.458088 1.341166 0.013876 -0.000444 608204.000000 0 0 1
32.608508 -15.301885 9.703199 37.304350 -0.438755 1.307661 0.017136 -0.005390 573396.000000 0 0 1
34.108508 -15.047585 10.034899 38.607245 -0.415485 1.307854 0.003502 -0.004385 474429.000000 0 0 1
34.742208 -14.025285 9.283299 38.599343 -0.383688 1.327911 0.008647 0.004605 -1087420.000000 0 0 1
-34.169602 -14.417785 9.149499 38.198790 0.399282 1.328922 0.002976 0.001289 -640674.000000 0 0 1
-33.243502 -13.516285 8.285199 36.830218 0.386170 1.343898 0.012866 -0.006231 157306.000000 0 0 1
-33.828402 -13.391785 7.003299 37.050599 0.376944 1.380632 0.025970 -0.010528 893756.000000 0 0 1
-32.865902 -12.884285 6.050299 35.815897 0.373613 1.401055 0.024082 -0.008614 1099960.000000 0 0 1
-31.763502 -13.888785 5.518499 35.103736 0.412206 1.412936 0.009699 -0.002238 305671.000000 0 0 1
-30.793502 -14.199685 6.506499 34.528327 0.432068 1.381223 0.016451 -0.005867 -358462.000000 0 0 1
-30.021302 -15.215785 5.961499 34.180962 0.469099 1.395490 0.005249 0.002509 -584741.000000 0 0 1
-29.372102 -16.049085 7.068399 34.209002 0.500080 1.362673 -0.005288 -0.005053 -417804.000000 0 0 1
-30.228302 -16.868085 7.845299 35.494102 0.508982 1.347925 0.000901 -0.015049 -66890.500000 0 0 1
-29.949902 -16.642085 9.225199 35.483235 0.507181 1.307787 -0.018739 -0.003264 -36597.000000 0 0 1
-30.780302 -17.562185 10.119099 36.854491 0.518495 1.292655 -0.028994 0.001267 622028.000000 0 0 1
-32.195702 -17.315885 10.036399 37.909530 0.493453 1.302856 0.001217 0.001756 948482.000000 0 0 1
-33.034802 -18.134685 10.847699 39.215272 0.502042 1.290522 0.024559 -0.009702 353498.000000 0 0 1
-33.285602 -19.634585 10.320799 39.999589 0.532947 1.309821 0.028507 -0.005596 -578641.000000 0 0 1
-32.237602 -20.538485 10.638999 39.677206 0.567251 1.299336 0.019688 -0.001006 -124233.000000 0 0 1
-32.155102 -20.847185 12.031399 40.166034 0.575202 1.266584 -0.001814 -0.008555 -458164.000000 0 0 1
-33.342302 -21.583385 12.647099 41.683339 0.574494 1.262528 0.023637 -0.030898 -270319.000000 0 0 1
-33.393902 -22.958885 12.306899 42.352366 0.602299 1.275960 0.030580 -0.029516 1653270.000000 0 0 1
-34.739602 -23.338185 11.851299 43.496714 0.591550 1.294843 0.053209 -0.025421 1649720.000000 0 0 1
-34.986302 -24.875385 11.983699 44.569442 0.618073 1.298569 0.040897 -0.012232 -368576.000000 0 0 1
-34.724502 -25.323125 13.297599 44.987530 0.630094 1.270729 0.044539 -0.008669 74285.200000 0 0 1
34.769008 -26.488445 13.601599 45.776906 -0.651036 1.269113 0.034437 -0.012337 929118.000000 0 0 1
33.396708 -26.122795 14.324399 44.754094 -0.663791 1.244994 0.041786 -0.015761 988091.000000 0 0 1
32.532008 -25.413755 13.444099 43.415830 -0.663167 1.255962 0.038305 -0.024062 -432777.000000 0 0 1
31.329908 -24.991085 14.032399 42.462050 -0.673322 1.233996 0.020456 -0.002876 -808577.000000 0 0 1
31.213708 -23.504585 14.522099 41.685159 -0.645432 1.214959 0.036605 -0.007970 -385934.000000 0 0 1
32.252508 -23.155885 15.391399 42.583030 -0.622676 1.200980 0.042581 -0.016277 80759.100000 0 0 1
33.375008 -22.561385 14.741399 42.897740 -0.594434 1.220006 0.041612 -0.026219 426291.000000 0 0 1
34.554208 -22.186385 15.677599 43.954705 -0.570784 1.206089 0.041403 -0.024264 125174.000000 0 0 1
34.407008 -20.933085 16.278399 43.439873 -0.546570 1.186686 0.041835 -0.007444 519807.000000 0 0 1
33.504308 -20.917185 17.415299 43.166653 -0.558105 1.155519 0.033149 -0.010186 572458.000000 0 0 1
33.314708 -19.495285 17.992699 42.587241 -0.529455 1.134605 0.030090 0.003952 -169051.000000 0 0 1
32.664708 -18.588285 17.100699 41.290936 -0.517361 1.143786 0.036282 -0.001761 109553.000000 0 0 1
32.790608 -17.208985 17.515699 40.965508 -0.483302 1.128991 0.013289 0.003958 293244.000000 0 0 1
34.180508 -16.528885 17.803599 41.934226 -0.450423 1.132320 0.005666 -0.004883 314977.000000 0 0 1
34.633108 -16.817285 19.089099 42.972863 -0.452048 1.110501 -0.003868 0.015872 -433305.000000 0 0 1
-34.577002 -15.945985 19.445499 42.754777 0.432107 1.098632 -0.005019 0.004211 -740749.000000 0 0 1
-34.238102 -15.765985 20.952899 43.125838 0.431535 1.063455 -0.014355 0.014586 -139350.000000 0 0 1
-33.448202 -16.804385 21.541199 43.187878 0.465566 1.048607 -0.004179 0.011625 268953.000000 0 0 1
-33.221802 -16.446185 22.900499 43.572904 0.459673 1.017414 -0.006718 0.019545 38127.900000 0 0 1
-32.403202 -17.502185 23.692499 43.790735 0.495240 0.999124 -0.003493 0.021808 -558765.000000 0 0 1
-33.022902 -18.779485 23.772399 44.814151 0.517072 1.011646 -0.011899 0.016663 -28046.900000 0 0 1
-32.337102 -19.842585 24.359899 45.086817 0.550372 1.000016 -0.002742 0.012834 -377381.000000 0 0 1
-31.122502 -20.461585 23.638799 44.114390 0.581597 1.005279 -0.007925 0.013653 860923.000000 0 0 1
-29.953902 -19.628485 23.513999 42.841823 0.580085 0.989801 -0.007353 0.024450 1754090.000000 0 0 1
-28.804002 -20.362485 22.985899 42.102885 0.615363 0.993279 -0.003752 0.022684 881431.000000 0 0 1
-27.510502 -19.545185 22.882899 40.773387 0.617713 0.974935 0.007540 0.026621 -348308.000000 0 0 1
-27.037102 -19.309185 24.170399 41.085979 0.620175 0.941856 0.019538 0.016384 -1355910.000000 0 0 1
-25.825202 -18.694585 24.149499 39.995336 0.626580 0.922527 0.030163 0.012349 -1312700.000000 0 0 1
-25.421702 -18.298885 25.604799 40.456370 0.623900 0.885504 0.032703 -0.001101 -680754.000000 0 0 1
-24.425002 -17.306385 25.705399 39.457056 0.616443 0.861266 0.033510 -0.003613 78991.600000 0 0 1
-24.124102 -16.849185 27.031599 39.957161 0.609677 0.827777 0.029873 -0.008761 -123483.000000 0 0 1
-23.093702 -17.652285 27.822599 40.237038 0.652639 0.807278 0.014531 -0.000487 -783967.000000 0 0 1
-23.555202 -18.964985 28.085199 41.271014 0.677861 0.822342 0.022756 -0.001074 473887.000000 0 0 1
-22.631802 -19.609385 29.000299 41.686254 0.713968 0.801430 0.016500 0.001476 194966.000000 0 0 1
-23.138902 -20.966285 29.573899 43.007085 0.736178 0.812547 0.010058 0.009773 -395984.000000 0 0 1
-24.170702 -20.664085 30.478799 44.047525 0.707345 0.806606 0.014815 -0.002045 -285337.000000 0 0 1
-24.732502 -21.886685 30.878299 45.212753 0.724430 0.818995 0.007633 -0.001472 -319847.000000 0 0 1
-25.954102 -21.698685 31.835099 46.453438 0.696334 0.815764 0.018332 -0.005512 -390779.000000 0 0 1
-25.679002 -20.832385 32.929599 46.666454 0.681570 0.787474 0.021294 -0.014726 84591.400000 0 0 1
-26.550602 -20.922985 34.050199 47.980432 0.667407 0.781769 0.019161 -0.010306 -16484.300000 0 0 1
-27.875602 -20.153985 33.830899 48.246886 0.625994 0.793712 0.013640 -0.015853 -910437.000000 0 0 1
-28.763902 -20.810185 33.034399 48.494303 0.626313 0.821394 0.026068 -0.016025 -477581.000000 0 0 1
-29.743602 -19.911685 32.514899 48.356755 0.589923 0.833355 0.030314 -0.020636 130609.000000 0 0 1
-30.849502 -20.564885 31.650999 48.748251 0.587970 0.864166 0.031021 -0.006948 -247113.000000 0 0 1
-31.452902 -19.683085 30.691999 48.152961 0.559171 0.879696 0.034705 -0.016429 570433.000000 0 0 1
-32.247802 -20.300885 29.687299 48.305097 0.561849 0.908944 0.024704 -0.011831 -36702.500000 0 0 1
-32.848402 -19.236285 28.792899 47.729270 0.529770 0.923221 0.008873 0.002761 -41028.100000 0 0 1
-33.898602 -19.650685 27.929499 48.117789 0.525352 0.951527 0.004285 0.006829 273877.000000 0 0 1
-34.467902 -18.562285 27.253299 47.700493 0.494001 0.962656 -0.005503 0.017231 258485.000000 0 0 1
34.620908 -18.992185 26.264199 47.424872 -0.501749 0.983868 -0.014028 0.021326 908359.000000 0 0 1
33.439108 -19.496785 26.906999 47.141120 -0.527866 0.963346 -0.011109 0.022190 264657.000000 0 0 1
32.383808 -19.586185 25.983399 45.907153 -0.543952 0.969152 0.005649 0.020717 502053.000000 0 0 1
31.069608 -20.140885 26.667499 45.630377 -0.575144 0.946626 0.010308 0.020521 382824.000000 0 0 1
30.607108 -19.304285 27.692899 45.566952 -0.562697 0.917584 0.011126 0.016714 -218895.000000 0 0 1
29.829308 -19.978085 28.618699 45.912323 -0.590132 0.897798 0.016613 0.018758 -265463.000000 0 0 1
-29.191232 -5.782285 34.210338 45.342145 0.195552 0.715915 -0.006506 0.006307 31098.900000 0 0 1
-30.084012 -5.491485 33.164541 45.111982 0.180551 0.744893 -0.007856 0.008849 346695.000000 0 0 1
-29.544092 -4.477285 32.333792 44.026964 0.150401 0.746001 0.002983 0.005247 -187057.000000 0 0 1
-30.279592 -4.498985 30.989502 43.559658 0.147502 0.779270 -0.004019 -0.006082 22452.000000 0 0 1
-29.987462 -5.566885 30.055882 42.820487 0.183551 0.792729 -0.018487 0.000283 -87298.900000 0 0 1
-28.694032 -5.353085 29.513412 41.509571 0.184437 0.779873 -0.006518 -0.008785 239660.000000 0 0 1
-28.210952 -6.382285 28.443062 40.565985 0.222489 0.793780 -0.002475 -0.008285 -141828.000000 0 0 1
-28.822692 -6.237485 27.176742 40.102732 0.213122 0.826196 -0.012832 -0.010710 -106030.000000 0 0 1
-28.318342 -7.180085 26.206112 39.245922 0.248316 0.839626 0.014233 -0.007063 386153.000000 0 0 1
-28.892192 -6.850885 24.775822 38.672144 0.232819 0.875435 -0.011522 0.000652 358617.000000 0 0 1
-28.329392 -5.649685 24.283752 37.738230 0.196846 0.871762 0.003719 -0.006927 392308.000000 0 0 1
-29.213122 -5.107185 23.288182 37.707151 0.173076 0.905101 0.011660 -0.004312 389495.000000 0 0 1
-28.667462 -3.794185 22.700382 36.763114 0.131587 0.905265 0.020213 -0.003630 207621.000000 0 0 1
-27.456452 -4.049185 22.006382 35.419394 0.146421 0.900384 0.009412 0.006073 -232462.000000 0 0 1
-26.985062 -2.787185 21.618282 34.688789 0.102921 0.897960 0.017310 0.008365 851404.000000 0 0 1
-25.617422 -2.928585 20.832482 33.148472 0.113826 0.891225 0.006133 0.014517 797256.000000 0 0 1
-25.720942 -3.484985 19.547582 32.493383 0.134672 0.925311 0.006136 0.000931 515328.000000 0 0 1
-24.408092 -3.519185 18.966582 31.110623 0.143194 0.915178 0.000700 0.005873 476639.000000 0 0 1
-24.431792 -4.166785 17.572282 30.381897 0.168922 0.954055 0.008990 0.003068 -110883.000000 0 0 1
-25.303402 -3.600885 16.587882 30.469433 0.141359 0.995110 0.014462 0.006798 278046.000000 0 0 1
-25.113642 -4.346085 15.430782 29.794169 0.171360 1.026387 0.025574 -0.005567 -380742.000000 0 0 1
-26.335052 -4.420985 14.515982 30.393976 0.166324 1.072882 0.031107 -0.010651 -285176.000000 0 0 1
-26.716282 -3.153885 14.105982 30.375738 0.117507 1.087858 0.032018 -0.013132 -114184.000000 0 0 1
-27.942072 -3.144685 13.398682 31.147602 0.112071 1.126118 0.036568 -0.018644 15358.100000 0 0 1
-28.276462 -1.868385 12.575082 31.002933 0.065980 1.153151 0.026337 -0.002896 95111.000000 0 0 1
-27.462772 -1.747185 11.384682 29.780320 0.063534 1.178524 0.038398 -0.009609 417746.000000 0 0 1
-27.774062 -0.658385 10.558482 29.720591 0.023701 1.207606 0.036739 0.001658 -282691.000000 0 0 1
-29.096982 -0.622485 9.772882 30.700669 0.021390 1.246831 0.024262 -0.000562 68725.900000 0 0 1
-28.955112 -1.416385 8.632082 30.247603 0.048878 1.281393 0.018537 -0.010485 312292.000000 0 0 1
-30.222192 -1.656485 8.039982 31.317186 0.054755 1.311162 0.024808 -0.015004 160526.000000 0 0 1
-30.159662 -2.468785 6.707582 30.995028 0.081675 1.352662 0.022615 -0.013123 -533878.000000 0 0 1
-29.593962 -1.934985 5.537482 30.169694 0.065292 1.386205 0.028681 -0.016079 240101.000000 0 0 1
-30.271862 -0.798885 5.041982 30.699274 0.026384 1.405811 0.037007 -0.006987 -413062.000000 0 0 1
-29.865112 -0.296385 3.668682 30.091061 0.009924 1.448573 0.009346 -0.005704 -174880.000000 0 0 1
-30.347212 -1.110585 2.640082 30.482072 0.036580 1.484077 0.004507 -0.007946 262808.000000 0 0 1
-29.901732 -0.530685 1.478282 29.942954 0.017746 1.521406 -0.006210 -0.010770 -99221.100000 0 0 1
-30.609432 -1.173485 0.236282 30.632829 0.038319 1.563083 -0.002846 -0.000618 58309.100000 0 0 1
-31.934172 -0.704085 0.084982 31.942046 0.022044 1.568136 0.001569 0.004137 59749.800000 0 0 1
-32.443222 -1.168485 -1.126918 32.483810 0.036001 1.605495 0.000426 0.008940 -409849.000000 0 0 1
-33.955552 -0.928585 -1.308118 33.993425 0.027340 1.609287 0.018041 0.002639 -48746.000000 0 0 1
-34.676444 -1.769385 -0.368718 34.723514 0.050981 1.581415 0.019410 0.006491 547923.000000 0 0 1
34.171899 -1.423185 -0.336618 34.203179 -0.041624 1.580638 0.035051 -0.001457 -90693.500000 0 0 1
33.281679 -2.536985 0.215682 33.378930 -0.076081 1.564335 0.042735 -0.007019 -473200.000000 0 0 1
33.599009 -2.820785 1.570282 33.753756 -0.083758 1.524258 0.037849 -0.006205 856175.000000 0 0 1
32.790229 -3.957185 2.015382 33.089579 -0.120101 1.509852 0.037395 -0.000704 137014.000000 0 0 1
32.984669 -4.348985 3.434582 33.446949 -0.131093 1.467928 0.038130 -0.000653 -176358.000000 0 0 1
32.441079 -3.445285 4.329682 32.909569 -0.105805 1.438851 0.035237 -0.006052 -55257.600000 0 0 1
32.762279 -3.734185 5.630882 33.451725 -0.113488 1.401662 0.023162 -0.006330 -272686.000000 0 0 1
32.107199 -2.730685 6.605582 32.893200 -0.084845 1.368602 0.021034 -0.001418 -120479.000000 0 0 1
30.703669 -2.698885 6.648682 31.531005 -0.087676 1.358340 0.029198 -0.001656 -260430.000000 0 0 1
30.264139 -1.542785 7.263282 31.161733 -0.050933 1.335549 0.022032 0.006923 -766194.000000 0 0 1
28.797599 -1.544985 7.655282 29.837762 -0.053598 1.311331 0.034517 0.007085 -597465.000000 0 0 1
27.911589 -1.457685 6.518982 28.699805 -0.052178 1.341653 0.036538 0.004424 579954.000000 0 0 1
26.562829 -1.248185 6.895682 27.471664 -0.046955 1.317072 0.030887 0.012090 316414.000000 0 0 1
25.742899 -2.583585 6.904782 26.777748 -0.100026 1.309995 0.042678 -0.008256 -495946.000000 0 0 1
26.250279 -3.533985 7.854682 27.627201 -0.133822 1.282510 0.036808 -0.005614 166823.000000 0 0 1
25.522399 -4.711285 7.822582 27.106860 -0.182539 1.278050 0.044080 -0.017898 -322496.000000 0 0 1
25.790879 -5.734685 8.989882 27.908315 -0.218794 1.242826 0.047205 -0.008995 -243336.000000 0 0 1
25.276209 -5.279585 10.205382 27.765277 -0.205915 1.194413 0.045436 -0.000606 341031.000000 0 0 1
25.723909 -6.110885 11.254782 28.735562 -0.233233 1.168353 0.033035 -0.000880 -629680.000000 0 0 1
24.790019 -6.192885 12.439482 28.418965 -0.244803 1.117738 0.027577 -0.001132 -27244.200000 0 0 1
23.573119 -6.862885 12.129082 27.384408 -0.283301 1.111944 0.032977 -0.011482 157733.000000 0 0 1
22.652119 -6.739085 13.189882 27.064862 -0.289165 1.061751 0.043576 -0.008977 333892.000000 0 0 1
21.556019 -7.835285 13.187282 26.456721 -0.348637 1.048989 0.041481 -0.007387 207090.000000 0 0 1
21.980419 -9.028485 13.768682 27.463230 -0.389740 1.045638 0.033350 -0.008479 431564.000000 0 0 1
20.877219 -9.937885 13.902982 26.979858 -0.444277 1.029427 0.051513 -0.022828 349670.000000 0 0 1
21.325019 -11.212685 14.673982 28.210043 -0.484074 1.023748 0.043964 -0.017053 -163906.000000 0 0 1
21.428219 -10.837685 15.997082 28.853607 -0.468251 0.983128 0.055388 -0.016660 253733.000000 0 0 1
21.736919 -12.011285 16.710882 29.933563 -0.504818 0.978502 0.041046 -0.015337 -307402.000000 0 0 1
21.601919 -11.902085 18.246882 30.679818 -0.503590 0.933839 0.050864 -0.015045 753300.000000 0 0 1
20.254119 -11.782085 18.758982 30.015767 -0.526865 0.895702 0.052162 -0.021073 778985.000000 0 0 1
20.128819 -12.337885 20.053782 30.976555 -0.549884 0.866647 0.076126 -0.014927 279028.000000 0 0 1
20.637019 -11.430285 21.235082 31.740616 -0.505812 0.837908 0.051204 -0.012993 141724.000000 0 0 1
19.797219 -10.332185 21.564582 31.043762 -0.481014 0.802862 0.061522 -0.017102 -101571.000000 0 0 1
19.864319 -9.170985 20.694382 30.115704 -0.432526 0.813220 0.048915 -0.009695 -768119.000000 0 0 1
20.929719 -8.152785 21.157582 30.857160 -0.371449 0.815284 0.027519 0.009976 406042.000000 0 0 1
22.304319 -8.471685 21.183582 31.906054 -0.362992 0.844726 0.025774 0.005840 208169.000000 0 0 1
22.933519 -8.588885 19.894182 31.551446 -0.358343 0.888558 0.024128 0.007089 -3487.990000 0 0 1
24.303819 -9.314385 19.971582 32.806973 -0.365982 0.916299 -0.008837 0.014276 246582.000000 0 0 1
24.152119 -10.599885 20.565482 33.445799 -0.413568 0.908550 -0.007225 0.005950 154440.000000 0 0 1
25.273679 -11.403885 20.220082 34.317039 -0.423865 0.940711 -0.007944 0.009854 311117.000000 0 0 1
25.021919 -12.924785 20.352882 34.747465 -0.476791 0.945007 -0.015744 0.006534 -447673.000000 0 0 1
24.023019 -13.421685 19.541482 33.750802 -0.509499 0.953303 0.011288 -0.004220 -532170.000000 0 0 1
23.973119 -14.840785 19.683282 34.385912 -0.554316 0.961339 0.008690 -0.003535 170602.000000 0 0 1
22.818919 -15.562785 18.941082 33.491312 -0.598551 0.969694 0.033426 -0.014122 -189381.000000 0 0 1
23.118119 -15.706385 17.608882 33.033478 -0.596764 1.008581 0.014789 -0.003828 417440.000000 0 0 1
22.161219 -16.449285 16.819682 32.320277 -0.638526 1.023469 0.002796 -0.011228 3670.390000 0 0 1
22.081819 -17.982885 17.033182 33.183131 -0.683445 1.031761 -0.002607 -0.004498 825452.000000 0 0 1
23.359419 -18.651185 16.828382 34.303405 -0.673791 1.058047 0.000180 0.008358 1084280.000000 0 0 1
23.234819 -20.067485 16.892182 35.041498 -0.712383 1.067789 0.010497 0.000841 -496024.000000 0 0 1
24.410619 -20.835285 16.311582 36.000766 -0.706542 1.100568 0.010697 0.011259 -399304.000000 0 0 1
24.554119 -20.690185 14.948382 35.418112 -0.700203 1.135086 0.001237 -0.003953 368680.000000 0 0 1
25.521569 -21.645485 14.500382 36.471065 -0.703405 1.161912 0.006626 -0.009965 -10696.300000 0 0 1
25.674409 -21.481785 12.991782 35.908617 -0.696722 1.200597 -0.001854 -0.024168 -935582.000000 0 0 1
24.527719 -21.529185 12.206482 34.844125 -0.720385 1.212887 -0.002395 -0.015873 -606288.000000 0 0 1
24.766019 -21.625585 10.828082 34.616022 -0.717807 1.252651 0.019287 -0.005411 294317.000000 0 0 1
23.487419 -22.139385 10.094982 33.818928 -0.755862 1.267675 -0.003979 -0.010869 256153.000000 0 0 1
22.957519 -23.340485 10.651982 34.428050 -0.793670 1.256236 0.005976 -0.009842 397351.000000 0 0 1
21.654219 -23.694685 10.205482 33.682268 -0.830363 1.262965 -0.011881 0.004136 374866.000000 0 0 1
21.568219 -24.288585 8.762382 33.643763 -0.844652 1.307312 -0.010235 0.003854 -826258.000000 0 0 1
22.025319 -25.614245 8.639982 34.869091 -0.860591 1.320405 -0.008128 0.005278 -160153.000000 0 0 1
21.649919 -26.339245 7.457882 34.901215 -0.882805 1.355450 -0.001185 0.007862 -315046.000000 0 0 1
20.163219 -26.732215 7.294782 34.269236 -0.924570 1.356288 -0.009514 0.006282 310912.000000 0 0 1
19.312019 -25.588625 7.085682 32.831977 -0.924287 1.353268 -0.013176 0.006503 -1111800.000000 0 0 1
18.005019 -25.914395 7.391282 32.409376 -0.963577 1.340712 -0.011651 -0.001636 -703802.000000 0 0 1
17.142619 -24.614085 7.434982 30.903099 -0.962453 1.327822 -0.013163 0.003294 -153909.000000 0 0 1
16.997519 -24.046985 6.163482 30.085905 -0.955490 1.364473 -0.002984 0.000463 -50906.500000 0 0 1
16.426719 -22.781985 6.320482 28.788964 -0.946089 1.349448 0.016779 0.000267 -257984.000000 0 0 1
16.073119 -22.187185 4.942382 27.839603 -0.943860 1.392320 0.018440 0.003952 -456892.000000 0 0 1
15.625819 -20.892185 5.108182 26.584641 -0.928624 1.377446 0.055341 -0.003632 -190792.000000 0 0 1
15.338419 -20.386285 3.826582 25.797489 -0.925768 1.421915 0.049118 -0.000172 -115275.000000 0 0 1
14.213519 -19.362285 3.928082 24.338283 -0.937560 1.408692 0.027424 0.001595 -189681.000000 0 1 0
14.745719 -18.211785 4.644082 23.888760 -0.890181 1.375146 0.015505 -0.003106 655304.000000 0 1 0
13.970219 -17.028585 4.469782 22.474846 -0.883741 1.370582 -0.005007 0.000622 -45096.100000 0 1 0
14.843419 -15.764685 4.593082 22.134787 -0.815488 1.361772 -0.019880 0.001144 -945220.000000 0 1 0
15.277919 -15.597085 5.931082 22.624359 -0.795735 1.305542 -0.008138 -0.006895 1241320.000000 0 1 0
16.476819 -14.758285 5.914782 22.897100 -0.730434 1.309513 0.006706 -0.011845 1336180.000000 0 1 0
17.834919 -15.442485 5.534482 24.231904 -0.713628 1.340366 -0.002169 -0.018148 -852300.000000 0 1 0
18.807419 -14.444685 5.577682 24.361414 -0.654942 1.339792 0.011684 -0.014731 -382088.000000 0 1 0
20.049319 -15.068685 5.266082 25.627565 -0.644512 1.363837 0.023644 -0.016489 207127.000000 0 0 1
21.213019 -14.037885 5.327082 25.989078 -0.584597 1.364359 0.019355 -0.017418 -29778.800000 0 0 1
21.359719 -13.567585 6.662682 26.166931 -0.565897 1.313339 0.029258 -0.010821 138163.000000 0 0 1
22.447019 -12.670185 6.649582 26.619902 -0.513868 1.318325 0.035010 -0.009315 -232765.000000 0 0 1
22.533519 -11.902685 8.008982 26.712866 -0.485969 1.266295 0.042756 -0.008875 -246114.000000 0 0 1
22.996619 -12.511785 9.180882 27.743069 -0.498280 1.233512 0.045944 -0.015266 105101.000000 0 0 1
23.119319 -11.613285 10.218782 27.817168 -0.465501 1.194632 0.061838 -0.023444 -173560.000000 0 0 1
23.641919 -12.191185 11.515282 28.985635 -0.476097 1.162250 0.036903 -0.009870 -1292.610000 0 0 1
22.834419 -13.328885 11.842382 28.970880 -0.528362 1.149692 0.036953 -0.010503 593575.000000 0 0 1
23.329419 -14.018585 13.019682 30.171090 -0.541079 1.124610 0.025446 -0.011524 -148294.000000 0 0 1
22.515819 -15.229985 13.461382 30.333535 -0.594720 1.110985 0.000289 -0.012612 330687.000000 0 0 1
21.198819 -14.841385 13.844682 29.348456 -0.610796 1.079539 0.011364 -0.021520 701869.000000 0 0 1
20.154719 -15.820285 13.666982 29.039293 -0.665492 1.080783 0.001317 -0.011255 61761.500000 0 0 1
18.831619 -15.247885 14.107082 28.038146 -0.680625 1.043569 0.005838 -0.013196 -1023820.000000 0 0 1
18.589719 -15.011185 15.499182 28.480484 -0.679297 0.995357 0.013031 -0.016611 59490.500000 0 0 1
18.279919 -13.709085 15.971482 27.877997 -0.643471 0.960749 0.028174 -0.018453 949398.000000 0 0 1
16.777319 -13.282985 15.770882 26.582642 -0.669673 0.935672 0.034403 -0.024897 586872.000000 0 0 1
16.319019 -13.119985 14.423282 25.425882 -0.677156 0.967612 0.028289 -0.030770 1422390.000000 0 0 1
14.858919 -13.066685 14.472982 24.515158 -0.721307 0.939281 0.058939 -0.031566 1596810.000000 0 1 0
14.393519 -11.614485 14.180382 23.305641 -0.678949 0.916687 0.038284 -0.029668 -219777.000000 0 1 0
14.672319 -10.816785 15.310282 23.805137 -0.635274 0.872191 0.020135 -0.009626 162029.000000 0 1 0
14.535619 -9.465985 14.938482 22.892080 -0.577237 0.859837 0.010812 -0.006123 -663448.000000 0 1 0
14.889119 -8.500885 16.054582 23.488306 -0.518782 0.818231 0.010174 -0.001408 1069490.000000 0 1 0
16.302619 -8.320585 16.303282 24.511315 -0.471920 0.843125 0.012084 -0.011727 1228360.000000 0 1 0
16.932819 -9.339885 17.107182 25.818782 -0.504059 0.846529 0.036251 -0.006863 -350647.000000 0 0 1
18.459919 -9.232085 17.035482 26.762056 -0.463740 0.880775 0.041508 -0.009048 -328305.000000 0 0 1
19.023819 -8.072185 17.570082 27.125148 -0.401294 0.866180 0.035507 -0.017668 596968.000000 0 0 1
20.192419 -7.732785 16.784982 27.372712 -0.365726 0.910689 0.027531 -0.002929 658294.000000 0 0 1
20.643919 -6.287085 17.153682 27.567148 -0.295625 0.899182 0.017433 0.006399 -121810.000000 0 0 1
21.308119 -6.234285 18.392082 28.830035 -0.284634 0.878965 0.029053 0.004680 59860.400000 0 0 1
21.485119 -4.885185 18.829082 28.982921 -0.223574 0.863657 0.028332 0.006014 168827.000000 0 0 1
-5.717892 -33.408855 -6.107601 34.440509 1.401290 1.749077 -0.028122 0.010978 -72159.400000 0 0 1
-6.050092 -32.041955 -6.354201 33.221474 1.384176 1.763250 -0.025091 0.000551 48677.100000 0 0 1
-5.474692 -31.214955 -5.357701 32.141104 1.397175 1.738271 -0.019870 0.003564 -444414.000000 0 0 1
-6.071092 -29.785055 -5.593301 30.907809 1.369721 1.752766 -0.000156 0.001008 1445300.000000 0 0 1
-7.467292 -29.586055 -5.302001 30.971056 1.323567 1.742836 0.002244 -0.003258 605382.000000 0 0 1
-8.370792 -30.147355 -6.205601 31.897376 1.299956 1.766594 -0.000716 -0.004110 -1484570.000000 0 0 1
-9.812192 -30.017255 -5.767201 32.102574 1.254860 1.751426 0.016924 0.002622 -602631.000000 0 0 1
-10.694992 -30.839755 -6.474901 33.277585 1.236982 1.766618 0.009091 -0.005949 -476931.000000 0 0 1
-12.029492 -30.734355 -6.064401 33.557208 1.197724 1.752513 0.009847 -0.004598 127210.000000 0 0 1
-13.143892 -31.286055 -6.988801 34.647113 1.173066 1.773904 0.027239 -0.012611 305484.000000 0 0 1
-13.207092 -30.626155 -8.230401 34.352993 1.163656 1.812733 0.043956 -0.019420 125025.000000 0 0 1
-14.473792 -30.847555 -8.817501 35.196741 1.132088 1.824014 0.058729 -0.018706 150232.000000 0 0 1
-14.772092 -30.060855 -10.121401 34.990176 1.114047 1.864254 0.051804 -0.015525 -377742.000000 0 0 1
-15.201892 -28.700555 -9.998501 33.982192 1.083694 1.869444 0.053459 -0.018374 272699.000000 0 0 1
-14.139292 -27.825855 -9.645301 32.668480 1.100662 1.870511 0.034349 -0.015422 -166488.000000 0 0 1
-14.421792 -26.305855 -9.492801 31.465844 1.069309 1.877257 0.037602 -0.005487 -379684.000000 0 0 1
-14.697592 -25.624455 -10.728701 31.428282 1.050032 1.919171 0.047696 -0.005460 217826.000000 0 0 1
-15.258092 -24.358355 -10.375601 30.558009 1.011190 1.917222 0.028984 0.006555 -107039.000000 0 0 1
-15.688692 -23.409955 -11.537401 30.451152 0.980371 1.959385 0.035862 0.004774 -715781.000000 0 0 1
-16.846992 -23.926155 -12.075101 31.655806 0.957308 1.962161 0.034242 0.001136 -984603.000000 0 0 1
-17.368292 -23.359755 -13.273501 31.992523 0.931460 1.998622 0.041072 -0.001625 -25149.900000 0 0 1
-18.776192 -23.928355 -13.603401 33.319124 0.905465 1.991361 0.019618 0.014274 54723.100000 0 0 1
-18.942792 -25.293955 -13.849601 34.502535 0.927996 1.983850 0.046122 0.010808 -282693.000000 0 0 1
-18.737592 -26.059355 -12.692501 34.515024 0.947409 1.947372 0.049450 -0.000660 -1135790.000000 0 0 1
-18.982292 -27.622655 -12.822601 35.885339 0.968713 1.936195 0.052945 -0.009028 254154.000000 0 0 1
-18.089392 -28.416855 -13.589801 36.323910 1.003918 1.954253 0.060058 -0.007993 396529.000000 0 0 1
-16.700192 -28.249555 -13.340201 35.424493 1.036897 1.956899 0.061647 -0.019707 -131484.000000 0 0 1
-15.788792 -29.386755 -13.765401 36.088136 1.077775 1.962148 0.057898 -0.018045 -287929.000000 0 0 1
-15.754692 -29.450755 -15.174501 36.685457 1.079581 1.997243 0.074263 -0.005562 -57768.800000 0 0 1
-15.081892 -30.610955 -15.670101 37.550580 1.113009 2.001276 0.070253 -0.004162 197355.000000 0 0 1
-15.821592 -31.984855 -15.476701 38.895783 1.111431 1.980025 0.069381 -0.009149 56378.300000 0 0 1
-16.033992 -32.292055 -14.083101 38.706581 1.109928 1.943186 0.068139 -0.008395 -161118.000000 0 0 1
-16.388292 -33.623555 -13.880401 39.897181 1.117275 1.926131 0.050275 -0.005380 -753267.000000 0 0 1
-16.986592 -33.842655 -12.422201 39.851984 1.105607 1.887787 0.048685 -0.013395 162189.000000 0 0 1
-18.311992 -33.421355 -12.185401 40.009998 1.069557 1.880272 0.048864 -0.011197 4259.790000 0 0 1
-18.622792 -32.069655 -12.341001 39.084158 1.044690 1.892048 0.053749 -0.014087 -669356.000000 0 0 1
-18.094892 -31.090455 -11.255601 37.692573 1.043711 1.874038 0.057684 -0.018354 -375431.000000 0 0 1
-18.574192 -31.424955 -9.963101 37.839024 1.036973 1.837240 0.046449 -0.023926 296832.000000 0 0 1
-18.303192 -30.350455 -9.031701 36.574971 1.028129 1.820314 0.054680 -0.016979 -255978.000000 0 0 1
-18.562692 -30.723755 -7.585801 36.688786 1.027309 1.779059 0.048202 -0.019359 444709.000000 0 0 1
-17.548292 -31.604755 -7.093701 36.839159 1.063937 1.764565 0.060690 -0.026662 422845.000000 0 0 1
-17.636392 -31.751355 -5.713801 36.767354 1.063776 1.726833 0.067129 -0.031139 -161970.000000 0 0 1
-16.728192 -32.871955 -5.145201 37.240715 1.100062 1.709400 0.065226 -0.025028 505113.000000 0 0 1
-15.386592 -32.483055 -4.876201 36.272212 1.128425 1.705638 0.055069 -0.016842 371130.000000 0 0 1
-15.250692 -32.146855 -3.497501 35.752432 1.127832 1.668779 0.040764 -0.011538 84464.400000 0 0 1
-13.961392 -31.366955 -3.075701 34.471238 1.152026 1.660140 0.039579 -0.003294 580541.000000 0 0 1
-12.765492 -32.123955 -3.194901 34.714746 1.192549 1.662960 -0.001042 0.005661 -311111.000000 0 0 1
-11.791292 -31.593655 -2.335601 33.803086 1.213590 1.639946 -0.001572 0.013178 424963.000000 0 0 1
-10.402392 -32.305855 -2.416901 34.025276 1.259283 1.641889 0.001539 0.006731 -164533.000000 0 0 1
-10.449792 -33.570955 -1.787501 35.205146 1.269028 1.621592 0.000203 0.009692 -506378.000000 0 0 1
-9.223992 -34.247855 -1.696101 35.508792 1.307709 1.618580 0.000126 0.006824 148032.000000 0 0 1
-8.136192 -33.597355 -0.767701 34.577004 1.333203 1.593001 0.014130 0.004744 -173474.000000 0 0 1
-8.636592 -33.579555 0.554899 34.676867 1.319055 1.554794 0.025959 0.007534 -204275.000000 0 0 1
-7.682592 -33.145355 1.465899 34.055625 1.343033 1.527739 0.032682 -0.002950 271679.000000 0 0 1
-6.658292 -34.176855 2.056099 34.880048 1.378388 1.511814 0.029917 -0.008864 213018.000000 0 0 1
-7.293692 34.170115 2.936199 35.063029 -1.360500 1.486958 0.041384 -0.011463 633821.000000 0 0 1
-6.404792 33.218215 3.613299 34.022450 -1.380324 1.464392 0.031491 -0.015157 345041.000000 0 0 1
-5.658692 33.853415 4.806499 34.658000 -1.405175 1.431664 0.034350 -0.011193 -315002.000000 0 0 1
-4.633992 -34.523455 4.520399 35.125159 1.437367 1.441744 0.029604 -0.008099 -461365.000000 0 0 1
-4.118592 -33.885355 5.664799 34.601589 1.449845 1.406341 0.021342 -0.009203 525557.000000 0 0 1
-2.930492 -32.909155 5.333099 33.467031 1.481983 1.410760 0.035042 -0.005690 352104.000000 0 0 1
-3.255192 -31.669755 4.627899 32.171215 1.468371 1.426443 0.026996 -0.001338 3789.750000 0 0 1
-3.589992 -31.894355 3.284899 32.263423 1.458709 1.468805 0.018182 -0.006053 -208503.000000 0 0 1
-4.083992 -30.630655 2.598199 31.010750 1.438248 1.486914 0.019184 -0.002547 949953.000000 0 0 1
-3.037692 -29.604055 2.650599 29.877304 1.468544 1.481963 0.005140 0.003294 772093.000000 0 0 1
-3.460292 -28.402555 2.026399 28.684229 1.449563 1.500092 0.016342 0.004263 377143.000000 0 0 1
-2.688892 -27.131055 2.488499 27.377306 1.472011 1.479774 0.008902 0.000875 354122.000000 0 0 1
-3.277392 -26.021455 1.810699 26.289466 1.445506 1.501866 0.018341 -0.009143 121563.000000 0 0 1
-2.817292 -24.787355 2.396099 25.061751 1.457624 1.475042 0.010400 -0.010620 -154435.000000 0 0 1
-3.829692 -24.262455 3.409699 24.798373 1.414244 1.432862 0.010141 -0.005077 -245147.000000 0 1 0
-3.900692 -24.934655 4.651099 25.662913 1.415617 1.388551 0.020207 -0.004136 29733.800000 0 0 1
-4.862992 -24.303555 5.486099 25.385207 1.373311 1.352964 0.013709 0.002554 -6362.130000 0 0 1
-5.610892 -25.279555 6.401299 26.674231 1.352383 1.328450 0.016775 0.000831 -547401.000000 0 0 1
-4.802392 -26.012355 7.303999 27.441829 1.388232 1.301386 0.022556 -0.006300 -58865.300000 0 0 1
-5.470592 -26.824655 8.303199 28.608261 1.369616 1.276321 0.020131 -0.007300 510134.000000 0 0 1
-4.524292 -27.225255 9.510799 29.191420 1.406121 1.238930 0.010623 -0.005400 470788.000000 0 0 1
-4.188292 -26.135855 10.412199 28.443603 1.411897 1.196020 0.014736 -0.009952 691001.000000 0 0 1
-5.283392 -25.634855 11.214099 28.474831 1.367541 1.166007 0.009929 -0.007277 700982.000000 0 0 1
-4.820892 -24.793455 12.437499 28.154001 1.378751 1.113229 0.001903 -0.007618 349179.000000 0 0 1
-3.964892 -25.515655 13.327199 29.058273 1.416639 1.094336 -0.006833 -0.002500 4959.940000 0 0 1
-3.409292 -24.573755 14.196099 28.583595 1.432939 1.051059 -0.003772 -0.004419 -211877.000000 0 0 1
-2.411592 -25.134355 15.248599 29.496971 1.475141 1.027507 -0.005612 -0.003855 82034.600000 0 0 1
-2.878192 -25.967055 16.242199 30.763305 1.460407 1.014584 -0.008521 -0.000744 -223566.000000 0 0 1
-1.734992 -26.299255 16.997399 31.361960 1.504921 0.998011 -0.019556 0.005072 116130.000000 0 0 1
-2.041892 -26.984055 18.299299 32.667612 1.495270 0.976210 -0.028886 0.005587 18786.100000 0 0 1
-2.551092 -26.069955 19.272299 32.520334 1.473251 0.936485 -0.016649 0.009181 -63689.000000 0 0 1
-2.385892 -26.465055 20.642799 33.648428 1.480887 0.910331 -0.017877 -0.001980 249402.000000 0 0 1
-2.895692 -25.324655 21.588299 33.403260 1.456948 0.868080 0.000684 -0.003311 113357.000000 0 0 1
-2.816692 -25.610555 22.988499 34.529775 1.461255 0.842286 0.009661 -0.007794 -262535.000000 0 0 1
-3.042192 -24.471955 23.812399 34.280633 1.447117 0.802889 0.015530 -0.013465 96395.200000 0 0 1
-2.091592 -23.225355 23.790199 33.313142 1.480982 0.775404 0.018097 -0.009462 64878.700000 0 0 1
-2.262092 -22.243055 22.780599 31.919057 1.469446 0.776031 0.018246 -0.004840 -80998.200000 0 0 1
-1.123892 -21.389755 22.656999 31.178908 1.518301 0.757324 0.004664 -0.001147 -111001.000000 0 0 1
-1.437192 -20.126855 21.954599 29.818789 1.499511 0.743259 0.014043 -0.000173 -619606.000000 0 0 1
-2.266292 -19.204855 22.593799 29.739574 1.453333 0.707911 0.025433 -0.010360 1067120.000000 0 0 1
-3.678692 -19.516055 22.704399 30.164530 1.384487 0.718665 0.030530 -0.009000 558233.000000 0 0 1
-4.547692 -19.363155 21.406499 29.220737 1.340114 0.748693 0.024264 -0.004848 -536770.000000 0 0 1
-4.372992 -20.301555 20.327699 29.060136 1.358636 0.796092 0.019939 -0.002408 -140998.000000 0 0 1
-4.942292 -21.542755 20.628499 30.233284 1.345281 0.819877 0.026558 -0.001613 -128481.000000 0 0 1
-4.940592 -22.481555 19.432999 30.124262 1.354473 0.869649 0.014185 0.003486 -320856.000000 0 0 1
-5.642492 -23.680355 19.589199 31.246338 1.336881 0.893193 0.023832 -0.006674 -237495.000000 0 0 1
-5.471592 -24.459455 18.417799 31.103353 1.350719 0.937074 0.023883 -0.004043 184438.000000 0 0 1
-6.283592 -25.778555 18.496299 32.343940 1.331706 0.962021 0.006852 -0.003215 -370280.000000 0 0 1
-7.657892 -25.572355 18.458199 32.454487 1.279835 0.965822 0.022849 -0.007881 -1043570.000000 0 0 1
-8.284492 -26.777655 17.985599 33.304014 1.270756 1.000308 0.032232 -0.011326 23227.800000 0 0 1
-9.806992 -26.791555 18.214499 33.848670 1.219897 1.002596 0.054614 -0.016062 -786883.000000 0 0 1
-10.405392 -26.127555 17.084399 32.905896 1.191796 1.024894 0.055564 -0.016961 514265.000000 0 0 1
-11.831992 -26.148455 17.037599 33.376900 1.145871 1.035076 0.049048 -0.015288 682102.000000 0 0 1
-12.619292 -25.441055 18.136099 33.695873 1.110337 1.002462 0.043907 -0.009811 -942125.000000 0 0 1
-12.410492 -24.021455 18.069499 32.520107 1.093924 0.981663 0.037282 -0.008458 42777.900000 0 0 1
-12.846192 -23.353855 19.231999 32.867871 1.067901 0.945755 0.029526 -0.000389 -37657.300000 0 0 1
-11.671492 -22.877455 20.094599 32.609731 1.099042 0.906869 0.019347 -0.006946 318264.000000 0 0 1
-10.851092 -23.900055 20.684999 33.418976 1.144605 0.903379 0.029466 -0.004281 1482630.000000 0 0 1
-9.460492 -23.494255 20.546899 32.613739 1.187988 0.889234 0.041249 -0.010420 1460370.000000 0 0 1
-8.382092 -24.308255 21.294399 33.385657 1.238739 0.879118 0.037310 -0.014371 76567.400000 0 0 1
-8.293492 -23.941255 22.650699 33.985583 1.237323 0.841320 0.043942 -0.020826 195660.000000 0 0 1
-7.559592 -24.932255 23.365199 34.995675 1.276401 0.839736 0.022811 -0.015021 197783.000000 0 0 1
-7.323392 -24.495955 24.844299 35.650008 1.280291 0.799738 0.021532 -0.018294 162543.000000 0 0 1
-6.343692 -25.293855 25.485299 36.462610 1.325065 0.796877 0.012702 -0.016623 138120.000000 0 0 1
-6.270292 -24.810955 26.806199 37.060387 1.323257 0.762211 0.009717 -0.011085 -239747.000000 0 0 1
-4.963492 -25.301055 27.483199 37.684292 1.377079 0.753496 0.007773 -0.007138 487527.000000 0 0 1
-3.839692 -24.533755 26.990799 36.676308 1.415549 0.743773 0.019922 -0.007928 -339833.000000 0 0 1
-2.860592 -24.552755 27.943699 37.307788 1.454811 0.724238 0.010783 -0.008818 -1004590.000000 0 0 1
-1.551992 -23.850055 27.608599 36.516688 1.505815 0.713533 0.016012 -0.007100 -1011720.000000 0 0 1
-1.715392 -22.450755 27.628699 35.641604 1.494538 0.683795 0.018655 -0.008141 806912.000000 0 0 1
-0.506192 -21.729855 27.280299 34.880618 1.547506 0.672760 0.024133 -0.011324 692429.000000 0 0 1
0.594808 -21.699155 28.337399 35.696152 -1.543392 0.653682 0.030739 -0.015567 -622147.000000 0 0 1
1.216308 -22.959355 28.574499 36.675787 -1.517869 0.677550 0.028009 -0.011254 -339226.000000 0 0 1
2.188608 -22.777755 29.544899 37.370003 -1.475005 0.659000 0.029430 -0.014210 -355226.000000 0 0 1
2.951508 -24.050555 30.007799 38.569529 -1.448686 0.679291 0.033294 -0.011204 -50124.000000 0 0 1
3.776908 -24.607655 28.979899 38.205186 -1.418500 0.709737 0.028757 -0.023133 466020.000000 0 0 1
4.469708 -25.773655 29.387499 39.343165 -1.399083 0.727329 -0.006049 -0.003126 -179530.000000 0 0 1
5.770508 -25.669755 30.251499 40.092247 -1.349674 0.715832 -0.010946 -0.000630 1284100.000000 0 0 1
6.976008 -25.087555 29.702499 39.500488 -1.299581 0.719777 -0.023187 0.000194 969301.000000 0 0 1
7.516408 -25.804055 28.648999 39.282449 -1.287351 0.753487 -0.014612 0.001079 -759391.000000 0 0 1
8.585308 -25.023755 27.810699 38.383991 -1.240294 0.760431 -0.011627 -0.003971 67727.600000 0 0 1
8.164908 -24.058755 26.904399 37.004541 -1.243619 0.756771 -0.002627 -0.001092 -340383.000000 0 0 1
9.245308 -23.587955 26.165699 36.421300 -1.197248 0.769272 -0.014098 -0.003098 -420194.000000 0 0 1
8.864308 -22.460555 25.257099 34.942431 -1.194901 0.762921 -0.001380 -0.002864 -7074.820000 0 0 1
7.942208 -22.841955 24.266699 34.259396 -1.236170 0.783677 0.009531 -0.002141 -160423.000000 0 0 1
7.292608 -21.819455 23.575799 32.940689 -1.248243 0.773164 0.001434 0.012098 -54480.600000 0 0 1
6.482708 -22.344255 22.339799 32.254578 -1.288420 0.805697 0.025538 0.002822 -329752.000000 0 0 1
7.182508 -23.202855 21.471099 32.418652 -1.270599 0.846903 0.017665 0.007410 -182366.000000 0 0 1
6.523608 -23.384255 20.242599 31.609233 -1.298739 0.875775 0.019531 -0.000275 -139693.000000 0 0 1
7.313008 -24.321555 19.294499 31.895075 -1.278716 0.921110 0.019271 -0.010873 1086590.000000 0 0 1
8.616508 -23.792855 18.969699 31.625838 -1.223341 0.927525 0.030188 -0.015096 275687.000000 0 0 1
9.290508 -24.707255 18.132499 32.024202 -1.211129 0.968893 0.038102 -0.025537 357168.000000 0 0 1
10.626108 -24.039755 17.698699 31.687031 -1.154596 0.978163 0.045200 -0.023645 233598.000000 0 0 1
10.402808 -23.097355 16.656799 30.317572 -1.147618 0.989138 0.062869 -0.016994 357572.000000 0 0 1
11.608808 -22.802355 15.929199 30.140524 -1.099891 1.013966 0.049039 -0.024371 594954.000000 0 0 1
-12.099492 22.666115 11.754799 28.254659 -1.080465 1.141721 0.004725 -0.009897 -545136.000000 0 0 1
-13.007192 21.804615 11.168599 27.737445 -1.032929 1.156382 -0.008866 -0.014406 -269237.000000 0 0 1
-12.468892 20.520015 11.011399 26.415813 -1.024774 1.140821 0.011140 -0.017317 -161508.000000 0 0 1
-13.338492 19.753015 10.014899 25.853340 -0.976866 1.173015 0.009787 -0.015304 -410657.000000 0 0 1
-13.210092 20.366515 8.749299 25.804102 -0.995393 1.224872 0.011905 -0.027268 584802.000000 0 0 1
-14.054092 19.750715 7.734999 25.444812 -0.952345 1.261917 0.010362 -0.026900 1325610.000000 0 0 1
-15.599892 20.020915 7.780399 26.546719 -0.908880 1.273346 0.009847 -0.017126 520646.000000 0 0 1
-16.200192 19.363515 8.901299 26.769853 -0.874113 1.231830 0.008843 -0.016714 -525964.000000 0 0 1
-17.577492 19.630315 8.923599 27.819923 -0.840514 1.244261 0.019612 -0.017952 -386306.000000 0 0 1
-18.381292 18.495915 9.595399 27.785652 -0.788506 1.218199 0.017682 -0.016376 -243359.000000 0 0 1
-18.494892 17.294415 8.781599 26.800640 -0.751868 1.236967 0.012604 -0.018468 31357.900000 0 0 1
-19.042492 16.235315 9.540299 26.780949 -0.705992 1.206561 0.025625 -0.020204 -441857.000000 0 0 1
-18.160192 15.579315 10.648299 26.189576 -0.709053 1.152083 0.034610 -0.012734 201855.000000 0 0 1
-17.202292 14.709415 10.038499 24.759992 -0.707439 1.153345 0.014436 0.004442 63163.700000 0 1 0
-16.554892 13.780415 10.910699 24.145551 -0.694192 1.101934 0.016633 0.012100 -165388.000000 0 1 0
-17.355992 12.780415 11.765699 24.556081 -0.634720 1.071126 0.021924 0.020718 -467268.000000 0 1 0
-18.122092 11.918915 10.973299 24.308106 -0.581770 1.102434 0.010838 0.016862 -170821.000000 0 1 0
-19.086692 11.250615 11.768499 25.087361 -0.532625 1.082524 0.021687 0.020823 -333446.000000 0 0 1
-19.939092 10.246515 11.004099 24.972958 -0.474698 1.114484 0.012514 0.021500 -560138.000000 0 1 0
-19.298892 9.244415 10.187299 23.699947 -0.446717 1.126475 0.005930 0.009895 262793.000000 0 1 0
-18.881892 9.723415 8.912299 23.032579 -0.475544 1.173482 0.010567 0.010080 12663.000000 0 1 0
-20.027992 9.894015 7.841499 23.674904 -0.458844 1.233205 0.015304 0.000620 446332.000000 0 1 0
-20.643692 8.711815 7.365799 23.586282 -0.399334 1.253192 0.010762 -0.005787 439158.000000 0 1 0
-21.392792 8.985615 6.186599 24.013888 -0.397654 1.310232 0.013205 -0.006495 -45449.400000 0 1 0
-21.643792 7.703515 5.410499 23.602359 -0.341941 1.339504 0.024779 -0.005000 -62953.300000 0 1 0
-22.514192 6.757115 6.004899 24.261209 -0.291573 1.320687 0.018448 -0.003576 258165.000000 0 1 0
-22.020192 5.493615 5.674899 23.393869 -0.244490 1.325771 0.016205 0.003896 -406686.000000 0 1 0
-22.917492 4.246515 6.037599 24.076896 -0.183218 1.317328 0.026608 0.001992 -704501.000000 0 1 0
-24.026492 4.238415 5.235799 24.952957 -0.174609 1.359399 0.017604 0.002991 -579174.000000 0 1 0
-24.679092 2.974815 5.150599 25.385739 -0.119961 1.366484 0.017307 -0.008152 -228835.000000 0 0 1
-25.826202 2.969615 4.122499 26.321214 -0.114482 1.413526 0.021003 -0.006837 -529856.000000 0 0 1
-25.455052 3.158615 2.797599 25.802385 -0.123455 1.462159 0.024084 -0.003855 -57700.100000 0 0 1
-26.498042 2.932415 1.887799 26.726561 -0.110217 1.500104 0.027335 -0.002280 -675079.000000 0 0 1
-26.051172 3.103015 0.430499 26.238856 -0.118554 1.554389 0.045447 -0.004286 -111053.000000 0 0 1
-25.859372 4.481615 0.090499 26.245003 -0.171603 1.567348 0.053164 -0.006557 286026.000000 0 0 1
-25.642152 4.618115 -1.303701 26.087287 -0.178188 1.620792 0.083467 -0.005913 415964.000000 0 0 1
-26.844612 5.216415 -2.144501 27.430695 -0.191927 1.649055 0.067065 -0.015216 1023700.000000 0 0 1
-28.006492 4.400015 -2.064501 28.425092 -0.155833 1.643490 0.034794 -0.013429 -93759.900000 0 0 1
-29.167012 5.034415 -2.494001 29.703198 -0.170922 1.654859 0.008015 0.005202 -455196.000000 0 0 1
-30.366072 4.071315 -2.493801 30.739111 -0.133280 1.652014 0.003822 0.010683 -552029.000000 0 0 1
-30.313672 3.245715 -3.610001 30.699926 -0.106665 1.688659 0.001491 0.015208 603302.000000 0 0 1
-31.320982 2.221515 -3.636001 31.609485 -0.070809 1.686080 0.018322 0.007037 203549.000000 0 0 1
-31.407402 1.530015 -5.002401 31.840067 -0.048677 1.728560 0.019885 -0.002070 -1218120.000000 0 0 1
-30.296862 0.831315 -5.418001 30.788726 -0.027432 1.747691 0.035848 -0.001755 -495845.000000 0 0 1
-30.335062 0.096515 -6.642901 31.054040 -0.003182 1.786377 0.050426 -0.012553 -500185.000000 0 0 1
-30.625752 0.806115 -7.967201 31.655375 -0.026315 1.825218 0.047488 -0.010302 -866179.000000 0 0 1
-31.959302 1.125815 -8.191501 33.011591 -0.035212 1.821556 0.030084 -0.008253 -239234.000000 0 0 1
-32.031372 1.953115 -9.349401 33.425061 -0.060900 1.854291 0.033308 -0.010629 -401201.000000 0 0 1
-33.492692 2.356215 -9.569101 34.912460 -0.070234 1.848438 0.037519 -0.009122 -273476.000000 0 0 1
-33.991322 3.204715 -8.534901 35.192679 -0.094003 1.815758 0.014610 -0.000374 -216780.000000 0 0 1
34.940473 2.847115 -8.159401 35.993313 0.081305 1.799476 0.011331 -0.000119 -920386.000000 0 0 1
34.569194 3.707215 -6.915801 35.448568 0.106832 1.767150 0.014728 0.006779 -375228.000000 0 0 1
33.207889 3.441015 -6.666201 34.044717 0.103252 1.767877 0.016923 0.003724 102707.000000 0 0 1
32.746319 4.222815 -5.617201 33.491888 0.128248 1.739311 0.011944 -0.006226 653948.000000 0 0 1
31.308129 3.809715 -5.153601 31.957354 0.121089 1.732769 0.020172 -0.007054 628863.000000 0 0 1
31.453909 2.619415 -4.404001 31.868558 0.083086 1.709433 0.035168 -0.013355 1044970.000000 0 0 1
30.236139 1.841515 -4.511601 30.626293 0.060829 1.718646 0.052531 -0.016559 524268.000000 0 0 1
30.331759 0.484515 -3.809501 30.573889 0.015972 1.695721 0.065442 -0.009033 306577.000000 0 0 1
31.299559 -0.399685 -4.434801 31.614706 -0.012769 1.711537 0.054300 -0.017872 769364.000000 0 0 1
31.185749 -1.657385 -3.855501 31.466852 -0.053096 1.693631 0.054495 -0.009223 -161287.000000 0 0 1
32.523249 -2.402085 -3.836001 32.836666 -0.073724 1.687884 0.048043 -0.012561 -225563.000000 0 0 1
32.310639 -3.717085 -3.391001 32.700046 -0.114539 1.674683 0.037139 -0.009291 196204.000000 0 0 1
33.470679 -4.529885 -3.474601 33.954073 -0.134522 1.673308 0.056757 -0.009761 -54394.200000 0 0 1
33.280259 -5.978785 -3.044401 33.949814 -0.177754 1.660591 0.050349 -0.006079 -155266.000000 0 0 1
33.155609 -6.194285 -1.676901 33.770928 -0.184695 1.620472 0.050184 -0.005972 23216.200000 0 0 1
32.955239 -7.535285 -1.329401 33.831873 -0.224788 1.610101 0.062854 -0.011020 -103745.000000 0 0 1
32.692189 -7.866385 0.168499 33.625699 -0.236131 1.565785 0.052162 0.000148 490712.000000 0 0 1
31.339479 -7.419685 0.391299 32.208195 -0.232472 1.558647 0.046121 -0.011506 932280.000000 0 0 1
30.833609 -7.646685 1.738199 31.815163 -0.243094 1.516135 0.038059 -0.008271 -372456.000000 0 0 1
30.684919 -9.113885 2.135799 32.080973 -0.288716 1.504172 0.038261 -0.016880 -732448.000000 0 0 1
29.571449 -9.793185 1.628199 31.193398 -0.319803 1.518576 0.043400 -0.024713 -595950.000000 0 0 1
28.397859 -9.528885 2.316799 30.043395 -0.323744 1.493605 0.040533 -0.026798 -1442600.000000 0 0 1
27.291189 -10.586485 2.075199 29.346024 -0.370039 1.500022 0.032187 -0.026502 -964554.000000 0 0 1
26.063489 -10.390585 2.705999 28.188511 -0.379354 1.474652 0.030863 -0.028590 539286.000000 0 0 1
25.159179 -9.489585 2.008999 26.964284 -0.360682 1.496221 0.030209 -0.017928 95658.000000 0 0 1
24.627919 -9.750985 0.549299 26.493732 -0.376995 1.550062 0.021195 -0.012416 -839832.000000 0 0 1
25.610729 -9.659485 -0.493601 27.376244 -0.360668 1.588828 0.020512 -0.015439 473151.000000 0 0 1
25.179999 -9.838385 -1.824401 27.095288 -0.372483 1.638180 0.016666 -0.003810 -49401.600000 0 0 1
24.460119 -11.180085 -2.338101 26.995526 -0.428721 1.657516 0.018053 -0.003213 733076.000000 0 0 1
23.170519 -11.331985 -1.748701 25.852365 -0.454865 1.638490 0.010135 0.008021 214285.000000 0 0 1
22.746719 -12.692185 -1.870501 26.115198 -0.508948 1.642483 0.009409 0.010965 523875.000000 0 0 1
21.224719 -12.826285 -1.526701 24.846189 -0.543582 1.632281 0.000880 0.010712 177961.000000 0 1 0
20.371819 -12.477585 -2.561801 24.026318 -0.549555 1.677624 -0.000626 0.011626 -96458.000000 0 1 0
19.026019 -12.610285 -2.123101 22.924141 -0.585315 1.663543 -0.001708 0.007138 -241014.000000 0 1 0
18.100519 -12.144385 -3.234701 22.035838 -0.590956 1.718121 -0.002126 0.008352 -603457.000000 0 1 0
18.093019 -12.976085 -4.379801 22.691822 -0.622168 1.765028 -0.001369 0.006590 281504.000000 0 1 0
17.405319 -12.320285 -5.421701 22.002941 -0.615972 1.819769 0.007032 0.003024 -625269.000000 0 1 0
17.406819 -13.074985 -6.801501 22.808178 -0.644231 1.873607 0.006168 0.003717 -380432.000000 0 1 0
16.639819 -14.261385 -6.881001 22.969956 -0.708581 1.875033 -0.001716 0.008408 295467.000000 0 1 0
16.760719 -14.824385 -8.128801 23.806753 -0.724169 1.919255 0.011075 0.000367 -324610.000000 0 1 0
15.899119 -16.070385 -8.421801 24.123971 -0.790755 1.927412 0.010021 -0.000392 -626950.000000 0 1 0
14.520119 -15.809885 -8.400501 23.051133 -0.827897 1.943816 0.007092 0.007260 300193.000000 0 1 0
13.765219 -16.792285 -9.158301 23.565580 -0.884137 1.969941 0.007303 0.009253 336581.000000 0 1 0
13.618219 -16.488485 -10.687301 23.906995 -0.880447 2.034246 0.020760 -0.001150 108687.000000 0 1 0
12.671619 -15.447985 -11.061401 22.837792 -0.883813 2.076412 0.008982 0.001138 815226.000000 0 1 0
13.160719 -14.089385 -10.820901 22.108985 -0.819464 2.082238 0.010232 0.005655 -57194.700000 0 1 0
13.124519 -13.114385 -12.069501 22.133977 -0.785012 2.147535 0.026609 0.007779 -298052.000000 0 1 0
14.220719 -13.051085 -12.957801 23.247888 -0.742536 2.162018 0.036389 0.005252 -77730.700000 0 1 0
13.975719 -12.360185 -14.168701 23.427484 -0.724132 2.220298 0.053206 0.002873 155153.000000 0 1 0
15.284119 -11.948785 -14.916801 24.472203 -0.663531 2.226277 0.054186 -0.002285 417750.000000 0 1 0
16.019419 -13.013685 -15.449901 25.781335 -0.682238 2.213381 0.052934 0.001448 158548.000000 0 0 1
17.124919 -12.569585 -16.219601 26.727005 -0.633178 2.222903 0.063450 0.001409 2068.070000 0 0 1
18.311419 -13.521385 -16.430401 28.073012 -0.636044 2.196014 0.079736 0.000213 -581870.000000 0 0 1
18.995119 -13.739285 -15.223001 27.952142 -0.626197 2.146720 0.048153 -0.008570 -254977.000000 0 0 1
19.918019 -14.784785 -15.433201 29.214740 -0.638543 2.127355 0.032017 -0.002607 -226364.000000 0 0 1
21.032119 -14.853985 -14.349801 29.477240 -0.614910 2.079230 0.010649 -0.003545 -117225.000000 0 0 1
21.912619 -13.787985 -14.543301 29.694764 -0.561632 2.082611 0.028024 -0.008249 -712552.000000 0 0 1
22.724019 -13.551285 -13.454901 29.682532 -0.537725 2.041253 0.015302 -0.006729 -205469.000000 0 0 1
23.307819 -12.131585 -13.478301 29.531244 -0.479908 2.044751 0.026813 -0.002804 -201249.000000 0 0 1
22.331919 -11.144185 -13.151001 28.210925 -0.462867 2.055750 0.013811 0.002896 414443.000000 0 0 1
22.816619 -9.803185 -13.110501 28.081770 -0.405804 2.056543 0.025140 -0.004523 -162888.000000 0 0 1
23.858219 -9.388285 -12.055401 28.331735 -0.374893 2.010320 0.024274 -0.003519 257801.000000 0 0 1
25.057519 -10.139585 -12.134401 29.629953 -0.384511 1.992737 0.030290 0.001404 -259305.000000 0 0 1
25.987269 -9.767285 -11.182001 29.929503 -0.359515 1.953696 0.021639 0.001934 -534389.000000 0 0 1
27.231319 -10.690185 -11.178701 31.317538 -0.374084 1.935794 0.028348 0.003457 -214403.000000 0 0 1
27.939649 -10.480185 -12.361001 32.299421 -0.358859 1.963514 0.007345 0.009796 123692.000000 0 0 1
29.119989 -11.283585 -12.462901 33.624648 -0.369672 1.950503 -0.000104 0.009597 154070.000000 0 0 1
29.912389 -10.786585 -13.673401 34.613052 -0.346092 1.976903 -0.007582 0.008350 -610722.000000 0 0 1
29.412989 -11.070985 -14.953501 34.803704 -0.359996 2.014904 -0.010911 0.002909 161773.000000 0 0 1
30.277129 -10.652085 -16.011801 35.868499 -0.338295 2.033538 -0.023542 0.006172 -127121.000000 0 0 1
29.871319 -11.231885 -17.428401 36.362070 -0.359655 2.070655 -0.042121 0.018433 219801.000000 0 0 1
28.687599 -10.717485 -18.030301 35.537791 -0.357537 2.102910 -0.017456 0.008664 264832.000000 0 0 1
28.817209 -9.428085 -18.635301 35.589251 -0.316192 2.121893 -0.022837 0.019357 -862793.000000 0 0 1
27.564259 -8.873985 -19.272701 34.784666 -0.311460 2.158027 -0.062474 0.013154 -565169.000000 0 0 1
27.014879 -9.696385 -20.267801 35.136980 -0.344606 2.185630 -0.043879 0.018968 94564.700000 0 0 1
25.726499 -9.271985 -20.659201 34.272803 -0.345915 2.217786 -0.002391 0.020645 139962.000000 0 0 1
25.353429 -9.716885 -22.083701 34.998630 -0.365990 2.253622 0.008681 0.012045 -85829.400000 0 0 1
24.963419 -11.059285 -22.258801 35.226898 -0.417034 2.254759 0.001044 0.006287 558050.000000 0 0 1
24.184619 -11.281985 -23.462201 35.533841 -0.436486 2.291985 0.006956 -0.001219 -306151.000000 0 0 1
24.141619 -12.724285 -24.054401 36.377732 -0.485067 2.293266 0.005978 0.003829 18081.700000 0 0 1
25.248639 -13.318685 -24.696501 37.746501 -0.485406 2.284017 -0.009148 0.013528 -227882.000000 0 0 1
26.440459 -13.387885 -23.949201 38.103774 -0.468707 2.250453 -0.026970 0.020421 -218525.000000 0 0 1
27.632839 -13.988785 -24.732601 39.635356 -0.468625 2.244652 -0.044610 0.029124 151968.000000 0 0 1
28.063789 -13.207385 -25.850511 40.376481 -0.439869 2.265603 -0.041937 0.018584 -1506820.000000 0 0 1
29.308569 -13.578285 -26.214301 41.599899 -0.433848 2.252547 -0.062907 0.020622 -1690920.000000 0 0 1
29.759229 -12.966785 -27.543151 42.571991 -0.410918 2.274411 -0.048881 0.010615 -120080.000000 0 0 1
29.460139 -13.732985 -28.670791 43.341769 -0.436207 2.293620 -0.035453 0.006321 40724.300000 0 0 1
30.386379 -13.456685 -29.675421 44.553844 -0.416894 2.299707 -0.035280 -0.000344 -188680.000000 0 0 1
30.235469 -14.329285 -30.954891 45.581984 -0.442569 2.317337 -0.022987 -0.001875 -61419.900000 0 0 1
30.593799 -15.692085 -30.674461 46.077594 -0.473928 2.299245 -0.024889 -0.000816 10699.500000 0 0 1
30.628369 -16.565285 -31.797231 47.154741 -0.495789 2.310835 -0.010382 -0.000820 108052.000000 0 0 1
29.310169 -16.957385 -32.524551 46.951947 -0.524498 2.336050 -0.023791 0.003121 187662.000000 0 0 1
28.861129 -15.975485 -33.462151 46.988259 -0.505549 2.363336 -0.027472 0.001820 -233623.000000 0 0 1
27.648589 -16.372285 -34.049751 46.817537 -0.534632 2.385156 -0.024536 -0.002023 -265102.000000 0 0 1
27.100039 -15.356085 34.101360 46.185758 -0.515532 0.740172 -0.014412 -0.000089 -498289.000000 0 0 1
26.509929 -14.200485 -34.440540 45.722871 -0.491772 2.423779 -0.012103 -0.009562 744944.000000 0 0 1
27.470799 -13.209785 -33.981441 45.649552 -0.448224 2.410429 0.000400 -0.013244 267931.000000 0 0 1
26.772379 -11.830385 -33.742401 44.668422 -0.416087 2.427056 0.008633 -0.018015 371950.000000 0 0 1
26.150079 -11.219085 34.282638 44.553269 -0.405276 0.692777 0.025284 -0.021644 237331.000000 0 0 1
25.601649 -9.962885 -34.379720 44.007598 -0.371118 2.467418 0.023683 -0.020414 -32664.400000 0 0 1
19.811308 -29.972155 9.133699 37.070776 -0.986734 1.321847 0.003414 -0.005256 -220377.000000 0 0 1
20.349308 -29.763255 7.800899 36.889019 -0.971090 1.357718 0.005023 -0.006573 688568.000000 0 0 1
21.684308 -30.261255 7.758199 38.028179 -0.949036 1.365342 0.010855 -0.000714 369901.000000 0 0 1
22.360208 -30.105955 6.379399 38.040033 -0.931973 1.402298 0.012242 0.002540 -75517.600000 0 0 1
22.536708 -28.753455 6.013699 37.024707 -0.906017 1.407650 0.006528 0.013532 50757.200000 0 0 1
23.484408 -28.630655 4.975799 37.362955 -0.883827 1.437225 -0.000864 0.013394 -43548.300000 0 0 1
23.729808 -27.178855 4.503899 36.360405 -0.853044 1.446609 -0.014117 0.004779 24039.800000 0 0 1
24.456708 -26.373755 5.418199 36.373925 -0.823095 1.421282 -0.010604 0.002861 22169.900000 0 0 1
24.342508 -25.005155 5.124399 35.271446 -0.798825 1.424996 -0.016045 0.009399 -25206.500000 0 0 1
25.165008 -24.006155 5.973799 35.288233 -0.761835 1.400691 -0.014706 0.003992 554139.000000 0 0 1
26.559808 -23.935455 5.654499 36.198104 -0.733473 1.413944 -0.017014 0.008133 597297.000000 0 0 1
27.291108 -22.909355 6.348799 36.193236 -0.698334 1.394470 0.001083 -0.003917 -158142.000000 0 0 1
26.827108 -21.484055 6.483999 34.975714 -0.675249 1.384332 0.004691 0.002209 -757840.000000 0 0 1
26.886108 -20.690155 5.302299 34.337439 -0.655895 1.415759 -0.004581 0.018936 67773.600000 0 0 1
26.442008 -19.388755 5.571599 33.258778 -0.632698 1.402480 0.003288 0.012677 -484099.000000 0 0 1
26.490108 -18.428955 4.357399 32.562849 -0.607829 1.436579 0.003768 0.021766 255927.000000 0 0 1
27.805608 -18.153355 3.876999 33.432428 -0.578388 1.454570 0.016278 0.014370 413642.000000 0 0 1
27.827808 -17.561655 2.617399 33.009838 -0.562962 1.491422 0.008640 0.009980 128854.000000 0 0 1
29.013808 -16.567855 2.492999 33.503879 -0.518848 1.496318 0.024553 -0.013362 348988.000000 0 0 1
28.830508 -15.452955 3.342199 32.881033 -0.492026 1.468975 0.036721 -0.019148 531764.000000 0 0 1
30.050208 -14.739355 3.465799 33.649299 -0.456011 1.467616 0.040565 -0.016322 502705.000000 0 0 1
29.694308 -13.450555 4.243099 32.873595 -0.425319 1.441362 0.043107 -0.020338 102362.000000 0 0 1
29.102608 -13.712855 5.498799 32.638030 -0.440335 1.401511 0.028009 -0.007836 56615.400000 0 0 1
28.857708 -12.545655 6.240499 32.079660 -0.410093 1.375017 0.024011 -0.014428 -549569.000000 0 0 1
28.401408 -12.854955 7.692799 32.110263 -0.425028 1.328869 0.019961 0.001599 -1151490.000000 0 0 1
27.030108 -12.964055 7.818999 30.981127 -0.447207 1.315658 0.021582 0.004839 -1262130.000000 0 0 1
26.524008 -12.889355 9.116599 30.866986 -0.452345 1.270973 0.013374 0.015961 -128068.000000 0 0 1
26.678408 -14.047955 10.171499 31.820463 -0.484674 1.245433 0.014503 0.017568 281299.000000 0 0 1
27.947808 -14.235755 10.799299 33.171698 -0.471115 1.239195 0.008480 0.018684 349865.000000 0 0 1
28.295008 -15.584455 11.117699 34.162640 -0.503445 1.239325 0.002124 0.011588 59230.500000 0 0 1
28.992108 -15.744055 12.492499 35.277190 -0.497489 1.208819 0.006949 0.016552 169668.000000 0 0 1
30.345108 -15.355855 12.521299 36.241010 -0.468468 1.218024 0.008700 0.024559 118348.000000 0 0 1
31.009208 -15.641055 13.786299 37.366772 -0.467162 1.192922 0.021686 0.020764 735223.000000 0 0 1
32.545508 -15.435455 13.710899 38.541564 -0.442855 1.207087 0.016590 0.007904 324044.000000 0 0 1
32.972808 -14.054055 13.794199 38.405761 -0.402913 1.203418 0.009887 0.011760 450207.000000 0 0 1
34.128308 -13.808355 14.596299 39.603839 -0.384467 1.193339 -0.002180 -0.000319 474174.000000 0 0 1
34.773308 -12.398855 14.376299 39.618083 -0.342509 1.199448 -0.013360 0.005969 -94481.300000 0 0 1
-34.613302 -12.316955 13.227999 39.048278 0.341872 1.225198 0.001477 0.003406 -199397.000000 0 0 1
-33.905902 -11.109055 13.278599 38.070231 0.316621 1.214514 0.004372 0.005785 -375032.000000 0 0 1
-32.795802 -11.115455 12.193599 36.712421 0.326778 1.232227 -0.001773 0.002539 726814.000000 0 0 1
-31.648302 -11.898355 12.581899 36.076170 0.359608 1.214549 -0.018924 0.010172 462138.000000 0 0 1
-31.739902 -13.266655 12.214699 36.505128 0.395910 1.229613 -0.022646 0.009207 -353445.000000 0 0 1
-30.547102 -14.125655 12.665199 35.959239 0.433136 1.210865 -0.022437 0.011297 -16819.200000 0 0 1
-29.344702 -13.888055 11.979499 34.604884 0.442038 1.217301 -0.004944 0.003184 -137956.000000 0 0 1
-28.388502 -14.904755 12.268399 34.330342 0.483469 1.205353 -0.000069 0.000257 -59546.400000 0 0 1
-27.044202 -14.717655 11.558599 32.887679 0.498385 1.211670 0.019978 -0.005133 -262894.000000 0 0 1
-27.072002 -14.905555 10.177199 32.536814 0.503296 1.252667 0.000661 0.001590 -26616.300000 0 0 1
-25.820702 -14.525955 9.661799 31.161874 0.512443 1.255549 0.011770 0.003763 -24072.300000 0 0 1
-25.833502 -14.401055 8.109099 30.667861 0.508550 1.303197 0.024007 0.014185 -59136.200000 0 0 1
-26.082402 -15.597855 7.458699 31.292443 0.538964 1.330125 0.029342 0.009967 131686.000000 0 0 1
-25.675302 -15.397155 6.122199 30.557730 0.540190 1.369083 0.024526 0.012181 -250750.000000 0 0 1
-25.892702 -16.578055 5.179999 31.178459 0.569497 1.403882 0.014174 0.010919 -450882.000000 0 0 1
-27.228502 -16.821055 4.822499 32.366583 0.553386 1.421243 -0.008102 0.003086 -187624.000000 0 0 1
-27.309902 -17.785755 3.774899 32.808744 0.577258 1.455483 -0.003342 0.003936 369367.000000 0 0 1
-28.738902 -18.404755 3.706499 34.327797 0.569606 1.462612 0.001701 -0.000513 470257.000000 0 0 1
-29.716202 -17.508155 3.200599 34.638591 0.532425 1.478265 0.003446 -0.004777 38247.400000 0 0 1
-31.010502 -18.023655 3.447699 36.033179 0.526490 1.474969 0.021295 -0.009183 56724.300000 0 0 1
-32.111702 -17.135855 2.831499 36.507757 0.490190 1.493160 0.028950 -0.015918 -54883.300000 0 0 1
-32.188202 -17.276355 1.438799 36.559854 0.492598 1.531432 0.026725 -0.013252 7203.310000 0 0 1
-33.068302 -16.303155 0.876399 36.879175 0.458044 1.547030 0.036812 -0.023024 -203571.000000 0 0 1
-33.626402 -16.805055 -0.436201 37.594349 0.463454 1.582399 0.039944 -0.026443 -220258.000000 0 0 1
-32.633702 -16.843655 -1.446101 36.752666 0.476478 1.610153 0.033149 -0.023052 553130.000000 0 0 1
-33.094502 -17.801555 -2.424201 37.656582 0.493506 1.635217 0.024988 -0.011895 675877.000000 0 0 1
-31.933002 -18.310655 -3.330801 36.960668 0.520637 1.661036 0.016725 -0.008142 413336.000000 0 0 1
-32.387102 -19.555955 -3.779101 38.021591 0.543223 1.670354 0.018384 -0.015449 645201.000000 0 0 1
-31.423102 -20.149155 -4.649401 37.616708 0.570179 1.694713 0.010441 -0.011907 38783.500000 0 0 1
-32.090902 -21.175255 -5.570701 38.849069 0.583270 1.714686 0.019596 -0.014429 -285032.000000 0 0 1
-32.653802 -22.300955 -4.921201 39.847479 0.599192 1.694613 0.040541 -0.022348 15774.100000 0 0 1
-33.099202 -23.229655 -5.843501 40.857320 0.611946 1.714311 0.029060 -0.014996 -259995.000000 0 0 1
-33.582402 -24.561255 -5.191201 41.928291 0.631473 1.694926 0.042711 -0.017853 -144014.000000 0 0 1
-32.591602 -25.510155 -4.879701 41.674837 0.664116 1.688155 0.044733 -0.014347 -413546.000000 0 0 1
-33.161002 -26.775155 -4.577701 42.866261 0.679254 1.677791 0.038075 -0.010412 126411.000000 0 0 1
-32.193002 -27.828155 -4.018601 42.742774 0.712804 1.664954 0.025132 -0.007471 -311561.000000 0 0 1
-31.281402 -28.383655 -5.014801 42.535940 0.736869 1.688967 0.011324 -0.007716 705608.000000 0 0 1
-30.312102 -29.271755 -4.538001 42.382221 0.767940 1.678075 0.013527 -0.000548 -19115.400000 0 0 1
-29.280202 -28.835155 -3.510101 41.244602 0.777740 1.656004 0.014755 -0.004034 -1026610.000000 0 0 1
-29.882002 -28.683755 -2.221901 41.480462 0.764941 1.624387 0.014382 -0.002001 -389683.000000 0 0 1
-28.929002 -28.654255 -1.219201 40.736224 0.780627 1.600730 0.012500 -0.002112 -605744.000000 0 0 1
-29.489102 -28.431755 0.220899 40.963650 0.767145 1.565404 0.020204 -0.000504 52703.000000 0 0 1
-30.075802 -29.631955 0.714499 42.226972 0.777965 1.553875 0.015428 0.006457 -69022.500000 0 0 1
-30.808502 -29.335855 1.897399 42.583522 0.760918 1.526224 0.021768 0.006847 -62298.300000 0 0 1
-31.245102 -30.611955 2.675999 43.823614 0.775163 1.509695 0.018424 0.016044 -94734.500000 0 0 1
-32.323602 -30.341055 3.564099 44.475810 0.753771 1.490575 0.019177 0.015350 1030920.000000 0 0 1
-33.039502 -31.481755 4.159699 45.825895 0.761260 1.479899 0.003240 0.021163 103291.000000 0 0 1
-33.859502 -32.374855 3.315199 46.963684 0.762987 1.500147 0.010937 0.015947 -1159120.000000 0 0 1
-34.644502 -33.259155 4.045899 48.195251 0.764999 1.486749 0.013011 0.010302 -493522.000000 0 0 1
34.818808 -33.987155 3.110199 48.756019 -0.773312 1.506962 0.008317 0.007224 -403048.000000 0 0 1
33.622908 34.560915 3.843499 48.370748 0.799154 1.491253 -0.003584 0.006602 286657.000000 0 0 1
32.655108 -33.989355 4.569499 47.355175 -0.805416 1.474152 -0.004316 0.013144 611726.000000 0 0 1
32.055308 -32.817355 3.950599 46.044856 -0.797144 1.484892 0.001748 0.011091 -105589.000000 0 0 1
31.120208 -32.989455 2.686099 45.431119 -0.814547 1.511637 -0.002048 0.009547 -510160.000000 0 0 1
31.710408 -33.248355 1.453099 45.968626 -0.809069 1.539180 0.001145 0.014052 131916.000000 0 0 1
30.763908 -32.974455 0.376399 45.098496 -0.820066 1.562450 0.000486 0.014194 -216750.000000 0 0 1
31.153408 -33.765155 -0.930001 45.950902 -0.825608 1.591037 0.006085 0.001668 -301049.000000 0 0 1
32.234908 -33.317855 -1.671201 46.389241 -0.801917 1.606830 0.001370 0.003422 -879393.000000 0 0 1
33.438208 -33.547455 -0.953001 47.375666 -0.787029 1.590914 0.006888 0.011231 -605696.000000 0 0 1
34.704808 -33.279655 -1.851801 48.118482 -0.764438 1.609290 -0.012889 0.017566 12087.600000 0 0 1
35.074308 -34.535955 -2.394501 49.281568 -0.777664 1.619404 -0.012716 0.009284 425433.000000 0 0 1
-34.466802 -34.383855 -3.660801 48.822243 0.784193 1.645849 -0.010924 0.010391 -104912.000000 0 0 1
-33.798302 33.628115 -4.239701 47.865963 -0.782874 1.659487 -0.011817 0.000829 -545734.000000 0 0 1
-32.583502 33.243215 -3.695901 46.695350 -0.795420 1.650028 0.003340 0.002394 -394351.000000 0 0 1
-31.876502 32.373715 -4.607201 45.666127 -0.793137 1.671857 0.017290 -0.011196 -180448.000000 0 0 1
-30.644402 31.755915 -3.974201 44.309275 -0.803209 1.660609 0.024543 -0.011619 -863765.000000 0 0 1
-29.506302 32.606415 -3.923101 44.149642 -0.835268 1.659773 0.005765 -0.009676 70579.900000 0 0 1
-28.319402 31.848115 -3.739201 42.781686 -0.843979 1.658310 0.007996 -0.011113 363079.000000 0 0 1
-27.951302 31.452915 -2.289001 42.140250 -0.844276 1.625142 0.003589 -0.010788 -557186.000000 0 0 1
-28.909402 30.593215 -1.742401 42.127596 -0.813689 1.612168 0.016651 -0.011279 -336834.000000 0 0 1
-28.708502 30.596215 -0.370301 41.957641 -0.817218 1.579622 0.016327 -0.001987 340706.000000 0 0 1
-29.904702 29.983415 0.436499 42.349580 -0.786712 1.560489 0.007800 -0.000029 424237.000000 0 0 1
-30.266702 28.656315 0.055499 41.680460 -0.758075 1.569465 0.010184 -0.006272 -50796.400000 0 0 1
-31.394402 28.583715 -0.809601 42.465194 -0.738571 1.589863 0.020182 -0.013503 98553.900000 0 0 1
-31.720802 27.205515 -1.380701 41.812148 -0.708922 1.603824 0.020589 -0.014040 -23836.600000 0 0 1
-32.094502 26.346415 -0.347001 41.524825 -0.687356 1.579153 0.026213 -0.007435 16878.700000 0 0 1
-32.844302 25.244515 -0.811301 41.432982 -0.655307 1.590379 0.038490 -0.003542 -138498.000000 0 0 1
-33.089902 24.115915 0.191899 40.945767 -0.629794 1.566110 0.034977 -0.005994 -602433.000000 0 0 1
-31.972802 23.406815 0.599699 39.629518 -0.631937 1.555663 0.042153 -0.018937 -492642.000000 0 0 1
-31.403102 23.904815 1.783899 39.506674 -0.650646 1.525627 0.038959 -0.020109 988604.000000 0 0 1
-29.842202 23.688015 2.037599 38.155352 -0.670934 1.517368 0.029022 -0.026945 2016640.000000 0 0 1
-28.913602 24.541015 1.330499 37.947702 -0.703780 1.535728 0.035739 -0.018116 667972.000000 0 0 1
-28.793002 25.841615 1.833999 38.732281 -0.731430 1.523428 0.004663 -0.007066 -351107.000000 0 0 1
-28.096302 26.823015 0.851399 38.853587 -0.762218 1.548882 0.008128 -0.003700 -178259.000000 0 0 1
-26.734702 26.547815 0.621199 37.681782 -0.781891 1.554310 0.005046 -0.007917 -83091.500000 0 0 1
-26.126702 27.491315 -0.299001 37.927120 -0.810843 1.578680 0.017907 -0.013129 -63635.800000 0 0 1
-24.893302 27.007615 -1.019401 36.744074 -0.826113 1.598543 0.013207 -0.009271 -819551.000000 0 0 1
-25.191702 26.034915 -1.999101 36.282711 -0.801857 1.625922 0.027389 -0.022486 -787619.000000 0 0 1
-24.132602 25.483615 -2.700101 35.200677 -0.812621 1.647578 0.006165 -0.012355 -134107.000000 0 0 1
-23.248102 24.402015 -1.969001 33.761066 -0.809610 1.629151 -0.004785 -0.009984 535363.000000 0 0 1
-23.916302 23.194015 -1.817601 33.365484 -0.770068 1.625299 -0.014243 -0.013198 -152148.000000 0 0 1
-22.935402 22.309015 -1.362901 32.024715 -0.771555 1.613367 -0.020201 -0.023619 -991102.000000 0 0 1
-23.427102 20.887115 -1.138001 31.406938 -0.728143 1.607038 -0.023976 -0.019017 -450703.000000 0 0 1
-24.262702 20.554315 0.003499 31.798720 -0.702841 1.570686 -0.022222 -0.015469 1734160.000000 0 0 1
-25.543402 21.264715 0.049499 33.236365 -0.694242 1.569307 -0.019633 -0.020317 758755.000000 0 0 1
-26.572002 20.749215 -0.973101 33.727558 -0.662965 1.599652 -0.021834 -0.024447 -1022940.000000 0 0 1
-26.933802 19.412815 -0.711701 33.208337 -0.624524 1.592229 -0.035099 -0.010564 -74440.800000 0 0 1
-27.787002 18.908715 -1.682101 33.652436 -0.597510 1.620802 -0.008948 -0.009065 -421357.000000 0 0 1
-28.134002 17.421515 -1.479301 33.124306 -0.554442 1.615470 -0.031635 0.009205 127835.000000 0 0 1
-29.002202 17.095515 -0.372101 33.667831 -0.532630 1.581849 -0.006446 0.008018 798041.000000 0 0 1
-29.191202 15.675615 -0.262901 33.134881 -0.492806 1.578731 -0.004223 0.002926 -522830.000000 0 0 1
-27.967702 14.943515 0.272299 31.710805 -0.490720 1.562209 -0.003345 0.009009 -584261.000000 0 0 1
-27.701002 15.043215 1.679999 31.566854 -0.497497 1.517551 0.003935 0.012581 1539400.000000 0 0 1
-26.388402 14.560615 2.110799 30.212825 -0.504209 1.500875 -0.004568 0.007876 1339260.000000 0 0 1
-26.129902 13.041915 2.238599 29.289498 -0.462942 1.494292 0.001920 0.010912 -185175.000000 0 0 1
-26.184802 12.338015 1.025199 28.964142 -0.440335 1.535393 0.001080 0.008424 663511.000000 0 0 1
-25.572502 11.040115 1.215399 27.880355 -0.407547 1.527189 0.014682 0.002561 117978.000000 0 0 1
-25.410802 10.315615 -0.110001 27.425041 -0.385629 1.574807 0.019592 -0.006818 -842460.000000 0 0 1
-26.674902 10.087415 -0.629801 28.525480 -0.361539 1.592877 0.013667 -0.004939 -317999.000000 0 0 1
-26.600702 9.405015 -1.852801 28.275158 -0.339845 1.636371 0.019061 -0.002957 -3512.110000 0 0 1
-27.985102 9.091715 -2.478701 29.529125 -0.314121 1.654836 0.022017 -0.009996 -87045.700000 0 0 1
-27.886502 8.594915 -3.747501 29.420628 -0.298972 1.698520 0.041991 -0.009822 -687195.000000 0 0 1
-29.039002 8.590115 -4.496801 30.614947 -0.287611 1.718212 0.007565 -0.003440 -1111220.000000 0 0 1
-10.866392 18.325415 -20.260801 29.400670 -1.035563 2.331080 0.021054 -0.004149 59505.400000 0 0 1
-11.455692 17.375915 -21.172901 29.689174 -0.987921 2.364781 0.022740 -0.010225 269659.000000 0 0 1
-10.868392 17.408515 -22.510001 30.461098 -1.012690 2.402345 0.025830 -0.021112 -9938.950000 0 0 1
-10.949692 16.083915 -23.324501 30.374668 -0.973083 2.446342 0.029752 -0.019610 98208.800000 0 0 1
-10.043192 15.038615 -23.006701 29.263184 -0.981991 2.475431 0.027765 -0.016803 153566.000000 0 0 1
-10.248992 13.993715 -23.938701 29.562262 -0.938655 2.514560 0.015505 -0.009356 -88138.900000 0 0 1
-9.538692 12.687715 -23.484001 28.345424 -0.926141 2.547209 0.006572 -0.001759 -1434690.000000 0 0 1
-8.193492 12.815415 -23.339601 27.858664 -1.001947 2.564012 0.015007 -0.008865 -1662030.000000 0 0 1
-7.719492 11.737615 -22.527501 26.549020 -0.989047 2.583987 0.005415 -0.004400 1526680.000000 0 0 1
-6.145592 11.830815 -22.281601 25.965482 -1.091705 2.602401 0.006864 -0.000810 1616240.000000 0 0 1
-5.427992 11.465715 -23.456001 26.666640 -1.128646 2.645819 0.005526 -0.005503 -975256.000000 0 0 1
-4.067192 11.385915 -23.194601 26.156656 -1.227711 2.661078 0.012468 -0.000939 -705116.000000 0 0 1
-3.271892 10.841515 -24.374901 26.877119 -1.277696 2.706667 0.023084 -0.004701 -498686.000000 0 0 1
-3.470892 9.505915 -24.552201 26.555980 -1.220707 2.750636 0.025693 -0.003481 -34822.200000 0 0 1
-3.165992 9.009615 -25.847681 27.555386 -1.232874 2.787687 0.019810 -0.009293 -305820.000000 0 0 1
-2.699592 7.558515 -25.839801 27.057610 -1.227758 2.840429 0.021227 -0.000179 513976.000000 0 0 1
-1.286692 7.429515 -25.639191 26.724921 -1.399311 2.855571 0.022039 0.007196 654925.000000 0 0 1
-1.027592 6.084415 -25.221811 25.965666 -1.403486 2.901653 0.026592 0.000784 -375267.000000 0 0 1
0.431208 5.848815 -24.828601 25.511841 1.497204 2.909637 0.023483 0.000043 -289159.000000 0 0 1
0.658908 6.478715 -23.550301 24.434087 1.469441 2.871814 0.015827 -0.001807 -189665.000000 0 1 0
1.546408 5.775915 -22.730201 23.503502 1.309198 2.884363 0.023358 -0.013029 -194990.000000 0 1 0
1.710408 6.473415 -21.359801 22.384631 1.312479 2.837828 0.020837 -0.016326 256465.000000 0 1 0
2.472208 7.679115 -21.439501 22.907048 1.259335 2.781700 0.009500 -0.012219 84867.800000 0 1 0
2.244608 8.425415 -20.239501 22.037770 1.310434 2.734815 0.013083 -0.016182 55791.000000 0 1 0
2.914708 9.803615 -20.356701 22.781608 1.281810 2.676006 0.009279 -0.012560 -291421.000000 0 1 0
2.564108 10.619215 -19.259401 22.141972 1.333872 2.625622 0.014304 -0.013694 183759.000000 0 1 0
3.257208 11.844815 -19.323401 22.897661 1.302439 2.575313 0.016123 -0.009783 455228.000000 0 1 0
4.625008 11.867715 -18.553701 22.504959 1.199189 2.539986 0.019630 -0.019722 834043.000000 0 1 0
5.634408 11.219115 -19.363301 23.077100 1.105378 2.566368 0.021113 -0.004246 386259.000000 0 1 0
6.722008 10.890015 -18.484901 22.482647 1.017780 2.536036 0.028651 -0.006875 680929.000000 0 1 0
7.743208 9.849115 -19.078601 22.824447 0.904537 2.560539 0.028754 -0.006116 66812.300000 0 1 0
7.406908 8.458315 -19.084601 22.150110 0.851573 2.609216 0.031511 -0.011397 -384698.000000 0 1 0
6.403008 8.178615 -20.006401 22.542057 0.906572 2.662719 0.011853 -0.013748 -536481.000000 0 1 0
6.104008 6.667715 -20.248201 22.174467 0.829507 2.721697 0.022313 -0.008726 -60723.900000 0 1 0
7.229308 5.896415 -20.632301 22.643376 0.684197 2.716947 0.019657 0.007288 -41517.700000 0 1 0
6.963908 4.527115 -20.861401 22.454150 0.576433 2.762678 0.018746 0.006170 -224285.000000 0 1 0
7.128508 4.280115 -22.368601 23.863976 0.540730 2.785705 0.022172 0.000392 84526.000000 0 1 0
6.084208 4.922915 -23.098501 24.388387 0.680283 2.814905 0.018473 0.001877 233270.000000 0 1 0
6.143108 4.657115 -24.485001 25.669861 0.648668 2.836577 0.017547 0.002838 29652.300000 0 0 1
4.961008 5.314115 -25.236291 26.262555 0.819750 2.861113 0.008031 -0.001980 66102.000000 0 0 1
4.995608 6.737215 -25.420151 26.768083 0.932761 2.822894 0.008674 0.000311 45291.600000 0 0 1
4.560108 7.577515 -24.347801 25.904223 1.029058 2.793181 0.014153 -0.002742 -1348540.000000 0 0 1
4.540508 9.085515 -24.676601 26.685154 1.107347 2.751126 0.015897 -0.004497 175886.000000 0 0 1
3.384208 9.485115 -25.388351 27.312793 1.228084 2.763961 0.020090 0.001781 -66378.500000 0 0 1
2.217908 9.401415 -24.603401 26.431668 1.339120 2.767475 0.003797 0.005732 -1393280.000000 0 0 1
0.943608 9.866215 -25.332181 27.202059 1.475446 2.768651 -0.000651 0.009517 -97467.800000 0 0 1
1.085708 11.170915 -25.856241 28.187113 1.473910 2.732060 0.009384 0.003597 202016.000000 0 0 1
0.002708 11.410015 -26.735511 29.068471 1.570559 2.738221 0.027529 -0.001141 60776.400000 0 0 1
-0.192492 12.867915 -27.134021 30.031240 -1.555838 2.698725 0.018319 0.000860 -390852.000000 0 0 1
-0.622292 13.652115 -26.062471 29.428216 -1.525246 2.658642 0.017407 0.001709 117060.000000 0 0 1
-0.487592 15.039915 -26.270611 30.275102 -1.538388 2.621413 0.017711 -0.014990 -480090.000000 0 0 1
-0.904392 15.713915 -25.006301 29.547591 -1.513306 2.579808 0.024064 -0.018455 -247030.000000 0 0 1
-2.204692 15.335715 -24.621201 29.090348 -1.428013 2.579929 0.022726 -0.013649 -221562.000000 0 0 1
-2.382392 15.784515 -23.312501 28.254193 -1.420995 2.541173 0.027146 -0.020800 660964.000000 0 0 1
-3.729992 15.288615 -22.613301 27.550245 -1.331499 2.533610 0.023481 -0.019319 1935120.000000 0 0 1
-4.987592 15.830915 -23.045201 28.400268 -1.265586 2.517413 0.017766 -0.018369 569688.000000 0 0 1
-5.379392 15.294115 -24.301801 29.213445 -1.232582 2.553266 0.023261 -0.019977 -226999.000000 0 0 1
-6.870992 15.461515 -24.717201 29.953447 -1.152615 2.541330 0.016339 -0.022506 186657.000000 0 0 1
-7.274992 16.759115 -24.961201 30.933073 -1.161250 2.509753 0.018044 -0.023518 -155758.000000 0 0 1
-8.429392 16.710915 -25.771841 31.851171 -1.103616 2.513472 0.023114 -0.024962 -181261.000000 0 0 1
-9.028192 18.098015 -26.134781 33.046531 -1.108069 2.482990 0.018441 -0.015898 24676.100000 0 0 1
-9.459092 18.885115 -25.072971 32.783775 -1.106449 2.441524 0.017096 -0.018401 -484403.000000 0 0 1
-10.545492 19.665715 -25.423421 33.827475 -1.078581 2.421222 0.024975 -0.012900 -341346.000000 0 0 1
-10.899592 20.759115 -24.403201 33.841663 -1.087309 2.376184 0.006675 -0.008036 -205431.000000 0 0 1
-10.071692 21.901515 -24.440801 34.328823 -1.139771 2.363084 0.012103 -0.001163 -8692.790000 0 0 1
-10.582792 23.073815 -25.061801 35.671982 -1.140773 2.349789 0.022230 -0.013425 -367266.000000 0 0 1
-10.304692 23.324815 -26.590651 36.841504 -1.154790 2.377135 0.017981 -0.010226 -248660.000000 0 0 1
-10.937192 22.380515 -27.414391 37.041307 -1.116236 2.404020 0.009973 -0.002025 62220.000000 0 0 1
-10.880592 22.753615 -28.759341 38.251980 -1.124747 2.421644 0.028415 0.000624 128706.000000 0 0 1
-11.610092 21.727415 -29.721851 38.603928 -1.080046 2.449509 0.028680 0.002215 47832.000000 0 0 1
-10.782792 20.735115 -30.241481 38.219900 -1.091257 2.483646 0.030091 -0.008009 -313860.000000 0 0 1
-10.436692 19.756215 -29.290811 36.839981 -1.084786 2.489939 0.015592 -0.004868 50285.000000 0 0 1
-9.517592 18.648315 -29.862121 36.470406 -1.098885 2.530121 0.013252 -0.007554 -1083810.000000 0 0 1
-8.248092 19.113615 -30.188641 36.670361 -1.163408 2.537898 0.012349 -0.018414 -87924.600000 0 0 1
-7.242992 18.125015 -30.477581 36.191989 -1.190624 2.571977 0.015854 -0.015201 752400.000000 0 0 1
-6.949092 16.963315 -29.534291 34.760873 -1.181995 2.586102 0.022716 -0.019588 -1118810.000000 0 0 1
-7.937692 15.946515 -29.635901 34.577231 -1.108935 2.600396 0.027156 -0.022307 355777.000000 0 0 1
-7.682792 14.858415 -28.784431 33.291760 -1.093589 2.615173 0.014906 -0.021275 -315520.000000 0 0 1
-9.014092 14.123015 -28.606851 33.152154 -1.002722 2.611768 0.021959 -0.014059 44538.500000 0 0 1
-10.023292 14.797115 -27.881021 33.117553 -0.975412 2.571555 0.019656 -0.017932 720700.000000 0 0 1
-11.263992 14.043815 -27.869541 33.178571 -0.894800 2.568054 0.042673 -0.016176 1041460.000000 0 0 1
-12.242692 14.732715 -26.902941 33.025818 -0.877444 2.522841 0.028382 -0.014131 -217186.000000 0 0 1
-12.734992 15.984315 -27.279991 34.086306 -0.898060 2.498627 0.022028 -0.014442 -177627.000000 0 0 1
-13.759592 16.360015 -26.365851 33.943108 -0.871521 2.460311 0.004827 -0.012345 541132.000000 0 0 1
-14.661192 17.531715 -26.933471 35.323129 -0.874329 2.437947 -0.012548 -0.004540 35991.700000 0 0 1
-14.045292 18.804015 -26.904461 35.703098 -0.929263 2.424259 -0.013043 0.005509 -57925.100000 0 0 1
-14.934992 19.885915 -27.078611 36.766218 -0.926634 2.398690 -0.036997 0.009656 -260029.000000 0 0 1
-14.292892 21.288015 -26.721901 37.034124 -0.979520 2.376832 -0.007059 0.009746 -122565.000000 0 0 1
-14.994892 22.405315 -27.158061 38.267548 -0.981003 2.359853 -0.023348 0.001024 -275309.000000 0 0 1
-14.279492 23.631415 -27.140861 38.716586 -1.027251 2.347614 -0.005965 -0.000808 -128171.000000 0 0 1
-14.106892 24.402215 -25.799631 38.211169 -1.046636 2.312013 -0.022883 0.006457 70004.400000 0 0 1
-13.292092 25.552615 -26.035611 38.826137 -1.091131 2.305772 0.003313 -0.010141 229660.000000 0 0 1
-13.021392 26.348515 -24.916201 38.530741 -1.111801 2.273991 0.019513 -0.020054 -2051.020000 0 0 1
-12.594492 27.777315 -25.366401 39.669318 -1.145111 2.264574 0.038538 -0.020171 934133.000000 0 0 1
-13.704692 28.563715 -25.886571 40.912333 -1.123444 2.255873 0.047142 -0.023917 1076790.000000 0 0 1
-14.459792 29.298315 -24.916301 41.088915 -1.112333 2.222321 0.050366 -0.021747 -379353.000000 0 0 1
-15.854692 29.743315 -25.309891 42.150049 -1.081059 2.214887 0.042790 -0.023735 -548002.000000 0 0 1
-16.763692 28.693615 -25.424641 41.842052 -1.042053 2.223874 0.027652 -0.016505 -354421.000000 0 0 1
-18.057992 29.163615 -25.768371 42.902406 -1.016382 2.215082 0.019688 -0.014521 148639.000000 0 0 1
-19.146692 28.096715 -25.812081 42.688227 -0.972624 2.220142 0.024529 0.002468 -224408.000000 0 0 1
-19.707992 27.903115 -24.524901 42.053056 -0.955854 2.193446 0.030223 -0.005307 37371.600000 0 0 1
-20.675992 26.847015 -24.486501 41.807267 -0.914529 2.196539 0.032969 -0.010612 128547.000000 0 0 1
-21.225692 26.756115 -23.000301 41.175643 -0.900153 2.163481 0.019095 -0.006730 -8181.090000 0 0 1
-22.026192 27.866215 -22.622101 42.112213 -0.901920 2.137894 0.008597 -0.002685 -171381.000000 0 0 1
-22.485292 27.852015 -21.266801 41.636521 -0.891612 2.106880 -0.006856 -0.004908 -738127.000000 0 0 1
-23.700792 28.700215 -20.972301 42.723147 -0.880517 2.083906 -0.023524 0.003086 -252899.000000 0 0 1
-24.901692 28.060715 -21.355001 43.168670 -0.844974 2.088272 -0.028721 0.003942 268523.000000 0 0 1
-26.090532 28.827215 -21.085401 44.230287 -0.835189 2.067714 -0.011242 0.003644 1607170.000000 0 0 1
-27.348822 28.037315 -21.659101 44.756740 -0.797828 2.075936 -0.020612 0.005377 459616.000000 0 0 1
-27.343312 27.745415 -23.059001 45.267895 -0.792697 2.105272 -0.028530 0.006156 -89781.300000 0 0 1
-28.580482 27.139215 -23.372401 45.821939 -0.759538 2.106063 -0.018867 0.006874 6898.940000 0 0 1
-28.664952 26.558415 -24.817601 46.291924 -0.747271 2.136619 -0.020708 0.014317 -437003.000000 0 0 1
-27.840832 25.511215 -25.209481 45.403215 -0.741761 2.159443 -0.017454 0.011668 -580977.000000 0 0 1
-28.004082 25.334315 -26.588131 46.184249 -0.735387 2.184253 0.011729 0.007454 -102445.000000 0 0 1
-28.073222 23.894615 -27.130141 45.772295 -0.705163 2.205228 0.002263 0.000875 825714.000000 0 0 1
-26.767622 23.294115 -27.200391 44.709984 -0.716125 2.224807 -0.021767 0.001390 900247.000000 0 0 1
-27.020542 22.038515 -27.783671 44.584058 -0.684193 2.243592 0.006169 -0.012201 49011.400000 0 0 1
-25.869792 21.020615 -27.653671 43.310944 -0.682349 2.263333 -0.002999 0.005331 -87677.300000 0 0 1
-25.576022 20.534615 -26.385371 42.095025 -0.676498 2.248242 0.003825 0.007702 152073.000000 0 0 1
-25.073812 19.173015 -26.292011 41.080049 -0.652820 2.265319 -0.009655 -0.000182 181539.000000 0 0 1
-26.134422 18.044415 -26.079711 41.094528 -0.604285 2.258323 -0.011810 0.011756 488075.000000 0 0 1
-26.991542 17.775115 -27.205511 42.244975 -0.582358 2.270504 -0.002301 0.004783 804018.000000 0 0 1
-27.838542 16.629715 -26.995481 42.193457 -0.538478 2.265038 -0.013129 0.001565 -94754.800000 0 0 1
-28.514092 16.153915 -28.278281 43.285836 -0.515441 2.282721 -0.016713 0.002009 -667913.000000 0 0 1
-29.661142 16.909415 -28.499371 44.473878 -0.518134 2.266351 -0.010837 -0.007150 -273830.000000 0 0 1
-30.488722 16.342615 -29.519631 45.475838 -0.492048 2.277234 -0.000318 -0.000338 -218400.000000 0 0 1
-31.728782 17.148415 -29.811061 46.791913 -0.495496 2.261524 0.013373 -0.001302 -323283.000000 0 0 1
-32.826012 16.984215 -28.930321 46.935851 -0.477471 2.234934 0.014351 -0.001958 532265.000000 0 0 1
-34.055982 17.473115 -29.470491 48.307655 -0.474049 2.226931 0.018374 0.001302 663169.000000 0 0 1
34.945235 17.048615 -28.613851 48.276052 0.453894 2.205220 0.010860 0.002286 -81851.900000 0 0 1
34.738049 17.772115 -27.418791 47.690358 0.472887 2.183319 0.019860 -0.007126 381105.000000 0 0 1
33.678799 17.256915 -26.602181 46.257309 0.473516 2.183512 0.037181 -0.006837 443948.000000 0 0 1
32.946789 18.343715 -25.781321 45.679966 0.508024 2.170491 0.042092 -0.014033 128899.000000 0 0 1
32.076659 19.247915 -26.439091 45.808513 0.540464 2.186050 0.050810 -0.021995 422303.000000 0 0 1
31.665039 20.274415 -25.542951 45.455131 0.569510 2.167523 0.059056 -0.017866 -485034.000000 0 0 1
31.160919 21.609915 -26.186021 46.083609 0.606346 2.175148 0.054511 -0.019216 653622.000000 0 0 1
29.804649 21.601515 -26.620791 45.426964 0.627157 2.196926 0.040713 -0.020086 -16811.500000 0 0 1
28.885749 21.896115 -25.613931 44.383554 0.648617 2.185975 0.047892 -0.014107 95353.900000 0 0 1
27.398919 21.609215 -26.003521 43.518296 0.667806 2.211214 0.020963 -0.014560 638693.000000 0 0 1
27.140099 20.207515 -26.003561 42.674510 0.640012 2.226032 0.019492 -0.026084 469868.000000 0 0 1
25.827269 19.969015 -26.545901 42.077242 0.658169 2.253490 0.005985 -0.018984 363166.000000 0 0 1
25.475809 18.494015 -26.618461 41.226059 0.627927 2.272698 0.018963 -0.017448 -40522.100000 0 0 1
26.284179 17.637815 -27.426071 41.882454 0.591026 2.284760 0.015039 -0.013907 1011800.000000 0 0 1
27.572299 17.360215 -26.809651 42.194385 0.561918 2.259302 0.015656 -0.014428 942972.000000 0 0 1
28.504419 16.502515 -27.727351 43.053930 0.524795 2.270531 0.000177 -0.000112 235795.000000 0 0 1
27.915189 15.300915 -28.304881 42.597442 0.501400 2.297586 0.009146 -0.010299 395638.000000 0 0 1
27.215829 14.370215 -27.439801 41.232840 0.485803 2.298939 0.014776 -0.014220 -28127.900000 0 0 1
28.032089 13.412915 -26.532141 40.861459 0.446287 2.277486 0.012965 -0.007660 -357493.000000 0 0 1
28.605049 14.155315 -25.489641 40.845362 0.459522 2.244714 0.014037 -0.012560 93839.800000 0 0 1
29.372789 13.277715 -24.657401 40.583813 0.424550 2.223791 0.012986 -0.017182 -75246.900000 0 0 1
-13.704692 -31.341255 -25.118841 42.438768 1.158576 2.204191 0.066481 0.027066 298929.000000 0 0 1
-12.918692 -30.164755 -25.357891 41.470805 1.166158 2.228705 0.039021 0.024423 173827.000000 0 0 1
-13.155092 -29.677955 -26.590861 41.963214 1.153560 2.257085 0.027343 0.031727 61121.300000 0 0 1
-12.590892 -28.259455 -26.988621 41.055000 1.151652 2.288129 0.023917 0.025201 281719.000000 0 0 1
-13.401392 -27.218455 -26.429801 40.236500 1.113276 2.287445 0.049897 0.021867 483610.000000 0 0 1
-12.902792 -25.965755 -26.911661 39.559322 1.109619 2.318949 0.032637 0.014313 -192838.000000 0 0 1
-13.390592 -24.705255 -26.198611 38.419068 1.074105 2.321177 0.028814 0.002392 -286444.000000 0 0 1
-12.841792 -24.499055 -24.899201 37.216737 1.087996 2.303702 0.015913 0.000460 297558.000000 0 0 1
-13.248992 -23.232855 -24.309001 36.141788 1.052524 2.308514 0.024084 0.001257 -346176.000000 0 0 1
-12.653292 -22.997655 -22.928601 34.852814 1.067800 2.288783 0.018348 -0.013723 430027.000000 0 0 1
-11.251192 -22.767355 -23.015201 34.273039 1.111815 2.307061 0.016907 -0.021018 126370.000000 0 0 1
-10.628392 -22.438655 -21.815301 33.050920 1.128438 2.291683 0.020323 -0.024571 422420.000000 0 0 1
-9.153792 -21.951555 -21.937201 32.355887 1.175721 2.315831 0.019002 -0.022930 396176.000000 0 0 1
-8.980292 -20.658355 -22.538301 31.865158 1.160734 2.356471 0.020205 -0.017470 279620.000000 0 0 1
-7.668592 -20.524455 -23.052501 31.803747 1.213226 2.381593 0.020155 -0.015021 105054.000000 0 0 1
-7.431992 -19.287055 -23.932501 31.622612 1.202995 2.429224 0.020388 -0.004410 -110255.000000 0 0 1
-7.795592 -18.137855 -23.232701 30.487890 1.164870 2.437239 0.015199 0.001738 -76938.600000 0 0 1
-7.984592 -16.958055 -24.019401 30.467375 1.130745 2.478943 0.001729 0.001214 -30484.400000 0 0 1
-6.949392 -16.485455 -25.075561 30.803377 1.171854 2.521892 0.006714 0.000974 -8392.960000 0 0 1
-6.828692 -17.362255 -26.167951 32.137837 1.196073 2.522217 0.002621 -0.001727 272021.000000 0 0 1
-5.759592 -16.786355 -26.920681 32.244033 1.240271 2.558755 0.003890 -0.005766 261778.000000 0 0 1
-5.588992 -17.495555 -28.259321 33.703420 1.261590 2.565267 0.004518 -0.001623 -49182.000000 0 0 1
-6.415692 -16.999355 -29.299391 34.475984 1.209916 2.586496 0.014025 -0.002577 24844.700000 0 0 1
-6.566492 -17.952355 -30.312281 35.836298 1.220139 2.578961 0.018881 -0.005606 -89143.500000 0 0 1
-7.392292 -17.408055 -31.489461 36.732445 1.169224 2.600731 0.018959 -0.008119 127442.000000 0 0 1
-6.782692 -16.471755 -32.394171 36.968986 1.180179 2.638826 0.022730 -0.012373 -196598.000000 0 0 1
-6.688892 -15.177355 -31.844191 35.904678 1.155690 2.661407 0.016127 -0.006321 179039.000000 0 0 1
-7.153292 -13.961555 -32.724421 36.290251 1.097313 2.694577 0.022866 -0.007184 55044.100000 0 0 1
-6.240892 -13.754355 -33.778061 37.001195 1.144837 2.721108 0.031300 -0.013076 16268.600000 0 0 1
-6.740492 -12.873155 34.356566 37.303163 1.088441 0.400132 0.040303 -0.007602 -146940.000000 0 0 1
-6.792092 -11.344555 -34.422203 36.874374 1.031326 2.774847 0.030475 -0.009005 -969440.000000 0 0 1
-5.633092 -10.635755 -34.515937 36.554082 1.083721 2.806084 0.021039 -0.006324 -1181880.000000 0 0 1
-5.343792 -10.230655 33.252598 35.198831 1.089444 0.334095 0.024988 -0.013918 27424.400000 0 0 1
-4.291292 -9.125155 33.101675 34.603534 1.131214 0.295701 0.012541 -0.011761 -102625.000000 0 0 1
-4.258292 -8.518855 31.822032 33.216648 1.107255 0.290801 0.010083 -0.006029 227806.000000 0 0 1
-3.094892 -7.714955 31.686132 32.758356 1.189295 0.256560 0.009954 -0.004082 -414987.000000 0 0 1
-3.257392 -6.672455 30.567812 31.456691 1.116645 0.238291 0.004318 -0.003087 -395608.000000 0 0 1
-4.356592 -5.846855 30.762162 31.614494 0.930428 0.232732 0.005469 -0.000375 266404.000000 0 0 1
-5.583092 -6.312855 30.164732 31.319868 0.846667 0.272437 -0.005645 0.004103 -30942.200000 0 0 1
-6.848792 -5.656055 30.717472 31.975929 0.690304 0.281486 -0.012279 0.003682 205946.000000 0 0 1
-7.964292 -6.200555 29.999772 31.652222 0.661521 0.324552 -0.009672 0.004643 -304500.000000 0 0 1
-9.162192 -5.487555 30.200112 32.032886 0.539636 0.339910 -0.012527 0.003117 -394974.000000 0 0 1
-10.242092 -6.078955 29.306562 31.634297 0.535646 0.386013 0.004239 -0.003633 -643069.000000 0 0 1
-9.992192 -5.928455 27.938412 30.257980 0.535485 0.394106 -0.014616 0.004270 287457.000000 0 0 1
-10.897492 -6.702355 27.139602 30.003915 0.551402 0.440508 -0.017687 -0.004011 129729.000000 0 0 1
-10.760092 -6.665855 25.574992 28.535827 0.554633 0.459574 -0.020550 -0.003117 546282.000000 0 0 1
-9.566892 -7.246655 25.006022 27.736989 0.648266 0.447479 -0.016194 -0.002065 575141.000000 0 0 1
-9.125892 -6.668755 23.796982 26.344839 0.631068 0.443423 -0.012686 -0.008162 -166871.000000 0 0 1
-9.987092 -6.840955 22.487582 25.538834 0.600574 0.493828 -0.014443 -0.013732 160064.000000 0 0 1
-11.234092 -6.190455 22.660982 26.039329 0.503643 0.515067 -0.013229 -0.007191 -212225.000000 0 0 1
-11.995492 -6.411155 21.480882 25.424851 0.490837 0.564460 -0.005997 -0.010481 926158.000000 0 0 1
-13.249792 -5.443355 21.372782 25.729029 0.389804 0.590455 0.008630 -0.004467 814016.000000 0 0 1
-12.806692 -4.154355 21.063982 24.999227 0.313679 0.568731 -0.002397 0.004978 -316786.000000 0 1 0
-13.862492 -3.223355 21.080182 25.434873 0.228464 0.593854 -0.001568 0.010887 16652.400000 0 0 1
-13.581892 -1.762355 20.572882 24.714715 0.129037 0.587346 0.001402 0.013900 233405.000000 0 1 0
-12.587092 -0.982355 21.257082 24.723743 0.077887 0.535949 -0.005102 0.012091 188940.000000 0 1 0
-12.730092 0.422645 21.085582 24.634034 -0.033188 0.543405 0.012312 0.001948 -224686.000000 0 1 0
-12.303692 1.045645 19.676982 23.230537 -0.084783 0.560422 0.019186 -0.006561 558900.000000 0 1 0
-13.105192 0.712645 18.509082 22.690087 -0.054325 0.616799 0.024048 -0.004103 1031780.000000 0 1 0
-14.414992 1.321645 18.478482 23.473241 -0.091430 0.664517 0.021059 0.000644 273054.000000 0 1 0
-15.394392 0.625645 17.602482 23.392865 -0.040619 0.718989 0.032845 0.003569 -642458.000000 0 1 0
-15.726492 -0.703355 18.119782 24.002995 0.044694 0.715300 0.014238 0.004811 -76670.200000 0 1 0
-16.621392 -1.430355 17.354282 24.072551 0.085844 0.765673 0.006668 0.016560 -426369.000000 0 1 0
-16.694892 -2.941355 17.669382 24.486283 0.174393 0.764681 0.008159 0.014689 -139407.000000 0 1 0
-17.284692 -3.297355 18.874682 25.804781 0.188502 0.750363 0.001280 0.016810 -219845.000000 0 0 1
-17.145592 -4.640755 19.132782 26.106920 0.264334 0.748277 -0.001720 0.012199 160231.000000 0 0 1
-17.796892 -5.150155 20.475782 27.613604 0.281690 0.735477 -0.016375 0.019481 24265.600000 0 0 1
-17.097392 -4.699855 21.631982 27.970558 0.268261 0.686634 -0.008370 0.016660 268802.000000 0 0 1
-17.809692 -4.831255 22.876782 29.391722 0.264896 0.678777 -0.005940 0.008262 -145436.000000 0 0 1
-17.916292 -6.301755 23.440682 30.169044 0.338218 0.680945 0.013261 0.002947 886806.000000 0 0 1
-16.702192 -6.894855 23.950182 30.001891 0.391502 0.646347 0.005867 -0.010093 902194.000000 0 0 1
-15.778192 -7.444655 23.019382 28.883666 0.440860 0.648536 0.014484 -0.003664 -287653.000000 0 0 1
-14.607692 -8.068355 23.800182 29.067709 0.504635 0.611506 0.012407 -0.000358 -416419.000000 0 0 1
-14.921292 -9.212255 24.558372 30.176551 0.553108 0.620095 0.008109 -0.008428 98559.900000 0 0 1
-14.033792 -9.405555 25.656532 30.719203 0.590450 0.582309 0.017650 -0.001975 497161.000000 0 0 1
-14.717092 -10.273755 26.831442 32.281095 0.609438 0.589567 0.017837 -0.010888 227196.000000 0 0 1
-14.799592 -11.660755 26.534432 32.543466 0.667326 0.617457 0.018099 -0.013671 -509404.000000 0 0 1
-13.924992 -12.416755 27.288522 33.056688 0.728204 0.599697 0.028829 -0.009041 -706181.000000 0 0 1
-14.175792 -13.961455 27.268152 33.755406 0.777781 0.630359 0.009155 -0.012678 534451.000000 0 0 1
-15.372492 -14.474355 27.907562 34.995035 0.755316 0.647703 0.013375 -0.011423 759102.000000 0 0 1
-15.617692 -15.856855 27.717062 35.546978 0.792997 0.676561 0.017863 -0.000405 -18045.500000 0 0 1
-14.634392 -16.885155 28.344332 36.092590 0.856686 0.667579 0.020839 -0.000699 767384.000000 0 0 1
-13.335392 -16.840555 27.727722 35.075113 0.901037 0.659132 0.027914 -0.007416 357573.000000 0 0 1
-12.453692 -17.716155 28.394342 35.709876 0.958089 0.651558 0.038550 -0.004312 -984082.000000 0 0 1
-11.072192 -17.611855 27.788782 34.712927 1.009556 0.642615 0.046272 -0.012388 -765149.000000 0 0 1
-10.152692 -18.449355 28.477512 35.417856 1.067722 0.636731 0.049583 -0.018844 -257662.000000 0 0 1
-9.124692 -18.869955 27.626982 34.678312 1.120390 0.649040 0.041404 -0.017192 -454409.000000 0 0 1
-8.032392 -19.666755 28.378662 35.449246 1.183048 0.642595 0.040461 -0.021185 -281096.000000 0 0 1
-8.314592 -20.919155 28.993182 36.706240 1.192479 0.660198 0.028769 -0.012879 117884.000000 0 0 1
-7.126592 -21.561855 29.426722 37.170336 1.251581 0.657255 0.029227 -0.012600 125296.000000 0 0 1
-7.405892 -22.795955 30.329692 38.657380 1.256675 0.668783 0.023855 -0.010086 7650.500000 0 0 1
-7.537192 -23.906755 29.499902 38.711580 1.265386 0.704333 0.013190 -0.010704 118482.000000 0 0 1
-7.693892 -25.076455 30.308162 40.082530 1.273097 0.713396 0.012693 -0.011318 -205090.000000 0 0 1
-8.055392 -26.256655 29.391592 40.226446 1.273118 0.751518 0.006177 -0.010854 -517405.000000 0 0 1
-9.295692 -26.296155 28.727912 40.039862 1.231007 0.770614 0.030505 -0.018487 -96743.500000 0 0 1
-9.453692 -27.570155 28.108482 40.491635 1.240464 0.803516 0.033355 -0.020723 -320115.000000 0 0 1
-10.667992 -27.861055 27.197192 40.369935 1.205118 0.831593 0.039740 -0.015617 -215195.000000 0 0 1
-10.869392 -27.097655 26.047982 39.127023 1.189325 0.842326 0.060134 -0.023431 208997.000000 0 0 1
-11.447792 -25.802755 26.268042 38.559618 1.153223 0.821352 0.052456 -0.016685 -275541.000000 0 0 1
-11.679492 -25.130355 24.885602 37.245650 1.135739 0.839080 0.060096 -0.026702 -793328.000000 0 0 1
-12.757692 -25.694855 24.252202 37.565324 1.109947 0.868987 0.054887 -0.017035 -556945.000000 0 0 1
-12.724192 -25.316755 22.925182 36.447319 1.105071 0.890537 0.052781 -0.008980 101421.000000 0 0 1
-14.057992 -25.531555 22.169882 36.619545 1.067483 0.920514 0.039977 -0.003056 64015.900000 0 0 1
-14.460592 -26.835855 21.839882 37.500030 1.076551 0.949123 0.048804 -0.003671 562706.000000 0 0 1
-15.675492 -26.838255 21.069382 37.549059 1.042170 0.975063 0.032330 0.001523 796335.000000 0 0 1
-15.956192 -28.261555 20.563882 38.421202 1.056821 1.006025 0.026863 -0.003293 -141622.000000 0 0 1
-15.039892 -28.622355 19.573282 37.796176 1.086989 1.026444 0.017237 0.006249 -292785.000000 0 0 1
-15.117492 -29.949055 19.179182 38.643569 1.103337 1.051453 0.020554 0.014526 -265585.000000 0 0 1
-14.036192 -30.238355 18.161282 37.963205 1.136209 1.071974 0.013907 0.005647 -552390.000000 0 0 1
-14.151092 -29.573955 16.905582 36.887273 1.124497 1.094710 0.025280 -0.006799 -564265.000000 0 0 1
-13.014992 -29.607655 16.088282 36.122514 1.156640 1.109197 0.046010 -0.012419 -369076.000000 0 0 1
-13.281292 -29.057555 14.685482 35.162445 1.142080 1.139942 0.014023 -0.001424 -60124.900000 0 0 1
-13.684592 -27.696155 14.695782 34.209809 1.111882 1.126771 0.009281 -0.003661 -92346.500000 0 0 1
-14.107392 -27.234255 13.394182 33.468302 1.092851 1.159056 0.007704 0.005536 325640.000000 0 0 1
-13.054292 -27.254655 12.217182 32.595863 1.124110 1.186607 0.000730 0.002347 799042.000000 0 0 1
-13.587592 -26.657055 11.041982 31.892735 1.099404 1.217255 -0.011685 0.011691 316304.000000 0 0 1
-12.674392 -26.990755 10.003282 31.451656 1.131777 1.247122 -0.002485 0.005775 281033.000000 0 0 1
-12.887892 -26.212055 8.694782 30.475708 1.113828 1.281475 0.000285 0.013895 -370229.000000 0 0 1
-13.957492 -26.617155 7.877282 31.069858 1.087836 1.314464 0.000684 0.009825 -170148.000000 0 0 1
-14.063092 -25.740155 6.786482 30.106186 1.070761 1.343424 0.003208 0.001615 30294.500000 0 0 1
-15.095592 -26.147855 5.715182 30.728659 1.047223 1.383718 -0.005904 0.012451 -49518.300000 0 0 1
-14.705992 -27.215455 4.872982 31.316020 1.075389 1.414555 0.009319 0.001552 198998.000000 0 0 1
-15.620992 -27.357655 3.781482 31.729422 1.051980 1.451333 0.013599 0.006547 75189.300000 0 0 1
-15.335592 -28.606855 2.994082 32.595966 1.078702 1.478812 0.010976 0.014211 -138348.000000 0 0 1
-14.091492 -28.413755 2.343382 31.802563 1.110403 1.497044 0.016353 0.014956 89180.200000 0 0 1
-13.698592 -29.579755 1.586182 32.636318 1.137096 1.522175 0.008205 0.013123 -151480.000000 0 0 1
-12.396592 -29.526955 0.744882 32.032349 1.173304 1.547540 -0.015680 0.007463 153852.000000 0 0 1
-12.332492 -28.767955 -0.443618 31.303073 1.165806 1.584968 0.011544 0.006375 -102131.000000 0 0 1
-12.241892 -27.358755 -0.338518 29.974655 1.150058 1.582090 0.013372 0.004200 -347688.000000 0 0 1
-11.996992 -26.705155 -1.705818 29.325806 1.148576 1.628997 0.030571 0.007306 693906.000000 0 0 1
-10.742292 -27.145655 -2.277218 29.282573 1.193978 1.648642 0.024570 0.003176 665464.000000 0 0 1
-10.261992 -26.175855 -3.228018 28.300246 1.197170 1.685108 0.044123 -0.008815 720582.000000 0 0 1
-8.936892 -26.661555 -3.886518 28.386820 1.247369 1.708140 0.030376 -0.006887 619255.000000 0 0 1
-8.179792 -25.689755 -4.586218 27.347868 1.262539 1.739292 0.038730 -0.013393 -355393.000000 0 0 1
-6.975792 -26.245955 -5.047818 27.622315 1.311017 1.754573 0.032423 -0.000786 -311764.000000 0 0 1
-6.216592 -25.365255 -5.997718 26.795798 1.330451 1.796539 0.026230 -0.000217 -695508.000000 0 0 1
-6.709592 -25.161655 -7.317318 27.049411 1.310201 1.844726 0.031532 0.002170 -322075.000000 0 0 1
-6.093592 -24.056955 -7.886618 26.039732 1.322716 1.878498 0.011494 0.006129 -552640.000000 0 0 1
-6.223192 -23.782455 -9.391218 26.315931 1.314863 1.935705 0.023783 -0.005896 -225048.000000 0 0 1
-5.444792 -24.630655 -10.227018 27.219603 1.353238 1.955973 -0.001315 -0.008886 20673.100000 0 0 1
-5.784292 -24.650555 -11.600418 27.850988 1.340315 2.000407 -0.002460 -0.004959 1009190.000000 0 0 1
-7.199692 -25.277655 -11.981318 28.885071 1.293320 1.998511 -0.000431 -0.008500 1135820.000000 0 0 1
-7.516092 -25.244655 -13.338718 29.524661 1.281423 2.039558 0.004451 -0.008707 -1140430.000000 0 0 1
-8.603192 -26.003455 -13.631718 30.594416 1.251284 2.032599 0.009563 -0.009375 -1354330.000000 0 0 1
-8.901792 -26.185355 -15.128618 31.524431 1.243100 2.071339 0.009525 -0.013405 312802.000000 0 0 1
-7.866592 -26.912755 -15.777918 32.173317 1.286419 2.083349 0.003718 -0.017302 651018.000000 0 0 1
-6.703692 -26.198155 -16.200018 31.523378 1.320287 2.110527 0.009942 -0.017912 -392792.000000 0 0 1
-5.715592 -27.130255 -16.871718 32.455717 1.363160 2.117458 0.007034 -0.008576 -527785.000000 0 0 1
-5.853292 -27.294055 -18.246318 33.348981 1.359543 2.149731 0.021636 -0.013253 -150062.000000 0 0 1
-4.751692 -28.039155 -18.688918 34.030110 1.402925 2.152188 0.017775 -0.016767 -74427.300000 0 0 1
-23.989192 14.485715 -6.154901 28.691463 -0.543241 1.786997 -0.015660 -0.003259 -404734.000000 0 0 1
-24.395592 13.523915 -5.232201 28.379871 -0.506184 1.756220 -0.032326 0.002835 -93300.800000 0 0 1
-23.366092 12.666515 -4.921701 27.030316 -0.496750 1.753899 -0.007394 -0.003420 -711594.000000 0 0 1
-23.979192 11.376915 -4.283701 26.884678 -0.442999 1.730815 0.020901 -0.008515 216300.000000 0 0 1
-24.341792 10.314915 -5.161901 26.936323 -0.400814 1.763623 0.021341 -0.010988 762719.000000 0 0 1
-25.702702 10.312915 -5.599801 28.254962 -0.381574 1.770305 0.004170 -0.012266 168530.000000 0 0 1
-25.837442 9.605715 -6.982401 28.435841 -0.355940 1.818883 0.024371 -0.015622 -176003.000000 0 0 1
-25.288732 10.375915 -8.056701 28.497193 -0.389352 1.857424 0.033047 -0.002676 -503286.000000 0 0 1
-25.554782 9.658715 -9.231101 28.836624 -0.361364 1.896650 0.055332 -0.011811 -405220.000000 0 0 1
-26.147282 10.542315 -10.344001 30.030303 -0.383253 1.922451 0.020585 -0.005707 136903.000000 0 0 1
-25.250022 11.557715 -10.845301 29.812161 -0.429264 1.943127 0.021172 -0.000865 268040.000000 0 0 1
-25.668662 12.175015 -12.011301 30.844490 -0.442889 1.970792 0.002720 -0.002435 -519209.000000 0 0 1
-24.743692 13.219215 -12.645601 30.771889 -0.490668 1.994288 0.009064 0.001071 -373318.000000 0 0 1
-24.570692 14.412215 -11.849001 30.851737 -0.530479 1.964989 0.011311 -0.000979 555170.000000 0 0 1
-23.752392 15.370015 -12.559001 30.953869 -0.574329 1.988577 0.012764 -0.004065 267311.000000 0 0 1
-23.642992 16.766615 -11.909501 31.336028 -0.616846 1.960655 0.014357 -0.010729 -161983.000000 0 0 1
-22.740292 16.839915 -10.813901 30.292640 -0.637414 1.935830 0.010379 -0.006291 244263.000000 0 0 1
-22.669892 18.153615 -10.385301 30.843674 -0.675217 1.914215 -0.004325 -0.001837 -442319.000000 0 0 1
-21.722292 18.352115 -9.188501 29.884555 -0.701498 1.883326 -0.005951 0.003356 -401948.000000 0 0 1
-22.089692 17.808315 -7.924901 29.460051 -0.678499 1.843156 -0.003070 -0.000638 -73305.200000 0 0 1
-23.032192 18.615015 -7.277201 30.495218 -0.679731 1.811755 -0.017398 -0.005437 -355944.000000 0 0 1
-23.485592 18.074815 -5.923001 30.221745 -0.655936 1.768058 -0.029719 0.003511 -357650.000000 0 0 1
-22.481692 18.241315 -4.971201 29.374902 -0.681645 1.740848 -0.008475 -0.016102 95636.900000 0 0 1
-22.843692 17.641715 -3.721401 29.101773 -0.657608 1.699023 -0.025923 -0.005919 430137.000000 0 0 1
-21.615692 17.442115 -2.758801 27.911942 -0.678946 1.669797 -0.016991 -0.019332 251047.000000 0 0 1
-21.142092 18.567015 -2.029101 28.210625 -0.720640 1.642785 -0.008759 -0.018105 625753.000000 0 0 1
-20.016692 18.374315 -1.180301 27.196995 -0.742644 1.614208 0.027330 -0.030929 -182014.000000 0 0 1
-19.439092 19.677815 -0.689001 27.668925 -0.791501 1.595701 0.032352 -0.028644 -361374.000000 0 0 1
-20.240592 20.366215 0.226099 28.714376 -0.788492 1.562922 0.007612 -0.023501 17106.600000 0 0 1
-19.676392 21.643915 0.471999 29.254781 -0.832979 1.554662 0.012704 -0.029067 183839.000000 0 0 1
-20.541992 22.451515 1.475899 30.466740 -0.829783 1.522334 -0.005098 -0.021053 115136.000000 0 0 1
-20.397792 21.961515 2.789599 30.102490 -0.822297 1.477993 0.016289 -0.017863 432562.000000 0 0 1
-21.451492 22.380415 3.643499 31.214172 -0.806588 1.453804 -0.014511 -0.015439 -43627.300000 0 0 1
-21.158592 22.011315 5.091599 30.953326 -0.805148 1.405553 -0.007440 -0.013647 -386604.000000 0 0 1
-20.463992 23.040415 5.758299 31.349541 -0.844551 1.386067 0.001779 -0.011872 -158850.000000 0 0 1
-19.920592 22.552915 6.954099 30.884032 -0.847295 1.343681 0.012207 -0.011830 -438745.000000 0 0 1
-20.773292 22.380015 8.243699 31.628362 -0.822614 1.307109 -0.001324 -0.023100 -1376450.000000 0 0 1
-21.787292 21.480815 8.164999 31.666681 -0.778315 1.310008 0.002875 -0.022833 -381332.000000 0 0 1
-22.225492 20.947215 9.450399 31.969804 -0.755798 1.270709 0.013785 -0.027543 -73546.800000 0 0 1
-22.759192 21.821515 10.611199 33.267956 -0.764368 1.246163 0.017970 -0.026365 -1037710.000000 0 0 1
-23.965692 22.351015 10.147399 34.305859 -0.750551 1.270512 0.024823 -0.023465 -199017.000000 0 0 1
-24.633092 22.951915 11.221999 35.489616 -0.750083 1.249070 0.035659 -0.019152 -48417.300000 0 0 1
-25.424152 24.263015 10.958699 36.812694 -0.762033 1.268526 0.026775 -0.022703 -217908.000000 0 0 1
-26.302162 24.488615 12.017399 37.893454 -0.749707 1.248088 0.019887 -0.015470 -136733.000000 0 0 1
-26.581922 25.863815 12.063499 39.000814 -0.771707 1.256325 0.008966 -0.014517 -87000.300000 0 0 1
-26.998342 26.301915 13.459899 40.023369 -0.772333 1.227810 0.015710 -0.012694 567790.000000 0 0 1
-25.886312 26.330615 14.375099 39.623805 -0.793907 1.199537 0.003269 -0.013652 726166.000000 0 0 1
-26.312702 26.671215 15.687799 40.617964 -0.792165 1.174257 0.006113 -0.013027 -2441.730000 0 0 1
-25.145022 26.800615 16.686399 40.360637 -0.817259 1.144576 0.008601 -0.016702 -263798.000000 0 0 1
-24.627492 25.588415 17.121899 39.426384 -0.804532 1.121563 0.025481 -0.016107 -258188.000000 0 0 1
-23.917892 25.841115 18.322999 39.693338 -0.824030 1.090983 0.028195 -0.010757 -594579.000000 0 0 1
-23.059792 24.635915 18.633199 38.547093 -0.818432 1.066276 0.032631 0.001237 -640734.000000 0 0 1
-22.621892 24.633115 20.026899 38.982265 -0.827934 1.031253 0.019944 -0.010449 268270.000000 0 0 1
-22.005492 23.411415 20.322199 38.017467 -0.816344 1.006822 0.030080 -0.007339 -250027.000000 0 0 1
-20.525592 23.530815 20.761799 37.497353 -0.853506 0.984011 0.035829 -0.013527 -121674.000000 0 0 1
-19.697892 23.618515 19.597999 36.468106 -0.875663 1.003444 0.029496 -0.014128 669220.000000 0 0 1
-18.389292 23.049615 19.743699 35.486116 -0.897390 0.980776 0.028698 -0.016694 572122.000000 0 0 1
-18.287692 21.470215 19.753099 34.432466 -0.865275 0.959809 0.045590 -0.001790 -352839.000000 0 0 1
-18.718592 20.751415 20.912199 34.904541 -0.836856 0.928388 0.053156 -0.003904 386498.000000 0 0 1
-17.794992 20.790815 22.018499 35.124550 -0.862883 0.893268 0.062795 -0.011644 233531.000000 0 0 1
-18.508092 20.409215 23.301999 36.084189 -0.834210 0.868768 0.045745 -0.009766 -537547.000000 0 0 1
-19.503392 21.346015 23.561999 37.298826 -0.830475 0.887041 0.026965 0.001469 -661914.000000 0 0 1
-20.019092 21.121115 24.850499 38.267647 -0.812179 0.864019 0.038592 -0.003185 -377779.000000 0 0 1
-21.174192 22.053215 25.176399 39.604820 -0.805730 0.881894 0.026117 -0.006612 -568414.000000 0 0 1
-20.768692 23.405215 25.178199 40.163221 -0.845013 0.893232 0.027837 -0.006202 -31228.600000 0 0 1
-21.743792 24.296215 25.644299 41.481666 -0.840781 0.904335 0.017943 -0.012193 -29558.400000 0 0 1
-22.820192 24.850515 24.675599 41.799455 -0.827963 0.939325 0.013498 -0.007108 118123.000000 0 0 1
-23.753592 23.907415 24.210899 41.496569 -0.788626 0.947834 0.013178 -0.014370 -271845.000000 0 0 1
-24.472892 24.546515 23.171899 41.694013 -0.786900 0.981518 0.011505 -0.005051 -460201.000000 0 0 1
-25.400452 23.578815 22.463399 41.300699 -0.748223 0.995720 0.013371 -0.004413 -840743.000000 0 0 1
-26.577852 23.406415 23.171699 42.322218 -0.722034 0.991415 -0.002317 -0.010035 -636584.000000 0 0 1
-27.472752 22.510415 22.536899 42.064031 -0.686442 1.005370 0.011705 -0.014132 -319246.000000 0 0 1
-28.924272 22.565915 22.979099 43.288255 -0.662533 1.011206 0.015473 -0.012193 -565130.000000 0 0 1
-29.562672 23.739115 22.443499 44.059140 -0.676573 1.036315 0.016240 -0.009683 707185.000000 0 0 1
-30.963682 23.907915 22.641999 45.199537 -0.657513 1.046118 0.023294 -0.013577 679858.000000 0 0 1
-31.986582 23.256715 21.717999 45.118596 -0.628668 1.068598 0.017533 -0.016251 -668499.000000 0 0 1
-31.890892 21.855115 22.002499 44.483536 -0.600798 1.053397 0.011853 -0.012996 260001.000000 0 0 1
-32.350622 21.001815 20.945699 43.890332 -0.575808 1.073299 0.003972 -0.007265 897616.000000 0 0 1
-33.884612 21.018115 20.585399 44.874121 -0.555202 1.094224 0.005120 -0.006016 665102.000000 0 0 1
-34.225669 20.084615 19.613699 44.266074 -0.530679 1.111758 0.007900 -0.009754 -202531.000000 0 0 1
34.593722 20.035115 19.465399 44.463842 0.524951 1.117668 0.012050 -0.010133 -74072.400000 0 0 1
34.162536 19.156815 18.272499 43.219749 0.511063 1.134284 0.017684 -0.012217 -365516.000000 0 0 1
34.267985 17.789615 18.389899 42.766267 0.478836 1.126293 0.023066 -0.012816 183862.000000 0 0 1
33.385419 17.073115 17.543599 41.398736 0.472721 1.133191 0.027102 -0.017701 139118.000000 0 0 1
33.734359 15.555415 17.477699 41.054207 0.432059 1.131036 0.023869 -0.016537 -509185.000000 0 0 1
32.852549 14.848515 16.713699 39.738094 0.424495 1.136694 0.025553 -0.020040 -404589.000000 0 0 1
33.314999 13.526615 16.436599 39.535051 0.385687 1.142032 0.021900 -0.021558 110176.000000 0 0 1
32.461959 12.847115 15.350499 38.137449 0.376845 1.156545 0.031703 -0.020632 -61769.700000 0 0 1
32.547409 13.507015 14.127099 37.965092 0.393366 1.189518 0.034313 -0.022255 286391.000000 0 0 1
31.905519 12.753515 13.108699 36.775702 0.380271 1.206331 0.042332 -0.024516 -234497.000000 0 0 1
32.350659 13.200115 11.702499 36.847750 0.387412 1.247609 0.050498 -0.014367 1081930.000000 0 0 1
33.721439 12.844815 11.387399 37.839101 0.363941 1.265115 0.056622 -0.018328 1122090.000000 0 0 1
33.914309 13.081115 10.013999 37.703794 0.368128 1.301974 0.041297 -0.012576 750567.000000 0 0 1
-34.941699 12.441415 9.520699 38.293013 -0.342065 1.319533 0.052813 -0.012797 623823.000000 0 0 1
-34.845921 10.985515 9.493999 37.749911 -0.305397 1.316569 0.046905 -0.004929 -233951.000000 0 0 1
-33.678412 10.581515 8.832299 36.389743 -0.304426 1.325634 0.012519 0.003285 -188158.000000 0 0 1
-33.652952 10.695615 7.287599 36.055879 -0.307725 1.367275 0.009900 0.005584 -177458.000000 0 0 1
-33.656192 12.034315 6.790999 36.382436 -0.343399 1.383039 0.027989 0.001166 125866.000000 0 0 1
-33.202042 12.133615 5.444799 35.766549 -0.350370 1.417971 0.016438 -0.003640 -219795.000000 0 0 1
-34.133902 13.067315 4.685099 36.848719 -0.365613 1.443307 0.028147 -0.008835 -998104.000000 0 0 1
34.836455 12.481415 4.471899 37.274149 0.344037 1.450533 0.029362 -0.010080 -217838.000000 0 0 1
33.738489 13.370115 4.402199 36.557147 0.377301 1.450084 0.028611 -0.012972 228705.000000 0 0 1
33.375709 14.195515 5.721099 36.717592 0.402146 1.414345 0.034466 -0.008169 -1513380.000000 0 0 1
32.384599 15.197915 5.538099 36.199578 0.438783 1.417205 0.014768 0.001940 708362.000000 0 0 1
31.752959 15.684315 6.772699 36.057144 0.458794 1.381842 0.009183 0.008591 366938.000000 0 0 1
30.681109 14.700715 7.281499 34.791690 0.446825 1.359949 0.031694 -0.007013 -814437.000000 0 0 1
31.260619 13.539615 7.869299 34.963886 0.408729 1.343782 0.037560 0.000054 212247.000000 0 0 1
30.426929 12.390715 7.889199 33.787088 0.386722 1.335123 0.052383 0.008722 -165918.000000 0 0 1
30.533849 11.549715 6.601099 33.305951 0.361625 1.371279 0.051082 -0.004903 -328349.000000 0 0 1
30.067749 12.169615 5.468199 32.894837 0.384586 1.403788 0.039477 -0.010308 50786.900000 0 0 1
30.476649 11.456615 4.323599 32.844690 0.359572 1.438775 0.046418 -0.012661 -447135.000000 0 0 1
29.815089 11.812215 2.970899 32.207052 0.377211 1.478421 0.019606 -0.021423 -896824.000000 0 0 1
28.589409 11.157915 2.891799 30.825572 0.372100 1.476846 0.022036 -0.009419 -828934.000000 0 0 1
27.969969 11.693815 1.759099 30.367070 0.395999 1.512836 0.021014 -0.010376 -124397.000000 0 0 1
26.542979 11.114815 1.575899 28.819305 0.396563 1.516087 0.044763 0.001481 129282.000000 0 0 1
26.634259 9.743415 1.242099 28.387686 0.350701 1.527028 0.029188 -0.013259 536174.000000 0 0 1
25.351639 9.135215 1.114099 26.970335 0.345857 1.529476 0.031878 -0.017093 167464.000000 0 0 1
25.502249 7.636015 1.125299 26.644694 0.290929 1.528550 0.042472 -0.013831 15581.400000 0 0 1
25.865899 7.147015 2.389799 26.941338 0.269584 1.481976 0.047369 -0.005677 161280.000000 0 0 1
27.202349 7.157415 2.834999 28.270720 0.257286 1.470347 0.066199 -0.016945 -584188.000000 0 0 1
27.432879 6.394515 4.119399 28.467914 0.229008 1.425583 0.068208 -0.022812 395866.000000 0 0 1
28.825339 6.394215 4.458799 29.860795 0.218292 1.420916 0.078321 -0.019232 804509.000000 0 0 1
29.089449 5.710215 5.666399 30.181297 0.193834 1.381930 0.059373 -0.000365 -379039.000000 0 0 1
30.580689 5.762715 5.996899 31.691485 0.186259 1.380421 0.047344 -0.005202 -162253.000000 0 0 1
31.035179 7.101915 6.315099 32.457665 0.224961 1.374983 0.063467 -0.017195 -649388.000000 0 0 1
32.387759 7.109015 6.641199 33.817312 0.216070 1.373127 0.022128 -0.005384 -589770.000000 0 0 1
32.707039 8.424415 7.345499 34.564108 0.252092 1.356645 0.043940 -0.015257 84914.300000 0 0 1
31.847799 8.548615 8.471299 34.045911 0.262239 1.319335 0.044543 -0.019509 298103.000000 0 0 1
32.188359 9.603315 9.337399 34.864038 0.289940 1.299663 0.049178 -0.013790 -97740.400000 0 0 1
31.596269 9.373115 10.784999 34.677020 0.288383 1.254538 0.037706 -0.005750 114550.000000 0 0 1
30.224039 9.696215 10.846399 33.543308 0.310439 1.241523 0.035959 -0.006060 158297.000000 0 0 1
29.667119 9.365615 12.134499 33.393095 0.305788 1.198899 0.031232 -0.006306 337326.000000 0 0 1
28.170739 9.750615 12.308899 32.251729 0.333219 1.179215 0.034380 -0.012895 55695.300000 0 0 1
28.026689 11.171115 12.553499 32.678425 0.379289 1.176507 0.035152 -0.008888 245484.000000 0 0 1
28.114139 12.073615 11.459599 32.672610 0.405634 1.212435 0.044731 -0.016510 -717404.000000 0 0 1
26.912739 12.095815 10.530699 31.328899 0.422393 1.227988 0.042358 -0.014126 -643629.000000 0 0 1
27.119549 13.121215 9.611699 31.623109 0.450627 1.261965 0.032177 0.002891 212107.000000 0 0 1
26.094829 13.154715 8.635599 30.472286 0.466932 1.283467 0.025999 0.003077 -98146.100000 0 0 1
26.176119 14.288615 7.556299 30.764450 0.499663 1.322639 0.012546 0.009271 -77624.800000 0 0 1
25.934629 15.559015 8.037199 31.293522 0.540370 1.311053 0.022821 0.015811 348467.000000 0 0 1
25.909329 16.552215 7.061099 31.545654 0.568498 1.345046 0.016875 0.018586 -1154960.000000 0 0 1
25.715809 17.925615 7.827899 32.309542 0.608754 1.326083 0.022509 0.012319 34446.600000 0 0 1
24.421119 18.482915 7.928899 31.636635 0.647865 1.317472 0.024597 0.011095 342285.000000 0 0 1
23.463219 17.629615 8.540599 30.565795 0.644379 1.287610 0.028909 0.016591 -1772760.000000 0 0 1
22.161119 18.270015 8.879199 30.062416 0.689453 1.270965 0.028374 0.019907 -1371710.000000 0 0 1
21.343319 18.554915 7.796699 29.336167 0.715624 1.301793 0.028815 0.009360 -497746.000000 0 0 1
20.322319 19.431715 8.156099 29.276444 0.762999 1.288472 0.048323 0.005024 -166683.000000 0 0 1
19.455319 19.859815 6.907299 28.646684 0.795686 1.327276 0.040875 0.005182 31463.400000 0 0 1
20.096519 20.688315 5.982899 29.456265 0.799907 1.366262 0.034478 0.012860 58899.500000 0 0 1
19.295219 20.773915 4.823699 28.759852 0.822285 1.402276 0.016637 0.007295 -17263.100000 0 0 1
16.467908 17.063815 33.001372 40.638115 0.803168 0.623090 0.032473 -0.001905 -188966.000000 0 0 1
16.394708 17.904515 31.918132 40.101438 0.829388 0.650246 0.015633 -0.006844 -110694.000000 0 0 1
15.833208 17.237815 30.843672 38.719051 0.827845 0.649143 0.018833 -0.004087 -219365.000000 0 0 1
15.400508 18.150315 29.686332 38.051123 0.867175 0.675859 0.014249 -0.003619 -128526.000000 0 0 1
16.443508 18.522915 28.818802 38.000141 0.844797 0.709962 0.013461 -0.003162 -238591.000000 0 0 1
15.972908 19.021815 27.591472 37.124825 0.872303 0.732944 0.029594 -0.015129 -1035140.000000 0 0 1
17.116508 19.399815 26.649682 37.142069 0.847845 0.770580 0.026765 -0.002907 -107136.000000 0 0 1
17.793008 20.567515 27.156582 38.432978 0.857600 0.786120 0.036732 -0.011097 -388432.000000 0 0 1
18.851508 20.956315 26.358952 38.591979 0.838223 0.818912 0.023947 -0.004930 -657773.000000 0 0 1
19.311808 22.336415 26.743222 39.837938 0.857894 0.834834 0.039917 -0.015112 -280443.000000 0 0 1
18.492508 23.346815 26.238122 39.692389 0.900904 0.848597 0.038333 -0.019724 262034.000000 0 0 1
18.981608 24.596815 26.775012 41.014705 0.913545 0.859502 0.052483 -0.020645 276374.000000 0 0 1
18.100708 25.795415 26.322662 41.059976 0.958929 0.874894 0.064502 -0.019123 141615.000000 0 0 1
18.219508 26.296015 24.961902 40.577426 0.964877 0.908198 0.070766 -0.018108 84592.800000 0 0 1
17.160808 27.161215 24.583992 40.454884 1.007313 0.917649 0.068766 -0.028932 32099.700000 0 0 1
17.455608 28.003515 23.337882 40.417223 1.013394 0.955226 0.046112 -0.028228 603932.000000 0 0 1
18.638008 28.837315 23.418082 41.561673 0.997016 0.972236 0.061658 -0.027267 777630.000000 0 0 1
18.621508 29.819915 22.383582 41.677484 1.012581 1.003841 0.054519 -0.025111 738467.000000 0 0 1
19.991308 30.594215 22.391782 42.860825 0.992011 1.021098 0.065989 -0.020426 563531.000000 0 0 1
21.106008 29.858615 21.952582 42.648756 0.955478 1.030104 0.063361 -0.017042 -532244.000000 0 0 1
22.205808 30.683015 21.671782 43.637272 0.944330 1.051079 0.043262 -0.023525 -111814.000000 0 0 1
22.530708 30.742915 20.142482 43.110083 0.938346 1.084637 0.027823 -0.019371 418613.000000 0 0 1
21.656208 31.567215 19.341682 42.890338 0.969505 1.102959 0.022749 -0.012290 520107.000000 0 0 1
22.281908 31.656615 18.080382 42.726162 0.957483 1.133856 0.028534 -0.001112 84577.100000 0 0 1
21.638108 32.643815 17.091082 42.730920 0.985437 1.159312 0.023637 -0.008147 -384039.000000 0 0 1
22.000108 34.032015 17.350682 44.082071 0.996918 1.166252 0.038681 -0.006596 -5073.700000 0 0 1
22.068908 -34.466355 16.123782 43.987983 -1.001268 1.195498 0.038706 -0.001724 506502.000000 0 0 1
23.226908 34.388915 15.108082 44.162664 0.976759 1.221645 0.018130 0.002482 467491.000000 0 0 1
22.993008 33.183215 14.315782 42.833933 0.964844 1.230023 0.030515 -0.004803 -408888.000000 0 0 1
21.987708 33.334515 13.370582 42.112014 0.987697 1.247704 0.023304 -0.007057 -411275.000000 0 0 1
21.623108 32.028415 12.609582 40.649474 0.976962 1.255390 0.034009 -0.027672 46864.000000 0 0 1
22.578408 31.653715 11.610082 40.577533 0.951204 1.280620 0.041103 -0.037894 109734.000000 0 0 1
22.200808 30.512115 10.866682 39.267669 0.941782 1.290403 0.037707 -0.036093 -1064740.000000 0 0 1
23.364008 29.893715 10.082982 39.257835 0.907395 1.311045 0.032085 -0.036401 330437.000000 0 0 1
24.397408 29.283915 10.853882 39.630645 0.876176 1.293376 0.022287 -0.028859 554778.000000 0 0 1
25.288708 30.190215 11.503782 41.028099 0.873518 1.286598 0.022329 -0.026285 -786264.000000 0 0 1
26.675608 29.609715 11.824682 41.570981 0.837480 1.282368 0.014430 -0.020898 -160899.000000 0 0 1
26.688208 28.576115 12.791382 41.139692 0.819546 1.254630 0.016073 -0.016420 -987141.000000 0 0 1
27.873008 27.883915 12.679882 41.414934 0.785594 1.259632 0.006424 0.005386 -620952.000000 0 0 1
28.102308 26.881315 13.854082 41.282932 0.763195 1.228566 0.003412 -0.015800 -427601.000000 0 0 1
28.469508 27.562115 14.989382 42.365843 0.769205 1.209157 -0.012168 -0.013941 -190846.000000 0 0 1
28.660208 26.750015 16.116482 42.387638 0.750938 1.180766 0.010512 -0.021377 -1052720.000000 0 0 1
29.872208 27.127915 16.913182 43.753038 0.737290 1.173897 0.015959 -0.031881 -989505.000000 0 0 1
31.064408 26.577415 16.411582 44.053337 0.707712 1.189053 0.037978 -0.021082 -573820.000000 0 0 1
32.043408 26.698915 17.409382 45.196224 0.694666 1.175377 0.015879 -0.018513 -341733.000000 0 0 1
33.508608 26.726015 16.974082 46.100176 0.673268 1.193724 0.022603 -0.028713 -198047.000000 0 0 1
33.774208 27.895015 16.251682 46.722010 0.690351 1.215532 0.030033 -0.013635 -66520.800000 0 0 1
-35.058002 28.167215 16.181982 47.794478 -0.676839 1.225395 0.043189 -0.010889 296460.000000 0 0 1
-34.729002 29.314115 15.200082 47.921430 -0.701048 1.248034 0.027441 -0.006883 12464.000000 0 0 1
-35.097102 30.595315 15.621082 49.111079 -0.716977 1.247096 0.026991 -0.001206 -158154.000000 0 0 1
-35.086302 31.527815 14.523282 49.355623 -0.732029 1.272117 0.014988 0.025591 419128.000000 0 0 1
34.049408 32.648215 14.708782 49.412715 0.764393 1.268543 0.000435 0.024203 -421006.000000 0 0 1
34.003108 33.632515 13.690382 49.747201 0.779919 1.292000 -0.020000 0.028776 816809.000000 0 0 1
32.926408 34.588515 13.923382 49.743083 0.810012 1.287100 -0.024327 0.034984 1963150.000000 0 0 1
31.469608 34.076315 13.584082 48.332792 0.825146 1.285905 -0.010402 0.030598 444165.000000 0 0 1
31.027508 32.993915 14.325382 47.502856 0.816103 1.264459 -0.014639 0.009237 183163.000000 0 0 1
29.962108 32.251015 13.699182 46.103400 0.822173 1.269100 -0.004052 0.011584 112595.000000 0 0 1
29.305008 31.152815 14.583882 45.188174 0.815952 1.242177 0.003017 0.000927 -31924.200000 0 0 1
28.427908 31.778715 15.490782 45.365152 0.840996 1.222317 0.001047 0.003729 220867.000000 0 0 1
27.689808 30.799915 16.256882 44.493218 0.838522 1.196757 -0.003078 -0.009848 314852.000000 0 0 1
27.395808 31.341415 17.654282 45.216018 0.852471 1.169683 -0.006136 -0.004781 -155814.000000 0 0 1
27.234408 30.240815 18.580982 44.737823 0.837658 1.142490 -0.014188 -0.007099 -83208.900000 0 0 1
27.800508 30.507315 19.854982 45.801581 0.831788 1.122423 -0.020551 -0.012661 -4184.340000 0 0 1
27.646408 29.324315 20.811482 45.358099 0.814842 1.094123 -0.003665 -0.017430 36990.400000 0 0 1
26.437208 29.212315 21.534982 44.900343 0.835224 1.070578 0.007908 -0.018647 37750.800000 0 0 1
26.686008 28.510415 22.723082 45.181028 0.818439 1.043806 -0.005943 -0.020687 -226479.000000 0 0 1
25.431408 28.399515 23.586182 44.828529 0.840480 1.016739 0.025492 -0.025789 -269631.000000 0 0 1
24.389708 27.685215 22.952882 43.453007 0.848598 1.014290 0.043830 -0.022517 -85250.000000 0 0 1
23.126608 27.700415 23.582082 43.107628 0.875144 0.991959 0.047059 -0.027624 336061.000000 0 0 1
22.940008 26.648015 24.685232 42.961860 0.860036 0.958700 0.047060 -0.028866 -318968.000000 0 0 1
23.744408 26.822215 25.854772 44.178020 0.846190 0.945620 0.029567 -0.028597 148219.000000 0 0 1
23.469008 25.865315 26.885452 44.075349 0.833933 0.914750 0.039443 -0.026551 906702.000000 0 0 1
24.752408 25.656915 27.824922 45.223725 0.803339 0.908065 0.047546 -0.029449 1096220.000000 0 0 1
25.054408 26.813615 28.515812 46.474131 0.819302 0.910204 0.026235 -0.031707 124087.000000 0 0 1
26.126708 27.544615 27.948182 47.142461 0.811810 0.936209 0.006638 -0.019596 -449765.000000 0 0 1
26.279408 28.895215 28.681672 48.458014 0.832772 0.937398 -0.022944 -0.012968 -1044790.000000 0 0 1
26.646908 28.777715 30.058202 49.413664 0.823824 0.916883 -0.001666 -0.005303 268369.000000 0 0 1
27.130008 30.011115 30.535952 50.686771 0.835776 0.924236 0.001220 -0.009170 671374.000000 0 0 1
28.676508 30.209215 30.408402 51.571404 0.811421 0.940187 -0.003492 -0.009909 374083.000000 0 0 1
29.201008 30.215715 29.102302 51.113915 0.802474 0.965067 -0.026134 -0.009155 -777528.000000 0 0 1
30.595708 30.307015 29.166742 52.012608 0.780658 0.975489 0.008686 -0.010679 -212238.000000 0 0 1
31.176408 30.884515 27.848982 51.974874 0.780695 1.005322 0.006087 -0.014355 -384303.000000 0 0 1
30.914508 32.261015 27.645032 52.542628 0.806709 1.016736 -0.003449 -0.009205 279307.000000 0 0 1
31.581608 32.667815 26.462672 52.581909 0.802303 1.043422 -0.000314 -0.015051 -125872.000000 0 0 1
31.326008 34.162315 26.264632 53.274886 0.828681 1.055259 0.000216 -0.015041 83367.800000 0 0 1
31.976008 -34.266855 27.264222 54.221954 -0.819967 1.043931 0.017267 -0.021666 429290.000000 0 0 1
31.804908 -32.932455 26.920802 53.111471 -0.802814 1.039242 0.013411 -0.010528 -310126.000000 0 0 1
32.838208 -32.047555 27.646282 53.569680 -0.773213 1.028527 0.010211 -0.004915 -308414.000000 0 0 1
32.636508 -31.869855 29.045682 54.078470 -0.773514 1.003798 0.013810 -0.007288 100633.000000 0 0 1
33.695008 -31.174055 29.624712 54.633313 -0.746556 0.997688 0.015257 -0.011495 -482225.000000 0 0 1
33.202608 -30.606955 31.019792 54.785275 -0.744742 0.968900 0.028313 -0.023125 15756.500000 0 0 1
33.114908 -31.494555 32.091262 55.842217 -0.760324 0.958586 0.026023 -0.019296 306468.000000 0 0 1
32.067708 -32.426155 31.925412 55.668891 -0.790956 0.960040 0.017618 -0.015323 -471844.000000 0 0 1
32.059108 -33.378555 33.087472 56.891960 -0.805559 0.950121 0.015436 -0.016301 -381618.000000 0 0 1
31.862708 -32.701455 34.299008 57.105510 -0.798388 0.926513 0.013996 -0.020742 225946.000000 0 0 1
32.066308 -33.549955 -33.723331 57.368202 -0.808005 2.199183 0.013572 -0.019019 160378.000000 0 0 1
31.162108 34.446515 -33.524251 57.284508 0.835417 2.195952 0.011205 -0.018108 -110751.000000 0 0 1
31.496408 33.407215 -34.445714 57.398371 0.814830 2.214443 0.021156 -0.017700 -87563.100000 0 0 1
30.655408 32.304015 -34.354738 56.245458 0.811577 2.227867 0.020769 -0.011708 -331282.000000 0 0 1
30.744408 31.353115 33.593928 55.288231 0.795200 0.917743 0.010389 -0.005307 18204.100000 0 0 1
31.986408 30.677715 33.685078 55.668097 0.764517 0.920898 0.018367 -0.010580 9912.090000 0 0 1
32.226108 29.762315 32.639602 54.677794 0.745673 0.931109 0.012117 -0.008143 -821336.000000 0 0 1
33.627108 29.199315 32.709942 55.256880 0.715038 0.937306 0.021174 -0.006229 -809186.000000 0 0 1
33.858008 28.416615 33.812030 55.651794 0.698242 0.917806 0.021382 0.000994 -118008.000000 0 0 1
-35.043002 27.931415 33.758309 56.105253 -0.672946 0.925173 0.013521 0.002504 -80940.200000 0 0 1
-34.862802 26.649815 -34.542488 55.846317 -0.652666 2.237664 0.016316 0.000956 166452.000000 0 0 1
34.855208 25.529015 33.875628 54.901497 0.632161 0.905839 0.006091 0.003653 110166.000000 0 0 1
34.973308 24.395115 -34.449658 54.818180 0.609070 2.250336 0.015134 -0.002721 127359.000000 0 0 1
34.453508 23.077815 34.044491 53.653119 0.590186 0.883397 0.008916 -0.006608 65829.700000 0 0 1
-34.914802 22.514815 33.046772 53.085304 -0.572746 0.898835 0.010525 -0.001220 237069.000000 0 0 1
34.801008 21.291415 32.535272 52.182166 0.549054 0.897592 0.007352 0.002543 553701.000000 0 0 1
-34.369702 20.519615 31.648722 51.029136 -0.538230 0.901787 -0.002587 0.001928 603508.000000 0 0 1
-33.976102 21.175615 30.425592 50.284181 -0.557340 0.920939 0.000911 0.002548 489063.000000 0 0 1
-32.765802 20.640415 29.900502 48.925092 -0.562142 0.913285 0.015014 0.003951 518255.000000 0 0 1
-33.178602 19.638015 28.811672 48.130902 -0.534433 0.929031 0.011742 0.002164 -192989.000000 0 0 1
-33.820202 18.468615 29.253532 48.380420 -0.499830 0.921462 -0.001758 0.007463 103673.000000 0 0 1
-34.178702 17.707515 28.107122 47.662880 -0.478012 0.940101 0.000510 -0.001513 209310.000000 0 0 1
-34.845502 16.315415 28.456422 47.855718 -0.437903 0.933992 -0.010584 0.006059 -636179.000000 0 0 1
-33.892902 15.406115 28.832252 47.089022 -0.426634 0.911839 -0.003197 0.000733 -455524.000000 0 0 1
-34.472802 14.140915 29.170792 47.320975 -0.389273 0.906576 -0.009648 0.009252 -220980.000000 0 0 1
-33.572402 13.081115 29.826692 46.774495 -0.371543 0.879327 -0.009156 0.015263 -649942.000000 0 0 1
-33.265802 13.296315 31.183712 47.495574 -0.380247 0.854547 -0.008426 0.015993 274915.000000 0 0 1
-32.425302 12.275915 31.681792 46.966310 -0.361915 0.830422 -0.003579 0.012301 167824.000000 0 0 1
-30.898202 12.481815 31.619082 45.937577 -0.383920 0.811646 -0.002528 0.012155 -1035980.000000 0 0 1
-30.413802 12.581115 30.341992 44.765169 -0.392230 0.826025 0.005968 0.005828 988908.000000 0 0 1
-29.032902 12.944615 30.133612 43.800766 -0.419406 0.812108 0.019471 -0.000573 1044390.000000 0 0 1
-27.902602 11.996015 30.526562 43.061939 -0.406034 0.782860 0.013658 0.000971 -619514.000000 0 0 1
-27.849902 10.736415 29.841322 42.206542 -0.367953 0.785506 0.003672 -0.002018 -311159.000000 0 0 1
-26.695602 9.989915 30.150372 41.490945 -0.358083 0.757329 0.010636 -0.006681 -70885.100000 0 0 1
-26.139702 9.013015 29.096122 40.138545 -0.332036 0.759918 0.018263 -0.009124 293094.000000 0 0 1
-26.838402 7.777915 28.899782 40.199418 -0.282078 0.768563 0.024694 -0.009344 236235.000000 0 0 1
-28.174202 7.796715 28.433522 40.780383 -0.269976 0.799263 0.018004 -0.003495 -153926.000000 0 0 1
-28.972002 6.527615 28.481622 41.148384 -0.221607 0.806307 0.018989 -0.003424 -588220.000000 0 0 1
-29.419802 6.217115 29.716392 42.275776 -0.208260 0.791305 0.019821 -0.011662 -176180.000000 0 0 1
-30.120302 5.005315 29.697182 42.593526 -0.164673 0.799280 0.024678 -0.006798 -465775.000000 0 0 1
-30.587502 4.572915 31.066932 43.836756 -0.148404 0.783148 0.009167 -0.001676 -149339.000000 0 0 1
-31.724802 5.290515 31.496452 45.016432 -0.165242 0.795867 0.012495 -0.002996 -274299.000000 0 0 1
-32.195902 4.802715 32.705592 46.144317 -0.148080 0.783047 0.007057 -0.005522 395673.000000 0 0 1
-33.675402 5.172615 33.022762 47.447777 -0.152411 0.801011 -0.004311 -0.004991 412143.000000 0 0 1
-33.939502 6.514215 33.371843 48.041698 -0.189630 0.802872 -0.006633 -0.001581 -638780.000000 0 0 1
34.925108 6.788715 33.191776 48.657413 0.191985 0.820094 -0.006379 0.011408 -306922.000000 0 0 1
34.690108 8.313915 33.522797 48.952045 0.235226 0.816455 -0.010575 0.014503 -284068.000000 0 0 1
34.940308 8.537615 -34.277896 49.685915 0.239653 2.332136 -0.000777 0.006735 161419.000000 0 0 1
34.584808 9.850015 -33.857671 49.391028 0.277461 2.326090 -0.000066 0.012428 -158047.000000 0 0 1
34.537008 10.018315 -32.309881 48.343562 0.282326 2.302770 0.013245 0.003092 133798.000000 0 0 1
33.369008 9.555615 -31.642611 46.968663 0.278898 2.309995 0.019461 0.004501 321549.000000 0 0 1
33.428508 9.808515 -30.251271 46.139046 0.285407 2.285845 0.021481 0.010795 389833.000000 0 0 1
32.097608 9.252215 -29.679731 44.684968 0.280645 2.297219 0.022711 0.012154 238124.000000 0 0 1
32.082608 7.889215 -29.606981 44.363350 0.241119 2.301474 0.023346 0.004684 -57886.700000 0 0 1
30.827908 7.352815 -29.265561 43.138114 0.234137 2.316400 0.028108 0.004930 -240361.000000 0 0 1
34.110399 6.237015 -19.432101 39.749544 0.180850 2.081583 0.003866 -0.000144 -331609.000000 0 0 1
33.769519 7.377615 -18.576901 39.241698 0.215090 2.063940 0.003166 0.013947 812308.000000 0 0 1
34.380956 8.587415 -19.113601 40.263179 0.244764 2.065438 -0.003826 0.001840 961127.000000 0 0 1
-34.300709 8.839215 -18.844201 40.121992 -0.252210 2.059716 0.000579 -0.001309 834827.000000 0 0 1
-33.410722 7.970515 -19.475901 39.485645 -0.234184 2.086607 0.013844 -0.008389 -62377.700000 0 0 1
-33.089182 8.385015 -20.816101 39.981402 -0.248182 2.118402 0.002045 -0.004407 -585982.000000 0 0 1
-32.610272 7.143815 -21.554701 39.737502 -0.215660 2.144120 -0.003775 0.002998 306505.000000 0 0 1
-33.612712 6.337815 -22.221001 40.789155 -0.186366 2.146920 0.000205 0.005615 568355.000000 0 0 1
-33.916882 6.824115 -23.526601 41.838073 -0.198550 2.167991 0.002106 0.007448 -48764.000000 0 0 1
-33.813702 5.772415 -24.682801 42.260240 -0.169082 2.194526 0.011840 0.005983 1300890.000000 0 0 1
-32.446952 5.380115 -25.002301 41.314227 -0.164318 2.220781 0.009181 0.009993 1209520.000000 0 0 1
-32.344952 4.104915 -25.564641 41.431837 -0.126236 2.235758 0.007320 0.002807 392161.000000 0 0 1
-31.004432 3.966315 -26.376741 40.899131 -0.127236 2.271717 0.018922 -0.007400 859015.000000 0 0 1
-29.884602 4.176615 -25.522141 39.521048 -0.138859 2.272849 0.018883 -0.007476 596098.000000 0 0 1
-28.662752 3.897315 -26.249891 39.061480 -0.135143 2.307722 0.020426 -0.006279 23082.700000 0 0 1
-27.483602 4.359015 -25.438871 37.702593 -0.157294 2.311388 0.003014 -0.009212 -1074510.000000 0 0 1
-27.343902 5.716215 -25.471761 37.804427 -0.206081 2.310105 -0.015994 -0.000107 137800.000000 0 0 1
-26.107132 6.150215 -24.947701 36.630524 -0.231358 2.320010 -0.000737 -0.002410 -90659.400000 0 0 1
-25.833042 7.620515 -25.254541 36.921676 -0.286855 2.324033 -0.010638 -0.001505 -21300.300000 0 0 1
-26.591772 8.490515 -24.429901 37.094895 -0.309060 2.289725 -0.021770 0.007452 -338863.000000 0 0 1
-26.419902 9.890115 -24.834301 37.584147 -0.358195 2.292634 -0.040393 0.003704 -58561.900000 0 0 1
-25.068262 10.585015 -24.477201 36.600460 -0.399537 2.303346 -0.003744 0.001769 293420.000000 0 0 1
-24.951092 10.875615 -23.081101 35.687157 -0.411048 2.274128 -0.037068 0.014594 1056230.000000 0 0 1
-23.585192 11.213515 -22.753401 34.636995 -0.443813 2.287510 0.011971 0.010056 757372.000000 0 0 1
-23.344392 11.403515 -21.231401 33.552543 -0.454398 2.255935 0.021579 -0.007020 -1192920.000000 0 0 1
-23.674892 12.675415 -20.610101 33.851779 -0.491561 2.225386 0.014322 -0.000619 893761.000000 0 0 1
-25.022892 13.160915 -20.589201 34.975277 -0.484195 2.200220 -0.012470 0.013330 309057.000000 0 0 1
-26.004432 12.243915 -19.806101 34.905953 -0.440048 2.174157 -0.024925 0.020296 -954219.000000 0 0 1
-25.784602 12.203815 -18.385001 33.937988 -0.442059 2.143282 -0.019985 0.008143 266858.000000 0 0 1
-26.841242 11.548015 -17.705601 34.165732 -0.406296 2.115573 -0.024503 0.007635 -644537.000000 0 0 1
-26.612442 10.951415 -16.303801 33.075209 -0.390393 2.086252 0.004199 0.005589 -29134.000000 0 0 1
-25.757742 9.818615 -16.209501 31.978342 -0.364187 2.102369 0.018252 -0.000772 1164830.000000 0 0 1
-24.366592 10.176515 -16.217101 30.988492 -0.395622 2.121546 0.026507 0.000325 346543.000000 0 0 1
-23.434492 8.932515 -16.118001 29.811997 -0.364169 2.142012 0.026939 -0.000441 -549222.000000 0 0 1
-22.091692 9.184915 -15.856801 28.702677 -0.394021 2.156097 0.036169 0.000439 -182454.000000 0 0 1
-21.338492 7.980315 -15.707501 27.672048 -0.357882 2.174421 0.044411 0.001669 -973793.000000 0 0 1
-19.868192 8.301015 -15.701601 26.649431 -0.395760 2.200853 0.053162 -0.000782 -1295440.000000 0 0 1
-19.375092 8.789515 -16.927801 27.188236 -0.425885 2.242876 0.058915 -0.010632 635117.000000 0 0 1
-17.997192 9.136615 -16.754501 26.231469 -0.469764 2.263627 0.060398 -0.015334 -134324.000000 0 0 1
-17.374292 9.907315 -17.928601 26.859926 -0.518241 2.301623 0.043647 -0.010636 -141542.000000 0 0 1
-17.047492 9.174215 -19.108001 27.201083 -0.493705 2.349661 0.056984 -0.027400 540483.000000 0 0 1
-15.965492 8.257815 -18.969801 26.133155 -0.477336 2.383124 0.047892 -0.020503 -466602.000000 0 0 1
-15.405292 7.581615 -20.228601 26.533002 -0.457343 2.437801 0.024718 -0.009303 82941.300000 0 0 1
-16.106792 6.512715 -20.830901 27.125092 -0.384247 2.446441 0.011323 -0.015234 152395.000000 0 0 1
-17.317592 6.818415 -21.510901 28.444835 -0.375088 2.428332 0.025067 -0.014787 365844.000000 0 0 1
-18.031892 5.633315 -22.220901 29.165936 -0.302801 2.437005 0.027390 -0.009987 -10833.100000 0 0 1
-18.469492 4.650215 -21.368501 28.624456 -0.246652 2.413601 0.079697 -0.012217 116952.000000 0 0 1
-19.256592 3.654615 -21.969101 29.441704 -0.187555 2.413117 0.044542 -0.004058 -36294.400000 0 0 1
-20.230692 2.994915 -20.950901 29.277819 -0.146971 2.368264 0.041759 -0.003074 228759.000000 0 0 1
-21.134492 2.032115 -21.490901 30.210181 -0.095857 2.362255 0.039638 -0.006081 411204.000000 0 0 1
-22.042792 1.537215 -20.555201 30.178867 -0.069625 2.320077 0.030551 -0.011647 184484.000000 0 0 1
-22.972992 0.350615 -21.031901 31.148389 -0.015261 2.312054 0.028400 -0.010274 687103.000000 0 0 1
-22.244892 -0.902385 -20.951801 30.571678 0.040544 2.325858 0.027814 -0.012247 682424.000000 0 0 1
-23.070592 -2.035785 -21.289201 31.458333 0.088014 2.314126 0.028976 -0.015469 252251.000000 0 0 1
-23.464892 -2.195585 -22.820801 32.805650 0.093297 2.340102 0.029087 -0.021054 314006.000000 0 0 1
-22.337692 -2.414485 -23.670601 32.635863 0.107672 2.382258 0.014634 -0.013905 549219.000000 0 0 1
-21.673992 -3.706585 -23.603201 32.258515 0.169377 2.391593 0.015235 -0.021790 16096.500000 0 0 1
-20.412892 -3.674785 -24.472901 32.079792 0.178115 2.438546 0.013444 -0.010637 -329728.000000 0 0 1
-20.770692 -3.627485 -25.857801 33.364744 0.172901 2.457517 0.013363 -0.008611 536162.000000 0 0 1
-19.700992 -3.200585 -26.681581 33.320858 0.161051 2.499338 0.018703 -0.019481 -99253.100000 0 0 1
-20.141692 -3.214285 -28.132061 34.748126 0.158249 2.514266 0.006421 -0.016228 72455.200000 0 0 1
-20.465992 -4.506685 -28.605051 35.460062 0.216744 2.509315 0.002577 0.003281 -208399.000000 0 0 1
-21.377492 -4.553685 -29.629781 36.819249 0.209876 2.506027 -0.013409 -0.000672 -809016.000000 0 0 1
-21.260392 -5.815785 -30.476781 37.611990 0.267018 2.515450 -0.005480 0.001423 -683191.000000 0 0 1
-20.079392 -5.812985 -31.216321 37.569023 0.281796 2.551530 -0.002767 0.003365 -514033.000000 0 0 1
-19.799092 -7.079085 -31.680791 38.023545 0.343381 2.555646 -0.016897 0.009769 71990.400000 0 0 1
-18.392492 -7.128885 -32.345011 37.885413 0.369769 2.593959 -0.005717 -0.006981 -20442.100000 0 0 1
-18.321192 -6.716285 -33.701461 38.943074 0.351373 2.616751 0.004152 -0.017348 230586.000000 0 0 1
-18.671192 -7.758985 -34.570260 40.048947 0.393847 2.612371 0.002187 -0.011989 -628235.000000 0 0 1
-18.695092 -7.311685 33.070692 38.686404 0.372812 0.545554 0.014378 -0.013963 -162327.000000 0 0 1
-17.441492 -7.101785 32.473962 37.539302 0.386679 0.525515 0.018616 -0.017346 -58830.200000 0 0 1
-16.718892 -5.944385 32.904682 37.384157 0.341610 0.494561 0.023401 -0.024948 681162.000000 0 0 1
-15.300092 -5.873285 32.210432 36.140009 0.366527 0.470663 0.024413 -0.023217 793383.000000 0 0 1
-15.331892 -5.637185 30.819872 34.881360 0.352335 0.487380 0.011959 -0.015225 251166.000000 0 0 1
-14.170492 -4.980785 30.325742 33.841715 0.338002 0.459881 0.011237 -0.008649 254239.000000 0 0 1
-14.264492 -4.939585 28.826922 32.540232 0.333362 0.482397 0.005462 0.003045 -584502.000000 0 0 1
-15.276392 -4.190185 28.288552 32.421721 0.267707 0.510463 -0.001118 -0.000774 -842592.000000 0 0 1
-15.665192 -4.620685 27.010462 31.564443 0.286831 0.543847 -0.000104 -0.001736 -130862.000000 0 0 1
-14.821992 -4.145685 25.814942 30.054773 0.272729 0.537620 0.002928 0.001777 123519.000000 0 0 1
-14.906692 -2.744285 25.609292 29.758636 0.182059 0.534415 0.004019 0.010860 -311550.000000 0 0 1
-14.001592 -2.397085 24.604832 28.411060 0.169557 0.523589 0.000390 0.018288 -233219.000000 0 0 1
-13.808592 -0.906885 24.630812 28.252019 0.065581 0.511881 0.008542 0.011183 226853.000000 0 0 1
-14.838592 -0.142885 24.009582 28.225242 0.009629 0.553591 0.011638 0.005304 235622.000000 0 0 1
-14.730292 1.231115 24.413602 28.539816 -0.083383 0.544430 0.009851 0.008653 -30660.300000 0 0 1
-15.587392 2.257315 23.593582 28.367576 -0.143817 0.588617 0.011519 0.003548 -2182.240000 0 0 1
-14.972592 2.790215 22.436482 27.117514 -0.184241 0.596370 0.011634 0.010527 -319611.000000 0 0 1
-15.712692 3.814515 21.865982 27.194860 -0.238159 0.636723 0.006174 0.008733 -585701.000000 0 0 1
-15.087392 4.626715 20.722682 26.047369 -0.297557 0.650837 0.010425 0.013234 -460119.000000 0 0 1
-14.231992 5.596815 21.246482 26.177986 -0.374679 0.623883 0.014354 0.013964 -435639.000000 0 0 1
-13.100892 5.641115 20.406882 24.897719 -0.406596 0.610034 0.012960 0.015655 136824.000000 0 1 0
-12.031992 6.701515 20.833682 24.974416 -0.508182 0.584114 0.008852 0.011967 338507.000000 0 1 0
-12.457992 8.008415 20.614982 25.383336 -0.571321 0.622975 0.011586 0.012422 44254.100000 0 0 1
-11.358492 8.884915 20.501982 25.065680 -0.663809 0.612992 0.012156 0.008800 9174.400000 0 0 1
-11.729792 10.372015 20.590082 25.867319 -0.724042 0.650158 0.010751 0.011930 -72140.300000 0 0 1
-12.508092 10.862315 19.514082 25.597689 -0.715093 0.703879 0.023017 0.015769 100978.000000 0 0 1
-12.843292 12.213115 19.769282 26.550609 -0.760253 0.730878 0.003999 0.018614 -261605.000000 0 0 1
-13.182192 12.935015 18.457082 26.110318 -0.775934 0.785707 0.004054 0.021172 28116.700000 0 0 1
-12.081292 13.555515 17.815282 25.438040 -0.842839 0.794922 0.009914 0.014788 121971.000000 0 0 1
-11.866792 14.932215 18.193882 26.359233 -0.899289 0.808992 0.010424 0.008792 177619.000000 0 0 1
-12.908892 16.039015 17.729482 27.170279 -0.893109 0.859875 0.009648 0.010028 283288.000000 0 0 1
-12.834992 16.453315 16.355782 26.513397 -0.908317 0.906014 0.009007 -0.000667 70907.900000 0 0 1
-13.268292 15.501915 15.411482 25.570896 -0.862879 0.923921 0.013134 0.004893 -267562.000000 0 0 1
-13.555492 15.996815 13.997582 25.210747 -0.867821 0.982165 0.006329 -0.008753 -553506.000000 0 0 1
-14.611792 16.889615 13.990482 26.353314 -0.857581 1.011156 0.014569 -0.014474 -444788.000000 0 0 1
-15.088892 17.128315 12.641882 26.093505 -0.848616 1.065023 0.003306 -0.019761 27594.100000 0 0 1
-16.156292 18.226015 12.533982 27.391862 -0.845523 1.095524 0.021286 -0.020931 803470.000000 0 0 1
-17.454592 17.803915 13.042382 28.137980 -0.795305 1.088838 0.037901 -0.023038 486442.000000 0 0 1
-18.190992 18.910915 13.366182 29.448085 -0.804800 1.099671 0.045721 -0.027296 -1235630.000000 0 0 1
-19.660892 18.584315 13.507082 30.238530 -0.757256 1.107740 0.040232 -0.011766 -762390.000000 0 0 1
-20.337292 18.183415 12.345182 29.944040 -0.729542 1.145846 0.034019 -0.015536 470124.000000 0 0 1
-21.685692 17.818215 12.674982 30.796318 -0.687808 1.146615 0.047991 -0.009041 607033.000000 0 0 1
-22.483592 17.208715 11.553682 30.580048 -0.653278 1.183358 0.026500 -0.005945 69502.600000 0 0 1
-21.906592 15.955315 11.136282 29.299959 -0.629490 1.180915 0.027546 0.008035 557444.000000 0 0 1
-22.838292 15.355115 10.242882 29.364669 -0.591921 1.214488 0.011870 0.000000 174453.000000 0 0 1
-22.336692 14.076815 9.570082 28.083287 -0.562337 1.223055 0.035874 0.013479 -708994.000000 0 0 1
-22.369592 12.884915 10.328382 27.804589 -0.522587 1.190212 0.020333 0.010101 -283499.000000 0 0 1
-23.615292 12.289715 10.517882 28.624202 -0.479845 1.194534 0.008643 -0.002335 -492655.000000 0 0 1
-24.314692 11.620615 9.306082 28.510456 -0.445833 1.238294 0.009685 0.001482 -344056.000000 0 0 1
-24.446792 12.479915 8.203982 28.647849 -0.472007 1.280357 0.012615 0.001770 -78868.600000 0 0 1
-25.267602 11.942815 7.190482 28.858024 -0.441532 1.318976 0.004977 0.004280 -1042760.000000 0 0 1
-25.284942 12.843315 5.945882 28.976413 -0.469982 1.364131 -0.002164 0.004800 -123476.000000 0 0 1
-24.080692 12.929615 5.170882 27.817129 -0.492752 1.383820 0.001313 0.001947 332168.000000 0 0 1
-23.070292 13.571715 5.888082 27.406191 -0.531755 1.354263 0.010358 -0.005998 -1596520.000000 0 0 1
-23.141592 15.113615 6.052282 28.294606 -0.578547 1.355228 0.002028 -0.009121 -1261230.000000 0 0 1
-21.962092 15.738715 6.443182 27.776883 -0.621801 1.336702 -0.021560 -0.006036 29059.000000 0 0 1
-22.207792 17.136115 6.641482 28.826060 -0.657199 1.338309 -0.008188 -0.012035 202034.000000 0 0 1
-20.886492 17.955415 6.599882 28.323152 -0.710079 1.335614 -0.006819 -0.014535 247722.000000 0 0 1
-20.303992 18.034315 5.312482 27.671485 -0.726266 1.377613 -0.011342 -0.021261 470184.000000 0 0 1
-18.946592 18.440515 5.419582 26.988846 -0.771863 1.368613 -0.011156 -0.020972 163677.000000 0 0 1
-18.496092 19.249915 4.172982 27.019963 -0.805366 1.415735 0.004981 -0.018731 650520.000000 0 0 1
-17.104492 19.625815 4.182582 26.367219 -0.853935 1.411495 0.000228 -0.022788 927976.000000 0 0 1
-16.808092 20.825715 3.486282 26.988452 -0.891751 1.441258 0.015856 -0.011426 -63958.500000 0 0 1
-17.163192 22.193815 4.091082 28.352734 -0.912529 1.425999 0.014463 -0.016056 -293129.000000 0 0 1
-16.431092 22.422515 5.280282 28.295430 -0.938398 1.383083 0.033868 -0.013939 242309.000000 0 0 1
-16.611792 23.735515 5.686282 29.523890 -0.960157 1.376986 0.025859 -0.012393 -71322.500000 0 0 1
-15.833192 24.034715 7.026082 29.626396 -0.988285 1.331359 0.020756 -0.006362 272465.000000 0 0 1
-16.426892 23.354215 8.119182 29.684731 -0.957805 1.293752 0.014558 -0.011144 518982.000000 0 0 1
-15.585292 23.325015 9.267882 29.544057 -0.981747 1.251712 0.009555 -0.008685 69528.900000 0 0 1
-16.276492 22.539115 10.367882 29.672022 -0.945363 1.213848 -0.001800 -0.012668 191511.000000 0 0 1
-17.474392 23.209415 10.736082 30.972484 -0.925441 1.216817 0.004166 -0.013141 -186171.000000 0 0 1
-18.292692 22.438215 11.591882 31.184416 -0.886827 1.189935 0.011784 -0.017327 -350101.000000 0 0 1
-19.474992 23.261415 12.063682 32.648142 -0.873767 1.192319 0.020358 -0.022196 -238959.000000 0 0 1
-20.324192 23.876915 11.073082 33.253466 -0.865602 1.231323 0.022719 -0.022250 445463.000000 0 0 1
-19.780292 25.112615 10.601482 33.679293 -0.903623 1.250574 0.005367 -0.016697 -507895.000000 0 0 1
-20.775392 26.139815 10.030082 34.864156 -0.899247 1.278982 0.005746 -0.010210 15013.800000 0 0 1
-21.497192 26.706215 11.123482 36.042795 -0.893044 1.257056 0.011351 -0.019790 339862.000000 0 0 1
-22.538792 27.596315 10.724982 37.209931 -0.885936 1.278419 0.009775 -0.010037 -150706.000000 0 0 1
-23.436092 27.933615 11.912682 38.359474 -0.872728 1.255021 0.004571 -0.024909 -853184.000000 0 0 1
-22.868792 28.675815 12.927982 38.889802 -0.897585 1.231922 0.019732 -0.008888 146111.000000 0 0 1
-23.844192 29.193615 13.821082 40.147664 -0.885919 1.219350 0.012684 -0.008331 136416.000000 0 0 1
8.628808 -32.691155 27.938712 43.860456 -1.312733 0.880208 -0.010516 -0.001336 -731145.000000 0 0 1
9.972908 -32.935255 27.699492 44.175239 -1.276770 0.893053 -0.013150 0.002422 -544649.000000 0 0 1
10.316508 -32.553255 26.402572 43.165270 -1.263897 0.912636 0.003633 -0.010163 -701349.000000 0 0 1
11.766108 -32.842455 26.057792 43.543962 -1.226783 0.929263 -0.015973 -0.008851 -670686.000000 0 0 1
11.989108 -34.234155 25.826312 44.527682 -1.233935 0.952061 -0.007376 -0.010434 13098.900000 0 0 1
13.360508 -34.553755 25.919632 45.213853 -1.201844 0.960308 0.020654 -0.014424 -358022.000000 0 0 1
13.836408 33.312215 25.647202 44.259788 1.177123 0.952719 0.046150 -0.008986 -120406.000000 0 0 1
13.942508 32.971915 24.315012 43.275404 1.170740 0.974156 0.034543 -0.020994 81196.900000 0 0 1
14.864008 31.927415 24.152522 42.704132 1.135081 0.969662 0.054224 -0.021154 -234033.000000 0 0 1
15.025008 31.426015 22.693982 41.573575 1.124816 0.993363 0.052399 -0.027000 494954.000000 0 0 1
13.931708 30.614815 22.210382 40.307077 1.143739 0.987199 0.033431 -0.015008 441123.000000 0 0 1
14.070608 29.244615 22.451282 39.462509 1.122354 0.965596 0.035361 -0.011611 -501954.000000 0 0 1
13.493108 28.702715 23.775182 39.637976 1.131355 0.927535 0.052973 -0.015199 -518952.000000 0 0 1
14.291408 28.790715 24.968292 40.700924 1.110041 0.910365 0.062342 -0.015518 -171424.000000 0 0 1
13.604508 28.580515 26.157622 41.062753 1.126527 0.880176 0.055963 -0.015746 -523648.000000 0 0 1
14.522808 28.741915 27.399912 42.281968 1.102931 0.865804 0.052273 -0.024681 145.394000 0 0 1
14.639708 30.108115 27.681892 43.440843 1.118219 0.879895 0.053975 -0.019014 -4303.390000 0 0 1
15.483708 30.424015 28.752802 44.632831 1.100030 0.870810 0.079912 -0.026291 -116089.000000 0 0 1
15.393708 31.886715 29.218482 45.906956 1.121034 0.880881 0.081268 -0.031373 223231.000000 0 0 1
16.072708 32.755215 28.288812 46.168095 1.114623 0.911279 0.073819 -0.025791 257483.000000 0 0 1
16.069908 34.043215 28.786172 47.390148 1.129762 0.917976 0.078997 -0.015369 -238548.000000 0 0 1
16.848308 -34.178955 28.038952 47.310139 -1.112809 0.936436 0.071750 -0.024311 -602087.000000 0 0 1
16.249308 -33.863455 26.781362 46.130412 -1.123400 0.951383 0.079288 -0.022949 -52992.700000 0 0 1
16.689108 -32.587055 26.254552 45.052680 -1.097485 0.948685 0.055306 -0.028049 30074.600000 0 0 1
18.182608 -32.347155 25.912052 45.259033 -1.058704 0.961211 0.046358 -0.015292 -70117.700000 0 0 1
19.000708 -32.165755 27.032542 46.113133 -1.037234 0.944408 0.034330 -0.017806 -476425.000000 0 0 1
19.925608 -31.163255 26.701842 45.619806 -1.001913 0.945531 0.031043 -0.020697 -323961.000000 0 0 1
20.437008 -30.223455 27.858832 45.904717 -0.976225 0.918662 0.039565 -0.019538 -378363.000000 0 0 1
19.419208 -29.389055 28.286932 45.177126 -0.986892 0.894211 0.032036 -0.011766 -124437.000000 0 0 1
19.857808 -28.660855 29.411402 45.615871 -0.964882 0.870084 0.043269 -0.008785 762610.000000 0 0 1
18.645208 -28.001555 30.190002 45.201406 -0.983350 0.839413 0.012817 -0.007961 1168780.000000 0 0 1
17.849208 -27.133855 29.354772 43.778339 -0.988943 0.835871 0.028071 -0.006640 456257.000000 0 0 1
16.684908 -26.685455 30.034182 43.503468 -1.012022 0.808774 0.014924 -0.004889 143460.000000 0 0 1
15.693608 -26.008655 29.072112 42.046726 -1.027881 0.807338 0.007113 0.013626 -205593.000000 0 0 1
14.934408 -26.832455 28.157022 41.663354 -1.062915 0.828717 0.007515 0.005517 449074.000000 0 0 1
14.345408 -26.159355 27.065792 40.282250 -1.069194 0.834020 0.005403 -0.018935 -945887.000000 0 0 1
12.907408 -25.723655 27.292592 39.663499 -1.105732 0.811924 0.002333 -0.001537 -356043.000000 0 0 1
11.822208 -26.641855 27.262742 39.910026 -1.153156 0.818790 0.001769 0.000190 495164.000000 0 0 1
11.547308 -27.130555 26.007502 39.316631 -1.168401 0.847994 0.005449 -0.000297 -638240.000000 0 0 1
10.638808 -28.412455 26.029732 39.974977 -1.212515 0.861697 0.009535 0.005786 841176.000000 0 0 1
9.267408 -28.117855 26.372062 39.648257 -1.252417 0.843101 -0.010174 0.001594 554954.000000 0 0 1
8.618108 -29.346155 26.506192 40.472791 -1.285156 0.856728 -0.013822 -0.000782 335924.000000 0 0 1
7.101908 -29.250455 26.877192 40.353558 -1.332609 0.841906 -0.004309 -0.002948 1109480.000000 0 0 1
6.066708 -28.892855 25.957252 39.311333 -1.363830 0.849579 0.012140 -0.008894 468805.000000 0 0 1
6.184708 -27.587655 25.339832 37.966253 -1.350259 0.840044 0.007473 -0.012551 -387994.000000 0 0 1
5.012508 -27.277055 24.358602 36.912118 -1.389061 0.850100 0.023699 -0.014441 -152013.000000 0 0 1
4.737008 -28.122155 23.234182 36.784807 -1.403919 0.887150 0.012421 -0.012398 -211252.000000 0 0 1
4.215808 -29.449155 23.454182 37.883036 -1.428607 0.903173 0.012803 -0.007733 -272958.000000 0 0 1
2.810208 -29.565655 24.074082 38.230703 -1.476031 0.889622 -0.002645 -0.005382 -809544.000000 0 0 1
1.737708 -29.287255 23.194682 37.399949 -1.511533 0.901825 -0.011386 0.003558 631078.000000 0 0 1
0.500808 -29.177155 23.927482 37.737005 -1.553634 0.884005 -0.010059 -0.001526 809451.000000 0 0 1
0.185108 -27.668655 24.160112 36.732816 -1.564106 0.853001 -0.002053 -0.000754 -645917.000000 0 0 1
1.119508 -27.060155 25.005372 36.861551 -1.529449 0.825269 0.009306 -0.008033 -243091.000000 0 0 1
1.169208 -25.676955 25.023772 35.872862 -1.525292 0.798798 0.018439 -0.005048 106357.000000 0 0 1
2.312608 -25.027555 25.869442 36.068749 -1.478655 0.770983 0.025093 -0.003839 465804.000000 0 0 1
3.444908 -24.618855 25.080442 35.312660 -1.431769 0.780958 0.016210 -0.010732 1057160.000000 0 0 1
4.489308 -23.992555 25.869502 35.567228 -1.385823 0.756357 0.016519 -0.008531 919633.000000 0 0 1
4.132008 -22.524255 26.250632 34.835488 -1.389367 0.717335 0.021435 -0.005142 -311944.000000 0 0 1
4.353908 -21.637655 25.125062 33.442688 -1.372229 0.720786 0.015867 -0.005493 183878.000000 0 0 1
3.819008 -20.342055 25.411432 32.773845 -1.385217 0.683516 0.017264 -0.008733 -288.033000 0 0 1
3.787508 -19.372355 24.249972 31.268107 -1.377721 0.683211 0.004162 -0.008622 -453634.000000 0 0 1
5.062108 -18.895655 23.945582 30.920246 -1.309045 0.684982 0.005660 0.001074 -586126.000000 0 0 1
5.127508 -18.142955 22.765382 29.558768 -1.295362 0.691683 -0.002596 0.002175 101242.000000 0 0 1
6.523508 -17.628255 22.361982 29.212493 -1.216364 0.698988 0.009905 0.002551 -368399.000000 0 0 1
7.331808 -18.617155 21.648682 29.479133 -1.195629 0.746054 0.021912 -0.000995 426958.000000 0 0 1
8.650708 -18.138055 21.421682 29.371964 -1.125769 0.753463 0.021676 0.004628 -64760.600000 0 0 1
9.551008 -18.443555 22.591782 30.688354 -1.092970 0.743406 0.006597 0.009207 -1234360.000000 0 0 1
9.319908 -17.567655 23.714482 30.949311 -1.083036 0.697833 0.000899 0.016219 -373456.000000 0 0 1
10.345108 -17.736655 24.640942 32.074698 -1.042775 0.694715 -0.010026 0.026611 -253609.000000 0 0 1
10.350808 -16.779255 25.873922 32.529102 -1.018056 0.651115 -0.009643 0.015250 -260595.000000 0 0 1
10.646808 -15.436655 25.640852 31.766305 -0.967010 0.631452 -0.001451 0.018688 157183.000000 0 0 1
10.679108 -14.677555 26.857412 32.415961 -0.941799 0.594329 -0.011230 0.014888 -224003.000000 0 0 1
10.943408 -13.176255 26.706402 31.727020 -0.877709 0.570269 0.003311 0.015219 -859950.000000 0 0 1
9.892808 -12.418155 26.247842 30.676171 -0.898107 0.544005 0.001679 0.018121 -660732.000000 0 0 1
10.240108 -11.021755 26.197862 30.210377 -0.822144 0.521283 0.011754 0.019143 -403318.000000 0 0 1
9.252008 -10.139355 25.469772 28.932948 -0.831126 0.494295 0.006266 0.022660 -341467.000000 0 0 1
8.048608 -9.827355 26.155722 29.077118 -0.884577 0.452105 -0.020945 0.014687 -177454.000000 0 0 1
7.175808 -9.342055 25.173342 27.793225 -0.915800 0.437682 -0.018803 0.020434 -452230.000000 0 0 1
5.696508 -9.380255 25.587062 27.841285 -1.025036 0.405176 -0.023662 0.014999 -953412.000000 0 0 1
5.227708 -8.318455 26.361372 28.132678 -1.009722 0.356748 -0.016501 0.010976 1303090.000000 0 0 1
3.829908 -8.397055 26.753092 28.300295 -1.142880 0.332194 -0.028083 0.009735 1473430.000000 0 0 1
2.744708 -8.235655 25.694252 27.121099 -1.249101 0.325816 -0.022532 0.003856 -761107.000000 0 0 1
2.724408 -6.961455 25.109172 26.198374 -1.197764 0.289366 -0.012784 0.005459 31212.500000 0 0 1
1.669508 -6.899755 24.163192 25.184395 -1.333393 0.285748 -0.005156 -0.003861 72492.500000 0 0 1
1.763308 -5.623155 23.364082 24.095839 -1.266928 0.247077 -0.000681 -0.007071 -162202.000000 0 1 0
1.518008 -4.482155 24.165952 24.624933 -1.244243 0.193375 0.001537 0.001344 215405.000000 0 1 0
2.058308 -3.276355 23.608982 23.923946 -1.009877 0.162445 -0.001627 0.003618 -582458.000000 0 1 0
1.189808 -2.670355 22.472082 22.661441 -1.151639 0.129365 0.006939 -0.007340 706971.000000 0 1 0
0.160508 -1.763355 22.873382 22.941813 -1.480022 0.077257 0.017722 -0.008176 1054100.000000 0 1 0
-0.984792 -2.338355 23.545782 23.682094 1.172193 0.107345 0.023712 -0.008731 214875.000000 0 1 0
-1.846492 -1.327355 24.324452 24.430522 0.623267 0.093218 0.037277 -0.001686 -16933.100000 0 1 0
-1.097692 -0.510355 25.217952 25.246990 0.435204 0.047966 0.031369 -0.003610 356658.000000 0 0 1
-1.864392 0.580645 25.735912 25.809887 -0.301919 0.075730 0.032648 -0.001988 -479220.000000 0 0 1
-1.316892 1.188645 26.982542 27.040796 -0.734258 0.065652 0.023318 -0.004767 -824842.000000 0 0 1
-1.571692 0.566645 28.222212 28.271621 -0.346027 0.059130 0.023461 -0.003252 233313.000000 0 0 1
-0.713392 -0.496355 28.681152 28.694316 0.607880 0.030292 0.020940 0.000113 -394397.000000 0 0 1
0.679708 -0.044355 29.179492 29.187442 -0.065163 0.023339 0.013523 -0.002825 -693361.000000 0 0 1
1.611408 0.369645 28.206952 28.255361 0.225492 0.058545 0.011054 0.000118 -50428.600000 0 0 1
2.266608 -0.608355 27.458282 27.558390 -0.262219 0.085262 0.006743 0.001144 -41652.700000 0 0 1
3.230508 -1.554355 28.241332 28.467965 -0.448453 0.126266 -0.003644 0.001423 -353115.000000 0 0 1
2.479708 -2.573355 28.905892 29.125963 -0.803929 0.123007 -0.007323 0.004692 -66826.200000 0 0 1
3.254208 -3.666355 29.290842 29.698240 -0.844882 0.165828 -0.009453 0.012468 -199450.000000 0 0 1
3.744608 -4.542555 28.156582 28.765431 -0.881389 0.206112 -0.014729 0.014286 57586.100000 0 0 1
4.848608 -4.018355 27.446482 28.159644 -0.692036 0.225536 -0.001751 0.005678 -291028.000000 0 0 1
5.120708 -4.741455 26.256952 27.168559 -0.746962 0.259781 -0.011601 0.005637 -364366.000000 0 0 1
6.299608 -4.025355 25.525742 26.597971 -0.568593 0.284908 -0.008195 0.006969 -123704.000000 0 0 1
7.552308 -4.115355 26.140422 27.518997 -0.498930 0.317866 -0.007265 0.005266 -253978.000000 0 0 1
8.196708 -5.399255 26.132382 27.914860 -0.582474 0.359292 -0.000879 0.010191 -827690.000000 0 0 1
8.964008 -5.741555 24.878722 27.060483 -0.569676 0.404308 0.002632 0.002517 -1062000.000000 0 0 1
8.193008 -5.862755 23.696582 25.749277 -0.621106 0.401997 0.002886 0.008873 -386975.000000 0 0 1
8.936008 -5.884155 22.501982 24.916154 -0.582311 0.443843 0.007174 0.005848 -30469.000000 0 1 0
9.155208 -4.534155 21.879682 24.147399 -0.459844 0.436851 0.005671 0.011759 952245.000000 0 1 0
7.897808 -3.991355 21.464882 23.217396 -0.467938 0.391029 -0.003682 0.004999 348667.000000 0 1 0
8.215908 -2.836355 20.702182 22.452760 -0.332417 0.397497 0.003204 0.008768 177356.000000 0 1 0
6.984808 -1.990355 20.352182 21.609266 -0.277597 0.342772 0.003477 0.007633 31549.700000 0 1 0
6.509508 -1.270355 21.469182 22.470276 -0.192731 0.299622 0.006123 0.007347 -367043.000000 0 1 0
5.206208 -0.766355 21.321382 21.961176 -0.146151 0.241973 -0.003394 0.013892 -302593.000000 0 1 0
4.716808 -0.205355 22.672982 23.159330 -0.043509 0.205300 -0.008679 0.007982 -737092.000000 0 1 0
3.480308 0.403645 22.474282 22.745743 0.115464 0.154651 -0.007056 0.005543 -809449.000000 0 1 0
2.913508 0.647645 23.735382 23.922298 0.218734 0.125089 -0.005161 0.006876 -495675.000000 0 1 0
1.463608 1.111645 23.683482 23.754689 0.649569 0.077448 -0.002619 0.001276 -781123.000000 0 1 0
1.251708 2.445645 23.297082 23.458517 1.097745 0.117385 -0.001695 0.005222 -6531.140000 0 1 0
-0.082792 2.680645 22.918982 23.075365 -1.539921 0.116488 -0.000226 -0.005913 -193016.000000 0 1 0
-0.448692 4.102645 22.539782 22.914511 -1.461863 0.181097 0.006896 -0.001981 -329542.000000 0 1 0
-0.608092 5.037645 23.606082 24.145285 -1.450668 0.211732 0.006328 -0.001938 -117314.000000 0 1 0
-1.275692 6.144645 23.091682 23.929268 -1.366094 0.265363 0.008703 -0.006886 -421471.000000 0 1 0
-1.184692 7.403645 23.938682 25.085414 -1.412127 0.303531 0.011882 -0.002479 -479089.000000 0 0 1
-0.164592 8.294645 23.656582 25.069147 -1.550956 0.337295 0.008717 0.000572 -649944.000000 0 0 1
-0.390192 9.567645 24.175472 26.002799 -1.530037 0.377129 0.020829 -0.002349 -562152.000000 0 0 1
0.303708 10.716645 23.450182 25.784681 1.542464 0.428809 0.026277 -0.008198 1948850.000000 0 0 1
1.766008 10.840645 23.362882 25.815938 1.409309 0.439466 0.026674 -0.011376 2182740.000000 0 0 1
2.452708 11.089645 24.611962 27.106175 1.353129 0.432350 0.035543 -0.007764 -390469.000000 0 0 1
3.846608 11.751645 24.540512 27.479707 1.254463 0.466737 0.030436 -0.011413 496304.000000 0 0 1
4.951708 10.909645 24.204582 27.007436 1.144718 0.459624 0.027619 -0.008339 306275.000000 0 0 1
4.925308 10.415645 22.862882 25.601870 1.129082 0.466793 0.027849 -0.010155 -1258120.000000 0 0 1
6.277508 10.043645 22.264382 25.218736 1.012181 0.488898 0.032894 -0.007690 -29970.600000 0 0 1
7.120608 11.187645 22.028982 25.712692 1.003991 0.541889 0.028439 -0.010322 117347.000000 0 0 1
8.380008 10.715645 21.595782 25.523076 0.907106 0.562119 0.028528 -0.006442 31893.800000 0 0 1
9.164808 11.833645 20.837482 25.655985 0.911817 0.622904 0.018281 -0.013270 -364521.000000 0 0 1
8.755708 12.088645 19.486382 24.546219 0.943952 0.653658 0.010996 -0.019109 189160.000000 0 1 0
9.490208 13.122645 18.837882 24.842176 0.944673 0.710091 0.015690 -0.017320 -466261.000000 0 1 0
10.916308 12.808645 18.429982 24.957793 0.864991 0.740033 0.004735 -0.012476 -771109.000000 0 1 0
11.865008 12.692645 19.458682 26.086816 0.819087 0.728881 0.017584 -0.011930 95478.000000 0 0 1
13.155008 12.458645 18.917882 26.194625 0.758218 0.763812 0.025892 -0.011885 1191950.000000 0 0 1
14.348308 12.167645 19.933082 27.409001 0.703343 0.756496 0.030503 -0.004392 830508.000000 0 0 1
14.746308 13.280645 20.656382 28.644638 0.733151 0.765371 0.022570 -0.004747 -412.985000 0 0 1
15.785908 12.939645 21.570282 29.696909 0.686636 0.757803 0.016374 -0.000360 238484.000000 0 0 1
16.385708 14.268645 22.139382 31.019960 0.716445 0.776010 0.012863 0.003700 -516423.000000 0 0 1
15.662708 14.972645 23.056082 31.639903 0.762877 0.754371 0.013644 0.001529 -417781.000000 0 0 1
16.430408 16.001645 23.648982 32.943669 0.772179 0.770071 0.008753 0.003740 -65506.100000 0 0 1
-20.505192 12.928215 -24.801301 34.680054 -0.562534 2.367629 -0.008545 0.001157 -8187.500000 0 0 1
-20.257492 12.917515 -26.160861 35.519274 -0.567656 2.398716 -0.007718 -0.017503 181214.000000 0 0 1
-21.016292 13.913815 -26.853051 36.828863 -0.584799 2.387847 -0.000650 -0.016517 72080.500000 0 0 1
-20.867892 13.807815 -28.410131 37.858423 -0.584541 2.419510 0.008058 -0.010138 -6291.520000 0 0 1
-19.534692 13.994615 -28.814431 37.519660 -0.621647 2.446481 -0.001410 -0.001362 -372907.000000 0 0 1
-19.512392 14.374415 -30.195781 38.718761 -0.634923 2.465262 0.001718 -0.004636 352302.000000 0 0 1
-18.113292 14.790215 -30.731041 38.616560 -0.684745 2.491123 -0.011546 -0.005241 101199.000000 0 0 1
-17.167992 13.739415 -30.808001 37.850289 -0.674919 2.521705 -0.018697 -0.009294 -35062.600000 0 0 1
-15.848492 14.273715 -30.809051 37.471473 -0.733166 2.536062 -0.022189 0.001391 311093.000000 0 0 1
-15.154092 13.857315 -29.484351 35.930469 -0.740729 2.533247 -0.006629 -0.001552 -733854.000000 0 0 1
-15.562292 14.352815 -28.283441 35.329043 -0.744990 2.499045 -0.009383 -0.001534 -744789.000000 0 0 1
-16.290292 13.422515 -27.552851 34.708747 -0.689180 2.487878 0.004367 -0.001940 -423093.000000 0 0 1
-16.980892 13.994215 -26.300771 34.291680 -0.689273 2.444906 0.002967 -0.002109 -497117.000000 0 0 1
-16.138492 14.455115 -25.268031 33.284751 -0.730430 2.432799 0.030259 -0.011582 -117160.000000 0 0 1
-16.881292 14.933915 -24.180701 33.056106 -0.724265 2.391323 0.019441 -0.012355 325350.000000 0 0 1
-15.899292 15.523915 -23.100701 32.053421 -0.773453 2.375599 0.018935 -0.010587 634258.000000 0 0 1
-15.339092 16.755115 -23.521701 32.700031 -0.829490 2.373616 0.006081 -0.008182 -211862.000000 0 0 1
-14.741892 17.419915 -22.450201 32.012316 -0.868474 2.348014 0.005402 -0.001920 -554045.000000 0 0 1
-14.670292 18.946915 -22.683001 32.995781 -0.911934 2.328770 0.007179 -0.007775 17326.000000 0 0 1
-15.857992 19.708115 -22.755801 34.025170 -0.893231 2.303381 -0.011151 -0.007351 272001.000000 0 0 1
-16.596792 19.629915 -23.957601 35.139063 -0.868930 2.321008 -0.021345 0.001669 -60958.700000 0 0 1
-17.773892 20.602715 -24.098601 36.347293 -0.858977 2.295628 -0.023149 -0.002130 998.895000 0 0 1
-17.310392 21.857715 -24.537601 37.141664 -0.900978 2.292479 -0.022114 -0.000346 62024.900000 0 0 1
-18.399992 22.716915 -24.784801 38.326287 -0.890006 2.274019 -0.000160 -0.002636 -118494.000000 0 0 1
-18.056092 24.192415 -24.869501 39.112498 -0.929633 2.259900 -0.004867 -0.010307 -279615.000000 0 0 1
-17.827992 24.707715 -23.637601 38.562218 -0.945749 2.230614 0.003584 -0.006174 -144154.000000 0 0 1
-17.043792 25.895015 -23.710601 39.028647 -0.988686 2.223728 0.004317 0.000219 -287960.000000 0 0 1
-16.006692 25.920415 -22.579801 37.920041 -1.017585 2.208632 0.012134 -0.013926 -216886.000000 0 0 1
-14.924092 25.015915 -22.497101 36.805490 -1.032892 2.228427 0.015473 -0.025408 370015.000000 0 0 1
-15.305092 23.639315 -22.352301 35.953976 -0.996221 2.241697 0.005115 -0.008184 -273517.000000 0 0 1
-14.029992 22.750915 -22.195201 34.742938 -1.018204 2.263787 0.015856 -0.009090 622059.000000 0 0 1
-13.371092 22.966115 -20.966401 33.849941 -1.043561 2.238765 0.018517 -0.015950 -5462.720000 0 0 1
-12.335192 22.010915 -20.745101 32.664913 -1.059994 2.258919 0.015912 -0.016687 -58309.900000 0 0 1
-11.562692 22.236615 -19.442601 31.720303 -1.091289 2.230571 0.016101 -0.015308 -391097.000000 0 0 1
-12.189392 22.070515 -18.190201 31.089746 -1.066194 2.195783 0.014424 -0.007773 -203057.000000 0 0 1
-13.065992 23.130815 -17.837001 31.998646 -1.056605 2.162083 0.019768 -0.013318 -15802.500000 0 0 1
-13.778692 22.947315 -16.489501 31.437800 -1.030047 2.122938 0.027332 -0.013639 171836.000000 0 0 1
-13.070192 23.500315 -15.389201 30.982612 -1.063228 2.090594 0.023781 -0.027623 -43291.200000 0 0 1
-13.875092 23.432715 -14.233601 30.727930 -1.036188 2.052414 0.021656 -0.010759 -278955.000000 0 0 1
-13.208692 23.853815 -12.965101 30.192182 -1.065090 2.014646 0.021371 -0.010747 -335556.000000 0 0 1
-12.805092 25.216315 -12.836401 31.058109 -1.100920 1.996874 0.024068 -0.018177 728259.000000 0 0 1
-11.681592 25.402115 -11.973301 30.415243 -1.139767 1.975407 0.024874 -0.012643 324980.000000 0 0 1
-11.184992 26.863915 -11.866201 31.425797 -1.176269 1.957993 0.045307 -0.017981 -77816.000000 0 0 1
-10.696592 27.337415 -13.107901 32.149159 -1.197829 1.990754 0.039636 -0.024004 -172183.000000 0 0 1
-10.655492 28.726315 -13.007101 33.285513 -1.215597 1.972268 0.022821 -0.002919 -1325170.000000 0 0 1
-10.030692 29.476515 -14.219301 34.229640 -1.242794 1.999189 0.044916 -0.013342 973750.000000 0 0 1
-8.627792 29.404815 -14.514101 33.907832 -1.285392 2.013126 0.026562 -0.008842 639894.000000 0 0 1
-8.154492 28.036515 -14.506301 32.603293 -1.287753 2.031896 0.026448 -0.015711 -2010290.000000 0 0 1
-6.734492 27.942915 -15.032801 32.436785 -1.334298 2.052680 0.030576 -0.019955 -296146.000000 0 0 1
-5.878892 28.821215 -14.301701 32.707223 -1.369579 2.023351 0.026534 -0.016102 455684.000000 0 0 1
-4.567992 28.808015 -14.915101 32.760167 -1.413539 2.043485 0.025281 -0.018816 838707.000000 0 0 1
-3.526092 29.732315 -14.262001 33.163965 -1.452753 2.015339 0.008099 -0.011038 -123802.000000 0 0 1
-3.597992 31.151815 -14.476801 34.539237 -1.455807 2.003295 0.000285 -0.003567 105571.000000 0 0 1
-4.732792 31.729415 -13.832701 34.935637 -1.422727 1.977896 -0.001381 -0.000953 400943.000000 0 0 1
-4.749692 33.219715 -14.197001 36.437122 -1.428781 1.971026 -0.004437 -0.000368 546796.000000 0 0 1
-3.750092 33.957115 -13.434601 36.710181 -1.460806 1.945465 -0.017777 -0.001030 701426.000000 0 0 1
-3.770692 -33.977655 -13.833601 36.879095 1.460273 1.955308 -0.016287 0.000795 51933.400000 0 0 1
-2.837592 -33.081755 -13.018301 35.664136 1.485231 1.944456 -0.011226 0.000608 -404088.000000 0 0 1
-3.236092 -32.964655 -11.677301 35.121220 1.472941 1.909734 -0.017096 -0.000830 154178.000000 0 0 1
-2.285892 -32.259055 -10.914901 34.132198 1.500054 1.896297 -0.020999 -0.005563 -27403.500000 0 0 1
-2.787892 -32.140355 -9.445201 33.615273 1.484272 1.855611 -0.028523 0.000532 453022.000000 0 0 1
-1.832092 -31.449255 -8.585101 32.651434 1.512607 1.836856 -0.020692 -0.003179 670271.000000 0 0 1
-2.212792 -31.465355 -7.258101 32.367345 1.500587 1.796961 -0.033949 -0.011095 -293167.000000 0 0 1
-0.936592 -31.297355 -6.441301 31.967045 1.540880 1.773684 -0.023218 -0.010976 -332387.000000 0 0 1
-1.140992 -31.230255 -5.067001 31.659203 1.534278 1.731536 -0.023181 -0.002636 -415486.000000 0 0 1
0.045008 -30.969355 -4.359401 31.274707 -1.569343 1.710642 -0.016088 0.002897 -211162.000000 0 0 1
-0.049292 -30.790355 -2.830801 30.920249 1.569195 1.662476 -0.021558 0.004116 -589661.000000 0 0 1
-0.202392 -31.888155 -1.977601 31.950059 1.564449 1.632733 -0.018919 0.000185 1285930.000000 0 0 1
0.870708 -32.905755 -2.085501 32.983270 -1.544342 1.634068 -0.017060 -0.002552 1094210.000000 0 0 1
2.299608 -32.520055 -1.679101 32.644472 -1.500200 1.622255 -0.003676 -0.001251 -1071370.000000 0 0 1
2.509608 -32.625855 -0.306801 32.723671 -1.494027 1.580172 -0.010506 -0.001700 -522089.000000 0 0 1
3.729608 -32.122255 0.128399 32.338301 -1.455207 1.566826 -0.006632 -0.001912 -607938.000000 0 0 1
3.981308 -30.624455 0.249099 30.883168 -1.441517 1.562730 -0.010641 0.001888 -650811.000000 0 0 1
4.219108 -30.029755 -1.015601 30.341695 -1.431212 1.604275 -0.003480 -0.007279 138691.000000 0 0 1
4.090308 -28.623655 -0.900501 28.928448 -1.428858 1.601930 -0.004630 0.002245 -382210.000000 0 0 1
3.791808 -27.965255 -2.304901 28.315117 -1.436028 1.652288 -0.006663 0.006955 -434703.000000 0 0 1
2.492608 -28.254055 -2.750201 28.496812 -1.482803 1.667456 -0.011679 0.008216 -399169.000000 0 0 1
2.090508 -27.459855 -3.832401 27.804696 -1.494813 1.709069 -0.015395 0.007085 -147145.000000 0 0 1
2.749208 -27.652255 -5.206501 28.272124 -1.471701 1.756010 -0.024361 0.012273 -533275.000000 0 0 1
2.275608 -28.767555 -5.918601 29.458113 -1.491857 1.773089 -0.028543 0.005850 -228489.000000 0 0 1
2.680808 -28.722155 -7.251301 29.744416 -1.477730 1.817065 -0.007785 -0.011849 -678054.000000 0 0 1
1.787708 -29.505555 -8.221901 30.681807 -1.510281 1.842085 -0.006041 -0.007894 22727.800000 0 0 1
0.543408 -28.912555 -8.557501 30.157286 -1.552004 1.858512 -0.008022 -0.002084 -107645.000000 0 0 1
0.240708 -29.028555 -9.956101 30.689393 -1.562504 1.901190 -0.000332 0.001433 -193205.000000 0 0 1
-1.103792 -28.326755 -10.129301 30.103590 1.531850 1.913974 -0.017325 -0.002460 -976260.000000 0 0 1
-1.015992 -26.922755 -9.860301 28.689588 1.533077 1.921639 -0.016073 0.004750 198074.000000 0 0 1
-2.258192 -26.241755 -9.698801 28.067701 1.484954 1.923621 0.003276 -0.007331 902749.000000 0 0 1
-3.252092 -26.730855 -8.584601 28.263228 1.449731 1.879409 0.006690 -0.007734 -69994.200000 0 0 1
-2.808492 -26.554455 -7.203901 27.657239 1.465425 1.834306 0.007224 -0.004785 302892.000000 0 0 1
-1.862392 -27.511955 -6.681601 28.372873 1.503206 1.808522 -0.011199 -0.000674 511448.000000 0 0 1
-1.452292 -27.242255 -5.236301 27.778921 1.517536 1.760430 0.000904 0.001004 -43849.400000 0 0 1
-2.442092 -27.453055 -4.232501 27.884549 1.482075 1.723172 0.011480 -0.005589 -10227.600000 0 0 1
-2.007292 -27.156355 -2.949701 27.389734 1.497014 1.678699 0.007411 0.004784 -530664.000000 0 0 1
-3.101292 -27.452955 -1.937001 27.695391 1.458306 1.640793 0.003309 0.005048 -889705.000000 0 0 1
-4.055492 -26.465255 -2.006301 26.849245 1.418741 1.645591 0.017586 0.003799 -632169.000000 0 0 1
-4.777792 -26.482655 -0.746801 26.920550 1.392304 1.598541 0.023159 -0.001249 157897.000000 0 0 1
-5.827492 -25.351355 -0.548001 26.018285 1.344852 1.591860 0.037775 -0.001619 289734.000000 0 0 1
-5.283892 -24.075955 -0.394101 24.652108 1.354754 1.586784 0.010067 -0.000310 538286.000000 0 1 0
-6.296292 -23.290455 0.304299 24.128430 1.306770 1.558184 0.026452 -0.000321 918477.000000 0 1 0
-5.874792 -21.859455 0.675699 22.645209 1.308247 1.540953 0.008240 -0.001432 1026620.000000 0 1 0
-4.811592 -21.683055 1.661699 22.272573 1.352429 1.496120 0.005756 -0.008920 814367.000000 0 1 0
-4.223092 -20.431155 1.752199 20.936494 1.366968 1.487007 -0.004662 -0.008096 -158042.000000 0 1 0
-3.141892 -20.238355 2.802099 20.671580 1.416781 1.434825 -0.000473 -0.002294 -498764.000000 0 1 0
-3.728692 -20.042055 4.100199 20.794199 1.386856 1.372316 -0.004225 -0.001640 485192.000000 0 1 0
-2.834692 -20.070155 5.229299 20.933040 1.430485 1.318311 0.008132 -0.000628 895737.000000 0 1 0
-1.932492 -21.389755 5.434299 22.153729 1.480694 1.322968 0.005639 -0.005239 1054180.000000 0 1 0
-1.031292 -21.724755 4.381699 22.186208 1.523361 1.371993 0.018979 -0.010410 -123665.000000 0 1 0
-0.379292 -22.940155 4.556199 23.391312 1.554264 1.374761 0.017102 -0.011766 -704229.000000 0 1 0
0.546508 -23.319455 3.299099 23.558007 -1.547365 1.430293 0.011216 -0.015397 717358.000000 0 1 0
1.738708 -22.559055 3.282699 22.862855 -1.493875 1.426716 0.006707 -0.014848 428434.000000 0 1 0
2.712108 -23.048155 4.209099 23.585790 -1.453664 1.391376 0.028118 -0.012251 -877118.000000 0 1 0
3.942608 -22.218155 4.553699 23.020137 -1.395175 1.371669 0.035394 -0.015015 -365526.000000 0 1 0
4.723508 -21.919455 3.449199 22.686361 -1.358548 1.418166 0.017138 -0.009117 185718.000000 0 1 0
5.864508 -21.107055 3.815699 22.236451 -1.299786 1.398346 0.033833 -0.007380 983192.000000 0 1 0
6.538508 -20.473755 2.546799 21.642849 -1.261674 1.452849 0.036984 -0.005893 98376.700000 0 1 0
7.201708 -21.511155 1.810799 22.756831 -1.247736 1.491140 0.031957 -0.006078 -293470.000000 0 1 0
6.813108 -21.668355 0.483899 22.719379 -1.266157 1.549496 0.024001 -0.007768 238429.000000 0 1 0
7.739108 -22.595555 -0.379301 23.887167 -1.240813 1.586676 0.021202 0.001364 427777.000000 0 1 0
9.020408 -22.132055 -0.729001 23.910814 -1.183779 1.601289 0.016525 0.007096 -385539.000000 0 1 0
9.663208 -23.067355 -1.585001 25.059782 -1.174093 1.634087 0.016748 0.013658 33848.100000 0 0 1
11.062908 -22.690455 -2.081201 25.329352 -1.117152 1.653055 0.015320 0.026451 -171766.000000 0 0 1
11.026808 -21.607455 -2.946401 24.436732 -1.098923 1.691663 0.011423 0.028022 90863.000000 0 1 0
12.359908 -21.381955 -3.383901 24.928018 -1.046670 1.706964 0.008321 0.025002 195649.000000 0 1 0
12.523308 -20.141855 -4.317301 24.107398 -1.014534 1.750854 0.001893 0.013531 -118960.000000 0 1 0
12.341808 -18.868155 -3.674501 22.843587 -0.991539 1.732353 0.008773 0.010922 6977.510000 0 1 0
12.425908 -17.811655 -4.611201 22.201834 -0.961664 1.780014 -0.005308 0.007159 -878911.000000 0 1 0
12.780508 -16.447555 -3.973901 21.205078 -0.910209 1.759314 -0.000086 0.005572 411014.000000 0 1 0
14.124008 -16.260255 -3.535501 21.826206 -0.855590 1.733497 0.000176 0.007595 1358200.000000 0 1 0
15.138908 -16.245455 -4.592201 22.675750 -0.820641 1.774723 -0.001670 0.011364 123508.000000 0 1 0
16.549108 -15.882755 -4.113401 23.303539 -0.764855 1.748240 -0.000581 0.008518 -123587.000000 0 1 0
17.166808 -16.860255 -3.256201 24.281070 -0.776389 1.705306 0.003410 0.004368 -838094.000000 0 1 0
18.503508 -16.563255 -3.212501 25.040794 -0.730124 1.699442 0.003647 0.013557 -1682610.000000 0 0 1
19.211108 -17.320655 -2.118401 25.953023 -0.733696 1.652512 -0.002965 0.008321 7622.360000 0 0 1
20.611908 -17.092055 -2.192001 26.866223 -0.692313 1.652477 -0.003327 0.011988 138573.000000 0 0 1
21.300508 -17.849955 -1.267101 27.819743 -0.697490 1.616359 -0.004063 0.012125 899478.000000 0 0 1
22.880508 -17.827255 -1.341001 29.036648 -0.661895 1.616996 0.000291 0.009410 1321010.000000 0 0 1
23.421708 -16.534955 -1.043301 28.689190 -0.614719 1.607170 0.006547 -0.003975 412653.000000 0 0 1
24.775108 -16.586555 -0.605301 29.820902 -0.589951 1.591096 0.021173 -0.003375 471081.000000 0 0 1
25.299408 -15.210555 -0.110501 29.520048 -0.541317 1.574540 0.022524 -0.002015 61191.000000 0 0 1
24.624208 -14.647855 1.016999 28.669593 -0.536628 1.535316 0.001838 0.000470 59934.000000 0 0 1
25.310108 -13.586755 1.538099 28.767468 -0.492661 1.517304 -0.006934 -0.003499 -107755.000000 0 0 1
24.493808 -13.080655 2.756899 27.904313 -0.490507 1.471837 -0.002202 -0.014477 94045.800000 0 0 1
24.320508 -13.936555 3.899199 28.300502 -0.520358 1.432578 0.016760 -0.010593 259868.000000 0 0 1
25.531008 -14.268555 4.566299 29.601945 -0.509629 1.415921 0.031260 -0.003370 264978.000000 0 0 1
25.233108 -14.950155 5.936099 29.924140 -0.534873 1.371100 0.030966 0.007680 -2447.420000 0 0 1
24.669708 -16.221155 5.808099 30.090769 -0.581653 1.376558 0.017814 0.002875 -178010.000000 0 0 1
23.789508 -16.503555 6.878299 29.759352 -0.606507 1.337557 -0.000026 0.005277 -82362.800000 0 0 1
22.911008 -17.766855 6.898099 29.802000 -0.659605 1.337214 -0.000622 0.001981 -357379.000000 0 0 1
23.621608 -18.965055 6.706099 31.026206 -0.676488 1.352934 0.008768 0.002744 -596314.000000 0 0 1
22.853608 -20.073055 7.067399 31.227601 -0.720714 1.342499 -0.002908 0.012998 -421085.000000 0 0 1
1.037208 23.512715 -2.638301 23.682994 1.526712 1.682429 0.009861 -0.008752 -23883.200000 0 1 0
1.990708 24.446015 -2.202901 24.625664 1.489543 1.660372 0.007256 -0.008265 288146.000000 0 1 0
2.776008 25.019915 -3.271601 25.385148 1.460296 1.700034 0.006425 -0.006466 79103.300000 0 0 1
3.764308 26.086715 -2.836001 26.509048 1.427486 1.677984 -0.003418 -0.006414 -725000.000000 0 0 1
4.963108 25.620115 -2.313601 26.198769 1.379447 1.659221 0.004176 -0.003224 -801457.000000 0 0 1
5.752508 26.698115 -1.871101 27.374837 1.358576 1.639201 0.000881 -0.006672 209544.000000 0 0 1
6.999508 26.144015 -1.119201 27.087917 1.309202 1.612125 0.010158 -0.020281 480610.000000 0 0 1
8.064508 25.656815 -1.927201 26.963356 1.266252 1.642332 0.016568 -0.018017 101360.000000 0 0 1
8.907908 24.741515 -1.245101 26.325723 1.225206 1.618110 0.024556 -0.017114 122094.000000 0 0 1
9.983308 24.199615 -2.217401 26.271747 1.179527 1.655299 0.025933 -0.017288 -584798.000000 0 0 1
10.925808 25.200815 -2.486001 27.579604 1.161706 1.661058 0.028745 -0.006859 398763.000000 0 0 1
11.941808 25.038215 -3.509001 27.961261 1.125764 1.696623 0.039728 -0.010935 1464450.000000 0 0 1
12.945208 23.830015 -3.406301 27.332232 1.073165 1.695747 0.043003 -0.012257 -144210.000000 0 0 1
12.379408 22.549715 -3.689501 25.987532 1.068734 1.713250 0.038761 -0.016727 -89884.900000 0 0 1
12.252208 22.242615 -5.049301 25.891041 1.067305 1.767075 0.041210 -0.021745 -626373.000000 0 0 1
11.221608 21.154815 -5.282601 24.522573 1.083085 1.787916 0.034419 -0.023120 -1275390.000000 0 1 0
9.932908 21.611015 -5.121601 24.329600 1.139969 1.782892 0.024552 -0.014575 -1336920.000000 0 1 0
9.099708 20.522315 -4.738501 22.943921 1.153440 1.778819 0.006888 -0.006800 -835178.000000 0 1 0
7.647508 20.906615 -4.667301 22.745431 1.220121 1.777462 0.013264 -0.006672 -921491.000000 0 1 0
7.232808 21.525815 -3.451801 22.969309 1.246642 1.721647 0.015284 -0.000045 -21283.800000 0 1 0
5.903608 21.985315 -3.448601 23.023890 1.308460 1.721146 0.012603 0.009307 -4470.790000 0 1 0
5.456408 22.715615 -2.188501 23.464038 1.335057 1.664203 0.012500 0.004936 -50630.300000 0 1 0
5.287108 21.841115 -1.087501 22.498233 1.333294 1.619152 0.019434 0.005552 122057.000000 0 1 0
4.388608 22.453215 -0.173501 22.878742 1.377774 1.578380 0.019340 0.003768 262023.000000 0 1 0
4.088008 21.503515 1.011599 21.912013 1.382929 1.524614 0.020069 0.001507 366463.000000 0 1 0
3.115608 22.029715 1.947099 22.333978 1.430301 1.483504 0.009636 0.005712 825265.000000 0 1 0
2.987808 21.182715 3.113999 21.617849 1.430671 1.426246 0.015310 0.005732 803023.000000 0 1 0
1.845508 21.623715 4.136099 22.092946 1.485656 1.382472 0.014500 -0.004003 503092.000000 0 1 0
0.548308 21.652515 3.615899 21.959207 1.545479 1.405379 0.023203 -0.011444 -357131.000000 0 1 0
-0.322992 22.276915 4.560699 22.741267 -1.556298 1.368880 0.021193 -0.013099 525055.000000 0 1 0
-1.830092 22.199515 4.218999 22.670855 -1.488544 1.383607 0.009072 -0.014729 -8566.970000 0 1 0
-2.694592 22.778915 5.149999 23.508770 -1.453050 1.349938 0.021585 -0.012299 -118285.000000 0 1 0
-4.028692 22.652915 4.693099 23.482123 -1.394792 1.369583 0.017164 -0.013694 -493308.000000 0 1 0
-5.075592 23.167215 5.618099 24.373029 -1.355119 1.338200 0.027436 -0.015448 -951305.000000 0 1 0
-5.197692 24.561015 5.809099 25.768296 -1.362250 1.343406 0.028713 -0.008956 362063.000000 0 0 1
-6.143892 24.922815 6.830999 26.562317 -1.329099 1.310705 0.029477 -0.012337 465998.000000 0 0 1
-6.330592 26.448115 6.993799 28.080107 -1.335858 1.319081 0.028459 -0.011420 134393.000000 0 0 1
-5.224792 27.034115 7.698199 28.590280 -1.379883 1.298172 0.030959 -0.009507 491853.000000 0 0 1
-5.473892 28.306715 8.250499 29.988404 -1.379776 1.292079 0.040603 -0.020578 -127314.000000 0 0 1
-5.840592 29.480315 7.334099 30.935263 -1.375211 1.331438 0.042657 -0.021311 119836.000000 0 0 1
-7.122092 29.336415 6.760199 30.936220 -1.332631 1.350498 0.037388 -0.022054 -533212.000000 0 0 1
-7.308792 30.451915 5.934999 31.874155 -1.335241 1.383502 0.045350 -0.021898 -644383.000000 0 0 1
-8.732692 30.738315 5.420899 32.411265 -1.293992 1.402753 0.046705 -0.022240 353809.000000 0 0 1
-9.643692 31.219515 6.428199 33.301361 -1.271195 1.376546 0.039569 -0.011255 295246.000000 0 0 1
-10.206792 30.093915 7.159099 32.574147 -1.243807 1.349209 0.024028 -0.007484 -775897.000000 0 0 1
-11.167392 30.562115 8.294199 33.578970 -1.220469 1.321207 0.008152 -0.002642 -340291.000000 0 0 1
-10.505892 31.232515 9.293599 34.237622 -1.246309 1.295903 0.017797 -0.004394 -447286.000000 0 0 1
-11.355292 31.497215 10.394199 35.057903 -1.224783 1.269785 0.017784 0.000485 -462636.000000 0 0 1
-10.730492 31.981315 11.644999 35.686888 -1.247076 1.238399 0.026717 -0.004277 -618570.000000 0 0 1
-10.201492 33.290915 11.511399 36.672439 -1.273447 1.251501 0.022550 -0.005045 17654.000000 0 0 1
-9.344992 33.520015 12.596399 37.007966 -1.298911 1.223486 0.027157 -0.008705 -102845.000000 0 0 1
-8.819292 -34.303555 12.611299 37.597322 1.319151 1.228734 0.013968 -0.014324 122187.000000 0 0 1
-9.730892 -33.438155 13.259099 37.263979 1.287606 1.207010 0.017161 -0.000532 184418.000000 0 0 1
-9.211892 -32.078155 13.289799 35.923331 1.291151 1.191842 0.016070 0.003508 -180290.000000 0 0 1
-10.097992 -31.038955 13.922099 35.485363 1.256263 1.167629 0.021542 -0.001394 -598395.000000 0 0 1
-10.253892 -30.983155 15.332899 36.058230 1.251192 1.131585 0.022322 0.000224 253237.000000 0 0 1
-9.086492 -30.612555 16.084299 35.754685 1.282257 1.104197 0.032916 0.002858 607365.000000 0 0 1
-9.154592 -31.019055 17.585199 36.813415 1.283815 1.072779 0.020897 -0.009887 105428.000000 0 0 1
-10.058492 -30.229355 18.320199 36.750739 1.249581 1.048930 0.053304 -0.008056 213333.000000 0 0 1
-10.606392 -30.929655 19.468199 38.054564 1.240443 1.033766 0.034316 -0.010843 187529.000000 0 0 1
-10.992992 -30.089755 20.751599 38.168941 1.220521 0.995984 0.049100 -0.017801 351816.000000 0 0 1
-9.908092 -29.686455 21.595899 38.024186 1.248664 0.966781 0.057820 -0.020401 236365.000000 0 0 1
-10.297492 -28.953755 22.760099 38.241082 1.229094 0.933314 0.046969 -0.014068 303085.000000 0 0 1
-9.157492 -28.735555 23.816699 38.429505 1.262290 0.902372 0.040109 -0.021645 448348.000000 0 0 1
-8.679492 -30.011155 24.258999 39.553786 1.289269 0.910543 0.037609 -0.008773 -204973.000000 0 0 1
-7.673592 -29.943155 25.228999 39.899610 1.319923 0.886263 0.020688 -0.008515 -244133.000000 0 0 1
-7.667392 -31.113955 26.211499 41.399393 1.329181 0.885197 0.023180 -0.010311 -326549.000000 0 0 1
-7.420592 -32.356055 25.631799 41.940059 1.345353 0.913280 0.024009 0.004398 224910.000000 0 0 1
-7.519892 -33.417555 26.597299 43.367015 1.349455 0.910555 0.017875 0.002881 -389341.000000 0 0 1
-7.319892 34.333815 26.074099 43.729284 -1.360743 0.931960 0.013589 0.003983 1118390.000000 0 0 1
-5.925092 33.924015 25.946699 43.118171 -1.397883 0.925096 0.020632 0.000509 1523440.000000 0 0 1
-5.653592 32.635015 25.352599 41.710449 -1.399262 0.917479 0.019689 -0.002680 -487797.000000 0 0 1
-6.271092 32.255515 24.008199 40.695681 -1.378773 0.939806 0.013210 0.000580 -288276.000000 0 0 1
-7.520492 31.611115 24.141999 40.480322 -1.337232 0.931802 0.001624 0.004284 361930.000000 0 0 1
-8.308692 31.664015 22.924899 39.964925 -1.314180 0.959871 0.007018 0.012785 485366.000000 0 0 1
-9.398592 30.560615 23.034799 39.406683 -1.272437 0.946483 -0.002041 -0.000435 47710.500000 0 0 1
-8.810192 29.324715 22.722999 38.129950 -1.278940 0.932366 -0.008598 0.008728 202715.000000 0 0 1
-9.680292 28.242315 23.024599 37.702368 -1.240587 0.913860 -0.010616 0.010884 -137437.000000 0 0 1
-9.008692 26.900115 22.651199 36.302197 -1.247642 0.896994 -0.014146 0.003367 -240939.000000 0 0 1
-8.046292 26.506915 23.598999 36.390550 -1.276082 0.865194 -0.021013 0.011954 -153458.000000 0 0 1
-7.698092 25.140815 23.349399 35.164124 -1.273662 0.844625 -0.018304 0.007011 326597.000000 0 0 1
-6.289692 24.821715 23.953299 35.063347 -1.322625 0.818738 -0.029226 0.012372 -1571.550000 0 0 1
-5.296392 25.554015 23.310899 34.992249 -1.366427 0.841731 -0.033320 0.014430 -1108520.000000 0 0 1
-4.063692 25.192515 23.880399 34.949247 -1.410868 0.818540 -0.005204 0.009647 -526924.000000 0 0 1
-2.933692 25.856015 23.087899 34.787802 -1.457817 0.845071 -0.013667 0.021672 -459891.000000 0 0 1
-2.612692 25.099015 21.953299 33.447482 -1.467075 0.854824 -0.005131 0.015223 -555239.000000 0 0 1
-1.585592 25.681815 21.235699 33.362024 -1.509135 0.880815 -0.003190 0.020566 -451427.000000 0 0 1
-1.266692 24.853515 19.959099 31.900899 -1.519874 0.894820 -0.010050 0.016931 -453379.000000 0 0 1
-0.412292 23.768515 20.247499 31.226167 -1.553452 0.865296 0.005411 0.010025 -227277.000000 0 0 1
-0.228592 22.867115 19.169499 29.840022 -1.560800 0.873159 -0.015915 0.016045 -361425.000000 0 0 1
0.900408 21.846815 19.433099 29.253024 1.529605 0.844225 -0.004887 0.016833 104370.000000 0 0 1
2.192908 22.426715 19.413599 29.743137 1.473325 0.859642 -0.006130 0.001643 -305535.000000 0 0 1
3.118008 21.399015 19.768899 29.299304 1.426107 0.830208 0.001408 0.005768 -147858.000000 0 0 1
4.535908 21.858515 19.423799 29.591436 1.366188 0.854760 -0.003800 0.000847 -362419.000000 0 0 1
5.527208 20.874815 19.450199 29.062315 1.311957 0.837586 0.008679 -0.003420 -303918.000000 0 0 1
6.722708 21.261015 18.815099 29.175906 1.264545 0.869924 0.026044 0.001286 -175480.000000 0 0 1
7.751508 20.147215 18.675599 28.544249 1.203511 0.857582 0.021546 0.003902 -566927.000000 0 0 1
8.532508 19.901115 19.785199 29.331079 1.165758 0.830445 0.025144 -0.000519 -76976.200000 0 0 1
9.500508 18.893515 19.447799 28.730497 1.104875 0.827247 0.018873 -0.004016 466818.000000 0 0 1
10.059308 18.097615 20.680799 29.264463 1.063483 0.785992 0.034844 -0.007191 -140325.000000 0 0 1
9.177808 17.087715 21.115999 28.672419 1.077911 0.742979 0.034049 -0.004565 12031.900000 0 0 1
9.763208 16.390615 22.182499 29.258089 1.033575 0.710300 0.046891 -0.014672 -183170.000000 0 0 1
8.797608 15.337215 22.673199 28.752426 1.050006 0.662322 0.032319 -0.011527 -509071.000000 0 0 1
7.702208 15.842415 23.381399 29.274493 1.118269 0.645673 0.034914 0.000524 239712.000000 0 0 1
6.610008 14.932915 23.618999 28.714827 1.154074 0.604939 0.030268 0.003327 769729.000000 0 0 1
6.905408 13.816515 24.650799 29.090250 1.107314 0.559745 0.040632 0.003297 -485512.000000 0 0 1
7.175108 14.412115 25.929199 30.520724 1.108868 0.555645 0.040179 -0.003732 -131882.000000 0 0 1
7.559908 13.415615 26.867599 30.967706 1.057636 0.520440 0.041018 -0.005582 -481854.000000 0 0 1
8.337808 14.031815 28.085599 32.484023 1.034647 0.526448 0.031273 -0.000942 819050.000000 0 0 1
9.715108 14.334515 27.821999 32.770799 0.975165 0.556730 0.040141 0.003889 665483.000000 0 0 1
9.996908 15.348515 26.836399 32.491651 0.993489 0.598915 0.031788 0.001495 -536383.000000 0 0 1
11.341208 15.115215 26.097899 32.221003 0.927092 0.626703 0.038941 0.002014 162956.000000 0 0 1
11.251808 14.161515 25.064299 30.909073 0.899397 0.625101 0.041080 0.000135 946876.000000 0 0 1
12.514008 14.014215 24.362899 30.766044 0.841889 0.656921 0.036123 0.006855 745384.000000 0 0 1
12.344808 12.845515 23.306999 29.336287 0.805272 0.652651 0.034572 -0.002606 93329.700000 0 0 1
12.072608 11.616615 23.965899 29.241374 0.766152 0.610104 0.029460 -0.001077 1498680.000000 0 0 1
10.656008 11.461915 24.284099 28.890197 0.821819 0.572470 0.040570 -0.000181 1051510.000000 0 0 1
10.351008 10.076315 24.879499 28.769167 0.771952 0.526050 0.031385 -0.001967 -41923.400000 0 0 1
10.457008 8.988415 24.012199 27.689824 0.710017 0.521275 0.031186 -0.000264 152753.000000 0 0 1
10.198308 7.750915 24.659399 27.787913 0.649883 0.479090 0.036311 -0.005052 -45123.500000 0 0 1
10.247008 6.489415 23.739499 26.658535 0.564545 0.472347 0.045865 -0.009864 68307.500000 0 0 1
11.545708 6.056915 23.360999 26.753053 0.483136 0.509048 0.041430 -0.006650 289898.000000 0 0 1
11.697008 4.782815 22.826599 26.091166 0.388148 0.505612 0.040957 -0.001003 -80130.500000 0 0 1
11.585808 3.551815 23.773899 26.684164 0.297470 0.471393 0.030886 0.002382 -604323.000000 0 0 1
12.748408 3.342915 24.511799 27.830294 0.256448 0.493333 0.025573 0.001362 -266463.000000 0 0 1
12.729508 2.134915 25.176999 28.292747 0.166167 0.473726 0.024112 0.001537 -1033340.000000 0 0 1
14.090208 1.753215 25.693199 29.355548 0.123792 0.504861 0.022993 -0.003107 -676563.000000 0 0 1
14.877108 0.963215 24.838199 28.968815 0.064655 0.540578 0.004766 0.001000 910837.000000 0 0 1
16.291208 1.045515 25.059199 29.907524 0.064089 0.577391 0.020700 -0.009732 909426.000000 0 0 1
17.105708 -0.033985 24.216399 29.648615 -0.001987 0.614988 0.025913 -0.013653 459471.000000 0 0 1
16.734308 -1.393585 24.360899 29.587709 -0.083085 0.603516 0.021714 -0.013388 241591.000000 0 0 1
17.838708 -2.149285 23.910599 29.909124 -0.119906 0.644431 0.017882 -0.003640 -366192.000000 0 0 1
17.700008 -3.652285 24.217399 30.217741 -0.203488 0.641114 0.026765 0.004444 29966.500000 0 0 1
16.830708 -4.369685 23.355599 29.117879 -0.254017 0.639984 0.023148 0.005265 124999.000000 0 0 1
16.662008 -5.668985 23.865799 29.653605 -0.327948 0.635425 0.043239 0.000582 -33325.400000 0 0 1
15.920008 -6.562085 22.850399 28.612032 -0.390972 0.645783 0.038766 -0.004597 -155614.000000 0 0 1
16.496608 -6.659685 21.568499 27.958713 -0.383692 0.689694 0.027398 0.001165 45556.200000 0 0 1
15.868608 -7.676185 20.736799 27.216748 -0.450550 0.704534 0.034285 -0.004355 179440.000000 0 0 1
16.282008 -9.160885 20.899999 28.032759 -0.512495 0.729427 0.037913 -0.007678 -29215.000000 0 0 1
15.922708 -9.599685 22.244099 28.991146 -0.542544 0.696220 0.037328 -0.004516 169994.000000 0 0 1
16.659308 -10.781585 22.577799 30.058811 -0.574391 0.721038 0.035534 -0.009091 81526.100000 0 0 1
16.193108 -11.554285 23.818599 31.032949 -0.619750 0.695823 0.037432 -0.004176 -602316.000000 0 0 1
15.010208 -12.235785 23.567299 30.503088 -0.683919 0.687838 0.036179 -0.000404 -619297.000000 0 0 1
14.699208 -13.140285 24.640099 31.557381 -0.729460 0.674846 0.034804 0.012414 -419071.000000 0 0 1
13.623508 -14.116785 24.230199 31.176692 -0.803178 0.680609 0.023609 0.016907 -573482.000000 0 0 1
13.964308 -15.003885 23.151399 30.920960 -0.821270 0.724655 0.020963 0.014831 881440.000000 0 0 1
12.843708 -15.853885 22.783499 30.584217 -0.889909 0.730347 0.010490 0.022531 601677.000000 0 0 1
13.141408 -16.716785 21.560599 30.282122 -0.904576 0.778467 0.010340 0.006655 -240058.000000 0 0 1
14.130208 -17.700285 21.669799 31.345543 -0.897090 0.807482 0.007364 0.009510 -217767.000000 0 0 1
14.198108 -18.498185 20.518499 31.060874 -0.916163 0.849192 0.010467 0.008404 78984.500000 0 0 1
-23.092592 -32.169755 26.725392 47.774549 0.948200 0.977127 -0.015210 -0.014483 -790240.000000 0 0 1
-23.432392 -33.242655 27.589012 49.145749 0.956796 0.974754 -0.008177 -0.014245 371452.000000 0 0 1
-24.619892 -33.883455 27.136032 49.905829 0.942437 0.995904 -0.015871 -0.020633 572404.000000 0 0 1
-25.300472 34.315115 28.093612 51.057732 -0.935474 0.988154 -0.014369 -0.018206 -50237.500000 0 0 1
-26.141522 -34.408155 29.102062 52.098275 0.921086 0.978100 0.011590 -0.021656 -37077.300000 0 0 1
-25.462782 -33.816755 30.189752 51.993723 0.925401 0.951279 0.007354 -0.018087 -408442.000000 0 0 1
-26.368702 -33.130155 31.214002 52.604463 0.898553 0.935555 0.006066 -0.019486 49170.500000 0 0 1
-26.917492 -31.844055 30.788902 51.831956 0.869042 0.934757 0.005294 -0.016643 395670.000000 0 0 1
-27.698362 -31.232755 31.786092 52.469418 0.845301 0.920022 0.003821 -0.003763 -202137.000000 0 0 1
-27.900162 -29.720255 31.519992 51.528851 0.816975 0.912594 0.007478 -0.014033 86469.600000 0 0 1
-28.640872 -29.438255 30.308032 51.043973 0.799127 0.935069 -0.003993 -0.001801 623557.000000 0 0 1
-29.013282 -28.086755 30.187542 50.417497 0.769173 0.928855 0.009365 -0.008071 -342026.000000 0 0 1
-29.675652 -27.750255 28.873252 49.843612 0.751882 0.952955 0.001877 -0.012677 -448367.000000 0 0 1
-28.750732 -27.698655 27.849742 48.676772 0.766763 0.961688 0.000164 -0.010770 115290.000000 0 0 1
-27.955592 -26.492555 27.776992 47.486123 0.758534 0.945978 0.005878 -0.004101 215899.000000 0 0 1
-26.929072 -26.533955 26.633902 46.244896 0.778008 0.957053 -0.019361 0.007018 49399.100000 0 0 1
-27.536412 -26.413555 25.363682 45.817532 0.764588 0.984139 -0.019559 0.002743 77868.700000 0 0 1
-26.532772 -26.288855 24.406882 44.618245 0.780780 0.992001 -0.018908 0.017793 -493978.000000 0 0 1
-27.077242 -26.636455 22.993382 44.400150 0.777192 1.026440 -0.015320 0.022414 -236763.000000 0 0 1
-27.797872 -25.591655 22.421682 43.936161 0.744099 1.035235 -0.032042 0.026717 -64811.700000 0 0 1
-28.294672 -26.030455 21.135282 43.873376 0.743743 1.068164 -0.035549 0.031054 -66200.200000 0 0 1
-28.994882 -24.924755 20.330582 43.304493 0.710056 1.082095 -0.039608 0.021968 -1024530.000000 0 0 1
-30.196182 -24.510155 20.847682 44.126896 0.681833 1.078730 -0.026104 0.021082 -988823.000000 0 0 1
-30.656502 -23.372755 20.101082 43.475973 0.651395 1.090154 -0.018448 0.019083 -153513.000000 0 0 1
-32.144822 -23.078555 20.466582 44.550985 0.622675 1.093480 -0.002648 0.021934 -29206.400000 0 0 1
-32.896312 -24.120655 19.836282 45.359138 0.632683 1.118184 -0.015052 0.018021 -413676.000000 0 0 1
-34.178197 -23.571055 19.668282 45.941104 0.603747 1.128385 -0.005630 0.005594 -523483.000000 0 0 1
35.014423 -24.413155 18.911182 46.686666 -0.608865 1.153745 0.002538 -0.000099 39768.600000 0 0 1
34.657158 -25.696055 19.444682 47.323372 -0.637997 1.147367 -0.001173 0.002921 -127466.000000 0 0 1
33.924969 -26.424855 18.476882 46.803543 -0.661755 1.164973 0.006455 0.006983 -85444.100000 0 0 1
33.560069 -27.800155 19.010082 47.544822 -0.691802 1.159460 0.006108 0.015879 510503.000000 0 0 1
32.429409 -27.851055 19.907882 47.155823 -0.709593 1.134956 -0.001714 0.011056 265654.000000 0 0 1
32.628959 -27.315755 21.191582 47.538222 -0.696994 1.108751 0.010995 0.010558 -332821.000000 0 0 1
31.406499 -27.394355 22.146382 47.194079 -0.717271 1.082342 0.006840 0.010531 605123.000000 0 0 1
30.360069 -26.532055 21.684982 45.781243 -0.718214 1.077348 0.011912 0.014016 -467122.000000 0 0 1
29.510239 -26.138155 22.691582 45.485880 -0.724876 1.048501 0.021143 0.018772 -929757.000000 0 0 1
28.569709 -25.034555 22.200582 43.997989 -0.719544 1.041899 0.028154 0.017207 -353672.000000 0 0 1
29.106169 -23.824455 21.598982 43.373837 -0.685942 1.049537 0.020300 0.023215 41751.000000 0 0 1
30.166839 -23.262955 22.380182 44.182302 -0.656896 1.039627 0.029066 0.012492 97756.900000 0 0 1
30.819339 -22.184755 21.499582 43.637450 -0.623913 1.055622 0.026226 0.009868 353842.000000 0 0 1
29.982209 -21.033755 21.212182 42.323851 -0.611760 1.045826 0.025805 0.003471 166313.000000 0 0 1
30.816989 -19.973755 20.868882 42.239175 -0.575067 1.054038 0.018188 0.002275 -798043.000000 0 0 1
30.147249 -18.571355 20.914482 41.123806 -0.552117 1.037269 0.017486 0.013288 -274787.000000 0 0 1
29.850019 -18.242155 22.274282 41.472202 -0.548561 1.003813 0.009723 0.004820 288553.000000 0 0 1
28.706609 -18.878855 22.824382 41.248430 -0.581733 0.984428 0.035204 -0.002525 -482543.000000 0 0 1
28.633359 -18.739955 24.334702 41.990867 -0.579518 0.952652 0.028770 0.005079 -182524.000000 0 0 1
28.536799 -17.404455 24.782582 41.610580 -0.547664 0.932804 0.020675 0.005060 183491.000000 0 0 1
28.471869 -17.324455 26.171322 42.375962 -0.546629 0.905111 0.017368 0.003049 -249282.000000 0 0 1
28.140949 -15.931155 26.700282 41.935901 -0.515135 0.880595 0.005050 -0.000544 -162115.000000 0 0 1
26.755229 -15.646255 26.731352 40.929363 -0.529162 0.859113 0.017294 0.001800 49017.700000 0 0 1
26.412139 -14.461855 27.405202 40.715985 -0.500957 0.832428 0.009504 -0.004046 21261.100000 0 0 1
26.959209 -13.081655 26.818282 40.213790 -0.451769 0.840765 0.012937 -0.000202 -282926.000000 0 0 1
26.373389 -12.766155 25.556742 38.880296 -0.450810 0.853541 0.002433 0.004599 -85042.000000 0 0 1
27.000699 -11.841255 24.719532 38.474775 -0.413294 0.873057 -0.000120 0.003803 955444.000000 0 0 1
28.357979 -12.290555 24.018782 39.142491 -0.408970 0.910154 -0.004121 0.008846 1042790.000000 0 0 1
27.959249 -13.189555 23.005082 38.534631 -0.440787 0.931043 -0.001005 0.008760 399094.000000 0 0 1
28.755829 -14.386255 22.929982 39.492355 -0.463880 0.951308 0.000893 -0.002127 472000.000000 0 0 1
28.104029 -15.411955 21.933982 38.838954 -0.501606 0.970676 0.018677 0.010385 -15747.500000 0 0 1
28.224529 -14.999955 20.576682 38.013452 -0.488491 0.998814 0.003011 0.019156 -57324.800000 0 0 1
27.827199 -16.150555 19.804882 37.781302 -0.525874 1.019023 0.005509 0.010368 -243836.000000 0 0 1
27.943839 -15.985055 18.245782 37.003901 -0.519609 1.055173 0.000434 0.004463 -219171.000000 0 0 1
27.671349 -17.089755 17.404482 36.887386 -0.553258 1.079434 0.010848 -0.002923 187913.000000 0 0 1
26.307009 -17.174455 17.016982 35.729516 -0.578374 1.074386 0.008108 -0.003243 141547.000000 0 0 1
25.724159 -16.233755 15.910582 34.328032 -0.562953 1.088870 0.004916 0.007142 -469724.000000 0 0 1
26.063979 -16.462055 14.554882 34.090686 -0.563333 1.129684 0.009919 0.000669 348953.000000 0 0 1
25.206549 -17.524255 14.116382 33.789671 -0.607515 1.139805 -0.003730 -0.002590 68018.600000 0 0 1
25.479989 -17.942055 12.683982 33.645662 -0.613514 1.184255 -0.005002 0.009663 -142595.000000 0 0 1
24.996619 -16.984455 11.740182 32.421205 -0.596814 1.200261 0.004231 -0.000738 -167793.000000 0 0 1
24.755819 -17.583155 10.454582 32.114112 -0.617581 1.239208 0.008273 -0.004802 -39622.100000 0 0 1
25.927349 -17.964855 9.512082 32.946064 -0.605940 1.277910 0.014612 -0.005048 -4190.790000 0 0 1
26.772359 -18.954455 10.044482 34.306300 -0.616066 1.273655 0.001516 0.010252 401164.000000 0 0 1
28.110589 -18.968555 9.505382 35.218796 -0.593601 1.297512 0.009932 0.014462 956681.000000 0 0 1
29.019239 -19.800555 10.411182 36.641110 -0.598765 1.282688 0.039826 -0.007831 -329285.000000 0 0 1
29.094819 -19.336455 11.715582 36.846463 -0.586571 1.247223 0.035662 -0.018334 -18912.700000 0 0 1
29.304969 -20.408855 12.618782 37.875272 -0.608326 1.231136 0.029256 -0.016337 -143608.000000 0 0 1
29.117039 -19.887255 14.048582 37.956126 -0.599233 1.191651 0.034688 -0.011447 -6735.930000 0 0 1
29.040989 -20.881955 15.057582 38.809353 -0.623398 1.172348 0.034010 -0.009402 31197.900000 0 0 1
28.974629 -20.250355 16.315282 38.933205 -0.609987 1.138388 0.041650 -0.012026 49478.300000 0 0 1
28.854469 -21.334855 17.417982 39.889128 -0.636679 1.118914 0.021195 -0.000860 590618.000000 0 0 1
27.611549 -22.048655 17.502482 39.431938 -0.673844 1.110888 0.007515 0.004804 435629.000000 0 0 1
27.507679 -22.807055 18.641982 40.303321 -0.692244 1.089936 0.019435 0.004633 -544972.000000 0 0 1
26.165389 -23.447655 18.848382 39.870812 -0.730674 1.078403 0.017354 0.016474 317906.000000 0 0 1
24.984319 -22.654355 19.109682 38.763590 -0.736528 1.055285 0.029446 0.011026 1573410.000000 0 0 1
23.817019 -23.499755 19.157482 38.555129 -0.778693 1.050790 0.039912 0.004608 1400070.000000 0 0 1
22.544319 -22.894155 19.858682 37.772423 -0.793097 1.017205 0.034165 0.005081 315185.000000 0 0 1
22.084819 -21.681555 19.227282 36.435113 -0.776184 1.014890 0.023003 0.001053 -511620.000000 0 0 1
20.926719 -21.156755 19.788582 35.736869 -0.790864 0.983959 0.020233 0.004751 -412979.000000 0 0 1
20.874419 -20.743255 21.255682 36.301901 -0.782247 0.945268 0.008261 0.012452 -719128.000000 0 0 1
20.934819 -21.801055 22.153582 37.474443 -0.805665 0.938294 0.011468 0.010678 -188798.000000 0 0 1
21.230319 -21.422855 23.445482 38.201516 -0.789912 0.910018 0.018422 0.003568 -78208.800000 0 0 1
21.670619 -22.544055 24.378372 39.650412 -0.805150 0.908622 0.019841 -0.001400 394849.000000 0 0 1
20.590719 -23.288355 24.935362 39.850941 -0.846800 0.894748 -0.004830 0.009225 486907.000000 0 0 1
21.189419 -24.354755 25.676522 41.248386 -0.854787 0.898882 0.000586 0.010837 263381.000000 0 0 1
20.246219 -25.349655 26.458552 41.863700 -0.896862 0.886644 -0.004420 0.011736 7976.620000 0 0 1
19.508319 -26.173555 25.575832 41.469901 -0.930281 0.906211 0.011591 0.000016 362338.000000 0 0 1
18.514819 -26.932055 26.263152 41.927166 -0.968533 0.893871 0.018926 -0.014049 195843.000000 0 0 1
17.922019 -27.974255 25.236422 41.720914 -1.001014 0.921173 0.033914 -0.021608 -255557.000000 0 0 1
17.051119 -27.353655 24.323652 40.380727 -1.013379 0.924345 0.033270 -0.019547 100014.000000 0 0 1
16.679219 -28.301955 23.303682 40.277271 -1.038259 0.953808 0.037608 -0.017890 56236.100000 0 0 1
15.712619 -27.594555 22.277382 38.789530 -1.053173 0.959030 0.026259 -0.018756 761224.000000 0 0 1
14.421519 -27.348855 22.834882 38.436596 -1.085535 0.934660 0.012282 -0.018337 246678.000000 0 0 1
13.810219 -26.255955 22.184282 37.043754 -1.086578 0.928711 0.011600 -0.011077 514970.000000 0 0 1
12.386719 -25.809255 22.610782 36.480076 -1.123331 0.902293 0.004005 -0.006542 647098.000000 0 0 1
11.364319 -26.790255 22.539082 36.808637 -1.169607 0.911790 0.006015 -0.017322 -119217.000000 0 0 1
10.109119 -26.187155 22.668482 36.080763 -1.202388 0.891468 0.005306 -0.011126 492490.000000 0 0 1
8.795919 -27.027355 22.677582 36.360952 -1.256162 0.897355 0.007664 -0.014595 580307.000000 0 0 1
8.498019 -27.701155 21.454282 36.053523 -1.273136 0.933447 0.017820 -0.017514 634544.000000 0 0 1
7.136419 -28.145255 21.422782 36.083506 -1.322473 0.935147 0.008448 -0.012244 263058.000000 0 0 1
6.766819 -29.023855 20.214682 36.011212 -1.341741 0.974787 0.014947 -0.005402 -162329.000000 0 0 1
7.442319 -30.244155 20.089582 37.063301 -1.329516 0.997940 0.023265 -0.013863 27228.900000 0 0 1
7.094719 -30.931155 18.891582 36.931873 -1.345325 1.033838 0.006990 -0.009133 79878.100000 0 0 1
7.818119 -32.312755 18.806182 38.195675 -1.333407 1.055992 0.007687 -0.005481 62933.400000 0 0 1
7.411919 -33.182355 19.828882 39.359748 -1.351035 1.042821 0.010122 -0.006981 -3734.450000 0 0 1
8.240919 -34.296955 19.850382 40.475073 -1.334985 1.058208 0.014954 -0.006032 -377803.000000 0 0 1
7.799419 33.977415 20.892282 40.642135 1.345158 1.030891 0.027446 -0.010920 110019.000000 0 0 1
7.005319 32.919415 20.321782 39.315865 1.361122 1.027588 0.029050 -0.010562 72744.000000 0 0 1
7.059519 31.826815 21.240682 38.909505 1.352520 0.993334 0.018106 -0.015556 -239054.000000 0 0 1
6.107819 30.633315 20.991182 37.634229 1.373992 0.979102 0.028526 -0.012690 338639.000000 0 0 1
4.739619 30.746315 21.334982 37.722425 1.417848 0.969662 0.016694 -0.018187 403307.000000 0 0 1
4.019919 29.561315 20.875382 36.411711 1.435640 0.960250 0.013897 -0.005717 439329.000000 0 0 1
2.579519 29.415115 21.387682 36.460059 1.483326 0.943935 0.007352 -0.000529 -21511.000000 0 0 1
2.516119 28.913215 22.712182 36.853061 1.483992 0.906773 0.007385 -0.008978 -275027.000000 0 0 1
1.198319 28.950115 23.203582 37.120767 1.529427 0.895558 0.002449 -0.003047 -4040.560000 0 0 1
1.141919 28.501615 24.721332 37.746395 1.530753 0.856703 0.017065 -0.008520 -480037.000000 0 0 1
1.324419 29.533715 25.671162 39.153582 1.525982 0.855749 0.018961 -0.005737 90085.500000 0 0 1
1.202019 29.043415 26.994462 39.669457 1.529433 0.822372 0.006230 -0.003862 158048.000000 0 0 1
2.400619 28.214315 27.558832 39.513286 1.485916 0.798953 -0.010213 -0.002325 -4188.780000 0 0 1
2.639219 26.962315 26.920672 38.192336 1.473222 0.788555 -0.002285 -0.005045 73809.200000 0 0 1
3.605119 26.291115 27.705952 38.364559 1.434523 0.763854 -0.022936 0.007270 -111951.000000 0 0 1
4.063319 24.903815 27.253792 37.141349 1.409061 0.746919 -0.021955 0.014998 -519220.000000 0 0 1
2.987619 23.997315 27.221462 36.411606 1.446936 0.726349 -0.009298 0.010813 2422.860000 0 0 1
3.487119 22.688715 26.928762 35.384969 1.418296 0.705908 -0.009527 0.014968 605355.000000 0 0 1
2.321719 21.685215 26.675602 34.456156 1.464138 0.685362 -0.012010 0.018662 284440.000000 0 0 1
2.765319 20.324115 26.791582 33.741748 1.435566 0.653405 -0.004919 0.018812 39473.600000 0 0 1
3.348019 19.862115 25.596292 32.571199 1.403803 0.666716 0.007106 0.015571 -155804.000000 0 0 1
3.684119 18.390915 25.743972 31.852011 1.373090 0.629644 0.005861 0.008237 14313.400000 0 0 1
4.701419 18.001915 26.663752 32.513505 1.315340 0.609241 0.010749 0.009676 -372755.000000 0 0 1
5.913319 17.759715 26.012902 32.047557 1.249380 0.623745 0.030031 0.012987 -399876.000000 0 0 1
7.184619 17.936815 26.898842 33.119417 1.189815 0.622922 0.010951 0.005971 290795.000000 0 0 1
7.331519 19.220515 27.504562 34.346475 1.206390 0.642171 0.007031 0.002340 -84878.900000 0 0 1
7.997919 20.101915 26.615282 34.299081 1.192129 0.682535 -0.003651 -0.000761 -169056.000000 0 0 1
8.382019 21.451615 27.298152 35.715811 1.198297 0.700817 -0.018488 0.001558 556103.000000 0 0 1
9.443619 21.288515 28.246852 36.609664 1.153276 0.689494 -0.008530 -0.010617 212504.000000 0 0 1
9.755719 22.474515 28.912992 37.897744 1.161261 0.702977 0.012447 -0.010006 -282591.000000 0 0 1
10.720919 22.289815 30.074782 38.939267 1.122481 0.688262 0.029946 -0.012432 -378847.000000 0 0 1
12.027819 21.931015 29.732172 38.854085 1.069153 0.699403 0.018601 -0.020092 -732478.000000 0 0 1
12.906519 22.046515 30.824252 40.034505 1.041165 0.692046 0.023937 -0.015628 -931123.000000 0 0 1
14.347219 21.899315 30.426812 40.139925 0.990813 0.710526 0.024879 -0.018981 -1056560.000000 0 0 1
14.861419 22.904315 29.610452 40.277144 0.995231 0.744882 0.018344 -0.030779 -1404550.000000 0 0 1
16.109319 22.478915 29.237582 40.244851 0.948989 0.757592 0.067019 -0.019676 -1114440.000000 0 0 1
-8.747492 16.781315 4.432499 19.436517 -1.090283 1.340722 0.001774 -0.016066 -481304.000000 0 1 0
-8.604692 18.058515 4.962299 20.610073 -1.126133 1.327637 -0.000240 -0.013686 279650.000000 0 1 0
-7.254692 18.344315 5.296199 20.425332 -1.194198 1.308504 -0.003851 -0.007931 86885.400000 0 1 0
-7.007292 19.807815 5.708199 21.772350 -1.230772 1.305519 -0.004941 -0.006010 -99910.600000 0 1 0
-7.109392 20.834115 4.736199 22.517446 -1.241949 1.358879 -0.006263 -0.009074 325024.000000 0 1 0
-8.457292 21.245415 4.551899 23.315515 -1.191950 1.374304 -0.013280 -0.007467 246659.000000 0 1 0
-8.543092 22.398115 3.574299 24.237071 -1.206409 1.422784 -0.000156 -0.007028 322631.000000 0 1 0
-8.004292 22.296415 2.195099 23.791118 -1.226131 1.478399 -0.008875 -0.007773 150840.000000 0 1 0
-8.612992 21.274615 1.349199 22.991590 -1.186117 1.512080 0.002863 -0.007994 -942937.000000 0 1 0
-8.036792 21.178515 -0.123701 22.652479 -1.208105 1.576257 -0.003237 0.003550 1084750.000000 0 1 0
-6.700992 20.656915 -0.292401 21.718585 -1.257112 1.584260 0.000125 0.002610 1306820.000000 0 1 0
-5.714692 21.545415 0.288199 22.292278 -1.311527 1.557868 0.001721 -0.000171 -651785.000000 0 1 0
-4.311992 21.390115 -0.317901 21.822726 -1.371874 1.585364 0.005701 0.004434 -162859.000000 0 1 0
-4.197292 21.792815 -1.667001 22.255852 -1.380526 1.645768 0.004623 0.005184 -227330.000000 0 1 0
-2.897392 21.549215 -2.129401 21.847149 -1.437143 1.668419 0.005608 0.003553 -346109.000000 0 1 0
-2.802592 21.671915 -3.639601 22.153400 -1.442191 1.735835 0.014891 -0.001580 89405.800000 0 1 0
-1.575192 22.173115 -4.147701 22.612644 -1.499875 1.755265 0.015414 0.005283 196404.000000 0 1 0
-1.623892 22.633115 -5.502301 23.348881 -1.499171 1.808690 0.020713 0.001036 67158.800000 0 1 0
-0.284492 23.246015 -6.007301 24.011369 -1.558559 1.823668 0.016987 -0.005489 170547.000000 0 1 0
0.773308 22.336815 -5.881501 23.111109 1.536190 1.828115 0.019141 0.003252 -216836.000000 0 1 0
1.983308 22.839715 -6.411801 23.805405 1.484178 1.843506 0.014421 0.000767 -206716.000000 0 1 0
3.110308 21.833315 -6.523201 22.998257 1.429291 1.858383 0.010477 0.004382 -603430.000000 0 1 0
2.986108 20.841915 -7.563601 22.372088 1.428491 1.915675 0.015683 -0.003240 -128965.000000 0 1 0
4.006108 19.889215 -7.692401 21.697991 1.372035 1.933198 0.017396 -0.000171 95653.100000 0 1 0
3.612908 18.961615 -8.904801 21.257738 1.382515 2.003027 0.008545 0.000193 186230.000000 0 1 0
3.962408 19.458115 -10.162201 22.306709 1.369905 2.043805 0.014828 -0.002277 128121.000000 0 1 0
3.130808 18.906315 -11.175001 22.184034 1.406690 2.098720 0.019916 -0.007925 57355.300000 0 1 0
3.411208 19.526815 -12.538201 23.455049 1.397848 2.134787 0.032408 -0.007761 119291.000000 0 1 0
3.143508 20.923615 -12.739501 24.697656 1.421674 2.112759 0.038700 -0.006229 21213.700000 0 1 0
3.527108 21.246315 -14.061101 25.720827 1.406286 2.149192 0.046617 -0.006600 -43747.200000 0 0 1
3.948208 22.680915 -14.361901 27.134415 1.398447 2.128557 0.045201 -0.007601 306072.000000 0 0 1
2.871608 23.628515 -14.528601 27.886074 1.449858 2.118817 0.052270 -0.006537 300436.000000 0 0 1
3.215808 24.861515 -15.100201 29.265209 1.442162 2.112945 0.043286 -0.004318 193288.000000 0 0 1
1.899008 25.478915 -15.687601 29.981364 1.496401 2.121451 0.046172 -0.006215 659565.000000 0 0 1
0.978008 25.892515 -14.710101 29.795401 1.533042 2.087140 0.051646 -0.012633 -275563.000000 0 0 1
1.279608 27.204315 -14.259501 30.741593 1.523794 2.053133 0.035516 -0.013739 -876218.000000 0 0 1
0.432508 27.590515 -12.995601 30.500971 1.555122 2.010943 0.038121 -0.017729 1988540.000000 0 0 1
-1.026892 27.667715 -13.193601 30.669661 -1.533698 2.015493 0.037465 -0.020362 2002080.000000 0 0 1
-1.721192 26.487015 -13.513701 29.784973 -1.505905 2.041719 0.034188 -0.021737 -965628.000000 0 0 1
-1.612692 25.310715 -12.535601 28.290889 -1.507167 2.029846 0.058728 -0.022234 -423823.000000 0 0 1
-2.127692 25.527915 -11.219101 27.965510 -1.487641 1.983597 0.038532 -0.016262 36612.100000 0 0 1
-2.307592 24.314815 -10.551101 26.605656 -1.476175 1.978578 0.058730 -0.016554 -519263.000000 0 0 1
-3.103692 24.384915 -9.268401 26.270901 -1.444198 1.931359 0.046822 -0.010457 -583001.000000 0 0 1
-2.675292 24.881815 -8.048401 26.287614 -1.463688 1.881960 0.042175 -0.013091 -322426.000000 0 0 1
-2.295392 26.274515 -7.924301 27.539309 -1.483656 1.862668 0.036836 -0.016803 -62031.600000 0 0 1
-2.220092 26.759515 -6.487601 27.624073 -1.488021 1.807864 0.030461 -0.010246 423646.000000 0 0 1
-1.124092 26.131815 -5.815601 26.794711 -1.527807 1.789580 0.019693 -0.011128 321945.000000 0 0 1
-0.951792 26.751415 -4.547201 27.151817 -1.535232 1.739062 0.015999 -0.012054 -237035.000000 0 0 1
-1.804892 26.169615 -3.396001 26.450694 -1.501936 1.699542 0.017775 -0.010340 867119.000000 0 0 1
-3.216392 26.439715 -3.509601 26.864866 -1.449741 1.701810 0.009891 -0.010856 613587.000000 0 0 1
-3.928992 25.589415 -2.678801 26.027507 -1.418446 1.673901 0.007239 -0.002415 240492.000000 0 0 1
-5.110492 24.870315 -3.427801 25.620295 -1.368132 1.704991 0.005363 -0.000168 -1533.490000 0 0 1
-6.300392 25.603515 -3.489101 26.597157 -1.329515 1.702359 0.006651 -0.002957 -1142280.000000 0 0 1
-7.299792 24.739815 -3.868201 26.082722 -1.283875 1.719651 0.002519 -0.003094 -221000.000000 0 0 1
-8.703992 25.391815 -4.038101 27.144244 -1.240561 1.720115 0.005307 -0.004108 163420.000000 0 0 1
-9.178692 25.912915 -2.806101 27.633345 -1.230373 1.672519 -0.001652 -0.009777 -1191390.000000 0 0 1
-10.375792 26.578915 -3.042101 28.694079 -1.198613 1.677014 0.001280 -0.004841 -903457.000000 0 0 1
-11.150092 26.734415 -1.757801 29.019706 -1.175663 1.631406 -0.005841 -0.002271 -553801.000000 0 0 1
-11.723092 25.585615 -1.203501 28.169185 -1.141152 1.613533 -0.002559 -0.007584 -473736.000000 0 0 1
-10.797292 24.725415 -0.651101 26.987990 -1.159068 1.594924 -0.005966 -0.008588 -815682.000000 0 0 1
-11.271992 23.312315 -0.288801 25.896047 -1.120419 1.581949 0.002738 -0.008957 -513341.000000 0 0 1
-12.024992 23.268315 0.877399 26.206578 -1.093802 1.537310 0.010894 -0.008736 -164059.000000 0 0 1
-12.391592 21.924815 1.210499 25.213377 -1.056369 1.522768 0.017617 -0.015216 132011.000000 0 0 1
-13.259192 21.741015 2.517699 25.589387 -1.023151 1.472248 0.026306 -0.015005 156671.000000 0 0 1
-12.592392 21.955415 3.755399 25.587333 -1.050057 1.423496 0.036031 -0.016265 90457.600000 0 0 1
-12.499792 23.299115 4.110299 26.757954 -1.078383 1.416575 0.016521 -0.005948 -98448.200000 0 0 1
-12.237592 23.470615 5.656899 27.067119 -1.090175 1.360249 0.014726 -0.011055 -131590.000000 0 0 1
-10.994392 23.092415 6.187699 26.313949 -1.126448 1.333424 0.005934 -0.010339 36692.900000 0 0 1
-11.216192 22.821815 7.581199 26.535123 -1.113998 1.281055 0.003102 -0.006367 435240.000000 0 0 1
-9.954792 22.259315 8.301899 25.758426 -1.150257 1.242640 0.010558 -0.013341 173755.000000 0 0 1
-8.844892 23.128415 8.374399 26.139745 -1.205532 1.244676 0.009521 -0.012122 707792.000000 0 0 1
-7.808592 22.636715 9.271599 25.677958 -1.238625 1.201379 0.013530 -0.010486 473590.000000 0 0 1
-8.082592 22.533315 10.835899 26.277277 -1.226396 1.145745 0.011773 -0.014496 -328480.000000 0 0 1
-8.962992 21.457915 11.127899 25.779982 -1.175124 1.124476 0.017890 -0.013064 216171.000000 0 0 1
-8.499292 20.827715 12.318099 25.646973 -1.183347 1.069806 0.013464 -0.011217 -368666.000000 0 0 1
-9.490292 19.844815 12.929899 25.515968 -1.124720 1.039400 0.016334 -0.015582 -772654.000000 0 0 1
-9.717292 18.746315 12.006299 24.289942 -1.092571 1.053777 0.027804 -0.024610 -78398.100000 0 1 0
-10.122992 17.629015 12.734499 23.988009 -1.049546 1.011170 0.021095 -0.022846 -295205.000000 0 1 0
-10.569992 16.496415 11.766299 22.853932 -1.000955 1.029966 0.025273 -0.023019 -140904.000000 0 1 0
-10.748392 15.270015 12.412099 22.422343 -0.957465 0.984164 0.016871 -0.020920 -117163.000000 0 1 0
-11.110992 14.282915 11.438799 21.407987 -0.909663 1.007089 0.016656 -0.012476 93241.000000 0 1 0
-11.491592 12.826515 11.954699 20.964041 -0.840237 0.963989 0.010401 -0.015330 261269.000000 0 1 0
-12.555692 12.886415 12.887899 22.131494 -0.798396 0.949201 0.014609 -0.006555 -283348.000000 0 1 0
-13.224192 11.673915 12.963499 21.890908 -0.723214 0.937027 0.017433 -0.002980 -35429.400000 0 1 0
-14.122692 11.632015 14.199899 23.160124 -0.688990 0.910794 0.020030 0.007283 1339050.000000 0 1 0
-15.284092 12.522715 14.237499 24.354224 -0.686417 0.946408 0.024199 0.015609 1224560.000000 0 1 0
-16.024492 12.530515 15.443399 25.540100 -0.663644 0.921442 0.021063 0.019079 335985.000000 0 0 1
-16.980492 13.736015 15.635699 26.860571 -0.680162 0.949480 0.038228 0.020771 626350.000000 0 0 1
-18.111292 13.671115 14.775699 27.078396 -0.646591 0.993615 0.037197 0.026100 479314.000000 0 0 1
-19.068992 14.725115 14.891799 28.323508 -0.657560 1.017170 0.046919 0.019796 378445.000000 0 0 1
-20.377192 14.467315 14.111799 28.699756 -0.617390 1.056750 0.040551 0.018106 327327.000000 0 0 1
-21.039892 13.272815 14.583699 28.836243 -0.562788 1.040554 0.035340 0.027208 498786.000000 0 0 1
-22.156192 12.862115 13.785499 29.092453 -0.525973 1.077137 0.015917 0.027097 404012.000000 0 0 1
-23.059292 11.922615 14.635599 29.800678 -0.477188 1.057426 -0.002148 0.029906 26196.000000 0 0 1
-23.748692 12.572115 15.683099 31.112988 -0.486875 1.042492 0.001216 0.023733 145630.000000 0 0 1
-24.481692 11.706615 16.501899 31.760207 -0.446038 1.024440 -0.006097 0.021975 -303864.000000 0 0 1
-25.143222 12.340415 17.708999 33.137231 -0.456264 1.006982 -0.010337 0.016208 -531669.000000 0 0 1
-26.250592 13.164915 17.383599 34.126208 -0.464854 1.036319 -0.016371 0.024488 288432.000000 0 0 1
-26.765592 13.691415 18.592399 35.348678 -0.472829 1.016939 -0.030255 0.021631 -299896.000000 0 0 1
-27.969362 14.588315 18.348199 36.493294 -0.480764 1.043981 -0.031770 0.013913 62083.400000 0 0 1
-27.504412 15.885315 17.805199 36.412374 -0.523752 1.059868 -0.029053 0.019365 1085430.000000 0 0 1
-28.639852 16.756915 17.683599 37.599800 -0.529385 1.081153 -0.020888 0.010384 245303.000000 0 0 1
-28.121622 18.155515 17.371499 37.712297 -0.573281 1.092089 0.001955 0.002437 -246882.000000 0 0 1
-27.475602 18.876115 18.436399 38.093532 -0.601957 1.065602 0.000057 0.000644 -405087.000000 0 0 1
-28.184252 19.229115 19.554799 39.325578 -0.598724 1.050366 0.003981 -0.009911 -1098740.000000 0 0 1
-27.250572 19.402715 20.785599 39.384009 -0.618742 1.014826 0.009337 -0.016145 459671.000000 0 0 1
-26.827962 18.254015 21.517699 38.935330 -0.597457 0.985253 -0.000432 -0.016493 -201456.000000 0 0 1
-26.066112 17.353815 20.761499 37.571757 -0.587376 0.985337 0.019394 -0.009061 -664835.000000 0 0 1
-25.633012 16.087415 21.485599 37.114514 -0.560471 0.953417 0.008932 -0.008469 -592030.000000 0 0 1
-26.701972 15.223915 21.615399 37.576433 -0.518176 0.957901 -0.032899 -0.004983 -361538.000000 0 0 1
-26.359562 14.062015 22.299899 37.280722 -0.490063 0.929591 -0.036734 0.013748 -547747.000000 0 0 1
-27.561252 13.156415 22.504099 37.936108 -0.445366 0.935755 -0.033445 0.004116 -469220.000000 0 0 1
-28.253982 12.758615 21.369999 37.652976 -0.424158 0.967268 -0.026662 -0.001189 -3271.840000 0 0 1
-29.152412 11.683815 21.577799 38.104803 -0.381182 0.968817 -0.000644 -0.003783 -366577.000000 0 0 1
-29.940662 11.336515 20.283899 37.899820 -0.361952 1.006054 0.009982 0.004596 -267369.000000 0 0 1
-29.227962 10.965615 19.110899 36.602526 -0.358925 1.021462 0.011059 0.002575 85647.700000 0 0 1
-28.450132 9.794315 19.197899 35.691707 -0.331554 1.002875 0.022669 0.003674 -2751.610000 0 0 1
-27.625512 9.447015 17.884299 34.238328 -0.329501 1.021195 0.026837 0.006459 -11010.700000 0 0 1
-28.318112 9.051315 16.690299 34.094103 -0.309367 1.059238 0.016543 0.020032 590012.000000 0 0 1
-29.217842 10.024415 16.132899 34.848839 -0.330508 1.089488 0.011568 0.020366 -26244.600000 0 0 1
-28.596122 11.195815 15.277399 34.299903 -0.373171 1.109168 -0.003629 0.017362 -268306.000000 0 0 1
-28.250492 10.817015 13.983099 33.326043 -0.365676 1.137809 -0.016277 0.009584 229647.000000 0 0 1
-27.397662 11.780015 13.393399 32.692258 -0.406068 1.148692 -0.015818 0.017154 -28769.700000 0 0 1
-27.016222 11.633315 11.894999 31.728556 -0.406608 1.186509 -0.010522 0.015993 -926441.000000 0 0 1
-26.306172 10.502815 11.512599 30.575541 -0.379862 1.184749 0.004549 0.019091 386160.000000 0 0 1
-27.173072 9.434515 11.170899 30.857331 -0.334179 1.200365 -0.004727 0.013608 -601830.000000 0 0 1
-26.510512 8.240215 10.553099 29.699769 -0.301361 1.207534 -0.007022 -0.000112 -1056880.000000 0 0 1
-25.795582 8.562815 9.447599 28.774832 -0.320504 1.236263 -0.009937 -0.000690 -51054.500000 0 0 1
-25.590822 7.430415 8.621999 28.007858 -0.282585 1.257872 0.003918 -0.003519 -131943.000000 0 0 1
-25.007492 7.903915 7.264499 27.214324 -0.306127 1.300583 0.004216 0.001684 -391423.000000 0 0 1
-25.951052 8.629615 6.508699 28.112106 -0.321031 1.337150 0.005705 0.005122 54407.200000 0 0 1
-25.429042 8.862815 5.243999 27.435108 -0.335366 1.378471 0.014382 -0.000009 -113437.000000 0 0 1
-26.464452 8.770715 4.103999 28.180409 -0.320023 1.424644 0.007017 0.003696 -254600.000000 0 0 1
-26.878272 7.447215 3.736399 28.140064 -0.270291 1.437624 0.010474 0.001430 494578.000000 0 0 1
-25.869512 6.471215 3.374399 26.879264 -0.245118 1.444925 0.003252 0.000379 88764.900000 0 0 1
-25.059292 6.749915 2.122499 26.039095 -0.263113 1.489194 0.030961 -0.003143 -583901.000000 0 0 1
-23.904992 7.518415 2.334699 25.167956 -0.304717 1.477898 0.024853 -0.004110 -179936.000000 0 0 1
-23.161692 7.630715 1.181999 24.414932 -0.318255 1.522364 0.043771 -0.002277 -835119.000000 0 1 0
-21.975292 8.566615 1.330199 23.623500 -0.371708 1.514458 0.038555 -0.001591 -511500.000000 0 1 0
-22.379892 9.858815 1.683699 24.513071 -0.414943 1.502056 0.031672 -0.005799 954032.000000 0 1 0
-21.203292 10.639115 1.877899 23.796992 -0.465060 1.491801 0.035543 -0.001545 169916.000000 0 1 0
-21.555692 12.061215 2.272499 24.804939 -0.510136 1.479053 0.026526 -0.001857 -322670.000000 0 1 0
-20.441892 12.903915 2.464799 24.299325 -0.563080 1.469187 0.023294 -0.007535 27662.100000 0 1 0
-20.780192 14.121815 3.082799 25.312955 -0.596890 1.448706 0.001240 -0.015497 -743008.000000 0 0 1
-19.663592 14.763315 3.903499 24.896779 -0.644009 1.413359 -0.013576 -0.013112 -442078.000000 0 1 0
-19.289092 13.863115 4.941999 24.262695 -0.623168 1.365674 -0.009726 -0.014230 249427.000000 0 1 0
-18.360092 14.456415 5.821899 24.082679 -0.667000 1.326631 -0.011130 -0.017199 -139707.000000 0 1 0
-17.866192 13.526915 6.968099 23.467694 -0.648045 1.269328 -0.019182 -0.013954 -639917.000000 0 1 0
-17.084592 12.492215 6.575099 22.162370 -0.631359 1.269584 0.003949 -0.020070 -274724.000000 0 1 0
-16.494192 11.871115 7.721799 21.739547 -0.623835 1.207673 -0.002280 -0.003407 -425716.000000 0 1 0
9.842108 -33.765455 -14.245501 37.946111 -1.287170 1.955640 -0.004143 0.020655 -233382.000000 0 0 1
10.980208 -33.412255 -13.495801 37.670683 -1.253286 1.937197 -0.007336 0.012649 -37491.300000 0 0 1
11.591408 -32.238555 -14.011801 37.013723 -1.225638 1.959033 -0.006335 -0.002828 -1076790.000000 0 0 1
12.898708 -31.965955 -13.342201 36.962322 -1.187264 1.940102 0.000573 -0.004159 -1082300.000000 0 0 1
14.044508 -32.471555 -13.988901 38.043914 -1.162576 1.947335 0.004740 -0.004122 -232777.000000 0 0 1
15.202708 -31.799155 -13.559101 37.764504 -1.124834 1.938039 0.007073 -0.007548 -632651.000000 0 0 1
16.476408 -32.420655 -14.092701 39.002245 -1.100605 1.940491 0.017568 -0.006170 -617964.000000 0 0 1
16.686908 -33.605555 -13.379801 39.834725 -1.109911 1.913339 0.016754 -0.018089 -275686.000000 0 0 1
17.482708 -34.531955 -14.097801 41.192827 -1.102140 1.920095 0.010704 0.000674 67024.700000 0 0 1
17.407208 33.314815 -13.610201 39.976560 1.089306 1.918197 0.001545 -0.001407 -116001.000000 0 0 1
18.066808 33.024015 -12.395501 39.631346 1.070197 1.888904 0.000906 -0.005424 -190544.000000 0 0 1
17.979908 31.647315 -12.156301 38.374540 1.054138 1.893129 -0.004340 -0.003711 125369.000000 0 0 1
18.591208 31.123415 -10.818701 37.833111 1.032336 1.860803 0.006592 -0.009777 1123630.000000 0 0 1
19.974908 30.730315 -10.958701 38.254965 0.994416 1.861331 0.004545 -0.006139 646037.000000 0 0 1
20.554908 30.628115 -9.724801 38.146526 0.979722 1.828575 0.009690 -0.006789 -132771.000000 0 0 1
21.880808 29.855915 -9.637301 38.249484 0.938342 1.825500 -0.002137 0.006053 452921.000000 0 0 1
23.006308 30.435515 -10.312701 39.521673 0.923528 1.834790 0.000143 -0.004935 44046.100000 0 0 1
24.124108 29.639215 -10.024901 39.508914 0.887622 1.827339 -0.001386 0.005126 -404207.000000 0 0 1
25.353708 29.982015 -10.880701 40.744588 0.868844 1.841123 -0.003137 -0.001864 -316190.000000 0 0 1
25.739608 31.309815 -10.668901 41.912497 0.882728 1.828181 -0.003117 -0.013813 -883970.000000 0 0 1
26.814208 31.550815 -11.486501 42.969703 0.866376 1.841403 0.001893 -0.013368 -557657.000000 0 0 1
27.544008 32.916615 -11.390701 44.406351 0.874027 1.830207 0.004676 -0.012733 -243017.000000 0 0 1
26.820508 34.000315 -11.955601 44.925466 0.902903 1.840163 0.013964 -0.010924 -259611.000000 0 0 1
27.307908 -33.939855 -11.745901 45.117644 -0.893259 1.834170 0.031077 -0.012159 86878.400000 0 0 1
26.268808 -32.827655 -12.103001 43.751432 -0.895931 1.851083 0.026209 -0.010088 605977.000000 0 0 1
25.093708 -32.848655 -11.284301 42.849315 -0.918446 1.837288 0.034056 -0.010684 85381.500000 0 0 1
24.088108 -31.957555 -11.696401 41.693262 -0.924898 1.855147 0.037287 -0.015782 23709.900000 0 0 1
24.233208 -30.470655 -11.316501 40.543463 -0.898930 1.853674 0.031961 -0.010531 -856963.000000 0 0 1
25.234308 -29.889255 -12.074501 40.938142 -0.869644 1.870194 0.024079 -0.004966 -493056.000000 0 0 1
25.679008 -28.652655 -11.515501 40.162082 -0.840075 1.861604 0.020305 -0.001692 104.239000 0 0 1
26.468108 -27.816955 -12.539301 40.392794 -0.810241 1.886446 0.023395 -0.004114 153995.000000 0 0 1
27.746308 -28.281255 -12.928301 41.675268 -0.794946 1.886216 0.010858 0.001714 109326.000000 0 0 1
27.746108 -29.264055 -13.956801 42.673454 -0.812018 1.903988 0.015922 -0.003333 -230809.000000 0 0 1
29.130708 -29.905055 -14.218401 44.102986 -0.798514 1.899050 0.015832 0.003223 213046.000000 0 0 1
29.465008 -30.978655 -13.317601 44.779708 -0.810435 1.872767 0.010532 -0.003430 -189241.000000 0 0 1
30.568408 -31.697855 -13.779801 46.141787 -0.803535 1.874064 0.001307 -0.002854 -330388.000000 0 0 1
31.035508 -32.869655 -12.800501 46.983718 -0.814091 1.846730 -0.012319 0.002266 230809.000000 0 0 1
31.843308 -33.825555 -13.515501 48.382158 -0.815574 1.853912 -0.012922 -0.003506 680138.000000 0 0 1
32.771408 -34.493055 -12.621301 49.224316 -0.810988 1.830096 -0.014182 0.001447 432164.000000 0 0 1
32.207108 33.561615 -11.821001 47.993915 0.805990 1.819659 -0.015152 -0.010911 -73784.100000 0 0 1
31.523808 34.028715 -10.654701 47.594397 0.823592 1.796574 -0.015956 -0.012319 -103128.000000 0 0 1
30.996708 32.912015 -9.991501 46.301477 0.815359 1.788299 -0.003250 -0.015937 -742065.000000 0 0 1
30.354108 33.312215 -8.650601 45.890178 0.831827 1.760438 -0.016178 -0.010012 -24794.900000 0 0 1
29.129908 33.978415 -8.876901 45.627663 0.862076 1.766596 -0.014081 -0.005656 -509366.000000 0 0 1
28.625708 34.503915 -7.715401 45.491524 0.878244 1.741221 -0.007666 -0.001291 24985.100000 0 0 1
27.640208 -33.609555 -7.953301 44.236165 -0.882550 1.751571 0.002217 -0.002414 -217815.000000 0 0 1
28.244308 -32.344655 -8.157301 43.708800 -0.852970 1.758525 -0.013096 0.007560 183010.000000 0 0 1
27.313008 -31.324455 -8.468701 42.413922 -0.853703 1.771815 -0.002275 0.005971 1022350.000000 0 0 1
26.265708 -30.758855 -7.378701 41.114958 -0.864029 1.751239 0.006203 0.005798 1212400.000000 0 0 1
25.642208 -29.573255 -7.896201 39.930568 -0.856473 1.769857 0.010270 -0.003703 268762.000000 0 0 1
24.616008 -29.025155 -7.086401 38.712072 -0.867411 1.754888 0.007509 -0.001803 884080.000000 0 0 1
23.467608 -28.211255 -7.790301 37.513895 -0.876933 1.779983 0.034857 -0.006948 821125.000000 0 0 1
22.622508 -28.994655 -8.667901 37.783599 -0.908227 1.802267 0.055419 -0.008868 661079.000000 0 0 1
21.716708 -28.187955 -9.406101 36.805583 -0.914351 1.829225 0.071764 -0.013163 723909.000000 0 0 1
20.496908 -28.955255 -10.049501 36.871703 -0.954800 1.846842 0.068469 -0.015641 512507.000000 0 0 1
20.794908 -29.717755 -11.221601 37.967058 -0.960240 1.870840 0.069953 -0.020063 -156988.000000 0 0 1
19.728808 -30.489255 -11.737501 38.165291 -0.996481 1.883407 0.061310 -0.020217 103210.000000 0 0 1
19.317808 -31.817055 -11.082501 38.837154 -1.025134 1.860176 0.057497 -0.027550 -222021.000000 0 0 1
20.370808 -32.725955 -11.056101 40.102310 -1.014021 1.850111 0.045023 -0.023813 -270520.000000 0 0 1
19.909008 -34.027855 -10.813401 40.880229 -1.041420 1.838496 0.039901 -0.024139 -58140.700000 0 0 1
21.133908 34.343315 -10.791701 41.744056 1.019151 1.832287 0.029946 -0.015167 -214156.000000 0 0 1
21.907208 34.341115 -9.627601 41.856047 1.002953 1.802891 0.031819 -0.017244 -563940.000000 0 0 1
23.169508 33.853515 -9.981501 42.219865 0.970614 1.809473 0.019705 -0.013339 -288364.000000 0 0 1
24.353908 34.103015 -9.018501 42.865626 0.950651 1.782770 0.015788 -0.012827 -91041.200000 0 0 1
24.445408 33.485015 -7.754701 42.177715 0.940192 1.755706 0.010361 -0.013817 -124656.000000 0 0 1
25.189008 32.269815 -7.777801 41.669189 0.908013 1.758553 0.013696 -0.009036 172388.000000 0 0 1
25.439108 31.628915 -6.314301 41.078059 0.893439 1.725123 0.018496 -0.011428 317962.000000 0 0 1
26.452808 32.332815 -5.568601 42.144648 0.885091 1.703315 0.007677 -0.010369 151396.000000 0 0 1
27.313808 31.510415 -4.789201 41.974836 0.856619 1.685142 0.019447 -0.011451 -23072.200000 0 0 1
26.752508 30.586415 -3.722001 40.805377 0.852163 1.662137 0.020513 -0.002554 -962691.000000 0 0 1
26.141708 31.224615 -2.674001 40.810731 0.873772 1.636365 0.018472 -0.005550 -280838.000000 0 0 1
25.888008 30.352715 -1.570101 39.924197 0.864618 1.610134 0.010395 0.002428 124717.000000 0 0 1
24.698608 29.341615 -1.638901 38.387988 0.871105 1.613502 0.012611 0.000452 -478793.000000 0 0 1
23.488508 30.026415 -1.471001 38.150485 0.906966 1.609364 0.009541 -0.001049 -997165.000000 0 0 1
22.427508 29.122415 -1.587901 36.791706 0.914548 1.613969 0.010555 0.003166 -164090.000000 0 0 1
21.124608 29.700915 -0.985401 36.460451 0.952564 1.597826 0.023448 -0.004476 82266.500000 0 0 1
21.161308 29.791615 0.434599 36.544906 0.953184 1.558904 0.033023 -0.012671 -1116340.000000 0 0 1
20.056408 30.444815 0.867399 36.467776 0.988274 1.547009 0.031792 -0.011251 -1358150.000000 0 0 1
19.428208 29.746615 2.094799 35.590793 0.992229 1.511904 0.027879 -0.022254 -397604.000000 0 0 1
18.704108 28.581015 1.776499 34.203422 0.991317 1.518834 0.028208 -0.013915 424195.000000 0 0 1
18.137108 27.874815 2.890099 33.381323 0.993955 1.484109 0.045294 -0.014781 23267.900000 0 0 1
17.489608 26.523815 2.465799 31.866587 0.987847 1.493340 0.035266 0.010428 228638.000000 0 0 1
18.383108 25.527115 1.946599 31.517638 0.946681 1.508995 0.023355 0.002029 87010.200000 0 0 1
19.229808 24.968715 2.890799 31.647733 0.914520 1.479326 0.034209 0.003781 -980713.000000 0 0 1
20.477608 24.323915 2.310299 31.879818 0.871040 1.498264 0.027145 0.006576 -734572.000000 0 0 1
20.222108 23.191915 1.464299 30.804915 0.853698 1.523244 0.026781 0.015300 317259.000000 0 0 1
21.461208 22.593315 1.168599 31.183441 0.811090 1.533313 0.005038 0.010916 -42563.700000 0 0 1
21.355108 21.554515 0.019799 30.342020 0.790045 1.570144 0.031102 0.003481 -276461.000000 0 0 1
21.237208 22.018115 -1.274301 30.617646 0.803450 1.612428 0.009919 0.007999 441070.000000 0 0 1
21.440508 21.018715 -2.251001 30.108949 0.775464 1.645628 0.042018 -0.002562 -91931.300000 0 0 1
21.215808 21.481915 -3.691601 30.417283 0.791630 1.692462 0.020895 -0.003383 -11776.700000 0 0 1
22.190708 22.416515 -4.108401 31.808908 0.790460 1.700317 0.009777 0.011044 524267.000000 0 0 1
21.840808 22.950115 -5.395401 32.137813 0.810159 1.739478 0.011166 -0.001485 -119251.000000 0 0 1
22.674308 24.248015 -5.661201 33.676991 0.818924 1.739701 0.007201 0.019221 9538.490000 0 0 1
22.314908 25.398315 -4.938901 34.167562 0.849932 1.715854 0.000630 0.021458 -4423.720000 0 0 1
22.764308 25.546115 -3.580201 34.404005 0.842917 1.675049 0.011012 0.013786 197104.000000 0 0 1
21.741908 25.146215 -2.463201 33.333318 0.857876 1.644760 0.004968 0.011808 -1038730.000000 0 0 1
20.778008 26.090115 -2.130701 33.420946 0.898258 1.634593 0.011797 0.012886 178891.000000 0 0 1
19.789408 25.730215 -1.192101 32.482084 0.915176 1.607505 0.026496 0.014853 302786.000000 0 0 1
18.847508 24.552515 -1.613301 30.994472 0.916100 1.622871 0.033101 0.002841 -952888.000000 0 0 1
18.157008 24.799515 -2.831401 30.865996 0.938816 1.662658 0.034911 0.001509 249783.000000 0 0 1
17.584608 23.681915 -3.437101 29.696216 0.932091 1.686798 0.034440 -0.008993 8442.150000 0 0 1
16.917608 24.078215 -4.765201 29.810620 0.958320 1.731334 0.041292 -0.014856 -109446.000000 0 0 1
16.169508 23.085915 -5.412201 28.700251 0.959798 1.760509 0.041973 -0.023761 111730.000000 0 0 1
15.679408 23.598815 -6.644801 29.101569 0.984354 1.801160 0.031484 -0.024387 -51479.700000 0 0 1
14.967708 22.498015 -7.491301 28.041266 0.983747 1.841234 0.032810 -0.020768 -1105930.000000 0 0 1
15.815408 21.443915 -7.867601 27.782509 0.935328 1.857910 0.014219 -0.012189 357509.000000 0 0 1
15.100808 20.353215 -8.473401 26.722393 0.932475 1.893456 0.019748 -0.006930 -419676.000000 0 0 1
15.942908 19.100815 -8.596901 26.323453 0.875269 1.903487 0.006249 -0.001607 -339659.000000 0 0 1
17.028608 19.419415 -9.456201 27.504671 0.850899 1.921761 -0.005434 -0.002723 -177677.000000 0 0 1
17.720608 18.219715 -9.628101 27.178637 0.799284 1.932911 -0.013550 0.003861 -376214.000000 0 0 1
19.061808 18.420715 -10.382901 28.468929 0.768296 1.944118 -0.011972 0.008379 -278194.000000 0 0 1
19.015808 18.934215 -11.748601 29.293943 0.783248 1.983469 -0.017641 0.007645 869291.000000 0 0 1
20.325008 19.061715 -12.350901 30.479497 0.753335 1.988016 -0.005761 0.011893 699839.000000 0 0 1
20.443908 19.424315 -13.906401 31.442732 0.759830 2.028932 -0.011137 0.012785 -318958.000000 0 0 1
20.163308 18.296915 -14.696301 30.940546 0.736908 2.065744 -0.012777 0.021687 382878.000000 0 0 1
19.877708 18.607815 -16.075101 31.619345 0.752413 2.104116 -0.009007 0.012095 -130265.000000 0 0 1
19.897708 17.384215 -16.998501 31.417810 0.718081 2.142477 0.000263 0.002466 -121581.000000 0 0 1
21.160408 16.725715 -17.005901 31.885939 0.668875 2.133335 0.014687 -0.005682 408092.000000 0 0 1
21.299108 15.894515 -18.128201 32.170162 0.641098 2.169425 0.026136 -0.010799 14425.200000 0 0 1
22.267908 16.376615 -19.248201 33.683030 0.634115 2.179069 0.021614 -0.011829 -847418.000000 0 0 1
23.588708 16.487415 -18.834401 34.394719 0.610023 2.150284 0.044257 -0.020433 -305600.000000 0 0 1
24.412908 16.760915 -19.970201 35.717325 0.601648 2.164118 0.065299 -0.024363 -849261.000000 0 0 1
25.827308 17.108015 -19.608201 36.663546 0.585043 2.135085 0.064566 -0.025232 -1025610.000000 0 0 1
25.908008 18.442315 -19.167001 37.131090 0.618627 2.113202 0.052913 -0.021209 381161.000000 0 0 1
27.207308 18.892315 -18.770401 38.072105 0.606947 2.086357 0.051749 -0.024101 346109.000000 0 0 1
27.157908 20.002515 -17.649301 38.067708 0.634822 2.052883 0.036985 -0.012189 167396.000000 0 0 1
26.674508 19.589415 -16.345201 36.911247 0.633434 2.029543 0.030621 -0.018528 679546.000000 0 0 1
25.251008 19.723115 -16.260701 35.930838 0.663099 2.040425 0.035517 -0.011567 252439.000000 0 0 1
24.645508 19.015115 -15.050801 34.576037 0.657148 2.021163 0.027247 -0.001733 -102460.000000 0 0 1
25.082408 19.487915 -13.761001 34.616054 0.660531 1.979622 0.024405 -0.002669 25913.100000 0 0 1
24.120908 19.170115 -12.788101 33.359362 0.671532 1.964210 0.019956 -0.003445 -350680.000000 0 0 1
24.475008 19.657815 -11.356201 33.382915 0.676676 1.917905 0.026588 -0.003539 -247012.000000 0 0 1
24.355208 21.090015 -11.303901 34.142980 0.713672 1.908239 0.013275 0.000309 -120298.000000 0 0 1
25.030208 21.688015 -10.257701 34.671339 0.713980 1.871147 0.012024 -0.000562 -36145.300000 0 0 1
24.388308 21.525915 -8.816101 33.702793 0.723137 1.835459 0.018911 -0.001339 -202202.000000 0 0 1
24.317308 20.179915 -8.450101 32.710314 0.692684 1.832091 0.030350 -0.012725 156081.000000 0 0 1
23.721808 19.905515 -7.204901 31.794093 0.698145 1.799393 0.035205 -0.016284 -694124.000000 0 0 1
22.222508 19.658915 -7.277101 30.549452 0.724264 1.811316 0.026767 -0.012644 -708359.000000 0 0 1
21.469908 20.856815 -7.414701 30.837339 0.770914 1.813621 0.022934 -0.006172 137692.000000 0 0 1
20.106308 20.566315 -7.685401 29.770830 0.796708 1.831905 0.027782 -0.007867 31730.700000 0 0 1
19.319308 21.934015 -7.615201 30.204768 0.848695 1.825666 0.008420 -0.006242 -514562.000000 0 0 1
19.577708 22.805215 -8.725601 31.296975 0.861403 1.853341 -0.001790 0.003540 125740.000000 0 0 1
19.118408 22.484315 -10.042201 31.175371 0.866128 1.898764 -0.009175 0.005055 112394.000000 0 0 1
17.629508 22.843715 -10.285201 30.633646 0.913523 1.913196 0.001257 0.000807 -20658.900000 0 0 1
17.391008 24.267015 -10.214201 31.554161 0.948982 1.900438 0.007822 -0.000183 -432252.000000 0 0 1
16.069608 24.622815 -10.469501 31.210988 0.992574 1.912872 0.015866 0.002077 -376099.000000 0 0 1
15.844208 26.156515 -10.109201 32.208666 1.026162 1.890058 0.019554 0.002620 8661.130000 0 0 1
16.633108 26.963215 -10.964401 33.524519 1.018056 1.903983 0.038630 0.011077 259075.000000 0 0 1
16.869308 28.178715 -10.324401 34.426833 1.031367 1.875378 0.044798 -0.005329 -251946.000000 0 0 1
18.833208 29.206115 33.300982 48.131511 0.998059 0.806714 0.010079 0.016823 230276.000000 0 0 1
17.487608 29.638315 33.336033 47.911766 1.037737 0.801291 0.016158 -0.001067 76831.100000 0 0 1
16.592008 28.622615 33.778453 47.281421 1.045451 0.775012 0.021434 -0.001463 81497.600000 0 0 1
15.148708 29.112915 33.957955 47.224866 1.091007 0.768334 0.045752 -0.011052 -198611.000000 0 0 1
14.567408 29.405015 32.686352 46.316972 1.110831 0.787372 0.062558 -0.011380 -1297130.000000 0 0 1
13.266708 29.825615 32.809752 46.282315 1.152267 0.782852 0.027991 -0.011612 -1386280.000000 0 0 1
12.485608 29.761815 31.452802 45.065894 1.173578 0.798294 0.034122 -0.012390 -55301.800000 0 0 1
12.279808 28.418815 31.008472 43.817212 1.162926 0.784590 0.031360 -0.017480 -522138.000000 0 0 1
10.924508 28.118515 31.125482 43.345028 1.200229 0.769747 0.014570 -0.005803 -861434.000000 0 0 1
10.606208 26.628915 30.882052 42.134213 1.191759 0.748156 -0.011545 -0.001450 -103870.000000 0 0 1
10.866708 26.070215 29.619462 40.927424 1.175871 0.761637 -0.007038 0.004960 373386.000000 0 0 1
12.250308 25.892715 29.332062 40.998447 1.128885 0.773538 -0.005441 -0.002129 265939.000000 0 0 1
12.509808 25.182715 27.984392 39.671031 1.109743 0.787793 0.012164 -0.011702 -250366.000000 0 0 1
12.134708 25.904015 26.854322 39.235491 1.132707 0.816962 0.005635 -0.004827 -90241.300000 0 0 1
12.390408 25.188615 25.669532 38.038315 1.113646 0.830057 0.018987 -0.008874 -156074.000000 0 0 1
11.339408 24.131215 25.332702 36.778303 1.131512 0.810971 0.005180 -0.004783 -413476.000000 0 0 1
11.636908 23.534415 24.081592 35.625966 1.111588 0.828535 0.017107 -0.009577 453019.000000 0 0 1
10.632708 22.524715 23.864582 34.495443 1.129761 0.806792 0.028090 -0.010416 743260.000000 0 0 1
10.453408 22.167715 22.370782 33.183328 1.130158 0.830973 0.039200 -0.011301 120750.000000 0 0 1
9.921408 23.254015 21.644582 33.281699 1.167526 0.862758 0.041202 -0.012458 -129738.000000 0 0 1
9.998708 22.983015 20.237182 32.213921 1.160446 0.891543 0.037286 0.001187 -653457.000000 0 0 1
9.582708 24.104715 19.398082 32.390603 1.192408 0.928695 0.030703 -0.000127 862221.000000 0 0 1
8.191508 24.335215 19.114982 32.010718 1.246099 0.930861 0.029737 -0.001015 573372.000000 0 0 1
7.503408 24.975815 20.186682 32.978700 1.278948 0.912067 0.021683 -0.003046 -558519.000000 0 0 1
6.293608 25.753815 19.700982 33.030247 1.331118 0.931722 0.030854 -0.002209 -1007740.000000 0 0 1
6.555708 26.872515 18.890782 33.495836 1.331514 0.971606 0.029850 -0.003418 33226.800000 0 0 1
5.296308 27.400415 18.499082 33.482080 1.379858 0.985427 0.015854 -0.003168 -7913.650000 0 0 1
5.399208 28.357515 17.329582 33.669193 1.382650 1.030137 0.019885 0.000081 101752.000000 0 0 1
5.772908 27.816115 16.051982 32.630183 1.366163 1.056484 0.020701 0.002281 35031.300000 0 0 1
6.581108 28.789715 15.394382 33.303839 1.346065 1.090276 0.016560 0.005347 33403.000000 0 0 1
7.126808 28.234115 14.080082 32.345098 1.323543 1.120416 0.014260 -0.000046 91688.400000 0 0 1
6.241108 28.083615 12.973182 31.558586 1.352117 1.147155 0.005559 -0.008234 -101459.000000 0 0 1
6.618808 27.008215 12.165682 30.352202 1.330466 1.158388 -0.003663 -0.009563 -265712.000000 0 0 1
5.933308 27.040415 10.808782 29.718983 1.354796 1.198560 -0.007808 -0.011921 -628800.000000 0 0 1
6.412308 27.859615 9.784182 30.215990 1.344571 1.241045 -0.009641 -0.008034 -44342.400000 0 0 1
6.480708 29.268015 10.096482 31.631555 1.352886 1.245921 -0.008953 -0.007277 42457.500000 0 0 1
6.977408 30.082715 8.829882 32.118854 1.342885 1.292297 -0.012584 -0.002058 -527636.000000 0 0 1
6.006208 29.964315 7.803382 31.540886 1.372973 1.320795 -0.010297 -0.013288 138825.000000 0 0 1
6.089608 28.972015 6.791282 30.374043 1.363623 1.345302 -0.004082 -0.005048 -693114.000000 0 0 1
4.661008 28.563415 6.475082 29.656709 1.409041 1.350689 -0.009275 -0.006857 -149504.000000 0 0 1
3.845508 29.546015 5.845082 30.363134 1.441371 1.377081 -0.016584 -0.013503 -672568.000000 0 0 1
2.519708 29.174215 5.697482 29.831947 1.484642 1.378630 -0.000801 -0.019076 -445155.000000 0 0 1
1.689108 30.181415 4.832082 30.612415 1.514889 1.412286 -0.003760 -0.022364 -445636.000000 0 0 1
2.110608 30.383215 3.499482 30.656823 1.501441 1.456397 -0.022057 -0.021593 22950.500000 0 0 1
1.163208 31.088215 2.698182 31.226757 1.533397 1.484282 -0.024998 -0.023007 -21471.300000 0 0 1
-0.091992 30.338015 2.248182 30.421340 -1.567764 1.496827 -0.002009 -0.021522 -643757.000000 0 0 1
0.101208 29.369915 1.232082 29.395921 1.567350 1.528871 0.000596 -0.016695 -82545.800000 0 0 1
-0.958792 28.447315 1.413282 28.498533 -1.537105 1.521185 0.008027 -0.013268 119145.000000 0 0 1
-1.428492 27.916515 0.046782 27.953078 -1.519671 1.569123 -0.001092 -0.014696 46654.900000 0 0 1
-2.125292 28.952815 -0.678318 29.038638 -1.497522 1.594158 -0.002641 -0.017214 109978.000000 0 0 1
-1.346092 29.542315 -1.689618 29.621194 -1.525263 1.627868 -0.008525 -0.013991 -803688.000000 0 0 1
-1.996492 30.803215 -2.316718 30.954664 -1.506072 1.645709 -0.019860 -0.012446 595087.000000 0 0 1
-3.198592 30.619315 -3.089718 30.940585 -1.466711 1.670823 0.005966 -0.009071 494219.000000 0 0 1
-3.195892 29.729815 -4.209918 30.196010 -1.463710 1.710672 -0.000704 -0.005988 -681273.000000 0 0 1
-4.578192 29.364915 -4.778618 30.101383 -1.416135 1.730222 0.004004 0.001075 -321535.000000 0 0 1
-5.182992 30.460415 -5.367918 31.361040 -1.402256 1.742808 -0.007223 0.004255 411278.000000 0 0 1
-6.328092 30.013615 -6.134618 31.280911 -1.362999 1.768189 -0.000753 0.001333 419197.000000 0 0 1
-6.911492 30.950915 -7.167518 32.513092 -1.351096 1.793072 -0.002558 0.009515 -275131.000000 0 0 1
-7.779392 31.882515 -6.536018 33.462415 -1.331471 1.767384 -0.011067 0.023160 104947.000000 0 0 1
-8.170592 32.950815 -7.391818 34.744118 -1.327736 1.785185 -0.016835 0.019273 -113806.000000 0 0 1
-8.989392 34.090915 -6.781818 35.902545 -1.312976 1.760833 -0.016014 0.017015 -251236.000000 0 0 1
-10.267392 33.645015 -6.406618 35.755435 -1.274605 1.750948 0.002363 0.008597 -889325.000000 0 0 1
-10.998192 -34.544655 -5.934718 36.735735 1.262567 1.733059 0.007696 0.007764 421035.000000 0 0 1
-12.538992 34.470315 -6.019018 37.170654 -1.221914 1.733442 0.034020 -0.003068 688643.000000 0 0 1
-13.013892 34.343415 -7.356618 37.455992 -1.208581 1.768488 0.041477 -0.007035 -663357.000000 0 0 1
-14.397092 34.236215 -7.435518 37.877191 -1.172724 1.768385 0.040274 -0.011736 -1006900.000000 0 0 1
-15.011292 34.219715 -8.881718 38.408498 -1.157401 1.804152 0.055104 -0.007942 573491.000000 0 0 1
-16.393892 33.980315 -9.117118 38.814216 -1.121285 1.807903 0.065869 -0.011914 -20593.200000 0 0 1
-17.197592 -34.238755 -8.732818 39.297730 1.105323 1.794889 0.064442 -0.015371 -1008950.000000 0 0 1
-18.697492 -34.624155 -8.932518 40.351185 1.075653 1.794015 0.053899 -0.008863 360843.000000 0 0 1
-19.281692 33.706615 -8.019818 39.651444 -1.051186 1.774459 0.041210 -0.002539 205692.000000 0 0 1
-19.519792 34.360315 -6.770518 40.093559 -1.054170 1.740477 0.045150 -0.010601 -684747.000000 0 0 1
-19.721492 33.297315 -5.613418 39.104461 -1.036069 1.714843 0.028899 -0.009192 -158111.000000 0 0 1
-19.508492 33.805615 -4.300118 39.266931 -1.047401 1.680526 0.034974 -0.015575 400503.000000 0 0 1
-20.704892 33.800015 -3.541218 39.795399 -1.021185 1.659900 0.030173 -0.005655 527054.000000 0 0 1
-21.726292 -34.293055 -3.690418 40.763519 1.006074 1.661453 0.041862 -0.009465 229104.000000 0 0 1
-22.322292 -34.163855 -4.958618 41.110115 0.992042 1.691709 0.035201 -0.017363 106320.000000 0 0 1
-22.959192 -32.908755 -5.152918 40.455694 0.961641 1.698515 0.035867 -0.018055 -173407.000000 0 0 1
-23.369692 -32.737855 -6.618418 40.764115 0.950840 1.733877 0.033830 -0.012662 84802.400000 0 0 1
-22.357492 -32.299455 -7.540418 39.999626 0.965328 1.760443 0.051351 -0.010001 214722.000000 0 0 1
-22.324292 -32.778555 -8.878818 40.640387 0.972892 1.791045 0.039428 -0.002757 141059.000000 0 0 1
-23.531192 -32.497755 -9.837618 41.311012 0.944087 1.811242 0.017044 -0.001227 -369371.000000 0 0 1
-24.694092 -33.192255 -9.466518 42.439827 0.931165 1.795746 -0.003735 0.010517 308394.000000 0 0 1
-25.975602 -32.673555 -9.802518 42.876362 0.899109 1.801459 -0.012083 0.012542 809319.000000 0 0 1
-26.321702 -31.172355 -9.490718 41.888201 0.869567 1.799354 -0.009023 0.015831 -781439.000000 0 0 1
-25.615322 -30.166555 -10.231118 40.875928 0.866808 1.823783 -0.018201 0.014460 -50805.600000 0 0 1
-26.029242 -29.986755 -11.602118 41.368297 0.855931 1.855069 -0.022856 0.016965 -192910.000000 0 0 1
-24.994692 -29.253855 -12.480318 40.450970 0.863749 1.884443 -0.024466 0.021289 -385295.000000 0 0 1
-23.829792 -30.024155 -12.674418 40.372635 0.899916 1.890132 -0.009420 0.012807 -135949.000000 0 0 1
-22.980692 -29.363855 -13.613718 39.694854 0.906744 1.920862 0.000249 0.007878 -447732.000000 0 0 1
-21.724292 -30.171055 -13.867018 39.680367 0.946749 1.927800 0.023345 -0.003674 -644477.000000 0 0 1
-21.937492 -31.351455 -14.724918 40.999883 0.960253 1.938148 0.024720 -0.000202 190580.000000 0 0 1
-22.606092 -32.459955 -14.067018 41.982913 0.962470 1.912471 0.013731 0.004802 159644.000000 0 0 1
-22.616092 -33.838955 -14.782218 43.302152 0.981633 1.919174 0.020850 0.004062 -91008.900000 0 0 1
-23.172892 34.467215 -13.942518 43.810565 -0.978892 1.894675 0.007517 -0.008913 -106048.000000 0 0 1
-23.345292 33.175415 -14.560018 43.099941 -0.957596 1.915396 0.011844 -0.016660 -140187.000000 0 0 1
-23.808692 32.118815 -13.446118 42.181396 -0.932906 1.895227 0.001082 -0.014609 181721.000000 0 0 1
-22.917992 31.768515 -12.348118 41.072484 -0.945848 1.876162 0.001690 -0.004503 452532.000000 0 0 1
-22.758292 32.802615 -11.379018 41.514256 -0.964247 1.848449 0.020134 -0.007296 45937.500000 0 0 1
-21.947192 32.177015 -10.192818 40.260813 -0.972201 1.826752 0.018221 -0.006389 -169394.000000 0 0 1
-22.550892 31.184115 -9.445318 39.625822 -0.944700 1.811476 0.013755 0.004674 136614.000000 0 0 1
-21.681292 30.677515 -8.430018 38.500046 -0.955555 1.791546 0.014726 0.006933 313209.000000 0 0 1
-22.448192 29.594515 -7.587418 37.912076 -0.921861 1.772289 0.005148 0.002171 187398.000000 0 0 1
-22.920092 28.563115 -8.402218 37.573653 -0.894571 1.796323 0.005064 0.012804 -16805.200000 0 0 1
-23.368792 27.367315 -7.760618 36.814366 -0.864046 1.783194 0.002144 0.000398 -205400.000000 0 0 1
-22.389992 26.553015 -6.878618 35.407481 -0.870253 1.766310 -0.001852 0.005185 -186161.000000 0 0 1
-22.333292 27.053115 -5.559418 35.518363 -0.880678 1.727965 0.005047 0.006923 406406.000000 0 0 1
-21.182092 26.627315 -4.842818 34.367831 -0.898804 1.712178 -0.000123 0.007583 722796.000000 0 0 1
-19.999892 27.661215 -4.767318 34.465429 -0.944781 1.709563 -0.005334 0.000100 488565.000000 0 0 1
-19.295892 27.834215 -5.980018 34.392377 -0.964619 1.745561 -0.005380 0.005636 498338.000000 0 0 1
-18.078992 28.569915 -5.808318 34.304906 -1.006609 1.740930 0.005679 0.002871 1033630.000000 0 0 1
-17.195292 28.487815 -7.165218 34.037832 -1.027733 1.782890 0.022538 0.002911 137083.000000 0 0 1
-17.731392 29.036215 -8.347918 35.031297 -1.022572 1.811410 0.033485 -0.000862 101732.000000 0 0 1
-17.868492 30.442215 -8.265418 36.253670 -1.040017 1.800808 0.058037 -0.002980 -144145.000000 0 0 1
-17.904192 31.026015 -9.752518 37.125265 -1.047408 1.836608 0.043957 0.000509 248614.000000 0 0 1
-16.626892 30.957615 -10.379618 36.641014 -1.077922 1.858007 0.050737 -0.004078 505489.000000 0 0 1
-16.619692 31.733315 -11.579518 37.647081 -1.088345 1.883446 0.049840 -0.007897 277207.000000 0 0 1
-15.180392 31.874115 -12.167918 37.342492 -1.126320 1.902703 0.053638 -0.009413 431600.000000 0 0 1
-14.934792 32.527515 -13.415418 38.223823 -1.140365 1.929403 0.053916 -0.008963 -206570.000000 0 0 1
-15.420092 31.828515 -14.512518 38.228874 -1.119646 1.960184 0.046949 -0.015457 -287735.000000 0 0 1
-14.788392 32.239915 -15.834818 38.843920 -1.140733 1.990678 0.069991 -0.013064 301689.000000 0 0 1
-13.398492 31.976215 -15.947118 38.161610 -1.174007 2.001911 0.064024 -0.015515 100689.000000 0 0 1
-12.995292 32.313015 -17.278518 38.878731 -1.188422 2.031324 0.045123 -0.015072 -369821.000000 0 0 1
-11.496492 32.128215 -17.540318 38.367359 -1.227162 2.045604 0.051185 -0.007013 -670705.000000 0 0 1
-11.095092 30.740715 -17.480818 37.063076 -1.224422 2.061958 0.057798 -0.017153 372130.000000 0 0 1
-9.743992 30.512615 -17.874118 36.680364 -1.261689 2.079784 0.047664 -0.014699 415605.000000 0 0 1
-9.413392 30.753415 -19.388118 37.553743 -1.273759 2.113294 0.045080 -0.010659 -534358.000000 0 0 1
-10.239392 30.018415 -20.242018 37.625652 -1.242069 2.138841 0.045454 -0.030473 180386.000000 0 0 1
-9.844192 30.301715 -21.558718 38.469213 -1.256680 2.165683 0.043727 -0.034677 -703977.000000 0 0 1
-10.816092 29.697615 -22.611418 38.861451 -1.221521 2.191794 0.054070 -0.035480 1008940.000000 0 0 1
-11.964992 30.502115 -22.923118 39.987615 -1.196974 2.181270 0.063261 -0.032531 1176070.000000 0 0 1
-13.011692 30.644515 -21.935918 39.869473 -1.169264 2.153392 0.067381 -0.034417 -87647.300000 0 0 1
-13.793592 31.914415 -22.194218 41.247744 -1.162838 2.138943 0.078079 -0.029417 -102879.000000 0 0 1
-14.544092 31.941315 -23.418918 42.192700 -1.143512 2.159215 0.066464 -0.029310 39378.100000 0 0 1
-15.079892 33.238015 -23.527718 43.424904 -1.144875 2.143376 0.056003 -0.016411 22019.700000 0 0 1
-15.510792 33.663715 -24.941318 44.675493 -1.139033 2.163104 0.050561 -0.008400 238701.000000 0 0 1
-14.454892 33.673915 -25.910018 44.879901 -1.165322 2.186238 0.051370 -0.006570 278185.000000 0 0 1
-14.880592 33.816415 -27.262918 45.915669 -1.156256 2.206521 0.051940 0.006295 64972.100000 0 0 1
-15.408392 -34.079855 -27.713718 46.550029 1.146176 2.208502 0.045003 0.012540 508946.000000 0 0 1
-16.652292 -33.728955 -27.104018 46.363444 1.112194 2.195182 0.046418 0.015567 328201.000000 0 0 1
-17.241392 -32.646255 -27.855218 46.248856 1.084901 2.217163 0.021991 0.026488 -368949.000000 0 0 1
-18.663192 -32.357955 -27.381518 46.315218 1.047631 2.203341 0.020411 0.017830 -721142.000000 0 0 1
-19.567892 -33.288755 -27.884718 47.629834 1.039379 2.196227 0.023754 0.018223 -1029440.000000 0 0 1
-20.818392 -33.117455 -27.265418 47.682012 1.009596 2.179516 0.029803 0.017319 -442061.000000 0 0 1
-21.845592 -34.126455 -27.678518 49.070817 1.001386 2.170082 0.016367 0.021132 -311165.000000 0 0 1
-21.478092 33.819515 -27.227618 48.439769 -1.004981 2.167710 0.033599 0.011112 673239.000000 0 0 1
-22.657192 32.992515 -27.359718 48.481012 -0.969027 2.170428 0.013778 0.011663 1140210.000000 0 0 1
-22.444092 31.479115 -26.971818 47.139695 -0.951410 2.179943 0.015834 0.011947 149562.000000 0 0 1
-22.252492 31.265615 -25.586618 46.123607 -0.952245 2.158847 0.025139 0.005231 -250865.000000 0 0 1
-22.615492 29.940315 -25.188518 45.192304 -0.923878 2.162003 0.009701 0.002257 36982.500000 0 0 1
29.736229 10.312215 -26.635281 41.231339 0.333812 2.273124 0.012275 0.011978 -26053.700000 0 0 1
29.287329 9.002615 -26.803521 40.709010 0.298222 2.289510 -0.004541 0.019145 307322.000000 0 0 1
27.950049 8.790315 -26.375241 39.422433 0.304707 2.303715 0.008944 0.012263 271679.000000 0 0 1
27.766329 7.332715 -25.977151 38.724025 0.258192 2.306121 0.001141 0.019661 -20036.600000 0 0 1
28.393419 7.040815 -24.750801 38.319205 0.243070 2.273013 -0.010836 0.025578 91437.800000 0 0 1
28.059649 5.748715 -24.386901 37.617982 0.202078 2.276117 -0.003025 0.023958 -110087.000000 0 0 1
28.149909 5.467215 -22.892601 36.693038 0.191830 2.244513 -0.000733 0.022837 173694.000000 0 0 1
29.443279 5.153915 -22.407701 37.357390 0.173290 2.214072 0.001551 0.015218 44993.400000 0 0 1
29.375849 4.779115 -21.025701 36.439821 0.161276 2.185845 -0.002913 0.011265 -383216.000000 0 0 1
30.664199 4.477115 -20.243801 37.015526 0.144980 2.149454 -0.008204 0.009091 -329195.000000 0 0 1
31.262019 3.216915 -20.623501 37.589775 0.102541 2.151541 -0.005974 0.007400 144532.000000 0 0 1
32.212429 2.971115 -19.608801 37.828206 0.091975 2.115734 0.003664 0.000862 -304406.000000 0 0 1
32.651719 1.491015 -19.487001 38.053924 0.045633 2.108412 0.010887 -0.000976 161453.000000 0 0 1
31.667569 0.656915 -18.843401 36.855668 0.020741 2.107465 0.018156 -0.000985 386813.000000 0 0 1
31.983229 -0.744285 -19.045301 37.231766 -0.023267 2.107765 0.011866 0.004373 286703.000000 0 0 1
30.913019 -1.681285 -18.421501 36.024897 -0.054334 2.107557 -0.006973 0.005208 421693.000000 0 0 1
30.973129 -1.696685 -17.023301 35.383700 -0.054725 2.072712 0.004327 0.002727 125526.000000 0 0 1
29.657669 -1.609285 -16.502901 33.978124 -0.054209 2.077951 -0.000321 0.002359 41115.800000 0 0 1
29.540709 -2.049885 -15.034801 33.209950 -0.069281 2.040610 0.006067 -0.007973 -158339.000000 0 0 1
29.686089 -3.434085 -14.881101 33.384188 -0.115168 2.032812 0.007424 0.000884 296328.000000 0 0 1
28.797189 -3.780085 -13.859101 32.181390 -0.130520 2.016016 0.025328 -0.003129 -201355.000000 0 0 1
28.681429 -5.352185 -13.667501 32.219107 -0.184486 2.008880 0.007927 0.000827 -115779.000000 0 0 1
27.965869 -6.042685 -14.675801 32.155606 -0.212802 2.044741 -0.005048 0.002455 527519.000000 0 0 1
27.664569 -7.339085 -14.150701 31.928559 -0.259315 2.029960 -0.010731 0.002391 -319752.000000 0 0 1
26.985189 -8.177885 -15.208201 32.036973 -0.294253 2.065428 -0.007158 0.006259 -326440.000000 0 0 1
25.650319 -7.857285 -15.519901 30.992630 -0.297248 2.095274 0.007555 -0.001389 92349.200000 0 0 1
25.061319 -8.851585 -16.328601 31.193645 -0.339520 2.121702 0.003783 0.006040 786782.000000 0 0 1
23.582519 -8.486785 -16.720901 30.128878 -0.345446 2.159134 0.006227 -0.001456 446594.000000 0 0 1
23.427319 -7.467885 -17.686801 30.289132 -0.308585 2.194360 0.007580 0.001411 19605.000000 0 0 1
22.074919 -7.396685 -18.102401 29.490845 -0.323314 2.231701 0.031495 -0.004594 121860.000000 0 0 1
21.731819 -7.647985 -19.587201 30.239413 -0.338389 2.275407 0.031248 0.001002 -42647.600000 0 0 1
22.217319 -6.613685 -20.436601 30.903151 -0.289328 2.293362 0.017371 0.000500 270842.000000 0 0 1
22.325219 -7.082085 -21.789201 31.989696 -0.307182 2.320104 0.017269 0.000777 -43443.100000 0 0 1
22.839319 -5.955985 -22.728301 32.767117 -0.255096 2.337315 0.014462 0.002274 -99518.600000 0 0 1
22.883719 -6.355285 -24.078001 33.820177 -0.270894 2.363056 0.012545 0.001244 339198.000000 0 0 1
22.837819 -5.299485 -25.010501 34.280836 -0.228013 2.388499 0.021361 -0.009479 -180993.000000 0 0 1
22.998919 -5.749385 -26.462591 35.528502 -0.244965 2.411072 0.029117 -0.006559 490935.000000 0 0 1
21.710019 -6.219885 -26.871721 35.101301 -0.279024 2.442689 0.029904 -0.006947 580632.000000 0 0 1
21.406119 -6.107585 -28.228521 35.949603 -0.277935 2.473855 0.019167 -0.006584 -16760.400000 0 0 1
20.191719 -6.927585 -28.688431 35.759237 -0.330506 2.501878 0.028293 -0.014334 -159403.000000 0 0 1
20.310219 -8.331185 -28.518191 35.988899 -0.389266 2.485557 0.029830 -0.009767 -545831.000000 0 0 1
19.364319 -9.058785 -29.215681 36.202133 -0.437564 2.509877 0.039203 -0.017073 -619084.000000 0 0 1
19.401519 -10.542085 -29.171031 36.585565 -0.497734 2.493667 0.050629 -0.012630 -431056.000000 0 0 1
18.876319 -11.046585 -27.975431 35.510100 -0.529472 2.478052 0.050302 -0.013651 14251.300000 0 0 1
18.971119 -12.447285 -27.736231 35.834854 -0.580664 2.455933 0.062655 -0.012332 -482557.000000 0 0 1
18.551219 -13.373085 -28.869731 36.829995 -0.624598 2.471662 0.054504 -0.013065 352688.000000 0 0 1
17.165119 -13.400985 -29.218921 36.441365 -0.662868 2.501108 0.056380 -0.016387 641292.000000 0 0 1
17.115219 -14.487785 -30.120821 37.551172 -0.702450 2.501646 0.044149 -0.008238 -849024.000000 0 0 1
15.952019 -14.730285 -31.064991 37.900948 -0.745600 2.531572 0.031682 -0.008042 -573619.000000 0 0 1
14.796819 -15.207685 -30.383701 37.059261 -0.799091 2.531977 0.029897 -0.007676 81310.900000 0 0 1
13.882919 -15.678185 -31.346961 37.698447 -0.846054 2.552632 0.014407 -0.005493 -900413.000000 0 0 1
12.703619 -16.299085 -30.647191 36.963393 -0.908739 2.548333 0.015292 -0.008573 -868177.000000 0 0 1
13.009219 -17.567885 -30.112011 37.210262 -0.933396 2.513653 0.015878 -0.006916 135390.000000 0 0 1
12.176219 -17.921785 -29.022801 36.218416 -0.974024 2.500307 0.016776 -0.013125 -185902.000000 0 0 1
12.397619 -19.350285 -28.444721 36.568246 -1.000991 2.462039 0.026378 -0.014756 247633.000000 0 0 1
13.512819 -19.400685 -27.546371 36.301314 -0.962415 2.432305 0.026933 -0.007637 428903.000000 0 0 1
13.523019 -20.602485 -26.914511 36.492812 -0.989950 2.400200 0.021109 -0.006505 346041.000000 0 0 1
14.496119 -20.702385 -25.695001 36.041078 -0.959926 2.364473 0.023106 -0.004212 -143201.000000 0 0 1
15.869119 -20.835785 -25.927791 36.853890 -0.919895 2.351148 0.023316 0.003662 -455940.000000 0 0 1
16.564119 -20.710285 -24.733501 36.263370 -0.896176 2.321361 0.023996 0.011369 -231381.000000 0 0 1
18.065419 -21.082785 -24.873001 37.276123 -0.862322 2.301325 0.000760 0.013672 -15774.400000 0 0 1
18.428119 -22.428485 -25.004801 38.312825 -0.882999 2.281871 0.003765 0.009884 214154.000000 0 0 1
18.017419 -23.384085 -24.019801 38.057767 -0.914304 2.253819 0.008568 0.005633 -577512.000000 0 0 1
18.476219 -24.811485 -24.320201 39.350383 -0.930719 2.237046 0.017463 0.001488 155678.000000 0 0 1
19.878319 -24.935685 -24.097701 39.970428 -0.897775 2.217913 0.021832 0.003881 429907.000000 0 0 1
20.275319 -26.264465 -23.743001 40.800010 -0.913383 2.191904 0.023040 -0.006009 11911.900000 0 0 1
20.129519 -26.563395 -22.209101 40.050664 -0.922327 2.158589 0.031995 -0.000149 -707029.000000 0 0 1
18.828319 -26.511665 -21.712601 39.100013 -0.953264 2.159531 0.028113 0.006072 -555289.000000 0 0 1
18.807219 -26.897325 -20.372401 38.629164 -0.960592 2.126315 0.026130 0.003071 161750.000000 0 0 1
17.517819 -27.572865 -19.856901 38.228698 -1.004804 2.116973 0.017233 0.002784 -452180.000000 0 0 1
17.454519 -28.913555 -20.367001 39.439430 -1.027676 2.113452 0.025813 0.001674 650407.000000 0 0 1
16.291219 -29.669165 -19.984401 39.306990 -1.068647 2.104144 0.016050 0.015932 1862660.000000 0 0 1
14.822119 -29.225505 -20.374701 38.586964 -1.101434 2.127064 0.005518 0.016579 947940.000000 0 0 1
14.313119 -28.090385 -19.689401 37.169983 -1.099547 2.129058 0.005641 0.019210 -538239.000000 0 0 1
13.040719 -27.698035 -20.118201 36.633093 -1.130766 2.152180 -0.006967 0.026031 -316714.000000 0 0 1
12.468019 -26.526875 -19.318301 35.104463 -1.131423 2.153531 -0.006317 0.019377 -229063.000000 0 0 1
11.952219 -27.045205 -18.070301 34.653058 -1.154670 2.119361 -0.015435 0.015188 261728.000000 0 0 1
11.176319 -26.069385 -17.351901 33.250735 -1.165784 2.119815 -0.011634 0.005641 545369.000000 0 0 1
9.644919 -26.183645 -17.558001 32.968032 -1.217863 2.132438 -0.014781 0.013216 -48526.700000 0 0 1
9.093719 -27.365325 -16.886001 33.416968 -1.249969 2.100540 -0.014395 0.016847 684160.000000 0 0 1
7.664119 -27.260555 -16.898601 32.976344 -1.296728 2.108827 -0.013440 0.021334 620768.000000 0 0 1
6.925719 -28.095655 -17.894801 34.022865 -1.329110 2.124644 -0.009450 0.024545 -735534.000000 0 0 1
7.047719 -27.660125 -19.215601 34.409187 -1.321308 2.163305 -0.010087 0.029378 -64936.900000 0 0 1
6.218619 -28.449435 -20.041801 35.351313 -1.355596 2.173573 0.000284 0.027468 -56085.200000 0 0 1
6.322619 -28.160515 -21.551301 36.020115 -1.349938 2.212190 -0.003501 0.019223 -194617.000000 0 0 1
5.828119 -26.879495 -21.903401 35.160108 -1.357277 2.243319 0.006896 0.018374 64412.700000 0 0 1
5.697919 -26.649305 -23.269501 35.834640 -1.360157 2.277536 0.009494 0.021353 228412.000000 0 0 1
4.376819 -25.930725 -23.706901 35.405878 -1.403583 2.304433 -0.003437 0.005718 598280.000000 0 0 1
3.244219 -26.794425 -23.707601 35.923760 -1.450305 2.291538 -0.009124 0.021299 241544.000000 0 0 1
2.114719 -25.991615 -24.050001 35.474479 -1.489614 2.315770 -0.003707 0.018184 841206.000000 0 0 1
0.977519 -26.753575 -24.809101 36.499326 -1.534275 2.318169 -0.027140 0.024459 221836.000000 0 0 1
1.365019 -26.932115 -26.159381 37.570139 -1.520156 2.341000 -0.044397 0.027305 531983.000000 0 0 1
0.433119 -27.700455 -26.922511 38.630615 -1.555162 2.341892 -0.035051 0.015408 -24298.400000 0 0 1
1.140319 -28.642895 -27.915631 40.012476 -1.531006 2.342941 -0.044239 0.016710 -713269.000000 0 0 1
1.758819 -27.928735 -28.926551 40.247398 -1.507904 2.372754 -0.041019 0.012786 -56983.500000 0 0 1
2.178619 -28.710485 -30.048781 41.616914 -1.495059 2.377532 -0.027897 0.005662 -234258.000000 0 0 1
3.561219 -29.372185 -29.914421 42.074697 -1.450141 2.361692 -0.017098 0.004223 -668485.000000 0 0 1
3.781519 -30.374685 -28.929691 42.117080 -1.446938 2.327994 -0.033327 0.005412 541410.000000 0 0 1
4.798119 -31.305975 -29.372411 43.195191 -1.418714 2.318549 -0.002292 0.005658 524200.000000 0 0 1
5.184819 -32.403385 -28.335731 43.356376 -1.412133 2.283067 0.015466 -0.003232 -566939.000000 0 0 1
4.247819 -33.387005 -28.104761 43.847619 -1.444247 2.266550 -0.007678 -0.005398 -275978.000000 0 0 1
4.724719 -34.361843 -27.201271 44.079115 -1.434154 2.235850 0.008228 -0.009093 -248084.000000 0 0 1
3.534119 34.068502 -26.758071 43.464321 1.467430 2.233985 0.012859 -0.007301 -238370.000000 0 0 1
2.980619 33.431571 -27.879581 43.632844 1.481876 2.263940 -0.009397 -0.003162 -24989.300000 0 0 1
1.652419 32.984255 -27.717791 43.115745 1.520741 2.269035 -0.045710 0.003561 413738.000000 0 0 1
0.773419 33.094705 -29.061901 44.050559 1.547431 2.291269 -0.056530 0.011389 258087.000000 0 0 1
0.720619 31.989655 -29.929211 43.813411 1.548274 2.322804 -0.043017 0.005522 -155823.000000 0 0 1
-0.039781 32.271825 -31.061631 44.791709 -1.569564 2.337088 -0.045282 0.006680 -212986.000000 0 0 1
-0.096181 31.108275 -32.057101 44.669808 -1.567705 2.371212 -0.045474 0.008114 290970.000000 0 0 1
1.085119 30.876745 -32.852881 45.098366 1.535667 2.386885 -0.042123 0.009791 505893.000000 0 0 1
0.900619 29.856475 -33.835601 45.133891 1.540641 2.418362 -0.036579 0.009182 -55679.900000 0 0 1
2.035019 29.664575 34.265772 45.368177 1.502303 0.714712 -0.032933 0.008729 117990.000000 0 0 1
2.259519 30.723705 33.336258 45.391162 1.497385 0.745982 -0.031607 0.003725 -188409.000000 0 0 1
3.172819 30.369665 32.306142 44.453011 1.466701 0.757220 -0.040368 0.008755 -282735.000000 0 0 1
2.657319 29.285645 31.247672 42.908360 1.480306 0.755043 -0.040172 0.005335 -211575.000000 0 0 1
2.576319 27.997465 31.794422 42.442676 1.479035 0.724072 -0.034105 -0.001645 -1098350.000000 0 0 1
3.759219 27.290175 31.842572 42.105045 1.433908 0.713211 -0.024961 0.003414 -1075190.000000 0 0 1
3.587319 25.771545 32.139102 41.351702 1.432488 0.680571 -0.004498 -0.005573 -246778.000000 0 0 1
2.911719 25.099495 31.101262 40.071826 1.455305 0.682279 -0.000074 0.004815 73571.600000 0 0 1
2.969819 23.649085 31.298362 39.340647 1.445872 0.650843 -0.011378 0.007466 -394349.000000 0 0 1
2.060419 22.774585 30.419032 38.055809 1.480572 0.644622 -0.012015 0.016936 -249308.000000 0 0 1
0.702519 22.787285 30.777572 38.301604 1.539977 0.637547 -0.015840 0.014006 -617322.000000 0 0 1
0.003319 22.445285 29.606382 37.152775 1.570648 0.648680 -0.011268 0.015691 -202891.000000 0 0 1
-1.407781 21.881185 29.831342 37.022656 -1.506547 0.633840 -0.021173 0.021290 -560368.000000 0 0 1
-2.268181 22.719185 30.498952 38.098453 -1.471291 0.642617 -0.013747 0.012980 -1472480.000000 0 0 1
-3.528981 22.158585 30.496702 37.861662 -1.412862 0.634316 -0.031887 0.013788 -820837.000000 0 0 1
-4.659381 23.144885 30.833842 38.834538 -1.372138 0.653469 -0.042707 0.000092 -301211.000000 0 0 1
-4.841081 23.603185 32.180862 40.201422 -1.368499 0.642683 -0.040764 -0.001681 10064.500000 0 0 1
-4.268681 24.884335 32.270932 40.973953 -1.400909 0.663898 -0.019100 -0.006297 -422915.000000 0 0 1
-4.413381 25.572735 33.622376 42.472425 -1.399898 0.657327 -0.018041 -0.001658 483362.000000 0 0 1
-5.782781 25.804255 33.967904 43.047865 -1.350337 0.661498 -0.019070 -0.000405 549193.000000 0 0 1
-5.898381 26.192735 -33.789011 43.157242 -1.349300 2.470155 -0.007865 0.000939 194859.000000 0 0 1
-7.330381 26.570145 -33.300021 43.227289 -1.301605 2.450182 0.003451 0.009650 155475.000000 0 0 1
-7.663481 27.866185 -33.720831 44.411121 -1.302421 2.433015 0.010431 0.002988 137240.000000 0 0 1
-8.968281 28.263145 -33.324511 44.606709 -1.263532 2.414446 0.013254 0.006069 331719.000000 0 0 1
-9.142181 28.694405 -31.840741 43.826717 -1.262359 2.384032 0.014221 0.004151 -249055.000000 0 0 1
-8.589081 29.970145 -31.541611 44.349240 -1.291689 2.362014 0.016326 0.003018 68299.300000 0 0 1
-8.827081 30.378955 -30.212971 43.744964 -1.288017 2.333200 0.017025 0.001919 -312329.000000 0 0 1
-8.310881 31.803375 -29.804151 44.371306 -1.315192 2.307296 0.014877 -0.002296 -313708.000000 0 0 1
-6.909181 31.826285 -29.786111 44.134585 -1.357023 2.311616 -0.000849 -0.002551 -546795.000000 0 0 1
-6.477281 33.115065 -29.375061 44.737645 -1.377636 2.287108 -0.002370 0.005669 -166466.000000 0 0 1
-4.948781 33.223545 -29.551031 44.738773 -1.422929 2.292313 -0.011547 0.002791 -380722.000000 0 0 1
-4.388581 34.354204 -28.968971 45.151659 -1.443739 2.267369 -0.020542 0.002673 -374787.000000 0 0 1
-4.423781 -33.668825 -29.722471 45.128537 1.440154 2.289777 -0.010555 0.004768 319613.000000 0 0 1
-3.553781 -33.574695 -31.081761 45.890798 1.465342 2.314881 -0.009995 0.001681 409437.000000 0 0 1
-3.882081 -34.601951 -32.061031 47.331546 1.459071 2.314980 -0.003669 0.010822 -120703.000000 0 0 1
-4.228981 -34.140597 -33.365391 47.924044 1.447555 2.340906 0.011557 0.004221 -4826.230000 0 0 1
-3.157681 -33.440965 -34.256713 47.976989 1.476650 2.366025 0.005799 0.003935 -11935.600000 0 0 1
-2.943281 -32.120925 -33.821351 46.736501 1.479420 2.379888 -0.004990 0.011181 -283698.000000 0 0 1
-1.929381 -31.451675 -34.503325 46.726971 1.509529 2.401495 -0.002181 0.004524 -174231.000000 0 0 1
31.103419 20.184715 12.683782 39.188311 0.575640 1.241199 0.026039 0.002390 -139058.000000 0 0 1
32.030829 19.367815 13.359882 39.743839 0.543840 1.227971 0.015784 0.001516 216691.000000 0 0 1
31.573599 18.013015 13.210182 38.676476 0.518452 1.222224 0.021196 0.000815 118040.000000 0 0 1
32.591339 16.975515 13.747982 39.234813 0.480196 1.212795 0.042823 -0.010809 907603.000000 0 0 1
33.859919 16.909715 13.084282 40.045362 0.463169 1.237948 0.031430 0.003116 420688.000000 0 0 1
34.706204 15.947115 13.656682 40.562742 0.430717 1.227407 0.020241 -0.003157 -39113.400000 0 0 1
-34.388527 15.523815 12.682682 39.804648 -0.424038 1.246520 0.016001 -0.007794 -3311.360000 0 0 1
-33.521392 14.498415 13.120982 38.807833 -0.408216 1.225898 0.017239 -0.012062 -214467.000000 0 0 1
-34.053482 13.217015 13.322782 38.882202 -0.370228 1.221066 0.016830 -0.013532 -176470.000000 0 0 1
-33.154362 12.326615 14.274282 38.143312 -0.355958 1.187233 0.000005 -0.006183 408491.000000 0 0 1
-33.082872 12.957815 15.570582 38.792066 -0.373311 1.157767 0.000305 -0.010206 265132.000000 0 0 1
-32.303942 12.162815 16.451482 38.237808 -0.360095 1.126036 -0.007955 -0.011082 -197167.000000 0 0 1
-32.383262 12.755015 17.898482 39.137217 -0.375217 1.095810 0.011394 -0.006961 221402.000000 0 0 1
-33.600212 12.749515 18.643382 40.485801 -0.362664 1.092247 0.023722 -0.007908 114046.000000 0 0 1
-33.457372 13.418215 19.901482 41.176610 -0.381415 1.066353 0.017889 -0.015130 119743.000000 0 0 1
-34.767671 13.614315 20.715882 42.699980 -0.373227 1.064262 0.032945 -0.015263 286255.000000 0 0 1
35.107029 12.370615 21.391882 42.931902 0.338783 1.049189 0.033413 0.000750 -12569.700000 0 0 1
34.001539 12.513115 22.241482 42.513130 0.352634 1.020233 0.026068 -0.010512 -79444.400000 0 0 1
33.537549 11.288715 23.039682 42.225931 0.324687 0.993657 0.023164 -0.004635 -14043.800000 0 0 1
34.538410 10.876415 23.962182 43.421013 0.305077 0.986207 0.024714 -0.000121 241653.000000 0 0 1
34.390556 11.478915 25.253072 44.183634 0.322153 0.962405 0.012224 0.000311 -1590900.000000 0 0 1
-34.598791 11.390315 26.091572 44.806090 -0.318036 0.949214 0.007435 -0.000524 -346588.000000 0 0 1
-33.668522 12.468215 25.859152 44.246147 -0.354664 0.946608 0.001912 -0.003911 522087.000000 0 0 1
-32.812752 12.428915 24.716892 42.919452 -0.362083 0.957104 0.011516 -0.010406 -439348.000000 0 0 1
-31.888902 13.642115 24.567112 42.503557 -0.404241 0.954519 0.011203 -0.014416 498356.000000 0 0 1
-30.983762 13.926515 25.636672 42.557964 -0.422420 0.924299 -0.001284 -0.013203 775892.000000 0 0 1
-31.726022 14.488415 26.695532 43.921590 -0.428389 0.917509 -0.002130 -0.007572 -495466.000000 0 0 1
-30.739552 15.199115 27.620802 44.032282 -0.459196 0.892734 -0.004098 -0.004530 -339990.000000 0 0 1
-30.279832 16.480615 27.203072 43.914531 -0.498439 0.902748 0.017514 -0.018628 -321819.000000 0 0 1
-29.849572 17.268715 28.300842 44.611020 -0.524479 0.883576 0.030374 -0.017521 -237125.000000 0 0 1
-29.216172 18.591315 27.904342 44.473295 -0.566710 0.892535 0.039107 -0.012197 -47911.600000 0 0 1
-30.046862 19.442815 27.107772 44.896194 -0.574322 0.922552 0.021216 -0.028289 425096.000000 0 0 1
-29.385332 20.664715 26.902722 44.880782 -0.612892 0.928012 0.029087 -0.036178 29364.700000 0 0 1
-30.451102 21.626215 26.367362 45.718711 -0.617535 0.956076 0.030680 -0.022999 374090.000000 0 0 1
-31.394552 22.119215 27.328962 47.135440 -0.613777 0.952317 0.022752 -0.018053 392553.000000 0 0 1
-32.260022 23.142915 26.832682 47.919687 -0.622300 0.976470 0.023355 -0.010990 -335008.000000 0 0 1
-31.798992 24.531715 26.518842 48.127226 -0.657096 0.987216 0.021211 -0.011770 -902675.000000 0 0 1
-32.813982 25.170315 25.819582 48.754005 -0.654331 1.012680 0.028298 -0.005825 -304220.000000 0 0 1
-32.526212 26.502715 25.537042 49.117094 -0.683707 1.024037 0.031842 -0.014566 265010.000000 0 0 1
-33.518072 27.065615 24.477182 49.549380 -0.679293 1.054117 0.042141 -0.011640 524608.000000 0 0 1
-33.270032 26.607215 23.140682 48.480203 -0.674579 1.073191 0.045475 -0.015185 295984.000000 0 0 1
-34.370980 27.108015 22.385382 49.166188 -0.667806 1.098087 0.050854 -0.023234 529236.000000 0 0 1
-34.130897 27.034715 20.816182 48.260827 -0.669899 1.124834 0.058242 -0.033539 122010.000000 0 0 1
-34.229839 25.758115 20.189482 47.357972 -0.645102 1.130380 0.049365 -0.030394 96595.400000 0 0 1
-33.401972 25.670715 19.047882 46.233096 -0.655261 1.146152 0.051702 -0.033919 -182166.000000 0 0 1
-33.500172 24.256515 18.388782 45.263532 -0.626699 1.152439 0.035406 -0.021805 502704.000000 0 0 1
-34.760687 23.966115 17.786682 45.815348 -0.603617 1.172091 0.048080 -0.024331 225371.000000 0 0 1
-34.618495 23.366715 16.530882 44.918967 -0.593734 1.193922 0.029857 -0.021931 76964.100000 0 0 1
34.216682 23.221115 15.876882 44.295338 0.596252 1.204208 0.027465 -0.011571 370816.000000 0 0 1
33.470599 22.104015 16.336582 43.309958 0.583652 1.184024 0.016815 -0.011729 629099.000000 0 0 1
32.141449 22.095715 15.803582 42.083804 0.602255 1.185832 0.011129 -0.005494 853955.000000 0 0 1
31.042889 21.023715 16.259682 40.866060 0.595292 1.161594 0.005265 -0.000716 1525420.000000 0 0 1
30.141769 21.471115 17.276882 40.841470 0.618958 1.134017 -0.006641 -0.001318 264005.000000 0 0 1
29.173399 22.402215 16.833882 40.451527 0.654858 1.141590 -0.003266 0.001482 -360582.000000 0 0 1
28.314859 23.229315 17.844082 40.739951 0.687053 1.117424 -0.002263 -0.002688 -78226.300000 0 0 1
29.043529 24.083715 18.673882 42.098287 0.692311 1.111209 -0.017362 -0.002126 -741192.000000 0 0 1
28.251549 24.887715 19.501182 42.400997 0.722180 1.092888 -0.013780 -0.002826 -537299.000000 0 0 1
29.034229 25.561115 20.603282 43.827529 0.721868 1.081393 -0.010682 -0.015416 -54079.100000 0 0 1
29.977469 26.512815 20.177082 44.818441 0.724143 1.103812 -0.002916 -0.017977 -182504.000000 0 0 1
30.710709 26.909515 21.306482 46.056876 0.719524 1.089857 0.003100 -0.017752 -489026.000000 0 0 1
31.731789 28.056215 21.023682 47.286921 0.723999 1.110071 0.026558 -0.029655 707276.000000 0 0 1
32.650139 28.175515 22.150382 48.482272 0.711966 1.096316 0.033841 -0.022560 619448.000000 0 0 1
32.150869 29.075415 23.136582 49.136133 0.735209 1.080523 0.012038 -0.007299 -642959.000000 0 0 1
33.059699 29.480815 24.276042 50.511270 0.728235 1.069450 0.010815 -0.011650 -490253.000000 0 0 1
34.235715 30.144215 23.895082 51.494979 0.721931 1.088260 0.036845 -0.018994 -400891.000000 0 0 1
34.801683 30.691015 25.056542 52.734485 0.722715 1.075667 0.047020 -0.010909 833475.000000 0 0 1
-34.068847 31.501915 24.886582 52.653575 -0.746271 1.078504 0.056245 -0.019499 1353560.000000 0 0 1
-32.931932 30.690815 24.630232 51.313610 -0.750188 1.070148 0.054812 -0.025046 454581.000000 0 0 1
-31.710842 31.415815 24.694682 51.013314 -0.780725 1.065481 0.056394 -0.017956 -72407.400000 0 0 1
-30.428352 30.666815 24.452362 49.641275 -0.789301 1.055743 0.045283 -0.023707 -821498.000000 0 0 1
-29.985812 30.612315 23.131882 48.696475 -0.795736 1.075808 0.022588 -0.017905 74507.500000 0 0 1
-30.515212 29.548915 22.311282 47.980307 -0.769312 1.087151 0.040291 -0.015913 -181980.000000 0 0 1
-30.247172 28.055115 22.638882 47.058473 -0.747818 1.068910 0.030553 -0.008908 340348.000000 0 0 1
-28.832682 27.814615 22.623682 46.008775 -0.767428 1.056726 -0.002543 -0.009603 669173.000000 0 0 1
-28.502512 26.713615 23.530682 45.603765 -0.753011 1.028644 0.006680 -0.007894 8748.170000 0 0 1
-28.183682 27.075215 25.025972 46.407828 -0.765341 1.001236 0.022848 -0.010838 778116.000000 0 0 1
-29.318892 27.651215 25.741252 47.820489 -0.756134 1.002391 0.019558 -0.013026 968366.000000 0 0 1
-28.871072 28.086015 27.023172 48.503761 -0.771616 0.979864 0.029005 -0.022848 -235646.000000 0 0 1
-30.005902 28.455815 28.012412 49.947801 -0.758890 0.975404 0.035066 -0.023403 293542.000000 0 0 1
-30.716752 27.324515 28.507402 50.028192 -0.727019 0.964501 0.025145 -0.013211 653193.000000 0 0 1
-31.813572 27.650315 29.385232 51.382245 -0.715499 0.961983 0.030824 -0.008673 658751.000000 0 0 1
-32.508292 26.411615 29.951372 51.492205 -0.682291 0.950018 0.022774 -0.008327 331061.000000 0 0 1
-31.667832 25.675515 30.850072 51.125440 -0.681277 0.923014 0.023584 -0.006850 64806.700000 0 0 1
-32.382682 24.566015 31.275752 51.286449 -0.648992 0.914957 0.013257 -0.007438 -41023.800000 0 0 1
-31.623482 23.611815 32.247892 50.965566 -0.641357 0.885711 0.036722 -0.017875 -48438.800000 0 0 1
-30.496262 22.988915 31.636662 49.592243 -0.645946 0.878982 0.035181 -0.012398 25967.900000 0 0 1
-29.828842 22.073115 32.466312 49.305615 -0.637065 0.852011 0.035554 -0.017928 618042.000000 0 0 1
-28.818092 22.713815 33.526268 49.703224 -0.667491 0.830470 0.041674 -0.024575 -67287.000000 0 0 1
-29.370632 23.554715 34.562833 51.108200 -0.675948 0.828112 0.047699 -0.026455 -53005.300000 0 0 1
-29.332212 22.963015 -33.277511 49.950690 -0.664202 2.299908 0.037888 -0.020004 -232883.000000 0 0 1
-27.960462 23.069015 -32.589041 48.744358 -0.689835 2.303081 0.036352 -0.021743 -285093.000000 0 0 1
-27.640982 24.396915 -32.295521 49.012590 -0.723138 2.290182 0.029760 -0.019020 123801.000000 0 0 1
-26.671682 24.561015 -31.271441 47.880321 -0.744224 2.282489 0.035589 -0.019930 -194966.000000 0 0 1
-26.936632 25.915615 -30.476321 48.228699 -0.766082 2.254815 0.008614 -0.009144 -173882.000000 0 0 1
-27.016242 27.149315 -31.192991 49.396005 -0.787855 2.254267 0.015096 -0.012027 237096.000000 0 0 1
-28.078372 27.409315 -32.108891 50.701542 -0.773341 2.256596 0.015344 -0.004622 -289407.000000 0 0 1
-28.236282 28.858915 -32.629531 51.911568 -0.796303 2.250497 0.019542 0.001337 -51618.100000 0 0 1
-28.609162 29.798815 -31.687621 52.063028 -0.805763 2.225141 0.015124 -0.002917 68614.100000 0 0 1
-28.089922 31.047915 -32.065271 52.737068 -0.835375 2.224362 0.032291 -0.017992 -395535.000000 0 0 1
-28.429932 32.214915 -31.105071 53.043258 -0.847730 2.197415 0.028516 -0.001886 115384.000000 0 0 1
-27.601972 32.367715 -29.942841 52.020299 -0.864701 2.184133 0.007578 0.006607 318681.000000 0 0 1
-27.978262 33.545815 -29.300911 52.598938 -0.875646 2.161641 0.004891 0.004589 -566768.000000 0 0 1
-27.313432 33.768715 -27.904681 51.623840 -0.890689 2.141874 -0.008445 -0.000001 133033.000000 0 0 1
-25.951812 34.149615 -27.935781 51.186918 -0.920961 2.148092 -0.004600 0.008273 136869.000000 0 0 1
-25.704052 -33.699655 -28.210101 50.913405 0.919192 2.158054 0.000264 0.025325 -597326.000000 0 0 1
-26.013002 -32.602455 -27.154251 49.768963 0.897346 2.147909 -0.005331 0.030447 216783.000000 0 0 1
-27.394702 -32.518455 -26.839891 50.282197 0.870710 2.133867 -0.020983 0.024353 52720.900000 0 0 1
-27.643072 -31.571255 -25.792281 49.255713 0.851639 2.121915 -0.031730 0.030588 -1301780.000000 0 0 1
-29.083752 -31.216955 -25.720331 49.818654 0.820760 2.113297 -0.037100 0.022843 -1165370.000000 0 0 1
-29.692182 -30.568455 -26.849271 50.368040 0.799939 2.133011 -0.021965 0.016925 706812.000000 0 0 1
-31.081872 -30.331855 -26.641671 50.949807 0.773186 2.121046 -0.013470 0.004953 72527.300000 0 0 1
-31.708212 -29.495055 -27.750861 51.434222 0.749253 2.140688 0.001266 -0.001109 -260373.000000 0 0 1
-33.105222 -29.396055 -27.619361 52.181537 0.726122 2.128564 -0.005293 -0.004199 -510788.000000 0 0 1
-33.665642 -28.597455 -28.626291 52.637006 0.704178 2.145807 0.014624 -0.012899 255071.000000 0 0 1
35.025005 -28.665155 -28.804751 53.648446 -0.685872 2.137574 0.015460 -0.016515 83663.100000 0 0 1
34.298073 -28.180755 -27.716951 52.332993 -0.687799 2.128957 -0.015116 -0.011848 -1058380.000000 0 0 1
32.943039 -28.177355 -28.021491 51.617934 -0.707584 2.144639 -0.004912 -0.010733 -804517.000000 0 0 1
32.146359 -27.742155 -26.760141 50.190843 -0.711990 2.133137 0.001488 -0.011159 -291576.000000 0 0 1
32.121899 -28.608055 -25.652181 50.082648 -0.727602 2.108537 -0.010906 -0.006862 -69620.100000 0 0 1
31.337549 -27.997355 -24.683001 48.735453 -0.729164 2.101881 -0.009150 -0.001313 -249208.000000 0 0 1
31.196579 -28.765655 -23.301001 48.411012 -0.744879 2.072952 -0.004400 -0.005500 -576211.000000 0 0 1
30.503319 -29.950055 -23.275801 48.674646 -0.776246 2.069391 0.002650 0.000855 -224994.000000 0 0 1
30.139059 -30.542355 -22.012301 48.225924 -0.792044 2.044788 0.011885 -0.021222 316464.000000 0 0 1
31.236539 -30.612255 -20.883601 48.466032 -0.775305 2.016277 0.009340 -0.013555 566973.000000 0 0 1
32.380499 -31.420755 -21.236301 49.867234 -0.770357 2.010705 0.003877 -0.009122 1488370.000000 0 0 1
33.624369 -31.057255 -20.620701 50.203233 -0.745731 1.994067 0.013165 -0.008267 802188.000000 0 0 1
34.378589 -29.856355 -21.114501 50.190751 -0.715113 2.004997 -0.003097 -0.008227 -821448.000000 0 0 1
33.729409 -28.660255 -20.645301 48.839653 -0.704326 2.007236 -0.005087 -0.004694 196932.000000 0 0 1
34.151429 -27.529155 -21.387901 48.801811 -0.678444 2.024459 -0.017429 0.000514 62653.800000 0 0 1
33.346829 -26.201555 -21.115001 47.374843 -0.665978 2.032753 -0.011869 0.010453 1116760.000000 0 0 1
31.984409 -26.246055 -21.570101 46.659694 -0.687170 2.051367 0.001092 0.003326 1099000.000000 0 0 1
31.076419 -25.559055 -20.704901 45.251542 -0.688286 2.046036 0.022081 -0.002218 577524.000000 0 0 1
29.616179 -25.396755 -21.231801 44.417368 -0.708849 2.069180 0.022542 -0.004721 206965.000000 0 0 1
29.034509 -26.652255 -21.336901 44.817505 -0.742645 2.066993 0.029050 -0.008813 99241.700000 0 0 1
27.957889 -26.566255 -22.281201 44.540559 -0.759880 2.094678 0.027713 -0.011977 244424.000000 0 0 1
27.419599 -27.886855 -22.816801 45.278223 -0.793846 2.098933 0.027574 -0.011831 -233742.000000 0 0 1
26.661149 -28.562155 -21.839501 44.761338 -0.819809 2.080490 0.034375 -0.020486 -367002.000000 0 0 1
26.175379 -29.729155 -22.389701 45.500240 -0.848881 2.085272 0.028666 -0.023802 -411005.000000 0 0 1
25.469159 -30.555855 -21.315501 45.129690 -0.875943 2.062713 0.027510 -0.014633 -439654.000000 0 0 1
26.286809 -31.043955 -20.262901 45.445667 -0.868186 2.032943 0.045374 -0.019828 -53363.100000 0 0 1
27.004599 -32.216855 -20.542901 46.788726 -0.873185 2.025345 0.041853 -0.014951 66512.200000 0 0 1
28.020169 -32.659255 -19.452701 47.224616 -0.861702 1.995355 0.029438 -0.013769 -182723.000000 0 0 1
27.502559 -33.086655 -18.194001 46.713372 -0.877302 1.970865 0.033425 -0.017622 -36877.900000 0 0 1
27.064179 -32.045555 -17.291201 45.369296 -0.869473 1.961805 0.018945 -0.024881 -36286.400000 0 0 1
26.544559 -32.634855 -15.937601 44.985047 -0.887950 1.932947 0.020759 -0.017679 -91873.800000 0 0 1
25.224409 -33.084255 -16.129901 44.620762 -0.919388 1.940660 0.023304 -0.008302 -264496.000000 0 0 1
24.737219 -33.908555 -15.101401 44.606865 -0.940527 1.916166 0.026071 -0.017577 -158493.000000 0 0 1
23.228519 -34.253755 -15.066801 44.044208 -0.974899 1.919930 0.032948 -0.010334 193772.000000 0 0 1
22.615919 -33.015255 -14.740701 42.647100 -0.970199 1.923721 0.036657 -0.012404 59425.900000 0 0 1
21.234119 -33.155255 -14.445001 41.938250 -1.001167 1.922433 0.032026 -0.012061 202652.000000 0 0 1
-1.093892 -7.243585 -29.090621 29.998839 1.420914 2.894898 0.005076 0.005511 170215.000000 0 0 1
-0.303292 -8.390385 -29.351901 30.529079 1.534665 2.862990 0.016919 0.010226 13058.000000 0 0 1
-0.286692 -8.631885 -30.727651 31.918336 1.537595 2.867591 0.004447 0.007983 -576080.000000 0 0 1
-0.093292 -10.144585 -30.939131 32.559962 1.561600 2.824738 0.008593 0.010539 570532.000000 0 0 1
1.170908 -10.577485 -30.415771 32.223801 -1.460547 2.805018 -0.008107 0.006490 427637.000000 0 0 1
1.160508 -11.932785 -29.962501 32.272118 -1.473847 2.760969 0.008941 0.001088 360050.000000 0 0 1
2.555908 -12.411585 -29.411181 32.024954 -1.367706 2.734771 0.009934 0.002602 -452190.000000 0 0 1
3.348808 -12.480685 -30.553241 33.173522 -1.308652 2.741469 0.022221 -0.005675 425115.000000 0 0 1
4.723908 -12.806585 -30.218331 33.158279 -1.217415 2.717314 0.007137 0.000450 1287990.000000 0 0 1
5.069608 -14.238685 -29.786611 33.401845 -1.228747 2.672028 0.007784 -0.002530 -1251230.000000 0 0 1
4.638808 -14.629185 -28.553921 32.416940 -1.263733 2.648416 0.019278 -0.008408 -360022.000000 0 0 1
5.407208 -15.612085 -27.861151 32.391648 -1.237379 2.606328 0.025214 -0.005443 -264400.000000 0 0 1
5.050308 -17.084385 -28.037931 33.219082 -1.283372 2.575552 0.020880 -0.009776 -579496.000000 0 0 1
5.365908 -17.515285 -29.315361 34.568317 -1.273519 2.583074 0.021554 -0.023207 162325.000000 0 0 1
5.087908 -18.921785 -29.426821 35.353339 -1.308118 2.554155 0.024142 -0.017120 -573298.000000 0 0 1
5.318508 -19.512285 -30.874601 36.908763 -1.304689 2.561682 0.026949 -0.020854 921083.000000 0 0 1
6.697108 -19.509785 -31.307581 37.491967 -1.240130 2.559016 0.023422 -0.014806 1000460.000000 0 0 1
6.672308 -20.218185 -32.511191 38.862221 -1.252035 2.561799 0.030577 -0.015619 1114740.000000 0 0 1
8.084808 -20.382685 -33.215751 39.800805 -1.193181 2.558111 0.021468 -0.005389 1219340.000000 0 0 1
8.601408 -19.105285 -33.659611 39.648021 -1.147767 2.584812 0.011052 -0.009284 163723.000000 0 0 1
9.891308 -19.151285 -34.232442 40.453304 -1.094050 2.579649 -0.000907 -0.001853 -17887.100000 0 0 1
10.438908 -17.856585 34.350468 40.097171 -1.041779 0.541996 -0.013443 0.002354 -368868.000000 0 0 1
9.810208 -17.501785 33.146170 38.745597 -1.059908 0.544315 0.002770 0.002445 -2629.950000 0 0 1
10.152508 -16.169985 32.771432 37.927676 -1.010142 0.527535 -0.019103 0.001336 353.557000 0 0 1
9.168808 -15.669785 31.707202 36.537048 -1.041385 0.520019 -0.013135 -0.001188 -77814.900000 0 0 1
9.178208 -16.262385 30.404292 35.680887 -1.056978 0.550779 -0.022940 -0.000286 -578395.000000 0 0 1
8.065008 -15.808885 29.694962 34.594161 -1.099056 0.538691 -0.021641 -0.002111 -345051.000000 0 0 1
7.781808 -16.659285 28.418992 33.848596 -1.133801 0.574266 -0.011730 -0.003387 -375500.000000 0 0 1
7.238908 -17.992285 28.571802 34.532188 -1.188279 0.596341 -0.002724 -0.008353 -113787.000000 0 0 1
7.426608 -18.815885 27.422882 34.076480 -1.194868 0.635550 -0.005245 -0.004816 -117317.000000 0 0 1
6.985208 -20.287785 27.626052 34.979796 -1.239203 0.660360 0.001532 -0.007161 -171287.000000 0 0 1
7.764708 -20.960585 28.613712 36.309521 -1.216027 0.663162 -0.003394 -0.000228 188020.000000 0 0 1
7.058408 -21.960685 29.268902 37.266090 -1.259814 0.667449 -0.007760 0.003942 -349042.000000 0 0 1
7.543008 -22.160185 30.717702 38.620565 -1.242712 0.651176 -0.002157 -0.003864 -302452.000000 0 0 1
7.070408 -21.238185 31.680762 38.790745 -1.249427 0.615111 0.018826 -0.006724 92940.500000 0 0 1
7.362908 -19.853085 31.499202 37.954672 -1.215652 0.591839 0.010377 -0.012814 -214087.000000 0 0 1
6.702208 -19.059185 32.638712 38.385644 -1.232650 0.554271 0.019984 -0.010310 -459709.000000 0 0 1
5.323908 -18.851085 32.593362 38.026763 -1.295546 0.541151 0.027149 -0.012852 -849427.000000 0 0 1
5.008208 -18.051285 33.703349 38.559652 -1.300160 0.507304 0.028326 -0.014297 459651.000000 0 0 1
3.484608 -18.181785 33.986879 38.701779 -1.381439 0.498766 0.036231 -0.018902 397185.000000 0 0 1
3.092208 -19.264585 -34.315263 39.474337 -1.411641 2.624592 0.035252 -0.018451 180343.000000 0 0 1
2.286208 -18.773385 -33.251751 38.253702 -1.449614 2.624465 0.026431 -0.030326 109908.000000 0 0 1
1.750608 -19.860485 -32.239821 37.906590 -1.482878 2.587745 0.004288 -0.013031 420248.000000 0 0 1
0.688608 -20.739185 -32.730621 38.754116 -1.537605 2.576561 -0.010884 -0.004346 1579300.000000 0 0 1
-0.142892 -21.434485 -31.759301 38.315934 1.564130 2.547899 -0.015172 -0.004178 822679.000000 0 0 1
-0.792592 -20.617785 -30.618691 36.921884 1.532373 2.548620 -0.007893 -0.008204 -856967.000000 0 0 1
-1.474292 -19.505585 -31.131541 36.767026 1.495357 2.580594 -0.007002 -0.005772 -154146.000000 0 0 1
-1.946092 -18.686185 -30.112311 35.492423 1.467024 2.583780 0.004443 -0.005369 -13314.500000 0 0 1
-2.072292 -17.224485 -30.577741 35.156444 1.451061 2.625516 0.002876 -0.000150 -112238.000000 0 0 1
-2.833592 -16.386485 -29.776521 34.105532 1.399567 2.632260 0.009605 -0.001126 -376288.000000 0 0 1
-2.635092 -15.068885 -30.212621 33.864694 1.397677 2.672894 0.020183 0.001009 538046.000000 0 0 1
-3.718792 -14.150185 -29.536261 32.961309 1.313799 2.681675 0.025667 0.003155 580178.000000 0 0 1
-3.594992 -13.946285 -28.139741 31.611198 1.318514 2.668542 0.021958 -0.000897 -411508.000000 0 0 1
-4.666792 -13.136185 -27.798451 31.098106 1.229441 2.676757 0.026707 0.000314 -671598.000000 0 0 1
-4.503292 -12.734085 -26.313141 29.577322 1.230882 2.667351 0.017776 0.000747 -237847.000000 0 0 1
-4.763692 -13.844385 -25.427511 29.341405 1.239398 2.619161 0.013319 0.006681 78019.100000 0 0 1
-4.831092 -13.576885 -24.023701 28.014451 1.228935 2.601278 0.014202 0.002286 -168650.000000 0 0 1
-6.108092 -12.885885 -23.498401 27.486900 1.128153 2.596144 0.007840 0.001940 -497933.000000 0 0 1
-7.340092 -13.520185 -23.596801 28.168801 1.073421 2.563841 0.002293 0.006058 -619861.000000 0 0 1
-8.344492 -12.656985 -23.104401 27.634094 0.987925 2.560901 -0.002789 0.006132 -169165.000000 0 0 1
-9.762092 -13.211185 -23.315201 28.520737 0.934420 2.527823 0.002777 0.004223 -282107.000000 0 0 1
-10.044592 -14.227885 -22.402201 28.375784 0.956069 2.480763 0.003332 0.001202 786170.000000 0 0 1
-11.287392 -14.939385 -22.690001 29.418134 0.923755 2.451667 0.000511 0.003057 1092340.000000 0 0 1
-11.692692 -15.889785 -21.526401 29.199148 0.936405 2.399753 0.008643 -0.002304 -111473.000000 0 0 1
-10.860492 -17.040285 -21.419501 29.446844 1.003371 2.385315 0.015082 -0.001863 -105203.000000 0 0 1
-11.416792 -18.336785 -21.686101 30.608296 1.013913 2.358172 0.007063 -0.005264 -12696.700000 0 0 1
-11.849392 -18.691485 -23.135001 32.015746 1.005790 2.378372 0.002680 -0.002252 873266.000000 0 0 1
-13.112592 -18.079585 -23.420201 32.362282 0.943311 2.379928 -0.001614 -0.007087 243345.000000 0 0 1
-13.586692 -18.283285 -24.766301 33.648869 0.931712 2.397971 -0.003903 -0.005031 279373.000000 0 0 1
-14.825492 -17.443585 -25.141001 34.002115 0.866354 2.402968 0.008404 -0.008411 355538.000000 0 0 1
-16.045192 -17.882685 -24.528401 34.334837 0.839504 2.366546 0.015125 -0.014260 785474.000000 0 0 1
-17.189592 -17.487485 -25.290851 35.226713 0.793988 2.371642 0.011269 -0.015377 417006.000000 0 0 1
-17.885592 -16.124485 -25.063101 34.757049 0.733662 2.376176 0.015338 -0.006818 -271567.000000 0 0 1
-18.588892 -16.128885 -23.819101 34.249634 0.714659 2.339850 0.009785 -0.008947 74910.000000 0 0 1
-18.947192 -14.823185 -23.434201 33.583994 0.663881 2.343088 0.006899 -0.012500 -158760.000000 0 0 1
-19.813692 -14.766585 -22.162701 33.193670 0.640468 2.301882 0.003750 -0.020315 -221128.000000 0 0 1
-19.035492 -15.076885 -21.048801 32.135874 0.669869 2.284971 -0.002906 -0.015869 23561.900000 0 0 1
-19.676692 -14.999185 -19.772201 31.671559 0.651315 2.245017 -0.006328 -0.017989 -256536.000000 0 0 1
-19.951092 -13.591385 -19.176801 30.830529 0.598021 2.242099 0.009756 -0.018160 -124405.000000 0 0 1
-21.191192 -13.029485 -19.545901 31.636630 0.551270 2.236770 0.011502 -0.025620 66759.800000 0 0 1
-21.453692 -11.780385 -18.990201 30.978478 0.502158 2.230665 0.016030 -0.017435 -403598.000000 0 0 1
-22.941392 -11.422085 -18.999401 31.902174 0.461951 2.208749 0.024963 -0.015506 -308236.000000 0 0 1
-23.298392 -10.841185 -20.250201 32.717228 0.435520 2.238197 0.031689 -0.027504 -228203.000000 0 0 1
-24.672892 -10.607385 -20.372501 33.709153 0.406031 2.219760 0.024927 -0.022273 -569808.000000 0 0 1
-25.059892 -9.697185 -21.567401 34.455571 0.369215 2.247143 0.033305 -0.018688 -215386.000000 0 0 1
-25.200152 -10.181185 -22.888001 35.532587 0.383961 2.270696 0.017380 -0.020684 500942.000000 0 0 1
-25.812252 -9.183285 -23.720501 36.239029 0.341808 2.284392 0.028673 -0.020237 -238465.000000 0 0 1
-25.971482 -9.557585 -25.213611 37.437835 0.352622 2.309702 0.020642 -0.004427 155114.000000 0 0 1
-24.827792 -9.718485 -26.044571 37.271811 0.373102 2.344478 0.002191 -0.004303 375997.000000 0 0 1
-24.118092 -10.980585 -25.989341 37.117401 0.427240 2.346464 -0.001182 0.001758 128671.000000 0 0 1
-22.939892 -11.088285 -26.946641 37.085174 0.450249 2.384178 -0.013238 0.015958 -18455.900000 0 0 1
-23.449292 -11.118985 -28.264641 38.371748 0.442772 2.398826 -0.013546 0.016931 -536527.000000 0 0 1
-22.401592 -11.111785 -29.151091 38.406890 0.460464 2.432583 -0.019720 0.012919 -483514.000000 0 0 1
-22.835692 -11.518185 -30.573131 39.860428 0.467157 2.444956 -0.021408 0.008319 563503.000000 0 0 1
-23.609792 -10.517585 -31.285701 40.581239 0.419085 2.451112 -0.022195 0.014462 418338.000000 0 0 1
-22.777892 -9.682685 -32.050351 40.494589 0.401948 2.484011 -0.021088 0.006885 -11972.000000 0 0 1
-23.622892 -8.572885 -32.724921 41.260827 0.348126 2.486716 -0.026415 0.011627 -134551.000000 0 0 1
-24.438292 -8.901985 -33.841811 42.681889 0.349325 2.486325 0.003315 0.011148 1892920.000000 0 0 1
-25.819752 -9.307485 -33.607921 43.391027 0.345980 2.456778 -0.000098 0.010543 1361800.000000 0 0 1
-26.835462 -8.329885 -33.009621 43.349326 0.300976 2.436389 0.001402 0.017612 -161743.000000 0 0 1
-28.202192 -8.740385 -33.059751 44.324994 0.300531 2.412605 -0.001307 0.011735 608993.000000 0 0 1
-28.842652 -8.278985 -31.879361 43.780519 0.279525 2.386435 0.003889 0.009801 754097.000000 0 0 1
-30.345372 -8.704385 -31.729701 44.759154 0.279344 2.358732 0.011277 -0.004247 704459.000000 0 0 1
-30.459532 -10.119185 -31.731771 45.134092 0.320746 2.350481 0.007342 -0.003592 -86516.800000 0 0 1
-31.804202 -10.449685 -31.509091 45.973101 0.317451 2.325923 -0.001652 -0.003285 -340574.000000 0 0 1
-31.935592 -11.982885 -31.615611 46.508262 0.358964 2.318266 0.000104 -0.002142 -71356.800000 0 0 1
-33.246542 -12.538985 -31.506131 47.488893 0.360656 2.296206 0.005293 -0.006207 106056.000000 0 0 1
-33.227002 -13.918285 -31.729311 48.005223 0.396680 2.292888 0.007392 -0.013990 388961.000000 0 0 1
-34.608269 -14.581485 -31.465491 48.994174 0.398758 2.268199 0.000287 -0.020042 306765.000000 0 0 1
-34.910095 -14.693085 -30.075961 48.364914 0.398379 2.241905 0.001839 -0.012910 113916.000000 0 0 1
34.429291 -15.759485 -29.760761 48.160569 -0.429268 2.236927 0.001583 -0.008431 133716.000000 0 0 1
34.350075 -15.936485 -28.216801 47.223798 -0.434388 2.211191 -0.006900 0.002572 2418.810000 0 0 1
-34.702281 -16.508385 -27.671651 47.354993 0.444031 2.194869 -0.006525 -0.012408 127641.000000 0 0 1
-34.681093 -16.255485 -26.311671 46.468516 0.438306 2.172716 -0.020735 -0.009913 134758.000000 0 0 1
-33.357262 -15.695485 -25.721721 44.951775 0.439792 2.179991 -0.000177 -0.013867 280988.000000 0 0 1
-32.211842 -16.515585 -25.780191 44.440809 0.473770 2.189650 -0.001719 -0.011429 421104.000000 0 0 1
-31.135732 -15.974985 -25.004201 43.009813 0.474053 2.191196 0.009936 -0.003461 2037800.000000 0 0 1
-29.721162 -16.731685 -25.187121 42.399149 0.512735 2.206878 0.003382 0.000586 1490680.000000 0 0 1
-29.509442 -18.020685 -24.563201 42.413478 0.548232 2.188466 -0.000275 -0.005626 -315007.000000 0 0 1
-30.274902 -19.078985 -25.037301 43.674292 0.562324 2.181291 -0.006970 -0.006790 -447030.000000 0 0 1
-30.148742 -20.315185 -24.133101 43.635535 0.592947 2.156830 -0.008302 -0.005474 -996671.000000 0 0 1
-28.863582 -20.862285 -24.095701 42.999350 0.625858 2.165633 -0.015696 -0.001682 -262094.000000 0 0 1
-28.899092 -21.992085 -23.327301 43.162162 0.650501 2.141777 -0.032751 0.011157 -144532.000000 0 0 1
-27.619152 -22.873485 -23.436701 42.840318 0.691686 2.149658 -0.015417 0.009436 1261100.000000 0 0 1
-26.365892 -22.349985 -22.940001 41.484042 0.703149 2.156737 -0.001146 -0.001093 869573.000000 0 0 1
-26.262662 -22.181485 -21.550601 40.573071 0.701352 2.130760 -0.005525 -0.006578 -575431.000000 0 0 1
-26.162872 -23.445285 -20.647501 40.749191 0.730672 2.102146 -0.013040 0.001689 -194839.000000 0 0 1
-26.162612 -23.181785 -19.266001 39.913108 0.725063 2.074530 -0.017369 0.000776 -107862.000000 0 0 1
-26.363992 -24.396185 -18.539901 40.422294 0.746651 2.047278 -0.018251 0.024346 -155858.000000 0 0 1
-26.347252 -24.135385 -17.046001 39.588643 0.741612 2.015929 -0.032861 0.027728 -613723.000000 0 0 1
-27.393692 -23.411085 -16.553901 39.655074 0.707168 2.001431 -0.041660 0.019266 -886316.000000 0 0 1
-26.916752 -22.465785 -15.569101 38.361699 0.695509 1.988705 -0.034895 0.014416 -193863.000000 0 0 1
-28.053112 -21.790885 -14.800001 38.481941 0.660416 1.965566 -0.041894 0.014313 -433845.000000 0 0 1
-28.774822 -21.016285 -15.677901 38.929053 0.630820 1.985294 -0.043518 0.019234 -417198.000000 0 0 1
-29.987692 -20.589385 -15.105501 39.387315 0.601672 1.964392 -0.035107 0.020121 -128823.000000 0 0 1
-31.040762 -19.912485 -15.982301 40.192908 0.570373 1.979739 -0.030743 0.013927 -209913.000000 0 0 1
-31.554142 -20.848785 -16.923601 41.433609 0.583882 1.991553 -0.029227 0.011122 167723.000000 0 0 1
-32.543282 -20.134785 -17.685001 42.157253 0.554062 2.003692 -0.027732 0.007794 331703.000000 0 0 1
-33.333812 -20.989885 -18.684001 43.598282 0.561963 2.013683 -0.036037 0.012422 241940.000000 0 0 1
-34.356237 -21.844385 -18.183401 44.588835 0.566342 1.990841 -0.027397 0.012763 115662.000000 0 0 1
-33.970322 -22.958885 -17.399501 44.540271 0.594334 1.972130 -0.017529 0.010148 -361320.000000 0 0 1
-34.903325 -24.154185 -17.693201 45.986042 0.605358 1.965735 -0.016934 0.016711 215940.000000 0 0 1
33.982079 -23.824685 -17.342701 44.979624 -0.611461 1.966620 -0.013605 0.011897 75862.000000 0 0 1
33.196889 -25.019185 -17.416501 45.070252 -0.645840 1.967554 -0.015302 0.010584 128738.000000 0 0 1
31.777589 -24.777885 -16.850901 43.677358 -0.662257 1.966875 -0.010542 0.005609 -387510.000000 0 0 1
30.820989 -24.331785 -17.754001 43.094938 -0.668278 1.995416 0.002704 -0.004472 132906.000000 0 0 1
29.563279 -24.717185 -17.181501 42.191595 -0.696355 1.990211 0.016882 -0.004391 915828.000000 0 0 1
28.265039 -24.466185 -18.018601 41.499116 -0.713481 2.019938 0.036719 -0.006423 412732.000000 0 0 1
28.102759 -23.140085 -18.416701 40.797101 -0.688853 2.039154 0.036491 -0.003561 -219172.000000 0 0 1
26.895639 -22.981285 -19.093601 40.200503 -0.707078 2.065714 0.036821 -0.015862 -626779.000000 0 0 1
33.133119 30.675715 -18.599401 48.833808 0.746905 1.961535 0.010952 0.001046 202436.000000 0 0 1
32.248869 30.664015 -19.725201 48.676020 0.760212 1.988032 0.006086 -0.004222 270352.000000 0 0 1
32.921589 30.276115 -20.922701 49.378473 0.743562 2.008346 0.015611 0.010590 -421364.000000 0 0 1
32.001189 30.306515 -22.161801 49.332610 0.758206 2.036702 0.028051 0.011652 80407.700000 0 0 1
30.969829 29.287315 -22.052801 47.991699 0.757483 2.048243 0.023661 0.004208 640852.000000 0 0 1
30.086339 29.321215 -23.146801 47.965570 0.772520 2.074384 0.028337 0.012259 738519.000000 0 0 1
28.895619 30.360715 -23.096001 47.855565 0.810118 2.074439 0.014032 0.017338 -210456.000000 0 0 1
29.299379 31.721915 -23.236701 49.037514 0.825077 2.064460 0.031298 0.000492 387456.000000 0 0 1
28.250229 32.714215 -23.199701 49.056309 0.858490 2.063398 0.021850 0.008485 285719.000000 0 0 1
28.769499 34.178015 -23.079301 50.283943 0.871109 2.047643 0.024214 0.004532 197347.000000 0 0 1
29.283929 -34.577355 -21.851501 50.305368 -0.868099 2.020143 0.025802 -0.002337 1130310.000000 0 0 1
30.709879 34.484015 -21.692701 51.017813 0.843225 2.009978 0.022105 -0.003476 1076460.000000 0 0 1
31.137749 34.151515 -20.230601 50.449605 0.831526 1.983411 0.023190 -0.011595 -152708.000000 0 0 1
31.034749 -33.993255 -19.363601 49.936420 -0.830863 1.969002 0.023444 -0.011765 56054.800000 0 0 1
31.085859 -34.334055 -17.977801 49.682585 -0.835009 1.941051 0.003324 -0.019650 -240891.000000 0 0 1
31.215429 -33.087855 -17.084901 48.591182 -0.814509 1.930081 0.000501 -0.011704 1073080.000000 0 0 1
32.479509 -32.411055 -17.298901 49.037200 -0.784343 1.931327 0.001009 -0.013658 857476.000000 0 0 1
33.395159 -32.575955 -16.234701 49.396305 -0.772981 1.905683 -0.003681 -0.008864 953887.000000 0 0 1
34.755194 -31.776555 -16.439901 49.879287 -0.740658 1.906670 -0.009706 0.004163 835886.000000 0 0 1
-34.621122 -32.388455 -17.375101 50.492853 0.752092 1.922087 -0.008428 -0.000872 -626500.000000 0 0 1
-33.538162 -31.513355 -17.607801 49.274075 0.754282 1.936219 -0.026959 0.016135 396160.000000 0 0 1
-32.483012 -31.978355 -18.663301 49.255254 0.777569 1.959414 -0.032420 0.012047 -388913.000000 0 0 1
-31.968532 -33.238855 -18.229801 49.589657 0.804877 1.947237 -0.017887 0.004726 643820.000000 0 0 1
-30.978692 -33.900855 -19.052401 49.718621 0.830408 1.964060 -0.027987 0.008664 1599310.000000 0 0 1
-29.642382 -33.136555 -19.393601 48.505812 0.840999 1.982117 -0.030232 0.008963 -422176.000000 0 0 1
-29.942462 -32.191955 -20.449401 48.487637 0.821586 2.006165 -0.040253 0.016967 919130.000000 0 0 1
-28.799502 -31.610355 -21.148801 47.706369 0.831894 2.030086 -0.036934 0.017480 818278.000000 0 0 1
-28.043072 -32.764755 -21.914101 48.375312 0.862892 2.040926 -0.033638 0.026407 -259202.000000 0 0 1
-28.746582 -33.391755 -22.997401 49.701667 0.860015 2.051845 -0.032117 0.031233 176917.000000 0 0 1
-27.991552 -34.478955 -23.525901 50.257271 0.888875 2.057946 -0.028065 0.019462 -145309.000000 0 0 1
-28.711392 33.968715 -24.623001 50.838074 -0.869078 2.076407 -0.028928 0.010157 -512403.000000 0 0 1
-29.840152 33.215315 -24.186501 50.780692 -0.838874 2.067231 -0.034021 0.002545 383730.000000 0 0 1
-30.592662 32.606715 -25.240561 51.343887 -0.817256 2.084720 -0.024897 0.008332 149372.000000 0 0 1
-31.363382 33.487315 -26.198321 52.833834 -0.818138 2.089624 -0.020135 -0.005225 -792208.000000 0 0 1
-30.559562 34.084815 -27.215511 53.257351 -0.839877 2.107166 -0.020702 -0.007088 -239888.000000 0 0 1
-31.307582 -34.163655 -27.842191 54.060222 0.828994 2.111829 -0.022542 -0.007951 244731.000000 0 0 1
-30.648122 -33.326755 -29.011441 53.774005 0.827244 2.140648 -0.008293 -0.011960 -115789.000000 0 0 1
-30.337202 -33.935755 -30.272801 54.666477 0.841328 2.157685 -0.003312 -0.012154 841929.000000 0 0 1
-31.503362 -34.233455 -31.101651 55.961629 0.826905 2.160082 0.001873 -0.004119 806724.000000 0 0 1
-31.180872 34.220615 -32.365551 56.487398 -0.831843 2.180921 0.011998 -0.004235 -183704.000000 0 0 1
-30.710852 -34.210155 -33.404611 56.827450 0.839247 2.199164 0.028543 -0.027182 -222087.000000 0 0 1
-30.860332 34.551315 34.417096 57.712130 -0.841765 0.931840 0.019462 -0.034775 -1034460.000000 0 0 1
-29.808212 -34.202655 33.454386 56.369735 0.853942 0.935419 0.022760 -0.031159 497139.000000 0 0 1
-28.490232 34.507915 33.570564 55.941687 -0.880631 0.927171 0.030310 -0.030811 405198.000000 0 0 1
-28.411702 33.171315 33.087740 54.793791 -0.862533 0.922462 0.039146 -0.034362 -456283.000000 0 0 1
-27.097872 32.350115 33.236022 53.716457 -0.873520 0.903670 0.033621 -0.025736 -65431.000000 0 0 1
-26.816832 31.983515 34.560294 54.189498 -0.873041 0.879200 0.034189 -0.025448 1035990.000000 0 0 1
-25.453952 31.552715 -34.344169 53.131906 -0.891976 2.273646 0.035791 -0.021442 816860.000000 0 0 1
-24.904292 30.248815 34.168774 51.987688 -0.882000 0.853636 0.030716 -0.030029 -462840.000000 0 0 1
-25.207872 29.063915 -34.322517 51.557571 -0.856330 2.299245 0.038824 -0.021509 -88896.200000 0 0 1
-24.683692 27.936215 34.227149 50.608443 -0.847131 0.828051 0.032517 -0.025366 -324945.000000 0 0 1
-24.643492 26.841315 -33.788461 49.693239 -0.828061 2.318478 0.036740 -0.037387 378134.000000 0 0 1
-23.632192 26.919815 -32.748191 48.534534 -0.850341 2.311409 0.034570 -0.024326 437677.000000 0 0 1
-23.775692 28.053415 -31.833001 48.637615 -0.867747 2.284309 0.026871 -0.012142 -259893.000000 0 0 1
-22.719092 28.184915 -30.710041 47.472657 -0.892363 2.274308 0.044899 -0.009174 -7183.920000 0 0 1
-21.439392 28.328515 -31.295731 47.345275 -0.922949 2.292961 0.028118 -0.010930 -928025.000000 0 0 1
-20.350392 28.285915 -30.465571 46.285878 -0.947133 2.289228 0.007715 -0.004701 -459615.000000 0 0 1
-20.078792 29.418415 -29.409131 46.189804 -0.971895 2.261010 0.011845 0.008428 -440352.000000 0 0 1
-19.592192 30.635115 -30.043511 47.169660 -1.001814 2.261299 0.006017 0.013648 343791.000000 0 0 1
-19.274792 31.668115 -29.145531 47.157705 -1.024041 2.237048 0.014650 0.004752 -142923.000000 0 0 1
-18.941792 33.031615 -29.836521 48.374550 -1.050132 2.235443 0.016296 0.015609 922137.000000 0 0 1
-17.630592 33.055115 -30.432201 48.265902 -1.080811 2.253008 0.008728 0.012340 418445.000000 0 0 1
-17.439992 34.095715 -31.366181 49.502610 -1.097990 2.257029 0.006806 0.024215 1140980.000000 0 0 1
-15.934692 34.210315 -31.853961 49.385574 -1.134892 2.271827 0.010294 0.020960 1156450.000000 0 0 1
-15.012592 -34.557055 -30.862911 48.704078 1.160966 2.257100 0.034140 0.016573 629553.000000 0 0 1
-13.658192 -34.457955 -31.304151 48.516458 1.193421 2.272117 0.044359 0.020578 976957.000000 0 0 1
-12.944292 33.411915 -31.246761 47.542306 -1.201186 2.287949 0.048209 0.008844 -728109.000000 0 0 1
-12.832692 32.968415 -29.909131 46.326564 -1.199598 2.272625 0.061500 -0.005305 -19888.200000 0 0 1
-12.499892 31.579615 -29.914281 45.259072 -1.193897 2.292889 0.051971 -0.011837 -157689.000000 0 0 1
-12.354392 30.917515 -28.526601 43.843936 -1.190642 2.279223 0.044166 -0.022123 829825.000000 0 0 1
-11.051192 31.170715 -27.960251 43.307251 -1.230085 2.272638 0.034222 -0.014880 586481.000000 0 0 1
-10.908692 30.788315 -26.607451 42.129281 -1.230285 2.254369 0.026152 -0.018661 -186029.000000 0 0 1
-9.512692 31.161115 -26.102381 41.747344 -1.274508 2.246244 0.018345 -0.010547 -426896.000000 0 0 1
-8.510692 30.287015 -26.470781 41.114929 -1.296859 2.270282 0.024080 -0.003460 -754574.000000 0 0 1
-7.228792 30.749015 -26.146911 41.005101 -1.339899 2.262240 0.020381 -0.008723 -1996.410000 0 0 1
-6.019292 29.853015 -26.482531 40.357884 -1.371833 2.286558 0.000611 -0.004213 -38947.400000 0 0 1
-5.817492 28.760115 -25.584671 38.930230 -1.371213 2.287885 0.006404 -0.007604 442681.000000 0 0 1
-4.582592 28.111915 -25.928821 38.517317 -1.409205 2.309288 0.007062 -0.008197 621418.000000 0 0 1
-4.251392 26.929015 -24.966001 36.966842 -1.414215 2.312252 0.006516 -0.010909 -405938.000000 0 0 1
-5.116292 25.811115 -25.049601 36.330051 -1.375112 2.331596 0.016973 -0.011372 127544.000000 0 0 1
-4.715792 24.657415 -24.293701 34.934377 -1.381826 2.339786 0.015167 -0.016201 -157444.000000 0 0 1
-5.732592 23.511615 -24.519301 34.450759 -1.331643 2.362740 0.019186 -0.014055 126117.000000 0 0 1
-5.941792 23.071315 -25.849821 35.154000 -1.318734 2.396951 0.012000 -0.012439 -322646.000000 0 0 1
-6.764292 21.968015 -25.827201 34.574465 -1.272094 2.414338 0.020634 -0.018027 -858035.000000 0 0 1
-6.772192 21.049715 -27.110771 34.984954 -1.259531 2.457395 0.016625 -0.012428 903297.000000 0 0 1
-5.524592 20.339015 -27.313871 34.499916 -1.305570 2.484397 0.025488 -0.018239 806684.000000 0 0 1
-5.304092 19.269815 -26.300631 33.033050 -1.302194 2.491771 0.021853 -0.022221 394986.000000 0 0 1
-4.061692 18.406215 -26.748331 32.722459 -1.353607 2.527732 0.019524 -0.023692 320987.000000 0 0 1
-4.260992 17.611015 -27.893861 33.262162 -1.333408 2.565516 0.008709 -0.021996 20552.700000 0 0 1
-3.328392 16.562215 -28.155481 32.834681 -1.372475 2.601172 0.006843 -0.015853 -197826.000000 0 0 1
-3.148292 16.350915 -29.683301 34.034725 -1.380579 2.630371 0.000280 -0.017130 -189794.000000 0 0 1
-2.241992 17.316015 -30.157351 34.847335 -1.442038 2.616771 -0.001827 -0.026756 114533.000000 0 0 1
-1.910892 17.036615 -31.507981 35.869913 -1.459099 2.643292 -0.010408 -0.034897 -162689.000000 0 0 1
-1.170592 18.167115 -32.230841 37.016773 -1.506451 2.627439 -0.004708 -0.009303 541908.000000 0 0 1
0.196808 18.205915 -31.771091 36.618251 1.559987 2.621212 -0.000261 -0.012272 935466.000000 0 0 1
0.882608 19.328815 -32.383291 37.723463 1.525165 2.603015 0.001736 0.005225 250212.000000 0 0 1
0.702408 20.734015 -31.705241 37.889511 1.536932 2.562175 0.003076 0.006948 -164298.000000 0 0 1
1.272108 20.872115 -30.441491 36.931664 1.509924 2.539700 0.018007 -0.009817 -142133.000000 0 0 1
0.952008 22.184015 -29.974281 37.302740 1.527908 2.504017 0.025869 -0.008005 -112290.000000 0 0 1
1.618908 22.529815 -28.631531 36.468864 1.499063 2.473646 0.029836 -0.012225 -537759.000000 0 0 1
2.988208 22.632615 -28.881621 36.814572 1.439525 2.472712 0.023792 -0.009807 -664425.000000 0 0 1
3.785908 22.850615 -27.713381 36.118073 1.406607 2.445416 0.029193 -0.011564 306506.000000 0 0 1
4.122008 24.350015 -27.533301 36.986442 1.403105 2.410456 0.027134 -0.008196 -476861.000000 0 0 1
4.915508 24.924815 -28.526501 38.199082 1.376082 2.414011 0.016584 -0.012353 -27681.000000 0 0 1
5.284408 26.209015 -28.149221 38.822881 1.371838 2.381929 0.023990 -0.011270 -429942.000000 0 0 1
6.026108 27.005715 -29.211571 40.236035 1.351251 2.383291 0.036676 -0.015870 -1036490.000000 0 0 1
7.369808 26.665415 -29.263381 40.270385 1.301147 2.384262 0.051038 -0.021363 -1126790.000000 0 0 1
8.062208 27.508315 -30.123861 41.583093 1.285698 2.380997 0.067120 -0.033765 -195104.000000 0 0 1
9.553208 27.108615 -30.077261 41.602674 1.231981 2.378880 0.057042 -0.027484 -46998.700000 0 0 1
10.411108 28.063815 -30.661861 42.849955 1.215555 2.368227 0.058041 -0.024322 -467578.000000 0 0 1
11.624008 28.145515 -29.961441 42.719733 1.179136 2.348085 0.046922 -0.027795 -534694.000000 0 0 1
12.593208 29.149215 -30.590181 44.091097 1.162990 2.337542 0.055757 -0.025384 -756246.000000 0 0 1
12.239508 30.499215 -30.736251 44.996942 1.189165 2.322760 0.058618 -0.022345 301920.000000 0 0 1
13.330308 31.234315 -31.301361 46.185006 1.167416 2.315479 0.095541 -0.031226 523659.000000 0 0 1
13.038108 32.786615 -31.336201 47.190167 1.192304 2.297007 0.093388 -0.032250 197082.000000 0 0 1
11.979708 33.134915 -32.213901 47.740669 1.223875 2.311447 0.072666 -0.036164 160054.000000 0 0 1
11.564008 34.489115 -32.081981 48.502359 1.247282 2.293549 0.067010 -0.029676 335424.000000 0 0 1
10.129308 -34.590655 -32.650821 48.633244 -1.285927 2.306850 0.012934 -0.017088 136523.000000 0 0 1
10.111508 -34.131955 -33.985051 49.216020 -1.282786 2.333015 0.019173 -0.006281 145002.000000 0 0 1
8.767508 -33.976155 -34.401263 49.139548 -1.318257 2.346296 0.010059 -0.004637 363045.000000 0 0 1
8.704308 -33.401455 33.311558 47.969595 -1.315869 0.803168 0.021662 0.009511 132955.000000 0 0 1
8.891808 -32.000055 33.155600 46.929325 -1.299765 0.786255 -0.006151 -0.000285 27699.100000 0 0 1
9.262108 -31.715755 31.820342 45.871668 -1.286663 0.804208 0.011136 0.009052 -272995.000000 0 0 1
9.275208 -30.190255 31.455912 44.575278 -1.272724 0.787413 -0.016557 -0.012131 752057.000000 0 0 1
7.964708 -29.612455 31.302772 43.820059 -1.308050 0.775104 -0.025040 0.001565 278378.000000 0 0 1
7.464008 -29.058855 32.476282 44.213543 -1.319373 0.745819 -0.016765 0.005417 -592066.000000 0 0 1
6.033508 -28.511455 32.302362 43.505734 -1.362256 0.734024 -0.027358 0.001404 545049.000000 0 0 1
4.974708 -29.470755 32.141062 43.889873 -1.403571 0.749086 -0.002883 -0.009359 261619.000000 0 0 1
4.986108 -30.246555 30.931202 43.548302 -1.407417 0.780910 -0.009329 -0.007518 -1050200.000000 0 0 1
4.545908 -29.589855 29.559162 42.070998 -1.418358 0.791749 0.000329 -0.005124 -385540.000000 0 0 1
3.154208 -29.589755 29.396042 41.828578 -1.464599 0.791507 0.017306 -0.013005 -174495.000000 0 0 1
2.805208 -28.825355 28.241422 40.451801 -1.473784 0.797986 0.032523 -0.010738 632420.000000 0 0 1
1.389108 -29.214655 27.669692 40.262110 -1.523284 0.813115 0.031096 -0.020201 586898.000000 0 0 1
1.342008 -30.553255 27.187612 40.920271 -1.526901 0.844100 0.026982 -0.026104 -102182.000000 0 0 1
0.952508 -31.545955 28.048952 42.223196 -1.540611 0.844237 0.039299 -0.023700 -590555.000000 0 0 1
0.787808 -32.926455 27.288152 42.771665 -1.546875 0.878903 0.029883 -0.022896 731631.000000 0 0 1
2.003608 -33.624355 26.919972 43.119561 -1.511279 0.896548 0.020374 -0.019401 721252.000000 0 0 1
2.644908 -33.026955 25.830432 42.011742 -1.490884 0.908615 0.024248 -0.023236 -1440690.000000 0 0 1
4.141108 -33.164455 25.861392 42.259217 -1.446573 0.912247 0.015504 -0.014527 -1028430.000000 0 0 1
4.743808 -32.470555 24.760652 41.108765 -1.425727 0.924391 0.023034 -0.017927 791660.000000 0 0 1
6.170108 -32.560755 24.803422 41.394235 -1.383522 0.928295 0.008797 -0.022124 935228.000000 0 0 1
6.989708 -32.220655 23.483382 40.478338 -1.357174 0.951887 0.008277 -0.017072 1262070.000000 0 0 1
8.292908 -31.663555 23.733482 40.430573 -1.314643 0.943426 0.001163 -0.013996 691815.000000 0 0 1
9.007808 -31.368455 22.561482 39.675446 -1.291159 0.965931 0.010529 -0.019850 446476.000000 0 0 1
10.235308 -30.444955 22.832482 39.407855 -1.246476 0.952817 0.010205 -0.013905 1144130.000000 0 0 1
11.382208 -31.014755 23.514982 40.551499 -1.219064 0.952216 0.017289 -0.021185 637927.000000 0 0 1
12.478508 -30.146055 23.302482 40.093684 -1.178335 0.950593 0.028033 -0.019469 -235706.000000 0 0 1
13.629908 -30.362155 24.278412 41.195584 -1.148848 0.940548 0.052023 -0.022960 -576632.000000 0 0 1
13.342908 -29.941555 25.598942 41.591294 -1.151581 0.907791 0.035855 -0.010665 70137.300000 0 0 1
14.518608 -29.709555 26.348192 42.280904 -1.116242 0.898007 0.019833 -0.006162 -104874.000000 0 0 1
-10.686392 -14.179185 26.144652 31.603656 0.924952 0.596571 0.029689 -0.018511 1060550.000000 0 0 1
-9.280192 -14.256885 25.796072 30.900131 0.993770 0.582989 0.026627 -0.018108 1330780.000000 0 0 1
-8.465792 -14.622285 26.911362 31.775813 1.045987 0.560643 0.043518 -0.025562 719547.000000 0 0 1
-6.932492 -14.473385 26.654722 31.112900 1.124104 0.541940 0.059950 -0.019079 513810.000000 0 0 1
-6.421292 -15.579085 25.954262 30.944541 1.179839 0.575841 0.053686 -0.014507 -33483.300000 0 0 1
-6.236792 -15.350585 24.575992 29.639795 1.184879 0.593201 0.043385 -0.008425 -275466.000000 0 0 1
-5.702192 -16.481285 23.698682 29.424060 1.237707 0.634415 0.037091 -0.008950 218528.000000 0 0 1
-6.537392 -17.642185 23.520282 30.119559 1.215929 0.674695 0.041078 -0.011335 -118338.000000 0 0 1
-6.500092 -18.479385 24.615402 31.458813 1.232565 0.672183 0.045991 -0.015183 -474571.000000 0 0 1
-7.155792 -19.871185 24.320682 32.211255 1.225144 0.715086 0.050901 -0.017939 -592011.000000 0 0 1
-8.542592 -19.794585 24.248692 32.446888 1.163381 0.726754 0.040817 -0.012920 -723112.000000 0 0 1
-9.132692 -21.008285 23.769382 33.011174 1.160723 0.766936 0.028957 -0.016015 106750.000000 0 0 1
-10.659992 -21.047885 23.964582 33.629601 1.101991 0.777594 0.036733 -0.012688 -154411.000000 0 0 1
-11.005792 -21.029785 25.360562 34.735248 1.088649 0.752313 0.032069 -0.015714 -617749.000000 0 0 1
-12.394192 -21.060685 25.464502 35.293191 1.038876 0.764811 0.041902 -0.009409 -474080.000000 0 0 1
-12.918292 -21.108385 26.943982 36.584482 1.021601 0.742935 0.043677 -0.010207 -182632.000000 0 0 1
-12.589292 -22.322685 27.589242 37.655794 1.057292 0.748561 0.051103 -0.006771 659289.000000 0 0 1
-11.566792 -22.076185 28.595262 37.932013 1.088174 0.716886 0.038683 -0.006979 664731.000000 0 0 1
-11.211692 -23.472785 29.231062 39.129639 1.125191 0.727211 0.031151 -0.013828 -197052.000000 0 0 1
-12.182892 -24.044185 30.058012 40.373627 1.101813 0.731016 0.045469 -0.010608 -113579.000000 0 0 1
-11.726592 -25.294985 30.416722 41.261680 1.136696 0.741929 0.041991 -0.010937 231911.000000 0 0 1
-12.717392 -25.788025 31.514722 42.660661 1.112643 0.739612 0.060330 -0.024233 535411.000000 0 0 1
-12.605092 -25.049105 32.743012 43.109753 1.104580 0.708211 0.048117 -0.024002 484827.000000 0 0 1
-13.678492 -25.470075 33.598371 44.324670 1.077956 0.710546 0.055546 -0.026094 439766.000000 0 0 1
-13.419192 -24.914285 -34.109873 44.320196 1.076736 2.449048 0.057206 -0.025377 118138.000000 0 0 1
-13.502192 -23.481785 -33.821361 43.331142 1.048957 2.466313 0.052595 -0.025748 453176.000000 0 0 1
-14.747692 -22.932885 -34.270935 43.793933 0.999301 2.469547 0.053370 -0.029000 455468.000000 0 0 1
-14.918192 -21.405785 -34.057041 42.902705 0.962138 2.487862 0.039789 -0.017923 -3948.280000 0 0 1
-15.018392 -21.064285 -32.712451 41.705643 0.951413 2.472468 0.039424 -0.019278 66513.600000 0 0 1
-15.439092 -19.739785 -32.561321 41.088493 0.907047 2.485641 0.033745 -0.023658 -649171.000000 0 0 1
-15.645792 -19.174485 -31.142861 39.778505 0.886394 2.470121 0.031478 -0.015244 63097.900000 0 0 1
-16.832492 -19.629685 -30.511331 39.994983 0.861963 2.438551 0.028291 -0.019459 164761.000000 0 0 1
-17.024692 -19.108485 -29.172151 38.807070 0.843004 2.421467 0.025589 -0.020988 331569.000000 0 0 1
-16.292092 -19.948585 -28.044371 38.077093 0.885953 2.398701 0.022919 -0.008599 177889.000000 0 0 1
-14.903792 -19.737085 -27.994451 37.354582 0.924029 2.417989 0.015908 -0.006988 -211864.000000 0 0 1
-14.218792 -20.793085 -27.365871 37.194318 0.971010 2.397576 0.016629 0.001637 1246660.000000 0 0 1
-12.671492 -20.924685 -27.655781 36.922234 1.026287 2.417390 0.027637 -0.003349 930182.000000 0 0 1
-11.908592 -19.813485 -27.178621 35.680053 1.029616 2.436778 0.010428 -0.004803 723787.000000 0 0 1
-10.492392 -19.996985 -27.190641 35.345447 1.087586 2.448514 -0.002894 -0.010609 1029830.000000 0 0 1
-9.810192 -21.036385 -26.196151 35.000110 1.134434 2.416532 0.009008 -0.001874 -505265.000000 0 0 1
-9.917692 -22.384585 -26.533811 36.103648 1.153730 2.396366 -0.001319 0.001024 259037.000000 0 0 1
-9.488392 -23.234585 -25.478461 35.763494 1.183092 2.363730 0.009779 0.000354 -200748.000000 0 0 1
-9.410092 -24.768185 -25.882361 37.039296 1.207713 2.344488 0.013688 -0.002801 -119980.000000 0 0 1
-8.245892 -25.025115 -26.654641 37.479608 1.252496 2.361968 -0.003007 0.005127 188730.000000 0 0 1
-8.204792 -26.246435 -27.408421 38.825449 1.267815 2.354545 -0.004191 0.007342 -129915.000000 0 0 1
-8.013792 -27.544535 -26.556081 39.091530 1.287673 2.317647 -0.003368 0.003085 -29887.500000 0 0 1
-9.182292 -27.988885 -25.871041 39.204629 1.253791 2.291479 -0.001826 0.007859 325315.000000 0 0 1
-8.947892 -29.126735 -25.024201 39.428950 1.272742 2.258372 0.036948 0.015572 -82609.800000 0 0 1
-10.150992 -29.384165 -24.056301 39.308745 1.238174 2.229362 0.031570 0.011610 304444.000000 0 0 1
-10.373392 -28.444615 -22.995501 38.019685 1.221097 2.220351 0.024843 -0.001007 235620.000000 0 0 1
-11.192992 -27.323665 -23.353401 37.646342 1.182003 2.239968 0.016656 0.007965 3017.700000 0 0 1
-11.184592 -26.264755 -22.201301 36.163935 1.168214 2.231797 0.020637 -0.014838 -146495.000000 0 0 1
-11.518192 -26.785935 -20.945701 35.900939 1.164691 2.193742 0.031139 -0.018338 136458.000000 0 0 1
-11.660792 -25.736405 -20.022701 34.630119 1.145379 2.187302 0.017878 -0.021905 -363988.000000 0 0 1
-12.178592 -26.092315 -18.634201 34.298111 1.134101 2.145160 0.030569 -0.019660 109871.000000 0 0 1
-13.594292 -26.136265 -18.668101 34.877028 1.091174 2.135606 0.047820 -0.018057 112330.000000 0 0 1
-14.142792 -26.631055 -17.450901 34.839139 1.082608 2.095434 0.051929 -0.017278 394843.000000 0 0 1
-15.683392 -26.820185 -17.454601 35.636417 1.041658 2.082653 0.065634 -0.020117 -1035970.000000 0 0 1
-16.406492 -25.635795 -17.403901 35.060843 1.001495 2.090233 0.077651 -0.016291 -182969.000000 0 0 1
-17.768492 -25.837925 -17.077101 35.706373 0.968380 2.069474 0.082947 -0.008610 712598.000000 0 0 1
-18.729192 -26.546535 -18.117101 37.198528 0.956373 2.079492 0.073711 -0.001711 -701369.000000 0 0 1
-18.402192 -27.943405 -18.213901 38.094891 0.988432 2.069308 0.070544 -0.003833 -151031.000000 0 0 1
-18.861892 -28.741345 -17.098701 38.395331 0.990031 2.032342 0.069784 -0.005901 887146.000000 0 0 1
-20.403692 -29.056635 -16.989301 39.360323 0.958593 2.017101 0.053914 -0.001670 1170200.000000 0 0 1
-20.995392 -29.871675 -18.010301 40.712337 0.958158 2.029046 0.065012 0.000889 -362904.000000 0 0 1
-22.166992 -30.523605 -17.614301 41.633275 0.942686 2.007641 0.046439 0.007843 -227044.000000 0 0 1
-22.574592 -31.566835 -18.661101 43.061746 0.949984 2.019011 0.019996 0.005910 -348117.000000 0 0 1
-21.863892 -32.796045 -18.528901 43.553766 0.982797 2.010229 0.026348 0.002085 314663.000000 0 0 1
-22.162592 -33.556425 -19.685701 44.774334 0.987105 2.026022 0.009441 0.016226 171476.000000 0 0 1
-21.422192 34.343008 -19.741701 45.034290 -1.013081 2.024581 0.010136 0.008144 148316.000000 0 0 1
-22.124692 33.312478 -19.020601 44.283252 -0.984534 2.014759 0.001127 0.002083 174261.000000 0 0 1
-21.297692 32.178775 -18.870901 42.955513 -0.986132 2.025630 -0.000153 -0.009646 -37939.100000 0 0 1
-22.031792 30.946885 -18.303101 42.167678 -0.952113 2.019786 0.000887 -0.018298 53439.200000 0 0 1
-22.470492 30.921065 -16.968801 41.820754 -0.942371 1.988596 -0.010229 -0.015149 -35958.800000 0 0 1
-23.197492 29.738455 -16.611901 41.212311 -0.908339 1.985677 -0.005619 -0.012630 167516.000000 0 0 1
-22.377592 28.418025 -16.461101 39.740516 -0.903759 1.997876 -0.001611 -0.021851 15466.800000 0 0 1
-21.747592 27.932855 -17.641301 39.552720 -0.909262 2.033110 -0.003142 -0.021647 -75575.100000 0 0 1
-21.392792 26.599405 -17.444301 38.333843 -0.893464 2.043239 -0.007270 -0.015337 136018.000000 0 0 1
-20.662292 26.029185 -18.697901 38.132142 -0.899840 2.083282 0.006963 -0.011932 -961169.000000 0 0 1
-20.288392 24.622375 -18.651001 36.955920 -0.881602 2.099810 0.010644 -0.016534 194914.000000 0 0 1
-19.494392 24.224585 -19.771801 36.848147 -0.893174 2.137170 0.007830 -0.004208 806466.000000 0 0 1
-18.076092 24.893035 -19.804301 36.587137 -0.942734 2.142768 0.010020 -0.011597 -412178.000000 0 0 1
-17.214292 24.406215 -18.749501 35.263848 -0.956506 2.131393 0.022588 -0.010446 -55249.600000 0 0 1
-16.134992 25.254315 -18.467801 35.201961 -1.002264 2.123070 0.037750 -0.014561 -346114.000000 0 0 1
-16.427792 26.443895 -17.551701 35.738133 -1.014911 2.084171 0.026334 -0.021809 -853687.000000 0 0 1
-17.364592 27.319065 -18.065701 37.070607 -1.004595 2.079828 0.018459 -0.018250 -555325.000000 0 0 1
-17.178292 28.604335 -17.460901 37.658794 -1.029974 2.052919 0.026974 -0.030761 431123.000000 0 0 1
-18.188792 29.760245 -17.886801 39.197474 -1.022199 2.044657 0.024728 -0.026266 425972.000000 0 0 1
-18.162492 30.066755 -19.286501 40.073120 -1.027388 2.072914 0.025819 -0.027977 274691.000000 0 0 1
-18.998492 29.228125 -20.096601 40.238034 -0.994416 2.093752 0.023700 -0.023938 -80683.500000 0 0 1
-19.015192 29.728755 -21.523701 41.335772 -1.001751 2.118472 0.025095 -0.021976 83124.000000 0 0 1
-19.677992 30.974965 -21.568001 42.565837 -1.004834 2.102146 0.022363 -0.015340 -89802.000000 0 0 1
-20.080192 31.257305 -22.884801 43.634245 -0.999771 2.122887 0.026618 -0.011882 1891.590000 0 0 1
-20.587192 32.705035 -22.994601 44.968916 -1.008981 2.107545 0.026785 -0.011281 -62823.000000 0 0 1
-19.570992 33.683783 -22.946301 45.212318 -1.044449 2.103104 0.021950 -0.001866 -177166.000000 0 0 1
-19.866792 -34.602285 -23.867901 46.493916 1.049603 2.109886 0.027984 0.009090 -254221.000000 0 0 1
-18.803992 -33.488315 -23.971201 45.273346 1.059160 2.128780 0.050458 0.012903 -52926.600000 0 0 1
-18.818792 -32.559455 -22.924901 44.043344 1.046724 2.118242 0.052420 0.011149 486412.000000 0 0 1
-18.165992 -33.133285 -21.736001 43.592104 1.069282 2.092805 0.054496 0.003115 -11176.300000 0 0 1
-18.003592 -32.216385 -20.516701 42.225109 1.061197 2.078176 0.064909 -0.002441 759128.000000 0 0 1
-16.927392 -31.261985 -20.717401 41.146798 1.074527 2.098441 0.062959 0.001489 818524.000000 0 0 1
-16.572092 -30.550055 -19.536701 39.870074 1.073763 2.082897 0.067633 0.001864 -57572.700000 0 0 1
-15.432592 -29.530395 -19.696901 38.706292 1.089232 2.104681 0.075360 0.003163 1200750.000000 0 0 1
-14.138192 -30.175435 -19.841301 38.783019 1.132638 2.107839 0.080367 0.002326 933764.000000 0 0 1
-13.161592 -29.248415 -20.323401 37.970224 1.147948 2.135595 0.051955 -0.003966 -58035.600000 0 0 1
-11.790992 -29.993965 -20.545801 38.220353 1.196242 2.138339 0.044865 0.002750 654892.000000 0 0 1
-11.074392 -30.577005 -19.481601 37.909473 1.223312 2.110519 0.042333 0.005782 154062.000000 0 0 1
-10.746492 -29.598495 -18.518901 36.530914 1.222521 2.102425 0.027480 -0.005352 -836252.000000 0 0 1
-10.000092 -30.255305 -17.324201 36.270005 1.251577 2.068769 0.019526 0.005737 350790.000000 0 0 1
-10.900692 -30.987505 -16.476601 36.749543 1.232539 2.035713 0.033586 0.000540 372679.000000 0 0 1
-11.013792 -32.358855 -16.784401 38.080378 1.242732 2.027244 0.038943 0.005033 746412.000000 0 0 1
-12.166392 -33.075965 -15.966201 38.690569 1.218325 1.996173 0.056151 0.000708 453201.000000 0 0 1
-11.781292 -33.137175 -14.626101 38.089290 1.229203 1.964916 0.042931 0.001322 99402.400000 0 0 1
-12.736092 -33.828425 -13.838101 38.704824 1.210719 1.936417 0.054149 0.002810 -358296.000000 0 0 1
-12.240792 -34.235591 -12.467301 38.436262 1.227415 1.901135 0.044845 -0.000594 -138458.000000 0 0 1
-12.020392 -33.151405 -11.501101 37.091519 1.222949 1.886067 0.032991 -0.002644 157764.000000 0 0 1
-11.639192 -33.642445 -10.215701 37.035732 1.237718 1.850253 0.029082 -0.002315 -1014950.000000 0 0 1
-10.484692 -32.849535 -9.691701 35.818288 1.261844 1.844791 0.017019 -0.001624 -484539.000000 0 0 1
-9.273892 -33.185485 -10.369901 35.983556 1.298292 1.863127 -0.001627 0.003134 242919.000000 0 0 1
-8.148692 -32.583405 -9.740901 34.970911 1.325736 1.853073 -0.019941 0.009421 1486520.000000 0 0 1
-6.744892 -33.195575 -10.177001 35.369635 1.370339 1.862655 -0.020880 0.004760 1048780.000000 0 0 1
-6.506192 -34.469087 -9.708501 36.396476 1.384237 1.840808 -0.024514 0.012226 -919259.000000 0 0 1
-5.375792 34.307457 -10.319801 36.227049 -1.415366 1.859661 -0.020746 0.009523 -694214.000000 0 0 1
-4.837692 33.046485 -9.543801 34.735537 -1.425438 1.849132 -0.023721 0.005795 78030.500000 0 0 1
-4.326192 33.325974 -8.243401 34.601880 -1.441704 1.811345 -0.030428 0.006408 -83545.200000 0 0 1
-3.563392 32.303585 -7.668401 33.391971 -1.460931 1.802512 -0.018291 0.002783 -289366.000000 0 0 1
-3.116192 32.780015 -6.276601 33.520676 -1.476017 1.759154 -0.019786 0.000982 -222792.000000 0 0 1
-2.299192 33.968380 -6.397701 34.641993 -1.503213 1.756543 -0.029073 0.007221 165170.000000 0 0 1
-2.160792 34.612680 -5.097701 35.052720 -1.508449 1.716743 -0.023615 0.004503 -90262.000000 0 0 1
-1.225192 33.853469 -4.103301 34.123240 -1.534621 1.691337 -0.010254 0.003126 -417611.000000 0 0 1
0.136008 34.047492 -4.451701 34.337557 1.566802 1.700808 -0.018298 -0.001671 -120512.000000 0 0 1
0.927708 33.205785 -3.619701 33.415371 1.542865 1.679334 -0.024152 -0.001368 164704.000000 0 0 1
2.409008 33.217495 -4.069101 33.552390 1.498401 1.692372 -0.010945 -0.001559 256887.000000 0 0 1
3.061908 34.472641 -3.824901 34.819077 1.482207 1.680869 -0.006806 -0.000978 -91884.700000 0 0 1
4.436908 34.379341 -4.141001 34.910931 1.442448 1.689692 0.010392 -0.001696 267504.000000 0 0 1
5.251208 -33.674545 -3.629701 34.274260 -1.416102 1.676897 0.011863 -0.001636 -42306.100000 0 0 1
5.118108 -32.554665 -4.526501 33.263951 -1.414857 1.707298 0.014323 -0.000976 -129865.000000 0 0 1
5.663908 -31.423405 -3.898701 32.166910 -1.392466 1.692297 0.010591 -0.004514 -65983.400000 0 0 1
5.529208 -30.073215 -4.663801 30.930914 -1.388969 1.722155 0.005276 -0.002195 -502701.000000 0 0 1
6.151608 -30.008855 -5.893701 31.194701 -1.368604 1.760872 0.011605 -0.003684 -329592.000000 0 0 1
6.093408 -28.759435 -6.656901 30.142147 -1.362009 1.793482 0.013214 -0.001464 -438579.000000 0 0 1
6.814708 -27.550715 -5.997601 29.007815 -1.328312 1.779057 0.011725 0.001504 -369124.000000 0 0 1
6.008208 -26.965665 -5.073201 28.088842 -1.351568 1.752406 0.008596 -0.001922 -817773.000000 0 0 1
6.613308 -25.849475 -4.503601 27.059446 -1.320330 1.738008 0.004415 -0.000063 -109593.000000 0 0 1
5.783808 -25.189445 -3.357501 26.062106 -1.345096 1.699982 -0.003392 0.004896 993620.000000 0 0 1
4.553508 -24.589185 -3.816801 25.296846 -1.387687 1.722255 0.000211 -0.003513 462338.000000 0 0 1
3.947508 -23.813185 -2.812201 24.301421 -1.406520 1.686778 0.008701 -0.010583 -20872.000000 0 1 0
2.670408 -23.111685 -3.326701 23.502085 -1.455763 1.712823 0.014352 -0.010006 128451.000000 0 1 0
1.632808 -24.053485 -3.478701 24.358521 -1.503018 1.714099 -0.002173 0.001482 -607123.000000 0 1 0
0.523808 -23.517585 -4.168701 23.889940 -1.548527 1.746190 -0.007886 0.002170 168873.000000 0 1 0
-14.908192 23.166915 17.809582 32.804594 -0.998996 0.996911 -0.012707 -0.000585 -315991.000000 0 0 1
-14.962692 22.718615 19.183582 33.287046 -0.988393 0.956593 0.003051 0.001269 181251.000000 0 0 1
-14.597992 23.783415 20.019982 34.344605 -1.020300 0.948485 -0.000644 0.003184 -793201.000000 0 0 1
-14.822492 23.585315 21.534782 35.209661 -1.009711 0.912695 0.010033 -0.006526 -239382.000000 0 0 1
-14.018392 22.581215 22.165282 34.608183 -1.015224 0.875695 -0.003771 -0.006168 1631490.000000 0 0 1
-12.573192 22.789515 22.145782 34.174301 -1.066642 0.865809 -0.015627 -0.008319 1326940.000000 0 0 1
-12.059992 23.770715 23.225982 35.354442 -1.101289 0.854035 -0.011061 0.003395 -384138.000000 0 0 1
-11.860692 23.228515 24.587762 35.844079 -1.098697 0.814868 -0.015673 0.002763 -4057.540000 0 0 1
-11.538492 24.263615 25.500452 37.042312 -1.126902 0.811496 -0.002291 0.006961 -43153.800000 0 0 1
-11.047292 23.810115 26.887992 37.575635 -1.136382 0.773357 -0.011041 0.006797 690514.000000 0 0 1
-9.708692 23.309115 26.971502 36.946387 -1.176131 0.752449 -0.039459 0.004279 50972.200000 0 0 1
-9.486492 22.745915 28.245592 37.485780 -1.175667 0.717424 -0.044706 0.004304 -1093680.000000 0 0 1
-8.024192 22.259815 28.340352 36.919678 -1.224817 0.695674 -0.046473 0.004583 355169.000000 0 0 1
-6.991992 23.200515 28.565812 37.458744 -1.278081 0.703483 -0.039148 0.006401 195636.000000 0 0 1
-6.938992 24.259515 27.612332 37.404740 -1.292203 0.740392 -0.036534 0.004481 -1611100.000000 0 0 1
-5.960392 25.388615 28.021112 38.279117 -1.340206 0.749513 -0.024007 -0.002164 117699.000000 0 0 1
-4.602592 25.023315 27.979862 37.818287 -1.388897 0.737949 -0.023144 -0.000627 -273537.000000 0 0 1
-3.724892 26.068615 28.415532 38.741322 -1.428869 0.747386 -0.010389 -0.000615 2166560.000000 0 0 1
-2.202792 25.557515 28.306842 38.200997 -1.484819 0.736242 -0.001415 -0.004288 1732880.000000 0 0 1
-1.682792 25.413415 26.994442 37.112981 -1.504676 0.756331 -0.001825 -0.003086 498411.000000 0 0 1
-0.318492 24.964015 27.020222 36.788530 -1.558039 0.745905 0.008960 -0.000023 845317.000000 0 0 1
0.148108 24.569015 25.630372 35.504569 1.564768 0.764268 0.004620 -0.001034 21721.800000 0 0 1
-0.449392 23.352915 25.135712 34.312747 -1.551555 0.748740 0.001000 0.003243 -124645.000000 0 0 1
-0.126992 23.247915 23.758482 33.240746 -1.565334 0.774544 0.003582 0.006453 -252646.000000 0 0 1
-0.560192 21.988315 23.076482 31.879835 -1.545325 0.761418 -0.005625 0.011085 -326556.000000 0 0 1
0.046808 20.771915 23.379982 31.274562 1.568543 0.726398 -0.004950 0.004656 -671938.000000 0 0 1
-0.299592 19.702515 22.553282 29.948780 -1.555592 0.718093 -0.003939 0.008199 -119127.000000 0 0 1
0.706408 18.534015 22.649482 29.274695 1.532701 0.686155 0.003913 0.014986 892393.000000 0 0 1
2.052908 18.844415 22.263382 29.240120 1.462284 0.705329 0.013460 0.002897 825655.000000 0 0 1
2.870408 17.639015 22.305882 28.581926 1.409480 0.675460 0.006900 0.001545 658982.000000 0 0 1
4.326508 17.856015 21.831182 28.533427 1.333078 0.699586 0.016779 0.001671 473699.000000 0 0 1
5.185908 18.559715 22.719482 29.791468 1.298328 0.703447 0.015931 0.004582 -486783.000000 0 0 1
6.416108 18.882015 22.127982 29.788329 1.243237 0.733493 0.019479 -0.005752 506762.000000 0 0 1
7.418908 19.633915 23.124882 31.229650 1.209519 0.737014 0.025818 -0.009843 476594.000000 0 0 1
6.836808 20.725515 23.839382 32.320351 1.252162 0.741292 0.018609 -0.005821 -117871.000000 0 0 1
6.499308 21.818015 23.029982 32.382818 1.281279 0.779622 0.020644 -0.006385 -349261.000000 0 0 1
5.385208 22.637715 23.660882 33.185900 1.337251 0.777057 -0.000716 -0.000521 -367948.000000 0 0 1
5.209908 23.825715 22.930482 33.475586 1.355517 0.816205 -0.010311 0.000460 392730.000000 0 0 1
4.060908 24.549915 23.370382 34.137429 1.406866 0.816746 -0.020480 0.004388 180589.000000 0 0 1
4.041308 25.911315 22.655182 34.655241 1.416076 0.858293 -0.007709 0.001302 15011.800000 0 0 1
3.776508 25.907315 21.238582 33.712436 1.426046 0.889253 -0.001748 0.000941 1102380.000000 0 0 1
2.441108 25.452715 20.832982 32.982008 1.475181 0.887121 -0.007597 0.001771 1108560.000000 0 0 1
2.245908 25.627415 19.318482 32.171607 1.483383 0.926692 0.000045 0.001576 -756033.000000 0 0 1
2.140908 26.979115 18.964582 33.047111 1.491608 0.959579 0.004963 0.006795 181554.000000 0 0 1
1.541508 27.193715 17.665182 32.464335 1.514171 0.995431 0.003772 0.012705 -230627.000000 0 0 1
0.207908 27.922715 17.803182 33.116077 1.563351 1.003209 -0.013138 0.024413 -599340.000000 0 0 1
0.341808 29.189115 18.402182 34.507414 1.559087 1.008321 -0.002607 0.019046 -368717.000000 0 0 1
-0.843292 29.859615 18.689582 35.236462 -1.542562 1.011719 -0.013493 0.022806 -398303.000000 0 0 1
-0.495592 31.293815 19.053682 36.641388 -1.554961 1.023940 -0.011762 0.017757 227900.000000 0 0 1
0.027008 31.432815 20.390082 37.467026 1.569937 0.995344 -0.011192 0.018024 76786.400000 0 0 1
0.525208 32.742415 20.602682 38.688656 1.554757 1.009215 -0.008673 0.007015 330527.000000 0 0 1
1.219008 32.894115 22.014382 39.599770 1.533755 0.981325 -0.002636 -0.003318 104128.000000 0 0 1
0.261908 32.676815 23.014482 39.968853 1.562781 0.957201 -0.005578 -0.002270 -197201.000000 0 0 1
0.679808 33.089615 24.282842 41.049253 1.550255 0.937812 0.001762 -0.017024 -431379.000000 0 0 1
-0.263392 32.804115 25.455492 41.523023 -1.562767 0.910887 -0.001594 -0.003696 68571.600000 0 0 1
-1.453692 33.613215 25.484482 42.206875 -1.527576 0.922538 -0.000304 0.000435 1008000.000000 0 0 1
-2.291892 33.321115 26.635452 42.719981 -1.502123 0.897599 0.012522 -0.003204 405227.000000 0 0 1
-1.621492 33.614515 28.010322 43.785192 -1.522596 0.876661 0.023016 -0.012515 -125851.000000 0 0 1
-0.608792 32.726315 28.492522 43.395923 -1.552196 0.854532 0.020818 -0.015809 295594.000000 0 0 1
-0.007692 33.243215 29.645552 44.541780 -1.570565 0.842543 0.008814 -0.009109 -1254200.000000 0 0 1
1.041808 32.319015 30.265862 44.290253 1.538572 0.818451 -0.006320 -0.003384 917527.000000 0 0 1
2.391208 32.499715 29.744692 44.121379 1.497352 0.830975 -0.018944 -0.004152 1246890.000000 0 0 1
2.565208 32.156615 28.395022 42.975638 1.491193 0.849014 -0.022793 -0.006357 -1497030.000000 0 0 1
4.060208 31.922115 28.205372 42.790767 1.444285 0.851113 -0.040664 -0.002866 -479026.000000 0 0 1
4.562608 30.786015 28.848242 42.436037 1.423663 0.823299 -0.044374 -0.007584 826935.000000 0 0 1
5.996608 30.715915 28.873992 42.580913 1.377993 0.825626 -0.046331 -0.006468 976018.000000 0 0 1
6.602808 29.653415 29.806332 42.559835 1.351704 0.794923 -0.054065 0.001596 27193.500000 0 0 1
6.464508 29.965015 31.177712 43.723469 1.358318 0.776935 -0.043973 0.001659 -188337.000000 0 0 1
7.148708 29.015815 31.877222 43.694151 1.329234 0.753127 -0.042593 0.012398 -603004.000000 0 0 1
7.025208 29.220215 33.408854 44.936912 1.334852 0.732565 -0.014661 -0.007365 630903.000000 0 0 1
5.713108 29.097415 34.037040 45.142212 1.376918 0.716672 -0.022806 -0.009339 920379.000000 0 0 1
5.718408 28.754115 -33.699291 44.667007 1.374485 2.425621 0.006648 -0.011940 -22855.100000 0 0 1
5.663408 27.163315 -33.535211 43.526202 1.365246 2.450359 0.002176 -0.011795 -103642.000000 0 0 1
6.784308 26.549315 -34.122549 43.763470 1.320614 2.464989 -0.007877 -0.012080 -189643.000000 0 0 1
6.771708 25.118615 -33.897271 42.729684 1.307467 2.486999 0.002876 -0.010805 119133.000000 0 0 1
8.173308 24.466915 -34.026101 42.699045 1.248396 2.492913 0.005969 -0.009934 -448460.000000 0 0 1
8.576908 24.480215 33.798093 42.604641 1.233800 0.654593 -0.016781 -0.006647 -781932.000000 0 0 1
9.820008 23.924615 33.544423 42.356205 1.181309 0.656784 -0.002728 -0.016110 -913305.000000 0 0 1
9.979808 22.370715 33.870139 41.799902 1.151182 0.626146 0.008401 -0.011726 -863461.000000 0 0 1
9.229408 21.600815 32.913182 40.435810 1.167003 0.619858 -0.001936 -0.014967 244409.000000 0 0 1
8.864308 20.278315 33.295093 39.979361 1.158694 0.586637 0.004654 -0.015662 497962.000000 0 0 1
7.592108 20.203715 34.209961 40.449372 1.211344 0.562832 0.013357 -0.018652 37195.300000 0 0 1
7.763108 20.799115 -33.647421 40.311512 1.213568 2.558357 0.013467 -0.012074 -307869.000000 0 0 1
6.545208 20.990215 -32.979541 39.636839 1.268529 2.553576 0.025505 -0.008948 -242155.000000 0 0 1
6.748108 21.461215 -31.504911 38.712790 1.266152 2.521477 0.030629 -0.016234 -46184.200000 0 0 1
7.095108 22.844115 -31.543941 39.588059 1.269654 2.492784 0.037510 -0.015373 24810.000000 0 0 1
7.324208 23.406915 -30.224731 38.923798 1.267540 2.459905 0.023216 -0.017642 1054580.000000 0 0 1
8.871808 23.537915 -29.917251 39.086882 1.210347 2.442465 0.027190 -0.017944 1013930.000000 0 0 1
9.457108 22.274515 -29.860411 38.434816 1.169289 2.460540 0.029350 -0.023146 -1201550.000000 0 0 1
10.842308 22.425915 -29.887621 38.906905 1.120458 2.446795 0.032203 -0.024691 -553463.000000 0 0 1
11.543408 21.065315 -29.724401 38.216983 1.069504 2.461922 0.031939 -0.026454 -116685.000000 0 0 1
11.584008 20.231415 -30.942801 38.742178 1.050786 2.495903 0.022460 -0.016951 659938.000000 0 0 1
10.317408 19.622315 -31.281711 38.340965 1.086723 2.525050 0.039672 -0.024002 675907.000000 0 0 1
10.338808 18.498315 -32.306761 38.636840 1.061142 2.561049 0.031296 -0.021954 -285093.000000 0 0 1
10.802008 17.326815 -31.654751 37.668623 1.013329 2.568721 0.036046 -0.018383 97965.800000 0 0 1
10.861608 16.135615 -32.451301 37.834106 0.978322 2.601627 0.024360 -0.014951 -57227.300000 0 0 1
12.041908 15.908115 -33.448441 38.947065 0.922852 2.603754 0.015725 -0.005421 -54612.100000 0 0 1
12.060708 16.822615 -34.534201 40.262540 0.948795 2.601625 0.021594 -0.009216 -135738.000000 0 0 1
12.856308 16.448415 33.540014 39.506551 0.907367 0.556757 0.024523 -0.009394 -251636.000000 0 0 1
12.156608 16.760615 32.156182 38.245541 0.943286 0.572069 0.029423 -0.012926 -221647.000000 0 0 1
12.242308 18.112315 31.741232 38.541353 0.976421 0.603132 0.021711 -0.011278 -140264.000000 0 0 1
11.702008 18.386715 30.491302 37.479699 1.004014 0.620579 0.021265 -0.012205 604265.000000 0 0 1
10.142708 18.585315 30.419192 37.062322 1.071231 0.608060 0.017886 0.000219 900563.000000 0 0 1
9.456908 17.376415 30.783342 36.592172 1.072388 0.571196 0.022140 -0.002677 -599840.000000 0 0 1
8.068108 17.514415 30.680672 36.237450 1.139117 0.561126 0.025444 -0.003552 -422984.000000 0 0 1
7.360008 16.571015 31.658802 36.483531 1.152818 0.520127 0.036102 -0.003932 -43181.300000 0 0 1
7.408508 17.017415 33.000562 37.861795 1.160193 0.512328 0.034539 -0.002671 -89778.400000 0 0 1
6.992708 15.949315 33.856398 38.072751 1.157603 0.475082 0.046020 -0.010958 30472.800000 0 0 1
7.176508 16.169115 -33.780161 38.131901 1.153076 2.659177 0.043881 -0.014459 -746105.000000 0 0 1
6.116008 16.848515 -33.234791 37.760156 1.222588 2.646985 0.037171 -0.017591 -649802.000000 0 0 1
6.249408 16.951615 -31.818811 36.590287 1.217594 2.625182 0.035871 -0.020160 -36444.800000 0 0 1
5.268308 17.919015 -31.131941 36.304875 1.284847 2.601214 0.025653 -0.018280 -359223.000000 0 0 1
5.397608 17.874615 -29.728371 35.105727 1.277533 2.580782 0.024125 -0.025513 -173622.000000 0 0 1
4.768208 18.894115 -29.007161 34.944796 1.323593 2.550057 0.027668 -0.026409 596303.000000 0 0 1
3.225808 18.886515 -28.757691 34.555913 1.401629 2.553874 0.030329 -0.026989 -139837.000000 0 0 1
2.656208 17.864015 -27.945431 33.273497 1.423187 2.567841 0.032677 -0.028106 1684620.000000 0 0 1
1.221808 17.652515 -28.086291 33.195540 1.501692 2.579396 0.024768 -0.027759 1558790.000000 0 0 1
0.227808 18.789515 -27.842121 33.589902 1.558673 2.547906 0.025456 -0.032985 -944464.000000 0 0 1
0.176408 19.111815 -26.469581 32.648604 1.561566 2.516214 0.043481 -0.038746 212343.000000 0 0 1
-0.669492 20.259715 -26.369981 33.260790 -1.537763 2.486227 0.047190 -0.025418 -279693.000000 0 0 1
-1.160792 20.568415 -24.990501 32.387224 -1.514420 2.452174 0.036136 -0.033318 212788.000000 0 0 1
-2.340392 19.872115 -24.582401 31.696575 -1.453564 2.458388 0.036567 -0.026112 402783.000000 0 0 1
-2.622092 20.140615 -23.206701 30.839435 -1.441335 2.422648 0.042559 -0.028512 502460.000000 0 0 1
-3.803592 19.269415 -22.608701 29.948807 -1.375912 2.426316 0.037414 -0.023395 502191.000000 0 0 1
-5.065092 19.765815 -23.010401 30.754206 -1.319939 2.416146 0.024863 -0.018689 -602037.000000 0 0 1
-5.993492 18.792615 -22.565401 29.971347 -1.262066 2.423252 0.014245 -0.016570 -432168.000000 0 0 1
-7.422792 19.337115 -22.465401 30.556769 -1.204279 2.396761 0.027820 -0.019333 -452417.000000 0 0 1
-7.775792 20.227115 -21.391001 30.449533 -1.203789 2.349710 0.010940 -0.018460 186233.000000 0 0 1
-7.157392 21.482315 -21.485301 31.214360 -1.249187 2.329959 0.002283 -0.016117 -315190.000000 0 0 1
-7.611892 22.506115 -20.397601 31.313388 -1.244659 2.280227 0.011592 -0.018517 52772.100000 0 0 1
-6.920892 22.223115 -19.190701 30.167012 -1.268889 2.260293 0.014648 -0.020933 234480.000000 0 0 1
-7.162392 23.325115 -18.290601 30.494376 -1.272868 2.214051 0.027657 -0.019657 -225500.000000 0 0 1
-6.168392 23.343615 -17.129901 29.604171 -1.312458 2.187846 0.027458 -0.021622 -72366.800000 0 0 1
-4.845492 23.653815 -17.489501 29.813829 -1.368741 2.197680 0.034407 -0.022726 -804858.000000 0 0 1
-4.067892 23.770015 -16.308401 29.112288 -1.401303 2.165411 0.050180 -0.021221 600549.000000 0 0 1
-2.734092 24.497215 -16.706201 29.777273 -1.459648 2.166436 0.044295 -0.014891 452979.000000 0 0 1
-2.875992 25.865915 -16.900001 31.031064 -1.460063 2.146727 0.033769 -0.014180 -382870.000000 0 0 1
-1.635092 26.421915 -17.235801 31.588985 -1.508991 2.147933 0.026543 -0.013124 -71724.700000 0 0 1
-1.617892 27.951515 -17.000701 32.755589 -1.512979 2.116497 0.023018 -0.019878 -263152.000000 0 0 1
-2.494792 28.654515 -17.849301 33.851186 -1.483951 2.126201 0.022680 -0.020477 -135868.000000 0 0 1
-1.967292 28.934415 -19.128401 34.741421 -1.502909 2.153871 0.020401 -0.023825 158779.000000 0 0 1
-3.067992 29.626515 -20.067101 35.914224 -1.467609 2.163675 0.032033 -0.017795 1020150.000000 0 0 1
-3.684992 30.836215 -19.645301 36.747642 -1.451858 2.134831 0.022595 -0.004788 -179061.000000 0 0 1
-4.720392 30.546215 -18.725901 36.138798 -1.417476 2.115502 0.014419 -0.007137 -578444.000000 0 0 1
-5.097192 31.948115 -18.072201 37.057629 -1.412584 2.080225 0.021707 0.003457 -152458.000000 0 0 1
-5.730092 32.712215 -19.097101 38.309558 -1.397389 2.092657 0.036455 0.011713 41952.600000 0 0 1
-6.071992 33.949615 -18.532401 39.152207 -1.393815 2.063878 0.027824 -0.008646 -285303.000000 0 0 1
-7.118892 -34.497055 -19.273401 40.152078 1.367291 2.071462 0.023939 0.011001 282964.000000 0 0 1
-8.450492 34.284015 -19.151101 40.169257 -1.329129 2.067762 0.032434 0.007555 520379.000000 0 0 1
-9.380992 -34.161655 -19.851101 40.608963 1.302797 2.081551 0.048962 0.011119 108537.000000 0 0 1
28.101708 -20.719885 -26.696411 43.951314 -0.635335 2.223591 0.005765 0.011812 278117.000000 0 0 1
28.057508 -22.111285 -26.333561 44.380053 -0.667424 2.206029 0.020302 -0.000107 -766694.000000 0 0 1
26.753608 -22.482685 -26.014141 43.565608 -0.698871 2.210709 0.013154 0.002230 -360662.000000 0 0 1
26.549108 -23.911585 -25.344311 43.805857 -0.733177 2.187758 0.004985 0.009807 -104087.000000 0 0 1
26.654108 -25.008785 -26.249971 44.999353 -0.753562 2.193632 -0.002617 0.026478 890611.000000 0 0 1
28.023008 -25.482445 -26.230831 46.072774 -0.737951 2.176493 0.003636 0.031565 1107720.000000 0 0 1
28.157708 -26.873205 -26.922881 47.327235 -0.762061 2.175923 0.003916 0.019037 -127725.000000 0 0 1
27.961908 -27.975825 -26.058021 47.365975 -0.785647 2.153331 0.010823 0.000422 -267431.000000 0 0 1
28.246408 -29.232305 -26.580731 48.568740 -0.802549 2.149908 0.010495 0.004774 -109205.000000 0 0 1
27.125508 -29.833675 -27.427971 48.766125 -0.832908 2.168129 -0.003988 0.008856 -341625.000000 0 0 1
26.781308 -29.256795 -28.674241 48.942932 -0.829545 2.196751 -0.008655 -0.001510 -671186.000000 0 0 1
27.697308 -29.309215 -29.704351 50.085122 -0.813666 2.205672 -0.023673 -0.005368 -786848.000000 0 0 1
28.022008 -30.665975 -30.398651 51.475363 -0.830419 2.202534 -0.018529 -0.004549 -905345.000000 0 0 1
28.695508 -31.781225 -29.817251 52.178031 -0.836377 2.179071 -0.009145 0.002328 259749.000000 0 0 1
30.023308 -31.569925 -29.368511 52.541114 -0.810503 2.163930 -0.001850 0.004902 435505.000000 0 0 1
31.101708 -31.104055 -30.387011 53.461659 -0.785436 2.175343 0.000450 0.002404 -890714.000000 0 0 1
30.911108 -29.794155 -30.757311 52.812882 -0.767001 2.192453 0.002121 -0.012909 -71862.000000 0 0 1
31.911908 -29.347195 -31.672141 53.691268 -0.743556 2.201724 -0.000076 -0.007638 -110417.000000 0 0 1
31.548308 -27.972305 -32.268801 53.094455 -0.725390 2.224036 0.001104 -0.006184 -32003.800000 0 0 1
31.696408 -26.840695 -31.400551 52.068031 -0.702637 2.218138 -0.005489 0.005847 -443585.000000 0 0 1
30.589808 -26.557145 -30.592971 50.763650 -0.714948 2.217620 -0.005704 0.005723 -396171.000000 0 0 1
30.514808 -25.207085 -29.922071 49.617346 -0.690431 2.218124 -0.008885 0.006988 -134456.000000 0 0 1
31.556608 -25.121215 -28.975121 49.663393 -0.672339 2.193742 -0.001788 0.007964 212466.000000 0 0 1
31.472508 -23.865685 -28.262851 48.568286 -0.648794 2.191884 -0.000185 0.011192 65325.900000 0 0 1
32.450608 -23.699685 -27.072861 48.452625 -0.630794 2.163673 -0.004932 0.006431 -183912.000000 0 0 1
32.079708 -24.406285 -25.901801 47.913231 -0.650378 2.141944 -0.002619 -0.004149 84152.100000 0 0 1
31.245408 -23.682185 -24.989801 46.493135 -0.648564 2.138259 0.022600 -0.000654 197328.000000 0 0 1
31.916308 -22.607285 -24.049001 45.913990 -0.616295 2.122083 0.021934 0.003581 -115082.000000 0 0 1
32.180608 -21.377385 -24.741701 45.877401 -0.586358 2.140402 0.007180 0.006302 -48269.400000 0 0 1
32.033608 -20.235985 -23.842201 44.767150 -0.563411 2.132445 -0.015280 0.005043 -201158.000000 0 0 1
32.128808 -18.835785 -24.518601 44.589336 -0.530254 2.153012 -0.023665 0.010587 95905.800000 0 0 1
31.155708 -18.656185 -25.541851 44.397270 -0.539540 2.183770 -0.019610 0.006042 284902.000000 0 0 1
31.099408 -17.325385 -25.990221 44.077588 -0.508276 2.201418 -0.020609 0.000828 -327629.000000 0 0 1
30.234108 -17.173085 -27.246031 44.174227 -0.516560 2.235449 -0.034304 0.010729 302119.000000 0 0 1
28.832008 -17.186585 -26.969911 43.058559 -0.537542 2.247664 -0.033000 0.012222 144081.000000 0 0 1
28.210008 -16.849885 -28.157931 43.273459 -0.538433 2.279299 -0.023554 0.006337 131867.000000 0 0 1
26.752908 -16.316385 -27.913351 41.965434 -0.547661 2.298492 -0.026431 0.012273 781285.000000 0 0 1
25.846708 -17.267385 -27.380831 41.423723 -0.588973 2.292939 -0.017345 0.015595 228469.000000 0 0 1
25.780008 -17.201485 -25.949851 40.421463 -0.588400 2.267877 -0.010478 0.015469 -94811.100000 0 0 1
25.160508 -18.418285 -25.165941 40.070051 -0.631902 2.249839 0.009263 0.011243 -30375.100000 0 0 1
25.082708 -18.138985 -23.764901 39.024807 -0.626106 2.225557 0.017036 0.016027 -246568.000000 0 0 1
24.266008 -18.963685 -23.018101 38.448582 -0.663353 2.212639 0.033484 0.009478 -327235.000000 0 0 1
24.180208 -18.468685 -21.516901 37.265961 -0.652271 2.186322 0.028441 0.005242 -173949.000000 0 0 1
23.425508 -17.265085 -21.322401 36.076064 -0.635142 2.203144 0.022624 -0.004386 -32780.300000 0 0 1
23.903908 -16.019785 -21.769601 36.082487 -0.590427 2.218465 0.026753 0.005034 -420840.000000 0 0 1
25.153908 -15.443585 -21.088201 36.275827 -0.550624 2.191158 0.015133 -0.000157 -199065.000000 0 0 1
25.007808 -14.832985 -19.854401 35.208027 -0.535356 2.169917 0.013882 -0.007057 657096.000000 0 0 1
26.179508 -14.046285 -19.531901 35.555027 -0.492449 2.152374 -0.003959 -0.004928 451633.000000 0 0 1
26.194308 -13.125885 -18.315001 34.552423 -0.464525 2.129473 0.005836 -0.006550 -374597.000000 0 0 1
26.458608 -13.770885 -17.049901 34.356868 -0.479888 2.090081 0.005470 0.000055 264235.000000 0 0 1
26.288908 -12.813685 -15.944401 33.309475 -0.453531 2.069941 -0.006713 0.004245 -68376.700000 0 0 1
26.834108 -13.287385 -14.602001 33.314297 -0.459774 2.024514 0.003960 -0.001257 -700646.000000 0 0 1
26.126208 -14.340385 -14.024501 32.938003 -0.501990 2.010625 0.038214 -0.008446 -462339.000000 0 0 1
26.755108 -14.966485 -12.977101 33.290188 -0.510022 1.971230 0.045343 -0.016617 -584429.000000 0 0 1
26.117308 -16.246085 -12.331801 33.137930 -0.556470 1.952105 0.051826 -0.037071 -66891.100000 0 0 1
24.894308 -15.987985 -11.675601 31.806633 -0.570897 1.946665 0.044939 -0.033604 73383.600000 0 0 1
24.371108 -17.148785 -11.111501 31.804044 -0.613173 1.927699 0.031750 -0.012607 -28204.600000 0 0 1
22.925308 -16.957685 -10.589501 30.418257 -0.636872 1.926372 0.032331 -0.010037 -61410.400000 0 0 1
22.754808 -16.366485 -9.307001 29.534106 -0.623532 1.891387 0.020655 -0.006936 432897.000000 0 0 1
21.360108 -16.286985 -9.040401 28.341647 -0.651450 1.895449 0.022106 -0.010887 114563.000000 0 0 1
20.977308 -15.941085 -7.643801 27.433435 -0.649820 1.853165 0.022104 -0.008785 -469213.000000 0 0 1
21.366508 -14.621485 -7.337201 26.910036 -0.600123 1.846950 0.023681 0.001176 395699.000000 0 0 1
21.139608 -14.115985 -6.010101 26.120210 -0.588753 1.802971 0.010349 0.004388 -255866.000000 0 0 1
22.008208 -14.785685 -4.898901 26.962510 -0.591566 1.753504 0.009929 0.003175 -973133.000000 0 0 1
23.337708 -14.448385 -5.012501 27.902144 -0.554346 1.751423 0.031922 -0.002030 -1037040.000000 0 0 1
24.150208 -15.197085 -4.150901 28.834249 -0.561666 1.715256 0.024794 -0.009304 -771994.000000 0 0 1
25.630208 -14.954985 -4.377901 29.995419 -0.528192 1.717272 0.037983 -0.014451 -958824.000000 0 0 1
26.112408 -13.784285 -3.851101 29.777430 -0.485704 1.700489 0.038801 -0.011301 166179.000000 0 0 1
27.493708 -13.606085 -4.122801 30.952012 -0.459543 1.704393 0.056171 -0.026315 286891.000000 0 0 1
28.171008 -12.356785 -3.480901 30.958238 -0.413363 1.683473 0.050383 -0.023833 -922080.000000 0 0 1
28.425508 -12.402585 -2.081201 31.083195 -0.411419 1.637802 0.056075 -0.030553 576911.000000 0 0 1
28.956608 -11.192285 -1.504501 31.080797 -0.368831 1.619221 0.053628 -0.021913 331531.000000 0 0 1
30.378808 -10.701285 -1.900601 32.264559 -0.338688 1.629737 0.055263 -0.020093 -323683.000000 0 0 1
30.426508 -10.308485 -3.254701 32.289787 -0.326662 1.671764 0.053949 -0.014592 -286115.000000 0 0 1
31.592408 -10.633485 -3.964601 33.568874 -0.324673 1.689176 0.063112 -0.020980 -625932.000000 0 0 1
31.401408 -10.516485 -5.487501 33.567210 -0.323164 1.735011 0.055519 -0.020182 -668004.000000 0 0 1
30.440808 -11.382885 -5.989601 33.046758 -0.357837 1.753050 0.037532 -0.026570 -165448.000000 0 0 1
30.405508 -11.405385 -7.385701 33.303548 -0.358866 1.794425 0.034856 -0.013252 -551130.000000 0 0 1
29.158308 -12.085785 -7.908901 32.539574 -0.392934 1.816310 0.031780 -0.011852 -496913.000000 0 0 1
29.080208 -13.459585 -7.545901 32.920504 -0.433483 1.802068 0.034306 -0.020266 813263.000000 0 0 1
27.842508 -14.031685 -8.010801 32.191092 -0.466816 1.822291 0.042907 -0.025030 593185.000000 0 0 1
27.978008 -15.617585 -8.036801 33.034347 -0.509124 1.816549 0.046212 -0.031277 391106.000000 0 0 1
28.817408 -16.094785 -9.109801 34.241402 -0.509353 1.840086 0.057238 -0.035727 538629.000000 0 0 1
29.032208 -17.489585 -9.029201 35.075364 -0.542197 1.831151 0.057045 -0.031344 -62762.000000 0 0 1
29.121608 -18.126785 -10.408701 35.846750 -0.556764 1.865406 0.052972 -0.031265 300626.000000 0 0 1
30.268608 -17.634185 -11.111401 36.750733 -0.527520 1.877948 0.052627 -0.023524 462670.000000 0 0 1
30.556408 -18.371185 -12.294601 37.714079 -0.541318 1.902860 0.046956 -0.014474 55463.000000 0 0 1
29.866008 -17.851985 -13.582101 37.351644 -0.538753 1.942956 0.043827 -0.017645 378904.000000 0 0 1
30.555008 -16.679585 -14.072401 37.547963 -0.499680 1.954961 0.021246 -0.010241 623383.000000 0 0 1
29.745108 -16.027785 -15.035601 36.982843 -0.494233 1.989478 0.021794 -0.014705 -919137.000000 0 0 1
30.308808 -14.708885 -15.661801 37.151947 -0.451819 2.005962 0.003095 -0.001438 471051.000000 0 0 1
31.347408 -14.829485 -16.637101 38.462537 -0.441872 2.018119 -0.012888 -0.009138 1049170.000000 0 0 1
32.595908 -15.334685 -16.164201 39.483252 -0.439728 1.992586 -0.006577 -0.000140 -241753.000000 0 0 1
33.551908 -15.808985 -17.306301 40.928750 -0.440327 2.007373 -0.010259 0.002891 -179338.000000 0 0 1
34.884608 -15.846085 -16.878001 41.867663 -0.426377 1.985728 -0.013615 0.008523 -358486.000000 0 0 1
-34.434602 -16.402985 -17.797501 42.089795 0.444551 2.007380 -0.013825 0.009262 375910.000000 0 0 1
-32.944802 -16.355285 -17.341801 40.664400 0.460800 2.011373 -0.019295 0.022930 60369.100000 0 0 1
-32.596602 -17.067585 -16.158301 40.186212 0.482349 1.984590 -0.021866 0.014191 133948.000000 0 0 1
-33.102602 -16.575585 -14.925301 39.916124 0.464234 1.954025 -0.014553 0.004060 -336002.000000 0 0 1
-32.451402 -17.333885 -13.702901 39.259732 0.490592 1.927334 -0.011137 0.002200 152430.000000 0 0 1
-31.082902 -17.141085 -13.409001 37.944234 0.503966 1.931986 -0.021360 0.007765 107219.000000 0 0 1
-30.704002 -17.837685 -12.250601 37.563227 0.526299 1.903006 -0.017768 0.012224 316439.000000 0 0 1
-29.254702 -17.427885 -11.855401 36.057167 0.537273 1.905823 -0.006475 0.007831 235485.000000 0 0 1
-28.994002 -16.148385 -11.323101 35.066154 0.508168 1.899596 -0.007312 0.001056 176226.000000 0 0 1
-27.687702 -16.075585 -10.786601 33.784376 0.526035 1.895764 -0.001135 0.000742 194009.000000 0 0 1
-27.762802 -16.078785 -9.235901 33.385661 0.524946 1.851095 0.008789 0.002276 -17034.700000 0 0 1
-28.102502 -17.382085 -8.807201 34.197285 0.553929 1.831273 -0.007354 0.001582 -33130.800000 0 0 1
-28.217102 -17.518185 -7.409901 34.029374 0.555599 1.790305 0.006634 -0.005720 -255479.000000 0 0 1
-28.250502 -18.999885 -7.086301 34.775022 0.592065 1.776009 -0.001739 -0.016102 -758649.000000 0 0 1
-29.362702 -19.683585 -7.546801 36.146452 0.590555 1.781128 -0.002058 -0.013658 -513363.000000 0 0 1
-29.263802 -20.038285 -8.963201 36.581990 0.600415 1.818333 -0.004967 -0.004358 3549.460000 0 0 1
-30.521202 -20.886285 -9.249701 38.122666 0.600125 1.815872 -0.004938 -0.003020 214696.000000 0 0 1
-31.697102 -20.148585 -9.475201 38.735658 0.566228 1.817916 -0.011295 -0.002560 982501.000000 0 0 1
-32.819002 -21.025385 -9.821001 40.194599 0.569772 1.817632 -0.008380 -0.002213 938030.000000 0 0 1
-34.129102 -20.385685 -10.261101 41.056814 0.538440 1.823399 0.005152 -0.003688 -214254.000000 0 0 1
-34.123602 -20.047285 -11.596401 41.240640 0.531170 1.855829 -0.005243 -0.002191 634403.000000 0 0 1
34.792908 -19.527485 -11.870701 41.626706 -0.511439 1.859980 0.021888 -0.012145 508194.000000 0 0 1
34.511508 -19.257885 -13.368701 41.720888 -0.508975 1.896982 0.008309 -0.009224 -231933.000000 0 0 1
34.284208 -20.463685 -14.068001 42.332942 -0.538125 1.909557 -0.001701 -0.002710 117921.000000 0 0 1
33.959808 -20.175385 -15.456401 42.417155 -0.536067 1.943774 -0.000419 -0.001877 -670425.000000 0 0 1
32.641908 -20.811485 -15.808501 41.815318 -0.567587 1.958491 0.010430 -0.006539 -1078470.000000 0 0 1
31.550308 -20.329085 -15.051301 40.438043 -0.572385 1.952181 0.026232 -0.009724 451971.000000 0 0 1
30.286108 -20.969185 -15.191701 39.846491 -0.605587 1.961951 0.036668 -0.012127 364601.000000 0 0 1
29.529308 -20.625685 -16.425601 39.587868 -0.609706 1.998646 0.039801 -0.006901 -1259280.000000 0 0 1
28.971308 -19.344785 -16.403401 38.504921 -0.588733 2.010872 0.031711 -0.005358 -209272.000000 0 0 1
28.251008 -19.084185 -17.546301 38.343165 -0.594108 2.046104 0.027558 -0.009940 -248873.000000 0 0 1
27.372708 -17.790085 -17.520901 37.050429 -0.576319 2.063368 0.030269 0.000157 -36411.300000 0 0 1
26.166208 -17.917885 -16.800801 35.888549 -0.600432 2.057979 0.036692 -0.010286 -82372.500000 0 0 1
25.535508 -16.679185 -16.792201 34.817171 -0.578605 2.074071 0.021691 -0.005866 227606.000000 0 0 1
24.060508 -16.720985 -16.201801 33.481305 -0.607332 2.075909 0.020144 -0.000525 1270850.000000 0 0 1
23.034408 -17.414985 -16.867401 33.442112 -0.647357 2.099456 0.019307 -0.007554 301276.000000 0 0 1
22.746608 -16.898285 -18.203701 33.679890 -0.638937 2.141818 0.016473 -0.002044 -822752.000000 0 0 1
21.542208 -17.628085 -18.836301 33.609855 -0.685803 2.165713 0.015296 0.007877 -182127.000000 0 0 1
20.338208 -17.254785 -18.236601 32.310121 -0.703560 2.170531 0.026060 0.007121 -471796.000000 0 0 1
19.190808 -17.959685 -18.670901 32.240347 -0.752271 2.188440 0.018897 -0.003727 548518.000000 0 0 1
17.913108 -17.673585 -17.864301 30.860465 -0.778668 2.188143 0.030763 -0.001466 133706.000000 0 0 1
17.225308 -16.451985 -18.016301 29.865803 -0.762439 2.218356 0.037096 -0.004629 93931.800000 0 0 1
15.884608 -16.633385 -17.618601 28.972494 -0.808421 2.224480 0.040735 -0.001515 647398.000000 0 0 1
14.915308 -15.378185 -17.735701 27.812049 -0.800677 2.262303 0.048393 -0.000392 690163.000000 0 0 1
14.377608 -15.077485 -19.045701 28.227379 -0.809154 2.311388 0.047454 0.002462 127542.000000 0 0 1
13.099308 -14.513685 -18.963801 27.237193 -0.836575 2.340951 0.039921 0.008164 157497.000000 0 0 1
12.366108 -13.941285 -20.206401 27.487792 -0.845203 2.396617 0.044374 0.010709 469098.000000 0 0 1
13.032208 -12.800885 -20.753401 27.647871 -0.776444 2.419816 0.051206 0.005102 -28173.100000 0 0 1
12.269208 -12.233685 -21.784901 27.834842 -0.783948 2.469706 0.053993 0.000514 -116625.000000 0 0 1
12.767208 -10.903885 -22.382301 27.979702 -0.706843 2.498005 0.053745 -0.003842 -135971.000000 0 0 1
13.942308 -10.925185 -23.195301 29.185092 -0.664660 2.489417 0.055656 -0.003275 261174.000000 0 0 1
14.367808 -9.542785 -23.347101 29.027328 -0.586278 2.505317 0.063227 -0.007726 129635.000000 0 0 1
15.532408 -9.421685 -24.356701 30.385403 -0.545245 2.500750 0.045029 -0.003402 26582.900000 0 0 1
15.299708 -9.666885 -25.718781 31.448139 -0.563499 2.528401 0.057583 -0.005983 134546.000000 0 0 1
16.498608 -9.550185 -26.479811 32.628063 -0.524721 2.517623 0.047534 -0.002189 73057.800000 0 0 1
22.081008 5.069615 -6.478501 23.563593 0.225681 1.849320 0.041477 0.024742 -183719.000000 0 1 0
22.044008 6.490015 -6.790401 23.961806 0.286322 1.858118 0.011238 0.019944 544079.000000 0 1 0
21.333508 7.211315 -5.809301 23.256604 0.325969 1.823261 0.005699 0.014756 -444131.000000 0 1 0
21.338308 8.765415 -6.067701 23.853153 0.389767 1.828000 0.005795 0.013640 -970373.000000 0 1 0
20.202608 9.099015 -6.786301 23.173074 0.423177 1.868005 0.005418 0.011624 -31123.000000 0 1 0
19.841308 10.432315 -6.976001 23.477123 0.484064 1.872493 0.002505 0.017747 -20435.700000 0 1 0
19.437408 11.311415 -5.753201 23.213364 0.527035 1.821246 0.022064 0.013333 589193.000000 0 1 0
20.557608 11.525615 -4.854701 24.062901 0.510983 1.773941 0.035143 0.007063 1030750.000000 0 1 0
20.170108 12.497615 -3.925001 24.050557 0.554714 1.734728 0.054997 -0.000653 -434986.000000 0 1 0
21.112808 12.717215 -2.774201 24.802710 0.542143 1.682882 0.040075 -0.012893 -783176.000000 0 1 0
22.387908 13.162115 -3.212601 26.168311 0.531484 1.693874 0.046750 -0.025257 423067.000000 0 0 1
23.266308 13.351315 -2.129301 26.909341 0.520968 1.650008 0.059519 -0.026478 -89011.200000 0 0 1
24.055008 12.087115 -1.638801 26.970863 0.465628 1.631596 0.032971 -0.024905 -151710.000000 0 0 1
25.161108 11.756215 -2.481201 27.882725 0.437096 1.659901 0.022039 -0.019667 783826.000000 0 0 1
26.019508 10.700315 -2.047901 28.208252 0.390160 1.643460 0.040652 -0.022094 89136.800000 0 0 1
27.415108 10.744015 -2.661501 29.565277 0.373505 1.660940 0.013271 -0.017066 83766.400000 0 0 1
28.304308 11.788815 -2.194601 30.739654 0.394651 1.642250 0.012911 -0.019091 1061890.000000 0 0 1
29.622108 11.671015 -2.733101 31.955465 0.375320 1.656429 0.016663 -0.012762 302753.000000 0 0 1
30.454808 12.839615 -2.258401 33.127805 0.398984 1.639022 -0.008841 -0.011070 -955412.000000 0 0 1
30.375908 12.905215 -0.863401 33.014934 0.401744 1.596951 -0.011823 -0.005748 297856.000000 0 0 1
31.097108 13.945915 -0.275001 34.082170 0.421575 1.578865 -0.007872 -0.003170 142665.000000 0 0 1
32.653408 13.860215 -0.233201 35.474005 0.401417 1.577370 -0.003056 -0.007504 -120584.000000 0 0 1
33.288108 15.058115 0.077199 36.535612 0.424812 1.568683 -0.002072 -0.003543 245864.000000 0 0 1
34.081808 15.493215 -1.059501 37.453063 0.426664 1.599089 0.003091 -0.002832 377180.000000 0 0 1
33.334908 16.393715 -2.130401 37.208986 0.457057 1.628083 -0.025595 0.016787 385465.000000 0 0 1
32.252508 15.771715 -2.808501 36.011928 0.454815 1.648864 -0.010427 0.008750 -8705.890000 0 0 1
31.847508 16.648815 -3.866501 36.144110 0.481695 1.677976 -0.017589 0.015389 -91580.600000 0 0 1
30.491208 16.239315 -4.477001 34.834935 0.489378 1.699673 0.003596 -0.002622 -852564.000000 0 0 1
30.503908 14.996915 -5.153401 34.379550 0.456937 1.721261 -0.005161 -0.004253 929289.000000 0 0 1
29.287708 14.674415 -5.856401 33.277707 0.464482 1.747703 0.012318 -0.013527 486822.000000 0 0 1
27.987008 14.453315 -5.061501 31.902817 0.476705 1.730123 0.021924 -0.024286 -794608.000000 0 0 1
26.912108 14.210515 -5.919701 31.003922 0.485823 1.762910 0.031080 -0.025722 -41386.000000 0 0 1
25.754808 13.700215 -5.304401 29.650341 0.488878 1.750663 0.032512 -0.019863 98086.500000 0 0 1
24.649108 13.257115 -6.308901 28.690275 0.493454 1.792505 0.025491 -0.014986 -189778.000000 0 0 1
24.962708 12.247115 -7.286101 28.743972 0.456113 1.827075 0.019965 -0.002445 625492.000000 0 0 1
23.868208 12.039015 -8.190901 27.959258 0.467158 1.868116 0.011088 0.007930 249693.000000 0 0 1
23.592308 13.102315 -9.252101 28.528390 0.506952 1.901081 0.013078 0.010338 -156358.000000 0 0 1
22.978108 14.225315 -8.614701 28.364875 0.554332 1.879381 0.020747 -0.008298 244224.000000 0 0 1
22.675208 15.228315 -9.484901 28.914183 0.591399 1.905020 0.018454 -0.006542 -245130.000000 0 0 1
21.734108 16.338915 -8.922001 28.617018 0.644629 1.887854 0.032589 -0.009799 825422.000000 0 0 1
20.389708 15.958715 -8.601801 27.283911 0.664093 1.891538 0.011436 0.000671 867462.000000 0 0 1
20.170208 15.261115 -7.362801 26.342927 0.647722 1.854068 0.013536 0.000162 51232.700000 0 0 1
18.695608 14.731015 -7.364101 24.915027 0.667344 1.870847 0.013360 -0.004554 713452.000000 0 1 0
17.743408 15.797515 -7.232701 24.833485 0.727448 1.866327 0.022049 -0.007869 219893.000000 0 1 0
16.418508 15.326315 -7.216701 23.591188 0.751006 1.881687 0.027737 -0.003571 95687.200000 0 1 0
15.786208 15.410615 -5.778901 22.805419 0.773359 1.826990 0.046701 -0.003115 -431204.000000 0 1 0
16.381708 14.501215 -4.902301 22.420485 0.724582 1.791230 0.047253 -0.004904 774572.000000 0 1 0
15.675008 14.508015 -3.642501 21.666938 0.746754 1.739712 0.033812 -0.010167 -55493.100000 0 1 0
15.845408 13.223615 -2.820601 20.830189 0.695450 1.706623 0.047201 -0.013665 198445.000000 0 1 0
17.149008 13.063315 -2.266601 21.676627 0.650981 1.675552 0.058298 -0.003012 763185.000000 0 1 0
17.127808 12.388015 -1.019901 21.162820 0.626173 1.619008 0.056729 -0.004970 -93034.400000 0 1 0
17.049208 13.301615 0.184799 21.625046 0.662544 1.562251 0.059100 -0.006357 -1181680.000000 0 1 0
15.959108 14.141815 0.149899 21.323849 0.725098 1.563767 0.047237 -0.011198 -305173.000000 0 1 0
15.884108 15.051215 1.242299 21.917739 0.758481 1.514086 0.042107 -0.008129 -1171370.000000 0 1 0
14.591308 15.791415 1.406399 21.546532 0.824877 1.505477 0.037949 -0.009306 -1306510.000000 0 1 0
14.541708 16.848015 0.518099 22.261746 0.858740 1.547521 0.051056 -0.012094 666807.000000 0 1 0
13.391008 17.662315 0.756599 22.177667 0.922088 1.536674 0.037977 -0.015486 131058.000000 0 1 0
13.594208 19.163515 0.548499 23.501993 0.953803 1.547456 0.036345 -0.016378 -321393.000000 0 1 0
13.481708 19.585315 -0.795101 23.790192 0.967927 1.604224 0.057342 -0.004744 -117089.000000 0 1 0
12.833208 20.786215 -0.993101 24.448808 1.017688 1.611427 0.038645 -0.016047 783894.000000 0 1 0
11.266208 20.726015 -1.135201 23.617448 1.072897 1.618881 0.039189 -0.023954 733729.000000 0 1 0
10.567508 20.559415 0.083199 23.116416 1.096013 1.567197 0.038256 -0.028473 481017.000000 0 1 0
9.167108 20.671115 -0.228601 22.613782 1.153382 1.580905 0.038425 -0.017468 900710.000000 0 1 0
8.258308 20.611015 1.013399 22.227024 1.189709 1.525187 0.031562 -0.018662 -258422.000000 0 1 0
8.319008 21.756715 1.790899 23.361675 1.205584 1.494061 0.033899 -0.010702 335907.000000 0 1 0
7.363008 21.577615 2.836399 22.975041 1.241952 1.447025 0.030285 -0.017986 229220.000000 0 1 0
7.021808 22.972215 3.419899 24.263639 1.274150 1.429378 0.023153 -0.007338 314829.000000 0 1 0
7.848508 23.334415 4.539999 25.034089 1.246334 1.388435 0.005648 0.001595 487413.000000 0 0 1
7.343208 24.509915 5.166199 26.102649 1.279705 1.371562 -0.011119 0.005492 -173666.000000 0 0 1
7.915108 24.920915 6.558299 26.957601 1.263264 1.325048 -0.017241 0.010370 -160687.000000 0 0 1
7.386508 24.118415 7.606099 26.345990 1.273606 1.277927 0.003373 -0.006565 180259.000000 0 0 1
7.911408 24.508015 8.833699 27.226227 1.258547 1.240360 -0.010035 -0.005406 -260024.000000 0 0 1
7.507608 23.576415 10.027599 26.697645 1.262512 1.185754 -0.004051 -0.004661 862012.000000 0 0 1
6.198708 23.865815 10.575799 26.829995 1.316680 1.165623 -0.007694 -0.006143 1025400.000000 0 0 1
5.688308 22.854715 11.427599 26.177946 1.326863 1.119052 -0.007881 -0.004318 -89429.900000 0 0 1
4.320308 23.238715 12.019699 26.517468 1.386985 1.100361 0.007906 -0.010959 672646.000000 0 0 1
3.266708 23.255815 11.009699 25.936804 1.431241 1.132407 0.007533 -0.019018 454633.000000 0 0 1
2.065708 23.656615 11.618099 26.436392 1.483697 1.115784 0.005855 -0.016741 -595460.000000 0 0 1
0.879608 23.728215 10.659999 26.027629 1.533743 1.148819 0.020171 -0.017183 -531732.000000 0 0 1
0.976708 24.890115 9.891199 26.801261 1.531576 1.192802 0.022328 -0.016660 262102.000000 0 0 1
0.122108 24.952815 8.756499 26.444927 1.565903 1.233304 0.020526 -0.019853 1278620.000000 0 0 1
-1.362592 25.449115 8.965999 27.016722 -1.517306 1.232513 0.023966 -0.021640 982526.000000 0 0 1
-2.164892 24.697615 9.853499 26.678650 -1.483364 1.192497 0.018228 -0.022757 181293.000000 0 0 1
-3.488692 25.208515 9.823099 27.278810 -1.433276 1.202421 0.019503 -0.018532 88041.400000 0 0 1
-4.481892 24.361115 10.672099 26.971188 -1.388854 1.163983 0.025522 -0.025005 -55705.200000 0 0 1
-4.653892 24.630915 12.071099 27.821792 -1.384053 1.122010 0.018486 -0.011477 551405.000000 0 0 1
-5.572392 25.718615 12.332299 29.061733 -1.357427 1.132554 0.019537 -0.003425 66589.200000 0 0 1
-5.953392 25.803815 13.833899 29.877358 -1.344047 1.089394 0.001342 0.006552 -1237440.000000 0 0 1
-6.995892 24.936315 14.021999 29.451295 -1.297277 1.074573 0.004312 -0.001887 -771198.000000 0 0 1
-7.347892 24.789315 15.378599 30.083267 -1.282633 1.034215 -0.010451 0.024541 418595.000000 0 0 1
-8.623092 23.965515 15.776099 29.959788 -1.225407 1.016229 -0.011121 0.010149 831772.000000 0 0 1
-9.807292 24.617415 15.317099 30.607411 -1.191680 1.046692 -0.013182 0.014253 25952.800000 0 0 1
-10.933692 23.849015 15.649299 30.548677 -1.140934 1.032966 -0.009200 0.004989 336016.000000 0 0 1
-12.331392 24.498015 15.392099 31.450480 -1.104462 1.059386 -0.007625 0.002651 379246.000000 0 0 1
-12.492792 25.574215 16.267899 32.783454 -1.116398 1.051554 -0.008442 0.002811 59244.500000 0 0 1
-13.508992 26.456715 15.847899 33.669074 -1.098699 1.080717 -0.016658 0.004931 -478123.000000 0 0 1
-13.996692 27.473415 16.890599 35.156625 -1.099607 1.069642 -0.004758 0.008267 -577719.000000 0 0 1
-14.943592 26.865915 17.698199 35.472730 -1.063184 1.048439 0.001151 0.000209 -509848.000000 0 0 1
-15.345192 27.827015 18.711799 36.877488 -1.066841 1.038626 0.005162 -0.005211 59233.900000 0 0 1
-16.680392 27.309815 19.304199 37.372631 -1.022485 1.027999 0.007809 -0.013221 1126960.000000 0 0 1
-17.887592 27.564215 18.541399 37.729768 -0.995165 1.057070 0.013280 -0.014319 488238.000000 0 0 1
-18.971092 26.896415 19.113999 38.061324 -0.956496 1.044667 0.019814 -0.003995 -213744.000000 0 0 1
-20.297592 27.052715 18.340099 38.473378 -0.927105 1.073904 0.022550 -0.015828 -280472.000000 0 0 1
-20.741592 28.416615 18.375899 39.691199 -0.940277 1.089451 0.012719 -0.015449 376320.000000 0 0 1
-21.344692 28.790915 17.122799 39.720308 -0.932842 1.125102 0.017538 -0.012050 545215.000000 0 0 1
-22.329492 30.036615 17.142199 41.166241 -0.931527 1.141299 0.008483 -0.021185 519596.000000 0 0 1
-23.556392 29.776815 17.793199 41.930421 -0.901507 1.132552 0.006812 -0.017454 -227740.000000 0 0 1
-24.487692 30.769415 17.485299 43.036492 -0.898594 1.152406 -0.007049 -0.011171 -423524.000000 0 0 1
-25.856512 30.482215 18.117099 43.885691 -0.867320 1.145243 -0.009850 -0.009477 -261211.000000 0 0 1
-26.617782 29.430615 17.508199 43.372854 -0.835542 1.155275 -0.001201 -0.010796 944098.000000 0 0 1
-27.870642 29.286815 18.231599 44.349537 -0.810170 1.147148 0.017958 -0.015279 404658.000000 0 0 1
-27.908562 28.160615 19.303299 44.096773 -0.789894 1.117703 0.010893 -0.019246 -712058.000000 0 0 1
-28.055032 26.886815 18.745199 43.143576 -0.764139 1.121331 0.011484 -0.015978 172583.000000 0 0 1
-28.243872 25.979315 19.740199 43.154566 -0.743659 1.095693 0.011621 -0.005884 -136268.000000 0 0 1
-28.459942 24.586915 19.217699 42.235111 -0.712516 1.098405 0.000927 -0.003132 260336.000000 0 0 1
-29.586682 24.462515 18.346999 42.548781 -0.690875 1.124975 0.022751 -0.012161 413589.000000 0 0 1
-29.420462 23.461815 17.329099 41.428468 -0.673194 1.139235 0.010238 -0.005433 -553713.000000 0 0 1
-29.883582 21.989115 17.634099 41.079327 -0.634368 1.127113 0.000144 -0.005991 351765.000000 0 0 1
-31.221742 21.720615 17.236999 41.757591 -0.607827 1.145284 0.010321 -0.005944 -17054.300000 0 0 1
-31.598802 20.392815 17.052699 41.293410 -0.573111 1.145090 0.002080 -0.002456 175986.000000 0 0 1
-33.004612 20.176515 16.456599 42.038266 -0.548704 1.168571 0.008821 -0.012577 -86063.300000 0 0 1
-33.043202 20.518415 15.075899 41.715000 -0.555687 1.201025 0.008380 -0.007465 401255.000000 0 0 1
-34.305606 20.200215 14.466899 42.358168 -0.532167 1.222244 0.024660 -0.008545 864362.000000 0 0 1
-34.311756 20.632015 12.979499 42.088526 -0.541382 1.257301 0.031078 -0.005509 -309104.000000 0 0 1
-34.298858 22.012115 12.812499 42.721247 -0.570571 1.266199 0.024170 -0.006095 -16000.500000 0 0 1
-34.154879 22.412015 11.466599 42.430379 -0.580713 1.297149 0.017170 -0.004863 348159.000000 0 0 1
-33.000362 21.808115 10.588299 40.947892 -0.583961 1.309245 0.021063 -0.004065 37425.700000 0 0 1
-33.469702 20.704315 9.838299 40.567003 -0.553983 1.325834 0.037952 0.001043 472429.000000 0 0 1
-32.335992 19.988815 9.351199 39.148614 -0.553666 1.329600 0.052592 -0.005025 605659.000000 0 0 1
-31.774022 18.933315 10.345599 38.406904 -0.537380 1.298059 0.024320 -0.009368 1355.560000 0 0 1
-31.062722 19.603115 11.385599 38.455255 -0.562961 1.270217 0.017288 -0.003939 156004.000000 0 0 1
-30.454772 18.585315 12.181099 37.699950 -0.547929 1.241786 0.006149 -0.003062 73620.100000 0 0 1
-30.182082 19.034215 13.652399 38.205332 -0.562649 1.205375 -0.008527 0.001255 100890.000000 0 0 1
-29.111222 19.940115 13.874299 37.915269 -0.600563 1.196165 -0.004144 0.002234 -47978.100000 0 0 1
-29.409792 21.314915 13.607799 38.787029 -0.627148 1.212335 -0.008779 0.009218 -605729.000000 0 0 1
-28.230312 22.236815 13.742099 38.474300 -0.667191 1.205554 -0.001821 -0.004043 -534507.000000 0 0 1
-27.744072 22.310015 15.074599 38.661529 -0.677258 1.170260 -0.004418 0.007963 -1172260.000000 0 0 1
-26.564382 23.009515 15.144699 38.268343 -0.713812 1.163912 0.020070 -0.008051 -1144650.000000 0 0 1
-25.880992 22.736915 16.491699 38.193837 -0.720819 1.124320 0.020600 -0.007062 -509483.000000 0 0 1
-25.424672 21.425915 16.769599 37.238464 -0.700253 1.103661 0.040069 -0.007047 267430.000000 0 0 1
-24.723692 21.336415 18.014499 37.296457 -0.711990 1.066709 0.035639 0.001380 268421.000000 0 0 1
-24.050392 19.949415 18.244099 36.183527 -0.692462 1.042329 0.036798 -0.001208 245727.000000 0 0 1
-23.251692 19.920815 19.417199 36.256140 -0.708398 1.005630 0.032202 -0.000847 687280.000000 0 0 1
-22.394292 18.738215 19.430299 35.073658 -0.696746 0.983652 0.033208 0.001768 654189.000000 0 0 1
-21.854792 18.321615 20.805999 35.301602 -0.697682 0.940507 0.033623 -0.002171 52486.300000 0 0 1
-22.875792 17.974715 21.721999 36.307540 -0.665993 0.929446 0.028944 -0.009105 -186235.000000 0 0 1
-22.571192 18.335915 23.054199 37.110114 -0.682232 0.900475 0.047433 -0.011326 -115894.000000 0 0 1
-23.177692 17.513515 24.161499 37.785005 -0.647088 0.877018 0.035959 -0.013153 25301.400000 0 0 1
-22.496892 16.276215 24.383999 36.954089 -0.626316 0.850183 0.042212 -0.023195 156861.000000 0 0 1
-23.246892 15.434015 25.253999 37.634974 -0.586097 0.835206 0.038418 -0.024231 234333.000000 0 0 1
21.315008 24.575415 33.987558 47.047154 0.856327 0.763508 -0.001028 -0.001188 375607.000000 0 0 1
20.266208 23.987315 33.215270 45.709569 0.869287 0.757350 0.025860 -0.009610 76581.900000 0 0 1
19.542908 23.028715 33.932989 45.427907 0.867097 0.727313 0.020484 -0.004397 -153365.000000 0 0 1
18.606408 22.255515 32.983932 43.925462 0.874465 0.721362 0.041814 -0.011005 -149467.000000 0 0 1
19.349608 21.481615 32.041362 43.156877 0.837566 0.734092 0.051466 -0.008775 359211.000000 0 0 1
18.562808 20.476615 31.454292 41.871734 0.834381 0.720909 0.045228 -0.017150 -214477.000000 0 0 1
19.152308 20.005815 30.102762 40.905010 0.807191 0.743774 0.034311 -0.006724 -46584.200000 0 0 1
20.438208 19.432515 30.147622 41.282225 0.760180 0.752063 0.039155 -0.004576 -341029.000000 0 0 1
20.628208 18.693315 28.960682 40.170687 0.736231 0.765638 0.031661 -0.001325 207895.000000 0 0 1
21.859008 17.763815 29.108742 40.505410 0.682409 0.768954 0.040020 0.004085 -19848.400000 0 0 1
23.104208 18.404415 29.019542 41.408463 0.672654 0.794261 0.047068 0.004696 -615742.000000 0 0 1
24.115908 17.511315 29.407192 41.868916 0.628049 0.792084 0.042261 0.016644 43905.000000 0 0 1
25.504908 18.190215 29.542852 43.060009 0.619533 0.814701 0.025299 0.008306 526204.000000 0 0 1
26.276908 18.143715 28.317022 42.679317 0.604309 0.845331 0.026411 0.013457 -26539.300000 0 0 1
27.480208 18.845115 28.493852 43.842900 0.601112 0.863333 0.018497 0.004937 506410.000000 0 0 1
28.550808 18.657415 27.333362 43.707671 0.578819 0.895194 0.020291 0.006930 585414.000000 0 0 1
28.569308 19.814215 26.538062 43.738739 0.606383 0.918843 0.023505 -0.000022 -33505.200000 0 0 1
29.435708 19.682015 25.441872 43.601967 0.589370 0.947761 0.013013 0.004483 -163512.000000 0 0 1
29.838308 21.011415 24.808582 44.127882 0.613523 0.973756 0.012381 -0.002257 243573.000000 0 0 1
28.791308 21.505815 23.976682 43.200935 0.641550 0.982429 0.014812 -0.001724 32931.200000 0 0 1
29.282108 22.181715 22.809082 43.240312 0.648295 1.015146 0.003655 -0.011161 -290830.000000 0 0 1
29.956608 21.236415 21.825282 42.716819 0.616678 1.034531 0.010771 -0.000211 -420704.000000 0 0 1
29.140908 20.158215 21.429482 41.409768 0.605167 1.026872 0.016439 0.000667 237015.000000 0 0 1
29.601108 19.653015 20.144582 40.844471 0.586104 1.055029 0.004706 0.002480 1067610.000000 0 0 1
30.736208 18.529815 20.251682 41.209212 0.542524 1.057059 0.015786 -0.000271 656739.000000 0 0 1
30.246408 17.301415 20.804982 40.583636 0.519588 1.032534 0.024092 0.005115 45858.200000 0 0 1
31.214108 16.289315 21.079182 41.036499 0.480980 1.031341 0.019330 -0.001053 -439216.000000 0 0 1
30.676508 14.931115 21.555482 40.356229 0.452974 1.007318 0.027674 -0.002146 14317.200000 0 0 1
30.181108 14.780715 22.894582 40.663629 0.455401 0.972757 0.014366 0.011100 122470.000000 0 0 1
28.919608 15.352315 23.148382 40.098441 0.488031 0.955392 0.009781 0.009613 -213932.000000 0 0 1
28.130208 14.565915 24.258162 39.899034 0.477789 0.917271 0.003451 0.008587 231474.000000 0 0 1
27.650308 13.322915 23.810882 38.845820 0.449011 0.910997 0.001832 0.009720 632956.000000 0 0 1
26.848508 12.707915 24.902062 38.761401 0.442076 0.873112 -0.011477 0.015723 662421.000000 0 0 1
26.530408 11.256015 24.649492 37.923053 0.401251 0.863229 -0.003448 0.019257 266134.000000 0 0 1
25.636908 11.034515 23.537982 36.510933 0.406448 0.870188 0.002265 0.026748 462838.000000 0 0 1
25.379608 9.628915 23.374382 35.821813 0.362619 0.859894 -0.002795 0.029936 598779.000000 0 0 1
24.064508 9.195215 22.629282 34.289021 0.364987 0.850035 -0.014320 0.014454 119835.000000 0 0 1
22.856308 9.331815 23.315182 33.957199 0.387625 0.813987 -0.006033 0.007374 10657.400000 0 0 1
21.797308 8.874015 22.488682 32.551676 0.386625 0.808117 -0.015047 0.020017 -37654.200000 0 0 1
20.377308 9.150115 22.994482 32.057846 0.422051 0.770904 -0.004100 0.007167 -219691.000000 0 0 1
19.876908 8.309615 24.015682 32.262892 0.395972 0.731198 0.017198 0.010141 937625.000000 0 0 1
18.442008 8.241615 23.902382 31.294660 0.420268 0.701640 0.017946 0.007430 760397.000000 0 0 1
17.896108 7.502115 25.134552 31.753711 0.396951 0.657460 0.020892 -0.000607 -792576.000000 0 0 1
18.245908 6.133815 25.195272 31.707075 0.324306 0.652405 0.025946 -0.009972 184660.000000 0 0 1
17.960908 5.715415 26.494942 32.515261 0.308082 0.618332 0.024895 -0.014113 -24212.900000 0 0 1
18.153508 4.135415 26.428172 32.328004 0.223980 0.613738 0.031863 -0.023362 739224.000000 0 0 1
19.524008 3.766615 26.209792 32.898746 0.190581 0.649013 0.031310 -0.022191 816014.000000 0 0 1
19.604608 2.334815 26.215112 32.818046 0.118537 0.645496 0.024972 -0.020220 356862.000000 0 0 1
21.068308 1.931915 25.836682 33.393713 0.091442 0.686137 0.032521 -0.017093 1174350.000000 0 0 1
22.022508 2.313615 26.860402 34.811276 0.104673 0.689443 0.039585 -0.031826 -842478.000000 0 0 1
23.318708 2.218015 26.460792 35.339147 0.094832 0.724596 0.040529 -0.023911 -1223380.000000 0 0 1
24.280908 2.690015 27.573592 36.838861 0.110337 0.725011 0.031168 -0.029850 -1001880.000000 0 0 1
24.200608 1.861515 28.727972 37.608923 0.076769 0.701522 0.036601 -0.034550 35789.800000 0 0 1
25.013108 2.179015 29.835002 38.993988 0.086896 0.699572 0.023117 -0.021134 52905.400000 0 0 1
26.524208 2.318515 29.579412 39.797623 0.087190 0.732888 0.013843 -0.024630 -1222620.000000 0 0 1
26.831308 3.681115 29.190322 39.818898 0.136344 0.747961 -0.003066 0.002149 723985.000000 0 0 1
28.202708 3.997615 28.915172 40.588926 0.140808 0.777897 -0.012082 0.011448 554040.000000 0 0 1
28.918708 3.221715 27.774732 40.225699 0.110948 0.808655 -0.000902 0.007256 -956590.000000 0 0 1
28.509508 3.495815 26.467442 39.058140 0.122010 0.826245 -0.003349 0.013891 49129.800000 0 0 1
29.050108 2.456415 25.650552 38.831606 0.084357 0.849234 0.013483 0.033227 -801322.000000 0 0 1
28.605508 2.503115 24.148882 37.519451 0.087282 0.871556 0.020744 0.016174 6901.410000 0 0 1
29.160408 3.398215 23.247482 37.447600 0.116012 0.901033 0.020258 0.019747 -500515.000000 0 0 1
30.550108 3.250215 23.048582 38.407163 0.105991 0.927156 0.012258 0.020844 127871.000000 0 0 1
31.228508 4.454715 22.275982 38.617141 0.141693 0.955939 -0.007804 0.020554 -298472.000000 0 0 1
30.827408 4.602015 20.914182 37.535459 0.148189 0.979805 -0.002113 0.011237 -33308.400000 0 0 1
31.153608 5.827715 20.279582 37.626733 0.184927 1.001586 -0.002842 0.017626 1571780.000000 0 0 1
32.714008 6.173115 20.127982 38.903077 0.186506 1.027001 -0.012102 0.012765 1587010.000000 0 0 1
33.546208 6.265915 21.288882 40.222212 0.184657 1.013043 -0.005898 0.007574 457547.000000 0 0 1
33.455108 7.441315 22.024082 40.739141 0.218864 0.999632 0.003668 0.003434 -447420.000000 0 0 1
34.089208 7.287415 23.408982 41.990011 0.210605 0.979438 0.008099 0.005120 352.620000 0 0 1
33.211608 6.590715 24.282782 41.666557 0.195901 0.948641 0.010133 0.014109 448679.000000 0 0 1
33.845508 6.345415 25.504592 42.851686 0.185330 0.933303 0.007724 0.009312 -174494.000000 0 0 1
33.076408 5.338015 26.371492 42.637997 0.160005 0.903967 0.014971 0.012089 7080.490000 0 0 1
32.892408 4.066015 25.730062 41.958064 0.122992 0.910650 0.020231 0.001721 -61413.400000 0 0 1
32.371008 3.221815 26.687942 42.077411 0.099201 0.883748 0.005764 0.011940 -826688.000000 0 0 1
32.638208 1.733815 26.407112 42.018976 0.053072 0.891229 0.009473 0.009730 -411564.000000 0 0 1
31.869908 1.168215 25.398512 40.769354 0.036639 0.898249 0.026960 0.006763 -573019.000000 0 0 1
32.194108 -0.212085 25.185982 40.875901 -0.006588 0.906942 0.024070 0.001567 -573686.000000 0 0 1
31.251308 -0.940185 24.244212 39.563999 -0.030076 0.911217 0.031957 0.009595 -734898.000000 0 0 1
29.947508 -1.002885 24.726392 38.849112 -0.033476 0.880880 0.032284 0.005632 -927090.000000 0 0 1
29.249608 -1.997185 23.990582 37.882402 -0.068175 0.884998 0.037888 0.007561 -846519.000000 0 0 1
27.759708 -2.032085 24.204542 36.886185 -0.073072 0.855031 0.048485 0.003623 -939267.000000 0 0 1
27.112208 -0.848585 23.757182 36.058226 -0.031289 0.851499 0.040262 0.006804 -14483.100000 0 0 1
25.725208 -1.059185 23.993582 35.193752 -0.041150 0.820635 0.041559 0.003608 514641.000000 0 0 1
24.839008 0.224315 23.903782 34.473431 0.009031 0.804603 0.034047 0.008031 77876.300000 0 0 1
24.817308 0.669615 22.563282 33.547711 0.026975 0.833116 0.027026 0.008227 40878.600000 0 0 1
24.344008 2.005515 22.522782 33.225420 0.082197 0.825924 0.016511 0.005688 33837.800000 0 0 1
24.368308 2.804315 21.211082 32.428208 0.114576 0.857813 0.010127 0.004773 -67401.200000 0 0 1
23.515208 2.219715 20.240482 31.105776 0.094116 0.862292 0.013476 0.006052 48119.100000 0 0 1
22.968808 3.295515 19.532582 30.330650 0.142505 0.871096 0.003840 0.009111 -444987.000000 0 0 1
22.930108 3.163715 18.009482 29.328151 0.137106 0.909592 0.003629 0.010574 -745243.000000 0 0 1
24.185508 3.116115 17.394782 29.953755 0.128136 0.951182 -0.001948 0.004487 -389705.000000 0 0 1
24.196808 3.208515 15.988582 29.179014 0.131832 0.990887 -0.013462 0.008905 -347592.000000 0 0 1
23.596508 2.122815 15.080382 28.084150 0.089722 1.003954 -0.007547 0.020480 -343751.000000 0 0 1
22.196208 2.020515 15.027182 26.880669 0.090780 0.977577 0.010159 0.014075 -11692.600000 0 0 1
21.819908 1.114115 14.015882 25.957554 0.051015 1.000414 0.010684 0.001194 38521.300000 0 0 1
20.319408 0.680315 14.020282 24.696346 0.033469 0.967079 0.016277 -0.004367 1085880.000000 0 1 0
19.356708 1.514315 13.310282 23.540156 0.078073 0.969843 0.026175 -0.003092 1127780.000000 0 1 0
19.447508 1.265815 11.852982 22.810109 0.064997 1.024370 0.032384 -0.005811 -992682.000000 0 1 0
19.119008 -0.137085 11.174582 22.145577 -0.007170 1.041882 0.028392 -0.005528 -157028.000000 0 1 0
20.081208 -1.149985 11.375782 23.108133 -0.057204 1.056084 0.021426 -0.007963 668895.000000 0 1 0
21.291308 -1.019285 10.633482 23.820783 -0.047837 1.108064 0.022691 -0.003424 80238.500000 0 1 0
22.355908 -2.080785 11.013882 25.008437 -0.092808 1.114745 0.022382 -0.011438 -72278.700000 0 0 1
22.747008 -1.802885 12.331582 25.937323 -0.079093 1.075335 0.017156 -0.012532 -116913.000000 0 0 1
23.782308 -2.605585 12.813582 27.139918 -0.109125 1.079090 0.016807 -0.007818 -276596.000000 0 0 1
23.943508 -2.481185 14.332482 28.015494 -0.103258 1.033761 0.034352 -0.004541 155473.000000 0 0 1
24.798508 -1.396385 14.717982 28.871005 -0.056250 1.035862 0.023389 0.000071 269368.000000 0 0 1
24.855808 -1.333885 16.128482 29.660047 -0.053613 0.995864 0.012934 -0.011057 -257157.000000 0 0 1
25.979908 -0.454985 16.681082 30.877519 -0.017511 1.000081 0.045274 -0.002997 -518449.000000 0 0 1
27.296908 -0.828985 16.420882 31.866186 -0.030360 1.029430 0.035368 -0.007996 -1091740.000000 0 0 1
28.162308 0.226715 16.601282 32.692042 0.008050 1.038158 0.014713 0.002269 -1762280.000000 0 0 1
29.539608 -0.349385 16.659682 33.915418 -0.011827 1.057315 0.022074 0.003569 -1384860.000000 0 0 1
29.952008 -0.922085 15.405682 33.694333 -0.030776 1.095931 0.023606 0.013136 208199.000000 0 0 1
31.204908 -1.567585 15.569982 34.908852 -0.050193 1.108485 0.029886 0.017112 106179.000000 0 0 1
31.714508 -2.219285 14.294682 34.857900 -0.069863 1.148250 0.019203 0.005511 -185188.000000 0 0 1
32.012508 -1.328785 13.253682 34.673137 -0.041484 1.178570 0.021513 0.006041 28052.500000 0 0 1
32.377008 -2.026085 12.097382 34.622570 -0.062496 1.213858 0.022103 0.001761 -209552.000000 0 0 1
32.088808 -1.279585 10.764082 33.870259 -0.039855 1.247384 0.025168 0.016483 -283859.000000 0 0 1
32.695808 -0.027485 10.565782 34.360623 -0.000841 1.258235 0.023640 0.017086 84039.600000 0 0 1
31.804608 0.716715 9.799382 33.287756 0.022531 1.271985 -0.000971 0.015949 -251169.000000 0 0 1
32.293808 2.142415 9.458382 33.718556 0.066244 1.286471 -0.001957 0.013128 -289974.000000 0 0 1
33.221008 2.111715 8.423582 34.337319 0.063480 1.322948 0.014996 0.011679 -20627.100000 0 0 1
33.514008 3.425415 7.939782 34.611593 0.101855 1.339339 0.021662 0.011828 -178281.000000 0 0 1
34.017208 3.402015 6.521482 34.803361 0.099677 1.382301 0.027453 0.004523 -225159.000000 0 0 1
34.246808 4.640715 5.977682 35.072964 0.134688 1.399525 0.017017 0.002430 119997.000000 0 0 1
34.769708 4.540515 4.665282 35.373914 0.129853 1.438526 0.015506 0.006185 -15249.500000 0 0 1
-34.843902 5.861915 4.074482 35.567696 -0.166673 1.455989 0.008660 -0.007708 719095.000000 0 0 1
34.354808 6.877915 3.961282 35.259755 0.197590 1.458213 0.024518 -0.015015 425423.000000 0 0 1
34.834008 8.060115 3.396682 35.915332 0.227385 1.476080 0.012924 -0.012441 -648824.000000 0 0 1
33.889308 9.304115 3.501082 35.317267 0.267942 1.471501 0.038355 -0.020246 605778.000000 0 0 1
32.815508 9.386715 2.575682 34.228674 0.278605 1.495476 0.032227 -0.024208 238403.000000 0 0 1
31.743508 8.501515 2.788882 32.980357 0.261678 1.486133 0.039154 -0.016981 -331390.000000 0 0 1
30.549008 8.597515 1.784282 31.785891 0.274338 1.514632 0.046904 -0.023788 96982.900000 0 0 1
30.800008 8.149615 0.441182 31.863010 0.258670 1.556950 0.038883 -0.020970 143561.000000 0 0 1
29.682608 8.112815 -0.441818 30.774506 0.266803 1.585153 0.064068 -0.011666 -186132.000000 0 0 1
29.960708 7.726715 -1.903118 30.999484 0.252395 1.632227 0.032923 -0.009930 -271509.000000 0 0 1
28.849908 7.242715 -2.637118 29.861824 0.245965 1.659222 0.033598 -0.006501 568547.000000 0 0 1
29.221708 7.131315 -3.970418 30.340206 0.239363 1.702036 0.028668 -0.003109 -329941.000000 0 0 1
28.250208 6.414915 -4.938118 29.387249 0.223289 1.739633 0.022872 0.001223 -390133.000000 0 0 1
28.029608 5.042315 -4.582418 28.845839 0.177989 1.730331 0.029569 -0.003225 348093.000000 0 0 1
27.004508 4.498515 -5.346418 27.893804 0.165068 1.763660 0.013790 -0.001330 -699054.000000 0 0 1
26.797908 2.932215 -5.339118 27.481484 0.108986 1.766320 0.015708 0.004830 -754111.000000 0 0 1
26.395808 2.378015 -4.196918 26.832961 0.089848 1.727850 0.015210 -0.000289 241439.000000 0 0 1
26.277008 0.998915 -4.316618 26.647930 0.037997 1.733500 0.006577 -0.001418 -311570.000000 0 0 1
26.248208 0.337615 -2.887018 26.408660 0.012862 1.680336 0.007376 -0.000955 239437.000000 0 0 1
27.474508 0.518615 -2.188018 27.566374 0.018874 1.650253 0.033281 -0.003915 661397.000000 0 0 1
27.315408 0.134415 -0.853718 27.329077 0.004921 1.602040 0.035803 0.000083 680833.000000 0 0 1
28.633908 0.528815 -0.102718 28.638975 0.018466 1.574383 0.050289 0.001770 594546.000000 0 0 1
29.816008 -0.141985 -0.439718 29.819589 -0.004762 1.585543 0.048756 -0.001890 85758.800000 0 0 1
30.925408 0.316315 0.311982 30.928600 0.010228 1.560709 0.036675 0.002196 -89890.700000 0 0 1
-2.667492 -21.577285 -8.278501 23.264314 1.447795 1.934615 -0.011738 0.021075 56720.700000 0 1 0
-3.187192 -22.129385 -7.089101 23.454706 1.427755 1.877845 -0.007656 0.014653 -46787.300000 0 1 0
-2.609392 -23.380885 -6.678601 24.455642 1.459653 1.847400 -0.006046 0.014624 141970.000000 0 1 0
-3.254292 -23.726085 -5.271001 24.521439 1.434486 1.787442 -0.007415 0.014592 -565216.000000 0 1 0
-2.832092 -22.891385 -4.248101 23.453840 1.447703 1.752928 -0.005511 0.010940 -249118.000000 0 1 0
-3.367292 -23.358585 -3.032801 23.794117 1.427626 1.698604 0.002068 -0.001142 -94197.700000 0 1 0
-2.691292 -22.717285 -1.762301 22.943927 1.452877 1.647681 -0.001262 -0.015189 -634981.000000 0 1 0
-1.351492 -23.025485 -1.611501 23.121341 1.512168 1.640550 0.001022 -0.003010 -1394150.000000 0 1 0
-0.989892 -22.748085 -0.295901 22.771535 1.527308 1.583791 -0.003800 -0.010407 126700.000000 0 1 0
0.524708 -22.526485 -0.126801 22.532952 -1.547508 1.576424 0.003151 -0.015761 73990.900000 0 1 0
1.114208 -21.317185 -0.568701 21.353858 -1.518576 1.597432 0.000040 -0.015401 -1123510.000000 0 1 0
2.311508 -21.078585 0.055399 21.205020 -1.461571 1.568184 0.006543 -0.015646 -621388.000000 0 1 0
3.140008 -19.972485 -0.706301 20.230142 -1.414856 1.605717 0.019020 -0.022450 268123.000000 0 1 0
3.807408 -20.462585 -1.834401 20.894467 -1.386833 1.658703 0.010730 -0.012364 -4225.770000 0 1 0
4.740108 -19.437885 -2.240801 20.132590 -1.331605 1.682330 0.024580 -0.014820 128142.000000 0 1 0
5.561108 -19.963285 -3.464201 21.010934 -1.299117 1.736429 0.019960 -0.000825 -525821.000000 0 1 0
6.364108 -21.067185 -3.163001 22.233595 -1.277427 1.713543 0.020694 -0.003843 304794.000000 0 1 0
7.217408 -21.672785 -4.158201 23.218338 -1.249330 1.750859 0.011874 -0.000780 1585860.000000 0 1 0
8.512508 -20.917485 -4.676501 23.062386 -1.184307 1.774988 0.008139 0.004254 269994.000000 0 1 0
8.192208 -19.855185 -5.561001 22.187054 -1.179477 1.824139 0.015497 0.005547 358378.000000 0 1 0
9.197908 -19.513685 -6.517601 22.535850 -1.130325 1.864198 0.011501 0.016482 193065.000000 0 1 0
8.780008 -18.257785 -7.327601 21.543653 -1.122552 1.917849 0.005454 0.010912 -293820.000000 0 1 0
9.858708 -17.981985 -8.181901 22.079162 -1.069294 1.950420 0.008900 0.019305 366029.000000 0 1 0
9.602508 -16.784785 -8.808501 21.249161 -1.051147 1.998227 0.006171 0.018717 13471.500000 0 1 0
9.832108 -16.651885 -10.272901 21.897217 -1.037428 2.059115 -0.002465 0.022236 -920087.000000 0 1 0
8.974008 -17.385685 -11.024401 22.457344 -1.094295 2.083923 -0.002547 0.013887 -658950.000000 0 1 0
8.778008 -16.673385 -12.211401 22.453808 -1.086199 2.145809 -0.000350 0.005696 -150473.000000 0 1 0
8.148908 -17.526585 -13.365601 23.499472 -1.135583 2.175796 -0.000222 0.004275 199134.000000 0 1 0
6.829208 -17.883085 -12.991501 23.134864 -1.206007 2.167060 -0.011280 0.001768 -110227.000000 0 1 0
6.223808 -18.525885 -14.036201 24.061570 -1.246691 2.193638 -0.016079 0.006338 -445415.000000 0 1 0
5.065308 -19.446685 -13.670101 24.304373 -1.315987 2.168148 -0.014205 0.010655 -732788.000000 0 1 0
5.474708 -20.667385 -13.025701 25.035617 -1.311848 2.117983 -0.002963 0.001702 -159920.000000 0 0 1
4.378408 -21.477885 -12.680801 25.323363 -1.369695 2.095267 0.005730 0.005997 -155150.000000 0 0 1
4.682308 -22.993385 -12.458101 26.567349 -1.369906 2.058870 -0.005499 0.009204 -332459.000000 0 0 1
5.141308 -23.627685 -13.601201 27.743345 -1.356539 2.083174 0.001002 -0.000290 -213867.000000 0 0 1
4.928808 -25.055505 -13.647801 28.953997 -1.376561 2.061630 -0.001792 -0.001399 880568.000000 0 0 1
3.455008 -25.420935 -14.086701 29.267664 -1.435712 2.072940 0.003155 -0.005012 871827.000000 0 0 1
2.455008 -25.106885 -13.132801 28.440345 -1.473324 2.050782 0.015211 -0.004429 -97497.200000 0 0 1
1.134208 -25.202625 -13.627101 28.673273 -1.525823 2.066050 0.011373 -0.010200 307744.000000 0 0 1
0.453108 -26.624175 -13.393001 29.806450 -1.553779 2.036814 0.008806 -0.004602 -592289.000000 0 0 1
0.829208 -27.712515 -14.248301 31.171865 -1.540883 2.045515 0.017363 -0.006807 16933.300000 0 0 1
0.518408 -28.962195 -13.691001 32.039366 -1.552899 2.012321 0.009661 0.007468 -210356.000000 0 0 1
-0.916192 -29.468035 -13.899901 32.594658 1.539715 2.011358 0.002841 0.004711 -70945.200000 0 0 1
-1.933692 -28.789275 -13.210301 31.734422 1.503730 2.000143 0.004717 -0.007283 112337.000000 0 0 1
-3.237892 -29.252965 -13.535501 32.394902 1.460559 2.001850 0.007899 -0.002406 318047.000000 0 0 1
-4.369992 -28.398185 -12.906601 31.498160 1.418111 1.992984 -0.010052 -0.011346 32098.500000 0 0 1
-4.512392 -28.539255 -11.490701 31.094806 1.413983 1.949308 -0.008378 -0.016526 -285744.000000 0 0 1
-5.188292 -29.649855 -11.041001 32.061441 1.397565 1.922364 -0.017117 -0.007116 -892943.000000 0 0 1
-5.504492 -29.644385 -9.518201 31.617798 1.387203 1.876579 -0.010139 -0.009422 -166405.000000 0 0 1
-6.766892 -29.102055 -9.193001 31.260705 1.342333 1.869284 0.000825 -0.010223 -197277.000000 0 0 1
-6.970092 -27.714315 -9.278301 30.045837 1.324408 1.884733 0.009912 -0.011815 -1030370.000000 0 0 1
-8.424792 -27.420625 -8.922001 30.041137 1.272708 1.872338 0.010856 -0.012119 362390.000000 0 0 1
-9.495292 -27.621655 -9.866601 30.829632 1.239689 1.896564 0.015088 -0.011872 597142.000000 0 0 1
-9.717992 -28.957175 -10.306901 32.236463 1.247008 1.896239 0.020228 -0.017119 -954465.000000 0 0 1
-11.050692 -29.188105 -11.016501 33.097229 1.208871 1.910123 0.021952 -0.016898 -571433.000000 0 0 1
-11.057592 -28.569655 -12.290301 33.008287 1.201512 1.952325 0.024414 -0.017553 -47359.300000 0 0 1
-11.600692 -29.373555 -13.308201 34.270833 1.194663 1.969609 0.032898 -0.018531 -139798.000000 0 0 1
-11.837192 -28.583995 -14.596901 34.208674 1.178177 2.011639 0.034218 -0.021766 -41288.100000 0 0 1
-12.783492 -27.509335 -14.572401 33.653173 1.135788 2.018634 0.029304 -0.027414 259451.000000 0 0 1
-12.509492 -26.351525 -13.757401 32.251455 1.127580 2.011490 0.039298 -0.018671 -566145.000000 0 0 1
-13.517192 -25.250205 -14.038601 31.896232 1.079286 2.026544 0.057059 -0.013411 -437442.000000 0 0 1
-13.212892 -24.538885 -15.185001 31.738331 1.076866 2.069678 0.049814 -0.014762 -18913.300000 0 0 1
-14.128792 -23.504385 -15.467401 31.485224 1.029559 2.084331 0.065465 -0.011415 -458829.000000 0 0 1
-13.989292 -22.876885 -16.833201 31.660840 1.021961 2.131371 0.061611 -0.016063 283883.000000 0 0 1
-12.694892 -22.286085 -16.956001 30.746314 1.053005 2.154935 0.055674 -0.018252 651423.000000 0 0 1
-12.581992 -21.408785 -18.076901 30.715093 1.039468 2.200042 0.029821 -0.018165 -464702.000000 0 0 1
-13.037192 -19.937785 -17.944001 29.823997 0.991689 2.216378 0.040699 -0.011192 -6412.460000 0 0 1
-12.029392 -19.053985 -17.449101 28.499679 1.007657 2.229707 0.043463 -0.009797 431627.000000 0 0 1
-12.402092 -17.653485 -17.460301 27.754631 0.958375 2.251185 0.040897 -0.002030 451628.000000 0 0 1
-11.164192 -16.729985 -17.662601 26.767500 0.982344 2.291419 0.047192 -0.009388 580696.000000 0 0 1
-10.363492 -16.422785 -16.544501 25.511377 1.007863 2.276428 0.039340 -0.001183 673353.000000 0 0 1
-9.049392 -15.986785 -16.883201 24.950176 1.055711 2.314036 0.034838 0.003009 -70160.100000 0 1 0
-8.215792 -15.277485 -15.800301 23.463808 1.077390 2.309582 0.020858 0.003411 -22512.500000 0 1 0
-7.768092 -16.194985 -14.748601 23.240956 1.123552 2.258281 0.017013 0.011162 -253960.000000 0 1 0
-6.653792 -16.977085 -15.042001 23.638023 1.197268 2.260551 0.013903 0.019217 -1302370.000000 0 1 0
-6.318692 -17.774985 -13.800501 23.373698 1.229246 2.202386 0.012342 0.015600 -873137.000000 0 1 0
-5.891292 -16.962085 -12.737701 22.015192 1.236510 2.187791 0.008324 0.008159 159657.000000 0 1 0
-5.669692 -17.698985 -11.541501 21.877059 1.260785 2.126524 0.002231 0.006907 -123403.000000 0 1 0
-4.559892 -18.775485 -11.525501 22.497747 1.332545 2.108652 0.002618 0.006371 -215092.000000 0 1 0
-3.248792 -18.252485 -11.602401 21.870610 1.394649 2.129989 -0.002391 0.012133 -61243.100000 0 1 0
-2.221292 -19.238085 -11.481901 22.513820 1.455842 2.105974 -0.007492 0.015362 514865.000000 0 1 0
-0.852692 -18.740885 -11.949101 22.242501 1.525329 2.137933 -0.001227 0.020596 -696612.000000 0 1 0
-0.784392 -18.521085 -13.320701 22.827329 1.528470 2.193880 -0.001262 0.016375 -110021.000000 0 1 0
0.384708 -17.866185 -13.792401 22.573854 -1.549267 2.228107 -0.002158 0.015983 900200.000000 0 1 0
1.722508 -18.675985 -13.942201 23.369733 -1.478825 2.210044 0.004981 0.010102 -258609.000000 0 1 0
1.788108 -19.752485 -14.877501 24.793104 -1.480517 2.214380 0.011305 0.012767 -93860.700000 0 1 0
1.009708 -20.913785 -14.638001 25.547544 -1.522554 2.180923 0.005000 0.004742 -825370.000000 0 0 1
1.167508 -21.836285 -15.910101 27.042887 -1.517381 2.199787 0.019861 -0.001177 640205.000000 0 0 1
2.328008 -22.616485 -16.234601 27.937202 -1.468223 2.190889 0.013716 -0.001723 760676.000000 0 0 1
3.565608 -21.890185 -16.211101 27.471686 -1.409328 2.201982 0.010391 -0.011693 -34217.000000 0 0 1
4.717008 -22.781385 -16.707101 28.642083 -1.366626 2.193589 0.011989 -0.002571 -75835.600000 0 0 1
4.563708 -23.106485 -18.046401 29.671698 -1.375798 2.224590 0.008372 0.007282 -129557.000000 0 0 1
5.656808 -23.888385 -18.439401 30.702865 -1.338278 2.215018 0.004010 0.007926 -32559.900000 0 0 1
5.929908 -23.752185 -20.001401 31.613069 -1.326140 2.255824 -0.000295 0.014551 -188350.000000 0 0 1
6.210808 -22.384585 -20.312201 30.858213 -1.300145 2.289279 0.012891 0.004252 45982.200000 0 0 1
6.553808 -22.261985 -21.713201 31.780678 -1.284490 2.322960 0.011586 0.009029 255627.000000 0 0 1
7.150808 -20.905285 -22.150401 31.285864 -1.241215 2.357459 0.009060 0.005601 330330.000000 0 0 1
6.027708 -20.076085 -22.292301 30.599496 -1.279116 2.386953 0.031351 0.004567 184171.000000 0 0 1
6.439308 -18.776185 -22.692301 30.148803 -1.240415 2.422915 0.046339 -0.001623 163684.000000 0 0 1
5.224508 -17.861885 -22.945101 29.543529 -1.286239 2.460133 0.029517 0.000025 -587432.000000 0 0 1
4.670108 -18.099085 -24.216101 30.590952 -1.318274 2.484236 0.017491 -0.005689 -43634.600000 0 0 1
3.592808 -17.264385 -24.566201 30.240131 -1.365620 2.519003 0.029180 -0.010014 1008820.000000 0 0 1
2.199108 -17.521085 -23.880601 29.700296 -1.445937 2.504877 0.037230 -0.002003 279590.000000 0 0 1
2.099208 -16.812185 -22.634401 28.273174 -1.446577 2.499027 0.033757 0.000110 232604.000000 0 0 1
0.854608 -16.155685 -22.359401 27.598538 -1.517947 2.515232 0.033378 0.002197 709344.000000 0 0 1
1.015308 -15.334985 -21.094301 26.099083 -1.504684 2.511952 0.022280 0.008406 -77496.700000 0 0 1
1.641708 -14.108485 -21.249401 25.559374 -1.454954 2.552372 0.017557 0.014524 -304916.000000 0 0 1
1.998408 -13.600385 -19.972301 24.245761 -1.424903 2.538780 0.018316 0.012412 225505.000000 0 1 0
3.078608 -12.485685 -19.843901 23.646365 -1.329048 2.566597 0.024107 0.008626 -169451.000000 0 1 0
4.396408 -12.974885 -20.059401 24.291060 -1.244098 2.542404 0.018196 0.015265 1064750.000000 0 1 0
5.498608 -12.025785 -19.947201 23.932092 -1.141942 2.556194 0.017382 0.008990 1199920.000000 0 1 0
5.520508 -11.082985 -18.702601 22.429798 -1.108665 2.556803 0.016153 0.015357 -899576.000000 0 1 0
4.616608 -9.979785 -18.660101 21.658914 -1.137517 2.609099 0.001726 0.022018 -214874.000000 0 1 0
5.007508 -8.856285 -19.418301 21.922120 -1.056193 2.658981 0.018646 0.009608 -88890.000000 0 1 0
4.481908 -8.869985 -20.892601 23.135793 -1.102926 2.697597 0.031444 -0.000497 474219.000000 0 1 0
3.059908 -8.810985 -20.885901 22.873945 -1.236544 2.721588 0.028228 0.000162 196869.000000 0 1 0
2.491608 -8.849485 -22.203901 24.031952 -1.296347 2.749032 0.029503 -0.008711 -840210.000000 0 1 0
0.990808 -8.947585 -22.189601 23.946177 -1.460511 2.756184 0.034544 -0.008499 -1151290.000000 0 1 0
0.489808 -7.712385 -21.658701 22.996089 -1.507372 2.798869 0.034774 -0.009021 -228843.000000 0 1 0
-0.895092 -7.602585 -21.916301 23.214753 1.453601 2.805553 0.030067 -0.004563 94426.700000 0 1 0
-1.219492 -6.713385 -23.146601 24.131346 1.391105 2.854928 0.041320 0.003469 -211010.000000 0 1 0
-1.021692 -7.279785 -24.414601 25.497291 1.431361 2.849131 0.045145 -0.001789 -260341.000000 0 0 1
-1.550092 -6.470485 -25.446921 26.302391 1.335664 2.885850 0.035302 -0.001835 -80442.800000 0 0 1
-0.932092 -5.081385 -25.773501 26.286168 1.389381 2.943769 0.039494 -0.002832 -274357.000000 0 0 1
-1.305592 -4.573185 -27.039151 27.454222 1.292705 2.967484 0.023283 0.000184 -43069.900000 0 0 1
-0.767092 -3.333885 -27.453121 27.665449 1.344643 3.017619 0.011671 0.003022 -872059.000000 0 0 1
-1.023492 -2.077085 -26.555061 26.655827 1.112962 3.054614 0.017148 -0.001349 -275035.000000 0 0 1
-2.330192 -1.603985 -26.397891 26.549034 0.602864 3.034837 0.001334 0.004943 -432083.000000 0 0 1
-2.988692 -1.066785 -27.524101 27.706433 0.342844 3.026805 0.001747 0.007857 -575793.000000 0 0 1
-4.492792 -1.159985 -27.256081 27.648231 0.252670 2.972968 0.006015 0.007998 -393980.000000 0 0 1
-4.987392 -0.142585 -26.343051 26.811392 0.028581 2.954408 0.010397 -0.002097 1065350.000000 0 0 1
-6.406292 -0.385485 -26.138401 26.914776 0.060100 2.900821 0.004872 -0.007601 882843.000000 0 0 1
-7.063492 0.873915 -25.530561 26.504079 -0.123097 2.869718 0.003631 -0.010427 -840687.000000 0 0 1
-7.344992 1.976615 -26.368321 27.443474 -0.262883 2.860753 0.010617 -0.008472 646442.000000 0 0 1
-8.276492 1.809915 -27.459891 28.737114 -0.215292 2.842333 0.020088 -0.001724 -107503.000000 0 0 1
-9.742292 1.601015 -27.078901 28.822602 -0.162881 2.791971 0.020772 -0.008362 -1599320.000000 0 0 1
-10.629492 2.057315 -28.014521 30.033848 -0.191184 2.772805 0.022697 -0.011049 -1001610.000000 0 0 1
-11.932592 1.815315 -27.569651 30.095976 -0.150973 2.728934 0.013115 -0.010925 -1066060.000000 0 0 1
-12.892292 2.386215 -28.598671 31.460915 -0.183017 2.711728 0.009710 -0.004977 -902896.000000 0 0 1
-14.172392 1.777515 -28.498001 31.877144 -0.124769 2.676979 0.004204 -0.007126 190410.000000 0 0 1
-15.089292 2.327415 -29.420601 33.146272 -0.153037 2.662903 -0.007900 -0.002116 106553.000000 0 0 1
-15.989792 3.458615 -28.865591 33.179177 -0.213020 2.625981 -0.008146 0.005684 -578606.000000 0 0 1
-15.384692 4.743015 -28.803381 32.997268 -0.299049 2.631915 -0.004018 0.007059 59888.300000 0 0 1
-15.220192 5.382015 -30.067911 34.127696 -0.339887 2.648855 0.001961 -0.000508 -260988.000000 0 0 1
-16.450292 5.958415 -30.810201 35.431389 -0.347508 2.625135 -0.006673 0.005506 271786.000000 0 0 1
-17.220692 6.911815 -30.035841 35.305483 -0.381684 2.588191 -0.014295 0.014478 195716.000000 0 0 1
-18.065592 7.650315 -30.828541 36.541646 -0.400578 2.574851 -0.019852 0.010025 -704059.000000 0 0 1
-18.784692 8.767715 -30.048121 36.505165 -0.436694 2.537679 -0.006635 0.008154 -667366.000000 0 0 1
-17.905592 9.819315 -29.707921 36.049823 -0.501609 2.539372 -0.016209 0.010861 376157.000000 0 0 1
-18.498692 10.819515 -28.870291 35.954933 -0.529228 2.503037 -0.007541 0.004837 -48442.600000 0 0 1
-7.942192 25.143315 31.307742 40.932132 -1.264838 0.699957 -0.023624 0.007334 -395784.000000 0 0 1
-8.775992 26.285815 31.070922 41.633692 -1.248565 0.728321 -0.012691 0.007856 173749.000000 0 0 1
-8.643992 27.406515 31.942712 42.967110 -1.265272 0.732623 -0.003351 0.004664 -670447.000000 0 0 1
-7.331092 28.162215 31.936002 43.206059 -1.316132 0.738980 -0.001443 0.001090 -647029.000000 0 0 1
-7.240792 29.058415 30.840852 42.988123 -1.326589 0.770694 0.015801 0.001695 93426.600000 0 0 1
-5.965292 29.097915 30.254022 42.397868 -1.368591 0.776210 0.016593 0.001780 -306125.000000 0 0 1
-5.880292 30.206815 29.151642 42.389241 -1.378533 0.812462 0.030889 -0.004038 -265987.000000 0 0 1
-6.083092 31.460215 29.851432 43.793346 -1.379795 0.820790 0.033086 -0.004497 321827.000000 0 0 1
-5.984792 32.622715 29.037492 44.082142 -1.389359 0.851689 0.032784 -0.004296 -152827.000000 0 0 1
-6.421592 33.905215 29.774072 45.577361 -1.383615 0.858908 0.034937 -0.002644 -236514.000000 0 0 1
-5.573892 34.007015 30.908582 46.291315 -1.408337 0.839685 0.035175 -0.004642 223208.000000 0 0 1
-6.175192 -34.466055 31.925782 47.384570 1.393510 0.831512 0.020519 -0.004664 828192.000000 0 0 1
-7.265692 34.139315 32.873932 47.947665 -1.361100 0.815340 0.005479 -0.006345 588589.000000 0 0 1
-6.815992 33.200115 33.830979 47.887791 -1.368310 0.786307 0.023955 0.001139 -64504.000000 0 0 1
-6.453992 31.961515 33.247507 46.568114 -1.371546 0.775667 0.031485 0.007909 -163075.000000 0 0 1
-6.312992 30.856515 34.334484 46.592223 -1.368989 0.742302 0.025451 0.012205 -583565.000000 0 0 1
-5.239692 31.097215 -33.970371 46.351670 -1.403870 2.393347 0.011681 0.008862 -472853.000000 0 0 1
-5.583592 30.656115 -32.680361 45.155065 -1.390635 2.379998 0.008855 0.005505 -681863.000000 0 0 1
-4.326192 30.488515 -31.800671 44.266784 -1.429842 2.372277 -0.013462 0.005477 621595.000000 0 0 1
-3.603192 29.256015 -32.062811 43.553660 -1.448253 2.398187 -0.012235 0.008965 511184.000000 0 0 1
-2.961792 29.078715 -33.339401 44.338015 -1.469292 2.421792 -0.010863 0.006661 -782818.000000 0 0 1
-2.392192 27.679915 -33.546111 43.557340 -1.484587 2.449888 -0.015590 0.003797 -311702.000000 0 0 1
-1.207992 27.404515 -32.778141 42.741938 -1.526745 2.444769 -0.007686 0.007825 1086720.000000 0 0 1
-0.500692 26.146215 -33.034221 42.132351 -1.551649 2.471974 -0.008842 0.006380 530069.000000 0 0 1
0.060408 25.976215 -34.446570 43.143176 1.568471 2.495470 -0.007753 0.011359 -379980.000000 0 0 1
-0.954192 25.739815 33.708397 42.422926 -1.533743 0.652481 -0.007643 0.004122 287981.000000 0 0 1
-0.463092 25.425615 32.435182 41.215500 -1.552585 0.664921 -0.001392 0.009111 -347035.000000 0 0 1
-0.179192 26.679215 31.613772 41.367176 -1.564080 0.700960 -0.003297 0.003332 -106900.000000 0 0 1
-1.362692 27.363615 31.218462 41.535729 -1.521038 0.720304 0.001762 -0.001575 465113.000000 0 0 1
-1.016392 28.577015 30.544972 41.841059 -1.535245 0.752439 0.013212 -0.001358 161493.000000 0 0 1
-2.129392 29.619515 30.758222 42.754160 -1.499028 0.767829 0.020303 -0.009969 69530.700000 0 0 1
-1.930892 30.152715 32.082662 44.070532 -1.506847 0.755419 0.029405 -0.000395 156529.000000 0 0 1
-2.801292 31.243015 32.292942 45.020077 -1.481374 0.770876 0.022778 0.001754 -50093.800000 0 0 1
-2.242492 32.139315 33.407464 46.411454 -1.501135 0.767267 0.034929 0.001946 80470.700000 0 0 1
-1.097892 32.808915 32.964862 46.522171 -1.537346 0.783307 0.002379 -0.001825 -246375.000000 0 0 1
-0.204192 33.199515 34.014591 47.531483 -1.564646 0.773282 -0.024188 0.003727 1087920.000000 0 0 1
1.039608 34.012215 33.482474 47.738744 1.540240 0.793480 -0.005188 0.001835 781269.000000 0 0 1
0.768608 -33.875055 33.149290 47.402379 -1.548111 0.796355 0.009925 -0.001214 441132.000000 0 0 1
1.996608 -33.297655 32.728202 46.731739 -1.510906 0.794920 -0.005045 -0.009755 328038.000000 0 0 1
1.971308 -31.801655 32.322882 45.387223 -1.508888 0.778229 -0.004164 -0.001017 -261973.000000 0 0 1
1.645608 -31.072555 33.504368 45.724768 -1.517886 0.748457 -0.020642 0.010339 226679.000000 0 0 1
2.133408 -29.763655 33.406171 44.792844 -1.499240 0.729073 -0.003882 -0.005438 -298255.000000 0 0 1
1.750908 -28.953555 -34.467787 45.048888 -1.510397 2.442023 -0.000853 -0.007831 -746309.000000 0 0 1
0.395508 -28.777555 -34.249743 44.736439 -1.557054 2.442753 -0.017713 -0.000956 -783740.000000 0 0 1
0.217408 -27.924455 -33.119131 43.320887 -1.563011 2.441073 -0.029395 0.006429 -467199.000000 0 0 1
-1.248392 -27.556955 -32.886241 42.923759 1.525525 2.443633 -0.040108 0.017523 -434353.000000 0 0 1
-1.542092 -27.118055 -31.608061 41.675370 1.513992 2.431705 -0.034516 0.014039 -611684.000000 0 0 1
-2.714092 -26.388255 -31.685281 41.323883 1.468304 2.444567 -0.030221 0.010869 -943381.000000 0 0 1
-3.234392 -25.982655 -30.297181 40.043462 1.446951 2.428905 -0.030670 0.009075 -485440.000000 0 0 1
-3.810892 -26.978455 -29.497221 40.155273 1.430468 2.395842 -0.034459 0.013321 -102250.000000 0 0 1
-4.334392 -26.522655 -28.253581 38.993628 1.408806 2.381205 -0.025088 0.006057 -19544.200000 0 0 1
-3.455692 -25.800255 -27.157711 37.618296 1.437649 2.377381 -0.022679 0.004275 43426.900000 0 0 1
-3.094792 -24.519755 -27.673861 37.103082 1.445244 2.412628 -0.015707 0.006687 -104955.000000 0 0 1
-2.181292 -23.795555 -26.898831 35.979627 1.479384 2.415257 -0.007486 0.004406 -1696530.000000 0 0 1
-1.400992 -22.839555 -27.733911 35.955220 1.509533 2.451750 0.015975 0.012014 130642.000000 0 0 1
-0.482292 -23.420155 -28.665311 37.019404 1.550206 2.456455 -0.019471 0.006596 1311330.000000 0 0 1
0.518208 -24.421255 -28.295521 37.380513 -1.549580 2.429443 -0.023314 0.007155 554490.000000 0 0 1
1.430308 -24.817355 -29.514331 38.588115 -1.513227 2.441613 -0.035454 0.001845 241519.000000 0 0 1
2.334008 -23.796355 -29.916111 38.297360 -1.473026 2.467307 -0.010368 0.000883 147110.000000 0 0 1
3.104508 -24.352655 -30.966161 39.516995 -1.443999 2.471262 -0.003062 -0.000057 -343418.000000 0 0 1
4.075008 -23.305355 -31.576861 39.456855 -1.397693 2.498572 0.007860 -0.005761 -277502.000000 0 0 1
5.244908 -22.939455 -30.844871 38.796053 -1.346019 2.489889 0.020571 -0.006528 1628250.000000 0 0 1
6.420408 -23.797855 -30.934581 39.553860 -1.307281 2.468805 0.024978 -0.001680 1158850.000000 0 0 1
6.990808 -24.082355 -32.355821 40.935686 -1.288274 2.482268 0.021284 0.001583 -867637.000000 0 0 1
6.239608 -25.095755 -32.986311 41.914512 -1.327106 2.476712 -0.014606 -0.000105 84000.300000 0 0 1
6.656308 -25.356255 -34.342732 43.204969 -1.314077 2.489605 -0.004585 0.000558 85517.200000 0 0 1
6.298208 -24.229355 33.875746 42.122384 -1.316483 0.636431 -0.000085 0.004163 167328.000000 0 0 1
4.906308 -23.972355 33.833550 41.754698 -1.368919 0.626144 0.011111 -0.000752 -68377.300000 0 0 1
4.592508 -22.767955 33.197043 40.515609 -1.371758 0.610495 0.028583 -0.000383 -877573.000000 0 0 1
3.172608 -22.201055 33.352055 40.190943 -1.428854 0.591975 0.016304 -0.007655 -436547.000000 0 0 1
2.148908 -23.032155 32.891982 40.211695 -1.477765 0.612922 0.013865 -0.007073 -313555.000000 0 0 1
1.736508 -23.888755 33.958418 41.555532 -1.498233 0.614292 0.010811 0.000842 -220387.000000 0 0 1
0.331408 -24.512255 33.660507 41.641208 -1.557277 0.629459 0.008706 0.001092 550443.000000 0 0 1
0.313008 -25.437355 32.629712 41.374571 -1.558492 0.662200 0.024432 -0.001127 -538541.000000 0 0 1
-0.963492 -25.770155 32.169202 41.229683 1.533426 0.675741 0.016235 -0.008702 -275632.000000 0 0 1
-0.878992 -27.063955 31.313352 41.397540 1.538329 0.712995 0.024494 -0.014218 -171756.000000 0 0 1
-2.055192 -27.257355 30.588282 41.022313 1.495539 0.729287 0.015715 -0.019489 -203692.000000 0 0 1
-1.999092 -28.532955 29.987982 41.441585 1.500848 0.761763 0.023441 -0.015501 -311305.000000 0 0 1
-3.211092 -28.795455 29.081732 41.051632 1.459741 0.783541 0.020051 -0.011183 -516445.000000 0 0 1
-4.345592 -29.012655 29.872262 41.868489 1.422119 0.776346 0.016785 -0.010066 -344516.000000 0 0 1
-5.431692 -29.406555 29.055052 41.694661 1.388145 0.799796 0.008594 -0.006936 236668.000000 0 0 1
-6.628492 -29.900855 29.922012 42.817343 1.352642 0.797037 0.002596 -0.004239 -500260.000000 0 0 1
-7.833492 -30.150155 29.251132 42.732004 1.316601 0.816844 0.014449 -0.001712 -130450.000000 0 0 1
-8.950392 -30.444355 30.049952 43.703179 1.284861 0.812629 0.019239 -0.003314 -296003.000000 0 0 1
-8.887092 -31.729755 30.895102 45.169293 1.297707 0.817585 0.018140 0.002431 -859275.000000 0 0 1
-8.843792 -32.966355 30.185032 45.564563 1.308700 0.846689 0.027795 -0.000450 309527.000000 0 0 1
-10.123692 -33.358155 29.721112 45.810481 1.276146 0.864811 0.023073 0.001358 29460.100000 0 0 1
-10.049492 34.416815 29.140582 46.202630 -1.286701 0.888325 0.032860 0.004719 -487304.000000 0 0 1
-9.945992 33.471215 30.144702 46.129688 -1.281956 0.858627 0.034709 0.008410 247442.000000 0 0 1
-9.679992 32.155515 29.666902 44.808531 -1.278389 0.847203 0.031833 -0.002341 -421062.000000 0 0 1
-10.184992 31.101615 30.673192 44.854088 -1.254328 0.817778 0.035858 0.011621 1211780.000000 0 0 1
-11.617792 31.068715 30.859782 45.305235 -1.212957 0.821460 0.022129 0.023004 868673.000000 0 0 1
-12.116392 29.869215 31.443582 45.029722 -1.185430 0.797797 0.021094 0.015966 139434.000000 0 0 1
-12.158492 29.853115 32.990202 46.123647 -1.184032 0.773806 0.023566 -0.005565 -476307.000000 0 0 1
-13.121992 30.680415 33.573791 47.335758 -1.166642 0.782335 0.024912 0.006811 -150200.000000 0 0 1
-13.266692 30.389315 -34.214162 47.645823 -1.159177 2.371856 0.027062 -0.002888 -106251.000000 0 0 1
-14.555992 30.874115 -33.529571 47.846839 -1.130238 2.347271 0.025165 -0.000032 -153908.000000 0 0 1
-14.638992 30.321015 -32.233871 46.612085 -1.121003 2.334408 0.019049 -0.005286 302767.000000 0 0 1
-15.947792 30.484515 -31.697131 46.779759 -1.088805 2.315266 0.022746 -0.004500 467832.000000 0 0 1
-16.062092 29.823415 -30.255611 45.418376 -1.076768 2.299836 0.037171 -0.007414 -97720.900000 0 0 1
-15.918892 28.436415 -30.177191 44.415129 -1.060455 2.317789 0.029522 -0.013547 36211.300000 0 0 1
-15.901392 28.068615 -28.785451 43.235444 -1.055359 2.299340 0.025115 -0.009545 -400601.000000 0 0 1
-16.460392 26.672915 -28.609391 42.436849 -1.017884 2.310628 0.008248 -0.017306 -368266.000000 0 0 1
-17.833792 26.591415 -28.873841 43.114339 -0.980034 2.304606 0.013952 -0.011063 -425265.000000 0 0 1
-18.289792 25.265015 -28.662091 42.359803 -0.944198 2.313978 -0.003466 -0.013761 -322063.000000 0 0 1
-19.762892 24.995815 -28.970901 43.065947 -0.901784 2.308662 -0.004273 -0.004921 -651524.000000 0 0 1
-20.613692 25.525315 -28.007511 43.137996 -0.891451 2.277399 -0.006144 -0.000888 -81883.500000 0 0 1
-21.939992 25.051215 -28.199541 43.636461 -0.851510 2.273441 -0.003424 -0.006997 523381.000000 0 0 1
-22.910792 25.245415 -27.014071 43.497073 -0.833840 2.240884 0.018041 -0.015611 -23389.800000 0 0 1
-23.446892 26.520715 -26.879881 44.448094 -0.846837 2.220245 0.003100 0.003802 -613771.000000 0 0 1
-24.566492 26.618315 -26.050691 44.617101 -0.825463 2.194287 -0.003342 0.003764 -350951.000000 0 0 1
-24.419292 26.411615 -24.489401 43.515583 -0.824573 2.168533 -0.010469 0.010939 -1034830.000000 0 0 1
-24.123792 25.083515 -24.161901 42.366703 -0.804899 2.177672 -0.011345 0.007046 27963.100000 0 0 1
-25.205382 24.157515 -24.016001 42.375289 -0.764174 2.173347 -0.012592 0.005015 424486.000000 0 0 1
-26.129102 24.203515 -22.708801 42.240144 -0.747160 2.138399 -0.023485 0.006252 375775.000000 0 0 1
-25.591372 23.725315 -21.479601 40.977825 -0.747578 2.122544 -0.023774 0.010982 -174888.000000 0 0 1
-24.562992 24.544815 -20.980501 40.570555 -0.785028 2.114298 -0.004091 0.011181 -41375.800000 0 0 1
-23.671192 23.918015 -19.892501 39.091027 -0.790585 2.104675 0.003451 0.003990 -75691.300000 0 0 1
-24.291792 23.894515 -18.630901 38.834900 -0.777154 2.071162 0.012327 -0.002109 123401.000000 0 0 1
-23.382892 23.511215 -17.603101 37.542057 -0.788135 2.058830 0.021358 -0.006452 -45423.100000 0 0 1
-23.871592 23.653115 -16.163601 37.290545 -0.780801 2.019114 0.009961 -0.005894 -322789.000000 0 0 1
-24.123092 24.943115 -15.696001 38.084734 -0.802109 1.995591 0.006645 -0.013904 14260.600000 0 0 1
-24.303692 24.988315 -14.333101 37.689828 -0.799286 1.960907 -0.027448 -0.008697 396740.000000 0 0 1
-24.941692 26.415715 -13.879901 38.891254 -0.814092 1.935733 -0.020019 -0.007127 1146490.000000 0 0 1
-23.943692 27.476015 -13.918501 39.012260 -0.853986 1.935607 -0.004231 -0.005610 574014.000000 0 0 1
-23.953692 28.218315 -12.733901 39.143389 -0.866958 1.902140 -0.000950 -0.008322 140529.000000 0 0 1
-22.566792 28.771015 -12.289901 38.575550 -0.905666 1.895041 0.005553 -0.004784 -128012.000000 0 0 1
-21.872792 27.747015 -11.657401 37.204984 -0.903234 1.889493 0.005273 -0.007582 -823921.000000 0 0 1
-20.748692 28.274115 -11.041501 36.767493 -0.937718 1.875810 -0.005101 -0.000250 -771230.000000 0 0 1
-19.909492 27.252015 -10.285601 35.282485 -0.939847 1.866613 0.022495 -0.002737 139355.000000 0 0 1
-19.110692 26.429315 -11.163301 34.472402 -0.944743 1.900574 0.015541 -0.011544 434437.000000 0 0 1
-18.588692 25.300315 -10.524901 33.112218 -0.937145 1.894263 0.024841 0.001182 -455634.000000 0 0 1
-18.044692 24.315915 -11.522601 32.398225 -0.932374 1.934411 0.021079 -0.001950 -206829.000000 0 0 1
-17.517492 23.142915 -10.861701 30.990863 -0.922877 1.928881 0.003909 -0.001743 501843.000000 0 0 1
-16.725392 22.373315 -11.746501 30.303205 -0.928859 1.968858 0.018962 0.003763 10907.700000 0 0 1
-16.447392 20.945015 -11.136701 28.865836 -0.905105 1.966881 0.007917 0.017195 -209729.000000 0 0 1
-17.530792 20.065315 -11.219701 28.910677 -0.852711 1.969345 0.012564 0.019960 155760.000000 0 0 1
-17.033192 18.801215 -10.821101 27.581000 -0.834697 1.973969 0.025206 0.012489 -484223.000000 0 0 1
-18.177292 17.787815 -10.560601 27.538094 -0.774569 1.964369 0.024162 0.011377 318687.000000 0 0 1
-18.762992 17.214515 -11.770001 28.052136 -0.742385 2.003774 0.032769 0.011237 734958.000000 0 0 1
-19.672492 18.080315 -12.460801 29.481796 -0.743249 2.007176 0.026897 0.013227 -622153.000000 0 0 1
-20.297392 17.457915 -13.733701 30.089491 -0.710332 2.044773 0.029233 0.006241 -297331.000000 0 0 1
-19.469592 17.309415 -14.843801 29.983650 -0.726732 2.088704 0.039288 0.006352 139695.000000 0 0 1
-20.234292 16.844515 -15.944601 30.779775 -0.694231 2.115333 0.032224 0.011188 152116.000000 0 0 1
-19.344092 16.683015 -17.161501 30.773917 -0.711669 2.162365 0.045380 0.002755 -417820.000000 0 0 1
-18.715092 17.802915 -17.706601 31.316484 -0.760425 2.171725 0.032463 0.003312 476067.000000 0 0 1
-18.014192 17.483615 -18.927001 31.439136 -0.770453 2.216825 0.024317 0.008581 -492455.000000 0 0 1
-17.306392 18.716815 -19.504701 32.097722 -0.824531 2.223915 0.007656 0.010620 -558302.000000 0 0 1
-16.220192 19.070615 -18.684701 31.239415 -0.865993 2.211941 -0.000257 0.013016 -29556.500000 0 0 1
-15.448692 20.139315 -19.168001 31.806703 -0.916446 2.217602 0.008683 0.005291 5963.360000 0 0 1
32.160389 31.579715 2.212999 45.127225 0.776288 1.521738 0.009303 -0.010201 -28663.100000 0 0 1
33.406739 31.547415 1.551899 45.974537 0.756781 1.537034 0.026138 -0.009111 112389.000000 0 0 1
33.356959 31.957015 0.191799 46.194960 0.763967 1.566644 0.012687 -0.003180 230986.000000 0 0 1
34.744067 31.758715 -0.502701 47.074610 0.740538 1.581475 -0.000243 0.002413 780635.000000 0 0 1
-34.500074 32.672915 0.025799 47.516051 -0.758204 1.570253 -0.013192 0.007124 -182037.000000 0 0 1
-33.330592 32.549515 -0.729001 46.593248 -0.773543 1.586443 -0.003456 0.002785 -523012.000000 0 0 1
-32.291732 33.590115 -0.254201 46.595240 -0.805103 1.576252 -0.008417 0.008873 -320882.000000 0 0 1
-31.857782 33.337615 1.037399 46.123649 -0.808093 1.548303 -0.010884 0.012628 -103759.000000 0 0 1
-31.373112 34.575015 1.589899 46.714362 -0.833912 1.536755 -0.022044 0.011209 -294321.000000 0 0 1
-30.528322 34.249015 2.869599 45.969643 -0.842773 1.508332 -0.004089 0.013562 -79015.200000 0 0 1
-30.358632 -33.828355 3.629299 45.597981 0.839402 1.491119 -0.012272 0.019499 17002.900000 0 0 1
-29.792822 -34.116555 4.893199 45.557600 0.852949 1.463182 0.001120 0.006968 -425477.000000 0 0 1
-29.604142 -32.812155 5.671099 44.555629 0.836750 1.443169 0.009068 0.007992 -495332.000000 0 0 1
-30.657602 -32.225755 6.382599 44.934679 0.810330 1.428273 0.016130 0.003319 -388750.000000 0 0 1
-31.028332 -32.988355 7.530199 45.909615 0.816006 1.406030 0.015883 -0.002887 -130614.000000 0 0 1
-32.118202 -32.225255 8.440599 46.274071 0.787062 1.387365 0.026874 -0.002085 1196200.000000 0 0 1
-33.417672 -32.037455 7.909999 46.964959 0.764315 1.401566 0.014827 0.005946 287112.000000 0 0 1
-34.137564 -33.272855 7.733499 48.293510 0.772571 1.409969 0.015594 0.007955 -804978.000000 0 0 1
34.586098 -33.062555 7.450799 48.423601 -0.762881 1.416316 0.004554 0.016085 188759.000000 0 0 1
33.840559 -32.572955 8.572299 47.745839 -0.766314 1.390277 0.000801 0.024371 352851.000000 0 0 1
32.452569 -32.579555 8.292699 46.726497 -0.787351 1.392378 -0.013147 0.030513 397656.000000 0 0 1
31.550109 -32.671355 9.576799 46.417043 -0.802855 1.362983 -0.020440 0.023057 -491086.000000 0 0 1
30.179599 -32.542155 9.382999 45.363429 -0.823048 1.362452 -0.014409 0.016705 -249993.000000 0 0 1
29.385309 -32.365955 10.553699 44.971457 -0.833629 1.333912 -0.014747 0.027465 -22936.100000 0 0 1
29.513689 -31.000955 11.301699 44.270142 -0.809970 1.312649 -0.004077 0.023826 -535373.000000 0 0 1
28.900039 -29.807955 10.824699 42.905717 -0.800862 1.315750 -0.001809 0.016924 -128729.000000 0 0 1
29.575859 -29.243055 9.725599 42.713873 -0.779740 1.341090 -0.001793 0.012103 -116008.000000 0 0 1
29.148049 -27.847855 9.247699 41.359784 -0.762590 1.345299 -0.001471 0.000136 -79869.000000 0 0 1
29.489759 -27.621755 7.907399 41.172007 -0.752702 1.377538 0.008161 -0.012323 -123431.000000 0 0 1
28.948989 -26.391255 7.458999 39.877048 -0.739213 1.382638 0.014123 -0.014203 192934.000000 0 0 1
29.178569 -26.225955 5.942499 39.680006 -0.732157 1.420470 -0.005616 -0.003760 -357009.000000 0 0 1
30.416719 -25.614355 5.770999 40.181792 -0.699898 1.426676 0.006374 -0.005787 -773185.000000 0 0 1
30.461329 -25.098755 4.464799 39.721210 -0.689178 1.458155 -0.000065 -0.000477 -850221.000000 0 0 1
31.855779 -24.595055 4.167299 40.460768 -0.657480 1.467617 0.020791 -0.008015 -493412.000000 0 0 1
32.674549 -25.746755 3.933999 41.785139 -0.667366 1.476508 0.022640 0.001045 -436486.000000 0 0 1
34.044119 -25.424455 3.867799 42.665733 -0.641456 1.480018 0.036278 -0.008046 -296671.000000 0 0 1
34.810504 -26.713255 4.006999 44.061607 -0.654539 1.479730 0.041054 -0.006569 -647347.000000 0 0 1
34.559611 -27.355255 5.218999 44.383720 -0.669560 1.452936 0.027114 0.002595 -118762.000000 0 0 1
34.974163 -28.740055 5.255799 45.571990 -0.687864 1.455210 0.020859 0.003101 -682875.000000 0 0 1
34.177076 -29.649555 6.245499 45.674663 -0.714582 1.433628 0.026914 0.008766 1068460.000000 0 0 1
32.843179 -30.060355 5.927299 44.915835 -0.741187 1.438446 0.020296 0.012827 1018910.000000 0 0 1
31.859899 -29.022655 5.753199 43.479500 -0.738830 1.438087 0.016198 0.006706 -222691.000000 0 0 1
30.454939 -29.594555 5.465499 42.816033 -0.771071 1.442796 -0.014010 0.007633 -420468.000000 0 0 1
30.323289 -30.015555 4.133599 42.866327 -0.780298 1.474216 -0.029766 0.008675 233779.000000 0 0 1
29.068409 -29.726355 3.523499 41.725815 -0.796588 1.486252 -0.025272 0.008841 695185.000000 0 0 1
27.897769 -30.698355 3.838499 41.658235 -0.833157 1.478523 -0.007516 0.005344 55870.900000 0 0 1
28.028049 -31.877255 3.036099 42.555244 -0.849565 1.499391 -0.000497 0.018505 -645680.000000 0 0 1
27.249769 -32.954255 3.400099 42.896311 -0.879869 1.491450 0.008283 0.013725 -973262.000000 0 0 1
27.541279 -34.235955 2.546999 44.012610 -0.893345 1.512894 0.006791 0.006759 -96970.600000 0 0 1
27.124159 -34.256255 1.183299 43.710539 -0.901074 1.543722 0.012145 -0.007024 349970.000000 0 0 1
27.461439 33.757415 0.540899 43.519953 0.887882 1.558367 0.007450 0.001141 86280.900000 0 0 1
27.093569 33.914715 -0.922801 43.417980 0.896743 1.592052 0.006857 0.000809 110585.000000 0 0 1
28.095889 -34.620055 -1.614701 44.615406 -0.889053 1.606996 -0.008038 0.005028 304998.000000 0 0 1
27.667949 -34.543955 -2.980801 44.358600 -0.895477 1.638045 0.007628 0.002134 64488.600000 0 0 1
28.671929 -33.929555 -3.978701 44.599599 -0.869187 1.660124 -0.003666 0.005095 -25620.300000 0 0 1
28.609079 -32.539055 -3.953201 43.507439 -0.849580 1.661784 -0.008132 0.008496 91768.800000 0 0 1
29.330449 -32.039055 -5.060201 43.730789 -0.829506 1.686769 -0.017950 0.017369 -236833.000000 0 0 1
29.735889 -30.533755 -4.855301 42.896471 -0.798636 1.684226 -0.015270 0.015008 -468311.000000 0 0 1
28.737309 -29.565455 -5.111801 41.546114 -0.799601 1.694148 -0.023765 0.011466 -125085.000000 0 0 1
29.084899 -28.160555 -4.936501 40.783786 -0.769253 1.692135 -0.017897 -0.004650 -46625.400000 0 0 1
30.138899 -27.618855 -5.926301 41.307087 -0.741795 1.714762 -0.001771 -0.003368 1087450.000000 0 0 1
31.469589 -28.153255 -5.716201 42.610043 -0.729834 1.705353 -0.002233 0.002543 780053.000000 0 0 1
32.432639 -27.590455 -6.581101 43.086195 -0.704900 1.724139 0.002339 -0.005287 25219.200000 0 0 1
32.762979 -28.381655 -7.909001 44.062268 -0.713865 1.751270 -0.006020 0.002252 -502313.000000 0 0 1
31.673969 -28.442255 -8.819101 43.473885 -0.731692 1.775074 -0.013162 0.006920 111710.000000 0 0 1
31.617579 -29.687855 -9.483001 44.395578 -0.753931 1.786057 -0.021064 0.014256 195728.000000 0 0 1
31.384839 -31.034355 -8.724001 44.991638 -0.779783 1.765935 -0.027691 0.021412 -45936.900000 0 0 1
32.567279 -31.566755 -8.187901 46.088278 -0.769799 1.749401 -0.020509 0.011026 -480813.000000 0 0 1
32.224369 -32.852655 -7.694501 46.657392 -0.795052 1.736468 -0.014188 0.003118 407895.000000 0 0 1
33.387199 -33.707355 -7.101401 47.972083 -0.790170 1.719374 -0.010624 0.000496 38328.200000 0 0 1
33.091289 34.256115 -6.588501 48.082462 0.802692 1.708254 -0.015866 -0.003327 -395839.000000 0 0 1
32.457289 34.323715 -5.363401 47.543234 0.813339 1.683848 -0.003423 0.002423 -333138.000000 0 0 1
32.372289 32.888015 -4.757001 46.391979 0.793301 1.673516 -0.022644 0.001344 -286188.000000 0 0 1
31.459809 32.119815 -5.474301 45.292053 0.795779 1.691959 -0.005748 -0.015858 -229889.000000 0 0 1
31.671459 30.746115 -5.300001 44.457788 0.770574 1.690295 -0.007738 0.004531 518754.000000 0 0 1
30.462119 29.902215 -5.837601 43.083184 0.776123 1.706710 0.003873 -0.010730 393316.000000 0 0 1
30.235269 30.023115 -7.218801 43.216548 0.781877 1.738621 -0.008433 -0.008503 155640.000000 0 0 1
29.018149 29.362115 -7.556201 41.967642 0.791290 1.751832 -0.011092 -0.010697 469140.000000 0 0 1
28.874999 29.198715 -9.090801 42.059163 0.790972 1.788659 -0.003532 -0.009825 57471.500000 0 0 1
29.537689 27.999415 -9.529901 41.800255 0.758669 1.800806 0.002716 -0.006454 143558.000000 0 0 1
29.863739 27.952615 -10.875601 42.325764 0.752355 1.830661 -0.008062 -0.004650 399107.000000 0 0 1
31.146319 28.644115 -11.404501 43.825120 0.743573 1.834054 0.001817 -0.009652 -207368.000000 0 0 1
32.404549 28.217815 -10.926601 44.336108 0.716445 1.819811 -0.002244 -0.010387 -206516.000000 0 0 1
33.438189 29.042515 -11.347201 45.720227 0.715161 1.821605 -0.002311 -0.008932 -401093.000000 0 0 1
33.665459 30.418915 -10.616201 46.598039 0.734781 1.800640 -0.003796 -0.013061 -970267.000000 0 0 1
34.289881 30.325715 -9.368401 46.724853 0.724125 1.772666 -0.004805 -0.009195 154164.000000 0 0 1
34.106919 31.543115 -8.666001 47.258329 0.746365 1.755215 -0.010626 -0.010626 -435043.000000 0 0 1
-35.049687 31.743515 -7.535201 47.884346 -0.735940 1.728816 -0.014459 0.000084 792452.000000 0 0 1
-33.723532 31.933015 -8.016801 47.130278 -0.758134 1.741726 -0.001548 0.000496 366553.000000 0 0 1
-32.948662 30.751215 -8.199301 45.809170 -0.750915 1.750754 0.002665 -0.008296 -714116.000000 0 0 1
-31.495312 31.080815 -8.548501 45.067157 -0.778774 1.761636 0.023317 -0.008235 -746447.000000 0 0 1
-30.810412 31.577915 -7.419001 44.737990 -0.797700 1.737398 0.025660 -0.013068 950494.000000 0 0 1
-29.496562 32.123915 -7.738601 44.293104 -0.828010 1.746411 0.022855 -0.010949 1061970.000000 0 0 1
-29.381172 33.434415 -8.532501 45.320160 -0.849835 1.760198 0.011160 -0.004770 -714194.000000 0 0 1
-29.623292 34.617115 -7.747301 46.215849 -0.862979 1.739225 -0.001233 -0.008290 -348035.000000 0 0 1
-28.541502 -34.164855 -6.997901 45.064678 0.874836 1.726713 0.008566 -0.012623 -276168.000000 0 0 1
-28.805772 -32.790055 -6.413601 44.114560 0.849992 1.716699 -0.015164 -0.011527 424987.000000 0 0 1
-29.843652 -32.845555 -5.403801 44.706544 0.833247 1.691965 -0.011481 -0.012735 288952.000000 0 0 1
-29.476212 -33.268855 -4.108501 44.637916 0.845770 1.662967 -0.001172 -0.011717 -195560.000000 0 0 1
-30.625722 -33.368255 -3.082801 45.396904 0.828228 1.638756 -0.007051 -0.004007 11613.200000 0 0 1
-30.955512 -32.103955 -2.507401 44.667602 0.803608 1.626961 -0.020802 0.000609 -148642.000000 0 0 1
-32.092232 -32.161055 -1.681401 45.465062 0.786469 1.607787 -0.012663 0.008119 -304557.000000 0 0 1
-32.329442 -30.803255 -1.028001 44.666431 0.761229 1.593813 0.005179 0.004798 -809724.000000 0 0 1
-33.415302 -30.837255 -0.165201 45.470275 0.745296 1.574430 0.012383 0.006085 -849001.000000 0 0 1
-33.953162 -29.557855 -0.145201 45.016719 0.716303 1.574022 0.030375 0.003269 66575.400000 0 0 1
-35.087122 -29.407055 0.934699 45.790334 0.697554 1.550382 0.036267 0.008598 -534343.000000 0 0 1
33.963439 -30.053455 0.497199 45.353859 -0.724397 1.559833 0.004516 0.016607 -731567.000000 0 0 1
32.961249 -30.061655 1.451399 44.634668 -0.739422 1.538273 0.004114 0.009895 -484256.000000 0 0 1
32.132279 -28.777055 1.525799 43.161676 -0.730368 1.535438 -0.004267 0.013751 -1028730.000000 0 0 1
31.227679 -28.570355 0.429999 42.327509 -0.740989 1.560637 -0.017751 0.012669 -110420.000000 0 0 1
30.513069 -27.411755 0.697499 41.023630 -0.731909 1.553793 -0.019843 0.009345 -448088.000000 0 0 1
29.251089 -27.396155 -0.205801 40.077648 -0.752664 1.575931 -0.033806 -0.001344 685645.000000 0 0 1
28.122489 -28.145155 0.309099 39.788436 -0.785801 1.563028 -0.034365 0.006174 684004.000000 0 0 1
28.098409 -29.546555 0.064199 40.774056 -0.810515 1.569222 -0.021897 0.009235 -803416.000000 0 0 1
27.771689 -30.113955 -1.331401 40.986456 -0.825840 1.603286 -0.022294 0.005724 439986.000000 0 0 1
26.362479 -30.083855 -1.563901 40.030793 -0.851231 1.609874 -0.011219 0.015235 328088.000000 0 0 1
26.077619 -30.431555 -2.922601 40.182874 -0.862295 1.643593 -0.006226 0.016349 571855.000000 0 0 1
24.560519 -30.507555 -3.265101 39.301283 -0.892975 1.653971 -0.001149 0.017856 809842.000000 0 0 1
23.742519 -29.351455 -3.146501 37.882919 -0.890649 1.653951 0.012618 0.025025 -15638.800000 0 0 1
22.400119 -29.718355 -3.332301 37.363755 -0.924901 1.660100 0.016226 0.017786 -179553.000000 0 0 1
21.381719 -28.619055 -3.634001 35.908692 -0.929144 1.672171 0.011093 0.016705 -105829.000000 0 0 1
21.537719 -28.109355 -4.878101 35.746399 -0.917000 1.707688 0.017544 0.027119 59181.200000 0 0 1
21.151319 -26.751155 -4.886201 34.451089 -0.901771 1.713106 0.018094 0.017322 -232236.000000 0 0 1
20.508319 -26.326755 -6.203401 33.943650 -0.908997 1.754585 0.022408 -0.005438 317291.000000 0 0 1
19.262219 -26.933155 -6.530801 33.750248 -0.949951 1.765529 0.036955 -0.000192 -153284.000000 0 0 1
18.677619 -26.388555 -7.665801 33.226101 -0.954860 1.803610 0.054834 -0.000886 42129.400000 0 0 1
17.134219 -26.471755 -7.604101 32.436979 -0.996347 1.807425 0.052555 -0.006938 97555.600000 0 0 1
16.622819 -25.579455 -6.644101 31.221318 -0.994526 1.785243 0.034022 -0.002195 -204951.000000 0 0 1
15.214219 -25.553355 -6.733501 30.492400 -1.033773 1.793457 0.033816 -0.005767 116978.000000 0 0 1
14.521019 -24.779355 -5.596601 29.260867 -1.040725 1.763248 0.019549 0.006507 -217272.000000 0 0 1
14.561919 -25.452755 -4.329201 29.641764 -1.051132 1.717371 0.009129 0.006733 114958.000000 0 0 1
14.116619 -24.542455 -3.353201 28.510612 -1.048818 1.688682 0.000742 0.023164 -373975.000000 0 0 1
14.017019 -25.159155 -1.956601 28.866731 -1.062492 1.638629 0.008172 0.014280 32047.500000 0 0 1
13.220619 -26.347655 -1.878601 29.538328 -1.105729 1.634438 0.011795 0.007059 472793.000000 0 0 1
14.025819 -27.543855 -1.903901 30.967925 -1.099802 1.632315 0.020130 0.000768 84181.700000 0 0 1
13.255519 -28.895155 -2.088001 31.859041 -1.140694 1.636382 0.027166 0.007485 130049.000000 0 0 1
12.344419 -29.194255 -1.041701 31.713945 -1.170759 1.603649 0.029715 -0.006778 -151073.000000 0 0 1
11.662719 -30.418555 -1.277401 32.602749 -1.204675 1.609987 0.031422 -0.013407 -217296.000000 0 0 1
12.308019 -31.764755 -0.813401 34.075630 -1.201135 1.594669 0.026674 -0.007109 -1186740.000000 0 0 1
13.470819 -31.960155 -1.496901 34.715345 -1.171904 1.613929 0.027652 -0.003734 -1571720.000000 0 0 1
14.017819 -33.262855 -1.256101 36.117787 -1.171957 1.605581 0.025317 -0.002600 -712265.000000 0 0 1
15.430219 -33.272555 -1.842501 36.722600 -1.136565 1.620991 0.022810 0.004528 -562636.000000 0 0 1
16.207019 -32.299855 -1.178601 36.157118 -1.105736 1.603399 0.021397 0.015985 -117795.000000 0 0 1
17.353219 -31.952055 -1.939001 36.411917 -1.073265 1.624073 0.024965 0.015492 329231.000000 0 0 1
18.164619 -30.778355 -1.310101 35.762786 -1.037632 1.607438 0.020703 0.015300 -49366.600000 0 0 1
17.488919 -29.576555 -1.415501 34.389512 -1.036791 1.611969 0.023675 0.022783 -61119.500000 0 0 1
18.070319 -28.595455 -0.592801 33.831758 -1.007229 1.588319 0.011010 0.026411 -21280.600000 0 0 1
17.691319 -27.097055 -0.909101 32.373749 -0.992394 1.598881 0.005341 0.026855 -308244.000000 0 0 1
18.363219 -26.529655 -2.011501 32.327643 -0.965340 1.633059 0.011228 0.021683 -21788.400000 0 0 1
17.786019 -26.799455 -3.248401 32.328089 -0.984871 1.671449 0.016904 0.021424 -307169.000000 0 0 1
31.808519 -29.716355 14.094099 45.754642 -0.751406 1.257668 0.001178 0.003329 -37538.000000 0 0 1
32.433209 -30.079355 15.309499 46.808775 -0.747762 1.237601 0.001309 0.005106 -101228.000000 0 0 1
31.616569 -30.743255 16.239899 46.994568 -0.771395 1.217951 0.001745 0.017556 -159980.000000 0 0 1
32.347739 -30.970255 17.612999 48.122247 -0.763647 1.196083 0.000166 0.016973 -601556.000000 0 0 1
31.599689 -31.528255 18.640199 48.373838 -0.784267 1.175224 -0.005654 0.016208 -93881.200000 0 0 1
32.351059 -31.897755 19.810699 49.563309 -0.778343 1.159601 -0.009848 0.016070 326535.000000 0 0 1
33.212419 -33.228255 19.735599 50.957586 -0.785637 1.173101 -0.012021 0.016268 409275.000000 0 0 1
34.127529 -33.244655 18.639199 51.159701 -0.772294 1.197879 -0.002574 0.021638 15638.500000 0 0 1
34.753695 -34.504455 18.680599 52.415088 -0.781799 1.206387 0.015002 0.010819 198916.000000 0 0 1
-34.206878 -34.569555 17.739999 51.767481 0.790671 1.221022 0.008581 0.018007 308458.000000 0 0 1
-33.176612 -33.763355 18.264099 50.736860 0.794163 1.202553 0.002243 0.013764 -84129.000000 0 0 1
-32.123282 -33.659755 17.320799 49.647703 0.808751 1.214427 0.007299 0.012023 139879.000000 0 0 1
-30.947012 -32.756555 17.872599 48.478234 0.813796 1.193216 0.007593 0.007264 390725.000000 0 0 1
-29.797252 -32.652155 17.078299 47.388898 0.831082 1.202115 0.016490 0.003381 -200408.000000 0 0 1
-30.026812 -31.888855 15.851399 46.580847 0.815463 1.223562 0.020935 -0.003004 108144.000000 0 0 1
-28.809682 -31.877055 14.845499 45.459138 0.835900 1.238126 0.015686 -0.012742 876546.000000 0 0 1
-27.600122 -31.388155 15.434499 44.555659 0.849527 1.217056 0.018844 -0.014595 -179799.000000 0 0 1
-26.676192 -31.382455 14.366399 43.621910 0.866282 1.235193 0.016850 -0.007800 8629.770000 0 0 1
-25.275012 -30.966055 14.888199 42.654205 0.886245 1.214245 0.017327 -0.010612 295399.000000 0 0 1
-24.278692 -31.049655 13.880699 41.787674 0.907171 1.232191 0.020452 -0.007257 -145968.000000 0 0 1
-23.038492 -30.703955 14.491699 41.030650 0.927076 1.209815 0.018002 0.001030 583606.000000 0 0 1
-21.821492 -30.650955 13.510899 39.977530 0.952105 1.226045 0.013938 0.007094 549059.000000 0 0 1
-21.442292 -31.981055 13.121399 40.678383 0.980166 1.242359 0.009317 0.001747 -32261.600000 0 0 1
-20.289192 -31.913555 12.306599 39.769066 1.004501 1.256180 -0.004603 0.000732 276100.000000 0 0 1
-19.729592 -33.302255 11.994899 40.523753 1.035954 1.270297 0.008786 0.010421 212494.000000 0 0 1
-20.617392 -33.871955 11.032499 41.159472 1.024014 1.299435 0.006745 0.010094 429321.000000 0 0 1
-20.578792 33.959015 10.936699 41.186318 -1.025985 1.302030 0.007897 0.018607 -36142.600000 0 0 1
-21.661192 33.356215 10.016899 41.014419 -0.994850 1.324072 -0.000620 0.018987 -424571.000000 0 0 1
-21.386392 33.463315 8.643999 40.643449 -1.002122 1.356481 -0.004431 0.012748 21119.900000 0 0 1
-22.525792 33.341915 7.800399 40.987081 -0.976635 1.379315 0.008410 0.003950 -378767.000000 0 0 1
-22.364192 33.696515 6.252899 40.923232 -0.984854 1.417400 0.012296 0.008591 -129122.000000 0 0 1
-21.485192 32.896115 5.481899 39.671389 -0.992229 1.432170 0.007636 0.004198 1321190.000000 0 0 1
-20.060292 33.016815 5.699299 39.051343 -1.024823 1.424329 -0.001112 0.004923 1670130.000000 0 0 1
-19.221392 34.367715 5.331799 39.737008 -1.060852 1.436213 0.007956 0.006489 145944.000000 0 0 1
-19.400592 -33.816255 6.220199 39.479272 1.049935 1.412581 -0.000231 0.006848 213971.000000 0 0 1
-18.781692 -33.988055 7.486699 39.547319 1.065962 1.380337 0.001080 0.013300 -178433.000000 0 0 1
-18.575592 -32.756555 8.434799 38.590029 1.054934 1.350443 0.003662 0.011360 77317.600000 0 0 1
-17.651792 -31.767955 7.945099 37.200985 1.063627 1.355566 -0.006853 0.008529 167694.000000 0 0 1
-17.700992 -30.530655 8.695399 36.346333 1.045379 1.329216 -0.003529 0.012248 173238.000000 0 0 1
-17.151392 -30.572655 10.156299 36.496683 1.059544 1.288793 -0.004198 0.016638 978994.000000 0 0 1
-15.813092 -31.121955 10.170299 36.360210 1.100689 1.287305 0.002551 0.007470 701112.000000 0 0 1
-15.232192 -31.053955 11.479499 36.443746 1.114772 1.250348 0.001489 0.005747 339292.000000 0 0 1
-13.794692 -31.638755 11.471499 36.371687 1.159640 1.249922 0.005482 0.001747 67655.600000 0 0 1
-12.858192 -30.782955 10.866999 35.085824 1.175121 1.255891 -0.011197 0.009616 -272375.000000 0 0 1
-11.820092 -31.564755 10.279099 35.237880 1.212489 1.274786 -0.002875 0.019513 182034.000000 0 0 1
-10.682492 -30.660155 9.733399 33.895424 1.235533 1.279536 -0.005697 0.023332 237729.000000 0 0 1
-9.991592 -30.023955 10.838199 33.447516 1.249537 1.240804 0.003818 0.010991 -260418.000000 0 0 1
-9.162592 -29.019555 10.311699 32.131274 1.264964 1.244091 0.001770 0.015943 -84668.400000 0 0 1
-8.499092 -28.287455 11.504899 31.698223 1.278923 1.199364 0.007417 0.020866 300205.000000 0 0 1
-9.398692 -27.446355 12.210799 31.476045 1.240874 1.172401 0.016408 0.006926 -10566.900000 0 0 1
-8.798492 -27.014055 13.405899 31.414817 1.255931 1.129913 0.015857 0.007229 28281.300000 0 0 1
-9.263192 -25.634855 13.883799 30.589416 1.224045 1.099686 0.013345 -0.000921 -148344.000000 0 0 1
-8.841392 -24.522255 13.120999 29.183416 1.224758 1.104474 0.020215 -0.001461 -15299.600000 0 0 1
-9.632992 -24.148955 12.003799 28.636650 1.191240 1.138259 0.016358 0.001409 36155.500000 0 0 1
-9.092492 -22.879155 11.307099 27.092058 1.192521 1.140260 0.007740 -0.005176 630715.000000 0 0 1
-7.827192 -23.039355 10.657399 26.564204 1.243299 1.157976 0.007225 -0.008083 484007.000000 0 0 1
-7.347992 -21.775955 10.168399 25.131286 1.245358 1.154243 0.003335 -0.003671 283709.000000 0 0 1
-6.181292 -21.929755 9.159899 24.556593 1.296056 1.188543 0.004456 -0.006064 761981.000000 0 1 0
-4.993992 -22.540855 9.656899 25.025702 1.352765 1.174636 0.007483 -0.009219 183947.000000 0 0 1
-3.858292 -22.321155 8.861899 24.323931 1.399634 1.197885 0.005738 -0.008099 532767.000000 0 1 0
-2.536292 -23.028355 9.271199 24.953818 1.461101 1.190135 0.015960 -0.012569 376706.000000 0 1 0
-2.051092 -22.594155 10.491899 24.995654 1.480265 1.137628 0.008993 -0.007910 -613471.000000 0 1 0
-1.123392 -23.508355 10.988099 25.973892 1.523046 1.133994 0.017050 -0.007928 -40904.500000 0 0 1
-0.093192 -23.021555 12.006099 25.964342 1.566748 1.090088 0.013539 -0.001632 -149132.000000 0 0 1
-0.758492 -22.764055 13.232099 26.341335 1.537489 1.044503 0.002539 -0.001895 -246804.000000 0 0 1
0.003908 -22.351855 14.333799 26.553026 -1.570621 1.000576 0.001857 -0.002661 -306701.000000 0 0 1
0.603708 -20.918855 14.236599 25.310940 -1.541945 0.973428 -0.012350 -0.008372 -300411.000000 0 0 1
1.775308 -20.936255 13.480299 24.963913 -1.486203 1.000369 0.002618 -0.010864 -696570.000000 0 1 0
2.085908 -19.650555 12.938199 23.619744 -1.465042 0.991099 -0.000130 -0.013563 1060110.000000 0 1 0
3.569908 -19.452755 12.430999 23.359872 -1.389299 1.009656 0.014436 -0.018232 1005580.000000 0 1 0
3.826508 -19.977055 11.126499 23.184561 -1.381543 1.070244 0.018759 -0.012477 -659225.000000 0 1 0
5.185508 -20.298255 11.000599 23.662667 -1.320680 1.087283 0.034610 -0.009630 -39342.800000 0 1 0
5.628708 -21.202855 9.821999 24.035704 -1.311312 1.149831 0.038530 -0.018689 -376379.000000 0 1 0
5.593608 -20.547255 8.544599 22.945333 -1.305006 1.189214 0.036650 -0.015290 -242184.000000 0 1 0
6.036808 -21.331755 7.408099 23.374489 -1.295011 1.248304 0.037947 -0.020341 538413.000000 0 1 0
7.568808 -21.628555 7.263299 24.038235 -1.234170 1.263843 0.034433 -0.012015 436959.000000 0 1 0
8.365208 -20.526755 6.889899 23.211960 -1.183818 1.269430 0.040142 -0.020271 -206790.000000 0 1 0
8.760108 -19.609855 7.959999 22.905184 -1.150674 1.215872 0.045198 -0.010715 -46283.400000 0 1 0
9.624608 -19.995755 9.128299 23.995606 -1.122194 1.180551 0.042967 -0.008892 -129792.000000 0 1 0
8.810308 -20.377555 10.249399 24.452330 -1.162714 1.138278 0.054731 -0.008908 -379356.000000 0 1 0
9.433908 -20.141155 11.506199 25.041113 -1.132755 1.093373 0.052895 -0.000323 -380805.000000 0 0 1
8.668508 -20.341355 12.799599 25.548845 -1.167950 1.046059 0.058190 -0.005214 -321024.000000 0 0 1
8.525608 -21.698955 13.102599 26.743387 -1.196422 1.058778 0.049069 -0.011506 -327105.000000 0 0 1
7.894508 -21.862255 14.323599 27.302874 -1.224265 1.018529 0.052773 -0.003878 -57536.400000 0 0 1
7.896508 -23.351655 14.775399 28.739642 -1.244711 1.030824 0.045351 -0.017308 -40086.200000 0 0 1
7.317908 -24.322655 13.924799 28.966245 -1.278543 1.069315 0.047343 -0.012644 -359751.000000 0 0 1
7.254308 -25.598055 14.504099 30.302711 -1.294644 1.071691 0.042754 -0.011757 240375.000000 0 0 1
7.225808 -26.737055 13.449299 30.789057 -1.306847 1.118735 0.035077 -0.019680 -423649.000000 0 0 1
8.467008 -26.850955 12.843399 30.945386 -1.265332 1.142816 0.032142 -0.019610 -739040.000000 0 0 1
8.558008 -27.952555 12.040999 31.615984 -1.273696 1.180079 0.024700 -0.011917 421872.000000 0 0 1
10.000808 -28.224655 11.493099 32.073955 -1.230270 1.204317 0.018774 -0.014381 177332.000000 0 0 1
10.774008 -28.885655 12.447199 33.247452 -1.213791 1.187068 0.015589 -0.016433 -338951.000000 0 0 1
11.888508 -29.442255 11.777799 33.865905 -1.187026 1.215597 0.023914 -0.010549 -244848.000000 0 0 1
12.697708 -30.377655 12.680699 35.282203 -1.174874 1.203163 0.010485 -0.009613 -537729.000000 0 0 1
13.458708 -29.713255 13.673999 35.369373 -1.145489 1.173848 0.017020 -0.010424 313929.000000 0 0 1
14.319508 -30.575955 14.427899 36.716503 -1.132808 1.166954 0.020539 -0.010285 1039700.000000 0 0 1
15.753408 -30.709955 13.799799 37.171301 -1.096823 1.190443 0.018543 -0.003194 9479.160000 0 0 1
16.463508 -29.533855 13.911799 36.562738 -1.062255 1.180469 0.024372 -0.008359 -399803.000000 0 0 1
17.761508 -29.596755 13.377699 37.018940 -1.030291 1.201055 0.014314 -0.000136 -111624.000000 0 0 1
18.565508 -28.278655 13.534499 36.435464 -0.989851 1.190210 0.009482 -0.002868 1010340.000000 0 0 1
19.801008 -28.273155 12.757899 36.799663 -0.959838 1.216762 0.005472 -0.002935 933089.000000 0 0 1
20.447308 -27.030455 12.814599 36.234677 -0.923177 1.209320 0.001456 0.000219 810035.000000 0 0 1
21.845508 -27.010855 12.074799 36.777891 -0.890732 1.236275 0.011674 0.006483 1143770.000000 0 0 1
22.878108 -27.608255 12.840199 38.085355 -0.878817 1.226916 0.023033 0.003470 -245779.000000 0 0 1
23.846208 -28.253755 12.094399 38.899753 -0.869795 1.254644 0.010474 -0.009571 -877473.000000 0 0 1
24.916708 -29.021555 12.925999 40.375419 -0.861354 1.244914 0.008479 -0.003566 159637.000000 0 0 1
25.952008 -28.275555 13.518499 40.691074 -0.828220 1.232137 0.002819 -0.005221 474612.000000 0 0 1
26.990408 -28.004655 12.556899 40.870754 -0.803839 1.258511 -0.013415 -0.003333 -457519.000000 0 0 1
28.337908 -27.513155 13.109499 41.615738 -0.770632 1.250326 0.013257 -0.019540 -245163.000000 0 0 1
28.407308 -26.155955 13.502899 40.907669 -0.744160 1.234406 0.025134 -0.020683 -283590.000000 0 0 1
27.599108 -25.701855 14.555499 40.424728 -0.749818 1.202460 0.018121 -0.021966 -1023580.000000 0 0 1
28.286108 -25.618955 15.888399 41.338553 -0.735960 1.176295 0.010867 -0.002725 -663675.000000 0 0 1
28.665108 -26.860455 16.404699 42.570960 -0.752908 1.175210 0.020500 -0.001334 17362.800000 0 0 1
29.142708 -26.606755 17.716799 43.256234 -0.739941 1.148805 0.022944 0.016914 -155720.000000 0 0 1
29.587708 -27.883155 18.437799 44.641407 -0.755747 1.145029 0.006427 0.030855 163633.000000 0 0 1
28.497608 -28.754855 18.787599 44.631034 -0.789891 1.136300 0.007965 0.021967 415881.000000 0 0 1
28.951208 -29.937355 19.461499 45.969203 -0.802143 1.133646 0.005371 0.011305 -224304.000000 0 0 1
27.793808 -30.841055 19.910799 46.044612 -0.837321 1.123617 0.004626 0.015420 -852441.000000 0 0 1
27.042508 -30.192355 20.952699 45.627745 -0.840376 1.093691 0.006343 0.011569 1811040.000000 0 0 1
25.804808 -30.832055 21.430199 45.560478 -0.873929 1.081088 0.001060 0.004872 1705240.000000 0 0 1
24.717608 -31.158855 20.398199 44.698108 -0.900168 1.096902 0.036318 -0.000583 -888940.000000 0 0 1
25.097408 -32.338155 19.666799 45.413865 -0.910804 1.122915 0.021327 0.001685 138025.000000 0 0 1
24.373608 -32.513255 18.462199 44.632245 -0.927518 1.144335 0.035880 0.003544 -224539.000000 0 0 1
24.832208 -31.511555 17.367499 43.717807 -0.903394 1.162263 0.036895 0.009442 745722.000000 0 0 1
26.174608 -31.743155 16.923099 44.487406 -0.881249 1.180565 0.009275 0.005741 695433.000000 0 0 1
26.625008 -30.722855 16.021799 43.697630 -0.856733 1.195389 0.013987 -0.002595 -145719.000000 0 0 1
27.926508 -31.098655 15.301099 44.509997 -0.839089 1.219870 0.012383 0.001904 -469832.000000 0 0 1
27.854308 -32.179455 14.356099 44.916337 -0.857319 1.245469 0.027254 0.006034 199534.000000 0 0 1
28.001808 -33.505555 14.881499 46.132228 -0.874642 1.242339 0.021288 0.003302 98568.300000 0 0 1
27.180408 -34.546655 14.035099 46.143580 -0.904172 1.261738 0.032406 -0.000327 260413.000000 0 0 1
27.705908 34.611415 12.728799 46.125803 0.895760 1.291210 0.035014 0.004805 444569.000000 0 0 1
26.991608 33.567115 12.052499 44.727630 0.893555 1.297960 0.023358 -0.003398 -242902.000000 0 0 1
27.424708 33.274015 10.605599 44.404430 0.881468 1.329624 0.026560 -0.006914 53526.500000 0 0 1
28.659308 32.560815 10.630499 44.660611 0.849041 1.330461 0.001870 -0.005243 452150.000000 0 0 1
28.951808 31.797015 9.472199 44.033850 0.832200 1.353990 0.001049 -0.014259 -754359.000000 0 0 1
30.330808 31.179115 9.483399 44.519996 0.799189 1.356137 -0.014211 -0.006614 -720874.000000 0 0 1
30.581808 30.187215 10.443499 44.221959 0.778905 1.332383 -0.030089 -0.001690 -532793.000000 0 0 1
31.917008 30.103315 10.836699 45.192245 0.756163 1.328646 -0.009518 0.002715 -376409.000000 0 0 1
32.209808 29.416115 12.174299 45.287892 0.740096 1.298628 -0.003650 0.013896 -227208.000000 0 0 1
32.081408 28.009015 12.010099 44.248889 0.717731 1.295927 -0.015089 0.003523 121284.000000 0 0 1
32.009908 27.278915 13.186599 44.075615 0.705771 1.266962 0.006370 -0.010443 -51463.800000 0 0 1
31.634808 25.818615 12.909499 42.825426 0.684509 1.264589 0.003059 -0.007139 969586.000000 0 0 1
32.798808 25.144915 12.320299 43.125611 0.654067 1.281076 0.009665 0.009534 947310.000000 0 0 1
32.714608 23.844215 11.908499 42.197210 0.629831 1.284699 0.006616 0.003321 320491.000000 0 0 1
31.537708 23.457415 10.897899 40.787763 0.639515 1.300325 -0.005296 -0.000860 1057440.000000 0 0 1
30.310008 23.307815 11.581899 39.951111 0.655539 1.276672 -0.007192 -0.000331 -799499.000000 0 0 1
29.277508 22.949015 10.719899 38.713641 0.664812 1.290227 -0.010494 0.003241 -125398.000000 0 0 1
28.000408 22.596715 11.532599 37.784061 0.679003 1.260623 -0.027297 0.011427 100401.000000 0 0 1
27.675808 23.572815 12.487799 38.439213 0.705508 1.239921 -0.023514 0.007798 -219391.000000 0 0 1
26.810008 23.065015 13.468599 37.844083 0.710451 1.206922 0.008120 0.007933 -305716.000000 0 0 1
23.898408 9.394315 26.646252 37.005538 0.374539 0.766906 0.002974 0.009144 -419857.000000 0 0 1
23.468408 8.049915 26.715192 36.459139 0.330435 0.748452 0.010623 -0.005397 1803900.000000 0 0 1
22.009408 8.063115 26.881862 35.665984 0.351164 0.717105 0.023100 -0.005413 1667260.000000 0 0 1
21.500108 6.728115 27.443842 35.506150 0.303280 0.687347 0.043677 -0.018572 -295748.000000 0 0 1
21.708308 6.517715 28.848032 36.687058 0.291677 0.665955 0.038644 -0.014648 317703.000000 0 0 1
23.001808 5.981315 29.069662 37.548696 0.254402 0.685369 0.025265 -0.010019 20968.000000 0 0 1
23.358708 5.868515 30.582672 38.927735 0.246140 0.667088 0.029568 -0.013225 -182031.000000 0 0 1
23.571108 7.074915 31.201302 39.738808 0.291596 0.667843 0.029844 -0.005408 215687.000000 0 0 1
23.468508 6.962215 32.621732 40.785055 0.288392 0.643759 0.019195 0.002673 -371488.000000 0 0 1
23.347708 8.240315 33.527240 41.678461 0.339291 0.636088 0.051183 0.006802 -349749.000000 0 0 1
24.518108 8.954515 33.770927 42.682508 0.350169 0.658007 0.025243 0.006458 -649007.000000 0 0 1
24.419908 9.810415 -34.231535 43.178399 0.382004 2.486174 0.044182 0.007690 -10116.800000 0 0 1
25.465008 10.923815 -34.221157 44.032760 0.405231 2.460960 0.030107 0.009241 -202943.000000 0 0 1
24.955808 12.133315 34.450718 44.236430 0.452540 0.678068 0.019180 0.004042 148525.000000 0 0 1
25.058508 13.138015 -33.663001 43.974242 0.482893 2.442640 0.009634 0.008320 -136631.000000 0 0 1
24.559708 14.535115 -34.111205 44.474972 0.534389 2.444910 0.011780 0.011022 -579202.000000 0 0 1
25.503608 15.136815 34.187802 45.258845 0.535639 0.714557 0.006600 0.003518 77784.200000 0 0 1
25.123308 16.442515 33.809939 45.217794 0.579513 0.726185 0.015199 0.007692 -29487.500000 0 0 1
25.840008 17.505815 -34.475578 46.505108 0.595444 2.405845 0.004721 0.000096 174498.000000 0 0 1
25.357108 17.500415 -33.142501 45.251219 0.604090 2.392653 0.009182 -0.007203 738596.000000 0 0 1
26.415108 17.007215 -32.307551 45.064190 0.572036 2.370175 -0.002466 -0.008102 195785.000000 0 0 1
25.796608 16.460315 -31.006611 43.563941 0.567950 2.362782 0.001858 -0.006241 -184285.000000 0 0 1
25.198208 15.225515 -31.175461 42.879778 0.543524 2.384802 0.006286 0.001180 -25.800000 0 0 1
24.422008 14.982115 -29.989701 41.476264 0.550263 2.379014 0.030129 -0.017510 188234.000000 0 0 1
23.422608 13.835615 -30.182991 40.633186 0.533549 2.408063 0.035667 -0.015840 -331293.000000 0 0 1
22.318208 13.966115 -31.062761 40.719159 0.559154 2.438512 0.033892 -0.013717 566960.000000 0 0 1
21.586008 12.777915 -31.373651 40.168854 0.534482 2.467133 0.026716 0.005078 106986.000000 0 0 1
20.745308 12.155715 -30.270541 38.657921 0.530025 2.470328 0.031153 0.014338 -908915.000000 0 0 1
19.550508 12.840915 -30.007481 38.046819 0.581146 2.479486 0.048835 0.007877 -499183.000000 0 0 1
18.718108 12.078815 -29.172091 36.705262 0.573065 2.489418 0.046137 0.016618 -654770.000000 0 0 1
17.376908 12.783115 -29.016681 36.157057 0.634246 2.502300 0.038487 -0.000211 -860718.000000 0 0 1
16.642308 12.807215 -30.213751 36.794863 0.655901 2.534203 0.018850 0.001324 -140027.000000 0 0 1
15.532108 13.654315 -30.000991 36.438252 0.721149 2.538064 0.027571 -0.009464 -561099.000000 0 0 1
14.566208 13.770015 -31.169301 37.058239 0.757307 2.570091 0.017470 -0.008781 -193707.000000 0 0 1
13.847508 12.664515 -31.646351 36.791779 0.740807 2.606355 0.006829 -0.002627 34319.100000 0 0 1
12.572108 12.481715 -31.071861 35.767467 0.781790 2.623406 0.011492 -0.003963 -65068.900000 0 0 1
11.453108 11.909715 -31.953821 35.973069 0.804940 2.664363 0.012687 -0.001633 -22719.900000 0 0 1
11.174408 12.804215 -32.954931 37.078873 0.853263 2.665471 0.020927 0.000439 563680.000000 0 0 1
10.185908 12.180615 -33.831591 37.372405 0.874346 2.702778 0.030441 -0.001125 705705.000000 0 0 1
9.770508 13.053315 34.059729 37.761316 0.928251 0.446477 0.042382 0.000574 825047.000000 0 0 1
10.804308 13.240215 33.057072 37.212987 0.886362 0.477121 0.032138 0.015825 1022030.000000 0 0 1
10.167808 13.450815 31.791872 35.986552 0.923514 0.487647 0.039553 -0.004631 -200944.000000 0 0 1
11.093008 13.271115 30.591812 35.143083 0.874559 0.514593 0.038018 0.000250 -529128.000000 0 0 1
11.428508 11.902215 30.416062 34.603618 0.805699 0.497067 0.026811 0.002603 -90511.400000 0 0 1
11.589308 11.621615 29.019442 33.339197 0.786790 0.514721 0.030126 0.005920 -23089.300000 0 0 1
12.043608 10.159015 28.653292 32.699622 0.700720 0.502757 0.032563 0.003827 -142987.000000 0 0 1
11.127508 9.144715 28.950562 32.335465 0.687900 0.461649 0.034416 -0.001180 -287980.000000 0 0 1
11.765908 7.937615 28.853122 32.155015 0.593494 0.457152 0.024439 -0.006702 -953763.000000 0 0 1
10.824308 6.783615 28.868842 31.568864 0.559822 0.416595 0.021720 -0.013711 -583057.000000 0 0 1
9.980508 6.858515 27.716262 30.246338 0.602077 0.411927 0.020935 -0.009716 22137.400000 0 0 1
8.918808 5.927615 27.655042 29.656081 0.586584 0.369453 0.012810 -0.015866 -157926.000000 0 0 1
9.281508 4.467115 27.226852 29.110187 0.448569 0.361681 0.015898 -0.007634 -593707.000000 0 0 1
10.005308 3.743915 28.177542 30.134648 0.358063 0.362383 0.014495 -0.007416 34628.000000 0 0 1
10.292008 2.439015 27.734692 29.683116 0.232689 0.364340 0.010429 -0.001811 -423540.000000 0 0 1
11.068708 1.640815 28.774982 30.874070 0.147167 0.370873 -0.005904 -0.002482 -513718.000000 0 0 1
10.227108 1.435415 29.848322 31.584435 0.139443 0.333102 -0.007970 0.005902 -226506.000000 0 0 1
10.529208 0.310915 30.697132 32.454196 0.029520 0.330562 -0.006787 0.003584 20406.100000 0 0 1
9.519508 0.196115 31.851342 33.244060 0.020598 0.290481 0.002270 0.003611 120376.000000 0 0 1
9.694808 1.214215 32.795102 34.219620 0.124595 0.289554 -0.007508 -0.002984 222479.000000 0 0 1
8.479008 1.457215 33.489992 34.577401 0.170199 0.251455 -0.001160 -0.004273 177387.000000 0 0 1
8.407108 2.788315 34.292014 35.417459 0.320245 0.252770 0.005175 -0.011949 -419732.000000 0 0 1
8.426808 4.021715 33.607568 34.880567 0.445285 0.270999 0.004714 -0.011796 -38633.200000 0 0 1
9.562808 4.248015 32.807562 34.435869 0.418039 0.308748 -0.003571 -0.008371 -266868.000000 0 0 1
9.446808 5.568015 32.038092 33.862728 0.532594 0.329770 0.003828 -0.010003 38483.300000 0 0 1
9.581908 6.704815 32.901872 34.918487 0.610549 0.341516 0.001599 -0.009814 98676.700000 0 0 1
9.740308 7.901615 32.159422 34.518655 0.681550 0.371859 0.007745 -0.003316 -245866.000000 0 0 1
9.784808 9.231315 32.971262 35.609883 0.756300 0.387380 0.027708 -0.008597 321417.000000 0 0 1
8.595308 9.693415 33.617395 36.027363 0.845369 0.367837 0.028547 -0.013654 225716.000000 0 0 1
8.372108 8.955115 -34.331826 36.454911 0.819032 2.798626 0.022696 -0.010262 -885198.000000 0 0 1
7.094908 9.291715 -33.604981 35.580450 0.918665 2.806801 0.018208 -0.006176 -642352.000000 0 0 1
6.735408 8.383215 -32.553881 34.284095 0.893961 2.822540 0.020031 -0.003196 -1456890.000000 0 0 1
5.391908 8.571815 -32.376301 33.923054 1.009306 2.838453 0.005384 -0.005739 -1080910.000000 0 0 1
4.854808 7.707015 -31.176341 32.479709 1.008666 2.857339 -0.000244 -0.000551 -331920.000000 0 0 1
5.493508 8.113015 -29.996311 31.555956 0.975590 2.825880 0.005739 0.005693 17003.600000 0 0 1
5.038008 7.484315 -28.799051 30.179162 0.978324 2.838003 0.012129 0.007770 439225.000000 0 0 1
3.570108 7.828515 -28.382451 29.657964 1.142932 2.847248 -0.000982 0.010314 971804.000000 0 0 1
2.528308 7.240615 -29.170631 30.161972 1.234848 2.884498 0.001369 0.004203 795080.000000 0 0 1
1.216208 7.706215 -28.858821 29.894757 1.414266 2.877567 0.020508 0.016869 709714.000000 0 0 1
0.148808 7.045315 -29.772931 30.595523 1.549678 2.909182 0.018597 0.007171 -26325.700000 0 0 1
0.257408 7.546015 -31.102921 32.006254 1.536698 2.903444 0.014399 0.003269 239068.000000 0 0 1
-0.345792 6.723315 -32.091221 32.789770 -1.519410 2.934808 0.029993 -0.000634 -612737.000000 0 0 1
-0.400792 7.457015 -33.458011 34.281281 -1.517101 2.921994 0.034459 -0.010610 -218697.000000 0 0 1
0.891408 7.715315 -33.963911 34.840608 1.455769 2.916785 0.018108 -0.016411 92093.900000 0 0 1
1.556008 6.597715 -34.537009 35.195966 1.339188 2.947782 0.024806 -0.018583 -362044.000000 0 0 1
1.366508 6.338715 33.089918 33.719273 1.358465 0.193509 0.038250 -0.022578 135117.000000 0 0 1
0.107808 5.768015 32.737942 33.242360 1.552108 0.174427 0.034050 -0.020710 193983.000000 0 0 1
-0.044592 5.762515 31.294172 31.820336 -1.563058 0.182106 0.041875 -0.023587 -30608.400000 0 0 1
0.872208 4.733915 30.598182 30.974497 1.388593 0.156038 0.040557 -0.019348 -93759.300000 0 0 1
0.616308 4.586715 29.237742 29.601746 1.437228 0.156984 0.034487 -0.016352 355068.000000 0 0 1
1.581208 3.738415 28.610642 28.897142 1.170653 0.140932 0.017325 -0.009254 206494.000000 0 0 1
1.625708 3.927015 27.039172 27.371175 1.178296 0.155912 0.015555 -0.005373 -5952.780000 0 0 1
1.969908 5.251715 26.728872 27.311054 1.211940 0.206847 0.012699 -0.005624 6139.340000 0 0 1
2.158008 5.356915 25.311902 25.962395 1.187839 0.224323 0.012792 -0.004138 -580554.000000 0 0 1
2.506108 6.756615 24.855932 25.879525 1.215615 0.282190 0.015134 -0.001721 1264580.000000 0 0 1
3.916008 7.125315 24.868602 26.163957 1.068267 0.315985 0.018929 0.001238 1326960.000000 0 0 1
4.617708 6.688615 23.697082 25.052196 0.966554 0.330413 0.022153 -0.008892 -442818.000000 0 0 1
6.148608 6.756715 23.809482 25.501961 0.832484 0.366371 0.018798 -0.003007 324713.000000 0 0 1
6.932508 5.747515 24.505922 26.108118 0.692215 0.352153 0.021810 -0.007373 413333.000000 0 0 1
6.640608 4.346515 24.355862 25.616360 0.579557 0.315010 0.015123 -0.005926 -845942.000000 0 0 1
6.663708 3.568015 23.035182 24.243667 0.491596 0.317071 0.013108 -0.001788 7042.960000 0 1 0
5.796408 4.091315 22.077182 23.189204 0.614632 0.310942 -0.002166 -0.001619 9560.750000 0 1 0
4.475308 3.557915 22.089282 22.817176 0.671691 0.253268 -0.000853 -0.002860 717023.000000 0 1 0
3.417508 4.113515 21.081582 21.749333 0.877555 0.248437 -0.004795 -0.006026 273870.000000 0 1 0
3.042808 5.393915 21.376882 22.255878 1.057178 0.281985 0.000622 -0.005309 -195220.000000 0 1 0
1.981908 5.758515 20.523882 21.408368 1.239325 0.288453 0.001268 -0.006863 -316396.000000 0 1 0
1.546108 7.238315 20.680782 21.965391 1.360358 0.343693 0.008203 0.005464 -192466.000000 0 1 0
2.389908 8.103515 19.957682 21.672280 1.284004 0.400451 0.004228 0.001174 -13793.800000 0 1 0
2.007908 9.455415 20.158582 22.356319 1.361549 0.447122 0.011672 -0.001148 -61959.800000 0 1 0
3.060508 10.419415 19.588082 22.396962 1.285101 0.506214 0.023343 -0.013204 -593495.000000 0 1 0
3.309808 10.298815 18.175282 21.150918 1.259844 0.536869 0.007771 -0.017681 -272271.000000 0 1 0
4.198008 11.308715 17.736182 21.449533 1.215345 0.597260 0.006568 -0.018139 50873.200000 0 1 0
5.651008 10.804015 17.849482 21.616305 1.088882 0.599281 0.012052 -0.020801 -725935.000000 0 1 0
6.086408 9.784215 16.989082 20.528131 1.014311 0.595978 0.008080 -0.021191 1315400.000000 0 1 0
7.356208 9.186415 17.434682 21.035023 0.895586 0.593764 0.019210 -0.014858 1226540.000000 0 1 0
7.234908 7.758415 18.031082 20.920249 0.820300 0.531799 0.019548 -0.009546 -328211.000000 0 1 0
7.083808 7.696315 19.434382 22.070542 0.826816 0.493759 0.019492 -0.006051 -48611.600000 0 1 0
7.054708 6.355915 19.928982 22.075573 0.733338 0.444649 0.024002 -0.013281 567167.000000 0 1 0
8.493108 5.804415 20.151182 22.625081 0.599516 0.472009 0.038586 -0.010768 383092.000000 0 1 0
9.285408 5.703215 18.972482 21.879227 0.550804 0.521353 0.033780 -0.008769 382474.000000 0 1 0
10.612608 5.181515 19.096582 22.453396 0.454197 0.553864 0.050849 -0.015485 792993.000000 0 1 0
10.705308 3.639815 19.281082 22.352003 0.327739 0.530388 0.059112 -0.007268 -640091.000000 0 1 0
10.106008 3.169115 20.424482 23.007264 0.303875 0.478383 0.048028 -0.008126 -250695.000000 0 1 0
10.045008 1.736915 20.357682 22.767395 0.171220 0.464246 0.034562 -0.012751 95366.400000 0 1 0
8.978608 1.092415 21.267882 23.111287 0.121074 0.402108 0.027080 -0.007776 -277272.000000 0 1 0
9.349308 1.038715 22.597682 24.477413 0.110647 0.394457 0.025330 -0.009300 81171.100000 0 1 0
8.442608 0.279515 23.402082 24.879976 0.033096 0.346406 0.008889 -0.006679 -539525.000000 0 1 0
8.787208 0.227115 24.937602 26.441457 0.025840 0.338887 0.006524 -0.001703 166563.000000 0 0 1
10.025808 -0.344385 25.341702 27.255042 -0.034336 0.376931 0.010319 -0.007299 426287.000000 0 0 1
10.124408 -1.731385 25.001752 27.029409 -0.169373 0.389805 0.009862 -0.012442 -657147.000000 0 0 1
11.507908 -2.360085 25.171932 27.778195 -0.202279 0.436644 0.012971 -0.006875 -308604.000000 0 0 1
11.457808 -3.777285 25.106052 27.854320 -0.318449 0.447956 0.020484 0.004324 -732101.000000 0 0 1
12.736308 -4.297285 25.244192 28.599816 -0.325410 0.489284 0.014642 0.010306 -637654.000000 0 0 1
12.770408 -5.792285 25.486502 29.089443 -0.425819 0.502995 0.022956 0.003901 -219244.000000 0 0 1
12.620308 -6.552585 24.298342 28.153472 -0.478897 0.529485 0.024339 -0.001267 195376.000000 0 0 1
12.349408 -7.897485 24.612192 28.646783 -0.568961 0.537169 0.024827 -0.006800 -8505.630000 0 0 1
12.254508 -8.600985 23.294882 27.691180 -0.611975 0.571227 0.032398 -0.002451 100088.000000 0 0 1
11.969308 -9.994485 23.421782 28.137767 -0.695727 0.587378 0.031583 0.011224 -345708.000000 0 0 1
11.981908 -10.615085 22.155682 27.333504 -0.724985 0.625674 0.028696 0.006423 -101111.000000 0 0 1
11.319308 -11.961685 22.113982 27.572393 -0.812983 0.640104 0.026903 0.015846 1225650.000000 0 0 1
9.877708 -11.900885 22.256482 27.102605 -0.878030 0.607297 0.010064 0.017340 880535.000000 0 0 1
9.362208 -13.187785 22.668582 27.846602 -0.953447 0.619701 0.010944 0.019777 -1214340.000000 0 0 1
7.969608 -13.076085 23.187982 27.788148 -1.023436 0.583652 0.000889 0.024131 -829736.000000 0 0 1
7.071708 -12.516385 22.215082 26.460892 -1.056513 0.574353 0.005100 0.019264 -1058020.000000 0 0 1
5.860308 -12.205985 22.765082 26.487323 -1.123181 0.536563 -0.004961 0.019477 -503136.000000 0 0 1
5.092708 -11.008385 22.085482 25.196999 -1.137497 0.502228 -0.009729 0.023873 498648.000000 0 0 1
5.562408 -9.697485 22.476082 25.102906 -1.050020 0.461562 -0.016516 0.018080 -60849.500000 0 0 1
5.006608 -8.684985 21.652682 23.860715 -1.047860 0.433594 -0.017678 0.021416 172167.000000 0 1 0
5.242808 -7.256985 22.143482 23.884821 -0.945162 0.384211 -0.018153 0.021766 -106295.000000 0 1 0
4.512008 -6.308485 21.424382 22.785069 -0.949923 0.347340 -0.026150 0.015663 -191769.000000 0 1 0
4.985208 -4.968385 21.643882 22.759499 -0.783708 0.314399 -0.013757 -0.000507 -169886.000000 0 1 0
-7.787992 -15.785385 -20.532601 27.044757 1.112469 2.432892 0.012799 0.008048 129656.000000 0 0 1
-7.530492 -15.037785 -19.317401 25.612600 1.106532 2.425254 0.020954 -0.001394 -200281.000000 0 0 1
-7.087192 -13.727685 -19.545201 24.913701 1.094218 2.472712 0.024954 -0.007562 147190.000000 0 1 0
-6.219092 -13.179085 -18.348901 23.431764 1.129888 2.470396 0.016043 -0.008648 -717922.000000 0 1 0
-5.095592 -13.949285 -18.228001 23.511861 1.220562 2.457936 0.011434 0.003847 -1076550.000000 0 1 0
-4.418392 -13.616085 -17.020401 22.239919 1.257019 2.442317 0.014072 -0.001840 66349.800000 0 1 0
-3.416892 -14.728785 -16.683301 22.515434 1.342841 2.405313 0.011948 0.015231 996288.000000 0 1 0
-2.153492 -14.722285 -17.387801 22.884904 1.425552 2.433792 0.000588 0.011269 1110920.000000 0 1 0
-1.226092 -15.640185 -16.816101 22.997825 1.492563 2.390882 0.006476 0.021891 1162070.000000 0 1 0
0.104608 -15.974485 -17.594201 23.764491 -1.564248 2.404397 0.002065 0.030917 890141.000000 0 1 0
-0.082292 -16.943785 -18.675901 25.216818 1.565940 2.404778 0.017304 0.014072 -82131.900000 0 0 1
-0.435292 -18.260585 -18.268601 25.833703 1.546963 2.356272 0.011278 0.017985 -441321.000000 0 0 1
-0.853492 -19.146685 -19.435301 27.295694 1.526249 2.363179 0.023693 0.018103 -18877.600000 0 0 1
-2.026992 -18.537285 -19.961501 27.316683 1.461882 2.390207 0.032425 0.007407 -14412.600000 0 0 1
-2.137792 -18.930585 -21.327801 28.597418 1.458345 2.412523 0.032137 0.000721 -497380.000000 0 0 1
-3.092392 -18.058185 -22.095801 28.703403 1.401195 2.449320 0.031185 -0.001419 -429197.000000 0 0 1
-2.757692 -16.707685 -22.116601 27.854903 1.407216 2.488146 0.030985 0.000747 -65330.000000 0 0 1
-3.459492 -15.897285 -21.131701 26.669093 1.356522 2.485475 0.019443 0.003559 260361.000000 0 0 1
-2.704392 -14.665685 -20.591101 25.424191 1.388442 2.514781 0.016513 0.006174 -141670.000000 0 0 1
-2.659492 -13.726385 -21.666001 25.785696 1.379417 2.568510 0.022118 -0.000140 -241560.000000 0 0 1
-1.867392 -12.608685 -21.442301 24.944706 1.423762 2.605269 0.014823 0.008761 -193991.000000 0 1 0
-2.017392 -11.584985 -22.607101 25.482597 1.398387 2.661947 0.024135 0.008712 432370.000000 0 0 1
-3.306892 -10.983885 -22.711101 25.443572 1.278360 2.673891 0.032783 0.000826 505633.000000 0 0 1
-3.305792 -10.101585 -23.805701 26.070705 1.254526 2.721671 0.029494 0.002693 211386.000000 0 0 1
-4.370992 -8.965085 -23.739701 25.749791 1.117152 2.743850 0.026974 0.002526 -422913.000000 0 0 1
-5.692092 -9.341085 -23.963401 26.341989 1.023522 2.713366 0.005582 0.003509 -431624.000000 0 0 1
-6.488492 -8.197385 -24.023101 26.199371 0.901240 2.731125 0.023319 0.002746 -983308.000000 0 0 1
-7.993792 -8.505585 -24.116201 26.792477 0.816407 2.690820 -0.008016 0.000973 -22280.200000 0 0 1
-8.512192 -8.856485 -25.400321 28.214731 0.805218 2.691141 -0.023295 -0.003216 69950.200000 0 0 1
-8.697492 -7.717385 -26.237541 28.698658 0.725761 2.724431 -0.025432 0.003115 -506534.000000 0 0 1
-9.326692 -8.061485 -27.548641 30.181159 0.712764 2.720826 -0.027669 0.009547 -125865.000000 0 0 1
-9.768692 -6.956885 -28.309241 30.744735 0.618841 2.740880 -0.019522 0.003766 234653.000000 0 0 1
-10.586792 -7.376385 -29.410681 32.116653 0.608544 2.728156 0.009376 -0.003071 72580.200000 0 0 1
-11.238292 -6.128385 -30.025551 32.640313 0.499238 2.738600 0.023211 -0.012722 -588350.000000 0 0 1
-10.330192 -5.340085 -30.717781 32.845265 0.477107 2.779696 -0.010947 -0.002360 -125019.000000 0 0 1
-10.952692 -4.405285 -31.618051 33.750098 0.382410 2.784247 0.021354 -0.021593 162051.000000 0 0 1
-9.861792 -3.461785 -32.169791 33.825055 0.337592 2.827458 0.000985 -0.019805 266275.000000 0 0 1
-9.207992 -4.058685 -33.300561 34.787748 0.415159 2.848136 -0.005958 -0.005278 -81007.800000 0 0 1
-8.218192 -3.244585 -33.851271 34.985348 0.376020 2.886279 -0.007251 0.000834 153764.000000 0 0 1
-7.208092 -3.857985 34.277133 35.238651 0.491433 0.234140 -0.006506 0.001990 -69892.200000 0 0 1
-6.371492 -4.889685 -34.352883 35.279250 0.654564 2.911924 -0.015863 0.001305 -752347.000000 0 0 1
-5.239692 -5.090985 34.048777 34.823723 0.771004 0.211360 -0.021586 0.008167 -375636.000000 0 0 1
-3.997192 -4.267285 34.520304 35.011979 0.818068 0.167786 -0.018519 0.016284 -346831.000000 0 0 1
-4.090192 -2.852185 34.405433 34.764903 0.608927 0.143930 -0.008677 0.012189 644517.000000 0 0 1
-2.791892 -2.230785 34.314272 34.499860 0.674145 0.103771 -0.009894 0.005579 844587.000000 0 0 1
-2.731592 -0.794485 -34.237048 34.355033 0.283042 3.058692 -0.003018 0.002747 -221606.000000 0 0 1
-2.921792 -0.874885 -32.852251 32.993525 0.290938 3.049019 -0.003966 0.000060 293185.000000 0 0 1
-3.297392 0.361015 -32.255681 32.425794 -0.109051 3.039115 0.007849 -0.005635 -881011.000000 0 0 1
-3.500192 0.320015 -30.733351 30.933681 -0.091174 3.027723 0.034172 -0.004519 718480.000000 0 0 1
-4.736692 -0.288685 -30.367281 30.735832 0.060871 2.986577 0.009818 -0.004149 590448.000000 0 0 1
-5.933592 0.432315 -30.599821 31.172800 -0.072730 2.949565 0.010193 -0.005844 -6517.900000 0 0 1
-7.209292 -0.451485 -30.468051 31.312615 0.062544 2.908809 0.002103 -0.005428 248137.000000 0 0 1
-7.480592 -1.071285 -29.187771 30.150172 0.142241 2.888249 -0.011330 -0.004717 381823.000000 0 0 1
-8.563892 -1.998085 -29.297481 30.588805 0.229215 2.849990 -0.011117 0.000852 219149.000000 0 0 1
-8.867292 -2.667685 -27.960181 29.453644 0.292232 2.821780 -0.016134 0.001061 -35741.900000 0 0 1
-9.631192 -1.919685 -27.014901 28.744563 0.196741 2.792918 -0.013197 0.000190 297956.000000 0 0 1
-10.039692 -2.703685 -25.910111 27.918438 0.263059 2.759978 -0.016696 0.002235 7303.030000 0 0 1
-11.080292 -1.935785 -25.080951 27.487711 0.172960 2.720010 -0.013689 0.001951 207194.000000 0 0 1
-10.518692 -0.774585 -24.451501 26.629284 0.073506 2.734355 0.000497 -0.004173 233995.000000 0 0 1
-11.510092 -0.051185 -23.746301 26.388855 0.004447 2.690247 0.008762 -0.008162 316895.000000 0 0 1
-10.993792 1.334215 -23.180301 25.689880 -0.120770 2.695901 0.003151 -0.005240 256436.000000 0 0 1
-10.727792 2.348715 -24.166001 26.544257 -0.215537 2.715056 0.000479 -0.006198 115312.000000 0 0 1
-9.970892 3.386815 -23.573101 25.818216 -0.327443 2.721476 0.010443 -0.003064 -309831.000000 0 0 1
-9.612292 4.577015 -24.467301 26.683217 -0.444397 2.731176 0.007966 -0.002798 -110268.000000 0 0 1
-10.694192 5.433915 -24.805401 27.553604 -0.470121 2.691162 0.012290 0.002519 -137673.000000 0 0 1
-11.331392 4.991715 -25.974471 28.774829 -0.414943 2.696754 0.004327 -0.000004 906324.000000 0 0 1
-12.799992 5.523315 -26.245611 29.718326 -0.407371 2.653323 -0.004256 0.003538 1132330.000000 0 0 1
-12.862492 6.913615 -26.558981 30.308765 -0.493197 2.638884 0.004006 0.002482 251671.000000 0 0 1
-14.173292 7.194715 -27.034001 31.360538 -0.469729 2.610075 0.010883 -0.001739 241055.000000 0 0 1
-14.410292 8.749215 -27.069491 31.889851 -0.545661 2.584590 0.019051 -0.002282 -490211.000000 0 0 1
-14.404892 9.337215 -25.765961 30.960769 -0.575107 2.553884 0.034956 -0.008419 11027.300000 0 0 1
-14.674892 10.730015 -25.839041 31.593381 -0.631348 2.528483 0.019873 -0.013088 -278538.000000 0 0 1
-14.235492 11.474015 -24.513201 30.581028 -0.678398 2.500733 0.020742 -0.015347 171044.000000 0 0 1
-15.085092 11.197215 -23.405301 30.012426 -0.638536 2.465228 0.039889 -0.012809 274486.000000 0 0 1
-14.632592 11.998615 -22.316101 29.258979 -0.686813 2.438289 0.032388 -0.010112 27725.700000 0 0 1
-15.619192 11.909915 -21.133301 28.851718 -0.651465 2.392754 0.032810 -0.005723 321697.000000 0 0 1
-16.835492 12.577415 -21.462001 30.037354 -0.641628 2.366720 0.029286 -0.006897 85490.000000 0 0 1
-17.533792 12.909615 -20.301601 29.769901 -0.634656 2.321223 0.037257 -0.002489 256755.000000 0 0 1
-18.944192 13.543815 -20.549501 31.057999 -0.620678 2.293812 0.035805 -0.006430 488801.000000 0 0 1
-19.027692 14.805015 -21.183201 32.093138 -0.661230 2.291687 0.016773 -0.005878 520766.000000 0 0 1
-20.390092 15.219715 -21.248901 33.149832 -0.641210 2.266591 0.009255 -0.000758 488215.000000 0 0 1
-20.474192 16.528715 -22.050301 34.330842 -0.679173 2.268277 -0.005126 -0.001781 -210756.000000 0 0 1
-20.317892 16.426315 -23.458601 35.113338 -0.679882 2.302425 0.001827 0.000513 74945.800000 0 0 1
-20.343892 17.714115 -24.027901 36.124837 -0.716409 2.298471 -0.016315 0.010958 -25330.700000 0 0 1
-20.183392 17.537015 -25.542821 36.977722 -0.715355 2.333339 -0.022186 0.005304 965982.000000 0 0 1
-18.825192 17.218015 -25.933131 36.378224 -0.740837 2.364386 -0.018623 0.000688 997736.000000 0 0 1
-18.672592 16.792415 -27.281531 37.080087 -0.732433 2.397564 -0.024697 0.002858 -437227.000000 0 0 1
-18.197992 17.858315 -28.273561 38.072045 -0.775978 2.407790 -0.036144 0.015648 -272549.000000 0 0 1
-19.042992 18.978815 -28.468091 39.156904 -0.783710 2.384777 -0.042404 0.004035 152472.000000 0 0 1
-18.244792 20.103315 -28.599261 39.432644 -0.833825 2.382221 -0.057147 0.007267 -583533.000000 0 0 1
-19.104192 21.387915 -28.500881 40.431588 -0.841738 2.353101 -0.023787 -0.000080 373795.000000 0 0 1
-19.837592 21.756615 -27.343031 40.181111 -0.831502 2.319234 -0.012106 0.008173 217018.000000 0 0 1
-21.075592 21.084515 -27.252661 40.391149 -0.785610 2.311380 0.013271 -0.007880 -318571.000000 0 0 1
-22.014392 21.496215 -26.090851 40.341706 -0.773490 2.274107 0.006475 0.008169 243259.000000 0 0 1
-21.642892 21.107615 -24.747301 39.068851 -0.772878 2.256772 -0.022112 0.014079 -73419.800000 0 0 1
-22.655592 21.619615 -23.922501 39.407736 -0.762004 2.223140 -0.024359 0.007112 -424637.000000 0 0 1
-22.650792 21.257215 -22.462301 38.333830 -0.753670 2.196867 -0.002828 0.017891 -436676.000000 0 0 1
-21.600492 21.654415 -21.623601 37.457644 -0.786645 2.186192 0.000599 0.014320 -443064.000000 0 0 1
-20.539992 20.748715 -21.489601 36.251943 -0.790453 2.205309 0.000118 0.015781 -244432.000000 0 0 1
-20.661592 19.838915 -20.248601 35.078338 -0.765088 2.186140 0.017852 0.001811 -1071950.000000 0 0 1
-21.616592 18.807215 -20.417701 35.183389 -0.716012 2.189921 0.031405 -0.001117 202301.000000 0 0 1
-22.197692 18.310515 -19.223201 34.605548 -0.689731 2.159754 0.020084 -0.003020 1511.300000 0 0 1
-23.148692 19.287715 -18.467501 35.340154 -0.694665 2.120652 0.004203 0.000156 -1152830.000000 0 0 1
-24.346992 19.406315 -19.162601 36.559354 -0.672953 2.122514 -0.007858 0.001396 -762611.000000 0 0 1
-25.169872 20.326215 -18.509401 37.272985 -0.679335 2.090462 -0.007848 -0.004607 -1304060.000000 0 0 1
-26.602082 20.393515 -18.988001 38.524153 -0.654049 2.086199 -0.034139 0.021368 -303097.000000 0 0 1
-27.411832 19.213915 -18.748601 38.367865 -0.611353 2.081342 -0.036734 0.012604 723039.000000 0 0 1
-28.111612 19.280915 -17.501001 38.318422 -0.601180 2.045107 -0.047880 0.012090 -143399.000000 0 0 1
-29.048812 18.070315 -17.239701 38.308968 -0.556488 2.037581 -0.059206 0.018536 -100812.000000 0 0 1
-28.247752 16.943815 -17.151401 37.137567 -0.540294 2.050858 -0.047566 0.015157 251893.000000 0 0 1
-29.023202 15.799515 -16.811101 37.075383 -0.498515 2.041407 -0.047916 0.015697 108257.000000 0 0 1
-28.107672 14.769815 -16.121801 35.610407 -0.483818 2.040618 -0.023126 0.013445 -83750.900000 0 0 1
-27.581172 15.155315 -14.844901 34.796202 -0.502444 2.011553 -0.022411 0.011414 129976.000000 0 0 1
-28.526082 15.260315 -13.806601 35.174377 -0.491223 1.974165 -0.050085 0.019137 189335.000000 0 0 1
-27.787442 15.972215 -12.604001 34.440012 -0.521684 1.945471 -0.042878 0.010398 435316.000000 0 0 1
-27.384642 17.306315 -12.742701 34.810969 -0.563597 1.945562 -0.041170 0.008469 25236.200000 0 0 1
-28.451302 18.202615 -12.533201 36.026281 -0.569158 1.926116 -0.052158 0.016683 -408861.000000 0 0 1
-28.200382 19.706515 -12.758201 36.693051 -0.609922 1.925914 -0.006125 0.006124 -173183.000000 0 0 1
-27.302482 20.283415 -11.818301 36.007148 -0.638951 1.905216 -0.046149 -0.012476 78189.400000 0 0 1
-26.874842 21.525115 -12.298901 36.562968 -0.675313 1.913862 -0.048544 -0.011786 10183.000000 0 0 1
-25.731242 22.152515 -11.463501 35.836330 -0.710799 1.896404 -0.017535 -0.007596 63138.400000 0 0 1
-26.198722 23.019015 -10.420701 36.398339 -0.720883 1.861155 -0.025023 -0.008972 -309147.000000 0 0 1
-25.521862 24.203715 -10.315201 36.654995 -0.758896 1.856063 -0.011337 -0.003495 -726712.000000 0 0 1
-26.127322 25.201815 -9.331701 37.481316 -0.767369 1.822412 0.006611 0.004182 -240777.000000 0 0 1
-25.860652 24.754315 -8.002101 36.682190 -0.763544 1.790711 0.006479 -0.003754 246643.000000 0 0 1
-26.574722 25.410715 -6.973201 37.423867 -0.763011 1.758222 0.018019 -0.010529 -162509.000000 0 0 1
-26.193602 24.834015 -5.610301 36.528188 -0.758760 1.724995 0.030787 -0.013113 -211505.000000 0 0 1
-26.635322 23.534615 -5.623801 35.985353 -0.723673 1.727720 0.026004 -0.016291 -92634.100000 0 0 1
-26.189952 22.761215 -4.524601 34.992263 -0.715468 1.700462 0.027586 -0.013687 68041.500000 0 0 1
-26.559382 21.268215 -4.722901 34.351762 -0.675216 1.708720 0.007884 -0.010803 149413.000000 0 0 1
-25.771032 20.565215 -5.678901 33.456301 -0.673519 1.741363 -0.002481 -0.015497 61352.300000 0 0 1
-25.817552 21.006015 -7.043401 34.020702 -0.682999 1.779337 -0.011700 -0.015069 -825339.000000 0 0 1
-26.778042 20.255315 -7.968401 34.508502 -0.647594 1.803810 -0.024336 -0.013948 -296401.000000 0 0 1
-26.311152 18.934315 -8.077501 33.407050 -0.623780 1.815007 -0.036860 -0.006185 386245.000000 0 0 1
-26.514072 18.263015 -9.331401 33.520274 -0.603173 1.852904 -0.049031 -0.000350 -434520.000000 0 0 1
-26.208312 16.729315 -9.312901 32.457291 -0.568121 1.861815 -0.036116 0.004783 113606.000000 0 0 1
-27.062412 15.805515 -8.628801 32.506071 -0.528601 1.839469 -0.054524 0.007472 70771.100000 0 0 1
-26.502962 14.582015 -8.798901 31.503378 -0.502999 1.853862 -0.036370 -0.001861 -340666.000000 0 0 1
-27.048462 13.541515 -7.877201 31.257674 -0.464159 1.825552 -0.016277 -0.003404 -215318.000000 0 0 1
-28.213342 12.852315 -8.277201 32.088732 -0.427452 1.831693 -0.018295 -0.000359 -225488.000000 0 0 1
-28.737632 12.177315 -7.198901 32.030652 -0.400804 1.797483 -0.017637 0.003392 42137.900000 0 0 1
-29.711422 11.045815 -7.612201 32.599451 -0.355936 1.806479 -0.010877 0.005126 512123.000000 0 0 1
-28.945122 9.881915 -8.059601 31.629567 -0.328994 1.828450 0.004131 0.009788 621527.000000 0 0 1
-29.749522 8.776915 -8.413601 32.138092 -0.286888 1.835678 -0.002029 0.008494 -772221.000000 0 0 1
-28.928432 7.593615 -8.876601 31.197936 -0.256705 1.859308 0.031406 0.000912 -561651.000000 0 0 1
-28.293882 7.806515 -10.109201 31.043218 -0.269210 1.902495 0.041670 -0.009982 -76261.800000 0 0 1
-27.758432 6.592915 -10.525601 30.410283 -0.233190 1.924228 0.056763 -0.013263 -457589.000000 0 0 1
-26.904362 6.795215 -11.790101 30.150060 -0.247395 1.972566 0.057023 -0.026200 -491783.000000 0 0 1
-25.838842 7.697915 -11.699701 29.390247 -0.289548 1.980220 0.051486 -0.017793 -56816.800000 0 0 1
-24.915392 7.422215 -12.704801 28.935756 -0.289526 2.025359 0.041425 -0.004811 -392922.000000 0 0 1
-30.644232 26.457315 -34.407296 53.131163 -0.712205 2.275216 0.013810 -0.002474 -300644.000000 0 0 1
-31.439592 27.577215 34.511492 54.221710 -0.720046 0.880860 0.018399 -0.006909 -74562.000000 0 0 1
-31.133662 28.132615 33.240012 53.531741 -0.734805 0.900855 0.020325 -0.013914 6262.310000 0 0 1
-31.666352 29.578715 32.888382 54.399484 -0.751325 0.921568 0.025654 -0.022571 48888.600000 0 0 1
-31.513482 30.030815 31.589602 53.785243 -0.761312 0.943042 0.045713 -0.023504 -107733.000000 0 0 1
-31.503592 31.431115 31.599022 54.579204 -0.784247 0.953347 0.051540 -0.029422 -37247.300000 0 0 1
-31.238672 31.993915 30.251222 53.987051 -0.797341 0.975997 0.062667 -0.030393 -970592.000000 0 0 1
-29.960732 31.790215 29.800292 52.880248 -0.815016 0.972128 0.046449 -0.029988 -1181960.000000 0 0 1
-29.742652 32.583015 28.654602 52.605745 -0.830940 0.994759 0.029640 -0.021609 -616218.000000 0 0 1
-28.328282 32.450015 28.135822 51.450165 -0.853110 0.992192 0.029479 -0.019120 -1267830.000000 0 0 1
-27.960522 31.228415 27.513292 50.139664 -0.840553 0.989948 0.051265 -0.023265 53006.800000 0 0 1
-26.815682 31.274715 26.683582 49.083624 -0.862008 0.996034 0.013816 -0.010247 -216646.000000 0 0 1
-26.967472 31.968215 25.303682 48.882386 -0.870046 1.026701 0.008088 -0.017825 -432078.000000 0 0 1
-26.932432 33.355915 25.525922 49.895347 -0.891544 1.033763 -0.001812 -0.017068 88746.300000 0 0 1
-27.911882 34.013115 24.766002 50.490791 -0.883607 1.058127 0.001319 -0.012434 -182059.000000 0 0 1
-28.130382 -33.825455 25.293362 50.746763 0.877062 1.049017 0.011013 -0.013013 -252822.000000 0 0 1
-28.753612 -33.881655 26.544552 51.762438 0.867087 1.032336 0.022614 -0.022909 204770.000000 0 0 1
-28.642702 -32.603455 27.211482 51.223572 0.849978 1.010745 0.022156 -0.021070 80888.900000 0 0 1
-29.249372 -32.711355 28.685992 52.425610 0.841214 0.991811 0.035590 -0.025989 -138639.000000 0 0 1
-30.634912 -32.893755 28.771292 53.369319 0.820939 1.001431 0.037530 -0.029838 -450192.000000 0 0 1
-30.941982 -33.155455 30.142902 54.454430 0.819917 0.984183 0.029928 -0.027777 433981.000000 0 0 1
-32.446812 -33.206055 30.529882 55.565379 0.796962 0.989102 0.056057 -0.033058 320415.000000 0 0 1
-32.639412 -33.410655 31.882732 56.551849 0.797074 0.971842 0.046977 -0.039741 -709.223000 0 0 1
-34.035272 -33.495055 32.113472 57.546446 0.777399 0.978769 0.040962 -0.036695 98595.100000 0 0 1
-34.432241 -34.028855 33.461447 58.849049 0.779506 0.965996 0.033929 -0.019330 -271709.000000 0 0 1
-34.268623 33.864515 33.653524 58.768219 -0.779467 0.961064 0.021578 -0.018324 -273776.000000 0 0 1
-35.003120 33.443515 -34.384257 59.379830 -0.762616 2.188367 0.022621 -0.011982 -105942.000000 0 0 1
-34.800522 31.991115 -33.903531 58.171790 -0.743361 2.192988 0.018454 -0.014173 388178.000000 0 0 1
-33.572412 31.871115 -33.207261 56.970141 -0.759408 2.193076 0.012902 -0.013930 -172506.000000 0 0 1
-33.343892 30.554515 -32.879701 55.914830 -0.741773 2.199420 0.014624 -0.009731 122992.000000 0 0 1
-32.452892 30.363115 -31.632881 54.550418 -0.752142 2.189382 0.011097 -0.002262 133780.000000 0 0 1
-33.007872 30.558415 -30.320201 54.246207 -0.746883 2.163899 0.012136 -0.012269 -353614.000000 0 0 1
-33.091272 31.912215 -29.912301 54.846764 -0.767262 2.147638 0.001189 0.003719 587181.000000 0 0 1
-34.250060 32.081815 -28.860971 55.093240 -0.752722 2.122169 -0.008022 0.007974 823208.000000 0 0 1
-33.829222 31.641215 -27.515111 53.876378 -0.751991 2.106805 -0.017555 -0.002514 -309768.000000 0 0 1
-34.899605 31.614215 -26.642321 54.104106 -0.736044 2.085672 0.010906 -0.006822 -632395.000000 0 0 1
-34.446212 31.229515 -25.201101 52.885911 -0.736459 2.067486 0.017725 -0.008713 -145651.000000 0 0 1
-34.007532 32.422515 -24.572901 53.024138 -0.761543 2.052657 0.014327 -0.012472 -246630.000000 0 0 1
-33.688722 32.278815 -23.195301 52.104452 -0.764029 2.032160 0.010931 -0.014770 -285501.000000 0 0 1
-34.810504 32.140915 -22.127701 52.291919 -0.745546 2.007723 0.014169 -0.013485 -456643.000000 0 0 1
34.601840 33.319815 -22.008701 52.838247 0.766525 2.000421 0.020216 -0.021289 175219.000000 0 0 1
-35.061904 34.439915 -21.301601 53.564943 -0.776449 1.979781 0.023667 -0.021777 -62420.700000 0 0 1
-34.920115 34.217915 -19.739301 52.724948 -0.775242 1.954527 0.013065 -0.013960 481686.000000 0 0 1
-34.053302 33.119815 -19.416901 51.318277 -0.771502 1.958823 0.012880 -0.019439 20776.100000 0 0 1
-33.778252 33.117015 -18.079201 50.641529 -0.775514 1.935854 0.015462 -0.002834 -150957.000000 0 0 1
-32.768562 32.025615 -17.716701 49.125351 -0.773932 1.939753 0.009983 0.001656 -17775.400000 0 0 1
-32.727022 31.688715 -16.349001 48.399612 -0.769281 1.915366 0.001653 0.002927 536707.000000 0 0 1
-31.547652 30.895315 -16.054901 46.984409 -0.774952 1.919529 -0.002077 0.006752 763194.000000 0 0 1
-31.211612 30.730315 -14.524801 46.146363 -0.777628 1.890995 -0.001209 0.005166 -2028.130000 0 0 1
-32.228412 30.047315 -13.764101 46.162346 -0.750389 1.873568 -0.006843 0.007881 128326.000000 0 0 1
-31.681112 29.446715 -12.600901 45.050911 -0.748862 1.854282 -0.001790 0.006568 -426501.000000 0 0 1
-32.662852 28.695415 -11.691301 45.021942 -0.720828 1.833487 0.000812 0.004275 -247206.000000 0 0 1
-32.003142 27.939815 -10.656201 43.799417 -0.717715 1.816558 0.006196 0.006509 -26957.900000 0 0 1
-32.824832 27.080115 -9.888701 43.687397 -0.689793 1.799126 0.015221 0.005742 -387970.000000 0 0 1
-32.111192 26.198115 -8.803301 42.367062 -0.684335 1.780108 0.009643 0.001089 139314.000000 0 0 1
-31.722512 26.877915 -7.634101 42.273154 -0.702914 1.752382 0.022003 -0.009548 346689.000000 0 0 1
-30.511372 27.620215 -7.718301 41.873527 -0.735704 1.756180 0.024955 -0.017131 -99641.000000 0 0 1
-30.087262 28.291915 -6.322601 41.780989 -0.754655 1.722707 0.034830 -0.016271 -368484.000000 0 0 1
-29.334942 27.442615 -5.529901 40.548930 -0.752082 1.707599 0.046783 -0.020384 15805.600000 0 0 1
-29.077042 27.994715 -4.241501 40.585327 -0.766436 1.675496 0.048499 -0.023077 -218450.000000 0 0 1
-28.321592 26.895215 -3.475701 39.211550 -0.759572 1.659553 0.045988 -0.024200 -294082.000000 0 0 1
-29.154472 25.847615 -3.057501 39.082358 -0.725348 1.649109 0.036214 -0.015344 103860.000000 0 0 1
-28.466532 24.958215 -2.166801 37.920324 -0.719824 1.627968 0.019669 -0.010717 47634.100000 0 0 1
-29.313752 23.791415 -1.671701 37.790502 -0.681782 1.615047 0.022864 -0.018456 -129843.000000 0 0 1
-29.383612 22.747915 -2.632601 37.253119 -0.658791 1.641523 0.006165 -0.014116 96700.200000 0 0 1
-30.527492 21.976515 -2.346401 37.688202 -0.623952 1.633095 0.017707 -0.013572 -36803.900000 0 0 1
-30.919012 20.980915 -3.502701 37.529362 -0.596203 1.664265 0.001741 -0.008596 -90653.900000 0 0 1
-29.923902 20.033515 -3.837101 36.214706 -0.589949 1.676950 -0.009537 -0.005670 348687.000000 0 0 1
-30.243382 19.432515 -5.118201 36.310890 -0.571111 1.712222 -0.014229 -0.003698 -576471.000000 0 0 1
-29.122342 18.532415 -5.565701 34.964814 -0.566730 1.730656 -0.025252 0.000916 -557799.000000 0 0 1
-29.095562 17.324815 -4.905401 34.216427 -0.537064 1.714656 -0.029310 0.006210 682452.000000 0 0 1
-28.034722 16.495115 -5.403301 32.973172 -0.531833 1.735408 -0.039188 0.003642 119164.000000 0 0 1
-27.862802 15.242215 -4.473801 32.072975 -0.500572 1.710741 -0.036685 0.013206 -168272.000000 0 0 1
-28.950842 14.347815 -4.341501 32.601529 -0.460115 1.704362 -0.006223 0.015549 262507.000000 0 0 1
-28.565622 13.101715 -3.816401 31.657773 -0.430027 1.691642 0.004422 0.003861 -599223.000000 0 0 1
-29.633132 12.432215 -2.981201 32.273364 -0.397235 1.663302 0.011619 -0.011896 -658226.000000 0 0 1
-30.758282 12.004815 -3.710501 33.225823 -0.372112 1.682705 -0.005068 0.004647 437061.000000 0 0 1
-31.485492 11.018115 -2.958401 33.488613 -0.336624 1.659252 -0.018489 0.011805 348034.000000 0 0 1
-32.700522 10.477415 -3.796901 34.547313 -0.310070 1.680923 -0.009683 0.016883 220979.000000 0 0 1
-32.269112 9.718915 -4.878801 34.052248 -0.292542 1.714565 -0.009107 0.008530 390170.000000 0 0 1
-33.296412 9.575115 -5.830401 35.132996 -0.280016 1.737520 -0.010807 0.012410 -176411.000000 0 0 1
-32.990562 8.520215 -6.909901 34.766621 -0.252740 1.770880 -0.005280 0.003506 -495923.000000 0 0 1
-33.148772 7.182915 -6.508401 34.536859 -0.213388 1.760378 -0.011266 0.010274 657713.000000 0 0 1
-32.650182 6.239515 -7.452901 34.066283 -0.188825 1.791357 0.003185 0.006830 11789.900000 0 0 1
-31.596362 5.182415 -6.997501 32.774266 -0.162572 1.785959 0.018229 0.014127 742617.000000 0 0 1
-30.234702 5.624115 -6.963001 31.531750 -0.183913 1.793457 0.010394 0.008948 915051.000000 0 0 1
-29.409482 4.583615 -6.468401 30.459274 -0.154611 1.784788 0.008008 0.007095 -814788.000000 0 0 1
-27.941732 4.874215 -6.257701 29.045777 -0.172704 1.787941 0.062514 -0.002504 -753818.000000 0 0 1
-27.238072 5.098315 -7.470401 28.700388 -0.185035 1.834118 0.060316 -0.004305 -4854.160000 0 0 1
-25.866422 4.885115 -7.258301 27.306026 -0.186661 1.839844 0.092821 -0.017377 -303502.000000 0 0 1
-24.970692 5.216715 -8.462301 26.876758 -0.205951 1.891101 0.089150 -0.014402 -184478.000000 0 0 1
-25.140172 4.243015 -9.485801 27.203158 -0.167199 1.926982 0.081391 -0.022469 177034.000000 0 0 1
-24.070692 4.353615 -10.379701 26.572361 -0.178933 1.972102 0.078377 -0.028313 -431005.000000 0 0 1
-24.270392 3.619415 -11.718501 27.193296 -0.148038 2.016323 0.070704 -0.036788 3350.350000 0 0 1
-25.137232 4.252315 -12.666201 28.467442 -0.167578 2.031900 0.074375 -0.020859 514694.000000 0 0 1
-25.353422 3.489615 -13.874901 29.111618 -0.136779 2.067591 0.075169 -0.021995 151483.000000 0 0 1
-26.338442 4.124915 -14.876701 30.529407 -0.155350 2.079781 0.056760 -0.019154 -918502.000000 0 0 1
-25.794312 5.275715 -15.341601 30.472027 -0.201748 2.098401 0.043410 -0.018485 -150912.000000 0 0 1
-26.526482 6.206015 -16.110901 31.650118 -0.229822 2.104855 0.070430 -0.011127 -566966.000000 0 0 1
-27.215312 5.685715 -17.398801 32.798153 -0.205954 2.129964 0.023584 -0.001822 175838.000000 0 0 1
-28.366242 4.939215 -17.004701 33.439488 -0.172395 2.104263 0.028494 -0.021884 -39624.600000 0 0 1
-28.938922 4.320615 -18.150301 34.431996 -0.148206 2.126022 0.031875 -0.017027 669372.000000 0 0 1
-30.357212 3.710215 -17.820601 35.396325 -0.121615 2.098394 0.017504 -0.017679 615524.000000 0 0 1
-30.496342 2.582915 -16.964401 34.992702 -0.084494 2.076929 0.026530 -0.029030 56910.900000 0 0 1
-30.011682 1.411615 -17.553101 34.796624 -0.047001 2.099539 0.041132 -0.032096 -114364.000000 0 0 1
-30.342812 0.171715 -16.668501 34.620148 -0.005659 2.073125 0.045947 -0.025750 -856610.000000 0 0 1
-29.769772 -0.937385 -17.280801 34.434635 0.031477 2.096525 0.039511 -0.020664 247572.000000 0 0 1
-29.795882 -2.074585 -16.427301 34.087456 0.069514 2.073637 0.043267 -0.027562 -91478.100000 0 0 1
-29.639232 -3.421385 -17.208301 34.442932 0.114926 2.093954 0.038630 -0.017274 -67737.700000 0 0 1
-30.845632 -3.744685 -17.849201 35.833917 0.120810 2.092213 0.034603 -0.016800 -34460.600000 0 0 1
-30.652242 -4.915885 -18.651101 36.215872 0.159022 2.111802 0.021224 -0.009441 135431.000000 0 0 1
-31.755082 -5.270285 -19.687801 37.732885 0.164468 2.119718 0.023085 -0.006107 -114487.000000 0 0 1
-31.531002 -6.371685 -20.510201 38.150633 0.199392 2.138398 0.022898 -0.003892 -30631.800000 0 0 1
-32.669542 -6.656285 -21.296401 39.561873 0.200995 2.139222 0.030247 -0.000698 -353462.000000 0 0 1
-32.467592 -7.855185 -22.292001 40.159454 0.237378 2.159264 0.021782 -0.005532 -360850.000000 0 0 1
-31.322012 -7.580985 -23.048301 39.620246 0.237467 2.191651 0.016535 -0.008501 -141878.000000 0 0 1
-31.247652 -8.342585 -24.201201 40.394462 0.260897 2.213200 0.005086 -0.006795 -783103.000000 0 0 1
-29.870032 -8.369885 -24.836501 39.738213 0.273204 2.245932 0.003970 -0.006733 -815811.000000 0 0 1
-29.376142 -7.116785 -25.292651 39.412238 0.237685 2.267569 0.011772 -0.006446 151660.000000 0 0 1
-29.078592 -7.152185 -26.664391 40.096234 0.241173 2.298303 0.011980 0.001041 461118.000000 0 0 1
-30.332782 -7.166685 -27.631171 41.652378 0.232014 2.296117 0.003257 -0.002947 508731.000000 0 0 1
-31.015192 -8.412685 -27.601591 42.362285 0.264871 2.280436 0.002571 -0.012486 273995.000000 0 0 1
-32.330562 -8.281985 -28.148151 43.659763 0.250773 2.271448 0.017491 -0.010741 873743.000000 0 0 1
-33.282962 -9.455285 -27.751231 44.354129 0.276795 2.246792 0.021052 -0.014188 -601018.000000 0 0 1
-32.819892 -10.721685 -28.163261 44.556359 0.315753 2.255033 0.016332 -0.010341 -477217.000000 0 0 1
-33.649242 -11.817785 -27.967951 45.322597 0.337748 2.235831 -0.004427 -0.006801 52264.600000 0 0 1
-35.008473 -11.811385 -28.751531 46.816157 0.325394 2.232088 -0.005707 -0.004870 437192.000000 0 0 1
34.253852 -10.843385 -28.350521 45.767428 -0.306579 2.238835 -0.016314 -0.002232 -117243.000000 0 0 1
33.356469 -10.501985 -29.395771 45.684320 -0.305016 2.269799 -0.007826 -0.005696 149889.000000 0 0 1
32.403089 -9.422385 -28.785671 44.354891 -0.282983 2.277046 -0.004964 -0.001988 -18051.700000 0 0 1
31.406019 -9.883585 -27.909541 43.162087 -0.304891 2.273944 -0.025907 0.008139 -121316.000000 0 0 1
30.617079 -8.848085 -27.383581 42.018504 -0.281327 2.280624 -0.029376 0.009616 211970.000000 0 0 1
29.479109 -9.347085 -26.458751 40.699526 -0.307047 2.278512 -0.044667 0.015700 -57931.100000 0 0 1
29.966429 -9.792085 -25.200341 40.359993 -0.315831 2.245146 -0.049830 0.022478 396623.000000 0 0 1
28.878599 -10.152385 -24.375201 39.130485 -0.338058 2.243267 -0.055366 0.022546 61565.100000 0 0 1
29.304469 -10.309585 -22.883501 38.583599 -0.338286 2.205686 -0.063978 0.025443 426187.000000 0 0 1
30.141719 -11.460485 -22.597501 39.376554 -0.363339 2.182035 -0.077376 0.028195 606511.000000 0 0 1
30.489139 -11.478485 -21.219401 38.879380 -0.360066 2.148110 -0.055089 0.026922 -618626.000000 0 0 1
31.455689 -12.561985 -20.837901 39.767851 -0.379950 2.122324 -0.033689 0.017171 -458257.000000 0 0 1
32.758419 -12.379985 -21.350601 41.014951 -0.361326 2.118299 -0.038252 0.020887 -67613.400000 0 0 1
33.715549 -13.158485 -20.652601 41.670300 -0.372099 2.089344 -0.032095 0.020478 145075.000000 0 0 1
35.066780 -13.124685 -21.408201 43.130586 -0.358137 2.090194 -0.027056 0.007796 -145450.000000 0 0 1
-34.414519 -11.885685 -21.508201 42.287484 0.332543 2.104376 -0.018979 0.016159 524752.000000 0 0 1
-34.942648 -10.908285 -22.358401 42.893792 0.302590 2.119112 -0.010773 0.008104 -825375.000000 0 0 1
-34.580778 -11.051785 -23.881301 43.454444 0.309334 2.152647 -0.012984 0.001348 -61441.100000 0 0 1
-35.008460 -12.119585 -24.707501 44.530183 0.333277 2.158977 -0.017041 0.009693 405296.000000 0 0 1
33.802939 -12.034885 -24.894201 43.671483 -0.342037 2.177343 -0.019087 0.015095 8594.960000 0 0 1
33.192219 -13.208785 -25.716301 44.017310 -0.378736 2.194729 -0.031509 0.001071 -257120.000000 0 0 1
33.193379 -14.457485 -25.002401 43.999311 -0.410775 2.175168 -0.022255 -0.001094 669802.000000 0 0 1
32.249639 -14.478385 -23.923701 42.684966 -0.421978 2.165751 -0.029469 0.006883 -280991.000000 0 0 1
-28.849202 8.516215 -19.655301 35.932342 -0.287045 2.149583 -0.009424 0.014052 478477.000000 0 0 1
-27.855082 7.791015 -20.392501 35.390106 -0.272729 2.184893 -0.011011 0.003685 1704400.000000 0 0 1
-26.589282 8.520115 -20.463201 34.616829 -0.310097 2.203261 0.006215 0.002271 1908490.000000 0 0 1
-25.366342 7.706515 -21.017901 33.831846 -0.294947 2.241128 0.008315 0.005952 27446.700000 0 0 1
-24.957992 6.631015 -20.191501 32.780611 -0.259688 2.234399 0.025039 0.011458 561395.000000 0 0 1
-23.718992 6.023315 -20.580401 31.975362 -0.248688 2.270032 0.040755 -0.006484 904850.000000 0 0 1
-22.485292 6.741415 -19.952401 30.808008 -0.291287 2.275275 0.016208 0.001474 -380119.000000 0 0 1
-22.184792 7.971315 -20.543901 31.269134 -0.344949 2.287632 0.010785 -0.001290 -117269.000000 0 0 1
-21.080192 8.521515 -19.849401 30.182601 -0.384159 2.288483 -0.003134 0.001984 64224.100000 0 0 1
-20.346092 9.604815 -20.633601 30.528043 -0.441056 2.312968 0.000367 0.004454 -629160.000000 0 0 1
-19.572792 9.220715 -21.718201 30.656093 -0.440260 2.358091 0.023994 -0.005547 -178777.000000 0 0 1
-19.062292 10.310615 -22.495401 31.236562 -0.495823 2.374833 0.013462 -0.005948 258094.000000 0 0 1
-17.971892 9.884115 -23.517901 31.205389 -0.502825 2.424392 0.026742 -0.006797 -248430.000000 0 0 1
-18.495392 9.095815 -24.520501 32.032302 -0.457057 2.442603 0.027637 -0.011694 -697526.000000 0 0 1
-17.517192 8.600215 -25.384081 32.018234 -0.456388 2.486187 0.011378 -0.002331 -1033610.000000 0 0 1
-18.053092 7.573515 -26.413761 32.877941 -0.397214 2.503761 0.008803 0.005043 -294530.000000 0 0 1
-18.646992 6.423015 -25.841141 32.507384 -0.331725 2.489691 0.024678 0.002357 253642.000000 0 0 1
-19.091692 5.549715 -26.870211 33.426042 -0.282891 2.504571 0.025633 -0.001608 -644289.000000 0 0 1
-19.537192 4.224115 -26.279081 33.017194 -0.212931 2.491324 0.021837 0.008131 -383587.000000 0 0 1
-18.620992 3.195915 -26.065091 32.192300 -0.169974 2.514383 0.026261 0.004267 -232382.000000 0 0 1
-17.531292 3.411915 -25.210221 30.895673 -0.192216 2.525217 0.014224 0.002958 -463419.000000 0 0 1
-16.762592 2.137815 -24.775901 29.989998 -0.126850 2.543017 0.013037 0.002267 -79905.500000 0 0 1
-17.333092 1.258815 -23.810901 29.478462 -0.072498 2.511103 0.013119 0.002594 -172279.000000 0 0 1
-18.592692 0.708315 -24.105601 30.451107 -0.038078 2.484247 0.020715 -0.000266 -679084.000000 0 0 1
-19.066892 -0.046185 -22.878001 29.781730 0.002422 2.446804 0.009841 0.003308 -269022.000000 0 0 1
-18.418192 -1.272985 -22.582801 29.169045 0.069006 2.456253 0.013619 -0.001126 167907.000000 0 0 1
-18.875292 -1.729385 -21.312001 28.521374 0.091367 2.414679 0.007906 -0.004802 120873.000000 0 0 1
-18.380092 -3.140085 -20.805401 27.938372 0.169208 2.410865 0.005667 -0.021383 121422.000000 0 0 1
-19.068392 -4.115885 -21.571101 29.083612 0.212587 2.406387 0.015808 -0.029381 412609.000000 0 0 1
-18.864492 -5.468185 -21.132501 28.850523 0.282134 2.392758 0.017211 -0.025543 -163541.000000 0 0 1
-18.994592 -6.414885 -22.328701 30.008601 0.325695 2.409948 0.009331 -0.026364 -267650.000000 0 0 1
-17.777992 -6.494185 -23.033101 29.811997 0.350234 2.453741 0.004322 -0.014332 103860.000000 0 0 1
-17.824392 -7.461985 -24.027801 30.833835 0.396470 2.464292 0.006503 -0.016187 -37563.300000 0 0 1
-16.425192 -7.592985 -24.665901 30.591617 0.433016 2.508660 0.021319 -0.014857 -725250.000000 0 0 1
-16.320092 -8.444685 -25.801371 31.675998 0.477503 2.522732 0.022831 -0.015736 149811.000000 0 0 1
-15.036292 -8.593585 -26.418231 31.588965 0.519217 2.561318 0.024264 -0.012719 485512.000000 0 0 1
-14.056092 -9.376685 -25.526701 30.612226 0.588296 2.556884 0.025522 -0.015948 -840911.000000 0 0 1
-13.417092 -8.803285 -24.388301 29.194270 0.580669 2.559620 0.006955 -0.005328 315852.000000 0 0 1
-12.672592 -9.812185 -23.700501 28.610965 0.658863 2.546990 -0.009367 -0.001385 98147.800000 0 0 1
-11.674992 -9.243985 -22.675101 27.127788 0.669707 2.560498 0.003196 0.002448 22990.000000 0 0 1
-12.308092 -8.619385 -21.576701 26.293287 0.610929 2.533285 0.002561 0.000847 352109.000000 0 0 1
-11.314092 -8.011885 -20.788001 24.986796 0.616164 2.553426 -0.000398 0.003325 -532284.000000 0 1 0
-11.881192 -7.501085 -19.424201 23.973497 0.563146 2.515352 0.001352 0.001044 -19813.200000 0 1 0
-12.856892 -6.477685 -19.405401 24.162567 0.466707 2.503307 -0.003202 -0.000947 88987.700000 0 1 0
-14.151492 -7.006585 -19.563701 25.141506 0.459730 2.462501 -0.002520 -0.014953 -637961.000000 0 0 1
-15.292792 -5.980485 -19.598501 25.568280 0.372781 2.444195 -0.002409 -0.008284 -309875.000000 0 0 1
-15.517992 -5.536885 -18.287801 24.615215 0.342724 2.408259 -0.000017 -0.005047 84409.600000 0 1 0
-15.003692 -4.242885 -17.991801 23.807934 0.275593 2.427528 -0.001826 -0.007811 -786907.000000 0 1 0
-14.861592 -3.902385 -16.517801 22.559549 0.256785 2.392323 0.004084 -0.003109 -71537.300000 0 1 0
-16.045892 -3.855485 -15.748501 22.811197 0.235808 2.332817 0.006550 -0.004007 -120929.000000 0 1 0
-16.763392 -2.657485 -15.985001 23.315098 0.157221 2.326234 -0.005171 -0.006473 315874.000000 0 1 0
-17.972092 -2.445385 -15.006301 23.540711 0.135235 2.261996 -0.000215 -0.007917 387915.000000 0 1 0
-17.511892 -2.386685 -13.678501 22.348691 0.135455 2.229446 0.003368 -0.008194 972041.000000 0 1 0
-18.508892 -1.779885 -12.853801 22.604585 0.095869 2.175644 0.003663 -0.010751 124941.000000 0 1 0
-17.935892 -0.583385 -12.085601 21.635580 0.032515 2.163491 0.005473 -0.009694 -73836.600000 0 1 0
-17.593292 0.486915 -12.947101 21.849220 -0.027669 2.205037 0.014236 -0.009801 540723.000000 0 1 0
-16.741792 1.443715 -12.323501 20.838440 -0.086021 2.203569 0.022584 -0.003964 -474702.000000 0 1 0
-16.327592 2.423515 -13.456701 21.296631 -0.147355 2.254760 0.032238 -0.000129 -171519.000000 0 1 0
-15.654592 1.793515 -14.554001 21.449986 -0.114071 2.316527 0.034816 -0.008753 841697.000000 0 1 0
-14.250292 1.710115 -14.278901 20.245551 -0.119434 2.353623 0.018738 -0.008748 -149522.000000 0 1 0
-13.567692 0.654415 -15.162501 20.357111 -0.048196 2.411070 0.010206 -0.019269 -315980.000000 0 1 0
-13.403492 1.256515 -16.404501 21.221218 -0.093472 2.454390 0.013833 -0.019343 203405.000000 0 1 0
-12.899992 0.349015 -17.347801 21.621235 -0.027049 2.502019 0.003352 -0.015070 -72510.300000 0 1 0
-12.263292 1.021715 -18.623601 22.321979 -0.083123 2.557689 0.007795 -0.010755 225588.000000 0 1 0
-11.029792 1.673115 -18.363601 21.486681 -0.150543 2.595674 -0.007757 -0.015552 -185766.000000 0 1 0
-10.533292 2.127215 -19.556101 22.314040 -0.199271 2.639139 -0.016819 -0.006669 -471980.000000 0 1 0
-9.120392 2.679015 -19.364201 21.571531 -0.285703 2.685259 -0.017842 -0.010220 -956098.000000 0 1 0
-8.126092 1.686815 -19.566201 21.253586 -0.204673 2.740429 -0.009265 -0.005334 978875.000000 0 1 0
-6.772292 2.039615 -19.198701 20.460061 -0.292530 2.788623 -0.007354 -0.008085 1248570.000000 0 1 0
-6.143292 3.183615 -20.054601 21.214676 -0.478122 2.809363 -0.005712 -0.006437 -1208690.000000 0 1 0
-6.093292 2.819115 -21.430701 22.457751 -0.433331 2.837996 -0.010041 -0.002525 164136.000000 0 1 0
-5.743892 3.916815 -22.214401 23.276884 -0.598481 2.838288 -0.004793 -0.002519 -673146.000000 0 1 0
-5.347992 3.402415 -23.633101 24.468366 -0.566616 2.879553 0.007798 -0.003992 -55028.700000 0 1 0
-4.113992 2.712315 -23.603901 24.112771 -0.582879 2.935785 0.017301 -0.013596 -42131.800000 0 1 0
-3.709992 2.265615 -24.880901 25.257797 -0.548235 2.968623 0.023882 -0.006675 279491.000000 0 0 1
-2.274892 1.653415 -24.973501 25.131348 -0.628494 3.029455 0.020922 -0.006396 202249.000000 0 0 1
-1.252592 2.637515 -24.879401 25.050151 -1.127419 3.024767 0.018056 -0.007973 1651790.000000 0 0 1
0.130708 2.205615 -24.732601 24.831097 1.511604 3.052494 0.016364 -0.006593 1633480.000000 0 1 0
0.468308 1.242615 -23.527701 23.565146 1.210384 3.085211 0.020865 -0.018176 -1208050.000000 0 1 0
0.072908 -0.084385 -23.578701 23.578965 -0.858231 3.136863 0.025450 -0.016400 191873.000000 0 1 0
0.748108 -0.882085 -22.597501 22.627081 -0.867398 3.090454 0.033540 -0.014645 -727556.000000 0 1 0
0.358908 -2.330485 -22.711501 22.833577 -1.417991 3.038141 0.040224 -0.015239 -169718.000000 0 1 0
-0.866792 -2.780285 -22.192001 22.382275 1.268582 3.011108 0.031844 -0.010032 576288.000000 0 1 0
-2.034292 -2.612385 -23.019901 23.256800 0.909172 2.998739 0.027864 -0.008349 1059070.000000 0 1 0
-2.922492 -1.330585 -22.722501 22.948278 0.427245 3.001203 0.022155 -0.013515 -984746.000000 0 1 0
-3.440992 -1.180885 -21.412001 21.718856 0.330588 2.973296 0.013247 -0.018333 489376.000000 0 1 0
-4.342192 -0.084985 -21.328801 21.766479 0.019569 2.940716 0.003356 -0.021132 653521.000000 0 1 0
-5.702692 -0.181685 -22.082001 22.807202 0.031849 2.888741 0.005393 -0.014247 -581967.000000 0 1 0
-6.511792 -1.253885 -21.644501 22.637581 0.190228 2.844294 0.016239 -0.003044 -448714.000000 0 1 0
-7.861792 -0.860785 -21.769701 23.161792 0.109055 2.793125 -0.000862 -0.001152 -347165.000000 0 1 0
-8.676292 -2.076885 -21.323701 23.114751 0.234954 2.745343 -0.000794 -0.004102 -623279.000000 0 1 0
-8.673992 -3.049185 -22.354301 24.171273 0.338039 2.751383 0.018146 -0.004991 -68774.900000 0 1 0
-9.086392 -4.276685 -21.823901 24.023638 0.439909 2.710320 -0.006096 -0.005639 -186899.000000 0 1 0
-9.930892 -5.112385 -22.864601 25.446986 0.475414 2.687180 -0.009015 0.002144 1307910.000000 0 0 1
-11.353692 -4.929685 -22.756501 25.904950 0.409631 2.643429 -0.002658 0.001349 586626.000000 0 0 1
-12.082792 -5.638485 -23.734601 27.223476 0.436617 2.629749 -0.007590 0.003865 -1396740.000000 0 0 1
-13.535592 -5.442785 -23.460501 27.626640 0.382323 2.585262 0.015108 -0.003794 -1533460.000000 0 0 1
-13.959792 -4.176585 -23.887001 27.980502 0.290711 2.593849 0.008501 -0.005263 168052.000000 0 0 1
-15.333792 -4.020785 -24.213001 28.940651 0.256444 2.561922 0.021076 -0.005673 304029.000000 0 0 1
-15.754492 -2.654385 -24.697201 29.414308 0.166917 2.567402 0.016286 -0.012273 -225568.000000 0 0 1
-15.193092 -2.261685 -25.933151 30.140895 0.147778 2.606845 0.022488 -0.013263 12427.300000 0 0 1
-15.517392 -0.976785 -26.431181 30.665141 0.062865 2.609859 0.011697 -0.011950 -311057.000000 0 0 1
-16.938292 -0.760885 -26.986391 31.870833 0.044891 2.580629 0.029386 -0.010729 -281899.000000 0 0 1
-17.261392 -1.504285 -28.158131 33.062046 0.086928 2.589970 0.032894 -0.021883 -38998.400000 0 0 1
-16.788492 -0.873785 -29.300661 33.780848 0.052000 2.620699 0.024578 -0.016132 -299559.000000 0 0 1
-16.897592 -1.732185 -30.565451 34.968212 0.102154 2.634361 0.024730 -0.017483 695090.000000 0 0 1
-18.200592 -1.802985 -31.158471 36.129802 0.098740 2.610795 0.019149 -0.018309 658576.000000 0 0 1
-18.091792 -2.525985 -32.397771 37.192864 0.138724 2.628183 0.021045 -0.020595 -802089.000000 0 0 1
-19.429492 -3.164785 -32.758261 38.218120 0.161468 2.600487 -0.007757 -0.013589 294591.000000 0 0 1
-20.551992 -2.343385 -33.115631 39.045113 0.113532 2.583256 0.000946 -0.015005 1283490.000000 0 0 1
-21.168592 -1.658085 -31.946731 38.359512 0.078168 2.554987 0.005581 -0.005319 -801270.000000 0 0 1
-22.286092 -0.695585 -32.235161 39.195144 0.031201 2.536461 0.016610 -0.005252 -804002.000000 0 0 1
-21.857292 0.497815 -32.905591 39.506543 -0.022772 2.555151 0.021605 -0.009627 287124.000000 0 0 1
-22.936092 1.344215 -33.269771 40.432028 -0.058540 2.537217 0.013176 -0.009918 -120968.000000 0 0 1
-22.483792 2.642215 -33.963011 40.816520 -0.116980 2.553661 0.012989 -0.003054 -794127.000000 0 0 1
-22.104392 3.728615 -33.096851 39.973845 -0.167109 2.546261 0.005267 -0.004533 455428.000000 0 0 1
-23.084692 4.345715 -32.257551 39.904108 -0.186073 2.512186 -0.015488 -0.002635 177108.000000 0 0 1
-24.327692 4.968815 -32.949301 41.257510 -0.201474 2.495804 -0.008858 -0.006312 172156.000000 0 0 1
-25.195682 4.046715 -33.632901 42.218128 -0.159251 2.492522 0.006004 -0.019147 -25223.000000 0 0 1
-26.129762 4.767015 -34.383276 43.447653 -0.180452 2.483847 0.015421 -0.019434 -66803.600000 0 0 1
-27.518562 4.078415 -34.518902 44.333501 -0.147135 2.463258 0.024425 -0.014279 98796.900000 0 0 1
-27.448492 2.865115 33.955417 43.756130 -0.104005 0.682473 0.032873 -0.010808 -422978.000000 0 0 1
-28.656632 2.338115 33.522748 44.163831 -0.081410 0.708937 0.028659 -0.011282 -527633.000000 0 0 1
-28.477592 0.837415 33.294287 43.819905 -0.029398 0.707794 0.026673 -0.000970 -374625.000000 0 0 1
-28.367162 0.163515 34.531960 44.689807 -0.005764 0.687707 0.017440 0.005109 27442.800000 0 0 1
-28.592652 -1.216485 34.396554 44.745307 0.042520 0.693961 0.008145 0.007686 -744770.000000 0 0 1
-28.026452 -2.060985 -33.529991 43.749171 0.073405 2.444037 -0.025280 0.013014 859693.000000 0 0 1
-26.602112 -2.073885 -33.351951 42.712129 0.077802 2.466829 -0.001650 0.005892 1290570.000000 0 0 1
-25.965622 -0.809985 -32.979931 41.982680 0.031184 2.474398 -0.012582 0.008865 -658986.000000 0 0 1
-26.192552 -0.310785 -31.536971 40.996669 0.011865 2.448474 0.005053 0.010679 -603089.000000 0 0 1
-25.483452 -1.053685 -30.599101 39.834929 0.041324 2.446739 0.005526 0.002426 178343.000000 0 0 1
-25.840242 -0.635785 -29.288671 39.063392 0.024599 2.418515 0.004885 0.000652 -137992.000000 0 0 1
-24.945792 -1.086085 -28.123101 37.608256 0.043510 2.415524 0.010692 -0.002179 -149812.000000 0 0 1
-25.211352 -2.409085 -27.780761 37.592375 0.095266 2.402381 -0.000729 0.007018 -111098.000000 0 0 1
-24.288992 -2.901285 -26.862281 36.331181 0.118885 2.402934 0.009757 -0.003040 -281914.000000 0 0 1
-24.730892 -4.213285 -26.158131 36.243849 0.168745 2.377089 0.004767 -0.004529 354551.000000 0 0 1
-25.890952 -4.245085 -25.331161 36.469574 0.162514 2.338637 0.003301 -0.003174 319068.000000 0 0 1
-25.877412 -5.389585 -24.510001 36.047583 0.205338 2.318470 0.002077 -0.007431 396403.000000 0 0 1
-27.091462 -5.450985 -23.528701 36.294081 0.198556 2.276119 0.018934 -0.015284 270962.000000 0 0 1
-27.100322 -6.492185 -22.580301 35.867059 0.235130 2.251777 0.006548 -0.015195 -123241.000000 0 0 1
-28.337442 -6.338385 -21.932701 36.389959 0.220053 2.217693 0.014827 -0.013481 -97108.300000 0 0 1
-28.534602 -7.560085 -21.004401 36.229315 0.258994 2.189234 0.016233 -0.016334 337297.000000 0 0 1
-27.638752 -7.457985 -19.857001 34.839957 0.263561 2.177240 0.012732 -0.017137 796112.000000 0 0 1
-27.876512 -8.499885 -18.926101 34.749752 0.295957 2.146756 0.032400 -0.007249 -142116.000000 0 0 1
-28.476492 -7.941685 -17.624201 34.417923 0.271975 2.108383 0.024869 -0.005057 144238.000000 0 0 1
-27.653182 -7.006585 -16.883801 33.148958 0.248151 2.105204 0.036827 -0.023160 534145.000000 0 0 1
-28.194622 -6.744385 -15.635001 32.937466 0.234796 2.065405 0.024121 -0.014299 -88680.400000 0 0 1
-27.222112 -5.881085 -14.785501 31.531596 0.212771 2.058853 0.036898 -0.017595 129109.000000 0 0 1
-26.931692 -4.692985 -15.400701 31.377089 0.172523 2.083834 0.034397 -0.015470 -680802.000000 0 0 1
-25.794002 -4.275485 -14.753101 30.021064 0.164262 2.084522 0.035772 -0.022582 -1085800.000000 0 0 1
-13.457692 22.033515 -4.850901 26.270068 -1.022486 1.756517 -0.002525 -0.005349 -823459.000000 0 0 1
-13.803292 21.442715 -6.118401 26.225097 -0.998842 1.806270 0.024504 -0.012851 218348.000000 0 0 1
-14.448592 20.214215 -5.862901 25.529393 -0.950224 1.802517 0.026155 -0.014733 173224.000000 0 0 1
-14.916392 19.236115 -7.078001 25.350049 -0.911213 1.853768 0.043004 -0.021753 -284994.000000 0 0 1
-13.835692 18.748715 -7.840801 24.584931 -0.935049 1.895394 0.033884 -0.015970 -201910.000000 0 1 0
-14.114692 17.897115 -8.866501 24.457025 -0.903010 1.941782 0.023501 -0.015491 -596058.000000 0 1 0
-14.600492 16.440515 -8.570001 23.598937 -0.844606 1.942445 0.026154 -0.005097 -52635.800000 0 1 0
-15.990492 16.305015 -8.399401 24.333090 -0.795137 1.923231 0.035230 -0.004932 85332.400000 0 1 0
-16.324292 15.314015 -7.421401 23.581322 -0.753477 1.890953 0.057221 -0.000990 -115152.000000 0 1 0
-17.774992 15.415315 -6.918901 24.524548 -0.714422 1.856801 0.066222 -0.001867 -139925.000000 0 1 0
-18.695492 14.714115 -7.713801 25.010584 -0.666789 1.884329 0.069347 -0.012691 -1212340.000000 0 0 1
-19.968092 15.215615 -7.557601 26.217493 -0.651135 1.863211 0.037997 -0.004913 -974029.000000 0 0 1
-20.904192 14.527115 -8.594701 26.868033 -0.607321 1.896405 0.031359 -0.000088 -453542.000000 0 0 1
-21.219092 13.287615 -8.116301 26.318908 -0.559469 1.884289 0.053742 -0.005040 98531.200000 0 0 1
-21.916292 12.473515 -9.034501 26.786837 -0.517422 1.914816 0.045521 -0.007164 192817.000000 0 0 1
-22.488092 11.180515 -8.444201 26.495711 -0.461385 1.895155 0.040677 -0.014514 -552728.000000 0 0 1
-21.471792 10.181715 -8.312601 25.175474 -0.442787 1.907297 0.059183 -0.011567 229568.000000 0 0 1
-21.821092 9.153015 -7.432701 24.802878 -0.397167 1.875144 0.059814 -0.014900 -221054.000000 0 1 0
-20.730292 8.123515 -7.069501 23.360529 -0.373475 1.878243 0.064257 -0.007335 -309570.000000 0 1 0
-20.301592 7.229915 -8.012101 22.991739 -0.342121 1.926743 0.047831 -0.009440 168751.000000 0 1 0
-19.293792 6.350715 -7.589901 21.683832 -0.317988 1.928395 0.037444 0.001448 -275608.000000 0 1 0
-19.141292 5.120815 -8.583701 21.593789 -0.261406 1.979596 0.022121 -0.007539 -432344.000000 0 1 0
-20.162792 4.156115 -8.546101 22.290072 -0.203281 1.964275 0.035283 -0.005302 569328.000000 0 1 0
-19.824592 3.132915 -9.498401 22.204712 -0.156736 2.012815 0.014031 -0.002595 -212424.000000 0 1 0
-20.894692 2.053615 -9.425501 23.014029 -0.097969 1.992762 0.017322 -0.007506 -116507.000000 0 1 0
-20.624692 1.282815 -8.261001 22.254610 -0.062118 1.951102 0.017762 -0.011514 956184.000000 0 1 0
-21.592892 0.218515 -8.085301 23.058031 -0.010119 1.929062 0.038818 -0.011226 -8731.360000 0 1 0
-21.560592 -1.025785 -8.984301 23.380099 0.047541 1.965215 0.010174 -0.013802 593041.000000 0 1 0
-20.387492 -1.852485 -8.755001 22.265030 0.090615 1.974925 -0.000922 -0.005292 961286.000000 0 1 0
-20.332692 -3.098085 -9.391901 22.610269 0.151207 1.999159 -0.024281 -0.002819 -675763.000000 0 1 0
-21.259792 -4.150385 -8.814001 23.385702 0.192797 1.957240 -0.021615 -0.001591 -535344.000000 0 1 0
-21.000192 -4.452385 -7.427701 22.715689 0.208923 1.903908 -0.026140 -0.000765 566264.000000 0 1 0
-22.020892 -5.186085 -6.697401 23.593862 0.231293 1.858616 -0.003699 -0.001183 -49274.500000 0 1 0
-22.086792 -6.699185 -7.076901 24.141002 0.294492 1.868315 -0.011635 -0.004940 -903974.000000 0 1 0
-20.987492 -7.365385 -6.520601 23.178480 0.337513 1.855967 -0.023114 -0.002209 423952.000000 0 1 0
-21.102192 -8.748085 -6.901401 23.863378 0.392993 1.864192 -0.022315 0.002235 -323693.000000 0 1 0
-20.172892 -9.744985 -6.116501 23.223305 0.450015 1.837318 -0.014208 0.006049 -398825.000000 0 1 0
-18.839792 -9.513885 -6.490301 22.081118 0.467631 1.869132 -0.012163 0.003430 -65556.900000 0 1 0
-17.913192 -10.240685 -5.687701 21.403364 0.519339 1.839766 -0.001864 0.001280 -136126.000000 0 1 0
-17.482392 -11.576785 -6.327201 21.901814 0.584902 1.863863 0.009004 0.007538 -606363.000000 0 1 0
-16.346192 -11.510385 -7.156101 21.234329 0.613515 1.914532 0.003450 0.005019 232767.000000 0 1 0
-16.599492 -10.857885 -8.398401 21.539961 0.579259 1.971318 0.000557 -0.000308 -263077.000000 0 1 0
-15.586292 -11.138985 -9.531301 21.397551 0.620501 2.032461 0.014567 0.002405 226719.000000 0 1 0
-15.857692 -12.347185 -10.188601 22.532797 0.661570 2.039990 0.025182 -0.000863 480795.000000 0 1 0
-14.882492 -12.510785 -11.226301 22.450794 0.699034 2.094442 0.021846 0.008613 434870.000000 0 1 0
-14.949392 -13.896885 -11.947401 23.650541 0.748928 2.100368 0.034849 0.002587 -300155.000000 0 1 0
-15.969992 -14.083685 -12.888101 24.889636 0.722716 2.115085 0.030104 0.003250 -84660.400000 0 1 0
-16.013092 -15.386585 -13.455301 25.965578 0.765448 2.115539 0.024311 0.009828 -70204.300000 0 0 1
-16.375492 -15.280085 -14.962101 26.935148 0.750808 2.159744 0.034879 0.011788 -68582.500000 0 0 1
-16.521292 -16.536585 -15.518501 28.057719 0.785861 2.156867 0.037718 0.008101 243081.000000 0 0 1
-16.624092 -16.430685 -16.916201 28.852828 0.779547 2.197271 0.025872 0.007188 -159282.000000 0 0 1
-17.001192 -17.834585 -17.602001 30.281073 0.809317 2.191106 0.019793 -0.000285 2160420.000000 0 0 1
-18.402292 -18.256885 -17.358501 31.197368 0.781432 2.160854 -0.006313 0.004830 1109790.000000 0 0 1
-19.095492 -18.428585 -18.564401 32.386533 0.767627 2.181219 0.000264 0.002621 -38629.500000 0 0 1
-20.606692 -18.265685 -18.266201 33.044290 0.725248 2.156492 -0.004715 0.002671 -139574.000000 0 0 1
-21.066292 -17.034985 -17.764401 32.396810 0.679985 2.151172 -0.015643 0.016226 -98382.000000 0 0 1
-20.714792 -16.809585 -16.424901 31.327977 0.681700 2.122676 -0.027452 0.009116 -912164.000000 0 0 1
-20.640492 -15.306385 -15.996201 30.268693 0.638085 2.127598 -0.016151 0.004690 343937.000000 0 0 1
-21.907792 -14.705685 -15.748101 30.728020 0.591171 2.108890 -0.013838 0.009374 710238.000000 0 0 1
-21.716692 -13.377085 -15.196601 29.690028 0.552088 2.108124 -0.003869 0.007687 -898031.000000 0 0 1
-23.042792 -12.684585 -14.951901 30.256045 0.503211 2.087686 0.006257 -0.002036 -693062.000000 0 0 1
-23.655492 -13.178485 -13.771601 30.379463 0.508278 2.041282 0.001743 0.006923 553065.000000 0 0 1
-24.600692 -12.273685 -13.204401 30.499075 0.462780 2.018553 0.028297 0.000402 -50488.200000 0 0 1
-25.194982 -12.780685 -11.899401 30.654996 0.469448 1.969443 0.027360 -0.001794 -291220.000000 0 0 1
-26.173502 -11.924785 -11.355201 30.922375 0.427505 1.946811 0.020071 -0.007840 -6362.050000 0 0 1
-26.816232 -12.452785 -10.225901 31.284999 0.434744 1.903778 0.005967 -0.004182 43845.800000 0 0 1
-27.638262 -11.341185 -9.466101 31.338523 0.389391 1.877649 0.024323 -0.011472 -198671.000000 0 0 1
-26.925072 -10.246885 -9.037601 30.193317 0.363645 1.874781 0.028104 -0.016407 -285673.000000 0 0 1
-27.770562 -9.400285 -8.271801 30.462963 0.326392 1.845785 0.049983 -0.026120 41695.000000 0 0 1
-27.096692 -8.139585 -7.725101 29.328497 0.291815 1.837340 0.036002 -0.017587 56989.700000 0 0 1
-26.126702 -8.365985 -6.700401 28.239859 0.309892 1.810348 0.005227 -0.021117 511874.000000 0 0 1
-25.359482 -7.242385 -6.267201 27.107808 0.278184 1.804103 -0.000579 -0.011754 -200359.000000 0 0 1
-26.165072 -6.253385 -5.341801 27.427188 0.234597 1.766812 0.012089 -0.022090 -227935.000000 0 0 1
-26.782922 -6.908585 -4.237801 27.982359 0.252444 1.722827 0.006214 -0.020193 719771.000000 0 0 1
-25.923562 -7.094585 -3.040301 27.048246 0.267132 1.683437 0.021474 -0.004266 608684.000000 0 0 1
-25.514852 -5.830385 -2.267901 26.270600 0.224652 1.657232 0.022710 -0.006718 -560059.000000 0 0 1
-26.607112 -5.275185 -1.622801 27.173506 0.195724 1.630552 0.023930 -0.013266 -450891.000000 0 0 1
-26.253512 -4.129685 -0.895701 26.591417 0.156022 1.604487 0.006842 -0.010492 -71510.900000 0 0 1
-27.459532 -3.323385 -0.265401 27.661186 0.120443 1.580391 0.007046 -0.008451 239984.000000 0 0 1
-28.157982 -3.828185 0.810399 28.428571 0.135125 1.542286 0.009811 -0.004566 248964.000000 0 0 1
-27.442162 -3.810485 2.063299 27.782175 0.137973 1.496461 0.000849 -0.002096 138986.000000 0 0 1
-28.441252 -4.069185 3.201499 28.908695 0.142109 1.459824 -0.010910 -0.003574 144953.000000 0 0 1
-29.024452 -5.359885 3.188799 29.686960 0.182611 1.463175 0.004995 -0.006294 57498.300000 0 0 1
-29.920502 -5.570285 4.260599 30.731371 0.184062 1.431708 0.023009 -0.013182 -322865.000000 0 0 1
-30.626292 -6.899685 4.117399 31.662728 0.221587 1.440388 0.027194 -0.010848 -982215.000000 0 0 1
-29.780292 -7.981985 4.227999 31.119991 0.261874 1.434514 0.020950 -0.002062 -241517.000000 0 0 1
-30.384072 -9.260985 4.033299 32.019137 0.295852 1.444496 0.050174 -0.005139 -89610.800000 0 0 1
-29.545042 -10.468285 4.521999 31.669274 0.340515 1.427518 0.037764 -0.002563 54475.500000 0 0 1
-29.764312 -10.672885 5.884099 32.162825 0.344298 1.386813 0.016260 0.007376 232753.000000 0 0 1
-28.785792 -11.533985 6.385799 31.661223 0.381095 1.367712 -0.004031 0.014446 -503380.000000 0 0 1
-29.040002 -11.893885 7.868999 32.352857 0.388728 1.325108 0.006527 0.005317 -308280.000000 0 0 1
-28.882832 -10.699385 8.577599 31.972957 0.354768 1.299193 0.024029 0.004408 360269.000000 0 0 1
-29.056682 -10.929485 9.963999 32.604074 0.359773 1.260222 0.029876 0.004251 -315463.000000 0 0 1
-29.201872 -9.642485 10.792899 32.591617 0.318929 1.233268 0.009637 0.001965 305464.000000 0 0 1
-28.007992 -8.872685 10.995899 31.370080 0.306789 1.212668 0.026865 0.001850 860861.000000 0 0 1
-28.263292 -7.734785 11.851299 31.608446 0.267128 1.186463 0.020668 -0.004305 413717.000000 0 0 1
-27.059812 -6.771985 11.634899 30.223568 0.245223 1.175631 0.031106 -0.005221 338106.000000 0 0 1
-27.248762 -5.976385 10.477499 29.799164 0.215908 1.211513 0.020682 -0.014188 -52729.800000 0 0 1
-26.436012 -4.859685 10.470599 28.846364 0.181799 1.199334 0.022952 -0.014938 -722675.000000 0 0 1
-26.571892 -4.016885 9.213499 28.409318 0.150034 1.240511 0.021894 -0.015256 293079.000000 0 0 1
-25.808342 -4.552585 8.099699 27.429941 0.174603 1.271041 0.007215 -0.004540 838952.000000 0 0 1
-26.308182 -3.989685 6.875399 27.482888 0.150505 1.317940 -0.001251 -0.012941 211851.000000 0 0 1
-25.443652 -4.537585 5.691299 26.464315 0.176483 1.354048 -0.006049 -0.002122 1702690.000000 0 0 1
-24.118992 -3.868485 5.705599 25.084752 0.159037 1.341335 0.018243 -0.013715 1891190.000000 0 0 1
-23.473792 -4.347285 4.542399 24.301259 0.183123 1.382770 0.025700 -0.006904 -1354860.000000 0 1 0
-22.038092 -3.917085 4.447299 22.821032 0.175905 1.374664 0.028959 -0.008080 -1032010.000000 0 1 0
-21.957292 -2.472585 4.428499 22.535482 0.112136 1.372997 0.017329 -0.009338 321765.000000 0 1 0
-20.637392 -2.050585 4.703399 21.265672 0.099038 1.347779 0.013695 -0.005732 -506179.000000 0 1 0
-20.432892 -0.544485 4.967399 21.035080 0.026641 1.332396 0.008732 -0.009923 -414713.000000 0 1 0
-20.562192 0.340215 3.867399 20.925493 -0.016544 1.384910 0.016842 -0.009856 903319.000000 0 1 0
-21.897992 0.745915 3.575899 22.200574 -0.034050 1.409019 0.008805 -0.014947 94100.600000 0 1 0
-21.837992 1.760315 2.448799 22.045254 -0.080434 1.459486 0.021053 -0.008871 -275401.000000 0 1 0
-21.245692 2.924215 2.999999 21.654802 -0.136779 1.431812 0.000418 -0.000743 274918.000000 0 1 0
-21.525392 4.109715 2.198299 22.024186 -0.188654 1.470817 0.024145 -0.004206 -271244.000000 0 1 0
-20.440392 4.435315 1.173899 20.948978 -0.213675 1.514731 0.032845 -0.002458 -865109.000000 0 1 0
-20.774192 5.187515 0.013999 21.412089 -0.244705 1.570143 0.048029 0.005619 649986.000000 0 1 0
-21.610092 4.628615 -1.033601 22.124386 -0.211000 1.617531 0.063141 -0.004204 228823.000000 0 1 0
-21.173992 3.276515 -1.729701 21.495705 -0.153525 1.651351 0.061910 -0.005435 -357107.000000 0 1 0
-21.137692 2.090115 -0.942601 21.261681 -0.098561 1.615144 0.038455 -0.003775 625162.000000 0 1 0
-20.644192 0.968715 -1.639201 20.731812 -0.046890 1.649946 0.031560 -0.002870 -861193.000000 0 1 0
-19.753892 0.058715 -0.853901 19.772426 -0.002972 1.613996 0.022872 -0.004423 -1073370.000000 0 1 0
-20.408392 -0.722985 0.078099 20.421343 0.035411 1.566972 0.017618 -0.007591 356748.000000 0 1 0
-19.590792 -1.437385 0.997899 19.668782 0.073239 1.520039 0.006914 -0.007931 -416142.000000 0 1 0
-18.727392 -2.650185 0.513999 18.920964 0.140580 1.543627 -0.013004 -0.007136 75201.700000 0 1 0
-18.044892 -3.364085 1.537799 18.420098 0.184313 1.487214 -0.003813 -0.006193 244829.000000 0 1 0
-17.364492 -4.499585 1.116999 17.972744 0.253549 1.508607 -0.006676 -0.002375 -687384.000000 0 1 0
-18.192292 -5.716285 0.691999 19.081778 0.304446 1.534523 -0.020801 0.001043 -897440.000000 0 1 0
-18.916692 -6.223085 1.755099 19.991208 0.317821 1.482890 0.003699 -0.001312 -57364.100000 0 1 0
-19.916492 -7.081385 1.252399 21.175012 0.341614 1.511617 -0.013189 -0.001003 -176323.000000 0 1 0
-20.816692 -7.554585 2.419499 22.276902 0.348129 1.461971 0.005533 0.010487 -436544.000000 0 1 0
-20.089892 -8.312385 3.353299 21.998730 0.392312 1.417768 0.012424 0.009427 69893.300000 0 1 0
-20.831992 -8.727885 4.436999 23.018141 0.396748 1.376821 0.024369 0.002124 -199974.000000 0 1 0
-19.919792 -9.422085 5.474199 22.705520 0.441816 1.327302 0.011893 0.012536 -67334.000000 0 1 0
-19.527392 -10.681985 5.043399 22.822351 0.500557 1.347972 0.014279 0.014129 256963.000000 0 1 0
-18.551192 -11.178885 5.950999 22.461713 0.542327 1.302655 0.022449 0.013025 183392.000000 0 1 0
-17.739492 -12.423085 5.417599 22.324269 0.610932 1.325671 0.001827 0.010913 -70051.600000 0 1 0
-18.506092 -13.557185 5.064699 23.493060 0.632259 1.353508 0.013566 0.017629 60677.800000 0 1 0
-17.661692 -14.684485 4.882799 23.482146 0.693615 1.361331 -0.007071 0.012315 -1096800.000000 0 1 0
-18.338292 -15.968985 4.875899 24.800722 0.716446 1.372904 0.005259 0.014182 -952306.000000 0 1 0
-17.490292 -17.054485 4.948699 24.924995 0.772783 1.370925 0.005585 0.000937 -653075.000000 0 1 0
-18.213192 -18.167285 5.354499 26.276249 0.784136 1.365582 0.019652 0.001713 4068.490000 0 0 1
-17.458692 -19.539585 5.250999 26.724039 0.841582 1.373020 0.016797 -0.003619 -301658.000000 0 0 1
-17.138692 -19.903185 3.927999 26.557498 0.859892 1.422346 0.018998 -0.005683 22900.400000 0 0 1
-16.525392 -21.153885 3.940599 27.131232 0.907625 1.425039 0.014520 -0.013837 463770.000000 0 0 1
-14.969692 -21.163885 4.064999 26.239777 0.955173 1.415252 0.006724 -0.009044 242773.000000 0 0 1
-14.398192 -22.453985 3.947799 26.964319 1.000610 1.423860 0.005525 -0.005114 416185.000000 0 0 1
-12.991692 -22.353985 4.183599 26.191357 1.044330 1.410377 0.008536 -0.002143 337360.000000 0 0 1
-12.322792 -23.724685 4.323699 27.081474 1.091743 1.410455 0.005886 0.000998 -669662.000000 0 0 1
-12.444792 -24.570685 3.217799 27.729869 1.101971 1.454493 0.016146 -0.002172 363362.000000 0 0 1
-11.854192 -25.858235 3.523899 28.663357 1.140954 1.447544 0.021071 0.002503 30239.000000 0 0 1
17.669208 19.439715 -24.813201 36.135833 0.833073 2.327687 0.020430 -0.006333 -131984.000000 0 0 1
16.777908 19.720515 -25.880431 36.608655 0.865847 2.355971 0.008582 -0.009874 417545.000000 0 0 1
17.493308 19.591815 -27.120041 37.753830 0.841924 2.372208 0.015518 -0.009423 -101610.000000 0 0 1
16.672808 19.979115 -28.375591 38.500932 0.875363 2.399433 0.006818 -0.005387 78075.100000 0 0 1
16.486708 21.359815 -28.557951 39.288800 0.913453 2.384553 -0.006583 -0.000062 207745.000000 0 0 1
15.629008 21.539815 -29.658791 39.848130 0.943104 2.410276 -0.014638 0.003895 -248582.000000 0 0 1
15.244908 22.953015 -30.062281 40.779761 0.984518 2.399693 0.005024 -0.008113 -574430.000000 0 0 1
14.472408 23.575515 -29.086781 40.140956 1.020237 2.381273 0.007317 -0.008755 18168.900000 0 0 1
14.297108 24.931215 -29.189001 40.963039 1.050119 2.363950 0.008948 -0.007201 -267967.000000 0 0 1
13.488908 25.425115 -27.973391 40.135991 1.083020 2.341953 0.007476 -0.007398 -610328.000000 0 0 1
12.139108 25.074915 -28.087121 39.560026 1.119938 2.360277 0.019359 -0.014611 -778010.000000 0 0 1
11.534508 25.606515 -26.931681 38.910846 1.147567 2.335244 0.015575 -0.004181 327176.000000 0 0 1
9.977208 25.417415 -26.749611 38.224748 1.196742 2.345911 0.026699 -0.002977 1259720.000000 0 0 1
9.438408 26.342215 -25.819841 38.074401 1.226747 2.316028 0.018197 -0.000176 -26166.700000 0 0 1
9.192108 27.645115 -26.350991 39.282591 1.249792 2.306091 0.028443 -0.011544 -389799.000000 0 0 1
8.577208 28.658915 -25.339231 39.204318 1.279995 2.273571 0.035435 -0.003830 380578.000000 0 0 1
9.574908 29.177715 -24.435101 39.244007 1.253711 2.242915 0.022486 -0.000010 536653.000000 0 0 1
8.999808 29.681115 -23.265401 38.771691 1.276391 2.214374 0.025195 0.000274 -120997.000000 0 0 1
10.047608 30.078015 -22.185501 38.701911 1.248399 2.181251 -0.000178 0.006633 4406.150000 0 0 1
10.842108 31.134015 -22.639601 39.992871 1.235690 2.172552 0.004149 0.000101 188529.000000 0 0 1
11.630308 31.760615 -21.603801 40.133838 1.219775 2.139208 -0.015105 0.011107 220970.000000 0 0 1
12.847308 32.509715 -22.178101 41.398105 1.194449 2.136165 -0.022346 0.039549 -296508.000000 0 0 1
13.838208 31.676915 -22.706101 41.358070 1.158928 2.151979 -0.022475 0.032905 -283290.000000 0 0 1
14.919208 32.457215 -23.204001 42.596705 1.139940 2.146872 -0.011475 0.036216 237122.000000 0 0 1
16.170508 31.684015 -23.657601 42.720537 1.098889 2.157688 -0.008422 0.031669 144469.000000 0 0 1
17.002808 31.188315 -22.627301 42.116520 1.071672 2.137975 -0.010719 0.032537 -254954.000000 0 0 1
18.109708 30.572015 -23.220301 42.447521 1.036012 2.149615 -0.006947 0.028021 405720.000000 0 0 1
19.263308 30.039215 -22.272601 42.065405 1.000581 2.128778 -0.006829 0.031350 600885.000000 0 0 1
20.128808 31.004515 -21.744601 42.886788 0.994968 2.102524 -0.007493 0.028659 -226012.000000 0 0 1
21.032308 30.360615 -20.884701 42.429891 0.964953 2.085431 -0.000091 0.031514 -301018.000000 0 0 1
21.399308 31.173115 -19.650201 42.612485 0.969211 2.050073 0.003123 0.017554 101729.000000 0 0 1
22.281408 32.288715 -19.889801 43.984389 0.966767 2.040028 -0.005548 0.017776 375385.000000 0 0 1
22.757008 32.782815 -18.637201 44.044746 0.963991 2.007707 0.001608 0.015216 -774603.000000 0 0 1
24.049908 33.569115 -18.785001 45.366947 0.949129 1.997715 0.002432 0.009642 -416430.000000 0 0 1
25.164308 32.748915 -19.036601 45.476654 0.915622 2.002701 0.008480 0.012292 -520638.000000 0 0 1
26.360808 33.390915 -18.676001 46.461150 0.902515 1.984464 0.016829 -0.001793 -456920.000000 0 0 1
27.601308 32.640615 -19.134401 46.833399 0.868855 1.991676 0.017154 0.000025 -453424.000000 0 0 1
27.874708 31.439015 -18.483301 45.902543 0.845418 1.985222 0.019945 0.014173 -263368.000000 0 0 1
29.146908 30.967615 -18.852301 46.518219 0.815676 1.988067 0.021567 0.018528 -237293.000000 0 0 1
29.461608 29.556915 -18.298601 45.567932 0.787013 1.984024 0.016027 0.009985 -282167.000000 0 0 1
29.732708 29.767615 -16.899201 45.340135 0.785985 1.952735 0.014905 0.006028 -128693.000000 0 0 1
30.140308 28.604915 -16.270401 44.625165 0.759268 1.944001 0.012013 0.001889 -240579.000000 0 0 1
30.636108 28.876015 -14.808401 44.628288 0.755831 1.909025 0.012021 -0.001542 330088.000000 0 0 1
31.875808 29.548115 -14.645201 45.865457 0.747521 1.895795 -0.017869 0.000937 103183.000000 0 0 1
31.778108 30.950915 -14.811201 46.767286 0.772212 1.893045 -0.013839 -0.000991 1248250.000000 0 0 1
33.232908 31.601915 -14.936301 48.230699 0.760247 1.885658 -0.006620 -0.006673 1551790.000000 0 0 1
33.996808 31.510615 -13.769001 48.355840 0.747464 1.859535 -0.010600 -0.006264 -114697.000000 0 0 1
-34.899002 31.968615 -14.037501 49.365820 -0.741602 1.859132 -0.002264 -0.006658 133917.000000 0 0 1
-34.052902 32.128915 -12.795701 48.534496 -0.756335 1.837592 -0.008783 -0.001204 -904266.000000 0 0 1
-34.503702 33.311915 -12.109701 49.465483 -0.767826 1.818121 0.001390 -0.004135 375106.000000 0 0 1
-33.683002 33.595315 -10.994301 48.826883 -0.784095 1.797913 -0.009891 -0.000469 -177150.000000 0 0 1
-34.214702 -34.467655 -10.132101 49.611738 0.789081 1.776471 -0.009633 0.001726 945.713000 0 0 1
-33.303902 -33.693755 -9.371701 48.293351 0.791217 1.766093 -0.006489 0.000647 -213617.000000 0 0 1
-32.884002 -34.356955 -8.231601 48.265072 0.807300 1.742184 -0.003889 -0.005159 -342433.000000 0 0 1
-32.557802 -33.383255 -7.102501 47.168821 0.797916 1.721947 0.002806 0.003311 -622898.000000 0 0 1
-33.634502 -32.588755 -6.687101 47.307758 0.769608 1.712624 -0.000711 0.002920 -444634.000000 0 0 1
-33.262902 -31.524555 -5.855501 46.200705 0.758573 1.697879 0.014453 -0.003280 337807.000000 0 0 1
-34.510402 -30.653455 -5.459001 46.480134 0.726279 1.688516 0.012070 -0.000509 567717.000000 0 0 1
34.920808 -31.390955 -4.538201 47.174677 -0.732217 1.667145 -0.004385 0.003928 9589.370000 0 0 1
33.606708 -30.858755 -4.479201 45.844703 -0.742797 1.668656 -0.011662 0.012502 72972.600000 0 0 1
33.244508 -30.063155 -3.218301 44.937157 -0.735188 1.642476 0.002363 0.008634 -201685.000000 0 0 1
33.830808 -28.757255 -3.055801 44.506642 -0.704512 1.639510 0.021114 -0.000876 260558.000000 0 0 1
33.201108 -28.058855 -2.018501 43.516517 -0.701653 1.617198 0.013579 -0.008538 -277091.000000 0 0 1
33.315908 -26.522555 -2.144401 42.637942 -0.672354 1.621111 0.039319 -0.017618 6709.540000 0 0 1
32.683108 -25.998055 -3.318401 41.893868 -0.671966 1.650089 0.028871 -0.015015 572115.000000 0 0 1
32.855208 -24.622255 -3.353001 41.194208 -0.643128 1.652281 0.025949 -0.023233 -243846.000000 0 0 1
32.487108 -24.054855 -4.719901 40.697982 -0.637357 1.687032 0.029591 -0.031382 -229292.000000 0 0 1
33.473208 -24.280255 -5.734501 41.747706 -0.627547 1.708593 0.044060 -0.032907 573573.000000 0 0 1
33.019908 -23.806055 -6.982601 41.301323 -0.624655 1.740677 0.030588 -0.030893 -389417.000000 0 0 1
34.175708 -23.608655 -7.948801 42.291028 -0.604526 1.759876 0.027905 -0.017709 -430145.000000 0 0 1
34.740608 -24.729455 -8.578901 43.497739 -0.618622 1.769324 0.028643 -0.020785 -487019.000000 0 0 1
-34.352602 -24.477855 -9.343001 43.203684 0.619097 1.788773 0.026036 -0.007897 -133329.000000 0 0 1
-33.748902 -25.630055 -10.182301 43.584027 0.649511 1.806600 0.016680 -0.013598 -200442.000000 0 0 1
-33.063102 -26.651455 -9.499901 43.516858 0.678436 1.790872 0.012642 -0.013173 -296378.000000 0 0 1
-33.787402 -27.607355 -8.767401 44.504179 0.685075 1.769095 0.015056 -0.006272 -329973.000000 0 0 1
-32.908002 -28.818855 -8.363701 44.535542 0.719249 1.759716 0.010680 -0.000471 -243874.000000 0 0 1
-32.346102 -29.499555 -9.450101 44.786142 0.739404 1.783399 0.006086 -0.007728 65585.100000 0 0 1
-31.517502 -30.517255 -8.922901 44.769118 0.769276 1.771449 -0.002999 -0.008059 -405518.000000 0 0 1
-30.978102 -31.411555 -9.991901 45.234574 0.792346 1.793524 -0.004459 -0.003322 220206.000000 0 0 1
-29.723502 -31.064155 -10.590401 44.278944 0.807449 1.812312 -0.012480 0.009152 539843.000000 0 0 1
-29.500402 -31.879355 -11.712201 44.986027 0.824137 1.834183 -0.026189 0.010029 -140522.000000 0 0 1
-29.833002 -31.233955 -13.078601 45.128902 0.808335 1.864820 -0.029241 0.008349 -282827.000000 0 0 1
-29.075702 -30.087655 -13.354301 43.920391 0.802501 1.879745 -0.034586 0.015942 -100144.000000 0 0 1
-29.578502 -29.409855 -14.492601 44.157251 0.782539 1.905198 -0.040104 0.021975 -267019.000000 0 0 1
-28.668502 -28.260355 -14.877901 42.917160 0.778229 1.924810 -0.044328 0.017304 414101.000000 0 0 1
-27.431302 -28.736955 -15.418401 42.614739 0.808639 1.941004 -0.038449 0.013777 266462.000000 0 0 1
-26.630802 -27.740455 -16.044801 41.667351 0.805804 1.966079 -0.033093 0.023757 985343.000000 0 0 1
-25.263602 -28.332155 -16.569301 41.418623 0.842589 1.982362 -0.015067 0.015664 583161.000000 0 0 1
-25.344902 -29.259955 -17.683101 42.558208 0.856974 1.999293 -0.024385 0.017434 -265049.000000 0 0 1
-25.752002 -28.757055 -18.960001 43.007156 0.840472 2.027349 -0.023201 0.016263 -272656.000000 0 0 1
-24.736702 -28.014655 -19.856801 42.320419 0.847458 2.059183 -0.001702 0.015425 -138636.000000 0 0 1
-24.304602 -26.836855 -19.347701 41.051967 0.834872 2.061558 -0.006127 0.018086 -530683.000000 0 0 1
-22.976802 -26.553355 -19.713401 40.269496 0.857483 2.082355 0.036020 0.009640 8284.520000 0 0 1
-22.422302 -25.325955 -18.874701 38.735229 0.846135 2.079763 0.019180 0.005313 -67445.800000 0 0 1
-22.341802 -25.707755 -17.516201 38.299636 0.855336 2.045805 0.020965 0.013326 395599.000000 0 0 1
-21.618502 -24.783355 -16.713201 36.890451 0.853498 2.040979 0.012797 0.009924 -243661.000000 0 0 1
-21.927902 -25.027955 -15.264701 36.609323 0.851323 2.000897 0.007633 0.008302 -1102060.000000 0 0 1
-23.236602 -24.731155 -14.960701 37.086282 0.816546 1.986029 -0.031940 0.023388 -929928.000000 0 0 1
-23.388902 -24.621755 -13.553601 36.564623 0.811071 1.950532 -0.043707 0.026048 44317.200000 0 0 1
-24.862102 -24.711455 -13.102001 37.422487 0.782359 1.928485 -0.055072 0.033306 -1066530.000000 0 0 1
-25.468602 -25.952155 -13.288801 38.713774 0.794802 1.921179 -0.041806 0.024502 -106981.000000 0 0 1
-26.631302 -26.080655 -12.498301 39.314556 0.774952 1.894316 -0.040679 0.019571 178464.000000 0 0 1
-27.909802 -25.339455 -13.027301 39.884278 0.737165 1.903529 -0.041725 0.011116 -988733.000000 0 0 1
-28.089402 -23.985755 -12.621901 39.033874 0.706758 1.900072 -0.038337 0.022654 24763.000000 0 0 1
-28.541902 -23.777055 -11.276601 38.822033 0.694576 1.865513 -0.006311 0.011480 -478509.000000 0 0 1
-29.987502 -24.226855 -10.933901 40.071698 0.679539 1.847159 -0.023622 0.005313 38034.400000 0 0 1
-31.026502 -23.408355 -11.439501 40.514900 0.646351 1.857042 -0.001209 0.001053 76839.900000 0 0 1
-31.289902 -23.392555 -12.811601 41.114556 0.641968 1.887681 -0.004885 0.007686 -1671340.000000 0 0 1
-32.683202 -22.908855 -13.130101 42.016745 0.611354 1.888617 -0.013497 -0.001278 -1094190.000000 0 0 1
-33.641902 -23.860055 -12.824401 43.191956 0.616898 1.872258 -0.005504 0.003185 137499.000000 0 0 1
-34.936802 -23.497055 -13.338601 44.165711 0.592071 1.877599 0.015042 -0.001478 610524.000000 0 0 1
34.175708 -24.508755 -13.023501 44.025784 -0.622137 1.871105 0.009027 0.006725 -305857.000000 0 0 1
34.212308 -25.610255 -13.856201 44.926178 -0.642584 1.884330 -0.006760 0.018387 -36575.300000 0 0 1
33.443608 -26.676455 -13.369401 44.820186 -0.673309 1.873697 -0.011359 0.015529 65761.700000 0 0 1
33.478508 -27.886355 -14.293801 45.855992 -0.694520 1.887789 -0.010767 0.008050 150784.000000 0 0 1
32.736908 -27.581455 -15.454901 45.511491 -0.700135 1.917269 -0.001604 -0.006782 -162498.000000 0 0 1
32.613008 -28.717355 -16.340201 46.425176 -0.721964 1.930470 -0.005581 -0.006794 145091.000000 0 0 1
31.686508 -28.525455 -17.577401 46.116173 -0.732948 1.961841 -0.002499 -0.012220 216112.000000 0 0 1
30.347808 -28.934655 -17.400101 45.397877 -0.761565 1.964141 0.038136 -0.014506 202864.000000 0 0 1
29.537308 -28.386655 -18.457201 44.932427 -0.765536 1.994102 0.031124 -0.019061 1666710.000000 0 0 1
27.980408 -28.713555 -18.367101 44.099001 -0.798329 2.000385 0.031308 -0.017392 1302500.000000 0 0 1
27.509608 -28.221455 -17.168901 42.988373 -0.798170 1.981642 0.027193 -0.020671 -269951.000000 0 0 1
26.103608 -28.079355 -17.250501 42.040793 -0.821846 1.993610 0.044553 -0.024216 218013.000000 0 0 1
25.542808 -27.209855 -16.064401 40.630976 -0.816989 1.977271 0.038642 -0.025090 -148318.000000 0 0 1
25.543808 -25.866755 -16.417801 39.888837 -0.791680 1.994993 0.040426 -0.022817 -52539.700000 0 0 1
25.439508 -25.072955 -15.232601 38.831093 -0.778142 1.973904 0.034552 -0.009104 -310179.000000 0 0 1
25.180408 -23.617555 -15.720401 37.933796 -0.753382 1.998098 0.033193 -0.012704 262078.000000 0 0 1
23.792508 -23.318855 -15.819401 36.879613 -0.775345 2.014123 0.035765 -0.013054 372439.000000 0 0 1
23.550708 -22.038155 -16.353201 36.162734 -0.752232 2.040040 0.035183 -0.023326 -365205.000000 0 0 1
22.072208 -21.632955 -16.365601 34.971417 -0.775348 2.057790 0.024733 -0.014065 -591679.000000 0 0 1
21.751808 -20.998855 -15.211801 33.845117 -0.767787 2.036950 0.032948 -0.012173 -58465.300000 0 0 1
20.653808 -20.143055 -15.461601 32.731996 -0.772879 2.062774 0.029753 -0.014718 -57584.900000 0 0 1
20.508208 -18.996155 -14.478101 31.481040 -0.747141 2.048678 0.034051 -0.010381 -118885.000000 0 0 1
19.985708 -19.320055 -13.218001 30.780003 -0.768465 2.014663 0.022662 -0.012324 -40501.700000 0 0 1
19.769508 -18.164055 -12.461601 29.598274 -0.743101 2.005371 0.017350 -0.014507 34419.200000 0 0 1
18.742508 -18.306155 -11.313001 28.537360 -0.773621 1.978419 0.022830 -0.006152 39723.000000 0 0 1
19.386408 -18.923255 -10.223801 28.955975 -0.773309 1.931658 0.022565 -0.014974 366591.000000 0 0 1
18.512608 -19.064055 -9.107201 28.090852 -0.800072 1.900968 0.027408 -0.019345 106182.000000 0 0 1
19.103808 -19.905155 -7.943301 28.710045 -0.805938 1.851127 0.031153 -0.014743 -24688.800000 0 0 1
19.952208 -19.157355 -7.094901 28.555778 -0.765077 1.821884 0.027994 -0.014920 137278.000000 0 0 1
20.586008 -19.967455 -6.094401 29.319357 -0.770147 1.780186 0.028033 -0.003348 60904.200000 0 0 1
21.853908 -19.250255 -5.567501 29.650678 -0.722140 1.759687 0.024268 -0.006143 255281.000000 0 0 1
22.876508 -19.106355 -6.545601 30.516099 -0.695836 1.786973 0.023207 -0.022169 292671.000000 0 0 1
23.831108 -18.147155 -6.127601 30.574310 -0.650814 1.772580 0.023842 -0.027654 129199.000000 0 0 1
24.889808 -17.729155 -7.212701 31.398225 -0.618937 1.802583 0.036474 -0.036148 6572.050000 0 0 1
25.859508 -18.705855 -7.438701 32.771290 -0.626235 1.799781 0.041017 -0.040371 -192910.000000 0 0 1
25.463108 -19.757155 -8.299001 33.280452 -0.659880 1.822821 0.043969 -0.044971 -418905.000000 0 0 1
26.393208 -21.022555 -8.293401 34.746651 -0.672612 1.811805 0.034515 -0.046621 477902.000000 0 0 1
27.740508 -20.717455 -8.631901 35.682747 -0.641469 1.815127 0.035696 -0.041120 587485.000000 0 0 1
28.509508 -21.935855 -8.474901 36.956701 -0.655816 1.802175 0.022056 -0.036280 192039.000000 0 0 1
-29.381312 30.672015 3.794899 42.643115 -0.806887 1.481686 0.000021 0.007202 245870.000000 0 0 1
-28.444842 31.507015 3.132499 42.563054 -0.836431 1.497133 -0.012951 0.016193 248463.000000 0 0 1
-27.349252 31.858215 3.981899 42.175620 -0.861407 1.476243 -0.006566 0.014751 265962.000000 0 0 1
-26.539812 32.983915 3.347699 42.467721 -0.893239 1.491885 -0.002872 0.014024 -540593.000000 0 0 1
-25.629482 32.632515 2.315899 41.558570 -0.905023 1.515041 0.000374 0.009960 88054.600000 0 0 1
-25.256822 33.798815 1.573099 42.222525 -0.929045 1.533530 0.014259 -0.003912 -311046.000000 0 0 1
-24.031492 34.528215 2.155399 42.123105 -0.962763 1.519605 0.026567 -0.007775 21407.900000 0 0 1
-22.831292 33.838615 1.781599 40.859440 -0.977245 1.527179 0.028232 -0.010314 37899.700000 0 0 1
-21.682992 34.425215 2.356999 40.752951 -1.008711 1.512928 0.033195 -0.008332 62732.800000 0 0 1
-20.355692 33.974015 1.748799 39.643993 -1.030999 1.526669 0.035234 -0.010220 -16955.000000 0 0 1
-20.005592 34.605915 0.513199 39.975698 -1.046637 1.557958 0.042094 -0.023585 -93915.800000 0 0 1
-18.637392 34.440015 0.222399 39.160139 -1.074769 1.565117 0.033491 -0.015275 -193760.000000 0 0 1
-18.092692 -34.058155 -1.062601 38.580209 1.082478 1.598342 0.041444 -0.014560 97183.900000 0 0 1
-17.887492 -32.617855 -0.946701 37.212673 1.069186 1.596239 0.040856 -0.017004 75664.000000 0 0 1
-17.016792 -32.239555 0.083499 36.455000 1.085139 1.568506 0.035472 -0.008773 -484694.000000 0 0 1
-16.839792 -30.712455 0.122699 35.026397 1.069255 1.567293 0.038290 -0.010463 -179756.000000 0 0 1
-16.111892 -30.175855 -0.989001 34.222118 1.080372 1.599700 0.031916 -0.006131 184488.000000 0 0 1
-16.179392 -28.779655 -0.927801 33.028806 1.058649 1.598891 0.024937 -0.000150 -230471.000000 0 0 1
-15.434292 -28.064855 -2.075801 32.096143 1.067991 1.635516 0.020568 0.004997 -428035.000000 0 0 1
-15.882492 -28.347455 -3.379601 32.668845 1.060095 1.674432 0.023557 -0.002997 -13728.600000 0 0 1
-14.964292 -27.922755 -4.364701 31.979069 1.078829 1.707710 0.026614 0.001446 -81691.100000 0 0 1
-15.575792 -27.980155 -5.754801 32.536319 1.062844 1.748605 0.031013 -0.009394 307733.000000 0 0 1
-16.503992 -26.906855 -5.953401 32.121699 1.020600 1.757213 0.025514 -0.001712 -104175.000000 0 0 1
-17.056092 -26.911655 -7.226501 32.670625 1.005908 1.793834 0.041061 -0.011708 -154490.000000 0 0 1
-17.858492 -25.630855 -7.502701 32.127200 0.962250 1.806504 0.026026 -0.003955 -118037.000000 0 0 1
-16.986292 -24.528655 -7.396301 30.739132 0.965116 1.813796 0.016438 0.006043 -96888.000000 0 0 1
-17.591792 -23.310955 -7.533501 30.159996 0.924321 1.823254 -0.002373 0.005899 27727.800000 0 0 1
-16.485792 -22.282455 -7.164301 28.628942 0.933820 1.823731 0.003642 0.005721 358500.000000 0 0 1
-15.491092 -22.109855 -8.111001 28.188791 0.959640 1.862661 0.023794 0.003647 -632354.000000 0 0 1
-14.446692 -21.251555 -7.704401 26.827099 0.973760 1.862085 0.034877 -0.005773 21226.300000 0 0 1
-13.418592 -20.975855 -8.773101 26.400992 1.001685 1.909540 0.049605 -0.005502 -49742.100000 0 0 1
-14.029692 -20.219755 -9.828101 26.500232 0.964203 1.950740 0.052293 -0.001106 -323084.000000 0 0 1
-13.159892 -20.040255 -10.895701 26.334594 0.989744 1.997356 0.052966 0.002468 -151004.000000 0 0 1
-13.762792 -19.190055 -12.073001 26.522254 0.948631 2.043396 0.072504 -0.007829 -543317.000000 0 0 1
-14.693292 -19.926055 -12.787901 27.865227 0.935414 2.047575 0.047095 0.015309 -547716.000000 0 0 1
-15.106192 -19.402655 -14.049101 28.320263 0.909264 2.089874 0.054705 -0.002474 746085.000000 0 0 1
-16.361892 -20.107955 -14.672801 29.788126 0.887756 2.085839 0.064257 -0.004649 1130650.000000 0 0 1
-17.612392 -19.923555 -14.010701 30.057347 0.846893 2.055710 0.050805 0.004170 -22052.800000 0 0 1
-18.668692 -20.317755 -14.800201 31.310975 0.827671 2.063131 0.023787 0.005729 -427240.000000 0 0 1
-20.096392 -19.964955 -14.308901 31.736556 0.782117 2.038530 -0.000513 0.021924 274748.000000 0 0 1
-21.030992 -20.614655 -15.134501 33.110719 0.775401 2.045514 0.009974 0.012491 567408.000000 0 0 1
-22.390092 -20.351455 -14.741301 33.657152 0.737737 2.024151 -0.021205 0.021070 630688.000000 0 0 1
-23.422392 -20.873655 -15.750201 35.105366 0.727923 2.036056 -0.025417 0.012733 -390153.000000 0 0 1
-23.392992 -20.215955 -16.993901 35.280441 0.712674 2.073368 -0.023958 -0.006231 153538.000000 0 0 1
-23.935392 -20.990855 -18.034101 36.588902 0.719950 2.086198 -0.015475 -0.009101 -92413.100000 0 0 1
-24.022292 -20.279855 -19.391001 36.937162 0.701123 2.123479 -0.008252 -0.008352 680309.000000 0 0 1
-22.733692 -19.934655 -19.938101 36.217938 0.719892 2.153764 0.001795 -0.015534 877706.000000 0 0 1
-22.909192 -19.262855 -21.173301 36.663296 0.699149 2.186468 0.001198 -0.025236 -111330.000000 0 0 1
-21.623592 -18.689655 -21.828101 35.963160 0.712748 2.223023 0.000262 -0.010022 503721.000000 0 0 1
-20.642192 -19.681455 -22.188501 36.135707 0.761577 2.231956 0.001983 -0.014432 274495.000000 0 0 1
-19.557992 -18.950855 -22.747501 35.483781 0.769633 2.266685 0.005334 -0.022440 423769.000000 0 0 1
-18.269792 -19.810555 -23.006401 35.433570 0.825837 2.277437 0.032761 -0.018268 134978.000000 0 0 1
-18.350892 -20.925355 -23.847501 36.651453 0.850852 2.279245 0.021619 -0.011783 -376586.000000 0 0 1
-17.095292 -21.572855 -23.865901 36.431007 0.900679 2.285109 0.023810 -0.004095 9233.340000 0 0 1
-17.005492 -22.940355 -24.512001 37.633560 0.932892 2.280137 0.022387 0.001061 -316031.000000 0 0 1
-17.040092 -22.783155 -25.949841 38.507546 0.928625 2.310257 0.032350 -0.000223 86054.200000 0 0 1
-17.236692 -23.930955 -26.756201 39.820703 0.946597 2.307590 0.038187 -0.000240 -148428.000000 0 0 1
-16.876792 -23.809355 -28.291131 40.646028 0.954169 2.340659 0.046954 0.005955 536186.000000 0 0 1
-15.503192 -23.732255 -28.668981 40.317234 0.992137 2.361837 0.023159 0.002752 348993.000000 0 0 1
-15.368792 -23.595355 -30.061341 41.190105 0.993474 2.388854 0.056284 -0.008150 158456.000000 0 0 1
-13.891592 -23.560455 -30.531591 40.990845 1.038048 2.411090 0.012588 -0.004500 577130.000000 0 0 1
-13.182192 -24.815355 -30.247481 41.285374 1.082493 2.392995 0.033351 -0.001050 40059.400000 0 0 1
-11.935092 -24.723555 -30.884971 41.322899 1.121050 2.414945 0.056240 -0.002807 -204901.000000 0 0 1
-11.039692 -25.975755 -30.624921 41.647334 1.168926 2.396964 0.030007 0.005261 -478106.000000 0 0 1
-11.299492 -27.078255 -31.465931 43.023426 1.175474 2.391121 0.037576 0.018468 527824.000000 0 0 1
-10.427492 -28.177955 -31.210481 43.322325 1.216365 2.375211 0.025905 0.018482 1637290.000000 0 0 1
-8.935692 -28.191255 -31.786861 43.416563 1.263847 2.392250 0.029785 0.008201 1258140.000000 0 0 1
-8.208792 -27.179455 -31.090141 42.103490 1.277486 2.401524 0.003864 0.013200 296545.000000 0 0 1
-7.167492 -26.661655 -31.949941 42.225768 1.308174 2.428964 0.017702 0.008738 306605.000000 0 0 1
-6.459192 -25.354355 -31.546451 40.984668 1.321346 2.449189 0.004496 0.006521 -184370.000000 0 0 1
-7.273792 -24.169555 -31.551341 40.404982 1.278470 2.466866 0.013590 0.000778 142408.000000 0 0 1
-7.967192 -23.942155 -30.381301 39.493371 1.249554 2.448503 0.011470 -0.002446 -549129.000000 0 0 1
-8.559192 -22.558955 -30.175281 38.635654 1.208161 2.467096 0.010805 -0.009641 91123.000000 0 0 1
-9.460692 -22.255755 -31.248831 39.513450 1.168850 2.482977 0.015252 -0.011175 324918.000000 0 0 1
-9.991092 -20.935455 -31.147971 38.836983 1.125528 2.501463 0.010790 -0.009030 101745.000000 0 0 1
-10.710592 -20.414155 -32.392101 39.758052 1.087612 2.523061 0.011418 -0.009936 -202666.000000 0 0 1
-11.154892 -19.136355 -32.250521 39.124516 1.043033 2.539769 0.017471 -0.010911 -254950.000000 0 0 1
-11.842592 -18.807055 -33.414731 40.130992 1.008832 2.554657 0.026636 -0.012297 -106450.000000 0 0 1
-12.791092 -17.575855 -33.222991 39.702517 0.941678 2.562205 0.032188 -0.006207 14620.900000 0 0 1
-12.187892 -16.293955 -33.487091 39.184473 0.928576 2.595578 0.048206 -0.007883 19644.300000 0 0 1
-11.540992 -15.802455 -32.321061 37.783105 0.940004 2.597190 0.038252 -0.001352 108362.000000 0 0 1
-11.213192 -14.329355 -32.430921 37.186432 0.906797 2.630309 0.038897 -0.002811 178927.000000 0 0 1
-10.298892 -13.848155 -33.428251 37.620294 0.931339 2.665014 0.038622 -0.005938 263511.000000 0 0 1
-10.821692 -13.832655 34.399138 38.623206 0.906923 0.472059 0.046459 -0.004512 300423.000000 0 0 1
-11.470292 -12.473955 33.827996 37.835175 0.827290 0.464404 0.051220 -0.004874 -109184.000000 0 0 1
-12.666492 -12.100555 34.399688 38.603134 0.762552 0.471008 0.054584 -0.002844 -908825.000000 0 0 1
-13.353892 -11.114355 33.639956 37.861616 0.694124 0.476736 0.039552 -0.010609 815790.000000 0 0 1
-14.455892 -10.352555 34.400442 38.723877 0.621481 0.477052 0.044789 -0.006927 859595.000000 0 0 1
-13.752592 -9.480555 -33.869301 37.764325 0.603553 2.683414 0.048746 -0.008032 588663.000000 0 0 1
-14.733692 -8.901155 -33.039621 37.254916 0.543455 2.661285 0.046432 -0.006872 668974.000000 0 0 1
-14.020892 -7.797255 -32.187451 35.964074 0.507527 2.679203 0.041068 -0.016722 198449.000000 0 0 1
-13.796892 -6.534455 -32.779831 36.160346 0.442320 2.705747 0.033681 -0.023747 -289137.000000 0 0 1
-14.893192 -5.670555 -32.838041 36.500675 0.363801 2.689777 0.030322 -0.018227 -300785.000000 0 0 1
-15.238892 -4.870455 -31.554241 35.378175 0.309346 2.672354 0.031732 -0.019128 -138155.000000 0 0 1
-15.646292 -5.697655 -30.476291 34.728577 0.349228 2.641538 0.025760 -0.017394 -124648.000000 0 0 1
-15.921192 -5.159755 -29.155451 33.617670 0.313400 2.620480 0.034601 -0.018465 -76556.700000 0 0 1
-14.684692 -4.614555 -28.434471 32.333472 0.304472 2.645424 0.029103 -0.015853 -181832.000000 0 0 1
-14.241992 -3.441355 -29.036531 32.523797 0.237090 2.674271 0.026369 -0.022295 400440.000000 0 0 1
-12.950692 -3.041355 -28.548471 31.495801 0.230661 2.705530 0.021440 -0.019092 595514.000000 0 0 1
-12.562692 -1.784355 -29.274301 31.905953 0.141092 2.732591 0.001928 -0.012827 -221089.000000 0 0 1
-12.589392 -1.930355 -30.681671 33.220235 0.152147 2.748122 0.002584 -0.013188 202032.000000 0 0 1
-12.571192 -0.651355 -31.358121 33.790396 0.051767 2.759855 0.003056 -0.016138 -159877.000000 0 0 1
-12.738692 -0.786355 -32.879411 35.269651 0.061651 2.771322 -0.000380 -0.016763 -310653.000000 0 0 1
-13.953092 -1.391355 -33.280881 36.114286 0.099388 2.742833 0.004985 -0.023120 128478.000000 0 0 1
-14.022492 -1.490355 34.466991 37.240098 0.105886 0.388352 -0.007139 -0.020153 -179363.000000 0 0 1
-15.373392 -1.918355 33.860443 37.236419 0.124142 0.429109 -0.001550 -0.020672 56375.900000 0 0 1
-15.305592 -1.881355 32.452462 35.929973 0.122306 0.443596 -0.001420 -0.021241 350736.000000 0 0 1
-16.614092 -1.882355 31.892102 36.009408 0.112818 0.482882 0.007497 -0.017845 441840.000000 0 0 1
-16.640892 -1.950355 30.370642 34.685719 0.116670 0.504130 0.010859 -0.009445 -124381.000000 0 0 1
-16.263992 -0.685355 29.835282 33.987221 0.042114 0.499466 0.001172 0.002821 -39445.700000 0 0 1
-16.330092 -0.671355 28.420582 32.784937 0.041088 0.521889 0.000291 0.004570 -151953.000000 0 0 1
-15.763592 0.683645 27.832502 31.993849 -0.043341 0.515730 -0.004914 0.008449 123283.000000 0 0 1
-16.352392 1.966645 28.233092 32.686020 -0.119692 0.528099 0.001622 0.005550 1351460.000000 0 0 1
-17.752192 2.100645 27.851812 33.094961 -0.117784 0.570608 0.008111 -0.000969 1174470.000000 0 0 1
-17.971192 2.861645 26.531712 32.172729 -0.157909 0.601187 0.010750 -0.007957 -591129.000000 0 0 1
-17.736392 4.260645 26.485272 32.159016 -0.235753 0.603116 0.005498 -0.004704 -56431.100000 0 0 1
-18.184592 4.942645 25.338872 31.577960 -0.265393 0.639452 0.005944 -0.002777 -356777.000000 0 0 1
-18.035092 6.442645 25.688772 32.041929 -0.343100 0.640623 0.005772 0.002271 305547.000000 0 0 1
-16.695292 6.914645 25.721272 31.434518 -0.392660 0.612437 -0.002621 0.003662 41181.600000 0 0 1
-16.244692 7.238645 24.436512 30.223023 -0.419189 0.629130 0.000319 0.007661 -782123.000000 0 0 1
-15.063992 8.196645 24.437812 29.854908 -0.498319 0.611910 -0.000079 0.000822 -999853.000000 0 0 1
-13.872492 7.581645 24.778892 29.392531 -0.500170 0.567898 -0.015492 0.002581 -1047650.000000 0 0 1
-12.810392 8.356645 24.278022 28.694286 -0.578014 0.562185 0.004712 0.010334 -771842.000000 0 0 1
-11.419892 7.917645 24.727942 28.365017 -0.606229 0.511980 0.004617 0.007301 -974870.000000 0 0 1
-10.474992 8.746645 24.102042 27.697251 -0.695723 0.515196 0.007333 0.007947 -573305.000000 0 0 1
-9.338192 8.744645 24.939022 28.029011 -0.752586 0.473983 0.006562 0.000086 -374527.000000 0 0 1
-9.144592 10.103645 25.645612 29.041430 -0.835183 0.488432 0.000111 -0.009476 -627588.000000 0 0 1
-10.017492 10.299645 26.748872 30.363383 -0.799285 0.492913 -0.018474 -0.006549 224567.000000 0 0 1
-9.892192 11.558645 27.398752 31.339262 -0.862930 0.506881 -0.019946 -0.003398 -735696.000000 0 0 1
-10.415292 12.812645 26.649892 31.350581 -0.888244 0.554696 -0.032186 -0.005007 1931130.000000 0 0 1
-11.877092 12.889645 26.512522 31.782418 -0.826259 0.584137 -0.017048 -0.008465 1938090.000000 0 0 1
-12.437692 12.020645 25.547702 30.852507 -0.768349 0.595159 -0.011150 0.001521 1062690.000000 0 0 1
-14.014592 12.140645 25.333332 31.393977 -0.713873 0.631829 -0.017071 0.000429 1572350.000000 0 0 1
-14.427492 13.271645 24.600202 31.455668 -0.743694 0.672833 0.002092 -0.011727 296573.000000 0 0 1
-15.758492 13.153645 24.084372 31.644991 -0.695546 0.705820 0.016026 0.000252 662501.000000 0 0 1
-15.991992 12.528645 22.676382 30.445510 -0.664557 0.730533 0.016493 0.009729 -207537.000000 0 0 1
-15.807692 11.136645 22.736082 29.846900 -0.613745 0.704776 0.009606 0.005674 45983.500000 0 0 1
-15.904292 10.665645 21.377682 28.700310 -0.590731 0.730473 0.000476 0.017535 -104865.000000 0 0 1
-16.209392 9.161645 21.213682 28.225883 -0.514443 0.720360 -0.001053 0.014542 88085.300000 0 0 1
-17.589492 8.923645 21.353282 29.068614 -0.469493 0.745746 0.001408 0.018577 -389884.000000 0 0 1
-17.863192 7.548645 21.164182 28.705370 -0.399820 0.741746 -0.007154 0.015226 -474555.000000 0 0 1
-19.319192 7.225645 21.457882 29.763767 -0.357906 0.765639 -0.004814 0.012220 -543340.000000 0 0 1
-19.580992 7.256645 22.849082 30.954074 -0.354904 0.740456 -0.010765 0.003446 -416658.000000 0 0 1
-20.960992 7.377645 23.051182 32.017961 -0.338429 0.767073 -0.023850 0.006649 -442333.000000 0 0 1
-21.201592 8.091645 24.449702 33.358210 -0.364590 0.748157 -0.006575 0.003321 -639416.000000 0 0 1
-21.083792 9.538645 24.482282 33.688190 -0.424861 0.757244 -0.005005 -0.006504 704628.000000 0 0 1
-19.872192 10.209645 24.065582 32.837374 -0.474599 0.748263 -0.004537 -0.002938 1078190.000000 0 0 1
-18.657192 10.095645 25.029942 32.810225 -0.495994 0.703056 0.004660 -0.004362 -78220.100000 0 0 1
-18.904892 10.820645 26.219372 34.087194 -0.519858 0.693231 0.016228 -0.006224 206920.000000 0 0 1
-18.801292 10.051645 27.364882 34.689493 -0.490963 0.661857 0.008649 -0.004584 -146420.000000 0 0 1
-29.593592 -14.376985 21.509282 39.308111 0.452235 0.991785 0.006139 -0.005679 11327.900000 0 0 1
-29.260372 -15.816485 21.573182 39.645085 0.495553 0.995411 0.021842 0.001811 220389.000000 0 0 1
-30.035902 -16.632185 20.700782 40.091238 0.505713 1.028223 0.013510 0.005476 43493.900000 0 0 1
-29.644622 -16.560385 19.207982 39.012774 0.509445 1.056007 0.002831 0.006129 285105.000000 0 0 1
-29.987442 -15.280985 18.647082 38.476861 0.471282 1.064855 0.013918 -0.009882 324829.000000 0 0 1
-29.190702 -15.185385 17.461782 37.250595 0.479687 1.082904 0.016098 -0.008575 -336487.000000 0 0 1
-29.780392 -14.083485 16.517582 36.851686 0.441743 1.106026 0.001724 0.002924 1133600.000000 0 0 1
-31.104782 -14.228485 15.976882 37.752059 0.429021 1.133816 0.015867 0.007932 1871930.000000 0 0 1
-32.263192 -14.254185 16.861782 39.094949 0.416022 1.124859 0.022910 0.002821 783959.000000 0 0 1
-32.917722 -12.887085 17.190082 39.308425 0.373152 1.118188 0.008969 -0.000607 -96051.200000 0 0 1
-34.123256 -12.941985 17.920682 40.657624 0.362510 1.114339 -0.014544 0.001835 37588.600000 0 0 1
-34.661236 -11.683885 18.334082 40.915193 0.325126 1.106158 -0.006529 0.011120 872686.000000 0 0 1
34.354478 -11.897385 19.321982 41.171798 -0.333386 1.082297 0.002898 0.025931 464844.000000 0 0 1
34.806618 -12.485585 20.533682 42.296839 -0.344416 1.063900 -0.004631 0.023147 -1940.420000 0 0 1
34.063589 -12.010885 21.639182 42.105150 -0.338991 1.031034 -0.006896 0.022763 -1177200.000000 0 0 1
34.613692 -12.451085 22.983082 43.374639 -0.345304 1.012345 -0.017052 0.017956 65452.700000 0 0 1
-34.375264 -11.869185 23.364182 43.225239 0.332466 0.999739 -0.014856 0.017395 225024.000000 0 0 1
-33.243622 -12.442285 22.729982 42.149744 0.358136 1.001229 -0.016255 0.006599 -183675.000000 0 0 1
-31.927192 -11.624085 22.879382 40.962557 0.349164 0.978167 -0.003783 0.007505 130802.000000 0 0 1
-31.936892 -10.363485 22.196982 40.250129 0.313779 0.986664 0.003160 0.009274 686612.000000 0 0 1
-30.630522 -9.754585 22.198982 39.066297 0.308305 0.966433 0.007540 0.006752 352006.000000 0 0 1
-30.723662 -8.301185 21.666082 38.500288 0.263888 0.973086 0.010629 0.012048 54400.900000 0 0 1
-30.826262 -8.183085 20.266082 37.788032 0.259474 1.004738 0.010690 0.008313 740527.000000 0 0 1
-32.104972 -8.549285 19.713582 38.632173 0.260252 1.035275 0.005695 0.007349 481442.000000 0 0 1
-32.135032 -8.372385 18.176982 37.857097 0.254872 1.069974 0.010449 0.000298 376506.000000 0 0 1
-33.444782 -8.679385 17.694882 38.820021 0.253913 1.097505 0.013681 0.009094 469071.000000 0 0 1
-33.604882 -8.409685 16.329382 38.296992 0.245216 1.130300 0.006324 0.009826 -286780.000000 0 0 1
-35.050861 -8.194885 15.892282 39.348236 0.229674 1.155033 -0.012416 0.016319 -195610.000000 0 0 1
34.311068 -9.290585 15.988282 38.976782 -0.264434 1.148123 -0.022498 0.033545 237494.000000 0 0 1
32.934499 -8.934485 16.068382 37.718685 -0.264905 1.130723 -0.015897 0.028403 970939.000000 0 0 1
31.919249 -10.107085 15.848882 37.042931 -0.306657 1.128682 -0.015014 0.027995 60369.300000 0 0 1
31.960539 -11.156185 16.864982 37.820155 -0.335838 1.108588 -0.021947 0.027858 483466.000000 0 0 1
30.907569 -12.137785 16.725282 37.179816 -0.374208 1.104201 -0.017707 0.024127 484778.000000 0 0 1
30.481039 -12.866785 18.068582 37.697766 -0.399432 1.070938 -0.016603 0.022859 475308.000000 0 0 1
31.488479 -13.711785 18.658782 39.085643 -0.410692 1.073123 -0.008888 0.016370 246498.000000 0 0 1
31.136599 -14.012385 19.939882 39.540279 -0.422878 1.042233 -0.015267 0.022967 -436916.000000 0 0 1
32.174219 -14.896385 20.671882 41.041557 -0.433605 1.042941 -0.025963 0.022366 -244684.000000 0 0 1
32.163909 -14.879385 22.064282 41.746206 -0.433292 1.013924 -0.028797 0.014061 -88328.600000 0 0 1
32.741229 -16.108885 22.569882 42.905522 -0.457232 1.016863 -0.037675 0.036251 74246.600000 0 0 1
32.907669 -16.121585 24.113492 43.866624 -0.455538 0.988791 -0.021790 0.015672 -46408.400000 0 0 1
33.792559 -15.165985 24.597532 44.463274 -0.421853 0.984584 -0.008857 0.019076 -463182.000000 0 0 1
34.101389 -15.322285 25.959562 45.514569 -0.422285 0.963856 -0.010561 0.022626 -723044.000000 0 0 1
-34.993557 -14.458885 26.463492 46.194424 0.391823 0.960791 -0.002852 0.015750 198542.000000 0 0 1
-33.686952 -14.999585 26.133012 45.196599 0.418908 0.954266 -0.015320 0.019595 146269.000000 0 0 1
-32.736702 -14.133685 26.611962 44.493249 0.407564 0.929653 -0.012535 0.011331 -413305.000000 0 0 1
-31.304392 -14.712985 26.469322 43.555274 0.439359 0.917612 0.002519 0.003977 -175477.000000 0 0 1
-30.879982 -14.903685 25.152512 42.524604 0.449657 0.937901 -0.000139 0.004837 832095.000000 0 0 1
-29.487242 -15.273985 25.050932 41.597371 0.477933 0.924512 0.020102 -0.010635 983159.000000 0 0 1
-29.081132 -16.694885 25.320332 42.018456 0.521142 0.924041 0.030208 -0.004251 -732201.000000 0 0 1
-29.057342 -16.940885 26.697822 42.942944 0.527837 0.899879 0.030824 -0.003394 105419.000000 0 0 1
-28.787682 -18.301585 27.032882 43.525341 0.566288 0.900672 0.035501 -0.013838 -285591.000000 0 0 1
-28.477552 -18.354585 28.524482 44.288913 0.572519 0.871009 0.030965 -0.022070 65324.800000 0 0 1
-27.298792 -17.646485 28.864952 43.471921 0.573854 0.844653 0.034202 -0.017193 -11678.400000 0 0 1
-26.879782 -18.004885 30.167432 44.235421 0.590189 0.820337 0.041860 -0.018036 35782.300000 0 0 1
-25.571112 -17.291085 30.547982 43.428592 0.594571 0.790617 0.026283 -0.015168 -490282.000000 0 0 1
-25.749762 -16.024085 31.197122 43.509562 0.556656 0.771282 0.036425 -0.017830 -399946.000000 0 0 1
-24.826792 -15.067285 30.772882 42.312681 0.545475 0.756456 0.012067 -0.009447 -1223250.000000 0 0 1
-24.847792 -13.757685 31.632262 42.512194 0.505663 0.731647 0.013424 -0.000207 -141814.000000 0 0 1
-24.152792 -13.869885 32.847022 43.065740 0.521275 0.703291 0.012877 0.001749 -140784.000000 0 0 1
-24.150492 -12.606585 33.535080 43.206178 0.481093 0.682237 0.007377 0.008132 -36209.800000 0 0 1
-23.323292 -12.582785 -34.264960 43.317316 0.494742 2.483274 0.009486 0.006499 594925.000000 0 0 1
-21.986892 -13.072985 -34.296581 42.785299 0.536425 2.500758 -0.017805 0.006737 65344.100000 0 0 1
-21.767592 -14.465985 -34.394090 43.197757 0.586546 2.491786 -0.012011 -0.001104 -518680.000000 0 0 1
-21.729392 -15.184285 -33.026761 42.349686 0.609914 2.465236 -0.008068 -0.003486 -206865.000000 0 0 1
-20.644192 -14.800185 -32.198581 41.011910 0.621990 2.473659 -0.016420 -0.001061 127789.000000 0 0 1
-20.583492 -15.645685 -31.057801 40.411070 0.649939 2.447363 0.007219 -0.009620 -394398.000000 0 0 1
-19.326092 -15.478985 -30.218011 39.066930 0.675312 2.455131 0.018066 -0.005126 -341287.000000 0 0 1
-19.344092 -14.286485 -29.458021 38.027260 0.636130 2.456966 0.012724 0.001962 576870.000000 0 0 1
-20.085192 -14.402685 -28.196581 37.495326 0.622097 2.421891 0.013431 -0.004156 312643.000000 0 0 1
-19.783292 -13.282885 -27.221871 36.177948 0.591286 2.422561 0.009473 0.004737 -14289.300000 0 0 1
-18.442192 -13.189385 -26.781981 35.090580 0.620838 2.439085 0.021709 -0.007086 49193.300000 0 0 1
-18.225492 -12.045885 -25.987901 33.950595 0.584025 2.442556 0.012708 -0.006012 210824.000000 0 0 1
-16.824892 -12.004685 -25.333651 32.695310 0.619734 2.457259 0.023626 -0.011084 -401136.000000 0 0 1
-16.791592 -12.897585 -24.185301 32.143958 0.654983 2.422503 0.020088 -0.007464 455862.000000 0 0 1
-15.535492 -12.924785 -23.494301 30.990059 0.693923 2.431227 0.026152 -0.008573 570783.000000 0 0 1
-14.351392 -13.647585 -24.201601 31.271976 0.760267 2.455784 0.013501 -0.007644 -589076.000000 0 0 1
-13.641192 -12.783085 -25.029301 31.240283 0.752935 2.500072 0.024404 -0.012179 -180611.000000 0 0 1
-12.889292 -13.539985 -25.986881 32.012232 0.810013 2.517990 0.023511 -0.005387 -255650.000000 0 0 1
-12.177492 -12.539585 -26.876351 32.060423 0.800047 2.564960 0.025542 0.010333 -397323.000000 0 0 1
-13.007292 -11.741585 -27.748081 32.817837 0.734301 2.578331 0.040545 0.001901 508841.000000 0 0 1
-12.321892 -10.841285 -28.674001 33.038777 0.721564 2.621734 0.045216 -0.005553 165909.000000 0 0 1
-11.691792 -11.431785 -29.961171 34.132909 0.774154 2.642004 0.037032 -0.003959 44777.500000 0 0 1
-11.108992 -10.368285 -30.645781 34.206358 0.750924 2.681269 0.048569 -0.009890 -88632.600000 0 0 1
-10.870992 -10.611685 -32.029421 35.449543 0.773328 2.698713 0.052224 -0.010757 17183.400000 0 0 1
-10.265692 -9.377885 -32.756471 35.585328 0.740233 2.740167 0.038324 -0.010068 1065130.000000 0 0 1
-8.896392 -9.119085 -32.377871 34.794109 0.797759 2.766725 0.004037 -0.005664 738908.000000 0 0 1
-8.490492 -7.839785 -32.869361 34.841722 0.745573 2.803505 -0.004432 -0.001027 86378.000000 0 0 1
-7.013292 -7.497485 -32.558561 34.138811 0.818754 2.836140 0.007684 0.002713 -129719.000000 0 0 1
-6.632092 -7.385185 -31.180321 32.722133 0.839073 2.833394 -0.015404 0.006522 -5229.920000 0 0 1
-7.111392 -6.209085 -30.516111 31.943038 0.717763 2.841567 -0.023046 0.008455 -468498.000000 0 0 1
-6.490692 -4.861885 -30.940621 31.985763 0.642896 2.885254 -0.026548 0.008738 213811.000000 0 0 1
-5.111892 -4.759085 -30.615341 31.401902 0.749672 2.917301 -0.016493 0.011280 157171.000000 0 0 1
-4.578392 -3.512585 -30.964351 31.497476 0.654424 2.957343 -0.008696 0.003264 146865.000000 0 0 1
-3.060892 -3.451385 -30.637521 30.982879 0.845289 2.992144 -0.017450 0.013817 370362.000000 0 0 1
-2.264992 -4.188585 -31.661881 32.017950 1.075080 2.992317 -0.022975 0.010789 1080190.000000 0 0 1
-0.863692 -3.948685 -31.562291 31.820061 1.355459 3.014221 -0.008844 0.007201 760764.000000 0 0 1
-0.251992 -2.552585 -31.807141 31.910397 1.472395 3.061125 -0.010524 0.008188 -779828.000000 0 0 1
-0.118292 -1.703885 -30.718511 30.765958 1.501483 3.086049 -0.013016 0.011140 213470.000000 0 0 1
0.710408 -0.593885 -31.013411 31.027231 -0.696296 3.111745 -0.008029 0.012567 63528.400000 0 0 1
0.898508 0.277515 -29.744451 29.759313 0.299567 3.109988 -0.001111 0.002871 1238320.000000 0 0 1
-0.327192 0.942915 -29.331991 29.348967 -1.236797 3.107579 0.002962 0.004003 1144020.000000 0 0 1
0.085108 2.150515 -28.829801 28.910022 1.531241 3.067079 0.022137 -0.004141 -129916.000000 0 0 1
-1.097992 3.022715 -28.427071 28.608404 -1.222369 3.028941 0.018036 0.000493 -221003.000000 0 0 1
-1.885292 3.454015 -29.521781 29.782883 -1.071163 3.009081 -0.000364 -0.000607 -755732.000000 0 0 1
-3.041592 4.027115 -29.050801 29.485895 -0.923926 2.969590 0.040109 -0.007512 -350404.000000 0 0 1
-4.181792 4.047915 -30.139351 30.696148 -0.769132 2.950836 0.037362 -0.008995 132136.000000 0 0 1
-3.891192 4.999215 -31.152541 31.790161 -0.909390 2.940971 0.034315 -0.005465 -333750.000000 0 0 1
-4.892992 5.254715 -32.065881 32.859917 -0.821029 2.921310 0.037177 -0.005232 -1157960.000000 0 0 1
-4.353692 5.910815 -33.311241 34.110572 -0.935950 2.924680 0.037940 -0.003014 -174267.000000 0 0 1
-3.793392 5.149015 -34.363749 34.953819 -0.935848 2.957587 0.049787 -0.004892 408337.000000 0 0 1
-2.590692 4.445615 -34.118207 34.504018 -1.043156 2.991910 0.033386 -0.007378 -482587.000000 0 0 1
-2.043792 3.677215 33.768110 34.029168 -1.063512 0.123947 0.023586 -0.006992 -349051.000000 0 0 1
-2.740992 2.461015 33.429036 33.631386 -0.731629 0.109752 0.016817 -0.007255 284653.000000 0 0 1
-2.590092 1.945215 32.067552 32.230736 -0.644155 0.100670 0.022588 -0.003101 -274292.000000 0 0 1
-2.532892 2.832615 30.783802 31.017442 -0.841201 0.122817 0.035286 -0.010472 -682295.000000 0 0 1
-3.703092 3.546315 30.579852 31.006719 -0.763775 0.166124 0.021841 -0.007858 -494187.000000 0 0 1
-3.563792 4.501515 29.504202 30.057648 -0.901145 0.192196 0.021992 -0.014589 188776.000000 0 0 1
-4.768692 5.460015 29.368702 30.250171 -0.852882 0.242000 0.025490 -0.005260 300107.000000 0 0 1
-4.701492 5.952915 28.062762 29.069913 -0.902318 0.263999 0.024409 0.002084 1244700.000000 0 0 1
-5.988392 6.584215 27.757102 29.149090 -0.832753 0.310287 0.022234 0.003227 1066080.000000 0 0 1
-5.978592 7.349415 26.467532 28.112057 -0.887891 0.343739 0.018773 -0.004469 210075.000000 0 0 1
-5.175492 8.555515 26.420262 28.249121 -1.026759 0.361804 0.026117 -0.002572 220275.000000 0 0 1
-5.388592 9.245115 25.225142 27.401038 -1.043076 0.401206 0.029860 -0.002445 238542.000000 0 0 1
-4.399292 10.455915 25.275222 27.704093 -1.172534 0.421862 0.019422 -0.003792 -151632.000000 0 0 1
-4.634192 11.423115 24.243512 27.197632 -1.185398 0.470409 0.031240 -0.001359 124073.000000 0 0 1
-4.064292 12.688615 24.463842 27.856759 -1.260812 0.498708 0.022990 0.008437 1258970.000000 0 0 1
-2.454892 12.815015 24.450842 27.714523 -1.381526 0.490199 0.019585 0.008338 1674310.000000 0 0 1
-1.771492 12.327715 25.598762 28.467655 -1.428073 0.452807 0.021105 0.011645 -60678.400000 0 0 1
-2.111892 13.055815 26.786882 29.873926 -1.410427 0.458620 0.016848 0.011457 -707174.000000 0 0 1
-1.302992 12.634115 28.042262 30.784527 -1.468027 0.425286 0.015255 0.008247 474927.000000 0 0 1
0.085908 12.828415 27.818052 30.633636 1.564100 0.432100 0.017313 0.012896 -484846.000000 0 0 1
0.858908 12.646015 28.948202 31.601548 1.502981 0.412709 0.023874 -0.000455 -661018.000000 0 0 1
2.341008 12.865915 28.655792 31.498675 1.390811 0.428125 0.019858 -0.001324 -343597.000000 0 0 1
2.594408 14.233715 28.512192 31.973031 1.390504 0.469582 0.015179 -0.000609 997973.000000 0 0 1
4.023308 14.442415 28.616572 32.306015 1.299109 0.482588 0.027746 -0.002846 989815.000000 0 0 1
4.389908 15.882415 28.967592 33.326323 1.301128 0.517193 0.017548 -0.002250 -410932.000000 0 0 1
4.060708 16.359315 30.293832 34.667461 1.327494 0.507750 0.012639 0.006943 796817.000000 0 0 1
2.809908 17.055215 30.407572 34.977084 1.407510 0.516897 0.004441 0.006417 458150.000000 0 0 1
2.780608 18.513815 29.825762 35.214617 1.421720 0.560534 0.005241 0.006955 216023.000000 0 0 1
3.758708 19.379015 30.404192 36.250366 1.379217 0.575853 0.001794 0.008390 121656.000000 0 0 1
4.776208 19.822115 29.535332 35.889612 1.334350 0.604213 0.003493 0.006569 465886.000000 0 0 1
5.933108 20.486215 30.356932 37.100271 1.288894 0.612453 0.008894 0.002348 248818.000000 0 0 1
5.626608 21.831615 30.632142 38.034278 1.318558 0.634476 -0.004668 0.002241 36912.700000 0 0 1
6.650408 22.486415 31.357782 39.155808 1.283241 0.642089 -0.019895 -0.003833 -300196.000000 0 0 1
6.805508 24.014215 31.041522 39.831816 1.294642 0.677225 -0.025981 0.004643 -304729.000000 0 0 1
7.248408 24.224615 29.716182 39.018238 1.280058 0.705022 -0.039473 0.009540 -21595.800000 0 0 1
7.052308 25.562215 29.374852 39.573272 1.301605 0.734315 -0.053695 0.015389 23575.400000 0 0 1
7.697408 25.972115 27.994652 38.955121 1.282671 0.768954 -0.044630 0.016448 236174.000000 0 0 1
7.029108 25.377215 26.869722 37.621714 1.300586 0.775305 -0.035939 0.011210 126480.000000 0 0 1
7.889408 25.236715 25.751002 36.908653 1.267806 0.798621 -0.012582 0.001484 -186200.000000 0 0 1
28.215689 2.356115 6.947599 29.153825 0.083310 1.330173 0.018758 0.019958 -52799.000000 0 0 1
28.441209 3.229915 8.018399 29.725905 0.113080 1.297669 0.009683 0.014197 750102.000000 0 0 1
27.349069 3.299515 8.964899 28.969429 0.120064 1.256171 0.004647 0.022041 300124.000000 0 0 1
27.577099 4.329515 10.181799 29.713804 0.155726 1.221047 -0.007827 0.022418 22252.900000 0 0 1
27.395069 5.676815 9.893199 29.674761 0.204328 1.230902 -0.004225 0.022765 1393840.000000 0 0 1
28.604229 6.202415 9.261799 30.699394 0.213530 1.264328 0.017344 0.004640 1137290.000000 0 0 1
28.375499 7.696715 8.918799 30.723824 0.264872 1.276267 0.039922 -0.004654 122241.000000 0 0 1
27.489929 7.855215 7.836899 29.644858 0.278332 1.303257 0.028230 -0.009350 -257959.000000 0 0 1
27.627079 9.114415 7.223699 29.975155 0.318665 1.327411 0.047589 -0.024376 -541204.000000 0 0 1
26.749599 9.342115 6.016499 28.965746 0.336000 1.361562 0.038005 -0.020916 -1128040.000000 0 0 1
25.413669 9.472015 6.347299 27.854297 0.356764 1.340902 0.040143 -0.020012 -1138130.000000 0 0 1
24.727619 9.861015 5.201199 27.124661 0.379459 1.377850 0.048177 -0.019828 -522076.000000 0 0 1
23.302619 10.382615 5.382299 26.072589 0.419152 1.362866 0.008247 -0.016397 -345275.000000 0 0 1
23.204819 11.515715 6.177799 26.631570 0.460654 1.336691 0.010020 -0.003971 10278.300000 0 0 1
21.842619 11.853915 6.274699 25.631761 0.497219 1.323481 0.006608 0.001542 -454907.000000 0 0 1
21.628119 13.344915 6.706099 26.283722 0.552838 1.312801 -0.007489 0.016784 -480983.000000 0 0 1
21.909419 14.276215 5.658799 26.755466 0.577500 1.357686 -0.002734 0.024370 379028.000000 0 0 1
21.735419 15.550215 6.195499 27.433954 0.621008 1.342998 0.018355 0.008403 -231368.000000 0 0 1
21.485319 16.642115 5.120099 27.654916 0.659048 1.384580 0.018827 0.007679 509750.000000 0 0 1
20.148119 16.655115 4.592399 26.541094 0.690771 1.396891 0.031476 0.010701 1024930.000000 0 0 1
20.028019 17.482815 3.540699 26.819898 0.717650 1.438392 0.033014 0.004710 -143947.000000 0 0 1
18.551319 17.494515 3.103999 25.687435 0.756088 1.449663 0.023086 0.002138 16112.300000 0 0 1
17.642019 18.148915 3.954399 25.617596 0.799560 1.415814 0.022982 0.004263 -435890.000000 0 0 1
16.315219 17.840815 3.690199 24.456055 0.830034 1.419327 0.008162 -0.008914 -880087.000000 0 1 0
15.384119 19.073315 3.825699 24.801178 0.892057 1.415923 0.021843 -0.006964 -1607150.000000 0 1 0
14.075119 18.671015 3.816699 23.691411 0.924837 1.408991 0.020428 -0.020658 -1332890.000000 0 1 0
13.307919 19.802715 4.162699 24.219337 0.979093 1.398064 0.006501 -0.021723 -879585.000000 0 1 0
11.807819 19.658615 4.073299 23.291147 1.029904 1.395006 0.012736 -0.019648 -944251.000000 0 1 0
11.212519 18.841715 5.022899 22.493562 1.033995 1.345594 0.005784 -0.027994 -1159060.000000 0 1 0
9.837919 18.984815 4.915199 21.940078 1.092695 1.344850 0.017789 -0.019049 -861856.000000 0 1 0
9.247519 18.393415 6.198699 21.500191 1.104941 1.278336 0.014909 -0.015163 -807512.000000 0 1 0
8.972219 19.362715 7.194899 22.520702 1.136875 1.245616 0.011094 -0.017753 -153732.000000 0 1 0
8.389719 18.704215 8.339399 22.130988 1.149151 1.184436 0.010243 -0.011140 16541.900000 0 1 0
7.517819 19.724615 9.197399 23.025425 1.206654 1.159885 0.010181 -0.007148 1212260.000000 0 1 0
6.280019 20.085215 8.544899 22.712767 1.267758 1.185088 0.015427 -0.012807 857796.000000 0 1 0
6.502619 21.092315 7.557499 23.329929 1.271748 1.240905 0.014448 -0.011704 -565803.000000 0 1 0
5.263619 21.389415 6.682699 23.018932 1.329506 1.276242 0.019656 0.000604 1415740.000000 0 1 0
3.992319 21.780615 7.279999 23.309487 1.389512 1.253163 0.015258 0.001450 1248530.000000 0 1 0
3.927919 23.037915 8.049699 24.717842 1.401922 1.239083 0.005750 -0.003880 -366075.000000 0 1 0
4.062119 24.289415 7.065799 25.620344 1.405092 1.291386 0.002130 -0.005951 600621.000000 0 0 1
2.779419 24.558815 6.469799 25.548363 1.458102 1.314771 0.028289 -0.010848 1007180.000000 0 0 1
2.913419 25.505915 5.451399 26.244189 1.457064 1.361555 0.023764 -0.009391 174094.000000 0 0 1
1.603819 25.673415 4.627599 26.136395 1.508407 1.392802 0.023675 -0.012879 475918.000000 0 0 1
0.570819 26.345215 5.366499 26.892295 1.549133 1.369892 0.040886 -0.017253 52597.200000 0 0 1
-0.510681 26.482415 4.475799 26.862835 -1.551515 1.403399 0.030597 -0.014800 -762784.000000 0 0 1
-1.740281 27.140215 5.090199 27.668212 -1.506762 1.385770 0.029618 -0.014870 -394652.000000 0 0 1
-2.693081 27.308015 4.062099 27.739521 -1.472495 1.423831 0.035238 -0.012273 -645247.000000 0 0 1
-3.866981 27.889515 4.521399 28.517041 -1.433021 1.411574 0.023151 -0.013604 -941485.000000 0 0 1
-4.720181 28.380615 3.357699 28.965731 -1.405988 1.454615 0.017922 -0.016960 -350701.000000 0 0 1
-4.131481 29.446315 2.627899 29.850636 -1.431401 1.482647 0.023332 -0.019681 266555.000000 0 0 1
-4.884081 29.741115 1.480399 30.175814 -1.408029 1.521718 0.029744 -0.022588 -233039.000000 0 0 1
-4.180381 30.849615 0.684899 31.139098 -1.436108 1.548800 0.012051 -0.018705 -321660.000000 0 0 1
-4.109181 32.183315 1.241099 32.468315 -1.443803 1.532562 0.005625 -0.012355 252786.000000 0 0 1
-3.092581 32.278215 2.232099 32.502761 -1.475278 1.502068 0.014582 -0.018583 -448486.000000 0 0 1
-2.100381 33.435815 1.988099 33.560660 -1.508060 1.511523 0.005170 -0.017117 -583668.000000 0 0 1
-1.270581 33.386815 0.825699 33.421185 -1.532758 1.546088 -0.017710 -0.006674 382307.000000 0 0 1
-0.474881 34.518715 0.588999 34.527006 -1.557040 1.553736 -0.023414 -0.004913 261875.000000 0 0 1
0.774519 -34.549555 1.496599 34.590626 -1.548382 1.527517 -0.027872 -0.005704 -650445.000000 0 0 1
0.450319 -34.399655 2.869699 34.522083 -1.557706 1.487574 -0.016467 -0.005340 -126248.000000 0 0 1
1.507419 34.610915 3.774799 34.848771 1.527271 1.462264 -0.010596 -0.006655 22898.300000 0 0 1
1.043819 -34.500155 5.226799 34.909449 -1.540550 1.420507 0.000226 -0.004363 432987.000000 0 0 1
0.168919 33.757415 5.733799 34.241321 1.565792 1.402551 0.001743 -0.015058 291492.000000 0 0 1
-0.351781 33.949915 7.038899 34.673716 -1.560435 1.366372 0.017496 -0.016696 193472.000000 0 0 1
0.688819 33.806515 8.193699 34.792120 1.550424 1.333059 0.018184 -0.005428 220865.000000 0 0 1
1.179119 32.459615 8.232199 33.508000 1.534487 1.322577 0.014424 -0.012099 -318043.000000 0 0 1
2.158619 32.327215 9.206699 33.681921 1.504121 1.293930 0.020930 -0.004965 -538272.000000 0 0 1
2.787919 30.923815 9.207099 32.385576 1.480885 1.282524 0.015102 -0.014658 -368517.000000 0 0 1
1.908819 29.949615 9.657199 31.525934 1.507148 1.259466 0.021027 -0.020607 63645.700000 0 0 1
2.530019 28.689415 9.534699 30.337996 1.482837 1.251096 0.019566 -0.020789 48562.600000 0 0 1
2.192819 27.802615 10.738699 29.885005 1.492088 1.203242 0.014557 -0.023188 -458559.000000 0 0 1
2.780519 28.304315 11.875099 30.820180 1.472874 1.175260 0.015743 -0.003890 -303204.000000 0 0 1
2.772819 27.401115 12.957599 30.436968 1.469946 1.131040 0.011396 -0.000304 -51382.600000 0 0 1
1.469219 26.945215 13.748299 30.285623 1.516324 1.099598 0.000532 0.003169 922014.000000 0 0 1
0.787419 27.962415 14.459499 31.489582 1.542644 1.093720 -0.001298 0.003672 427575.000000 0 0 1
-0.001381 28.812115 13.605399 31.862907 -1.570748 1.129626 0.000259 -0.003684 -175131.000000 0 0 1
-0.704881 30.088815 14.179899 33.270155 -1.547374 1.130503 -0.007615 0.001879 -246318.000000 0 0 1
-1.714581 29.869515 15.103999 33.515049 -1.513457 1.103288 -0.015201 0.010650 -295047.000000 0 0 1
-2.380881 31.103515 15.317099 34.752133 -1.494398 1.114359 -0.019821 0.010726 -277114.000000 0 0 1
-3.739081 31.072015 16.060799 35.176698 -1.451036 1.096655 -0.024418 0.024084 -407083.000000 0 0 1
-4.586081 30.312915 15.254099 34.243138 -1.420644 1.109103 -0.023362 0.018101 -1160050.000000 0 0 1
-5.785181 30.146115 15.911699 34.575117 -1.381197 1.092568 -0.018004 0.022698 -1472920.000000 0 0 1
-6.848781 29.350015 15.144399 33.729542 -1.341550 1.105156 -0.006150 0.015091 -482939.000000 0 0 1
-8.046681 29.381615 15.875199 34.351861 -1.303483 1.090395 -0.005480 0.017277 -142688.000000 0 0 1
-9.119781 28.837415 15.107599 33.808379 -1.264500 1.107544 -0.001468 0.011419 1049620.000000 0 0 1
-10.416081 28.555615 15.961199 34.331877 -1.221029 1.087264 -0.001153 0.009919 299019.000000 0 0 1
-11.002081 29.673615 16.640999 35.756007 -1.215739 1.086705 -0.008162 -0.004508 149588.000000 0 0 1
-10.410381 30.182115 17.774899 36.541526 -1.238655 1.062797 -0.003015 -0.003819 -668335.000000 0 0 1
-11.381281 31.199115 18.443799 37.988051 -1.221002 1.063843 0.003698 0.001394 -124805.000000 0 0 1
-12.444681 30.545715 19.069799 38.099449 -1.183917 1.046589 -0.004262 -0.003310 -164584.000000 0 0 1
-13.384981 31.536115 19.472899 39.406574 -1.169406 1.053935 0.011873 -0.016634 205581.000000 0 0 1
-14.336381 31.160815 20.665199 40.044708 -1.139594 1.028560 0.011841 -0.016645 132119.000000 0 0 1
-13.764681 30.871115 21.903599 40.277287 -1.151377 0.995814 0.013847 -0.009099 -24612.300000 0 0 1
-14.832381 30.624015 22.799199 40.958922 -1.119756 0.980466 0.008523 -0.007860 134481.000000 0 0 1
-14.379881 30.624915 24.289199 41.648909 -1.131805 0.948147 0.004516 0.002270 -745403.000000 0 0 1
-13.475781 29.560915 24.499399 40.689863 -1.143076 0.924667 0.000263 -0.004906 406563.000000 0 0 1
-12.895981 29.377615 25.803399 41.172393 -1.157150 0.893465 0.011199 -0.001363 243778.000000 0 0 1
-12.320481 30.604015 26.531299 42.335680 -1.188070 0.893499 0.012436 0.000316 -355938.000000 0 0 1
-13.357381 31.511915 26.915899 43.541773 -1.169872 0.904393 0.019400 0.004977 486044.000000 0 0 1
-12.844081 32.680615 27.501099 44.601608 -1.196323 0.906387 0.023201 0.005886 -627238.000000 0 0 1
-13.949081 33.580415 28.026999 45.910062 -1.177091 0.914135 0.032778 0.003412 -231367.000000 0 0 1
-14.692781 33.092415 29.130299 46.471067 -1.152950 0.893295 0.000429 0.006710 343320.000000 0 0 1
-14.055081 33.304515 30.445999 47.261981 -1.171455 0.870824 0.016162 0.012159 147296.000000 0 0 1
-14.774481 32.699315 31.679299 47.865525 -1.146423 0.847526 0.005264 0.012617 379666.000000 0 0 1
-16.006781 33.338415 32.013999 48.913833 -1.123171 0.857278 -0.000577 0.011522 423369.000000 0 0 1
-16.670781 32.659315 33.119999 49.411336 -1.098828 0.836195 -0.013492 0.014409 959368.000000 0 0 1
-18.050981 33.310615 33.470499 50.554023 -1.074194 0.847214 -0.003659 0.005338 639778.000000 0 0 1
-17.957881 34.594315 33.955799 51.693795 -1.091986 0.854144 0.001592 0.008860 -426524.000000 0 0 1
-19.252681 -34.161255 33.979599 51.887091 1.057585 0.856778 -0.001723 0.004985 -404518.000000 0 0 1
-19.259981 -32.727155 34.514799 51.315542 1.038874 0.833081 0.002945 0.014048 -175467.000000 0 0 1
-18.806681 -32.585055 -33.331785 50.264151 1.047343 2.295792 0.003140 0.020518 -304387.000000 0 0 1
-19.870081 -32.622555 -32.398385 50.086989 1.023720 2.274233 0.011826 0.020700 -4831.840000 0 0 1
-19.664281 -31.821555 -31.075585 48.631134 1.017279 2.264002 0.020851 0.018573 -230216.000000 0 0 1
-19.896681 -30.438955 -31.262585 47.955782 0.991854 2.280889 0.023442 0.017693 -181541.000000 0 0 1
-19.397381 -29.651155 -30.237685 46.580757 0.991484 2.277257 0.035296 0.011042 -87331.500000 0 0 1
-19.497481 -28.120855 -30.438685 45.797901 0.964550 2.297796 0.041903 -0.000520 240584.000000 0 0 1
-20.803581 -27.650255 -30.156585 45.899293 0.925772 2.287650 0.035276 0.004129 -14887.500000 0 0 1
-20.906281 -26.203055 -30.116985 45.063349 0.897364 2.302752 0.034043 0.004376 324952.000000 0 0 1
-22.159581 -25.769855 -29.293685 44.869281 0.860581 2.282160 0.034714 0.005806 354942.000000 0 0 1
-22.140281 -26.203055 -27.970085 44.261922 0.869241 2.254827 0.037363 0.001862 126333.000000 0 0 1
-21.354681 -25.401855 -27.096485 42.842690 0.871741 2.255527 0.042483 -0.013239 5981.030000 0 0 1
-21.553781 -25.765455 -25.619185 42.246500 0.874170 2.222349 0.060189 -0.001782 -367320.000000 0 0 1
-22.836681 -25.456355 -25.160485 42.456919 0.839590 2.205094 0.043516 -0.000643 -384509.000000 0 0 1
-22.892381 -25.845855 -23.836985 41.955585 0.845923 2.175050 0.046274 0.010432 30974.900000 0 0 1
-24.353481 -25.862255 -23.255085 42.458771 0.815435 2.150421 0.030638 0.012351 377274.000000 0 0 1
-25.279781 -26.745555 -23.767285 43.809540 0.813565 2.144223 -0.004621 0.021969 -555730.000000 0 0 1
-24.906981 -28.123955 -23.731885 44.435536 0.845986 2.134209 0.010257 0.028094 -1236100.000000 0 0 1
-26.121481 -29.070055 -23.647285 45.679250 0.838772 2.114935 -0.021086 0.031706 702340.000000 0 0 1
-26.991581 -28.862955 -22.515285 45.481355 0.818890 2.088682 -0.029822 0.038272 540893.000000 0 0 1
-28.016081 -27.885055 -22.643785 45.554561 0.783054 2.091015 -0.031349 0.036753 -80085.700000 0 0 1
-28.519681 -27.306555 -21.324485 44.874868 0.763671 2.065986 -0.039622 0.036107 -209869.000000 0 0 1
-29.040081 -28.268155 -20.467185 45.401768 0.771929 2.038459 -0.051330 0.042747 139052.000000 0 0 1
-29.434181 -27.662555 -19.236885 44.739755 0.754380 2.015259 -0.050627 0.034914 -1024730.000000 0 0 1
-30.226781 -28.619455 -18.376485 45.501941 0.758091 1.986530 -0.048826 0.028110 158279.000000 0 0 1
-31.570381 -28.978555 -18.751085 46.776583 0.742619 1.983257 -0.050511 0.027118 1535360.000000 0 0 1
-32.589881 -27.966355 -18.659185 46.822884 0.709195 1.980683 -0.046236 0.027611 156461.000000 0 0 1
-33.002181 -27.614455 -17.206885 46.344136 0.696749 1.951189 -0.035719 0.025959 -789888.000000 0 0 1
-32.018181 -26.862255 -16.535585 44.946303 0.698055 1.947542 -0.034696 0.027381 19218.200000 0 0 1
-32.487881 -26.230455 -15.394585 44.502723 0.679232 1.924020 -0.030636 0.016503 -126338.000000 0 0 1
-32.514181 -27.026955 -14.079885 44.563117 0.693499 1.892258 -0.000264 0.016673 -587002.000000 0 0 1
-33.310981 -28.129555 -13.964985 45.781154 0.701265 1.880774 0.005005 0.021112 -202410.000000 0 0 1
-33.059081 -28.717655 -12.709085 45.597449 0.715237 1.853261 -0.004619 0.008542 -165332.000000 0 0 1
-33.888181 -29.990755 -12.564385 46.965071 0.724461 1.841621 0.000511 0.007234 -137411.000000 0 0 1
-33.472981 -31.009555 -13.447585 47.569638 0.747214 1.857396 -0.020927 0.014153 268400.000000 0 0 1
-33.908381 -32.257255 -12.984485 48.568566 0.760449 1.841431 -0.018470 0.002723 -48854.400000 0 0 1
-33.396781 -33.366255 -13.965985 49.231094 0.784941 1.858428 -0.027096 0.011166 1105800.000000 0 0 1
-31.964381 -33.562355 -14.027685 48.424469 0.809780 1.864691 -0.022355 0.011482 1122460.000000 0 0 1
-31.606281 -34.473255 -15.084785 49.141764 0.828758 1.882798 -0.003252 -0.000362 285187.000000 0 0 1
-30.092981 34.558915 -15.290585 48.308468 -0.854365 1.892855 -0.013626 0.007395 350829.000000 0 0 1
-29.874281 33.541115 -16.323485 47.790535 -0.843156 1.919376 -0.004633 0.007253 -465253.000000 0 0 1
-28.496481 33.453415 -16.620785 46.983304 -0.865243 1.932384 -0.007508 0.006596 -113610.000000 0 0 1
9.356808 20.145515 -9.193801 24.039917 1.135982 1.963231 0.029265 -0.007208 -406750.000000 0 1 0
7.948108 19.988915 -9.169401 23.383906 1.192338 1.973736 0.026145 -0.013822 500061.000000 0 1 0
7.244708 20.194015 -10.418001 23.849922 1.226343 2.022851 0.032234 -0.010484 417950.000000 0 1 0
7.371908 18.980015 -11.358701 23.315362 1.200327 2.079650 0.035788 -0.004512 -71008.900000 0 1 0
8.663108 18.648615 -11.854601 23.735034 1.135913 2.093767 0.041343 -0.005287 -172257.000000 0 1 0
8.591308 17.435315 -12.575301 23.150356 1.112963 2.145042 0.045090 -0.015907 -819656.000000 0 1 0
9.791208 16.956315 -13.347201 23.696670 1.047132 2.169113 0.048378 -0.014898 -552483.000000 0 1 0
9.547308 15.757915 -14.064501 23.179154 1.026069 2.222792 0.047609 -0.026374 -191496.000000 0 1 0
10.685008 15.503915 -14.835501 23.971501 0.967368 2.238113 0.036659 -0.021269 -640371.000000 0 1 0
10.609708 14.308115 -15.767701 23.788831 0.932747 2.295374 0.036331 -0.022222 -418666.000000 0 1 0
10.693208 13.031415 -15.118101 22.643310 0.883637 2.301862 0.049045 -0.025075 1397090.000000 0 1 0
11.926108 12.737615 -14.382501 22.612723 0.818289 2.260146 0.048357 -0.025422 872843.000000 0 1 0
12.913708 11.833715 -15.200501 23.191721 0.741785 2.285545 0.050818 -0.023117 -261008.000000 0 1 0
13.387008 12.572615 -16.293401 24.551121 0.754037 2.296487 0.031738 -0.013860 207477.000000 0 1 0
14.389808 11.952815 -17.072501 25.326008 0.693149 2.310555 0.033632 -0.014833 23673.400000 0 0 1
14.804008 12.703215 -18.305701 26.751244 0.709174 2.324431 0.016028 -0.008785 -230697.000000 0 0 1
15.542608 13.877015 -18.017701 27.545994 0.728843 2.283782 -0.011162 0.004552 -74524.900000 0 0 1
16.015608 14.488315 -19.218201 28.909345 0.735371 2.297989 -0.008331 0.002507 -762239.000000 0 0 1
17.244208 15.289215 -18.852401 29.774752 0.725379 2.256435 -0.014881 0.017702 -1065180.000000 0 0 1
17.050008 16.525215 -18.153701 29.888834 0.769769 2.223547 -0.011314 0.016369 -6312.550000 0 0 1
16.683808 17.561715 -19.053201 30.818627 0.811028 2.237293 -0.002191 0.012456 -311798.000000 0 0 1
16.432108 18.892615 -18.466701 31.112122 0.854940 2.206263 -0.011302 0.017764 50028.700000 0 0 1
17.613708 19.629215 -18.240801 32.066737 0.839463 2.175889 -0.011366 0.019976 168735.000000 0 0 1
17.225808 20.858715 -17.607001 32.277251 0.880501 2.147773 -0.012508 0.022739 300054.000000 0 0 1
18.159608 22.091715 -17.873301 33.723436 0.882778 2.129393 -0.005636 0.014201 -889307.000000 0 0 1
19.366608 21.998915 -17.244401 34.005693 0.848948 2.102617 -0.006674 0.018207 -1358390.000000 0 0 1
19.676108 23.241215 -16.613001 34.688545 0.868277 2.070219 -0.002159 0.016093 414492.000000 0 0 1
21.075208 23.356815 -15.947301 35.270691 0.836704 2.039960 -0.015119 0.016895 -262352.000000 0 0 1
21.164308 22.645115 -14.672101 34.292853 0.819186 2.012906 -0.004048 0.012992 -284396.000000 0 0 1
22.213108 23.112815 -13.868701 34.928001 0.805245 1.979113 -0.006226 0.011547 716629.000000 0 0 1
23.686708 22.627215 -14.179701 35.694747 0.762526 1.979314 0.015146 0.017491 831415.000000 0 0 1
24.200408 22.929115 -15.450101 36.743839 0.758430 2.004772 0.028920 0.020965 -111886.000000 0 0 1
24.785308 24.218815 -15.421101 37.929842 0.773839 1.989492 0.010313 0.014923 -590128.000000 0 0 1
24.922308 24.768915 -16.841301 38.964728 0.782311 2.017749 0.005423 0.011607 36959.900000 0 0 1
25.920708 24.099715 -17.599201 39.527348 0.749009 2.032240 0.020591 0.001296 418754.000000 0 0 1
25.864508 24.301015 -19.000101 40.255633 0.754242 2.062339 0.012637 0.004645 -945779.000000 0 0 1
26.346308 23.073915 -19.852001 40.257117 0.719279 2.086481 0.010606 -0.000665 207902.000000 0 0 1
27.738908 23.155315 -20.148201 41.371073 0.695579 2.079461 0.019669 0.001763 242807.000000 0 0 1
28.098208 22.174715 -21.104601 41.552756 0.668112 2.103540 0.032580 -0.006985 731065.000000 0 0 1
29.639808 22.235015 -21.400701 42.789066 0.643612 2.094562 0.047628 -0.012046 760468.000000 0 0 1
30.002808 23.396615 -22.153701 44.026771 0.662311 2.098079 0.035822 0.005241 1385670.000000 0 0 1
31.438208 23.639515 -22.079701 45.107658 0.644739 2.082300 0.057459 -0.007613 1436310.000000 0 0 1
31.842508 24.979215 -22.684601 46.395018 0.665194 2.081676 0.045760 -0.003374 -117199.000000 0 0 1
31.897608 25.115215 -24.106501 47.216044 0.666992 2.106629 0.045784 -0.003835 1632760.000000 0 0 1
30.547408 25.363515 -24.626601 46.721746 0.692945 2.125970 0.042702 -0.006119 1461210.000000 0 0 1
30.421308 25.630315 -26.120071 47.588099 0.700131 2.151818 0.039292 -0.009946 -94258.500000 0 0 1
30.607608 26.992515 -26.548621 48.685222 0.722718 2.147557 0.032152 -0.007619 1017310.000000 0 0 1
29.400408 27.535715 -27.189381 48.598992 0.752659 2.164535 0.023097 0.006724 1450340.000000 0 0 1
29.101308 27.199715 -28.650401 49.066854 0.751636 2.194327 0.024333 0.006695 138860.000000 0 0 1
28.605708 25.874315 -28.890851 48.191784 0.735304 2.213669 0.015344 0.000319 -36910.300000 0 0 1
28.248908 25.755715 -30.261251 48.755523 0.739265 2.240397 0.019407 -0.003366 -90412.200000 0 0 1
27.499108 24.390115 -30.457271 47.735983 0.725554 2.262741 0.011599 -0.004977 940339.000000 0 0 1
26.184108 24.395415 -29.868781 46.614246 0.750049 2.266291 0.005492 -0.005689 534572.000000 0 0 1
25.638708 23.108915 -29.942661 45.693854 0.733549 2.285361 0.016478 -0.011855 -4357.490000 0 0 1
24.202008 22.983315 -29.386801 44.469698 0.759576 2.292717 0.005163 -0.003166 105483.000000 0 0 1
24.146708 23.026215 -27.936781 43.517052 0.761650 2.267865 0.003628 0.004830 530815.000000 0 0 1
22.803108 23.075015 -27.462861 42.504668 0.791325 2.273278 -0.001524 -0.003443 285244.000000 0 0 1
22.671408 23.431715 -25.946761 41.668603 0.801888 2.242976 0.009677 -0.001755 -331068.000000 0 0 1
23.069208 22.374915 -25.178291 40.826114 0.770121 2.235366 0.005992 -0.009895 149381.000000 0 0 1
23.505208 22.826615 -23.921701 40.568423 0.770753 2.201438 0.006754 0.002206 -244156.000000 0 0 1
23.865608 21.681915 -22.898701 39.547733 0.737492 2.188315 0.016957 -0.006791 -890455.000000 0 0 1
25.105208 21.169115 -23.195601 40.204960 0.700542 2.185766 0.012234 -0.010952 -922454.000000 0 0 1
25.406608 20.055215 -22.415901 39.372326 0.668226 2.176489 0.039880 -0.023461 -484736.000000 0 0 1
26.497108 19.194815 -23.019701 40.005554 0.626922 2.183905 0.047941 -0.029241 -144383.000000 0 0 1
27.775808 19.329415 -22.415401 40.590295 0.607975 2.155840 0.064754 -0.034680 128007.000000 0 0 1
28.725108 18.684815 -23.249501 41.410065 0.576705 2.166928 0.058870 -0.036372 71904.400000 0 0 1
30.109408 18.394215 -22.645601 41.925492 0.548405 2.141399 0.070715 -0.033566 -216783.000000 0 0 1
30.923008 19.519215 -22.476501 42.923482 0.563059 2.121916 0.065866 -0.032735 -109146.000000 0 0 1
32.149108 19.122715 -21.884201 43.337763 0.536597 2.100142 0.063270 -0.024057 436494.000000 0 0 1
32.838208 20.110015 -20.924001 43.824359 0.549485 2.068548 0.065439 -0.030951 -39745.900000 0 0 1
32.068508 20.130615 -19.773301 42.715505 0.560566 2.052068 0.057008 -0.019279 231736.000000 0 0 1
32.568608 21.145915 -18.888101 43.181296 0.575864 2.023517 0.033439 -0.006214 -56434.600000 0 0 1
31.828108 21.179615 -17.519001 42.053775 0.587151 2.000483 0.042881 -0.006255 -25031.200000 0 0 1
32.077608 20.024215 -16.747101 41.357074 0.558055 1.987709 0.038597 -0.016460 272948.000000 0 0 1
31.810508 20.238815 -15.362901 40.712858 0.566634 1.957727 0.044205 -0.012706 -340671.000000 0 0 1
32.206508 19.036915 -14.478801 40.116069 0.533842 1.940053 0.024598 -0.006080 -78175.300000 0 0 1
33.628108 18.970315 -14.416801 41.213671 0.513620 1.928161 0.015760 -0.008102 412724.000000 0 0 1
34.142708 17.976315 -13.587101 40.908211 0.484626 1.909364 0.013680 0.003016 -89166.800000 0 0 1
33.965508 18.225515 -12.056001 40.387774 0.492489 1.873923 0.007691 -0.004019 -869302.000000 0 0 1
34.771608 19.241315 -11.555601 41.386288 0.505421 1.853771 0.002586 0.000332 -284211.000000 0 0 1
34.553708 19.591915 -10.151501 40.998230 0.515800 1.821007 -0.006637 -0.002845 -16937.500000 0 0 1
33.378108 20.609315 -9.996101 40.481651 0.553152 1.820306 0.003574 -0.008541 -689933.000000 0 0 1
32.172408 20.062115 -10.342801 39.300456 0.557579 1.837106 0.033030 -0.020829 -1240040.000000 0 0 1
31.070708 20.799515 -9.835101 38.661841 0.589910 1.828011 0.019254 -0.014208 -176902.000000 0 0 1
29.748608 20.222315 -10.330601 37.425166 0.597022 1.850461 0.028845 -0.011521 -535756.000000 0 0 1
29.626808 20.230115 -11.718101 37.740154 0.599110 1.886509 0.036417 -0.017097 -265703.000000 0 0 1
28.460708 19.549615 -12.107601 36.589526 0.601879 1.908057 0.030662 -0.016406 -82902.100000 0 0 1
28.230208 19.038515 -13.538301 36.642807 0.593339 1.949231 0.053742 -0.012830 -666327.000000 0 0 1
29.164108 18.061615 -13.877001 37.004572 0.554497 1.955201 0.057572 -0.007454 -58621.500000 0 0 1
28.629908 17.038515 -14.755901 36.437882 0.536831 1.987732 0.053252 -0.011269 186185.000000 0 0 1
29.770608 16.227515 -15.403501 37.240962 0.499062 1.997220 0.050432 -0.023267 39613.300000 0 0 1
30.534308 15.427815 -14.539801 37.172130 0.467848 1.972675 0.037528 -0.021384 802914.000000 0 0 1
31.704708 14.941315 -15.218301 38.210314 0.440396 1.980434 0.034562 -0.016952 467132.000000 0 0 1
32.511808 13.905715 -14.410001 38.184221 0.404166 1.957763 0.021595 -0.024440 -514627.000000 0 0 1
33.408108 14.467915 -13.477501 38.820939 0.408683 1.925349 0.024987 -0.004882 -96382.800000 0 0 1
33.877508 13.572215 -12.559801 38.595844 0.381046 1.902251 0.015643 0.001379 -886850.000000 0 0 1
34.847508 14.323115 -11.692701 39.448951 0.389972 1.871718 0.027007 0.010788 -461414.000000 0 0 1
-34.119602 14.496815 -12.328301 39.067786 -0.401771 1.891845 -0.001529 0.007309 345295.000000 0 0 1
-33.181002 14.987915 -11.355001 38.138597 -0.424268 1.873110 -0.022233 0.007445 -303351.000000 0 0 1
-31.705802 15.121515 -11.777001 37.048831 -0.445024 1.894287 -0.006407 0.000241 -168159.000000 0 0 1
-31.017902 13.976715 -12.236301 36.155026 -0.423354 1.916055 -0.015603 -0.003167 113004.000000 0 0 1
-30.896602 12.942115 -11.314301 35.356920 -0.396680 1.896528 0.001382 0.005847 -545818.000000 0 0 1
-29.782902 11.881615 -11.651801 34.116836 -0.379593 1.919337 0.020894 -0.002888 300321.000000 0 0 1
-30.107902 11.091315 -12.782601 34.538355 -0.352959 1.949912 0.000042 0.005987 88422.900000 0 0 1
-29.437002 9.877115 -12.753401 33.567004 -0.323730 1.960526 0.016470 -0.007451 -680230.000000 0 0 1
-29.403602 8.964315 -14.022601 33.787041 -0.295920 1.998771 0.013624 -0.011653 113737.000000 0 0 1
-30.660002 8.572815 -14.562101 35.008338 -0.272646 1.999796 0.001105 -0.005464 643707.000000 0 0 1
-30.397202 7.938715 -15.775601 35.155124 -0.255460 2.036154 0.012653 -0.013785 65366.000000 0 0 1
-31.667602 7.402815 -16.463001 36.450914 -0.229642 2.039409 0.010401 -0.013800 244408.000000 0 0 1
-32.508302 6.509715 -15.739301 36.700023 -0.197634 2.014031 0.021332 -0.018890 -122141.000000 0 0 1
-33.596602 6.026915 -16.433001 37.882700 -0.177503 2.019487 -0.010126 -0.020529 -796816.000000 0 0 1
-34.687802 5.357415 -15.614201 38.415476 -0.153236 1.989368 -0.026792 -0.015706 -62021.700000 0 0 1
34.607508 4.520815 -16.321901 38.529493 0.129896 2.008235 -0.020969 -0.012023 336545.000000 0 0 1
33.636108 4.106015 -15.377701 37.211837 0.121471 1.996814 -0.004997 -0.010590 -241283.000000 0 0 1
33.112108 2.703015 -15.793601 36.785267 0.081452 2.014565 -0.006475 -0.006046 -225900.000000 0 0 1
33.955108 1.542815 -15.600401 37.399227 0.045406 2.001083 -0.010556 -0.010743 -263265.000000 0 0 1
33.289408 0.324615 -15.451501 36.702030 0.009751 2.005342 -0.006102 -0.004782 -464574.000000 0 0 1
32.628508 0.117615 -14.034501 35.519018 0.003605 1.977002 -0.009810 -0.006614 50445.600000 0 0 1
33.537508 -0.176485 -12.975001 35.960343 -0.005262 1.939937 0.004530 -0.008535 284779.000000 0 0 1
33.076208 0.120915 -11.659101 35.071139 0.003656 1.909687 0.000192 -0.003687 -354848.000000 0 0 1
33.147708 1.624215 -11.177801 35.019307 0.048960 1.895671 -0.001854 -0.013227 -124608.000000 0 0 1
32.210408 2.490315 -11.803101 34.395134 0.077160 1.921078 0.005738 -0.011693 453144.000000 0 0 1
32.225008 3.826515 -11.300001 34.362529 0.118190 1.905878 0.014314 -0.006575 -556057.000000 0 0 1
31.103008 4.706215 -11.865601 33.620501 0.150171 1.931494 0.014272 0.003743 -332396.000000 0 0 1
31.166708 4.954915 -13.225901 34.217530 0.157662 1.967656 0.015183 -0.002959 327151.000000 0 0 1
30.152308 5.860615 -13.547001 33.571264 0.191973 1.986168 0.024765 -0.001805 -283942.000000 0 0 1
30.522508 6.574715 -14.870701 34.583062 0.212164 2.015289 0.001798 -0.000931 -220184.000000 0 0 1
30.455908 5.723415 -16.039901 34.894101 0.185758 2.048424 -0.003863 0.003383 106643.000000 0 0 1
30.935408 6.420715 -17.194801 35.970631 0.204647 2.069199 0.001119 0.001074 -589523.000000 0 0 1
29.847508 7.385515 -17.789801 35.523184 0.242569 2.095312 0.009754 0.002500 768649.000000 0 0 1
28.707208 6.738515 -18.336001 34.723484 0.230558 2.127108 0.000970 0.004261 585996.000000 0 0 1
27.814708 6.062515 -17.448401 33.389501 0.214604 2.120661 -0.001767 0.006763 -1229350.000000 0 0 1
26.397808 5.999515 -18.027401 32.524232 0.223477 2.158289 -0.008578 0.007715 -451648.000000 0 0 1
26.319708 5.119815 -19.117201 32.930335 0.192125 2.190182 -0.002223 0.005173 409828.000000 0 0 1
25.026608 5.203515 -19.694901 32.269131 0.204999 2.227277 -0.004732 0.005897 297568.000000 0 0 1
24.692408 3.905515 -20.526601 32.346707 0.156867 2.258262 0.009148 0.018339 -85202.300000 0 0 1
24.516808 2.746615 -19.721901 31.584350 0.111565 2.245185 0.005079 0.006178 168203.000000 0 0 1
24.033708 1.657815 -20.498101 31.631308 0.068870 2.275794 0.010950 0.012298 -577068.000000 0 0 1
23.053108 0.804315 -19.715701 30.344713 0.034876 2.278018 0.008324 0.004379 -609498.000000 0 0 1
21.915208 1.512215 -19.298301 29.240171 0.068894 2.291605 0.011787 -0.003122 -481477.000000 0 0 1
20.991808 0.586615 -18.781001 28.173146 0.027938 2.300472 0.010447 -0.003429 -1447120.000000 0 0 1
19.685308 1.247015 -18.513901 27.052374 0.063263 2.324539 0.014048 -0.007751 -1806810.000000 0 0 1
18.997408 1.530515 -19.720401 27.425139 0.080391 2.373249 0.016257 -0.013195 785073.000000 0 0 1
17.957608 2.531315 -19.722901 26.793210 0.140038 2.398110 0.000650 -0.009935 404565.000000 0 0 1
16.650608 2.241115 -18.997701 25.360954 0.133793 2.417487 0.010179 -0.012513 -822085.000000 0 0 1
16.755108 2.375515 -17.580401 24.401787 0.140840 2.375255 0.004996 -0.013565 1135570.000000 0 1 0
15.482608 2.094615 -16.946201 23.049345 0.134472 2.396779 -0.013728 -0.004366 1073150.000000 0 1 0
14.499808 3.232215 -16.650401 22.314289 0.219328 2.413097 -0.004041 -0.006581 -578259.000000 0 1 0
13.844408 3.762615 -17.776801 22.843808 0.265369 2.462573 0.004721 -0.000460 453932.000000 0 1 0
13.160108 4.990815 -17.552501 22.498600 0.362481 2.465717 0.018244 -0.006869 -335655.000000 0 1 0
-19.203292 -22.203285 -17.921301 34.393681 0.857724 2.118893 0.030501 -0.005775 -29187.200000 0 0 1
-19.161092 -22.775485 -19.188401 35.412778 0.871373 2.143433 0.052309 -0.020311 763840.000000 0 0 1
-20.268292 -22.378785 -20.045601 36.241410 0.834845 2.156893 0.047039 -0.015289 806529.000000 0 0 1
-20.161292 -23.111385 -21.387601 37.390417 0.853467 2.179748 0.056093 -0.009660 50748.700000 0 0 1
-20.218492 -24.554585 -21.252001 38.253923 0.881943 2.159822 0.048968 -0.001907 75516.800000 0 0 1
-19.610092 -25.180075 -22.338301 38.956278 0.909120 2.181470 0.049087 -0.003725 -390639.000000 0 0 1
-19.416592 -26.709085 -22.076301 39.720805 0.942201 2.160106 0.044891 0.014592 341507.000000 0 0 1
-20.596092 -27.492405 -21.834801 40.703684 0.927836 2.137001 0.045682 0.022998 342437.000000 0 0 1
-20.320492 -28.885535 -21.588201 41.392595 0.957736 2.119460 0.076558 0.008536 420587.000000 0 0 1
-21.610092 -29.756545 -21.733701 42.717699 0.942682 2.104558 0.057264 0.008059 502253.000000 0 0 1
-22.178792 -29.717225 -23.032301 43.652023 0.929650 2.126609 0.029178 0.019163 100625.000000 0 0 1
-21.566892 -30.575475 -24.013901 44.459621 0.956478 2.141386 0.036028 0.012504 -101897.000000 0 0 1
-21.840792 -30.070815 -25.469121 45.054969 0.942629 2.171581 0.024199 0.023141 -34375.100000 0 0 1
-23.183692 -30.069405 -25.906181 45.965018 0.913986 2.169542 0.017088 0.026352 177606.000000 0 0 1
-23.428692 -29.314425 -27.103281 46.290679 0.896531 2.196295 0.022386 0.031818 -80377.300000 0 0 1
-22.822592 -29.845375 -28.414251 47.106122 0.917957 2.218299 0.026741 0.011273 -289317.000000 0 0 1
-23.402092 -31.075605 -28.803351 48.404381 0.925334 2.208133 0.014711 0.018926 227401.000000 0 0 1
-23.160292 -31.237065 -30.188511 49.229052 0.932799 2.230934 0.035621 0.016117 -319365.000000 0 0 1
-23.688092 -32.562615 -30.817981 50.706977 0.941876 2.224041 0.006530 0.013302 -70468.900000 0 0 1
-22.904592 -33.746495 -30.676451 51.034213 0.974492 2.215668 0.005911 0.009619 -300878.000000 0 0 1
-23.632892 34.362576 -31.026041 51.979952 -0.968339 2.210409 0.009952 0.011141 -65319.800000 0 0 1
-22.859492 33.010795 -31.036141 50.749493 -0.965132 2.228822 0.026496 0.010218 168833.000000 0 0 1
-22.099892 32.826105 -32.225271 51.033582 -0.978256 2.254221 0.017513 -0.002854 -174176.000000 0 0 1
-21.959192 31.453055 -32.357671 50.184855 -0.961308 2.271518 0.033848 0.006941 -142587.000000 0 0 1
-20.771292 30.897655 -33.171721 49.864564 -0.978931 2.298607 0.025771 0.013320 -15378.900000 0 0 1
-21.052492 30.783475 -34.517170 50.815989 -0.970965 2.317548 0.018170 0.003826 -267960.000000 0 0 1
-20.153092 29.899055 34.059399 49.599831 -0.977708 0.813879 0.003582 -0.003006 -359513.000000 0 0 1
-20.224892 29.785885 32.536172 48.526773 -0.974297 0.835942 -0.001043 -0.007993 -125780.000000 0 0 1
-19.710392 30.840925 31.780282 48.473173 -1.002123 0.855785 -0.001385 0.000917 87769.900000 0 0 1
-19.824892 30.664265 30.382442 47.501750 -0.996875 0.876810 0.007488 0.002308 -305847.000000 0 0 1
-19.411792 31.895265 29.546792 47.614478 -1.024070 0.901362 -0.003788 -0.002691 -239465.000000 0 0 1
-20.336392 32.956145 29.578892 48.729736 -1.017917 0.918518 -0.005552 -0.003581 -149946.000000 0 0 1
-19.772192 34.166130 29.198722 49.100198 -1.046180 0.933933 -0.012105 -0.006548 -320616.000000 0 0 1
-20.627592 -33.888045 29.538982 49.461587 1.024006 0.930777 -0.003294 -0.011015 -119046.000000 0 0 1
-20.931892 -33.736295 30.902672 50.311597 1.015471 0.909392 -0.009090 0.000729 -247582.000000 0 0 1
-21.834892 -32.706145 31.220272 50.211152 0.982142 0.899783 0.005840 -0.006240 -366140.000000 0 0 1
-21.513492 -31.225315 30.954312 48.949158 0.967507 0.886179 0.001920 -0.002967 -499041.000000 0 0 1
-21.248392 -31.034545 29.551162 47.832085 0.970434 0.904841 0.002540 -0.002614 66513.700000 0 0 1
-21.135192 -29.630955 29.201882 46.663045 0.951213 0.894635 0.004646 -0.003787 -401577.000000 0 0 1
-22.445392 -29.114325 28.595002 46.573744 0.914028 0.909713 -0.005651 -0.000954 -540026.000000 0 0 1
-23.499192 -28.856105 29.493442 47.484207 0.887362 0.900624 -0.001259 -0.001326 182594.000000 0 0 1
-24.513692 -29.851555 29.538862 48.626955 0.883270 0.917939 -0.010070 -0.002429 11207.800000 0 0 1
-25.661612 -29.712325 28.502782 48.515453 0.858420 0.942832 -0.020467 0.000433 -714903.000000 0 0 1
-25.233352 -29.847645 27.157102 47.593194 0.868976 0.963549 -0.019949 -0.001489 -556280.000000 0 0 1
-26.255542 -29.962535 26.210612 47.687558 0.851242 0.988873 -0.013294 -0.001823 -495015.000000 0 0 1
-25.769732 -30.380775 24.743062 46.896585 0.867334 1.015013 -0.011520 -0.007804 -440124.000000 0 0 1
-25.188762 -29.296665 24.095932 45.534407 0.860650 1.013162 -0.040128 -0.003300 53821.900000 0 0 1
-24.796692 -29.504515 22.736282 44.747412 0.871880 1.037816 -0.023501 -0.001151 419056.000000 0 0 1
-23.552692 -30.378655 22.335382 44.457409 0.911296 1.044425 -0.035171 -0.000402 78892.900000 0 0 1
-23.739892 -31.753415 22.563982 45.617925 0.928812 1.053388 -0.021765 -0.014563 376103.000000 0 0 1
-22.635392 -32.529445 22.081582 45.366530 0.962866 1.062445 -0.010150 -0.001041 129996.000000 0 0 1
-21.813992 -33.120455 23.237582 45.965204 0.988381 1.040780 -0.016249 -0.004750 -536628.000000 0 0 1
-21.021792 -32.197235 23.905582 45.277528 0.992380 1.014577 -0.006402 -0.014390 272131.000000 0 0 1
-20.212392 -32.870805 24.886672 45.917067 1.019490 0.997991 0.004897 -0.016341 -82621.100000 0 0 1
-19.541692 -32.064385 25.997512 45.671360 1.023456 0.965227 0.018924 -0.011891 -767468.000000 0 0 1
-18.448792 -31.265285 25.569732 44.403684 1.037708 0.957156 0.026116 -0.012002 340905.000000 0 0 1
-17.757892 -30.651545 26.666022 44.338884 1.045701 0.925527 0.032054 -0.005791 909084.000000 0 0 1
-16.737992 -31.639425 27.432192 45.096993 1.084201 0.916888 0.025466 -0.017242 86960.700000 0 0 1
-17.374692 -32.601645 28.283802 46.526558 1.081146 0.917375 0.013037 -0.012953 441694.000000 0 0 1
-16.536092 -33.069465 29.357602 47.211234 1.107116 0.899713 0.012408 -0.007725 60368.100000 0 0 1
-16.809292 -32.412515 30.715652 47.713465 1.092376 0.871405 0.022389 -0.002045 -7109.660000 0 0 1
-16.629592 -30.997625 30.720972 46.703043 1.078393 0.852910 0.028589 -0.003347 108073.000000 0 0 1
-16.924592 -30.448385 31.987842 47.294482 1.063476 0.827994 0.033832 0.003550 -190308.000000 0 0 1
-16.705392 -28.925975 32.083812 46.315798 1.047069 0.805545 0.044916 -0.006152 -70251.700000 0 0 1
-17.659192 -28.057885 31.493662 45.726827 1.009050 0.811054 0.031922 -0.003446 -23372.600000 0 0 1
-17.679592 -28.006755 30.062662 44.729296 1.007707 0.833752 0.030049 -0.010198 8703.820000 0 0 1
-16.347092 -27.675455 29.322962 43.508555 1.037265 0.831242 0.027600 -0.011432 289866.000000 0 0 1
-15.940092 -26.281055 29.339742 42.492362 1.025594 0.808656 0.040405 -0.005257 851562.000000 0 0 1
-14.896492 -26.172655 28.327352 41.344313 1.053360 0.815977 0.053158 -0.009054 589695.000000 0 0 1
-15.026692 -24.775185 27.655552 40.055472 1.025595 0.808711 0.047148 -0.000695 -220212.000000 0 0 1
-16.114292 -24.731085 26.765532 39.845836 0.993311 0.834258 0.032928 -0.001657 -6746.910000 0 0 1
-15.996392 -23.730685 25.774762 38.514521 0.977679 0.837635 0.024288 0.007213 18854.600000 0 0 1
-16.295292 -22.287785 26.203112 38.064222 0.939481 0.811526 0.023108 0.013372 -452706.000000 0 0 1
-16.027692 -21.257385 25.273202 36.708283 0.924751 0.811395 0.013014 0.009961 72129.800000 0 0 1
-16.705292 -20.077085 25.599082 36.571425 0.876811 0.795434 0.014823 0.016568 -34761.700000 0 0 1
-16.265992 -18.902685 24.665052 35.075045 0.860231 0.790897 0.004944 0.006458 -172885.000000 0 0 1
-14.983092 -18.421485 24.938242 34.434867 0.887969 0.760901 0.007506 -0.000550 -578209.000000 0 0 1
-14.651192 -17.321085 24.122342 33.114420 0.868711 0.754733 0.009023 0.000563 -866145.000000 0 0 1
-13.305592 -16.634785 24.258342 32.283463 0.896137 0.720589 0.016398 -0.002632 -1035040.000000 0 0 1
-12.309692 -17.481885 23.739382 31.948444 0.957297 0.733176 -0.002435 0.000027 -235581.000000 0 0 1
-10.990592 -16.998785 23.910182 31.328080 0.996849 0.702516 0.000057 -0.005441 -118024.000000 0 0 1
-10.464892 -16.094185 22.797882 29.804030 0.994261 0.699870 0.000514 -0.001041 -501076.000000 0 0 1
-10.145692 -16.783585 21.623282 29.192296 1.027074 0.736657 0.013106 0.002166 405236.000000 0 0 1
-8.821992 -17.328385 21.646882 29.097903 1.099890 0.731860 0.020645 -0.001160 -238240.000000 0 0 1
-8.601792 -18.497285 20.651582 29.028059 1.135514 0.779258 0.024205 -0.002393 -320572.000000 0 0 1
-8.320992 -18.047885 19.367282 27.749895 1.138791 0.798303 0.027581 -0.005167 -78072.400000 0 0 1
-8.035392 -19.204785 18.587882 27.908792 1.174524 0.841933 0.028323 -0.004559 131489.000000 0 0 1
-7.836292 -18.971885 17.016782 26.662910 1.179093 0.878613 0.010566 -0.006326 -168428.000000 0 0 1
-6.561892 -18.449885 16.720782 25.749587 1.229088 0.864052 0.011665 -0.001191 -359653.000000 0 0 1
-6.425792 -18.192385 15.368982 24.666967 1.231262 0.898148 0.022332 -0.011715 -108332.000000 0 1 0
-5.508392 -17.007685 15.118582 23.413143 1.257581 0.868817 0.005697 -0.010054 -393328.000000 0 1 0
-6.017192 -15.836585 15.677582 23.082257 1.207689 0.824118 0.009367 -0.010746 -724094.000000 0 1 0
-5.179192 -14.744985 15.639282 22.109404 1.233007 0.785042 0.007409 -0.006685 -1085480.000000 0 1 0
-5.498692 -13.609285 16.615882 22.170606 1.186812 0.723557 -0.005808 0.000374 -168787.000000 0 1 0
-5.194892 -13.740585 17.969482 23.209758 1.209338 0.685313 0.004874 0.002498 42321.000000 0 1 0
-6.105892 -14.597985 18.659482 24.465473 1.174640 0.703340 0.015990 0.000052 468257.000000 0 1 0
-7.396292 -13.953085 19.221082 24.876570 1.083373 0.687779 0.022168 -0.009169 12648.800000 0 1 0
-7.141292 -13.104085 20.346982 25.233208 1.071826 0.632829 0.024016 -0.008229 481535.000000 0 0 1
-8.285792 -12.781085 21.167782 26.078449 0.995627 0.623746 0.029301 -0.006993 627339.000000 0 0 1
-7.837292 -11.958185 22.348782 26.530914 0.990640 0.569135 0.031985 -0.002285 -354628.000000 0 0 1
-7.249092 -10.761785 21.817182 25.384144 0.978012 0.536543 0.026824 -0.002439 213263.000000 0 0 1
-6.861892 -9.906785 22.947282 25.919254 0.965023 0.483577 0.022709 -0.007639 818621.000000 0 0 1
-5.443492 -10.160185 23.590182 26.255621 1.078946 0.454499 0.032172 -0.003112 609087.000000 0 0 1
-5.267892 -11.286785 24.355302 27.355492 1.134116 0.472736 0.038273 0.001051 217670.000000 0 0 1
-3.881692 -11.506185 24.574152 27.410742 1.245429 0.458956 0.033134 -0.000138 -26264.900000 0 0 1
-3.529792 -12.711285 25.395892 28.617958 1.299931 0.479098 0.041344 -0.006528 -466046.000000 0 0 1
-2.196292 -12.845185 25.829242 28.930472 1.401452 0.467264 0.031341 -0.006638 30761.500000 0 0 1
-2.006992 -13.848685 26.823422 30.254092 1.426875 0.480844 0.039980 -0.015786 -188761.000000 0 0 1
-2.014892 -15.304185 26.316412 30.509530 1.439893 0.530481 0.035123 -0.024594 685068.000000 0 0 1
-0.848092 -15.647385 25.518912 29.946198 1.516649 0.550700 0.011108 -0.019175 735790.000000 0 0 1
-0.975692 -16.961285 25.035522 30.255818 1.513335 0.596225 0.013895 -0.017447 -367610.000000 0 0 1
0.259708 -17.924185 25.006602 30.768068 -1.556308 0.621948 0.011371 -0.016916 259954.000000 0 0 1
0.771608 -18.411085 26.217912 32.045941 -1.528911 0.612636 0.022435 -0.017551 -36875.700000 0 0 1
1.301408 -17.443885 27.076872 32.235691 -1.496329 0.573576 0.014222 -0.020547 -891430.000000 0 0 1
1.852008 -18.087185 28.324672 33.658034 -1.468759 0.570664 0.020680 -0.020786 -403380.000000 0 0 1
3.122908 -18.689685 28.128722 33.915806 -1.405233 0.592819 0.024450 -0.018859 626862.000000 0 0 1
3.950908 -18.770985 29.314562 35.032886 -1.363345 0.579434 0.033537 -0.020307 407008.000000 0 0 1
4.589508 -17.462785 29.891372 34.921434 -1.313792 0.543390 0.017225 -0.020471 -1272530.000000 0 0 1
3.693208 -16.400985 30.171422 34.539062 -1.349309 0.508358 0.017077 -0.021721 -183859.000000 0 0 1
4.340508 -15.367485 30.858432 34.745395 -1.295519 0.477536 0.014450 -0.013730 -103647.000000 0 0 1
3.349108 -14.476285 31.632542 34.948492 -1.343445 0.439137 0.017910 -0.015179 -261835.000000 0 0 1
2.778408 -15.185585 32.701982 36.162704 -1.389834 0.441056 0.029958 -0.024767 -363258.000000 0 0 1
1.772408 -14.383185 33.249845 36.270782 -1.448187 0.411026 0.040747 -0.018279 -262710.000000 0 0 1
0.948608 -15.059285 34.329215 37.499026 -1.507888 0.414123 0.025224 -0.016297 381227.000000 0 0 1
1.780508 -15.257585 -33.651761 36.991960 -1.454625 2.713369 0.048059 -0.012917 220143.000000 0 0 1
0.984108 -15.419985 -32.523581 36.007329 -1.507062 2.698078 0.033096 -0.013945 -11391.700000 0 0 1
1.809908 -15.742085 -31.299261 35.081801 -1.456326 2.672944 0.027476 -0.005174 -425185.000000 0 0 1
0.953108 -15.940885 -30.247631 34.204377 -1.511077 2.655833 0.049527 -0.012560 -573111.000000 0 0 1
1.643808 -15.969285 -29.036271 33.178686 -1.468222 2.636539 0.027199 -0.010039 -279875.000000 0 0 1
1.206708 -17.149285 -28.145961 32.981044 -1.500547 2.593266 0.043897 -0.018691 15343.300000 0 0 1
1.805508 -18.393385 -28.550431 34.010345 -1.472949 2.567091 0.045964 -0.021101 140641.000000 0 0 1
1.385408 -19.438285 -27.727651 33.890838 -1.499644 2.528975 0.043854 -0.014116 -960848.000000 0 0 1
2.176608 -20.743385 -27.893521 34.829214 -1.466249 2.499536 0.036191 -0.005817 -265758.000000 0 0 1
3.550008 -20.729585 -27.589541 34.691512 -1.401188 2.490269 0.037004 -0.007236 -382914.000000 0 0 1
3.889508 -20.649785 -26.221001 33.601827 -1.384622 2.466013 0.038550 -0.004649 -1450110.000000 0 0 1
5.327808 -21.043985 -25.935071 33.821040 -1.322832 2.444688 0.030902 -0.004215 -645623.000000 0 0 1
5.579308 -22.439385 -26.089511 34.861401 -1.327099 2.416410 0.029513 0.001140 42079.900000 0 0 1
5.434208 -22.979385 -27.418701 36.185189 -1.338580 2.430628 0.022214 0.003286 -578922.000000 0 0 1
4.732608 -24.355485 -27.547671 37.073729 -1.378874 2.408414 0.021424 0.005577 -442822.000000 0 0 1
5.512908 -25.387485 -27.105731 37.545136 -1.356965 2.377413 0.022094 0.020387 -416709.000000 0 0 1
4.995408 -26.633125 -27.587071 38.669419 -1.385387 2.365146 0.015973 0.018097 190403.000000 0 0 1
4.978308 -27.815015 -26.616421 38.818713 -1.393692 2.326306 0.015468 0.008014 706788.000000 0 0 1
6.291708 -28.360105 -26.414921 39.263586 -1.352481 2.308728 0.026405 0.008656 524800.000000 0 0 1
6.348108 -29.630895 -25.801151 39.799344 -1.359747 2.276121 0.014389 0.008587 838699.000000 0 0 1
7.841508 -30.133355 -25.820371 40.449968 -1.316216 2.263121 0.015907 0.005961 1039220.000000 0 0 1
8.396808 -30.251405 -27.116191 41.484234 -1.300045 2.283194 0.031554 -0.000061 266721.000000 0 0 1
9.793108 -30.535655 -27.108951 41.990790 -1.260449 2.272596 0.073045 -0.000659 900736.000000 0 0 1
10.397708 -30.511525 -28.599131 43.092642 -1.242359 2.296506 0.081970 -0.016954 305667.000000 0 0 1
9.982708 -31.644935 -29.342811 44.295112 -1.265217 2.294866 0.100442 -0.026927 -54277.100000 0 0 1
9.964108 -31.457075 -30.717861 45.082347 -1.264042 2.320432 0.089975 -0.012772 125546.000000 0 0 1
-34.005902 -4.335785 -6.279001 34.851488 0.126817 1.751950 0.067809 -0.023662 -105974.000000 0 0 1
-33.621072 -3.899085 -5.014901 34.215911 0.115456 1.717893 0.060178 -0.015163 245392.000000 0 0 1
-32.961892 -2.629385 -4.985101 33.440263 0.079602 1.720429 0.052382 -0.019354 -418208.000000 0 0 1
-33.634702 -1.304485 -5.423301 34.094091 0.038764 1.730544 0.038691 -0.010966 -421315.000000 0 0 1
-34.483946 -0.696185 -4.463301 34.778560 0.020186 1.699486 0.011331 0.000954 361494.000000 0 0 1
35.029115 0.396515 -4.930301 35.376603 0.011319 1.710618 0.019625 -0.004560 -259325.000000 0 0 1
34.357178 1.231615 -3.806401 34.589323 0.035832 1.681065 0.022602 -0.002568 -448024.000000 0 0 1
-34.923665 1.926515 -3.044901 35.109048 -0.055108 1.657632 0.003600 0.005517 267874.000000 0 0 1
34.734872 2.972915 -2.233401 34.933332 0.085381 1.634773 0.017807 -0.002726 69386.400000 0 0 1
-34.595758 4.248215 -2.254201 34.928430 -0.122184 1.635379 0.007633 -0.009504 -285018.000000 0 0 1
-34.542717 4.809915 -3.585201 35.059781 -0.138356 1.673235 0.009497 -0.006320 910276.000000 0 0 1
-33.402922 5.644415 -3.856801 34.095300 -0.167398 1.684157 -0.010108 0.004281 169615.000000 0 0 1
-33.177902 6.908415 -2.956801 34.018260 -0.205290 1.657824 -0.005851 0.001734 -451808.000000 0 0 1
-32.729952 6.499915 -1.666801 33.410730 -0.196042 1.620705 -0.006012 -0.009091 351386.000000 0 0 1
-32.643282 7.609415 -0.828201 33.528688 -0.229018 1.595500 0.001076 -0.020679 -218353.000000 0 0 1
-31.874252 7.206915 0.455099 32.682023 -0.222366 1.556871 0.000262 -0.015620 -584268.000000 0 0 1
-30.543012 6.814615 0.195299 31.294611 -0.219520 1.564556 0.000496 -0.015296 493220.000000 0 0 1
-29.597262 7.269915 1.168399 30.499422 -0.240860 1.532478 0.000626 -0.005810 555887.000000 0 0 1
-29.162522 8.746715 1.159599 30.468055 -0.291393 1.532728 0.006062 -0.010515 16202.500000 0 0 1
-30.316882 9.532815 1.523199 31.816788 -0.304651 1.522904 0.008668 -0.011337 872914.000000 0 0 1
-30.011252 10.891415 1.427299 31.958337 -0.348130 1.526120 0.021988 0.001505 58182.900000 0 0 1
-31.207702 11.894915 1.528799 33.432722 -0.364154 1.525053 0.021331 0.001613 668858.000000 0 0 1
-31.984592 11.744415 0.263699 34.073669 -0.351906 1.563057 0.013059 0.012561 604662.000000 0 0 1
-33.137342 12.537615 0.231299 35.430618 -0.361707 1.564268 0.005317 0.020423 442905.000000 0 0 1
-34.484194 11.769215 0.497099 36.440652 -0.328897 1.557155 0.004135 -0.005929 376328.000000 0 0 1
-34.770557 10.909515 -0.586201 36.446574 -0.304030 1.586881 0.003864 -0.002428 13228.900000 0 0 1
34.118979 10.463215 -0.444901 35.690076 0.297563 1.583262 0.010089 -0.007505 95125.900000 0 0 1
33.784359 9.321315 -1.437201 35.076137 0.269209 1.611782 -0.000336 -0.019236 -39107.800000 0 0 1
33.506799 9.806715 -2.747601 35.020374 0.284726 1.649334 0.008352 -0.015645 295674.000000 0 0 1
33.343839 8.661315 -3.571801 34.635065 0.254141 1.674107 -0.008516 -0.010895 -189646.000000 0 0 1
32.909199 9.086415 -5.013501 34.506717 0.269394 1.716603 0.003856 -0.004610 -444698.000000 0 0 1
31.568779 9.463015 -5.011101 33.335381 0.291235 1.721692 0.018369 -0.010680 -282153.000000 0 0 1
31.009449 9.559615 -6.305501 33.056490 0.299036 1.762722 0.013992 -0.008053 516803.000000 0 0 1
29.642159 10.309615 -6.460701 32.041948 0.334716 1.773821 0.020336 -0.001298 105348.000000 0 0 1
28.553199 9.636615 -5.857701 30.699547 0.325493 1.762781 0.006134 0.000991 407233.000000 0 0 1
27.398769 10.206515 -6.481701 29.947921 0.356592 1.788955 0.002390 0.005454 442094.000000 0 0 1
26.197069 9.179615 -6.401301 28.487338 0.337037 1.797439 0.003322 0.013716 188874.000000 0 0 1
26.255829 8.116115 -7.407001 28.462318 0.299800 1.834066 -0.001594 0.021192 -96583.400000 0 0 1
25.095419 7.364415 -7.413301 27.184034 0.285443 1.847003 -0.011902 0.010997 -840520.000000 0 0 1
25.197319 6.308315 -8.555201 27.347600 0.245314 1.888969 -0.017638 0.009843 175693.000000 0 0 1
26.309809 5.405315 -8.528401 28.180793 0.202629 1.878249 -0.002311 0.007042 1141200.000000 0 0 1
26.208409 4.587815 -9.677201 28.312135 0.173295 1.919632 -0.005336 0.004902 -188515.000000 0 0 1
27.068759 3.284715 -9.665801 28.929825 0.120757 1.911459 0.009446 0.003407 350472.000000 0 0 1
28.479369 3.478215 -9.716101 30.291502 0.121529 1.897321 0.041522 0.003226 832920.000000 0 0 1
29.270379 3.118715 -8.611801 30.669930 0.106148 1.855413 0.032819 -0.007795 -89392.700000 0 0 1
29.423029 1.641715 -8.228601 30.596074 0.055739 1.843092 0.034732 -0.011848 -857688.000000 0 0 1
28.265229 1.071415 -7.651801 29.302238 0.037888 1.834993 0.035458 -0.013339 378456.000000 0 0 1
28.483039 -0.238985 -7.155001 29.368941 -0.008390 1.816898 0.027792 -0.011623 -289025.000000 0 0 1
28.490679 -1.404285 -8.121801 29.658969 -0.049249 1.848179 0.022667 -0.010585 -315317.000000 0 0 1
29.548119 -1.381685 -9.051801 30.934374 -0.046726 1.867755 0.041142 -0.019799 277312.000000 0 0 1
29.397459 -2.502485 -9.890701 31.117503 -0.084921 1.894257 0.023418 -0.018733 219129.000000 0 0 1
30.540689 -2.591185 -10.943401 32.545445 -0.084641 1.913728 0.020104 -0.012378 -314131.000000 0 0 1
31.804199 -3.025685 -10.542001 33.642171 -0.094849 1.889522 0.026485 -0.019608 -374373.000000 0 0 1
32.446599 -3.538885 -11.664101 34.660594 -0.108639 1.914019 0.006139 -0.012818 -1090410.000000 0 0 1
33.839649 -4.068885 -11.443401 35.953152 -0.119666 1.894718 0.012209 -0.014015 -1100040.000000 0 0 1
33.915949 -5.289185 -10.738801 35.966497 -0.154704 1.873999 0.011615 -0.007273 613093.000000 0 0 1
-34.987956 -5.636285 -10.326801 36.912973 0.159720 1.854341 0.033041 -0.008077 150344.000000 0 0 1
-34.927569 -6.940285 -9.481201 36.850994 0.196150 1.831008 0.042860 -0.013738 -309402.000000 0 0 1
34.897826 -6.825685 -8.146001 36.480208 -0.193152 1.795994 0.046181 -0.015040 527336.000000 0 0 1
34.381923 -8.054485 -7.634301 36.128575 -0.230115 1.783711 0.049590 -0.011951 -278080.000000 0 0 1
34.213231 -8.042385 -6.133101 35.676884 -0.230875 1.743561 0.046699 -0.008448 356920.000000 0 0 1
-34.747569 -7.957585 -5.436401 36.059273 0.225129 1.722136 0.051094 -0.005828 1146690.000000 0 0 1
-34.767481 -8.639785 -4.183201 36.068307 0.243568 1.687038 0.063468 -0.010768 -633100.000000 0 0 1
-34.598402 -10.188685 -4.175901 36.308358 0.286389 1.686064 0.062699 -0.022447 -227115.000000 0 0 1
34.642479 -10.932685 -4.879001 36.652825 -0.305694 1.704307 0.046998 -0.023373 93522.400000 0 0 1
-34.941577 -11.972985 -5.614501 37.360257 0.330118 1.721648 0.032634 -0.020110 -254250.000000 0 0 1
34.606670 -12.529985 -6.846001 37.436478 -0.347386 1.754701 0.025122 -0.010829 -598385.000000 0 0 1
34.519342 -11.599885 -7.876701 37.258351 -0.324185 1.783811 0.051879 -0.004130 255674.000000 0 0 1
34.130859 -12.216185 -9.076001 37.370102 -0.343715 1.816118 0.034427 -0.000273 -75672.600000 0 0 1
34.549162 -11.396685 -10.305601 37.811829 -0.318629 1.846838 0.012510 -0.005644 -264327.000000 0 0 1
33.758409 -10.243585 -10.509601 36.810500 -0.294608 1.860330 0.007138 -0.000204 433545.000000 0 0 1
33.915629 -9.759085 -11.800601 37.212415 -0.280177 1.893482 0.005277 -0.003278 -586245.000000 0 0 1
32.989849 -8.618685 -12.177301 36.206333 -0.255541 1.913814 0.000625 0.003927 -637857.000000 0 0 1
33.320439 -8.013985 -13.384101 36.791436 -0.236030 1.943122 -0.000822 0.003171 946414.000000 0 0 1
32.382869 -6.977785 -13.757401 35.869287 -0.212233 1.964426 -0.000096 -0.002898 347079.000000 0 0 1
32.590419 -6.571885 -15.265501 36.583611 -0.198982 2.001243 -0.008241 0.004100 -180615.000000 0 0 1
33.645389 -5.671885 -15.520701 37.484325 -0.167008 1.997704 -0.010410 0.007095 -38747.100000 0 0 1
33.238669 -4.363085 -15.567401 36.962002 -0.130519 2.005535 -0.003263 0.005193 -937712.000000 0 0 1
34.344403 -3.350185 -15.631301 37.882705 -0.097239 1.996129 -0.012550 0.000591 -1132530.000000 0 0 1
34.925696 -3.321885 -16.907101 38.944695 -0.094828 2.019870 -0.007054 -0.000759 1835230.000000 0 0 1
-33.950322 -2.701085 -16.880501 38.011466 0.079393 2.030954 0.015889 -0.009188 1801930.000000 0 0 1
-33.802272 -1.174585 -16.566501 37.661946 0.034735 2.026254 0.003677 -0.007177 -947870.000000 0 0 1
-34.206196 -0.368185 -17.657601 38.496627 0.010763 2.047305 -0.005547 -0.004519 252168.000000 0 0 1
-33.883532 1.000515 -17.392901 38.099971 -0.029519 2.044862 0.006806 -0.015932 -758640.000000 0 0 1
-34.213230 2.061515 -18.422601 38.912558 -0.060182 2.063984 -0.009214 -0.014623 -420076.000000 0 0 1
-33.414802 2.048715 -19.601801 38.794031 -0.061235 2.100501 -0.000578 -0.012877 394689.000000 0 0 1
-33.489522 3.311915 -20.248501 39.274911 -0.098574 2.112455 -0.002861 -0.007804 -57295.100000 0 0 1
-32.495392 3.431115 -21.441001 39.082471 -0.105198 2.151496 0.000169 -0.001237 38827.500000 0 0 1
-31.146802 3.645715 -21.074501 37.782921 -0.116519 2.162503 0.006537 -0.009947 -261093.000000 0 0 1
-30.465702 4.025015 -22.215001 37.919204 -0.131356 2.196726 0.006918 -0.003378 -146256.000000 0 0 1
-28.959132 4.300115 -21.952601 36.592882 -0.147412 2.214191 0.015204 -0.013505 251450.000000 0 0 1
-28.139172 3.234715 -21.494201 35.556674 -0.114452 2.219941 0.023522 -0.009741 400933.000000 0 0 1
-26.850342 3.789415 -21.272401 34.464700 -0.140205 2.236004 0.015187 0.001001 -297027.000000 0 0 1
-25.891302 2.828115 -20.613101 33.215323 -0.108799 2.240291 0.028743 -0.012004 -581381.000000 0 0 1
-26.264512 2.564715 -19.303601 32.696045 -0.097341 2.202345 0.033913 -0.014519 143284.000000 0 0 1
-25.228812 1.864615 -18.668201 31.439966 -0.073774 2.206536 0.030991 -0.012341 -148447.000000 0 0 1
-24.445592 2.575615 -17.547701 30.201698 -0.104974 2.190774 0.035184 -0.018193 210419.000000 0 0 1
-23.514692 3.591315 -17.926201 29.785684 -0.151555 2.216599 0.029878 -0.010372 2182.610000 0 0 1
-22.799192 3.948015 -16.798001 28.593055 -0.171464 2.198744 0.039637 -0.012600 -466774.000000 0 0 1
-21.622392 4.915515 -17.044701 27.968052 -0.223535 2.226144 0.031602 -0.012261 329106.000000 0 0 1
-20.647492 4.310615 -17.906601 27.668514 -0.205816 2.274680 0.040411 -0.011400 349490.000000 0 0 1
-19.378692 4.904915 -17.741201 26.727179 -0.247902 2.296670 0.034700 -0.009563 -124814.000000 0 0 1
-18.169692 4.220915 -18.367601 26.178667 -0.228257 2.348472 0.031287 -0.014421 -402974.000000 0 0 1
-17.872392 3.036915 -17.613801 25.276298 -0.168314 2.341793 0.040727 -0.017086 -150377.000000 0 0 1
-16.817592 2.215915 -18.036601 24.760062 -0.131007 2.386861 0.022918 -0.011323 -814773.000000 0 1 0
-16.928792 0.785415 -17.424401 24.306596 -0.046362 2.370083 0.014470 -0.014464 1176730.000000 0 1 0
-17.965592 -0.117185 -17.957901 25.402016 0.006523 2.355970 0.011624 -0.018083 413887.000000 0 0 1
-19.278992 0.287015 -17.763701 26.216616 -0.014886 2.315255 0.010758 -0.026431 -720113.000000 0 0 1
-20.342992 -0.787785 -18.142701 27.269315 0.038706 2.298713 0.003217 -0.025964 -33891.900000 0 0 1
-20.117192 -1.947185 -17.392001 26.664108 0.096491 2.281362 -0.009952 -0.018905 949231.000000 0 0 1
-20.968992 -3.063485 -17.828901 27.693921 0.145070 2.270229 0.003900 -0.012172 469759.000000 0 0 1
-21.168592 -4.123285 -16.714901 27.285503 0.192374 2.230133 0.014141 -0.013699 -155785.000000 0 0 1
-21.769292 -3.584785 -15.549301 26.991360 0.163207 2.184727 0.013714 -0.017583 430965.000000 0 0 1
-21.975092 -4.549985 -14.538601 26.739071 0.204167 2.145661 0.015821 -0.025808 -259894.000000 0 0 1
-22.190492 -3.919185 -13.183301 26.107037 0.174813 2.100145 0.016663 -0.018726 -330872.000000 0 0 1
-23.310192 -3.081285 -13.118601 26.925026 0.131424 2.079708 0.016328 -0.020554 90252.800000 0 0 1
-23.648892 -2.752085 -11.826301 26.583932 0.115852 2.031822 0.025429 -0.028600 -301431.000000 0 0 1
-24.576892 -1.527385 -11.632501 27.233648 0.062067 2.012120 0.051682 -0.033930 -212816.000000 0 0 1
-24.693892 -1.191985 -10.234201 26.757204 0.048233 1.963279 0.051477 -0.033784 741750.000000 0 0 1
-25.367682 0.071215 -10.105701 27.306584 -0.002807 1.949895 0.062373 -0.031747 -126556.000000 0 0 1
-25.849312 0.463415 -8.703501 27.279160 -0.017926 1.895527 0.086618 -0.021838 -365174.000000 0 0 1
-24.776192 0.823215 -7.871801 26.009664 -0.033214 1.878267 0.064268 -0.014314 352926.000000 0 0 1
-25.139802 0.765615 -6.520201 25.982856 -0.030445 1.824450 0.056509 -0.016502 -52573.600000 0 0 1
-23.960592 1.140815 -5.586501 24.629665 -0.047576 1.799608 0.033165 -0.010515 -89182.200000 0 1 0
-23.721692 2.515715 -5.745601 24.536899 -0.105656 1.807152 0.060735 -0.014186 1147150.000000 0 1 0
-22.452992 2.959315 -5.216401 23.240164 -0.131045 1.797181 0.052857 -0.008005 514935.000000 0 1 0
-22.202092 4.463015 -5.216701 23.239306 -0.198374 1.797203 0.074708 -0.013862 -1947.640000 0 1 0
-22.955092 5.251815 -4.269801 23.932175 -0.224916 1.750169 0.088540 -0.011583 940330.000000 0 1 0
-22.830492 6.620915 -4.560001 24.204576 -0.282260 1.760323 0.116459 -0.012052 -659996.000000 0 1 0
-23.161892 7.600115 -3.389601 24.611468 -0.317060 1.708960 0.086113 -0.005076 -139168.000000 0 1 0
-22.257192 7.525115 -2.315101 23.608677 -0.326033 1.669016 0.060790 -0.004862 1357790.000000 0 1 0
-20.888192 7.934815 -2.460301 22.479567 -0.363034 1.680462 0.067025 -0.007112 455789.000000 0 1 0
-20.542492 9.455915 -2.598201 22.763105 -0.431395 1.685187 0.061104 -0.003918 -604817.000000 0 1 0
-20.335692 9.896315 -3.929301 22.954669 -0.452909 1.742820 0.051941 0.000470 699880.000000 0 1 0
-19.719792 11.180915 -3.962901 23.012771 -0.515793 1.743863 0.055862 0.003910 -247160.000000 0 1 0
-19.418592 11.619215 -5.426501 23.270900 -0.539209 1.806151 0.048929 -0.002096 -222857.000000 0 1 0
-18.396592 10.894315 -6.067601 22.224682 -0.534659 1.847319 0.039117 -0.002293 -2630.260000 0 1 0
-18.218892 11.378415 -7.405201 22.720769 -0.558268 1.902783 0.041769 -0.000926 -350816.000000 0 1 0
-16.963092 10.899015 -8.138101 21.743130 -0.571094 1.954421 0.032475 -0.001031 -655501.000000 0 1 0
-16.849492 9.591415 -8.662701 21.235419 -0.517495 1.990989 0.035325 -0.002549 538457.000000 0 1 0
-17.796492 9.111115 -9.649401 22.199966 -0.473171 2.020455 0.046013 0.007871 93010.600000 0 1 0
-17.745792 9.829815 -11.063101 23.106938 -0.505851 2.070059 0.040538 0.007118 237570.000000 0 1 0
-16.542892 9.660215 -11.810201 22.504841 -0.528534 2.123259 0.024648 0.007827 385057.000000 0 1 0
-16.613692 10.464315 -12.977501 23.535764 -0.562087 2.154832 0.027614 0.006564 25761.400000 0 1 0
-15.454992 10.176115 -13.954301 23.176121 -0.582282 2.216923 0.006900 0.007809 -799042.000000 0 1 0
-15.517992 8.990615 -14.786201 23.243730 -0.525110 2.260278 0.008367 0.002315 124608.000000 0 1 0
-15.481992 7.778515 -14.026301 22.292027 -0.465584 2.251329 0.004871 0.008520 -463572.000000 0 1 0
-15.479392 6.445215 -14.829901 22.384779 -0.394542 2.294947 0.011621 0.009073 531341.000000 0 1 0
-14.345092 6.200515 -15.677701 22.136358 -0.407987 2.357789 0.010432 -0.001878 1162060.000000 0 1 0
-14.754092 5.119215 -16.478301 22.702951 -0.333972 2.383025 0.019850 0.003041 275843.000000 0 1 0
31.362769 -16.122985 28.822622 45.544676 -0.474848 0.885577 0.004536 0.002003 30070.500000 0 0 1
30.461319 -15.026285 28.727812 44.485598 -0.458266 0.868755 -0.000227 0.001717 134316.000000 0 0 1
29.482089 -14.893085 29.753152 44.455007 -0.467765 0.837548 0.006537 -0.004388 188858.000000 0 0 1
29.892879 -14.861485 31.271922 45.742552 -0.461371 0.818043 0.006906 -0.010088 -185168.000000 0 0 1
30.525769 -13.646485 31.643042 46.036195 -0.420396 0.812960 0.002379 -0.008630 116445.000000 0 0 1
30.332289 -13.495585 33.035812 46.835280 -0.418625 0.787863 -0.005302 -0.012885 -316859.000000 0 0 1
30.802799 -12.168385 33.598858 47.178017 -0.376225 0.778209 0.004216 -0.012508 -32674.300000 0 0 1
30.602149 -12.128485 -34.146335 47.429568 -0.377337 2.374509 -0.007568 -0.018043 230265.000000 0 0 1
31.098169 -10.849485 -33.734261 47.146663 -0.335675 2.368161 -0.002422 -0.014300 -149071.000000 0 0 1
30.727009 -10.529085 -32.226061 45.755106 -0.330126 2.352256 -0.002414 -0.011069 -275391.000000 0 0 1
29.347609 -10.471085 -31.992011 44.658869 -0.342716 2.369374 0.027803 -0.014231 -118240.000000 0 0 1
28.972999 -9.865385 -30.727331 43.369683 -0.328189 2.358164 0.008367 -0.006857 29467.700000 0 0 1
27.798569 -10.656985 -30.112221 42.344747 -0.366084 2.361887 0.006377 0.001352 -153266.000000 0 0 1
27.306799 -10.152185 -28.918571 41.048896 -0.355947 2.352502 -0.005441 0.006125 -639684.000000 0 0 1
26.338329 -10.941085 -28.362891 40.222736 -0.393716 2.353425 0.006967 0.008740 -1592720.000000 0 0 1
25.931069 -10.602685 -26.926061 38.856789 -0.388138 2.336378 0.006269 0.011921 -349644.000000 0 0 1
24.994819 -9.495685 -26.739321 37.814023 -0.363065 2.356223 -0.002365 0.008796 2044530.000000 0 0 1
23.700319 -9.477485 -27.412061 37.455960 -0.380410 2.391826 0.005145 0.004074 1695140.000000 0 0 1
22.763619 -10.702485 -27.120441 36.989781 -0.439490 2.393794 0.011063 0.009824 -583308.000000 0 0 1
23.336019 -11.714085 -27.931331 38.235440 -0.465226 2.389863 0.007526 0.003942 -170725.000000 0 0 1
22.673119 -12.964685 -27.903881 38.220151 -0.519433 2.389240 0.019272 -0.009410 -135611.000000 0 0 1
23.517919 -14.087085 -28.562441 39.589791 -0.539679 2.376704 0.000144 0.007481 88426.000000 0 0 1
23.517419 -13.932185 -30.000561 40.585816 -0.534827 2.402661 0.004426 -0.004758 633500.000000 0 0 1
24.524219 -14.751585 -30.608271 41.903614 -0.541530 2.389769 -0.003176 0.004553 244206.000000 0 0 1
24.370819 -14.735085 -32.139261 42.941724 -0.543810 2.416502 0.012465 -0.014988 -448519.000000 0 0 1
23.300919 -15.528685 -32.610631 42.982859 -0.587846 2.432095 0.018106 -0.013944 130932.000000 0 0 1
23.284919 -15.864985 -34.002321 44.159292 -0.598094 2.449626 0.023535 -0.013362 -192009.000000 0 0 1
23.277919 -14.633085 34.145180 43.839275 -0.561202 0.677931 0.007720 -0.017215 -6350.040000 0 0 1
22.142619 -13.789385 34.201912 43.014108 -0.556982 0.651570 0.013590 -0.018818 294915.000000 0 0 1
22.375219 -12.872585 33.157623 42.021207 -0.522064 0.661505 0.013300 -0.018024 -82288.200000 0 0 1
21.380519 -11.641985 33.292835 41.244094 -0.498621 0.631378 0.029329 -0.025028 1173740.000000 0 0 1
20.012619 -12.010585 33.086828 40.490706 -0.540530 0.614354 0.034954 -0.023478 585470.000000 0 0 1
19.652319 -12.162985 31.749582 39.270699 -0.554207 0.629231 0.022614 -0.011005 -1323600.000000 0 0 1
18.170319 -12.345385 31.420002 38.337783 -0.596784 0.610159 0.020285 -0.010893 -459146.000000 0 0 1
17.397019 -11.207085 31.595932 37.769802 -0.572284 0.579860 0.031134 -0.014440 -494826.000000 0 0 1
16.385519 -11.509085 32.528352 38.197356 -0.612331 0.551792 0.022116 -0.009133 -186063.000000 0 0 1
15.522219 -10.311985 32.983992 37.884298 -0.586388 0.514273 0.028661 -0.004225 -665617.000000 0 0 1
14.713419 -9.840085 31.920372 36.499618 -0.589466 0.506310 0.012593 0.001787 314756.000000 0 0 1
13.815019 -8.771385 32.241552 36.156737 -0.565699 0.469673 0.023730 0.001929 659864.000000 0 0 1
12.746619 -8.956885 33.318290 36.780573 -0.612527 0.437375 0.017460 -0.000840 -1096170.000000 0 0 1
11.705619 -9.902285 33.071832 36.453023 -0.702134 0.434109 -0.000413 0.013729 313657.000000 0 0 1
10.482319 -9.722585 33.712992 36.619305 -0.747814 0.401094 -0.020685 0.022832 -533376.000000 0 0 1
9.578519 -8.647185 33.171512 35.593132 -0.734343 0.371004 -0.043323 0.016281 -1201810.000000 0 0 1
10.126519 -7.316285 33.292353 35.559179 -0.625659 0.358990 0.004476 0.003305 235102.000000 0 0 1
9.312319 -6.340985 32.688162 34.575184 -0.597808 0.331907 -0.004218 0.006057 -226590.000000 0 0 1
10.040319 -4.993685 32.698552 34.567907 -0.461536 0.330370 0.020924 0.006492 22699.600000 0 0 1
9.923019 -4.241385 33.934998 35.609546 -0.403926 0.307891 0.027870 -0.009078 -83418.000000 0 0 1
10.475819 -2.983685 33.914690 35.620940 -0.277469 0.310765 0.017032 -0.005990 -600381.000000 0 0 1
10.164619 -2.118385 -33.994151 35.544470 -0.205467 2.845157 0.006565 -0.012829 809495.000000 0 0 1
8.746119 -1.950185 -33.814981 34.982149 -0.219388 2.882549 0.007108 -0.004485 551443.000000 0 0 1
8.504519 -1.229685 -32.642971 33.755037 -0.143597 2.884191 0.008244 -0.010636 267325.000000 0 0 1
7.013619 -0.955385 -32.313711 33.079896 -0.135385 2.925947 0.006816 -0.007280 269171.000000 0 0 1
6.441019 0.027615 -33.175421 33.794912 0.004287 2.949826 0.021222 -0.001024 157586.000000 0 0 1
5.105219 0.315315 -32.797401 33.193858 0.061685 2.986883 0.024490 0.004460 158099.000000 0 0 1
4.520219 1.524815 -33.563531 33.900856 0.325345 3.000406 0.019145 0.002947 -431005.000000 0 0 1
5.189419 2.744615 -33.430491 33.942020 0.486489 2.967761 0.013487 -0.008569 -348512.000000 0 0 1
4.654119 3.595415 -34.395988 34.895155 0.657761 2.972247 0.011104 -0.003542 -51910.600000 0 0 1
5.471719 4.895315 34.534691 35.306497 0.729856 0.209477 0.006686 -0.004454 -505339.000000 0 0 1
5.023119 5.660915 33.424592 34.270703 0.845024 0.222671 0.016425 -0.018718 -172073.000000 0 0 1
5.748719 6.835815 33.093032 34.277178 0.871568 0.263617 0.018649 -0.019545 -690435.000000 0 0 1
5.151419 7.746815 32.083712 33.405312 0.983968 0.282228 0.030310 -0.018763 -21638.300000 0 0 1
3.993719 8.407715 32.645002 33.946070 1.127343 0.277758 0.032578 -0.018575 671725.000000 0 0 1
3.612619 9.560515 31.925922 33.521918 1.209513 0.309817 0.044822 -0.022532 -169352.000000 0 0 1
3.315319 9.497015 30.339552 31.963621 1.234932 0.320144 0.049755 -0.022013 -371788.000000 0 0 1
2.138819 8.813215 29.994402 31.335467 1.332716 0.293618 0.048012 -0.024468 -333301.000000 0 0 1
2.006719 8.835815 28.623182 30.023076 1.347473 0.306575 0.032446 -0.015284 71735.000000 0 0 1
0.739319 8.268315 27.958092 29.164474 1.481618 0.288628 0.028194 -0.012459 252139.000000 0 0 1
-0.502381 8.719815 28.455962 29.766245 -1.513246 0.297812 0.029049 -0.004827 -830795.000000 0 0 1
-1.579081 8.294115 27.700592 28.958741 -1.382662 0.295853 0.034425 -0.007140 -1304640.000000 0 0 1
-2.845181 8.573715 28.435152 29.835575 -1.250382 0.307603 0.022320 -0.001350 -1480210.000000 0 0 1
-3.137381 9.953915 28.545142 30.393235 -1.265462 0.350521 0.026866 -0.000364 -153552.000000 0 0 1
-4.329581 10.162615 29.278672 31.293205 -1.168053 0.360774 0.009454 0.006488 -151349.000000 0 0 1
-4.531481 11.614915 29.855842 32.354473 -1.198816 0.395580 -0.001210 0.007314 -212365.000000 0 0 1
-4.727181 12.703915 28.929492 31.947633 -1.214567 0.438173 -0.001006 0.005787 633300.000000 0 0 1
-5.954981 12.640415 28.192682 31.465366 -1.130530 0.460139 -0.001423 0.000700 374629.000000 0 0 1
-6.353781 14.003215 27.598042 31.592919 -1.144839 0.508344 -0.009437 0.009278 297694.000000 0 0 1
-5.338681 14.415115 26.680362 30.791862 -1.216106 0.522700 -0.002668 0.012800 262518.000000 0 0 1
-5.465881 15.785615 26.270702 31.132159 -1.237460 0.566388 -0.024870 0.020381 -476390.000000 0 0 1
-4.188081 16.303015 25.629032 30.662283 -1.319344 0.581119 0.002962 0.014379 -521551.000000 0 0 1
-3.859181 15.770215 24.342052 29.259673 -1.330800 0.588216 0.000147 0.012069 -370329.000000 0 0 1
-2.888881 16.566015 23.729382 29.083708 -1.398146 0.616513 0.005267 0.010728 -258541.000000 0 0 1
-2.774081 16.371615 22.175282 27.703221 -1.402946 0.642736 0.011572 0.007308 -72658.100000 0 0 1
-2.185681 15.139815 21.761382 26.599793 -1.427421 0.612691 0.010932 0.000140 156715.000000 0 0 1
-1.906681 15.187515 20.367582 25.478117 -1.445907 0.644476 0.012864 -0.003760 293446.000000 0 0 1
-1.020481 13.995415 19.882682 24.335860 -1.498010 0.614587 0.018235 -0.015010 11977.100000 0 1 0
-1.700381 12.751115 19.763482 23.581295 -1.438227 0.577005 0.024508 -0.017724 -24891.700000 0 1 0
-0.844481 11.733615 19.336382 22.633748 -1.498949 0.546562 0.032330 -0.018441 -404887.000000 0 1 0
-1.691581 10.428415 19.166482 21.885322 -1.409988 0.503770 0.018761 -0.018609 -72565.800000 0 1 0
-2.008581 9.760015 20.409282 22.711915 -1.367833 0.454192 0.026202 -0.017946 816759.000000 0 1 0
-2.968481 10.430715 21.305082 23.906447 -1.293536 0.470844 0.036116 -0.011838 559124.000000 0 1 0
-4.432381 10.260415 20.834082 23.642781 -1.163021 0.492396 0.033052 -0.008058 -433175.000000 0 1 0
-5.006281 8.985915 20.905282 23.298934 -1.062499 0.457265 0.023516 -0.012259 -1215690.000000 0 1 0
-6.376481 9.078815 20.894482 23.657214 -0.958497 0.488115 0.026852 -0.005083 -894715.000000 0 1 0
-7.057981 7.667615 21.039582 23.479170 -0.826774 0.459903 0.027695 -0.007921 8181.400000 0 1 0
-6.900181 7.092115 22.306082 24.402293 -0.799114 0.417519 0.024344 -0.007796 138823.000000 0 1 0
-7.567481 5.830515 22.343282 24.299875 -0.656474 0.404037 0.024000 -0.003913 297740.000000 0 1 0
-7.488181 5.017615 23.670082 25.328287 -0.590356 0.363856 0.017867 -0.001834 50979.300000 0 0 1
-8.306581 5.602815 24.671882 26.628793 -0.593408 0.385763 0.008422 -0.001165 40483.200000 0 0 1
-8.576081 4.685015 25.719302 27.513288 -0.499989 0.363113 0.011612 0.009925 78401.800000 0 0 1
-9.575681 5.242115 26.794582 28.933079 -0.500876 0.386887 0.000154 0.009906 -64814.400000 0 0 1
-9.114281 6.342915 27.517972 29.673919 -0.607990 0.383541 -0.007805 0.010028 -196246.000000 0 0 1
-10.042581 6.780615 28.513572 30.981510 -0.593878 0.401843 -0.018183 0.008807 202853.000000 0 0 1
-9.608081 8.005815 29.323012 31.878635 -0.694682 0.403142 0.000153 0.002276 262913.000000 0 0 1
-8.518181 7.779515 30.214712 32.342064 -0.740106 0.364721 0.001767 0.001165 291139.000000 0 0 1
-8.204981 8.995015 30.885942 33.198998 -0.831298 0.375491 0.005476 0.000530 -425763.000000 0 0 1
-7.177181 8.783515 31.978852 33.930945 -0.885704 0.340857 0.007790 -0.002288 -871732.000000 0 0 1
-5.944481 8.359415 31.475132 33.104390 -0.952651 0.315039 0.009431 -0.003066 -863856.000000 0 0 1
-5.300981 7.679215 32.529062 33.840961 -0.966609 0.279355 0.024553 -0.003292 -333778.000000 0 0 1
-3.787181 7.520815 32.349932 33.427885 -1.104305 0.254645 0.003366 -0.005811 87604.100000 0 0 1
-3.115981 8.804815 32.302592 33.625758 -1.230656 0.281462 -0.003891 -0.006297 -980585.000000 0 0 1
-1.741381 8.699715 32.226132 33.425156 -1.373242 0.268658 0.010523 -0.015469 -949404.000000 0 0 1
-1.147381 9.936415 31.577402 33.123725 -1.455833 0.306761 0.010809 -0.010026 -221810.000000 0 0 1
-1.287781 10.991615 32.541862 34.372180 -1.454168 0.327809 0.002948 -0.016668 93694.100000 0 0 1
-1.460781 12.227515 31.854192 34.151656 -1.451893 0.368892 -0.001547 -0.008332 -297336.000000 0 0 1
-1.713781 13.388315 32.807992 35.476026 -1.443483 0.390304 -0.014835 -0.019010 -119548.000000 0 0 1
-0.523181 13.868115 33.427480 36.193850 -1.533089 0.393512 0.002202 -0.015436 235610.000000 0 0 1
-0.815681 14.767015 34.541264 37.574313 -1.515616 0.404552 -0.001934 -0.012383 -399229.000000 0 0 1
0.493719 15.219115 -33.987071 37.242264 1.538367 2.720381 -0.016085 -0.015485 -728354.000000 0 0 1
1.136119 16.221515 34.405526 38.054810 1.500873 0.441517 -0.001532 -0.011465 -111967.000000 0 0 1
2.399519 16.429915 -34.142697 37.966084 1.425776 2.688950 0.014227 -0.010408 249532.000000 0 0 1
3.346519 17.385115 34.193605 38.505117 1.380629 0.477759 0.028256 -0.002156 153252.000000 0 0 1
2.835819 18.695815 34.177075 39.059542 1.420262 0.505362 0.014036 0.000923 -269470.000000 0 0 1
3.789219 19.616915 33.763129 39.231753 1.379985 0.534336 -0.004800 0.012909 -541273.000000 0 0 1
3.238819 21.031615 33.815322 39.953658 1.417999 0.561676 -0.001762 0.004437 -236249.000000 0 0 1
3.185519 21.502915 -34.006951 40.360818 1.423722 2.572840 -0.003234 -0.003937 97649.200000 0 0 1
3.140719 22.948515 -34.000461 41.140367 1.434782 2.543569 -0.005879 0.001737 21795.300000 0 0 1
3.341319 23.549815 -32.595881 40.351576 1.429854 2.511201 -0.001491 0.001271 -139555.000000 0 0 1
2.915619 24.868615 -32.430581 40.971837 1.454088 2.484111 0.001006 -0.003261 53635.400000 0 0 1
3.102319 25.246815 -31.076221 40.159153 1.448530 2.455657 0.014811 -0.000652 -316241.000000 0 0 1
2.499619 26.614115 -30.718931 40.721149 1.477150 2.425495 0.001258 -0.002359 -112282.000000 0 0 1
3.149719 27.770415 -31.211471 41.895974 1.457859 2.411294 -0.005303 -0.003796 -14538.900000 0 0 1
2.449319 28.857015 -30.653621 42.170736 1.486122 2.384583 -0.013161 -0.002350 -328438.000000 0 0 1
3.234719 30.186115 -30.548431 43.068220 1.464045 2.359306 -0.019094 -0.007295 225708.000000 0 0 1
4.284919 30.015915 -29.552601 42.339957 1.428999 2.343374 0.020478 -0.017519 565513.000000 0 0 1
4.843719 31.305815 -29.275011 43.134000 1.417291 2.316786 0.049109 -0.027237 205742.000000 0 0 1
6.084119 31.194915 -28.294891 42.552792 1.378179 2.298205 0.067845 -0.034076 969693.000000 0 0 1
7.193819 30.498115 -28.897821 42.625933 1.339153 2.315753 0.074340 -0.036973 717039.000000 0 0 1
8.336519 31.322115 -29.160771 43.599576 1.310672 2.303432 0.087582 -0.038143 394535.000000 0 0 1
8.283919 32.484615 -30.154401 45.090592 1.321107 2.303325 0.091690 -0.037714 -956011.000000 0 0 1
7.568919 33.572915 -29.590021 45.387207 1.349056 2.280945 0.074341 -0.035901 258754.000000 0 0 1
7.113919 34.591715 -30.503911 46.665653 1.367970 2.283219 0.082706 -0.038230 -250801.000000 0 0 1
5.790319 34.368715 -31.226451 46.795594 1.403887 2.301367 0.024567 -0.013936 -600643.000000 0 0 1
6.015019 33.518015 -32.309211 46.941697 1.393230 2.329917 0.021870 -0.018007 844802.000000 0 0 1
4.777519 33.015415 -32.827131 46.802381 1.427088 2.348154 0.003491 -0.003159 599836.000000 0 0 1
4.971119 32.445915 -34.263200 47.449092 1.418766 2.377636 -0.004703 -0.004510 31334.200000 0 0 1
5.124519 33.464715 33.877176 47.893746 1.418845 0.785068 -0.000529 -0.017859 79543.800000 0 0 1
5.456619 32.908315 32.634312 46.666157 1.406479 0.796359 0.002669 -0.010549 -287569.000000 0 0 1
5.000519 33.668915 31.358252 46.281109 1.423354 0.826356 -0.022022 -0.016078 -120836.000000 0 0 1
5.618419 -34.340655 31.143222 46.698474 -1.408625 0.840755 -0.016977 -0.008315 -34131.300000 0 0 1
5.107819 -33.656755 30.061672 45.415538 -1.420184 0.847413 -0.025795 -0.004499 -50161.000000 0 0 1
17.446608 -22.886085 28.273002 40.342529 -0.919454 0.794245 0.014933 0.022045 -158264.000000 0 0 1
16.827908 -21.875785 28.982732 40.021585 -0.915090 0.760955 -0.009419 0.018841 -1550220.000000 0 0 1
15.488908 -22.046485 29.176992 39.714615 -0.958356 0.745622 -0.008753 0.019014 -1396620.000000 0 0 1
14.969608 -22.176485 30.639932 40.677895 -0.977032 0.717833 -0.010471 0.012165 -118923.000000 0 0 1
15.344008 -23.342685 31.278452 41.936394 -0.989281 0.728979 0.023274 0.005889 -150100.000000 0 0 1
14.806708 -23.391885 32.562672 42.740455 -1.006476 0.704601 0.027977 0.005542 -160910.000000 0 0 1
15.483908 -24.379185 33.496537 44.227979 -1.004947 0.711534 0.046799 -0.000929 67849.900000 0 0 1
15.310408 -25.774375 33.187440 44.722849 -1.034788 0.734645 0.051858 -0.009713 -76316.800000 0 0 1
16.361908 -26.502155 33.799975 45.962099 -1.017695 0.744557 0.043282 -0.011016 275414.000000 0 0 1
16.161408 -28.042835 33.933575 46.894341 -1.047977 0.761767 0.036846 -0.004981 -78888.100000 0 0 1
16.584108 -28.768975 32.838562 46.701796 -1.047867 0.790972 0.025714 -0.009201 -59519.500000 0 0 1
16.014608 -30.046155 32.869382 47.324786 -1.081098 0.803004 0.026637 -0.002167 -65767.200000 0 0 1
16.444108 -30.836315 31.611852 47.123203 -1.080888 0.835463 0.048178 -0.013878 523236.000000 0 0 1
17.722008 -31.452465 31.755972 48.080858 -1.057683 0.849352 0.034882 -0.018082 125801.000000 0 0 1
18.096608 -32.074305 30.534462 47.839332 -1.057110 0.878546 0.026606 -0.016198 -816339.000000 0 0 1
19.445508 -32.735885 30.724322 48.925964 -1.034791 0.891847 0.000790 -0.011086 -869560.000000 0 0 1
20.431208 -31.782765 31.003432 48.875262 -0.999472 0.883645 -0.020629 -0.012740 312364.000000 0 0 1
21.688408 -32.373315 31.356862 50.016711 -0.980526 0.893193 -0.012971 -0.005253 1363100.000000 0 0 1
22.884208 -31.342295 31.565102 50.023816 -0.940128 0.887953 -0.024755 -0.008309 925024.000000 0 0 1
23.389208 -30.740795 30.354262 49.126701 -0.920386 0.904756 -0.028093 -0.007258 58827.300000 0 0 1
24.297708 -29.677745 30.568972 49.047011 -0.884746 0.897894 -0.032607 -0.006611 447369.000000 0 0 1
25.478408 -29.631525 29.537072 48.985867 -0.860617 0.923576 -0.019838 -0.001275 -311545.000000 0 0 1
26.409708 -30.599925 29.843702 50.244151 -0.858766 0.934807 -0.018989 0.002611 -567013.000000 0 0 1
27.353608 -30.704745 28.776442 50.190486 -0.843054 0.960214 -0.015928 -0.009855 489675.000000 0 0 1
28.591308 -31.566305 29.145282 51.607577 -0.834811 0.970668 -0.004828 -0.008222 365048.000000 0 0 1
28.257108 -32.933895 29.128812 52.264647 -0.861679 0.979626 -0.018252 -0.007316 1102670.000000 0 0 1
29.459108 -33.693585 29.440642 53.570964 -0.852349 0.988955 -0.003727 -0.013911 510391.000000 0 0 1
29.100908 34.099253 29.910822 53.891365 0.864321 0.982408 -0.025228 -0.002075 -181644.000000 0 0 1
28.587708 33.953881 31.223862 54.268340 0.870990 0.957751 -0.005786 -0.003893 393377.000000 0 0 1
27.478808 -34.582595 31.721142 54.380802 -0.899366 0.947992 -0.010780 -0.002029 132998.000000 0 0 1
26.098208 34.582173 31.038962 53.295969 0.924312 0.949132 -0.028024 -0.002257 -310669.000000 0 0 1
25.627508 33.259021 31.093162 52.246688 0.914277 0.933379 -0.040810 0.003352 560082.000000 0 0 1
24.191908 33.276248 30.972582 51.496194 0.942177 0.925477 -0.028132 0.003036 966066.000000 0 0 1
23.543808 31.918405 31.015812 50.349539 0.935262 0.907129 -0.005896 -0.005993 -426381.000000 0 0 1
23.505408 31.336005 29.719372 49.170016 0.927226 0.921758 -0.009156 -0.014144 -18952.500000 0 0 1
23.145408 29.975625 29.872422 48.234942 0.913275 0.902932 0.025627 -0.026335 -635683.000000 0 0 1
22.651508 29.245855 28.661182 46.796092 0.911786 0.911615 0.034194 -0.030116 -900169.000000 0 0 1
21.430608 29.795175 28.274772 46.330186 0.947258 0.914372 0.054618 -0.033245 -612501.000000 0 0 1
20.957908 29.320395 27.034062 45.052858 0.950213 0.927230 0.054646 -0.026086 -48810.500000 0 0 1
19.610308 29.942025 26.649922 44.624068 0.990954 0.930779 0.082700 -0.020767 -97843.800000 0 0 1
19.696308 31.182885 25.998302 45.124590 1.007438 0.956792 0.068493 -0.030990 806666.000000 0 0 1
18.374708 31.744085 25.894762 44.898280 1.046082 0.956060 0.085793 -0.028784 777393.000000 0 0 1
18.475508 33.235375 25.341202 45.695854 1.063435 0.982959 0.087199 -0.030114 -214959.000000 0 0 1
18.938408 33.311919 24.011282 45.220448 1.053847 1.011036 0.087557 -0.028749 -82683.600000 0 0 1
20.115408 34.073942 23.982782 46.269180 1.037506 1.025897 0.071493 -0.026796 -520417.000000 0 0 1
20.813208 34.274255 22.671182 46.064050 1.025059 1.056220 0.062129 -0.029364 -79884.600000 0 0 1
20.207508 -34.094735 21.728082 45.198494 -1.035771 1.069314 0.070759 -0.022151 811146.000000 0 0 1
21.073408 -33.993145 20.574282 44.976922 -1.015850 1.095681 0.090478 -0.021008 485690.000000 0 0 1
20.820908 -32.776245 19.686882 43.535799 -1.004865 1.101566 0.073979 -0.017691 -189461.000000 0 0 1
20.857708 -31.580695 20.428282 43.008127 -0.987105 1.075848 0.073188 -0.018528 293388.000000 0 0 1
20.311908 -30.375965 19.823682 41.572241 -0.981399 1.073730 0.075675 -0.024949 112055.000000 0 0 1
21.118608 -29.737595 18.617882 40.950528 -0.953281 1.098825 0.058021 -0.020403 193953.000000 0 0 1
21.020508 -30.373725 17.377382 40.821543 -0.965418 1.131070 0.056300 -0.017825 102941.000000 0 0 1
21.603108 -29.566545 16.382082 40.115427 -0.939788 1.150125 0.045060 -0.009002 -119478.000000 0 0 1
21.376808 -30.138845 14.898182 39.840604 -0.953871 1.187538 0.034788 -0.003821 -253414.000000 0 0 1
22.028408 -31.374945 14.661182 41.043735 -0.958661 1.205519 0.045420 0.004604 -54816.000000 0 0 1
22.124908 -31.707855 13.262782 40.875433 -0.961566 1.240347 0.024084 0.004265 -222257.000000 0 0 1
20.892308 -32.069235 12.397982 40.232255 -0.993385 1.257538 0.027621 0.000009 -332389.000000 0 0 1
20.202808 -33.172425 12.845482 40.909286 -1.023768 1.251394 0.029834 -0.004291 -657416.000000 0 0 1
19.125408 -33.533875 12.042182 40.439043 -1.052478 1.268424 0.018611 0.001027 43025.800000 0 0 1
18.086508 -34.413743 12.822382 40.937037 -1.086910 1.252212 0.022180 -0.000023 307503.000000 0 0 1
17.580908 -33.820055 14.061382 40.627662 -1.091406 1.217381 0.026172 0.000953 86021.000000 0 0 1
18.297708 -34.129483 15.205582 41.603335 -1.078667 1.196638 0.030603 -0.004619 -1375970.000000 0 0 1
18.205308 -33.148495 16.370782 41.209932 -1.068564 1.162274 0.038667 -0.007774 271500.000000 0 0 1
16.933608 -32.658625 16.801582 40.442874 -1.092456 1.142370 0.040621 -0.009492 32490.600000 0 0 1
15.938608 -33.500905 17.276182 40.924520 -1.126723 1.134983 0.040098 -0.001858 -697590.000000 0 0 1
16.236308 -34.301416 18.536482 42.235128 -1.128701 1.116436 0.031598 -0.010834 -556351.000000 0 0 1
17.005408 33.810618 18.296782 42.037056 1.104783 1.120476 0.029836 -0.007233 -134540.000000 0 0 1
17.506408 33.348477 19.524282 42.423965 1.087386 1.092555 0.038171 -0.014038 -193647.000000 0 0 1
18.403108 32.139005 19.299582 41.761991 1.050760 1.090398 0.044627 -0.010880 -357157.000000 0 0 1
17.718708 30.927445 18.974182 40.379191 1.050533 1.081619 0.033884 -0.011566 298893.000000 0 0 1
18.599408 29.829085 18.670482 39.803256 1.013253 1.082560 0.028871 -0.016930 457591.000000 0 0 1
17.785108 28.515955 18.488682 38.357543 1.013140 1.067850 0.024716 -0.013060 141001.000000 0 0 1
17.421108 27.902395 19.690582 38.337419 1.012658 1.031406 0.025749 -0.016065 -347184.000000 0 0 1
16.743608 26.705015 19.441282 37.033359 1.010772 1.018120 0.027918 -0.019629 -434913.000000 0 0 1
16.543408 25.700125 20.605382 36.861397 0.998856 0.977622 0.035565 -0.015641 146226.000000 0 0 1
15.389308 25.869805 21.423182 36.946317 1.034153 0.952256 0.029344 -0.010996 -289327.000000 0 0 1
14.379008 24.970055 21.081782 35.702956 1.048323 0.939146 0.025696 -0.009210 -717612.000000 0 0 1
13.136708 25.246685 21.923382 35.924962 1.091014 0.914414 0.021585 -0.012187 -321278.000000 0 0 1
12.440608 26.411355 21.540282 36.281017 1.130590 0.935139 0.030093 -0.017379 132461.000000 0 0 1
11.150908 26.604505 22.114282 36.348094 1.173903 0.916750 0.017367 -0.012668 761600.000000 0 0 1
10.351608 27.837625 21.485582 36.656778 1.214784 0.944524 0.015127 -0.012311 474351.000000 0 0 1
10.980108 29.131515 21.594982 37.888668 1.210348 0.964341 0.013689 -0.014513 -417217.000000 0 0 1
10.352708 29.983785 20.709482 37.882563 1.238335 0.992407 0.014630 -0.013691 23300.400000 0 0 1
10.901508 31.452175 20.721482 39.210484 1.237148 1.014001 0.024357 -0.015731 233986.000000 0 0 1
10.267808 32.255465 21.730182 40.224914 1.262611 1.000101 0.013137 -0.016589 -254899.000000 0 0 1
10.659808 31.945785 23.071682 40.822386 1.248730 0.970154 0.012731 -0.008776 -38994.100000 0 0 1
10.064008 32.940665 24.048982 42.008633 1.274284 0.961272 -0.011821 -0.010789 -641121.000000 0 0 1
8.732108 32.709855 24.346172 41.700365 1.309923 0.947351 -0.016594 -0.009832 -1106230.000000 0 0 1
8.404008 33.449836 25.518112 42.903297 1.324649 0.933802 -0.012471 -0.003697 -883134.000000 0 0 1
7.057308 33.052175 26.104922 42.705021 1.360435 0.913114 0.005495 -0.009967 -1418020.000000 0 0 1
5.927808 33.551305 25.506882 42.560898 1.395922 0.928166 0.001064 -0.013339 -646233.000000 0 0 1
5.418708 32.921535 24.358782 41.310291 1.407664 0.940166 0.004314 -0.018826 36537.000000 0 0 1
4.605208 31.577805 24.538412 40.255427 1.425980 0.915281 0.003684 -0.019834 112733.000000 0 0 1
5.493508 30.504725 24.848982 39.726424 1.392619 0.895021 -0.016769 -0.013707 -32194.200000 0 0 1
4.969208 29.181795 24.782322 38.606135 1.402130 0.873787 -0.022598 -0.009257 -1389700.000000 0 0 1
6.102608 28.220925 25.019402 38.205143 1.357831 0.856786 -0.038196 0.000398 -1317400.000000 0 0 1
7.044508 28.107425 24.009582 37.631270 1.325227 0.878869 -0.045191 -0.000489 227835.000000 0 0 1
8.077008 29.112795 24.003882 38.587294 1.300165 0.899416 -0.028353 -0.001235 -33113.200000 0 0 1
9.228608 28.942865 25.056922 39.379004 1.262131 0.881102 -0.021370 -0.008452 -597150.000000 0 0 1
8.934008 29.026865 26.426882 40.258608 1.272214 0.854722 -0.033026 -0.001716 -47461.000000 0 0 1
10.060308 29.042415 27.309312 41.115328 1.237332 0.844357 -0.018915 -0.000705 206439.000000 0 0 1
10.665008 30.453145 27.459092 42.369071 1.233934 0.865719 -0.003597 -0.013953 110434.000000 0 0 1
9.940408 31.275695 28.405102 43.403118 1.263061 0.857343 -0.008181 -0.004193 410701.000000 0 0 1
10.413208 32.617445 28.398952 44.484077 1.261771 0.878369 -0.025297 0.008948 -32531.700000 0 0 1
9.639608 33.554428 29.398812 45.641120 1.291047 0.870911 -0.014755 0.018951 4657.210000 0 0 1
9.801008 33.415324 30.840302 46.516318 1.285490 0.845978 0.013675 -0.002485 -153326.000000 0 0 1
9.552808 32.157225 31.346972 45.912699 1.282034 0.819274 0.006388 0.001853 -194533.000000 0 0 1
9.925608 32.025715 32.862552 46.947965 1.270258 0.795429 0.025363 -0.015286 -131785.000000 0 0 1
9.811608 30.766475 33.425794 46.477170 1.262086 0.768164 0.020204 -0.019273 -183733.000000 0 0 1
10.348808 30.763325 -34.406125 47.299698 1.246288 2.385332 0.053414 -0.021665 -307556.000000 0 0 1
10.359608 29.350965 -33.745481 45.908149 1.231490 2.396559 0.051653 -0.017462 -196032.000000 0 0 1
11.254208 28.553645 -34.473650 46.156261 1.195350 2.414169 0.052986 -0.008067 -372479.000000 0 0 1
11.350308 27.293855 -33.876381 44.959907 1.176696 2.424135 0.049317 -0.013590 -80909.000000 0 0 1
12.447508 26.387565 -34.463049 45.154687 1.130029 2.439081 0.049669 -0.018389 -167977.000000 0 0 1
12.395308 25.005745 -34.215205 44.154402 1.110596 2.457352 0.032651 -0.018179 -287802.000000 0 0 1
12.717208 24.524435 -32.874501 42.940751 1.092417 2.442736 0.031172 -0.013302 -106715.000000 0 0 1
12.643508 22.969685 -32.911391 42.078788 1.067613 2.468885 0.015957 -0.023012 253664.000000 0 0 1
13.748308 22.359485 -33.604441 42.640603 1.019510 2.478489 0.008869 -0.006348 644449.000000 0 0 1
13.600108 20.969285 -33.715081 41.968804 0.995425 2.503674 0.006844 -0.006188 19600.000000 0 0 1
14.998808 20.375085 -33.958291 42.347064 0.936228 2.501272 0.014518 -0.009569 -603238.000000 0 0 1
15.919308 20.596285 -32.998251 42.029941 0.912786 2.473675 0.008931 -0.008771 -1631690.000000 0 0 1
17.163708 20.129585 -33.390291 42.599350 0.864760 2.471593 0.016295 -0.015068 468115.000000 0 0 1
18.330408 20.513585 -32.342291 42.459803 0.841543 2.436753 0.006859 -0.008593 870482.000000 0 0 1
18.818308 21.816785 -32.495721 43.428939 0.859055 2.416217 0.003485 -0.009263 405407.000000 0 0 1
19.906208 22.161385 -31.621861 43.443368 0.838955 2.386032 -0.002775 0.002017 556061.000000 0 0 1
19.486608 22.551085 -30.220421 42.444707 0.858168 2.363132 -0.003462 -0.008539 85246.000000 0 0 1
18.729508 23.768185 -30.244381 42.783685 0.903411 2.355922 -0.008280 0.004517 -50562.800000 0 0 1
18.405108 24.359265 -28.955741 42.077984 0.923740 2.329725 -0.003321 0.009395 -634263.000000 0 0 1
19.498208 24.857525 -27.995701 42.211799 0.905641 2.295909 -0.008052 0.004527 -146231.000000 0 0 1
20.258108 25.913545 -28.566271 43.565291 0.907278 2.285921 -0.002563 0.012911 -217016.000000 0 0 1
19.536908 27.146755 -28.612541 44.014936 0.946986 2.278465 -0.003988 0.013339 -290753.000000 0 0 1
20.192008 28.193005 -29.563551 45.569357 0.949276 2.276749 -0.006105 0.018308 -415732.000000 0 0 1
20.163308 28.018095 -30.998571 46.394871 0.947002 2.302511 -0.003332 0.019111 -14510.900000 0 0 1
20.754908 26.840955 -31.540411 46.324946 0.912577 2.319721 -0.000837 0.019838 -753321.000000 0 0 1
22.185708 26.462615 -31.219741 46.552636 0.873087 2.305858 0.014715 0.016117 -521644.000000 0 0 1
23.185608 27.327535 -31.746721 47.877144 0.867212 2.295732 0.011171 0.019265 146412.000000 0 0 1
24.492608 26.936845 -31.416311 48.088107 0.832888 2.282741 0.014627 0.004681 -181339.000000 0 0 1
25.660708 27.875905 -31.696291 49.398309 0.826752 2.267440 0.006662 0.007552 -251319.000000 0 0 1
25.888408 28.888015 -30.714091 49.478101 0.840104 2.240510 0.003356 0.008723 -331986.000000 0 0 1
26.933108 29.745545 -31.031141 50.725945 0.834978 2.229056 0.005198 -0.001763 -227192.000000 0 0 1
26.922308 30.997245 -30.128721 50.925237 0.855638 2.203871 -0.005049 0.009500 -77741.000000 0 0 1
27.298508 30.651955 -28.789671 50.135776 0.843201 2.182465 0.009369 0.000390 442936.000000 0 0 1
26.581408 31.494175 -27.857501 49.744293 0.869790 2.165199 -0.005256 0.007609 -184914.000000 0 0 1
27.021108 31.414375 -26.390561 49.127029 0.860438 2.137899 0.011176 0.011195 -403547.000000 0 0 1
27.130308 30.116375 -25.769471 48.032440 0.837512 2.137082 0.001282 0.026788 442861.000000 0 0 1
25.925208 29.366015 -25.586271 46.788209 0.847549 2.149397 -0.005034 0.022241 355594.000000 0 0 1
25.171908 29.675085 -24.262101 45.857226 0.867319 2.128311 -0.007416 0.026034 124882.000000 0 0 1
24.546608 30.960425 -24.162101 46.312968 0.900438 2.119655 0.017658 0.024912 633054.000000 0 0 1
23.796308 31.160375 -22.930001 45.420460 0.918602 2.099991 -0.011351 0.035535 330447.000000 0 0 1
3.145108 -26.162095 -19.967101 33.061035 -1.451154 2.219240 0.003471 0.021700 -362463.000000 0 0 1
3.053908 -27.223635 -19.105401 33.398638 -1.459085 2.179789 0.014047 0.021587 110684.000000 0 0 1
3.168108 -26.763675 -17.793601 32.294635 -1.452971 2.154331 0.024476 0.014532 -113533.000000 0 0 1
2.924508 -27.841565 -16.720601 32.608036 -1.466139 2.109211 0.020796 -0.006210 -81351.200000 0 0 1
4.145308 -28.476325 -16.419201 33.131176 -1.426241 2.089301 0.013183 -0.004709 -282264.000000 0 0 1
4.033508 -29.494345 -15.422801 33.526830 -1.434884 2.048807 0.014104 -0.012335 308003.000000 0 0 1
5.364408 -30.229105 -15.043701 34.189013 -1.395166 2.026412 0.028691 0.001194 52749.200000 0 0 1
6.267808 -29.324275 -14.433701 33.279577 -1.360224 2.019403 0.011270 0.011918 -814452.000000 0 0 1
7.552508 -29.865555 -14.381901 33.997512 -1.323106 2.007581 0.012159 0.016547 -469497.000000 0 0 1
7.849808 -30.887865 -13.246401 34.512995 -1.321926 1.964714 0.013010 0.006737 -1008310.000000 0 0 1
7.984608 -30.165575 -11.989501 33.428491 -1.312038 1.937630 0.007703 -0.000362 -77171.200000 0 0 1
8.192208 -31.005725 -10.851701 33.855969 -1.312483 1.897081 0.014490 0.000772 -20431.600000 0 0 1
9.421008 -31.932275 -10.721301 34.976733 -1.283905 1.882338 0.017144 -0.002891 -331341.000000 0 0 1
10.480608 -31.428725 -9.973201 34.598738 -1.248921 1.863199 0.015799 -0.010100 -250984.000000 0 0 1
11.594108 -32.311465 -10.016101 35.759983 -1.226283 1.854687 0.027097 -0.012910 322563.000000 0 0 1
12.752308 -31.903365 -9.060601 35.532247 -1.190534 1.828640 0.036474 -0.008506 -32204.500000 0 0 1
13.530508 -30.883365 -9.646301 35.070044 -1.157869 1.849447 0.031953 -0.019593 1050970.000000 0 0 1
14.827208 -30.726635 -9.011501 35.287099 -1.121204 1.829034 0.028958 -0.011968 1434300.000000 0 0 1
15.862908 -29.985795 -9.920401 35.343940 -1.084208 1.855301 0.047002 -0.019870 191474.000000 0 0 1
15.637308 -28.624625 -9.995501 34.114580 -1.070807 1.868157 0.038258 -0.017281 235807.000000 0 0 1
14.744608 -28.370185 -11.086401 33.840496 -1.091496 1.904567 0.022250 -0.016259 63743.100000 0 0 1
14.438508 -26.854305 -11.190001 32.478306 -1.077476 1.922543 0.013915 -0.007040 -211197.000000 0 0 1
13.382808 -26.437915 -10.304901 31.372821 -1.102203 1.905475 0.007587 -0.002603 549909.000000 0 0 1
13.149708 -25.034885 -10.417601 30.136136 -1.087149 1.923765 0.000611 0.008715 224623.000000 0 0 1
12.432008 -24.523985 -11.702701 29.881999 -1.101618 1.973199 -0.011106 0.007123 278169.000000 0 0 1
13.369508 -24.144185 -12.743101 30.398553 -1.065089 2.003361 -0.002539 0.006659 7267.170000 0 0 1
12.735108 -24.027385 -13.939201 30.558134 -1.083418 2.044464 0.001107 -0.003471 -322983.000000 0 0 1
13.518808 -23.440185 -15.179101 31.025885 -1.047658 2.082014 0.011807 0.002811 575690.000000 0 0 1
14.482508 -24.373585 -15.708401 32.412475 -1.034661 2.076749 0.012636 0.003323 519204.000000 0 0 1
15.100608 -23.961285 -16.890101 32.976462 -1.008460 2.108525 0.019615 -0.003783 -930555.000000 0 0 1
16.070008 -24.955585 -17.573801 34.494418 -0.998690 2.105363 0.029052 -0.002838 644915.000000 0 0 1
17.379908 -25.184335 -17.081901 35.044305 -0.966740 2.079949 0.032894 -0.003509 243326.000000 0 0 1
18.213608 -24.030785 -17.180001 34.703985 -0.922240 2.088682 0.026767 -0.005029 -91280.700000 0 0 1
19.701808 -24.269985 -16.728001 35.454470 -0.888916 2.062146 0.031135 -0.003084 424188.000000 0 0 1
20.329408 -25.079715 -17.680401 36.808607 -0.889630 2.071831 0.045246 -0.000045 -634164.000000 0 0 1
21.521308 -25.568215 -17.114701 37.547481 -0.871128 2.044084 0.056099 -0.000586 -125357.000000 0 0 1
22.125208 -26.658575 -18.006201 39.043921 -0.878060 2.050119 0.047880 -0.010148 -304497.000000 0 0 1
22.873508 -26.211315 -19.094801 39.684277 -0.853294 2.072783 0.045260 -0.006571 -413026.000000 0 0 1
23.262908 -27.229735 -19.964801 41.002618 -0.863800 2.079351 0.039550 -0.017137 115589.000000 0 0 1
24.265308 -26.692935 -21.048401 41.765454 -0.833002 2.098982 0.031175 -0.011433 -204787.000000 0 0 1
23.888408 -25.530645 -21.751701 41.177741 -0.818617 2.127322 0.038224 -0.001606 -268541.000000 0 0 1
23.956608 -24.283585 -21.046401 40.081948 -0.792176 2.123610 0.044865 0.005100 -115552.000000 0 0 1
23.116908 -23.105885 -21.642501 39.200398 -0.785160 2.155676 0.070705 0.008950 -199168.000000 0 0 1
23.531608 -22.607385 -22.930601 39.882865 -0.765370 2.183338 0.044670 0.017044 -4979.520000 0 0 1
23.186508 -23.333385 -24.124101 40.792564 -0.788555 2.203571 0.018579 0.005791 -448050.000000 0 0 1
22.512008 -22.326785 -25.058001 40.412613 -0.781267 2.239608 0.019438 0.003982 -294747.000000 0 0 1
23.310908 -21.483185 -25.798511 40.871614 -0.744618 2.253907 0.012148 0.011662 -717605.000000 0 0 1
22.483408 -20.635885 -26.503031 40.419724 -0.742578 2.285900 0.001898 0.017542 -400169.000000 0 0 1
23.138908 -20.001285 -27.734821 41.287780 -0.712795 2.307357 -0.001560 0.017420 -141003.000000 0 0 1
22.259008 -19.169285 -28.479321 40.914504 -0.710956 2.340704 -0.002833 0.013778 516705.000000 0 0 1
22.896808 -18.473785 -29.567741 41.710860 -0.678890 2.358697 -0.001781 0.011034 -164924.000000 0 0 1
21.906808 -17.498985 -30.167051 41.184629 -0.674004 2.392759 0.019571 0.006944 -354061.000000 0 0 1
20.847408 -18.092985 -30.874631 41.415135 -0.714781 2.412068 0.021502 -0.004160 432623.000000 0 0 1
19.909708 -17.121085 -31.367661 40.907923 -0.710235 2.444617 0.025296 -0.005837 476228.000000 0 0 1
18.679808 -17.765785 -32.050091 41.131092 -0.760324 2.464214 0.012402 0.004042 -64831.100000 0 0 1
18.909108 -18.254985 -33.371801 42.479124 -0.767799 2.474469 0.013682 0.006672 343325.000000 0 0 1
17.710208 -18.766085 -33.954551 42.646559 -0.814337 2.491760 0.002559 0.003758 64507.500000 0 0 1
17.859708 -19.452785 33.795685 42.889723 -0.828068 0.663296 0.019059 0.014221 -320112.000000 0 0 1
18.661308 -20.603885 33.901849 43.841760 -0.834831 0.686802 0.018514 0.016459 -109827.000000 0 0 1
18.579908 -21.440485 32.731732 43.315975 -0.856755 0.714150 0.006956 0.009362 80849.700000 0 0 1
19.408708 -22.719585 33.007042 44.523503 -0.863827 0.735732 0.000324 0.010200 219188.000000 0 0 1
18.891908 -23.691785 33.973803 45.523886 -0.897641 0.728333 0.006442 0.007211 164177.000000 0 0 1
19.285308 -23.402785 -33.832801 45.434259 -0.881556 2.410813 0.008534 0.006498 314819.000000 0 0 1
18.414508 -24.200685 -32.767391 44.704241 -0.920350 2.393491 0.014482 0.005054 479907.000000 0 0 1
18.675308 -25.555635 -32.824711 45.599553 -0.939716 2.374378 0.019548 -0.006705 -310.078000 0 0 1
19.502108 -26.021075 -31.766101 45.458924 -0.927632 2.344497 0.012182 -0.003071 192389.000000 0 0 1
19.777908 -27.511585 -31.792711 46.463205 -0.947502 2.324379 0.007051 -0.010090 -30285.700000 0 0 1
18.705408 -28.278395 -31.320981 46.158030 -0.986398 2.316596 0.010819 -0.009865 -293903.000000 0 0 1
19.092008 -29.597995 -31.372811 47.167779 -0.997913 2.298467 0.005020 -0.007575 -412390.000000 0 0 1
18.088308 -30.608575 -30.835571 47.062769 -1.037054 2.285245 0.020094 -0.006518 360299.000000 0 0 1
16.823608 -30.720515 -31.474961 47.089882 -1.069771 2.302854 0.017129 -0.007268 296594.000000 0 0 1
16.929608 -31.466505 -32.716941 48.447402 -1.077197 2.312179 0.018430 -0.008676 580311.000000 0 0 1
15.514808 -32.042535 -33.112021 48.619330 -1.119873 2.319987 0.043305 -0.014110 1151490.000000 0 0 1
14.529508 -31.113255 -33.516911 47.984628 -1.133906 2.344085 0.055872 -0.014594 -561659.000000 0 0 1
13.345508 -31.766945 -33.879961 48.322801 -1.173078 2.347760 0.042621 -0.012798 -26260.800000 0 0 1
12.347608 -30.829435 34.535966 47.912947 -1.189847 0.765831 0.044565 -0.006597 -20419.600000 0 0 1
11.838508 -29.819495 -33.820581 46.617424 -1.192874 2.382546 0.050812 -0.013297 -553701.000000 0 0 1
10.927508 -29.063245 -34.554511 46.455321 -1.211157 2.409568 0.023518 0.000837 -403384.000000 0 0 1
10.019008 -28.176385 -33.693691 45.050572 -1.229158 2.415702 0.030458 -0.001077 -313786.000000 0 0 1
9.105508 -28.926505 -32.972551 44.797791 -1.265835 2.397984 0.042284 -0.005901 -189997.000000 0 0 1
8.189608 -28.132755 -32.193451 43.530907 -1.287519 2.403204 0.022408 -0.008271 1264930.000000 0 0 1
6.948408 -28.865225 -31.554731 43.326466 -1.334572 2.386636 0.008222 -0.002828 1450740.000000 0 0 1
5.905708 -29.366745 -32.450051 44.162075 -1.372341 2.396160 -0.009656 0.006375 793608.000000 0 0 1
6.209708 -30.508275 -33.253501 45.553382 -1.369998 2.389103 0.002389 0.004945 -534475.000000 0 0 1
4.963208 -31.312645 -33.600271 46.196249 -1.413599 2.385231 0.012378 -0.003099 -561080.000000 0 0 1
4.244608 -31.720505 -32.501021 45.612756 -1.437774 2.363911 0.004925 -0.013373 -503457.000000 0 0 1
3.225608 -32.598935 -32.930861 46.449292 -1.472169 2.358824 0.000956 -0.020417 -351860.000000 0 0 1
2.184308 -32.894675 -31.855781 45.843447 -1.504491 2.339052 -0.023089 -0.007732 -411369.000000 0 0 1
1.361308 -31.797905 -31.558981 44.821080 -1.528011 2.351966 -0.052880 0.008556 -528906.000000 0 0 1
0.323708 -32.156345 -30.720761 44.473593 -1.560730 2.333342 -0.059561 0.014628 -545527.000000 0 0 1
-0.751792 -31.069965 -30.492501 43.539643 1.546604 2.346668 -0.056083 0.010741 -762967.000000 0 0 1
-1.492292 -31.404095 -29.399071 43.043577 1.523313 2.322668 -0.051934 0.012856 -821842.000000 0 0 1
-2.183492 -30.291595 -28.968811 41.970708 1.498838 2.332582 -0.053291 0.013536 -360819.000000 0 0 1
-2.837292 -30.319795 -27.582101 41.086646 1.477489 2.306779 -0.043876 0.011480 -32771.400000 0 0 1
-1.808892 -30.563785 -26.633831 40.580512 1.511681 2.286728 -0.043447 0.018468 40615.900000 0 0 1
-2.281792 -30.466615 -25.339641 39.692803 1.496041 2.263206 -0.028535 0.013745 -466409.000000 0 0 1
-1.167992 -30.564235 -24.327001 39.081193 1.532601 2.242695 -0.034090 0.017524 -880782.000000 0 0 1
-1.674492 -30.509755 -23.005701 38.248024 1.515968 2.216158 0.005838 0.006045 -87400.400000 0 0 1
-0.984992 -31.292445 -22.075301 38.308044 1.539330 2.184938 0.005144 0.001327 -296816.000000 0 0 1
-1.689492 -31.176375 -20.730601 37.477707 1.516658 2.156931 -0.007168 0.016869 3001.340000 0 0 1
-1.659192 -29.924235 -20.086701 36.078918 1.515407 2.161257 -0.011954 0.001555 -97257.200000 0 0 1
-0.417992 -29.674765 -19.473001 35.495974 1.556711 2.151482 0.002186 0.000386 -775722.000000 0 0 1
-0.341392 -28.277935 -18.901601 34.015124 1.558724 2.159980 0.009590 -0.000635 233652.000000 0 0 1
-1.269992 -27.984145 -17.838401 33.210447 1.525445 2.137830 0.016337 -0.002629 478483.000000 0 0 1
-1.127392 -26.698505 -17.273801 31.819261 1.528595 2.144650 0.019709 -0.005512 -33134.900000 0 0 1
-2.120392 -26.490105 -16.110001 31.076580 1.490922 2.115771 0.017485 -0.006903 -173224.000000 0 0 1
-2.105992 -25.127965 -15.704101 29.706373 1.487181 2.127799 0.012624 -0.003503 -187022.000000 0 0 1
-3.009292 -24.982285 -14.659401 29.121615 1.450917 2.098309 0.010824 -0.004497 -464153.000000 0 0 1
-2.791892 -23.791285 -13.716801 27.603814 1.453981 2.090839 0.009060 -0.006186 -895642.000000 0 0 1
-1.723992 -23.973185 -12.867001 27.262528 1.499007 2.062316 0.008648 -0.001050 -811915.000000 0 0 1
-1.632592 -22.897785 -11.996401 25.901497 1.499618 2.052348 0.004900 0.003547 -505811.000000 0 0 1
-0.357592 -22.913485 -11.189701 25.502256 1.555191 2.025029 -0.005492 0.006749 -502009.000000 0 0 1
-0.030192 -21.646985 -10.589801 24.098480 1.569402 2.025770 -0.005455 0.010177 -251301.000000 0 1 0
1.198208 -21.744485 -9.904101 23.923828 -1.515748 1.997624 -0.012119 0.010731 328224.000000 0 1 0
1.780208 -20.313885 -9.506901 22.498983 -1.483385 2.007051 0.001870 0.009136 -838461.000000 0 1 0
2.239208 -19.585485 -10.640501 22.401463 -1.456961 2.065751 0.000187 0.015184 192321.000000 0 1 0
3.053308 -18.440285 -10.359801 21.370360 -1.406707 2.076901 -0.001793 0.008657 741323.000000 0 1 0
4.426408 -18.603285 -9.652101 21.420512 -1.337203 2.038235 0.008584 -0.013568 -212617.000000 0 1 0
4.260908 -19.254285 -8.411901 21.439284 -1.353010 1.973991 0.005230 -0.002441 -462152.000000 0 1 0
5.387408 -19.990685 -7.979701 22.188449 -1.307554 1.938671 0.016064 -0.000910 -412479.000000 0 1 0
5.048208 -21.195385 -7.121201 22.922484 -1.336978 1.886688 0.015058 0.005104 -111276.000000 0 1 0
4.422308 -22.255585 -7.842601 24.007796 -1.374646 1.903573 0.007763 0.002866 177263.000000 0 1 0
4.122608 -23.316685 -6.954301 24.678452 -1.395796 1.856462 0.011295 -0.000448 261773.000000 0 1 0
3.142708 -24.364285 -7.575901 25.707767 -1.442516 1.869931 0.011679 0.002671 706394.000000 0 0 1
3.768208 -25.018885 -8.698101 26.754457 -1.421305 1.901923 0.013253 0.003236 -166072.000000 0 0 1
2.789808 -25.643035 -9.431901 27.464687 -1.462429 1.921351 -0.004525 0.005640 -38034.100000 0 0 1
3.408608 -26.592695 -10.512801 28.797726 -1.443313 1.944490 -0.010634 0.004456 176190.000000 0 0 1
4.061608 -27.769585 -10.125101 29.835619 -1.425565 1.917036 0.002239 0.003477 9566.270000 0 0 1
4.568708 -28.421295 -11.305301 30.926573 -1.411410 1.945023 0.016147 0.011398 316142.000000 0 0 1
4.633808 -29.971535 -11.122301 32.302797 -1.417404 1.922304 0.011421 0.004117 1237850.000000 0 0 1
3.351208 -30.552155 -11.523801 32.824728 -1.461545 1.929511 0.012231 0.005933 1309790.000000 0 0 1
3.191408 -31.884055 -11.055301 33.896869 -1.471034 1.903019 0.019696 0.006047 349889.000000 0 0 1
1.901308 -32.633235 -11.512901 34.656744 -1.512599 1.909429 0.020549 0.001005 269305.000000 0 0 1
1.914108 -32.896835 -12.892201 35.384663 -1.512677 1.943725 0.026732 -0.001903 66190.300000 0 0 1
0.829208 -33.703495 -13.249301 36.223710 -1.546198 1.945249 0.025836 -0.005695 -569122.000000 0 0 1
0.479808 -33.796895 -14.747301 36.877408 -1.556600 1.982205 0.033612 -0.001051 -73485.100000 0 0 1
-0.293892 -32.689045 -15.206601 36.054136 1.561806 2.006194 0.024411 0.003832 95180.900000 0 0 1
-0.866892 -33.036055 -16.433801 36.908024 1.544562 2.032265 0.003841 0.008274 213191.000000 0 0 1
-1.984492 -32.064835 -16.933501 36.315772 1.508985 2.055883 0.002572 0.006338 753608.000000 0 0 1
-3.217092 -32.089275 -16.212401 36.095889 1.470876 2.036608 0.003860 0.006327 1021170.000000 0 0 1
-4.231792 -31.381705 -16.990601 35.936054 1.436756 2.063263 0.004638 0.012016 899658.000000 0 0 1
-5.613092 -31.199035 -16.347201 35.666757 1.392788 2.046913 -0.002421 0.005144 -251492.000000 0 0 1
-5.812792 -30.207685 -15.363701 34.385114 1.380692 2.033996 -0.009264 0.007068 -397694.000000 0 0 1
-7.115892 -30.075695 -14.849001 34.288135 1.338469 2.018687 0.007419 -0.001811 -163787.000000 0 0 1
-7.548992 -31.111395 -13.794001 34.859441 1.332753 1.977630 -0.005118 0.007278 -219085.000000 0 0 1
-7.880192 -32.319535 -14.354801 36.231341 1.331641 1.978169 -0.002618 0.010976 -372971.000000 0 0 1
-8.216092 -33.258035 -13.397801 36.784536 1.328605 1.943595 0.009220 0.008160 194993.000000 0 0 1
-8.768892 -34.576777 -14.047101 38.337553 1.322426 1.945940 0.026780 0.003632 -199255.000000 0 0 1
-7.767192 34.015181 -14.757001 37.883121 -1.346300 1.970929 0.024103 0.012513 -158538.000000 0 0 1
-8.264192 32.875825 -15.434501 37.247021 -1.324523 1.998060 0.033965 0.010759 -217925.000000 0 0 1
-6.989892 -22.288485 -3.381401 23.602310 1.266901 1.714557 0.027630 0.001700 154205.000000 0 1 0
-6.907592 -21.273485 -4.329301 22.781985 1.256832 1.761991 0.016866 0.005161 77124.800000 0 1 0
-5.800492 -21.376585 -5.213501 22.754882 1.305829 1.801965 0.006107 0.010580 -39819.500000 0 1 0
-5.678992 -20.223385 -6.219301 21.906984 1.297034 1.858651 -0.002759 0.010771 368708.000000 0 1 0
-6.656392 -20.413985 -7.252901 22.663691 1.255597 1.896550 0.006688 0.003985 241817.000000 0 1 0
-6.801892 -19.271385 -8.023301 21.955076 1.231493 1.944904 -0.001508 -0.002832 231002.000000 0 1 0
-7.815092 -19.481685 -9.218001 22.925602 1.189298 1.984587 0.010571 -0.008221 661064.000000 0 1 0
-7.242992 -20.222385 -10.273501 23.810725 1.226864 2.016913 0.010208 -0.004436 -300874.000000 0 1 0
-8.242692 -20.547185 -11.203901 24.812420 1.189291 2.039291 0.023387 -0.004703 -146049.000000 0 1 0
-7.673192 -21.455785 -12.241301 25.866543 1.227342 2.063771 0.014702 -0.005253 -22752.700000 0 0 1
-6.715892 -20.784785 -13.057101 25.447954 1.258270 2.109578 0.021811 -0.001778 -80877.600000 0 0 1
-6.363892 -21.564685 -14.171101 26.577337 1.283834 2.133178 0.009629 -0.005596 -204960.000000 0 0 1
-5.307292 -21.004085 -15.125901 26.422184 1.323298 2.180311 0.006172 0.006847 189356.000000 0 0 1
-4.020092 -20.885485 -14.519401 25.752235 1.380639 2.169790 0.007878 0.006775 -287817.000000 0 0 1
-3.027792 -20.246585 -15.221501 25.510504 1.422351 2.210149 0.013895 0.009258 -542833.000000 0 0 1
-3.138592 -18.672185 -15.459401 24.443697 1.404264 2.255508 0.022182 0.014270 -939185.000000 0 1 0
-4.235992 -18.218885 -16.218601 24.757108 1.342350 2.285123 0.016145 0.016576 -372656.000000 0 1 0
-4.074692 -18.367085 -17.622901 25.778277 1.352485 2.323526 0.021863 0.007586 -474404.000000 0 0 1
-5.469892 -18.255085 -18.275001 26.403475 1.279673 2.335251 0.018150 0.011650 151175.000000 0 0 1
-6.372392 -19.253685 -17.877801 27.035671 1.251174 2.293303 0.007206 0.007193 -118634.000000 0 0 1
-7.600592 -19.134985 -18.577101 27.731306 1.192698 2.304866 0.000710 0.006140 -189061.000000 0 0 1
-8.652592 -20.082485 -18.031401 28.342635 1.163979 2.260351 0.023458 -0.007212 -593266.000000 0 0 1
-8.370492 -21.433485 -18.337901 29.423426 1.198477 2.243677 0.017586 -0.004170 150844.000000 0 0 1
-9.173992 -22.341285 -17.647801 29.912205 1.181160 2.201839 0.033078 -0.016309 -527730.000000 0 0 1
-8.701692 -23.735585 -17.960501 31.010918 1.219402 2.188503 0.022742 -0.021186 -778261.000000 0 0 1
-8.802592 -24.038685 -19.340601 32.084308 1.219777 2.217809 0.009858 -0.025206 455212.000000 0 0 1
-7.890692 -25.026455 -19.828001 32.889757 1.265368 2.217880 0.016075 -0.031691 -437490.000000 0 0 1
-6.408192 -24.710385 -19.801501 32.307391 1.317054 2.230534 0.024737 -0.020264 -1733570.000000 0 0 1
-5.916092 -23.707085 -20.643401 31.987123 1.326242 2.272299 0.019747 -0.014469 89080.400000 0 0 1
-5.568292 -22.457985 -20.009001 30.589656 1.327755 2.283802 0.018561 -0.012444 -30723.500000 0 0 1
-4.486792 -22.529785 -18.918901 29.759827 1.374219 2.259737 0.020825 0.004134 894968.000000 0 0 1
-3.151092 -22.889185 -19.362801 30.145683 1.433989 2.268302 0.025132 -0.006769 1250750.000000 0 0 1
-2.173892 -22.785585 -18.346001 29.334015 1.475678 2.246463 0.019737 0.000782 896113.000000 0 0 1
-0.717192 -23.221085 -18.726101 29.839571 1.539921 2.249211 0.022910 0.000277 881663.000000 0 0 1
-0.082592 -22.224685 -19.543601 29.595537 1.567080 2.292090 0.033744 0.002110 399575.000000 0 0 1
1.249308 -22.630985 -19.901201 30.162560 -1.515649 2.291346 0.026013 0.003076 898466.000000 0 0 1
1.846708 -21.662585 -20.920501 30.171929 -1.485753 2.336960 0.034416 0.009656 -4921.170000 0 0 1
1.492008 -22.038185 -22.221901 31.332420 -1.503198 2.359202 0.029762 0.003463 -93840.500000 0 0 1
0.903208 -20.979085 -22.932001 31.093640 -1.527770 2.400178 0.036392 -0.002574 -379824.000000 0 0 1
0.453108 -21.444985 -24.358501 32.456575 -1.549671 2.419607 0.033774 -0.006147 338392.000000 0 0 1
-0.259992 -20.520285 -25.177481 32.481614 1.558127 2.457718 0.032607 -0.004795 80115.000000 0 0 1
-1.553792 -20.130485 -24.793101 31.974186 1.493763 2.458160 0.037252 -0.006468 -395631.000000 0 0 1
-2.043192 -18.901985 -25.560561 31.855956 1.463120 2.502068 0.029410 -0.008673 153738.000000 0 0 1
-1.258092 -17.735685 -25.277251 30.904316 1.499979 2.528582 0.038619 -0.013535 596113.000000 0 0 1
-1.844292 -16.535685 -25.855151 30.746042 1.459721 2.569789 0.028392 -0.007290 273040.000000 0 0 1
-1.219092 -15.234385 -25.295331 29.553789 1.490944 2.598101 0.029624 0.001451 -4980.090000 0 0 1
0.139708 -14.986785 -25.560671 29.630578 -1.561474 2.611272 0.040934 -0.012783 -155495.000000 0 0 1
0.618708 -13.667385 -25.205141 28.678901 -1.525558 2.644293 0.039663 -0.010475 329229.000000 0 0 1
0.217808 -12.551885 -26.196171 29.048866 -1.553445 2.694705 0.034458 -0.001343 81815.400000 0 0 1
0.902708 -11.327685 -25.931831 28.312386 -1.491274 2.728586 0.021407 -0.002542 212165.000000 0 0 1
0.556408 -10.333385 -26.845361 28.770851 -1.517003 2.773666 0.013668 0.001515 -535100.000000 0 0 1
1.257308 -8.928785 -26.588131 28.075483 -1.430901 2.814633 0.024353 -0.002483 834600.000000 0 0 1
2.666608 -8.881485 -26.808991 28.367474 -1.279116 2.808577 0.042475 -0.006132 353231.000000 0 0 1
3.063608 -9.053985 -28.166861 29.744452 -1.244519 2.814442 0.025785 -0.006505 -757450.000000 0 0 1
4.458408 -8.617385 -28.613941 30.214142 -1.093347 2.814679 0.015989 -0.012798 -1235670.000000 0 0 1
4.474608 -7.249085 -29.070661 30.293146 -1.017778 2.856533 0.013912 -0.008813 -757674.000000 0 0 1
5.715008 -6.689885 -29.292621 30.585512 -0.863825 2.849796 0.007835 -0.018848 -786108.000000 0 0 1
6.776608 -6.655685 -28.098161 29.660196 -0.776396 2.815607 0.023967 -0.017010 258175.000000 0 0 1
7.329408 -7.927085 -27.733521 29.760832 -0.824553 2.770357 0.012145 -0.016751 237909.000000 0 0 1
8.261508 -8.422785 -28.695661 31.026389 -0.795064 2.751514 0.012031 -0.011791 -717979.000000 0 0 1
8.568208 -9.893485 -28.257691 31.141489 -0.857060 2.707845 0.023717 -0.009636 -444545.000000 0 0 1
7.474708 -10.746985 -28.345831 31.222669 -0.963086 2.708949 0.008084 -0.013668 -417489.000000 0 0 1
7.549808 -11.809385 -27.491821 30.858733 -1.001976 2.670103 0.022249 -0.018056 -96924.500000 0 0 1
8.536708 -12.986485 -27.779941 31.831577 -0.989269 2.631535 0.020244 -0.016902 145250.000000 0 0 1
8.175108 -13.851685 -28.809861 32.995601 -1.037622 2.632408 0.020134 -0.014554 -942912.000000 0 0 1
9.201308 -14.704285 -29.077941 33.858629 -1.011653 2.603728 0.014030 -0.011439 -842575.000000 0 0 1
8.749208 -15.741585 -30.102441 35.078528 -1.063509 2.602441 0.015612 -0.005980 -78482.900000 0 0 1
8.507608 -15.226585 -31.371151 35.893975 -1.061272 2.634160 0.008797 -0.005873 -7699.930000 0 0 1
8.066408 -16.193585 -32.253221 36.980663 -1.108651 2.630406 0.022333 -0.005480 433278.000000 0 0 1
6.930508 -15.652785 -33.223601 37.374447 -1.153975 2.665820 0.012409 0.000573 594414.000000 0 0 1
7.338608 -14.562085 -34.029201 37.734547 -1.103991 2.694725 0.005348 -0.000489 -147467.000000 0 0 1
6.260108 -14.095385 34.350444 37.653975 -1.152839 0.422013 -0.016255 -0.003636 -23748.500000 0 0 1
6.568508 -12.818485 33.522232 36.485599 -1.097258 0.405818 -0.001992 0.001470 126001.000000 0 0 1
7.341208 -12.982285 32.347622 35.620243 -1.056147 0.432013 -0.019743 0.006413 173185.000000 0 0 1
7.378108 -11.772285 31.650882 34.565901 -1.010950 0.413630 -0.013714 0.005855 47387.100000 0 0 1
7.743508 -11.789585 30.069032 33.212994 -0.989649 0.438618 -0.032607 0.014294 332287.000000 0 0 1
6.739608 -12.421985 29.271152 32.504283 -1.073687 0.449804 -0.020597 0.004659 317791.000000 0 0 1
7.081208 -12.347185 27.874462 31.298277 -1.050084 0.472118 -0.031756 0.012472 -556652.000000 0 0 1
6.020408 -12.876385 26.926002 30.447598 -1.133441 0.485720 -0.021937 -0.000410 -486285.000000 0 0 1
5.928908 -14.278185 27.011872 31.123299 -1.177219 0.519840 -0.011895 0.003738 -26076.200000 0 0 1
5.777208 -14.893985 25.712532 30.271129 -1.200774 0.555934 -0.016007 0.001406 -112113.000000 0 0 1
4.338808 -15.269285 25.279362 29.850000 -1.293941 0.560706 -0.017601 -0.008667 191663.000000 0 0 1
3.512908 -14.142185 25.132482 29.051396 -1.327325 0.525438 -0.023422 -0.010087 -948606.000000 0 0 1
2.181008 -14.431285 24.892752 28.855985 -1.420801 0.530301 -0.022550 -0.011992 -314189.000000 0 0 1
1.259908 -13.191685 24.665752 28.000130 -1.475577 0.493003 -0.009742 -0.013743 -271766.000000 0 0 1
1.553108 -12.534485 23.452582 26.637362 -1.447518 0.494008 -0.022026 -0.004683 93731.900000 0 0 1
0.770108 -11.339385 23.215782 25.848545 -1.502986 0.455260 -0.014622 0.003494 604003.000000 0 0 1
-0.692192 -11.642185 22.798682 25.608583 1.511411 0.472848 0.008144 -0.001482 -459772.000000 0 0 1
-0.823792 -12.495585 21.618282 24.983363 1.504965 0.525033 0.003229 0.003748 215917.000000 0 1 0
-2.178292 -12.916185 21.419682 25.107281 1.403720 0.548848 0.020929 -0.000455 772155.000000 0 0 1
-2.396292 -13.643785 20.068582 24.385304 1.396937 0.604162 0.017644 -0.001909 106749.000000 0 1 0
-1.646492 -14.850685 19.988382 24.955745 1.460378 0.641911 0.017949 -0.005786 -212307.000000 0 1 0
-1.816792 -15.601785 18.815282 24.509820 1.454871 0.695610 0.016104 -0.004171 106218.000000 0 1 0
-2.829692 -16.760285 18.877682 25.402386 1.403540 0.733036 0.005585 -0.004140 203900.000000 0 0 1
-2.489392 -17.685185 17.828882 25.235528 1.430954 0.786257 -0.009404 -0.003870 -310477.000000 0 0 1
-3.301792 -18.823485 17.811682 26.124346 1.397155 0.820571 -0.005054 0.003725 -132081.000000 0 0 1
-2.824092 -19.934085 16.754982 26.192989 1.430061 0.876722 -0.008093 -0.002733 725058.000000 0 0 1
-1.612492 -20.618885 17.106782 26.839906 1.492751 0.879724 -0.009336 -0.002461 308701.000000 0 0 1
-1.797592 -21.635385 18.130482 28.284901 1.487901 0.875002 -0.013406 0.006541 -336259.000000 0 0 1
-0.499692 -22.368985 18.553182 29.066162 1.548461 0.878497 -0.008403 0.002759 117611.000000 0 0 1
-0.093192 -23.447985 17.702782 29.380354 1.566822 0.924119 -0.018417 0.009207 -720867.000000 0 0 1
0.988908 -24.115185 18.294982 30.285747 -1.529812 0.922187 -0.006278 0.004551 -658931.000000 0 0 1
2.252108 -23.896585 17.483782 29.695141 -1.476830 0.941253 -0.008037 0.002539 -771075.000000 0 0 1
2.920008 -22.688285 17.674182 28.907809 -1.442799 0.912970 -0.001691 0.002358 -159314.000000 0 0 1
4.076208 -22.564585 16.867182 28.465379 -1.392077 0.936575 0.008849 -0.000310 53281.500000 0 0 1
4.681208 -21.190485 16.971182 27.549435 -1.353377 0.907108 0.025806 -0.005839 -533996.000000 0 0 1
5.370508 -21.110985 18.244182 28.414191 -1.321686 0.873588 0.022139 -0.003103 -23250.900000 0 0 1
5.826808 -19.797885 18.569282 27.761956 -1.284564 0.838102 0.027719 -0.001464 346918.000000 0 0 1
6.839608 -19.064885 17.633282 26.854845 -1.226344 0.854475 0.036992 -0.003083 -290512.000000 0 0 1
6.306008 -18.636185 16.393582 25.609035 -1.244516 0.876105 0.031646 -0.003532 -591230.000000 0 0 1
7.237008 -17.899985 15.673382 24.868427 -1.186586 0.888918 0.037550 -0.003753 -479330.000000 0 1 0
6.639508 -16.880185 14.692982 23.343253 -1.196052 0.889975 0.023182 -0.008452 -75006.300000 0 1 0
6.131308 -17.490385 13.488182 22.922425 -1.233629 0.941684 0.037100 -0.012450 -21275.300000 0 1 0
5.516908 -16.508785 12.711382 21.553549 -1.248284 0.940037 0.025087 -0.012706 -247676.000000 0 1 0
5.954408 -16.625585 11.258982 20.943489 -1.226882 1.003222 0.018920 -0.012743 162667.000000 0 1 0
7.309708 -16.233085 11.104382 20.982187 -1.147695 1.013105 0.026766 -0.010008 -112995.000000 0 1 0
7.810508 -16.452585 9.841782 20.701504 -1.127570 1.075362 0.025406 -0.010931 184759.000000 0 1 0
9.299208 -16.013485 9.911782 21.003581 -1.044681 1.079341 0.024011 -0.008805 171002.000000 0 1 0
10.043108 -16.386285 8.787582 21.132817 -1.020948 1.141945 0.027240 -0.010422 -543864.000000 0 1 0
11.390408 -15.982785 8.916182 21.556649 -0.951619 1.144374 0.019806 -0.002441 160972.000000 0 1 0
12.333108 -16.809385 8.004482 22.332325 -0.937807 1.204215 0.015900 -0.011951 16232.200000 0 1 0
12.416808 -18.137885 8.512982 23.571824 -0.970495 1.201295 0.013840 -0.012268 26652.000000 0 1 0
13.245808 -18.929085 7.679882 24.346299 -0.960232 1.249872 0.009844 -0.008154 44126.500000 0 1 0
13.794208 -20.199485 8.312182 25.833926 -0.971640 1.243214 0.005017 -0.000859 327252.000000 0 0 1
12.769808 -21.064585 8.814682 26.162633 -1.025815 1.227154 0.008287 -0.003579 305818.000000 0 0 1
13.385008 -22.225685 9.368182 27.584459 -1.028738 1.224285 0.011118 -0.002902 109828.000000 0 0 1
12.386608 -23.235285 9.959982 28.151515 -1.081025 1.209166 0.017725 -0.002687 203134.000000 0 0 1
11.952908 -22.649085 11.240382 27.967825 -1.085201 1.157201 0.022936 -0.006653 -151737.000000 0 0 1
11.181408 -23.479985 12.135682 28.698578 -1.126361 1.134190 0.032967 -0.006604 -307313.000000 0 0 1
11.518908 -24.939785 12.404282 30.142069 -1.138116 1.146667 0.007639 -0.014316 -241437.000000 0 0 1
12.697908 -25.132335 13.146182 31.075605 -1.102964 1.134000 -0.016161 -0.013149 -240131.000000 0 0 1
12.658108 -26.408085 13.711982 32.336251 -1.123823 1.132891 -0.006792 -0.019047 -579147.000000 0 0 1
13.719808 -26.687335 14.742482 33.433333 -1.095937 1.114138 0.009325 -0.012142 -644570.000000 0 0 1
13.531408 -26.007765 15.983182 33.391091 -1.091054 1.071662 0.019294 -0.014507 259546.000000 0 0 1
14.243108 -26.550835 17.096782 34.642646 -1.078418 1.054666 0.021439 -0.015141 -390506.000000 0 0 1
13.808808 -25.902965 18.392582 34.640061 -1.081023 1.011060 0.014258 -0.019699 -163643.000000 0 0 1
14.177108 -24.533985 18.595882 33.892678 -1.046818 0.990024 0.005589 -0.017695 50623.000000 0 0 1
15.478908 -24.502685 19.146682 34.735768 -1.007377 0.986983 0.009578 -0.012460 67130.000000 0 0 1
16.077008 -23.155385 19.633782 34.352983 -0.963900 0.962426 -0.008138 -0.005681 -148817.000000 0 0 1
16.211308 -22.326085 18.514182 33.227030 -0.942758 0.979783 -0.006753 -0.007013 475797.000000 0 0 1
15.081908 -21.505785 18.175182 31.942135 -0.959201 0.965503 -0.007625 -0.001931 -58649.200000 0 0 1
15.480708 -20.390585 17.173882 30.828080 -0.921428 0.979924 -0.002860 -0.002558 59179.000000 0 0 1
16.219708 -19.340585 17.774982 30.872110 -0.872937 0.957261 0.002000 -0.010000 -60105.900000 0 0 1
17.607008 -19.556685 17.655682 31.689017 -0.837812 0.979841 0.006715 -0.004529 -629644.000000 0 0 1
18.450808 -18.306485 17.838182 31.523967 -0.781472 0.969319 0.011142 -0.000976 -539424.000000 0 0 1
18.436608 -17.884985 19.194382 32.065644 -0.770212 0.929048 0.002217 0.005081 72642.100000 0 0 1
18.874308 -16.563085 19.351082 31.702361 -0.720270 0.914232 0.009742 0.003219 -255098.000000 0 0 1
19.436308 -16.210185 20.759682 32.733845 -0.695141 0.883828 0.012018 0.005916 -558099.000000 0 0 1
20.577108 -16.987385 20.950482 33.925084 -0.690126 0.905171 0.019094 0.003937 -597490.000000 0 0 1
21.073808 -16.814285 22.272282 34.969703 -0.673444 0.880323 0.024720 0.004774 100282.000000 0 0 1
32.526989 -0.202685 -7.488501 33.378492 -0.006231 1.797073 0.046802 -0.018938 -672606.000000 0 0 1
33.681489 -0.147885 -8.286701 34.686222 -0.004391 1.812034 0.020214 -0.022104 -215481.000000 0 0 1
34.243361 -1.407785 -8.382801 35.282588 -0.041088 1.810681 0.033947 -0.028182 916240.000000 0 0 1
-34.529124 -1.219585 -9.037701 35.713132 0.035306 1.826642 0.009565 -0.024328 1037560.000000 0 0 1
-33.711582 -2.344485 -8.884301 34.941353 0.069434 1.827882 0.035672 -0.015927 520924.000000 0 0 1
-32.370992 -2.092485 -9.305101 33.746770 0.064551 1.850149 0.084608 -0.025562 639402.000000 0 0 1
-31.381032 -3.247785 -8.992101 32.805108 0.103128 1.848457 0.085128 -0.019996 -304304.000000 0 0 1
-30.904232 -3.464285 -7.723401 32.042530 0.111631 1.814229 0.073740 -0.020881 535133.000000 0 0 1
-29.756832 -4.306985 -7.717901 31.041668 0.143741 1.822062 0.062521 -0.025036 302009.000000 0 0 1
-29.176992 -4.484385 -6.298701 30.184105 0.152503 1.781017 0.057939 -0.033581 -260767.000000 0 0 1
-28.837132 -3.293785 -5.681301 29.575435 0.113727 1.764093 0.050257 -0.022418 475552.000000 0 0 1
-29.262312 -3.301485 -4.310901 29.761830 0.112349 1.716154 0.048157 -0.019335 -205798.000000 0 0 1
-29.274602 -1.965985 -3.525601 29.551603 0.067056 1.690384 0.034525 -0.008342 -979272.000000 0 0 1
-28.004162 -1.517885 -3.215901 28.229046 0.054149 1.684966 0.038527 -0.006480 -269352.000000 0 0 1
-27.955502 -0.119785 -2.950701 28.111049 0.004285 1.675956 0.042742 -0.014942 -122087.000000 0 0 1
-26.520032 0.383415 -2.653001 26.655159 -0.014457 1.670492 0.072095 -0.005965 -111424.000000 0 0 1
-25.926442 -0.277885 -1.561401 25.974903 0.010718 1.630945 0.038105 -0.009206 -414163.000000 0 0 1
-24.617592 0.186615 -1.467301 24.661987 -0.007580 1.630328 0.048861 -0.009313 -632156.000000 0 1 0
-23.966392 -0.546285 -0.218101 23.973609 0.022790 1.579894 0.029466 -0.011810 -120957.000000 0 1 0
-23.900792 -1.961585 -0.278201 23.982766 0.081888 1.582397 0.020433 -0.012142 571983.000000 0 1 0
-23.075492 -2.435985 0.794899 23.217325 0.105176 1.536552 0.008735 -0.013691 -352422.000000 0 1 0
-23.001992 -3.984685 0.849999 23.360048 0.171530 1.534401 0.001880 0.001115 -383710.000000 0 1 0
-24.137292 -4.690485 1.290999 24.622676 0.191933 1.518341 -0.006218 0.001052 -99998.000000 0 1 0
-23.930392 -6.042485 1.127099 24.707198 0.247333 1.525162 -0.026214 0.012097 -797801.000000 0 1 0
-24.998292 -6.983785 1.668699 26.009083 0.272425 1.506594 -0.017700 0.012974 -295850.000000 0 0 1
-25.208102 -6.986685 3.107099 26.342290 0.270374 1.452570 -0.017317 0.015017 -203680.000000 0 0 1
-26.322412 -7.739685 3.475499 27.655943 0.285974 1.444794 -0.002251 0.013050 -283901.000000 0 0 1
-26.488802 -7.912685 5.008399 28.095396 0.290280 1.391574 -0.008998 -0.000028 391718.000000 0 0 1
-25.708542 -9.059385 5.495499 27.806511 0.338801 1.371853 -0.002636 0.013990 533163.000000 0 0 1
-25.853742 -9.428285 6.889399 28.368509 0.349690 1.325490 -0.007911 0.014225 -348657.000000 0 0 1
-25.341042 -8.445485 7.937299 27.865666 0.321696 1.281955 0.007517 0.017053 480087.000000 0 0 1
-23.964492 -8.077385 7.832099 26.474191 0.325098 1.270463 0.015103 0.005986 582297.000000 0 0 1
-23.708792 -6.927485 8.612699 26.158659 0.284277 1.235289 0.012539 0.007437 -367185.000000 0 0 1
-22.422392 -6.200885 8.225299 24.675295 0.269806 1.230951 0.031793 0.002476 252252.000000 0 1 0
-21.217792 -6.869185 8.622999 23.911012 0.313098 1.201854 0.030901 -0.000359 613833.000000 0 1 0
-20.095392 -6.200985 8.054599 22.520070 0.299307 1.205032 0.030309 -0.002475 1524030.000000 0 1 0
-18.745092 -6.475685 8.869699 21.725205 0.332625 1.150241 0.038731 -0.011867 930308.000000 0 1 0
-18.735492 -5.717985 10.042799 22.012992 0.296216 1.097052 0.035867 -0.003412 12860.600000 0 1 0
-17.696292 -6.061085 10.924499 21.661952 0.329983 1.042205 0.033397 -0.007053 -146075.000000 0 1 0
-17.408292 -4.976785 11.984999 21.713065 0.278458 0.986069 0.020298 -0.001123 -432510.000000 0 1 0
-18.395792 -4.994585 12.956699 23.048364 0.265116 0.973810 0.023303 -0.005926 -415572.000000 0 1 0
-18.594392 -3.736485 13.498099 23.278990 0.198306 0.952264 0.029129 0.000747 -168062.000000 0 1 0
-19.827992 -3.620385 14.402499 24.772735 0.180600 0.950366 0.024772 -0.003961 -356320.000000 0 1 0
-19.784992 -4.530585 15.478799 25.525777 0.225110 0.919273 0.024032 -0.006410 -153953.000000 0 0 1
-20.771392 -4.376085 16.468899 26.866810 0.207642 0.910966 0.006117 0.003749 -362067.000000 0 0 1
-20.763692 -5.377185 17.594999 27.742188 0.253404 0.883781 0.004229 0.006381 -287179.000000 0 0 1
-21.463892 -4.913085 18.725399 28.904630 0.225023 0.866059 -0.006049 0.005179 72799.200000 0 0 1
-21.324592 -5.820585 19.805899 29.679809 0.266461 0.840193 0.006439 0.008211 -453567.000000 0 0 1
-21.989392 -5.326385 21.112799 30.945985 0.237648 0.819965 -0.008328 0.002916 -432177.000000 0 0 1
-21.499492 -4.103585 21.594499 30.747194 0.188600 0.792139 -0.011588 -0.001713 40745.100000 0 0 1
-22.088792 -3.785285 22.824399 31.987439 0.169718 0.776255 -0.010508 -0.002059 -81967.900000 0 0 1
-22.192592 -2.297285 23.098699 32.114460 0.103148 0.768057 -0.014333 0.012290 199396.000000 0 0 1
-23.093092 -1.593685 22.220099 32.086812 0.068902 0.805848 -0.022962 0.011594 195640.000000 0 0 1
-22.881692 -0.235085 22.185099 31.871707 0.010274 0.800880 -0.018442 0.007647 -4129.070000 0 0 1
-24.217692 0.421515 21.765999 32.564290 -0.017404 0.838740 -0.020560 0.009726 143062.000000 0 0 1
-25.142522 0.500315 22.826899 33.962686 -0.019897 0.833732 -0.021430 0.010624 178356.000000 0 0 1
-26.254002 1.341115 22.436399 34.561007 -0.051038 0.864287 -0.015218 0.013590 500470.000000 0 0 1
-27.332812 1.344115 23.532599 36.092554 -0.049136 0.860568 -0.006540 0.008210 -309270.000000 0 0 1
-26.920472 1.986615 24.740499 36.616263 -0.073662 0.828924 -0.001241 0.009749 122507.000000 0 0 1
-27.990152 2.116615 25.649899 38.024281 -0.075476 0.830419 -0.002139 0.004537 -214325.000000 0 0 1
-27.594392 3.046815 26.799499 38.586872 -0.109969 0.803039 0.008735 0.005666 -278842.000000 0 0 1
-26.632232 2.502215 27.641299 38.465286 -0.093679 0.769004 0.012311 -0.001156 -140499.000000 0 0 1
-26.139132 3.418115 28.598299 38.894735 -0.130028 0.744725 0.019216 -0.006469 -167660.000000 0 0 1
-25.074922 2.783715 29.508199 38.823119 -0.110563 0.707379 0.032833 -0.011054 78527.400000 0 0 1
-25.585192 1.879615 30.491799 39.848272 -0.073333 0.699448 0.032614 -0.013464 60581.700000 0 0 1
-24.476992 1.479915 31.242099 39.716269 -0.060388 0.665461 0.038763 -0.017970 131111.000000 0 0 1
-24.828192 0.412815 32.268099 40.716578 -0.016625 0.655890 0.030785 -0.022739 -5546.230000 0 0 1
-24.893392 -0.844385 31.623699 40.254841 0.033907 0.667151 0.026559 -0.023349 -21699.200000 0 0 1
-25.460052 -1.910585 32.399999 41.250751 0.074902 0.667389 0.020951 -0.014338 -235455.000000 0 0 1
-26.039072 -3.034685 31.423499 40.922840 0.116020 0.695284 0.029611 -0.010280 1256030.000000 0 0 1
-27.341802 -2.687885 30.864999 41.321266 0.097992 0.727331 0.025021 -0.005952 1018840.000000 0 0 1
-27.353392 -1.680185 29.935699 40.585430 0.061348 0.741291 0.023964 -0.006673 -379978.000000 0 0 1
-28.784332 -1.257585 29.504399 41.238681 0.043662 0.773522 -0.003290 -0.009976 769659.000000 0 0 1
-29.470212 -0.549585 30.544099 42.446877 0.018647 0.767593 0.005457 -0.003343 -365878.000000 0 0 1
-30.801052 -0.195985 30.233199 43.160045 0.006363 0.794712 -0.008902 -0.001653 127621.000000 0 0 1
-31.554482 0.114315 31.549199 44.621187 -0.003623 0.785485 -0.016527 0.007771 -703844.000000 0 0 1
-31.850252 -1.051885 32.270699 45.353533 0.033014 0.779114 -0.023371 0.002477 -169097.000000 0 0 1
-32.275202 -0.778185 33.544599 46.556786 0.024106 0.766260 -0.002675 -0.001527 -408867.000000 0 0 1
-32.437272 -2.130485 34.317199 47.269289 0.065586 0.758318 0.002192 -0.003537 966610.000000 0 0 1
-33.611522 -2.895385 33.916199 47.837498 0.085930 0.782735 -0.010467 -0.001389 910786.000000 0 0 1
-33.472672 -4.221985 34.374199 48.164618 0.125470 0.776056 -0.001591 -0.004212 -709557.000000 0 0 1
-34.627956 -5.118885 33.963999 48.773471 0.146762 0.800480 -0.003499 -0.007128 -733329.000000 0 0 1
34.498507 -4.759885 -34.379085 48.935927 -0.137108 2.349746 0.007647 -0.017449 -1201390.000000 0 0 1
33.346479 -5.110385 34.071599 47.947654 -0.152068 0.780446 0.007698 -0.017484 -1279720.000000 0 0 1
32.045669 -4.745585 -34.357785 47.221847 -0.147020 2.385588 0.035822 -0.028249 -961994.000000 0 0 1
31.733119 -5.444485 -33.173985 46.229282 -0.169917 2.371142 0.044410 -0.032700 73749.300000 0 0 1
31.350839 -6.820085 -33.298085 46.240146 -0.214203 2.374760 0.038376 -0.029048 -274847.000000 0 0 1
29.928559 -6.981585 -33.888585 45.748195 -0.229177 2.405002 0.039005 -0.029426 -528598.000000 0 0 1
28.914279 -6.673885 -32.972385 44.359378 -0.226843 2.408788 0.044871 -0.028548 -693712.000000 0 0 1
27.690089 -7.034085 -33.544585 44.061985 -0.248767 2.436119 0.044136 -0.020715 328155.000000 0 0 1
26.470459 -6.954985 -32.524385 42.507560 -0.256938 2.442061 0.050494 -0.024060 1630360.000000 0 0 1
25.166439 -7.180785 -33.088985 42.187608 -0.277946 2.472411 0.037207 -0.023331 726247.000000 0 0 1
24.143419 -6.866585 -32.167685 40.802140 -0.277092 2.478971 0.039674 -0.019028 111675.000000 0 0 1
22.741819 -7.396685 -32.609785 40.438835 -0.314454 2.508832 0.042781 -0.028419 234106.000000 0 0 1
22.654919 -8.806285 -32.891985 40.898394 -0.370739 2.505186 0.047373 -0.033581 220343.000000 0 0 1
22.845119 -9.577585 -31.698885 40.229950 -0.396982 2.478257 0.043186 -0.025004 -450873.000000 0 0 1
22.590519 -11.070385 -31.860685 40.595421 -0.455652 2.473225 0.043869 -0.030377 413459.000000 0 0 1
21.245719 -11.420885 -32.192185 40.226284 -0.493244 2.498554 0.051895 -0.032719 551955.000000 0 0 1
21.123319 -12.840985 -31.994385 40.431747 -0.546212 2.483759 0.041109 -0.022807 -172432.000000 0 0 1
19.852619 -13.435985 -32.663885 40.516435 -0.594976 2.508478 0.037040 -0.017190 604693.000000 0 0 1
18.558019 -12.947685 -32.360585 39.487340 -0.609172 2.531366 0.051235 -0.017186 218150.000000 0 0 1
18.202919 -11.679085 -32.857485 39.336517 -0.570451 2.559460 0.053425 -0.024322 -1217530.000000 0 0 1
16.838819 -11.195885 -32.388485 38.182556 -0.586768 2.583475 0.040905 -0.024435 -853723.000000 0 0 1
15.818719 -11.782485 -33.141185 38.566785 -0.640193 2.604734 0.031259 -0.018013 -1249250.000000 0 0 1
14.631619 -11.629385 -32.435785 37.435371 -0.671569 2.618839 0.032178 -0.020155 -12541.000000 0 0 1
13.325819 -11.753485 -33.291585 37.736606 -0.722786 2.651330 -0.004119 -0.005592 -507780.000000 0 0 1
13.123719 -13.058085 -33.867885 38.597658 -0.782891 2.641336 -0.005187 -0.003761 -533775.000000 0 0 1
11.861419 -13.238185 -34.416285 38.735300 -0.840195 2.664861 -0.026542 0.007465 179681.000000 0 0 1
10.585919 -13.269785 -33.511185 37.565255 -0.897431 2.672722 -0.029407 0.015912 -147286.000000 0 0 1
10.308619 -11.984385 -33.036585 36.623886 -0.860427 2.695292 -0.005259 0.005626 -440895.000000 0 0 1
9.423219 -12.082185 -31.943085 35.427911 -0.908416 2.694334 -0.003973 0.003121 610024.000000 0 0 1
8.186819 -11.089085 -32.076685 34.912827 -0.934840 2.735737 -0.011871 0.012718 696649.000000 0 0 1
8.504219 -9.717085 -32.067585 34.569835 -0.851863 2.758780 -0.017056 0.002877 -396008.000000 0 0 1
7.438419 -9.019685 -32.592185 34.625645 -0.881182 2.797177 -0.019830 0.004790 -425131.000000 0 0 1
7.885419 -7.595985 -32.992885 34.762181 -0.766705 2.821171 -0.005837 0.003219 -171575.000000 0 0 1
8.122519 -6.752685 -31.874885 33.579493 -0.693569 2.821597 -0.003084 -0.010724 21985.900000 0 0 1
8.591819 -5.492585 -32.329285 33.899417 -0.568803 2.836046 0.014183 -0.013293 -170043.000000 0 0 1
8.929119 -4.559585 -31.141585 32.715704 -0.472125 2.830125 0.022079 -0.018820 -339114.000000 0 0 1
7.852719 -4.339785 -30.279785 31.581075 -0.504873 2.853527 0.029697 -0.019030 -182656.000000 0 0 1
8.170919 -3.308085 -29.334385 30.630270 -0.384690 2.849671 0.030269 -0.016142 419850.000000 0 0 1
6.801919 -2.850385 -28.750585 29.681424 -0.396825 2.890490 0.023718 -0.009806 309663.000000 0 0 1
5.944719 -2.241785 -29.706785 30.378584 -0.360615 2.930898 0.021934 -0.004067 493248.000000 0 0 1
4.697619 -1.787785 -29.185985 29.615629 -0.363647 2.971049 0.020476 -0.001191 433654.000000 0 0 1
3.576219 -2.836085 -29.169985 29.524917 -0.670483 2.986379 0.010683 -0.003234 -615561.000000 0 0 1
3.720619 -3.790985 -28.133785 28.630830 -0.794765 2.954986 0.015560 -0.006825 349608.000000 0 0 1
2.622119 -4.696285 -28.072685 28.583321 -1.061573 2.952287 0.027524 -0.007445 142017.000000 0 0 1
2.745619 -5.595585 -26.850985 27.564912 -1.114636 2.913503 0.025833 -0.026675 -133692.000000 0 0 1
2.509919 -5.002285 -25.561485 26.167003 -1.105746 2.926045 0.042695 -0.023526 258353.000000 0 0 1
2.924319 -5.920285 -24.561085 25.433212 -1.112001 2.878957 0.048040 -0.027706 -145829.000000 0 0 1
2.927619 -5.325585 -23.127885 23.913006 -1.068163 2.884635 0.049570 -0.027969 -105425.000000 0 1 0
3.862219 -4.291985 -22.953785 23.668842 -0.838054 2.895161 0.041028 -0.024454 18516.800000 0 1 0
3.851419 -3.877485 -21.614885 22.295102 -0.788771 2.893939 0.044095 -0.018533 -406918.000000 0 1 0
4.823319 -2.771885 -21.264985 21.980612 -0.521597 2.885720 0.060187 -0.023812 275623.000000 0 1 0
6.197119 -3.156485 -21.193785 22.305699 -0.471097 2.824517 0.055793 -0.016438 358835.000000 0 1 0
6.985819 -2.027485 -20.806585 22.041468 -0.282468 2.805270 0.064021 -0.005756 632482.000000 0 1 0
8.424319 -2.356985 -20.291085 22.096440 -0.272808 2.734552 0.039769 -0.010809 -514149.000000 0 1 0
9.193419 -2.656785 -21.424485 23.464569 -0.281323 2.721514 0.048371 -0.016390 -32535.800000 0 1 0
10.472219 -3.243685 -21.291385 23.948109 -0.300370 2.666091 0.034194 -0.013379 714518.000000 0 1 0
11.569419 -2.409685 -20.580985 23.732572 -0.205345 2.620356 0.013170 -0.009898 -952147.000000 0 1 0
11.343119 -2.423885 -19.217285 22.446505 -0.210521 2.598544 0.021158 -0.001395 -54040.100000 0 1 0
12.275419 -1.707085 -18.440685 22.218436 -0.138179 2.549854 0.014577 -0.011055 -366276.000000 0 1 0
12.256219 -0.124485 -18.498485 22.190636 -0.010157 2.556420 0.003763 -0.010339 -431467.000000 0 1 0
12.695619 0.307015 -19.748385 23.479176 0.024178 2.570114 -0.002384 -0.012328 102025.000000 0 1 0
12.404619 1.684615 -19.883185 23.495820 0.134980 2.579691 -0.003531 -0.016511 -289764.000000 0 1 0
12.957819 2.354815 -21.129085 24.897559 0.179767 2.584207 0.002557 -0.012892 -172911.000000 0 1 0
14.318719 2.648015 -21.323685 25.821255 0.182868 2.542449 0.003437 -0.010257 -230576.000000 0 0 1
14.452719 3.518215 -22.475485 26.951926 0.238785 2.556951 0.017077 -0.013302 -766223.000000 0 0 1
15.887819 3.768515 -22.938085 28.156353 0.232891 2.522953 0.016224 -0.010630 -116809.000000 0 0 1
16.533019 2.790715 -23.747385 29.070038 0.167220 2.526816 0.007945 -0.009560 239055.000000 0 0 1
16.729419 1.471015 -23.210585 28.649059 0.087704 2.515237 -0.001133 -0.004612 -852259.000000 0 0 1
8.689808 26.862915 2.687999 28.361141 1.257933 1.475876 -0.017718 0.017507 133155.000000 0 0 1
8.619108 27.182015 4.043799 28.801099 1.263737 1.429927 -0.024497 0.020462 1293160.000000 0 0 1
9.915608 27.664615 4.500199 29.730490 1.226638 1.418846 -0.003883 0.012887 942939.000000 0 0 1
9.882808 28.439215 5.902099 30.680509 1.236345 1.377217 -0.011875 0.010416 -133741.000000 0 0 1
9.856508 27.594615 7.011799 30.129369 1.227731 1.335920 -0.024094 0.010927 113019.000000 0 0 1
10.000708 28.353115 8.186799 31.159862 1.231700 1.304940 -0.021552 0.011184 -705313.000000 0 0 1
9.997808 27.588415 9.485099 30.839000 1.223125 1.258160 -0.019046 0.003247 172219.000000 0 0 1
11.107108 26.818415 9.947299 30.684589 1.178143 1.240653 -0.000047 0.002655 167590.000000 0 0 1
11.608008 25.838015 9.050299 29.736456 1.148557 1.261540 0.002907 0.001461 -255966.000000 0 0 1
12.845508 25.080615 9.603499 29.770313 1.097461 1.242336 0.014987 -0.001359 567754.000000 0 0 1
13.859908 26.037915 9.969999 31.136329 1.081646 1.244851 0.021594 -0.007331 -31214.400000 0 0 1
14.971308 25.461915 10.570899 31.371852 1.039256 1.227116 0.027731 -0.006299 182533.000000 0 0 1
16.126708 26.467315 10.929199 32.863915 1.023562 1.231780 0.028980 -0.011529 -850715.000000 0 0 1
16.835408 27.030715 9.882199 33.342891 1.013763 1.269895 0.036215 -0.018247 -199048.000000 0 0 1
18.215708 26.823115 10.068799 33.951027 0.974232 1.269699 0.053935 -0.028137 1134.700000 0 0 1
18.969008 27.651815 11.144199 35.336091 0.969532 1.249942 0.049292 -0.027718 -969011.000000 0 0 1
19.126008 29.058315 10.896399 36.454374 0.988682 1.267251 0.055469 -0.041779 1033670.000000 0 0 1
17.878808 29.742715 11.166599 36.455093 1.029557 1.259481 0.035609 -0.028388 904018.000000 0 0 1
18.085608 31.276515 11.369999 37.875936 1.046524 1.265904 0.017650 -0.012479 -546772.000000 0 0 1
18.475608 32.112315 10.279899 38.447694 1.048704 1.300130 0.034709 -0.028127 377682.000000 0 0 1
17.558908 32.227015 9.185299 37.832070 1.071915 1.325554 0.031434 -0.024261 1327740.000000 0 0 1
16.088908 32.779815 9.425799 37.712265 1.114522 1.318178 0.028616 -0.017957 1182820.000000 0 0 1
16.321308 34.114315 9.826799 39.073490 1.124553 1.316571 0.017535 -0.016259 969760.000000 0 0 1
15.076108 -34.443655 9.895999 38.879110 -1.158215 1.313432 0.021841 -0.011851 728855.000000 0 0 1
15.336408 -32.941055 10.089699 37.711013 -1.135069 1.299944 0.029857 -0.005734 -256481.000000 0 0 1
15.971608 -32.374455 9.021399 37.209988 -1.112491 1.325910 0.028108 -0.010629 -138365.000000 0 0 1
15.878108 -30.995255 9.158799 36.009773 -1.097377 1.313629 0.005892 -0.007095 -187646.000000 0 0 1
16.542508 -30.318455 7.903199 35.430549 -1.071318 1.345842 0.008548 -0.003658 479025.000000 0 0 1
15.704808 -30.450355 6.742099 34.918777 -1.094627 1.376497 0.005369 -0.002410 321409.000000 0 0 1
16.419708 -29.774255 5.777699 34.489054 -1.066823 1.402480 0.010122 0.000821 314832.000000 0 0 1
15.744708 -29.978855 4.395999 34.146045 -1.087197 1.441697 0.011267 -0.008899 283135.000000 0 0 1
16.113308 -31.280355 3.961099 35.408891 -1.095122 1.458694 0.014978 -0.008482 71468.200000 0 0 1
15.787508 -31.428955 2.596999 35.267109 -1.105291 1.497092 0.022541 0.000829 -50785.000000 0 0 1
15.983308 -32.847755 2.047199 36.587322 -1.117936 1.514813 0.016805 0.003079 -561241.000000 0 0 1
17.341608 -33.164755 1.978199 37.477268 -1.089003 1.517988 0.023105 0.005138 -327386.000000 0 0 1
17.633208 -34.265355 1.191999 38.554707 -1.095531 1.539874 0.045244 -0.001142 206204.000000 0 0 1
19.094308 34.486815 1.358499 39.443359 1.065140 1.536348 0.048622 0.000336 429619.000000 0 0 1
19.258308 33.910215 2.678599 39.089129 1.054299 1.502217 0.042532 -0.020298 -895177.000000 0 0 1
20.599808 33.732715 2.940399 39.634507 1.022563 1.496540 0.045818 -0.020120 -911569.000000 0 0 1
20.997708 33.096215 4.345299 39.435325 1.005434 1.460384 0.048595 -0.025751 -394534.000000 0 0 1
20.785308 31.726715 4.311399 38.173311 0.990819 1.457612 0.055625 -0.035085 102243.000000 0 0 1
21.571408 31.016315 5.281899 38.147555 0.963106 1.431890 0.034589 -0.039113 -199306.000000 0 0 1
20.855708 30.362615 6.500399 37.404601 0.968925 1.396123 0.039026 -0.036866 179137.000000 0 0 1
20.017608 29.226115 6.145799 35.953321 0.970262 1.399014 0.045768 -0.032992 777903.000000 0 0 1
18.997308 28.881215 7.076399 35.285942 0.988976 1.368883 0.047900 -0.038435 1202790.000000 0 0 1
17.538808 29.253515 6.604899 34.741943 1.030711 1.379519 0.071285 -0.033792 428061.000000 0 0 1
17.208908 30.640315 6.599999 35.756614 1.059058 1.385151 0.063192 -0.034312 258606.000000 0 0 1
17.666208 31.381615 5.468199 36.425292 1.058067 1.420106 0.059225 -0.029765 -861344.000000 0 0 1
17.389008 32.915415 5.545199 37.637101 1.084771 1.422925 0.043253 -0.022306 -770643.000000 0 0 1
16.031108 33.197815 5.456099 37.267417 1.120925 1.423864 0.043097 -0.018136 -714487.000000 0 0 1
15.739608 34.587415 5.720999 38.428562 1.143736 1.421367 0.032468 -0.017922 762392.000000 0 0 1
14.237508 -34.227355 5.874599 37.533043 -1.176600 1.413632 0.026616 -0.019340 996858.000000 0 0 1
13.492108 -34.110355 4.657099 36.976233 -1.194138 1.444513 0.025004 -0.010227 -841274.000000 0 0 1
12.559108 -33.123155 4.774999 35.744583 -1.208380 1.436809 0.020897 -0.011233 -754838.000000 0 0 1
11.626808 -33.102455 3.539399 35.263047 -1.233020 1.470256 0.020271 -0.009247 -492988.000000 0 0 1
10.771108 -32.022255 3.558799 33.972145 -1.246321 1.465847 0.023562 -0.020436 -254417.000000 0 0 1
10.105108 -31.910555 2.282899 33.550087 -1.264117 1.502699 0.019008 -0.009458 -410494.000000 0 0 1
9.312808 -30.643555 2.039799 32.092314 -1.275758 1.507193 0.024553 -0.008536 -102738.000000 0 0 1
8.692208 -30.381355 0.786299 31.610116 -1.292137 1.545919 0.026376 -0.002783 170120.000000 0 0 1
7.570008 -31.193055 0.497899 32.102330 -1.332716 1.555286 0.024218 -0.007638 -507977.000000 0 0 1
7.736408 -31.526555 -0.991001 32.477034 -1.330158 1.601315 0.039066 -0.012180 -618029.000000 0 0 1
8.899108 -32.254955 -1.190601 33.481245 -1.301595 1.606364 0.032417 -0.015670 -887785.000000 0 0 1
8.801308 -33.341355 -2.071701 34.545635 -1.312708 1.630802 0.025971 -0.005808 -399413.000000 0 0 1
10.011508 -34.275255 -2.265201 35.779247 -1.286611 1.634149 0.021934 -0.007911 -152256.000000 0 0 1
10.366908 34.256915 -1.128601 35.808976 1.276935 1.602319 0.023327 -0.009447 -705579.000000 0 0 1
11.541908 33.547115 -1.259601 35.499453 1.239431 1.606286 0.028243 -0.013063 -1010510.000000 0 0 1
11.857308 32.658915 -0.018701 34.744796 1.222530 1.571335 0.027950 -0.012119 -518288.000000 0 0 1
12.013608 33.356115 1.168299 35.472836 1.225097 1.537855 0.026046 -0.011006 839900.000000 0 0 1
13.338608 33.868115 1.376399 36.426119 1.195612 1.533001 0.033615 -0.005129 865789.000000 0 0 1
14.543308 32.926015 1.661799 36.033205 1.154869 1.524661 0.045725 -0.012338 -177397.000000 0 0 1
15.066008 32.261015 0.516399 35.609330 1.133893 1.556294 0.046635 -0.014581 -209286.000000 0 0 1
15.937808 31.232515 0.896899 35.075464 1.098946 1.545223 0.057476 -0.014266 -185754.000000 0 0 1
16.332508 30.299415 -0.243401 34.421863 1.076409 1.577868 0.059436 -0.005959 33058.600000 0 0 1
17.276508 30.735315 -1.216801 35.279143 1.058706 1.605294 0.034974 -0.004757 623410.000000 0 0 1
16.763108 31.844915 -2.023801 36.044364 1.086254 1.626973 0.051883 -0.017724 278088.000000 0 0 1
17.988108 32.492215 -2.690001 37.236436 1.065184 1.643100 0.038529 -0.014921 783105.000000 0 0 1
18.851708 33.278015 -1.831701 38.290578 1.055380 1.618651 0.034500 0.004494 1057320.000000 0 0 1
19.847908 34.011415 -2.589101 39.464152 1.042548 1.636450 0.038877 0.006770 -55869.500000 0 0 1
20.813208 -34.397655 -1.718001 40.241021 -1.026653 1.613502 0.037986 0.011430 -481002.000000 0 0 1
21.772208 34.165815 -0.904801 40.523458 1.003436 1.593126 0.029370 0.005584 1108060.000000 0 0 1
22.806808 33.477415 -1.619801 40.540247 0.972759 1.610762 0.035825 0.002256 -36748.900000 0 0 1
23.740608 34.250715 -2.540301 41.751420 0.964688 1.631677 0.025995 0.001907 -1242710.000000 0 0 1
23.055708 34.520515 -3.744301 41.680348 0.981951 1.660751 0.026192 -0.000842 376005.000000 0 0 1
23.902008 -34.035055 -4.667401 41.850634 -0.958544 1.682554 0.028664 0.002670 193670.000000 0 0 1
23.220808 -33.609755 -5.993401 41.288526 -0.966207 1.716470 0.026976 -0.008317 -360845.000000 0 0 1
22.252708 -32.626855 -5.735701 39.907304 -0.972228 1.715021 0.031088 0.000433 -259046.000000 0 0 1
21.665108 -32.315355 -6.939801 39.519867 -0.980194 1.747314 0.034083 -0.008711 -821118.000000 0 0 1
20.773008 -31.106955 -6.919601 38.039997 -0.982014 1.753718 0.038938 -0.000360 -443324.000000 0 0 1
19.521908 -31.276455 -6.311801 37.405352 -1.012792 1.740348 0.038683 0.001397 -479791.000000 0 0 1
18.775808 -30.084755 -6.336301 36.024605 -1.012847 1.747604 0.049657 -0.000266 130712.000000 0 0 1
17.579308 -30.089255 -5.374501 35.260184 -1.042047 1.723817 0.025874 0.006485 763414.000000 0 0 1
16.373908 -30.688955 -5.867601 35.275282 -1.080675 1.737911 0.029980 -0.002205 1046640.000000 0 0 1
15.304308 -30.653755 -4.881901 34.607911 -1.107738 1.712332 0.012705 -0.002123 1729310.000000 0 0 1
13.986408 -31.405655 -5.320301 34.788509 -1.151819 1.724332 0.017135 -0.003556 663059.000000 0 0 1
14.062908 -32.812555 -5.216801 36.078306 -1.165895 1.715902 0.022206 0.001108 -109330.000000 0 0 1
12.774608 -33.389055 -5.119601 36.114123 -1.205380 1.713037 0.025636 0.000391 -19429.800000 0 0 1
12.837308 34.317615 -5.282901 37.018971 1.212838 1.713993 0.032622 -0.007410 -66306.800000 0 0 1
13.490008 33.750315 -4.167601 36.584601 1.190548 1.684961 0.038080 -0.017425 -110061.000000 0 0 1
13.737208 32.343915 -4.349301 35.408419 1.169160 1.693940 0.040701 -0.012163 572925.000000 0 0 1
12.511408 31.358915 -4.528901 34.065053 1.191174 1.704140 0.028645 -0.007693 317421.000000 0 0 1
11.726408 30.979115 -3.438401 33.302205 1.208938 1.674229 0.024835 -0.007841 -294639.000000 0 0 1
12.252808 30.038715 -2.533001 32.540311 1.183498 1.648717 0.033273 -0.007984 -419858.000000 0 0 1
11.156408 29.148615 -1.914801 31.269373 1.205255 1.632070 0.029939 0.002303 -110467.000000 0 0 1
10.237608 29.919715 -1.204301 31.645668 1.241115 1.608861 0.008716 -0.003865 -704078.000000 0 0 1
9.170208 29.139715 -0.742301 30.557597 1.265910 1.595091 0.000547 0.007069 251329.000000 0 0 1
8.160408 29.926415 0.164399 31.019504 1.304586 1.565496 0.001346 0.013247 372553.000000 0 0 1
7.165908 29.189915 0.811999 30.067603 1.330064 1.543787 -0.010511 0.006334 84087.700000 0 0 1
5.956108 29.945715 0.914199 30.545979 1.374462 1.540863 -0.011908 0.005746 -7216.590000 0 0 1
4.904008 29.242515 1.761699 29.703158 1.404641 1.511451 -0.008838 0.001554 -300343.000000 0 0 1
4.354308 28.156915 0.992199 28.508882 1.417367 1.535986 -0.009681 -0.005896 49029.800000 0 0 1
3.276008 27.541615 1.666899 27.785812 1.452405 1.510769 0.001203 -0.009306 149463.000000 0 0 1
2.669808 26.381515 0.809299 26.528611 1.469940 1.540285 0.007288 -0.008580 -402078.000000 0 0 1
1.567108 25.851615 1.463199 25.940370 1.510251 1.514360 0.015403 -0.008483 -346837.000000 0 0 1
0.996408 24.791615 0.689599 24.821212 1.530627 1.543010 0.008624 -0.004875 121093.000000 0 1 0
-0.294692 24.124615 1.233699 24.157937 -1.558582 1.519706 0.011447 -0.001915 99369.100000 0 1 0
-1.384292 25.003115 1.111199 25.066049 -1.515488 1.526451 0.010647 -0.004913 309954.000000 0 0 1
-2.613792 24.274115 1.298299 24.448930 -1.463531 1.517669 0.010609 -0.000638 -77695.600000 0 1 0
-3.864792 25.106915 1.388699 25.440564 -1.418062 1.516183 0.021413 -0.009962 -866857.000000 0 0 1
-4.948592 24.370015 1.960599 24.944541 -1.370460 1.492117 0.010455 -0.007892 937751.000000 0 1 0
-6.136592 25.098515 2.308399 25.940739 -1.331001 1.481691 0.009193 -0.006955 670636.000000 0 0 1
-7.048892 25.524115 1.157099 26.504834 -1.301346 1.527126 0.013442 -0.007165 -646764.000000 0 0 1
-6.601292 26.740815 0.518099 27.548442 -1.328773 1.551988 0.018023 -0.011883 208379.000000 0 0 1
-7.461592 26.939115 -0.582001 27.959435 -1.300590 1.591614 0.015091 -0.007246 -478841.000000 0 0 1
-7.085192 28.015915 -1.598201 28.942109 -1.323091 1.626045 0.013297 -0.009255 -218590.000000 0 0 1
-7.222992 29.308315 -0.986201 30.201350 -1.329163 1.603456 0.014839 -0.020058 -98788.400000 0 0 1
-7.121992 30.310515 -1.940701 31.196417 -1.340015 1.633046 0.003725 -0.013706 -133504.000000 0 0 1
-7.109892 31.772415 -1.391401 32.587926 -1.350648 1.613506 -0.005942 -0.011880 -478225.000000 0 0 1
-7.208092 32.782715 -2.364801 33.649001 -1.354365 1.641133 -0.008964 0.007193 354794.000000 0 0 1
-6.112792 32.906115 -3.300001 33.631364 -1.387125 1.669077 -0.016429 0.011894 1269880.000000 0 0 1
-4.831892 33.617815 -2.700401 34.070469 -1.428044 1.650139 -0.010928 0.003029 110722.000000 0 0 1
-5.020192 -34.320355 -2.374701 34.766770 1.425552 1.639153 -0.017757 0.012132 23086.100000 0 0 1
-4.164892 -34.027355 -1.293701 34.305697 1.449004 1.608516 -0.014278 0.007102 -172244.000000 0 0 1
-3.960192 -32.555555 -0.987301 32.810395 1.449747 1.600892 -0.009977 0.004518 -54558.200000 0 0 1
-5.105892 -31.804055 -0.640601 32.217672 1.411612 1.590681 0.005278 0.004185 -233022.000000 0 0 1
-5.235592 -30.662255 -1.455501 31.140067 1.401677 1.617554 0.016329 0.008742 -503824.000000 0 0 1
-6.606492 -30.014655 -1.367901 30.763556 1.354142 1.615276 0.042790 0.004569 -552038.000000 0 0 1
-6.795792 -29.324755 -0.124401 30.102151 1.343074 1.574929 0.038974 0.005512 -189643.000000 0 0 1
-8.047292 -28.687155 -0.026101 29.794503 1.297306 1.571672 0.024173 0.003391 127719.000000 0 0 1
-8.214592 -28.201455 1.376099 29.405700 1.287356 1.523982 0.027812 0.005354 708539.000000 0 0 1
-7.166192 -27.240055 1.634499 28.214295 1.313550 1.512832 0.050803 -0.003108 281084.000000 0 0 1
-7.133392 -26.640455 2.944999 27.735755 1.309168 1.464415 0.041586 0.005273 -478900.000000 0 0 1
-8.139292 -25.608755 3.410699 27.086699 1.263061 1.444543 0.027703 0.006087 -466966.000000 0 0 1
-7.895192 -24.283355 3.059999 25.717289 1.256449 1.451528 0.026927 -0.003154 -704591.000000 0 0 1
-8.864592 -23.447855 3.609999 25.326171 1.209350 1.427769 0.020315 -0.001487 -638701.000000 0 0 1
-8.339192 -22.012155 3.833699 23.848990 1.208659 1.409347 0.005169 0.011756 340635.000000 0 1 0
-7.420492 -22.110455 4.920999 23.835942 1.246998 1.362848 -0.000507 0.005533 -159061.000000 0 1 0
-6.840792 -20.875055 5.337499 22.606486 1.254123 1.332441 -0.007408 0.009455 212078.000000 0 1 0
-7.798392 -19.864955 6.023299 22.174568 1.196711 1.295709 -0.002836 0.008528 178648.000000 0 1 0
-8.138592 -20.046455 7.434999 22.877417 1.185140 1.239792 0.003970 0.002249 -62189.300000 0 1 0
-8.816292 -18.994755 8.036899 22.430324 1.136243 1.204345 -0.003678 -0.004200 -850268.000000 0 1 0
-26.336492 29.621915 -5.921501 40.076587 -0.844043 1.719094 0.035968 0.008611 -232162.000000 0 0 1
-25.608862 30.413615 -5.006701 40.073293 -0.870954 1.696062 0.029628 0.001747 350200.000000 0 0 1
-24.478492 29.672215 -4.533201 38.732245 -0.881018 1.688105 0.015320 0.004483 379376.000000 0 0 1
-23.586192 30.395315 -3.517701 38.633636 -0.910874 1.661975 0.013844 0.000350 -464138.000000 0 0 1
-24.309092 30.689215 -2.346601 39.220739 -0.900888 1.630663 0.008114 -0.007165 219785.000000 0 0 1
-23.650692 31.527515 -1.391501 39.436984 -0.927193 1.606088 0.015117 -0.010687 -130011.000000 0 0 1
-22.368992 31.121115 -0.653401 38.331743 -0.947582 1.587843 0.016392 -0.004715 -337016.000000 0 0 1
-21.278292 31.134015 -1.516301 37.741115 -0.971270 1.610984 0.012754 -0.003724 -771499.000000 0 0 1
-20.053892 30.909115 -0.853501 36.854585 -0.995264 1.593957 0.006021 -0.002647 124535.000000 0 0 1
-18.993792 30.368915 -1.863901 35.867942 -1.011884 1.622785 0.013801 -0.002633 784417.000000 0 0 1
-17.684692 30.405215 -1.278801 35.197454 -1.043991 1.607137 0.018151 -0.001612 433724.000000 0 0 1
-16.692692 29.671615 -1.947201 34.100473 -1.058345 1.627929 0.009431 -0.001885 -223598.000000 0 0 1
-15.287592 29.970015 -1.416201 33.673697 -1.099104 1.612865 0.013332 -0.008140 -318054.000000 0 0 1
-15.043392 29.419515 -0.141201 33.042873 -1.098117 1.575070 0.002189 -0.006247 44722.500000 0 0 1
-14.031392 30.122115 0.565199 33.234639 -1.134867 1.553789 0.001682 -0.010502 318868.000000 0 0 1
-13.470892 29.286015 1.796199 32.285630 -1.139677 1.515133 0.000696 -0.012880 315248.000000 0 0 1
-14.328892 29.333815 2.954499 32.779855 -1.116410 1.480542 -0.004113 -0.006284 163151.000000 0 0 1
-13.824292 28.646815 4.063999 32.066605 -1.121184 1.443718 0.000216 -0.015301 -149879.000000 0 0 1
-12.737992 29.289315 4.926699 32.317066 -1.160568 1.417751 0.012830 -0.014285 -475470.000000 0 0 1
-13.097792 30.388915 5.746299 33.586579 -1.163850 1.398861 0.003693 -0.009579 -392068.000000 0 0 1
-13.041692 31.595815 5.003899 34.545915 -1.179333 1.425437 0.004439 -0.004636 -313183.000000 0 0 1
-12.859092 32.843415 5.937199 35.767254 -1.197615 1.404029 0.006929 0.000241 -189148.000000 0 0 1
-13.993292 33.200115 6.681399 36.642884 -1.171908 1.387432 0.007539 0.005906 -24607.100000 0 0 1
-13.620492 34.288115 7.571899 37.663328 -1.192675 1.368375 0.011858 0.008956 240181.000000 0 0 1
-14.749892 -34.439855 8.471499 38.411316 1.166151 1.348421 0.000257 0.011287 11359.100000 0 0 1
-14.991892 33.987215 9.589699 38.364696 -1.155365 1.318156 -0.008727 0.009256 360038.000000 0 0 1
-16.112492 34.497615 10.320899 39.448939 -1.133845 1.306089 0.004347 0.009223 -171531.000000 0 0 1
-16.320492 33.636415 11.616499 39.149839 -1.119056 1.269541 0.000585 0.009213 180554.000000 0 0 1
-15.480292 33.909215 12.735699 39.391272 -1.142532 1.241568 0.005149 -0.001332 710029.000000 0 0 1
-14.115092 33.491515 12.521499 38.440933 -1.171934 1.239009 0.014831 -0.000643 390203.000000 0 0 1
-13.293192 33.805215 13.808899 38.861127 -1.196141 1.207519 0.032260 -0.004523 -303296.000000 0 0 1
-13.622792 33.046215 14.953699 38.745915 -1.179788 1.174567 0.018627 0.001913 192326.000000 0 0 1
-12.984492 31.748915 15.100899 37.478364 -1.182577 1.156088 0.008047 0.006094 -222745.000000 0 0 1
-13.810692 30.585215 14.552699 36.578295 -1.146656 1.161623 0.006906 0.000586 -174865.000000 0 0 1
-13.893992 30.605215 13.174299 36.101030 -1.144642 1.197240 0.010048 0.001601 866729.000000 0 0 1
-14.997192 29.795715 12.712599 35.697487 -1.104485 1.206684 -0.002331 -0.000017 543081.000000 0 0 1
-15.063792 29.716315 11.180799 35.142388 -1.101628 1.247011 -0.007344 0.006218 10866.500000 0 0 1
-14.097992 28.890415 10.581499 33.843427 -1.116810 1.252804 -0.005616 0.003293 56035.900000 0 0 1
-14.370392 28.755415 9.185199 33.432767 -1.107352 1.292481 -0.006021 0.006048 -185777.000000 0 0 1
-13.680592 27.541715 8.538699 31.915733 -1.109774 1.299958 0.001578 0.003925 -380395.000000 0 0 1
-12.301292 27.634315 8.349499 31.379791 -1.151987 1.301473 0.011185 0.001118 -341680.000000 0 0 1
-11.736292 26.415715 7.973599 29.985143 -1.152699 1.301640 0.008844 -0.001574 313826.000000 0 0 1
-10.359892 26.336115 7.259699 29.216802 -1.196017 1.319689 0.015810 -0.003291 108698.000000 0 0 1
-10.527292 26.825115 5.965999 29.427943 -1.196823 1.366649 0.018526 -0.008744 795474.000000 0 0 1
-9.409692 26.617015 5.084799 28.685588 -1.230988 1.392595 0.022962 -0.010533 239115.000000 0 0 1
-9.810392 26.799715 3.579899 28.762548 -1.219884 1.446009 0.020224 -0.014437 6914.330000 0 0 1
-9.902692 28.196315 3.234199 30.059200 -1.233048 1.462993 0.021218 -0.016298 89479.200000 0 0 1
-9.775792 28.272515 1.819799 29.970200 -1.237895 1.510039 0.013971 -0.019095 -196175.000000 0 0 1
-9.348592 29.687615 1.363299 31.154602 -1.265728 1.527023 0.020636 -0.021253 501490.000000 0 0 1
-10.345592 30.715915 1.505899 32.446363 -1.245915 1.524368 0.012224 -0.023244 -46053.000000 0 0 1
-9.749792 31.919215 1.552399 33.411146 -1.274345 1.524316 0.011823 -0.023542 -411348.000000 0 0 1
-10.462092 32.863415 2.561199 34.583510 -1.262590 1.496670 0.010696 -0.008182 945142.000000 0 0 1
-11.748592 33.355115 2.147399 35.428864 -1.232138 1.510148 0.012697 -0.006097 519532.000000 0 0 1
-11.623492 34.384415 1.198099 36.315685 -1.244811 1.537799 0.011886 0.000267 -326778.000000 0 0 1
-12.978092 -34.269455 0.760699 36.652490 1.208779 1.550040 0.015890 -0.002226 925895.000000 0 0 1
-13.944592 34.101715 0.155599 36.842948 -1.182631 1.566573 0.007242 -0.005349 346143.000000 0 0 1
-13.998292 34.123115 -1.263401 36.904408 -1.181503 1.605037 0.016462 -0.002942 126381.000000 0 0 1
-12.740692 33.722415 -2.092101 36.109603 -1.209564 1.628766 0.010414 -0.000858 -166540.000000 0 0 1
-12.537692 32.345815 -2.170401 34.758540 -1.201013 1.633279 0.001274 -0.003243 -800084.000000 0 0 1
-11.193392 32.013215 -2.236401 33.987343 -1.234434 1.636645 -0.003533 0.003507 -771054.000000 0 0 1
-11.031392 30.489615 -2.463101 32.517305 -1.223641 1.646616 0.002514 -0.005620 -147580.000000 0 0 1
-11.221492 29.978415 -3.757701 32.229607 -1.212623 1.687654 0.000486 -0.001605 -244796.000000 0 0 1
-10.128592 30.040815 -4.651101 32.041718 -1.245605 1.716469 -0.007896 0.005822 -71629.800000 0 0 1
-10.447792 29.376115 -6.048901 31.760065 -1.229092 1.762423 0.006800 0.004318 -132972.000000 0 0 1
-10.606592 27.973615 -5.922701 30.497563 -1.208380 1.766241 0.009153 0.002022 53832.400000 0 0 1
-10.614592 27.454715 -7.235401 30.311416 -1.201876 1.811826 0.007049 0.002679 101966.000000 0 0 1
-11.158092 26.030615 -7.330601 29.254635 -1.165836 1.824075 0.027893 -0.005514 455059.000000 0 0 1
-10.240492 25.118215 -6.739701 27.950241 -1.183677 1.814329 0.002885 -0.000026 331082.000000 0 0 1
-10.782992 23.806715 -6.907901 27.032419 -1.145501 1.829204 0.021816 -0.004339 -126163.000000 0 0 1
-10.338292 22.676215 -5.963801 25.625338 -1.143039 1.805681 0.005680 -0.001913 -773544.000000 0 0 1
-8.966292 22.351615 -6.165601 24.859681 -1.189301 1.821428 0.014839 -0.004396 270597.000000 0 1 0
-8.541292 21.140115 -5.574601 23.471990 -1.186819 1.810588 0.015914 -0.003574 -457822.000000 0 1 0
-8.386392 21.195315 -4.008601 23.143937 -1.194027 1.744877 0.002883 -0.003107 -145328.000000 0 1 0
-9.563792 21.028315 -3.235001 23.326410 -1.143953 1.709929 0.004007 -0.009519 56709.000000 0 1 0
-10.127592 19.769715 -3.162401 22.436812 -1.097375 1.712214 0.007341 -0.010353 511195.000000 0 1 0
-11.537792 19.705615 -2.464601 22.967502 -1.041101 1.678312 0.017168 -0.011941 527175.000000 0 1 0
-11.442992 19.611415 -1.035101 22.729300 -1.042608 1.616352 0.017430 -0.018653 212805.000000 0 1 0
-11.109292 18.345715 -0.557801 21.454435 -1.026304 1.596799 0.016878 -0.022274 -626130.000000 0 1 0
-10.851592 18.480715 0.969299 21.453051 -1.039853 1.525599 0.014142 -0.012358 -247272.000000 0 1 0
-11.946292 18.630315 1.849099 22.208595 -1.000612 1.487439 0.024858 -0.013329 -31024.900000 0 1 0
-11.474892 18.596815 3.148599 22.077779 -1.017945 1.427694 0.010266 -0.013494 -262590.000000 0 1 0
-12.551292 18.720215 4.268099 22.939007 -0.980167 1.383643 0.025707 -0.013122 121307.000000 0 1 0
-13.232192 17.508115 4.402099 22.383107 -0.923610 1.372835 0.007206 -0.016473 811829.000000 0 1 0
-14.578492 17.663415 4.894699 23.419794 -0.880788 1.360246 0.016048 -0.018263 860727.000000 0 1 0
-15.247392 16.290415 5.143199 22.897884 -0.818458 1.344249 0.014777 -0.017669 -352432.000000 0 1 0
-14.648192 15.542615 6.184999 22.235031 -0.815015 1.288914 0.014090 -0.018984 338726.000000 0 1 0
-15.102592 15.987615 7.514399 23.241306 -0.813857 1.241560 0.009689 -0.019021 -157181.000000 0 1 0
-14.098092 15.662715 8.706799 22.800991 -0.837923 1.178988 0.004110 -0.009281 1672250.000000 0 1 0
-12.884692 16.436515 8.773199 22.652667 -0.905946 1.173104 0.011558 -0.019147 885313.000000 0 1 0
-11.928392 16.273015 7.754599 21.615535 -0.938253 1.203867 0.008962 -0.014640 72781.700000 0 1 0
-10.779892 17.325815 7.583899 21.769370 -1.014223 1.214960 0.015921 -0.020203 749331.000000 0 1 0
-9.713592 17.290515 8.498499 21.576382 -1.058948 1.165948 0.014649 -0.017337 -237962.000000 0 1 0
-8.956792 18.450715 8.582499 22.233135 -1.118861 1.174480 0.014469 -0.021176 5443.210000 0 1 0
-7.722992 18.431915 9.523599 22.137729 -1.174018 1.126085 0.022132 -0.018980 178044.000000 0 1 0
-6.679692 17.649715 8.935699 20.880073 -1.208997 1.128569 0.014121 -0.017306 -451536.000000 0 1 0
-5.436792 17.641415 9.569299 20.793021 -1.271849 1.092557 0.018520 -0.022387 202706.000000 0 1 0
-4.526592 18.797015 9.041999 21.344216 -1.334481 1.133350 0.014933 -0.022264 -1283280.000000 0 1 0
-4.958092 20.111615 9.355899 22.728673 -1.329087 1.146550 0.018590 -0.022198 -105988.000000 0 1 0
-4.351992 21.081015 8.546899 23.160279 -1.367215 1.192828 0.020192 -0.023552 -892685.000000 0 1 0
-2.927392 21.537815 8.743599 23.428564 -1.435705 1.188338 0.022583 -0.018582 -1154260.000000 0 1 0
-1.953892 20.578015 8.492099 22.346994 -1.476130 1.180988 0.012735 -0.009603 355467.000000 0 1 0
-0.719692 21.243815 8.140599 22.761524 -1.536932 1.205049 0.010018 -0.020661 2143370.000000 0 1 0
0.613808 20.393515 7.930999 21.890020 1.540707 1.200050 0.006526 -0.017005 1665330.000000 0 1 0
1.061908 19.733715 9.174299 21.787954 1.517036 1.136169 0.002222 -0.019118 874996.000000 0 1 0
2.493008 19.572015 9.146399 21.747080 1.444102 1.136711 0.004121 -0.010091 1114500.000000 0 1 0
3.165208 19.350615 10.547999 22.264886 1.408661 1.077252 -0.007291 -0.016869 -977180.000000 0 1 0
3.438408 17.990615 10.780199 21.253178 1.381951 1.038832 -0.005143 -0.015296 5939.990000 0 1 0
4.168208 17.709415 11.948799 21.766285 1.339637 0.989678 -0.018432 -0.010301 619560.000000 0 1 0
5.658008 18.245315 11.947599 22.531083 1.270093 1.011875 0.000841 -0.009888 77492.700000 0 1 0
6.540508 17.439615 11.217399 21.742780 1.211993 1.028722 -0.007244 -0.009501 -190360.000000 0 1 0
7.357208 16.652015 12.064799 21.839814 1.154765 0.985529 -0.008741 -0.003584 -490320.000000 0 1 0
8.646008 16.074615 11.428399 21.534972 1.077316 1.011382 -0.008477 -0.008044 -297531.000000 0 1 0
9.573708 17.023615 11.110099 22.469839 1.058499 1.053600 0.001543 -0.010327 -824720.000000 0 1 0
10.771008 16.472515 10.603399 22.355993 0.991700 1.076630 0.003563 -0.003364 -227968.000000 0 1 0
11.749308 17.516915 10.124499 23.396454 0.979979 1.123270 0.003700 0.001454 -188809.000000 0 1 0
12.806608 16.953315 9.350999 23.213472 0.923845 1.156194 0.011461 -0.000151 -170494.000000 0 1 0
13.501308 17.998715 8.729099 24.133716 0.927214 1.200709 0.014000 0.006505 -360958.000000 0 1 0
14.467008 17.546215 7.636799 23.989262 0.881289 1.246816 0.007180 0.001237 -415635.000000 0 1 0
15.675308 17.072515 8.145199 24.566854 0.828038 1.232848 0.016854 0.009912 -224029.000000 0 1 0
16.613508 16.667115 7.157799 24.597469 0.787009 1.275527 0.030266 0.005443 5063.970000 0 1 0
18.027808 16.555915 7.745499 25.672806 0.742864 1.264321 0.019934 0.015074 -450278.000000 0 0 1
18.282008 15.308815 8.314899 25.253301 0.697116 1.235277 0.018264 0.015625 267464.000000 0 0 1
18.999908 15.531215 9.515799 26.320441 0.685283 1.200881 0.013431 0.018898 -152865.000000 0 0 1
19.244308 14.293615 10.425599 26.140848 0.638842 1.160562 0.008128 0.012222 -292719.000000 0 0 1
20.058008 13.314715 9.834299 26.006130 0.586023 1.182996 0.010064 0.009644 251140.000000 0 0 1
20.085708 12.212515 10.711399 25.832446 0.546296 1.143239 0.011925 0.001105 -199626.000000 0 0 1
21.159608 11.174915 10.279199 26.043611 0.485894 1.165064 0.012350 0.002630 -107043.000000 0 0 1
22.493608 11.661815 10.303299 27.351752 0.478299 1.184569 0.016703 -0.006161 1570900.000000 0 0 1
23.480508 10.854415 9.585499 27.586852 0.433014 1.215929 0.026066 -0.006586 507660.000000 0 0 1
23.772808 9.366215 9.979499 27.431055 0.375313 1.198449 0.035062 -0.016432 -162430.000000 0 0 1
22.621408 8.522415 9.762199 26.070294 0.360296 1.186985 0.025142 -0.012476 1017610.000000 0 0 1
22.562308 7.186015 10.229999 25.794369 0.308338 1.162988 0.016961 -0.006814 -386858.000000 0 0 1
23.643808 6.353415 9.479699 26.253766 0.262513 1.201371 0.036393 -0.008340 301030.000000 0 0 1
23.445108 6.366015 8.059999 25.596149 0.265136 1.250454 0.042116 -0.001561 198187.000000 0 0 1
24.554208 5.828115 7.379699 26.293270 0.233045 1.286306 0.040528 0.003178 -157039.000000 0 0 1
24.230008 5.377615 5.964199 25.526138 0.218400 1.334966 0.039176 -0.005619 -316321.000000 0 0 1
23.378808 4.249115 5.895299 24.482202 0.179788 1.327607 0.044629 -0.004592 533732.000000 0 1 0
23.276908 3.792115 4.580599 24.024498 0.161494 1.378958 0.046721 -0.012402 -67090.300000 0 1 0
22.253108 2.639515 4.312299 22.820250 0.118062 1.380685 0.051728 -0.006866 48913.300000 0 1 0
22.687908 1.347515 4.696999 23.208162 0.059324 1.367003 0.040467 -0.005481 413067.000000 0 1 0
21.897908 0.374215 4.086799 22.279146 0.017087 1.386316 0.027215 -0.005686 -396240.000000 0 1 0
22.355808 -1.049385 4.531699 22.834616 -0.046906 1.371013 0.020645 0.000798 -583151.000000 0 1 0
21.983108 -1.445185 5.838199 22.791011 -0.065646 1.311746 0.009578 -0.001048 594857.000000 0 1 0
22.170808 -2.866485 6.035199 23.155671 -0.128578 1.307116 0.003873 -0.001063 -893961.000000 0 1 0
21.535608 -3.391085 7.307199 22.992978 -0.156182 1.247387 0.003504 -0.005889 -383723.000000 0 1 0
21.769408 -4.785485 7.613499 23.553628 -0.216384 1.241644 0.005034 -0.004400 514388.000000 0 1 0
21.241908 -5.080085 8.894099 23.582428 -0.234745 1.184080 -0.004333 -0.003999 -36122.900000 0 1 0
21.458708 -6.549685 9.294899 24.285174 -0.296241 1.178036 0.004720 -0.005732 71357.200000 0 1 0
20.526808 -7.339585 8.601099 23.434980 -0.343395 1.194993 0.018908 -0.002409 152869.000000 0 1 0
20.557208 -8.635885 9.153799 24.103306 -0.397705 1.181245 0.036703 0.005984 103572.000000 0 1 0
-25.674182 -32.886255 5.282299 42.054394 0.907937 1.444857 -0.001660 -0.003478 -402368.000000 0 0 1
-26.450452 -33.945155 5.731799 43.413747 0.908861 1.438382 0.006168 -0.005033 -202351.000000 0 0 1
-26.164392 -34.301455 7.050299 43.713521 0.919167 1.408805 0.016597 0.002909 -333696.000000 0 0 1
-26.765912 33.652015 7.584099 43.662234 -0.898883 1.396212 0.015646 0.005638 326873.000000 0 0 1
-28.181962 33.725215 7.690099 44.617830 -0.874701 1.397577 0.012711 0.007230 227139.000000 0 0 1
-28.768882 32.474515 7.893299 44.097016 -0.845831 1.390828 0.013279 0.012663 779919.000000 0 0 1
-30.332512 32.508315 8.077599 45.189594 -0.820008 1.391081 0.008563 0.012774 1005230.000000 0 0 1
-30.974342 32.787515 6.842199 45.620683 -0.813827 1.420248 -0.000804 0.007912 -1176760.000000 0 0 1
-32.342132 32.703515 6.860699 46.503791 -0.790954 1.422726 -0.006584 0.011509 -1289580.000000 0 0 1
-32.946352 32.667915 5.452499 46.715998 -0.781155 1.453814 0.000202 0.010131 -381676.000000 0 0 1
-32.720172 31.579615 4.610599 45.707104 -0.767662 1.469752 -0.005039 0.009917 417810.000000 0 0 1
-33.503692 31.652815 3.420399 46.217931 -0.756999 1.496723 0.010066 0.014097 84890.600000 0 0 1
-33.271242 30.401815 2.537999 45.140750 -0.740364 1.514543 0.010913 0.004015 -114934.000000 0 0 1
-33.627262 29.187515 3.125599 44.637127 -0.714836 1.500717 0.020603 -0.002836 119419.000000 0 0 1
-33.082242 28.055715 2.557399 43.452251 -0.703367 1.511907 0.016761 -0.003021 -457623.000000 0 0 1
-33.551122 26.806415 3.354899 43.075712 -0.674114 1.492834 0.034242 -0.004734 -128015.000000 0 0 1
-34.952115 26.637315 3.339899 44.072120 -0.651206 1.494941 0.034353 -0.007462 -133763.000000 0 0 1
34.881891 25.559415 4.158799 43.443361 0.632364 1.474920 0.043788 -0.006408 17555.000000 0 0 1
33.414409 25.136115 3.926799 41.997223 0.644942 1.477158 0.053473 -0.013812 -790307.000000 0 0 1
33.081209 24.435115 2.713599 41.216561 0.636191 1.504911 0.035066 -0.018095 -148069.000000 0 0 1
33.592069 23.182215 2.672599 40.902139 0.604057 1.505408 0.026676 -0.005251 -681590.000000 0 0 1
32.719939 22.218015 1.773299 39.590140 0.596517 1.525990 0.022663 -0.009176 1225000.000000 0 0 1
31.510389 21.777315 2.474599 38.383326 0.604738 1.506281 0.016964 -0.014021 1211180.000000 0 0 1
31.617969 20.983315 3.696799 38.126917 0.585912 1.473683 0.003116 0.007805 -593326.000000 0 0 1
32.017849 19.499715 3.397999 37.642104 0.547030 1.480402 -0.004721 -0.001269 -664538.000000 0 0 1
31.198679 18.936715 2.448199 36.578005 0.545530 1.503815 -0.001272 -0.006283 -17443.100000 0 0 1
31.524159 17.590515 2.027599 36.156742 0.508965 1.514689 -0.012540 -0.003601 -368834.000000 0 0 1
31.022269 16.472315 3.033399 35.255069 0.488126 1.484648 -0.009629 -0.001904 -779221.000000 0 0 1
29.663219 16.224615 2.897699 33.934369 0.500507 1.485301 -0.003241 0.009248 -546501.000000 0 0 1
29.237019 15.258915 3.834999 33.201581 0.481017 1.455031 0.020304 -0.006725 -498496.000000 0 0 1
27.712469 15.177215 3.932599 31.840134 0.501051 1.446969 0.004074 0.010946 -683936.000000 0 0 1
27.043359 14.796115 2.782999 30.951791 0.500634 1.480761 0.010041 0.002107 -121087.000000 0 0 1
25.811679 15.482515 2.717999 30.221492 0.540292 1.480739 -0.003310 0.011872 -23205.500000 0 0 1
24.894719 14.920515 1.561499 29.065565 0.539937 1.517047 0.011615 -0.005251 -264820.000000 0 0 1
25.207629 15.214015 0.186499 29.443600 0.543024 1.564462 0.021470 -0.002611 573934.000000 0 0 1
26.433549 14.643715 -0.273801 30.219958 0.505895 1.579857 0.029052 -0.006038 -217691.000000 0 0 1
27.085119 15.410315 -1.458201 31.196279 0.517282 1.617556 0.036265 -0.004940 48775.200000 0 0 1
27.407369 16.781815 -1.211001 32.159909 0.549422 1.608461 0.025217 -0.006078 625258.000000 0 0 1
28.511739 16.952515 -0.311601 33.172340 0.536425 1.580190 0.016083 -0.002450 -245340.000000 0 0 1
29.106499 18.342815 -0.642301 34.410169 0.562327 1.589463 0.029339 -0.003244 -480134.000000 0 0 1
29.830949 18.422215 -1.829801 35.108570 0.553227 1.622938 0.012644 -0.003262 535561.000000 0 0 1
30.782409 19.490615 -1.831801 36.480081 0.564456 1.621031 0.006063 0.006825 488868.000000 0 0 1
30.073079 20.846115 -2.138701 36.654122 0.606135 1.629178 0.006947 0.010564 -37672.400000 0 0 1
30.998449 21.861215 -2.429401 38.009454 0.614231 1.634756 -0.033546 0.016899 -13898.500000 0 0 1
30.497979 22.806815 -3.336001 38.228346 0.642101 1.658173 -0.004952 0.011014 91348.600000 0 0 1
31.377089 24.124515 -3.507901 39.734360 0.655461 1.659195 -0.018708 0.012205 165423.000000 0 0 1
31.556669 25.021015 -2.431301 40.345828 0.670391 1.631094 -0.008512 0.013619 114356.000000 0 0 1
32.097489 24.526215 -1.247201 40.414596 0.652475 1.601661 -0.008792 0.019482 -517398.000000 0 0 1
31.706299 25.424915 -0.044901 40.641330 0.675891 1.571901 -0.002832 0.002791 -87829.100000 0 0 1
32.368689 26.648915 -0.131301 41.927485 0.688783 1.573928 0.007831 -0.002756 -265609.000000 0 0 1
33.623029 26.726115 0.511099 42.954098 0.671608 1.558897 0.024330 -0.005867 -161850.000000 0 0 1
34.219616 28.127515 0.261499 44.296813 0.687995 1.564893 0.020239 -0.012556 -415842.000000 0 0 1
34.773659 28.307115 -1.022601 44.850260 0.683243 1.593599 0.009613 -0.002408 -65548.100000 0 0 1
33.835789 28.369915 -2.056101 44.203397 0.697756 1.617328 0.005314 -0.005807 -476021.000000 0 0 1
34.387166 27.796915 -3.391001 44.346867 0.679813 1.647336 0.008527 -0.005035 -120511.000000 0 0 1
-34.736573 28.485415 -3.901801 45.091822 -0.686842 1.657435 0.002714 -0.003849 -144450.000000 0 0 1
-34.147219 28.000415 -5.114901 44.454674 -0.686812 1.686111 0.008997 -0.007443 349105.000000 0 0 1
-34.996614 28.076615 -6.433301 45.326004 -0.676122 1.713211 0.000959 -0.007922 -64183.000000 0 0 1
34.018669 27.381515 -6.462201 44.144957 0.677720 1.717710 -0.007953 0.004824 -157497.000000 0 0 1
33.207309 27.510515 -7.666101 43.798664 0.691848 1.746733 -0.020828 0.004625 866478.000000 0 0 1
31.976839 26.552015 -7.504901 42.235664 0.692976 1.749436 -0.024390 0.017102 -231741.000000 0 0 1
32.059279 25.138115 -7.601501 41.442792 0.664979 1.755262 -0.020545 0.013088 -557580.000000 0 0 1
33.092759 24.440015 -6.947001 41.721767 0.636120 1.738083 -0.014449 0.009394 -328426.000000 0 0 1
33.165049 22.899515 -6.966001 40.900287 0.604302 1.741947 -0.017479 0.009106 -522261.000000 0 0 1
32.167769 22.146015 -6.334501 39.564343 0.602935 1.731595 -0.013745 0.016942 -156527.000000 0 0 1
32.415039 20.767515 -6.433901 39.031007 0.569792 1.736393 0.000897 -0.000648 -534254.000000 0 0 1
31.316079 19.845615 -5.922401 37.544908 0.564845 1.729200 0.016815 0.003674 -674867.000000 0 0 1
30.140759 19.874115 -6.668701 36.713995 0.582939 1.753449 0.009548 -0.001337 -829243.000000 0 0 1
29.172029 19.072415 -6.092101 35.381888 0.579036 1.743840 0.045979 -0.009665 -5246.400000 0 0 1
27.876719 18.924315 -6.966201 34.405946 0.596395 1.774677 0.037035 -0.022462 454439.000000 0 0 1
28.057099 18.047515 -8.051201 34.318151 0.571610 1.807608 0.033234 -0.023467 160866.000000 0 0 1
26.878039 17.893915 -8.813801 33.470947 0.587364 1.837266 0.036827 -0.022053 -176447.000000 0 0 1
26.981199 16.771215 -9.893301 33.273656 0.556143 1.872693 0.038575 -0.026072 -1106970.000000 0 0 1
25.918549 16.645515 -10.754401 32.626699 0.570889 1.906697 0.041738 -0.018742 -561446.000000 0 0 1
25.937329 15.563415 -11.686501 32.427446 0.540448 1.939481 0.036475 -0.015185 147513.000000 0 0 1
25.007619 15.808715 -12.921801 32.284198 0.563729 1.982588 0.028588 -0.008132 1107060.000000 0 0 1
23.571819 15.860315 -12.747601 31.139711 0.592272 1.992558 0.022792 -0.001105 1693120.000000 0 0 1
22.823419 15.761715 -13.979701 31.060782 0.604385 2.037646 0.025142 -0.000812 -211897.000000 0 0 1
22.859319 14.429815 -14.801801 30.819821 0.563077 2.071758 0.017702 -0.001348 -46399.000000 0 0 1
24.171619 13.990815 -15.180101 31.787506 0.524694 2.068660 0.023643 -0.008351 687733.000000 0 0 1
24.633219 14.737915 -16.296101 33.008553 0.539164 2.087128 0.035621 -0.019511 -617871.000000 0 0 1
26.006699 14.277315 -16.813501 34.101084 0.502064 2.086387 0.047353 -0.020157 -198212.000000 0 0 1
26.002079 12.948115 -17.128101 33.721412 0.462018 2.103576 0.038490 -0.017961 146981.000000 0 0 1
27.293159 12.582415 -17.577201 34.816544 0.431972 2.100007 0.041551 -0.010632 184989.000000 0 0 1
27.295039 11.115515 -18.070501 34.570462 0.386728 2.120829 0.020029 -0.005259 -238219.000000 0 0 1
26.583589 10.859515 -19.284201 34.590413 0.387816 2.162169 0.019436 -0.011364 280785.000000 0 0 1
26.866579 9.568215 -19.721901 34.674446 0.342133 2.175810 -0.005341 0.005711 408082.000000 0 0 1
28.223279 9.382915 -20.489601 36.116704 0.320958 2.174040 0.005214 0.005154 -317278.000000 0 0 1
28.222249 10.104615 -21.728201 37.023146 0.343817 2.197998 0.011178 -0.002285 524195.000000 0 0 1
28.841019 9.353515 -22.822601 37.949490 0.313610 2.216041 0.005780 0.006943 1113870.000000 0 0 1
30.369619 8.965415 -22.692901 38.957159 0.287057 2.192609 0.002892 0.010243 826064.000000 0 0 1
31.293079 10.055315 -22.815801 40.011585 0.310906 2.177582 0.011404 0.011108 140510.000000 0 0 1
32.593969 9.542915 -22.718801 40.860470 0.284821 2.160373 0.000187 0.011714 -573917.000000 0 0 1
33.735329 10.533215 -22.605301 41.952601 0.302640 2.139843 0.023895 0.005597 -488527.000000 0 0 1
33.771149 11.169815 -21.356801 41.489375 0.319424 2.111516 0.020452 0.001770 -245760.000000 0 0 1
34.725723 12.158815 -21.262301 42.494683 0.336798 2.094802 0.003114 0.004891 -588490.000000 0 0 1
34.699494 12.888915 -19.927701 42.039176 0.355649 2.064655 -0.012384 0.003910 -158490.000000 0 0 1
34.994720 12.152715 -18.750301 41.519787 0.334243 2.039353 -0.010616 0.003291 315795.000000 0 0 1
34.794974 12.972115 -17.653101 41.116882 0.356854 2.014558 -0.010852 0.004720 -284199.000000 0 0 1
-35.060148 12.216115 -16.400201 40.588349 -0.335278 1.986749 -0.028566 0.002571 -434115.000000 0 0 1
34.385599 11.035315 -16.160601 39.564032 0.310545 1.991570 -0.028177 -0.002269 636961.000000 0 0 1
35.068521 10.051315 -15.372801 39.587285 0.279136 1.969611 -0.026680 -0.011820 -160529.000000 0 0 1
34.290185 8.721015 -15.243001 38.525602 0.249050 1.977582 0.017810 -0.003500 150494.000000 0 0 1
33.172599 8.838515 -14.351501 37.208954 0.260391 1.966763 0.030817 -0.006232 862492.000000 0 0 1
33.485999 8.781415 -12.952601 36.962079 0.256466 1.928826 0.012960 -0.000438 -786925.000000 0 0 1
32.313759 9.175315 -12.054901 35.688739 0.276663 1.915352 0.018777 0.007428 -361119.000000 0 0 1
32.314339 10.561715 -11.926201 36.027776 0.315898 1.908189 0.031917 -0.003027 11016.900000 0 0 1
31.498829 11.108615 -10.919601 35.139938 0.339049 1.886774 0.013958 0.009735 -231706.000000 0 0 1
32.016079 10.950915 -9.444601 35.130505 0.329570 1.842988 0.022135 0.011531 -148714.000000 0 0 1
33.040979 11.841915 -9.079601 36.254330 0.344139 1.823933 0.012840 0.008188 14894.200000 0 0 1
32.622529 13.069715 -8.555601 36.169672 0.381053 1.809600 0.022130 -0.004950 -649141.000000 0 0 1
32.476959 13.108515 -7.016201 35.718526 0.383628 1.768512 0.018828 -0.007942 62373.800000 0 0 1
33.729919 13.152015 -6.340801 36.754438 0.371788 1.744182 0.027434 -0.009007 608006.000000 0 0 1
33.522149 13.263515 -4.939801 36.387593 0.376763 1.706972 0.018226 -0.006328 -485043.000000 0 0 1
34.806143 13.264715 -4.119101 37.475155 0.364110 1.680934 0.010548 -0.001016 -158981.000000 0 0 1
-34.666405 14.488715 -4.299201 37.817530 -0.395881 1.684725 0.009250 -0.001533 -1007730.000000 0 0 1
-33.392772 14.234615 -3.874301 36.506324 -0.402953 1.677123 -0.003296 0.001889 -1156060.000000 0 0 1
-32.451172 15.449415 -3.714901 36.132582 -0.444331 1.673791 0.010824 -0.001205 68670.200000 0 0 1
-32.814242 16.314115 -2.636301 36.740644 -0.461378 1.642612 0.019255 0.001150 827729.000000 0 0 1
-31.923162 17.454415 -2.530601 36.471205 -0.500355 1.640238 0.022820 -0.001125 188987.000000 0 0 1
-32.273402 18.346815 -1.325101 37.147463 -0.516921 1.606475 0.017262 0.005653 483851.000000 0 0 1
-33.481812 19.095715 -1.525301 38.574663 -0.518318 1.610348 -0.004636 0.005938 725341.000000 0 0 1
-33.859182 19.783015 -0.368401 39.216675 -0.528775 1.580190 -0.024783 0.010593 -488356.000000 0 0 1
35.050557 20.557615 -0.505601 40.637578 0.530444 1.583238 -0.019933 0.011593 -352110.000000 0 0 1
35.102207 21.791915 -1.294701 41.336772 0.555583 1.602122 -0.000133 0.009879 -44588.900000 0 0 1
34.916407 21.584315 -2.681201 41.136687 0.553674 1.636020 -0.018744 0.016506 -95364.500000 0 0 1
-35.105892 22.816015 -3.543101 42.018422 -0.576319 1.655219 0.010828 -0.019576 -245217.000000 0 0 1
-33.758082 23.179515 -3.684801 41.115396 -0.601700 1.660538 0.018601 -0.006185 -282148.000000 0 0 1
-33.578952 24.267315 -4.556001 41.679800 -0.625795 1.680325 0.021186 -0.013847 667894.000000 0 0 1
-32.059332 24.575715 -4.798501 40.679136 -0.654022 1.689031 0.009215 -0.019610 734893.000000 0 0 1
-31.517032 23.634415 -5.723001 39.807808 -0.643433 1.715062 -0.013968 -0.005686 579630.000000 0 0 1
-30.153652 24.027615 -5.973401 39.016029 -0.672811 1.724502 0.002382 0.004791 558375.000000 0 0 1
-29.525562 23.221515 -7.120301 38.232136 -0.666448 1.758129 0.001918 -0.014118 -190876.000000 0 0 1
-30.223872 23.316815 -8.366201 39.078762 -0.657101 1.786552 -0.005016 -0.023281 243192.000000 0 0 1
-29.363082 22.979615 -9.436001 38.461557 -0.664042 1.818663 -0.026012 -0.022224 152529.000000 0 0 1
-30.105812 22.809815 -10.808201 39.286954 -0.648382 1.849500 -0.032275 0.007769 -11319.800000 0 0 1
-30.622342 23.987615 -11.415701 40.539508 -0.664498 1.856252 -0.033882 0.007271 167135.000000 0 0 1
-31.316352 23.776915 -12.628101 41.297996 -0.649394 1.881554 -0.058767 0.013613 -345776.000000 0 0 1
-32.095352 25.044515 -13.088701 42.762758 -0.662623 1.881866 -0.012223 0.008727 -545418.000000 0 0 1
-31.397002 26.116215 -13.568001 43.033929 -0.693836 1.891554 -0.022092 0.002562 -933646.000000 0 0 1
-30.552542 25.884915 -14.676201 42.648300 -0.702882 1.922099 -0.033256 0.001479 -463190.000000 0 0 1
-29.357072 26.825615 -14.493101 42.326130 -0.740371 1.920282 -0.021163 0.002625 -107485.000000 0 0 1
-28.253622 26.448015 -13.665301 41.042723 -0.752402 1.910230 -0.008558 0.004595 481083.000000 0 0 1
-28.531902 26.228615 -12.260901 40.648977 -0.743362 1.877197 -0.008440 0.005712 -882472.000000 0 0 1
-28.752752 27.518715 -11.432001 41.408828 -0.763472 1.850506 0.000281 0.018501 -245977.000000 0 0 1
-27.567802 28.225515 -11.169301 41.005081 -0.797186 1.846671 0.004238 0.010672 -202678.000000 0 0 1
-27.818472 29.331515 -10.326901 41.723495 -0.811867 1.820904 -0.006954 0.003743 923293.000000 0 0 1
-26.473672 29.988115 -9.848001 41.196183 -0.847563 1.812185 0.004571 0.002590 981884.000000 0 0 1
-26.810082 31.182415 -9.191901 42.138041 -0.860651 1.790702 0.006589 -0.006905 -92737.100000 0 0 1
-25.657472 31.888315 -8.792501 41.862615 -0.893254 1.782404 0.015604 0.000917 -239688.000000 0 0 1
33.200189 -25.572785 34.160226 54.066079 -0.656342 0.886893 0.020094 -0.002295 -31329.800000 0 0 1
32.743169 -24.267085 34.410891 53.339629 -0.637803 0.869605 0.020295 -0.012394 267288.000000 0 0 1
31.910769 -24.202685 -33.570841 52.259626 -0.648886 2.268404 0.005269 -0.006722 180130.000000 0 0 1
31.567049 -22.800385 -33.122721 51.121921 -0.625526 2.275642 0.007209 -0.010776 -277964.000000 0 0 1
30.814729 -22.128585 -34.062221 50.984867 -0.622782 2.302428 -0.003330 -0.007898 -328896.000000 0 0 1
30.650429 -20.780585 -33.702781 50.071539 -0.595799 2.309179 -0.009366 0.002951 150881.000000 0 0 1
30.235129 -19.834585 34.359528 49.881369 -0.580589 0.810930 -0.012551 0.017727 -165280.000000 0 0 1
31.306769 -19.574985 33.502593 49.856971 -0.558789 0.833925 0.001738 0.001014 -105839.000000 0 0 1
30.949129 -18.762685 32.428852 48.595446 -0.544997 0.840188 0.000408 0.009785 -19870.800000 0 0 1
32.110789 -18.711285 31.407312 48.658342 -0.527609 0.869163 0.000430 0.015951 -397816.000000 0 0 1
33.122419 -17.839185 31.739102 49.220949 -0.494036 0.869997 -0.004466 0.000538 15860.900000 0 0 1
34.244246 -17.983185 30.851042 49.475753 -0.483560 0.897510 0.008994 0.002976 -208220.000000 0 0 1
-34.985880 -16.883185 31.075782 49.746939 0.449608 0.896078 0.009682 -0.003003 -920261.000000 0 0 1
-34.045292 -16.735585 29.994152 48.361254 0.456879 0.901785 0.024919 0.001117 448607.000000 0 0 1
-32.968762 -15.896185 30.318392 47.527180 0.449273 0.879006 0.021181 -0.004467 -96045.900000 0 0 1
-31.776072 -16.532885 31.063202 47.412842 0.479750 0.856396 0.036729 -0.008880 -425172.000000 0 0 1
-30.750562 -15.549785 31.286122 46.542607 0.468177 0.833615 0.028198 -0.005499 282236.000000 0 0 1
-29.889662 -16.073185 32.264842 46.826907 0.493390 0.810655 0.028594 -0.008867 95713.300000 0 0 1
-28.760702 -15.121085 32.770142 46.148753 0.484039 0.781159 0.025168 -0.007480 246240.000000 0 0 1
-29.131342 -14.334785 33.900911 46.940312 0.457287 0.763800 0.031158 -0.009198 491894.000000 0 0 1
-28.188392 -13.303585 34.187422 46.263924 0.440959 0.739263 0.020625 -0.004839 26256.500000 0 0 1
-28.380642 -12.621785 -33.602151 45.758877 0.418465 2.395477 0.018524 -0.001924 -245333.000000 0 0 1
-28.165282 -13.420385 -32.478451 45.035981 0.444661 2.376281 0.023653 -0.001195 261968.000000 0 0 1
-28.534582 -12.860185 -31.181331 44.180110 0.423426 2.354316 0.040863 -0.004460 -530351.000000 0 0 1
-28.785492 -13.909985 -30.111681 43.918169 0.450141 2.326267 0.038741 -0.009609 -904484.000000 0 0 1
-29.935752 -14.617585 -30.381791 45.087429 0.454243 2.310192 0.020546 -0.008688 -784396.000000 0 0 1
-30.290312 -15.172185 -29.106161 44.663932 0.464361 2.280581 0.012361 -0.006934 649718.000000 0 0 1
-31.473302 -16.212785 -29.075771 45.812919 0.475677 2.258369 0.010862 -0.012092 562499.000000 0 0 1
-31.153532 -17.476385 -29.617691 46.402308 0.511231 2.263059 0.010897 -0.003770 310241.000000 0 0 1
-32.265242 -18.361885 -29.605561 47.483617 0.517383 2.243995 0.008524 -0.000520 447800.000000 0 0 1
-31.776132 -19.674185 -30.272431 48.095906 0.554381 2.251600 0.008865 -0.005542 92815.400000 0 0 1
-32.869762 -20.433785 -30.721891 49.414526 0.556193 2.241730 0.004908 -0.007363 -133925.000000 0 0 1
-32.508732 -21.789885 -31.096461 49.986064 0.590499 2.242222 0.008811 -0.008870 -347822.000000 0 0 1
-33.707432 -22.682085 -31.372071 51.331031 0.592313 2.228336 0.014060 -0.007042 -425595.000000 0 0 1
-34.540723 -23.043585 -30.312441 51.409264 0.588332 2.201397 0.003427 -0.007888 493370.000000 0 0 1
34.542588 -23.872485 -30.624451 51.970597 -0.604730 2.200945 0.013341 -0.011115 602678.000000 0 0 1
34.807362 -25.359305 -31.002771 53.064288 -0.629639 2.194751 0.006141 -0.007755 -323139.000000 0 0 1
-34.866572 -25.560855 -32.285621 53.957358 0.632600 2.212242 0.024182 -0.006544 157025.000000 0 0 1
-34.023652 -26.738075 -32.150761 53.909229 0.666064 2.209789 0.022328 -0.007828 471370.000000 0 0 1
-34.223047 -27.770345 -33.255101 55.211509 0.681685 2.217203 0.030039 -0.014074 47130.800000 0 0 1
34.735167 -28.392755 -33.202391 55.812894 -0.685265 2.207922 0.019412 -0.006669 -357483.000000 0 0 1
34.617669 -29.544695 -34.026661 56.825044 -0.706498 2.212794 0.015322 -0.015820 -172960.000000 0 0 1
-34.976872 -30.834935 -33.485311 57.405930 0.722545 2.193591 0.023182 -0.026470 -473704.000000 0 0 1
34.627934 -31.393785 -32.387801 56.865044 -0.736451 2.176761 0.025370 -0.020891 -417363.000000 0 0 1
-34.726615 -32.225255 -31.668501 56.985075 0.748055 2.160041 0.022507 -0.026247 -278328.000000 0 0 1
34.935924 -32.600335 -30.288141 56.574483 -0.750829 2.135739 0.010739 -0.024172 -303908.000000 0 0 1
33.937709 -33.559385 -30.467591 56.623975 -0.779793 2.138941 0.024269 -0.017809 -238487.000000 0 0 1
33.419369 -33.921665 -29.214521 55.866106 -0.792857 2.121091 0.019998 -0.018041 -627599.000000 0 0 1
32.428289 34.197702 -29.276121 55.481240 0.811949 2.126659 0.018193 -0.025582 279227.000000 0 0 1
31.330899 34.611194 -30.135311 55.567049 0.835102 2.143996 0.016970 -0.023679 854602.000000 0 0 1
30.144829 33.939640 -29.716891 54.255908 0.844545 2.150430 0.012497 -0.023941 17624.200000 0 0 1
28.787979 34.269620 -30.306811 54.052358 0.872111 2.166020 -0.005679 -0.009516 -328707.000000 0 0 1
28.687129 34.029288 -31.691561 54.637889 0.870373 2.189561 0.002991 -0.004635 -135455.000000 0 0 1
27.375649 34.263041 -32.176851 54.394227 0.896675 2.203775 -0.000768 0.001731 108999.000000 0 0 1
27.148379 33.713939 -33.571281 54.778601 0.892858 2.230464 0.002634 -0.007120 -69892.800000 0 0 1
26.901049 32.324115 -33.601001 53.828822 0.876710 2.244928 -0.010049 -0.002611 -26357.800000 0 0 1
26.736439 31.952245 34.188925 53.894951 0.874038 0.883613 -0.003287 0.000406 -85877.600000 0 0 1
26.722749 30.428975 34.068329 52.921441 0.850156 0.871404 0.001493 -0.009072 -130353.000000 0 0 1
28.035049 29.916125 34.200657 53.391230 0.817846 0.875560 0.001668 -0.007985 -426849.000000 0 0 1
27.966309 28.519295 34.297071 52.647448 0.795188 0.861305 0.004063 -0.013454 629880.000000 0 0 1
29.301599 27.777225 -34.518908 53.119798 0.758698 2.278159 0.026069 -0.019115 594615.000000 0 0 1
29.851889 28.088355 -33.247881 52.777955 0.754970 2.252295 0.028107 -0.012910 382847.000000 0 0 1
31.056189 27.333525 -32.998821 52.920040 0.721729 2.244085 0.039712 -0.012586 1154470.000000 0 0 1
31.678129 27.624415 -31.554431 52.557533 0.717148 2.214771 0.034273 -0.015563 483361.000000 0 0 1
32.573749 28.720625 -31.275141 53.516893 0.722618 2.194934 0.024710 -0.013086 628870.000000 0 0 1
31.976949 30.014575 -31.227531 53.838264 0.753753 2.189556 0.028954 -0.018704 227042.000000 0 0 1
30.935309 30.428135 -30.167021 52.848027 0.777133 2.178308 0.025760 -0.008646 35446.400000 0 0 1
31.478779 30.566555 -28.902731 52.541371 0.770697 2.153274 0.013938 -0.002385 376166.000000 0 0 1
30.446589 30.775075 -27.912141 51.509103 0.790764 2.143478 0.015960 -0.001599 273905.000000 0 0 1
30.973469 31.145585 -26.498231 51.298728 0.788169 2.113610 0.029282 -0.004275 3802.940000 0 0 1
31.524239 32.458405 -26.516591 52.444783 0.799997 2.100885 0.027310 -0.008870 178103.000000 0 0 1
32.062779 32.809335 -25.249291 52.364119 0.796906 2.073946 0.018714 -0.015595 13511.900000 0 0 1
32.529499 34.276549 -25.260981 53.583275 0.811543 2.061713 0.019264 -0.020245 -47401.300000 0 0 1
31.380009 -34.193538 -25.379291 52.896233 -0.828278 2.071216 0.022932 -0.012797 34804.500000 0 0 1
31.503239 -32.781505 -25.047201 51.908029 -0.805280 2.074338 0.014472 -0.022668 -643867.000000 0 0 1
31.956919 -31.707715 -26.075041 52.024337 -0.781484 2.095791 0.008002 -0.027292 1026070.000000 0 0 1
33.283379 -31.820635 -26.637881 53.196925 -0.762934 2.095251 0.017353 -0.029871 668788.000000 0 0 1
34.285862 -31.283695 -25.815191 53.109453 -0.739644 2.078389 0.012133 -0.025400 -307355.000000 0 0 1
-34.527564 -31.734155 -26.289041 53.761724 0.743266 2.081730 -0.000528 -0.016923 -181161.000000 0 0 1
-34.112096 -33.099215 -25.973561 54.164739 0.770329 2.070914 0.001052 -0.019922 52443.300000 0 0 1
-33.840592 -33.517865 -24.607201 53.611074 0.780607 2.047660 0.015802 -0.015813 646831.000000 0 0 1
-32.508692 -32.935485 -23.989501 52.125400 0.791920 2.049047 -0.009276 -0.002779 716824.000000 0 0 1
-32.532912 -31.525965 -23.778701 51.163497 0.769680 2.054159 -0.021317 -0.000604 -172376.000000 0 0 1
-32.537362 -31.282135 -22.375701 50.377811 0.765732 2.031030 -0.025838 0.005915 -252335.000000 0 0 1
-32.253122 -29.766295 -22.152101 49.163114 0.745322 2.038215 -0.031714 0.017776 67841.100000 0 0 1
-33.132422 -28.749995 -22.681001 49.383675 0.714698 2.047982 -0.026769 0.009189 -112801.000000 0 0 1
-33.010422 -28.541185 -24.070501 49.836495 0.712916 2.074862 -0.033727 0.010807 -940833.000000 0 0 1
-34.178177 -27.863615 -24.705001 50.545681 0.683968 2.081471 -0.027630 0.006872 -937605.000000 0 0 1
-34.254967 -26.509445 -24.239201 49.635595 0.658614 2.080986 -0.031797 0.010648 85186.500000 0 0 1
34.973389 -25.769225 -24.935901 50.089820 -0.635015 2.091884 -0.022269 0.001554 230577.000000 0 0 1
-34.617617 -25.270075 -26.278971 50.274650 0.630563 2.120821 -0.016166 -0.005794 -287205.000000 0 0 1
-33.754852 -24.210285 -26.073721 49.044539 0.622202 2.131324 -0.025598 -0.001224 -629530.000000 0 0 1
-33.389072 -23.633885 -27.305661 49.183226 0.615964 2.159379 -0.017809 -0.003456 -360579.000000 0 0 1
-32.286022 -22.575485 -27.260601 47.908038 0.610212 2.176109 -0.011624 -0.014624 -542263.000000 0 0 1
-32.451342 -21.419285 -26.451571 47.027236 0.583403 2.168171 -0.021890 0.004059 53718.700000 0 0 1
-33.588122 -20.599685 -26.741471 47.619483 0.550144 2.167073 -0.023770 -0.000337 679552.000000 0 0 1
-34.671559 -20.549285 -25.605561 47.749710 0.535023 2.136779 -0.020289 0.000994 271233.000000 0 0 1
-34.229419 -20.129885 -24.304301 46.557109 0.531614 2.120028 -0.019882 0.000696 298892.000000 0 0 1
-33.398742 -21.052885 -23.553901 45.972668 0.562437 2.108710 -0.034214 -0.007405 31711.700000 0 0 1
-34.268149 -22.209185 -22.950401 46.843087 0.575038 2.082820 -0.025262 0.002338 418195.000000 0 0 1
-35.043693 -21.792585 -21.848601 46.694095 0.556345 2.057720 -0.020695 0.002661 -445867.000000 0 0 1
34.355816 -22.824485 -21.442801 46.487342 -0.586401 2.050212 -0.015138 0.010219 -489848.000000 0 0 1
33.319389 -22.441285 -20.374401 45.043414 -0.592732 2.040170 -0.013002 0.007741 367523.000000 0 0 1
32.192009 -21.691085 -20.808401 44.043367 -0.592927 2.062868 0.019204 0.007345 279871.000000 0 0 1
31.039489 -21.872585 -20.013101 42.923002 -0.613853 2.055850 0.022468 0.007146 1345000.000000 0 0 1
29.708189 -21.269085 -20.651201 41.969305 -0.621340 2.085245 0.017785 0.010360 551993.000000 0 0 1
29.205899 -21.925285 -21.800001 42.531667 -0.643958 2.108959 0.018116 0.013477 -401315.000000 0 0 1
28.096459 -21.330085 -22.366201 41.768774 -0.649346 2.135868 0.029112 0.018919 -549396.000000 0 0 1
28.392169 -20.033285 -23.117601 41.735731 -0.614469 2.157843 0.014654 0.002321 -587928.000000 0 0 1
28.645889 -18.913885 -22.324101 40.947375 -0.583558 2.147412 0.016562 0.008266 -26687.500000 0 0 1
28.800129 -17.752085 -23.071001 40.949421 -0.552383 2.169295 0.002055 0.004947 -218880.000000 0 0 1
29.458669 -16.563085 -22.317601 40.499683 -0.512198 2.154426 -0.000688 -0.003203 -397142.000000 0 0 1
28.788969 -16.208585 -21.115201 39.209370 -0.512780 2.139481 -0.007853 -0.005279 296021.000000 0 0 1
29.634869 -15.847785 -20.042001 39.128756 -0.491074 2.108548 -0.017831 -0.008656 464111.000000 0 0 1
30.690249 -16.825685 -19.386601 40.010441 -0.501493 2.076632 0.002715 -0.014726 1007940.000000 0 0 1
31.691949 -17.296285 -20.349201 41.444313 -0.499584 2.084035 -0.007434 -0.006224 212475.000000 0 0 1
32.446089 -18.266485 -19.707001 42.128127 -0.512754 2.057582 -0.004488 -0.004714 -1660680.000000 0 0 1
33.639669 -18.594185 -20.506001 43.564517 -0.504949 2.060885 -0.027718 0.000546 -1012940.000000 0 0 1
34.579266 -17.531085 -20.679501 43.939804 -0.469218 2.060804 -0.030169 0.001031 376804.000000 0 0 1
-34.603541 -17.958485 -21.542401 44.541972 0.478715 2.075608 -0.031071 0.008271 174860.000000 0 0 1
-33.772682 -16.794085 -22.139701 43.735588 0.461460 2.101589 -0.028486 0.011597 59368.500000 0 0 1
-32.995152 -16.143985 -21.153601 42.388479 0.455038 2.093288 -0.020835 0.011512 -126835.000000 0 0 1
-32.211552 -15.093085 -21.687001 41.661868 0.438182 2.118289 -0.010397 0.003152 -570093.000000 0 0 1
-30.939952 -14.846585 -20.854101 40.157132 0.447399 2.116843 -0.005222 0.006992 -656880.000000 0 0 1
-29.979572 -15.837185 -20.904101 39.831804 0.486004 2.123287 -0.009260 -0.002528 -172323.000000 0 0 1
-30.210492 -16.822485 -19.936101 39.913881 0.508081 2.093792 -0.018795 -0.001516 -670086.000000 0 0 1
-29.167012 -17.952985 -19.912501 39.617319 0.551756 2.097424 -0.026852 -0.009456 -298041.000000 0 0 1
-29.491582 -19.072185 -19.136101 39.996150 0.574051 2.069683 -0.032482 -0.002804 423600.000000 0 0 1
-28.504322 -20.119585 -19.253701 39.849706 0.614637 2.075054 -0.031003 -0.004641 318819.000000 0 0 1
-29.001262 -21.535785 -18.929601 40.782263 0.638736 2.053485 -0.039934 0.009078 -26750.900000 0 0 1
-29.854422 -22.180985 -19.907301 42.185107 0.638988 2.062245 -0.045257 0.017981 505754.000000 0 0 1
-30.077132 -23.516585 -19.568101 42.901914 0.663592 2.044418 -0.045744 0.030408 -527415.000000 0 0 1
-31.123042 -24.151685 -20.459901 44.390936 0.659939 2.049808 -0.052354 0.025906 -482123.000000 0 0 1
-30.698252 -24.245885 -21.805001 44.785083 0.668499 2.079312 -0.050841 0.018561 594472.000000 0 0 1
-31.513302 -25.195065 -22.529301 46.210917 0.674439 2.080057 -0.035959 0.017341 239691.000000 0 0 1
-31.226692 -25.083725 -24.006001 46.696762 0.676737 2.110734 -0.025432 0.018179 697153.000000 0 0 1
-29.884482 -25.456225 -24.381701 46.212217 0.705550 2.126573 -0.031799 0.017651 614234.000000 0 0 1
-29.716012 -25.745295 -25.769491 47.009874 0.713926 2.150973 -0.013357 0.021684 -1077080.000000 0 0 1
-28.316282 -26.036425 -26.187851 46.535049 0.743477 2.168512 -0.007514 0.020284 -1064970.000000 0 0 1
-27.476322 -24.938385 -26.424661 45.553639 0.737016 2.189621 -0.005315 0.010632 -197544.000000 0 0 1
-26.122542 -25.331085 -26.520811 45.026708 0.770017 2.200619 -0.002939 0.017681 -150999.000000 0 0 1
-25.212232 -24.197085 -26.930871 44.118334 0.764855 2.227392 0.006231 0.013027 -484326.000000 0 0 1
-25.329542 -23.731885 -28.264231 44.762203 0.752845 2.254193 0.000118 0.004715 711466.000000 0 0 1
-24.349292 -22.663985 -28.459071 43.777425 0.749566 2.278493 0.026247 -0.018073 666235.000000 0 0 1
-24.327992 -22.112985 -29.873431 44.421359 0.737739 2.308380 0.003644 -0.007695 -36816.200000 0 0 1
-23.608392 -23.060085 -30.674491 45.056055 0.773650 2.319661 0.011047 -0.009474 288055.000000 0 0 1
-23.542092 -22.693585 -32.063321 45.796129 0.767048 2.346378 0.007513 -0.011186 -280852.000000 0 0 1
-22.924192 -23.872785 -32.875581 46.650105 0.805666 2.352834 0.015299 -0.007566 460443.000000 0 0 1
-23.871992 -24.946385 -32.992301 47.756529 0.807403 2.333452 -0.005015 -0.004318 26311.000000 0 0 1
-23.333692 -26.009455 -33.694621 48.541533 0.839573 2.338021 0.006987 0.001311 21357.300000 0 0 1
-19.693092 -15.152485 -12.204701 27.683395 0.655822 2.027361 -0.032131 0.028653 -109763.000000 0 0 1
-19.872592 -14.396385 -11.023301 26.901468 0.626937 1.992994 -0.030875 0.028844 612139.000000 0 0 1
-18.844792 -14.748785 -10.058901 25.958319 0.664069 1.968717 -0.030677 0.015281 575651.000000 0 0 1
-19.042092 -14.181185 -8.614801 25.257119 0.640119 1.918866 -0.015555 0.003078 -240957.000000 0 0 1
-20.022792 -14.832185 -7.840101 26.122272 0.637565 1.875626 0.005475 -0.001811 56446.000000 0 0 1
-20.580092 -14.059685 -6.781401 25.830260 0.599341 1.836447 -0.002027 -0.011448 -432081.000000 0 0 1
-21.823792 -14.736285 -6.232801 27.060742 0.593914 1.803209 0.002962 -0.016149 -845546.000000 0 0 1
-21.575692 -15.992285 -5.581401 27.430197 0.637857 1.775704 -0.006342 -0.012880 229616.000000 0 0 1
-21.093392 -15.964585 -4.258001 26.794210 0.647872 1.730388 0.004551 -0.015438 -265322.000000 0 0 1
-20.783192 -17.295885 -3.576201 27.274125 0.694072 1.702296 -0.006752 -0.009725 504095.000000 0 0 1
-21.926692 -18.156985 -3.577101 28.692361 0.691628 1.695792 0.004098 -0.012349 384657.000000 0 0 1
-21.578592 -19.296285 -2.821201 29.085072 0.729620 1.667947 0.000734 -0.001279 78335.500000 0 0 1
-22.648092 -20.344485 -2.437601 30.541382 0.731868 1.650694 -0.000605 -0.007729 -125954.000000 0 0 1
-22.984092 -21.268985 -3.485301 31.508499 0.746661 1.681638 -0.012572 -0.019009 -40109.400000 0 0 1
-24.131792 -22.042585 -3.234201 32.843248 0.740183 1.669430 -0.005312 -0.013887 -286154.000000 0 0 1
-24.101092 -23.173085 -4.248801 33.703216 0.765770 1.697198 -0.011688 -0.007280 -130981.000000 0 0 1
-23.034292 -24.105185 -4.094701 33.591742 0.808112 1.692996 -0.009141 -0.006018 -96315.400000 0 0 1
-22.764892 -24.863685 -5.255301 34.118343 0.829436 1.725444 -0.007650 -0.007943 -295498.000000 0 0 1
-21.340892 -24.732885 -5.820301 33.181699 0.858886 1.747115 -0.003184 -0.004376 -278129.000000 0 0 1
-21.036892 -23.576685 -6.558901 32.271196 0.842265 1.775465 -0.009903 -0.002057 48434.900000 0 0 1
-20.778892 -22.495385 -5.668301 31.143768 0.825043 1.753821 -0.011999 -0.000397 -924333.000000 0 0 1
-20.833392 -21.086785 -6.290301 30.302650 0.791443 1.779899 -0.015556 -0.000623 -168459.000000 0 0 1
-19.622492 -20.591585 -6.827801 29.251913 0.809492 1.806383 -0.022353 0.008537 68847.600000 0 0 1
-19.761792 -19.273185 -7.294001 28.551471 0.772882 1.829129 -0.032559 0.011710 756093.000000 0 0 1
-18.596792 -18.905685 -8.289301 27.784494 0.793635 1.873752 -0.023412 0.011539 383601.000000 0 0 1
-18.792792 -19.621085 -9.508301 28.784784 0.806957 1.907443 -0.032296 0.011352 -141780.000000 0 0 1
-17.687992 -19.599585 -10.376301 28.366819 0.836620 1.945278 0.015712 0.014381 -437591.000000 0 0 1
-17.305192 -18.249085 -11.101301 27.490683 0.811940 1.986485 0.014108 0.017562 -163575.000000 0 0 1
-16.915392 -17.256985 -10.196101 26.227743 0.795394 1.970074 0.007488 0.006042 -369274.000000 0 0 1
-15.609592 -17.404185 -9.702701 25.312199 0.839704 1.964186 0.031503 0.004352 -971134.000000 0 0 1
-15.221292 -16.312985 -8.654101 23.931040 0.820004 1.940808 0.014708 0.005201 -61744.700000 0 1 0
-15.916992 -16.502185 -7.457601 24.109926 0.803447 1.885271 -0.003420 0.002954 -16058.700000 0 1 0
-16.163792 -15.276585 -6.728701 23.236128 0.757187 1.864584 0.004201 -0.000233 -107243.000000 0 1 0
-16.850492 -15.590685 -5.384001 23.579567 0.746584 1.801162 0.009011 -0.002666 -72552.100000 0 1 0
-17.051392 -14.399785 -4.636701 22.794797 0.701288 1.775636 -0.005518 0.000759 84110.600000 0 1 0
-17.545392 -14.699085 -3.356901 23.133799 0.697354 1.716419 0.001910 -0.001472 -29897.800000 0 1 0
-18.275792 -13.462885 -2.737701 22.863701 0.634903 1.690824 -0.001242 0.001164 184211.000000 0 1 0
-19.529192 -13.111185 -3.296101 23.751985 0.591247 1.710017 0.005514 -0.010440 -8902.090000 0 1 0
-20.299892 -12.468285 -2.355801 23.939372 0.550799 1.669363 -0.000387 -0.000092 -200938.000000 0 1 0
-21.821092 -12.536185 -2.683401 25.308430 0.521457 1.677024 -0.008993 0.003256 241508.000000 0 0 1
-22.107492 -11.699685 -3.768101 25.294711 0.486748 1.720321 -0.007042 -0.008919 -238211.000000 0 0 1
-23.485092 -11.753085 -4.030701 26.569364 0.464007 1.723089 -0.013078 -0.005488 -278180.000000 0 0 1
-23.943392 -10.894385 -5.185401 26.811602 0.427009 1.765424 -0.003224 -0.012434 -207869.000000 0 0 1
-23.539992 -11.418285 -6.420101 26.939305 0.451624 1.811429 -0.003534 -0.013938 172993.000000 0 0 1
-24.039692 -10.739685 -7.574501 27.397457 0.420146 1.850913 0.006147 -0.012188 -385504.000000 0 0 1
-23.405992 -11.253685 -8.905101 27.455176 0.448173 1.901121 0.025362 -0.013541 449885.000000 0 0 1
-22.046992 -10.845485 -9.054401 26.185427 0.457167 1.923866 0.010070 -0.009009 432893.000000 0 0 1
-21.443092 -11.367985 -10.217001 26.332952 0.487473 1.969249 -0.003667 -0.000230 470588.000000 0 0 1
-20.006192 -10.766685 -10.360101 24.970000 0.493713 1.998631 -0.008144 0.008632 199898.000000 0 1 0
-20.113692 -9.396085 -10.691301 24.640433 0.437023 2.019605 -0.001431 -0.000613 476767.000000 0 1 0
-18.917992 -8.670485 -10.470501 23.295903 0.429751 2.036953 -0.006881 0.006603 -84577.200000 0 1 0
-18.825392 -7.265685 -11.107601 23.033982 0.368337 2.073991 -0.030116 0.008413 -217527.000000 0 1 0
-18.572592 -7.351885 -12.427601 23.525234 0.376920 2.127354 0.000067 0.001190 383976.000000 0 1 0
-18.304092 -6.033285 -12.926401 23.206295 0.318399 2.161591 0.002324 -0.006833 -330233.000000 0 1 0
-17.869392 -6.095585 -14.424101 23.759756 0.328741 2.223179 0.015070 -0.004542 -192901.000000 0 1 0
-18.821492 -6.372885 -15.421701 25.153351 0.326480 2.230784 0.021944 -0.016938 522255.000000 0 0 1
-18.117192 -6.310785 -16.669101 25.414908 0.335187 2.286143 0.024786 -0.024263 -130385.000000 0 0 1
-18.635392 -7.323085 -17.708301 26.729933 0.374428 2.294934 0.022187 -0.020737 -1255200.000000 0 0 1
-19.929492 -7.060685 -18.081301 27.820341 0.340486 2.278290 0.025838 -0.030651 -849730.000000 0 0 1
-20.361092 -8.027285 -18.985001 28.973119 0.375536 2.285327 0.043716 -0.030146 -402062.000000 0 0 1
-21.816292 -7.893685 -19.462301 30.282701 0.347170 2.268797 0.026830 -0.029844 -734183.000000 0 0 1
-21.978892 -6.756985 -20.275301 30.656424 0.298260 2.293443 0.027182 -0.031888 736833.000000 0 0 1
-23.173592 -6.552585 -21.051601 31.986272 0.275567 2.289148 0.020878 -0.026694 1525370.000000 0 0 1
-24.457192 -6.107385 -20.232801 32.323685 0.244713 2.247137 0.041689 -0.031549 819096.000000 0 0 1
-24.257492 -4.812185 -19.708501 31.622904 0.195837 2.243669 0.031548 -0.023111 -386018.000000 0 0 1
-25.312362 -4.595585 -18.840801 31.887472 0.179599 2.202912 0.038197 -0.020146 -655763.000000 0 0 1
-25.273692 -3.167085 -18.318101 31.374237 0.124662 2.194269 0.014483 -0.015689 46699.000000 0 0 1
-25.664612 -2.178485 -19.245601 32.152935 0.084680 2.212504 0.025799 -0.018562 215332.000000 0 0 1
-27.048912 -2.097185 -19.553101 33.441973 0.077378 2.195291 0.044776 -0.015134 19559.600000 0 0 1
-27.289672 -0.817285 -20.383801 34.071887 0.029940 2.212123 0.044423 -0.014943 -160679.000000 0 0 1
-26.711362 -0.698185 -21.684601 34.412298 0.026132 2.252531 0.034781 -0.015006 532744.000000 0 0 1
-27.372732 -1.515085 -22.677001 35.578200 0.055294 2.261896 0.032872 -0.005283 -291852.000000 0 0 1
-26.735872 -1.240285 -24.040501 35.976254 0.046357 2.302627 0.030245 -0.006080 -815759.000000 0 0 1
-27.050792 -0.084985 -24.847401 36.730721 0.003142 2.313761 0.008005 0.000455 352480.000000 0 0 1
-26.469692 1.188415 -24.411201 36.027263 -0.044867 2.315258 0.018797 0.001554 1303240.000000 0 0 1
-24.925892 1.314515 -24.048701 34.660757 -0.052688 2.337591 0.021200 -0.011396 1272740.000000 0 0 1
-24.102792 1.237615 -25.227331 34.912670 -0.051302 2.378329 0.017227 -0.002128 -523184.000000 0 0 1
-22.761692 1.209015 -24.848501 33.719495 -0.053066 2.399296 0.022930 -0.005117 -324935.000000 0 0 1
-21.828392 0.518615 -25.891271 33.868947 -0.023754 2.440991 0.027077 -0.006122 -118608.000000 0 0 1
-21.758292 1.114415 -27.202351 34.851587 -0.051173 2.466293 0.011722 0.001248 -305228.000000 0 0 1
-21.026492 0.431615 -28.140721 35.131180 -0.020524 2.499791 0.004201 -0.006196 -427282.000000 0 0 1
-20.764292 1.176815 -29.422021 36.030487 -0.056614 2.526269 0.002172 0.012122 -296582.000000 0 0 1
-19.753992 2.160715 -29.311641 35.412726 -0.108948 2.545820 0.007363 0.007662 287799.000000 0 0 1
-19.684792 2.988115 -30.459801 36.389825 -0.150648 2.562650 -0.006085 0.008073 26048.700000 0 0 1
-19.086692 2.284915 -31.743011 37.109856 -0.119145 2.597079 -0.000571 0.007789 1451670.000000 0 0 1
-17.641092 2.074715 -31.625941 36.272754 -0.117069 2.629850 -0.011617 0.012332 1773290.000000 0 0 1
-17.071292 1.559415 -32.813181 37.021151 -0.091094 2.660168 -0.013812 0.013118 55542.500000 0 0 1
-15.538892 1.547915 -32.900181 36.418060 -0.099288 2.698437 -0.011234 -0.002591 -180008.000000 0 0 1
-14.892292 2.757815 -33.206461 36.497328 -0.183110 2.713677 -0.007144 0.005660 -1210720.000000 0 0 1
-13.545892 2.665915 -33.437931 36.175869 -0.194323 2.750035 -0.001010 -0.006037 -1187160.000000 0 0 1
-12.996592 4.049715 -33.937831 36.566213 -0.302063 2.760127 0.007749 0.002888 -348881.000000 0 0 1
-12.710392 4.841515 -32.826621 35.532821 -0.363942 2.748789 0.023558 -0.002997 357468.000000 0 0 1
-12.110192 6.067715 -33.267241 35.919121 -0.464481 2.754925 0.019288 -0.001208 -50632.000000 0 0 1
-12.039092 7.241215 -32.290081 35.213978 -0.541504 2.731209 0.026294 0.002294 -305152.000000 0 0 1
-11.090492 7.089415 -31.236321 33.896409 -0.568769 2.742781 0.053562 -0.010591 290878.000000 0 0 1
-11.383992 6.081615 -30.344231 32.975046 -0.490651 2.739433 0.049236 -0.019840 -880888.000000 0 0 1
-10.170192 5.427215 -29.718541 31.875996 -0.490196 2.771565 0.060276 -0.015448 -534537.000000 0 0 1
-9.331592 4.544915 -30.447321 32.167907 -0.453231 2.813046 0.036221 -0.014263 273703.000000 0 0 1
-9.860192 3.306515 -30.780331 32.489771 -0.323555 2.815762 0.035296 -0.013528 -826410.000000 0 0 1
-9.267792 2.646915 -32.007691 33.427390 -0.278197 2.849103 0.026722 -0.004811 -310812.000000 0 0 1
-9.729292 1.340715 -32.329861 33.788705 -0.136939 2.846670 0.024556 -0.007616 83025.800000 0 0 1
-9.298692 0.810715 -33.541131 34.815663 -0.086966 2.870176 0.010358 -0.002040 -668833.000000 0 0 1
-9.880692 1.454015 34.285310 35.710289 -0.146109 0.283451 0.015260 -0.004446 476062.000000 0 0 1
-11.222892 1.132115 33.901425 35.728723 -0.100535 0.321203 0.013214 -0.001491 398744.000000 0 0 1
-11.451992 1.585815 32.577652 34.568285 -0.137600 0.341019 -0.001112 0.012080 -318164.000000 0 0 1
-12.814592 1.249715 31.974452 34.469423 -0.097215 0.382812 -0.006751 0.008451 -49078.100000 0 0 1
-13.848292 2.112815 32.435732 35.331514 -0.151401 0.407689 -0.014041 0.015959 753790.000000 0 0 1
-15.090192 1.811215 31.775242 35.223010 -0.119455 0.446148 -0.018676 0.016473 677626.000000 0 0 1
-15.983092 2.998415 31.416062 35.375397 -0.185444 0.477652 -0.012702 0.011155 -381055.000000 0 0 1
-16.726892 3.539515 32.451032 36.679512 -0.208530 0.484907 -0.014107 0.007698 26414.700000 0 0 1
-16.007192 4.588815 33.078870 37.033756 -0.279185 0.466365 -0.004391 0.011328 -45838.100000 0 0 1
-16.744392 5.066615 34.367274 38.563646 -0.293827 0.470850 -0.004832 0.012647 504432.000000 0 0 1
-17.960192 5.754815 34.069624 38.941311 -0.310084 0.505574 -0.010193 0.013025 236522.000000 0 0 1
-18.882392 5.447515 -34.046141 39.311065 -0.280871 2.618083 -0.017115 0.016873 -219377.000000 0 0 1
-20.173892 6.267615 -34.066984 40.085263 -0.301226 2.586522 -0.015630 0.013134 -473080.000000 0 0 1
-20.055492 7.610115 -33.610761 39.872545 -0.362669 2.573549 -0.016286 0.010487 243807.000000 0 0 1
-19.745192 8.544115 34.494394 40.653877 -0.408390 0.557672 -0.008582 0.012109 -223433.000000 0 0 1
-19.761992 9.995815 -34.120170 40.677250 -0.468285 2.565876 -0.003578 0.010061 -608831.000000 0 0 1
-18.875292 10.218715 -33.039841 39.399618 -0.496201 2.565473 -0.004394 0.008721 212603.000000 0 0 1
-18.614692 11.593215 -32.768261 39.429283 -0.557015 2.551815 -0.007273 0.005484 382592.000000 0 0 1
-17.773592 12.383415 -33.840891 40.180287 -0.608529 2.572196 -0.019028 0.002018 -690354.000000 0 0 1
-18.524292 12.560515 34.173422 40.850198 -0.595846 0.579832 -0.005157 0.004882 -300241.000000 0 0 1
-17.785292 12.815515 33.003922 39.620865 -0.624397 0.586300 -0.005904 0.006765 -321504.000000 0 0 1
-18.368892 12.237115 31.671672 38.603860 -0.587670 0.608638 0.014077 -0.002461 -141902.000000 0 0 1
-18.483592 10.821615 31.520592 38.109031 -0.529668 0.596839 0.006994 0.002830 940550.000000 0 0 1
-17.230692 10.169215 31.207792 37.070689 -0.533168 0.570103 0.000996 0.005802 932576.000000 0 0 1
-17.363092 8.649415 31.178082 36.720051 -0.462166 0.556564 0.003726 0.006593 19617.100000 0 0 1
-18.082192 8.186515 30.036372 36.002338 -0.425129 0.583954 0.011062 -0.008234 242646.000000 0 0 1
-18.136292 6.772915 30.146732 35.827684 -0.357407 0.570860 0.006163 -0.002779 -324933.000000 0 0 1
-18.795392 5.891215 29.082822 35.125258 -0.303740 0.595310 0.007051 -0.004413 347108.000000 0 0 1
-20.215792 5.983415 29.092572 35.928502 -0.287762 0.627096 0.020632 -0.009240 416760.000000 0 0 1
-20.840692 4.969715 28.298962 35.494560 -0.234090 0.648027 0.013633 -0.009257 54746.900000 0 0 1
-22.365592 5.123015 28.134232 36.304270 -0.225173 0.684150 0.011824 0.002315 -191951.000000 0 0 1
-22.746592 6.109215 27.270002 36.033082 -0.262385 0.712386 0.003512 0.001546 251952.000000 0 0 1
-24.153492 6.269315 27.167392 36.888517 -0.253957 0.742955 0.003333 -0.000083 36339.500000 0 0 1
-24.511792 6.999815 25.829132 36.290073 -0.278166 0.778823 0.003362 -0.003461 -257056.000000 0 0 1
-24.472392 6.250015 24.610542 35.265272 -0.250046 0.798378 -0.009158 -0.000946 -308590.000000 0 0 1
-25.558422 5.416715 24.444852 35.778828 -0.208844 0.818631 -0.006603 0.007001 -948564.000000 0 0 1
-25.774892 4.836515 22.996982 34.879767 -0.185487 0.850880 -0.015710 0.017434 -153593.000000 0 0 1
-26.358012 5.744015 22.098982 34.872676 -0.214568 0.884463 -0.018809 0.017541 -109326.000000 0 0 1
-26.451272 5.182215 20.838282 34.069915 -0.193465 0.912673 -0.008256 0.028667 -328052.000000 0 0 1
-27.297952 5.943415 19.799882 34.242338 -0.214378 0.954241 0.000310 0.015831 -163005.000000 0 0 1
-28.672452 5.744615 20.071782 35.468106 -0.197735 0.969259 0.013337 0.012743 -489377.000000 0 0 1
-29.410772 6.436615 19.134182 35.672685 -0.215455 1.004652 0.020471 0.020706 -973248.000000 0 0 1
-30.899662 6.496315 19.437982 37.078651 -0.207221 1.018978 0.017958 0.022937 -642702.000000 0 0 1
-31.183322 7.340715 20.542382 38.056210 -0.231196 1.000608 0.017791 -0.005133 126112.000000 0 0 1
-32.550072 7.270515 20.892182 39.355442 -0.219757 1.011183 0.018772 -0.001598 113805.000000 0 0 1
-32.912702 8.286015 22.015182 40.454570 -0.246632 0.995367 0.032291 -0.005568 -374564.000000 0 0 1
-32.115722 8.172615 23.157582 40.428762 -0.249185 0.960879 0.027519 -0.007230 50857.600000 0 0 1
-32.506342 9.093315 24.123612 41.488544 -0.272767 0.950284 0.042025 0.002636 -63957.300000 0 0 1
-0.126192 33.237615 11.973099 35.328601 -1.567000 1.225042 -0.000551 -0.002841 360044.000000 0 0 1
-0.993092 33.631215 13.081699 36.099525 -1.541276 1.199978 -0.013891 0.004244 515750.000000 0 0 1
-0.561292 -34.457255 13.719499 37.092345 1.554508 1.191923 -0.017909 0.005645 -250924.000000 0 0 1
-0.270192 -34.565955 15.244999 37.779468 1.562980 1.155429 -0.032805 0.013140 -345032.000000 0 0 1
-1.353892 -34.617455 16.139199 38.218777 1.531706 1.134832 -0.030153 0.010995 -386717.000000 0 0 1
-1.003892 34.485015 17.517999 38.692433 -1.541694 1.100949 -0.029992 0.007035 -291334.000000 0 0 1
-2.179892 -34.516855 18.444999 39.196724 1.507726 1.080854 -0.029112 0.015174 -845301.000000 0 0 1
-3.212992 33.835515 18.322599 38.611955 -1.476121 1.076364 -0.037428 0.017851 -693282.000000 0 0 1
-4.072992 33.864415 19.447199 39.262978 -1.451098 1.052609 -0.032775 0.010313 -717535.000000 0 0 1
-5.261692 32.974815 19.205299 38.520999 -1.412563 1.048851 -0.031462 0.011658 -427545.000000 0 0 1
-6.247192 33.515115 18.313399 38.699754 -1.386512 1.077857 -0.015821 0.003553 262693.000000 0 0 1
-7.138492 32.504915 17.925199 37.800004 -1.354615 1.076728 -0.001677 0.004156 -338489.000000 0 0 1
-8.207592 32.977815 16.909399 37.958248 -1.326870 1.109093 0.008921 -0.007596 17.446900 0 0 1
-9.207092 33.809215 17.471599 39.154697 -1.304919 1.108260 0.022016 -0.008336 -271398.000000 0 0 1
-10.037792 34.297915 16.465499 39.347387 -1.286083 1.139042 0.026187 -0.010576 491255.000000 0 0 1
-11.294192 -34.111055 16.838899 39.682128 1.251057 1.132558 0.030637 -0.011955 295407.000000 0 0 1
-12.309692 34.425815 17.464199 40.517447 -1.227392 1.125163 0.025812 -0.013073 -755050.000000 0 0 1
-13.493592 -34.103455 17.284799 40.544875 1.194031 1.130384 0.020414 -0.013557 159222.000000 0 0 1
-14.577992 -34.474055 18.344999 41.683537 1.170732 1.115084 0.025871 -0.006644 283065.000000 0 0 1
-14.355392 -33.901455 19.602599 41.709085 1.170244 1.081524 0.029420 -0.007603 180765.000000 0 0 1
-15.355792 -34.376455 20.497199 42.868125 1.150694 1.072254 0.032081 -0.006171 204488.000000 0 0 1
-15.053792 -33.741555 21.915099 42.957895 1.151149 1.035434 0.026654 -0.010675 195869.000000 0 0 1
-15.423392 -32.356455 22.041999 42.079340 1.125985 1.019467 0.027215 -0.004718 -95586.300000 0 0 1
-15.104492 -31.849655 23.289399 42.248577 1.127965 0.986938 0.041546 -0.008189 168903.000000 0 0 1
-15.026192 -30.340755 23.511599 41.220664 1.110958 0.963823 0.046896 -0.009325 -42938.300000 0 0 1
-14.763392 -29.948655 24.834099 41.612644 1.112799 0.931299 0.057871 -0.023041 -333670.000000 0 0 1
-14.761492 -28.500855 25.038999 40.708130 1.092907 0.908301 0.053682 -0.010158 560476.000000 0 0 1
-16.112192 -27.770355 24.701199 40.508574 1.045067 0.915017 0.048563 0.000241 130103.000000 0 0 1
-17.137192 -27.892555 25.626199 41.573790 1.019856 0.906630 0.051336 -0.004497 252422.000000 0 0 1
-18.224892 -26.998455 25.260699 41.220943 0.977023 0.911182 0.039589 0.002581 -314787.000000 0 0 1
-19.317992 -26.971955 26.320299 42.348899 0.949264 0.900127 0.025253 0.005776 -572691.000000 0 0 1
-20.116592 -28.113155 26.527299 43.574354 0.949705 0.916271 0.009695 0.003980 262828.000000 0 0 1
-20.865192 -28.605755 25.408299 43.580122 0.940607 0.948349 0.004593 0.004886 -440540.000000 0 0 1
-22.146792 -27.873355 24.949399 43.472713 0.899387 0.959525 0.004666 0.010012 -397430.000000 0 0 1
-21.961192 -26.496855 24.570999 42.286064 0.878726 0.950758 0.007539 0.006677 -48641.600000 0 0 1
-22.942092 -26.142255 23.626399 42.047161 0.850503 0.974113 -0.007305 0.010468 -406617.000000 0 0 1
-23.207292 -24.612055 23.567599 41.228186 0.814766 0.962295 0.000530 0.022586 -42074.400000 0 0 1
-23.738992 -24.155255 24.830899 41.995114 0.794089 0.938150 0.003114 0.017643 374467.000000 0 0 1
-24.129592 -22.782655 24.868299 41.469493 0.756694 0.927699 -0.003017 0.015248 101848.000000 0 0 1
-24.620792 -22.245655 26.224299 42.293810 0.734763 0.901989 0.003976 0.013267 153644.000000 0 0 1
-25.968252 -22.492655 26.577999 43.435695 0.713801 0.912345 0.000347 0.013010 407255.000000 0 0 1
-26.441932 -21.753155 27.708099 44.046728 0.688416 0.890451 0.013212 0.005543 -731072.000000 0 0 1
-27.699292 -22.341155 28.355999 45.502095 0.678728 0.897994 0.012310 -0.000427 890165.000000 0 0 1
-29.013812 -22.078555 27.808899 45.854102 0.650483 0.919189 0.021585 -0.002215 1314470.000000 0 0 1
-29.261302 -22.474955 26.494099 45.423393 0.654971 0.948048 0.011149 0.003019 -1167400.000000 0 0 1
-30.701672 -22.992155 26.428099 46.579783 0.642790 0.967485 0.000081 0.004145 -461335.000000 0 0 1
-31.065912 -23.616155 25.212999 46.459756 0.649994 0.997166 -0.014924 0.003159 51719.900000 0 0 1
-30.628892 -24.961055 25.123599 46.822841 0.683791 1.004433 -0.021646 0.004140 -386685.000000 0 0 1
-30.961922 -25.566555 23.793799 46.673699 0.690241 1.035855 -0.025918 0.014565 837241.000000 0 0 1
-32.386372 -25.627655 23.586899 47.560441 0.669420 1.051885 -0.013744 0.010983 781062.000000 0 0 1
-32.568662 -26.170955 22.275499 47.348014 0.676909 1.080981 -0.013724 0.015883 -172863.000000 0 0 1
-33.893862 -26.931255 22.107199 48.608791 0.671425 1.098651 -0.000366 0.005591 -274496.000000 0 0 1
-34.063842 -28.130855 22.920199 49.769728 0.690292 1.092210 0.006331 0.006520 197495.000000 0 0 1
-33.168002 -29.186355 22.595899 49.623928 0.721630 1.098039 -0.009296 0.002680 -236383.000000 0 0 1
-33.697762 -30.190055 21.546199 50.112047 0.730549 1.126347 0.008929 0.003785 -182363.000000 0 0 1
-33.674042 -29.700755 20.211799 49.240153 0.722785 1.147823 -0.000576 0.002370 259839.000000 0 0 1
-34.055862 -30.766055 19.373499 49.816506 0.734690 1.171362 -0.008037 0.013987 -514709.000000 0 0 1
-34.210137 -30.350955 17.946699 49.128382 0.725694 1.196839 -0.000741 0.017533 -462707.000000 0 0 1
-33.054142 -30.196555 17.136899 47.938309 0.740250 1.205230 0.009017 0.008860 100490.000000 0 0 1
-33.289752 -29.671055 15.833399 47.320984 0.727986 1.229620 0.010464 0.015332 -2962.920000 0 0 1
-34.133729 -30.497055 14.845399 48.120345 0.729189 1.257175 0.015698 0.020145 196488.000000 0 0 1
-33.356542 -31.561455 14.334899 48.106898 0.757754 1.268220 0.018377 0.006519 116250.000000 0 0 1
-33.886782 -32.159355 13.150999 48.533358 0.759249 1.296398 0.026704 0.010066 71087.500000 0 0 1
-34.010512 -31.387955 11.800699 47.761649 0.745318 1.321136 0.028203 0.009761 -304210.000000 0 0 1
-35.069523 -30.487355 11.802299 47.944181 0.715616 1.322072 0.028688 0.011481 -323943.000000 0 0 1
-34.994929 -29.517755 10.752799 47.027285 0.700701 1.340105 0.021622 0.009883 -234123.000000 0 0 1
33.929499 -28.721255 10.519699 45.681347 -0.702457 1.338426 0.039014 0.009834 -186877.000000 0 0 1
34.166200 -27.605355 9.713099 44.985877 -0.679583 1.353168 0.045664 -0.029875 -567112.000000 0 0 1
33.057309 -26.827055 9.452699 43.609977 -0.681733 1.352307 0.045230 -0.025255 -779316.000000 0 0 1
33.235019 -25.848055 8.226499 42.899460 -0.661017 1.377839 0.040850 -0.024589 549226.000000 0 0 1
34.106939 -24.732155 8.540799 42.987301 -0.627397 1.370783 0.055617 -0.034184 495176.000000 0 0 1
34.422402 -24.002055 7.353299 42.603655 -0.608898 1.397330 0.050322 -0.033789 9527.630000 0 0 1
34.937024 -22.580655 7.637199 42.294307 -0.573787 1.389228 0.061021 -0.038699 -42527.700000 0 0 1
33.913489 -21.738055 8.190399 41.106574 -0.570012 1.370206 0.051616 -0.037646 33782.300000 0 0 1
34.139059 -20.380655 8.047999 40.566202 -0.538203 1.371080 0.053163 -0.023324 -193501.000000 0 0 1
33.317079 -19.513855 9.039599 39.655172 -0.529839 1.340819 0.062361 -0.015288 -106580.000000 0 0 1
33.792279 -19.443555 10.353599 40.338158 -0.522123 1.311221 0.055267 -0.029140 -636406.000000 0 0 1
32.904999 -18.864355 11.253599 39.563194 -0.520554 1.282368 0.052435 -0.014918 -277854.000000 0 0 1
33.376759 -18.936455 12.762799 40.441147 -0.516070 1.249719 0.043606 -0.028527 -93295.500000 0 0 1
34.491325 -18.124555 13.024399 41.082672 -0.483824 1.248201 -0.001601 -0.005562 -98132.300000 0 0 1
34.869537 -18.393555 14.368399 41.960200 -0.485402 1.221295 0.013924 -0.000718 122561.000000 0 0 1
-34.078100 -17.603855 14.779299 41.105234 0.476819 1.203013 0.021640 -0.003678 749456.000000 0 0 1
-32.835422 -18.093555 14.260999 40.111317 0.503640 1.207309 0.019827 -0.003732 829606.000000 0 0 1
-31.740172 -17.343555 14.805599 39.082517 0.500093 1.182265 0.009416 -0.001113 408930.000000 0 0 1
-30.488772 -17.472455 13.914799 37.795152 0.520389 1.193763 0.018949 -0.001492 -279114.000000 0 0 1
-29.903892 -18.742755 13.851499 37.913027 0.559869 1.196788 0.002549 0.006858 -320015.000000 0 0 1
-28.816492 -18.736055 12.973499 36.738830 0.576505 1.209884 -0.039446 0.021896 -126380.000000 0 0 1
-28.130872 -20.155155 12.899799 36.932113 0.621700 1.213989 -0.053353 0.021278 -2307.610000 0 0 1
-28.684372 -21.107355 11.981399 37.574825 0.634383 1.246262 -0.043165 0.020844 8548.360000 0 0 1
-27.679692 -21.858355 11.293399 37.033685 0.668422 1.260911 -0.049938 0.024043 97990.600000 0 0 1
-28.201932 -22.677155 10.023799 37.551016 0.677236 1.300582 -0.024708 0.014994 541820.000000 0 0 1
-28.979902 -23.843455 10.238999 38.899642 0.688465 1.304442 -0.014756 0.006080 372992.000000 0 0 1
-30.334552 -23.671155 10.627999 39.918203 0.662635 1.301302 0.002000 -0.001751 172959.000000 0 0 1
-31.186892 -24.947655 10.772699 41.364946 0.674705 1.307328 0.020941 -0.011628 50175.900000 0 0 1
-31.267132 -25.651455 9.566899 41.559069 0.687055 1.338513 0.032451 -0.006099 -275453.000000 0 0 1
-32.086192 -26.751955 9.804799 42.910661 0.694986 1.340267 0.038415 -0.005970 -59993.800000 0 0 1
-32.283582 -27.683955 8.585099 43.385884 0.708846 1.371604 0.038886 -0.004575 -860979.000000 0 0 1
-31.108902 -28.185255 8.105699 42.753651 0.736131 1.380051 0.028423 -0.004987 -1237890.000000 0 0 1
-31.335122 -28.807855 6.837799 43.110762 0.743402 1.411514 0.024519 0.000999 -158270.000000 0 0 1
-30.093182 -29.153055 6.008099 42.327266 0.769531 1.428371 0.029507 0.001791 -205272.000000 0 0 1
-29.536372 -28.003655 5.433499 41.062450 0.758767 1.438084 0.023699 0.007331 -901313.000000 0 0 1
-28.334892 -28.216355 4.788999 40.273605 0.783302 1.451603 0.020062 -0.001541 -586597.000000 0 0 1
-27.721342 -26.956555 4.118899 38.885652 0.771412 1.464674 0.005455 0.003520 187470.000000 0 0 1
-28.303872 -26.520155 2.900299 38.895237 0.752874 1.496160 0.021122 0.005451 251294.000000 0 0 1
-27.477522 -25.476155 2.363899 37.545128 0.747621 1.507793 0.015706 0.001507 -53760.400000 0 0 1
-27.932372 -24.872755 1.006399 37.415026 0.727521 1.543895 0.024980 -0.001562 -292988.000000 0 0 1
-27.571342 -25.664855 -0.098901 37.667936 0.749602 1.573422 0.023883 -0.006218 -88613.100000 0 0 1
-27.761142 -25.132555 -1.444301 37.475489 0.735743 1.609346 0.020398 -0.011587 175713.000000 0 0 1
-29.238762 -25.042855 -1.907401 38.544622 0.708253 1.620302 0.045046 -0.014433 259553.000000 0 0 1
-29.947032 -23.913855 -1.430401 38.350270 0.673849 1.608103 0.043181 -0.010583 -112022.000000 0 0 1
-31.223042 -23.837455 -2.017801 39.334134 0.652058 1.622118 0.058094 -0.015706 -2627.890000 0 0 1
-32.058782 -22.546255 -1.875701 39.237958 0.612923 1.618618 0.052549 -0.016311 20580.500000 0 0 1
-32.234382 -22.198155 -0.534101 39.142032 0.603067 1.584442 0.057995 -0.020275 113368.000000 0 0 1
-33.004222 -21.026955 -0.518401 39.136686 0.567252 1.584043 0.050058 -0.017058 -247081.000000 0 0 1
-33.088312 -20.546755 0.944699 38.960210 0.555694 1.546546 0.049412 -0.021549 -318534.000000 0 0 1
-33.811532 -21.437155 1.792299 40.074725 0.565059 1.526057 0.055299 -0.025123 278573.000000 0 0 1
-33.838012 -20.987355 3.139999 39.941703 0.555162 1.492101 0.044025 -0.026554 -453067.000000 0 0 1
-34.996419 -21.762755 3.824499 41.388327 0.556336 1.478259 0.070477 -0.011117 909425.000000 0 0 1
33.911679 -21.640455 3.294699 40.362932 -0.567994 1.489079 0.047192 -0.016252 403217.000000 0 0 1
33.263789 -20.404255 3.588399 39.187879 -0.550220 1.479099 0.040807 -0.027388 -360027.000000 0 0 1
32.029429 -20.241455 2.654299 37.982182 -0.563592 1.500857 0.025450 -0.011077 966835.000000 0 0 1
30.962699 -21.180355 2.904399 37.626210 -0.599948 1.493529 0.024386 -0.005036 -892579.000000 0 0 1
29.776569 -20.780955 2.361099 36.387731 -0.609313 1.505863 0.001708 -0.008045 -756621.000000 0 0 1
28.641179 -21.756655 2.820299 36.078016 -0.649635 1.492544 -0.014715 0.013891 -143520.000000 0 0 1
28.524839 -23.048055 2.234899 36.740632 -0.679600 1.509930 -0.026658 0.002534 505453.000000 0 0 1
27.355489 -23.775455 2.668599 36.341663 -0.715495 1.497299 -0.034700 0.012632 565120.000000 0 0 1
27.032099 -24.851755 1.659799 36.757299 -0.743399 1.525625 -0.033885 0.010317 -62807.100000 0 0 1
26.712649 -24.356755 0.360699 36.151725 -0.739300 1.560819 -0.038787 0.003641 73204.800000 0 0 1
25.933649 -25.343355 -0.275801 36.261768 -0.773887 1.578402 -0.039983 0.002995 -299451.000000 0 0 1
25.216279 -24.855655 -1.539501 35.440575 -0.778196 1.614249 -0.034195 0.001505 -125277.000000 0 0 1
26.019619 -24.668855 -2.692501 35.955841 -0.758756 1.645750 -0.035771 -0.003044 188534.000000 0 0 1
26.490949 -25.757155 -3.451201 37.109462 -0.771355 1.663931 -0.029359 -0.000257 -303550.000000 0 0 1
25.411889 -26.233955 -4.457201 36.794716 -0.801314 1.692232 -0.021882 -0.004469 198695.000000 0 0 1
25.132719 -25.365555 -5.560101 36.138341 -0.790009 1.725266 -0.005528 -0.017094 600594.000000 0 0 1
24.202419 -24.331755 -5.206601 34.711671 -0.788063 1.721360 0.000557 -0.013076 -289133.000000 0 0 1
23.951819 -23.390255 -6.397801 34.084095 -0.773537 1.759623 0.025143 -0.019324 -417927.000000 0 0 1
23.184019 -23.963155 -7.438101 34.162214 -0.801922 1.790283 0.035352 -0.014944 438403.000000 0 0 1
22.068019 -23.145755 -7.796501 32.916696 -0.809230 1.809924 0.026755 -0.017768 242646.000000 0 0 1
22.356119 -21.830155 -8.643001 32.419950 -0.773495 1.840655 0.029861 -0.021830 -660506.000000 0 0 1
22.751819 -21.984555 -9.992301 33.178487 -0.768249 1.876714 0.033492 -0.026417 172336.000000 0 0 1
22.558119 -20.736555 -10.695801 32.454177 -0.743349 1.906640 0.029383 -0.019280 -355745.000000 0 0 1
23.077119 -20.654255 -12.069501 33.238901 -0.730051 1.942404 0.028028 -0.015842 22832.600000 0 0 1
24.441619 -20.283255 -12.201201 34.024586 -0.692688 1.937564 0.042427 -0.013614 208207.000000 0 0 1
24.829219 -20.298455 -13.534101 34.809327 -0.685335 1.970132 0.034377 -0.008497 -231944.000000 0 0 1
26.356669 -20.213055 -13.803901 35.969282 -0.654233 1.964671 0.037804 -0.020666 203786.000000 0 0 1
26.961179 -21.467655 -13.777001 37.115645 -0.672446 1.951088 0.022026 -0.014036 13676.100000 0 0 1
27.420079 -21.922655 -12.531301 37.275958 -0.674443 1.913650 0.026189 -0.028283 -489833.000000 0 0 1
27.851839 -23.390255 -12.528101 38.467938 -0.698548 1.902523 0.014829 -0.001428 -859948.000000 0 0 1
28.973029 -23.741755 -13.247501 39.731645 -0.686485 1.910730 0.015666 -0.011725 -451663.000000 0 0 1
29.133709 -25.175255 -13.210001 40.707132 -0.712639 1.901293 0.018203 -0.002408 -106489.000000 0 0 1
-4.375792 -9.019485 -27.569351 29.335436 1.119100 2.792832 0.016095 0.010327 27619.600000 0 0 1
-4.452092 -7.801285 -26.899591 28.359640 1.052209 2.819316 0.001987 0.014099 -34891.300000 0 0 1
-5.037592 -6.830785 -27.669231 28.941723 0.935354 2.843957 -0.011889 0.009225 -457753.000000 0 0 1
-4.911492 -5.453685 -26.930391 27.912567 0.837660 2.875525 -0.018299 0.007007 144628.000000 0 0 1
-5.644292 -5.376885 -25.696531 26.852945 0.761140 2.847051 -0.008868 0.013466 557008.000000 0 0 1
-5.259192 -4.232285 -24.997301 25.892787 0.677625 2.877829 -0.003411 0.002660 66350.100000 0 0 1
-5.778492 -4.183485 -23.529901 24.587573 0.626636 2.847217 -0.006549 -0.004291 -261804.000000 0 1 0
-5.126992 -5.132285 -22.713301 23.843667 0.785914 2.832443 -0.004495 -0.006307 394455.000000 0 1 0
-5.526092 -5.092685 -21.361201 22.644515 0.744606 2.803316 -0.006547 -0.007195 -393022.000000 0 1 0
-4.836792 -6.172885 -20.497201 21.946169 0.906164 2.776180 -0.000630 -0.012084 -533475.000000 0 1 0
-5.376392 -7.469985 -20.663401 22.620398 0.946949 2.722566 -0.008898 -0.005634 720360.000000 0 1 0
-4.581792 -8.455585 -19.984301 22.177963 1.074220 2.693069 0.002886 -0.010813 -282175.000000 0 1 0
-5.365792 -9.819485 -19.870401 22.804536 1.070688 2.628714 0.011051 -0.011217 767981.000000 0 1 0
-6.476492 -9.883585 -18.967801 22.347431 0.990720 2.584449 0.014495 -0.011457 357587.000000 0 1 0
-7.648992 -9.250885 -19.388501 22.803507 0.879903 2.587241 0.000695 0.000417 -768945.000000 0 1 0
-8.870392 -9.389485 -18.448401 22.520874 0.813819 2.530757 0.001738 0.007532 -276860.000000 0 1 0
-9.502892 -10.648985 -18.524501 23.385101 0.842210 2.485120 0.034236 0.006224 -338142.000000 0 1 0
-10.310892 -10.810185 -17.409401 22.940397 0.809033 2.432414 0.033102 0.001846 -543367.000000 0 1 0
-11.044792 -12.147385 -17.522101 24.011881 0.832904 2.388718 0.020951 0.008751 990040.000000 0 1 0
-12.112692 -12.289785 -18.552601 25.336833 0.792655 2.392399 0.022904 0.004342 1155700.000000 0 0 1
-11.669892 -12.315985 -19.868801 26.127363 0.812328 2.434817 0.014886 0.004031 -1455470.000000 0 0 1
-12.866292 -12.180785 -20.807601 27.328909 0.758036 2.436231 0.008893 -0.003294 437337.000000 0 0 1
-13.852992 -13.230485 -20.905601 28.354810 0.762417 2.399840 0.004164 0.009136 484304.000000 0 0 1
-14.562692 -13.415985 -19.695601 27.928074 0.744436 2.353538 0.004965 0.008666 -1821150.000000 0 0 1
-15.746792 -14.345285 -19.790501 29.075979 0.738858 2.319443 -0.001688 0.010354 -444065.000000 0 0 1
-15.377392 -15.718385 -19.836801 29.614700 0.796364 2.304776 0.000340 0.003341 -136261.000000 0 0 1
-15.929292 -16.220185 -20.998001 30.947581 0.794446 2.316518 0.006293 -0.002914 -105010.000000 0 0 1
-15.383192 -17.614685 -21.346101 31.663476 0.852921 2.310617 0.013541 -0.009546 -199014.000000 0 0 1
-15.676892 -18.630985 -20.395201 31.762285 0.871292 2.268057 0.022513 -0.007805 -176932.000000 0 0 1
-15.340592 -19.906785 -20.831101 32.642742 0.914228 2.262895 0.021651 -0.006669 -410827.000000 0 0 1
-16.003892 -21.145585 -20.196301 33.333930 0.922930 2.221666 0.025962 -0.010905 -178590.000000 0 0 1
-15.451892 -22.354685 -20.648001 34.129648 0.965991 2.220546 0.023007 -0.006238 -266671.000000 0 0 1
-16.231392 -23.414185 -20.237801 34.946398 0.964629 2.188433 0.045597 -0.002595 -414167.000000 0 0 1
-15.682192 -24.764085 -20.674101 35.869339 1.006277 2.185079 0.045183 0.005931 -38699.700000 0 0 1
-15.645292 -24.976085 -22.084301 36.827929 1.011183 2.213875 0.044304 0.002686 268437.000000 0 0 1
-15.141192 -26.308855 -22.331401 37.684254 1.048574 2.205070 0.047231 0.010280 -27791.100000 0 0 1
-15.379792 -26.706945 -23.821701 38.952180 1.048307 2.228831 0.053540 0.010459 249692.000000 0 0 1
-16.534092 -27.485245 -24.143601 40.146337 1.029229 2.216036 0.062961 0.012449 266319.000000 0 0 1
-16.372392 -28.847095 -23.991301 40.936446 1.054573 2.196987 0.068417 0.021818 -213020.000000 0 0 1
-17.398892 -29.629175 -24.842301 42.399874 1.039826 2.196793 0.065591 0.013920 88592.400000 0 0 1
-17.134492 -29.649655 -26.296851 43.176582 1.046786 2.225663 0.063851 0.015898 68302.900000 0 0 1
-17.390992 -28.423545 -27.016781 42.898146 1.021708 2.252078 0.087834 0.007940 -298781.000000 0 0 1
-16.237992 -27.881115 -27.859401 42.628338 1.043418 2.283051 0.089858 -0.000528 -744202.000000 0 0 1
-16.073792 -28.595725 -29.056631 43.822027 1.058707 2.295695 0.091008 0.004340 311235.000000 0 0 1
-15.034892 -28.103795 -29.897281 43.700328 1.079560 2.324225 0.063546 0.010802 71592.300000 0 0 1
-15.374992 -28.213675 -31.408411 44.932061 1.071840 2.344823 0.058927 0.002865 15600.800000 0 0 1
-15.238692 -29.498265 -31.957441 46.083005 1.093960 2.337098 0.043905 0.005671 295928.000000 0 0 1
-16.018392 -29.737095 -33.132111 47.314062 1.076696 2.346557 0.051874 0.007040 144319.000000 0 0 1
-15.993592 -31.177155 -33.586311 48.537102 1.096810 2.335013 0.036327 0.009383 44445.100000 0 0 1
-14.943592 -31.573415 -34.474444 49.078292 1.128739 2.349613 0.042902 0.009715 144106.000000 0 0 1
-15.081592 -32.877945 34.114178 49.721131 1.140719 0.814668 0.026408 0.015436 -669133.000000 0 0 1
-13.885292 -33.351565 33.323595 49.148654 1.176291 0.825736 0.025606 0.007362 -131183.000000 0 0 1
-12.726792 -33.727825 34.049753 49.587529 1.209977 0.813912 0.025165 0.017182 252124.000000 0 0 1
-11.934392 34.596287 33.345628 49.510238 -1.238617 0.831850 0.017903 0.011195 191554.000000 0 0 1
-11.081492 33.689302 34.299865 49.338112 -1.253012 0.802098 0.034636 0.006158 431638.000000 0 0 1
-10.187192 34.469038 -34.036241 49.501103 -1.283431 2.328955 0.031581 0.006271 62943.500000 0 0 1
-9.470392 33.604021 -33.192481 48.173222 -1.296098 2.330937 0.027709 0.003633 686740.000000 0 0 1
-8.462292 34.356528 -32.238571 47.867597 -1.329295 2.309723 0.022383 0.006174 584558.000000 0 0 1
-9.247392 -34.359950 -31.219511 47.336860 1.307893 2.290974 0.024133 0.014472 27368.700000 0 0 1
-8.692892 -33.163875 -30.692931 46.015921 1.314444 2.300980 0.002692 0.019879 33187.800000 0 0 1
-9.628192 -32.419275 -29.672671 44.990875 1.282104 2.290985 0.015497 0.024821 391610.000000 0 0 1
-9.816692 -32.930015 -28.353111 44.549436 1.281076 2.260672 0.024533 0.026613 -41418.900000 0 0 1
-10.230692 -34.288051 -28.258261 45.594592 1.280831 2.239249 0.043110 0.016381 34568.200000 0 0 1
-10.793292 -34.616968 -26.837071 45.111617 1.268557 2.207942 0.039733 0.007468 758592.000000 0 0 1
-9.702392 -34.625616 -25.907811 44.320248 1.297594 2.195133 0.029426 0.015961 208540.000000 0 0 1
-10.148192 34.474796 -24.608701 43.555545 -1.284517 2.171225 0.033143 0.003848 -159043.000000 0 0 1
-9.063792 34.298801 -23.534601 42.572732 -1.312442 2.156528 0.042847 0.008803 36068.900000 0 0 1
-8.247492 33.137815 -23.682101 41.556922 -1.326868 2.177146 0.026978 0.000456 186627.000000 0 0 1
-7.432092 33.062535 -22.502001 40.678093 -1.349683 2.156964 0.039757 0.003242 512599.000000 0 0 1
-6.440092 31.819225 -22.528001 39.515170 -1.371098 2.177436 0.025544 -0.005619 256497.000000 0 0 1
-5.332092 32.024065 -23.375901 40.005058 -1.405807 2.194843 0.010751 -0.014083 -494404.000000 0 0 1
-4.494792 30.891515 -23.283501 38.943681 -1.426308 2.211645 0.002138 -0.007864 -2644.850000 0 0 1
-3.012992 31.309495 -23.524201 39.277864 -1.474859 2.212945 -0.002334 -0.008410 42014.400000 0 0 1
-2.542792 31.491395 -24.847501 40.194179 -1.490226 2.237230 -0.011933 -0.004533 -186046.000000 0 0 1
-3.285992 32.321865 -25.672481 41.407451 -1.469480 2.239535 -0.006773 -0.007095 -956892.000000 0 0 1
-2.492192 32.625525 -26.935171 42.380884 -1.494557 2.259517 -0.022706 0.005599 -720976.000000 0 0 1
-1.450692 33.521061 -26.846011 42.970622 -1.527546 2.245611 -0.024471 0.000935 -480668.000000 0 0 1
-1.936492 -34.428368 -26.819661 43.684743 1.514609 2.231834 -0.022672 0.007397 -188542.000000 0 0 1
-0.799092 -33.488355 -27.231041 43.169874 1.546939 2.253365 -0.055548 0.017111 342410.000000 0 0 1
0.258908 -33.224275 -26.304211 42.377246 -1.563004 2.240451 -0.032477 0.012896 324625.000000 0 0 1
1.026908 -32.121395 -26.727971 41.799797 -1.538838 2.264551 -0.042627 0.015526 -228878.000000 0 0 1
2.216608 -31.749505 -25.818151 40.981964 -1.501094 2.252334 -0.029122 0.009144 -145906.000000 0 0 1
1.850108 -31.272575 -24.532201 39.789769 -1.511704 2.235144 -0.023856 0.009499 -26832.500000 0 0 1
2.911508 -30.480935 -24.060701 38.942029 -1.475566 2.236814 -0.030839 0.019839 -200912.000000 0 0 1
2.810308 -29.999045 -22.590701 37.658735 -1.477389 2.214147 -0.022621 0.023978 -187483.000000 0 0 1
2.788108 -31.003175 -21.563801 37.867769 -1.481108 2.176633 -0.014907 0.023058 292566.000000 0 0 1
2.967308 -30.403195 -20.283601 36.668565 -1.473506 2.156950 -0.002647 0.017114 -693257.000000 0 0 1
2.820608 -31.394435 -19.108301 36.860460 -1.481193 2.115770 0.006432 0.015291 -165508.000000 0 0 1
1.548408 -32.028075 -19.052801 37.298852 -1.522489 2.106928 0.018714 0.000649 347834.000000 0 0 1
1.571708 -33.399695 -19.486001 38.700312 -1.523773 2.098453 0.016867 0.009965 -538515.000000 0 0 1
2.266408 -34.496752 -18.683901 39.296955 -1.505191 2.066277 0.009287 0.000058 696739.000000 0 0 1
3.691108 -34.525810 -18.864101 39.515948 -1.464292 2.068466 0.004756 0.004483 969953.000000 0 0 1
4.252408 33.645682 -18.055301 38.420161 1.445075 2.060023 0.018988 -0.008761 30903.100000 0 0 1
5.393708 32.869995 -18.700801 38.200113 1.408154 2.082368 0.024878 -0.001709 -432233.000000 0 0 1
6.539908 33.664749 -18.867901 39.141837 1.378920 2.073777 0.053534 -0.002765 -773115.000000 0 0 1
7.462908 32.992485 -19.667801 39.128269 1.348340 2.097457 0.027659 -0.001470 99707.700000 0 0 1
8.796208 33.768754 -19.919201 40.180550 1.315975 2.089486 0.005747 -0.001244 6382.600000 0 0 1
9.570908 33.742010 -18.768501 39.779167 1.294407 2.062147 -0.004776 0.005109 -514722.000000 0 0 1
10.706108 34.566235 -18.874401 40.812846 1.270439 2.051567 -0.005876 0.018218 -91355.600000 0 0 1
11.416908 -34.584966 -17.516101 40.413852 -1.251948 2.019079 -0.017680 0.021073 -38659.400000 0 0 1
12.153608 33.497964 -17.165601 39.553529 1.222750 2.019707 -0.011879 0.012479 191590.000000 0 0 1
12.849708 33.753200 -15.949801 39.481510 1.207041 1.986662 -0.021294 0.004493 242684.000000 0 0 1
14.070708 32.869725 -15.570101 38.997842 1.166324 1.981501 -0.014754 0.012578 259689.000000 0 0 1
13.764608 31.704085 -14.868701 37.625679 1.161194 1.977054 -0.000603 0.008521 -167518.000000 0 0 1
14.674408 30.662215 -15.218001 37.243754 1.124429 1.991722 -0.002876 0.003553 204281.000000 0 0 1
14.399408 29.336715 -14.513301 35.757820 1.114510 1.988735 -0.001053 0.005070 -434534.000000 0 0 1
14.793508 29.460015 -13.201401 35.510806 1.105426 1.951698 0.016251 -0.002530 -426866.000000 0 0 1
13.700208 29.671675 -12.361701 34.941603 1.138233 1.932408 0.013654 -0.002454 -142943.000000 0 0 1
13.058508 28.361875 -11.823701 33.387430 1.139307 1.932787 0.006674 0.005394 -532867.000000 0 0 1
12.375108 27.666625 -12.829001 32.911528 1.150195 1.971214 0.009229 0.001357 -315021.000000 0 0 1
12.050808 26.305505 -12.544701 31.536821 1.141219 1.979892 0.030098 -0.005663 513524.000000 0 0 1
11.069808 26.055845 -11.337801 30.495794 1.169053 1.951725 0.035987 -0.005409 -144281.000000 0 0 1
9.793008 26.616705 -11.487101 30.599109 1.218241 1.955632 0.024364 0.002126 -60418.600000 0 0 1
9.166008 26.854065 -10.222501 30.160505 1.241869 1.916583 0.008665 0.010794 179160.000000 0 0 1
7.844108 27.623425 -10.304201 30.508363 1.294114 1.915322 0.012784 0.009804 -161213.000000 0 0 1
8.198808 28.963095 -10.523301 31.887634 1.294936 1.907113 0.014391 0.006555 -24323.800000 0 0 1
7.155908 29.915455 -10.462801 32.490178 1.336004 1.898669 0.003686 0.002452 -258037.000000 0 0 1
7.664408 31.325185 -10.764101 33.998180 1.330838 1.892948 0.034445 -0.012834 -326729.000000 0 0 1
8.529808 31.828305 -9.753201 34.364568 1.308955 1.858567 0.027585 -0.007387 -303549.000000 0 0 1
9.024408 33.126035 -10.008101 35.762218 1.304824 1.854435 0.032762 -0.011740 -470140.000000 0 0 1
10.037908 33.254685 -11.152101 36.482914 1.277644 1.881449 0.016127 -0.005717 73267.700000 0 0 1
11.424008 33.119555 -10.801701 36.661828 1.238643 1.869865 0.011335 -0.005405 75726.000000 0 0 1
12.200708 33.538733 -11.868601 37.610738 1.221899 1.891847 0.017358 -0.002368 -45947.500000 0 0 1
13.695308 33.303442 -11.487201 37.797308 1.180648 1.879597 0.021722 -0.012426 457743.000000 0 0 1
14.123408 34.115944 -10.390601 38.357957 1.178294 1.845109 0.027329 -0.013921 -977323.000000 0 0 1
15.492908 34.304533 -10.384401 39.046984 1.146589 1.839982 0.018722 -0.015697 -829317.000000 0 0 1
15.965508 -34.061380 -9.290001 38.747634 -1.132478 1.812911 0.035488 -0.028111 -216126.000000 0 0 1
15.942608 -34.618169 -8.031401 38.949811 -1.139223 1.778485 0.032077 -0.025285 5250.620000 0 0 1
16.413408 -33.745825 -7.037301 38.179894 -1.118101 1.756176 0.027479 -0.017080 -1126390.000000 0 0 1
16.895608 -34.404783 -5.678401 38.747837 -1.114308 1.717874 0.028943 -0.010395 709400.000000 0 0 1
17.948808 33.935114 -5.903401 38.840724 1.084285 1.723378 0.021919 -0.014434 -10180.200000 0 0 1
19.204008 34.422187 -6.319701 39.920164 1.061911 1.729774 0.028891 -0.008828 -997448.000000 0 0 1
19.962108 33.403203 -7.198201 39.573651 1.032136 1.753708 0.020405 -0.007850 188931.000000 0 0 1
20.408008 32.171925 -6.572301 38.661540 1.005507 1.741622 0.031556 -0.000398 920056.000000 0 0 1
21.476608 32.311995 -5.564401 39.195309 0.984182 1.713244 0.031471 0.000400 657394.000000 0 0 1
21.918308 30.993355 -4.910101 38.276747 0.955259 1.699430 0.010926 -0.000377 -87734.800000 0 0 1
22.543008 30.243405 -5.921701 38.182683 0.930255 1.726514 0.005990 0.002924 -206136.000000 0 0 1
22.782208 28.911825 -5.510401 37.219446 0.903422 1.719394 -0.002341 0.012073 -227612.000000 0 0 1
23.398508 28.085915 -6.643601 37.154357 0.876193 1.750574 -0.015484 0.021673 -40386.600000 0 0 1
24.691608 28.487805 -7.090701 38.360248 0.856662 1.756711 0.005866 0.007907 814307.000000 0 0 1
25.534508 27.354615 -7.456401 38.156048 0.819798 1.767481 -0.006735 0.014052 667243.000000 0 0 1
26.169308 26.578505 -6.271301 37.822994 0.793156 1.737372 -0.004998 0.014402 179862.000000 0 0 1
27.259908 27.227215 -5.566501 38.928264 0.784798 1.714282 -0.005752 0.005058 913436.000000 0 0 1
28.024308 26.379965 -4.728201 38.776543 0.755183 1.693035 -0.010273 0.016965 1049520.000000 0 0 1
29.307008 27.073825 -4.095001 40.108126 0.745810 1.673074 -0.003108 0.011835 646366.000000 0 0 1
29.076308 28.146325 -3.192201 40.593564 0.769148 1.649516 0.008608 -0.005014 142167.000000 0 0 1
30.035908 28.161825 -2.127701 41.228283 0.753207 1.622427 0.013092 -0.012059 136374.000000 0 0 1
30.061508 29.498255 -1.377001 42.139500 0.775941 1.603479 0.021808 -0.015359 105371.000000 0 0 1
30.601808 30.554675 -2.166501 43.298413 0.784627 1.620854 0.001438 -0.007159 68974.800000 0 0 1
30.187908 31.828675 -1.732201 43.901878 0.811849 1.610263 0.018794 -0.009886 -188738.000000 0 0 1
32.124539 22.922015 19.474882 44.007679 0.619753 1.112374 0.016018 -0.008989 -44651.700000 0 0 1
32.403589 22.863215 20.827282 44.793916 0.614459 1.087209 0.009160 -0.002202 -234380.000000 0 0 1
33.165829 24.012015 21.132282 46.077353 0.626652 1.094348 0.021355 -0.010647 59369.800000 0 0 1
33.309089 24.146615 22.645382 46.961344 0.627259 1.067617 0.005548 -0.001896 -636795.000000 0 0 1
32.185479 24.680615 23.232282 46.741596 0.654182 1.050616 -0.006826 -0.000147 -644494.000000 0 0 1
32.357969 24.753515 24.604532 47.593673 0.653026 1.027488 -0.013192 -0.003158 642596.000000 0 0 1
31.029099 25.173515 25.326892 47.307107 0.681586 1.005848 0.001409 -0.007077 714368.000000 0 0 1
30.751109 26.554415 25.152492 47.785098 0.712295 1.016474 -0.006114 -0.008806 356071.000000 0 0 1
29.467979 26.881415 25.673952 47.435473 0.739528 0.998886 -0.012844 -0.016405 359950.000000 0 0 1
29.219609 28.414715 25.989162 48.338578 0.771434 1.003151 -0.016922 -0.011811 -254019.000000 0 0 1
29.130809 29.283615 24.868472 48.213847 0.788014 1.028861 -0.012973 -0.013878 177889.000000 0 0 1
28.775649 30.584515 25.267162 49.008979 0.815861 1.029133 -0.018573 -0.012097 -436253.000000 0 0 1
28.812549 31.527415 24.124682 49.052433 0.830361 1.056624 -0.005023 -0.014121 604029.000000 0 0 1
30.130319 31.668415 23.565382 49.659359 0.810282 1.076354 -0.012634 -0.014488 562386.000000 0 0 1
30.083389 32.528515 22.426682 49.659548 0.824430 1.102229 -0.010130 -0.011852 -92724.900000 0 0 1
31.422949 33.021515 21.855182 50.551669 0.810198 1.123717 -0.009931 -0.009976 127894.000000 0 0 1
32.145799 33.858015 22.755182 51.937616 0.811334 1.117284 -0.014625 0.004001 808993.000000 0 0 1
33.564569 33.734115 22.512682 52.644009 0.787917 1.128916 -0.005367 0.011315 1225040.000000 0 0 1
34.360776 -34.438455 23.313382 53.946120 -0.786527 1.123909 0.003412 0.014672 -137448.000000 0 0 1
33.937099 -33.132655 22.946482 52.688144 -0.773405 1.120186 -0.008136 0.009323 210384.000000 0 0 1
34.328488 -32.108555 23.850282 52.709016 -0.751996 1.101241 0.008755 -0.000577 -406278.000000 0 0 1
33.398449 -30.854855 23.726182 51.287525 -0.745832 1.089858 -0.001238 0.005538 1028330.000000 0 0 1
32.063739 -31.127455 24.182332 50.811288 -0.770583 1.074782 -0.010468 0.007911 1291940.000000 0 0 1
31.106819 -31.319155 23.109882 49.825599 -0.788800 1.088499 -0.011574 0.017827 347194.000000 0 0 1
30.131449 -32.520555 23.158682 50.018149 -0.823513 1.089413 -0.016637 0.014968 -117669.000000 0 0 1
29.173419 -32.397155 24.168452 49.847549 -0.837709 1.064608 -0.012808 0.005711 -417136.000000 0 0 1
28.625409 -33.679055 24.290872 50.435496 -0.866333 1.068291 -0.013545 0.002020 -610383.000000 0 0 1
27.610929 -33.758655 25.422772 50.480962 -0.885241 1.043023 -0.024999 -0.000441 -361972.000000 0 0 1
27.198199 34.176415 25.615082 50.634986 0.898611 1.040398 -0.022785 -0.013889 204233.000000 0 0 1
26.348279 34.034115 26.761172 50.682474 0.912003 1.014533 -0.032198 -0.011454 -154854.000000 0 0 1
26.198389 32.541015 27.247732 49.876970 0.892960 0.992857 -0.036528 -0.006184 294795.000000 0 0 1
25.648359 31.642915 26.274832 48.471427 0.889652 0.997900 -0.033911 -0.004623 -83854.000000 0 0 1
24.267619 31.836215 26.052352 47.761773 0.919492 0.993853 -0.022436 -0.004162 -492687.000000 0 0 1
23.755319 31.663915 24.631202 46.622042 0.927146 1.014180 0.007137 -0.021118 -84653.800000 0 0 1
24.025619 32.680315 23.612182 46.933661 0.936854 1.043618 0.004087 -0.021288 -253693.000000 0 0 1
25.379009 32.882815 23.299382 47.625989 0.913488 1.059606 -0.013741 -0.012132 -580750.000000 0 0 1
25.567279 33.551715 21.885482 47.522392 0.919643 1.092204 -0.000590 -0.008410 -527621.000000 0 0 1
26.876069 33.885015 21.555382 48.323409 0.900243 1.108432 0.005941 -0.006564 -481698.000000 0 0 1
26.865749 34.304415 20.193182 48.024223 0.906410 1.136823 0.004197 -0.007398 -506655.000000 0 0 1
28.232739 -34.609855 19.632682 48.789054 -0.886530 1.156660 0.006231 -0.008560 36321.100000 0 0 1
29.075399 33.544215 19.257582 48.388508 0.856642 1.161484 0.008346 -0.020394 750263.000000 0 0 1
30.159409 33.977615 18.432982 49.029003 0.844860 1.185363 0.010880 -0.005311 787860.000000 0 0 1
31.070519 32.905715 17.705982 48.596966 0.814076 1.197869 -0.002457 -0.004161 751811.000000 0 0 1
31.969099 32.228215 18.578082 49.049223 0.789434 1.182336 -0.005015 -0.008546 35969.600000 0 0 1
32.916669 31.424815 17.918982 48.909263 0.762216 1.195689 0.004936 -0.011378 -60692.600000 0 0 1
33.729349 30.678915 18.996882 49.393789 0.738073 1.176021 0.029431 -0.028594 -2389.450000 0 0 1
34.555038 31.579615 19.738282 50.802781 0.740438 1.171763 0.042383 -0.024172 -97804.600000 0 0 1
-34.771528 30.850115 20.524482 50.813808 -0.725711 1.155003 0.049046 -0.025702 -994075.000000 0 0 1
-33.781322 31.690815 21.227982 50.952063 -0.753479 1.141065 0.047054 -0.021417 -752562.000000 0 0 1
-33.079332 32.473015 20.221482 50.573187 -0.776149 1.159448 0.040883 -0.020822 997962.000000 0 0 1
-31.928942 33.230015 20.704582 50.520995 -0.805363 1.148538 0.023544 -0.011185 1027770.000000 0 0 1
-32.199922 34.448615 21.569982 51.853700 -0.819125 1.141779 0.011966 -0.011236 -321545.000000 0 0 1
-32.432142 34.253315 22.967582 52.465639 -0.812701 1.117686 0.026001 -0.008559 233940.000000 0 0 1
-32.208332 -33.775655 23.649482 52.320832 0.809147 1.101780 0.020460 -0.003742 -86247.400000 0 0 1
-32.081332 -34.072055 25.158622 53.132598 0.815482 1.077529 0.025378 -0.004510 1283430.000000 0 0 1
-33.415762 -34.150955 25.731202 54.267814 0.796279 1.076795 0.035504 0.006385 1268660.000000 0 0 1
-33.276542 -34.566055 27.068202 55.089272 0.804403 1.057155 0.046377 0.004018 285519.000000 0 0 1
-34.691757 34.423715 27.584192 56.119496 -0.781520 1.056955 0.036004 -0.009184 125902.000000 0 0 1
-34.556620 33.740415 28.807292 56.235537 -0.773448 1.032981 0.056159 -0.020941 550695.000000 0 0 1
34.396870 33.569815 29.469982 56.378693 0.773230 1.020764 0.047774 -0.025106 762002.000000 0 0 1
34.365212 32.460315 30.522422 56.269513 0.756900 0.997466 0.046994 -0.017682 -53727.600000 0 0 1
34.162971 31.147915 30.118862 55.176508 0.739266 0.993377 0.040123 -0.018225 -106813.000000 0 0 1
-35.036653 30.578915 29.340202 54.986222 -0.717565 1.007954 0.038921 -0.019158 -322151.000000 0 0 1
34.917715 29.144415 28.863672 53.867944 0.695521 1.005314 0.040461 -0.011448 -563885.000000 0 0 1
33.778499 29.038315 28.040072 52.635125 0.710080 1.008979 0.037322 -0.010338 24116.000000 0 0 1
33.683489 27.807815 27.350122 51.535243 0.690134 1.011362 0.039083 -0.011994 -92616.000000 0 0 1
33.416209 26.513215 28.111962 51.086946 0.670718 0.988101 0.023010 -0.009419 354198.000000 0 0 1
34.518325 26.031515 28.920562 52.014935 0.646143 0.981225 0.021756 -0.007579 500631.000000 0 0 1
34.294902 24.730715 29.474682 51.541299 0.624760 0.962018 0.012491 -0.007958 -55906.000000 0 0 1
34.653336 23.503015 28.645592 50.732784 0.595967 0.970803 0.009453 0.007285 -345373.000000 0 0 1
33.883649 23.394015 27.474832 49.499980 0.604269 0.982376 -0.005156 0.005189 -92014.800000 0 0 1
34.271376 22.332015 26.564752 48.774299 0.577515 0.994829 -0.005641 -0.000533 -262579.000000 0 0 1
34.060709 20.889015 27.030912 48.240575 0.550133 0.976005 -0.009657 0.003564 -798016.000000 0 0 1
32.689469 20.571615 26.988692 47.118810 0.561688 0.960904 -0.004427 0.003113 -298099.000000 0 0 1
32.441109 19.317815 27.620602 46.781420 0.537084 0.939219 0.006230 0.001498 -384182.000000 0 0 1
32.337759 19.516515 29.129332 47.698459 0.543004 0.913855 0.001100 0.003979 280299.000000 0 0 1
31.205729 20.263515 29.621142 47.558592 0.575920 0.898435 0.005656 0.006035 824519.000000 0 0 1
31.319319 21.668015 29.242452 48.015869 0.605230 0.915976 -0.002241 -0.002512 -1100350.000000 0 0 1
30.348109 22.561415 30.050162 48.301526 0.639277 0.899327 0.011216 -0.009475 -70886.500000 0 0 1
29.006269 22.383115 29.636712 47.124327 0.657223 0.890653 0.021650 -0.024631 -26056.900000 0 0 1
28.539809 23.109615 28.522792 46.498653 0.680647 0.910424 0.017382 -0.030168 -272017.000000 0 0 1
28.260919 24.628115 28.790622 47.266516 0.716819 0.915855 0.004818 -0.026565 -822379.000000 0 0 1
29.457059 25.349715 28.830782 48.389466 0.710596 0.932526 -0.002450 -0.011347 -423822.000000 0 0 1
29.567619 26.500415 29.706892 49.588462 0.730748 0.928459 -0.009593 -0.012401 -45352.000000 0 0 1
29.851469 26.193315 31.175962 50.489015 0.720219 0.905261 -0.001908 -0.014758 397233.000000 0 0 1
31.148029 25.634415 31.397292 51.118616 0.688601 0.909419 0.015960 -0.013094 360961.000000 0 0 1
31.486909 25.493515 32.762222 52.102860 0.680600 0.890789 0.030769 -0.009581 -13524.100000 0 0 1
30.747039 24.370115 33.504991 51.593288 0.670213 0.863993 0.033814 -0.010031 -71064.500000 0 0 1
31.267839 24.358915 -34.336078 52.440450 0.661830 2.284666 0.026609 -0.015804 543441.000000 0 0 1
30.417489 23.574915 -33.487271 51.013700 0.659338 2.286882 0.008000 -0.018758 -36933.500000 0 0 1
30.967739 23.232815 -32.119131 50.303113 0.643646 2.263359 0.008720 -0.022108 -425502.000000 0 0 1
31.127589 24.380215 -31.286811 50.420098 0.664434 2.240205 0.006144 -0.022068 288753.000000 0 0 1
31.690299 23.754415 -30.124531 49.759770 0.643232 2.221064 0.039577 -0.029100 93765.800000 0 0 1
32.534019 24.625615 -29.120361 50.128622 0.647915 2.190646 0.035251 -0.006842 684868.000000 0 0 1
33.358219 23.736915 -28.346961 49.797210 0.618453 2.176387 0.041498 -0.017688 111544.000000 0 0 1
34.050309 24.391915 -27.285651 49.988957 0.621615 2.148180 0.052373 -0.012118 542891.000000 0 0 1
34.943514 23.348815 -26.490371 49.678528 0.589055 2.133217 0.050779 -0.012292 485278.000000 0 0 1
-34.392862 22.605515 -27.325381 49.401971 -0.581471 2.156905 0.044437 -0.015483 128591.000000 0 0 1
-34.365599 21.308915 -26.751521 48.484102 -0.555043 2.155268 0.026544 -0.009524 -892043.000000 0 0 1
-33.266782 20.378415 -27.174401 47.543734 -0.549615 2.179210 0.042698 -0.003805 -452001.000000 0 0 1
-32.001582 20.755115 -26.624581 46.516066 -0.575366 2.180194 0.045988 -0.014958 91051.800000 0 0 1
-31.136302 19.644615 -26.810111 45.542971 -0.562847 2.200218 0.010551 -0.005489 372220.000000 0 0 1
-29.743852 19.940015 -26.167551 44.351343 -0.590577 2.201862 -0.004958 -0.006306 150122.000000 0 0 1
-29.820032 19.985215 -24.773401 43.616104 -0.590441 2.174855 -0.016303 0.001126 -250827.000000 0 0 1
-28.583592 20.030815 -24.118301 42.425791 -0.611249 2.175456 -0.039673 0.008229 -281772.000000 0 0 1
-28.766162 20.270615 -22.613401 41.830083 -0.613852 2.141948 -0.045202 0.002942 51741.200000 0 0 1
-29.370362 19.243115 -21.847401 41.354861 -0.580014 2.127383 -0.048265 0.015951 276584.000000 0 0 1
-30.089722 19.823315 -20.766101 41.588293 -0.582541 2.093617 -0.044848 0.019641 -471989.000000 0 0 1
-31.073632 18.879915 -20.016801 41.505350 -0.545979 2.074041 -0.042514 0.018880 748119.000000 0 0 1
-32.003942 19.463415 -19.081101 42.037664 -0.546396 2.041939 -0.038162 0.006909 666984.000000 0 0 1
-32.890732 20.474015 -19.535701 43.389275 -0.556789 2.037833 -0.040676 0.009346 -1405170.000000 0 0 1
-33.973552 20.604415 -18.490101 43.824970 -0.545174 2.006345 -0.024301 0.001346 -1180850.000000 0 0 1
-33.694302 21.216315 -17.259401 43.397292 -0.561951 1.979813 -0.035231 -0.004804 340802.000000 0 0 1
-34.721953 20.926515 -16.293901 43.692382 -0.542394 1.952954 -0.020303 0.011380 -319428.000000 0 0 1
-34.542829 21.600515 -14.871501 43.369930 -0.558833 1.920797 -0.024766 0.015910 -741373.000000 0 0 1
-34.706510 22.994515 -14.742201 44.165847 -0.585142 1.911120 -0.018246 0.002794 153813.000000 0 0 1
34.212685 23.445115 -15.031601 44.114967 0.600775 1.918497 -0.001701 0.004831 -148747.000000 0 0 1
34.206754 24.933915 -15.348701 45.026490 0.629871 1.918651 -0.021094 0.000586 201.343000 0 0 1
34.415979 25.750515 -14.259001 45.286508 0.642357 1.891108 -0.009226 -0.000582 -339283.000000 0 0 1
34.275070 27.157615 -14.483301 46.066067 0.670055 1.890624 -0.008333 0.008215 -93734.000000 0 0 1
-35.039968 28.012415 -15.402701 47.431403 -0.674400 1.901529 -0.005006 0.011578 -23272.300000 0 0 1
-35.027690 27.708115 -16.779601 47.709891 -0.669250 1.930184 0.002439 0.010958 -307197.000000 0 0 1
-33.997582 28.488415 -17.301901 47.610725 -0.697459 1.942715 0.013867 0.007116 -517408.000000 0 0 1
-33.550192 28.002015 -18.734001 47.546724 -0.695503 1.975789 0.007336 0.003165 71811.600000 0 0 1
-33.172342 26.648415 -18.940701 46.575664 -0.676770 1.989597 0.001227 0.001498 92787.500000 0 0 1
-31.979722 26.220815 -18.309501 45.226890 -0.686770 1.987596 -0.001496 0.006054 -83990.400000 0 0 1
-31.585472 24.786915 -18.758001 44.315864 -0.665377 2.007858 -0.010713 0.001146 -544784.000000 0 0 1
-31.264492 24.824215 -20.150201 44.718460 -0.671076 2.038235 -0.011034 0.001515 169020.000000 0 0 1
-30.674052 23.611715 -20.584601 43.842175 -0.656029 2.059539 -0.015334 0.003298 -109439.000000 0 0 1
-30.169382 23.688715 -22.063201 44.250781 -0.665645 2.092773 -0.012197 0.001684 -527778.000000 0 0 1
-31.178222 23.809515 -23.000301 45.475140 -0.652185 2.101079 0.015104 -0.005135 -519415.000000 0 0 1
-30.699872 23.726415 -24.310701 45.786844 -0.657966 2.130522 0.033822 -0.009106 95725.900000 0 0 1
-31.667582 24.192915 -25.484611 47.303259 -0.652379 2.139749 0.013973 0.009001 115931.000000 0 0 1
-31.758722 25.606015 -25.327811 48.018563 -0.678551 2.126403 -0.001550 0.013099 73212.200000 0 0 1
-32.620122 26.045715 -26.366751 49.372636 -0.673798 2.134163 0.011707 0.003263 96541.000000 0 0 1
-32.391842 27.563315 -26.683851 50.209518 -0.705036 2.131108 -0.000628 0.016552 158603.000000 0 0 1
-31.140922 27.735215 -27.307191 49.846583 -0.727617 2.150558 -0.016497 0.009631 -501911.000000 0 0 1
-30.865272 29.133615 -27.431461 50.536300 -0.756545 2.144572 -0.013425 0.002994 382499.000000 0 0 1
-29.553772 29.322115 -28.223001 50.296617 -0.781464 2.166548 -0.008078 0.007373 565442.000000 0 0 1
-28.414852 28.646015 -27.666761 48.922875 -0.789449 2.171857 -0.036606 0.011512 1453360.000000 0 0 1
-27.143642 28.946315 -28.306141 48.743246 -0.817526 2.190408 -0.009290 0.010911 1466820.000000 0 0 1
-26.377212 30.186815 -27.820561 48.795335 -0.852647 2.177482 -0.011691 0.005313 -327716.000000 0 0 1
-25.966322 30.260415 -26.435181 47.841001 -0.861621 2.156233 -0.007831 0.005333 236534.000000 0 0 1
-27.027442 30.545815 -25.560121 48.133660 -0.846434 2.130605 -0.016795 0.011406 -199508.000000 0 0 1
-26.442282 30.931515 -24.211501 47.351343 -0.863484 2.107512 -0.026353 0.004381 137654.000000 0 0 1
-26.105072 32.294215 -24.151101 48.038180 -0.890984 2.097571 -0.014098 0.007307 -333974.000000 0 0 1
-24.860092 32.514715 -23.519501 47.205908 -0.918029 2.092355 -0.003706 0.017025 -81299.000000 0 0 1
-24.318992 33.898615 -23.811501 48.036622 -0.948485 2.089431 -0.013203 0.019687 -257334.000000 0 0 1
-24.685492 -34.412055 -22.815201 48.105056 0.948521 2.064941 -0.020539 0.016596 55674.300000 0 0 1
-24.284292 -33.106555 -23.134701 47.127329 0.937927 2.083916 -0.009340 0.022586 -85882.800000 0 0 1
16.068108 8.990815 -25.617841 31.548259 0.510141 2.518403 0.020368 -0.009179 568835.000000 0 0 1
14.753308 8.434715 -25.471901 30.620618 0.519363 2.553237 0.024298 -0.012818 767201.000000 0 0 1
14.777508 7.005515 -25.733761 30.490629 0.442686 2.575474 0.027832 -0.013177 1065140.000000 0 0 1
13.334708 6.371115 -25.574541 29.537480 0.445718 2.617610 0.017905 -0.015052 987658.000000 0 0 1
12.973208 6.099015 -24.241601 28.163049 0.439462 2.607555 0.041293 -0.027282 -830052.000000 0 0 1
11.639508 5.727315 -24.339101 27.580285 0.457274 2.651909 0.024016 -0.018800 -978569.000000 0 0 1
10.891908 6.160115 -23.075901 26.250293 0.514717 2.644709 0.030216 -0.022845 -275741.000000 0 0 1
11.292208 5.331415 -21.970801 25.271606 0.441106 2.624756 0.027481 -0.015620 127956.000000 0 0 1
10.611908 5.549915 -20.734501 23.944388 0.481869 2.617831 0.025213 -0.011587 -33965.700000 0 1 0
10.803308 6.930615 -20.063001 23.817408 0.570396 2.572457 0.019056 -0.019416 -128164.000000 0 1 0
10.567008 6.942915 -18.666201 22.545350 0.581306 2.546221 0.008811 -0.012901 -336429.000000 0 1 0
10.810708 8.178915 -18.063301 22.584263 0.647684 2.497788 0.012625 -0.015505 954525.000000 0 1 0
12.338408 8.540015 -17.870201 23.334787 0.605437 2.443109 0.007003 -0.011369 1044220.000000 0 1 0
13.029408 7.953715 -16.774101 22.680334 0.548063 2.403254 0.020627 -0.005954 1533570.000000 0 1 0
14.439308 8.287915 -16.748301 23.615435 0.521070 2.359173 0.020057 0.009169 944380.000000 0 1 0
14.898108 8.013115 -15.291601 22.803436 0.493476 2.305791 0.025767 -0.001068 -62156.500000 0 1 0
16.315708 8.017315 -15.120401 23.645427 0.456733 2.264597 0.021432 -0.001764 961983.000000 0 1 0
16.723008 7.973915 -13.757301 23.076084 0.444935 2.209520 0.010995 -0.002773 -78513.000000 0 1 0
17.240008 9.403115 -13.508601 23.835242 0.499323 2.173351 0.022001 -0.006849 -296156.000000 0 1 0
16.162808 10.325415 -13.303101 23.341445 0.568488 2.177223 0.029147 -0.001239 626254.000000 0 1 0
16.467708 11.685315 -13.369601 24.217313 0.617133 2.155639 0.019960 0.007842 116150.000000 0 1 0
15.304508 12.598615 -12.828101 23.611719 0.688726 2.145152 0.025720 0.000314 141236.000000 0 1 0
15.061008 12.448415 -11.388901 22.616456 0.690711 2.098519 0.060380 -0.006864 -15201.900000 0 1 0
15.468608 13.490615 -10.531101 23.068997 0.717201 2.044859 0.045202 -0.003024 -462980.000000 0 1 0
15.092508 14.968615 -10.753301 23.821770 0.781277 2.039137 0.037079 -0.000575 530503.000000 0 1 0
13.707008 15.263715 -10.555501 23.071231 0.839080 2.045998 0.044397 -0.009348 664228.000000 0 1 0
13.406208 16.621015 -10.888601 23.969693 0.892055 2.042344 0.035122 -0.006250 647214.000000 0 1 0
12.172108 17.044215 -10.022401 23.218829 0.950637 2.017117 0.033074 -0.012997 561770.000000 0 1 0
12.560708 17.296215 -8.638901 23.055608 0.942695 1.954868 0.039853 0.002709 -72209.800000 0 1 0
11.485008 17.645715 -7.827901 22.462251 0.993812 1.926757 0.035972 0.009639 -588535.000000 0 1 0
11.664508 17.469915 -6.319901 21.936268 0.982085 1.863041 0.030647 0.004351 2332.960000 0 1 0
12.607808 18.349715 -5.758101 22.996187 0.968791 1.823883 0.033605 -0.000357 279572.000000 0 1 0
13.298708 17.717815 -4.676201 22.641631 0.926922 1.778825 0.045165 -0.008593 -279600.000000 0 1 0
14.245508 18.610515 -3.869401 23.754116 0.917477 1.734419 0.037322 -0.012675 -139610.000000 0 1 0
15.465908 18.827415 -4.549201 24.786309 0.883108 1.755380 0.040735 -0.020469 73369.600000 0 1 0
16.017708 20.086015 -4.282601 26.045262 0.897609 1.735976 0.030175 -0.021481 -670817.000000 0 0 1
17.389908 20.294315 -4.929101 27.176537 0.862318 1.753179 0.016547 -0.022314 -347767.000000 0 0 1
18.480108 19.520815 -4.498101 27.254533 0.812778 1.736595 0.023276 -0.032278 184655.000000 0 0 1
18.557508 18.312515 -5.117901 26.569197 0.778753 1.764633 0.017816 -0.021598 -832693.000000 0 0 1
19.551508 17.384315 -4.431601 26.535165 0.726791 1.738591 0.037068 -0.027690 -6697.600000 0 0 1
20.913208 17.627615 -4.746401 27.760105 0.700354 1.742620 0.042566 -0.034386 234098.000000 0 0 1
21.713108 16.664615 -4.095201 27.675606 0.654602 1.719313 0.050614 -0.033049 -797806.000000 0 0 1
23.196108 16.782915 -4.401401 28.967189 0.626339 1.723332 0.056005 -0.030889 -523836.000000 0 0 1
23.814608 17.934115 -3.774001 30.050144 0.645464 1.696719 0.056283 -0.024008 400440.000000 0 0 1
25.209708 17.883615 -3.973701 31.163174 0.617003 1.698657 0.043023 -0.013986 175001.000000 0 0 1
26.121108 19.014215 -3.425801 32.489826 0.629223 1.676435 0.047616 -0.006850 -61252.100000 0 0 1
26.123608 20.171515 -4.215901 33.273214 0.657531 1.697843 0.048344 -0.010489 238233.000000 0 0 1
26.033508 21.331915 -3.400601 33.828365 0.686460 1.671492 0.049689 0.018772 -222687.000000 0 0 1
25.739908 22.617215 -4.185301 34.519531 0.720912 1.692340 0.022641 0.014814 136790.000000 0 0 1
26.755108 23.134915 -5.056201 35.729894 0.712962 1.712785 0.013477 0.020135 473756.000000 0 0 1
27.064408 22.343715 -6.204701 35.640176 0.690142 1.745781 0.025291 0.010217 -58604.600000 0 0 1
28.154708 22.975815 -7.093201 37.025521 0.684455 1.763564 0.011902 0.012851 -50787.400000 0 0 1
27.644008 23.960115 -8.043501 37.456324 0.714131 1.787225 0.004910 0.008838 466820.000000 0 0 1
28.552808 24.965015 -8.526401 38.874341 0.718459 1.791926 -0.000920 0.006138 95159.400000 0 0 1
29.599008 24.486815 -9.571701 39.589429 0.691158 1.814990 0.006682 -0.004846 8548.140000 0 0 1
29.136808 24.451815 -10.899201 39.568137 0.698195 1.849858 0.009924 0.000503 402424.000000 0 0 1
30.222608 24.092115 -11.742801 40.394671 0.673004 1.865756 0.007148 -0.003157 303139.000000 0 0 1
29.658608 23.412215 -12.974501 39.951252 0.668238 1.901553 0.002217 -0.004217 138570.000000 0 0 1
29.381208 24.304015 -14.084001 40.648489 0.691105 1.924615 0.019852 0.003959 67121.800000 0 0 1
29.290308 23.466915 -15.209001 40.496074 0.675462 1.955805 0.021646 0.003394 -93846.200000 0 0 1
29.346908 24.334615 -16.562001 41.565784 0.692297 1.980626 0.019869 0.006479 -30346.300000 0 0 1
30.627108 24.776415 -16.938901 42.881428 0.680187 1.976883 0.016581 0.010970 -260648.000000 0 0 1
30.620508 25.412415 -18.191001 43.752930 0.692717 1.999582 0.023673 0.006681 361113.000000 0 0 1
32.044808 25.856815 -18.619701 45.190020 0.678931 1.995479 0.016802 0.000203 455788.000000 0 0 1
32.881508 24.771715 -18.986401 45.335581 0.645650 2.002916 0.024576 -0.000394 -1188980.000000 0 0 1
34.181508 25.217315 -19.158301 46.597521 0.635613 1.994505 0.012357 -0.005734 -582479.000000 0 0 1
-35.047702 23.984815 -19.022201 46.534470 -0.600144 1.991909 0.004874 -0.009782 -268227.000000 0 0 1
-35.105402 23.082415 -20.140301 46.592048 -0.581642 2.017804 0.008622 -0.003078 104898.000000 0 0 1
-34.465502 23.537215 -21.337701 46.873968 -0.599171 2.043409 0.021305 -0.010811 -149640.000000 0 0 1
-34.530202 22.530215 -22.471401 46.956462 -0.578116 2.069808 0.030277 -0.016528 -56335.000000 0 0 1
-33.768902 21.369615 -22.280201 45.753760 -0.564202 2.079401 0.018429 -0.019265 92372.800000 0 0 1
-33.704202 20.556415 -23.457301 45.921503 -0.547672 2.106927 0.017763 -0.016954 346355.000000 0 0 1
-33.283802 19.081715 -23.226301 44.848461 -0.520558 2.115172 0.000854 -0.009439 250259.000000 0 0 1
-34.465502 18.407615 -22.863701 45.270962 -0.490545 2.100226 0.018883 -0.017650 365986.000000 0 0 1
-34.296802 16.991615 -23.031401 44.670248 -0.459984 2.112489 0.015026 -0.008892 -1219160.000000 0 0 1
34.746408 16.235415 -22.541701 44.486289 0.437110 2.102162 0.017947 -0.013592 -482008.000000 0 0 1
33.572508 16.434015 -23.347901 44.071699 0.455219 2.129127 0.050954 -0.021132 995267.000000 0 0 1
32.520108 15.490115 -23.209901 42.850912 0.444528 2.143187 0.047069 -0.014374 74547.000000 0 0 1
32.863108 14.145315 -23.940801 43.049225 0.406462 2.160514 0.024061 -0.014487 -683899.000000 0 0 1
32.751608 14.112515 -25.400921 43.783989 0.406853 2.189699 0.029560 -0.005022 268354.000000 0 0 1
33.261508 12.898515 -25.890581 44.079721 0.369937 2.198587 0.021691 0.007427 -223437.000000 0 0 1
33.241208 12.705815 -27.450841 44.944014 0.365095 2.227840 0.036661 0.006876 -372177.000000 0 0 1
31.944808 12.525015 -27.947001 44.253606 0.373663 2.254307 0.025045 0.008340 -190123.000000 0 0 1
31.352908 13.617215 -28.615171 44.578711 0.409739 2.267773 0.022748 0.007420 -167651.000000 0 0 1
31.856408 13.885515 -30.056261 45.945806 0.411048 2.283878 0.015293 -0.001119 612897.000000 0 0 1
33.278308 14.091415 -30.137501 47.056166 0.400550 2.265891 0.014563 0.004724 772987.000000 0 0 1
33.689308 14.213415 -31.490561 48.256047 0.399239 2.281771 0.005919 0.002521 575274.000000 0 0 1
-34.979402 14.440615 -31.658591 49.339197 -0.391519 2.267446 0.019395 -0.002975 582703.000000 0 0 1
-34.159202 13.359615 -31.390771 48.277437 -0.372809 2.278665 0.023005 0.002052 -384253.000000 0 0 1
-33.972802 13.101215 -29.987681 47.170480 -0.368065 2.259750 0.026239 0.003782 251499.000000 0 0 1
-32.811102 12.060715 -29.620661 45.819350 -0.352250 2.273740 0.019996 0.001740 961410.000000 0 0 1
-33.126902 10.771115 -30.126941 46.054763 -0.314365 2.283861 0.021274 -0.006448 955010.000000 0 0 1
-32.130802 9.795815 -29.700991 44.838547 -0.295921 2.294812 0.018605 -0.007271 669220.000000 0 0 1
-32.367802 8.348515 -30.198081 45.047713 -0.252425 2.305487 0.028824 -0.013625 -682035.000000 0 0 1
-32.521602 8.428915 -31.658791 46.162542 -0.253599 2.326514 0.006731 -0.012539 177159.000000 0 0 1
-32.820702 7.180615 -32.293631 46.600841 -0.215389 2.336416 0.010172 -0.013197 -562282.000000 0 0 1
-34.109402 6.432915 -31.911171 47.150361 -0.186407 2.314198 0.016858 -0.003554 -472059.000000 0 0 1
-34.136702 5.983115 -30.577551 46.217948 -0.173507 2.293740 0.023182 -0.007916 156149.000000 0 0 1
34.798708 5.432115 -30.375291 46.509314 0.154851 2.282469 0.029824 0.004377 78061.700000 0 0 1
34.619408 4.633115 -29.048221 45.428717 0.133039 2.264545 0.032774 -0.005545 192875.000000 0 0 1
-34.767802 3.484415 -29.050171 45.440661 -0.099886 2.264383 0.024871 -0.004954 512753.000000 0 0 1
-35.073602 2.738715 -27.864861 44.878822 -0.077927 2.240675 0.020795 -0.000964 44326.800000 0 0 1
-34.366802 1.341315 -27.843741 44.250990 -0.039010 2.251349 0.047678 -0.004455 642624.000000 0 0 1
-32.996902 1.406415 -27.433351 42.934396 -0.042597 2.263942 0.038747 -0.001570 560451.000000 0 0 1
-32.597202 0.105615 -27.051521 42.360047 -0.003240 2.263486 0.048643 -0.008751 -146680.000000 0 0 1
-31.393802 -0.024985 -26.101681 40.827310 0.000796 2.264409 0.027665 -0.004068 -291524.000000 0 0 1
-31.539302 0.416415 -24.756201 40.097014 -0.013202 2.236239 0.025771 -0.006776 142643.000000 0 0 1
-30.302902 0.544715 -24.077201 38.707547 -0.017974 2.242127 0.039754 -0.008938 -182006.000000 0 0 1
-30.400502 0.390915 -22.508701 37.828362 -0.012858 2.208089 0.023930 -0.005621 -712165.000000 0 0 1
-30.688202 -0.952485 -22.170301 37.870770 0.031028 2.196194 0.034042 -0.014185 144381.000000 0 0 1
-31.212002 -1.023785 -20.880201 37.566209 0.032789 2.160150 0.032203 -0.011627 598306.000000 0 0 1
-32.765302 -0.852285 -20.737201 38.785602 0.026006 2.134904 0.020276 -0.004439 663705.000000 0 0 1
-33.580502 -1.913385 -21.274201 39.798277 0.056917 2.134772 0.003362 -0.000935 1254520.000000 0 0 1
-34.930002 -1.842185 -20.767001 40.678828 0.052691 2.106576 -0.001643 0.002967 863325.000000 0 0 1
34.817608 -3.209685 -20.263501 40.412590 -0.091926 2.096030 0.001640 0.005865 -414308.000000 0 0 1
34.226908 -4.020085 -21.277801 40.501693 -0.116918 2.123930 -0.004341 0.009808 -197353.000000 0 0 1
35.063008 -4.501185 -22.271301 41.781408 -0.127676 2.132990 -0.016239 0.004214 -936502.000000 0 0 1
34.361508 -5.390185 -23.337101 41.885411 -0.155599 2.161765 -0.009632 0.007208 -950482.000000 0 0 1
34.103908 -6.718985 -22.839101 41.591416 -0.194524 2.152119 -0.006681 0.012042 268164.000000 0 0 1
33.566508 -7.674785 -23.732801 41.819357 -0.224780 2.174272 -0.004991 0.012206 1166500.000000 0 0 1
32.134508 -7.266585 -24.303501 40.940079 -0.222390 2.206366 -0.026645 0.017447 457237.000000 0 0 1
32.164008 -6.254485 -25.256931 41.370939 -0.192059 2.227487 -0.016106 0.010258 -372881.000000 0 0 1
30.860708 -5.765685 -25.404541 40.385853 -0.184700 2.251121 -0.019048 0.007793 -254856.000000 0 0 1
30.691708 -4.544985 -26.378931 40.724512 -0.147017 2.275412 0.018368 -0.021012 -42771.500000 0 0 1
30.694008 -4.898985 -27.745071 41.664267 -0.158272 2.299523 0.024220 -0.023697 353639.000000 0 0 1
30.351708 -3.804285 -28.637261 41.902166 -0.124690 2.323249 0.030235 -0.031286 -10184.900000 0 0 1
30.093108 -4.237585 -30.085731 42.763343 -0.139896 2.351163 0.037284 -0.026120 -45152.300000 0 0 1
29.576208 -3.189185 -30.844791 42.852353 -0.107414 2.374299 0.039766 -0.040276 -93289.700000 0 0 1
29.060208 -3.685785 -32.069421 43.434186 -0.126159 2.401410 0.052343 -0.042867 -699174.000000 0 0 1
28.633508 -2.585385 -33.079961 43.827455 -0.090048 2.426111 0.059126 -0.042573 -931182.000000 0 0 1
27.627908 -1.694285 -32.681331 42.828044 -0.061248 2.438866 0.058052 -0.041473 788099.000000 0 0 1
26.302608 -2.229385 -32.490181 41.861787 -0.084557 2.459301 0.069026 -0.039915 145007.000000 0 0 1
25.540308 -2.745685 -33.659181 42.341311 -0.107093 2.489720 0.063315 -0.042200 -1518820.000000 0 0 1
26.176708 -3.798985 -34.344853 43.349986 -0.144122 2.485315 0.072752 -0.049654 -244243.000000 0 0 1
25.555108 -4.120885 33.540887 42.367870 -0.159879 0.657277 0.056354 -0.038041 -454019.000000 0 0 1
26.336108 -5.119685 32.673992 42.277554 -0.192003 0.687484 0.031949 -0.043602 513976.000000 0 0 1
27.645308 -4.728085 32.261822 42.748603 -0.169388 0.715619 0.038420 -0.037629 334138.000000 0 0 1
27.604308 -3.732785 31.238632 41.854315 -0.134409 0.728212 0.054984 -0.040938 -739739.000000 0 0 1
28.320908 -2.422385 31.628612 42.524239 -0.085326 0.732091 0.047300 -0.038819 -177753.000000 0 0 1
29.690808 -2.636685 31.883392 43.646843 -0.088572 0.751764 0.033895 -0.033359 -526156.000000 0 0 1
30.179108 -1.495485 32.475822 44.358698 -0.049513 0.749370 0.026243 -0.030295 -451792.000000 0 0 1
31.616008 -1.623085 33.020752 45.744688 -0.051292 0.764326 0.017320 -0.027303 -217091.000000 0 0 1
32.503108 -1.887085 31.946572 45.613557 -0.057993 0.794874 0.023451 -0.021803 -862748.000000 0 0 1
33.791108 -1.800485 32.491652 46.912559 -0.053232 0.805709 0.020299 -0.014514 -319293.000000 0 0 1
34.870308 -2.290185 31.479812 47.033626 -0.065583 0.837524 -0.005112 -0.005312 52874.400000 0 0 1
34.935208 -1.479385 30.324022 46.283946 -0.042321 0.856384 -0.007833 0.000726 -378444.000000 0 0 1
-34.249002 -1.846985 29.456982 45.211938 0.053876 0.861195 -0.009410 0.002383 -99390.100000 0 0 1
-34.407902 -1.184585 28.046012 44.405921 0.034414 0.887203 -0.006691 0.005158 -2221.460000 0 0 1
34.878208 -1.732885 27.163862 44.242149 -0.049643 0.909701 -0.004171 -0.011588 -420202.000000 0 0 1
-34.831002 -1.617385 25.866482 43.415315 0.046402 0.932545 0.007215 -0.005122 -224547.000000 0 0 1
-26.279502 15.509615 12.531699 32.987935 -0.533167 1.181122 0.014536 0.010929 165805.000000 0 0 1
-27.563082 15.062315 12.929099 33.967019 -0.500127 1.180311 -0.034341 0.017565 380737.000000 0 0 1
-28.116152 15.926515 13.917199 35.183239 -0.515388 1.164115 -0.018500 0.004428 -683597.000000 0 0 1
-29.350232 15.287115 14.513699 36.135570 -0.480189 1.157483 -0.014227 0.000376 -420891.000000 0 0 1
-30.218952 16.253615 15.069799 37.476178 -0.493476 1.156969 -0.005864 -0.006745 -1203760.000000 0 0 1
-31.350272 15.670815 15.552199 38.344294 -0.463537 1.153168 -0.007935 0.013516 -1203620.000000 0 0 1
-32.308962 16.516115 16.387699 39.814667 -0.472562 1.146588 0.009016 -0.000390 -183221.000000 0 0 1
-31.778772 16.849715 17.662899 40.072200 -0.487530 1.114332 0.005763 0.005462 -540438.000000 0 0 1
-32.751882 16.932115 18.657999 41.321946 -0.477140 1.102320 0.004679 -0.005926 -783169.000000 0 0 1
-32.202772 17.062215 20.043499 41.591821 -0.487231 1.067964 -0.000386 -0.005714 -31150.200000 0 0 1
-31.317662 15.956115 20.335099 40.606770 -0.471213 1.046295 0.002506 -0.006040 895540.000000 0 0 1
-30.143032 16.306715 21.087499 40.239209 -0.495890 1.019193 -0.002566 -0.012092 615842.000000 0 0 1
-30.337132 16.768515 22.552599 41.353892 -0.504944 0.993982 0.011244 -0.017519 -858544.000000 0 0 1
-30.986772 17.999915 22.484999 42.305462 -0.526250 1.010436 0.008454 -0.009795 -88742.000000 0 0 1
-31.241902 18.685415 23.758899 43.470524 -0.539013 0.992555 0.013029 -0.014294 -554287.000000 0 0 1
-32.231332 17.946415 24.695199 44.393529 -0.508049 0.980895 -0.004871 -0.006535 391245.000000 0 0 1
-33.445202 17.451415 24.131599 44.782446 -0.480928 1.001710 0.008778 -0.005362 903246.000000 0 0 1
-34.438116 18.421915 23.669999 45.668585 -0.491198 1.025935 0.002623 -0.006899 407654.000000 0 0 1
34.509034 17.587815 23.333699 45.217985 0.471344 1.028590 -0.012413 -0.004870 359929.000000 0 0 1
33.932739 17.128815 24.578299 45.264996 0.467470 0.996806 0.002366 -0.003197 -71915.300000 0 0 1
32.861549 16.216215 24.466499 44.061963 0.458411 0.982103 0.018066 0.001366 224444.000000 0 0 1
32.694259 15.465115 25.878299 44.472134 0.441834 0.949734 0.024544 0.003518 -330309.000000 0 0 1
32.148279 16.309615 26.881099 44.967865 0.469490 0.930062 0.016675 0.004547 312307.000000 0 0 1
31.769419 15.759815 28.170399 45.290608 0.460498 0.899512 0.005212 0.010533 -400784.000000 0 0 1
30.703859 14.689715 28.187599 44.193387 0.446245 0.879127 0.010326 0.019245 -312446.000000 0 0 1
31.245619 13.456215 27.637399 43.831316 0.406654 0.888548 -0.001480 0.011076 1144220.000000 0 0 1
30.219639 12.437015 27.777699 42.889468 0.390427 0.866290 -0.004674 0.012152 651995.000000 0 0 1
30.646079 11.033915 27.279899 42.486731 0.345594 0.873587 -0.003250 0.013657 -570409.000000 0 0 1
31.649079 10.445215 28.040299 43.554852 0.318777 0.871352 -0.003395 0.013511 -275989.000000 0 0 1
31.983909 9.134815 27.520499 43.171671 0.278200 0.879591 -0.010747 0.012774 -139975.000000 0 0 1
33.046869 8.473715 28.421199 44.403423 0.251007 0.876210 -0.009354 0.016729 197791.000000 0 0 1
34.357801 8.984315 28.452299 45.505052 0.255766 0.895337 0.004638 0.013759 340771.000000 0 0 1
-34.950610 8.205515 29.252699 46.309783 -0.230598 0.887085 -0.005811 0.011721 -28785.400000 0 0 1
-33.713722 9.015915 29.557999 45.733763 -0.261311 0.868063 -0.001608 0.005228 -475480.000000 0 0 1
-32.986422 9.357515 28.390899 44.516404 -0.276416 0.879206 0.006381 0.006069 -334938.000000 0 0 1
-31.758602 9.940215 28.723899 43.959971 -0.303334 0.858716 0.013268 0.002834 1794.900000 0 0 1
-30.953642 10.605515 27.575299 42.790209 -0.330090 0.870519 0.018701 -0.000699 12050.600000 0 0 1
-30.129762 9.784715 26.802799 41.496183 -0.314008 0.868582 0.016353 -0.000202 -79860.800000 0 0 1
-29.290112 10.507915 25.922699 40.500781 -0.344451 0.876227 0.009203 -0.000289 -38963.800000 0 0 1
-28.494442 9.445515 25.122899 39.144744 -0.320087 0.873960 0.003959 -0.009013 -226061.000000 0 0 1
-27.490852 9.990315 24.316599 38.037485 -0.348567 0.877235 -0.009006 -0.015135 -140281.000000 0 0 1
-27.037092 9.042615 23.353799 36.853401 -0.322757 0.884477 -0.018299 0.004230 275516.000000 0 0 1
-26.079652 9.684515 22.297599 35.652784 -0.355561 0.895140 -0.020715 0.015548 -121543.000000 0 0 1
-24.860792 10.167515 22.878199 35.282422 -0.388222 0.865275 -0.018435 -0.000613 879031.000000 0 0 1
-23.853192 10.585315 21.965599 34.110280 -0.417660 0.871135 -0.022887 0.006258 568579.000000 0 0 1
-23.276592 9.545715 20.913299 32.715233 -0.389182 0.877270 -0.025709 0.021156 -446511.000000 0 0 1
-24.203092 9.332515 19.835499 32.654747 -0.368024 0.917974 -0.023640 0.019531 631554.000000 0 0 1
-23.721092 8.488615 18.816999 31.445607 -0.343652 0.929296 -0.017246 0.022915 -263081.000000 0 0 1
-23.760292 6.968415 19.105599 31.275137 -0.285280 0.913615 -0.022516 0.031122 105066.000000 0 0 1
-22.548192 6.585715 19.788499 30.714447 -0.284168 0.870724 -0.018781 0.026815 1169620.000000 0 0 1
-22.488092 5.196315 20.191399 30.666081 -0.227084 0.852068 -0.011643 0.021473 -195898.000000 0 0 1
-22.419692 4.133515 19.083699 29.730726 -0.182322 0.873843 -0.010548 0.022288 -136069.000000 0 0 1
-23.639192 4.142115 18.342499 30.206221 -0.173461 0.918211 -0.006311 0.029805 667145.000000 0 0 1
-23.628192 3.306315 17.200699 29.412365 -0.139028 0.946148 0.000565 0.022124 -193640.000000 0 0 1
-23.596692 1.756715 17.294599 29.308583 -0.074310 0.939630 -0.002499 0.018294 -539526.000000 0 0 1
-22.487992 1.179815 17.927499 28.783623 -0.052416 0.898433 -0.024024 0.026369 -283902.000000 0 0 1
-22.706892 -0.112485 18.444399 29.254255 0.004954 0.888617 -0.015298 0.020407 -306553.000000 0 0 1
-21.463492 -1.016485 18.641699 28.446927 0.047323 0.856197 -0.015101 0.019616 -465813.000000 0 0 1
-20.621792 -0.551985 19.641199 28.484025 0.026761 0.809927 -0.014729 0.021375 -316474.000000 0 0 1
-19.826492 -1.643885 20.080299 28.266774 0.082724 0.780751 -0.006083 0.016397 303242.000000 0 0 1
-18.707892 -1.303085 21.112899 28.238940 0.069542 0.726277 -0.010080 0.015051 343537.000000 0 0 1
-19.211992 -1.162585 22.426699 29.553495 0.060440 0.709249 -0.008386 0.012914 -604885.000000 0 0 1
-18.208692 -0.923885 23.373099 29.643073 0.050695 0.662455 0.001711 0.006922 -178403.000000 0 0 1
-18.666092 -0.877485 24.874699 31.111792 0.046975 0.644290 0.008446 0.007271 301292.000000 0 0 1
-19.350292 0.304315 25.236799 31.802868 -0.015725 0.654194 0.019347 -0.004530 528311.000000 0 0 1
-20.697892 0.115415 25.687099 32.988530 -0.005576 0.678257 0.005853 -0.004847 498992.000000 0 0 1
-21.248092 1.305615 26.520199 34.007455 -0.061369 0.676394 0.020257 -0.010194 -556710.000000 0 0 1
-21.337892 2.512115 25.710399 33.505835 -0.117191 0.696112 0.012517 -0.006068 -453704.000000 0 0 1
-22.460692 2.674915 24.907599 33.645599 -0.118535 0.737290 0.006726 0.002329 -1231480.000000 0 0 1
-22.216892 3.626415 23.708799 32.693246 -0.161801 0.759487 -0.002058 0.003603 -27042.800000 0 0 1
-21.607392 3.083915 22.533799 31.371356 -0.141768 0.769452 -0.014809 0.015460 -206428.000000 0 0 1
-20.270792 2.736915 22.706699 30.561248 -0.134206 0.733270 -0.008048 0.010041 -983240.000000 0 0 1
-19.521192 2.201015 21.439699 29.078894 -0.112276 0.741740 -0.008184 0.014079 -24905.400000 0 0 1
-19.279292 3.199215 20.452199 28.288134 -0.164442 0.762668 -0.005617 0.016372 129479.000000 0 0 1
-18.854292 2.575115 19.306099 27.107951 -0.135740 0.778179 0.003729 0.012255 -209160.000000 0 0 1
-18.533992 3.395515 18.019199 26.071630 -0.181195 0.807728 0.004356 0.013918 644434.000000 0 0 1
-17.155392 3.789515 18.015199 25.163769 -0.217402 0.772858 0.006495 0.006502 601187.000000 0 0 1
-16.859692 4.488215 16.836599 24.245914 -0.260176 0.803197 0.007914 0.010169 465826.000000 0 1 0
-15.375092 4.990015 16.781599 23.300553 -0.313827 0.766672 0.015847 0.014517 365640.000000 0 1 0
-15.019492 5.910915 17.745199 23.987833 -0.374933 0.738085 0.015570 0.014293 126083.000000 0 1 0
-15.530792 7.306715 17.751499 24.692292 -0.439743 0.768566 0.006043 0.013212 -307623.000000 0 1 0
-15.011092 8.187115 16.646599 23.863591 -0.499308 0.798792 0.008046 0.020422 -4027.510000 0 1 0
-15.467392 7.866315 15.297299 23.132801 -0.470483 0.848270 0.011145 0.017084 306887.000000 0 1 0
-16.818092 8.065215 14.943599 23.899938 -0.447159 0.895336 0.006526 0.018712 -77352.300000 0 1 0
-17.121092 7.410015 13.579499 23.074724 -0.408459 0.941593 0.002668 0.019350 -196255.000000 0 1 0
-16.905292 6.067615 13.630899 22.547866 -0.344597 0.921619 0.003651 0.013910 421359.000000 0 1 0
-17.524892 5.307315 12.593099 22.223311 -0.294064 0.968348 0.007762 0.007334 -114294.000000 0 1 0
-17.182492 3.836315 12.658899 21.684166 -0.219666 0.947413 0.004582 0.012942 -67275.000000 0 1 0
-17.866792 3.248015 13.767599 22.788563 -0.179827 0.922104 0.000070 0.012683 503277.000000 0 1 0
-17.523692 1.838015 13.858999 22.417179 -0.104505 0.904306 0.003170 0.006980 -688118.000000 0 1 0
-18.313092 1.027315 14.826899 23.585199 -0.056039 0.890977 0.005302 0.004805 -1602230.000000 0 1 0
-19.621892 1.008715 14.431399 24.378298 -0.051362 0.937286 0.011878 0.012196 -1040760.000000 0 1 0
-20.480792 0.222515 15.241299 25.530561 -0.010864 0.931062 0.002029 0.009402 -716436.000000 0 0 1
-21.795792 -0.053985 14.555699 26.209308 0.002477 0.981996 0.002146 0.010423 -1089320.000000 0 0 1
-21.868292 -1.040485 13.562799 25.753724 0.047544 1.016160 0.016800 -0.003199 -70793.800000 0 0 1
-23.174392 -1.452885 13.273099 26.745812 0.062612 1.051501 0.023067 -0.005818 -381642.000000 0 0 1
-23.219892 -2.697585 12.362299 26.443653 0.115657 1.084340 0.026343 -0.011032 -185742.000000 0 0 1
-22.793192 -3.898385 12.925399 26.491375 0.169394 1.061103 0.026770 -0.012753 116877.000000 0 0 1
-22.959592 -4.926485 11.990799 26.366501 0.211367 1.098678 0.048330 -0.017819 -139166.000000 0 0 1
-22.844892 -6.351385 12.593399 26.848144 0.271174 1.082570 0.047765 -0.019041 110720.000000 0 0 1
-23.766792 -6.578885 13.649199 28.185861 0.270048 1.065283 0.037816 -0.018620 162911.000000 0 0 1
-23.859592 -7.951885 14.038799 28.802786 0.321701 1.061674 0.051946 -0.025509 56805.500000 0 0 1
-24.853692 -8.361585 15.156099 30.287447 0.324537 1.046726 0.051878 -0.014153 177093.000000 0 0 1
-26.193832 -7.957985 14.954299 31.194188 0.294950 1.070833 0.029487 -0.013143 -66517.000000 0 0 1
-26.906342 -8.330085 16.114299 32.450149 0.300237 1.051135 0.023843 -0.012847 586496.000000 0 0 1
-28.346652 -7.650885 16.162699 33.515691 0.263623 1.067583 0.020171 -0.008789 1973960.000000 0 0 1
-29.441552 -8.082785 15.306799 34.153103 0.267935 1.106066 0.017867 -0.002955 1148220.000000 0 0 1
-29.711372 -9.429785 14.959799 34.575743 0.307324 1.123347 0.021518 -0.008044 -484121.000000 0 0 1
-30.012732 -10.400585 16.162099 35.639159 0.333588 1.100116 0.018856 -0.005967 -239242.000000 0 0 1
-28.893822 -10.589785 17.019899 35.166368 0.351304 1.065597 0.025288 -0.004761 16404.500000 0 0 1
-29.239822 -11.246285 18.210899 36.236486 0.367180 1.044242 0.027257 0.005862 426171.000000 0 0 1
-28.091862 -11.368585 19.290799 35.923980 0.384546 1.003932 0.037357 0.005536 1108950.000000 0 0 1
-26.912422 -12.003185 18.791199 34.949450 0.419530 1.003128 0.049650 -0.000631 53422.000000 0 0 1
-25.915402 -12.074585 19.776099 34.763454 0.436016 0.965658 0.042623 -0.005464 254902.000000 0 0 1
-24.770692 -13.051085 19.329099 34.022523 0.484917 0.966569 0.061261 -0.007149 247707.000000 0 0 1
-24.181792 -12.518885 18.143899 32.721287 0.477706 0.983036 0.049067 -0.003446 -17398.700000 0 0 1
-22.985192 -13.231985 17.890899 31.992010 0.522341 0.977339 0.041451 -0.008031 63958.600000 0 0 1
-22.462392 -13.150385 16.443299 30.787558 0.529645 1.007366 0.047663 -0.012796 -329236.000000 0 0 1
-21.862592 -11.995885 15.956799 29.605635 0.501840 1.001572 0.050312 -0.013368 -266632.000000 0 0 1
-21.335992 -12.217085 14.651099 28.620559 0.520032 1.033392 0.080458 -0.018262 302590.000000 0 0 1
-20.321292 -11.110085 14.228199 27.181437 0.500323 1.019898 0.049477 -0.016989 -36101.800000 0 0 1
-20.794792 -9.787185 14.019699 26.921447 0.439898 1.023052 0.037355 -0.018563 518521.000000 0 0 1
-19.733092 -8.847085 13.688599 25.593819 0.421471 1.006478 0.037975 -0.016827 800273.000000 0 0 1
-19.239992 -8.977085 12.174299 24.474045 0.436560 1.050154 0.045497 -0.003371 125118.000000 0 1 0
-18.539492 -10.176385 11.824999 24.230191 0.502001 1.060968 0.029400 -0.009106 193025.000000 0 1 0
-18.383892 -10.301385 10.448599 23.521463 0.510754 1.110498 0.044478 0.005529 -383798.000000 0 1 0
-17.700792 -11.569085 9.861399 23.332572 0.578896 1.134434 0.023546 0.003777 1135720.000000 0 1 0
-16.285892 -11.764785 9.951699 22.420454 0.625596 1.110887 0.020018 -0.002574 1232610.000000 0 1 0
-15.594492 -11.750585 11.217099 22.518608 0.645743 1.049360 0.015839 -0.000752 -393847.000000 0 1 0
-14.118792 -12.118885 11.287799 21.762859 0.709323 1.025499 0.016521 0.001496 -281078.000000 0 1 0
-13.828392 -13.490485 10.938399 22.200589 0.773030 1.055598 0.008928 -0.007745 -324309.000000 0 1 0
-12.484692 -13.871685 10.940399 21.632926 0.837974 1.040570 0.016998 -0.008646 -349182.000000 0 1 0
-12.195992 -15.395485 10.873799 22.450004 0.900842 1.065169 0.022669 -0.009757 -71794.800000 0 1 0
-12.503492 -15.924085 9.607499 22.410217 0.905149 1.127731 0.005323 -0.010075 83170.300000 0 1 0
-12.134992 -17.274185 9.720899 23.241157 0.958399 1.139265 0.000528 -0.007649 -79384.900000 0 1 0
-12.500692 -18.093085 8.508999 23.580290 0.966197 1.201615 -0.004984 0.001178 -139432.000000 0 1 0
-11.721992 -17.870985 7.322599 22.591982 0.990269 1.240711 -0.008438 -0.007077 28945.400000 0 1 0
-12.060792 -18.713685 6.244999 23.122818 0.998304 1.297321 -0.020082 0.006039 -365488.000000 0 1 0
-11.295792 -18.426785 4.967699 22.177000 1.020866 1.344877 -0.007109 -0.000218 -223327.000000 0 1 0
-11.560992 -19.375885 3.891999 22.896050 1.032830 1.399981 -0.006123 -0.000327 1223620.000000 0 1 0
-10.611592 -19.220885 2.766599 22.129220 1.066353 1.445448 0.002249 -0.009122 486303.000000 0 1 0
-11.107092 -19.942685 1.556299 22.880127 1.062632 1.502724 0.014373 -0.009015 11975.300000 0 1 0
-10.952092 -21.359185 1.853699 24.074868 1.096995 1.493723 0.013008 -0.010010 210560.000000 0 1 0
-11.490492 -22.250585 0.784999 25.054663 1.094105 1.539460 0.026925 -0.013432 581013.000000 0 0 1
-10.506992 -22.588285 -0.416401 24.915876 1.135413 1.587509 0.036956 -0.006354 556330.000000 0 1 0
-10.197092 -21.546785 -1.326501 23.874761 1.128774 1.626386 0.024688 -0.014407 791773.000000 0 1 0
-11.162892 -21.481285 -2.431601 24.330401 1.091547 1.670904 0.034280 -0.009531 1130100.000000 0 1 0
-12.209692 -20.327585 -2.292101 23.823119 1.029902 1.667159 0.028819 -0.012393 992918.000000 0 1 0
-13.213092 -20.543985 -1.257601 24.458591 0.999244 1.622237 0.024932 -0.006802 672602.000000 0 1 0
-14.155792 -19.502785 -1.216801 24.129353 0.942941 1.621246 0.029188 -0.000852 56163.400000 0 1 0
25.955808 -20.732985 -4.138501 33.476676 -0.673997 1.694737 0.023482 -0.000197 2077.680000 0 0 1
24.687108 -20.756685 -3.496301 32.442525 -0.699123 1.678775 0.020601 0.002218 239190.000000 0 0 1
24.619808 -21.491085 -2.340301 32.763985 -0.717650 1.642286 -0.003053 -0.000753 -610113.000000 0 0 1
23.194408 -21.620685 -1.784801 31.758780 -0.750297 1.627025 -0.009986 0.002089 -717099.000000 0 0 1
22.307708 -22.178885 -2.663601 31.569472 -0.782502 1.655269 0.005596 -0.003006 -897224.000000 0 0 1
21.177408 -22.717885 -2.040001 31.124693 -0.820478 1.636386 0.008009 0.001642 -200157.000000 0 0 1
20.291108 -23.497785 -3.026601 31.193514 -0.858498 1.667976 0.017264 -0.001432 133860.000000 0 0 1
19.579108 -22.676185 -3.937201 30.216757 -0.858562 1.701466 0.025802 0.002362 -194318.000000 0 0 1
18.553008 -23.379585 -4.613201 30.201005 -0.899997 1.724147 0.030358 0.001532 754440.000000 0 0 1
17.521408 -22.364585 -5.329601 28.906384 -0.906232 1.756232 0.021122 0.016201 781325.000000 0 0 1
16.553108 -21.802485 -4.448301 27.733394 -0.921414 1.731887 0.014425 0.020087 722954.000000 0 0 1
17.124108 -20.836585 -3.567301 27.205220 -0.882886 1.702301 0.009204 0.009028 -576984.000000 0 0 1
16.028408 -20.218285 -2.710101 25.942890 -0.900481 1.675451 0.009373 0.012474 -271596.000000 0 0 1
15.491108 -21.166585 -1.802701 26.291605 -0.939002 1.639416 0.005815 0.011863 91044.900000 0 0 1
14.754408 -20.577085 -0.763801 25.331648 -0.948731 1.600953 0.008885 0.013875 -451340.000000 0 0 1
14.465308 -21.539185 0.433599 25.949367 -0.979399 1.554086 0.012494 0.009345 125768.000000 0 0 1
13.546108 -22.615885 0.288699 26.363965 -1.031139 1.559846 0.014901 0.006500 -204992.000000 0 0 1
12.758408 -22.752485 1.408899 26.123506 -1.059739 1.516838 0.015752 0.004615 -202446.000000 0 0 1
11.783208 -23.957385 1.390799 26.734521 -1.113698 1.518750 0.015519 0.002913 16303.500000 0 0 1
12.377008 -25.185825 1.790099 28.119754 -1.114030 1.507093 0.015287 -0.000285 226514.000000 0 0 1
11.651008 -26.299515 1.322499 28.795129 -1.153769 1.524852 0.017426 -0.001199 82175.100000 0 0 1
12.039008 -27.589565 2.079499 30.173600 -1.159342 1.501824 0.013469 -0.004692 212431.000000 0 0 1
11.438708 -27.677645 3.380799 30.138445 -1.178892 1.458384 0.036300 -0.010545 -179269.000000 0 0 1
12.063208 -28.604025 4.168499 31.322318 -1.171698 1.437316 0.031441 -0.013085 -510451.000000 0 0 1
11.419108 -28.986565 5.513899 31.638901 -1.195521 1.395626 0.028749 -0.010210 -338240.000000 0 0 1
12.232208 -29.904605 6.229799 32.904752 -1.182520 1.380318 0.023473 -0.008850 -201918.000000 0 0 1
11.829808 -30.131195 7.518299 33.231884 -1.196677 1.342583 0.015654 -0.012167 -372236.000000 0 0 1
12.553608 -31.322165 8.183699 34.722385 -1.189609 1.332868 0.010060 -0.004892 -458533.000000 0 0 1
12.124208 -31.624195 9.481599 35.170824 -1.204696 1.297832 0.011970 -0.001903 428658.000000 0 0 1
11.152608 -32.705615 9.473599 35.829973 -1.242162 1.303210 0.008478 0.002390 664726.000000 0 0 1
10.864408 -33.227145 10.841399 36.600744 -1.254780 1.270077 0.003368 0.004386 -242030.000000 0 0 1
12.027408 -33.805095 11.378499 37.641908 -1.228976 1.263710 0.007097 0.000536 -270867.000000 0 0 1
11.969308 -34.238551 12.679399 38.422778 -1.234491 1.234496 0.013960 0.008170 415381.000000 0 0 1
10.909908 33.973707 13.198699 38.045295 1.260070 1.216510 0.012253 0.008319 461617.000000 0 0 1
11.111508 32.711705 12.628699 36.783220 1.243345 1.220339 0.015662 0.005073 934900.000000 0 0 1
10.039708 31.773305 12.963699 35.754666 1.264745 1.199768 0.012575 0.013060 814465.000000 0 0 1
10.002808 30.592515 11.914399 34.320709 1.254784 1.216267 0.004273 0.009563 -291584.000000 0 0 1
9.686808 30.884155 10.583599 34.054043 1.266864 1.254774 0.008851 0.006650 398255.000000 0 0 1
10.608408 31.757055 9.893899 34.913294 1.248402 1.283475 -0.005195 0.003789 391793.000000 0 0 1
10.046308 32.193595 8.519599 34.784184 1.268313 1.323352 -0.005321 0.008346 -82757.700000 0 0 1
8.892408 32.980745 8.514799 35.203782 1.307435 1.326502 0.000359 0.003024 -418424.000000 0 0 1
8.266208 33.265080 7.294199 35.044273 1.327235 1.361121 -0.005095 -0.002038 -377623.000000 0 0 1
8.816508 34.444263 6.508899 36.145592 1.320212 1.389734 0.004341 0.004327 -205184.000000 0 0 1
8.475808 -33.585895 7.121499 35.363362 -1.323596 1.368029 0.007569 0.004303 102469.000000 0 0 1
8.892308 -32.460515 6.341899 34.248764 -1.303414 1.384550 0.019536 -0.007484 -335971.000000 0 0 1
8.238508 -31.120895 6.604199 32.863332 -1.312007 1.368459 0.015350 -0.002944 -215666.000000 0 0 1
8.559008 -30.540065 7.870999 32.678813 -1.297551 1.327545 0.013754 -0.004975 264840.000000 0 0 1
7.782908 -29.352055 8.109199 31.430493 -1.311604 1.309840 0.029670 0.000176 310808.000000 0 0 1
8.455808 -28.016975 7.663199 30.251879 -1.277680 1.314693 0.035218 -0.008987 262759.000000 0 0 1
9.480808 -27.534185 8.547899 30.349360 -1.239183 1.285283 0.032648 -0.006082 756067.000000 0 0 1
10.322408 -26.452335 8.097899 29.527176 -1.198743 1.292984 0.019406 -0.014280 -13086.500000 0 0 1
9.687208 -25.208385 7.414199 28.004911 -1.203910 1.302855 0.033526 -0.016401 -319172.000000 0 0 1
9.238708 -25.590305 6.117099 27.886132 -1.224335 1.349638 0.040276 -0.017469 -270111.000000 0 0 1
8.570608 -24.548985 5.432199 26.563448 -1.234903 1.364844 0.035775 -0.016934 300080.000000 0 0 1
8.130908 -25.019565 3.975499 26.606294 -1.256581 1.420815 0.036337 -0.007586 132506.000000 0 0 1
7.345208 -26.168195 3.746599 27.436536 -1.297146 1.433813 0.025125 -0.006667 -299532.000000 0 0 1
7.834208 -27.470695 4.093999 28.857836 -1.292987 1.428448 0.023950 -0.000543 208597.000000 0 0 1
6.780608 -28.538865 3.639899 29.558287 -1.337529 1.447340 0.025269 -0.001470 356452.000000 0 0 1
5.705108 -28.606015 4.568999 29.525042 -1.373942 1.415422 0.016173 0.009398 435818.000000 0 0 1
4.584608 -29.338155 4.011099 29.963893 -1.415782 1.436529 0.010724 0.010964 557856.000000 0 0 1
4.568808 -30.875965 4.106299 31.481120 -1.423889 1.439987 0.015044 0.004763 -6447.020000 0 0 1
5.652908 -31.568935 3.483599 32.259704 -1.393609 1.462599 0.008888 0.001430 145518.000000 0 0 1
5.619308 -32.911495 3.828699 33.606578 -1.401687 1.456621 0.002713 0.001502 462304.000000 0 0 1
6.753008 -33.775665 3.172499 34.589932 -1.373461 1.478950 0.000038 -0.002676 326440.000000 0 0 1
6.624108 -34.030048 1.797099 34.715307 -1.378546 1.519006 0.006553 -0.004397 -73050.000000 0 0 1
7.546908 34.261507 1.325099 35.107871 1.353985 1.533044 0.002766 -0.003261 -162160.000000 0 0 1
7.129908 33.576173 -0.041001 34.324869 1.361554 1.571991 0.012879 -0.003047 420301.000000 0 0 1
5.935808 32.808715 -0.090201 33.341472 1.391811 1.573502 -0.005275 -0.001492 -153000.000000 0 0 1
4.761008 33.584882 -0.196201 33.921232 1.429974 1.576580 -0.006633 -0.003737 -888572.000000 0 0 1
3.548608 32.686725 -0.066301 32.878853 1.462656 1.572813 -0.008624 -0.003421 -822859.000000 0 0 1
3.440208 31.607725 -1.006401 31.810315 1.462382 1.602439 -0.014144 0.000966 131881.000000 0 0 1
2.313008 30.794135 -0.712601 30.889101 1.495825 1.593868 -0.014876 -0.009632 132784.000000 0 0 1
2.253908 29.541775 -1.640101 29.672993 1.494648 1.626097 -0.014978 -0.005642 -231534.000000 0 0 1
1.830308 29.958005 -2.934201 30.156950 1.509776 1.668248 -0.008775 -0.010133 22082.700000 0 0 1
2.044908 29.037235 -3.957601 29.376951 1.500489 1.705925 -0.007900 -0.011813 -230534.000000 0 0 1
1.752608 29.672205 -5.315001 30.195374 1.511799 1.747739 -0.005237 -0.013497 -33093.600000 0 0 1
0.404208 30.056745 -5.523801 30.562783 1.557349 1.752531 -0.003201 -0.013449 196117.000000 0 0 1
0.181708 30.883305 -6.666801 31.595218 1.564913 1.783401 -0.003380 -0.003778 -88692.500000 0 0 1
0.205908 30.134305 -7.987001 31.175486 1.563963 1.829880 0.002610 -0.005378 -835517.000000 0 0 1
-0.985192 29.464645 -8.286301 30.623499 -1.537372 1.844798 0.017770 -0.004504 -256703.000000 0 0 1
-1.054792 28.973185 -9.608901 30.543232 -1.534407 1.890832 0.024758 -0.011759 -320794.000000 0 0 1
-1.211392 29.927515 -10.813701 31.844305 -1.530341 1.917267 0.009452 -0.015540 -898041.000000 0 0 1
-0.137392 30.770055 -11.024001 32.685528 -1.566331 1.914817 0.004564 -0.016464 -791793.000000 0 0 1
-0.483692 32.063255 -11.497501 34.065801 -1.555712 1.915065 -0.000229 -0.020413 -100405.000000 0 0 1
-0.833292 33.182355 -10.491201 34.811325 -1.545689 1.876929 -0.008639 -0.007383 -50219.500000 0 0 1
0.222408 33.561338 -9.647201 34.921073 1.564170 1.850694 -0.006820 -0.018597 -424123.000000 0 0 1
-0.199192 34.569378 -8.755201 35.661395 -1.565034 1.818841 -0.005764 -0.007646 -602027.000000 0 0 1
0.766208 -34.292944 -7.667101 35.147938 -1.548457 1.790702 0.007840 -0.011519 -749901.000000 0 0 1
1.914408 -33.674265 -8.151301 34.699637 -1.514007 1.807923 0.012124 -0.007466 -503895.000000 0 0 1
2.734408 -33.198125 -7.087701 34.056247 -1.488615 1.780446 0.011017 -0.014404 -648715.000000 0 0 1
3.990808 -32.455225 -7.601701 33.571625 -1.448447 1.799210 0.001833 -0.009353 104582.000000 0 0 1
4.901608 -33.235395 -8.325901 34.611239 -1.424370 1.813734 0.010367 -0.005425 160420.000000 0 0 1
5.648208 -34.199661 -7.580701 35.482194 -1.407120 1.786104 0.019113 0.000700 -1035170.000000 0 0 1
6.083508 33.966977 -8.593701 35.561444 1.393575 1.814870 0.021737 0.007199 -119218.000000 0 0 1
5.107408 32.969415 -8.931401 34.537485 1.417104 1.832369 0.012075 0.007153 -106045.000000 0 0 1
4.060208 33.247535 -9.818301 34.903910 1.449277 1.855940 0.016479 0.002516 394073.000000 0 0 1
3.054808 32.063825 -9.886201 33.692101 1.475810 1.868607 0.013687 -0.014273 90308.900000 0 0 1
3.765408 30.961595 -10.436301 32.889437 1.449775 1.893693 0.013422 -0.011161 93514.200000 0 0 1
3.030008 29.745425 -10.432401 31.667116 1.469282 1.906506 0.008772 -0.014520 -323733.000000 0 0 1
3.670208 28.508465 -11.088301 30.808334 1.442760 1.938970 0.005181 -0.013359 -363105.000000 0 0 1
3.652108 28.852095 -12.466601 31.641704 1.444886 1.975768 0.015120 -0.016963 180517.000000 0 0 1
4.899208 28.751465 -13.137701 31.988250 1.402019 1.994022 0.015067 -0.015523 -46178.200000 0 0 1
4.952308 29.435475 -14.501801 33.185460 1.404114 2.023049 0.023750 -0.017625 -325077.000000 0 0 1
4.128808 28.865575 -15.470801 33.009304 1.428724 2.058592 0.027980 -0.015264 49939.800000 0 0 1
4.379108 29.468845 -16.697801 34.152686 1.423275 2.081643 0.039982 -0.009711 270455.000000 0 0 1
3.373008 28.828355 -17.701601 33.997028 1.454323 2.118445 0.031780 -0.004717 297480.000000 0 0 1
3.654608 27.510955 -18.090101 33.127942 1.438728 2.148459 0.036429 -0.004512 373662.000000 0 0 1
2.747208 27.053335 -19.122501 33.243046 1.469595 2.183685 0.043930 -0.011878 612731.000000 0 0 1
3.265708 25.788505 -19.836301 32.698481 1.444833 2.222627 0.054293 -0.008611 177543.000000 0 0 1
3.470908 24.618915 -19.048601 31.320718 1.430734 2.224561 0.051282 -0.017433 -208039.000000 0 0 1
3.975808 23.616285 -19.803901 31.076204 1.404010 2.261746 0.051156 -0.004999 -269844.000000 0 0 1
4.365908 22.368585 -19.013701 29.680559 1.378039 2.266090 0.053847 -0.009276 164964.000000 0 0 1
3.364908 21.377785 -18.895501 28.729293 1.414675 2.288569 0.058388 -0.008829 150382.000000 0 0 1
4.020208 20.297585 -18.217701 27.568799 1.375264 2.292692 0.054377 -0.006459 507752.000000 0 0 1
3.088208 19.111185 -17.879401 26.352370 1.410590 2.316480 0.046952 -0.017148 62877.200000 0 0 1
2.167508 19.433385 -16.849601 25.812082 1.459720 2.282044 0.049732 -0.014643 -630759.000000 0 0 1
1.227208 18.426685 -16.643501 24.860710 1.504295 2.304292 0.038067 -0.007155 -309162.000000 0 1 0
1.673708 17.183185 -15.715901 23.346364 1.473699 2.309274 0.041319 -0.006553 662950.000000 0 1 0
2.797308 16.354385 -16.103901 23.121991 1.401392 2.341270 0.045396 -0.024282 507205.000000 0 1 0
2.521308 15.224485 -16.950901 22.923241 1.406677 2.403069 0.041481 -0.025446 -294444.000000 0 1 0
2.577508 15.570085 -18.442501 24.273379 1.406742 2.433776 0.025557 -0.020611 -452158.000000 0 1 0
3.890508 15.799585 -18.903601 24.942114 1.329358 2.430883 0.037317 -0.023117 -192207.000000 0 1 0
3.917008 16.406185 -20.226401 26.336537 1.336432 2.446505 0.028167 -0.014241 -283487.000000 0 0 1
4.278008 15.381785 -21.347401 26.657310 1.299530 2.499440 0.014577 -0.013378 -125217.000000 0 0 1
3.343908 14.406885 -21.685401 26.248746 1.342730 2.543036 0.015540 -0.010138 -248966.000000 0 0 1
2.166508 14.768085 -22.377201 26.898498 1.425133 2.553342 0.023828 -0.015413 -144541.000000 0 0 1
1.413908 13.547585 -22.853301 26.604691 1.466807 2.604100 0.029477 -0.004859 -512875.000000 0 0 1
0.839908 12.875085 -21.762601 25.299883 1.505653 2.606430 0.024368 0.000919 -75831.700000 0 0 1
0.058108 11.863885 -22.342701 25.297261 1.565898 2.653452 0.027070 0.004646 -238351.000000 0 0 1
-0.529692 10.821685 -21.354901 23.946216 -1.521888 2.672074 0.022032 -0.001453 -570439.000000 0 1 0
-1.489192 11.380185 -20.451601 23.451957 -1.440677 2.630200 0.020030 -0.003145 197511.000000 0 1 0
-1.935992 10.403485 -19.572801 22.250283 -1.386810 2.645954 0.014990 -0.003978 137953.000000 0 1 0
-3.086592 9.474185 -20.036301 22.377234 -1.255850 2.680098 0.008290 -0.003023 -479661.000000 0 1 0
-2.691492 8.500685 -20.916701 22.737945 -1.264162 2.738629 0.011865 0.002289 -268674.000000 0 1 0
-3.785592 7.663685 -21.241001 22.896351 -1.111988 2.759007 0.012962 0.007290 -140968.000000 0 1 0
-3.349592 6.391185 -21.947101 23.102863 -1.088059 2.823947 0.011915 -0.000746 50741.200000 0 1 0
-2.605992 5.494085 -21.114001 21.972192 -1.127897 2.861182 0.016856 -0.005434 337534.000000 0 1 0
-2.151492 4.384685 -21.859501 22.398486 -1.114630 2.921772 0.016095 -0.008051 -811087.000000 0 1 0
-1.447392 3.295685 -21.092001 21.396939 -1.156978 2.972563 0.021457 -0.010695 -388345.000000 0 1 0
-0.071392 3.541585 -20.914501 21.212361 -1.550641 2.973814 0.016241 -0.007449 -309910.000000 0 1 0
0.478408 2.625285 -20.015001 20.192109 1.390543 3.009048 0.022285 -0.010349 186744.000000 0 1 0
2.019608 2.527285 -20.074801 20.333805 0.896591 2.981813 0.021171 -0.013315 -13863.200000 0 1 0
2.618308 2.056885 -21.216301 21.475981 0.665885 2.985926 0.029328 -0.016750 1290230.000000 0 1 0
4.056808 1.866285 -21.072201 21.540157 0.431170 2.932768 0.036290 -0.016767 1598160.000000 0 1 0
4.781308 1.167285 -22.242301 22.780330 0.239451 2.923824 0.038798 -0.013090 101776.000000 0 1 0
6.195108 1.181585 -22.202401 23.080774 0.188465 2.864824 0.022127 -0.007903 123055.000000 0 1 0
6.684508 0.401185 -23.269001 24.213426 0.059945 2.861377 0.025351 -0.008533 785518.000000 0 1 0
8.202008 0.738285 -23.533801 24.933066 0.089771 2.804981 0.017556 -0.007806 847071.000000 0 1 0
8.421408 1.998585 -24.090001 25.597707 0.233011 2.796665 0.018261 -0.001589 -355138.000000 0 0 1
9.774008 2.255485 -24.335301 26.321575 0.226793 2.750618 -0.001221 0.000411 -546314.000000 0 0 1
13.335108 -21.909785 21.875282 33.710410 -1.024050 0.864635 -0.000013 0.017591 -850284.000000 0 0 1
12.239408 -22.763285 22.153682 34.040504 -1.077459 0.862154 -0.000873 0.026603 404907.000000 0 0 1
11.018208 -22.003685 22.146182 33.106139 -1.106554 0.838008 -0.003088 0.016092 926680.000000 0 0 1
10.396808 -21.646185 20.764082 31.745835 -1.123027 0.857840 0.016962 0.000813 -572790.000000 0 0 1
11.054708 -20.510785 20.275282 30.886663 -1.076460 0.854705 0.014902 0.000412 -149989.000000 0 0 1
10.731408 -20.400885 18.934282 29.830626 -1.086545 0.883142 0.037953 -0.010154 288199.000000 0 0 1
11.211508 -19.040885 18.290682 28.684530 -1.038644 0.879353 0.046567 -0.009080 252995.000000 0 0 1
10.408508 -17.987585 18.771582 28.004688 -1.046224 0.836181 0.048814 -0.008170 -137976.000000 0 0 1
10.648208 -16.845385 18.010382 26.861221 -1.007097 0.835917 0.049110 -0.003903 -84195.200000 0 0 1
9.809208 -15.602585 18.389382 26.035180 -1.009547 0.786499 0.051468 0.012866 189368.000000 0 0 1
8.445008 -15.858685 18.133482 25.527225 -1.081475 0.780789 0.037776 0.008522 -324485.000000 0 0 1
7.639808 -14.943985 18.883582 25.264185 -1.098205 0.726589 0.021135 0.011591 784969.000000 0 0 1
6.102608 -15.082585 18.665382 24.761314 -1.186320 0.716952 0.007419 0.015526 372068.000000 0 1 0
5.706108 -14.834785 17.327782 23.513455 -1.203598 0.742278 0.011457 0.011108 -616644.000000 0 1 0
4.347608 -15.064085 17.091482 23.193687 -1.289824 0.742320 -0.007757 0.017778 -934955.000000 0 1 0
3.795008 -16.474685 16.946582 23.937502 -1.344392 0.784203 -0.012596 0.009977 -1053910.000000 0 1 0
2.451808 -16.405485 16.559382 23.438525 -1.422444 0.786252 -0.022378 0.013976 -607426.000000 0 1 0
1.954508 -17.693685 16.390382 24.197752 -1.460779 0.826640 -0.016397 0.000935 1322950.000000 0 1 0
0.407108 -17.759685 16.048982 23.940384 -1.547877 0.836085 -0.021568 0.010436 1221110.000000 0 1 0
0.123608 -17.396585 14.712582 22.784129 -1.563691 0.868807 -0.020362 -0.001324 -362312.000000 0 1 0
-1.262092 -17.620685 14.586082 22.909282 1.499293 0.880600 -0.018897 0.003434 -282050.000000 0 1 0
-1.634792 -17.837185 13.106882 22.195226 1.479401 0.939085 -0.020000 -0.015316 -640227.000000 0 1 0
-2.903692 -18.355885 12.881582 22.612056 1.413908 0.964683 -0.018464 -0.015133 -681494.000000 0 1 0
-2.835692 -19.697385 12.466782 23.482947 1.427816 1.011150 -0.013030 -0.013165 -947978.000000 0 1 0
-4.146092 -20.425885 12.429282 24.267136 1.370535 1.033069 -0.010396 -0.005068 -831049.000000 0 1 0
-4.819792 -20.544385 13.658182 25.136589 1.340360 0.996364 -0.006322 -0.015006 -627475.000000 0 0 1
-5.858992 -21.446985 13.436782 25.977838 1.304118 1.027173 -0.008519 -0.010369 -617878.000000 0 0 1
-6.545892 -21.958285 14.687682 27.216594 1.281078 1.000764 0.002725 -0.005997 121203.000000 0 0 1
-7.904492 -21.559085 14.781182 27.308579 1.219372 0.998855 0.012031 -0.007229 -209012.000000 0 0 1
-8.551092 -22.398185 15.661682 28.637181 1.206098 0.992139 0.018865 -0.011109 -188119.000000 0 0 1
-10.028192 -22.018985 15.885982 28.944166 1.143433 0.989809 0.024734 -0.006884 550.947000 0 0 1
-10.231092 -20.730685 16.402282 28.345571 1.112343 0.953719 0.019562 -0.010398 -327003.000000 0 0 1
-11.597892 -20.351185 16.421482 28.606763 1.052812 0.959363 0.014871 -0.013358 87052.100000 0 0 1
-11.805192 -19.294385 17.590382 28.654099 1.021712 0.909821 0.016532 -0.007632 -698229.000000 0 0 1
-11.726492 -19.851685 18.866082 29.791426 1.037239 0.885022 0.015064 -0.003990 -19516.100000 0 0 1
-12.087692 -18.835285 19.822482 29.896673 1.000237 0.845933 0.003832 -0.003053 -282053.000000 0 0 1
-12.618392 -19.398585 21.163282 31.359423 0.994084 0.830019 0.003614 -0.003274 -775537.000000 0 0 1
-13.862992 -19.973285 20.982182 32.114897 0.964057 0.858799 0.008262 0.002507 -821208.000000 0 0 1
-14.348392 -20.578885 22.140082 33.459679 0.961926 0.847720 0.014634 0.015530 375638.000000 0 0 1
-15.759892 -21.230785 21.947082 34.362695 0.932233 0.878003 0.013273 0.015192 15911.600000 0 0 1
-15.779692 -22.306985 21.013382 34.469733 0.955129 0.915217 0.026873 0.011056 -381449.000000 0 0 1
-16.995992 -22.787585 20.525082 35.063040 0.929960 0.945452 0.006136 0.019187 -576924.000000 0 0 1
-17.925292 -23.517385 21.501982 36.561164 0.919524 0.942076 0.006702 0.015418 -294367.000000 0 0 1
-18.748892 -22.581785 22.224982 36.815863 0.877871 0.922688 0.027146 0.020061 19487.700000 0 0 1
-19.493392 -23.212185 23.206982 38.175409 0.872259 0.917378 0.006207 0.024026 -134973.000000 0 0 1
-20.112892 -22.212785 24.238062 38.541145 0.834970 0.890674 0.009792 0.026304 97561.200000 0 0 1
-20.901692 -21.181385 23.694482 38.038931 0.792044 0.898351 -0.002165 0.027328 143762.000000 0 0 1
-20.868292 -20.167185 24.643102 38.072082 0.768314 0.866792 0.009033 0.019349 73631.000000 0 0 1
-21.568592 -18.891585 24.130802 37.475215 0.719330 0.871194 0.011134 0.016187 210520.000000 0 0 1
-20.949992 -18.265885 23.031582 36.097070 0.717060 0.878839 0.013890 0.016591 194929.000000 0 0 1
-21.810192 -17.195085 22.621582 35.820265 0.667626 0.887271 0.031426 0.010533 148641.000000 0 0 1
-21.511892 -16.621585 21.220682 34.487040 0.657852 0.908000 0.034343 0.015599 -450854.000000 0 0 1
-20.371892 -15.838385 21.144282 33.360891 0.660847 0.884334 0.030350 0.008735 -923628.000000 0 0 1
-20.149392 -15.507585 19.804882 32.229126 0.655947 0.909041 0.026923 0.003743 -20335.600000 0 0 1
-19.247892 -14.308685 19.535382 30.933008 0.639257 0.887261 0.015623 -0.004805 -231178.000000 0 0 1
-19.006992 -14.281485 18.165382 29.920021 0.644384 0.918351 0.014351 -0.002579 -184607.000000 0 0 1
-18.172492 -13.183985 17.877182 28.699313 0.627630 0.898335 0.019689 -0.018659 -229393.000000 0 0 1
-17.776692 -13.292785 16.372182 27.581828 0.642069 0.935289 0.004909 -0.020029 36140.700000 0 0 1
-17.439392 -12.090385 15.686182 26.388750 0.606202 0.934244 0.006870 -0.017981 217423.000000 0 0 1
-16.134092 -11.581285 15.907282 25.445564 0.622582 0.895473 -0.022824 -0.019589 24194.000000 0 0 1
-15.835692 -10.272285 15.128682 24.190205 0.575446 0.895145 -0.005490 -0.023448 38326.100000 0 1 0
-16.414792 -9.085185 15.677582 24.449388 0.505508 0.874701 -0.001382 -0.014579 125359.000000 0 1 0
-16.247192 -7.938385 14.886682 23.422265 0.454486 0.882039 0.000668 -0.011248 -730382.000000 0 1 0
-16.492892 -6.641185 15.684882 23.709415 0.382806 0.847917 0.008924 -0.000966 94087.400000 0 1 0
-15.729092 -6.376385 16.824682 23.898380 0.385143 0.789769 0.004755 0.000155 -234859.000000 0 1 0
-14.341392 -6.205785 16.608882 22.804435 0.408390 0.754932 0.009714 -0.006078 -100238.000000 0 1 0
-13.506492 -6.373185 17.917582 23.325577 0.440884 0.694847 0.008201 0.000683 56425.700000 0 1 0
-13.635392 -7.574385 18.662882 24.322796 0.507052 0.696176 0.006531 -0.012616 4970.440000 0 1 0
-13.332992 -8.747985 17.907082 23.978313 0.580662 0.727554 0.012797 -0.006678 -419304.000000 0 1 0
-13.191992 -9.992185 18.840582 25.076681 0.648248 0.720738 -0.009354 -0.009467 1426120.000000 0 0 1
-14.432292 -10.670585 19.279082 26.340756 0.636653 0.749674 -0.002520 -0.009362 1205640.000000 0 0 1
-15.072892 -9.895585 20.260582 27.122055 0.580942 0.727236 -0.007582 -0.010379 -1130700.000000 0 0 1
-16.503592 -10.394085 20.679282 28.426014 0.562049 0.756158 -0.003148 -0.009975 898843.000000 0 0 1
-17.489392 -10.317085 19.657682 28.262087 0.532964 0.801612 0.007760 -0.018506 85519.800000 0 0 1
-17.613092 -9.061085 18.974782 27.429302 0.475142 0.806858 0.010554 -0.016052 -1849820.000000 0 0 1
-18.767692 -9.033785 17.988482 27.521283 0.448615 0.858438 0.029784 -0.015861 -1517290.000000 0 0 1
-19.986892 -9.107485 18.588382 28.774122 0.427561 0.868450 0.024873 -0.017302 -990448.000000 0 0 1
-21.002292 -9.174285 17.574082 28.880999 0.411842 0.916628 0.045093 -0.019917 296124.000000 0 0 1
-22.456192 -9.436485 17.982682 30.277131 0.397813 0.934854 0.047707 -0.009075 -82497.300000 0 0 1
-22.968092 -8.339685 18.713082 30.777638 0.348296 0.917246 0.038754 -0.005856 -350710.000000 0 0 1
-24.300992 -8.503085 19.086382 32.048879 0.336592 0.932859 0.031931 -0.000477 -517573.000000 0 0 1
-25.015792 -7.518685 20.008082 32.903553 0.291968 0.917153 0.026624 -0.003913 -213740.000000 0 0 1
-24.576292 -7.499085 21.322782 33.389990 0.296161 0.878121 0.034687 -0.007831 -32734.500000 0 0 1
-25.344242 -6.615985 22.108582 34.276687 0.255347 0.869768 0.023236 -0.007406 -858104.000000 0 0 1
-25.233802 -6.814585 23.625982 35.233086 0.263766 0.835830 0.027857 -0.006532 -85849.200000 0 0 1
-24.060992 -6.410085 24.303332 34.794719 0.260363 0.797528 0.007783 -0.003129 -178944.000000 0 0 1
-22.969092 -7.278285 24.054582 34.046667 0.306864 0.786231 0.017232 -0.001673 -733018.000000 0 0 1
-21.882492 -7.166585 25.134702 34.087485 0.316494 0.741645 0.023837 0.001086 256386.000000 0 0 1
-21.201992 -5.879485 25.042272 33.334790 0.270511 0.720865 0.016185 0.000515 134278.000000 0 0 1
-20.322792 -5.577885 26.089062 33.537559 0.267868 0.679470 0.033856 -0.008061 81316.900000 0 0 1
-19.850892 -4.052185 26.013352 32.972301 0.201365 0.661705 0.019503 -0.010012 830804.000000 0 0 1
-18.908992 -3.565085 27.027082 33.177145 0.186352 0.618706 0.031273 -0.006854 464726.000000 0 0 1
-19.382792 -3.538385 28.377222 34.546773 0.180565 0.606909 0.035943 -0.013400 -111265.000000 0 0 1
-20.355592 -2.417085 28.761662 35.318913 0.118190 0.619202 0.035861 -0.022494 986009.000000 0 0 1
-21.686792 -2.605485 28.228732 35.692672 0.119568 0.658546 0.036781 -0.025537 282392.000000 0 0 1
-22.553892 -1.768685 28.954482 36.744637 0.078260 0.663255 0.036044 -0.011330 -158945.000000 0 0 1
-23.846092 -1.476085 28.191012 36.953323 0.061822 0.703038 0.025556 -0.016344 -720243.000000 0 0 1
-23.616392 -0.718085 27.014632 35.889274 0.030397 0.718610 0.007230 -0.014582 450751.000000 0 0 1
-24.813292 -0.187285 26.440962 36.260985 0.007548 0.753666 0.004324 -0.006332 838623.000000 0 0 1
-25.866492 -1.129585 25.729752 36.501664 0.043642 0.788525 0.002948 -0.006537 463310.000000 0 0 1
-26.588982 -1.972585 26.633662 37.685767 0.074052 0.785931 0.014603 -0.009380 33444.500000 0 0 1
-26.850222 -3.220885 26.052872 37.550774 0.119387 0.804039 0.006791 -0.007162 -743189.000000 0 0 1
-25.774702 -4.264185 26.150072 36.964102 0.163956 0.784920 0.017357 -0.015072 -486186.000000 0 0 1
-25.502262 -4.572885 27.503452 37.785136 0.177427 0.755555 0.025395 -0.013240 390024.000000 0 0 1
-24.393392 -5.489785 27.672712 37.295500 0.221364 0.734770 0.038006 -0.016254 744239.000000 0 0 1
-24.243192 -5.777785 29.168002 38.365186 0.233962 0.707064 0.020526 -0.006035 733394.000000 0 0 1
-25.358982 -6.440385 29.807582 39.661675 0.248710 0.720393 0.029985 -0.006154 709579.000000 0 0 1
-24.884592 -7.200585 30.924092 40.340932 0.281666 0.697316 0.025920 -0.002597 279704.000000 0 0 1
-26.068242 -7.817685 31.737132 41.808073 0.291359 0.708844 0.000227 0.001930 773116.000000 0 0 1
-26.825212 -8.788885 30.938262 41.880933 0.316614 0.739628 -0.002799 0.001050 907298.000000 0 0 1
-27.961442 -9.209785 31.729292 43.282911 0.318183 0.747975 -0.001526 0.006861 216760.000000 0 0 1
-28.993222 -9.905285 30.877502 43.498755 0.329209 0.781514 -0.010680 0.003433 -766501.000000 0 0 1
-28.650662 -11.237985 30.682362 43.457566 0.373800 0.786919 0.002434 0.000961 648883.000000 0 0 1
-29.577502 -11.971485 29.849782 43.693873 0.384594 0.818719 -0.007346 0.007501 34407.500000 0 0 1
-28.954582 -13.271085 29.380202 43.332272 0.429769 0.825729 0.008933 -0.001206 -340929.000000 0 0 1
-28.087542 -12.967085 28.335322 41.951708 0.432514 0.829253 0.013428 0.002549 -795215.000000 0 0 1
-27.131062 -13.961685 28.133762 41.503394 0.475260 0.825940 0.018456 -0.003005 7856.530000 0 0 1
-25.849602 -13.400685 27.406122 39.985945 0.478267 0.815652 0.023554 -0.001277 146482.000000 0 0 1
-25.007392 -12.551985 28.133932 39.679215 0.465191 0.782668 0.016740 -0.003004 -330862.000000 0 0 1
-25.532862 -11.376185 28.727062 40.082274 0.419148 0.771734 0.021207 -0.008261 -948691.000000 0 0 1
-26.045512 -10.262785 27.770622 39.432232 0.375352 0.789413 0.022145 -0.005563 278212.000000 0 0 1
-25.058192 -9.570285 27.020042 38.073429 0.364826 0.781749 0.020600 -0.005127 961161.000000 0 0 1
-24.157192 -10.255385 26.059392 36.984250 0.401470 0.788926 0.015314 -0.006834 834431.000000 0 0 1
-24.713992 -10.492285 24.662372 36.456852 0.401488 0.827822 0.027358 -0.002880 -165626.000000 0 0 1
-25.771792 -11.445785 24.637312 37.445806 0.417954 0.852709 0.025440 -0.002265 146166.000000 0 0 1
-26.456302 -11.179185 23.377882 37.032897 0.399796 0.887602 0.038625 0.005330 467500.000000 0 0 1
-27.834332 -11.922485 23.305882 38.210729 0.404694 0.914824 0.039811 -0.005007 110401.000000 0 0 1
-28.912132 -11.313585 23.954382 39.213786 0.372992 0.913642 0.029354 -0.003027 -694723.000000 0 0 1
-28.942282 -11.538485 25.388402 40.191582 0.379361 0.887072 0.039193 -0.006221 -270104.000000 0 0 1
-30.252992 -11.012585 26.030132 41.401550 0.349107 0.890886 -0.008537 0.005439 74264.300000 0 0 1
-30.398242 -9.592785 26.141432 41.224375 0.305680 0.883919 -0.005265 -0.008283 -857329.000000 0 0 1
-31.669952 -9.090485 26.399882 42.220570 0.279523 0.895300 -0.007365 0.004384 -448110.000000 0 0 1
-32.179512 -9.239185 27.911262 43.588096 0.279593 0.875854 -0.022269 0.011788 -119213.000000 0 0 1
-32.637822 -10.529785 28.255292 44.434956 0.312083 0.881648 -0.014799 0.006119 -36140.700000 0 0 1
-33.113822 -10.620185 29.567072 45.645649 0.310354 0.866166 -0.010106 0.008851 -896411.000000 0 0 1
-33.586172 -12.056985 29.979642 46.606660 0.344658 0.872063 0.002868 0.001161 93296.600000 0 0 1
-34.710471 -12.557485 29.269442 47.108465 0.347129 0.900370 -0.010025 0.006029 -6338.950000 0 0 1
34.325286 -12.060785 29.848992 47.060070 -0.337892 0.883727 -0.001166 0.010306 -906174.000000 0 0 1
33.082789 -12.512685 29.076902 45.787602 -0.361594 0.882738 -0.000601 0.003893 -224724.000000 0 0 1
33.020419 -11.823985 27.839162 44.779165 -0.343856 0.899886 -0.002809 0.010177 167229.000000 0 0 1
32.006339 -12.425985 27.027312 43.695383 -0.370323 0.903914 -0.000705 0.015984 197300.000000 0 0 1
32.010689 -11.950085 25.531062 42.653533 -0.357293 0.929083 -0.002910 0.020235 51231.800000 0 0 1
31.316769 -10.719785 25.340882 41.687098 -0.329800 0.917404 0.008398 0.009448 17059.500000 0 0 1
31.478499 -10.231485 24.043082 40.910255 -0.314260 0.942579 0.005870 0.016246 -193736.000000 0 0 1
30.935959 -8.798485 23.882482 40.060203 -0.277093 0.932081 0.006101 0.023003 444749.000000 0 0 1
29.525529 -8.648185 23.860782 38.934367 -0.284935 0.911139 0.018439 0.020903 56786.800000 0 0 1
29.307209 -7.257985 23.614482 38.330597 -0.242767 0.907048 0.021274 0.021565 -137952.000000 0 0 1
27.848799 -6.758985 23.567482 37.103446 -0.238099 0.882551 0.026341 0.020948 -96919.000000 0 0 1
27.119709 -7.098885 22.372082 35.866180 -0.256017 0.897245 0.017562 0.022289 234589.000000 0 0 1
26.186369 -8.130185 22.636182 35.555908 -0.301038 0.880668 0.006610 0.021606 -224237.000000 0 0 1
14.433008 -17.694385 26.250962 34.792471 -0.886565 0.715902 -0.018960 0.029783 257204.000000 0 0 1
13.668508 -18.884385 26.454312 35.260158 -0.944275 0.722340 -0.034457 0.027401 763913.000000 0 0 1
14.488408 -20.011685 26.110612 35.946427 -0.944146 0.757762 -0.021006 0.029342 -554572.000000 0 0 1
13.653808 -21.268985 26.084392 36.320679 -1.000095 0.769629 -0.038746 0.020145 -238375.000000 0 0 1
13.098108 -21.642085 27.355062 37.259089 -1.026551 0.746331 -0.028244 0.016983 727093.000000 0 0 1
11.789008 -21.036485 27.475322 36.556911 -1.059998 0.720347 -0.030615 0.012445 124242.000000 0 0 1
11.119408 -21.431685 28.809762 37.589370 -1.092198 0.697526 -0.030245 0.008994 -347134.000000 0 0 1
11.709108 -20.955685 30.001722 38.423265 -1.061256 0.674816 -0.029371 0.011344 -274156.000000 0 0 1
11.098708 -19.866785 30.687862 38.204913 -1.061331 0.638075 -0.026017 0.015476 -66153.200000 0 0 1
11.354708 -18.490685 30.010692 37.033451 -1.020090 0.626018 -0.028101 0.009925 -190931.000000 0 0 1
12.503308 -17.784785 30.370622 37.349779 -0.958037 0.621269 -0.029631 0.023475 -502355.000000 0 0 1
12.713208 -16.582285 29.542832 36.185312 -0.916709 0.615592 -0.029760 0.028809 191816.000000 0 0 1
12.968608 -15.297485 30.386912 36.408272 -0.867604 0.583362 -0.033415 0.014692 -108257.000000 0 0 1
12.417608 -14.122785 29.863352 35.291215 -0.849558 0.561987 -0.017877 0.016596 -177124.000000 0 0 1
12.649808 -13.073485 30.804812 35.775272 -0.801867 0.533437 -0.016569 0.021510 -210793.000000 0 0 1
12.019308 -11.755385 30.382512 34.723910 -0.774298 0.505415 -0.010451 0.018882 -133685.000000 0 0 1
12.385808 -11.085185 29.173872 33.576843 -0.730041 0.517884 0.000880 0.019257 -955714.000000 0 0 1
13.707908 -10.722685 29.007212 33.827520 -0.663809 0.540399 0.024783 0.019598 -1117410.000000 0 0 1
13.991208 -9.924185 27.722202 32.600059 -0.616951 0.554103 0.032700 0.014193 22855.200000 0 0 1
14.264108 -8.597485 27.964092 32.547995 -0.542428 0.537161 0.036361 0.006796 -13155.500000 0 0 1
15.637108 -8.309985 28.150352 33.256839 -0.488472 0.561508 0.039120 0.002060 -253939.000000 0 0 1
16.020008 -6.748285 28.216042 33.140988 -0.398682 0.552159 0.036394 -0.002493 103326.000000 0 0 1
17.423508 -6.567785 28.202912 33.795247 -0.360479 0.583530 0.037517 -0.009386 133520.000000 0 0 1
17.769408 -5.196685 27.975442 33.546725 -0.284517 0.584615 0.032371 -0.011341 575623.000000 0 0 1
19.280108 -4.921785 27.657602 34.071829 -0.249940 0.623664 0.038727 -0.013092 -285090.000000 0 0 1
19.648608 -5.653785 26.454052 33.434264 -0.280176 0.657985 0.035067 -0.006365 922559.000000 0 0 1
21.034408 -5.724285 26.095442 34.002733 -0.265705 0.695940 0.028806 -0.003340 1266800.000000 0 0 1
22.125208 -6.117285 27.156502 35.558707 -0.269746 0.701757 0.036802 -0.017491 -476280.000000 0 0 1
22.347308 -5.024985 28.023982 36.193870 -0.221180 0.685229 0.043034 -0.024510 225552.000000 0 0 1
23.289708 -5.352385 29.059792 37.623531 -0.225895 0.688211 0.043735 -0.035037 147953.000000 0 0 1
23.900008 -4.083385 29.706222 38.345066 -0.169219 0.684543 0.058786 -0.040470 -418850.000000 0 0 1
24.825808 -3.407285 28.912412 38.260396 -0.136396 0.714113 0.046151 -0.028390 -40976.100000 0 0 1
24.862108 -2.074485 29.282772 38.469581 -0.083247 0.705646 0.046555 -0.037062 -1009600.000000 0 0 1
25.781208 -1.232685 28.424852 38.394823 -0.047777 0.737235 0.041104 -0.029699 -573538.000000 0 0 1
27.117608 -1.475885 28.774402 39.566516 -0.054372 0.756502 0.036223 -0.022914 -1176270.000000 0 0 1
27.972308 -1.079985 27.799462 39.451572 -0.038590 0.788870 0.027753 -0.010105 -99810.400000 0 0 1
29.432308 -0.769585 28.247112 40.801377 -0.026142 0.806114 0.014020 -0.009146 290090.000000 0 0 1
29.706808 0.320815 29.084482 41.575287 0.010799 0.796012 -0.003457 0.001585 -158664.000000 0 0 1
31.078508 0.225215 29.400032 42.781846 0.007247 0.813157 0.002929 -0.006368 5326.400000 0 0 1
31.570808 1.378315 30.269422 43.759040 0.043630 0.806915 0.005456 -0.012140 -191906.000000 0 0 1
31.731608 2.589915 29.578132 43.456513 0.081439 0.822164 -0.005859 -0.001335 100516.000000 0 0 1
32.013008 3.637415 30.495982 44.362917 0.113138 0.812865 -0.016255 0.002516 -60212.200000 0 0 1
31.685108 5.081615 29.963262 43.904054 0.159024 0.819658 -0.019630 0.009002 -173458.000000 0 0 1
31.815208 6.175315 30.879692 44.764913 0.191716 0.809557 -0.020607 0.016465 108311.000000 0 0 1
30.628608 6.457415 31.590652 44.472229 0.207787 0.780807 -0.015186 0.019137 -633169.000000 0 0 1
30.828208 7.267315 32.881362 45.654970 0.231509 0.766685 -0.011461 0.012343 -488677.000000 0 0 1
31.476808 6.581415 33.957964 46.768021 0.206118 0.758173 -0.008654 0.015950 197993.000000 0 0 1
31.506308 7.332415 -33.979921 46.915315 0.228658 2.380789 -0.007390 0.009639 -250385.000000 0 0 1
32.155308 6.556915 -32.789041 46.390497 0.201156 2.355768 0.013308 0.005575 -224742.000000 0 0 1
31.420208 5.492215 -32.209061 45.330095 0.173050 2.361068 0.004700 0.005658 133575.000000 0 0 1
31.362508 4.257015 -32.927631 45.672289 0.134911 2.375975 0.029041 -0.004646 -94501.500000 0 0 1
30.902208 3.163315 -31.939671 44.554412 0.102010 2.370097 0.025634 -0.010402 -132062.000000 0 0 1
31.014108 1.834215 -32.397881 44.887214 0.059073 2.377141 0.024369 -0.012662 -51343.900000 0 0 1
31.411408 0.952915 -31.403481 44.427055 0.030327 2.355838 0.018884 -0.021202 4728.740000 0 0 1
31.859508 -0.445285 -31.958171 45.128165 -0.013976 2.357692 0.023206 -0.038345 -402434.000000 0 0 1
33.028208 -0.395185 -32.751441 46.515327 -0.011964 2.351951 0.024722 -0.032822 36202.000000 0 0 1
33.693808 -1.657685 -32.914591 47.131634 -0.049159 2.343892 0.030256 -0.027547 669930.000000 0 0 1
34.659308 -2.027585 -31.761971 47.055303 -0.058434 2.311751 0.031820 -0.026488 -839979.000000 0 0 1
33.891808 -2.259985 -30.609991 45.724542 -0.066584 2.304256 0.021892 -0.029347 -360381.000000 0 0 1
34.584108 -2.108585 -29.410321 45.447483 -0.060894 2.274607 0.025195 -0.027012 -416451.000000 0 0 1
33.647808 -1.984485 -28.179931 43.934289 -0.058910 2.267132 0.029572 -0.028392 48823.500000 0 0 1
33.121108 -0.660185 -28.130401 43.459903 -0.019930 2.274797 0.011961 -0.020896 347839.000000 0 0 1
32.356008 -0.347085 -26.972851 42.125603 -0.010727 2.265680 0.016540 -0.012983 34778.500000 0 0 1
31.803408 1.085615 -26.931701 41.688750 0.034122 2.273153 0.004099 -0.003675 19287.500000 0 0 1
30.938108 1.511415 -28.000731 41.755142 0.048814 2.305805 0.020066 -0.018531 651264.000000 0 0 1
30.280108 2.708815 -27.556651 41.031593 0.089221 2.307157 0.010517 -0.004091 2195.550000 0 0 1
29.290208 3.131415 -28.658331 41.097713 0.106505 2.342450 0.026937 -0.005197 78453.100000 0 0 1
28.347408 4.119815 -28.217731 40.209312 0.144323 2.348677 0.018437 0.001780 402086.000000 0 0 1
27.627008 4.700015 -29.279751 40.529564 0.168511 2.378106 0.011188 0.000401 -116261.000000 0 0 1
26.457008 5.592715 -28.838731 39.533836 0.208322 2.388343 0.003731 0.006166 -532067.000000 0 0 1
25.265708 4.926215 -28.560571 38.449055 0.192560 2.408063 0.015685 0.005539 -21889.500000 0 0 1
24.237608 5.870815 -28.257461 37.688357 0.237642 2.418505 0.010061 0.007026 -175745.000000 0 0 1
22.857708 5.278115 -27.989641 36.520588 0.226934 2.444025 0.024289 0.013566 -464233.000000 0 0 1
22.261008 4.856515 -29.201391 37.038621 0.214797 2.479006 0.021265 0.008195 -290889.000000 0 0 1
20.956408 4.382615 -29.015931 36.059709 0.206159 2.505905 0.021305 0.006159 -201249.000000 0 0 1
20.182108 4.225115 -30.320191 36.667194 0.206369 2.544373 0.019219 0.006428 544558.000000 0 0 1
20.777808 3.113715 -31.082371 37.517014 0.148751 2.547197 0.007440 -0.004138 284453.000000 0 0 1
19.913408 2.851315 -32.131141 37.908892 0.142219 2.582221 -0.012315 -0.009794 -284087.000000 0 0 1
20.319608 3.563415 -33.470951 39.317795 0.173603 2.589240 -0.006787 -0.007130 -565666.000000 0 0 1
21.517408 3.142915 -34.012271 40.369684 0.145038 2.572741 0.005732 -0.007606 -909671.000000 0 0 1
21.937408 3.915415 34.016556 40.665789 0.176621 0.579949 0.006574 -0.027337 25147.600000 0 0 1
23.288408 3.310415 33.545726 40.971021 0.141203 0.611536 0.019802 -0.012699 173837.000000 0 0 1
23.264508 1.944515 33.153078 40.548059 0.083389 0.613524 0.038161 -0.028975 -103646.000000 0 0 1
24.577108 1.442115 33.238997 41.363570 0.058610 0.637508 0.043983 -0.037038 -478650.000000 0 0 1
24.603908 -0.143485 33.212486 41.333305 -0.005832 0.637597 0.036116 -0.035014 -551118.000000 0 0 1
24.189308 -0.693485 32.000992 40.120656 -0.028661 0.647459 0.040986 -0.041456 908276.000000 0 0 1
22.784908 -0.614785 31.699252 39.043215 -0.026976 0.623394 0.045794 -0.044481 957732.000000 0 0 1
21.820908 -1.607485 32.491382 39.171750 -0.073534 0.592657 0.036853 -0.041036 32284.500000 0 0 1
21.953308 -2.900585 31.964512 38.885617 -0.131364 0.605858 0.043856 -0.050299 208436.000000 0 0 1
21.279308 -3.768585 32.857732 39.327367 -0.175283 0.581767 0.041493 -0.039793 -165585.000000 0 0 1
21.372908 -5.278585 32.505922 39.259389 -0.242130 0.595304 0.045163 -0.041812 -382652.000000 0 0 1
22.585208 -5.924385 32.744102 40.216492 -0.256533 0.619453 0.051340 -0.035056 -163215.000000 0 0 1
22.344508 -7.314785 32.553362 40.156002 -0.316368 0.625497 0.047891 -0.028837 -309453.000000 0 0 1
23.768508 -7.892285 32.595222 41.105701 -0.320593 0.655143 0.041779 -0.027842 -82176.500000 0 0 1
24.438208 -7.527985 31.410812 40.503527 -0.298818 0.683277 0.043407 -0.028315 -104124.000000 0 0 1
25.717708 -8.113285 31.240372 41.269684 -0.305593 0.712116 0.033443 -0.028891 367892.000000 0 0 1
26.192008 -7.872485 29.789672 40.440350 -0.291978 0.742719 0.025688 -0.021260 485597.000000 0 0 1
25.346608 -8.596885 28.862912 39.362732 -0.326997 0.747700 0.016662 -0.010656 346824.000000 0 0 1
25.830208 -8.457285 27.557512 38.705837 -0.316418 0.778492 0.018375 0.003094 -199792.000000 0 0 1
25.208608 -9.454985 26.583132 37.835613 -0.358832 0.791758 0.002112 0.001020 -430984.000000 0 0 1
23.899208 -9.100185 26.250252 36.647800 -0.363823 0.772333 -0.004087 -0.006581 -577248.000000 0 0 1
23.453208 -9.795785 25.113452 35.730881 -0.395649 0.791400 0.000803 -0.001395 -635674.000000 0 0 1
22.110908 -9.338885 24.577662 34.353581 -0.399637 0.773554 0.008243 0.007471 -761670.000000 0 0 1
21.044008 -9.673685 25.441522 34.404964 -0.430881 0.738510 0.011947 0.007278 -593062.000000 0 0 1
19.892208 -9.132285 24.835982 33.104752 -0.430386 0.722395 0.023265 0.005088 139399.000000 0 0 1
18.693708 -8.922685 25.830252 33.109983 -0.445331 0.675915 0.042788 0.002843 331511.000000 0 0 1
18.036108 -10.134985 26.136912 33.334026 -0.511954 0.669566 0.041508 0.008043 131686.000000 0 0 1
18.738508 -10.894885 27.128852 34.724701 -0.526643 0.674122 0.027774 0.005150 58788.600000 0 0 1
17.808208 -11.808585 27.995012 35.217832 -0.585528 0.651937 0.020448 0.004756 130352.000000 0 0 1
17.170208 -12.786885 27.230662 34.638554 -0.640109 0.666262 0.014576 0.011233 27872.800000 0 0 1
16.347608 -13.587985 28.075292 35.215049 -0.693473 0.648066 0.004205 0.015304 127090.000000 0 0 1
16.962808 -14.966285 28.462022 36.356750 -0.722950 0.671557 -0.002951 0.022080 250430.000000 0 0 1
16.146908 -15.673285 29.452522 37.065153 -0.770515 0.652423 -0.019204 0.019808 327414.000000 0 0 1
16.764908 -16.680485 30.239802 38.389404 -0.782874 0.663710 -0.013479 0.015243 -479668.000000 0 0 1
16.872908 -18.051085 29.605102 38.561623 -0.819121 0.695498 -0.013691 0.030141 674096.000000 0 0 1
17.918208 -17.861785 28.632292 38.208817 -0.783821 0.723696 -0.012780 0.023463 690967.000000 0 0 1
18.040408 -18.984285 27.845802 38.226275 -0.810886 0.754744 -0.018202 0.024284 -208262.000000 0 0 1
18.881708 -18.794085 26.570362 37.626064 -0.783072 0.786723 -0.000488 0.012763 -489651.000000 0 0 1
20.218408 -18.569785 26.893872 38.430474 -0.742920 0.795671 0.013000 -0.000239 -537521.000000 0 0 1
20.978408 -18.034385 25.802582 37.829960 -0.710078 0.820210 0.002622 0.003752 765856.000000 0 0 1
22.415908 -17.672485 26.295362 38.810253 -0.667622 0.826388 0.006252 0.000734 309120.000000 0 0 1
23.193308 -18.771985 26.661092 40.014133 -0.680429 0.841571 0.002575 -0.009204 -920563.000000 0 0 1
24.471708 -18.442285 27.070642 40.887676 -0.645812 0.847214 0.013379 -0.005874 -896627.000000 0 0 1
25.425208 -19.603185 27.241962 42.105232 -0.656815 0.867157 0.006069 0.000909 -479923.000000 0 0 1
25.185808 -20.453585 28.360642 43.092924 -0.682080 0.852467 0.000696 0.007659 -421098.000000 0 0 1
26.157008 -21.434685 28.526642 44.242560 -0.686496 0.870063 0.009972 0.015380 -352132.000000 0 0 1
25.716708 -22.593685 29.403422 45.126322 -0.720843 0.861131 0.005534 0.018772 33976.900000 0 0 1
25.599908 -22.290785 30.777332 45.820067 -0.716410 0.834295 0.006172 0.008370 -43648.400000 0 0 1
25.062008 -23.431385 31.436702 46.533862 -0.751785 0.829064 -0.001033 0.006799 -164216.000000 0 0 1
25.086608 -23.333285 32.976882 47.552654 -0.749203 0.804486 -0.007127 0.001653 236221.000000 0 0 1
24.299408 -24.384385 33.508898 48.040668 -0.787144 0.798878 -0.015161 -0.001282 -180983.000000 0 0 1
24.112408 -24.201185 -34.263619 48.384927 -0.787236 2.357666 0.001116 0.002117 -634642.000000 0 0 1
23.718208 -25.524055 -33.532261 48.357454 -0.822054 2.337028 -0.002359 0.000985 355169.000000 0 0 1
22.422408 -26.026935 -33.819361 48.207001 -0.859659 2.348359 0.000006 -0.001740 -159074.000000 0 0 1
22.187008 -26.360055 33.967423 48.382866 -0.871146 0.792517 -0.010269 -0.012802 -875472.000000 0 0 1
20.852308 -27.089035 33.819293 48.087204 -0.914762 0.790780 0.005100 -0.015942 -16522.800000 0 0 1
21.072508 -28.458795 34.057064 49.130818 -0.933431 0.804889 0.007307 -0.013488 136639.000000 0 0 1
19.871908 -29.133745 33.778017 48.832594 -0.972190 0.806941 0.024986 -0.002299 -193293.000000 0 0 1
19.990108 -30.646985 33.954312 49.917306 -0.992827 0.822746 0.007552 -0.005243 -249264.000000 0 0 1
20.462908 -30.969205 -33.883501 50.258471 -0.986901 2.310657 -0.004832 -0.007604 294937.000000 0 0 1
21.272308 -32.117585 -33.964701 51.358069 -0.985805 2.293389 -0.027444 0.008993 -344893.000000 0 0 1
21.667308 -32.783045 -32.697631 51.120792 -0.986776 2.264794 -0.020989 0.005999 -690719.000000 0 0 1
22.651308 -33.755645 -32.888531 52.289395 -0.979774 2.251026 -0.027024 0.011236 122532.000000 0 0 1
23.311408 -34.216177 -31.744371 52.171579 -0.972733 2.224916 -0.023200 0.017071 3611.960000 0 0 1
24.261608 -33.377425 -30.891921 51.545988 -0.942253 2.213433 -0.018678 0.005145 -274857.000000 0 0 1
24.865608 -34.014291 -29.736601 51.570688 -0.939544 2.185380 -0.010100 0.009592 26711.200000 0 0 1
25.533408 -33.120895 -28.914981 50.843139 -0.914043 2.175733 -0.011503 0.001891 -638700.000000 0 0 1
25.821608 -33.521585 -27.439681 50.432016 -0.914431 2.146103 -0.012905 0.001694 108871.000000 0 0 1
26.787508 -34.537901 -27.301821 51.534713 -0.911113 2.129132 -0.012626 0.016276 1142220.000000 0 0 1
28.090508 -34.027547 -26.872481 51.663148 -0.880685 2.117821 -0.009155 0.001440 1393820.000000 0 0 1
-26.089582 -30.701855 9.030799 41.289532 0.866435 1.350295 0.009690 -0.000645 -144015.000000 0 0 1
-26.016752 -31.948555 9.740099 42.337348 0.887377 1.338658 0.018376 -0.005196 83642.500000 0 0 1
-24.762392 -32.132355 10.362699 41.869437 0.914218 1.320697 0.010712 -0.005961 66520.200000 0 0 1
-24.814192 -33.317255 11.350899 43.065374 0.930641 1.304071 -0.000503 0.002230 302793.000000 0 0 1
-25.163272 -34.560155 10.715299 44.072805 0.941459 1.325208 -0.000780 0.007262 112927.000000 0 0 1
-25.120232 33.626615 11.666299 43.564639 -0.929196 1.299695 -0.007336 0.011672 -68670.900000 0 0 1
-24.986292 32.220215 11.027399 42.238141 -0.911183 1.306659 0.002765 0.007231 -826455.000000 0 0 1
-26.118522 31.667715 10.458299 42.360328 -0.881134 1.321328 0.006739 0.002891 -761636.000000 0 0 1
-25.953262 30.381415 9.836699 41.150490 -0.863841 1.329417 0.010061 0.000994 -391619.000000 0 0 1
-25.406062 30.132215 8.410099 40.300721 -0.870291 1.360568 0.009236 0.001542 -461867.000000 0 0 1
-24.030592 29.888815 8.527399 39.287748 -0.893621 1.352005 0.010947 0.006106 -551396.000000 0 0 1
-23.407492 29.943515 7.288599 38.699463 -0.907301 1.381326 0.006823 0.007693 -615999.000000 0 0 1
-22.065192 29.242415 7.174999 37.329240 -0.924382 1.377384 0.021187 0.008344 -782399.000000 0 0 1
-22.124692 27.844915 7.322099 36.310528 -0.899376 1.367752 0.022715 -0.001199 200532.000000 0 0 1
-22.536992 27.132515 6.176799 35.808410 -0.877658 1.397433 0.009110 -0.005384 -424693.000000 0 0 1
-22.886892 25.594415 6.479899 34.940993 -0.841187 1.384264 0.009751 -0.002492 -62702.900000 0 0 1
-24.022492 25.301315 7.295299 35.643485 -0.811319 1.364666 0.005621 -0.005462 595137.000000 0 0 1
-24.265892 23.874615 7.441799 34.845532 -0.777271 1.355573 0.002601 -0.019106 -71054.300000 0 0 1
-24.734292 23.060115 6.185199 34.377475 -0.750384 1.389891 -0.011986 -0.023128 309958.000000 0 0 1
-26.061882 23.344215 5.710999 35.451228 -0.730447 1.408997 -0.007133 -0.023078 838783.000000 0 0 1
-26.280392 22.742215 4.438699 35.036686 -0.713349 1.443768 -0.009874 -0.020493 -57467.000000 0 0 1
-25.912512 23.680115 3.276599 35.255386 -0.740414 1.477723 -0.021514 -0.016955 -148689.000000 0 0 1
-24.539192 24.003015 3.178799 34.473489 -0.774353 1.478455 -0.011942 -0.015859 263893.000000 0 0 1
-24.353692 24.873615 2.111099 34.874859 -0.795959 1.510226 -0.012175 -0.012753 366543.000000 0 0 1
-22.951592 25.549715 2.166199 34.413020 -0.838915 1.507808 0.010802 -0.005639 393442.000000 0 0 1
-22.503892 26.283515 1.027499 34.616529 -0.862715 1.541110 0.000066 -0.004323 -303105.000000 0 0 1
-21.198892 26.774215 1.188999 34.171118 -0.901097 1.535994 0.008251 -0.011135 -1124280.000000 0 0 1
-20.624592 27.344315 -0.097801 34.250473 -0.924577 1.573652 0.005798 -0.007068 -67990.500000 0 0 1
-20.323092 26.437215 -1.164601 33.366311 -0.915415 1.605707 -0.002511 -0.009194 571667.000000 0 0 1
-19.347692 25.410115 -0.894401 31.950072 -0.920028 1.598794 0.003240 -0.015356 -65105.100000 0 0 1
-18.899992 24.629215 -2.149201 31.119560 -0.916264 1.639914 0.007389 -0.020320 -841671.000000 0 0 1
-19.858392 23.806415 -2.706101 31.119513 -0.875570 1.657865 0.001754 -0.021654 -661464.000000 0 0 1
-19.339292 22.775415 -3.437101 30.075595 -0.866807 1.685329 0.004538 -0.021960 -921225.000000 0 0 1
-20.406992 21.990215 -4.171301 30.288853 -0.822723 1.708953 -0.009508 -0.012377 -765244.000000 0 0 1
-21.168092 22.774015 -5.036901 31.497845 -0.821928 1.731398 -0.017708 0.001501 -500330.000000 0 0 1
-21.992692 21.854815 -5.702001 31.524978 -0.782254 1.752670 -0.018059 0.005990 -96033.300000 0 0 1
-22.692392 22.574215 -6.877001 32.738860 -0.782787 1.782429 -0.016444 0.018459 55182.900000 0 0 1
-21.734892 22.651815 -7.930401 32.379029 -0.806053 1.818238 -0.019411 0.001049 509989.000000 0 0 1
-22.191192 23.473615 -8.991001 33.530549 -0.813474 1.842262 -0.008005 -0.001422 -227964.000000 0 0 1
-21.628092 22.976715 -10.305701 33.195049 -0.815624 1.886472 -0.005035 -0.005802 -121298.000000 0 0 1
-22.084992 21.712315 -10.724001 32.774620 -0.776889 1.904140 -0.006129 -0.008513 -274886.000000 0 0 1
-21.467992 21.473815 -11.953101 32.632438 -0.785534 1.945821 -0.010930 -0.001689 -102465.000000 0 0 1
-22.038792 22.065415 -13.284201 33.897801 -0.786002 1.973481 0.000539 0.003927 330768.000000 0 0 1
-23.244992 21.529415 -13.838901 34.573986 -0.747101 1.982607 -0.013759 -0.002273 388446.000000 0 0 1
-23.100292 20.241215 -14.451301 33.943635 -0.719527 2.010580 0.013749 -0.004448 -464750.000000 0 0 1
-24.346392 19.393115 -14.348701 34.274260 -0.672634 2.002748 0.024378 -0.012565 -434387.000000 0 0 1
-24.040492 18.285215 -15.105201 33.770719 -0.650251 2.034526 0.019309 -0.009792 394040.000000 0 0 1
-25.208762 17.486015 -15.252601 34.261994 -0.606450 2.032167 0.013670 -0.001089 175548.000000 0 0 1
-25.039292 16.521515 -16.478001 34.226468 -0.583250 2.073094 0.020516 0.000994 -487743.000000 0 0 1
-24.240492 15.380815 -16.262301 32.994444 -0.565408 2.086193 0.054175 0.006268 40147.900000 0 0 1
-23.817492 14.946415 -17.553601 33.148109 -0.560423 2.128867 0.033150 -0.001722 95981.900000 0 0 1
-22.864192 13.716015 -17.619401 31.958467 -0.540339 2.154744 0.032562 0.002528 725583.000000 0 0 1
-21.643092 13.935615 -16.887201 30.786399 -0.572063 2.151399 0.040711 -0.004129 848262.000000 0 0 1
-20.800692 12.779915 -16.895501 29.689274 -0.550939 2.176180 0.043192 0.005732 984645.000000 0 0 1
-19.439592 12.925715 -16.119701 28.369290 -0.586790 2.175125 0.045791 -0.000692 526025.000000 0 0 1
-18.477692 13.722815 -16.745701 28.463297 -0.638793 2.199784 0.040809 0.000767 416476.000000 0 0 1
-17.277392 13.775015 -15.978501 27.268513 -0.673084 2.196872 0.043727 0.010450 563212.000000 0 0 1
-16.228192 14.866615 -16.336901 27.409210 -0.741638 2.209353 0.025050 0.013801 -72398.600000 0 0 1
-15.741192 14.764515 -17.672801 27.894514 -0.753393 2.256940 0.034610 0.003663 144702.000000 0 0 1
-14.963492 15.912015 -17.936801 28.263530 -0.816109 2.258322 0.014132 0.005599 -170082.000000 0 0 1
-13.963392 15.749715 -19.114501 28.432270 -0.845445 2.308083 0.012328 0.005244 125945.000000 0 0 1
-13.138892 14.627715 -18.984201 27.331308 -0.838966 2.338654 0.005632 0.003450 -516546.000000 0 0 1
-12.271292 14.561615 -20.084701 27.677075 -0.870547 2.382819 0.016881 -0.005106 220857.000000 0 0 1
-11.217892 13.433115 -20.041001 26.606980 -0.875021 2.423745 0.016300 -0.008684 115505.000000 0 0 1
-11.832092 12.160415 -20.168001 26.355689 -0.799082 2.442185 0.023865 -0.009112 -252210.000000 0 0 1
-10.958392 11.082515 -20.114901 25.446370 -0.791030 2.482392 -0.001273 0.007933 -699391.000000 0 0 1
-11.398892 9.910015 -20.908501 25.793576 -0.715640 2.515987 0.006720 0.002235 -173356.000000 0 0 1
-11.221192 10.067315 -22.298701 26.916501 -0.731249 2.547113 0.013946 -0.002169 -36222.300000 0 0 1
-11.430092 8.856115 -23.013401 27.178933 -0.659189 2.580618 0.008786 0.014150 -49499.600000 0 0 1
-11.424392 9.073115 -24.506801 28.520544 -0.671187 2.604634 0.006392 0.003203 634660.000000 0 0 1
-10.237692 9.639015 -25.120531 28.788227 -0.755288 2.631291 0.009490 -0.005129 702695.000000 0 0 1
-10.185192 9.221515 -26.505451 29.854872 -0.735782 2.663361 0.014284 -0.005415 -32814.200000 0 0 1
-9.386092 10.125315 -27.479241 30.752714 -0.823267 2.675999 0.024966 -0.009821 151375.000000 0 0 1
-7.995892 10.216315 -27.287541 30.214521 -0.906719 2.697793 0.037382 -0.008155 -16349.500000 0 0 1
-7.592792 11.264515 -26.459921 29.743356 -0.977703 2.667282 0.016527 -0.004972 417943.000000 0 0 1
-6.100992 11.700615 -26.675871 29.761193 -1.090156 2.682220 0.016163 -0.006521 538176.000000 0 0 1
-5.931592 12.409815 -27.900891 31.107025 -1.124923 2.683578 0.012046 -0.018551 857354.000000 0 0 1
-4.564892 12.853215 -27.934321 31.086487 -1.229536 2.687365 0.020331 -0.014682 677584.000000 0 0 1
-3.965492 12.829515 -29.347271 32.273579 -1.271020 2.712463 0.011931 -0.009428 756601.000000 0 0 1
-2.568492 13.151715 -29.493291 32.394737 -1.377927 2.715130 0.008726 -0.014373 1072020.000000 0 0 1
-2.087192 12.961915 -30.855841 33.532828 -1.411142 2.739306 -0.000814 -0.008968 -61244.700000 0 0 1
-0.561292 12.805615 -30.853021 33.409695 -1.526993 2.747838 0.011687 -0.012848 -674063.000000 0 0 1
-0.199692 11.636415 -30.126241 32.296075 -1.553637 2.772942 -0.005725 0.004155 441574.000000 0 0 1
1.155908 11.227415 -30.313421 32.346475 1.468204 2.785160 0.008342 -0.004323 567117.000000 0 0 1
1.565508 10.633715 -31.697211 33.469985 1.424625 2.814666 0.012933 -0.007931 -516995.000000 0 0 1
1.556708 11.536815 -32.752261 34.759633 1.436672 2.800082 0.018305 -0.014512 86905.000000 0 0 1
1.510108 10.816815 -33.982281 35.694248 1.432085 2.830625 0.021863 -0.014300 -78363.200000 0 0 1
1.652908 11.714815 33.945772 35.948358 1.430626 0.335358 0.022676 -0.020372 297114.000000 0 0 1
2.981408 12.212515 33.710413 35.978136 1.331353 0.356943 0.022369 -0.021121 600951.000000 0 0 1
2.998408 13.158015 32.644352 35.323895 1.346745 0.392008 0.029907 -0.016611 -424712.000000 0 0 1
4.423408 13.435115 32.196052 35.166101 1.252732 0.413942 0.046187 -0.013080 -366660.000000 0 0 1
4.958008 12.462215 31.287982 34.041541 1.192151 0.404976 0.045698 -0.012398 37624.900000 0 0 1
6.370108 12.499815 31.294142 34.295000 1.099485 0.421445 0.049485 -0.009539 133503.000000 0 0 1
7.045908 11.170215 30.826312 33.536250 1.008054 0.404768 0.038687 -0.002047 23624.800000 0 0 1
6.987808 11.029415 29.441672 32.206980 1.006064 0.417416 0.031442 -0.005566 14704.100000 0 0 1
7.723708 9.888115 29.014652 31.611399 0.907680 0.408156 0.026882 -0.005816 30389.100000 0 0 1
7.030608 9.016515 27.966452 30.213399 0.908527 0.388097 0.014675 -0.004182 -233617.000000 0 0 1
6.078208 8.177515 28.556902 30.320175 0.931608 0.342718 0.016856 -0.009354 -375200.000000 0 0 1
5.562208 7.291715 27.562112 29.047845 0.919146 0.321216 0.022730 -0.011418 105700.000000 0 0 1
4.698008 6.172615 28.252862 29.298408 0.920226 0.267957 0.017039 -0.013297 66698.100000 0 0 1
5.535908 5.298515 28.962112 29.958713 0.763491 0.258658 0.011188 -0.011425 -9225.960000 0 0 1
4.894508 4.737215 30.083462 30.844969 0.769069 0.222668 0.001739 -0.008392 -350170.000000 0 0 1
5.677108 3.576015 30.768202 31.491264 0.562116 0.214705 0.003310 -0.003228 133339.000000 0 0 1
5.759708 2.352915 30.075762 30.712570 0.387823 0.203992 -0.000837 0.001020 -366352.000000 0 0 1
6.672208 2.237515 29.023132 29.864143 0.323563 0.237884 0.006236 -0.000786 -464417.000000 0 0 1
6.675608 0.899815 28.288242 29.079169 0.133984 0.233766 -0.005640 -0.001865 89611.600000 0 0 1
7.185808 -0.189085 29.062002 29.937795 -0.026308 0.242477 -0.015287 0.012207 204252.000000 0 0 1
7.305808 -1.379385 28.316672 29.276466 -0.186610 0.256766 -0.005966 0.013663 -289906.000000 0 0 1
7.647008 -2.590385 29.259242 30.352761 -0.326613 0.269241 -0.007839 0.016853 -273804.000000 0 0 1
8.971808 -2.760385 29.674582 31.123848 -0.298481 0.306367 -0.002551 0.004954 -768992.000000 0 0 1
9.704008 -3.567685 28.806762 30.605975 -0.352312 0.344591 -0.000075 0.015326 8929.330000 0 0 1
11.220408 -3.447485 29.167262 31.440609 -0.298096 0.382609 0.002593 0.008250 1025070.000000 0 0 1
12.139008 -4.398485 28.594702 31.374499 -0.347628 0.424124 0.009709 0.003519 585039.000000 0 0 1
12.509708 -5.530185 29.423072 32.446771 -0.416241 0.435141 0.013359 0.005052 -154740.000000 0 0 1
11.656808 -6.752485 29.107302 32.073545 -0.525040 0.433461 0.010536 0.011598 471993.000000 0 0 1
10.239208 -6.580585 29.076762 31.521478 -0.571216 0.396436 -0.000191 0.017426 381299.000000 0 0 1
9.582208 -7.797585 28.824262 31.360152 -0.683073 0.404913 -0.013139 0.015029 -439438.000000 0 0 1
8.060908 -7.722585 28.764842 30.855027 -0.763966 0.370192 -0.016292 0.015416 -430164.000000 0 0 1
7.538208 -7.446785 30.078462 31.890329 -0.779297 0.338709 -0.014685 0.015554 53131.600000 0 0 1
6.124908 -7.511985 30.055572 31.579770 -0.886765 0.311956 -0.018312 0.013102 -55804.000000 0 0 1
5.575108 -6.720685 31.236462 32.434026 -0.878298 0.272590 -0.019919 0.015055 -404081.000000 0 0 1
5.478708 -7.417085 32.500612 33.783416 -0.934592 0.276457 -0.027876 0.021228 -12934.100000 0 0 1
4.941708 -6.821185 33.656316 34.694332 -0.943839 0.245232 -0.023095 0.015961 -77124.800000 0 0 1
5.679408 -5.583185 34.247495 35.161322 -0.776855 0.228486 -0.008968 0.009934 -347444.000000 0 0 1
5.472708 -4.415985 33.425742 34.157455 -0.678940 0.207358 -0.005379 0.016164 529837.000000 0 0 1
6.470208 -3.394485 33.694126 34.477243 -0.483159 0.213544 0.002634 0.008064 430852.000000 0 0 1
6.289108 -2.207885 32.706402 33.378682 -0.337623 0.201042 0.003694 0.006807 -176165.000000 0 0 1
5.018908 -1.614885 32.709182 33.131373 -0.311299 0.159813 -0.003393 0.007344 -729189.000000 0 0 1
5.022308 -0.409285 31.974802 32.369416 -0.081314 0.156306 -0.004679 0.006207 161424.000000 0 0 1
3.651508 0.268615 31.705972 31.916678 0.073431 0.114970 0.005883 0.000473 286312.000000 0 0 1
3.002408 0.666515 32.904102 33.047521 0.218451 0.093198 0.002574 0.000037 844652.000000 0 0 1
1.771008 1.406915 32.633322 32.711613 0.671326 0.069200 0.004551 0.006108 1054910.000000 0 0 1
0.966808 1.622815 33.934400 33.986935 1.033500 0.055608 0.001737 -0.000527 -762437.000000 0 0 1
1.439308 2.515915 -34.221845 34.344375 1.051158 3.057096 0.006297 -0.002115 -453378.000000 0 0 1
0.672008 2.653415 -33.050201 33.163353 1.322750 3.058962 -0.005270 0.005963 -506240.000000 0 0 1
1.206908 3.662815 -32.022211 32.253602 1.252497 3.021737 0.002724 0.013130 304100.000000 0 0 1
2.456708 3.267515 -31.451441 31.716009 0.926107 3.012338 -0.003419 0.017732 447462.000000 0 0 1
2.953308 4.220215 -30.554111 30.985254 0.960204 2.974579 -0.008043 0.019167 -47193.400000 0 0 1
3.992108 3.631815 -29.563881 30.052455 0.738175 2.961029 0.001168 0.013991 16848.700000 0 0 1
3.457808 2.897715 -28.449081 28.804573 0.697498 2.984322 0.003358 -0.004301 662742.000000 0 0 1
4.515008 2.178915 -27.802961 28.251330 0.449626 2.963195 0.011158 -0.007349 232964.000000 0 0 1
4.126108 1.390415 -26.545521 26.900236 0.325029 2.979017 0.011759 -0.005934 -29189.800000 0 0 1
3.264408 0.292015 -26.794871 26.994569 0.089217 3.019881 0.019819 -0.002060 100085.000000 0 0 1
2.974408 -0.332585 -25.578061 25.752571 -0.111353 3.025110 0.019410 0.004343 -269450.000000 0 0 1
3.715208 -1.678285 -25.449381 25.773832 -0.424295 2.982754 0.033054 -0.007123 1401070.000000 0 0 1
5.137108 -1.564985 -25.174411 25.740824 -0.295711 2.931423 0.030984 -0.014864 1314350.000000 0 0 1
5.757608 -2.872485 -25.187151 25.996034 -0.462769 2.891479 0.033040 -0.019262 180500.000000 0 0 1
7.234908 -2.899685 -24.768701 25.966144 -0.381188 2.836718 0.044308 -0.019642 -27618.500000 0 0 1
8.133608 -2.246785 -25.619481 26.973347 -0.269514 2.823416 0.029524 -0.016171 -742249.000000 0 0 1
9.437708 -2.551185 -25.215411 27.044331 -0.264008 2.771720 0.025681 -0.010272 -473333.000000 0 0 1
-28.395992 -3.880185 17.688782 33.679091 0.135804 1.017828 0.016828 0.000247 114611.000000 0 0 1
-29.790272 -3.881285 17.941582 34.991785 0.129557 1.032427 0.014209 0.014857 94561.200000 0 0 1
-30.238622 -4.690485 19.038282 36.039299 0.153889 1.014241 0.014229 0.013069 1213230.000000 0 0 1
-31.736272 -4.434985 19.452582 37.486838 0.138846 1.025212 0.011812 0.015202 606121.000000 0 0 1
-32.666802 -4.562585 18.445082 37.790980 0.138773 1.060906 0.010071 0.011426 -576563.000000 0 0 1
-33.987112 -4.591385 18.937882 39.177136 0.134279 1.066272 0.020983 0.014906 -366844.000000 0 0 1
-35.010255 -4.504385 17.825782 39.544481 0.127956 1.103160 0.010543 0.015148 -1029660.000000 0 0 1
33.926429 -4.787285 18.263282 38.826128 -0.140182 1.081068 0.021291 0.017900 -761206.000000 0 0 1
33.017689 -4.793085 17.141382 37.509578 -0.144160 1.096192 0.013952 0.014640 280487.000000 0 0 1
31.686629 -5.427985 17.582382 36.642130 -0.169655 1.070323 0.016096 0.021458 -265508.000000 0 0 1
31.174749 -4.722485 18.698282 36.657777 -0.150341 1.035522 0.023449 0.009429 114320.000000 0 0 1
29.928769 -5.312185 19.042182 35.868583 -0.175665 1.011149 0.023475 0.006751 318999.000000 0 0 1
29.299719 -4.852985 20.384982 36.021834 -0.164142 0.969264 0.029531 0.012746 -151387.000000 0 0 1
28.603849 -3.605985 20.397782 35.316467 -0.125405 0.955046 0.036249 0.005688 -201054.000000 0 0 1
29.219459 -2.353185 20.148382 35.570656 -0.080361 0.968626 0.038282 0.005178 -242849.000000 0 0 1
28.263989 -1.162185 20.385482 34.867917 -0.041096 0.946349 0.045019 0.006224 402881.000000 0 0 1
28.874759 0.127015 20.111182 35.188457 0.004399 0.962430 0.031935 0.006126 267718.000000 0 0 1
27.938459 1.156015 20.373882 34.597528 0.041354 0.941121 0.036286 0.009804 138415.000000 0 0 1
28.311979 2.579715 19.797682 34.643489 0.090867 0.962501 0.009177 0.014964 -34335.600000 0 0 1
28.321599 2.564315 18.397482 33.869692 0.090297 0.996571 0.005051 0.011828 77077.600000 0 0 1
28.459259 3.829715 17.809582 33.790196 0.133765 1.015655 -0.003773 0.021086 -250.178000 0 0 1
27.886389 3.789815 16.366682 32.555824 0.135074 1.044046 -0.005005 0.018803 -114811.000000 0 0 1
28.049169 4.973215 15.611182 32.483808 0.175480 1.069476 -0.020933 0.028314 241916.000000 0 0 1
27.569649 4.725515 14.305682 31.417648 0.169753 1.098043 -0.004520 0.027650 -347270.000000 0 0 1
27.176819 5.983515 13.630682 30.986730 0.216712 1.115323 -0.007896 0.027207 -379483.000000 0 0 1
26.053089 6.561015 14.213382 30.394582 0.246703 1.084190 -0.003649 0.025021 -315084.000000 0 0 1
25.365339 7.520815 13.470882 29.688849 0.288242 1.099844 0.003082 0.006461 -1030960.000000 0 0 1
24.357819 8.298915 14.300782 29.439561 0.328373 1.063555 0.008044 0.000478 317152.000000 0 0 1
22.988719 7.897615 14.305382 28.204565 0.330911 1.038862 0.004438 0.008779 892549.000000 0 0 1
22.721019 6.637215 14.852382 27.944420 0.284210 1.010429 0.015085 0.006957 -931318.000000 0 0 1
21.391319 5.942415 14.506082 26.520318 0.270963 0.992044 0.036086 0.008422 -260887.000000 0 0 1
21.266119 5.767415 13.109682 25.639319 0.264832 1.034086 0.050630 0.009732 35606.300000 0 0 1
20.314719 4.793915 12.875382 24.524374 0.231743 1.018077 0.068723 0.006350 -827961.000000 0 1 0
19.857219 4.635915 11.456982 23.389385 0.229354 1.058894 0.067394 0.002258 -586838.000000 0 1 0
20.810019 4.148615 10.561682 23.702680 0.196777 1.108963 0.064047 -0.002185 349170.000000 0 1 0
20.283219 4.049515 9.249282 22.657378 0.197058 1.150289 0.061809 -0.009479 608355.000000 0 1 0
21.348919 3.327515 8.325482 23.155180 0.154619 1.203009 0.053731 -0.002682 -109968.000000 0 1 0
21.475219 2.025615 8.751982 23.278431 0.094045 1.185353 0.039385 0.000266 792152.000000 0 1 0
22.396019 1.303015 7.925982 23.792871 0.058115 1.231181 0.030922 0.002578 1019250.000000 0 1 0
23.946919 1.548015 8.091182 25.324267 0.064554 1.245591 0.042453 0.001833 619447.000000 0 0 1
24.640319 1.023015 9.260482 26.342901 0.041494 1.211585 0.016634 0.011493 660252.000000 0 0 1
24.187119 1.469015 10.506582 26.411418 0.060661 1.161674 0.011762 0.014428 -809176.000000 0 0 1
24.960419 0.852715 11.688082 27.574643 0.034149 1.133082 0.001386 0.012158 -856487.000000 0 0 1
26.323339 1.114915 11.642982 28.804865 0.042329 1.154690 -0.009564 0.022472 -468982.000000 0 0 1
26.978719 0.315815 12.629182 29.790053 0.011706 1.133006 0.009632 0.010000 -1384710.000000 0 0 1
28.456719 0.367315 12.757582 31.187749 0.012907 1.149375 0.009697 0.010332 -1353110.000000 0 0 1
28.905729 1.602915 13.332382 31.872605 0.055396 1.139221 0.000864 0.019507 337880.000000 0 0 1
30.325619 1.582415 13.403282 33.193300 0.052134 1.155135 0.001362 0.022840 320046.000000 0 0 1
30.947889 2.930815 13.706982 33.974150 0.094420 1.155509 0.002007 0.023296 -656743.000000 0 0 1
30.641959 3.757515 12.607882 33.346773 0.122017 1.183071 -0.002159 0.016812 360999.000000 0 0 1
31.345719 4.977415 12.638782 34.162371 0.157476 1.191828 0.000807 0.010456 434560.000000 0 0 1
32.806089 5.038015 12.089782 35.323985 0.152379 1.221481 -0.003206 0.018602 599924.000000 0 0 1
33.618039 4.024615 12.700382 36.161717 0.119149 1.211932 -0.011521 0.018684 9901.020000 0 0 1
34.960726 4.115115 12.276482 37.281343 0.117168 1.235242 -0.005233 0.022216 384097.000000 0 0 1
-34.296289 3.189415 13.124382 36.859967 -0.092729 1.206748 0.011722 0.024069 -235571.000000 0 0 1
-34.117473 1.799915 12.754882 36.468187 -0.052708 1.213488 0.007947 0.022813 -334412.000000 0 0 1
35.049164 0.893415 12.974682 37.384281 0.025485 1.216359 0.019338 0.022941 -126607.000000 0 0 1
34.489669 0.703815 14.425382 37.391500 0.020404 1.174729 0.007320 0.031621 147736.000000 0 0 1
-34.875798 -0.086885 15.266182 38.070791 0.002491 1.158194 0.016304 0.025000 392347.000000 0 0 1
34.979865 -0.012685 16.649582 38.740156 -0.000363 1.126552 0.023980 0.019556 264105.000000 0 0 1
-34.180648 -0.742885 17.517382 38.415195 0.021731 1.097299 0.017444 0.021609 1089660.000000 0 0 1
-32.866872 -0.165785 17.536682 37.253107 0.005044 1.080662 0.019278 0.021632 1074120.000000 0 0 1
-31.821732 -0.703085 18.358482 36.744398 0.022091 1.047629 0.023375 0.016821 876890.000000 0 0 1
-32.055372 -0.596185 19.889982 37.729480 0.018596 1.015525 0.013517 0.005989 -445078.000000 0 0 1
-32.855362 -1.523085 20.565782 38.791055 0.046324 1.011997 0.018891 0.005291 -203522.000000 0 0 1
-32.887932 -1.353185 21.952382 39.564558 0.041122 0.982614 0.013118 0.002571 22037.000000 0 0 1
-33.441042 -2.557685 22.681982 40.488484 0.076335 0.976159 0.014108 0.002629 -265920.000000 0 0 1
-32.577812 -3.659485 22.674582 39.860285 0.111862 0.965688 0.017940 -0.001324 -69521.400000 0 0 1
-33.182602 -4.882385 23.118482 40.735574 0.146089 0.967299 0.023125 -0.000036 213513.000000 0 0 1
-33.611892 -5.026385 24.618632 41.965472 0.148442 0.943892 0.013341 -0.013604 -852087.000000 0 0 1
-32.524082 -4.950385 25.434002 41.583779 0.151047 0.912674 0.009425 -0.013121 -1257290.000000 0 0 1
-32.821782 -4.711685 26.780912 42.622607 0.142580 0.891396 0.007378 -0.017033 -57322.000000 0 0 1
-31.580122 -4.102785 27.471392 42.057274 0.129193 0.859007 0.004099 -0.017447 212722.000000 0 0 1
-31.418082 -2.716385 27.337372 41.734956 0.086245 0.856583 0.001147 -0.006240 -296248.000000 0 0 1
-30.752242 -2.394485 26.143172 40.433889 0.077707 0.867722 0.009320 -0.005513 -391230.000000 0 0 1
-30.541962 -0.871385 26.072712 40.166616 0.028523 0.864377 0.006816 -0.006288 -324949.000000 0 0 1
-31.755922 -0.191785 25.962932 41.018888 0.006039 0.885438 0.018386 -0.015824 -488268.000000 0 0 1
-31.601382 1.150015 25.511632 40.630201 -0.036375 0.891947 0.005587 -0.002809 -337107.000000 0 0 1
-32.930442 1.900415 25.325212 41.585958 -0.057646 0.916016 0.011336 -0.008228 141315.000000 0 0 1
-33.746582 1.396815 24.242892 41.575241 -0.041368 0.948246 0.011420 0.005211 227425.000000 0 0 1
-34.720684 2.357615 23.837782 42.182035 -0.067798 0.970221 0.010512 0.014567 298598.000000 0 0 1
-34.170680 3.711515 23.230182 41.485565 -0.108193 0.976461 0.011601 0.021635 -237246.000000 0 0 1
-33.603442 3.476815 21.928282 40.275664 -0.103099 0.995057 0.008005 0.001440 -521557.000000 0 0 1
-34.431210 3.771815 20.817382 40.411610 -0.109111 1.029633 0.011897 0.012915 -51127.500000 0 0 1
-33.954922 3.129815 19.444482 39.253284 -0.091916 1.052548 0.014376 0.013002 231557.000000 0 0 1
-32.746452 3.577115 18.863982 37.960185 -0.108805 1.050726 0.002615 0.018992 40152.800000 0 0 1
-32.568962 3.061015 17.525882 37.111503 -0.093710 1.078955 0.011207 0.028313 -170841.000000 0 0 1
-31.718152 3.867115 16.543582 35.981743 -0.121322 1.093052 0.010519 0.028481 -191217.000000 0 0 1
-32.181432 5.121715 16.229582 36.404338 -0.157828 1.108712 0.010311 0.019240 -281216.000000 0 0 1
-31.477602 5.576815 15.126382 35.365912 -0.175348 1.128838 0.013462 0.020319 -209608.000000 0 0 1
-31.849292 7.070815 14.861082 35.850043 -0.218465 1.143365 0.012531 0.001817 151944.000000 0 0 1
-31.310162 7.517515 13.624182 34.963661 -0.235638 1.170526 0.016505 0.004615 24653.300000 0 0 1
-31.501282 8.910715 13.474382 35.401844 -0.275667 1.180338 0.007797 0.000130 -149759.000000 0 0 1
-30.776682 9.610215 12.272882 34.499044 -0.302663 1.207085 0.005944 0.002820 -148399.000000 0 0 1
-31.104232 10.942315 12.220382 35.164545 -0.338273 1.215871 -0.001135 0.005267 22738.700000 0 0 1
-30.470592 11.510415 11.106582 34.413701 -0.361184 1.242176 -0.016325 -0.001506 -553500.000000 0 0 1
-30.604982 13.042515 11.172482 35.094109 -0.402850 1.246800 -0.012878 0.004559 118702.000000 0 0 1
-29.841822 13.734515 10.195882 34.396617 -0.431340 1.269853 -0.015527 0.003222 201688.000000 0 0 1
-29.936392 15.151415 10.395582 35.125789 -0.468532 1.270343 -0.010960 0.005165 70542.500000 0 0 1
-29.245022 16.011615 9.300082 34.614082 -0.500921 1.298775 0.012988 0.001407 382528.000000 0 0 1
-27.827312 15.882815 9.187582 33.332188 -0.518645 1.291544 0.007897 0.008580 285686.000000 0 0 1
-27.422752 16.873415 8.246982 33.237511 -0.551599 1.320054 0.000382 -0.008441 1033820.000000 0 0 1
-25.886342 17.256815 8.418082 32.229869 -0.587983 1.306543 0.006886 0.000225 1279190.000000 0 0 1
-25.540412 17.819515 9.696082 32.616894 -0.609180 1.268962 0.001979 0.004992 361263.000000 0 0 1
-26.154142 19.102915 9.940582 33.878838 -0.630837 1.272998 0.006876 -0.012121 -111350.000000 0 0 1
-26.211922 19.358615 11.439682 34.535303 -0.636128 1.233172 0.016073 -0.000942 922935.000000 0 0 1
-24.898892 19.503515 12.039582 33.842184 -0.664480 1.207073 0.019253 0.003450 1101420.000000 0 0 1
-24.885992 20.010515 13.364182 34.616971 -0.677228 1.174441 0.017956 -0.003237 -207988.000000 0 0 1
-25.328512 19.108015 14.526082 34.894940 -0.646316 1.141446 0.023005 -0.001027 66864.700000 0 0 1
-24.536592 17.962115 14.790382 33.814750 -0.631917 1.118097 0.030695 0.002740 64539.200000 0 0 1
-25.040992 17.332715 15.918382 34.363777 -0.605454 1.089158 0.026825 0.007153 -923611.000000 0 0 1
-24.235092 16.178415 16.438582 33.456057 -0.588622 1.057159 0.039703 0.009571 -279567.000000 0 0 1
-23.010592 16.535815 17.043582 33.066663 -0.623112 1.029286 0.038759 0.009764 -218371.000000 0 0 1
-22.100792 15.500715 17.300482 32.062811 -0.611641 1.000857 0.013160 -0.003529 -136773.000000 0 0 1
-22.394392 14.359115 18.305582 32.292217 -0.570159 0.968091 0.020039 0.003244 -966414.000000 0 0 1
-22.256792 14.693415 19.668482 33.137749 -0.583496 0.935350 0.017364 0.003783 181625.000000 0 0 1
-22.659492 13.584915 20.495682 33.437636 -0.540070 0.911004 0.012036 0.002756 -382938.000000 0 0 1
-22.303992 13.836015 22.033382 34.269130 -0.555240 0.872451 0.007821 -0.004002 29269.100000 0 0 1
-20.932492 13.948515 22.356582 33.653336 -0.587788 0.844213 0.013934 -0.005942 155154.000000 0 0 1
-20.447992 15.306415 22.212182 33.849487 -0.642575 0.855019 0.028230 0.006233 576189.000000 0 0 1
-18.961392 15.383815 22.735282 33.362992 -0.681607 0.821051 0.057496 -0.008108 1440070.000000 0 0 1
-17.838592 15.014315 21.952482 32.024311 -0.699642 0.815514 0.032338 0.000340 255268.000000 0 0 1
-17.436592 15.902415 20.942582 31.551756 -0.739413 0.844971 0.038794 -0.001419 -1300950.000000 0 0 1
-16.319992 15.361515 20.016282 30.049456 -0.755154 0.841814 0.037964 0.010898 926341.000000 0 0 1
-15.099892 15.076315 20.712982 29.737681 -0.784617 0.800256 0.034450 0.013344 566804.000000 0 0 1
-14.369392 16.135815 21.311682 30.348505 -0.843239 0.792269 0.026657 0.005235 -1381930.000000 0 0 1
-13.287592 15.594615 22.187182 30.199721 -0.865106 0.745599 -0.012085 0.010396 -158203.000000 0 0 1
-12.103592 14.995515 21.648382 28.983010 -0.891712 0.727358 -0.000128 0.020851 213264.000000 0 0 1
-11.474092 14.248715 22.650482 29.115718 -0.892849 0.679405 0.005117 0.008538 -630798.000000 0 0 1
-10.226092 13.599915 22.100482 27.891969 -0.926066 0.656128 -0.000012 0.008989 -1732030.000000 0 0 1
-9.783392 12.470215 22.845982 27.805753 -0.905553 0.606535 0.010952 0.007593 1049850.000000 0 0 1
-8.510892 11.980915 22.370382 26.765867 -0.953144 0.581244 0.014421 0.011531 930557.000000 0 0 1
-7.214092 12.783815 22.323682 26.717332 -1.057030 0.581662 0.007993 0.010680 -1048380.000000 0 0 1
-7.037892 13.664015 21.152482 26.146983 -1.095167 0.628375 0.002863 0.003661 -258546.000000 0 0 1
-6.171592 14.766415 21.326882 26.664048 -1.174914 0.643773 0.000523 0.005438 -197887.000000 0 0 1
-6.644592 15.873715 22.294282 28.163105 -1.174367 0.657352 -0.017416 0.013280 727307.000000 0 0 1
-7.753992 16.701715 21.868582 28.588574 -1.136145 0.699846 -0.028082 0.009164 580782.000000 0 0 1
-7.308192 17.641315 20.913882 28.319889 -1.178053 0.739972 -0.023145 0.014147 -920082.000000 0 0 1
-8.366292 17.858415 19.816582 27.957374 -1.132682 0.782981 -0.006326 0.010593 185220.000000 0 0 1
-9.382892 18.772615 20.116282 29.070854 -1.107294 0.806576 -0.017737 0.012642 -55402.700000 0 0 1
-10.434592 18.208415 20.912682 29.627139 -1.050418 0.787156 -0.016699 0.011087 -808210.000000 0 0 1
-11.700892 19.030615 21.016282 30.671800 -1.019532 0.815920 -0.016203 0.000311 -263046.000000 0 0 1
-12.434992 19.080015 19.795282 30.174976 -0.993207 0.855268 -0.011114 0.003182 -579000.000000 0 0 1
-13.665792 19.710115 19.936482 31.188232 -0.964555 0.877299 -0.003988 -0.001727 -508357.000000 0 0 1
-14.492692 19.671915 18.648082 30.737165 -0.935849 0.918900 0.007378 0.004564 -222209.000000 0 0 1
-15.148092 18.413415 18.464982 30.157488 -0.882387 0.911849 0.033414 0.004655 94592.400000 0 0 1
-15.724192 18.502415 17.152882 29.728958 -0.866392 0.955775 0.049303 -0.005225 -236168.000000 0 0 1
-16.639492 17.292615 16.756382 29.269157 -0.804644 0.961253 0.046563 -0.000584 565433.000000 0 0 1
-17.852292 17.001915 17.395882 30.172606 -0.761005 0.956302 0.043042 0.003850 -129031.000000 0 0 1
-18.920492 17.901515 17.248682 31.240459 -0.757732 0.985884 0.043332 -0.000691 -181116.000000 0 0 1
33.480659 -9.355085 11.622999 36.654689 -0.272469 1.248132 -0.013897 0.018561 -47091.600000 0 0 1
32.258099 -10.036085 11.403299 35.655900 -0.301626 1.245262 -0.010615 0.016979 27202.000000 0 0 1
32.189349 -11.233785 12.183699 36.204898 -0.335775 1.227577 -0.019279 0.016821 343353.000000 0 0 1
30.749449 -11.856985 12.218799 35.148482 -0.368031 1.215750 -0.006582 0.030770 1074450.000000 0 0 1
29.864829 -10.980785 12.966899 34.360240 -0.352340 1.183830 -0.012313 0.031703 -184519.000000 0 0 1
28.519189 -11.319685 13.009599 33.327602 -0.377844 1.169779 -0.008943 0.024651 -232906.000000 0 0 1
28.002499 -12.327585 14.092199 33.685299 -0.414701 1.139170 -0.015062 0.026625 -583458.000000 0 0 1
27.993329 -11.849085 15.420999 34.085693 -0.400415 1.101321 -0.009363 0.023849 800191.000000 0 0 1
26.869069 -12.270985 16.249799 33.713201 -0.428408 1.067859 -0.007628 0.023674 1769420.000000 0 0 1
25.502019 -11.541785 15.997199 32.240908 -0.425000 1.051606 -0.000762 0.006274 534679.000000 0 0 1
25.709629 -10.218785 16.390899 32.156961 -0.378323 1.035942 -0.017926 0.032431 278798.000000 0 0 1
24.712519 -9.479385 15.674899 30.761499 -0.366277 1.036120 0.010111 0.013639 429495.000000 0 0 1
24.445019 -8.103185 16.267499 30.460665 -0.320087 1.007413 0.035908 -0.004580 -422923.000000 0 0 1
25.510409 -7.211885 16.139999 31.036943 -0.275514 1.023916 0.017516 -0.007135 -469718.000000 0 0 1
25.148219 -5.893585 16.480799 30.639582 -0.230200 1.002861 0.016262 0.006804 -20963.200000 0 0 1
26.312429 -4.896685 16.325099 31.350125 -0.183993 1.023085 0.020709 0.003552 21942.300000 0 0 1
26.631569 -4.648485 14.968099 30.901341 -0.172807 1.065138 0.030462 -0.002797 986745.000000 0 0 1
27.749409 -3.717685 14.889499 31.710378 -0.133180 1.082019 0.032412 0.007755 595918.000000 0 0 1
27.964519 -3.180985 13.489199 31.210439 -0.113264 1.123864 0.033014 0.001978 -500369.000000 0 0 1
28.621329 -4.057785 12.672899 31.563404 -0.140836 1.157636 0.014690 0.006986 49815.600000 0 0 1
28.780539 -3.482485 11.370299 31.140502 -0.120416 1.197025 0.017238 0.003343 -116901.000000 0 0 1
29.285329 -4.417285 10.232799 31.334535 -0.149708 1.238128 0.032060 0.006516 525276.000000 0 0 1
30.685569 -4.670785 10.165099 32.661133 -0.151055 1.254310 0.009456 0.004587 611025.000000 0 0 1
31.018659 -5.452385 8.974599 32.747964 -0.174000 1.293194 0.009558 0.002495 -399793.000000 0 0 1
32.296889 -6.270885 8.901999 34.083114 -0.191778 1.306547 0.007012 0.005059 -517276.000000 0 0 1
33.470459 -5.487985 8.980999 35.086293 -0.162519 1.311946 0.017928 0.004688 -392370.000000 0 0 1
34.556861 -6.291585 8.592299 36.160590 -0.180092 1.330887 0.011029 -0.010982 466414.000000 0 0 1
-34.460067 -5.371485 8.117999 35.808532 0.154631 1.342102 0.020572 -0.015334 486306.000000 0 0 1
-34.649280 -4.743085 6.848499 35.636658 0.136043 1.377418 0.031681 -0.016078 52698.700000 0 0 1
-33.578822 -3.855485 6.631999 34.443946 0.114318 1.377042 0.026221 -0.006659 -442964.000000 0 0 1
-33.566942 -3.205185 5.222099 34.121593 0.095198 1.417149 0.039719 -0.009739 -199063.000000 0 0 1
-32.901062 -3.984785 4.234599 33.410929 0.120527 1.443712 0.042485 -0.012067 248588.000000 0 0 1
-32.979332 -3.302685 3.006799 33.280398 0.099811 1.480326 0.038852 -0.006875 -101429.000000 0 0 1
-32.523712 -4.238285 1.878999 32.852481 0.129583 1.513570 0.042876 -0.011243 362405.000000 0 0 1
-33.362872 -5.361085 1.487899 33.823605 0.159328 1.526792 0.046875 -0.000428 -31426.600000 0 0 1
-34.217169 -5.135685 0.390399 34.602634 0.148979 1.559514 0.032287 0.006229 -497694.000000 0 0 1
-33.671982 -5.026985 -1.048101 34.061289 0.148198 1.601572 0.053915 0.001403 -1018440.000000 0 0 1
-33.451442 -6.300285 -1.697201 34.081858 0.186160 1.620615 0.056985 -0.012646 944012.000000 0 0 1
-32.404722 -6.362685 -2.698901 33.133575 0.193884 1.652342 0.050519 -0.008180 345020.000000 0 0 1
-30.962452 -6.198585 -2.215001 31.654417 0.197585 1.640828 0.050529 -0.017155 -897519.000000 0 0 1
-30.476822 -7.182985 -1.372601 31.341920 0.231463 1.614605 0.056352 -0.015063 -211083.000000 0 0 1
-29.262832 -6.741085 -0.805401 30.040043 0.226413 1.597610 0.034888 -0.019892 -469167.000000 0 0 1
-28.802032 -7.710185 0.246799 29.817191 0.261563 1.562519 0.011723 -0.014085 -307713.000000 0 0 1
-28.462262 -8.974485 -0.348901 29.845660 0.305444 1.582487 0.014259 -0.006041 321556.000000 0 0 1
-27.983862 -9.838485 0.643899 29.669966 0.338079 1.549093 0.017132 0.000216 -172464.000000 0 0 1
-27.476102 -11.197185 0.106799 29.670263 0.386976 1.567197 -0.000640 -0.001252 -328577.000000 0 0 1
-26.328812 -11.166985 -0.707701 28.607844 0.401138 1.595537 -0.006223 0.001540 69160.200000 0 0 1
-25.727032 -12.356685 -1.088901 28.561399 0.447764 1.608930 -0.016812 0.008735 -265761.000000 0 0 1
-26.531262 -13.316285 -1.977301 29.751319 0.465174 1.637306 -0.013067 0.006572 -693465.000000 0 0 1
-27.602002 -14.035385 -1.457301 30.999778 0.470418 1.617824 -0.002576 -0.001373 17083.800000 0 0 1
-28.171212 -14.866085 -2.429001 31.945543 0.485565 1.646905 -0.003057 -0.004824 61480.300000 0 0 1
-29.164222 -15.975185 -1.948801 33.310001 0.501127 1.629335 0.011832 -0.007965 148089.000000 0 0 1
-28.534242 -17.021385 -1.260001 33.249332 0.537860 1.608701 -0.006968 -0.000571 730069.000000 0 0 1
-29.348792 -17.445385 -0.118001 34.142451 0.536303 1.574252 -0.000622 0.004851 328125.000000 0 0 1
-29.656332 -18.969685 -0.065201 35.204420 0.569065 1.572648 0.010812 -0.001389 762054.000000 0 0 1
-28.512522 -19.833785 0.232799 34.733228 0.607778 1.564094 0.022795 -0.009499 1299190.000000 0 0 1
-28.875852 -21.213785 0.228299 35.831433 0.633608 1.564425 0.030548 -0.012862 138564.000000 0 0 1
-29.630152 -21.741085 1.506399 36.781652 0.633019 1.529830 0.032419 -0.005140 296937.000000 0 0 1
-28.832782 -21.951585 2.701399 36.338670 0.650720 1.496388 0.028256 -0.001036 375052.000000 0 0 1
-29.677712 -22.276885 3.811799 37.303565 0.643902 1.468434 0.024859 -0.005360 97008.400000 0 0 1
-28.970382 -22.193285 5.174299 36.859168 0.653706 1.429951 0.010411 0.000761 -839583.000000 0 0 1
-28.499482 -20.862885 5.422899 35.733573 0.631910 1.418448 -0.003399 0.005794 323059.000000 0 0 1
-27.840082 -20.818385 6.694599 35.401878 0.642082 1.380548 -0.016656 0.005244 104933.000000 0 0 1
-27.370732 -19.429985 7.230899 34.336091 0.617327 1.358616 -0.018385 0.013108 470105.000000 0 0 1
-26.569202 -19.656685 8.420199 34.105828 0.636960 1.321332 -0.021724 0.005103 126186.000000 0 0 1
-26.240592 -18.412285 9.004699 33.296629 0.611847 1.296948 -0.013816 0.003073 494012.000000 0 0 1
-25.030992 -18.592785 9.977599 32.738275 0.638871 1.261101 -0.010065 0.010660 442625.000000 0 0 1
-25.440932 -19.338085 11.150799 33.845869 0.649945 1.235067 -0.010567 0.013911 4562.220000 0 0 1
-24.365792 -19.688085 11.997799 33.544890 0.679613 1.205031 -0.003609 0.033178 -56309.400000 0 0 1
-24.061392 -18.615085 13.081999 33.115112 0.658466 1.164678 -0.003837 0.020568 -434081.000000 0 0 1
-23.485892 -17.470685 12.493499 31.826081 0.639573 1.167388 0.000564 0.005981 6793.350000 0 0 1
-23.085892 -16.397285 13.329599 31.297085 0.617587 1.130834 0.010419 0.007092 544364.000000 0 0 1
-22.099992 -16.627785 14.522199 31.237591 0.645028 1.087280 0.026373 0.010453 24393.200000 0 0 1
-22.807592 -17.255185 15.566099 32.561190 0.647683 1.072355 0.016369 0.002093 172046.000000 0 0 1
-21.934192 -17.558185 16.647699 32.657993 0.675042 1.035892 0.026934 0.002466 -182456.000000 0 0 1
-22.689492 -18.391485 17.711799 34.157980 0.681155 1.025670 0.006256 0.026092 -115060.000000 0 0 1
-23.698792 -17.692385 18.349499 34.804559 0.641291 1.015476 0.023519 0.016435 -448054.000000 0 0 1
-24.345392 -18.519385 19.320999 36.179645 0.650310 1.007437 0.003536 0.027203 155327.000000 0 0 1
-25.405862 -17.745085 20.149199 36.963983 0.609694 0.994284 0.018956 0.017030 -182684.000000 0 0 1
-24.945892 -16.941985 21.176099 36.847734 0.596595 0.958569 0.037611 0.009890 -300310.000000 0 0 1
-25.945522 -16.127985 21.712999 37.479812 0.556158 0.952896 0.040756 -0.001968 -68260.400000 0 0 1
-25.304172 -15.103285 22.719599 37.210086 0.538114 0.914008 0.039541 0.001020 410137.000000 0 0 1
-24.294492 -14.289885 22.145599 35.844814 0.531694 0.904831 0.040535 -0.002633 122156.000000 0 0 1
-23.397792 -13.863085 23.130699 35.702535 0.534883 0.866008 0.040187 -0.003491 34428.600000 0 0 1
-22.231092 -12.989485 22.600399 34.259687 0.528791 0.850405 0.042622 -0.002175 177496.000000 0 0 1
-22.676092 -11.649385 22.252099 33.838871 0.474571 0.853181 0.052929 -0.000193 666811.000000 0 0 1
-21.785992 -10.970585 21.338799 32.408757 0.466493 0.852070 0.055937 -0.007165 -88384.900000 0 0 1
-21.298492 -9.641185 21.994199 32.098644 0.425072 0.815909 0.054641 -0.005346 23225.900000 0 0 1
-20.754392 -9.847085 23.273999 32.701512 0.443006 0.778867 0.054265 -0.008067 168170.000000 0 0 1
-19.381192 -10.194685 23.254999 31.943030 0.484238 0.755375 0.032918 -0.008625 55684.500000 0 0 1
-18.697992 -10.300685 24.687099 32.636971 0.503532 0.712981 0.029964 -0.000490 614683.000000 0 0 1
-19.134192 -11.453785 25.389899 33.792802 0.539392 0.720705 0.035694 0.000354 198205.000000 0 0 1
-18.272092 -11.567185 26.509199 34.211208 0.564369 0.684289 0.042883 0.007031 -219846.000000 0 0 1
-18.554092 -12.872985 27.339999 35.460451 0.606558 0.690387 0.031481 -0.011781 -151938.000000 0 0 1
-19.666192 -12.908485 28.169799 36.700486 0.580847 0.695772 0.033949 -0.003667 -1049210.000000 0 0 1
-20.885292 -13.179585 27.515599 36.973031 0.562935 0.731449 0.029254 0.003027 -537605.000000 0 0 1
-21.932292 -13.417685 28.596199 38.455198 0.549035 0.732322 0.015506 0.002578 -623330.000000 0 0 1
-22.058292 -14.634285 29.349799 39.523932 0.585763 0.733878 0.011912 0.004222 -410524.000000 0 0 1
-21.105892 -14.731185 30.379099 39.816531 0.609359 0.702890 0.013461 0.004739 -161615.000000 0 0 1
-21.527492 -15.786385 31.430099 41.237046 0.632735 0.704121 0.005697 -0.000710 -739624.000000 0 0 1
-21.434492 -17.159185 31.109699 41.493233 0.675071 0.723107 0.005167 0.000221 -127869.000000 0 0 1
-21.722592 -18.056085 32.222799 42.850927 0.693485 0.719744 0.015769 -0.003244 348190.000000 0 0 1
-23.129992 -18.314185 32.845599 44.150190 0.669717 0.731832 0.011542 -0.004059 36740.300000 0 0 1
-23.621992 -17.181085 33.509599 44.453137 0.628837 0.716942 0.012227 -0.006170 -216918.000000 0 0 1
-24.893392 -17.465085 34.060399 45.659839 0.611796 0.728822 0.020487 -0.014721 33762.300000 0 0 1
-25.382462 -16.243085 -34.239785 45.612170 0.569266 2.419875 0.023724 -0.008251 -161864.000000 0 0 1
-24.902792 -16.227885 -32.938685 44.367220 0.577534 2.407457 0.024675 -0.014499 -223314.000000 0 0 1
-25.562602 -15.207985 -32.220485 43.850759 0.536684 2.396133 0.016120 -0.004492 -213271.000000 0 0 1
-24.982492 -14.821685 -30.839685 42.366182 0.535466 2.386097 0.009885 -0.002104 -8285.130000 0 0 1
-25.404922 -15.754785 -29.839485 42.237639 0.555102 2.355290 0.019233 -0.000976 323688.000000 0 0 1
-24.877292 -15.304185 -28.585185 40.868209 0.551512 2.345421 0.036639 -0.008500 -131029.000000 0 0 1
-25.626012 -15.977485 -27.395685 40.773717 0.557511 2.307562 0.028335 -0.007895 265773.000000 0 0 1
-26.864462 -15.367985 -27.032285 41.092806 0.519619 2.288737 0.039885 -0.015112 446116.000000 0 0 1
-26.897972 -14.189485 -26.188785 40.133462 0.485428 2.281731 0.021410 -0.013033 -646040.000000 0 0 1
-25.960832 -14.179485 -24.925685 38.682196 0.499912 2.270997 0.026628 -0.020553 1079450.000000 0 0 1
-24.566992 -14.073885 -25.348485 38.002066 0.520238 2.301010 0.017785 -0.022862 1052960.000000 0 0 1
-23.743892 -14.297685 -24.241285 36.821679 0.542008 2.289411 0.015455 -0.021180 -342848.000000 0 0 1
-23.145892 -15.733885 -24.325585 37.081282 0.597019 2.286313 0.022843 -0.015495 -623494.000000 0 0 1
-22.137092 -15.875985 -25.296785 37.175597 0.622155 2.319197 0.013475 -0.013684 -13167.800000 0 0 1
-22.018392 -17.274085 -25.498485 37.859956 0.665236 2.309723 0.028161 -0.019561 219790.000000 0 0 1
-21.128092 -17.680185 -26.762585 38.408607 0.696786 2.341703 0.028568 -0.018731 456258.000000 0 0 1
-21.670492 -17.537485 -28.086385 39.572953 0.680374 2.359921 0.030854 -0.018470 -10241.500000 0 0 1
-22.806692 -18.331185 -28.314085 40.716887 0.677032 2.339758 0.045731 -0.020048 -414206.000000 0 0 1
-23.327692 -18.298285 -29.741385 41.994742 0.665157 2.357766 0.019594 -0.020676 -277607.000000 0 0 1
-22.476792 -18.974985 -30.643885 42.477098 0.701119 2.376649 0.028950 -0.020367 82355.300000 0 0 1
-22.880592 -18.793985 -31.961785 43.569382 0.687651 2.394377 0.009105 -0.011576 -229723.000000 0 0 1
-21.819292 -19.325285 -32.949485 43.991097 0.724857 2.417353 0.016286 -0.016109 -175218.000000 0 0 1
-20.653892 -18.488585 -33.005085 43.101585 0.730136 2.443005 0.014982 -0.004278 579414.000000 0 0 1
-19.455592 -19.187185 -32.705985 42.618652 0.778452 2.445588 0.026860 -0.013666 127174.000000 0 0 1
-18.928992 -20.287885 -33.627085 43.596856 0.820035 2.451707 0.034588 -0.012194 -1367990.000000 0 0 1
-18.394492 -19.840785 34.291899 43.680069 0.823206 0.667988 0.040602 -0.015936 30044.900000 0 0 1
-18.274392 -20.911185 33.358699 43.405459 0.852587 0.694245 0.037571 -0.019702 -56338.200000 0 0 1
-19.546192 -21.325485 32.546099 43.543983 0.828904 0.726611 0.025319 -0.010568 354805.000000 0 0 1
-20.486892 -21.921485 33.449699 44.934915 0.819213 0.731156 0.021127 -0.014673 744489.000000 0 0 1
-21.699092 -22.395685 32.813599 45.267533 0.801194 0.759934 0.016055 -0.002459 763624.000000 0 0 1
-21.570192 -23.703985 32.005299 45.293390 0.832494 0.786084 0.012688 0.006568 -606563.000000 0 0 1
-21.246592 -24.908685 32.667299 46.249461 0.864575 0.786499 0.014189 0.007062 16155.800000 0 0 1
-21.447992 -26.043805 31.818299 46.375643 0.881868 0.814683 0.008956 0.014012 -73056.400000 0 0 1
-20.690592 -27.248975 32.408499 47.126617 0.921359 0.812494 0.022473 0.008891 -59002.000000 0 0 1
-21.271192 -27.666165 33.647899 48.477432 0.915339 0.803636 0.012831 0.010771 -93830.900000 0 0 1
-20.732892 -28.849895 34.154399 49.281763 0.947665 0.805094 0.020215 0.005222 -475416.000000 0 0 1
-21.688892 -29.629245 -34.058085 50.082465 0.938909 2.318614 0.010756 0.004752 404553.000000 0 0 1
-22.647092 -30.579035 34.527799 51.382264 0.933333 0.833919 0.011422 0.005118 1036510.000000 0 0 1
-23.772392 -30.154505 33.774399 51.138349 0.903198 0.849376 0.008109 0.004084 105260.000000 0 0 1
-24.930892 -29.737935 -34.413285 51.866832 0.873103 2.296274 0.005206 0.002445 -395800.000000 0 0 1
-25.796922 -28.726495 34.204299 51.581263 0.839077 0.845824 0.006867 0.005046 -159164.000000 0 0 1
-26.666632 -28.393175 -33.909585 51.644376 0.816745 2.287095 0.001005 0.010954 -1223850.000000 0 0 1
-27.862782 -27.582745 -34.329385 52.111890 0.780348 2.289970 0.000208 -0.003297 -1207760.000000 0 0 1
-28.744652 -28.343245 34.065199 52.820756 0.778367 0.869877 0.011181 -0.011144 -1019260.000000 0 0 1
-29.849562 -27.531325 33.802999 52.835716 0.745019 0.876590 0.016923 -0.016681 -644439.000000 0 0 1
