# x y z rho theta phi s1 s2 stress_xx np intf bulk
-0.769254 -10.753478 -14.338407 17.939313 1.499383 2.496881 -0.007183 0.003160 -584369.000000 1 0 0
2.102846 -13.483878 -13.074107 18.898921 -1.416090 2.334763 -0.011386 0.005691 1006830.000000 1 0 0
2.092346 -11.145178 -14.699807 18.565485 -1.385221 2.484516 -0.008380 0.005074 575587.000000 1 0 0
-5.663854 -6.276278 -16.591307 18.621020 0.836644 2.670337 0.000081 0.004288 -891327.000000 1 0 0
4.491646 -14.134978 -11.580307 18.816907 -1.263119 2.233715 -0.009526 0.003902 755972.000000 1 0 0
14.038746 -10.611578 -8.104207 19.374472 -0.647252 2.002362 0.013143 -0.001317 -1420270.000000 1 0 0
6.969346 10.848422 -10.866707 16.862543 0.999762 2.271072 0.007137 -0.003483 452749.000000 1 0 0
5.588646 -4.111678 -12.713107 14.483161 -0.634299 2.642016 0.000615 -0.001884 853450.000000 1 0 0
13.536446 0.588522 -10.155207 16.932512 0.043449 2.213980 -0.001889 -0.001673 -1227380.000000 1 0 0
14.019546 5.186822 -10.573807 18.310002 0.354354 2.186445 0.005074 0.001786 134423.000000 1 0 0
3.922646 4.324322 -13.478607 14.688763 0.834066 2.732830 0.000389 0.002680 2227700.000000 1 0 0
10.152446 -5.031278 -13.915407 17.945040 -0.460100 2.458217 0.005539 0.001881 -60852.600000 1 0 0
2.501946 -7.453778 -12.098307 14.428707 -1.246952 2.565300 -0.004459 0.002063 286471.000000 1 0 0
-5.732954 -1.912778 -15.129807 16.292224 0.322032 2.761559 0.003145 -0.001507 444904.000000 1 0 0
10.567646 0.079922 -9.833507 14.435352 0.007563 2.320211 0.001284 0.002019 1566580.000000 1 0 0
-1.720954 -9.600778 -16.970607 19.573915 1.393428 2.619949 -0.004155 0.004307 1130770.000000 1 0 0
8.408646 1.784022 -18.108507 20.045102 0.209065 2.698402 0.000021 -0.000573 943522.000000 1 0 0
16.275846 -5.874278 -9.084207 19.543109 -0.346370 2.054238 -0.003697 -0.001933 -1995710.000000 1 0 0
10.033146 7.602922 -9.985907 16.068192 0.648462 2.241415 0.010099 0.000299 1069380.000000 1 0 0
13.699246 -2.200778 -10.819707 17.594852 -0.159289 2.233101 -0.001754 -0.000584 -1307560.000000 1 0 0
7.070546 -1.807678 -13.782507 15.595442 -0.250302 2.654617 0.005202 -0.005592 679618.000000 1 0 0
-2.898854 6.649222 -13.762707 15.557237 -1.159672 2.656539 -0.001024 -0.000637 180054.000000 1 0 0
11.188246 1.863022 -14.053307 18.059434 0.165002 2.462543 0.008764 0.000878 750104.000000 1 0 0
-2.361054 10.757322 -12.830307 16.908913 -1.354739 2.432249 0.004907 0.000075 -2397660.000000 1 0 0
2.699846 -0.987878 -15.245907 15.514598 -0.350770 2.955212 -0.002515 -0.003523 1693.040000 1 0 0
-9.185354 0.398522 -15.223907 17.784738 -0.043359 2.598297 -0.000995 -0.001603 -993726.000000 1 0 0
2.296646 -1.734778 -18.054407 18.282387 -0.646918 2.983505 -0.000388 -0.007087 897057.000000 1 0 0
0.932046 7.960522 -13.185207 15.430110 1.454243 2.595406 -0.001411 0.001732 -557885.000000 1 0 0
9.304246 -9.121878 -10.038007 16.448077 -0.775501 2.227216 0.000169 0.002842 1118970.000000 1 0 0
3.800746 7.290522 -13.485107 15.793844 1.090233 2.594077 -0.004858 0.001415 790803.000000 1 0 0
-2.785254 9.135422 -15.380207 18.104263 -1.274864 2.585900 -0.001754 -0.001774 -12594.200000 1 0 0
5.427446 -7.578678 -15.394007 17.996361 -0.949316 2.597110 -0.000821 -0.002449 40771.000000 1 0 0
4.086046 7.360322 -16.378307 18.415186 1.064012 2.666808 -0.007076 0.000209 251204.000000 1 0 0
-0.326154 5.151022 -13.417707 14.376170 -1.507562 2.774375 -0.001597 -0.000570 2222880.000000 1 0 0
8.640146 4.276922 -16.698807 19.281969 0.459644 2.618008 0.003789 -0.000239 242985.000000 1 0 0
5.210246 0.370122 -14.405907 15.323636 0.070918 2.793750 0.002523 -0.004848 397912.000000 1 0 0
6.122046 7.985022 -11.537507 15.308628 0.916698 2.424410 0.004520 0.000613 1167320.000000 1 0 0
2.672146 -8.366078 -15.079807 17.450851 -1.261636 2.614216 -0.003050 0.001473 714558.000000 1 0 0
3.951046 11.535922 -13.786107 18.405027 1.240819 2.417409 -0.008100 -0.000448 -1529170.000000 1 0 0
0.443646 -4.537278 -13.772407 14.507340 -1.473328 2.821927 0.001251 0.001810 169221.000000 1 0 0
8.394646 -0.064378 -11.780207 14.465390 -0.007669 2.522442 0.004018 -0.002363 2347080.000000 1 0 0
-1.092754 -5.140278 -16.406507 17.227596 1.361328 2.831610 -0.001912 0.001854 767643.000000 1 0 0
4.306146 0.864522 -11.715307 12.511543 0.198131 2.782909 0.004564 -0.001753 2115350.000000 1 0 0
-3.036154 -7.233078 -15.655207 17.510602 1.173373 2.677084 -0.004581 0.004583 2226870.000000 1 0 0
11.291346 -3.757278 -11.639607 16.646083 -0.321232 2.345130 0.001512 -0.001260 1505600.000000 1 0 0
6.413246 -6.939678 -12.599207 15.748933 -0.824802 2.498098 -0.001617 0.001762 -1173800.000000 1 0 0
3.242246 -3.930678 -14.706107 15.563804 -0.881082 2.808060 0.000283 -0.003977 3516090.000000 1 0 0
-0.638254 -1.547778 -18.334107 18.410390 1.179674 3.050528 0.002983 -0.001666 -57443.600000 1 0 0
14.731846 3.055522 -8.638707 17.349085 0.204510 2.092012 -0.005302 -0.000137 -1655910.000000 1 0 0
6.803046 4.330322 -14.390607 16.496142 0.566845 2.630810 0.003608 0.000220 3528070.000000 1 0 0
9.923946 -9.624478 -14.210107 19.825298 -0.770080 2.369950 -0.001633 0.003320 -2382250.000000 1 0 0
8.884446 -3.050278 -15.664007 18.264684 -0.330719 2.601404 0.006083 -0.011337 -484681.000000 1 0 0
-5.439454 -1.965478 -18.053907 18.957699 0.346739 2.831568 -0.003631 0.006169 -25064.000000 1 0 0
4.977846 -9.057478 -11.212007 15.248802 -1.068272 2.396863 -0.005786 0.005462 1660950.000000 1 0 0
-2.559054 4.087322 -17.182307 17.846194 -1.011410 2.867975 -0.002749 0.002786 757292.000000 1 0 0
9.232646 9.329322 -14.541307 19.588967 0.790606 2.407324 0.014342 -0.000077 869373.000000 1 0 0
9.698346 10.030722 -11.698307 18.207792 0.802244 2.268538 0.010283 -0.000592 849535.000000 1 0 0
11.926546 -5.850378 -9.805207 16.510951 -0.456046 2.206645 0.004886 -0.002043 -970473.000000 1 0 0
7.966546 6.933422 -13.687007 17.287925 0.716172 2.484398 0.009557 0.001721 177131.000000 1 0 0
3.943746 -4.138278 -17.570707 18.477236 -0.809463 2.827050 0.004269 -0.009240 -114920.000000 1 0 0
9.203846 -7.425078 -12.452807 17.173089 -0.678835 2.382027 0.002653 -0.003006 84583.100000 1 0 0
11.982346 -8.587178 -8.992507 17.267931 -0.621815 2.118541 0.004719 -0.001163 2193950.000000 1 0 0
-3.019054 -2.475478 -13.956507 14.492301 0.686789 2.868825 -0.000134 -0.000091 -2410170.000000 1 0 0
-0.508954 6.189222 -17.644907 18.705835 -1.488749 2.803182 0.001609 0.002648 1248990.000000 1 0 0
0.989446 -8.558478 -17.550107 19.550775 -1.455697 2.685245 -0.005826 -0.001371 1849940.000000 1 0 0
0.008046 8.643622 -16.007207 18.191837 1.569865 2.646472 -0.003885 0.003699 -366410.000000 1 0 0
1.643746 3.435322 -15.061807 15.535809 1.124509 2.893937 0.001278 -0.000923 2358380.000000 1 0 0
-2.040754 -0.430278 -15.843807 15.980490 0.207799 3.010709 0.000819 -0.002183 607086.000000 1 0 0
13.981846 -4.216978 -8.694807 16.996311 -0.292928 2.107808 -0.005096 0.000772 -854818.000000 1 0 0
0.446946 0.687222 -14.657607 14.680514 0.994164 3.085722 0.000661 -0.003791 2038260.000000 1 0 0
8.716046 2.775322 -12.648707 15.609666 0.308265 2.515482 0.004956 0.000085 1688020.000000 1 0 0
5.721846 0.947822 -17.157907 18.111645 0.164159 2.815625 0.003729 -0.003639 -321755.000000 1 0 0
15.099246 1.535522 -12.593907 19.721855 0.101347 2.263443 -0.003136 0.001611 -1449740.000000 1 0 0
8.718546 -11.226878 -12.112507 18.675349 -0.910501 2.276517 -0.000622 0.001639 1764460.000000 1 0 0
-4.640254 0.808922 -15.051707 15.771500 -0.172593 2.838310 0.001422 -0.002267 658028.000000 1 0 0
2.260846 5.232422 -17.355507 18.267548 1.162941 2.824267 -0.003417 -0.001432 1159610.000000 1 0 0
5.888746 -11.703078 -12.439207 18.065803 -1.104609 2.330284 -0.006281 0.002706 -887159.000000 1 0 0
12.773946 7.267722 -8.804007 17.131959 0.517275 2.110514 0.010900 0.001407 608292.000000 1 0 0
-5.052354 3.730622 -15.677207 16.888418 -0.636031 2.760561 0.000928 0.002327 178884.000000 1 0 0
-0.698354 -4.411278 -19.186507 19.699470 1.413788 2.912887 0.004318 0.002866 -1219000.000000 1 0 0
9.707646 4.487422 -10.340907 14.876482 0.433000 2.339380 0.006484 0.000093 179247.000000 1 0 0
13.263646 3.768522 -13.005207 18.954194 0.276829 2.326964 0.005367 -0.000236 -46508.800000 1 0 0
-6.406554 5.806722 -17.182807 19.235665 -0.736324 2.675383 0.002122 0.009446 -249036.000000 1 0 0
-10.274854 3.161522 -15.453507 18.824950 -0.298501 2.533791 0.003643 0.004876 -896940.000000 1 0 0
10.686146 13.571022 -8.333207 19.178339 0.903771 2.020292 0.012504 0.001843 -513821.000000 1 0 0
7.353046 13.389622 -12.428107 19.692819 1.068598 2.253765 0.006869 0.001848 -513532.000000 1 0 0
5.224546 15.213722 -11.375407 19.701601 1.240004 2.186318 -0.006371 -0.000771 1096450.000000 1 0 0
14.195646 9.535922 -9.939207 19.779737 0.591513 2.097278 0.026850 0.001397 -510151.000000 1 0 0
8.101646 -17.279478 -2.307707 19.223489 -1.132370 1.691133 0.001042 0.005065 -1180590.000000 1 0 0
0.745746 -16.072978 -0.057507 16.090372 -1.524432 1.574370 -0.005486 -0.000460 2624340.000000 1 0 0
-9.032354 -11.721278 7.601193 16.635802 0.914244 1.096269 0.006014 -0.001869 -567089.000000 1 0 0
2.038446 -15.933878 -2.689107 16.287266 -1.443556 1.736661 -0.009568 -0.001047 1623060.000000 1 0 0
-1.407954 -11.073278 -9.427707 14.611006 1.444326 2.272143 -0.002725 0.002903 297804.000000 1 0 0
-4.850954 -12.650878 -12.983407 18.765536 1.204640 2.334879 0.001070 0.001229 1501590.000000 1 0 0
-8.423254 -17.726478 -1.747507 19.703630 1.127202 1.659603 0.001916 0.000880 -1377740.000000 1 0 0
-11.371554 -6.978378 -8.887507 16.031151 0.550410 2.158426 0.008097 -0.004756 1700690.000000 1 0 0
-13.579654 -11.394078 -4.784907 18.361028 0.698106 1.834441 -0.000004 -0.000678 289291.000000 1 0 0
-5.596754 -13.522678 9.797593 17.611908 1.178383 0.980864 -0.000516 -0.000466 174730.000000 1 0 0
0.141746 -13.998278 -3.701607 14.480117 -1.560671 1.829300 -0.004852 0.001901 654731.000000 1 0 0
-14.611554 -11.701978 1.951693 18.821342 0.675272 1.466914 -0.008379 0.004117 987214.000000 1 0 0
-3.924954 -16.484378 -7.562007 18.555968 1.337047 1.990538 -0.005373 -0.003090 312398.000000 1 0 0
0.485546 -15.275678 -9.252107 17.865710 -1.539021 2.115155 -0.006594 0.001143 858407.000000 1 0 0
4.471346 -14.232178 -2.797107 15.177999 -1.266389 1.756143 -0.011216 0.001479 -1003100.000000 1 0 0
-3.437254 -18.138378 -2.640507 18.649069 1.383515 1.712863 -0.008099 0.000256 765062.000000 1 0 0
-0.827554 -13.526878 0.650593 13.567776 1.509694 1.522827 0.004192 0.000918 4405630.000000 1 0 0
-8.588354 -11.307178 -10.491307 17.654451 0.921212 2.207140 0.004831 -0.006159 1636920.000000 1 0 0
-3.653854 -14.178078 -0.441607 14.647989 1.318573 1.600949 0.004469 0.001839 4267500.000000 1 0 0
-1.553254 -14.978878 -7.294807 16.733009 1.467469 2.021893 -0.009867 0.000650 577288.000000 1 0 0
-14.089554 -7.901778 -1.814407 16.255636 0.511116 1.682647 -0.005017 0.004120 825768.000000 1 0 0
-10.796154 -7.267978 -11.660607 17.474273 0.592513 2.301376 0.005443 -0.004134 -10441.900000 1 0 0
-9.391554 -14.739578 6.916593 18.796162 1.003496 1.193962 -0.002082 0.002275 130321.000000 1 0 0
-2.494254 -14.320978 -12.312307 19.050056 1.398358 2.273540 0.002394 0.004096 876735.000000 1 0 0
2.324146 -17.852478 -4.853907 18.645993 -1.441338 1.834149 -0.011751 -0.003872 -83243.900000 1 0 0
-6.606654 -9.592578 -9.252207 14.875106 0.967677 2.242081 0.003558 -0.005121 1060060.000000 1 0 0
-10.926754 -15.328978 0.468893 18.830597 0.951520 1.545893 0.001005 0.005413 -52798.900000 1 0 0
-12.602654 -11.135578 4.162493 17.324963 0.723674 1.328163 0.002682 0.002200 1792570.000000 1 0 0
-16.851454 -8.888378 -1.601407 19.119082 0.485369 1.654654 -0.014838 0.006973 -1825750.000000 1 0 0
-1.240354 -19.321978 -4.083007 19.787579 1.506690 1.778631 -0.010741 0.000509 -835266.000000 1 0 0
3.263446 -14.158778 -8.866807 17.021790 -1.344263 2.118712 -0.008973 0.000109 439948.000000 1 0 0
-4.316554 -7.959378 -13.068007 15.898338 1.073866 2.535663 -0.002519 0.000458 1684140.000000 1 0 0
5.548646 -16.619378 1.017093 17.550660 -1.248566 1.512812 -0.002255 0.001144 3270120.000000 1 0 0
-2.836054 -13.825378 -3.262207 14.485382 1.368469 1.797952 0.000580 -0.001005 -52605.900000 1 0 0
-0.375054 -14.007778 3.639693 14.477772 1.544028 1.316671 0.004530 0.001402 -3137890.000000 1 0 0
1.317046 -16.198278 7.051193 17.715478 -1.489667 1.161434 0.000560 -0.000703 331906.000000 1 0 0
-5.546754 -10.240878 -14.571807 18.654212 1.074403 2.467308 0.002897 0.001255 479376.000000 1 0 0
-0.300454 -17.255178 -5.936307 18.250238 1.553386 1.902097 -0.008889 -0.003441 -955968.000000 1 0 0
-6.449554 -13.359478 -1.284307 14.890327 1.121028 1.657155 0.005999 0.000159 2964400.000000 1 0 0
-1.692254 -17.901078 -0.241007 17.982503 1.476543 1.584199 -0.002933 0.001442 2231950.000000 1 0 0
-9.485154 -9.663778 -4.943707 14.415166 0.794726 1.920854 0.008419 -0.006966 1706080.000000 1 0 0
-0.737654 -16.641178 4.834293 17.344836 1.526498 1.288339 0.001980 -0.006005 2490780.000000 1 0 0
-6.764854 -9.877378 -6.362907 13.557745 0.970288 2.059316 0.005437 -0.004398 3236370.000000 1 0 0
-5.990554 -14.516678 -8.665107 17.936130 1.179418 2.074999 -0.001956 -0.003559 -733957.000000 1 0 0
-5.788654 -12.146178 -10.293307 16.940789 1.126058 2.223838 0.001634 -0.004464 2350150.000000 1 0 0
-10.726054 -12.212978 -8.731907 18.451322 0.850128 2.063762 0.008243 -0.012396 -255610.000000 1 0 0
4.096846 -17.277778 6.844293 19.030242 -1.337980 1.202900 0.003354 0.004420 2519010.000000 1 0 0
-6.664254 -14.261078 -4.124607 16.272769 1.133646 1.827059 -0.000212 -0.005809 -1356420.000000 1 0 0
-2.935454 -12.296178 -7.178507 14.537670 1.336453 2.087235 0.004231 -0.001700 2241740.000000 1 0 0
-7.050154 -12.850578 4.427093 15.311472 1.069009 1.277473 0.007356 0.000701 764594.000000 1 0 0
2.655646 -16.445378 2.225193 16.806380 -1.410696 1.438005 -0.002891 -0.002602 1548580.000000 1 0 0
-6.159554 -12.077078 7.217293 15.358556 1.099165 1.081596 0.004435 0.000715 424779.000000 1 0 0
-11.195154 -12.846778 -1.041907 17.072105 0.853988 1.631864 0.000328 0.001382 1312740.000000 1 0 0
-14.223154 -8.867878 4.672693 17.400329 0.557507 1.298919 -0.003753 0.001365 -798924.000000 1 0 0
-8.001054 -15.584378 4.406793 18.064040 1.096485 1.324355 0.002206 0.008738 2219600.000000 1 0 0
-16.316654 -9.253378 1.219893 18.797509 0.515886 1.505854 -0.017640 0.003252 -1100740.000000 1 0 0
-6.564654 -17.103478 2.290693 18.462690 1.204316 1.446404 -0.001407 0.005544 2903880.000000 1 0 0
-11.509954 -14.838878 -4.821707 19.388662 0.911073 1.822121 0.001699 -0.009606 -1210930.000000 1 0 0
-10.097054 -9.906678 -12.621707 18.957855 0.775881 2.299331 0.002880 -0.000415 745274.000000 1 0 0
-4.373954 -16.022078 -4.583407 17.229222 1.304295 1.840064 -0.001347 -0.001517 -923271.000000 1 0 0
-11.795354 -8.303378 0.065093 14.425003 0.613374 1.566284 0.000040 -0.000573 2396360.000000 1 0 0
-9.594054 -11.222978 3.509993 15.176336 0.863489 1.337403 0.005752 0.003043 1751660.000000 1 0 0
-14.160754 -12.837978 -0.674407 19.125780 0.736443 1.606065 -0.002233 0.002408 1760360.000000 1 0 0
5.480746 -14.990478 -7.217007 17.516798 -1.220279 1.995450 -0.011043 -0.002478 630740.000000 1 0 0
-7.410354 -10.500878 -1.308007 12.918695 0.956262 1.672219 0.007396 -0.000506 1984570.000000 1 0 0
-11.689054 -8.045578 -6.011707 15.411228 0.602831 1.971522 0.004934 -0.005993 106205.000000 1 0 0
-14.396254 -6.490378 -9.211407 18.281881 0.423551 2.098852 -0.003976 -0.007370 2256270.000000 1 0 0
-3.792854 -16.544778 1.316493 17.024940 1.345442 1.493392 0.000294 0.001298 712582.000000 1 0 0
-7.938354 -15.392578 0.143493 17.319628 1.094647 1.562511 0.001071 0.003649 303839.000000 1 0 0
1.101246 -18.635578 3.637793 19.019229 -1.511771 1.378341 -0.001809 -0.002225 1303590.000000 1 0 0
-14.131154 -8.548378 -4.568307 17.135744 0.544038 1.840655 -0.004787 -0.002111 -352499.000000 1 0 0
-3.121154 -14.550478 11.157493 18.599668 1.359493 0.927450 -0.008161 -0.003150 -14701.500000 1 0 0
-10.853954 -12.085078 -3.888707 16.702679 0.839016 1.805772 0.004691 -0.006154 1610170.000000 1 0 0
-9.935054 -10.723978 0.539693 14.628748 0.823567 1.533895 0.002854 0.002346 2703930.000000 1 0 0
-0.127354 -13.136678 -11.161507 17.238555 1.561102 2.275061 -0.002647 0.000658 -126411.000000 1 0 0
-5.961454 -12.629278 -6.385507 15.356181 1.129770 1.999648 -0.001737 -0.007949 1884210.000000 1 0 0
1.793746 -15.892778 9.908893 18.814465 -1.458406 1.016125 0.002197 -0.002055 322148.000000 1 0 0
-8.894154 -15.647578 -5.532707 18.829857 1.053933 1.869024 0.001270 -0.005946 -1371340.000000 1 0 0
-3.341254 -15.555878 5.839593 16.948456 1.359220 1.219037 0.001522 0.000361 484387.000000 1 0 0
-17.487854 -5.341378 -6.471007 19.396631 0.296434 1.910932 0.000746 -0.004317 -1108190.000000 1 0 0
18.766146 5.614722 -3.031807 19.821332 0.290717 1.724356 0.003023 0.002955 -1218390.000000 1 0 0
12.687246 -12.485478 -6.048407 18.799910 -0.777383 1.898347 0.014008 -0.001590 -246778.000000 1 0 0
10.946546 -13.464578 -1.809207 17.446918 -0.888186 1.674681 0.010377 0.000378 3445630.000000 1 0 0
18.634046 -2.841678 4.371393 19.349725 -0.151333 1.342914 -0.001492 -0.000648 -1138360.000000 1 0 0
8.531846 -16.966378 4.827993 19.594895 -1.104857 1.321842 -0.001481 -0.000798 618000.000000 1 0 0
17.983646 -0.931378 6.620993 19.186363 -0.051744 1.218463 0.000982 0.000009 -836566.000000 1 0 0
17.795446 -4.104078 -5.321807 19.022171 -0.226662 1.854349 0.001964 0.000258 271773.000000 1 0 0
5.385446 -11.734378 14.658493 19.533819 -1.140528 0.722105 -0.000710 0.001488 -805511.000000 1 0 0
15.934146 -8.838978 -0.964607 18.247055 -0.506459 1.623685 0.000193 0.004476 -257969.000000 1 0 0
13.841646 -12.624778 -1.507507 18.794913 -0.739453 1.651091 0.007392 0.001631 -559162.000000 1 0 0
11.163246 -2.033578 13.778493 17.849380 -0.180191 0.688923 0.003448 -0.005044 287274.000000 1 0 0
16.806146 -6.079678 -1.670607 17.949929 -0.347107 1.664002 -0.006298 0.006612 -302956.000000 1 0 0
17.618646 3.665122 -1.200307 18.035813 0.205100 1.637397 0.005454 -0.000622 -58696.000000 1 0 0
9.752946 -11.136378 9.400393 17.535856 -0.851528 1.005025 0.004171 -0.000947 470679.000000 1 0 0
9.110346 -11.108178 4.135393 14.949632 -0.883890 1.290519 -0.004638 0.000503 158615.000000 1 0 0
14.079846 -10.155678 6.739393 18.622547 -0.624873 1.200497 0.004861 0.001772 320600.000000 1 0 0
16.163746 -0.422578 -4.865907 16.885565 -0.026138 1.863111 0.004983 0.001714 -1020600.000000 1 0 0
15.718446 -0.481678 -1.859407 15.835370 -0.030635 1.688489 0.007889 0.002130 2488840.000000 1 0 0
12.750046 -5.184378 -0.493107 13.772603 -0.386197 1.606607 -0.002918 0.004013 1460560.000000 1 0 0
14.229246 -7.530078 0.879993 16.122900 -0.486732 1.516189 -0.000456 0.007024 1899290.000000 1 0 0
15.609446 2.526222 3.437393 16.181850 0.160448 1.356743 0.009235 -0.002357 1441650.000000 1 0 0
15.875346 -7.139878 4.807793 18.058775 -0.422643 1.301316 0.003341 0.000522 -860841.000000 1 0 0
13.626946 -12.266978 3.178993 18.608557 -0.732926 1.399119 0.003842 0.002973 969263.000000 1 0 0
14.049946 -0.996978 9.121693 16.780948 -0.070841 0.996107 0.011085 -0.004127 1429980.000000 1 0 0
14.095846 -2.762578 -1.714707 14.465992 -0.193532 1.689609 0.000851 0.006012 339183.000000 1 0 0
15.129346 1.798022 9.096293 17.744648 0.118289 1.032561 0.008152 -0.002468 -421940.000000 1 0 0
14.387946 -10.243878 -3.125807 17.936574 -0.618719 1.745961 0.001792 0.001985 954424.000000 1 0 0
7.442846 -12.615678 5.976593 15.819954 -1.037786 1.183390 -0.008136 -0.000362 280502.000000 1 0 0
12.468246 -4.641478 6.836193 14.957741 -0.356370 1.096139 0.006447 -0.002867 2827700.000000 1 0 0
14.971846 -9.120378 -5.843307 18.479224 -0.547134 1.892528 0.010003 0.001505 -397304.000000 1 0 0
14.348746 -4.517478 4.429993 15.681803 -0.305010 1.284405 0.002881 -0.001759 -39693.700000 1 0 0
17.013946 -4.173478 0.780593 17.535724 -0.240548 1.526267 -0.001555 0.003783 -1001110.000000 1 0 0
10.089246 -14.424978 0.959093 17.629315 -0.960454 1.516366 0.005154 0.001411 -107736.000000 1 0 0
16.456446 -2.543478 8.517293 18.703694 -0.153345 1.097997 0.009431 -0.001621 408933.000000 1 0 0
15.986346 -2.596278 3.040293 16.478692 -0.161000 1.385235 0.001503 0.000397 1053150.000000 1 0 0
7.757246 -15.311078 2.502493 17.345502 -1.101849 1.426018 -0.000571 0.001048 2543090.000000 1 0 0
16.711146 -6.989878 7.652693 19.664295 -0.396162 1.171069 0.013468 0.002658 -629810.000000 1 0 0
10.265346 -8.535378 5.029993 14.266423 -0.693641 1.210474 0.000940 -0.003374 1794610.000000 1 0 0
10.905146 -11.890078 2.078093 16.266980 -0.828579 1.442697 0.000455 0.000789 -19036.200000 1 0 0
12.361146 -7.249978 11.849293 18.594780 -0.530444 0.879888 0.014019 -0.004339 93715.300000 1 0 0
15.102046 -9.889678 4.051293 18.501094 -0.579782 1.350032 0.000893 0.000591 -1394640.000000 1 0 0
7.448946 -10.258078 7.684993 14.824779 -0.942732 1.025831 -0.003373 -0.001408 818060.000000 1 0 0
15.089246 -3.083978 -4.589007 16.070322 -0.201606 1.860385 -0.000646 0.002941 -1101690.000000 1 0 0
11.803246 -9.082278 9.693693 17.769977 -0.655848 0.993799 0.006394 0.000695 -2655260.000000 1 0 0
16.896146 -6.635378 2.205693 18.285871 -0.374211 1.449879 0.002718 0.003964 2206050.000000 1 0 0
17.586046 4.066822 1.848993 18.144609 0.227258 1.468716 0.009836 -0.000824 -127729.000000 1 0 0
14.830046 -4.898678 8.625193 17.841560 -0.319037 1.066225 0.011124 -0.001808 413296.000000 1 0 0
12.786946 -12.640678 6.046293 18.969723 -0.779646 1.246403 0.000782 0.001447 -1241170.000000 1 0 0
18.150946 0.772122 -0.891807 18.189237 0.042513 1.619845 0.015303 0.000376 272180.000000 1 0 0
11.762046 -2.155078 10.912593 16.188723 -0.181213 0.831070 0.007116 -0.000681 3201050.000000 1 0 0
5.850346 -12.572878 10.446493 17.361827 -1.135280 0.925177 -0.003414 -0.001421 -1910570.000000 1 0 0
10.760246 -4.996978 10.885293 16.101002 -0.434758 0.828390 0.010471 -0.005068 1057500.000000 1 0 0
17.837846 1.391922 4.951693 18.564629 0.077874 1.300801 0.009315 -0.004032 -1321850.000000 1 0 0
12.287846 -7.746278 7.047293 16.144978 -0.562474 1.119091 0.003942 -0.003262 -212573.000000 1 0 0
10.762346 -7.872978 14.191693 19.473470 -0.631575 0.754271 0.017820 -0.005719 1073680.000000 1 0 0
14.160746 -0.135778 3.646593 14.623365 -0.009588 1.318769 0.004198 -0.001043 2738110.000000 1 0 0
11.637446 -7.628778 2.426393 14.125006 -0.580258 1.398160 -0.003047 0.000176 1748260.000000 1 0 0
9.331046 5.986922 3.502493 11.626655 0.570457 1.264796 0.004087 0.000164 2133640.000000 1 0 0
-4.028854 14.774522 -9.763607 18.161668 -1.304580 2.138378 0.002204 -0.009340 3005.840000 1 0 0
8.880546 -6.448178 9.120593 14.269839 -0.628030 0.877402 0.006050 -0.000582 -402921.000000 1 0 0
5.690146 -10.585278 -8.602907 14.779577 -1.077560 2.192082 -0.004665 0.000494 3635.990000 1 0 0
5.409646 1.039722 0.536593 5.534729 0.189882 1.473694 -0.000562 0.003158 3854250.000000 1 0 0
-0.518154 9.843322 11.088293 14.836095 -1.518205 0.726677 0.001893 0.004850 -1345540.000000 1 0 0
-6.307954 -5.250378 1.053693 8.274480 0.694153 1.443107 0.006947 -0.002792 3929040.000000 1 0 0
-1.119554 4.024022 -10.795307 11.575181 -1.299441 2.772418 0.000206 -0.001189 1328780.000000 1 0 0
10.970146 5.724122 1.167493 12.428705 0.480928 1.476722 0.002830 0.001857 1068010.000000 1 0 0
-10.268754 -1.702978 -13.504907 17.050805 0.164345 2.484939 0.002444 -0.006864 -23428.800000 1 0 0
7.362546 10.942622 -6.144207 14.549891 0.978538 2.006761 0.007733 -0.001398 645708.000000 1 0 0
-12.497154 -2.806478 -9.572107 15.990010 0.220905 2.212587 0.005452 -0.000765 -328045.000000 1 0 0
-3.889454 -8.704678 2.539993 9.866653 1.150587 1.310433 0.006569 0.000994 -1455990.000000 1 0 0
8.071046 -6.750178 -6.052107 12.138150 -0.696513 2.092782 0.000601 -0.002777 2269240.000000 1 0 0
14.273346 3.259022 -4.369707 15.278873 0.224481 1.860843 0.004383 -0.000245 1016260.000000 1 0 0
-2.450254 -5.031278 9.893893 11.366909 1.117599 0.514758 -0.001217 0.000902 2377640.000000 1 0 0
3.492446 -1.929778 -4.618607 6.103504 -0.504805 2.429068 -0.000806 0.000203 -2360980.000000 1 0 0
-4.049854 8.407122 -3.323307 9.905826 -1.121882 1.912922 -0.002992 0.000492 296909.000000 1 0 0
5.925846 0.105622 11.699093 13.114708 0.017822 0.468915 0.000884 -0.003983 1168630.000000 1 0 0
7.230946 4.652322 12.401793 15.090896 0.571715 0.606222 0.001104 -0.002867 1690010.000000 1 0 0
1.280346 -14.468178 12.414093 19.106993 -1.482532 0.863587 -0.002078 -0.002156 -683190.000000 1 0 0
2.849546 8.817622 -9.005407 12.921599 1.258225 2.341899 0.002426 0.000905 2162750.000000 1 0 0
-4.426354 -8.876378 -4.595807 10.931795 1.108216 2.004691 0.005985 -0.000579 431506.000000 1 0 0
5.827846 -6.610678 -4.153607 9.742551 -0.848251 2.011235 -0.000668 -0.002106 1280660.000000 1 0 0
-3.106154 3.375722 8.707093 9.841603 -0.826962 0.484897 -0.001650 0.002755 3712820.000000 1 0 0
-3.839954 3.205722 -11.071507 12.149081 -0.695623 2.717237 -0.001740 -0.003916 -480529.000000 1 0 0
3.071946 -6.200178 8.484693 10.948473 -1.110787 0.684135 -0.003697 0.002195 -895315.000000 1 0 0
-5.060254 -8.780978 10.388493 14.513185 1.048005 0.773032 0.001131 -0.000915 -488776.000000 1 0 0
-13.202954 -2.624278 6.641593 15.010516 0.196207 1.112453 -0.003294 0.001931 -8664.350000 1 0 0
3.849446 -5.921578 -8.485007 11.039867 -0.994371 2.447413 -0.002743 0.000233 2450100.000000 1 0 0
3.134746 -0.559178 12.387393 12.790106 -0.176524 0.251607 0.002849 -0.002405 220312.000000 1 0 0
1.363846 -1.390278 -7.595107 7.840829 -0.794995 2.890579 -0.003709 -0.002224 -517160.000000 1 0 0
3.702846 -3.520978 3.410993 6.143552 -0.760227 0.982175 -0.000757 0.000614 1946150.000000 1 0 0
1.341746 0.494022 -11.871007 11.956804 0.352790 3.021725 -0.001671 -0.003402 -385317.000000 1 0 0
4.009146 3.559622 -10.600107 11.878823 0.726076 2.673329 -0.001562 0.002307 1082420.000000 1 0 0
2.824546 3.253322 3.378093 5.474822 0.855829 0.905842 -0.002898 0.002295 -900623.000000 1 0 0
-5.336954 0.907622 2.649393 6.027117 -0.168452 1.115667 -0.001275 -0.001917 813962.000000 1 0 0
-9.433954 -9.319678 5.718093 14.441346 0.779305 1.163691 0.007649 -0.003481 -1328850.000000 1 0 0
-3.123854 3.877622 -0.423607 4.997385 -0.892643 1.655664 -0.001622 -0.003085 1399500.000000 1 0 0
-15.823354 -6.579278 5.110893 17.882580 0.394049 1.280952 -0.006679 0.000872 814976.000000 1 0 0
0.932946 6.752622 -7.993907 10.505753 1.433505 2.435507 0.001378 -0.000890 164638.000000 1 0 0
-1.674454 6.572022 -9.406507 11.596450 -1.321319 2.516919 -0.000879 -0.000594 776650.000000 1 0 0
2.024246 -0.404578 5.228493 5.621245 -0.197267 0.376027 0.001272 0.000215 3408640.000000 1 0 0
-3.426154 -0.461878 -6.301807 7.187812 0.134002 2.639828 -0.000805 -0.003712 1895740.000000 1 0 0
1.891346 -1.090678 -2.504107 3.322246 -0.523087 2.424530 0.001371 0.001824 995459.000000 1 0 0
2.351746 -8.482878 -7.634807 11.652477 -1.300354 2.285256 -0.004578 0.002214 1539220.000000 1 0 0
-2.477954 14.061922 -5.540307 15.315773 -1.396370 1.940929 0.001743 -0.002283 3213730.000000 1 0 0
6.817446 -5.141878 -8.273007 11.889455 -0.646199 2.340368 0.000977 -0.000532 4143200.000000 1 0 0
-14.207154 -4.963978 -2.133407 15.199860 0.336140 1.711618 -0.003439 -0.000664 909813.000000 1 0 0
-2.780654 6.926722 -6.680807 10.017220 -1.189050 2.300880 -0.001074 -0.001104 -2237460.000000 1 0 0
-5.701254 -1.053278 -8.040607 9.912873 0.182685 2.516874 0.005790 -0.006277 69378.000000 1 0 0
-5.664654 -10.654278 3.377993 12.530474 1.082128 1.297837 0.006196 0.000445 -3054560.000000 1 0 0
8.081946 -7.607078 6.530093 12.877407 -0.755140 1.038983 -0.001066 -0.001065 323966.000000 1 0 0
8.852846 -6.009778 12.983693 16.824583 -0.596392 0.689271 0.009068 -0.001957 571110.000000 1 0 0
-4.831754 9.558622 -0.651707 10.730229 -1.102769 1.631569 -0.003312 0.001738 964132.000000 1 0 0
2.876246 6.493722 12.128693 14.055120 1.153840 0.529742 0.003091 -0.001832 1130540.000000 1 0 0
6.044246 -2.837078 10.876093 12.762105 -0.438857 0.550587 0.002481 -0.001338 -1353700.000000 1 0 0
-9.673554 -6.523778 -1.045107 11.714503 0.593333 1.660130 0.004704 -0.003203 -579435.000000 1 0 0
0.911646 -13.449978 6.321593 14.889444 -1.503119 1.132311 0.001623 0.002307 1458260.000000 1 0 0
-0.439754 -3.263278 8.747293 9.346523 1.436845 0.360027 -0.000579 -0.000891 2207440.000000 1 0 0
4.184846 0.741622 3.403193 5.444691 0.175395 0.895603 -0.002555 0.002636 2707790.000000 1 0 0
-10.097254 5.585922 8.429493 14.290326 -0.505306 0.939893 -0.009122 -0.000979 322256.000000 1 0 0
9.355146 7.994122 -0.086007 12.305776 0.707110 1.577786 0.000701 0.002301 603251.000000 1 0 0
4.393146 2.860722 8.175593 9.712043 0.577203 0.570188 -0.000921 -0.002101 3821830.000000 1 0 0
1.189246 2.635722 -9.742407 10.162472 1.146942 2.853069 -0.000657 -0.000169 2018950.000000 1 0 0
-1.337154 -10.209678 3.011793 10.728299 1.440568 1.286238 0.006626 0.000918 -1671980.000000 1 0 0
-9.739554 9.477622 9.184193 16.402245 -0.771769 0.976489 -0.003045 -0.002329 2832850.000000 1 0 0
9.739546 -1.931478 -7.774607 12.610864 -0.195773 2.235087 -0.001778 0.001913 2213260.000000 1 0 0
-5.199254 -1.863878 6.718293 8.697226 0.344218 0.688085 -0.001805 -0.000333 698911.000000 1 0 0
3.142846 -7.707278 -4.928507 9.673148 -1.183604 2.105405 -0.003622 -0.000377 3931610.000000 1 0 0
-5.182254 4.900722 -13.039307 14.862583 -0.757484 2.641055 -0.003003 -0.003205 2829010.000000 1 0 0
-5.614854 9.596822 5.560293 12.431510 -1.041424 1.107081 -0.000538 0.004145 2392400.000000 1 0 0
-0.559854 -1.712878 -9.488207 9.657819 1.254892 2.953903 -0.004241 -0.004382 -593343.000000 1 0 0
-16.757954 0.150422 6.569293 18.000202 -0.008976 1.197210 0.002105 -0.000053 -574963.000000 1 0 0
-5.874254 -2.924278 4.083993 7.728988 0.461896 1.014082 0.000431 -0.000856 3302160.000000 1 0 0
0.977746 -5.620678 -5.107007 7.656992 -1.398565 2.300935 -0.002554 0.001469 251997.000000 1 0 0
-7.044554 1.504822 -8.328007 11.011173 -0.210452 2.428471 0.000787 -0.002859 332507.000000 1 0 0
8.031946 1.958822 4.763193 9.541339 0.239209 1.048102 0.002911 -0.000382 -225819.000000 1 0 0
0.564846 -8.055178 -0.467407 8.088474 -1.500789 1.628615 0.001282 0.003406 14514.200000 1 0 0
5.335346 5.578322 -3.381407 8.427188 0.807658 1.983677 0.002705 -0.000085 -563596.000000 1 0 0
-0.693654 -0.347178 -1.237307 1.460349 0.464052 2.581618 0.000482 -0.001317 -287056.000000 1 0 0
8.994846 6.408522 -6.376607 12.752942 0.619043 2.094407 0.004575 -0.003155 1147620.000000 1 0 0
-14.872654 -7.179078 2.587093 16.716102 0.449715 1.415405 -0.013751 0.001530 552370.000000 1 0 0
-6.269254 6.802122 9.055693 12.945191 -0.826142 0.796041 -0.001796 0.004439 -347361.000000 1 0 0
-9.496754 -3.131078 -9.639107 13.889002 0.318477 2.337840 0.006429 -0.002647 263347.000000 1 0 0
14.777546 3.524122 -1.382407 15.254716 0.234106 1.661542 0.004998 -0.000235 -251559.000000 1 0 0
11.944646 1.811122 -5.889807 13.440408 0.150480 2.024410 0.000434 0.003727 -626650.000000 1 0 0
1.637546 -9.462078 12.650993 15.882698 -1.399430 0.649268 -0.007271 -0.003982 33784.400000 1 0 0
-3.494254 6.276222 7.962093 10.723604 -1.062789 0.734027 -0.002871 0.005557 323559.000000 1 0 0
-4.129654 13.053522 -12.246007 18.368810 -1.264396 2.300534 0.005889 -0.007981 1333730.000000 1 0 0
-10.193454 7.739322 6.594193 14.397465 -0.649391 1.095040 -0.010041 0.000700 6120.660000 1 0 0
7.993146 -9.324378 -7.300707 14.287573 -0.862119 2.107124 0.001669 -0.000960 134354.000000 1 0 0
5.863146 -3.859178 -0.350207 7.027971 -0.582125 1.620647 -0.001914 0.001472 -1736830.000000 1 0 0
-1.604754 -4.450278 4.206793 6.330665 1.224713 0.843958 0.001114 0.001142 926637.000000 1 0 0
9.856946 -2.075078 -2.705407 10.429984 -0.207490 1.833184 -0.001590 0.004520 -631995.000000 1 0 0
13.558046 7.103922 1.333193 15.364365 0.482634 1.483915 0.003642 0.000805 448014.000000 1 0 0
5.436346 -3.757778 -3.279107 7.377486 -0.604817 2.031384 -0.002720 -0.000116 -1936190.000000 1 0 0
-12.197654 -5.990678 1.981793 13.733117 0.456529 1.425983 -0.003930 0.000650 -462813.000000 1 0 0
3.733346 -5.726578 -0.381607 6.846692 -0.993063 1.626561 -0.000921 0.000950 -534152.000000 1 0 0
-5.285154 3.827722 -8.592007 10.789203 -0.626810 2.492037 -0.003544 -0.003879 12902.500000 1 0 0
-1.590254 -9.399078 7.218893 11.957591 1.403191 0.922652 -0.000491 -0.000712 2518920.000000 1 0 0
-7.403254 -7.536178 2.524993 10.861756 0.794295 1.336184 0.007843 -0.001479 -4451680.000000 1 0 0
-5.840154 13.094522 -8.444807 16.639972 -1.151274 2.103079 -0.000901 -0.004360 176085.000000 1 0 0
9.176746 -13.863078 -4.326007 17.178822 -0.986062 1.825359 0.008403 -0.000412 2316210.000000 1 0 0
-6.431054 -5.121478 -6.759907 10.643512 0.672522 2.258960 0.008355 -0.003050 2178960.000000 1 0 0
3.292046 0.400422 -6.222307 7.050887 0.121039 2.651918 -0.000527 -0.002266 2402720.000000 1 0 0
-3.595054 5.742722 5.062693 8.457785 -1.011464 0.929064 -0.001222 0.005572 -416295.000000 1 0 0
-2.665154 -10.840778 -2.860307 11.524187 1.329732 1.821618 0.004561 0.001058 3140590.000000 1 0 0
-12.543754 -0.438778 1.869193 12.689845 0.034966 1.422960 -0.002287 0.000624 -615573.000000 1 0 0
8.265146 -12.070978 -6.276507 15.919036 -0.970404 1.976077 0.000884 -0.000745 -728514.000000 1 0 0
6.073346 3.933522 0.976493 7.301484 0.574735 1.436655 -0.001478 0.002672 -1031250.000000 1 0 0
3.300646 -4.702278 -11.042907 12.447951 -0.958780 2.661878 0.000080 -0.002217 353626.000000 1 0 0
-7.549054 4.231222 8.775093 12.324517 -0.510867 0.778450 -0.005277 0.003740 1308710.000000 1 0 0
8.240146 8.698822 4.057093 12.650277 0.812470 1.244315 0.000890 0.001887 1745280.000000 1 0 0
0.134246 10.644522 -6.302207 12.371002 1.558185 2.105323 0.003756 -0.000569 2538630.000000 1 0 0
5.469246 8.038922 3.274093 10.259464 0.973383 1.245986 0.000551 0.003641 2642670.000000 1 0 0
7.961046 6.734622 -3.766407 11.086893 0.702136 1.917412 -0.001051 0.000844 325242.000000 1 0 0
10.432846 2.534122 -8.381007 13.620108 0.238284 2.233615 0.001361 0.001745 -61282.800000 1 0 0
3.406546 -12.560378 -0.398407 13.020230 -1.305954 1.601400 -0.006666 0.003868 -2356970.000000 1 0 0
0.632746 2.042022 5.282193 5.698402 1.270316 0.384568 0.000375 0.001079 168472.000000 1 0 0
-4.889954 13.496322 1.571893 14.440679 -1.223191 1.461728 0.000230 0.002480 874868.000000 1 0 0
8.142346 4.120322 -8.128907 12.221047 0.468465 2.298500 0.002565 0.001144 1539190.000000 1 0 0
-13.821854 -0.489278 -3.408107 14.244235 0.035384 1.812402 -0.002202 -0.003377 746760.000000 1 0 0
-8.570054 -0.004578 -0.409707 8.579843 0.000534 1.618567 -0.002729 -0.002629 342602.000000 1 0 0
1.744346 -3.764778 -1.139907 4.302986 -1.136910 1.838908 0.004392 -0.000148 -2624530.000000 1 0 0
8.060346 -5.674878 -0.402307 9.865864 -0.613438 1.611585 -0.004770 0.001843 2221190.000000 1 0 0
-2.262954 -1.247378 7.482593 7.916193 0.503777 0.332509 0.002088 -0.000438 3929100.000000 1 0 0
-5.955654 8.878422 -11.586707 15.765404 -0.979937 2.396382 -0.000391 0.000347 -110719.000000 1 0 0
-6.271754 9.219922 -8.814207 14.213800 -0.973456 2.239687 -0.003131 -0.001898 -627776.000000 1 0 0
-1.577354 14.012022 -8.338707 16.381662 -1.458697 2.104850 0.007604 -0.004246 -2053700.000000 1 0 0
-1.376754 7.143522 9.834293 12.232689 -1.380403 0.636913 -0.000582 0.002135 633252.000000 1 0 0
9.934846 2.466822 -4.137907 11.041225 0.243378 1.954944 -0.000404 0.002720 -1646720.000000 1 0 0
-3.042754 -7.463378 -7.014107 10.684478 1.183677 2.286934 0.004212 -0.001008 100441.000000 1 0 0
-5.520454 -4.923678 -1.635207 7.575746 0.728320 1.788356 0.007674 -0.000466 -712788.000000 1 0 0
5.557046 7.434922 -8.721607 12.736768 0.928945 2.325068 0.000627 0.001409 27462.000000 1 0 0
-9.535954 5.315522 -7.389607 13.183152 -0.508521 2.165827 0.001535 -0.001048 -794818.000000 1 0 0
-0.458754 6.249022 -5.240907 8.168711 -1.497516 2.267357 0.001493 -0.001121 -682590.000000 1 0 0
-8.227354 2.910822 -6.225007 10.719746 -0.340054 2.190390 0.000683 -0.002018 763828.000000 1 0 0
3.623946 1.429622 -1.984707 4.372169 0.375750 2.041980 -0.004490 0.001788 1954280.000000 1 0 0
-6.843154 12.533622 -3.396307 14.678397 -1.071042 1.804294 -0.011131 0.001835 29967.100000 1 0 0
-6.602854 3.142522 -2.309207 7.668479 -0.444210 1.876674 -0.002689 -0.002051 -1696030.000000 1 0 0
12.084446 4.069722 -0.969807 12.788158 0.324844 1.646706 0.003778 0.001040 599933.000000 1 0 0
2.200946 12.428822 -5.489307 13.764166 1.395529 1.981017 0.006008 -0.003413 125876.000000 1 0 0
-9.175754 -1.554678 -4.196407 10.208884 0.167839 1.994407 0.001944 -0.001648 -1386830.000000 1 0 0
-1.116954 5.694922 3.516193 6.785524 -1.377123 1.026063 -0.002311 0.004652 2325090.000000 1 0 0
11.655746 2.569922 11.959993 16.896814 0.217013 0.784382 0.003243 -0.001008 -285867.000000 1 0 0
-7.058454 -2.323878 -5.739607 9.389637 0.318056 2.228461 0.006278 -0.002972 -265991.000000 1 0 0
7.556846 -7.466078 10.715793 15.088951 -0.779356 0.781050 0.004464 0.000439 -1126180.000000 1 0 0
-5.487654 -1.887978 -10.890107 12.339905 0.331356 2.651972 0.003288 -0.001552 82794.400000 1 0 0
0.868846 -6.187378 4.387993 7.634987 -1.431286 0.958532 -0.001294 0.001848 1078410.000000 1 0 0
-4.738154 -9.420578 7.326993 12.840647 1.104785 0.963549 -0.000974 0.001190 3627200.000000 1 0 0
-8.803854 9.398822 1.743393 12.995581 -0.818072 1.436238 -0.005322 0.000026 335332.000000 1 0 0
-8.133554 7.227122 -9.122707 14.198936 -0.726457 2.268543 -0.001856 0.000816 -1179780.000000 1 0 0
-1.202354 -10.668178 -0.093107 10.736124 1.458565 1.579469 0.003277 0.002395 1619920.000000 1 0 0
-3.878054 10.337022 7.927393 13.591795 -1.211884 0.948074 0.005501 0.004889 1938790.000000 1 0 0
-7.457354 12.164422 2.087093 14.420168 -1.020839 1.425552 -0.009886 0.000026 1454710.000000 1 0 0
-8.197754 -8.192578 -2.908907 11.949195 0.785082 1.816707 0.010754 -0.004491 415596.000000 1 0 0
5.292446 4.578622 -8.072107 10.683290 0.713209 2.427339 0.000820 0.003771 493181.000000 1 0 0
-8.950254 -0.075378 -10.057207 13.463289 0.008422 2.414349 0.003957 -0.005813 -731729.000000 1 0 0
-15.153354 -2.203178 -1.438407 15.380089 0.144380 1.664457 -0.005159 -0.002457 693713.000000 1 0 0
-7.118654 -5.825578 8.770593 12.709677 0.685833 0.809208 0.002234 -0.000901 -366912.000000 1 0 0
8.058546 3.525722 -1.044207 8.857835 0.412422 1.688956 -0.000425 0.003753 972712.000000 1 0 0
11.785346 7.297622 -6.014407 15.110353 0.554426 1.980167 0.003213 -0.001519 -1196290.000000 1 0 0
3.808346 13.409722 -9.504607 16.871920 1.294083 2.169218 -0.003915 0.000002 1101060.000000 1 0 0
-9.682154 5.448822 -0.354607 11.115733 -0.512594 1.602703 -0.008017 0.000889 1441100.000000 1 0 0
11.178646 -1.165878 -5.311007 12.430937 -0.103919 2.012235 -0.001253 0.004232 -913914.000000 1 0 0
10.489746 1.716122 -1.352707 10.714927 0.162163 1.697379 -0.001267 0.003667 652412.000000 1 0 0
14.706346 5.097922 4.729093 16.267444 0.333685 1.275829 0.005019 -0.001571 2991880.000000 1 0 0
0.960946 -0.892078 10.346393 10.429145 -0.748250 0.126057 0.002574 -0.002438 2563810.000000 1 0 0
-7.978154 1.377322 -12.536507 14.923538 -0.170952 2.568170 -0.002318 -0.004013 804340.000000 1 0 0
3.117846 -11.491678 -7.809007 14.239390 -1.305861 2.151257 -0.006395 0.002357 -74454.300000 1 0 0
2.770346 5.003322 -6.785007 8.873802 1.065116 2.441234 -0.000389 0.002505 -2193230.000000 1 0 0
6.515946 8.015222 0.599693 10.347027 0.888211 1.512806 0.003189 0.001419 44260.600000 1 0 0
-8.980554 -5.435378 6.803993 12.509517 0.544263 0.995712 0.001954 -0.001118 -1534620.000000 1 0 0
-0.267554 -6.904178 -11.796007 13.670591 1.532063 2.611727 -0.005181 0.005084 60980.000000 1 0 0
6.356046 -13.483578 -4.842107 15.673296 -1.130296 1.884875 -0.006151 -0.000113 2244350.000000 1 0 0
-3.177054 -0.440978 10.083293 10.581159 0.137920 0.307980 0.000879 0.001396 33279.900000 1 0 0
8.721246 8.450522 6.961993 13.997885 0.769634 1.050243 -0.000576 0.000150 -1455670.000000 1 0 0
-7.965054 5.700222 -2.617007 10.138212 -0.621155 1.831886 -0.005306 -0.001465 575397.000000 1 0 0
-5.408954 5.951922 -6.386907 10.270090 -0.833155 2.241955 -0.004091 -0.000743 -1321910.000000 1 0 0
3.339046 -13.689078 2.468693 14.305053 -1.331548 1.397353 -0.003583 -0.000676 -1872270.000000 1 0 0
-11.225554 -7.092478 6.553793 14.807718 0.563485 1.112308 0.001936 -0.003526 668913.000000 1 0 0
-13.000254 -3.618478 -6.704607 15.068236 0.271468 2.031914 0.010359 -0.003726 -1468030.000000 1 0 0
5.925146 0.299722 -7.353807 9.448580 0.050542 2.462746 0.003751 0.001200 208670.000000 1 0 0
-1.544454 2.205822 -2.409807 3.613608 -0.959955 2.300797 -0.000406 -0.002821 1849330.000000 1 0 0
7.434546 0.992922 -5.055007 9.044969 0.132769 2.163825 -0.000148 0.004023 947298.000000 1 0 0
3.705346 -4.498478 10.811093 12.281922 -0.881777 0.494419 -0.001539 0.000719 787299.000000 1 0 0
6.071146 -2.604978 2.010893 6.905680 -0.405317 1.275322 -0.001468 0.001551 -252510.000000 1 0 0
-6.322054 7.792622 1.277493 10.115597 -0.889211 1.444169 -0.005152 0.002126 1415920.000000 1 0 0
6.100646 -3.506378 7.837393 10.532677 -0.521650 0.731606 0.001964 -0.003477 1109370.000000 1 0 0
6.673946 -2.268978 -7.978807 10.646651 -0.327717 2.417981 0.002163 -0.002507 1252190.000000 1 0 0
12.108646 -8.130178 -6.042407 15.787013 -0.591297 1.963563 0.001451 0.000155 2600000.000000 1 0 0
5.646946 -9.697978 9.873593 14.947462 -1.043508 0.849241 -0.005847 -0.000170 998330.000000 1 0 0
-6.674454 7.561122 -4.384407 10.997360 -0.847603 1.980871 -0.005908 0.001205 662708.000000 1 0 0
-1.314154 -7.681978 9.712393 12.452725 1.401367 0.676225 -0.004072 -0.001180 -506940.000000 1 0 0
10.028346 -9.338478 0.683993 13.720158 -0.749792 1.520923 -0.002554 -0.001106 805105.000000 1 0 0
11.216346 6.127622 9.766193 16.085170 0.500007 0.918321 0.005506 0.000276 1042850.000000 1 0 0
-15.308654 -4.153578 -4.894407 16.600070 0.264944 1.870087 -0.002910 -0.004604 783250.000000 1 0 0
-4.622354 -4.618578 7.868593 10.228009 0.784990 0.693023 0.003317 -0.001394 -1031120.000000 1 0 0
2.907746 11.008022 -11.014307 15.841291 1.312547 2.339621 -0.003609 0.001421 -685220.000000 1 0 0
9.902546 -1.287778 1.478093 10.094729 -0.129319 1.423846 -0.002232 0.001420 -387073.000000 1 0 0
-1.572954 -2.583878 0.677293 3.099893 1.023963 1.350530 0.001781 -0.002323 568338.000000 1 0 0
1.569146 2.979822 0.871093 3.478557 1.086103 1.317685 -0.003299 0.000213 -10629.300000 1 0 0
-8.938754 -2.409878 4.336193 10.223082 0.263338 1.132765 -0.003462 -0.000627 3872570.000000 1 0 0
9.868646 4.955722 -2.729707 11.375441 0.465381 1.813126 -0.001553 0.001940 772448.000000 1 0 0
2.606546 8.477922 2.556593 9.230677 1.272518 1.290160 -0.000239 0.002819 -202527.000000 1 0 0
-8.126954 -0.116378 2.497993 8.502993 0.014319 1.272619 -0.004734 -0.002267 1490300.000000 1 0 0
7.084946 1.922422 13.698793 15.541849 0.264959 0.491950 -0.001444 -0.002344 -1768900.000000 1 0 0
6.803046 4.389422 3.767493 8.929863 0.573004 1.135258 0.000029 0.001061 -627227.000000 1 0 0
-0.264054 3.278522 7.857193 8.517858 -1.490429 0.396450 -0.001502 0.001553 -673877.000000 1 0 0
2.767946 -10.280978 9.218093 14.083085 -1.307802 0.857208 -0.004605 -0.002663 1388390.000000 1 0 0
1.434346 -4.585678 6.846793 8.364470 -1.267649 0.611903 -0.003469 0.000809 599901.000000 1 0 0
-0.254454 10.820422 -1.950407 10.997744 -1.547285 1.749086 0.004492 -0.002312 3103410.000000 1 0 0
8.881146 5.512822 7.999193 13.162562 0.555525 0.917606 0.001415 -0.001522 -249496.000000 1 0 0
2.562446 11.425422 -2.872107 12.056342 1.350171 1.811333 0.005825 -0.005473 1786380.000000 1 0 0
1.355646 2.473622 -6.692907 7.263029 1.069458 2.742731 -0.003310 -0.000394 852110.000000 1 0 0
-13.615054 -2.280478 3.742993 14.303156 0.165956 1.306024 -0.002146 0.001694 1454110.000000 1 0 0
-1.019254 -10.688578 -5.346007 11.994348 1.475725 2.032764 -0.001414 -0.000605 1190860.000000 1 0 0
-5.694854 2.870322 0.506193 6.397370 -0.466859 1.491588 -0.001019 -0.002637 1141910.000000 1 0 0
3.685646 7.276322 -5.005907 9.570159 1.101942 2.121251 0.003799 -0.001081 -3121370.000000 1 0 0
2.915646 9.827322 -6.460807 12.116900 1.282381 2.133182 0.004611 -0.000069 1256290.000000 1 0 0
-12.179854 1.792122 -2.457207 12.553821 -0.146090 1.767802 -0.000897 -0.002451 17641.900000 1 0 0
-2.615954 9.668022 -5.643607 11.496267 -1.306546 2.083928 -0.000158 -0.000493 865687.000000 1 0 0
-1.307054 3.291622 1.792793 3.969543 -1.192805 1.102197 -0.002616 -0.001967 578376.000000 1 0 0
12.954846 3.715522 9.531393 16.506986 0.279308 0.955236 0.005688 -0.000826 -389038.000000 1 0 0
-2.487654 -9.627278 11.608893 15.285264 1.317931 0.708279 -0.006247 -0.005114 692146.000000 1 0 0
-0.525054 -8.931778 -7.532007 11.695447 1.512079 2.270527 -0.001313 0.001190 1795390.000000 1 0 0
2.312146 7.718422 -0.436307 8.069103 1.279741 1.624894 0.002892 0.001520 1497860.000000 1 0 0
-11.784154 -1.213578 -5.442007 13.036660 0.102622 2.001421 0.006045 -0.003084 -156917.000000 1 0 0
-6.282254 -7.065578 -11.001207 14.505712 0.844016 2.431659 0.003566 -0.001093 898371.000000 1 0 0
-4.680154 -2.206478 -1.374607 5.353684 0.440551 1.830464 0.000871 -0.001621 -2331030.000000 1 0 0
-10.356654 3.664322 4.611093 11.914265 -0.340068 1.173396 -0.007440 -0.000811 2566090.000000 1 0 0
6.738246 9.393722 -3.661007 12.126374 0.948545 1.877486 0.004152 -0.001254 1246230.000000 1 0 0
1.067946 -2.657578 -11.599507 11.947878 -1.188697 2.899517 -0.002207 -0.001980 -1697650.000000 1 0 0
1.331946 8.756722 7.708193 11.741827 1.419848 0.854663 -0.001176 0.006903 349619.000000 1 0 0
10.434846 0.380022 10.388493 14.729264 0.036402 0.787956 0.002866 -0.000878 629358.000000 1 0 0
-5.234654 -0.757878 -3.895207 6.568761 0.143782 2.205563 0.002135 -0.002093 174162.000000 1 0 0
11.738646 5.696922 5.448593 14.139939 0.451829 1.175227 0.004107 -0.000245 3541420.000000 1 0 0
10.013046 -3.451578 3.553293 11.171409 -0.331953 1.247103 -0.001276 -0.002776 -1690730.000000 1 0 0
7.201146 -1.615578 -3.472907 8.156450 -0.220696 2.010627 -0.000726 0.003467 -2219450.000000 1 0 0
2.455246 9.183422 10.640593 14.268345 1.309550 0.729139 -0.001323 0.007623 3595360.000000 1 0 0
2.417746 -10.997478 6.344993 12.924742 -1.354393 1.057653 -0.005253 0.001873 1052380.000000 1 0 0
5.941546 -7.557878 -1.400007 9.715118 -0.904564 1.715406 -0.003689 -0.001968 1348480.000000 1 0 0
-0.309554 -5.560178 -2.236207 6.001002 1.515180 1.952648 0.002324 0.001979 727428.000000 1 0 0
7.830146 -5.126878 2.563293 9.703944 -0.579715 1.303474 0.000296 -0.001594 1581560.000000 1 0 0
-2.639854 -12.539278 4.605593 13.616674 1.363300 1.225759 0.004653 0.000420 -9039.900000 1 0 0
4.854846 -10.271878 -1.253007 11.430268 -1.129280 1.680639 -0.007294 -0.002084 813709.000000 1 0 0
0.900946 0.187322 1.079193 1.418256 0.204996 0.706052 -0.001191 -0.001099 -2716580.000000 1 0 0
-1.562554 8.550022 2.548993 9.057694 -1.390037 1.285525 -0.001037 0.004907 105904.000000 1 0 0
-7.617054 0.636522 -3.025507 8.220606 -0.083372 1.947696 -0.002159 -0.000714 1444110.000000 1 0 0
4.458446 -6.386678 12.776593 14.963580 -0.961357 0.547467 0.002414 -0.000213 1124040.000000 1 0 0
-5.048354 13.051322 8.615593 16.433238 -1.201714 1.018929 0.008325 -0.000002 1055830.000000 1 0 0
0.691246 5.992222 8.290593 10.252730 1.455947 0.628989 -0.002266 0.004655 -951718.000000 1 0 0
7.947246 -0.546578 -0.777907 8.003912 -0.068668 1.668141 -0.001581 0.003678 3909200.000000 1 0 0
2.395746 -9.201978 -2.454007 9.820293 -1.316099 1.823364 -0.002432 0.000093 -451839.000000 1 0 0
-7.127854 12.143122 4.959793 14.928538 -1.040000 1.232123 -0.001973 0.002585 1087410.000000 1 0 0
-14.854754 0.219822 0.298493 14.859379 -0.014797 1.550707 -0.005177 -0.001761 523440.000000 1 0 0
6.861246 -0.536878 3.921993 7.921298 -0.078089 1.052823 0.002100 0.001062 1435690.000000 1 0 0
-4.145054 -5.125978 5.156193 8.369196 0.890811 0.907025 0.003689 -0.001747 648485.000000 1 0 0
2.956646 5.018422 6.887793 9.020421 1.038387 0.701961 -0.003270 0.002165 -1261980.000000 1 0 0
2.195846 -7.259178 1.725593 7.777858 -1.277055 1.347075 -0.001908 0.002013 1233270.000000 1 0 0
-2.473854 6.429022 -1.591307 7.069974 -1.203466 1.797821 -0.001239 0.000633 1720740.000000 1 0 0
2.610646 -3.803578 -6.657407 8.099614 -0.969280 2.535607 -0.003167 -0.000969 266823.000000 1 0 0
-5.083454 0.966922 -12.200107 13.252134 -0.187964 2.740448 0.000534 -0.002400 332271.000000 1 0 0
-7.582554 6.389522 -11.873307 15.469213 -0.700218 2.445798 0.001416 -0.001670 2329420.000000 1 0 0
-1.088854 11.257222 -8.968107 14.433904 -1.474371 2.241226 0.003036 -0.001079 1274950.000000 1 0 0
4.565446 5.927422 -0.555607 7.502421 0.914477 1.644921 0.001272 0.001689 289330.000000 1 0 0
-2.605754 13.428622 3.593693 14.143283 -1.379133 1.313888 0.005106 0.004557 357098.000000 1 0 0
1.488546 -7.923278 10.172293 12.979586 -1.385091 0.670172 -0.007499 -0.000882 -999630.000000 1 0 0
12.901246 -0.202678 -1.108307 12.950350 -0.015709 1.656482 0.001050 0.001946 -225506.000000 1 0 0
-1.161754 3.206222 -5.268507 6.275882 -1.223168 2.567131 -0.000796 -0.005113 472082.000000 1 0 0
6.656746 1.058522 7.282493 9.923076 0.157695 0.746758 0.000981 -0.001409 1368650.000000 1 0 0
5.505546 -6.225778 6.820293 10.751174 -0.846715 0.883595 -0.002852 -0.000116 303951.000000 1 0 0
12.221846 -4.842178 2.422893 13.367521 -0.377218 1.388537 -0.003570 -0.000146 249045.000000 1 0 0
4.337946 -9.169278 13.754593 17.090414 -1.128903 0.635435 -0.003728 -0.001022 -94754.600000 1 0 0
-2.807354 -4.298278 -1.317707 5.300263 0.992221 1.822043 0.004388 -0.002232 1497170.000000 1 0 0
-9.340154 -5.132678 -7.522807 13.045133 0.502481 2.185450 0.010217 -0.005557 2111130.000000 1 0 0
-10.548854 -3.245378 7.911293 13.579372 0.298462 0.948877 -0.002607 0.000630 -880160.000000 1 0 0
12.017646 -0.442778 1.653993 12.139010 -0.036827 1.434117 -0.001446 -0.000089 794300.000000 1 0 0
-7.526754 4.787022 4.457793 9.971937 -0.566471 1.107350 -0.006549 0.001257 1117010.000000 1 0 0
-0.995754 10.549622 7.045493 12.724976 -1.476687 0.984026 -0.000320 0.007451 2534840.000000 1 0 0
7.406546 -10.105178 1.704293 12.644215 -0.938300 1.435596 -0.005828 0.000920 2564750.000000 1 0 0
-4.289354 -1.653278 1.676093 4.892972 0.367890 1.221165 -0.001196 -0.000735 1412970.000000 1 0 0
6.634846 -14.957378 -1.170707 16.404722 -1.153291 1.642221 -0.006080 0.004650 -2428690.000000 1 0 0
-10.447254 1.659722 2.522893 10.874961 -0.157550 1.336672 -0.007963 0.001385 525187.000000 1 0 0
-3.074654 8.370622 -11.348607 14.433007 -1.218780 2.475586 -0.000169 -0.000785 -1309750.000000 1 0 0
-1.311854 -5.152878 -6.909507 8.718624 1.321505 2.485693 -0.003203 0.000015 -800778.000000 1 0 0
12.939146 -0.548778 6.394693 14.443502 -0.042387 1.112146 0.004868 -0.003921 2921560.000000 1 0 0
5.949946 -13.424278 3.707893 15.144688 -1.153593 1.323451 -0.006650 0.002785 376508.000000 1 0 0
-5.556054 3.543522 -4.851607 8.183176 -0.567734 2.205422 -0.003046 -0.001482 1321730.000000 1 0 0
-4.359554 8.043122 3.523893 9.803843 -1.074098 1.203129 -0.002239 0.005119 65346.600000 1 0 0
13.868346 6.318222 -4.074307 15.775009 0.427489 1.832034 0.002956 0.000241 277540.000000 1 0 0
-6.714054 -8.548378 5.259193 12.075281 0.905010 1.120165 0.009662 -0.001047 12498.900000 1 0 0
1.780246 11.384822 2.785893 11.855153 1.415682 1.333584 0.002584 0.001178 1161560.000000 1 0 0
-7.302954 7.230522 6.160093 11.981666 -0.780414 1.030807 -0.005477 0.000789 251597.000000 1 0 0
-17.336454 -4.157278 5.253493 18.585876 0.235356 1.284230 -0.003993 0.001998 -639722.000000 1 0 0
7.337846 -13.135378 -8.728807 17.394661 -1.061350 2.096486 -0.003036 0.002280 -1464120.000000 1 0 0
-2.340654 12.854522 -2.740507 13.350197 -1.390682 1.777544 0.002345 -0.000533 1179850.000000 1 0 0
-5.556154 13.914222 -5.707007 16.032665 -1.190881 1.934739 -0.006023 0.003538 2267010.000000 1 0 0
-5.591054 2.316122 7.543493 9.671018 -0.392734 0.676114 -0.004367 0.002801 2059240.000000 1 0 0
-7.417354 5.103922 1.569193 9.139449 -0.602698 1.398247 -0.004526 -0.000406 1777390.000000 1 0 0
10.747346 -5.677378 -5.268907 13.247621 -0.485998 1.979832 0.000542 0.000991 1992220.000000 1 0 0
-9.483154 -0.888478 6.870793 11.744250 0.093417 0.945874 -0.005035 -0.000361 -226430.000000 1 0 0
-11.277454 -4.551278 -2.458307 12.407191 0.383583 1.770252 -0.001352 -0.001964 -170054.000000 1 0 0
6.580546 -4.418578 13.456293 15.617273 -0.591314 0.532326 0.005179 -0.006430 -1349020.000000 1 0 0
0.196146 10.343622 -11.653507 15.583107 1.551836 2.415583 -0.001374 0.000554 -1900650.000000 1 0 0
-11.831154 -3.222778 1.520993 12.356210 0.265945 1.447388 -0.000590 -0.001352 2660970.000000 1 0 0
5.292546 5.917222 5.457693 9.633845 0.841067 0.968529 -0.001312 0.002273 -3711080.000000 1 0 0
-7.143554 -0.095378 8.212793 10.885285 0.013351 0.715926 -0.007005 0.002648 533871.000000 1 0 0
1.882046 1.977722 9.663693 10.041934 0.810181 0.275336 0.001325 -0.001833 1309900.000000 1 0 0
10.437546 -5.000278 -2.277907 11.795508 -0.446761 1.765134 -0.000642 0.002779 1379600.000000 1 0 0
-9.671154 -2.436578 -1.518007 10.088235 0.246806 1.721843 0.000725 -0.002479 -699578.000000 1 0 0
-2.012054 -5.180578 -9.966207 11.411049 1.200344 2.632900 0.000725 -0.000696 399260.000000 1 0 0
7.757846 -1.586478 6.506793 10.248875 -0.201719 0.882945 0.004014 -0.003238 1634150.000000 1 0 0
1.500246 -11.829178 -2.644107 12.213578 -1.444644 1.789013 -0.003971 0.002737 -3266440.000000 1 0 0
-0.799954 -1.535478 4.857993 5.157297 1.090506 0.342360 0.003807 0.000019 769717.000000 1 0 0
7.718946 1.498022 9.859793 12.611174 0.191688 0.673201 0.003897 -0.002736 1063550.000000 1 0 0
-3.946254 10.753722 -7.919007 13.925736 -1.219087 2.175672 0.000812 -0.000894 3326750.000000 1 0 0
-9.579154 12.678522 6.564793 17.193069 -0.923758 1.179023 -0.005263 0.002118 2387670.000000 1 0 0
-2.665454 -2.431078 -11.102807 11.674207 0.739443 2.827427 0.000474 -0.002999 -3164760.000000 1 0 0
1.232946 -11.961078 11.027593 16.315494 -1.468079 0.828615 -0.006033 0.000017 2813300.000000 1 0 0
1.311746 3.483222 -1.953807 4.203674 1.210633 2.054189 -0.002420 -0.000322 1822530.000000 1 0 0
-1.943554 -9.419478 -11.997507 15.376741 1.367318 2.465842 -0.002927 0.001795 854650.000000 1 0 0
1.324646 -2.651778 1.523193 3.332676 -1.107524 1.096123 0.003136 -0.000531 2834740.000000 1 0 0
-1.100254 -2.248578 -6.668507 7.122896 1.115736 2.782475 -0.003768 -0.003609 -539716.000000 1 0 0
1.849946 5.881222 4.103493 7.406060 1.266044 0.983548 -0.002034 0.003940 -2945020.000000 1 0 0
-10.969054 8.605522 3.750593 14.437524 -0.665235 1.308001 -0.010361 0.000947 1213150.000000 1 0 0
-16.373154 -1.554178 4.154093 16.963258 0.094639 1.323392 0.002102 0.003512 -317054.000000 1 0 0
-12.137254 0.144222 6.909193 13.966771 -0.011882 1.053321 -0.004564 0.001783 246407.000000 1 0 0
-5.162854 3.029222 4.754393 7.644311 -0.530608 0.899564 -0.005337 0.001613 493810.000000 1 0 0
5.290846 -6.091278 3.821093 8.927344 -0.855606 1.128494 -0.003400 -0.000881 164041.000000 1 0 0
9.976746 3.408922 6.250093 12.256421 0.329250 1.035676 0.003650 0.001032 271053.000000 1 0 0
-12.054354 5.855522 3.294193 13.800228 -0.452191 1.329764 -0.007376 0.000549 1881470.000000 1 0 0
-4.963654 12.419922 -1.163807 13.425601 -1.190589 1.657591 -0.006915 0.002976 2209080.000000 1 0 0
-1.626254 -12.208278 10.264893 16.032928 1.438367 0.875988 -0.000297 -0.000556 1524060.000000 1 0 0
5.281546 6.227122 13.926793 16.143956 0.867376 0.530285 0.002254 -0.002428 265693.000000 1 0 0
12.867546 -3.573978 -6.143507 14.699991 -0.270922 2.001957 -0.001722 0.001403 253640.000000 1 0 0
3.574446 -2.528778 6.356393 7.718491 -0.615715 0.603194 -0.001112 0.000975 1544290.000000 1 0 0
7.221146 -11.860278 -0.836607 13.910825 -1.023894 1.630973 -0.005556 0.002430 -1840520.000000 1 0 0
-6.034554 -6.541278 -4.120607 9.807322 0.825670 2.004414 0.013180 -0.001892 52321.600000 1 0 0
0.409746 -8.954678 5.059593 10.293378 -1.525070 1.056941 0.001334 0.000334 1644090.000000 1 0 0
-10.218754 2.499822 -0.264607 10.523405 -0.239919 1.595944 -0.007507 0.000282 -1116550.000000 1 0 0
-1.917954 8.990922 -0.246207 9.196512 -1.360625 1.597571 0.000312 0.002040 411800.000000 1 0 0
-3.568854 2.426822 -6.600407 7.886163 -0.597177 2.562502 0.000410 -0.005388 114404.000000 1 0 0
-12.505554 2.987822 6.513193 14.413107 -0.234523 1.101909 -0.009444 -0.003039 143821.000000 1 0 0
11.409046 1.606922 7.865293 13.950317 0.139926 0.971808 0.006290 -0.005661 -2683380.000000 1 0 0
5.964946 2.727922 -3.281707 7.334285 0.428929 2.034705 -0.001474 0.003267 819798.000000 1 0 0
10.581546 -2.371778 6.321293 12.552019 -0.220498 1.043027 0.003425 -0.005266 2032990.000000 1 0 0
-0.843054 11.027322 4.110193 11.798570 -1.494493 1.214972 0.004855 0.005499 2234680.000000 1 0 0
-1.571754 -12.354078 7.371093 14.471581 1.444251 1.036368 -0.000328 0.001122 -1147420.000000 1 0 0
8.000046 8.637022 -7.862407 14.156847 0.823666 2.159614 0.006079 -0.000951 588945.000000 1 0 0
-4.671554 -5.969978 -8.781607 11.600892 0.906813 2.429471 0.005647 -0.002097 400407.000000 1 0 0
-8.612254 -5.199778 -11.648007 15.391059 0.543183 2.429205 0.007641 -0.004130 1896880.000000 1 0 0
5.894746 -0.637578 -10.054107 11.672172 -0.107742 2.608765 0.005356 -0.000438 2180450.000000 1 0 0
-11.213354 -5.308678 -5.325107 13.501042 0.442162 1.976235 0.001005 -0.006377 636467.000000 1 0 0
3.833646 8.935222 -2.710707 10.093709 1.165501 1.842688 0.006047 -0.003135 2480820.000000 1 0 0
11.651946 -10.378278 -4.225007 16.165617 -0.727648 1.835225 0.006713 -0.000881 -827157.000000 1 0 0
4.070346 -11.380878 3.934793 12.711204 -1.227325 1.256073 -0.006718 0.000961 791030.000000 1 0 0
-0.994254 0.845622 3.230893 3.484578 -0.704789 0.383936 0.000490 -0.002172 -2003650.000000 1 0 0
-10.529054 -5.144578 4.544293 12.568940 0.454492 1.200867 0.001988 -0.003027 3306100.000000 1 0 0
4.689346 -8.727378 2.673393 10.261780 -1.077745 1.307236 -0.005672 0.001791 3696780.000000 1 0 0
-3.659354 -5.715478 2.600593 7.267781 1.001303 1.204859 0.004405 -0.000089 1259490.000000 1 0 0
10.140946 5.037922 12.249893 16.681706 0.461076 0.746116 -0.000561 -0.001706 1159280.000000 1 0 0
1.565146 -12.298978 -5.350307 13.503345 -1.444218 1.978194 -0.006688 0.002425 808347.000000 1 0 0
9.768646 -10.710478 -1.893607 14.619389 -0.831356 1.700688 0.002443 -0.003033 830450.000000 1 0 0
9.502546 -4.368878 -9.400207 14.062339 -0.430940 2.302942 -0.001970 -0.001386 2212150.000000 1 0 0
-7.541754 -2.880778 -13.017807 15.317971 0.364874 2.586476 0.001377 -0.002367 1675590.000000 1 0 0
0.394046 6.272522 -2.423507 6.735962 1.508058 1.938835 0.000473 -0.001584 3277630.000000 1 0 0
-5.836754 -9.513978 0.907193 11.198503 1.020515 1.489697 0.011012 0.000623 -703297.000000 1 0 0
-8.999154 -4.148378 0.719593 9.935373 0.431943 1.498306 -0.000951 -0.003074 3389310.000000 1 0 0
1.948646 3.698722 12.099393 12.801292 1.085906 0.332683 0.001926 -0.003277 248843.000000 1 0 0
6.703846 4.274822 9.654593 12.507070 0.567656 0.688924 -0.002041 0.000306 2499100.000000 1 0 0
-8.311054 9.840522 -3.471607 13.340223 -0.869460 1.834063 -0.007831 0.002761 2251310.000000 1 0 0
16.319746 2.242522 -6.218507 17.607749 0.136556 1.931752 0.005578 -0.001143 -2070790.000000 1 0 0
-10.904254 2.761922 -4.947107 12.288403 -0.248071 1.985134 0.002088 -0.000521 104060.000000 1 0 0
-13.774854 4.053722 1.583493 14.445993 -0.286205 1.460961 -0.006094 0.001475 367427.000000 1 0 0
-17.277754 10.515422 3.466693 20.521034 -0.546727 1.401049 0.008191 0.005508 -628172.000000 1 0 0
-14.300254 2.829722 -1.000107 14.611804 -0.195355 1.639295 -0.002815 -0.000369 657192.000000 1 0 0
-14.231654 5.088622 5.364693 16.037892 -0.343391 1.229721 -0.004223 -0.000563 1323580.000000 1 0 0
-17.330254 7.536922 3.381993 19.198458 -0.410226 1.393713 0.005910 0.005564 -700143.000000 1 0 0
-15.015454 12.469422 -3.233507 19.783981 -0.693028 1.734974 0.014748 -0.000939 -240747.000000 1 0 0
-8.579154 12.503722 -9.633807 17.965389 -0.969441 2.136776 -0.003558 0.000202 1576380.000000 1 0 0
-12.530254 8.776322 -9.803807 18.169913 -0.611001 2.140714 -0.001001 0.004833 -347651.000000 1 0 0
-13.946854 -3.405578 -12.209307 18.846217 0.239496 2.275540 0.000687 0.002252 -1478180.000000 1 0 0
-14.742154 5.753322 -7.570307 17.542559 -0.372085 2.016995 0.003233 0.002634 -478770.000000 1 0 0
-10.940854 13.534122 -8.282307 19.273592 -0.890960 2.014982 -0.007194 0.003797 953745.000000 1 0 0
-10.842254 13.582422 4.080693 17.851855 -0.897120 1.340171 -0.008751 0.003771 -608736.000000 1 0 0
-15.067954 3.259422 3.221493 15.749447 -0.213033 1.364796 -0.005148 0.000243 -94734.300000 1 0 0
-11.235454 9.422822 -12.372807 19.186228 -0.697879 2.271662 -0.001644 0.006147 644644.000000 1 0 0
-13.123854 11.541022 -8.940807 19.630812 -0.721313 2.043671 -0.003612 0.001159 -484641.000000 1 0 0
-8.896954 14.641722 -3.316307 17.450894 -1.024775 1.761996 -0.011987 0.002419 990349.000000 1 0 0
-16.682754 8.220922 -3.879307 18.998602 -0.457855 1.776432 0.008814 0.003997 51213.600000 1 0 0
-16.854754 6.642022 0.543193 18.124410 -0.375387 1.540822 0.006932 0.005540 -1782500.000000 1 0 0
-10.534754 2.775122 -12.506607 16.586066 -0.257574 2.424992 0.004153 -0.003434 -289018.000000 1 0 0
-16.814554 0.885622 2.483193 17.019982 -0.052621 1.424375 -0.000405 -0.000026 1062130.000000 1 0 0
-12.651354 1.283522 -6.824407 14.431796 -0.101107 2.063345 0.004581 -0.005251 2991600.000000 1 0 0
-12.408354 9.052322 -5.316407 16.253491 -0.630274 1.904022 -0.000629 0.002006 282392.000000 1 0 0
-9.620354 14.034622 1.349593 17.068779 -0.969887 1.491646 -0.007815 -0.000473 332887.000000 1 0 0
-12.106154 11.139822 2.880993 16.701938 -0.743852 1.397435 -0.009690 0.000103 141615.000000 1 0 0
-12.653954 6.841822 -3.473507 14.798592 -0.495665 1.807726 -0.001401 -0.000602 494869.000000 1 0 0
-16.024554 3.715222 -9.263107 18.878410 -0.227821 2.083657 0.017476 -0.001370 -1651650.000000 1 0 0
-15.137654 5.796522 -4.574607 16.842662 -0.365697 1.845860 0.010134 0.000151 1381570.000000 1 0 0
-17.705354 5.219622 7.738593 20.015240 -0.286684 1.173816 0.002688 -0.000697 -266815.000000 1 0 0
-15.865554 10.052922 -1.875707 18.875787 -0.564782 1.670332 0.015972 0.000367 -326958.000000 1 0 0
-8.881354 9.918222 -8.306507 15.692280 -0.840496 2.128615 -0.003766 0.001716 250231.000000 1 0 0
-16.961154 4.219722 -1.203907 17.519595 -0.243837 1.639568 0.001370 -0.002089 526573.000000 1 0 0
-10.293854 5.495222 -4.462307 12.492921 -0.490348 1.936051 -0.004040 -0.000443 -879586.000000 1 0 0
-18.184454 2.735722 6.334593 19.449566 -0.149323 1.239051 0.008411 -0.000711 -917394.000000 1 0 0
-10.416654 10.074622 -5.639907 15.550345 -0.768708 1.941946 -0.010189 -0.001247 2270990.000000 1 0 0
-15.372354 0.514822 -5.718307 16.409551 -0.033478 1.926739 0.005207 -0.002645 668722.000000 1 0 0
-16.396554 -4.060378 -8.782807 19.038681 0.242753 2.050272 -0.004176 -0.006440 -1384940.000000 1 0 0
-9.999454 9.570722 -1.003207 13.877832 -0.763494 1.643148 -0.008830 0.001160 674798.000000 1 0 0
-17.319654 -2.947978 -3.135107 17.846285 0.168594 1.747386 -0.001121 -0.001371 -1160490.000000 1 0 0
-12.020154 5.000422 -11.474807 17.353948 -0.394226 2.293242 -0.000767 0.001506 -98113.400000 1 0 0
-16.083454 7.088422 6.024393 18.580003 -0.415116 1.240587 0.001249 0.001735 604149.000000 1 0 0
-12.120554 5.991722 -8.789007 16.126227 -0.459112 2.147201 0.000762 0.002162 2195370.000000 1 0 0
-14.511554 8.321822 0.158193 16.729105 -0.520678 1.561340 0.003106 0.001303 495921.000000 1 0 0
-14.755854 11.897722 4.039893 19.380706 -0.678574 1.360807 -0.008543 0.004287 1182310.000000 1 0 0
-17.248154 4.130622 -4.041907 18.190598 -0.235055 1.794864 0.006383 -0.001157 -1448620.000000 1 0 0
-13.740354 13.423622 -0.738207 19.223317 -0.773739 1.609207 0.001361 -0.003188 -331189.000000 1 0 0
-10.168754 6.846922 -13.054707 17.908358 -0.592601 2.387617 -0.003488 0.001404 240381.000000 1 0 0
-15.877854 -1.129178 -8.224507 17.917137 0.070997 2.047700 0.005514 -0.006284 -246423.000000 1 0 0
-11.369854 11.905322 0.032993 16.462423 -0.808400 1.568792 -0.009235 -0.000795 655077.000000 1 0 0
-11.981354 7.351622 -0.795407 14.079484 -0.550351 1.627320 -0.009349 0.001209 1409070.000000 1 0 0
-11.497354 0.164922 -11.576807 16.316826 -0.014343 2.359586 0.005419 -0.006999 995777.000000 1 0 0
-19.109454 -1.158878 -4.586507 19.686297 0.060570 1.805937 0.002987 -0.003983 -1249460.000000 1 0 0
-17.944654 1.508222 -5.040607 18.700082 -0.083851 1.843722 0.001053 -0.001895 -495411.000000 1 0 0
-13.317054 -0.067378 -9.323307 16.256461 0.005059 2.181585 0.006192 -0.007577 -354849.000000 1 0 0
-6.148054 11.268422 -13.137107 18.367348 -1.071337 2.367767 0.001644 -0.000478 -1521440.000000 1 0 0
16.536246 5.872422 6.918793 18.862727 0.341233 1.195233 0.006801 -0.003428 136249.000000 1 0 0
14.674546 10.240522 -5.537107 18.731528 0.609277 1.870884 0.002808 0.000802 240620.000000 1 0 0
2.381146 16.820422 4.352293 17.536787 1.430168 1.319995 -0.003175 0.000789 1084900.000000 1 0 0
-4.009554 18.190122 -5.908207 19.541340 -1.353841 1.877947 0.008306 -0.001928 681610.000000 1 0 0
5.533446 14.464922 5.702793 16.503782 1.205430 1.217977 -0.004832 0.005929 70947.300000 1 0 0
9.952646 5.846322 15.054393 18.970223 0.531114 0.654126 -0.002514 -0.004223 -1715690.000000 1 0 0
4.670446 12.753922 -1.131007 13.629188 1.219766 1.653876 0.005708 -0.005457 1974210.000000 1 0 0
3.645346 13.620722 13.217593 19.326597 1.309293 0.817692 -0.001993 0.008641 -289006.000000 1 0 0
-0.654354 12.338722 9.266693 15.444864 -1.517813 0.927313 0.005320 0.007014 593896.000000 1 0 0
-7.704654 13.905922 8.488593 18.022002 -1.064845 1.080358 0.003297 -0.004782 745401.000000 1 0 0
11.222946 12.943722 -4.307607 17.664935 0.856483 1.817131 0.003982 0.000327 -1928530.000000 1 0 0
-5.806954 16.262522 0.965593 17.295164 -1.227832 1.514937 -0.000685 0.005677 179868.000000 1 0 0
3.331546 10.540522 6.928193 13.046136 1.264662 1.010953 -0.002904 0.009270 1570720.000000 1 0 0
-1.244554 15.639022 2.399893 15.870961 -1.491384 1.419001 0.006498 0.003152 -2443030.000000 1 0 0
10.031146 8.788922 9.513393 16.382114 0.719488 0.951186 0.002779 -0.003012 1643570.000000 1 0 0
7.351546 12.290122 6.306193 15.648015 1.031726 1.156001 -0.004312 0.004206 -509018.000000 1 0 0
11.716146 14.063422 -1.652607 18.378765 0.876200 1.660837 -0.006172 0.002670 -1537080.000000 1 0 0
9.564946 16.008222 -1.107907 18.680975 1.032216 1.630138 -0.004510 0.001393 728329.000000 1 0 0
10.119446 13.681222 2.965893 17.273550 0.933946 1.398240 0.000237 0.001071 1789600.000000 1 0 0
-5.934254 14.531922 6.360793 16.936700 -1.183104 1.185792 0.002901 -0.001652 1091510.000000 1 0 0
-1.021754 18.262922 -6.226507 19.322207 -1.514908 1.898898 0.016054 0.000345 2566110.000000 1 0 0
-3.469654 15.744422 5.508493 17.037277 -1.353890 1.241560 0.005855 0.001636 2886360.000000 1 0 0
7.157346 12.241522 10.743293 17.790469 1.041719 0.922437 -0.004374 0.006008 3701150.000000 1 0 0
1.624846 14.528322 6.289393 15.914419 1.459419 1.164510 -0.001232 0.007021 891025.000000 1 0 0
17.385846 7.649422 -1.518707 19.054862 0.414490 1.650583 0.003305 0.001916 -409141.000000 1 0 0
1.984046 16.186922 -3.333907 16.645354 1.448834 1.772451 0.006514 -0.007387 -6347.420000 1 0 0
6.721946 11.204622 0.616293 13.080823 1.030431 1.523665 0.004039 -0.000021 2492060.000000 1 0 0
12.626046 9.277122 3.235793 15.998512 0.633676 1.367135 -0.000927 0.001380 -549806.000000 1 0 0
6.002346 14.332522 -3.395407 15.905286 1.174196 1.785929 -0.000510 -0.000206 37277.900000 1 0 0
3.129546 16.544822 1.513893 16.906125 1.383849 1.481129 0.004740 -0.006325 1327830.000000 1 0 0
2.793446 18.924522 -2.591007 19.304253 1.424245 1.705422 0.011195 -0.010273 797942.000000 1 0 0
4.059046 11.864622 10.840493 16.575928 1.241165 0.857949 -0.004319 0.005868 1846040.000000 1 0 0
8.120346 11.496322 3.405393 14.481096 0.955826 1.333412 -0.001784 0.003761 1740560.000000 1 0 0
0.752946 12.477522 0.223993 12.502226 1.510525 1.552879 0.006876 -0.001602 -1291410.000000 1 0 0
11.880746 10.003922 -4.703307 16.228114 0.699848 1.864840 0.002995 0.000274 -1295270.000000 1 0 0
-1.137754 16.376622 9.973493 19.208300 -1.501433 1.024849 0.004738 0.000578 34380.900000 1 0 0
8.161546 14.913222 -7.979407 18.779935 1.070052 2.009637 0.008591 0.004539 1568190.000000 1 0 0
14.499046 7.673722 -1.433007 16.466993 0.486778 1.657930 0.005965 0.000359 669318.000000 1 0 0
12.549946 8.298422 6.045293 16.214515 0.584230 1.188737 0.001987 -0.000532 -856701.000000 1 0 0
-2.971854 14.191622 10.275193 17.771146 -1.364370 0.954281 0.013158 -0.003145 3660330.000000 1 0 0
-4.751854 17.124222 -3.142107 18.046937 -1.300114 1.745796 0.006286 -0.007650 -261105.000000 1 0 0
-7.212754 16.530122 -1.641007 18.109712 -1.159360 1.661536 -0.003812 0.002388 281364.000000 1 0 0
8.289546 11.263822 -1.926707 14.117452 0.936352 1.707701 0.002882 -0.001664 -1114090.000000 1 0 0
8.452246 12.936522 -4.208207 16.015713 0.992061 1.836673 0.005238 -0.002079 1755010.000000 1 0 0
2.543646 14.840622 -7.278207 16.723830 1.401048 2.021056 -0.002006 -0.001431 45396.800000 1 0 0
11.441046 11.209722 9.875793 18.817191 0.775186 1.018283 0.003078 -0.000971 1874590.000000 1 0 0
8.575446 15.694422 1.499193 17.947165 1.070721 1.487165 0.001339 0.000020 -490597.000000 1 0 0
6.176146 9.930122 7.763293 14.036410 1.014386 0.984737 -0.000091 0.006769 2452540.000000 1 0 0
14.396246 11.464322 2.591893 18.584953 0.672506 1.430878 0.004576 0.003648 1546110.000000 1 0 0
12.090746 12.690422 1.034893 17.558586 0.809592 1.511823 0.002115 0.006012 2386420.000000 1 0 0
5.238646 15.775922 8.222493 18.545417 1.250187 1.111441 -0.002958 0.008075 -1783430.000000 1 0 0
11.557046 14.918922 5.205193 19.576352 0.911701 1.301667 0.010047 -0.005032 592334.000000 1 0 0
6.006146 16.804422 1.813793 17.937453 1.227531 1.469506 -0.001037 -0.007902 -929357.000000 1 0 0
-0.815354 16.284022 -4.167307 16.828566 -1.520767 1.821033 0.007915 -0.006339 3060270.000000 1 0 0
16.120446 6.543422 2.455693 17.570304 0.385589 1.430573 0.004206 0.000126 -382785.000000 1 0 0
7.614146 16.799622 -3.112107 18.705286 1.145257 1.737949 -0.003230 0.001650 -793385.000000 1 0 0
14.903346 8.150022 7.451093 18.548621 0.500428 1.157417 0.005454 -0.002100 -339977.000000 1 0 0
2.232946 12.836122 8.692193 15.662257 1.398562 0.982461 -0.002340 0.007990 1835790.000000 1 0 0
15.846446 7.539622 -5.893807 18.511961 0.444095 1.894815 -0.002497 0.003082 -142063.000000 1 0 0
-3.005554 17.077322 0.722893 17.354851 -1.396584 1.529131 0.003081 0.000971 120563.000000 1 0 0
-2.849854 18.605922 4.595493 19.375772 -1.418808 1.331337 0.004391 0.000993 920350.000000 1 0 0
-0.874054 19.038222 0.839293 19.076747 -1.524918 1.526787 0.005358 -0.005822 149287.000000 1 0 0
6.833946 16.896522 -5.998407 19.187917 1.186452 1.888740 -0.007548 0.002752 702439.000000 1 0 0
10.995946 10.101822 0.738593 14.950022 0.743043 1.521372 0.001928 0.003420 -1868020.000000 1 0 0
9.195846 8.563322 14.342493 19.068329 0.749796 0.719458 0.000512 -0.003159 59931.200000 1 0 0
6.435746 12.475822 -8.405707 16.362178 1.094543 2.110321 0.006014 -0.000176 -150003.000000 1 0 0
6.485246 8.886622 13.366793 17.311892 0.940365 0.688632 0.003634 -0.004734 1178510.000000 1 0 0
16.633746 9.558122 2.915993 19.404695 0.521550 1.419952 0.005311 0.000325 456947.000000 1 0 0
2.511246 14.678922 -0.761507 14.911640 1.401358 1.621887 0.004901 -0.007428 1387780.000000 1 0 0
9.197946 12.848422 8.509693 17.947117 0.949491 1.076794 0.001228 0.001763 1708520.000000 1 0 0
7.317346 9.286622 10.543593 15.841472 0.903449 0.842540 0.000431 -0.001858 -148839.000000 1 0 0
4.211546 15.827922 -5.186607 17.180254 1.310739 1.877475 -0.001234 -0.003322 1134410.000000 1 0 0
0.168446 16.310822 -8.104907 18.214302 1.560469 2.031943 0.002305 -0.003772 1116710.000000 1 0 0
-2.568954 15.688822 -1.961907 16.018356 -1.408492 1.693583 0.004556 -0.003252 -1891080.000000 1 0 0
13.390146 10.472222 7.715793 18.668071 0.663721 1.144705 0.002530 -0.004242 2211110.000000 1 0 0
-0.872254 15.850222 7.077893 17.380648 -1.515821 1.151379 0.004288 0.003087 2794650.000000 1 0 0
13.273746 13.298722 6.843293 19.996974 0.786338 1.221522 0.007503 0.000184 -658150.000000 1 0 0
5.357046 17.263822 4.547193 18.639057 1.269913 1.324349 -0.006323 -0.001799 1382600.000000 1 0 0
10.777946 9.551322 -1.936407 14.530710 0.725133 1.704457 0.003438 0.001437 -125506.000000 1 0 0
3.376946 12.583922 4.864293 13.907559 1.308619 1.213483 -0.001523 0.004148 100630.000000 1 0 0
-0.145954 18.108922 3.529793 18.450306 -1.562737 1.378296 0.001295 0.001075 2768230.000000 1 0 0
-7.737154 16.004822 -5.735507 18.679238 -1.120495 1.882891 -0.000693 0.003104 -777098.000000 1 0 0
-12.415154 -9.245178 8.313093 17.570341 0.640080 1.077954 0.003462 -0.004136 -607022.000000 1 0 0
-13.272254 -11.813478 6.897193 19.059965 0.727312 1.200525 0.003338 0.001159 -1357620.000000 1 0 0
-6.450454 -12.352878 12.262993 18.562946 1.089561 0.849156 0.004299 -0.002581 -725750.000000 1 0 0
-1.856454 -10.751178 14.421193 18.083281 1.399808 0.647677 -0.000486 -0.003217 124865.000000 1 0 0
-8.718854 2.830622 11.148093 14.432976 -0.313920 0.688178 -0.001880 0.004465 -34513.400000 1 0 0
0.688946 10.034922 15.283493 18.296433 1.502249 0.582070 -0.000066 -0.003351 -680249.000000 1 0 0
1.069646 -6.857078 16.623993 18.014461 -1.416052 0.395475 -0.000772 -0.001013 810267.000000 1 0 0
6.227846 2.302822 17.750793 18.952037 0.354171 0.357951 0.002767 -0.003657 842309.000000 1 0 0
-5.103654 -3.048578 17.762093 18.730538 0.538456 0.322973 0.015304 0.000897 561869.000000 1 0 0
-4.284454 8.204922 13.157893 16.087493 -1.089562 0.613052 -0.002425 -0.001141 1033990.000000 1 0 0
0.140546 -4.980678 18.656593 19.310499 -1.542586 0.260981 0.004859 -0.003256 -754460.000000 1 0 0
-11.505154 1.977922 11.210293 16.184913 -0.170252 0.805656 -0.003654 0.003901 -53272.700000 1 0 0
-3.318754 -6.183478 14.444493 16.059044 1.078211 0.452261 0.006580 -0.004066 103356.000000 1 0 0
-7.440254 -2.324078 14.786593 16.715324 0.302762 0.485133 0.004284 -0.000674 1641600.000000 1 0 0
-6.043254 -1.278678 10.598493 12.267191 0.208512 0.527694 -0.000052 -0.000594 938410.000000 1 0 0
-3.921354 2.305922 11.230393 12.116766 -0.531581 0.384870 -0.001913 0.003809 589349.000000 1 0 0
-6.315054 6.166022 13.729293 16.321557 -0.773458 0.571343 -0.002614 0.000724 348277.000000 1 0 0
-8.925754 5.411122 12.710193 16.446833 -0.544993 0.687547 -0.003098 0.001901 -639929.000000 1 0 0
-12.099654 -2.292378 15.913393 20.121946 0.187239 0.658604 -0.008424 -0.000914 1643130.000000 1 0 0
-3.352454 -7.683078 17.050693 18.999862 1.159358 0.456930 0.009935 -0.005054 -1936330.000000 1 0 0
-0.460354 -5.451778 14.431693 15.433974 1.486555 0.362368 0.000372 0.000038 1918390.000000 1 0 0
-14.164654 -2.304778 13.762493 19.883552 0.161300 0.806326 -0.006069 -0.003976 -1740840.000000 1 0 0
-6.407054 1.326522 12.302593 13.934267 -0.204156 0.488789 0.000812 0.002388 946289.000000 1 0 0
2.324446 -2.275278 14.587093 14.945341 -0.774709 0.219394 0.002433 -0.001556 564974.000000 1 0 0
-12.396054 3.959122 9.248293 15.964577 -0.309146 0.952926 -0.005244 -0.000613 -774670.000000 1 0 0
-8.987854 -3.118378 12.677993 15.850467 0.333959 0.643751 -0.001266 -0.000080 1569660.000000 1 0 0
-7.004354 -7.331878 15.321693 18.373124 0.808240 0.584626 0.007019 -0.003041 -1816790.000000 1 0 0
-2.832554 6.073522 19.505593 20.624722 -1.134407 0.330937 -0.000289 -0.002982 433459.000000 1 0 0
0.754546 5.455722 16.177593 17.089434 1.433365 0.328141 0.003847 -0.004723 1525250.000000 1 0 0
3.642946 1.493022 16.667493 17.126164 0.388960 0.231958 0.008112 -0.003577 560699.000000 1 0 0
-11.658254 11.415922 8.088593 18.211631 -0.774896 1.110577 -0.004266 -0.000569 1432.620000 1 0 0
0.636346 -9.585778 15.384793 18.137914 -1.504509 0.558196 -0.007021 -0.001908 -507804.000000 1 0 0
-2.437254 -3.677478 18.835193 19.344987 0.985509 0.230084 0.013342 -0.005725 1081070.000000 1 0 0
-12.725654 2.161022 13.807293 18.901154 -0.168211 0.751743 -0.012118 0.003028 483241.000000 1 0 0
-5.333554 -0.645778 15.926993 16.808716 0.120492 0.325335 0.012896 0.002418 1639340.000000 1 0 0
-4.373154 -6.133878 11.697593 13.913397 0.951431 0.572142 0.002874 -0.001710 -530022.000000 1 0 0
2.533946 1.764522 13.977393 14.314396 0.608274 0.217421 0.002495 -0.003123 235777.000000 1 0 0
0.153846 3.292422 14.269493 14.645209 1.524103 0.227002 0.007295 -0.003638 -829839.000000 1 0 0
-12.926754 7.128522 12.399293 19.278466 -0.503960 0.872168 -0.000781 0.001148 1105650.000000 1 0 0
1.082546 1.472822 18.275193 18.366376 0.936955 0.099688 0.009519 0.001749 2004880.000000 1 0 0
-1.950054 6.396322 12.627193 14.288514 -1.274877 0.487022 -0.003490 0.000402 1118650.000000 1 0 0
-13.404854 -2.801278 10.979493 17.552394 0.206010 0.894990 -0.003940 -0.002415 62433.400000 1 0 0
-2.502454 3.525822 13.501293 14.176692 -0.953556 0.309918 0.002492 -0.000436 -865317.000000 1 0 0
3.618746 6.122322 16.338093 17.818850 1.036966 0.410555 -0.000710 -0.003662 98679.800000 1 0 0
-3.659554 12.363022 12.437093 17.914182 -1.283006 0.803406 0.007110 -0.002124 -1153540.000000 1 0 0
3.921946 -1.440378 17.058993 17.563188 -0.351969 0.240191 0.007621 -0.001733 -931780.000000 1 0 0
-15.659354 0.358022 9.284193 18.208234 -0.022859 1.035740 -0.004512 -0.003598 12160.600000 1 0 0
-4.500054 4.472222 15.297093 16.560565 -0.782296 0.393152 0.005516 -0.001873 1310830.000000 1 0 0
-7.896554 -8.189878 10.494893 15.478128 0.803630 0.825695 0.004895 -0.002707 2424350.000000 1 0 0
-2.560554 -0.500678 14.860193 15.087493 0.193099 0.173801 0.008492 -0.000892 2188640.000000 1 0 0
-1.779954 1.098022 17.247493 17.373828 -0.552740 0.120668 0.007221 -0.000383 2894070.000000 1 0 0
-0.555254 -2.526778 14.455293 14.684972 1.354487 0.177095 0.006881 -0.000643 -246249.000000 1 0 0
5.000146 -8.372878 16.443193 19.117666 -1.032450 0.535322 -0.001976 0.000485 -348849.000000 1 0 0
-4.393254 9.981622 10.758993 15.319575 -1.156177 0.792168 0.002938 0.000474 -2791490.000000 1 0 0
-6.048754 2.020022 15.275293 16.553020 -0.322311 0.395485 0.004447 -0.000722 1550520.000000 1 0 0
-4.671654 6.725222 17.389093 19.220653 -0.963672 0.440101 0.002711 -0.000678 -1089810.000000 1 0 0
-3.942354 9.107322 15.889093 18.733626 -1.162272 0.558296 -0.001609 0.001270 -506764.000000 1 0 0
-4.479854 -10.028178 18.333893 21.372063 1.150668 0.539737 0.006325 -0.003683 274723.000000 1 0 0
-6.738054 -4.212578 11.155293 13.696268 0.558737 0.618969 0.003084 0.000523 850400.000000 1 0 0
-2.342354 -0.809478 19.597293 19.753373 0.332735 0.125793 0.012529 0.001012 834800.000000 1 0 0
-5.620854 -4.601778 15.352493 16.984387 0.686038 0.441953 0.007116 -0.002136 1136500.000000 1 0 0
-12.784354 -0.143078 9.829493 16.126968 0.011191 0.915358 -0.006950 0.000327 1429580.000000 1 0 0
-14.360654 8.771922 10.606593 19.891576 -0.548345 1.008394 -0.002305 0.000593 -1372920.000000 1 0 0
-8.282854 10.435222 13.072693 18.665337 -0.899884 0.794877 0.005701 -0.006038 -907351.000000 1 0 0
-10.357654 7.154122 10.937493 16.676067 -0.604463 0.855449 -0.002971 0.003584 -270199.000000 1 0 0
-9.698254 -6.667878 14.861793 18.957574 0.602310 0.669793 0.000048 -0.003765 470994.000000 1 0 0
-0.736654 -13.469178 14.389793 19.723781 1.516159 0.753110 -0.006637 -0.003039 1011030.000000 1 0 0
3.816146 -5.726478 16.912193 18.258636 -0.982976 0.386439 0.003539 -0.003200 1580240.000000 1 0 0
-7.183154 9.232722 10.562993 15.761271 -0.909608 0.836336 0.000698 -0.001125 -278610.000000 1 0 0
-10.211854 -6.717078 11.848293 17.023018 0.581820 0.800962 0.000856 -0.006812 2888550.000000 1 0 0
-10.852954 -4.021478 10.778693 15.815787 0.354857 0.820966 -0.003342 -0.000035 -1188980.000000 1 0 0
-10.016254 -10.174678 9.788093 17.310580 0.793244 0.969830 0.004733 -0.009286 -280022.000000 1 0 0
-9.803254 -3.778078 15.338093 18.591255 0.367849 0.600565 -0.003004 -0.002083 1035150.000000 1 0 0
5.654146 -3.424778 16.054793 17.362455 -0.544608 0.390590 0.003882 -0.004189 -941274.000000 1 0 0
-11.100254 0.403022 15.365493 18.959864 -0.036291 0.625924 -0.008753 0.001727 -1011210.000000 1 0 0
-3.027454 3.307122 18.838493 19.364693 -0.829519 0.233654 0.008455 0.001543 -1379620.000000 1 0 0
0.630346 7.366022 14.034093 15.862263 1.485430 0.484845 0.000355 -0.002732 1317650.000000 1 0 0
-13.041454 -7.517878 12.388493 19.495455 0.522931 0.882198 -0.012308 -0.001338 699508.000000 1 0 0
-1.409754 -1.186978 12.210193 12.348487 0.699817 0.149802 0.003730 -0.001515 1027270.000000 1 0 0
2.087246 -4.901178 13.110893 14.151807 -1.168192 0.385936 -0.002442 -0.000840 533183.000000 1 0 0
-14.514954 -4.232178 8.671193 17.429424 0.283708 1.050078 -0.009357 -0.005326 -1275310.000000 1 0 0
8.166546 0.791122 16.135493 18.101726 0.096572 0.470418 -0.001852 -0.002933 -345946.000000 1 0 0
-1.203654 11.359522 13.505693 17.688732 -1.465230 0.702051 0.000547 -0.001677 2369390.000000 1 0 0
2.770646 -12.240478 -13.787407 18.643991 -1.348196 2.403138 -0.008792 0.005785 -667708.000000 1 0 0
0.748646 -10.616778 -14.000907 17.586980 -1.500398 2.491611 -0.010091 0.005758 -2529960.000000 1 0 0
3.151646 -14.480878 -12.364907 19.300768 -1.356496 2.266132 -0.010466 0.003660 -570618.000000 1 0 0
-5.172554 -9.941378 -16.118407 19.631336 1.091037 2.534053 -0.003742 0.002273 -980387.000000 1 0 0
-1.140354 -12.215778 -14.903507 19.303890 1.477715 2.452852 -0.006844 0.002030 -207089.000000 1 0 0
5.661746 -15.095778 -12.154407 20.190778 -1.211978 2.216772 -0.010690 0.006201 208116.000000 1 0 0
1.956746 -11.875178 -16.152007 20.142891 -1.407488 2.501217 -0.008591 0.005567 -394452.000000 1 0 0
1.175046 -14.280578 -14.107107 20.107862 -1.488698 2.348397 -0.008981 0.012041 -526857.000000 1 0 0
-1.053754 -10.656878 -15.919107 19.185865 1.472237 2.549422 -0.006894 0.000434 -233929.000000 1 0 0
-6.005154 -5.497078 -15.255007 17.291472 0.741255 2.651368 0.002528 0.002845 152706.000000 1 0 0
-6.589954 -7.543478 -16.659407 19.438812 0.852762 2.600250 0.000801 0.008411 -354684.000000 1 0 0
4.892546 -12.575578 -11.577507 17.779788 -1.199764 2.279910 -0.008780 0.003708 -633377.000000 1 0 0
-1.642854 -15.400578 -13.095307 20.282107 1.464523 2.272681 -0.000180 0.001736 -205040.000000 1 0 0
15.692746 -7.354678 -8.809307 19.441128 -0.438269 2.041067 -0.009430 0.000312 552362.000000 1 0 0
19.176846 -3.610678 -4.649807 20.060138 -0.186104 1.804717 0.000235 -0.000991 974988.000000 1 0 0
14.716846 -11.709178 -9.059807 20.875117 -0.672071 2.019725 0.005007 -0.003292 150495.000000 1 0 0
17.555046 -3.473078 -6.803907 19.145105 -0.195317 1.934124 0.004459 0.000162 246483.000000 1 0 0
9.372446 -8.963178 -15.518707 20.224035 -0.763081 2.445479 0.003044 -0.006148 -518864.000000 1 0 0
1.216346 1.929822 -15.349807 15.518386 1.008403 2.994061 0.001724 -0.004641 119612.000000 1 0 0
4.705246 -4.292578 -14.050207 15.426402 -0.739567 2.715989 0.001646 -0.003619 1606610.000000 1 0 0
13.103346 -5.492678 -8.863807 16.746172 -0.396932 2.128576 0.002043 0.000958 -2887610.000000 1 0 0
2.795146 0.939422 -12.281307 12.630355 0.324230 2.905950 0.000885 -0.002868 -1696400.000000 1 0 0
0.553146 6.426322 -12.913007 14.434311 1.484933 2.678343 0.001430 0.000601 210169.000000 1 0 0
2.979546 -1.085278 -16.809707 17.106191 -0.349307 2.955140 -0.000257 -0.004221 -314172.000000 1 0 0
13.108546 4.512022 -11.648807 18.107651 0.331503 2.269608 0.009792 -0.001458 251633.000000 1 0 0
-3.874654 9.510822 -16.498607 19.433803 -1.183932 2.584819 -0.003016 0.003204 -69820.700000 1 0 0
-0.362054 -5.147178 -17.831207 18.562771 1.500572 2.859912 -0.000830 0.002889 484115.000000 1 0 0
-0.617254 -8.667378 -17.709607 19.726496 1.499701 2.685448 -0.003733 0.005034 202591.000000 1 0 0
5.602546 -10.114478 -12.199207 16.808089 -1.064953 2.382984 -0.001052 0.003949 131290.000000 1 0 0
1.530846 -9.960978 -18.093207 20.710595 -1.418305 2.633391 -0.008432 0.000183 -536556.000000 1 0 0
10.763546 8.746822 -14.686107 20.200063 0.682397 2.384787 0.010540 0.001726 1184990.000000 1 0 0
10.934846 -3.847678 -13.187007 17.557695 -0.338343 2.420473 0.007679 -0.002395 33465.300000 1 0 0
4.752446 7.380422 -12.172307 15.007379 0.998703 2.516806 -0.003370 0.000467 902654.000000 1 0 0
9.449446 -5.920078 -12.783307 16.963263 -0.559677 2.424299 0.003222 -0.001374 -1548720.000000 1 0 0
-3.443854 0.306422 -15.967107 16.337152 -0.088743 2.928348 0.005243 -0.000318 -1852310.000000 1 0 0
-0.808854 10.799022 -12.764307 16.739195 -1.496035 2.438027 -0.002822 -0.001423 -2969500.000000 1 0 0
6.569946 -5.364878 -12.504407 15.109808 -0.684769 2.545559 -0.000706 -0.001878 310619.000000 1 0 0
17.826746 -5.743478 -8.768107 20.679945 -0.311682 2.008644 -0.002243 -0.002318 -399110.000000 1 0 0
13.148346 4.898422 -14.105807 19.895912 0.356621 2.358847 0.009615 0.000572 253739.000000 1 0 0
13.969646 0.907622 -11.630007 18.199776 0.064880 2.264019 -0.001668 -0.002069 257636.000000 1 0 0
15.020846 6.290322 -11.232307 19.782788 0.396584 2.174605 0.003176 0.002101 490371.000000 1 0 0
8.114946 1.532522 -11.859307 14.451441 0.186653 2.533312 0.003624 0.001183 842337.000000 1 0 0
9.848446 1.311122 -9.114707 13.482908 0.132352 2.313144 0.001314 0.000505 -25407.700000 1 0 0
-0.231454 -5.836578 -13.015307 14.265954 1.531161 2.719744 -0.003675 0.002869 364507.000000 1 0 0
10.494746 -5.609478 -9.165307 15.020279 -0.490868 2.227104 0.000033 -0.003255 -629836.000000 1 0 0
10.119146 8.552322 -11.302707 17.415238 0.701679 2.277082 0.010350 -0.000718 720374.000000 1 0 0
8.129246 8.181122 -14.657407 18.650871 0.788579 2.474920 0.012768 0.003932 577210.000000 1 0 0
8.536546 10.499022 -10.732507 17.271039 0.888130 2.241346 0.011885 -0.002098 -285586.000000 1 0 0
6.789746 1.743922 -18.034607 19.349134 0.251412 2.770862 0.000535 -0.000090 13465.600000 1 0 0
12.130746 2.705422 -13.094507 18.053820 0.219431 2.382272 0.006475 0.001151 -1918870.000000 1 0 0
2.485846 -0.790178 -19.329207 19.504411 -0.307770 3.007456 -0.000123 -0.007842 -633072.000000 1 0 0
10.159246 -2.080078 -15.591107 18.724840 -0.201956 2.554659 0.004680 -0.006825 -3528.250000 1 0 0
8.222746 -0.859878 -13.153707 15.536182 -0.104194 2.580454 0.006762 -0.003654 1195350.000000 1 0 0
0.423346 4.392522 -14.644307 15.294744 1.474714 2.848909 -0.001105 -0.000983 97818.900000 1 0 0
3.919846 -7.682878 -15.816407 18.015287 -1.099018 2.642346 -0.001641 -0.001730 -1738450.000000 1 0 0
11.126246 -5.938178 -14.818407 19.458687 -0.490250 2.436469 -0.001736 0.003758 -702802.000000 1 0 0
-5.957454 4.316922 -16.834207 18.371652 -0.627063 2.729574 0.003720 0.001555 -39589.600000 1 0 0
11.368046 7.931122 -9.211407 16.642872 0.609159 2.157327 0.010702 -0.001480 -714378.000000 1 0 0
9.369046 6.181722 -13.546507 17.592628 0.583236 2.449654 0.014714 0.002296 -970671.000000 1 0 0
11.991546 0.648922 -10.286607 15.812418 0.054062 2.279091 0.000771 0.000891 -3069470.000000 1 0 0
5.375846 -7.136978 -13.843307 16.476448 -0.925226 2.568425 -0.001188 0.001465 12492.600000 1 0 0
8.589346 -10.297278 -10.832307 17.238030 -0.875584 2.250286 0.001482 0.004019 156682.000000 1 0 0
10.044846 4.669122 -15.988007 19.450347 0.435116 2.535694 0.009035 0.001925 275435.000000 1 0 0
9.845146 -0.465878 -11.136307 14.871492 -0.047285 2.417100 0.001926 0.000106 708217.000000 1 0 0
-1.823154 5.469122 -13.893007 15.041637 -1.249027 2.748259 -0.002307 -0.000609 -85728.600000 1 0 0
1.162846 -0.703078 -14.980107 15.041614 -0.543809 3.051129 0.000023 -0.003634 -1031790.000000 1 0 0
11.175946 -10.535778 -14.589707 21.184049 -0.755922 2.330507 -0.002238 0.006334 -283000.000000 1 0 0
9.260546 -7.793878 -10.931107 16.309241 -0.699610 2.305329 0.000039 0.001095 57901.000000 1 0 0
13.911746 -0.936078 -9.823807 17.056380 -0.067186 2.184575 -0.003655 -0.000344 506757.000000 1 0 0
3.923446 11.215322 -12.217107 17.042141 1.234274 2.370108 -0.002843 -0.001190 -953844.000000 1 0 0
-1.389654 3.024222 -16.960407 17.283879 -1.140064 2.947820 0.000634 -0.000337 -255294.000000 1 0 0
5.930846 -0.558178 -17.647207 18.625531 -0.093838 2.816040 0.002683 -0.003800 304798.000000 1 0 0
6.196646 -6.450678 -16.210707 18.514770 -0.805481 2.637381 -0.000737 -0.001392 -221090.000000 1 0 0
-1.791854 -5.174078 -20.057107 20.791089 1.237409 2.875088 0.002187 0.004279 -544918.000000 1 0 0
-0.167154 -4.424678 -15.260907 15.890280 1.533037 2.859204 -0.000185 -0.000074 278184.000000 1 0 0
0.351946 0.847922 -13.052407 13.084654 1.177368 3.071372 -0.001302 -0.003443 552581.000000 1 0 0
15.358046 0.577822 -13.838707 20.681230 0.037606 2.303852 -0.004330 -0.001265 468397.000000 1 0 0
-0.257254 7.123622 -16.372307 17.856781 -1.534699 2.730958 0.001033 0.001537 -550398.000000 1 0 0
-5.013954 -0.501278 -18.387607 19.065548 0.099646 2.874119 -0.002954 0.004553 -262939.000000 1 0 0
10.283146 -8.379078 -13.236607 18.739259 -0.683722 2.355135 0.002404 -0.006513 1095850.000000 1 0 0
4.150946 8.651422 -17.270907 19.757573 1.123440 2.634461 -0.005667 -0.000016 -461384.000000 1 0 0
9.066046 0.758922 -17.050407 19.325774 0.083516 2.651443 0.007142 -0.005434 -8669.520000 1 0 0
3.254446 5.037122 -18.602707 19.545453 0.997173 2.829739 -0.004275 0.000640 -454112.000000 1 0 0
1.390846 -8.297478 -16.039307 18.111929 -1.404718 2.658507 -0.007797 0.000312 -11842.500000 1 0 0
4.340446 7.807522 -14.879907 17.355360 1.063411 2.600928 -0.004355 0.000213 293321.000000 1 0 0
-5.780354 -0.333178 -15.126907 16.197124 0.057576 2.776038 -0.000107 -0.002973 -204583.000000 1 0 0
2.665546 3.387722 -13.781807 14.440222 0.904140 2.838454 -0.000703 -0.001639 351084.000000 1 0 0
-2.497254 -10.380778 -18.121407 21.032885 1.334717 2.609161 -0.003541 0.005635 -391512.000000 1 0 0
6.144446 -9.009678 -15.733207 19.143206 -0.972265 2.535480 -0.001622 0.004370 361578.000000 1 0 0
-1.914154 5.524022 -17.403807 18.359502 -1.237230 2.817517 -0.002765 0.001709 -597245.000000 1 0 0
9.965146 -12.270578 -11.941607 19.810937 -0.888710 2.217775 0.003070 0.006299 606041.000000 1 0 0
10.755946 3.593722 -9.518307 14.805519 0.322454 2.269061 0.003291 -0.001210 -1559730.000000 1 0 0
4.567846 -0.553378 -11.011707 11.934368 -0.120559 2.745794 0.005869 -0.006803 1647600.000000 1 0 0
6.098146 9.550722 -11.270907 15.982397 1.002547 2.353512 0.006382 -0.003908 144702.000000 1 0 0
10.825246 -9.528278 -9.625307 17.338413 -0.721762 2.159332 0.006269 0.000047 809280.000000 1 0 0
3.077846 -2.350478 -14.504907 15.013002 -0.652197 2.880686 0.001102 -0.004874 -44151.100000 1 0 0
9.014946 -4.411078 -14.847407 17.921282 -0.455057 2.547183 0.004331 -0.003340 160986.000000 1 0 0
-4.129654 -6.678478 -16.695507 18.449826 1.016991 2.701974 -0.004674 0.007487 -881253.000000 1 0 0
5.802646 -7.665478 -11.297607 14.834628 -0.922840 2.436529 -0.003817 0.001581 385899.000000 1 0 0
5.298146 6.411722 -16.831307 18.774276 0.880210 2.682622 -0.000399 -0.009444 -1244830.000000 1 0 0
8.818946 1.309322 -19.603907 21.536047 0.147390 2.714765 0.003318 -0.002115 504751.000000 1 0 0
12.994446 5.797322 -9.491207 17.104022 0.419638 2.159052 0.003205 -0.000045 677318.000000 1 0 0
-1.603454 -0.738478 -17.364807 17.454310 0.431596 3.040279 0.000493 0.000295 344511.000000 1 0 0
-0.509854 -0.642078 -19.630707 19.647821 0.899683 3.099851 0.001309 -0.000844 -465364.000000 1 0 0
2.672646 6.622022 -16.565707 18.039314 1.187191 2.734590 -0.007352 0.002405 -623261.000000 1 0 0
7.488146 3.762622 -15.706307 17.802184 0.465627 2.651456 0.003908 -0.002517 149363.000000 1 0 0
3.089746 -9.913878 -14.901007 18.162366 -1.268678 2.532965 -0.004408 0.003458 583476.000000 1 0 0
8.807246 -10.470978 -13.535407 19.246200 -0.871486 2.350793 -0.002417 0.002988 -957420.000000 1 0 0
3.680546 0.193022 -14.778407 15.231054 0.052396 2.897187 -0.000400 -0.004301 -1872600.000000 1 0 0
-1.263454 -2.904078 -18.870307 19.134223 1.160434 2.975312 0.005329 0.002322 534667.000000 1 0 0
9.019346 10.056622 -13.153707 18.854821 0.839721 2.342882 0.011143 -0.003254 497967.000000 1 0 0
4.434646 2.028822 -10.706207 11.764569 0.429068 2.714173 0.003786 0.001304 -144701.000000 1 0 0
-0.552454 7.064622 -18.948307 20.229989 -1.492755 2.783721 0.001092 0.002462 -2486.720000 1 0 0
0.761046 -1.773478 -17.654607 17.759774 -1.165436 3.032712 0.005150 -0.003400 -2654630.000000 1 0 0
-4.551554 -2.290278 -14.141207 15.031160 0.466193 2.795758 0.001712 0.000017 -3208060.000000 1 0 0
10.064046 6.052422 -10.461607 15.727748 0.541441 2.298516 0.009019 0.001320 -80857.000000 1 0 0
8.163846 5.668422 -17.351107 19.996007 0.606912 2.621410 0.004533 -0.004008 -699457.000000 1 0 0
11.462746 0.295022 -13.749107 17.903059 0.025732 2.446470 0.003717 0.003272 522257.000000 1 0 0
6.778846 12.011222 -11.953907 18.251523 1.056983 2.284918 0.007377 0.000417 -561228.000000 1 0 0
-1.089254 0.588522 -15.130207 15.180777 -0.495364 3.059946 0.002240 -0.002763 -87392.000000 1 0 0
-4.674754 -2.870678 -19.126507 19.897673 0.550709 2.862274 0.000406 0.008670 54529.100000 1 0 0
5.734646 -12.035278 -14.017907 19.345175 -1.126136 2.381280 -0.003059 0.003052 -30901.900000 1 0 0
1.980746 -4.709378 -14.131507 15.026679 -1.172662 2.794683 -0.002115 0.000464 -1501770.000000 1 0 0
11.667946 2.099322 -15.558607 19.560633 0.178018 2.490470 0.005604 0.001524 220891.000000 1 0 0
9.641646 2.284022 -13.898007 17.068471 0.232604 2.522233 0.006225 -0.001547 709536.000000 1 0 0
-2.423354 -4.289678 -16.502107 17.221891 1.056565 2.851458 -0.002711 0.001724 -1432600.000000 1 0 0
-2.947954 10.125322 -14.162707 17.657714 -1.287481 2.501548 0.001164 -0.004245 -105182.000000 1 0 0
3.339246 5.792522 -13.666707 15.214557 1.047854 2.686602 -0.002495 0.001421 -199034.000000 1 0 0
-5.184454 -2.434578 -16.550307 17.513378 0.439027 2.808420 -0.000433 0.000608 421215.000000 1 0 0
-4.377854 6.166222 -13.522107 15.493072 -0.953408 2.631674 -0.002641 -0.000667 -1067040.000000 1 0 0
5.727746 -1.126078 -14.214507 15.366436 -0.194125 2.751927 0.004436 -0.001289 -1891570.000000 1 0 0
6.627846 -2.967078 -12.739407 14.663710 -0.420913 2.623512 0.003064 -0.005105 236575.000000 1 0 0
2.876746 -3.215178 -18.345007 18.845486 -0.840895 2.910615 0.002382 -0.006719 403380.000000 1 0 0
7.363146 -12.092978 -12.064507 18.601300 -1.023875 2.276519 -0.004438 0.003573 -1674820.000000 1 0 0
-5.994954 -5.292278 -17.801707 19.515339 0.723224 2.719395 0.004849 0.005674 261495.000000 1 0 0
0.445046 8.768922 -11.912207 14.798403 1.520087 2.506414 -0.001065 0.000286 122134.000000 1 0 0
0.321246 8.649722 -14.453607 16.847185 1.533674 2.602012 -0.001292 0.002527 -667641.000000 1 0 0
7.580546 -2.277378 -15.211807 17.147892 -0.291846 2.661809 0.007773 -0.008810 -189167.000000 1 0 0
14.123346 1.624722 -9.120707 16.890705 0.114535 2.141214 -0.008290 -0.000102 332801.000000 1 0 0
2.788946 10.729622 -14.544007 18.287459 1.316494 2.490298 -0.005565 0.000007 -405185.000000 1 0 0
6.009746 1.078622 -15.613907 16.765279 0.177588 2.768828 0.004587 -0.004480 687679.000000 1 0 0
16.257746 -5.644878 -10.699307 20.264603 -0.334189 2.127017 -0.000444 -0.001578 402527.000000 1 0 0
4.748746 -4.085878 -11.374507 12.985546 -0.710508 2.638169 -0.002016 -0.001193 -805580.000000 1 0 0
8.525446 -3.467578 -17.151807 19.465144 -0.386297 2.649096 -0.001112 -0.012657 278386.000000 1 0 0
13.374246 -9.439078 -8.998007 18.679689 -0.614585 2.073390 0.010507 -0.002432 981522.000000 1 0 0
2.285046 -7.635878 -13.702107 15.851682 -1.280027 2.614741 -0.003830 0.001829 -12229.600000 1 0 0
-7.001954 -2.185378 -18.443007 19.848117 0.302529 2.763057 -0.003676 0.001143 -186514.000000 1 0 0
-1.586754 -6.557578 -15.809507 17.188954 1.333387 2.738234 -0.004892 0.002943 741075.000000 1 0 0
1.514646 -7.361978 -18.455607 19.927426 -1.367889 2.754846 0.001497 -0.001714 -265300.000000 1 0 0
5.313146 11.033922 -14.496807 18.977207 1.122035 2.440141 -0.005997 -0.004611 -63735.000000 1 0 0
5.376546 -3.470578 -17.382207 18.522778 -0.573208 2.788834 0.009325 -0.009611 -635302.000000 1 0 0
3.819046 13.100522 -14.005807 19.554320 1.287139 2.369212 -0.008973 -0.002123 -277240.000000 1 0 0
8.965846 10.404522 -15.724407 20.878157 0.859534 2.423635 0.006404 0.001986 312968.000000 1 0 0
2.423846 4.015922 -16.353107 17.012548 1.027764 2.862254 -0.004150 -0.003340 478660.000000 1 0 0
16.455146 1.714522 -11.809007 20.326438 0.103819 2.190714 -0.000634 0.003577 -832131.000000 1 0 0
9.908946 -3.660978 -10.766707 15.083499 -0.353907 2.365715 -0.000007 -0.001324 781034.000000 1 0 0
14.506146 -2.087378 -12.235507 19.091701 -0.142915 2.266442 0.001440 0.001251 350083.000000 1 0 0
-2.698054 -8.734978 -16.070307 18.488756 1.271213 2.624365 -0.005171 0.007367 -923497.000000 1 0 0
14.017046 8.213322 -9.074107 18.608483 0.530026 2.080173 0.023582 0.000424 139646.000000 1 0 0
-8.418454 -0.121478 -16.475307 18.501915 0.014429 2.669162 -0.007126 -0.001337 -1053450.000000 1 0 0
-3.528554 4.055822 -15.935207 16.817587 -0.854807 2.816222 -0.001849 0.001265 -1544090.000000 1 0 0
14.949246 4.059522 -9.876907 18.371526 0.265159 2.138409 0.000109 0.004203 509438.000000 1 0 0
5.312846 1.086922 -12.980607 14.067832 0.201799 2.745863 0.001899 -0.000906 648112.000000 1 0 0
7.749346 -7.649478 -12.963807 16.930067 -0.778913 2.442967 -0.001367 0.000471 -4202920.000000 1 0 0
3.119046 -5.961978 -11.968007 13.729779 -1.088796 2.629421 -0.001362 -0.000131 -1064120.000000 1 0 0
-3.351354 3.641622 -18.527207 19.176819 -0.826883 2.880564 0.002107 0.003115 253347.000000 1 0 0
0.747046 5.180922 -17.820207 18.573094 1.427592 2.855889 -0.002294 -0.003878 -532436.000000 1 0 0
6.174346 7.192822 -10.170307 13.903035 0.861444 2.391341 0.005076 0.000830 314317.000000 1 0 0
9.562246 3.809222 -11.754907 15.624486 0.379092 2.422401 0.006097 0.000382 351443.000000 1 0 0
4.314346 1.592822 -17.570307 18.162223 0.353669 2.885588 -0.000129 -0.005115 -393336.000000 1 0 0
2.503846 8.154222 -13.290307 15.792177 1.272874 2.570990 -0.004401 0.000679 -1964510.000000 1 0 0
14.255846 -3.459978 -10.061107 17.788380 -0.238102 2.171957 -0.003065 0.000363 -10020.800000 1 0 0
-1.367854 9.386522 -16.058907 18.651175 -1.426090 2.608055 0.000803 -0.000042 -2348510.000000 1 0 0
-5.245054 2.163322 -15.653407 16.649916 -0.391193 2.793865 0.000626 -0.002316 711083.000000 1 0 0
4.307746 4.318922 -11.931207 13.400129 0.786694 2.668976 0.000260 0.003040 566786.000000 1 0 0
8.917646 3.261922 -17.876107 20.241535 0.350665 2.653310 -0.001995 0.001939 638709.000000 1 0 0
-4.474854 14.354122 -13.092107 19.936610 -1.268598 2.287213 0.005744 -0.009641 -290782.000000 1 0 0
15.394746 -4.809578 -8.298207 18.138095 -0.302809 2.045980 -0.003476 -0.001940 -786760.000000 1 0 0
1.127146 9.292322 -17.005407 19.411378 1.450087 2.638413 -0.008121 0.007124 -197356.000000 1 0 0
0.257846 -3.189678 -12.879207 13.270814 -1.490134 2.898056 -0.000622 -0.000817 -94495.700000 1 0 0
7.438646 3.591922 -13.114607 15.499299 0.449852 2.579501 0.004284 0.001673 -128927.000000 1 0 0
-2.909754 7.565022 -15.056907 17.099903 -1.203607 2.647767 -0.004930 0.000877 -23319.400000 1 0 0
12.015746 -5.120778 -11.209707 17.212148 -0.402863 2.280049 0.003821 -0.002080 -803685.000000 1 0 0
0.608646 -4.388578 -20.112207 20.594440 -1.432987 2.924763 0.003845 0.000676 -706058.000000 1 0 0
3.251946 -4.424378 -16.220607 17.124788 -0.936960 2.815185 0.000586 -0.005454 372632.000000 1 0 0
-5.786754 4.208222 -14.321107 16.009053 -0.628759 2.678249 -0.001390 0.000678 1158610.000000 1 0 0
12.196546 -7.375178 -10.006107 17.414683 -0.543864 2.182886 0.003184 -0.000959 510868.000000 1 0 0
-2.137454 -1.838678 -15.105307 15.366189 0.710397 2.957061 0.001211 0.001456 406273.000000 1 0 0
6.916346 5.911922 -14.325707 16.970932 0.707260 2.575740 0.003385 0.001801 -76677.700000 1 0 0
4.206746 -5.494778 -18.369107 19.629401 -0.917392 2.781305 0.005692 -0.011597 28217.300000 1 0 0
7.443346 7.436522 -12.255307 16.152331 0.784940 2.432162 0.005507 -0.000435 -118397.000000 1 0 0
12.184346 -2.499078 -11.239707 16.764089 -0.202300 2.305629 0.002748 0.000897 -782404.000000 1 0 0
7.333246 -0.728578 -10.780007 13.058173 -0.099028 2.541950 0.005315 -0.004048 339936.000000 1 0 0
5.204646 4.037422 -14.407507 15.841887 0.659769 2.712771 0.001719 -0.000789 824085.000000 1 0 0
14.688946 3.026422 -13.120907 19.926931 0.203191 2.289555 -0.000873 0.000857 608929.000000 1 0 0
-6.738054 6.642222 -15.837107 18.448156 -0.778236 2.603067 0.003827 0.010067 456281.000000 1 0 0
-11.452854 3.647822 -16.421507 20.350439 -0.308349 2.509743 0.012688 -0.001101 -194852.000000 1 0 0
-5.204054 6.550122 -17.938107 19.792978 -0.899420 2.705210 -0.001164 0.012827 19157.600000 1 0 0
-10.206354 1.560822 -15.667907 18.764039 -0.151751 2.558923 0.003047 -0.002536 571029.000000 1 0 0
-7.744754 5.696322 -18.084807 20.481444 -0.634161 2.652980 0.001045 0.007542 201833.000000 1 0 0
-8.898454 3.871122 -15.840507 18.576591 -0.410338 2.591954 0.004632 0.015746 -1117740.000000 1 0 0
8.931646 13.423722 -12.233907 20.239543 0.983697 2.219879 0.011612 -0.000419 -1239290.000000 1 0 0
13.619846 9.243322 -11.386207 20.014618 0.596264 2.175957 0.008712 -0.000688 333664.000000 1 0 0
8.362646 16.102222 -9.034307 20.269043 1.091791 2.032774 0.012364 0.003478 14805.600000 1 0 0
7.077846 13.766222 -14.005707 20.874975 1.095896 2.306262 0.001544 0.007310 -141197.000000 1 0 0
4.628046 15.908422 -12.724007 20.890119 1.287692 2.225712 -0.000537 -0.003100 181044.000000 1 0 0
10.992846 11.043822 -11.642207 19.451212 0.787711 2.212466 0.009850 0.000964 1188200.000000 1 0 0
15.741446 10.018522 -10.057507 21.197107 0.566785 2.065164 0.022415 0.009363 853973.000000 1 0 0
13.368746 10.749422 -9.268507 19.498171 0.677218 2.066161 0.039352 0.001537 345268.000000 1 0 0
10.362946 12.003022 -8.176907 17.841664 0.858596 2.046882 0.006084 0.005920 314372.000000 1 0 0
5.345446 16.385022 -10.282607 20.069249 1.255444 2.108723 -0.007713 0.002547 251034.000000 1 0 0
6.703646 14.553022 -11.537007 19.744160 1.139133 2.194844 0.002664 0.002819 856436.000000 1 0 0
10.762946 13.928622 -9.915407 20.203040 0.912911 2.083790 0.021574 0.001587 -207605.000000 1 0 0
8.168046 -18.582178 -1.397207 20.346167 -1.156655 1.639522 0.004381 0.005332 -415102.000000 1 0 0
6.955046 -17.485378 -3.432207 19.128282 -1.192219 1.751204 -0.002824 0.003250 125617.000000 1 0 0
4.491746 -18.377678 5.738193 19.769717 -1.331083 1.276307 -0.000838 0.010575 154212.000000 1 0 0
9.534646 -16.993278 -2.912007 19.701796 -1.059484 1.719144 0.009728 0.002986 -1168090.000000 1 0 0
-9.905654 -12.082078 -10.080307 18.593310 0.884060 2.143786 0.011743 -0.010198 -643005.000000 1 0 0
-5.200654 -6.950878 -12.177407 14.954958 0.928448 2.522271 -0.001987 0.000835 472616.000000 1 0 0
-10.861954 -9.362878 -5.670907 15.420918 0.711413 1.947375 0.006171 -0.007087 -527108.000000 1 0 0
-4.684354 -11.460578 -14.040407 18.719537 1.182781 2.418919 0.003429 0.000903 30898.200000 1 0 0
-3.026254 -15.616578 7.431593 17.557457 1.379384 1.133742 0.001262 0.002970 260209.000000 1 0 0
-4.823854 -11.956478 -11.535407 17.300074 1.187318 2.300681 -0.001332 0.000728 516708.000000 1 0 0
-14.388154 -12.713578 -4.329807 19.682512 0.723688 1.792593 0.000462 -0.001093 -55663.800000 1 0 0
-3.336954 -12.295678 -3.231207 13.143807 1.305787 1.819177 0.003117 -0.001049 1177490.000000 1 0 0
-2.473354 -17.462378 -1.582707 17.707543 1.430093 1.660296 -0.004933 0.001587 -692839.000000 1 0 0
-5.831854 -12.190378 3.652393 13.998422 1.124579 1.306827 0.005890 0.000663 319090.000000 1 0 0
-8.824754 -10.526378 -11.842907 18.136576 0.873107 2.282315 0.001265 -0.004935 866237.000000 1 0 0
-9.793954 -11.851578 -7.472107 17.094263 0.880173 2.023181 0.003016 -0.012494 -342589.000000 1 0 0
-10.826654 -15.147978 6.290793 19.653289 0.950255 1.244973 0.004330 0.002601 -222887.000000 1 0 0
-9.385654 -15.340378 0.755093 17.999663 1.021726 1.528834 0.001023 0.003151 -2823900.000000 1 0 0
-14.810654 -7.637178 -8.210907 18.576893 0.476093 2.028619 -0.013887 -0.005855 157537.000000 1 0 0
-2.320154 -16.568678 5.065393 17.480344 1.431668 1.276803 -0.002036 0.001695 371197.000000 1 0 0
4.692346 -15.850478 6.405493 17.728116 -1.282978 1.201115 0.005795 0.004606 -445275.000000 1 0 0
4.201146 -14.586978 -10.083907 18.224016 -1.290379 2.157154 -0.008222 -0.000476 -353795.000000 1 0 0
-7.426454 -13.922778 -0.144007 15.780263 1.080785 1.579922 0.006899 0.000183 794113.000000 1 0 0
3.029646 -14.905878 9.588593 17.980686 -1.370276 1.008333 0.000690 -0.002126 -288623.000000 1 0 0
2.351946 -17.323978 10.446593 20.366226 -1.435859 1.032194 0.000655 -0.000313 -148778.000000 1 0 0
-8.206554 -17.123178 -5.754607 19.841025 1.123873 1.865061 0.002747 -0.004930 188591.000000 1 0 0
-6.434154 -9.024378 -7.716107 13.504668 0.951415 2.178966 0.004911 -0.005262 206607.000000 1 0 0
-6.069154 -12.937778 -4.841807 15.088533 1.132170 1.897469 0.001723 -0.007001 470505.000000 1 0 0
2.107846 -19.468678 -4.951807 20.198833 -1.462948 1.818474 -0.021613 -0.003776 -166335.000000 1 0 0
-5.394354 -12.916578 8.337393 16.292611 1.175184 1.033601 0.003771 0.000091 892505.000000 1 0 0
2.261046 -17.551178 3.322093 18.005346 -1.442676 1.385227 -0.000258 -0.001697 924910.000000 1 0 0
-17.459654 -10.075178 -2.500007 20.312528 0.523377 1.694186 -0.007339 0.005094 527512.000000 1 0 0
-3.320454 -15.563578 2.477493 16.105538 1.360600 1.416354 -0.000100 0.003667 -36608.400000 1 0 0
-10.126854 -10.217578 -14.160107 20.185656 0.789858 2.348287 0.002171 -0.001492 -448767.000000 1 0 0
6.037146 -14.722878 -5.778707 16.929375 -1.181655 1.919141 -0.009864 -0.001615 134284.000000 1 0 0
-7.360654 -12.259978 -10.732407 17.879342 1.030097 2.214633 0.004349 -0.007061 160578.000000 1 0 0
-7.199254 -14.294078 3.867693 16.465387 1.104231 1.333682 0.005534 0.005178 1328370.000000 1 0 0
3.175646 -14.972378 -3.265707 15.649974 -1.361793 1.781013 -0.009585 0.000701 -1904460.000000 1 0 0
-7.498654 -11.426278 7.735693 15.704477 0.990030 1.055746 0.003276 -0.003051 -3119820.000000 1 0 0
-12.670354 -12.223278 -1.030207 17.635411 0.767441 1.629247 -0.003076 0.003582 1227210.000000 1 0 0
-1.874654 -13.706278 3.930093 14.381308 1.434866 1.293997 0.000075 0.003009 -3160940.000000 1 0 0
-3.169354 -14.000878 5.265993 15.290522 1.348180 1.219201 -0.001473 0.001628 407095.000000 1 0 0
-14.465054 -10.091978 -4.481907 18.198168 0.609167 1.819640 -0.005543 -0.001430 707612.000000 1 0 0
-6.464754 -8.550578 -10.494207 15.001127 0.923428 2.345580 0.004745 -0.002078 158327.000000 1 0 0
0.559246 -19.605078 2.434193 19.763531 -1.542278 1.447317 -0.007752 0.001073 523984.000000 1 0 0
6.389346 -14.287778 -8.293607 17.712941 -1.150282 2.058075 -0.004997 0.000904 -2648770.000000 1 0 0
-4.004554 -16.638878 -5.967007 18.124401 1.334614 1.906279 -0.002533 -0.005644 -383756.000000 1 0 0
-3.667154 -13.734078 -13.226307 19.416697 1.309872 2.320172 0.001200 0.005354 68200.400000 1 0 0
-8.151754 -14.615178 -4.539507 17.339598 1.062015 1.835683 0.000629 -0.007210 -1502900.000000 1 0 0
-4.289754 -14.365678 10.099493 18.076904 1.280614 0.977984 -0.003416 -0.000299 -1176900.000000 1 0 0
-0.313854 -12.056078 -9.974107 15.650251 1.544769 2.261803 -0.002105 0.001843 292491.000000 1 0 0
2.455346 -17.194078 6.881193 18.681966 -1.428953 1.193581 0.001721 -0.002640 -445391.000000 1 0 0
-2.773154 -19.096178 -3.710107 19.649919 1.426584 1.760747 -0.007889 -0.000309 -1029230.000000 1 0 0
0.617046 -15.371278 -3.113807 15.695628 -1.530675 1.770508 -0.006292 -0.000590 -518683.000000 1 0 0
5.879146 -17.902778 0.202993 18.844496 -1.253499 1.560024 -0.004600 -0.001107 -964506.000000 1 0 0
-6.948254 -16.695378 3.825793 18.483792 1.176421 1.362308 -0.000249 0.006152 904090.000000 1 0 0
-5.207354 -13.464178 -9.602707 17.338184 1.201759 2.157774 -0.003078 -0.004150 270677.000000 1 0 0
5.596146 -15.231178 -2.329407 16.393040 -1.218693 1.713376 -0.009086 0.002723 -1395280.000000 1 0 0
-8.721154 -10.226578 -0.392607 13.446024 0.864683 1.599999 0.006005 0.000817 359261.000000 1 0 0
-7.329854 -18.181678 -2.814207 19.804544 1.187582 1.713378 -0.003151 -0.003609 -348503.000000 1 0 0
7.761946 -16.069778 -1.307007 17.893961 -1.120829 1.643903 0.001348 0.005791 -693904.000000 1 0 0
-8.106254 -10.153478 -9.419907 16.048026 0.897049 2.198123 0.005001 -0.006894 -204125.000000 1 0 0
-9.076954 -14.973678 -7.001807 18.858087 1.025835 1.951194 -0.000575 -0.007860 -702116.000000 1 0 0
-11.520254 -10.421178 -12.020707 19.642164 0.735349 2.229364 0.008777 0.002361 508951.000000 1 0 0
6.530046 -16.372378 2.264093 17.771392 -1.191286 1.443048 0.000133 0.003481 586348.000000 1 0 0
-2.321654 -11.246678 -6.117507 13.011600 1.367226 2.060266 0.001805 -0.001161 402284.000000 1 0 0
-12.273154 -15.190478 -3.457007 19.832595 0.891226 1.746001 -0.004618 -0.009966 -82516.400000 1 0 0
-0.260754 -19.790378 -2.895507 20.002775 1.557621 1.716062 -0.008455 -0.004661 202325.000000 1 0 0
-5.837954 -15.485878 -4.738207 17.214666 1.210286 1.849638 -0.005231 -0.004952 -2955820.000000 1 0 0
1.981146 -15.945278 -1.088607 16.104717 -1.447183 1.638443 -0.009061 -0.002722 680305.000000 1 0 0
-13.175654 -12.073978 5.316193 18.645126 0.741794 1.281659 0.008184 0.000787 269156.000000 1 0 0
2.042046 -15.174578 -8.918607 17.719462 -1.437030 2.098236 -0.007607 -0.001013 -1246860.000000 1 0 0
-11.667554 -16.731178 0.190893 20.398544 0.961848 1.561438 0.004311 0.004315 712602.000000 1 0 0
-8.011254 -16.293778 -1.174707 18.194706 1.113830 1.635404 0.002322 -0.000135 517946.000000 1 0 0
-2.923754 -14.507278 -1.834207 14.912202 1.371923 1.694109 0.001623 -0.000649 429383.000000 1 0 0
-1.864754 -10.409378 -13.185307 16.902213 1.393535 2.465612 -0.003819 -0.000061 817205.000000 1 0 0
1.532646 -19.592778 4.867593 20.246467 -1.492730 1.328001 0.001554 0.000121 -23548.300000 1 0 0
-17.221154 -9.517378 2.501493 19.834468 0.504880 1.444341 -0.016728 0.000095 -872191.000000 1 0 0
-2.615754 -15.786078 -8.177907 17.969992 1.406588 2.043266 -0.008044 0.002584 -727407.000000 1 0 0
-10.318654 -12.174078 0.110993 15.959170 0.867702 1.563841 0.000610 0.003389 402646.000000 1 0 0
-6.919854 -11.418078 -6.738507 14.955413 1.025945 2.038204 0.002145 -0.007078 -204316.000000 1 0 0
-2.347854 -13.726378 -6.775807 15.486686 1.401389 2.023640 -0.003006 -0.001148 295585.000000 1 0 0
-14.277454 -14.338578 -1.119807 20.265599 0.787534 1.626081 0.006230 -0.001533 59251.400000 1 0 0
-9.663354 -11.220978 -4.563307 15.495630 0.859844 1.869718 0.008434 -0.006122 1232960.000000 1 0 0
9.318446 -15.142778 -5.273207 18.545724 -1.019150 1.859110 0.007223 0.001246 92879.000000 1 0 0
-5.581654 -10.827678 -9.456707 15.421504 1.094827 2.230921 0.002969 -0.003369 28385.100000 1 0 0
-10.301354 -15.831278 -4.898707 19.512678 0.993932 1.824564 0.001376 -0.011937 -3246240.000000 1 0 0
2.156846 -17.393378 -3.339707 17.841952 -1.447422 1.759090 -0.009821 -0.003503 546265.000000 1 0 0
-0.343254 -14.471578 -8.182807 16.628371 1.547082 2.085296 -0.005383 -0.000486 -852572.000000 1 0 0
-0.557754 -18.313278 -7.137207 19.662832 1.540349 1.942260 -0.009306 -0.002243 271774.000000 1 0 0
-2.057854 -10.147178 -10.563007 14.791116 1.370709 2.366199 -0.000850 0.001137 766506.000000 1 0 0
-4.988654 -17.402678 2.040093 18.218174 1.291622 1.458580 -0.002230 0.003321 856541.000000 1 0 0
0.247146 -12.852978 -2.659107 13.127490 -1.551570 1.774768 -0.000269 0.001137 -647651.000000 1 0 0
2.647846 -15.011478 2.947893 15.525644 -1.396204 1.379764 0.000906 0.001306 -1319890.000000 1 0 0
-9.244154 -13.129278 6.898493 17.476314 0.957333 1.165018 0.000131 -0.001426 -774437.000000 1 0 0
-0.872254 -17.881178 -4.626907 18.490690 1.522054 1.823713 -0.010395 -0.003225 -990818.000000 1 0 0
-9.782054 -17.684478 -2.580207 20.373680 1.065543 1.697781 0.001927 0.003778 -734146.000000 1 0 0
1.337646 -16.395878 1.369993 16.507301 -1.489392 1.487708 -0.005840 -0.002265 -519281.000000 1 0 0
-0.287854 -18.001578 4.132493 18.472065 1.554807 1.345171 0.000372 -0.005140 352535.000000 1 0 0
-17.257754 -9.232678 -0.082207 19.572409 0.491244 1.574997 -0.013294 0.004477 1114120.000000 1 0 0
-14.815754 -7.052378 -10.632707 19.552419 0.444268 2.145761 0.000481 -0.010543 338787.000000 1 0 0
2.903146 -12.613778 -8.942107 15.732035 -1.344579 2.175358 -0.010046 0.003210 435552.000000 1 0 0
-11.648954 -14.638478 1.736193 18.788229 0.898636 1.478256 0.002228 0.003179 113285.000000 1 0 0
-2.120854 -15.703778 10.725493 19.134860 1.436555 0.975781 -0.003161 0.005684 -483331.000000 1 0 0
-6.931154 -15.968378 1.194493 17.448691 1.161281 1.502285 0.003160 0.006872 -1338390.000000 1 0 0
-12.515154 -15.139578 -6.006107 20.540429 0.880014 1.867536 -0.001325 -0.003620 57813.300000 1 0 0
0.938746 -13.739778 -5.056007 14.670581 -1.502579 1.922647 -0.006698 0.002615 194259.000000 1 0 0
5.685546 -16.575578 -7.639907 19.116574 -1.240365 1.981930 -0.006354 0.000860 249626.000000 1 0 0
-6.494054 -12.992078 5.913793 15.682467 1.107271 1.184138 0.006780 0.000592 -281795.000000 1 0 0
-2.488654 -13.639678 0.583393 13.877124 1.390325 1.528744 0.006686 0.000214 3632940.000000 1 0 0
-4.168054 -15.600478 0.099393 16.147987 1.309720 1.564641 0.002230 0.001514 -126983.000000 1 0 0
-17.465654 -7.506978 -2.141307 19.130839 0.405941 1.682961 -0.021726 0.006552 236280.000000 1 0 0
1.142346 -12.763078 -12.003707 17.558192 -1.481530 2.323552 -0.007729 0.005848 -532786.000000 1 0 0
1.263546 -17.093478 -5.768607 18.084811 -1.497011 1.895444 -0.010509 -0.004247 -1304360.000000 1 0 0
-12.787954 -6.243178 -9.123907 16.904281 0.454169 2.140924 -0.000199 -0.003633 1359900.000000 1 0 0
-11.377554 -13.674578 -8.694707 19.800019 0.876832 2.025422 0.001125 -0.009021 5157.390000 1 0 0
-4.244254 -9.969678 3.543493 11.400198 1.168319 1.254733 0.006279 0.000593 -4188230.000000 1 0 0
-6.852654 -14.526578 9.768193 18.798881 1.130018 1.024395 -0.004584 0.003156 -572107.000000 1 0 0
-5.179154 -15.857078 -8.340307 18.650236 1.255105 2.034424 -0.005084 -0.002818 -462066.000000 1 0 0
-0.163754 -13.509078 2.131693 13.677212 1.558675 1.414301 0.002330 0.000698 679491.000000 1 0 0
-11.018054 -13.345378 -4.869907 17.978115 0.880634 1.845103 0.004086 -0.008523 -656170.000000 1 0 0
-9.696354 -10.593378 6.666293 15.832827 0.829580 1.136202 0.005614 -0.002685 -441349.000000 1 0 0
-15.531954 -7.814378 -4.803007 18.038154 0.466137 1.840317 0.000646 -0.000709 -324115.000000 1 0 0
-14.557554 -7.503778 5.500293 17.276640 0.475936 1.246791 0.002310 -0.001200 -468579.000000 1 0 0
-1.544454 -19.473578 0.063393 19.534831 1.491652 1.567551 -0.007332 0.001234 -362999.000000 1 0 0
-15.331154 -12.052678 -1.422207 19.553363 0.666242 1.643595 -0.003494 0.004273 -41141.700000 1 0 0
-4.503954 -12.152478 -6.901307 14.683200 1.215871 2.060103 0.004457 -0.004760 -542566.000000 1 0 0
-7.330754 -18.467078 1.877793 19.957431 1.192910 1.476567 -0.001007 0.006563 34925.600000 1 0 0
-2.589654 -11.865178 -8.652507 14.911561 1.355909 2.189838 0.000882 0.000965 731693.000000 1 0 0
-1.059854 -20.434078 -5.228707 21.119049 1.518976 1.820981 -0.017674 0.003178 -41125.800000 1 0 0
-5.432654 -8.916478 -13.706707 17.230529 1.023579 2.490611 -0.000276 -0.002299 852054.000000 1 0 0
-8.616654 -18.931678 -0.692407 20.811886 1.143672 1.604072 0.000976 0.004798 127815.000000 1 0 0
-17.062554 -7.392678 5.787193 19.474959 0.408854 1.269079 -0.006253 -0.001264 -299071.000000 1 0 0
-3.620354 -14.629478 -4.376607 15.693415 1.328200 1.853426 -0.000712 -0.001984 -2798760.000000 1 0 0
-3.084654 -14.865778 -10.892807 18.685816 1.366199 2.193145 0.000291 0.000259 -51768.600000 1 0 0
-0.010454 -16.627878 6.259093 17.766899 1.570168 1.210780 0.000754 -0.006342 -114318.000000 1 0 0
-11.081154 -11.577778 3.882193 16.489644 0.807312 1.333133 0.001833 0.002314 -1318390.000000 1 0 0
-0.064854 -14.693178 -0.186907 14.694510 1.566382 1.583516 0.002982 0.001333 870348.000000 1 0 0
-7.350354 -9.471578 -2.539307 12.255063 0.910835 1.779513 0.007114 -0.003412 -488389.000000 1 0 0
-11.231554 -14.398778 -0.825907 18.279900 0.908348 1.615993 0.005902 0.000836 120402.000000 1 0 0
0.289646 -14.607178 -10.661007 18.086200 -1.550970 2.201181 -0.005904 0.002791 77161.900000 1 0 0
-1.420654 -13.941478 -4.002807 14.574139 1.469246 1.849023 -0.002933 0.000378 -1453010.000000 1 0 0
-11.524354 -7.952278 -7.632907 15.947123 0.604011 2.069900 0.007422 -0.006095 741801.000000 1 0 0
-0.203954 -17.327278 -0.358207 17.332180 1.559026 1.591465 -0.003860 -0.002734 -74011.900000 1 0 0
-12.823854 -9.604978 4.716693 16.701917 0.642856 1.284497 -0.000812 0.000631 -1392560.000000 1 0 0
3.999246 -16.864278 1.454293 17.392895 -1.337954 1.487084 -0.006326 -0.002626 1013720.000000 1 0 0
-3.916154 -18.002278 -8.094407 20.123064 1.356597 1.984764 -0.007458 -0.000325 49498.900000 1 0 0
-13.269354 -11.325978 2.739593 17.659527 0.706548 1.415033 -0.004479 0.002210 -527746.000000 1 0 0
-8.494754 -12.188578 4.249293 15.452468 0.962124 1.292216 0.005653 0.000221 191664.000000 1 0 0
-8.227654 -9.380178 -5.878407 13.792669 0.850760 2.011082 0.008161 -0.004554 380044.000000 1 0 0
3.864546 -17.561778 -5.264507 18.736750 -1.354194 1.855603 -0.013465 0.002668 295398.000000 1 0 0
-2.387954 -13.146778 11.316293 17.509957 1.391117 0.868100 -0.008249 -0.001828 67767.500000 1 0 0
-0.004554 -16.745178 -9.589707 19.296722 1.570524 2.090889 -0.005029 -0.001078 -374842.000000 1 0 0
-7.105854 -10.738878 -14.550507 19.430232 0.986244 2.417135 0.003639 0.007557 318919.000000 1 0 0
-4.442454 -19.119478 -1.849007 19.715696 1.342495 1.664718 -0.004500 0.004661 -252130.000000 1 0 0
-2.476554 -17.346578 1.028393 17.552626 1.428986 1.512174 0.001774 -0.001447 -706522.000000 1 0 0
3.943946 -14.557278 -7.422407 16.809556 -1.306222 2.028132 -0.009150 -0.002951 378199.000000 1 0 0
-1.017554 -15.882378 -6.121607 17.051669 1.506816 1.937996 -0.009533 0.000002 -696622.000000 1 0 0
-9.327154 -15.316678 8.406893 19.805865 1.023819 1.132426 -0.004151 0.004230 -342714.000000 1 0 0
-7.178554 -12.001478 -1.768607 14.095925 1.031746 1.696597 0.006032 -0.000378 1112120.000000 1 0 0
-7.295554 -15.029778 -9.402507 19.170980 1.118891 2.083408 -0.002581 -0.003370 -712021.000000 1 0 0
-4.933654 -13.211878 -0.661707 14.118517 1.213407 1.617682 0.007620 0.001509 2236460.000000 1 0 0
-6.430654 -13.867078 -7.267507 16.925302 1.136579 2.014610 -0.000633 -0.005114 78620.100000 1 0 0
5.683946 -15.340478 0.025093 16.359650 -1.215960 1.569263 -0.007049 0.001801 -191254.000000 1 0 0
-14.276454 -12.827378 0.892793 19.213429 0.731985 1.524312 -0.012514 0.001952 784490.000000 1 0 0
0.870446 -15.268278 11.077993 18.883853 -1.513848 0.943895 0.003218 -0.006957 441032.000000 1 0 0
-9.297254 -10.804978 1.997693 14.393654 0.860261 1.431557 0.005425 0.003013 411217.000000 1 0 0
-9.508154 -8.803078 -3.601907 13.448900 0.746912 1.841928 0.004510 -0.005660 -146903.000000 1 0 0
-12.267954 -7.234778 -12.298407 18.817426 0.532834 2.283081 -0.002528 -0.001512 -574811.000000 1 0 0
-13.281054 -8.383078 -0.584407 15.716359 0.563049 1.607990 -0.001166 0.000576 -534812.000000 1 0 0
-11.245654 -9.752978 0.529893 14.895171 0.714433 1.535214 0.000021 0.001541 1359840.000000 1 0 0
-15.696854 -12.298578 3.017293 20.168052 0.664602 1.420625 -0.005271 0.007312 341701.000000 1 0 0
-10.386154 -12.563578 -2.396707 16.476040 0.879993 1.716781 0.004685 -0.003222 1061340.000000 1 0 0
-3.368754 -8.698278 -12.025607 15.219191 1.201295 2.481868 -0.001487 0.000425 -412781.000000 1 0 0
-0.165454 -15.517578 3.846393 15.988038 1.560134 1.327834 0.002282 -0.000728 -527429.000000 1 0 0
-15.516954 -7.852178 1.347393 17.442707 0.468467 1.493473 -0.021119 0.002754 332658.000000 1 0 0
-6.227354 -13.492478 -13.170607 19.856782 1.138385 2.295990 0.006559 0.001056 213533.000000 1 0 0
-15.177354 -10.356378 1.282393 18.418772 0.598787 1.501116 -0.009820 0.002379 -142.094000 1 0 0
-9.955354 -8.308778 -12.499007 18.010276 0.695488 2.337817 0.006348 -0.001508 245647.000000 1 0 0
-13.245954 -11.559178 -6.342207 18.689395 0.717502 1.917020 0.002755 -0.004780 -349095.000000 1 0 0
-12.243054 -11.307678 -3.902507 17.116820 0.745702 1.800812 -0.001774 -0.003034 -1061560.000000 1 0 0
-11.851954 -11.074878 -8.867007 18.486362 0.751517 2.071054 0.002807 -0.013142 83508.800000 1 0 0
-13.243454 -8.244978 -5.836607 16.656372 0.556850 1.928808 0.002335 -0.005454 -1978110.000000 1 0 0
-13.427554 -7.955178 -3.278107 15.947729 0.534851 1.777825 -0.001796 -0.002225 -150424.000000 1 0 0
-4.349754 -17.062578 -3.374607 17.928745 1.321184 1.760149 -0.001484 -0.000645 194627.000000 1 0 0
-15.299854 -8.947678 -1.755907 17.810943 0.529184 1.669543 -0.008140 0.007954 -2786350.000000 1 0 0
-9.443654 -15.864378 3.729393 18.835325 1.033859 1.371479 0.005420 0.010774 -158066.000000 1 0 0
4.684246 -17.719278 8.252593 20.100255 -1.312350 1.147716 0.003460 0.008752 46505.400000 1 0 0
-8.263654 -15.438878 6.006793 18.512928 1.079348 1.240351 0.003123 0.004453 -120585.000000 1 0 0
0.930946 -16.115778 8.561693 18.272590 -1.513094 1.083143 0.004644 0.000591 659618.000000 1 0 0
-10.933454 -7.812778 -10.163407 16.848584 0.620441 2.218329 0.007311 -0.003404 766836.000000 1 0 0
-4.858154 -16.076078 5.724593 17.742968 1.277324 1.242279 0.000730 0.000469 -526459.000000 1 0 0
-1.395454 -13.185478 -12.063407 17.925678 1.465356 2.309010 -0.004147 0.001640 -1143020.000000 1 0 0
-6.370554 -14.316978 -2.572007 15.880020 1.152137 1.733478 0.002785 -0.000618 286493.000000 1 0 0
-17.694454 -6.813078 -7.045507 20.227479 0.367544 1.926568 -0.006806 -0.006066 37519.100000 1 0 0
-17.283854 -3.868978 -10.106007 20.391959 0.220219 2.089308 -0.005538 -0.006739 692272.000000 1 0 0
-15.228254 -5.183478 -8.870007 18.369682 0.328084 2.074715 -0.011165 -0.011200 56911.100000 1 0 0
-16.118154 -5.281778 -5.664907 17.882484 0.316664 1.893135 -0.002721 -0.006378 -820915.000000 1 0 0
-15.236954 -4.334178 -12.186107 19.986272 0.277132 2.226508 0.003020 -0.005763 -941453.000000 1 0 0
-18.662354 -4.932578 -5.528507 20.079297 0.258397 1.849733 -0.001349 -0.004048 -1495850.000000 1 0 0
-17.446954 -4.320078 -7.644907 19.532125 0.242730 1.972951 -0.006992 -0.005794 235842.000000 1 0 0
12.170346 -7.916778 8.626293 16.888032 -0.576725 1.034689 0.006668 -0.000243 267451.000000 1 0 0
15.949146 -3.373378 1.632993 16.383577 -0.208436 1.470958 0.002494 0.001905 -488585.000000 1 0 0
12.007746 -2.335278 12.476093 17.472618 -0.192083 0.775549 0.006288 -0.002344 452214.000000 1 0 0
9.642646 -9.983178 5.060893 14.773527 -0.802748 1.221151 -0.002504 -0.000709 98837.400000 1 0 0
16.723446 -1.707978 7.190993 18.283906 -0.101778 1.166582 -0.002143 -0.004963 -199728.000000 1 0 0
5.273446 -12.960078 8.956293 16.612888 -1.184357 1.001408 -0.003890 -0.000123 99127.000000 1 0 0
15.068646 -9.049778 -2.291307 17.726045 -0.540839 1.700421 -0.004830 0.004404 348655.000000 1 0 0
11.108046 -8.492878 6.317393 15.343634 -0.652761 1.146448 0.003159 -0.002456 -2781270.000000 1 0 0
19.905746 -3.004678 3.408993 20.417836 -0.149814 1.403049 -0.001703 -0.000758 97889.100000 1 0 0
13.635146 -8.578478 6.733793 17.459996 -0.561574 1.174863 0.005464 -0.000290 -289646.000000 1 0 0
8.320246 -11.133878 8.687593 16.390973 -0.929031 1.012169 -0.000473 -0.001754 -1084330.000000 1 0 0
16.789746 -0.033878 -0.728507 16.805578 -0.002018 1.614159 0.012082 0.002145 10236.600000 1 0 0
12.399646 -12.434878 2.159593 17.692972 -0.786817 1.448432 0.001331 0.001709 -881007.000000 1 0 0
10.491146 -11.637478 3.550693 16.065567 -0.837155 1.347944 -0.001512 0.001162 -532669.000000 1 0 0
16.430546 2.990022 2.141093 16.837082 0.180010 1.443286 0.011664 -0.002095 -843492.000000 1 0 0
18.226446 -3.149378 0.354393 18.499933 -0.171102 1.551639 -0.002577 0.002640 1183420.000000 1 0 0
13.408046 -11.577578 -0.392307 17.719196 -0.712268 1.592938 0.006363 0.000759 -258026.000000 1 0 0
16.964246 -7.564478 -1.026707 18.602717 -0.419445 1.626016 0.005227 0.004861 1040910.000000 1 0 0
10.252946 -5.738178 9.586393 15.164053 -0.510231 0.886434 0.012087 -0.004636 206904.000000 1 0 0
11.321146 -13.273978 6.060293 18.468730 -0.864631 1.236465 -0.004201 0.001837 -761399.000000 1 0 0
13.193746 -1.706478 10.288893 16.818095 -0.128626 0.912494 0.011302 0.001620 843325.000000 1 0 0
15.492646 -1.999878 -1.525907 15.695540 -0.128376 1.668169 0.002212 0.002179 -173536.000000 1 0 0
10.578646 -12.423378 8.978793 18.624360 -0.865426 1.067747 0.000893 -0.005206 107362.000000 1 0 0
14.618346 1.299122 3.065693 14.992739 0.088636 1.364865 0.008346 -0.000393 1065180.000000 1 0 0
14.987746 -5.828878 5.064893 16.860056 -0.370909 1.265676 0.004631 -0.001887 -782140.000000 1 0 0
14.144646 -3.147378 -3.282707 14.857764 -0.218947 1.793577 -0.004386 0.005168 1155310.000000 1 0 0
14.127846 0.563522 9.485993 17.026381 0.039866 0.979865 0.005458 -0.001371 653419.000000 1 0 0
15.375446 -3.402078 4.274393 16.317135 -0.217758 1.305747 0.000537 -0.000080 -2109520.000000 1 0 0
18.666846 5.070522 -4.548807 19.870908 0.265233 1.801762 0.012827 0.001086 504644.000000 1 0 0
17.954846 -5.703878 -5.432207 19.606621 -0.307596 1.851529 0.005455 0.001267 800615.000000 1 0 0
17.309846 0.215522 5.834393 18.267932 0.012450 1.245722 0.008224 -0.002513 418907.000000 1 0 0
16.969446 -6.615678 3.767693 18.599054 -0.371733 1.366810 0.002649 -0.000990 156102.000000 1 0 0
9.805546 -6.603678 14.100293 18.400423 -0.592693 0.697730 0.013273 -0.004294 -724195.000000 1 0 0
8.630446 -12.384678 4.970393 15.892440 -0.962178 1.252707 -0.005378 0.001849 -1982040.000000 1 0 0
16.754646 -10.170278 -0.722007 19.613108 -0.545560 1.607617 0.001983 0.005678 -500856.000000 1 0 0
14.919746 -8.759478 0.188593 17.302105 -0.530885 1.559896 0.006329 0.002290 -1049960.000000 1 0 0
9.944946 -12.957078 1.459693 16.398736 -0.916170 1.481666 0.001872 0.000614 -481932.000000 1 0 0
16.859646 -8.332978 8.553593 20.660352 -0.459042 1.143941 0.004737 0.003007 143315.000000 1 0 0
19.224346 0.077122 -1.881507 19.316353 0.004012 1.668356 0.024568 -0.001008 344446.000000 1 0 0
13.491246 -1.311778 7.673593 15.576216 -0.096927 1.055666 0.008020 -0.005770 -717851.000000 1 0 0
12.831246 -9.876078 -3.305607 16.525884 -0.655984 1.772181 0.000419 0.002980 -1287300.000000 1 0 0
8.716446 -15.185478 1.259393 17.554522 -1.049715 1.498993 0.002355 0.002258 -1181780.000000 1 0 0
11.443946 -8.248478 11.016793 17.898911 -0.624531 0.907775 0.014049 -0.000768 94871.800000 1 0 0
13.873246 -4.075278 -0.811507 14.482175 -0.285714 1.626861 -0.001554 0.002034 -209120.000000 1 0 0
7.268446 -13.302478 10.603093 18.498968 -1.070723 0.960425 0.000919 -0.000729 -323901.000000 1 0 0
15.336746 -6.735978 1.721293 16.839003 -0.413841 1.468397 -0.003244 0.004578 242868.000000 1 0 0
15.647946 -6.103478 -2.796307 17.027331 -0.371899 1.735768 -0.004089 0.004732 171806.000000 1 0 0
11.173646 -8.405278 3.698893 14.463086 -0.644934 1.312176 0.000546 -0.002389 705893.000000 1 0 0
10.460346 -14.418578 -0.587507 17.823002 -0.943176 1.603766 0.009008 0.002174 716755.000000 1 0 0
13.342246 -12.971578 4.569293 19.161310 -0.771313 1.330012 -0.001544 0.002917 387647.000000 1 0 0
12.826146 -11.098778 6.448493 18.145962 -0.713324 1.207489 0.003954 -0.002062 -97368.000000 1 0 0
10.912046 -10.549478 1.257893 15.229791 -0.768506 1.488108 -0.001181 -0.000714 627914.000000 1 0 0
13.954646 -7.523878 11.650193 19.674041 -0.494488 0.937059 0.010712 -0.004373 851289.000000 1 0 0
15.196846 -1.629578 -5.222107 16.151472 -0.106823 1.900033 0.000014 0.001958 -627671.000000 1 0 0
12.974846 -11.384178 -7.186907 18.697534 -0.720190 1.965330 0.014510 -0.000697 -302384.000000 1 0 0
17.627246 -5.289478 1.732393 18.485117 -0.291525 1.476940 0.003094 0.003253 410605.000000 1 0 0
10.589846 -9.836378 9.073893 17.065600 -0.748528 1.010182 0.001435 -0.001893 -2042830.000000 1 0 0
16.527846 1.794822 9.875093 19.336715 0.108170 1.034808 0.005608 -0.000182 346415.000000 1 0 0
18.056646 3.811922 0.333893 18.457646 0.208054 1.552706 -0.000194 -0.000222 743025.000000 1 0 0
13.314846 -4.048778 5.612093 15.005776 -0.295196 1.187483 0.004568 -0.006562 -501391.000000 1 0 0
12.168046 -6.217078 6.471893 15.119484 -0.472357 1.128462 0.004892 -0.004845 156799.000000 1 0 0
16.447746 -10.210778 3.266393 19.633076 -0.555574 1.403647 -0.008458 0.004420 -688249.000000 1 0 0
16.362146 -8.300378 -5.768507 19.232571 -0.469464 1.875420 0.007906 0.004115 545229.000000 1 0 0
14.064046 -0.327178 5.229593 15.008433 -0.023259 1.214886 0.004042 -0.002927 820444.000000 1 0 0
18.166946 -4.250278 4.958793 19.305243 -0.229823 1.311022 0.002031 0.000060 -91130.900000 1 0 0
13.685146 -13.539078 6.986293 20.479212 -0.780033 1.222666 0.004601 0.001973 -325425.000000 1 0 0
14.926046 -13.562578 -0.857107 20.185762 -0.737575 1.613270 0.004448 0.005172 -43115.100000 1 0 0
17.954946 -5.956278 7.737893 20.438501 -0.320311 1.182520 0.024433 0.004074 88805.100000 1 0 0
14.413346 3.238022 9.195093 17.400548 0.220985 1.014038 0.004235 -0.004060 -1076300.000000 1 0 0
18.842846 3.709422 2.769993 19.403235 0.194375 1.427548 0.013285 -0.006029 -379277.000000 1 0 0
14.816746 -10.571278 8.081393 19.914738 -0.619708 1.152943 0.005868 0.001510 -709144.000000 1 0 0
14.822746 -4.777178 10.226893 18.631279 -0.311776 0.989737 0.003474 -0.003966 371692.000000 1 0 0
17.666046 -7.989378 1.733393 19.465970 -0.424719 1.481631 0.000580 0.005873 -53669.400000 1 0 0
18.222046 -5.680578 -2.360407 19.232354 -0.302194 1.693838 -0.007404 0.003364 747361.000000 1 0 0
14.049246 -13.209978 -5.542407 20.064972 -0.754619 1.850658 0.010513 0.003005 -161223.000000 1 0 0
15.532146 -1.576578 9.358393 18.201996 -0.101158 1.030790 0.006599 -0.002280 -527383.000000 1 0 0
12.963446 -10.104078 10.071293 19.276262 -0.662071 1.021050 -0.004333 0.000364 -1518410.000000 1 0 0
16.532646 2.208922 4.645493 17.314396 0.132823 1.299166 0.009074 -0.004804 -1878400.000000 1 0 0
14.855746 2.527522 -0.126107 15.069753 0.168524 1.579165 0.008446 0.000841 -1411630.000000 1 0 0
15.095846 -10.001178 -7.175407 19.478054 -0.585121 1.948067 0.011428 0.002155 -335616.000000 1 0 0
16.160246 -0.005278 -3.330507 16.499874 -0.000327 1.774043 0.008296 0.002929 237043.000000 1 0 0
12.107046 2.450022 13.472093 18.277868 0.199667 0.742070 0.003437 -0.003846 -421213.000000 1 0 0
17.796046 -2.919578 9.337593 20.307974 -0.162609 1.093027 0.013647 -0.005669 611433.000000 1 0 0
7.611646 -18.230278 4.405693 20.240808 -1.175272 1.351376 0.003267 -0.000505 -66784.100000 1 0 0
6.921846 -11.160478 6.497893 14.652332 -1.015649 1.111328 -0.004020 0.000859 188474.000000 1 0 0
17.840946 2.167922 -1.627007 18.045675 0.120921 1.661079 0.007762 -0.001226 316126.000000 1 0 0
17.467946 -2.249878 3.463193 17.949507 -0.128095 1.376638 -0.000905 0.000490 -1688470.000000 1 0 0
12.564746 -13.413378 -2.065307 18.494784 -0.818054 1.682699 0.010921 0.002777 1482390.000000 1 0 0
14.986946 -8.294078 4.144893 17.623292 -0.505465 1.333378 0.001669 0.002181 -239319.000000 1 0 0
11.964046 -2.809478 14.920593 19.330175 -0.230648 0.689002 0.006232 -0.005038 267254.000000 1 0 0
11.797746 -13.656378 -6.692507 19.247678 -0.858288 1.925918 0.011002 -0.004703 -366422.000000 1 0 0
10.527146 -11.981478 -1.389207 16.009576 -0.849921 1.657679 0.008455 -0.003735 -863296.000000 1 0 0
13.093146 -8.053378 1.881793 15.486398 -0.551437 1.448983 0.000682 0.002388 -222698.000000 1 0 0
8.761046 -7.905278 9.784793 15.329433 -0.734096 0.878507 0.007324 -0.001082 -1937240.000000 1 0 0
15.710446 -3.796978 7.934493 18.005314 -0.237138 1.114446 0.011627 -0.004456 -868056.000000 1 0 0
10.040246 -17.464678 5.151593 20.793278 -1.049046 1.320436 -0.000105 -0.003280 558692.000000 1 0 0
15.362646 -6.350878 8.178593 18.526573 -0.392002 1.113580 0.016315 0.003371 -376310.000000 1 0 0
16.531546 -4.963378 -0.525107 17.268551 -0.291674 1.601209 0.002099 0.006151 -868217.000000 1 0 0
13.932946 -10.653678 3.328793 17.852414 -0.652805 1.383237 0.002799 0.000276 -565292.000000 1 0 0
14.973746 -10.152878 -4.611907 18.669860 -0.595839 1.820404 0.009110 -0.001022 365968.000000 1 0 0
13.585046 -6.562478 -0.203807 15.088444 -0.450009 1.584304 -0.003686 0.004440 593443.000000 1 0 0
17.633146 -0.945878 -5.222707 18.414646 -0.053591 1.858360 0.002220 -0.000575 -576919.000000 1 0 0
14.296046 0.217122 -1.660507 14.393796 0.015186 1.686416 0.002110 0.001715 -2027040.000000 1 0 0
4.928146 -12.989878 11.649393 18.130965 -1.208188 0.873022 -0.002796 0.000044 -1040400.000000 1 0 0
12.145246 -7.558878 13.380193 19.587578 -0.556708 0.818803 0.019033 -0.004935 1437140.000000 1 0 0
12.039946 -5.792078 11.451093 17.596477 -0.448391 0.862211 0.011997 -0.003650 514943.000000 1 0 0
13.343446 -4.576178 8.183693 16.308335 -0.330383 1.045106 0.014351 -0.004984 -1064440.000000 1 0 0
15.151546 -1.216478 2.951693 15.484239 -0.080116 1.378997 0.005711 0.000345 799318.000000 1 0 0
15.166646 -10.377978 5.567293 19.202196 -0.600086 1.276643 0.003769 0.000365 475209.000000 1 0 0
13.745246 -8.115778 -5.889507 17.014227 -0.533362 1.924263 0.003124 0.002580 921787.000000 1 0 0
9.598246 -2.446978 13.548193 16.782954 -0.249623 0.631303 0.001734 -0.003225 1016290.000000 1 0 0
10.002446 -9.188478 13.673493 19.272817 -0.743009 0.782050 0.014389 0.005597 -72890.600000 1 0 0
20.242046 6.231322 -2.836807 21.368605 0.298634 1.703945 0.002637 -0.000312 -5216.520000 1 0 0
11.285246 -3.574078 10.360793 15.731396 -0.306710 0.851832 0.008504 -0.001486 990158.000000 1 0 0
10.251246 -13.971578 -3.150807 17.613081 -0.937795 1.750655 0.012804 -0.001022 212672.000000 1 0 0
14.901146 -12.960678 2.452693 19.900729 -0.715864 1.447236 0.003795 0.010107 -222865.000000 1 0 0
11.198546 -0.424878 14.093193 18.005722 -0.037922 0.671794 0.000676 -0.006052 484795.000000 1 0 0
18.806646 -1.966378 5.694293 19.747950 -0.104179 1.278295 -0.002631 -0.001484 547834.000000 1 0 0
18.905046 -0.388378 7.812393 20.459352 -0.020541 1.179000 0.002844 0.000782 -26378.800000 1 0 0
18.907446 0.827622 0.470393 18.931396 0.043744 1.545947 0.005007 -0.000523 22352.000000 1 0 0
18.560346 0.887822 3.633793 18.933545 0.047798 1.377675 0.007136 -0.002210 -76025.900000 1 0 0
16.536146 -3.674878 -4.420807 17.506924 -0.218679 1.826078 -0.001614 0.002147 -849768.000000 1 0 0
11.137746 -8.189378 15.753593 20.959270 -0.634015 0.720268 0.018666 -0.002228 274267.000000 1 0 0
16.594446 -7.469578 6.172093 19.216268 -0.422958 1.243809 0.006228 0.001787 365964.000000 1 0 0
18.836246 2.258122 5.866393 19.857438 0.119312 1.270895 0.007268 -0.002274 197544.000000 1 0 0
15.491546 1.719122 7.536793 17.313192 0.110519 1.120402 0.012230 -0.003118 102173.000000 1 0 0
8.672246 -15.829378 3.700593 18.424751 -1.069599 1.368572 -0.001347 -0.000352 375840.000000 1 0 0
11.259246 -15.182678 1.767193 18.984396 -0.932703 1.477575 0.004119 0.005072 102747.000000 1 0 0
7.867146 -16.217778 6.060793 19.016875 -1.119145 1.246432 -0.004453 -0.000031 -247824.000000 1 0 0
14.577346 -11.735278 -2.565307 18.889059 -0.677804 1.707026 0.003706 0.001296 393463.000000 1 0 0
13.728646 -4.904278 2.991693 14.882133 -0.343101 1.368391 -0.001529 0.001218 -1090970.000000 1 0 0
-1.214454 10.367722 -5.501207 11.799485 -1.454190 2.055814 0.004273 -0.001939 -1248720.000000 1 0 0
8.189846 -1.715678 -8.134107 11.669654 -0.206502 2.342044 0.001744 -0.001587 -1067020.000000 1 0 0
2.987646 -10.255278 7.645493 13.135841 -1.287315 0.949570 -0.005006 0.000446 697908.000000 1 0 0
-6.281554 1.214522 8.431193 10.583855 -0.190991 0.649132 -0.005612 0.002732 -265081.000000 1 0 0
7.154946 -6.299278 -7.242807 11.972152 -0.721885 2.220526 -0.000753 -0.001441 50946.800000 1 0 0
-11.357554 -4.359478 -4.050107 12.821952 0.366498 1.892173 -0.000787 -0.004914 89041.000000 1 0 0
2.224646 -3.148578 2.818093 4.775379 -0.955684 0.939577 0.001973 -0.000466 1927330.000000 1 0 0
-3.574654 -4.340778 8.993293 10.606593 0.881886 0.558791 -0.001655 0.000327 -1964620.000000 1 0 0
-4.891854 -0.995778 -2.360307 5.522034 0.200815 2.012449 -0.000631 -0.002243 -418841.000000 1 0 0
5.102946 -5.244978 -3.800207 8.245691 -0.799123 2.049774 -0.002055 0.000258 102600.000000 1 0 0
2.759346 14.365422 -8.801807 17.071940 1.381025 2.112471 -0.001807 0.000311 -66140.600000 1 0 0
5.532246 -5.577478 13.595993 15.702389 -0.789470 0.523939 0.006323 -0.002971 -1482230.000000 1 0 0
-4.652654 -0.983978 9.856493 10.943759 0.208416 0.449534 0.001508 0.001779 -2153140.000000 1 0 0
-0.991154 12.024322 -2.636607 12.349834 -1.488553 1.785946 0.002799 -0.002123 -480189.000000 1 0 0
2.972246 9.494422 -10.478607 14.449204 1.267409 2.382126 0.001979 0.000700 -657661.000000 1 0 0
-10.657254 2.625522 1.278093 11.050066 -0.241550 1.454873 -0.008429 0.001626 209309.000000 1 0 0
5.572746 -8.963578 -0.778007 10.583314 -1.014566 1.644375 -0.004784 -0.001189 247072.000000 1 0 0
-6.855954 5.437422 9.587893 12.980653 -0.670516 0.739761 -0.001623 0.004235 159540.000000 1 0 0
-5.306154 -1.854178 5.125093 7.606565 0.336175 0.831494 0.000473 -0.002403 940318.000000 1 0 0
6.540246 -3.768678 -7.474507 10.622900 -0.522757 2.351278 0.001800 -0.002018 792708.000000 1 0 0
6.276346 4.752822 11.116693 13.622140 0.648131 0.616209 -0.000496 -0.003615 327473.000000 1 0 0
3.914946 -9.853478 3.476693 11.158191 -1.192606 1.253939 -0.007188 0.003095 894857.000000 1 0 0
-6.661654 6.666122 -5.691307 11.009350 -0.785733 2.114083 -0.003885 -0.001417 -331958.000000 1 0 0
-10.950154 8.440722 5.353693 14.826115 -0.656700 1.201350 -0.008991 -0.000308 212435.000000 1 0 0
-9.085354 -5.511678 5.164093 11.814826 0.545299 1.118440 0.001769 -0.001804 -781385.000000 1 0 0
3.290446 9.915522 -7.975207 13.143384 1.250383 2.222806 0.004002 0.000237 945441.000000 1 0 0
-8.077554 -8.617478 6.068293 13.279006 0.817727 1.096195 0.010228 -0.001391 -2446820.000000 1 0 0
-7.811154 -5.673478 -7.414207 12.172631 0.628180 2.225707 0.010925 -0.005163 1440790.000000 1 0 0
9.343446 -1.557078 6.849793 11.689488 -0.165132 0.944709 0.004382 -0.006282 380775.000000 1 0 0
-4.038754 -0.324578 -4.857507 6.325525 0.080194 2.446386 -0.000670 -0.003823 -611429.000000 1 0 0
8.952546 1.298622 -4.621307 10.158296 0.144051 2.043089 -0.000868 0.004482 -1689710.000000 1 0 0
-1.702154 -10.728878 10.759093 15.289350 1.413456 0.790207 -0.008985 -0.002235 -587231.000000 1 0 0
-12.815054 0.344322 -2.547007 13.070249 -0.026862 1.766922 -0.002278 -0.001491 -794735.000000 1 0 0
-9.841554 -4.926878 -6.033507 12.551236 0.464143 2.072261 0.007326 -0.006987 -729616.000000 1 0 0
-5.842954 8.491222 -0.047907 10.307437 -0.968090 1.575444 -0.006171 0.002517 453900.000000 1 0 0
6.341146 9.635822 0.429693 11.543129 0.988762 1.533563 0.003666 -0.000156 447650.000000 1 0 0
-0.448054 -12.094378 -0.046307 12.102763 1.533767 1.574623 0.004021 0.002540 -249449.000000 1 0 0
6.177646 4.732622 2.351693 8.129666 0.653718 1.277329 -0.001004 0.002869 387150.000000 1 0 0
3.469446 -7.518978 -8.327907 11.744195 -1.138482 2.359029 -0.004016 -0.000487 973146.000000 1 0 0
-6.541454 -9.931278 4.484893 12.709649 0.988349 1.210156 0.007457 -0.000163 -2340090.000000 1 0 0
-0.123554 6.564322 -9.131007 11.246372 -1.551976 2.518208 -0.000023 0.001415 -2431110.000000 1 0 0
-17.378254 -2.739278 4.571693 18.177121 0.156340 1.316558 0.006393 0.001116 529440.000000 1 0 0
-8.405154 0.951222 -8.996207 12.348408 -0.112692 2.386972 0.004200 -0.004877 1153910.000000 1 0 0
-10.105354 -5.785878 -11.825607 16.596372 0.519995 2.363910 0.007831 -0.001548 427234.000000 1 0 0
2.288746 9.376222 6.575893 11.678795 1.331377 0.972709 -0.002842 0.006344 183086.000000 1 0 0
-11.323654 1.756422 -1.146507 11.516277 -0.153885 1.670517 -0.002180 -0.002277 -1707420.000000 1 0 0
-5.961454 -5.329078 -3.139207 8.590264 0.729447 1.944899 0.012675 -0.002294 750366.000000 1 0 0
-6.821854 -8.345178 1.283593 10.854829 0.885499 1.452268 0.009221 -0.000751 -787216.000000 1 0 0
-0.071454 11.128022 -7.798207 13.588599 -1.564375 2.182031 0.003625 0.000040 -230622.000000 1 0 0
-3.061154 9.305622 -4.144807 10.636949 -1.252989 1.971060 0.000052 -0.000651 -481820.000000 1 0 0
3.459446 -4.878778 9.319193 11.073283 -0.954002 0.570571 -0.001948 -0.000355 -826796.000000 1 0 0
-8.929954 1.560622 -0.305407 9.070441 -0.173015 1.604473 -0.006820 -0.001786 -1411580.000000 1 0 0
2.457546 3.543822 -10.216907 11.089788 0.964464 2.742180 -0.002969 0.001152 278057.000000 1 0 0
-13.601154 0.486122 1.238893 13.666110 -0.035726 1.480017 -0.003750 -0.000974 -1733020.000000 1 0 0
9.329446 -12.578978 -5.244907 16.516001 -0.932648 1.893957 0.008373 -0.000152 -2390080.000000 1 0 0
-4.812454 9.489122 -8.309107 13.499793 -1.101441 2.233815 -0.003018 -0.002309 -1478740.000000 1 0 0
-2.244454 7.089622 8.450693 11.256754 -1.264196 0.721642 -0.001294 0.005344 -1692460.000000 1 0 0
-10.692554 -1.349078 -4.335807 11.616796 0.125507 1.953291 0.002974 -0.005334 -4639310.000000 1 0 0
2.776646 -7.211278 9.607093 12.329174 -1.203251 0.677382 -0.005483 0.001783 -1153710.000000 1 0 0
-16.070754 -6.714878 3.527393 17.770797 0.395784 1.370975 -0.005507 0.003403 -762394.000000 1 0 0
-10.768554 -0.243578 6.225393 12.440925 0.022616 1.046740 -0.007657 -0.000271 -2373390.000000 1 0 0
-8.187254 9.850122 9.525393 15.962116 -0.877328 0.931352 -0.002627 -0.001202 622814.000000 1 0 0
0.166346 -5.922478 -3.748807 7.011204 -1.542717 2.134935 -0.002155 0.002087 676357.000000 1 0 0
4.901746 1.583722 -2.897807 5.910379 0.312506 2.083220 -0.004422 0.003360 -231056.000000 1 0 0
0.400646 5.399822 3.988393 6.725018 1.496736 0.935932 -0.001061 0.005480 -2543820.000000 1 0 0
5.993346 -11.324678 -1.659607 12.919862 -1.084040 1.699606 -0.008480 -0.002474 -3091330.000000 1 0 0
6.326046 -13.550778 5.241093 15.846498 -1.134027 1.233707 -0.004295 0.001662 108449.000000 1 0 0
8.226546 -8.347478 -6.072507 13.199689 -0.792695 2.048847 0.002803 -0.001534 599859.000000 1 0 0
-13.047954 -1.291978 -4.504207 13.863845 0.098696 1.901690 0.002494 -0.002920 -2468070.000000 1 0 0
-6.784454 -1.472878 -7.009307 9.865525 0.213779 2.360983 0.004202 -0.002761 -851802.000000 1 0 0
-5.791354 12.849422 -4.543807 14.808565 -1.147353 1.882664 -0.009893 0.001933 488529.000000 1 0 0
-4.338154 7.064622 -6.585707 10.587729 -1.020097 2.242108 -0.002013 -0.001478 -3452180.000000 1 0 0
-9.382054 -3.623178 -8.097007 12.911696 0.368538 2.248629 0.008295 -0.002815 852017.000000 1 0 0
-2.197954 -6.428978 9.192793 11.431107 1.241371 0.636483 -0.003756 0.000550 -184606.000000 1 0 0
7.580346 -6.033478 9.954993 13.891234 -0.672259 0.771826 0.006042 0.001344 -470658.000000 1 0 0
9.658846 -5.024578 12.041593 16.233904 -0.479681 0.735112 0.008917 -0.002943 -767945.000000 1 0 0
-6.540954 2.881622 -8.963907 11.464705 -0.414968 2.468456 -0.002123 -0.004377 -71701.800000 1 0 0
7.571246 5.454422 8.918093 12.907628 0.624295 0.808040 -0.001123 -0.002126 397918.000000 1 0 0
12.739446 3.199822 11.007193 17.137404 0.246084 0.873313 -0.000278 -0.002382 -776076.000000 1 0 0
-7.471554 -7.210278 -3.951107 11.109612 0.767604 1.934403 0.011535 -0.005759 -642714.000000 1 0 0
2.239346 1.548622 -5.744607 6.357154 0.605033 2.699000 -0.001238 -0.001321 472760.000000 1 0 0
12.717446 6.930122 -7.248407 16.195661 0.498943 2.034823 0.006766 0.001629 298616.000000 1 0 0
0.945946 -7.923678 1.036293 8.046949 -1.451977 1.441657 -0.003350 0.002594 -158532.000000 1 0 0
-10.235154 -5.978778 -8.498907 14.585458 0.528677 2.192840 0.009913 -0.004819 -1423210.000000 1 0 0
-6.688854 0.240822 3.126493 7.387403 -0.035988 1.133801 -0.002752 -0.001850 -956823.000000 1 0 0
10.673446 -7.964078 1.182893 13.369676 -0.641038 1.482205 -0.005559 -0.000537 30407.200000 1 0 0
6.349646 1.024622 10.533093 12.341552 0.159988 0.548196 0.002093 -0.002514 -246928.000000 1 0 0
-12.947854 5.414222 2.009893 14.177461 -0.396059 1.428550 -0.007242 0.001621 713773.000000 1 0 0
2.057846 7.402122 3.690693 8.523341 1.299636 1.122967 -0.002251 0.004303 413133.000000 1 0 0
10.091446 -9.468578 -0.884707 13.866289 -0.753565 1.634642 -0.001270 -0.000493 976412.000000 1 0 0
6.664746 -11.724478 -9.144907 16.294525 -1.053901 2.166662 -0.007297 0.001584 -862813.000000 1 0 0
10.357346 3.498522 11.838493 16.114099 0.325749 0.745621 0.001109 -0.001876 -591710.000000 1 0 0
-11.038154 -3.159578 -1.752107 11.614373 0.278787 1.722231 -0.001817 -0.002522 -1267550.000000 1 0 0
12.424346 0.893722 6.847193 14.214329 0.071809 1.068191 0.004664 -0.001255 -134176.000000 1 0 0
-9.570254 9.193122 3.161493 13.641785 -0.765301 1.336919 -0.011327 0.002527 312914.000000 1 0 0
-6.643454 7.679422 -8.864907 13.479450 -0.857602 2.288506 -0.002462 -0.001621 -1550600.000000 1 0 0
8.608346 5.404922 12.059393 15.771676 0.560660 0.700339 0.000359 -0.001889 -1441160.000000 1 0 0
1.288646 4.926722 -2.631407 5.732146 1.314965 2.047735 -0.001184 -0.001124 599955.000000 1 0 0
1.456646 0.428222 9.523093 9.643365 0.285923 0.158101 0.003683 -0.002242 941004.000000 1 0 0
2.532646 12.637022 -3.925207 13.472782 1.373002 1.866427 0.008017 -0.004706 429574.000000 1 0 0
2.211846 0.551622 13.027793 13.225730 0.244409 0.173226 0.003945 -0.004688 -84953.600000 1 0 0
-12.145154 -1.746978 0.938293 12.305978 0.142862 1.494475 -0.005453 0.000351 -20551.500000 1 0 0
3.282246 8.741022 -1.206507 9.414577 1.211588 1.699303 0.004630 -0.001082 138486.000000 1 0 0
3.589046 -2.803978 -5.895307 7.449711 -0.663209 2.483806 -0.000021 -0.001393 -1047180.000000 1 0 0
-7.678754 -7.193778 9.272793 14.024920 0.752801 0.848425 0.002747 -0.001391 -437379.000000 1 0 0
-7.120154 10.914622 -3.293207 13.441383 -0.992771 1.818321 -0.007494 0.004382 404232.000000 1 0 0
0.359146 0.419222 2.557093 2.616000 0.862427 0.212617 0.001019 -0.001281 -2424360.000000 1 0 0
-7.067554 4.609322 -1.967407 8.664113 -0.577907 1.799870 -0.003836 -0.001857 -800047.000000 1 0 0
-6.656854 -3.827178 -5.867807 9.663962 0.521776 2.223309 0.011057 -0.003049 460001.000000 1 0 0
2.975446 -6.131078 13.425393 15.056048 -1.118973 0.469722 -0.001130 -0.002245 -106925.000000 1 0 0
-5.381654 -0.547478 -11.788507 12.970383 0.101382 2.711384 0.000850 -0.004696 -791380.000000 1 0 0
11.830146 2.510922 -0.953307 12.131194 0.209144 1.649461 0.001816 0.000968 -1132560.000000 1 0 0
6.055146 -11.009178 10.701493 16.504204 -1.067946 0.865302 -0.002682 -0.001524 588646.000000 1 0 0
-8.260354 6.290922 -10.427707 14.715510 -0.650871 2.358337 0.000116 -0.001496 619865.000000 1 0 0
3.086646 7.826322 11.278093 14.070326 1.195133 0.640911 0.000953 0.004137 1294660.000000 1 0 0
-6.084354 -10.071378 -0.541307 11.779008 1.027351 1.616768 0.010988 0.001730 95362.000000 1 0 0
11.281346 4.309122 6.094593 13.527060 0.364866 1.103417 0.003911 -0.001018 -277247.000000 1 0 0
-7.994454 10.788122 1.508493 13.511862 -0.933053 1.458921 -0.007411 0.002999 1006570.000000 1 0 0
4.278246 -2.755278 -3.545307 6.201947 -0.572160 2.179305 0.000220 0.000129 -4400280.000000 1 0 0
6.434046 6.405322 6.395493 11.105288 0.783161 0.957096 -0.000477 0.002016 -4860170.000000 1 0 0
-0.479954 10.426022 -10.190907 14.587216 -1.524795 2.344262 0.000398 0.000562 -120651.000000 1 0 0
13.793246 6.739322 -2.522407 15.557462 0.454483 1.733650 0.000037 0.000229 974354.000000 1 0 0
1.335046 9.577922 -6.189207 11.481516 1.432301 2.140115 0.002975 -0.000691 685829.000000 1 0 0
0.676846 7.323122 7.409793 10.439888 1.478632 0.781642 -0.003651 0.007774 214246.000000 1 0 0
12.261746 6.313722 1.848893 13.915168 0.475506 1.437533 0.003216 0.000559 -911996.000000 1 0 0
-6.841454 6.689422 -3.095907 10.056764 -0.774163 1.883722 -0.006756 -0.001726 228570.000000 1 0 0
1.058446 9.744222 11.202193 14.884868 1.462598 0.718811 -0.000401 0.003505 -600578.000000 1 0 0
-3.702354 13.618922 -10.810107 17.777539 -1.305358 2.224432 0.002994 -0.007750 -531051.000000 1 0 0
-10.061754 -5.526978 -2.241207 11.696555 0.502310 1.763601 -0.000357 -0.001828 -551777.000000 1 0 0
-4.042854 3.921622 -12.462907 13.676544 -0.770178 2.717133 -0.001349 -0.002732 74403.200000 1 0 0
-3.150854 8.551322 2.643293 9.488940 -1.217768 1.288496 -0.001199 0.007139 -2080760.000000 1 0 0
7.192246 8.869222 7.161793 13.478975 0.889431 1.010626 -0.000451 0.002794 -788932.000000 1 0 0
-1.388054 -2.252178 -8.246307 8.660288 1.018466 2.831148 -0.004802 -0.003935 -1814310.000000 1 0 0
0.775946 -1.396778 4.880293 5.135206 -1.063721 0.316406 0.002688 -0.000209 -736615.000000 1 0 0
2.626246 -8.664178 -6.084907 10.908311 -1.276484 2.162557 -0.006023 0.001011 302331.000000 1 0 0
5.398946 3.993922 8.729493 11.013813 0.636915 0.655743 0.000124 -0.001607 421042.000000 1 0 0
6.311846 -7.482578 -2.952207 10.224671 -0.870065 1.863700 -0.001637 -0.002792 839133.000000 1 0 0
1.580546 2.188722 -8.289107 8.717679 0.945371 2.826730 -0.001196 -0.000689 260819.000000 1 0 0
-5.473954 11.009422 -0.582407 12.308970 -1.109386 1.618130 -0.005574 0.001634 814301.000000 1 0 0
-5.378754 3.288722 -3.297907 7.114976 -0.548780 2.052756 -0.004288 0.000204 175981.000000 1 0 0
1.955146 13.689822 -6.435407 15.252812 1.428938 2.006354 0.002246 -0.001265 620979.000000 1 0 0
-5.180454 -2.619778 2.655793 6.383853 0.468201 1.141735 -0.001663 -0.001499 1028970.000000 1 0 0
10.457646 -3.426778 -2.015207 11.187771 -0.316655 1.751911 -0.003155 0.004464 269457.000000 1 0 0
2.428946 -3.371878 7.053293 8.186469 -0.946540 0.532424 -0.001368 0.000016 -1464510.000000 1 0 0
-2.960054 9.933822 -11.625307 15.575317 -1.281196 2.413422 0.001252 0.000481 -2190980.000000 1 0 0
0.611146 -2.096878 9.277693 9.531316 -1.287197 0.231207 0.000795 -0.002045 1131060.000000 1 0 0
9.475046 2.607922 4.955793 11.006254 0.268590 1.103728 0.002018 -0.000855 -474987.000000 1 0 0
13.345846 2.231022 -5.203407 14.497052 0.165638 1.937916 0.002174 0.001196 -1032870.000000 1 0 0
-6.374454 3.686222 7.868993 10.776964 -0.524296 0.752229 -0.007467 0.003799 -54010.800000 1 0 0
10.516246 0.140422 1.836293 10.676288 0.013352 1.397939 -0.000045 0.003810 1303870.000000 1 0 0
15.254746 6.868422 -4.598407 17.350154 0.423060 1.839037 0.000306 0.001124 -329339.000000 1 0 0
8.001946 -4.963578 -9.367107 13.281978 -0.555210 2.353571 0.002177 0.000507 979153.000000 1 0 0
4.375546 5.679522 -2.124907 7.477807 0.914362 1.858928 0.001828 -0.000473 82416.400000 1 0 0
-1.593154 -10.560478 1.466093 10.780133 1.421065 1.434374 0.003685 0.002591 -518873.000000 1 0 0
-2.854354 12.246122 -12.838607 17.970661 -1.341802 2.366592 0.001336 -0.002836 508811.000000 1 0 0
8.253346 4.342922 -9.700607 13.456614 0.484388 2.375868 0.003365 0.000591 -892793.000000 1 0 0
4.002046 7.689422 -8.806207 12.356895 1.090914 2.364072 0.000846 0.001333 -1085510.000000 1 0 0
-1.784754 -5.004478 -2.372507 5.818844 1.228226 1.990761 0.003913 0.000915 -604463.000000 1 0 0
-3.165354 -9.160978 7.024593 11.970292 1.238113 0.943651 0.001654 0.002784 545497.000000 1 0 0
1.019246 7.332922 -1.364307 7.528077 1.432685 1.753033 0.001327 -0.000416 999671.000000 1 0 0
0.478946 -0.458278 -2.271507 2.366253 -0.763350 2.857654 -0.001854 -0.001667 -2880230.000000 1 0 0
4.186346 -6.757878 7.520993 10.943479 -1.016179 0.813089 -0.001128 0.000526 -1377040.000000 1 0 0
-13.817854 3.831422 6.216793 15.628864 -0.270485 1.161704 -0.005843 -0.000224 -256058.000000 1 0 0
4.317246 6.130322 12.669793 14.722198 0.957227 0.534367 0.004405 0.000185 -1959050.000000 1 0 0
8.162046 10.075922 -7.254207 14.858220 0.889955 2.080855 0.008645 -0.001636 157119.000000 1 0 0
12.545346 5.290222 9.435493 16.565044 0.399062 0.964774 0.002399 0.000396 -331086.000000 1 0 0
7.489346 4.041922 0.321493 8.516501 0.494893 1.533038 -0.000830 0.005149 -1603860.000000 1 0 0
-10.818254 -7.618078 -0.949807 13.265439 0.613531 1.642458 0.002191 -0.000807 -1721660.000000 1 0 0
10.429246 6.796022 0.135993 12.448838 0.577521 1.559872 0.002425 0.001038 143062.000000 1 0 0
14.647746 3.683822 3.978593 15.619097 0.246384 1.313232 0.007831 0.000065 750489.000000 1 0 0
2.172946 5.491722 8.199893 10.105392 1.194023 0.624189 -0.001925 0.003135 -1562010.000000 1 0 0
4.342646 0.203822 11.784293 12.560640 0.046901 0.353427 0.003209 -0.002799 -2441440.000000 1 0 0
-1.158854 -1.731278 -0.647007 2.181487 0.980929 1.871916 -0.002065 -0.002886 -1347490.000000 1 0 0
3.025546 -5.165778 -9.603707 11.316819 -1.040965 2.584172 -0.003850 -0.000766 135418.000000 1 0 0
-4.016254 -5.345078 -1.345307 6.819825 0.926404 1.769363 0.005395 -0.002206 -1731650.000000 1 0 0
-1.156954 -8.785078 8.600793 12.348675 1.439854 0.800295 -0.001045 0.000029 -343024.000000 1 0 0
3.823846 8.622922 -5.930307 11.142043 1.153402 2.132048 0.007064 -0.000952 14784.600000 1 0 0
-14.113054 -1.764378 -2.540007 14.447940 0.124372 1.747519 -0.007317 -0.002364 -751594.000000 1 0 0
8.740446 -10.643478 -6.834807 15.375097 -0.883260 2.031454 -0.000348 -0.002333 562207.000000 1 0 0
14.856946 6.216622 1.543193 16.178896 0.396294 1.475268 0.006978 0.001145 -907634.000000 1 0 0
-5.816854 0.513222 -8.336707 10.178402 -0.088002 2.530564 0.000885 -0.004473 -739278.000000 1 0 0
-8.150754 -4.382178 -12.962307 15.926697 0.493305 2.521583 0.007023 -0.003268 812979.000000 1 0 0
0.932246 -10.707478 11.941293 16.065916 -1.483950 0.732853 -0.007735 -0.002136 -854240.000000 1 0 0
0.379746 11.810322 3.409893 12.298588 1.538654 1.289856 0.004471 0.003877 -935625.000000 1 0 0
5.056246 -13.268478 -3.942107 14.736293 -1.206713 1.841604 -0.011904 0.001810 217767.000000 1 0 0
-7.484154 1.637622 -6.841607 10.271415 -0.215417 2.299740 -0.000607 -0.002318 797407.000000 1 0 0
1.499246 2.725422 4.119693 5.162125 1.067879 0.646725 -0.001342 0.000646 -1292380.000000 1 0 0
17.296146 5.586922 2.041393 18.290370 0.312436 1.458953 0.008371 -0.002389 -612539.000000 1 0 0
2.527346 -8.086278 -3.517907 9.173388 -1.267868 1.964369 -0.003209 0.000567 668597.000000 1 0 0
-0.281154 -9.401978 -0.574707 9.423722 1.540902 1.631819 0.006417 0.003762 -495489.000000 1 0 0
0.696246 11.908522 -5.520007 13.144129 1.512397 2.004197 0.005727 -0.002315 -697408.000000 1 0 0
5.992346 -5.081778 7.790793 11.064770 -0.703358 0.789630 -0.000849 -0.000798 -1570050.000000 1 0 0
-6.074354 -1.724678 -9.403807 11.327130 0.276647 2.550266 0.004457 -0.004779 -771052.000000 1 0 0
2.196946 -1.253778 11.308493 11.587948 -0.518590 0.220062 0.002111 -0.004247 11230.800000 1 0 0
17.886846 2.349722 -6.143607 19.057921 0.130618 1.899023 0.002962 -0.000788 -1487940.000000 1 0 0
-8.783654 4.850722 7.943193 12.797515 -0.504565 0.901184 -0.005717 -0.000685 -866410.000000 1 0 0
11.542446 -7.011278 -5.003307 14.402054 -0.545868 1.925596 -0.001365 -0.000251 449192.000000 1 0 0
10.884446 0.487522 8.853093 14.038735 0.044761 0.888446 0.004718 -0.003013 -89538.900000 1 0 0
-8.447754 -7.379178 -1.534607 11.321300 0.717984 1.706765 0.009626 -0.003954 -1320510.000000 1 0 0
10.326446 -10.401178 -3.371507 15.039516 -0.789004 1.796894 0.008310 -0.002825 -294749.000000 1 0 0
7.598646 -13.889178 -3.894007 16.303741 -1.070189 1.811969 0.001335 -0.001661 243981.000000 1 0 0
1.533046 -1.132378 -11.687407 11.841790 -0.636195 2.979941 -0.001276 -0.005070 -53973.500000 1 0 0
-11.948354 -2.495178 -6.331907 13.750714 0.205872 2.049330 0.004825 -0.003089 -109946.000000 1 0 0
2.649446 -12.176778 -6.451707 14.032748 -1.356554 2.048522 -0.007545 0.002814 -327831.000000 1 0 0
-5.515454 1.467222 1.160793 5.824123 -0.259999 1.370145 -0.002746 -0.001778 616566.000000 1 0 0
0.048846 6.928522 -3.835307 7.919368 1.563746 2.076353 0.002344 -0.002260 915061.000000 1 0 0
5.528646 -11.930178 3.559293 13.622175 -1.136841 1.306441 -0.012345 0.001754 -2186980.000000 1 0 0
-4.314654 -9.151978 1.060493 10.173475 1.130253 1.466366 0.009716 0.000088 -1340990.000000 1 0 0
7.195646 -6.194478 -4.823807 10.649789 -0.710768 2.040866 0.003461 -0.002368 20554.400000 1 0 0
-6.885154 -6.110178 2.197793 9.464139 0.725834 1.336434 0.006302 -0.001776 -89394.100000 1 0 0
-6.307654 -0.828978 7.060093 9.503611 0.130675 0.733426 -0.005013 0.001766 -2007770.000000 1 0 0
4.289946 -4.988278 3.122693 7.282703 -0.860522 1.127652 -0.001581 0.000211 -228286.000000 1 0 0
-2.517854 10.565022 -8.659907 13.890762 -1.336841 2.243917 0.001235 -0.002109 919551.000000 1 0 0
-2.346954 -4.774578 2.801393 6.012703 1.113930 1.086131 0.002464 0.000905 102504.000000 1 0 0
15.287246 5.104622 6.204793 17.270104 0.322273 1.203301 0.005518 -0.004060 726470.000000 1 0 0
6.898246 0.389722 0.173593 6.911426 0.056436 1.545677 0.002152 0.002068 4717700.000000 1 0 0
-9.697654 9.070522 0.475093 13.287008 -0.751996 1.535033 -0.009941 -0.001464 -1568200.000000 1 0 0
7.081746 10.534322 -2.659407 12.969021 0.978935 1.777320 0.003304 -0.000506 -305308.000000 1 0 0
1.522846 -4.172878 -5.448907 7.030118 -1.220875 2.457639 -0.002304 0.000974 116453.000000 1 0 0
0.817746 -8.116978 -7.823407 11.303086 -1.470390 2.335257 -0.002266 0.002099 -634871.000000 1 0 0
-10.445554 0.347622 -10.393407 14.739517 -0.033267 2.353415 0.005019 -0.005119 -2821290.000000 1 0 0
5.808246 -2.478178 0.442893 6.330343 -0.403281 1.500776 -0.003532 0.002635 21315.100000 1 0 0
-3.459154 5.294722 -1.040107 6.409497 -0.992090 1.733793 -0.001413 -0.002723 1132330.000000 1 0 0
-0.444954 4.666822 -5.019007 6.867870 -1.475740 2.390283 -0.000897 -0.002598 -496055.000000 1 0 0
4.063846 -9.683478 9.947193 14.464828 -1.173451 0.812506 -0.005517 -0.001505 -1985900.000000 1 0 0
7.309146 -13.494278 -0.991107 15.378604 -1.074388 1.635288 -0.002575 0.001871 398031.000000 1 0 0
12.925046 0.108622 0.445493 12.933177 0.008404 1.536344 0.000560 -0.000359 544566.000000 1 0 0
9.211446 2.475622 -0.753507 9.568031 0.262551 1.649631 -0.000352 0.004102 -255254.000000 1 0 0
-0.687254 -5.780378 4.319693 7.248782 1.452458 0.932386 -0.001005 0.001942 -49831.100000 1 0 0
11.519646 -3.668578 3.195893 12.504976 -0.308308 1.312359 -0.000599 -0.001343 -2315610.000000 1 0 0
1.637346 -8.177878 11.733493 14.395605 -1.373193 0.617938 -0.006188 -0.000445 251571.000000 1 0 0
9.487746 -6.003678 -6.159907 12.806480 -0.564176 2.072590 0.004420 -0.002143 -888082.000000 1 0 0
3.111446 6.365322 -0.209407 7.088178 1.116139 1.600344 -0.000103 0.001400 -1634710.000000 1 0 0
6.457846 -1.340278 11.263793 13.052706 -0.204637 0.529723 0.001372 -0.003425 504747.000000 1 0 0
-4.926754 -7.616978 -3.783507 9.828845 0.996665 1.965938 0.008599 -0.001737 -319043.000000 1 0 0
-3.445254 -8.491678 -5.798407 10.844349 1.185368 2.134942 0.006318 -0.000155 -303730.000000 1 0 0
9.830146 5.270522 2.167893 11.362655 0.492155 1.378828 0.001803 -0.000676 -51683.000000 1 0 0
8.861746 -1.478778 0.190493 8.986301 -0.165349 1.549597 -0.002206 0.004704 1704640.000000 1 0 0
-3.740754 9.677422 9.369793 13.979941 -1.201943 0.836276 0.003925 0.002647 -176654.000000 1 0 0
-14.402954 -3.494578 -6.003807 15.990712 0.238030 1.955685 0.001243 -0.003959 -1968810.000000 1 0 0
10.566846 6.345722 -6.137307 13.769276 0.540810 2.032780 0.002438 -0.002424 -2199940.000000 1 0 0
-1.803254 4.397722 2.870493 5.552604 -1.181662 1.027497 -0.002814 0.000626 779264.000000 1 0 0
7.017046 -3.747178 2.529593 8.347402 -0.490485 1.262916 -0.001827 -0.001062 -1839760.000000 1 0 0
8.227446 -11.055778 -1.790607 13.897027 -0.931033 1.700004 0.001925 -0.002887 -1948630.000000 1 0 0
4.557246 0.501022 1.827793 4.935619 0.109500 1.191435 -0.001468 0.002467 755282.000000 1 0 0
-10.631954 2.211922 3.964093 11.560496 -0.205119 1.220794 -0.010914 0.000774 248460.000000 1 0 0
-0.812154 -3.038378 4.419793 5.424565 1.309604 0.618458 0.001056 -0.000085 622307.000000 1 0 0
8.583946 -8.718778 -8.644007 14.980657 -0.793191 2.185861 -0.001032 0.002136 -215585.000000 1 0 0
12.009146 -4.727078 0.863593 12.934862 -0.374997 1.503982 -0.005717 0.001342 308757.000000 1 0 0
2.901246 4.834322 3.512093 6.642491 1.030278 1.013691 -0.003471 0.001687 -320908.000000 1 0 0
6.149146 7.440722 2.028793 9.863688 0.880153 1.363635 -0.000603 0.001082 -558745.000000 1 0 0
-1.872754 -1.221978 -10.278407 10.518845 0.578133 2.927371 -0.001449 -0.003009 2336980.000000 1 0 0
-0.827754 -8.630678 6.028393 10.560081 1.475180 0.963236 -0.001431 0.000375 36066.100000 1 0 0
-4.260154 -0.252778 2.391693 4.892137 0.059266 1.059985 -0.002185 -0.001925 707378.000000 1 0 0
-8.477254 6.307322 -7.912507 13.200527 -0.639669 2.213558 -0.002310 -0.002173 -1373660.000000 1 0 0
6.370446 11.260622 -9.438207 16.014492 1.055958 2.201056 0.007636 -0.000639 312496.000000 1 0 0
-11.039954 -5.702878 3.086093 12.803413 0.476813 1.327362 0.002152 -0.000869 698127.000000 1 0 0
1.664846 -6.340078 3.001693 7.209609 -1.314003 1.141373 -0.005355 0.002550 536659.000000 1 0 0
10.169846 2.185322 7.185193 12.642325 0.211664 0.966304 0.004465 -0.002442 -2552220.000000 1 0 0
-4.140154 -2.693878 -10.747407 11.828128 0.576847 2.710791 0.002615 -0.004930 -3839730.000000 1 0 0
-8.284054 11.870222 6.043693 15.686107 -0.961491 1.175275 -0.000421 0.002527 798003.000000 1 0 0
6.780846 6.031522 -2.961207 9.546092 0.726980 1.886201 0.002551 0.001301 -3140660.000000 1 0 0
3.819246 -9.871278 -2.372207 10.846941 -1.201630 1.791277 -0.004928 -0.002022 -2609220.000000 1 0 0
8.414746 -12.911278 -7.619707 17.192120 -0.993202 2.029972 0.000692 0.000232 135841.000000 1 0 0
-0.940354 9.505522 3.631193 10.218844 -1.472190 1.207516 0.004581 0.005704 -521484.000000 1 0 0
0.581746 -13.269778 4.730793 14.099853 -1.526984 1.228638 0.004093 0.002221 -380747.000000 1 0 0
-11.214754 -6.862078 -5.066207 14.089900 0.549109 1.938596 0.001530 -0.004975 -62419.500000 1 0 0
3.521946 10.327822 -3.388707 11.425907 1.242148 1.871907 0.007460 -0.004197 -623383.000000 1 0 0
11.671846 -8.026478 -7.573507 16.062825 -0.602409 2.061779 0.003339 -0.001132 191216.000000 1 0 0
11.810446 -4.778478 -6.048307 14.103280 -0.384464 2.014025 -0.002930 0.001392 199055.000000 1 0 0
1.290546 -10.286378 -2.710007 10.715373 -1.445987 1.826481 -0.001607 0.002572 -1495980.000000 1 0 0
2.372846 -11.984578 -3.980307 12.849255 -1.375333 1.885747 -0.005916 0.002317 -914357.000000 1 0 0
-7.527254 -5.715278 7.284893 11.932880 0.649413 0.914118 0.004188 -0.000582 -2745470.000000 1 0 0
-7.183554 -1.046278 9.548793 11.994899 0.144632 0.650021 -0.004389 0.001730 -529368.000000 1 0 0
15.980046 2.659522 -7.746107 17.956534 0.164916 2.016819 -0.004232 0.000094 -955288.000000 1 0 0
-2.043454 6.445922 -5.391907 8.648600 -1.263803 2.243935 -0.002287 -0.000682 -592592.000000 1 0 0
7.761146 1.118322 8.338393 11.446171 0.143107 0.754685 0.004688 -0.004273 -1383000.000000 1 0 0
7.895446 8.281822 -3.802207 12.057505 0.809278 1.891611 0.002704 0.000126 314109.000000 1 0 0
8.079146 0.542822 4.021693 9.041088 0.067087 1.109819 0.001137 0.000839 1255240.000000 1 0 0
-6.903454 5.814422 5.529293 10.584813 -0.699976 1.021157 -0.004207 -0.000175 -133409.000000 1 0 0
-6.048654 -1.945578 -4.568907 7.826008 0.311203 2.194211 0.003760 -0.002558 -725168.000000 1 0 0
-15.162454 -2.151678 3.366493 15.680019 0.140967 1.354412 0.003005 0.000121 -1897830.000000 1 0 0
0.895346 1.285822 -10.589407 10.704697 0.962543 2.994696 -0.002980 -0.004085 422176.000000 1 0 0
1.535846 -9.289578 9.383993 13.293397 -1.406948 0.787084 -0.004495 -0.002151 -875797.000000 1 0 0
-0.202854 -6.758578 -1.139307 6.856934 1.540791 1.737725 0.002480 0.002816 934138.000000 1 0 0
-0.524754 -10.251778 -8.430707 13.283492 1.519654 2.258385 -0.002749 0.000515 -107542.000000 1 0 0
-4.304654 6.444522 3.812893 8.637133 -0.981902 1.113578 -0.002040 0.005762 -207699.000000 1 0 0
10.750946 -1.055078 -8.708207 13.875478 -0.097825 2.249259 0.000624 0.001426 1118220.000000 1 0 0
3.102246 -1.040378 6.229193 7.036274 -0.323576 0.483664 0.000039 0.000032 685445.000000 1 0 0
1.864446 -12.341578 6.908793 14.266118 -1.420860 1.065257 -0.000745 0.001541 -525159.000000 1 0 0
2.869046 -4.850978 -1.400107 5.807212 -1.036697 1.814293 0.004837 -0.000068 -1541790.000000 1 0 0
-1.227654 9.538422 -1.584707 9.746790 -1.442794 1.734109 0.001035 -0.001282 684100.000000 1 0 0
4.615746 -2.518278 2.659193 5.892210 -0.499447 1.102567 -0.000678 0.002415 -1540420.000000 1 0 0
17.706846 6.732322 -2.722607 19.138159 0.363331 1.713541 0.006587 0.001885 -395129.000000 1 0 0
-7.089054 3.599422 -5.345807 9.580615 -0.469823 2.162748 -0.002677 -0.002737 -691345.000000 1 0 0
-13.678054 -6.100778 2.481093 15.181057 0.419545 1.406626 -0.011092 -0.000142 -680264.000000 1 0 0
6.740246 -6.100078 3.199593 9.637389 -0.735583 1.232376 -0.002948 -0.001651 -1030920.000000 1 0 0
-4.664754 1.945722 3.712793 6.271411 -0.395170 0.937235 -0.002109 -0.001668 829431.000000 1 0 0
6.772146 -12.233878 -5.702407 15.101231 -1.065227 1.958012 -0.003429 0.000240 -525145.000000 1 0 0
2.964046 -12.292378 3.201193 13.043610 -1.334184 1.322841 -0.003146 -0.000270 51974.700000 1 0 0
3.216046 11.343522 -6.070507 13.261580 1.294532 2.046261 0.003898 0.001078 -485151.000000 1 0 0
-5.542154 -8.490778 6.309593 11.942351 0.992507 1.014155 0.003595 0.003221 -788489.000000 1 0 0
-3.907054 6.518022 6.464993 9.977265 -1.030801 0.865877 -0.000169 0.004375 286680.000000 1 0 0
4.117546 4.219222 -7.093107 9.223242 0.797594 2.448145 -0.000069 0.002481 -1713680.000000 1 0 0
-0.267054 -2.746078 1.647193 3.213333 1.473852 1.032572 0.001431 -0.000817 43245.300000 1 0 0
-13.182654 -1.041978 6.707593 14.827673 0.078878 1.101375 -0.006140 0.002299 -151712.000000 1 0 0
-0.540854 -9.298778 -5.959607 11.057880 1.512698 2.139982 -0.000572 0.001704 497914.000000 1 0 0
2.044246 -1.662878 -3.987807 4.779823 -0.682885 2.557658 -0.000527 0.000049 -603295.000000 1 0 0
11.373546 -1.829678 1.124093 11.574491 -0.159505 1.473525 -0.000875 0.001621 187334.000000 1 0 0
0.479946 -4.239578 -1.882807 4.663618 -1.458070 1.986378 0.002886 -0.000751 -2559900.000000 1 0 0
1.154746 -7.298878 -11.274507 13.480415 -1.413888 2.561409 -0.003864 0.003941 -2513430.000000 1 0 0
-4.565854 4.117222 -9.970807 11.713904 -0.733777 2.589053 -0.003532 -0.003081 89609.200000 1 0 0
-1.071554 5.741222 -1.909207 6.144504 -1.386277 1.886745 0.000063 -0.000413 -158964.000000 1 0 0
-11.249054 1.802522 -3.730907 11.987909 -0.158887 1.887275 0.002483 -0.001799 -58253.100000 1 0 0
-1.661654 -11.350878 4.110993 12.186213 1.425439 1.226698 0.007613 0.000085 -442059.000000 1 0 0
-3.527654 -5.540878 -9.768407 11.771468 1.003856 2.549613 0.000185 -0.000784 -2290210.000000 1 0 0
-12.925754 -3.672578 -8.291007 15.789356 0.276833 2.123630 0.004429 -0.001601 -565600.000000 1 0 0
11.427746 4.422922 0.420093 12.260999 0.369279 1.536527 0.004307 0.004412 148430.000000 1 0 0
-8.836454 -2.397378 -2.888707 9.600780 0.264928 1.876414 0.006275 -0.004914 172696.000000 1 0 0
-2.515554 -6.088578 -6.483107 9.242807 1.178997 2.348187 0.000131 -0.000706 -636235.000000 1 0 0
-0.103954 2.736422 -1.940607 3.356303 -1.532826 2.187315 -0.000217 -0.001283 -315667.000000 1 0 0
8.009846 6.041322 -5.187807 11.294625 0.646207 2.048022 0.003658 -0.000708 -113631.000000 1 0 0
-9.780054 -0.986178 -0.856407 9.866886 0.100496 1.657702 -0.001541 -0.002463 3944.030000 1 0 0
6.026046 0.534622 -8.954107 10.806252 0.088487 2.547406 0.003419 -0.000412 425445.000000 1 0 0
-4.032554 2.334122 7.902093 9.173477 -0.524700 0.532764 -0.004149 0.004180 -276708.000000 1 0 0
-10.210554 -3.387878 1.520793 10.864895 0.320371 1.430362 -0.002115 -0.000926 1509480.000000 1 0 0
-1.848154 -8.088178 -7.891907 11.450611 1.346152 2.331198 -0.000907 -0.000285 229506.000000 1 0 0
-9.412054 -9.865778 4.247093 14.281391 0.808930 1.268842 0.007960 -0.002003 -580022.000000 1 0 0
-1.015954 -10.871478 7.276993 13.121579 1.477616 0.982936 0.000855 -0.000193 -406170.000000 1 0 0
9.332046 3.893522 -3.819307 10.808964 0.395263 1.931942 -0.000216 0.001678 -590801.000000 1 0 0
12.705246 -0.602578 3.092393 13.090045 -0.047392 1.332302 0.000362 -0.002231 99404.700000 1 0 0
6.489746 12.055122 -6.865507 15.315938 1.076950 2.035613 0.005751 0.001131 152934.000000 1 0 0
-11.720454 0.031622 -6.421207 13.364204 -0.002698 2.071996 0.007708 -0.002546 858500.000000 1 0 0
-7.628154 -6.444178 -11.554407 15.271558 0.701461 2.428889 0.007728 -0.002068 -1578810.000000 1 0 0
4.116546 5.972522 6.538493 9.765698 0.967323 0.837212 -0.001898 0.002402 -2922020.000000 1 0 0
-4.252554 -1.355778 -7.392407 8.635394 0.308628 2.598393 -0.000332 -0.005612 15854.900000 1 0 0
9.600746 9.350422 0.781193 13.424417 0.772190 1.512572 0.000658 0.002755 -1862660.000000 1 0 0
-8.828454 3.999122 4.973193 10.893449 -0.425330 1.096705 -0.008954 0.001153 -129126.000000 1 0 0
-7.008254 7.855122 -12.066607 16.013169 -0.842313 2.424231 -0.002044 -0.000097 -1383510.000000 1 0 0
11.160446 -3.686678 7.105693 13.734556 -0.319049 1.027035 0.006237 -0.002779 952821.000000 1 0 0
11.931646 6.874122 6.484193 15.220462 0.522679 1.130709 0.003557 -0.000730 -59835.200000 1 0 0
-10.203954 -0.727078 -14.752107 17.951991 0.071134 2.535277 0.000291 -0.003490 386259.000000 1 0 0
1.889546 -13.039878 12.009593 17.828043 -1.426893 0.831680 -0.003700 0.000014 298974.000000 1 0 0
3.042346 2.986022 13.052893 13.731358 0.776055 0.315665 0.003499 -0.004298 -522043.000000 1 0 0
-2.509454 -1.503778 11.106593 11.485430 0.539864 0.257554 0.001773 -0.000727 59871.800000 1 0 0
2.487146 -10.033778 -8.164707 13.172891 -1.327816 2.239299 -0.008229 0.004507 -806101.000000 1 0 0
13.738846 3.736822 -7.609407 16.143816 0.265565 2.061619 -0.001766 0.001288 -2793990.000000 1 0 0
7.374746 -1.601978 4.960493 9.031041 -0.213902 0.989304 0.002248 -0.001462 404761.000000 1 0 0
-1.204354 8.681422 10.282993 13.511384 -1.432948 0.705849 0.002154 0.003874 -585415.000000 1 0 0
-12.276154 -4.685478 0.960093 13.174955 0.364608 1.497859 -0.001930 -0.002159 151702.000000 1 0 0
-4.939054 4.937122 -5.268007 8.747647 -0.785203 2.217075 -0.004126 -0.001727 -472001.000000 1 0 0
-11.185654 0.301022 2.143093 11.393082 -0.026905 1.381564 -0.008126 0.002225 -2793450.000000 1 0 0
-1.713354 2.480022 -3.964207 4.980063 -0.966229 2.491480 -0.000525 -0.005269 723998.000000 1 0 0
3.122546 -9.906078 13.050093 16.678897 -1.265440 0.672236 -0.002135 -0.001163 -1851980.000000 1 0 0
8.843846 4.776422 -1.554807 10.170803 0.495198 1.724268 -0.001114 0.001269 -1007400.000000 1 0 0
3.991846 2.280022 3.873593 6.011493 0.518951 0.870604 -0.002924 0.003847 -26691.200000 1 0 0
-5.379554 -3.228178 7.485693 9.767105 0.540480 0.697549 0.001178 -0.000197 50713.700000 1 0 0
1.794346 -5.877778 7.657993 9.819002 -1.274506 0.676265 -0.004162 0.000626 -1511040.000000 1 0 0
-5.909954 -6.212478 -9.736907 12.974198 0.810349 2.419588 0.008063 -0.003352 -450309.000000 1 0 0
-11.635354 -5.882978 5.546293 14.168707 0.468127 1.168593 0.002685 -0.001848 -735560.000000 1 0 0
10.531546 6.173622 4.520493 13.017754 0.530213 1.216153 0.003582 0.000296 -769023.000000 1 0 0
1.493546 -3.730478 0.406493 4.038859 -1.189977 1.469980 0.005372 0.000024 -745264.000000 1 0 0
8.823146 4.317322 6.942993 12.028812 0.455065 0.955504 0.001813 0.001233 374941.000000 1 0 0
-7.919154 12.173422 3.604493 14.963207 -0.994050 1.327513 -0.007690 0.001744 -285079.000000 1 0 0
-6.256154 13.259322 -6.955107 16.227218 -1.129937 2.013747 -0.001120 -0.001300 189417.000000 1 0 0
4.506546 -6.878278 -1.164607 8.305178 -0.990785 1.711487 -0.000684 -0.001557 376036.000000 1 0 0
-1.830954 -8.203078 11.127393 13.944954 1.351193 0.646908 -0.007026 -0.004843 -166799.000000 1 0 0
11.521746 8.888622 -5.851207 15.684223 0.657098 1.953105 0.005383 -0.002130 308771.000000 1 0 0
-3.329754 -2.876478 -1.825507 4.763808 0.712492 1.964058 0.005448 -0.002391 -3726170.000000 1 0 0
-2.031854 5.884822 4.800693 7.861693 -1.238341 0.913923 -0.001844 0.004713 -632212.000000 1 0 0
0.289446 -11.493178 -5.791607 12.873214 -1.545618 2.037445 -0.004936 -0.000991 -361790.000000 1 0 0
-8.843254 6.306222 -1.409907 10.952599 -0.619471 1.699883 -0.005307 0.000287 -235870.000000 1 0 0
2.882946 -0.063378 3.906993 4.855923 -0.021980 0.635823 -0.000051 0.000871 216015.000000 1 0 0
-9.972654 3.934022 -0.847007 10.753966 -0.375740 1.649640 -0.002654 0.000123 28201.900000 1 0 0
6.552546 5.348622 13.694193 16.095792 0.684581 0.553303 0.006539 -0.000238 -1016840.000000 1 0 0
-8.722454 -1.658778 5.713793 10.558417 0.187929 0.998980 -0.005050 -0.000075 -237398.000000 1 0 0
12.865246 -1.760778 -1.474807 13.068663 -0.136018 1.683888 0.001111 0.005030 -1157780.000000 1 0 0
5.213346 -5.667278 5.362593 9.383732 -0.827093 0.962491 -0.002706 -0.001785 210444.000000 1 0 0
-9.047654 -1.260078 3.233293 9.690306 0.138381 1.230610 -0.006531 -0.000295 719582.000000 1 0 0
2.043546 5.381022 5.639793 8.058458 1.207851 0.795595 -0.002501 0.003323 -1257860.000000 1 0 0
9.193346 3.078722 -7.527807 12.274527 0.323147 2.231012 0.001487 0.000632 -799602.000000 1 0 0
2.166546 -2.297578 -1.492407 3.492859 -0.814742 2.012272 0.003760 -0.000898 96565.200000 1 0 0
-6.255354 0.405022 -3.884707 7.374581 -0.064658 2.125592 -0.002086 0.000306 -1077670.000000 1 0 0
-4.054154 4.159522 5.076993 7.714509 -0.798226 0.852491 -0.002041 0.001072 581261.000000 1 0 0
-6.429554 1.803522 -12.511907 14.182372 -0.273477 2.651343 -0.002515 -0.005230 -591384.000000 1 0 0
-0.156454 2.940622 6.294293 6.949090 -1.517642 0.437598 -0.000381 0.000711 1121570.000000 1 0 0
-8.839254 9.348922 -2.058507 13.029666 -0.813413 1.729447 -0.010149 0.002608 -356922.000000 1 0 0
-1.400954 -3.737678 -6.217107 7.388189 1.212184 2.570837 -0.002578 -0.000141 234839.000000 1 0 0
-3.270654 7.096922 -2.829607 8.310846 -1.138952 1.918215 -0.002576 0.002201 1092380.000000 1 0 0
6.910446 -0.294878 -4.316607 8.153178 -0.042645 2.128735 0.000098 0.004185 -234952.000000 1 0 0
-5.171854 -10.903978 6.869793 13.886644 1.127912 1.053301 0.004976 0.000802 26002.500000 1 0 0
9.780246 8.413622 -1.580207 12.997665 0.710424 1.692674 -0.000039 0.001147 -282818.000000 1 0 0
13.651646 4.745622 -4.370007 15.099183 0.334555 1.864417 0.004049 -0.000684 766804.000000 1 0 0
4.621046 1.055922 -6.834307 8.317259 0.224646 2.535187 -0.001259 0.001326 -438668.000000 1 0 0
9.051846 -4.749778 3.492593 10.802523 -0.483236 1.241568 -0.001774 -0.002683 -454942.000000 1 0 0
-8.720354 -3.312678 -0.571407 9.345850 0.363041 1.631975 0.002383 -0.003494 800709.000000 1 0 0
-8.602054 -4.216678 -10.375007 14.121490 0.455772 2.396015 0.006696 -0.006007 -224797.000000 1 0 0
10.448246 -1.191878 10.696593 15.000117 -0.113583 0.776885 0.003133 -0.001230 2164820.000000 1 0 0
2.322046 -11.624478 9.839793 15.405905 -1.373637 0.877985 -0.004129 -0.004374 997212.000000 1 0 0
-6.289454 -10.607078 1.929793 12.481644 1.035578 1.415563 0.010854 0.000995 -808672.000000 1 0 0
-3.748854 -1.225178 6.806993 7.867027 0.315872 0.525136 0.002778 0.001830 250196.000000 1 0 0
4.859046 -7.594278 3.694993 9.743529 -1.001604 1.181837 -0.004819 0.000071 -140169.000000 1 0 0
11.426446 -9.474478 -5.517307 15.835722 -0.692277 1.926669 0.007408 0.000553 704066.000000 1 0 0
11.432846 1.115422 11.379693 16.169463 0.097255 0.790096 0.004161 -0.000670 -314802.000000 1 0 0
-10.178754 -3.513278 4.421593 11.640474 0.332355 1.181166 -0.002145 -0.000251 1231850.000000 1 0 0
2.113446 8.747822 9.118593 12.811705 1.333742 0.778825 -0.001284 0.004738 78107.000000 1 0 0
6.611746 8.811722 4.084893 11.749382 0.927081 1.215713 0.000099 0.003505 771719.000000 1 0 0
-4.287454 3.613822 0.616993 5.641157 -0.700348 1.461204 -0.000194 -0.002847 -987266.000000 1 0 0
4.970346 6.922122 4.266893 9.530293 0.948067 1.106584 -0.001520 0.003257 -905327.000000 1 0 0
-8.177054 13.328622 1.234193 15.685650 -1.020512 1.492032 -0.013962 0.003959 378665.000000 1 0 0
8.716746 8.152722 -9.211107 15.076241 0.751976 2.228080 0.006415 -0.001792 -545506.000000 1 0 0
7.174846 1.963722 6.070493 9.601328 0.267153 0.886335 0.001631 -0.001469 -1322570.000000 1 0 0
11.541146 -6.134978 2.958993 13.401181 -0.488587 1.348161 -0.004530 0.000585 -532000.000000 1 0 0
11.372946 4.743622 -2.251807 12.526631 0.395158 1.751540 0.001655 0.001512 -301493.000000 1 0 0
-4.039354 14.376722 -5.882907 16.050393 -1.296893 1.946070 -0.002633 0.001820 365277.000000 1 0 0
7.298446 -3.040378 6.862493 10.469242 -0.394716 0.855964 0.000731 -0.003349 22438.900000 1 0 0
-7.955054 -0.562078 0.971393 8.033830 0.070540 1.449587 -0.002885 -0.001331 384923.000000 1 0 0
-3.184754 0.998522 10.717193 11.224880 -0.303825 0.301907 0.000026 0.003318 25920.200000 1 0 0
7.060546 -1.200778 -1.918307 7.414383 -0.168457 1.832501 -0.001689 0.004490 -1571670.000000 1 0 0
-7.695554 5.518322 3.108793 9.966846 -0.622097 1.253590 -0.005645 0.001311 700472.000000 1 0 0
9.472646 -2.211878 2.705893 10.096796 -0.229392 1.299485 -0.003116 -0.000062 -1507870.000000 1 0 0
0.275746 3.430122 1.671693 3.825745 1.490579 1.118582 -0.001282 -0.000492 -3193430.000000 1 0 0
-7.494354 -3.085278 4.085993 9.076322 0.390535 1.103828 -0.000464 -0.000754 1437540.000000 1 0 0
-2.275054 8.392222 -6.573807 10.900468 -1.306068 2.218148 -0.000277 -0.000376 -501717.000000 1 0 0
4.604846 9.758822 7.534693 13.160958 1.129909 0.961240 -0.002360 0.007451 93512.600000 1 0 0
-11.761354 -3.265178 6.924893 14.033709 0.270800 1.054748 0.000009 -0.000756 -1638880.000000 1 0 0
-4.777254 2.374622 -5.563707 7.708166 -0.461300 2.377187 -0.003418 -0.001817 -678055.000000 1 0 0
-2.781754 2.782822 -1.596607 4.246341 -0.785590 1.956268 -0.001407 -0.002881 612895.000000 1 0 0
2.428746 5.104722 11.427593 12.749387 1.126708 0.459386 0.003021 -0.003654 285387.000000 1 0 0
-0.692054 1.645822 4.544993 4.883096 -1.172751 0.374309 0.001382 -0.000764 -581880.000000 1 0 0
5.161346 1.521522 7.720593 9.410742 0.286672 0.608682 0.000454 0.000070 934432.000000 1 0 0
3.486546 -8.216978 1.732293 9.092611 -1.169510 1.379108 -0.003606 0.001151 1129700.000000 1 0 0
4.988746 6.506222 -4.675207 9.438012 0.916651 2.089045 0.005246 -0.001195 -3554500.000000 1 0 0
-4.121454 3.036022 -7.930207 9.438856 -0.634895 2.568386 -0.001313 -0.007831 -813018.000000 1 0 0
-8.852954 -2.011778 -12.820507 15.709470 0.223449 2.525427 0.004396 -0.004105 -950717.000000 1 0 0
-7.812554 8.236122 1.582493 11.461849 -0.811785 1.432288 -0.003707 0.003103 -2438880.000000 1 0 0
7.272646 0.801222 -6.630807 9.874256 0.109727 2.307061 0.001407 0.002216 669352.000000 1 0 0
9.026646 8.747722 5.429493 13.692420 0.769707 1.163059 -0.001610 0.001947 240709.000000 1 0 0
9.379246 -1.124478 -1.479407 9.561556 -0.119321 1.726145 -0.001712 0.004740 1478650.000000 1 0 0
5.435946 0.111722 4.259493 6.906900 0.020550 0.906251 -0.001355 0.001909 78455.100000 1 0 0
-4.234454 -7.276478 -7.982307 11.601507 1.043764 2.329582 0.009171 -0.004011 -1812690.000000 1 0 0
-2.261654 7.437122 -0.408707 7.784144 -1.275579 1.623326 -0.000197 0.000307 516356.000000 1 0 0
13.312346 -3.223578 -7.651507 15.689346 -0.237576 2.080236 -0.003965 0.000006 1087930.000000 1 0 0
-4.755054 -5.056878 1.609593 7.125542 0.816149 1.342939 0.005481 -0.001353 2254690.000000 1 0 0
-8.898854 1.284622 2.560293 9.348527 -0.143368 1.293380 -0.007694 0.000070 -1014510.000000 1 0 0
-0.950254 11.146522 10.329993 15.226841 -1.485751 0.825204 0.005353 0.004769 452497.000000 1 0 0
-8.528154 0.254222 7.506593 11.364109 -0.029801 0.849242 -0.007665 0.000335 -306720.000000 1 0 0
-6.150054 13.027622 -2.031807 14.548895 -1.129735 1.710908 -0.013751 0.002538 458303.000000 1 0 0
-13.020354 -0.833078 3.334593 13.466371 0.063896 1.320570 -0.004510 0.001260 296316.000000 1 0 0
-6.613154 12.801922 8.832693 16.900872 -1.093977 1.020878 0.005205 -0.000429 -549448.000000 1 0 0
-8.200554 0.815822 -14.041107 16.280889 -0.099157 2.610845 -0.002036 -0.001864 -289232.000000 1 0 0
7.268846 2.862622 3.722593 8.653810 0.375168 1.126117 0.000676 0.001847 -166092.000000 1 0 0
-1.682354 0.647222 -1.970107 2.670306 -0.367258 2.400577 -0.000672 -0.003991 52685.400000 1 0 0
-6.419154 9.692322 -10.315407 15.542016 -0.985828 2.296566 -0.003198 0.001144 -712129.000000 1 0 0
-10.004554 13.756522 5.461693 17.865136 -0.942009 1.260104 -0.011866 0.003707 402002.000000 1 0 0
-5.556854 8.311822 2.554193 10.319346 -0.981492 1.320682 -0.003233 0.004386 -1735080.000000 1 0 0
-2.441854 -10.668778 -1.230607 11.013622 1.345793 1.682765 0.006940 0.002137 1702910.000000 1 0 0
-2.261554 -12.360978 8.795693 15.338599 1.389839 0.960103 -0.000519 0.000537 261269.000000 1 0 0
-14.674854 -6.386378 -1.623507 16.086421 0.410472 1.671893 -0.000103 0.000689 329770.000000 1 0 0
-2.651754 -9.359278 3.240593 10.253259 1.294703 1.249228 0.006026 0.001490 -1404510.000000 1 0 0
4.776146 -2.710078 7.404193 9.218360 -0.516119 0.638148 0.000625 0.000253 -1117110.000000 1 0 0
-14.864054 -1.324578 -0.160307 14.923817 0.088878 1.581538 -0.008828 -0.001509 -283471.000000 1 0 0
5.452546 8.827822 -2.877007 10.767445 1.017496 1.841277 0.003576 0.000257 460064.000000 1 0 0
-5.545454 -5.690778 8.542093 11.666378 0.798331 0.749253 0.002442 0.000800 -2423130.000000 1 0 0
3.479146 3.515622 6.976693 8.552093 0.790613 0.616706 -0.000113 -0.000000 764561.000000 1 0 0
3.396146 2.340822 9.341293 10.211415 0.603480 0.415811 0.002422 -0.003081 -189256.000000 1 0 0
10.007546 -3.152378 5.082893 11.658656 -0.305161 1.119674 0.001625 -0.003453 -573480.000000 1 0 0
6.474946 10.014722 -5.133707 12.983625 0.996855 1.977298 0.004818 -0.002411 438481.000000 1 0 0
-4.671154 12.049422 -8.453907 15.442694 -1.200968 2.150095 -0.001695 -0.003312 -1249600.000000 1 0 0
-3.275254 -7.237078 2.298193 8.269479 1.145811 1.289176 0.006640 -0.002538 1069890.000000 1 0 0
-7.458054 -4.131678 1.266093 8.619532 0.505900 1.423376 0.003387 -0.003964 2834400.000000 1 0 0
-2.044054 -3.914378 -10.984707 11.839101 1.089554 2.759357 -0.000935 -0.000840 -1419660.000000 1 0 0
-5.286554 8.306422 -4.315507 10.750251 -1.004011 1.983877 -0.004396 0.001074 -1521980.000000 1 0 0
-11.026854 -3.178378 -10.025707 15.238386 0.280633 2.288856 0.006714 -0.002865 -1727440.000000 1 0 0
4.687146 -11.373478 -7.665007 14.494057 -1.179892 2.128027 -0.005986 -0.001032 -2388740.000000 1 0 0
-9.314054 -4.026578 7.361893 12.536443 0.408048 0.943152 -0.000884 -0.000045 -1149270.000000 1 0 0
-5.698954 -9.661078 -5.153207 12.343827 1.037845 2.001458 0.008713 -0.004242 322157.000000 1 0 0
4.883746 4.343222 -9.531007 11.556585 0.726884 2.540513 -0.000718 0.005729 97736.300000 1 0 0
-3.431554 -7.163978 -14.115507 16.197089 1.124088 2.629017 -0.008201 0.004785 126876.000000 1 0 0
0.507946 -0.770578 -8.840607 8.888652 -0.987998 3.037573 -0.002324 -0.005594 -80030.600000 1 0 0
-7.765654 2.250922 -2.848007 8.572233 -0.282125 1.909470 -0.002191 -0.002311 -1106000.000000 1 0 0
-2.465554 7.550122 -12.566607 14.866167 -1.255156 2.577953 -0.001497 -0.001421 -130565.000000 1 0 0
-9.776954 8.789322 7.724593 15.248290 -0.732253 1.039574 -0.006314 0.000382 -57414.900000 1 0 0
-10.720854 -3.017678 -14.229507 18.069919 0.274378 2.477489 0.001112 -0.004291 -820788.000000 1 0 0
-3.245354 4.758922 7.991793 9.851315 -0.972286 0.624525 -0.001786 0.002533 -189837.000000 1 0 0
8.622646 -2.295778 -3.683007 9.653246 -0.260213 1.962248 -0.001025 0.004810 -3168880.000000 1 0 0
1.920846 -8.376078 -1.194307 8.676100 -1.345369 1.708890 0.001373 0.001676 -1295740.000000 1 0 0
-13.442354 -3.059678 5.109893 14.702704 0.223802 1.215842 -0.003233 0.000258 417399.000000 1 0 0
6.970246 2.835722 -2.027407 7.793332 0.386382 1.833970 -0.001258 0.003018 254442.000000 1 0 0
-10.927754 4.436322 9.098393 14.895553 -0.385641 0.913710 -0.005920 0.000359 -3323680.000000 1 0 0
-1.682354 -2.678978 7.918393 8.526909 1.010054 0.380078 0.001333 -0.002079 -72418.200000 1 0 0
3.005246 12.099522 -9.884007 15.909856 1.327346 2.241134 -0.001701 -0.000033 731694.000000 1 0 0
3.538346 -5.051878 -7.156907 9.447893 -0.959801 2.430292 -0.002864 -0.002218 580040.000000 1 0 0
8.157946 -13.735978 -9.962607 18.827712 -1.034866 2.128390 -0.003663 0.008459 404958.000000 1 0 0
-6.316954 -5.699878 -0.477707 8.521779 0.734092 1.626883 0.009140 -0.002524 -325135.000000 1 0 0
-1.063754 -4.185678 9.909393 10.809604 1.321924 0.411001 -0.004153 0.000268 1290900.000000 1 0 0
2.821146 3.298122 1.801393 4.699094 0.863187 1.177377 -0.003000 0.001815 -356030.000000 1 0 0
-9.074054 13.328522 7.933593 17.970249 -0.973073 1.113543 -0.001904 -0.006800 -372888.000000 1 0 0
4.044746 -11.097378 -0.145607 11.812408 -1.221283 1.583123 -0.006997 0.001926 -81329.200000 1 0 0
-12.488854 -1.357078 -8.963907 15.432588 0.108238 2.190560 0.007563 -0.002898 -42677.100000 1 0 0
-4.230854 0.988022 -13.518707 14.199710 -0.229416 2.830635 0.003496 -0.002390 -72998.700000 1 0 0
3.968646 -3.112178 4.922993 7.047812 -0.665027 0.797478 -0.000818 0.002154 53519.400000 1 0 0
1.720146 -1.166178 1.006893 2.309265 -0.595776 1.119622 0.002969 0.000523 331064.000000 1 0 0
8.250746 -8.975378 7.246693 14.182622 -0.827439 1.034500 0.001117 -0.002720 -1607310.000000 1 0 0
-0.112854 2.298122 -6.107507 6.526542 -1.521729 2.781305 -0.004249 -0.002387 -534794.000000 1 0 0
-3.753454 -9.706178 -3.386507 10.943799 1.201801 1.885406 0.006734 0.000971 1429390.000000 1 0 0
-9.406254 2.498822 -5.280607 11.072784 -0.259658 2.067920 0.001744 -0.001214 -2737080.000000 1 0 0
8.912346 -7.580778 5.182493 12.796732 -0.704838 1.153833 -0.001703 -0.001179 2221180.000000 1 0 0
-5.470954 -4.366378 4.680993 8.420706 0.673582 0.981362 0.003122 -0.001768 -327910.000000 1 0 0
-0.070654 -12.606278 10.253893 16.250094 1.565192 0.887948 -0.001900 -0.000678 209564.000000 1 0 0
-14.162754 -8.398178 3.184193 16.770572 0.535239 1.379769 -0.008994 0.000059 -1766920.000000 1 0 0
10.834546 -1.279678 -3.726907 11.528868 -0.117566 1.899977 -0.002115 0.005132 126305.000000 1 0 0
-13.544954 3.061022 2.826493 14.171263 -0.222256 1.369997 -0.006701 0.000200 -1988300.000000 1 0 0
-6.320154 6.162722 1.057193 8.890509 -0.772787 1.451602 -0.004058 0.002412 642258.000000 1 0 0
7.105046 -6.974878 -0.507907 9.969382 -0.776154 1.621765 -0.001742 -0.002184 -616901.000000 1 0 0
-6.711454 7.792622 10.214193 14.494768 -0.859803 0.788822 -0.000177 0.001921 277015.000000 1 0 0
-12.621554 -5.049878 -1.852107 13.719883 0.380592 1.706204 -0.002353 -0.001902 -1935760.000000 1 0 0
-9.429654 -5.646678 0.286293 10.994786 0.539552 1.544754 0.003314 -0.001909 -1278400.000000 1 0 0
-1.759354 1.806722 2.198893 3.345848 -0.798680 0.853698 0.000323 -0.001108 -215272.000000 1 0 0
-6.911954 7.367622 7.726593 12.718380 -0.817298 0.917869 -0.004332 0.001013 40110.500000 1 0 0
5.628746 7.154722 -0.401807 9.112314 0.904207 1.614906 0.002326 0.001416 -649839.000000 1 0 0
0.025346 -4.191078 7.503293 8.594485 -1.564749 0.509403 -0.002015 -0.000137 -238775.000000 1 0 0
6.638746 0.561922 13.021593 14.627050 0.084441 0.472923 0.000921 -0.003596 281840.000000 1 0 0
5.569646 6.114722 -7.818807 11.381763 0.832014 2.328093 -0.003424 0.002000 -172221.000000 1 0 0
10.116846 5.302322 9.005593 14.545305 0.482748 0.903148 0.004634 -0.001996 -2037930.000000 1 0 0
-1.258354 -4.996078 -8.536207 9.970511 1.324060 2.598560 0.001192 0.000970 1011290.000000 1 0 0
9.945346 -3.501378 -8.162707 13.334142 -0.338511 2.229593 -0.000487 -0.001730 716038.000000 1 0 0
8.443446 -5.625178 1.161793 10.211962 -0.587692 1.456782 -0.002235 -0.000822 1085150.000000 1 0 0
15.683146 3.224722 -5.132207 16.813668 0.202791 1.880987 0.005527 0.000097 -197249.000000 1 0 0
-6.942354 3.615822 1.207693 7.920162 -0.480176 1.417716 -0.003649 -0.001826 760408.000000 1 0 0
-1.729654 3.913522 0.421693 4.299440 -1.154641 1.472558 -0.000025 -0.002191 744791.000000 1 0 0
-2.540154 10.111722 7.110493 12.619763 -1.324680 0.972251 0.003189 0.006221 -314633.000000 1 0 0
5.403346 -5.698378 -8.837207 11.822178 -0.811967 2.415103 -0.001769 -0.001762 410763.000000 1 0 0
-1.188754 -0.950478 6.320193 6.500875 0.674472 0.236319 0.003247 -0.002350 510060.000000 1 0 0
-5.646054 5.194522 -7.760007 10.912319 -0.743770 2.361891 -0.005093 -0.002855 -315385.000000 1 0 0
6.787246 -1.285578 2.565293 7.368863 -0.187193 1.215225 -0.001183 0.003681 -1103820.000000 1 0 0
8.828846 7.471322 3.224893 12.007044 0.702307 1.298874 0.002289 0.000867 70698.300000 1 0 0
-5.196054 -4.829578 -7.760307 10.514094 0.748861 2.401026 0.008304 -0.004630 1388390.000000 1 0 0
-2.272754 7.934322 -10.048107 13.003205 -1.291820 2.453944 -0.000763 -0.001526 414488.000000 1 0 0
-2.733054 -1.954578 1.580393 3.713166 0.620830 1.131151 0.000637 -0.001681 -558066.000000 1 0 0
5.882746 -2.106478 -9.370407 11.262703 -0.343852 2.553474 0.002757 -0.001741 1323060.000000 1 0 0
1.195146 -7.584678 5.089593 9.211931 -1.414508 0.985436 -0.001922 0.002050 97068.600000 1 0 0
1.839746 11.850322 1.246493 12.056887 1.416777 1.467227 0.006062 -0.001057 734716.000000 1 0 0
-1.110754 7.009522 2.606993 7.560660 -1.413639 1.218760 -0.000395 0.004516 354385.000000 1 0 0
8.557846 7.884522 -6.629907 13.392464 0.744470 2.088686 0.008907 -0.003583 -176563.000000 1 0 0
3.689746 -11.521178 5.509693 13.293174 -1.260860 1.143430 -0.004992 -0.000389 718911.000000 1 0 0
8.048046 -7.193578 12.196593 16.287280 -0.729395 0.724484 0.007835 -0.000812 363474.000000 1 0 0
-8.727554 -0.043078 -3.976307 9.590781 0.004936 1.998296 -0.000689 -0.001764 -402273.000000 1 0 0
-3.110454 -5.201878 11.328793 12.848191 1.031887 0.491253 0.001074 -0.001819 514120.000000 1 0 0
-8.122754 0.280722 -11.374307 13.979728 -0.034546 2.521163 0.003417 -0.006610 -967451.000000 1 0 0
1.312446 -4.934678 5.316193 7.371260 -1.310850 0.765255 -0.003710 0.000381 -1023630.000000 1 0 0
6.622846 3.826922 -7.696307 10.850832 0.523963 2.359276 -0.000987 0.001329 -539294.000000 1 0 0
16.173646 4.287422 -1.388907 16.789814 0.259127 1.653614 0.005838 0.000368 -1631710.000000 1 0 0
7.907446 7.461622 0.113593 10.872737 0.756398 1.560349 -0.000587 0.001324 -3175430.000000 1 0 0
5.416146 -10.334978 13.843093 18.104630 -1.088087 0.700351 -0.000584 -0.000294 -200466.000000 1 0 0
-5.238454 -9.097478 8.831793 13.718822 1.048351 0.871379 0.000645 -0.003107 407668.000000 1 0 0
-12.678054 -3.223578 2.892193 13.397361 0.248988 1.353206 -0.004030 -0.001010 97657.300000 1 0 0
-2.053854 -1.222478 -5.896807 6.362791 0.536891 2.756502 -0.000891 -0.004102 329958.000000 1 0 0
-2.539754 13.044722 -4.315807 13.972878 -1.378506 1.884801 0.002553 -0.000626 510812.000000 1 0 0
3.903446 -0.471278 -5.025407 6.380730 -0.120152 2.477687 0.000436 0.001052 -319660.000000 1 0 0
-8.777254 3.938722 -7.294307 12.073137 -0.421807 2.219529 0.002239 -0.002367 -17565.600000 1 0 0
-4.598154 8.022722 -11.252007 14.564160 -1.050360 2.453694 -0.000560 -0.002271 -1371130.000000 1 0 0
-9.972754 -6.500778 7.399693 14.016825 0.577677 1.014653 0.004498 -0.003351 -1294270.000000 1 0 0
8.099446 5.203422 4.135093 10.477386 0.571043 1.165089 0.000744 0.001182 -1774200.000000 1 0 0
-6.692454 -7.548078 4.001293 10.852316 0.845410 1.193182 0.007798 -0.001506 -425925.000000 1 0 0
-4.102554 11.831322 8.303293 15.025172 -1.237016 0.985285 0.008722 0.003251 -242650.000000 1 0 0
-7.334554 9.971322 -7.856707 14.661200 -0.936598 2.136351 -0.003571 -0.002891 -400282.000000 1 0 0
13.140446 5.481422 4.649393 14.977789 0.395195 1.255162 0.003305 0.001827 1437360.000000 1 0 0
5.238646 4.008522 -3.750907 7.588212 0.653148 2.087834 0.001310 0.001639 214090.000000 1 0 0
-2.819254 -4.257378 5.209393 7.294603 0.985889 0.775397 0.001265 -0.000069 -1455430.000000 1 0 0
12.290046 -2.288178 -5.465007 13.643581 -0.184074 1.982919 -0.000523 0.000817 -2500960.000000 1 0 0
-5.191754 9.820822 7.109493 13.188925 -1.084494 1.001487 0.000529 0.005679 879347.000000 1 0 0
1.664646 3.864522 -0.462507 4.233142 1.164065 1.680274 -0.002356 0.000614 583705.000000 1 0 0
0.007846 9.599922 7.881593 12.420872 1.569979 0.883378 -0.001238 0.006949 -298284.000000 1 0 0
-5.653354 2.151322 5.977693 8.504199 -0.363618 0.791315 -0.004582 0.000226 610329.000000 1 0 0
8.981546 0.958822 10.669693 13.979623 0.106352 0.702496 0.004246 -0.001446 -1370570.000000 1 0 0
0.294346 -2.834578 -10.216607 10.606627 -1.467326 2.869567 -0.003330 -0.002156 -2720410.000000 1 0 0
1.143646 10.637722 -2.715807 11.038327 1.463699 1.819383 0.006466 -0.003270 372875.000000 1 0 0
2.293946 -4.382878 11.596393 12.607463 -1.088614 0.403216 -0.002775 -0.000978 432650.000000 1 0 0
6.553346 -3.245178 9.369393 11.885413 -0.459796 0.662739 0.003845 -0.003310 595504.000000 1 0 0
-10.633654 -8.270178 5.618693 14.595895 0.661017 1.175642 0.003792 -0.002651 -969217.000000 1 0 0
-2.980354 0.966122 -6.857507 7.539317 -0.313475 2.713035 0.000466 -0.003921 851953.000000 1 0 0
10.937946 2.768422 -5.250707 12.444788 0.247897 2.006359 0.001032 0.001968 -3405610.000000 1 0 0
-2.075154 -4.005278 0.079993 4.511642 1.092770 1.553065 0.001609 -0.000623 799672.000000 1 0 0
-1.239454 -6.443978 -10.640107 12.500919 1.380774 2.588961 -0.000171 0.002361 823561.000000 1 0 0
0.312046 6.943022 -6.509907 9.522700 1.525883 2.323507 0.000718 0.000490 -2313810.000000 1 0 0
1.784746 3.919022 -6.298907 7.630222 1.143456 2.541921 -0.002770 0.000752 -2621480.000000 1 0 0
1.769746 -14.791378 6.528593 16.264667 -1.451715 1.157754 0.000263 0.000364 381062.000000 1 0 0
-1.854554 5.418222 -10.484407 11.946518 -1.241015 2.641654 -0.000632 0.000015 -307780.000000 1 0 0
13.642146 4.468322 -0.893807 14.383078 0.316526 1.632979 0.005758 -0.000501 -1126540.000000 1 0 0
-2.401254 3.424422 -6.177107 7.459849 -0.959256 2.546412 0.001096 -0.003936 -1507470.000000 1 0 0
5.796546 7.736122 14.240793 17.211848 0.927754 0.596364 0.005111 -0.002581 557526.000000 1 0 0
15.821746 0.749422 -5.919607 16.909495 0.047331 1.928448 -0.000199 0.000139 412749.000000 1 0 0
6.250046 -8.364878 10.487393 14.799313 -0.929104 0.783227 -0.001063 0.002530 64104.700000 1 0 0
0.063846 -5.778378 -6.384607 8.611442 -1.559748 2.405965 -0.003268 0.001790 -777461.000000 1 0 0
8.642246 5.530122 -7.589507 12.762103 0.569238 2.207678 0.003225 0.000081 66555.200000 1 0 0
-15.989954 -0.734978 5.479193 16.918640 0.045933 1.240995 -0.002108 -0.000020 -24272.400000 1 0 0
-0.396754 4.078122 -12.254707 12.921546 -1.473813 2.818926 -0.003144 -0.000709 1013960.000000 1 0 0
-11.144654 3.589022 5.977893 13.146087 -0.311552 1.098730 -0.006366 -0.001075 -1096870.000000 1 0 0
5.000146 -9.732178 -9.761307 14.662874 -1.096190 2.299249 -0.011650 0.002816 -181262.000000 1 0 0
1.494846 11.183722 -11.712507 16.263242 1.437921 2.374862 0.001755 0.000652 -3138180.000000 1 0 0
5.895546 2.370222 1.213693 6.469039 0.382260 1.382062 -0.001299 0.003226 17163.500000 1 0 0
5.710146 4.545922 4.878593 8.779057 0.672366 0.981582 -0.000950 0.001058 -999322.000000 1 0 0
0.321646 -1.590778 -6.376107 6.579421 -1.371292 2.892346 -0.004937 -0.002171 -1268870.000000 1 0 0
12.525646 6.914622 -4.690507 15.056715 0.504406 1.887591 0.001963 -0.001876 13208.000000 1 0 0
7.478446 3.092822 12.660093 15.025666 0.392145 0.568769 -0.000519 -0.001428 -392716.000000 1 0 0
-2.297454 -0.349478 8.792093 9.094027 0.150958 0.258406 -0.002081 -0.001067 310951.000000 1 0 0
2.332646 -15.320278 13.254493 20.392002 -1.419698 0.863232 -0.003724 0.001693 -148836.000000 1 0 0
18.748646 4.454022 -2.013907 19.375393 0.233241 1.674926 0.004519 0.000868 1014160.000000 1 0 0
-0.431754 -13.441478 7.212493 15.260400 1.538686 1.078526 -0.001199 0.001863 -1154720.000000 1 0 0
4.314946 1.514022 -0.543007 4.604984 0.337457 1.688989 -0.001631 0.002389 898220.000000 1 0 0
2.636646 -0.468678 -7.371007 7.842405 -0.175918 2.793108 -0.003785 -0.000388 -263574.000000 1 0 0
7.294246 -11.432878 0.738393 13.581677 -1.002899 1.516403 -0.008111 0.001290 291001.000000 1 0 0
-11.752354 -7.443078 1.411193 13.982443 0.564565 1.469698 0.000064 0.002704 15725.600000 1 0 0
0.175946 -7.138578 9.826693 12.147187 -1.546154 0.628401 -0.006832 0.000545 -2274950.000000 1 0 0
-4.576654 -7.282278 10.633993 13.676957 1.009709 0.680097 0.003567 0.000094 -1358760.000000 1 0 0
11.778046 0.783622 -1.750707 11.933206 0.066435 1.718037 0.001231 0.003150 1202910.000000 1 0 0
6.448146 -9.544178 -7.617607 13.809340 -0.976627 2.155110 -0.005083 -0.000692 -544814.000000 1 0 0
-10.872154 4.826422 3.553993 12.414868 -0.417791 1.280466 -0.011456 0.000027 114622.000000 1 0 0
6.013046 -9.270178 1.902293 11.212120 -0.995375 1.400308 -0.007251 0.000918 1609620.000000 1 0 0
11.695146 -1.358278 5.737793 13.097466 -0.115622 1.117330 0.001705 -0.006060 99877.400000 1 0 0
-6.488854 3.639222 4.196993 8.541892 -0.511129 1.057166 -0.006187 0.000131 -2095300.000000 1 0 0
9.400046 6.357722 -3.193307 11.788923 0.594677 1.845097 -0.000011 0.000892 7507.290000 1 0 0
-2.233454 6.588222 11.085093 13.087103 -1.243948 0.560435 -0.002579 0.001480 464356.000000 1 0 0
1.934146 9.797222 3.067893 10.446935 1.375885 1.272738 0.000414 0.002187 -666612.000000 1 0 0
2.875846 6.058522 -5.624607 8.752850 1.127611 2.268687 -0.000370 0.000488 -1773230.000000 1 0 0
11.771346 0.264022 -5.665807 13.066586 0.022425 2.019292 -0.002817 0.001444 42913.000000 1 0 0
-2.629054 -12.590278 6.246393 14.298407 1.364938 1.118692 0.002973 0.002143 -636407.000000 1 0 0
10.691846 1.836722 -2.906407 11.231043 0.170127 1.832559 -0.000788 0.003345 477584.000000 1 0 0
-8.872254 5.399122 0.975493 10.431634 -0.546675 1.477147 -0.006986 -0.000323 -525315.000000 1 0 0
1.243646 -10.245878 5.563093 11.724874 -1.450007 1.076435 -0.001255 0.000025 -361326.000000 1 0 0
9.329446 -5.794278 -1.391507 11.070163 -0.555771 1.696829 -0.002799 0.001282 783525.000000 1 0 0
-7.901754 8.572122 -4.357307 12.446088 -0.826068 1.928468 -0.005865 -0.000354 -504010.000000 1 0 0
-7.512854 -0.061678 -1.591407 7.679802 0.008210 1.779529 -0.003907 -0.001277 -1625630.000000 1 0 0
4.142846 8.800622 2.762093 10.111542 1.130826 1.294117 0.001690 0.001753 -709853.000000 1 0 0
-1.316954 -10.662478 -3.773007 11.386764 1.447906 1.908531 0.001748 0.000662 -83456.100000 1 0 0
3.054846 7.889522 -3.682107 9.226839 1.201370 1.981293 0.006281 -0.002198 93296.800000 1 0 0
-4.332554 1.737922 -11.065607 12.009957 -0.381481 2.742385 -0.000454 -0.004447 -403764.000000 1 0 0
1.465146 2.613222 11.067793 11.466107 1.059801 0.264354 0.001471 -0.002636 346583.000000 1 0 0
2.101646 5.653822 -8.061007 10.067892 1.214903 2.499200 -0.001239 0.001549 -147762.000000 1 0 0
15.559446 6.209422 3.900893 17.200879 0.379711 1.342021 0.003266 -0.002178 616147.000000 1 0 0
-4.380754 9.049822 4.740293 11.115784 -1.119973 1.130235 -0.000534 0.005364 -54313.000000 1 0 0
-0.860154 -8.295478 -12.248607 14.818340 1.467476 2.543808 -0.007600 0.002889 -475142.000000 1 0 0
14.259346 -4.020278 -5.527907 15.812948 -0.274807 1.927920 -0.001891 0.001761 -246010.000000 1 0 0
-5.905554 -6.118078 -5.632307 10.199477 0.803072 2.155815 0.008773 -0.002288 475415.000000 1 0 0
-8.974554 2.587522 -12.276107 15.425327 -0.280705 2.491192 -0.001846 -0.003222 -808596.000000 1 0 0
10.617246 5.290622 13.760393 18.167691 0.462290 0.711459 -0.000661 -0.002027 543077.000000 1 0 0
-0.358354 10.790522 5.612193 12.168011 -1.537598 1.091421 0.003634 0.008474 810909.000000 1 0 0
0.238946 11.242022 -0.535507 11.257305 1.549545 1.618384 0.005607 -0.001153 -174036.000000 1 0 0
-1.505054 -0.537478 3.818793 4.139716 0.343000 0.396348 0.001960 -0.000946 6354.490000 1 0 0
-4.697254 6.629022 8.964293 12.098209 -0.954329 0.736297 -0.002747 0.004859 -1266220.000000 1 0 0
3.440146 -8.650878 -11.547307 14.832822 -1.192305 2.463064 -0.008317 0.005263 913550.000000 1 0 0
6.665646 -3.846378 11.953593 14.216675 -0.523370 0.572009 0.004980 -0.000500 -779124.000000 1 0 0
-2.533954 -1.856778 -12.582507 12.968733 0.632375 2.896928 0.002169 -0.004706 856007.000000 1 0 0
-15.949054 -5.008978 5.393493 17.565647 0.304306 1.258707 -0.013034 0.000231 778462.000000 1 0 0
-8.881654 7.254422 5.931593 12.911011 -0.684894 1.093453 -0.011208 0.001250 -3225720.000000 1 0 0
-12.725054 1.450522 6.183493 14.222046 -0.113500 1.121000 -0.009010 -0.001109 387163.000000 1 0 0
-3.614554 3.519322 10.240793 11.415974 -0.772050 0.457730 -0.000694 0.003786 689709.000000 1 0 0
2.069546 -12.275078 -1.209407 12.506927 -1.403770 1.667647 -0.004428 0.001665 -2645810.000000 1 0 0
10.228946 -5.108178 -3.841507 12.061592 -0.463155 1.894933 0.001575 0.003085 604326.000000 1 0 0
3.287046 -13.563578 0.859393 13.982628 -1.333037 1.509296 -0.004134 0.002853 286918.000000 1 0 0
9.943646 -1.477278 -6.258607 11.841816 -0.147486 2.127650 -0.001526 0.001967 -143778.000000 1 0 0
11.846846 -5.534578 -1.786407 13.197370 -0.437046 1.706574 -0.000967 0.005264 -939258.000000 1 0 0
1.396346 0.846322 5.972393 6.191568 0.544891 0.266870 0.001451 -0.002184 -21025.900000 1 0 0
-10.820054 11.698722 6.770193 17.313843 -0.824398 1.169048 -0.007932 0.001953 -115380.000000 1 0 0
4.710746 -14.212178 3.095393 15.289166 -1.250734 1.366930 -0.006608 0.001926 -3094540.000000 1 0 0
5.271746 -3.472278 -1.739507 6.547817 -0.582438 1.839687 -0.001126 0.001924 -1495160.000000 1 0 0
2.000046 -2.867378 -7.784207 8.533225 -0.961739 2.719475 -0.006326 -0.000997 -30873.800000 1 0 0
-2.886854 14.786422 -8.669407 17.381911 -1.377985 2.092964 0.006896 -0.008106 -2500640.000000 1 0 0
-2.461354 6.209922 -8.073407 10.478611 -1.193433 2.450367 -0.000663 -0.002127 -182720.000000 1 0 0
2.436346 -3.428678 -11.474407 12.221033 -0.953006 2.790236 -0.001913 -0.001384 -1573880.000000 1 0 0
14.527546 2.872922 -2.819407 15.074891 0.195238 1.758931 0.004050 0.001528 418761.000000 1 0 0
-3.565554 13.201522 2.375693 13.879383 -1.307004 1.398782 0.002463 0.003923 -1654520.000000 1 0 0
7.945046 -5.055078 13.925293 16.810453 -0.566652 0.594603 0.007133 -0.003355 -1259330.000000 1 0 0
-11.324254 7.229522 2.958693 13.757128 -0.568185 1.354037 -0.009825 0.001046 770009.000000 1 0 0
-2.193854 11.940222 4.054793 12.799345 -1.389087 1.248446 0.004267 0.005196 933325.000000 1 0 0
1.770246 1.424622 0.722593 2.384420 0.677636 1.262907 -0.002308 -0.000143 -1317480.000000 1 0 0
-6.919854 8.615022 5.429993 12.312100 -0.894088 1.114051 -0.002817 0.003586 695452.000000 1 0 0
-1.159554 9.161222 1.134893 9.303791 -1.444894 1.448510 0.001850 0.003075 232054.000000 1 0 0
5.031546 13.104722 -8.501607 16.411201 1.204203 2.115351 -0.000823 -0.003950 -2422560.000000 1 0 0
9.009546 6.895422 7.137193 13.403667 0.653251 1.009268 -0.000428 -0.000141 -1603240.000000 1 0 0
7.138146 -13.826178 2.735793 15.798762 -1.094212 1.396754 -0.002127 0.001671 -511252.000000 1 0 0
4.162946 -13.318678 -1.525507 14.037253 -1.267853 1.679687 -0.010292 0.004498 -3715690.000000 1 0 0
11.983246 -11.841578 -4.729307 17.498214 -0.779452 1.844474 0.008064 -0.002033 -692902.000000 1 0 0
3.083946 -0.037978 -2.135707 3.751454 -0.012314 2.176452 -0.000915 0.001772 1231930.000000 1 0 0
-13.590254 -2.940778 -10.719807 17.557262 0.213103 2.227567 -0.002499 -0.002426 240055.000000 1 0 0
-6.518554 13.580522 5.184293 15.931071 -1.123282 1.239340 -0.002220 -0.000318 532644.000000 1 0 0
7.315946 -4.313378 -0.696407 8.521343 -0.532727 1.652613 -0.003997 0.002796 -2344300.000000 1 0 0
11.655546 2.111922 -7.440207 13.988161 0.179250 2.131631 0.002117 0.000351 -1274550.000000 1 0 0
-7.430454 -4.640178 9.761893 13.116305 0.558226 0.731376 0.004274 -0.001701 390453.000000 1 0 0
1.036346 2.772722 8.605093 9.099979 1.213109 0.331311 0.002903 -0.001908 -1474470.000000 1 0 0
1.437346 8.132222 -8.632607 11.946585 1.395856 2.378353 0.001915 -0.000818 67193.200000 1 0 0
-8.612554 -2.264878 -5.486907 10.460015 0.257152 2.122995 0.006347 -0.004217 -1251120.000000 1 0 0
6.826146 -0.518678 7.222393 9.951294 -0.075838 0.758637 0.004174 -0.001830 -13935.200000 1 0 0
-10.884654 6.446422 7.298893 14.604995 -0.534700 1.047483 -0.006827 -0.000178 782132.000000 1 0 0
-5.942754 11.051722 5.031493 13.519349 -1.077428 1.189451 -0.001662 0.003213 634571.000000 1 0 0
5.904146 -1.277678 -7.016807 9.258887 -0.213117 2.430801 0.001541 0.001756 -472792.000000 1 0 0
4.534546 -5.776978 11.339293 13.509817 -0.905310 0.574733 0.001004 0.001100 -1265840.000000 1 0 0
-8.942254 -7.563678 2.707693 12.021012 0.702072 1.343600 0.006614 -0.000661 -3226650.000000 1 0 0
-1.356154 12.793522 -9.379107 15.921087 -1.465188 2.200741 0.009321 -0.001221 334936.000000 1 0 0
-4.691554 9.349022 -2.200307 10.689071 -1.105691 1.778125 -0.004312 -0.000517 730224.000000 1 0 0
-3.364254 9.652822 -0.027207 10.222324 -1.235436 1.573458 -0.000613 0.001862 -509052.000000 1 0 0
-3.651354 10.682722 -6.357707 12.956596 -1.241445 2.083681 0.003371 0.001488 892803.000000 1 0 0
4.931346 -4.955878 0.310393 6.998232 -0.787879 1.526429 -0.001181 -0.000243 -1311390.000000 1 0 0
-2.303254 3.009922 -10.795007 11.441014 -0.917625 2.803943 -0.000368 -0.001400 -2153920.000000 1 0 0
-3.607754 12.159022 -2.061607 12.849433 -1.282357 1.731936 -0.002863 0.001889 1209970.000000 1 0 0
-0.284954 0.362622 0.086693 0.469264 -0.904764 1.384987 -0.001182 -0.001610 -1854780.000000 1 0 0
-4.850154 -1.707978 0.166993 5.144810 0.338588 1.538332 -0.002335 -0.000452 465860.000000 1 0 0
2.523846 2.555822 -2.403507 4.321906 0.791693 2.160509 -0.007892 0.000238 906024.000000 1 0 0
6.088746 -9.795578 8.370793 14.251188 -1.014659 0.942985 -0.003287 0.000182 -249027.000000 1 0 0
-4.137954 -5.538878 6.652893 9.594937 0.929170 0.804634 0.004697 -0.001356 3686.360000 1 0 0
-6.409054 5.294722 -12.061007 14.648479 -0.690473 2.538107 -0.000626 -0.000706 1112370.000000 1 0 0
-12.665354 2.984122 8.073793 15.313468 -0.231393 1.015453 -0.007514 -0.002249 592440.000000 1 0 0
4.778546 -7.482578 -4.967007 10.173231 -1.002461 2.080871 -0.004401 -0.001491 2205310.000000 1 0 0
-5.995254 2.513722 -0.982507 6.574739 -0.397020 1.720795 -0.001971 -0.002879 -365492.000000 1 0 0
-7.044854 -2.527278 -14.496807 16.314856 0.344441 2.665004 0.001187 -0.002051 -715790.000000 1 0 0
2.784846 -6.106278 0.807493 6.759737 -1.142912 1.451054 -0.000843 0.001763 -289857.000000 1 0 0
4.827446 -7.954578 12.851193 15.866087 -1.025336 0.626680 -0.002934 -0.001079 166863.000000 1 0 0
-9.900854 -1.843878 8.079193 12.911241 0.184125 0.894705 -0.004739 0.001304 -361382.000000 1 0 0
-4.414354 13.323922 0.016593 14.036157 -1.250867 1.569614 -0.005545 0.004591 1278000.000000 1 0 0
6.718646 2.293122 -4.610907 8.465168 0.328910 2.146818 -0.001325 0.002778 -1433470.000000 1 0 0
4.947946 4.500422 0.031193 6.688568 0.738068 1.566133 -0.001404 0.001603 -859456.000000 1 0 0
-5.867854 12.304722 2.049893 13.785498 -1.125817 1.421544 -0.005757 0.002680 -670180.000000 1 0 0
6.506446 -7.381178 6.459693 11.770440 -0.848302 0.989861 -0.002813 -0.000604 -1597060.000000 1 0 0
-0.295454 4.854322 7.747193 9.147171 -1.510007 0.560575 -0.004419 0.003209 -662994.000000 1 0 0
-5.752154 -3.358578 -1.606807 6.851945 0.528484 1.807504 0.003729 -0.001409 -1197740.000000 1 0 0
2.350646 -6.345978 -5.092007 8.469092 -1.216051 2.215856 -0.002688 0.002378 -1237470.000000 1 0 0
-14.416854 -4.831978 -3.745007 15.659463 0.323395 1.812290 -0.003731 -0.002976 -41960.700000 1 0 0
-12.472754 -4.984278 -6.266507 14.821664 0.380173 2.007322 0.002027 -0.007106 -1023300.000000 1 0 0
-14.854554 -3.782278 -1.251707 15.379538 0.249323 1.652274 -0.001678 -0.002685 -24008.100000 1 0 0
11.975546 2.850222 8.640193 15.039627 0.233656 0.958809 0.005727 -0.002566 -1515830.000000 1 0 0
8.711946 -6.516778 7.505693 13.217482 -0.642238 0.966891 0.004473 -0.002949 -187297.000000 1 0 0
-8.804354 -1.671678 -9.712107 13.214999 0.187636 2.396361 0.006899 -0.003005 -516588.000000 1 0 0
-8.908054 5.143522 -3.788707 10.961914 -0.523637 1.923701 -0.003816 -0.001085 -1089500.000000 1 0 0
-4.027254 -6.309978 4.065893 8.518573 1.002736 1.073220 0.006213 -0.000546 -1207630.000000 1 0 0
-0.163954 -9.276078 3.607393 9.954185 1.553123 1.199955 0.000040 0.001134 349784.000000 1 0 0
7.995746 -10.472978 3.173793 13.553161 -0.918734 1.334428 -0.006541 0.001643 73158.100000 1 0 0
0.056746 6.422722 9.711793 11.643603 1.561961 0.584318 -0.001884 0.001055 313338.000000 1 0 0
-0.071054 3.596022 -9.662807 10.310493 -1.551040 2.785258 -0.001151 -0.000797 -605286.000000 1 0 0
4.519846 -3.128678 10.998993 12.296157 -0.605478 0.463470 -0.000406 -0.002489 -2977180.000000 1 0 0
8.488146 -9.138178 1.034293 12.514978 -0.822260 1.488058 -0.004601 -0.000501 -704441.000000 1 0 0
-0.188554 -0.478878 11.434793 11.446369 1.195697 0.044978 0.006373 -0.001688 -379003.000000 1 0 0
11.048246 5.994222 11.297593 16.900593 0.497105 0.838642 0.002041 -0.000817 477303.000000 1 0 0
-6.490454 -2.789778 -11.773207 13.730159 0.405953 2.601130 0.005982 -0.003246 139388.000000 1 0 0
-1.570054 2.819422 8.573393 9.160637 -1.062693 0.360006 0.000162 0.000293 -38343.100000 1 0 0
-1.692354 13.510422 -6.793207 15.216544 -1.446183 2.033574 0.005539 -0.004189 227093.000000 1 0 0
7.689046 3.064722 9.790893 12.820902 0.379284 0.701823 0.001492 -0.001467 47229.700000 1 0 0
6.421846 8.515022 -7.930307 13.290428 0.924626 2.210170 0.007558 -0.001040 -916585.000000 1 0 0
6.526946 -2.936878 -4.067707 8.232407 -0.422822 2.087606 -0.001005 0.002873 -2299020.000000 1 0 0
2.028246 8.259722 1.062093 8.571162 1.330002 1.446562 0.000822 0.003501 819053.000000 1 0 0
-17.392554 6.318322 6.616693 19.652042 -0.348454 1.227394 0.004505 -0.001312 884995.000000 1 0 0
-14.842154 3.010222 -10.040607 18.170437 -0.200101 2.156252 0.014616 -0.002538 -616111.000000 1 0 0
-18.277954 0.140422 -4.239107 18.763618 -0.007682 1.798685 0.004315 -0.002544 220146.000000 1 0 0
-12.991154 7.918622 0.255593 15.216438 -0.547404 1.553998 -0.008869 0.001635 -1913210.000000 1 0 0
-12.785254 -4.321278 -12.809007 18.606634 0.325935 2.330092 0.003021 0.002176 -424196.000000 1 0 0
-17.369554 -0.729678 -8.655207 19.420259 0.041984 2.032729 -0.006251 -0.007008 -107604.000000 1 0 0
-16.625254 -2.007778 -2.064107 16.872782 0.120185 1.693437 -0.002824 -0.002044 330989.000000 1 0 0
-15.349354 4.019822 1.876393 15.977562 -0.256136 1.453085 -0.001584 0.002127 -1148620.000000 1 0 0
-13.019754 5.849022 4.605693 14.997915 -0.422223 1.258664 -0.005252 0.000157 571354.000000 1 0 0
-10.073754 14.296722 2.876893 17.724370 -0.956977 1.407762 -0.005555 0.000252 153071.000000 1 0 0
-11.799054 2.578222 -6.275507 13.610544 -0.215129 2.050005 0.001798 -0.001521 963407.000000 1 0 0
-15.764654 10.646322 3.946393 19.427880 -0.593975 1.366242 -0.004394 0.004889 -173699.000000 1 0 0
-12.819154 1.148322 -8.379907 15.358131 -0.089340 2.147941 0.006253 -0.004522 517510.000000 1 0 0
-12.275054 14.294422 4.272993 19.320091 -0.861256 1.347784 -0.007623 -0.001671 -166167.000000 1 0 0
-10.424854 11.136022 -0.976707 15.285370 -0.818370 1.634738 -0.009938 -0.000889 -88188.100000 1 0 0
-16.789254 5.441322 9.035993 19.827663 -0.313414 1.097608 -0.001380 -0.005270 206596.000000 1 0 0
-11.735754 12.297822 -8.929907 19.201760 -0.808781 2.054495 -0.006855 -0.003521 -1735210.000000 1 0 0
-17.161754 -0.501078 3.251093 17.474166 0.029189 1.383655 0.002505 0.002499 550483.000000 1 0 0
-12.975154 14.846922 -0.613307 19.727186 -0.852573 1.601891 -0.008548 -0.002106 350989.000000 1 0 0
-16.691454 4.831422 -10.234207 20.166464 -0.281754 2.103061 0.009997 0.003469 696079.000000 1 0 0
-11.937154 7.553322 -8.922207 16.707905 -0.564158 2.134134 0.000220 0.003557 145011.000000 1 0 0
-14.796954 13.406622 -1.959307 20.063057 -0.736142 1.668610 0.011329 -0.006130 977381.000000 1 0 0
-11.952354 10.619322 -5.340907 16.856870 -0.726409 1.893191 -0.003592 0.001661 2343400.000000 1 0 0
-17.699754 2.856222 -0.801207 17.946622 -0.159991 1.615455 0.002096 -0.000273 -231646.000000 1 0 0
-9.421854 15.453522 0.648893 18.110873 -1.023282 1.534960 -0.006944 -0.002267 -40618.200000 1 0 0
-8.202054 13.256622 -3.542407 15.986255 -1.016730 1.794242 -0.012225 0.002491 -2256710.000000 1 0 0
-17.569654 11.483022 2.220593 21.106482 -0.578882 1.465392 0.013509 0.013622 65761.200000 1 0 0
-8.246754 15.544322 -7.205407 19.014541 -1.083023 1.959449 0.004129 -0.004805 90023.800000 1 0 0
-6.387054 15.263422 -5.387807 17.401005 -1.174482 1.885596 -0.006870 0.004629 -1373940.000000 1 0 0
-17.269254 5.227722 0.029193 18.043200 -0.293949 1.569178 0.004279 0.002640 468327.000000 1 0 0
-5.450954 12.190422 -12.043407 17.982295 -1.150315 2.304651 -0.000447 -0.007305 -686328.000000 1 0 0
-11.034154 3.734522 -11.325407 16.246971 -0.326349 2.342110 -0.003306 -0.002551 628633.000000 1 0 0
-11.737354 11.049222 1.349593 16.176285 -0.755208 1.487269 -0.010572 0.002045 83030.400000 1 0 0
-12.953054 0.226522 -10.850407 16.898647 -0.017486 2.268014 0.006718 -0.007885 1254100.000000 1 0 0
-14.270054 -2.062678 -13.102207 19.482221 0.143552 2.308407 0.006700 0.000721 317726.000000 1 0 0
-18.703354 -2.347678 -3.583307 19.187682 0.124869 1.758650 -0.000607 -0.001695 82646.700000 1 0 0
-18.220154 4.798822 -5.130807 19.527619 -0.257531 1.836664 0.001710 -0.000440 -39993.000000 1 0 0
-8.338054 15.462522 -2.068607 17.688750 -1.076249 1.688009 -0.009225 0.000944 229605.000000 1 0 0
-16.066854 9.123122 -5.068207 19.158859 -0.516423 1.838519 0.008448 0.002940 -174308.000000 1 0 0
-18.164054 1.695622 2.066793 18.359728 -0.093081 1.457985 0.000176 0.000265 545026.000000 1 0 0
-15.697654 -2.678378 -8.491007 18.046807 0.168995 2.060653 -0.001669 -0.006498 -692920.000000 1 0 0
-9.760154 10.445122 -7.073207 15.949653 -0.819286 2.030264 -0.009297 -0.002520 382639.000000 1 0 0
-14.062654 12.030022 -7.724207 20.053505 -0.707655 1.966199 0.002705 0.001050 106854.000000 1 0 0
-11.112954 6.562222 -3.745507 13.438353 -0.533406 1.853255 -0.005449 -0.000111 -1683920.000000 1 0 0
-13.243454 4.721422 -12.470207 18.793269 -0.342462 2.296346 -0.001649 0.001014 301291.000000 1 0 0
-17.601054 9.061622 2.921293 20.011098 -0.475444 1.424289 0.012827 0.007230 967532.000000 1 0 0
-13.447154 8.696222 -6.463307 17.269180 -0.574049 1.954404 -0.000753 -0.000832 -934815.000000 1 0 0
-15.875054 6.872122 -3.602907 17.669871 -0.408533 1.776137 0.012145 -0.000818 -1072070.000000 1 0 0
-14.885654 -0.341378 -9.231907 17.519342 0.022929 2.125810 0.005933 -0.008874 -189035.000000 1 0 0
-9.904054 5.917522 -5.968407 12.989582 -0.538568 2.048202 -0.002502 0.000127 461982.000000 1 0 0
-12.677754 12.241922 -0.842107 17.643674 -0.767910 1.618543 -0.002701 -0.002405 -131414.000000 1 0 0
-10.668554 3.444422 -13.934007 17.884033 -0.312293 2.464075 -0.004892 -0.000545 534334.000000 1 0 0
-11.139054 6.239522 -11.916207 17.464425 -0.510601 2.321718 -0.000081 0.002916 -293451.000000 1 0 0
-5.779354 11.626722 -14.658607 19.582042 -1.109491 2.416705 0.000583 -0.003219 -427758.000000 1 0 0
-15.478354 13.297722 3.686693 20.736455 -0.709763 1.392058 -0.005121 0.004017 248000.000000 1 0 0
-14.993354 10.948322 -2.891207 18.788973 -0.630716 1.725288 0.013224 0.000664 1087780.000000 1 0 0
-18.118254 7.734022 -4.490407 20.205197 -0.403448 1.794908 0.005997 0.005951 774241.000000 1 0 0
-4.105054 16.248922 -10.382107 19.714641 -1.323339 2.125415 0.008958 -0.007730 248186.000000 1 0 0
-15.740354 4.343922 -4.452907 16.925034 -0.269271 1.837026 0.009555 -0.000125 -1173340.000000 1 0 0
-18.543454 -1.613378 -6.019407 19.562616 0.086787 1.883571 -0.004258 -0.004163 282944.000000 1 0 0
-10.896854 8.537422 -5.720407 14.978386 -0.664584 1.962659 -0.004366 0.000922 1524100.000000 1 0 0
-11.111054 13.612722 -6.707607 18.808342 -0.886240 1.935454 -0.011173 0.008380 155810.000000 1 0 0
-9.530054 10.449422 -4.333907 14.791724 -0.831381 1.868155 -0.013656 0.001785 125713.000000 1 0 0
-11.030654 6.277022 -0.071007 12.691784 -0.517353 1.576391 -0.008755 0.001638 -370984.000000 1 0 0
-14.743554 9.124322 -1.178007 17.378531 -0.554178 1.638634 0.009049 0.001355 705835.000000 1 0 0
-18.711254 3.541822 5.013893 19.692502 -0.187075 1.313353 0.009101 0.003417 546522.000000 1 0 0
-14.548154 13.313922 0.640193 19.731172 -0.741129 1.538345 -0.004726 0.003264 -231291.000000 1 0 0
-17.243054 2.795422 -8.834407 19.575088 -0.160720 2.039028 0.019308 -0.003749 -234529.000000 1 0 0
-9.184754 8.456422 -8.923907 15.346234 -0.744136 2.191373 -0.002819 0.003141 -1974070.000000 1 0 0
-17.634054 4.730122 -2.602407 18.441975 -0.262069 1.712382 0.003762 -0.000082 1072100.000000 1 0 0
-13.559954 5.758522 -4.283707 15.342199 -0.401592 1.853768 0.007119 0.000341 -436160.000000 1 0 0
-12.091654 9.670322 3.452293 15.863214 -0.674590 1.351412 -0.008529 0.002770 -82554.100000 1 0 0
-17.484654 2.596522 -4.017607 18.127223 -0.147425 1.794286 0.004490 -0.001457 932727.000000 1 0 0
-11.337054 1.409322 -12.513507 16.944110 -0.123677 2.401664 0.004691 -0.003279 -43046.800000 1 0 0
-11.030654 12.054522 3.658993 16.744404 -0.829721 1.350498 -0.008764 0.000322 270645.000000 1 0 0
-16.380254 12.810622 -3.975407 21.171410 -0.663716 1.759690 0.014649 -0.001833 -182112.000000 1 0 0
-11.116754 4.180322 -4.437407 12.678639 -0.359680 1.928358 -0.002873 -0.001430 -651798.000000 1 0 0
-11.244754 14.953322 -8.979307 20.752694 -0.926023 2.018261 -0.003292 0.000673 -28514.900000 1 0 0
-15.430854 7.041922 -0.003607 16.961720 -0.428125 1.571009 0.005439 0.003155 -1342930.000000 1 0 0
-12.918754 8.395422 -3.941007 15.903108 -0.576279 1.821219 0.000227 0.000286 762065.000000 1 0 0
-19.236254 1.945122 -5.885307 20.210240 -0.100775 1.866282 0.002147 -0.002330 335214.000000 1 0 0
-12.930854 9.995322 -8.875507 18.598066 -0.658048 2.068293 0.002623 0.003624 580634.000000 1 0 0
-16.548454 10.924722 -0.693907 19.841431 -0.583488 1.605776 0.006539 0.000463 331869.000000 1 0 0
-10.652454 6.435222 -14.532407 19.133158 -0.543434 2.433403 -0.007728 0.001266 -124855.000000 1 0 0
-13.794954 12.748622 -4.286707 19.266655 -0.745999 1.795168 0.003208 -0.001497 483367.000000 1 0 0
-17.936754 7.678222 0.039893 19.511121 -0.404470 1.568752 0.009770 0.005513 -377251.000000 1 0 0
-12.791454 6.545422 -1.932707 14.498248 -0.472966 1.704501 -0.006699 0.001037 649572.000000 1 0 0
-13.812254 8.284422 -10.682707 19.326931 -0.540263 2.156441 -0.003438 0.003766 -118833.000000 1 0 0
-14.942554 1.369322 -0.768107 15.024811 -0.091384 1.621941 -0.002758 -0.000080 -469832.000000 1 0 0
-13.363154 2.818622 -2.301907 13.849812 -0.207878 1.737776 -0.001239 -0.001529 -386178.000000 1 0 0
-11.362354 9.209122 -10.776307 18.166998 -0.681107 2.205800 -0.000406 0.004696 -541507.000000 1 0 0
-15.435954 4.367122 -7.953907 17.905448 -0.275713 2.031097 0.007359 0.000850 562528.000000 1 0 0
-18.373954 10.722422 4.634593 21.772735 -0.528248 1.356293 0.012670 0.007443 783355.000000 1 0 0
-15.213354 6.243122 -6.135507 17.551842 -0.389415 1.927903 0.007457 0.002681 656714.000000 1 0 0
-7.735354 11.365622 -13.037107 18.946747 -0.973215 2.329653 -0.004644 0.012502 -939761.000000 1 0 0
-16.931754 9.124022 -2.594307 19.407795 -0.494258 1.704871 0.012764 0.001869 589033.000000 1 0 0
-20.686954 -0.943178 -4.635307 21.220880 0.045561 1.791003 0.002306 -0.002825 -61312.200000 1 0 0
-15.277554 4.377822 4.327593 16.471097 -0.279074 1.304937 -0.001871 0.000809 509578.000000 1 0 0
-6.985354 12.618922 -9.401507 17.216873 -1.065223 2.148455 -0.000288 -0.001383 -654831.000000 1 0 0
-17.232554 1.521422 5.934593 18.289205 -0.088059 1.240328 0.005701 -0.002700 266429.000000 1 0 0
-10.425854 14.153722 -3.055707 17.842747 -0.935916 1.742902 -0.006447 -0.002226 673840.000000 1 0 0
-10.064454 8.464722 -12.867307 18.398705 -0.699276 2.345297 -0.005871 0.003076 182132.000000 1 0 0
-13.600254 11.698122 2.971093 18.183519 -0.710351 1.406666 -0.007269 0.002728 -646957.000000 1 0 0
-16.798954 6.641122 2.162093 18.192966 -0.376474 1.451673 0.006954 0.006296 1112280.000000 1 0 0
-9.386954 13.344922 -8.605007 18.445812 -0.957785 2.056128 -0.001043 -0.003041 -1080470.000000 1 0 0
-5.683054 9.794522 -12.896107 17.162149 -1.045042 2.421019 0.004714 0.000923 -291156.000000 1 0 0
-15.841154 1.817422 3.373293 16.297984 -0.114228 1.362313 -0.002981 0.000688 353152.000000 1 0 0
-18.549754 -4.958778 4.665293 19.759752 0.261215 1.332445 0.001427 0.004050 -906967.000000 1 0 0
-5.409954 14.516122 -9.048207 17.940330 -1.214056 2.099425 0.001807 -0.005226 -913236.000000 1 0 0
-15.557554 -0.763078 -6.680307 16.948342 0.049009 1.975947 0.013691 -0.003345 825033.000000 1 0 0
-9.059254 10.965622 -9.525107 17.118488 -0.880312 2.160870 -0.003784 0.002137 190385.000000 1 0 0
-16.700654 1.333622 -6.020007 17.802553 -0.079685 1.915751 0.003532 -0.002932 -317161.000000 1 0 0
-11.167954 8.578522 -1.421507 14.153972 -0.655008 1.671398 -0.010283 -0.001894 -1289540.000000 1 0 0
-10.852554 10.925722 -12.829307 20.043464 -0.788758 2.265391 -0.002170 0.011081 -235631.000000 1 0 0
-13.873354 11.853222 -10.340807 20.973820 -0.707036 2.086370 -0.008295 0.009735 323705.000000 1 0 0
-13.169554 5.662922 -7.645207 16.246693 -0.406099 2.060733 0.002786 0.002747 -1359010.000000 1 0 0
-8.843754 15.480322 -4.682807 18.433150 -1.051755 1.827654 -0.006504 0.003299 448455.000000 1 0 0
-8.802954 6.139922 -12.842707 16.736958 -0.609036 2.445457 0.002433 -0.001098 -2141800.000000 1 0 0
-16.113154 7.397922 4.418593 18.272574 -0.430415 1.326560 -0.001464 0.004503 412889.000000 1 0 0
-12.668354 5.312022 -10.095907 17.047936 -0.397045 2.204591 0.001658 0.001426 183299.000000 1 0 0
-12.636054 9.218322 -13.185507 20.457393 -0.630268 2.271211 0.003315 0.002797 235913.000000 1 0 0
-10.703454 5.294322 -8.435907 14.620476 -0.459348 2.185838 -0.002484 0.002639 -993203.000000 1 0 0
-17.679954 -4.353078 -2.435907 18.370185 0.241414 1.703789 -0.004731 -0.001299 400750.000000 1 0 0
-8.972454 13.065122 -11.071107 19.333178 -0.969019 2.180529 -0.000723 -0.000659 237595.000000 1 0 0
-14.821954 6.185522 6.325893 17.261747 -0.395349 1.195585 -0.000106 0.000215 -1018430.000000 1 0 0
-16.285054 -3.051078 -4.343207 17.128208 0.185207 1.827166 -0.003758 -0.002640 -889564.000000 1 0 0
-11.243854 -1.208378 -12.363707 16.755468 0.107059 2.400736 0.004792 -0.007471 -391725.000000 1 0 0
-15.358454 6.934022 -8.460907 18.856026 -0.424083 2.036119 -0.000448 0.003248 46080.600000 1 0 0
-14.913754 9.281222 1.344793 17.617310 -0.556674 1.494388 0.001330 0.001842 -285865.000000 1 0 0
-19.254254 5.294022 8.193793 21.584513 -0.268323 1.181417 0.007405 -0.007771 393745.000000 1 0 0
-16.192054 0.457422 1.091593 16.235253 -0.028242 1.503510 -0.005492 0.000771 -925409.000000 1 0 0
-17.291354 3.807222 7.098293 19.075419 -0.216723 1.189507 -0.002336 0.000499 681121.000000 1 0 0
-15.380054 3.966322 -1.305807 15.936841 -0.252388 1.652825 0.003319 -0.002078 -841036.000000 1 0 0
-10.665154 13.249722 0.476393 17.015510 -0.893054 1.542795 -0.009155 -0.006182 -1171850.000000 1 0 0
-13.419054 3.358422 0.229193 13.834831 -0.245235 1.554229 -0.004596 0.001358 -597304.000000 1 0 0
-15.114554 0.124722 -4.155307 15.675837 -0.008252 1.839080 0.001534 -0.002789 511133.000000 1 0 0
-18.681854 6.811122 3.898493 20.263299 -0.349609 1.377197 0.009500 0.004775 506109.000000 1 0 0
-14.078854 1.381222 -6.070607 15.393966 -0.097793 1.976157 0.005405 -0.002665 216772.000000 1 0 0
-14.142554 11.904322 5.508793 19.289155 -0.699678 1.281174 -0.006000 0.000430 -22331.000000 1 0 0
17.790446 5.705822 5.967393 19.612908 0.310359 1.261636 0.007979 -0.003299 -994676.000000 1 0 0
18.439546 7.584122 -0.345707 19.941296 0.390207 1.588133 0.001523 0.002823 -165948.000000 1 0 0
16.835246 5.199222 8.317993 19.484517 0.299538 1.129731 0.006791 -0.004322 258941.000000 1 0 0
11.732246 12.146222 11.149393 20.235742 0.802733 0.987264 0.003254 -0.001868 489446.000000 1 0 0
-2.460354 16.297422 -0.521607 16.490342 -1.420962 1.602433 0.004765 -0.002306 -201810.000000 1 0 0
14.826446 12.783222 3.449893 19.878028 0.711529 1.396360 0.001288 0.000326 354639.000000 1 0 0
13.642046 11.738522 6.770393 19.228534 0.710539 1.210981 0.005855 -0.000995 729722.000000 1 0 0
-0.486654 15.781322 8.652693 18.004334 -1.539969 1.069470 0.000225 0.004553 269950.000000 1 0 0
0.828346 12.824522 9.477493 15.968011 1.506295 0.935359 0.000782 0.005332 -1198480.000000 1 0 0
0.650546 15.552722 -3.897507 16.046835 1.528992 1.816133 0.009778 -0.006315 1398120.000000 1 0 0
5.581246 10.249222 13.630093 17.943698 1.072145 0.708093 0.003271 -0.001394 574833.000000 1 0 0
-1.507054 16.540222 -2.771407 16.838374 -1.479933 1.736137 0.004760 -0.003723 -526882.000000 1 0 0
8.652946 10.028022 3.330093 13.657387 0.858874 1.324482 -0.000871 0.002332 324670.000000 1 0 0
12.390946 13.687422 -5.039907 19.138488 0.835072 1.837278 0.005072 -0.005125 -721021.000000 1 0 0
2.513946 11.505322 7.890493 14.175762 1.355674 0.980486 0.000081 0.008894 -28536.000000 1 0 0
-0.413154 14.944222 -8.699207 17.296724 -1.543157 2.097793 0.009601 -0.001631 -2015630.000000 1 0 0
2.358246 15.865922 0.289193 16.042831 1.423241 1.552769 0.004011 -0.006919 -551807.000000 1 0 0
2.037746 13.257222 5.391793 14.456063 1.418282 1.188580 0.000357 0.006909 43633.900000 1 0 0
17.522246 9.101322 -2.073207 19.853497 0.479059 1.675412 -0.003830 0.000056 17935.100000 1 0 0
-7.162454 14.892422 7.325493 18.076167 -1.122508 1.153536 0.005704 -0.003687 -519526.000000 1 0 0
8.398646 15.855222 -0.053307 17.942356 1.083665 1.573767 -0.002640 -0.003294 -825174.000000 1 0 0
15.713646 10.641422 2.209293 19.106007 0.595266 1.454904 0.005036 0.004996 -206068.000000 1 0 0
14.216846 7.432922 8.745293 18.271485 0.481740 1.071702 0.003821 -0.002677 -917328.000000 1 0 0
4.146346 18.505822 -1.807907 19.050621 1.350380 1.665840 0.009988 -0.011093 4350.950000 1 0 0
-0.498554 17.688522 -4.846807 18.347313 -1.542619 1.838139 0.009401 -0.000545 644738.000000 1 0 0
1.266446 13.668722 -0.730307 13.746679 1.478407 1.623947 0.004733 -0.005646 63632.500000 1 0 0
10.288446 14.616322 4.266793 18.376466 0.957457 1.336470 0.004075 -0.004378 539756.000000 1 0 0
-1.814354 15.443022 -5.095207 16.362761 -1.453845 1.887452 0.006340 -0.004976 168505.000000 1 0 0
14.910146 8.817522 -6.198207 18.397796 0.534055 1.914418 -0.004513 0.000899 199329.000000 1 0 0
-2.364154 18.513922 0.821093 18.682310 -1.443788 1.526832 0.000224 -0.002962 -1084510.000000 1 0 0
-3.611654 19.305022 3.397793 19.931706 -1.385851 1.399488 -0.001563 -0.004363 -85363.200000 1 0 0
1.779446 17.660922 -2.654007 17.947656 1.470379 1.719216 0.007813 -0.008815 172177.000000 1 0 0
2.999646 12.188522 3.400493 13.004664 1.329488 1.306238 0.000876 0.002888 112195.000000 1 0 0
-2.610554 16.228622 1.981493 16.556252 -1.411302 1.450826 0.005772 0.001784 -2686140.000000 1 0 0
11.634046 12.877122 -2.749607 17.570761 0.836069 1.727930 -0.010126 0.002798 239189.000000 1 0 0
7.430846 11.566622 4.872593 14.585828 0.999755 1.230185 -0.005967 0.003771 2287.600000 1 0 0
7.139546 15.745822 2.121293 17.418493 1.145098 1.448709 0.004004 -0.002418 -2438690.000000 1 0 0
5.569346 12.117822 10.405993 16.915789 1.139988 0.908202 -0.005085 0.008990 -55825.400000 1 0 0
-1.337054 14.233522 3.136193 14.636139 -1.477134 1.354844 0.005794 0.002868 -964437.000000 1 0 0
4.691846 16.060822 1.409993 16.791411 1.286575 1.486726 0.004439 -0.009961 -529757.000000 1 0 0
7.449746 13.097522 12.102593 19.326576 1.053641 0.894107 0.001354 0.007700 270877.000000 1 0 0
0.574346 17.150022 -9.424507 19.577397 1.537319 2.073045 -0.000018 -0.005896 415136.000000 1 0 0
9.941746 9.473522 15.385993 20.623159 0.761287 0.728680 0.007390 -0.006932 -679639.000000 1 0 0
13.487146 7.685822 -0.145407 15.524049 0.517965 1.580163 0.001999 -0.000371 750522.000000 1 0 0
12.331646 13.557822 -0.240007 18.328710 0.832725 1.583891 -0.000347 0.002757 675536.000000 1 0 0
9.514746 12.304722 3.388693 15.919165 0.912574 1.356286 0.000912 0.003818 668643.000000 1 0 0
-0.616654 12.902422 0.897693 12.948305 -1.523039 1.501412 0.005652 -0.000608 -839155.000000 1 0 0
15.944846 7.305422 -0.911307 17.562397 0.429626 1.622709 0.004853 0.000489 -1461300.000000 1 0 0
-4.291154 18.462522 -2.405807 19.106717 -1.342426 1.697046 0.009824 -0.002984 77162.500000 1 0 0
11.580446 9.318422 -3.251507 15.215519 0.677581 1.786154 0.007578 -0.001005 159568.000000 1 0 0
14.821146 9.693122 7.838893 19.366755 0.579186 1.154080 0.006093 -0.004809 926889.000000 1 0 0
4.604946 13.536622 4.779493 15.076114 1.242893 1.248206 -0.003159 0.003267 -1128140.000000 1 0 0
2.237846 15.886822 5.689793 17.022714 1.430855 1.229990 -0.002673 0.006429 53551.700000 1 0 0
6.070446 18.274722 5.532193 20.035492 1.250087 1.291042 -0.006480 -0.005699 -652070.000000 1 0 0
10.574446 17.196122 -0.673107 20.198480 1.019470 1.604127 -0.009840 0.004190 -486248.000000 1 0 0
9.823046 13.669322 -4.469007 17.415930 0.947683 1.830304 0.004351 -0.000505 -1570160.000000 1 0 0
16.556446 8.099022 2.265893 18.569984 0.454951 1.448472 0.002047 0.000564 120578.000000 1 0 0
3.969246 14.003422 -0.523607 14.564508 1.294593 1.606755 0.006124 -0.005737 1097490.000000 1 0 0
5.543046 13.149422 -2.406007 14.471404 1.171857 1.737831 0.003806 -0.005514 -282920.000000 1 0 0
-6.302454 16.895422 -2.916207 18.266923 -1.213756 1.731126 0.001574 -0.001795 -1244870.000000 1 0 0
18.201546 10.060522 2.790393 20.983247 0.504936 1.437419 0.007067 0.001854 1981440.000000 1 0 0
7.941746 12.934122 9.519793 17.916174 1.020135 1.010601 0.001089 0.005106 721293.000000 1 0 0
-2.462354 15.822122 6.804793 17.398504 -1.416407 1.168955 0.007460 0.004839 1215820.000000 1 0 0
11.022246 15.881922 6.381093 20.357890 0.964100 1.251977 0.006847 -0.006683 117939.000000 1 0 0
13.541646 11.948122 1.321593 18.107468 0.722963 1.497745 0.007112 0.004839 1504110.000000 1 0 0
17.364946 8.049622 -5.691107 19.968136 0.434070 1.859813 -0.001586 0.004801 85315.700000 1 0 0
9.575246 9.223522 8.011193 15.522174 0.766690 1.028490 -0.000665 -0.000960 -855595.000000 1 0 0
-2.103054 14.207522 -1.901807 14.487698 -1.423839 1.702447 0.002307 -0.002589 528250.000000 1 0 0
10.937446 11.690422 0.786993 16.028507 0.818662 1.521677 -0.000321 0.006847 -1071190.000000 1 0 0
11.738946 9.834722 -0.657907 15.328322 0.697360 1.613731 0.001956 0.003091 -675670.000000 1 0 0
-0.171454 15.971722 11.198393 19.507160 -1.560062 0.959334 0.002132 -0.000655 -245388.000000 1 0 0
2.011846 20.182522 -1.924107 20.373608 1.471442 1.665378 0.011999 -0.007294 -163321.000000 1 0 0
9.192546 14.299822 1.850893 17.100105 0.999469 1.462345 -0.000813 0.001580 -783534.000000 1 0 0
8.457746 11.685922 -5.239707 15.347598 0.944305 1.919205 0.008446 -0.002547 -1396020.000000 1 0 0
10.616846 9.942122 10.374193 17.865807 0.752591 0.951241 -0.002370 -0.003306 59586.600000 1 0 0
-5.038154 15.787322 5.887293 17.586436 -1.261886 1.229442 0.004033 -0.002706 946807.000000 1 0 0
14.587446 9.222622 -1.907407 17.363425 0.563782 1.680870 0.017843 0.004730 -750030.000000 1 0 0
12.244946 9.554322 7.053993 17.058211 0.662592 1.144474 0.000668 -0.001007 -1559900.000000 1 0 0
3.252146 12.852722 9.918193 16.557157 1.322966 0.928510 -0.006193 0.005346 -941224.000000 1 0 0
8.501246 12.675822 -2.603407 15.483067 0.980030 1.739744 0.004678 -0.000767 -1058320.000000 1 0 0
9.299346 16.973422 2.099993 19.467533 1.069585 1.462714 -0.003357 0.000544 -793848.000000 1 0 0
9.589946 14.396222 -7.507807 18.856973 0.983156 1.980290 0.011304 -0.003581 -719705.000000 1 0 0
6.466146 11.452422 7.351993 15.067210 1.056806 1.061061 -0.002525 0.005975 -906680.000000 1 0 0
5.346146 16.908922 -5.419407 18.543540 1.264569 1.867378 -0.002703 -0.001461 -1285950.000000 1 0 0
-4.297654 17.257822 -4.632707 18.378363 -1.326734 1.825619 0.002099 -0.001361 245251.000000 1 0 0
-0.140054 18.591422 -0.551907 18.600139 -1.563263 1.600473 0.006121 -0.004495 44388.600000 1 0 0
6.644646 15.631522 -2.734707 17.203907 1.168858 1.730432 -0.000269 0.000207 -404164.000000 1 0 0
-0.862254 20.622522 0.910093 20.660594 -1.529009 1.526732 0.005271 -0.003286 132819.000000 1 0 0
-1.267954 18.886722 4.413493 19.436946 -1.503762 1.341731 -0.000072 0.002102 570241.000000 1 0 0
7.105146 13.824322 -4.450207 16.167848 1.096043 1.849647 -0.000152 0.001978 949682.000000 1 0 0
-0.796554 12.001322 7.732693 14.298978 -1.504521 0.999425 0.002956 0.008822 659929.000000 1 0 0
7.774146 10.785322 10.950293 17.224094 0.946241 0.881811 -0.001793 -0.001176 125190.000000 1 0 0
1.420446 15.974822 -7.161107 17.563999 1.482112 1.990747 -0.001488 -0.007884 20526.800000 1 0 0
8.993646 7.034022 14.750393 18.653075 0.663737 0.658722 0.000563 -0.006294 -443323.000000 1 0 0
11.240646 11.443322 -4.874407 16.764891 0.794333 1.865808 0.003121 0.000969 -1047570.000000 1 0 0
-3.311154 17.042522 4.579593 17.955054 -1.378899 1.312888 0.006013 -0.000336 -26871.300000 1 0 0
3.901246 15.387122 -6.648307 17.209975 1.322489 1.967419 -0.000552 -0.003531 -271583.000000 1 0 0
-4.480454 14.051822 9.690993 17.647762 -1.262135 0.989468 0.012133 0.002508 451598.000000 1 0 0
6.313946 17.886222 0.643693 18.978861 1.231446 1.536874 0.002127 -0.009312 -335327.000000 1 0 0
9.728546 10.705422 -2.198207 14.631568 0.833168 1.721605 0.002370 0.000909 -1519700.000000 1 0 0
7.156646 18.202122 -2.566707 19.726196 1.196186 1.701283 -0.003370 0.000692 -176270.000000 1 0 0
3.646746 10.312122 10.638193 15.258105 1.230885 0.799290 -0.003663 0.007275 1560670.000000 1 0 0
0.100246 18.614222 2.035693 18.725473 1.565411 1.461869 0.004059 -0.003708 510280.000000 1 0 0
-0.978454 17.189222 -7.380007 18.732091 -1.513935 1.975751 0.011406 -0.001797 305006.000000 1 0 0
10.077246 8.642422 12.997593 18.579014 0.708900 0.795980 -0.004362 -0.004902 266163.000000 1 0 0
3.794746 11.227522 5.571793 13.095885 1.244864 1.131325 -0.002398 0.006815 685958.000000 1 0 0
12.946046 13.803322 8.341493 20.681206 0.817436 1.155636 0.004164 -0.004121 -452896.000000 1 0 0
-0.270054 17.301322 6.741193 18.570200 -1.555189 1.199299 -0.006461 0.002588 -245126.000000 1 0 0
12.099046 13.536322 5.817993 19.064836 0.841406 1.260681 0.008212 -0.003641 -582511.000000 1 0 0
4.755346 14.615622 -4.289107 15.957010 1.256238 1.842934 0.000974 -0.000651 -1452410.000000 1 0 0
3.762046 17.514622 4.666193 18.511843 1.359217 1.315982 -0.005017 -0.000277 -913593.000000 1 0 0
7.064746 11.643622 2.152393 13.788305 1.025430 1.414053 0.002931 0.002516 1063530.000000 1 0 0
6.636146 8.568022 11.788593 16.013130 0.911783 0.743383 0.006279 -0.003189 92221.700000 1 0 0
-5.363554 14.988022 1.872093 16.028513 -1.227140 1.453731 -0.002138 0.005134 70115.200000 1 0 0
6.949946 13.806022 6.046193 16.597121 1.104433 1.197924 -0.008329 0.007899 -160562.000000 1 0 0
5.854346 15.751822 4.885093 17.500211 1.214956 1.287893 -0.007463 -0.001808 764874.000000 1 0 0
1.240246 17.967322 4.330293 18.523345 1.501878 1.334838 -0.000278 0.000885 170531.000000 1 0 0
7.193346 18.165322 -6.843007 20.701447 1.193749 1.907690 -0.013106 0.006859 433126.000000 1 0 0
-2.513554 18.788622 -5.915807 19.857670 -1.437805 1.873299 0.013795 0.000231 205559.000000 1 0 0
13.399146 10.284922 -4.594807 17.505113 0.654658 1.836392 0.000627 0.004668 -3427470.000000 1 0 0
-1.117754 17.977122 9.954393 20.579510 -1.508700 1.065914 0.005044 -0.001396 -175756.000000 1 0 0
3.385646 11.804122 -1.545007 12.376871 1.291476 1.695953 0.008208 -0.005132 1472310.000000 1 0 0
4.265146 14.054522 -10.871107 18.272986 1.276158 2.207972 -0.009646 -0.005080 -358035.000000 1 0 0
11.586246 13.509522 2.342893 17.950973 0.861886 1.439907 0.004757 0.002648 164305.000000 1 0 0
15.887346 6.357822 -6.971907 18.478018 0.380663 1.957684 -0.003222 0.000469 234437.000000 1 0 0
2.558146 16.031922 2.940993 16.498972 1.412564 1.391586 0.001767 -0.001072 393495.000000 1 0 0
13.439346 10.591522 3.528093 17.471227 0.667441 1.367461 0.002006 0.002850 -549821.000000 1 0 0
-5.080954 19.359322 -6.025307 20.902243 -1.314130 1.863207 0.006598 -0.001884 -240117.000000 1 0 0
5.425646 12.043322 0.061493 13.209202 1.147518 1.566141 0.004838 -0.001885 934544.000000 1 0 0
4.909246 15.314922 9.715293 18.789211 1.260592 1.027375 -0.004205 0.009911 -152665.000000 1 0 0
7.833746 9.351322 14.066893 18.619674 0.873478 0.714402 0.003147 -0.003847 -1667400.000000 1 0 0
-4.886254 13.702522 7.215893 16.238956 -1.228258 1.110340 0.006228 0.003366 -1178780.000000 1 0 0
-4.576954 17.207222 0.629993 17.816674 -1.310826 1.535429 0.003561 0.001125 -1723640.000000 1 0 0
-0.650754 16.596022 3.472093 16.967818 -1.531605 1.364713 0.002924 0.001052 -1696540.000000 1 0 0
7.817546 16.907422 -4.712407 19.214102 1.137700 1.818582 -0.006736 0.001431 952450.000000 1 0 0
2.937846 16.492322 -4.547707 17.358262 1.394511 1.835881 0.001560 -0.003757 -1184840.000000 1 0 0
9.765146 14.327622 8.449893 19.288326 0.972553 1.117331 0.014132 0.005290 338928.000000 1 0 0
12.872546 10.838622 9.169693 19.164066 0.699828 1.071869 0.002527 -0.006154 1516320.000000 1 0 0
3.893946 12.285122 12.389293 17.876846 1.263849 0.805105 -0.003042 0.008025 449235.000000 1 0 0
-3.418154 19.344422 5.877293 20.504463 -1.395902 1.280084 0.012247 0.001639 149246.000000 1 0 0
-2.585554 15.756822 10.247793 18.973133 -1.408155 1.000215 0.014686 -0.002369 -160298.000000 1 0 0
2.246346 14.140522 7.735493 16.273852 1.413254 1.075454 -0.001096 0.007355 -587151.000000 1 0 0
4.370746 17.091022 7.873793 19.318464 1.320429 1.150995 -0.004975 0.003639 -6847.170000 1 0 0
-1.824054 13.402322 9.452993 16.501772 -1.435528 0.960821 0.011675 0.000672 -57882.900000 1 0 0
5.795646 17.647422 3.084593 18.829119 1.253480 1.406234 -0.006003 -0.007835 140830.000000 1 0 0
7.206546 15.524622 -6.801607 18.417656 1.136196 1.949050 0.003256 0.003400 755747.000000 1 0 0
11.186846 7.659122 9.446993 16.524326 0.600352 0.962217 0.006598 -0.002112 675996.000000 1 0 0
9.081446 16.451822 -2.587707 18.969221 1.066417 1.707639 -0.000556 -0.002643 -119601.000000 1 0 0
14.525146 11.326222 -6.702607 19.600717 0.662281 1.919795 0.015996 0.002583 435675.000000 1 0 0
11.140746 6.324122 16.081493 20.560281 0.516298 0.672666 -0.000111 -0.001006 687581.000000 1 0 0
8.610946 8.458222 10.169593 15.783235 0.776451 0.870651 0.002859 -0.002875 -916701.000000 1 0 0
16.341146 9.460022 4.507393 19.412410 0.524766 1.336466 0.004896 0.000701 55960.700000 1 0 0
-3.202754 14.295722 4.790393 15.413408 -1.350400 1.254768 0.000733 0.003344 -746211.000000 1 0 0
4.771446 14.688822 12.835393 20.081720 1.256714 0.877393 -0.004546 0.014062 -350575.000000 1 0 0
15.932046 10.726522 -4.668407 19.765687 0.592558 1.809237 -0.000966 0.001062 -2353.800000 1 0 0
14.623746 14.076022 6.426293 21.290504 0.766316 1.264176 -0.000748 0.009460 -277377.000000 1 0 0
6.373246 9.476022 9.270493 14.709021 0.978721 0.888910 0.001293 0.001708 212705.000000 1 0 0
10.486646 11.983722 8.873993 18.229840 0.851924 1.062392 0.000916 -0.002607 304439.000000 1 0 0
7.967446 11.500222 -0.362107 13.995228 0.964914 1.596673 0.002988 0.000029 96756.900000 1 0 0
7.487846 13.643622 -8.720407 17.839892 1.068862 2.081527 0.011643 0.001745 -916280.000000 1 0 0
2.648146 15.262222 -2.254407 15.653448 1.398997 1.715319 0.005023 -0.007483 270633.000000 1 0 0
12.133746 13.964322 -7.783407 20.070164 0.855426 1.969051 0.010137 -0.002498 39969.500000 1 0 0
-8.114454 14.831322 9.812593 19.547364 -1.070170 1.044897 0.008870 -0.001359 369479.000000 1 0 0
11.499646 9.563122 2.163093 15.112052 0.693715 1.427166 0.003905 0.004396 -1693520.000000 1 0 0
12.036846 8.700422 4.592693 15.545926 0.625875 1.270893 0.000773 0.000322 130527.000000 1 0 0
14.115546 8.031122 6.062493 17.334975 0.517280 1.213518 0.004047 -0.002486 -2426970.000000 1 0 0
16.314246 7.470222 7.197193 19.332833 0.429400 1.189334 0.004717 -0.002765 -515758.000000 1 0 0
13.600246 8.313522 2.392893 16.118538 0.548670 1.421790 -0.000121 0.000821 -1521970.000000 1 0 0
-4.238354 17.265422 -7.190207 19.177005 -1.330074 1.955127 0.005077 -0.006065 224350.000000 1 0 0
3.089346 19.443422 -4.123707 20.114564 1.413225 1.777271 0.000686 -0.007829 489074.000000 1 0 0
0.024246 14.742822 6.324993 16.042348 1.569152 1.165525 0.000431 0.004722 792827.000000 1 0 0
6.778046 16.140122 8.195693 19.329118 1.173211 1.132931 -0.007457 0.008541 -1342200.000000 1 0 0
12.671746 15.293422 -2.090207 19.970750 0.878873 1.675652 -0.004663 0.000893 -248997.000000 1 0 0
12.664546 15.689822 4.324493 20.621893 0.891691 1.359524 0.007426 -0.000525 -21583.600000 1 0 0
3.085646 18.138722 1.345793 18.448458 1.402296 1.497783 0.011073 -0.008989 -599623.000000 1 0 0
10.328846 14.627022 -1.256707 17.950324 0.955956 1.640864 -0.002365 0.005633 -2503840.000000 1 0 0
-6.436154 15.855822 -0.457307 17.118420 -1.185199 1.597514 -0.006822 0.001379 -437096.000000 1 0 0
-4.018854 15.844422 -2.486307 16.534165 -1.322390 1.721743 0.004392 -0.002692 -2032470.000000 1 0 0
-6.825854 17.102722 1.840393 18.506281 -1.191058 1.471185 -0.000974 -0.000250 -640568.000000 1 0 0
0.044746 19.476322 -6.555107 20.549904 1.568499 1.895454 0.005626 0.000047 1131330.000000 1 0 0
4.900046 14.692222 7.159193 17.062411 1.248884 1.137804 -0.004978 0.006725 -1120300.000000 1 0 0
8.705846 12.371522 7.088793 16.706205 0.957591 1.132584 -0.000796 0.004089 -1452250.000000 1 0 0
-7.641054 17.577422 -5.737907 20.006875 -1.160731 1.861678 0.002177 0.004905 -148053.000000 1 0 0
-7.952254 17.826022 -1.132807 19.552203 -1.151187 1.628766 0.000455 -0.002319 -95656.300000 1 0 0
-13.712654 -9.217578 9.268893 18.944999 0.591820 1.059564 -0.002700 -0.008235 99259.700000 1 0 0
-12.715354 -13.098178 7.708893 19.815891 0.800227 1.171222 0.009823 0.002597 395371.000000 1 0 0
-3.757854 -14.978878 12.579293 19.918004 1.324993 0.887241 -0.003716 -0.004328 51050.200000 1 0 0
-2.102554 -14.181278 14.886593 20.667366 1.423606 0.766569 -0.001256 0.000353 -48710.300000 1 0 0
-7.073954 -13.803878 12.730993 20.066541 1.097229 0.883514 0.006367 -0.003994 210538.000000 1 0 0
-9.827054 -11.544078 8.975393 17.618014 0.865569 1.036258 0.003872 -0.004467 548866.000000 1 0 0
-10.551654 -10.641578 11.207493 18.713324 0.789641 0.928664 0.000668 -0.009878 247708.000000 1 0 0
-5.726054 -12.325378 10.812693 17.367123 1.135889 0.898741 0.001955 -0.000477 716052.000000 1 0 0
-12.392354 -10.567378 7.355193 17.870053 0.706079 1.146595 -0.003704 -0.000052 -768033.000000 1 0 0
-7.609754 -11.283678 12.454193 18.448216 0.977456 0.829711 0.004518 -0.008175 -606913.000000 1 0 0
-14.811254 -11.608578 7.254893 20.168436 0.664764 1.202834 -0.001394 -0.000344 -770563.000000 1 0 0
-11.098154 -9.237578 9.150593 17.094889 0.694159 1.005954 0.003127 -0.006549 -1926450.000000 1 0 0
-5.374454 -12.011178 13.393193 18.775803 1.150061 0.776569 0.005090 -0.000576 -409508.000000 1 0 0
3.951546 -12.445478 14.760093 19.706978 -1.263355 0.724278 -0.002312 0.001022 -735482.000000 1 0 0
6.362546 -12.795478 13.993693 20.000742 -1.109351 0.795877 -0.009285 0.000798 -338726.000000 1 0 0
6.561246 -8.538278 16.056893 19.333286 -0.915591 0.590736 -0.003518 0.002893 75034.100000 1 0 0
0.813946 -1.756478 14.552393 14.680595 -1.136858 0.132253 0.007335 -0.002145 -1834250.000000 1 0 0
-0.118254 -6.342478 15.675793 16.910692 1.552154 0.384529 -0.000323 -0.001429 -211932.000000 1 0 0
-1.369654 -4.738978 18.319393 18.971927 1.289444 0.263035 0.009270 -0.007826 -2422270.000000 1 0 0
-5.011954 12.848622 13.002093 18.954186 -1.198873 0.814854 0.000498 0.003805 -2232760.000000 1 0 0
-3.937154 8.832722 11.741793 15.211438 -1.151485 0.688963 -0.003469 0.003413 -339358.000000 1 0 0
-0.430454 -4.008178 15.030993 15.562183 1.463812 0.262028 0.003129 -0.000707 -282359.000000 1 0 0
-4.318854 9.215422 14.364293 17.604244 -1.132538 0.616415 -0.002040 -0.001996 343856.000000 1 0 0
-13.385054 -2.464478 16.867993 21.674005 0.182082 0.678908 -0.004649 -0.001018 -544166.000000 1 0 0
-0.161454 0.961222 17.394193 17.421480 -1.404382 0.055977 0.006685 0.000874 1117830.000000 1 0 0
-3.062554 -7.364778 15.519593 17.449268 1.176712 0.474739 0.007957 -0.007755 418659.000000 1 0 0
-7.354054 5.414222 12.785093 15.711604 -0.634625 0.620246 -0.000360 0.002527 -1671730.000000 1 0 0
-9.688354 10.044722 13.756493 19.595962 -0.803456 0.792585 0.003290 0.001198 150427.000000 1 0 0
-5.511954 2.188522 11.275193 12.739750 -0.377961 0.484216 -0.001037 0.003579 -1352700.000000 1 0 0
-7.042054 -7.379378 16.900893 19.740464 0.808784 0.543015 -0.001897 -0.005479 -291504.000000 1 0 0
-4.586354 3.270622 18.584793 19.419736 -0.619477 0.294300 0.006462 -0.003028 -1462790.000000 1 0 0
1.090546 -8.475478 16.474093 18.558522 -1.442829 0.478507 0.001762 -0.004592 623976.000000 1 0 0
-14.820354 -3.767278 14.126793 20.818299 0.248924 0.824974 -0.007039 -0.001824 215557.000000 1 0 0
-14.156654 1.914822 13.070993 19.363064 -0.134444 0.829767 -0.012590 -0.000772 26052.100000 1 0 0
-5.416954 0.900422 16.240093 17.143359 -0.164717 0.326062 0.007568 0.001597 615589.000000 1 0 0
4.639746 5.612622 15.235293 16.886175 0.880008 0.445873 0.002444 -0.000948 -149686.000000 1 0 0
-1.081254 -12.018478 13.854493 18.372803 1.481072 0.716550 -0.005918 -0.005504 41195.600000 1 0 0
-5.819254 -4.182078 16.895293 18.352232 0.623141 0.401150 0.011977 -0.001184 -152593.000000 1 0 0
-12.872054 -1.707478 9.957893 16.363523 0.131880 0.916574 -0.005273 0.000403 -1098710.000000 1 0 0
-14.428454 10.339522 10.371693 20.558648 -0.621784 1.042002 -0.010273 0.006326 424550.000000 1 0 0
-3.547654 -3.409578 17.755093 18.424288 0.765554 0.270346 0.013922 -0.002728 -1890710.000000 1 0 0
-7.880554 9.294222 12.002893 17.104243 -0.867524 0.792946 0.004255 -0.003688 150201.000000 1 0 0
-4.067554 10.571822 16.507093 20.019803 -1.203501 0.601411 -0.003465 -0.002549 231099.000000 1 0 0
-12.364754 12.701422 8.743993 19.765391 -0.798829 1.112535 -0.006385 0.007328 262879.000000 1 0 0
-12.454154 3.013322 10.503193 16.568136 -0.237391 0.884160 -0.004167 0.001090 -5188.200000 1 0 0
-10.051454 -3.628378 13.750193 17.414496 0.346423 0.660667 -0.001518 -0.001430 -876557.000000 1 0 0
-4.192654 -6.554678 17.770193 19.399018 1.001736 0.412714 0.009693 -0.001845 -705465.000000 1 0 0
0.938846 -3.766278 17.943093 18.358128 -1.326498 0.213042 0.004089 -0.003270 -352893.000000 1 0 0
-5.790654 1.595122 13.724893 14.981614 -0.268798 0.412514 0.006025 0.003384 -1179900.000000 1 0 0
-10.404054 8.697022 10.419293 17.101000 -0.696267 0.915644 -0.001384 -0.002567 -156755.000000 1 0 0
4.814346 2.450722 17.019793 17.856576 0.470858 0.307350 0.006661 -0.004704 -1813850.000000 1 0 0
0.578246 -5.418278 13.254593 14.330957 -1.464477 0.390044 -0.002355 0.000048 -1027760.000000 1 0 0
-3.787054 5.851122 20.817093 21.952876 -0.996367 0.323078 0.003819 -0.003104 81658.000000 1 0 0
-10.626354 10.801322 9.115093 17.682558 -0.793563 1.029223 -0.002831 -0.003394 -25194.000000 1 0 0
0.728246 4.096522 13.021793 13.670366 1.394863 0.309269 0.003862 -0.002251 -2633980.000000 1 0 0
-3.115354 7.128322 13.425993 15.516948 -1.158773 0.525154 -0.001028 0.000494 -450021.000000 1 0 0
0.793546 8.915422 14.115393 16.714029 1.482022 0.565121 -0.001690 -0.001416 49161.300000 1 0 0
-4.085954 -6.734778 13.163993 15.340892 1.025469 0.539242 0.005416 -0.003939 61571.200000 1 0 0
-4.926454 8.131822 16.641993 19.166439 -1.026105 0.519055 0.005222 0.001442 -256904.000000 1 0 0
1.559746 -10.876878 15.539993 19.032358 -1.428367 0.615467 -0.003845 -0.001322 -754857.000000 1 0 0
-15.130254 -1.177978 14.288393 20.843953 0.077699 0.815515 -0.000838 -0.004179 172872.000000 1 0 0
-13.461054 -5.416478 8.522393 16.827638 0.382558 1.039731 -0.007176 -0.002845 -787033.000000 1 0 0
-14.158154 -2.118378 12.177493 18.794472 0.148521 0.865933 -0.002363 -0.002391 178566.000000 1 0 0
9.400846 1.186722 17.077893 19.530454 0.125571 0.506550 -0.002952 0.001425 -615881.000000 1 0 0
4.934046 -6.833678 16.821693 18.815241 -0.945445 0.464499 0.001566 -0.000825 -111928.000000 1 0 0
-5.991654 -2.786278 11.093293 12.912181 0.435279 0.537221 0.001419 -0.000019 534792.000000 1 0 0
0.612646 -6.387378 18.093293 19.197426 -1.475174 0.340807 0.005558 -0.001626 -110832.000000 1 0 0
-8.512754 11.832022 12.278893 19.058723 -0.947124 0.870733 0.008687 -0.003282 289198.000000 1 0 0
-6.462154 -5.874978 14.864793 17.240559 0.737840 0.531202 0.005069 -0.005102 -1254420.000000 1 0 0
-4.205754 -9.008278 17.162593 19.834113 1.133997 0.525034 0.007329 -0.005941 -70526.800000 1 0 0
2.473946 -6.269778 16.210993 17.556389 -1.194969 0.394036 0.001544 -0.003898 -1327810.000000 1 0 0
2.340246 5.247022 15.999093 16.999381 1.151262 0.344758 0.002613 -0.006413 -1235190.000000 1 0 0
0.849746 -9.007978 13.937693 16.617010 -1.476742 0.575793 -0.007871 -0.004474 -403349.000000 1 0 0
-9.844954 -2.936578 11.333093 15.296588 0.289880 0.736401 -0.006515 -0.001552 -269390.000000 1 0 0
-1.175054 10.071122 12.492593 16.089534 -1.454646 0.681796 0.001832 0.000812 -683049.000000 1 0 0
-12.262754 -3.821978 11.458893 17.213044 0.302132 0.842352 -0.003478 -0.001741 -1564460.000000 1 0 0
-1.525454 6.918022 19.941693 21.162636 -1.353765 0.341341 -0.001134 -0.001589 -27140.700000 1 0 0
0.243046 -13.369778 15.668893 20.599132 -1.552620 0.706470 -0.008166 -0.007925 -411893.000000 1 0 0
4.023246 -8.699078 15.255093 18.016057 -1.137604 0.560951 -0.004461 0.000087 -713646.000000 1 0 0
4.442146 -4.429378 16.160993 17.335794 -0.783959 0.370262 0.005741 -0.003149 -960362.000000 1 0 0
8.179046 1.655422 14.776893 16.970379 0.199700 0.514079 -0.001924 -0.000147 -569656.000000 1 0 0
-6.350154 -0.210778 11.802793 13.404283 0.033180 0.493830 -0.001268 0.001754 488430.000000 1 0 0
-3.368254 -11.192678 18.240093 21.663845 1.278483 0.569890 0.009783 -0.006987 332393.000000 1 0 0
3.373746 -1.588078 13.574693 14.077515 -0.439948 0.268078 0.000146 -0.002875 716325.000000 1 0 0
-2.411954 8.596922 16.018893 18.339289 -1.297268 0.508504 -0.001474 -0.002057 -562043.000000 1 0 0
-3.050154 3.897722 14.944593 15.742825 -0.906788 0.319809 0.003519 -0.001129 -478387.000000 1 0 0
-4.399854 -9.443278 19.782193 22.357759 1.134779 0.484727 0.005797 0.001413 67710.100000 1 0 0
-5.623754 -3.105378 19.277993 20.320211 0.504523 0.321665 0.005346 0.001438 -1044790.000000 1 0 0
-6.502254 -8.775278 10.974993 15.483387 0.933097 0.782967 0.005363 -0.002603 -2241520.000000 1 0 0
-11.611754 2.460922 12.727493 17.403392 -0.208843 0.750537 -0.006512 0.002279 -671336.000000 1 0 0
-11.554554 -7.618878 11.733693 18.144822 0.582943 0.867587 -0.004688 -0.003656 1179860.000000 1 0 0
-10.951754 -7.430778 15.560393 20.427511 0.596151 0.704806 0.007156 -0.009095 307502.000000 1 0 0
0.380246 5.667422 17.735293 18.622698 1.503803 0.309952 0.003040 -0.002917 -85946.400000 1 0 0
-2.168454 -0.270178 13.295693 13.474073 0.123956 0.162899 0.007788 -0.000849 424748.000000 1 0 0
-5.995554 -10.586578 18.185893 21.880334 1.055498 0.589619 -0.001367 -0.003762 239373.000000 1 0 0
0.577246 2.683222 19.191593 19.386854 1.358894 0.142048 0.011648 -0.000319 262196.000000 1 0 0
-0.498154 11.043222 14.893293 18.547536 -1.525717 0.638519 0.002030 0.003692 106858.000000 1 0 0
-12.741754 -2.352078 14.412793 19.380742 0.182541 0.732260 0.001430 -0.002380 -1190430.000000 1 0 0
-13.567854 8.513622 11.953393 19.986296 -0.560384 0.929694 -0.002562 -0.000119 42073.000000 1 0 0
-18.018854 -0.601978 7.182093 19.406801 0.033396 1.191700 0.008449 -0.004973 -782576.000000 1 0 0
-1.967054 -7.901678 17.773693 19.550191 1.326814 0.429602 0.008577 -0.004996 -2239630.000000 1 0 0
5.795746 2.481922 14.395693 15.715807 0.404605 0.412801 -0.001312 -0.000369 -3122660.000000 1 0 0
-14.060654 -6.798578 11.405793 19.339461 0.450375 0.940025 -0.003802 -0.004174 322879.000000 1 0 0
3.346546 7.667322 16.212593 18.243776 1.159252 0.476372 0.000326 -0.009080 -300248.000000 1 0 0
1.151146 2.169222 14.650393 14.854786 1.082913 0.166079 0.006749 -0.005715 -2188150.000000 1 0 0
-14.191054 0.573422 9.817493 17.265515 -0.040385 0.965971 -0.002674 -0.003052 -2649340.000000 1 0 0
-9.354154 -5.259878 15.607093 18.940640 0.512241 0.602361 -0.002659 0.000266 -373211.000000 1 0 0
-2.555354 0.021022 18.214093 18.392484 -0.008226 0.139390 0.010192 0.000507 699599.000000 1 0 0
6.978246 3.751422 17.550293 19.255697 0.493264 0.424041 0.007508 -0.000345 -197668.000000 1 0 0
-4.096454 -0.940278 14.936193 15.516279 0.225626 0.274303 0.009854 0.001284 -94876.100000 1 0 0
4.614846 -9.280878 17.705593 20.516323 -1.109357 0.529618 0.001626 0.002409 -226713.000000 1 0 0
2.041346 6.861322 13.465793 15.250325 1.281621 0.488615 0.002304 -0.002488 -532265.000000 1 0 0
-3.763554 -0.744778 20.381493 20.739438 0.195368 0.186059 0.015136 -0.001234 -26390.200000 1 0 0
-10.533754 1.551322 16.362193 19.521473 -0.146220 0.576888 -0.006228 0.002293 -60803.500000 1 0 0
-3.555654 6.999222 18.447693 20.048670 -1.100764 0.402344 0.002093 -0.002868 -1417850.000000 1 0 0
-12.464854 0.895822 14.727193 19.314898 -0.071744 0.703661 -0.007420 0.003129 -628025.000000 1 0 0
-16.005954 -4.794378 8.544193 18.766456 0.291032 1.098098 -0.007266 -0.006137 -1436510.000000 1 0 0
-2.164154 0.798722 15.686693 15.855404 -0.353561 0.146011 0.008931 -0.001337 387148.000000 1 0 0
-13.589954 -9.012778 12.610093 20.613866 0.585595 0.912552 -0.017626 -0.003323 492014.000000 1 0 0
6.160146 -3.309878 14.532693 16.127673 -0.493044 0.448490 0.003700 -0.004379 879691.000000 1 0 0
-15.701454 0.463322 7.724093 17.504626 -0.029500 1.113794 -0.003395 -0.004289 463855.000000 1 0 0
-14.075054 6.036322 12.637593 19.855807 -0.405141 0.880886 0.000001 -0.000662 -182474.000000 1 0 0
0.438346 9.489422 16.797893 19.297940 1.524636 0.514680 -0.002396 -0.005531 -146765.000000 1 0 0
-10.251254 -5.484078 10.882993 15.924913 0.491228 0.818395 -0.001507 -0.005672 -45133.200000 1 0 0
-3.095054 -11.225478 15.274593 19.206871 1.301764 0.651348 0.000578 0.001422 -1687360.000000 1 0 0
-3.494554 2.629522 12.720393 13.451196 -0.645075 0.331147 0.005269 0.001239 -2473350.000000 1 0 0
-12.330854 -7.860678 7.425493 16.400554 0.567524 1.100939 -0.001611 -0.005335 44135.000000 1 0 0
-8.126454 -1.954678 13.375393 15.772164 0.236049 0.558525 0.000863 -0.000042 -122686.000000 1 0 0
-9.667654 6.416422 9.700593 15.124004 -0.585946 0.874470 -0.008370 0.002364 -485152.000000 1 0 0
-17.850254 -3.789678 6.734693 19.451204 0.209198 1.217241 -0.009995 -0.002051 423302.000000 1 0 0
-1.216354 -0.099578 20.550393 20.586599 0.081684 0.059317 0.010776 0.003857 62502.300000 1 0 0
-2.720354 2.648422 20.250593 20.603421 -0.772001 0.185331 0.012571 0.002148 -240949.000000 1 0 0
-3.770654 11.321822 11.253393 16.402449 -1.249307 0.814709 0.006947 -0.000882 -833807.000000 1 0 0
-4.094254 -4.870778 14.963993 16.260642 0.871800 0.402056 0.007479 -0.003633 -127200.000000 1 0 0
-0.064754 -14.356578 13.243993 19.532508 1.566286 0.825692 -0.003639 -0.004026 -546845.000000 1 0 0
-12.014254 0.276622 8.479393 14.707784 -0.023020 0.956328 -0.005852 0.000714 -484534.000000 1 0 0
-7.669954 2.082922 15.565593 17.477255 -0.265174 0.472090 -0.001695 0.003564 1217400.000000 1 0 0
3.596146 -2.151578 18.485893 18.954941 -0.539169 0.222927 0.003031 0.001249 -130681.000000 1 0 0
-2.012054 4.791122 12.643193 13.669438 -1.173207 0.389960 -0.001393 0.000908 -741264.000000 1 0 0
-10.144454 -6.305978 13.375193 17.932403 0.556164 0.728960 -0.007338 -0.007085 -12302.700000 1 0 0
2.411946 -3.803678 14.164193 14.863035 -1.005674 0.307870 0.000374 -0.003416 -839332.000000 1 0 0
6.855046 1.057722 16.958193 18.321865 0.153091 0.388254 -0.003961 -0.003906 -2356640.000000 1 0 0
-1.925754 -5.744678 13.875593 15.140737 1.247345 0.411702 0.000405 -0.001727 -2157090.000000 1 0 0
-12.872154 3.512922 14.671393 19.831357 -0.266421 0.738012 -0.009043 0.007058 98020.100000 1 0 0
-13.176854 -6.664178 13.739993 20.169982 0.468236 0.821382 -0.013144 0.000014 -357136.000000 1 0 0
-9.428354 6.846022 12.183193 16.857997 -0.628035 0.763102 -0.000105 0.003644 -390447.000000 1 0 0
-0.925454 -2.545478 12.870293 13.152200 1.222086 0.207419 0.004204 0.000754 536591.000000 1 0 0
0.263846 6.756722 15.423393 16.840545 1.531767 0.413180 0.002988 -0.002978 381944.000000 1 0 0
-16.228954 -1.099878 9.669293 18.923105 0.067669 1.034474 -0.004579 -0.003339 -384828.000000 1 0 0
-1.226954 2.661322 13.840093 14.146951 -1.138806 0.208661 0.005936 -0.001323 -1935080.000000 1 0 0
-11.152654 -3.562078 16.159293 19.954770 0.309152 0.626992 -0.003133 -0.002610 -210628.000000 1 0 0
-5.164754 -1.516478 17.267093 18.086649 0.285594 0.302189 0.021213 0.004934 256405.000000 1 0 0
-11.811954 6.618522 11.340793 17.661842 -0.510735 0.873553 -0.003900 0.002354 -379613.000000 1 0 0
-2.364654 4.714922 18.773293 19.500220 -1.105929 0.273905 0.001737 -0.001148 -11842.400000 1 0 0
5.301446 -1.943878 16.500993 17.440377 -0.351447 0.329707 0.004196 -0.000654 -1102740.000000 1 0 0
-7.907854 -4.216778 12.183793 15.124820 0.489884 0.634194 0.005377 -0.001860 -1749240.000000 1 0 0
-11.368854 -0.915378 16.252293 19.855120 0.080343 0.611924 -0.007375 0.000995 399409.000000 1 0 0
2.270446 1.997722 17.326593 17.588537 0.721588 0.172801 0.008232 -0.004899 -364245.000000 1 0 0
-8.831654 -7.492978 11.585193 16.381683 0.703578 0.785261 0.003282 -0.007068 418330.000000 1 0 0
-7.090954 6.712822 15.048893 17.939141 -0.758012 0.575563 -0.003000 0.000873 -260381.000000 1 0 0
-5.483554 3.368022 15.861593 17.117332 -0.550798 0.385423 0.002975 -0.001181 -260134.000000 1 0 0
-9.283054 4.201122 11.743593 15.547877 -0.424979 0.714657 -0.003323 0.003485 -36077.200000 1 0 0
-10.076054 0.048722 14.191093 17.404492 -0.004835 0.617429 -0.006316 0.003562 -799032.000000 1 0 0
8.269046 -0.762278 15.721693 17.780040 -0.091925 0.485948 -0.001271 -0.005518 -38539.700000 1 0 0
-8.421354 -7.587578 14.740493 18.594964 0.733363 0.655548 0.002461 -0.001271 -3173290.000000 1 0 0
0.019346 4.180622 15.560293 16.112128 1.566169 0.262477 0.004445 -0.007406 22764.100000 1 0 0
-7.995554 3.104022 9.772093 13.002216 -0.370309 0.720355 -0.006416 0.003549 -698814.000000 1 0 0
-2.322454 -9.786378 13.188393 16.586160 1.337792 0.651551 -0.002893 -0.003982 613772.000000 1 0 0
-5.922854 10.170522 10.594193 15.835297 -1.043452 0.837902 0.001840 -0.003552 -3642170.000000 1 0 0
-8.559154 -2.895778 15.798893 18.200265 0.326237 0.519518 0.001170 -0.001705 85662.500000 1 0 0
4.310446 5.861222 17.787093 19.217558 0.936693 0.388272 0.004164 0.004337 487383.000000 1 0 0
-6.762354 -0.983778 15.326493 16.780901 0.144465 0.419410 0.004522 0.001870 -197284.000000 1 0 0
-0.885354 -10.003378 15.482893 18.454577 1.482521 0.575403 -0.005601 -0.003485 -1004920.000000 1 0 0
-4.161954 5.646322 16.327593 17.770568 -0.935597 0.405768 0.005129 -0.002685 207384.000000 1 0 0
4.000046 0.130122 17.431893 17.885418 0.032519 0.225678 0.010890 -0.001776 -942208.000000 1 0 0
1.461946 0.290722 19.260693 19.318284 0.196299 0.077235 0.007777 0.003286 -370010.000000 1 0 0
-5.971954 6.254822 18.213093 20.161939 -0.808529 0.443302 -0.002254 0.005428 -628088.000000 1 0 0
-11.934554 0.426222 11.068093 16.282442 -0.035698 0.823366 -0.006969 0.002348 6242.050000 1 0 0
-5.209254 5.145422 14.046793 15.840583 -0.779234 0.480509 0.002687 0.000834 -2141430.000000 1 0 0
-8.657154 -9.421178 9.860293 16.153337 0.827635 0.914208 0.008692 -0.006833 -1748160.000000 1 0 0
6.864946 -3.905078 16.999193 18.744324 -0.517195 0.434933 -0.000006 -0.000001 -154726.000000 1 0 0
-16.617554 1.578922 9.732993 19.322713 -0.094731 1.042911 0.000507 -0.006953 304677.000000 1 0 0
-4.015154 -9.713578 11.130793 15.309135 1.178830 0.756754 -0.001461 -0.004459 -321606.000000 1 0 0
-11.089954 -3.967078 9.212293 14.952964 0.343534 0.907034 -0.001493 -0.000623 -751848.000000 1 0 0
3.624346 -5.460678 18.411693 19.543421 -0.984838 0.341983 -0.002246 -0.004726 -377154.000000 1 0 0
2.756246 -1.943978 16.122793 16.471806 -0.614274 0.206222 0.004975 -0.002726 -902979.000000 1 0 0
-2.993554 -4.311378 20.210693 20.881127 0.963880 0.254088 0.013161 -0.001084 -940055.000000 1 0 0
-6.259254 -3.386378 14.495393 16.148134 0.495922 0.456386 0.007892 -0.001295 418700.000000 1 0 0
-9.532554 5.079622 14.159993 17.809479 -0.489597 0.651654 -0.003811 0.002404 283865.000000 1 0 0
-5.685254 -5.281078 11.796093 14.119480 0.748559 0.581849 0.003808 0.001058 -457294.000000 1 0 0
6.127146 1.956122 19.310393 20.353368 0.309027 0.321519 -0.002205 -0.002355 78327.400000 1 0 0
-2.750154 11.886822 13.671593 18.324091 -1.343435 0.728612 0.003653 -0.003085 1115970.000000 1 0 0
3.497846 1.228722 15.128393 15.576038 0.337814 0.240325 0.006990 -0.002627 -1063360.000000 1 0 0
-5.681154 7.442922 13.044793 16.057373 -0.918840 0.622563 -0.003141 -0.002993 -487580.000000 1 0 0
-1.694754 -1.797478 15.331193 15.528960 0.814805 0.159765 0.008369 -0.000933 701384.000000 1 0 0
-7.181954 10.569322 14.214293 19.113795 -0.973955 0.732258 0.005022 -0.005087 -203722.000000 1 0 0
-9.990654 2.023822 10.751993 14.816017 -0.199867 0.758744 -0.004916 0.003371 -2311720.000000 1 0 0
-13.534954 5.117222 9.297293 17.199436 -0.361463 0.999696 -0.003195 -0.002640 532913.000000 1 0 0
0.421446 -5.028478 20.232893 20.852653 -1.487180 0.244415 0.006424 -0.001256 -186616.000000 1 0 0
-14.345654 -3.188578 7.540693 16.517472 0.218712 1.096707 -0.005128 -0.000559 -282867.000000 1 0 0
-2.262554 2.509422 17.695893 18.015576 -0.837085 0.188667 0.006147 0.000902 198670.000000 1 0 0
-6.136854 -8.550078 14.704193 18.082536 0.948254 0.621217 0.005478 -0.002011 -42215.900000 1 0 0
-7.871554 1.924722 12.148793 14.603393 -0.239811 0.588245 -0.002521 0.003662 -632333.000000 1 0 0
-14.479954 -3.590678 10.093593 18.012292 0.243073 0.975961 -0.002989 -0.005639 19078.100000 1 0 0
-0.505354 6.996822 12.969793 14.745386 -1.498695 0.495811 0.000263 -0.000519 -206790.000000 1 0 0
-1.821754 -2.259678 19.227293 19.445146 0.892286 0.149830 0.009903 -0.004860 -21129.400000 1 0 0
-12.816054 10.368422 7.706493 18.197402 -0.680216 1.133497 -0.002802 0.001657 378588.000000 1 0 0
-19.463854 2.277522 7.163293 20.864839 -0.116483 1.220348 0.014367 -0.004590 339224.000000 1 0 0
-15.890154 8.391422 6.944693 19.265039 -0.485866 1.202012 0.002246 0.003914 478529.000000 1 0 0
-12.198654 7.434722 13.800393 19.862857 -0.547354 0.802677 0.007722 0.002752 182789.000000 1 0 0
-15.864554 8.234922 10.752393 20.859338 -0.478792 1.029239 -0.001263 0.000609 -909930.000000 1 0 0
1.991346 10.945022 15.281293 18.901769 1.390824 0.629268 0.000239 -0.004019 -977031.000000 1 0 0
2.140046 14.137922 12.985193 19.315172 1.420568 0.833513 -0.001452 0.002407 -231653.000000 1 0 0
-2.980554 13.710922 11.814493 18.342718 -1.356741 0.870954 0.001470 -0.001374 178184.000000 1 0 0
9.148846 4.697922 15.757693 18.816927 0.474388 0.578249 -0.002927 0.002223 -194575.000000 1 0 0
-0.293554 12.494422 12.859693 17.932330 -1.547306 0.771130 0.003069 -0.006978 -594916.000000 1 0 0
3.918646 13.345422 14.765593 20.284940 1.285192 0.755529 -0.001347 0.008001 114583.000000 1 0 0
-2.916254 -4.095778 -13.806607 14.693616 0.952052 2.792353 -0.004087 -0.001410 -293318.000000 1 0 0
5.953146 -11.524278 16.134493 20.701951 -1.093977 0.677136 0.005030 -0.000478 -48909.500000 1 0 0
8.046846 -13.515878 7.160193 17.282912 -1.033794 1.143630 -0.005854 -0.005632 -317542.000000 1 0 0
-0.224154 15.629022 1.149493 15.672840 -1.556455 1.497387 0.004838 -0.001899 -2196990.000000 1 0 0
-13.773154 8.087622 9.270393 18.467528 -0.530956 1.044906 0.002739 0.002951 495019.000000 1 0 0
-15.453254 -9.888778 4.814293 18.967562 0.569253 1.314172 0.000002 -0.001202 -1598060.000000 1 0 0
9.429846 -11.175878 10.988593 18.291293 -0.869932 0.926351 -0.001501 -0.000250 230916.000000 1 0 0
-5.233054 -10.763578 -16.590507 20.456891 1.118264 2.516653 -0.002303 0.002278 169172.000000 1 0 0
-1.998854 -12.578178 -14.718807 19.464051 1.413200 2.428290 -0.006093 0.002409 -152245.000000 1 0 0
5.658046 -16.010578 -11.898107 20.734441 -1.231101 2.181975 -0.003112 0.002805 69901.700000 1 0 0
2.688946 -11.578078 -16.679307 20.481250 -1.342597 2.522438 -0.006382 -0.003438 258790.000000 1 0 0
0.304546 -13.949878 -14.295107 19.976034 -1.548968 2.368297 -0.006062 0.010050 91389.300000 1 0 0
-6.646654 -5.870678 -14.662207 17.135437 0.723485 2.597632 0.002067 0.002021 58104.200000 1 0 0
-6.290654 -8.111878 -17.359307 20.167311 0.911182 2.607566 -0.005726 0.008122 -72067.700000 1 0 0
-1.949854 -16.287278 -13.243507 21.082406 1.451647 2.250006 -0.004970 0.005237 91967.100000 1 0 0
15.946046 -8.010478 -9.448307 20.191945 -0.465525 2.057737 -0.016806 0.000848 42617.700000 1 0 0
19.067846 -2.809778 -4.150607 19.715607 -0.146304 1.782907 0.001731 -0.003254 55570.700000 1 0 0
15.378446 -11.366078 -9.648907 21.419284 -0.636483 2.038097 -0.009783 -0.003245 109401.000000 1 0 0
16.865046 -2.832178 -6.929007 18.451616 -0.166379 1.955757 0.006547 -0.001056 -220322.000000 1 0 0
8.721846 -9.572378 -15.847507 20.465691 -0.831857 2.456476 0.008865 0.004351 144117.000000 1 0 0
-4.367054 10.296622 -16.292407 19.761936 -1.169667 2.539997 0.000055 0.015728 221899.000000 1 0 0
2.062546 -9.955078 -18.880407 21.443588 -1.366501 2.647646 -0.001711 0.016660 123938.000000 1 0 0
11.336146 8.640522 -13.935507 19.934021 0.651270 2.344909 0.017500 -0.035834 462707.000000 1 0 0
18.126346 -6.052278 -7.921107 20.686673 -0.322255 1.963739 -0.016054 -0.007404 375210.000000 1 0 0
12.317546 4.987622 -14.557707 19.711041 0.384741 2.401722 0.004002 0.014715 104547.000000 1 0 0
15.928346 6.029522 -11.127907 20.344475 0.361871 2.149542 -0.001454 0.003291 291267.000000 1 0 0
3.322546 -0.353678 -19.438107 19.723195 -0.106049 2.971361 0.000712 -0.000867 97728.600000 1 0 0
10.221046 -1.600878 -14.773207 18.035527 -0.155363 2.530666 0.006916 -0.009952 213511.000000 1 0 0
12.046846 -5.897178 -14.587207 19.816403 -0.455229 2.398113 0.003400 0.011127 -102221.000000 1 0 0
10.046246 6.620922 -13.045607 17.746874 0.582707 2.396601 0.012769 -0.000384 530892.000000 1 0 0
10.433746 5.358922 -16.512907 20.254807 0.474480 2.523972 -0.000842 0.004399 175905.000000 1 0 0
11.426646 -10.307678 -15.477107 21.825611 -0.733960 2.359054 -0.003581 0.003324 160420.000000 1 0 0
-1.323854 2.285922 -17.554607 17.752247 -1.045861 2.992234 0.001084 -0.000339 256407.000000 1 0 0
6.635746 -1.005678 -17.194107 18.457569 -0.150410 2.769443 0.015509 0.000765 -52131.100000 1 0 0
6.965046 -6.080278 -15.792407 18.299775 -0.717679 2.611942 -0.002210 -0.002564 302451.000000 1 0 0
-2.270354 -4.652978 -20.691207 21.329106 1.116847 2.896408 0.005967 -0.001504 347290.000000 1 0 0
15.920546 -0.132278 -13.552607 20.908239 -0.008308 2.276007 0.002175 0.000785 48303.700000 1 0 0
-4.107654 -0.519078 -18.671807 19.125341 0.125702 2.923381 -0.003168 0.002661 128480.000000 1 0 0
3.280646 8.914122 -17.546707 19.952723 1.218152 2.645427 -0.007402 -0.008444 -702913.000000 1 0 0
9.201346 -0.075678 -17.483507 19.757113 -0.008225 2.657123 0.008392 -0.005482 -11416.100000 1 0 0
4.123046 4.795522 -18.303607 19.365396 0.860658 2.808914 -0.004300 -0.005518 349168.000000 1 0 0
-2.179954 -11.275378 -18.161507 21.487827 1.379815 2.577735 -0.005751 0.003779 207961.000000 1 0 0
5.544946 -9.590278 -16.187107 19.614849 -1.046572 2.541437 -0.008000 0.001137 74954.400000 1 0 0
10.098446 -12.483078 -11.025307 19.477250 -0.890609 2.172516 -0.006683 0.014128 211513.000000 1 0 0
6.089446 6.933022 -16.899007 19.254210 0.850086 2.641793 0.001677 -0.010297 350331.000000 1 0 0
8.078146 1.207822 -20.189907 21.779523 0.148418 2.757165 -0.012925 0.000529 139714.000000 1 0 0
-1.064354 -0.771378 -20.391107 20.433432 0.627137 3.077218 0.001221 0.002759 147280.000000 1 0 0
-1.109154 6.561122 -19.530707 20.633155 -1.403330 2.813222 -0.002062 -0.005668 126748.000000 1 0 0
8.295046 5.887422 -18.266207 20.907507 0.617241 2.633486 -0.010192 0.002181 55085.800000 1 0 0
12.010746 0.168222 -12.983507 17.687786 0.014005 2.395045 -0.006479 -0.002629 -164382.000000 1 0 0
-4.939554 -2.600078 -19.997807 20.762271 0.484528 2.869387 0.010922 0.007494 341892.000000 1 0 0
6.140446 -11.454878 -14.651107 19.585052 -1.078722 2.415954 -0.006229 0.002532 84510.800000 1 0 0
11.011346 2.402122 -16.174907 19.714146 0.214785 2.533033 0.006789 0.003056 -314008.000000 1 0 0
-3.099554 -4.455878 -17.148307 17.986843 0.963023 2.835043 -0.000027 0.002172 384414.000000 1 0 0
-6.655654 -4.653078 -17.562207 19.348902 0.610133 2.708469 -0.001475 -0.003140 12106.300000 1 0 0
2.864946 10.970522 -15.459807 19.172008 1.315352 2.508791 -0.012139 0.002620 271432.000000 1 0 0
16.641846 -6.402278 -11.125307 21.016961 -0.367256 2.128629 -0.002041 -0.003387 -61613.700000 1 0 0
9.171446 -3.146978 -17.770207 20.243497 -0.330540 2.642094 -0.016523 -0.005972 123753.000000 1 0 0
-7.522454 -1.391178 -18.471507 19.992981 0.182871 2.748946 -0.008009 -0.001409 745052.000000 1 0 0
1.296646 -7.540278 -19.362907 20.819685 -1.400499 2.765288 0.000486 -0.004766 226000.000000 1 0 0
5.904546 10.598722 -13.894007 18.445596 1.062519 2.423774 -0.000027 -0.002396 414027.000000 1 0 0
6.029246 -4.012178 -16.954207 18.436229 -0.587162 2.737892 0.009793 -0.031642 378600.000000 1 0 0
4.431246 13.490022 -14.618907 20.379624 1.253417 2.370758 -0.006654 -0.002522 132638.000000 1 0 0
8.726446 11.223622 -15.307007 20.890788 0.909922 2.393100 0.004181 -0.004501 100469.000000 1 0 0
16.849846 0.914122 -11.483207 20.411197 0.054198 2.168316 0.002413 0.001905 221355.000000 1 0 0
14.835246 -2.891478 -12.619707 19.690154 -0.192493 2.266485 -0.006414 0.003615 156697.000000 1 0 0
-8.544154 0.345022 -17.293207 19.291880 -0.040359 2.682372 -0.013925 -0.002840 442254.000000 1 0 0
-2.934754 4.120222 -19.234207 19.888281 -0.951876 2.884418 -0.004257 0.002937 64206.800000 1 0 0
3.507946 1.556722 -17.069307 17.495437 0.417661 2.920431 -0.008125 -0.004804 633833.000000 1 0 0
-5.365454 14.655922 -12.957107 20.284742 -1.219856 2.263683 0.010005 -0.020390 116964.000000 1 0 0
0.740146 9.533422 -17.838807 20.239985 1.493315 2.649539 -0.009980 0.004795 339248.000000 1 0 0
0.897946 -5.283878 -20.243607 20.941091 -1.402464 2.882774 0.000260 0.017588 345847.000000 1 0 0
3.456846 -5.966278 -18.712407 19.942428 -1.045664 2.788539 0.001274 0.007873 -107359.000000 1 0 0
-7.190554 7.465922 -15.975907 19.043993 -0.804184 2.566046 0.002452 0.009721 -8814.150000 1 0 0
-11.736254 2.884622 -16.911207 20.785804 -0.241010 2.521103 0.000582 -0.005115 196360.000000 1 0 0
-4.455454 6.784822 -17.402207 19.202127 -0.989740 2.705158 -0.000014 0.014668 441133.000000 1 0 0
-8.571554 5.657822 -17.618707 20.393659 -0.583421 2.613819 0.015554 -0.000975 456540.000000 1 0 0
-8.337054 3.947722 -15.078007 17.675896 -0.442236 2.592554 -0.013975 -0.003914 391825.000000 1 0 0
9.248946 14.130522 -11.684207 20.536196 0.991238 2.176033 0.005326 -0.014078 309931.000000 1 0 0
13.828446 9.848722 -12.088007 20.840901 0.618872 2.189542 0.014745 -0.000293 34541.400000 1 0 0
8.313846 15.834922 -9.944607 20.463626 1.087324 2.078263 -0.006875 0.004889 81284.500000 1 0 0
7.847646 13.846222 -14.556507 21.568387 1.055168 2.311626 -0.001789 0.000390 -50226.800000 1 0 0
3.809246 15.535022 -13.028107 20.629562 1.330337 2.254316 -0.000104 -0.005422 214410.000000 1 0 0
11.250746 11.212822 -10.743707 19.176389 0.783710 2.165492 0.020123 -0.027766 354886.000000 1 0 0
15.815246 10.826922 -10.551007 21.878482 0.600307 2.074023 0.020377 0.009480 238129.000000 1 0 0
13.971446 11.465822 -9.107407 20.238855 0.687213 2.037557 0.060633 -0.001787 5062.710000 1 0 0
10.849546 11.555322 -7.494807 17.533118 0.816889 2.012484 0.001627 -0.000052 169103.000000 1 0 0
5.030546 17.230022 -10.581507 20.836227 1.286728 2.103474 0.001155 0.009702 -126746.000000 1 0 0
11.615446 14.018822 -10.324807 20.929587 0.878881 2.086689 0.026932 -0.014119 -92010.200000 1 0 0
7.795846 -19.372478 -1.770507 20.957166 -1.188207 1.655379 -0.007087 0.002082 176609.000000 1 0 0
6.951646 -16.920678 -4.196207 18.768135 -1.180982 1.796284 -0.005230 -0.001610 392248.000000 1 0 0
4.187346 -18.228478 4.850693 19.322021 -1.344999 1.317037 0.000381 -0.022917 110189.000000 1 0 0
10.229446 -17.544578 -2.571807 20.471150 -1.042930 1.696760 0.012804 -0.004323 547700.000000 1 0 0
-2.113554 -15.574578 7.691793 17.498522 1.435915 1.115679 0.000349 -0.008697 191338.000000 1 0 0
-15.330054 -12.615178 -4.254807 20.304105 0.688552 1.781915 -0.000802 -0.002754 198873.000000 1 0 0
-9.564354 -12.652978 -7.016407 17.343722 0.923532 1.987283 0.005142 -0.011898 195433.000000 1 0 0
-11.504054 -15.291878 6.941093 20.355922 0.925826 1.222830 0.003913 0.005488 342970.000000 1 0 0
-14.192854 -8.358678 -8.226707 18.411500 0.532244 2.034009 -0.016991 -0.006324 -125653.000000 1 0 0
5.342446 -15.572978 7.040193 17.905968 -1.240319 1.166713 0.004247 0.001536 269612.000000 1 0 0
2.874246 -14.053178 9.199793 17.040813 -1.369052 1.000516 0.001178 -0.002676 231122.000000 1 0 0
3.275546 -17.539878 10.498493 20.702533 -1.386174 1.038966 -0.001779 0.006293 171467.000000 1 0 0
-7.496054 -17.277578 -5.143207 19.523271 1.161445 1.837383 -0.033774 -0.007971 -42098.000000 1 0 0
2.152246 -19.816978 -4.069107 20.344592 -1.462614 1.772164 -0.013468 -0.006468 -20391.100000 1 0 0
-18.249354 -10.433978 -2.112507 21.127459 0.519385 1.670952 -0.008494 0.005802 23136.900000 1 0 0
-3.983154 -14.965978 2.803393 15.738648 1.310679 1.391719 -0.000512 0.004588 87968.500000 1 0 0
-10.841454 -9.863778 -14.676407 20.741943 0.738214 2.356852 0.001302 0.002669 133960.000000 1 0 0
0.374046 -20.523578 2.590793 20.689838 -1.552573 1.445246 -0.006862 0.003928 344270.000000 1 0 0
6.645746 -18.427478 0.402193 19.593357 -1.224671 1.550268 0.001502 0.003238 16502.900000 1 0 0
-7.362854 -19.089378 -3.092507 20.692501 1.202674 1.720809 -0.017255 -0.002723 231619.000000 1 0 0
-9.721354 -15.427278 -7.532307 19.729199 1.008509 1.962523 0.003723 -0.011837 47606.500000 1 0 0
-11.574154 -11.354378 -12.190307 20.285131 0.775813 2.215483 -0.014340 0.003975 359644.000000 1 0 0
-13.191754 -14.949878 -3.429807 20.230789 0.847791 1.741153 -0.004749 -0.011384 159438.000000 1 0 0
-0.348054 -20.671478 -2.551307 20.831234 1.553961 1.693580 -0.008492 -0.004243 268566.000000 1 0 0
-11.804454 -16.889178 -0.735807 20.618702 0.960785 1.606490 -0.002940 0.009177 26337.400000 1 0 0
0.761546 -20.041978 5.193393 20.717919 -1.532817 1.317422 0.000605 -0.006238 185789.000000 1 0 0
-18.055954 -9.065178 2.468393 20.354063 0.465295 1.449224 -0.000038 0.005204 -41208.300000 1 0 0
-14.956454 -14.789578 -0.631807 21.043439 0.779788 1.600825 -0.001694 -0.001617 -44104.000000 1 0 0
10.025346 -15.689378 -4.950607 19.265842 -1.002200 1.830675 0.010215 0.004863 -59395.700000 1 0 0
-0.047554 -19.110478 -7.055507 20.371373 1.568308 1.924468 -0.013497 -0.002287 87710.400000 1 0 0
-10.152554 -16.816478 -2.688907 19.826712 1.027641 1.706836 0.003774 0.001104 462903.000000 1 0 0
-15.611354 -6.608778 -10.902407 20.155714 0.400457 2.142314 0.047322 -0.018310 15764.300000 1 0 0
-12.590054 -14.736978 1.820893 19.468016 0.863801 1.477127 0.012005 -0.007889 292294.000000 1 0 0
-2.560754 -16.430978 10.301093 19.561365 1.416191 1.016196 -0.001955 -0.001626 303157.000000 1 0 0
-12.131054 -14.835278 -6.819907 20.341069 0.885346 1.912696 -0.012661 0.006509 141996.000000 1 0 0
4.940246 -17.158678 -7.555907 19.388605 -1.290463 1.971112 -0.011738 0.000246 78335.300000 1 0 0
-17.336554 -7.359378 -3.070807 19.082621 0.401448 1.732421 -0.031024 0.004254 -172066.000000 1 0 0
-11.990854 -13.735578 -9.417707 20.521693 0.853113 2.047570 0.004498 -0.010665 -18423.100000 1 0 0
-6.829454 -15.062878 8.984393 18.821558 1.145122 1.073165 0.000082 0.005196 476995.000000 1 0 0
-15.621754 -7.792178 -5.748507 18.379406 0.462690 1.888903 -0.001970 -0.001731 105779.000000 1 0 0
-0.639054 -19.752778 -0.005907 19.763114 1.538455 1.571095 -0.007349 -0.000689 96456.100000 1 0 0
-15.034254 -11.505878 -2.140107 19.052404 0.653228 1.683361 0.000814 0.007774 134839.000000 1 0 0
-6.913754 -19.214578 2.290093 20.548590 1.225402 1.459117 -0.007343 0.006482 240430.000000 1 0 0
-1.899954 -20.778578 -5.508007 21.580020 1.479612 1.828889 -0.015719 0.005826 176025.000000 1 0 0
-9.077054 -19.704078 -0.998807 21.717302 1.139106 1.616804 -0.007982 0.018646 133367.000000 1 0 0
-17.732954 -7.400978 5.114193 19.884343 0.395379 1.310676 0.001835 -0.002829 3993.700000 1 0 0
-2.906854 -15.786278 -10.739407 19.312981 1.388698 2.160448 0.003031 0.002442 168106.000000 1 0 0
-3.220654 -18.547978 -7.746607 20.357063 1.398871 1.961173 -0.006124 0.006700 162581.000000 1 0 0
4.368446 -18.355778 -5.399607 19.625842 -1.337155 1.849519 -0.012004 0.029048 593847.000000 1 0 0
0.663446 -17.298978 -9.976707 19.980728 -1.532463 2.093606 -0.005476 -0.000531 -20555.400000 1 0 0
-7.674954 -10.047878 -14.232407 19.037494 0.918497 2.415236 -0.000802 -0.015383 -36238.700000 1 0 0
-4.931254 -19.710078 -2.410107 20.460036 1.325639 1.688866 -0.007050 0.006237 365111.000000 1 0 0
-9.975854 -15.963478 8.658493 20.720034 1.012256 1.139686 -0.002523 0.003113 129260.000000 1 0 0
-7.168254 -15.583878 -10.163607 19.938406 1.139675 2.105691 -0.001846 0.007218 303754.000000 1 0 0
-12.708454 -8.076278 -12.281707 19.431197 0.566117 2.255007 -0.000893 -0.004431 338719.000000 1 0 0
-15.583954 -13.182978 3.345393 20.684347 0.702128 1.408347 -0.004756 0.005796 93856.300000 1 0 0
-6.265654 -14.334978 -12.733507 20.171570 1.158731 2.253973 -0.002923 0.004047 419614.000000 1 0 0
-13.998254 -11.677478 -6.910107 19.495235 0.695255 1.933123 0.001847 -0.007934 59968.600000 1 0 0
-11.527654 -10.294078 -8.433907 17.606409 0.728929 2.070340 0.004026 -0.010780 304704.000000 1 0 0
-9.986554 -15.086978 3.670693 18.461369 0.986079 1.370631 0.005354 0.012684 582365.000000 1 0 0
4.945046 -18.632478 8.272793 20.977651 -1.311378 1.165423 0.006498 0.010062 209682.000000 1 0 0
-5.027154 -17.010378 5.694993 18.629498 1.283441 1.260125 0.003277 0.025647 507672.000000 1 0 0
-18.370454 -7.332678 -6.626507 20.860306 0.379779 1.894058 -0.010994 -0.006439 5144.610000 1 0 0
-17.217754 -2.979278 -10.432407 20.350977 0.171339 2.109035 0.010411 -0.018830 -69024.700000 1 0 0
-15.605154 -4.354578 -13.061707 20.810848 0.272125 2.249314 -0.008622 -0.002175 186551.000000 1 0 0
-19.220454 -4.287678 -5.947007 20.571265 0.219485 1.864076 -0.000899 -0.003719 -67863.100000 1 0 0
5.800546 -13.641078 8.555293 17.114858 -1.168734 1.047342 0.009585 -0.002975 262657.000000 1 0 0
19.778646 -2.699778 2.518293 20.120274 -0.135661 1.445305 -0.000848 0.000942 -4485.660000 1 0 0
17.962146 -2.237978 0.400493 18.105458 -0.123955 1.548675 0.001391 -0.005805 161323.000000 1 0 0
14.129646 -11.324178 0.171193 18.108374 -0.675623 1.561342 0.006306 0.004916 111450.000000 1 0 0
11.194646 -13.982278 5.439893 18.719419 -0.895671 1.275941 0.002286 0.013853 374231.000000 1 0 0
10.011146 -13.165978 9.148893 18.901541 -0.920685 1.065543 0.002611 0.001859 397918.000000 1 0 0
18.040846 4.393722 -4.778007 19.173061 0.238892 1.822655 0.015565 0.004170 -142440.000000 1 0 0
18.728946 -6.073078 -5.023607 20.319752 -0.313564 1.820615 0.002504 -0.000555 -52511.800000 1 0 0
17.462546 -10.176878 -0.088607 20.211809 -0.527664 1.575180 0.002060 0.010427 134604.000000 1 0 0
17.617246 -8.885778 8.402093 21.445735 -0.467145 1.168227 0.032301 0.005866 -192169.000000 1 0 0
20.128246 0.369322 -1.891507 20.220299 0.018346 1.664478 0.035875 -0.003871 -36101.100000 1 0 0
7.507546 -13.455978 11.509593 19.232715 -1.061882 0.929246 -0.001207 0.002649 206352.000000 1 0 0
15.963046 -6.286178 -3.673707 17.545113 -0.375146 1.781744 -0.004650 0.004315 323646.000000 1 0 0
14.450046 -6.731578 11.821693 19.846168 -0.435958 0.932701 0.010016 -0.013477 347283.000000 1 0 0
16.338746 1.728622 10.803693 19.663736 0.105407 0.989124 0.002243 -0.002110 439049.000000 1 0 0
16.346946 -9.967878 2.353493 19.290416 -0.547572 1.448488 -0.017373 0.001073 347017.000000 1 0 0
16.605846 -7.963678 -6.622707 19.571268 -0.447171 1.916001 0.015126 0.017287 -23100.700000 1 0 0
17.503846 -4.206278 5.637693 18.864278 -0.235834 1.267303 -0.003325 -0.004581 27742.400000 1 0 0
13.532946 -13.433178 7.917993 20.646683 -0.781698 1.177214 0.010789 -0.005588 79323.000000 1 0 0
15.413846 -14.086978 -1.481307 20.933797 -0.740451 1.641617 0.015924 -0.001154 208086.000000 1 0 0
18.727146 -6.201978 7.241993 21.014685 -0.319808 1.218967 0.012410 0.001261 349431.000000 1 0 0
19.601846 4.118722 2.371493 20.169785 0.207106 1.452947 0.001552 -0.003880 187130.000000 1 0 0
15.744446 -10.366678 8.077093 20.508413 -0.582281 1.165988 0.018299 -0.014537 144189.000000 1 0 0
14.386646 -4.001178 10.558793 18.288606 -0.271262 0.955326 0.011208 -0.004425 -167900.000000 1 0 0
18.396446 -7.854078 1.141193 20.035421 -0.403508 1.513807 -0.007751 0.001488 2396.610000 1 0 0
18.782946 -5.021378 -1.968607 19.541973 -0.261228 1.671705 -0.004765 0.005214 291896.000000 1 0 0
14.495246 -13.661378 -6.249407 20.875835 -0.755791 1.874819 0.012211 0.000641 204237.000000 1 0 0
13.831146 -9.717378 10.065693 19.673490 -0.612450 1.033707 0.000421 0.001075 389916.000000 1 0 0
14.436146 2.734822 0.700593 14.709602 0.187224 1.523150 0.004913 0.000964 -198767.000000 1 0 0
13.025646 2.661622 13.589593 19.011279 0.201562 0.774433 0.000390 -0.004587 93234.100000 1 0 0
18.205346 -3.736978 9.079193 20.684085 -0.202456 1.116371 -0.001248 0.002086 90603.700000 1 0 0
7.078346 -18.477078 5.152193 20.446283 -1.204954 1.316064 -0.007135 -0.001244 285312.000000 1 0 0
12.902646 -2.662778 14.921193 19.905041 -0.203517 0.723310 0.007009 0.001663 398217.000000 1 0 0
11.215046 -13.384078 -7.391707 18.961755 -0.873346 1.971235 0.010914 -0.004901 207790.000000 1 0 0
10.198146 -18.357378 4.867493 21.556623 -1.063714 1.343032 -0.013720 0.014949 501470.000000 1 0 0
18.314046 -0.284378 -5.259007 19.056293 -0.015527 1.850397 0.020477 -0.008570 124164.000000 1 0 0
4.243146 -13.603778 11.412193 18.256648 -1.268450 0.895539 -0.009440 -0.006693 -107529.000000 1 0 0
9.197146 -2.814178 14.327193 17.256174 -0.296937 0.591214 0.005223 -0.003904 385441.000000 1 0 0
9.194346 -9.510878 14.054993 19.301182 -0.802319 0.755114 0.018240 0.006171 427271.000000 1 0 0
20.896946 5.565022 -3.009207 21.833624 0.260267 1.709061 0.000089 0.002308 308801.000000 1 0 0
14.695446 -13.427278 1.651193 19.974343 -0.740335 1.488036 0.004852 0.003639 125632.000000 1 0 0
11.859046 -0.173478 14.727993 18.909808 -0.014627 0.677959 0.025662 -0.012777 -43064.700000 1 0 0
19.301946 0.466322 7.691593 20.783242 0.024155 1.191694 0.009050 -0.001542 5447.220000 1 0 0
19.758846 1.246222 0.421593 19.802596 0.062988 1.549505 0.003603 -0.000931 245196.000000 1 0 0
18.186746 0.159522 3.151593 18.458486 0.008771 1.399216 0.010286 -0.001439 -15186.000000 1 0 0
10.502046 -8.352178 16.440593 21.221332 -0.671863 0.684524 0.027323 0.005547 -29337.700000 1 0 0
19.355146 2.909622 5.409393 20.306381 0.149211 1.301152 0.025592 -0.003108 113364.000000 1 0 0
15.565846 2.544422 7.072293 17.285455 0.162029 1.149277 0.008914 -0.003575 26419.100000 1 0 0
11.191546 -16.124878 1.666393 19.698712 -0.964072 1.486101 -0.011746 0.009759 164448.000000 1 0 0
8.560446 -15.787078 6.546893 19.114782 -1.073927 1.221215 -0.004208 -0.008637 376239.000000 1 0 0
6.142446 6.805222 7.206293 11.660675 0.836542 0.904601 0.001975 0.001075 -555634.000000 1 0 0
18.268246 2.115822 -6.981707 19.671038 0.115306 1.933628 -0.005081 -0.001387 137283.000000 1 0 0
14.064146 4.496222 -7.140307 16.401225 0.309425 2.021226 0.006859 -0.003963 255712.000000 1 0 0
-10.436654 -3.845778 -13.860807 17.771768 0.353049 2.465357 -0.002590 -0.006108 -190693.000000 1 0 0
7.526746 -14.146378 -10.542107 19.180927 -1.081830 2.152699 -0.011847 0.009618 17384.400000 1 0 0
2.026346 -15.888078 13.951893 21.241290 -1.443942 0.854191 -0.007211 0.003717 251809.000000 1 0 0
-9.450554 -8.000278 2.034293 12.548138 0.702482 1.407959 0.007310 0.000541 256319.000000 1 0 0
-13.947154 3.269522 -9.855707 17.388153 -0.230264 2.173420 0.012473 -0.001480 220139.000000 1 0 0
-13.069354 -5.221978 -12.911807 19.099525 0.380126 2.313155 0.004818 -0.006278 -45262.900000 1 0 0
-17.697954 0.161622 -8.641507 19.695668 -0.009132 2.025005 0.008804 -0.007664 457693.000000 1 0 0
-12.349554 15.233922 4.392693 20.096756 -0.889588 1.350440 -0.005641 -0.006139 293001.000000 1 0 0
-16.747854 6.376022 9.200793 20.144450 -0.363764 1.096468 -0.022580 -0.006557 173535.000000 1 0 0
-13.303054 15.406022 0.081293 20.354935 -0.858519 1.566803 -0.006290 -0.013016 93938.800000 1 0 0
-16.086454 5.467422 -10.597507 20.024332 -0.327629 2.128491 0.009718 0.002839 6664.190000 1 0 0
-18.263054 2.853922 -0.036207 18.484732 -0.155014 1.572755 0.022688 0.002358 -54169.400000 1 0 0
-9.832254 15.578922 -0.198707 18.423233 -1.007804 1.581582 -0.011361 -0.001513 -168828.000000 1 0 0
-18.155854 12.216422 2.365793 22.010747 -0.592281 1.463105 0.021414 0.007005 -70483.600000 1 0 0
-8.733954 16.157122 -7.743507 19.932297 -1.075227 1.969789 0.010506 -0.010934 73357.600000 1 0 0
-15.157754 -2.047878 -13.440207 20.361495 0.134291 2.291721 0.003346 0.001680 150923.000000 1 0 0
-18.945254 5.311822 -4.793907 20.251411 -0.273359 1.809784 0.007240 -0.000413 -32943.600000 1 0 0
-16.332754 10.034922 -5.052407 19.823858 -0.550944 1.828504 -0.000968 0.020456 130421.000000 1 0 0
-18.660854 1.909422 2.847793 18.973226 -0.101967 1.420132 -0.012705 -0.010615 334986.000000 1 0 0
-13.735654 11.806222 -6.860807 19.368163 -0.710001 1.932888 0.001130 0.002861 77706.600000 1 0 0
-13.127954 4.135922 -13.209407 19.077145 -0.305204 2.335635 -0.001514 -0.005476 -193023.000000 1 0 0
-14.066654 9.394922 -6.638107 18.171400 -0.588846 1.944757 0.001637 -0.000367 271841.000000 1 0 0
-6.239654 11.095922 -15.298007 19.901804 -1.058530 2.447562 -0.002674 -0.024525 74181.400000 1 0 0
-14.864654 13.914322 3.305193 20.627423 -0.752388 1.409870 -0.007159 0.001150 84374.900000 1 0 0
-18.735354 8.427522 -4.692007 21.072531 -0.422704 1.795338 0.006812 0.002839 249693.000000 1 0 0
-4.013454 16.940522 -9.737307 19.947537 -1.338171 2.080760 0.006659 -0.006569 -141002.000000 1 0 0
-19.158354 -1.783778 -6.723207 20.382000 0.092839 1.906952 -0.007913 -0.005090 -326271.000000 1 0 0
-10.341654 13.828622 -6.193907 18.345165 -0.928676 1.915196 -0.017972 0.000831 11072.100000 1 0 0
-19.486954 3.186122 4.596593 20.273663 -0.162066 1.342080 0.025099 0.004665 126082.000000 1 0 0
-15.157654 12.589722 0.559893 19.712155 -0.693114 1.542389 0.002114 0.002105 14847.700000 1 0 0
-17.663154 3.197922 -8.083407 19.686421 -0.179110 1.993917 0.000994 -0.005960 205536.000000 1 0 0
-16.222654 12.957122 -4.900807 21.332591 -0.673951 1.802600 -0.009992 0.017944 344094.000000 1 0 0
-10.778254 15.725922 -8.682707 20.949100 -0.969949 1.998153 -0.000905 0.004537 37309.100000 1 0 0
-19.446254 1.597922 -6.744307 20.644511 -0.081987 1.903593 0.026500 -0.009617 -14177.700000 1 0 0
-17.232554 10.410322 -0.281607 20.134921 -0.543435 1.584783 0.016994 0.004397 -56719.700000 1 0 0
-11.595254 6.335022 -14.591507 19.684880 -0.500034 2.405734 -0.009983 -0.001578 343393.000000 1 0 0
-12.917954 12.510922 -4.009407 18.424767 -0.769393 1.790161 -0.000395 0.001916 449021.000000 1 0 0
-18.783854 7.249122 0.011393 20.134127 -0.368312 1.570230 0.006909 0.007230 27842.300000 1 0 0
-14.578054 8.817522 -10.504407 20.015267 -0.543977 2.123300 -0.001033 0.010106 487201.000000 1 0 0
-18.587954 11.635722 4.784993 22.445450 -0.559305 1.355964 0.008207 0.007478 205847.000000 1 0 0
-8.158454 12.120122 -13.429807 19.844834 -0.978330 2.314123 -0.005735 0.012280 491875.000000 1 0 0
-21.146854 -1.369278 -5.349007 21.855806 0.064661 1.818049 -0.005876 -0.001331 343304.000000 1 0 0
-10.616654 13.712722 -2.236207 17.485786 -0.911974 1.699035 -0.007704 0.003520 379349.000000 1 0 0
-18.782754 -4.691378 3.783993 19.726112 0.244763 1.377773 0.012257 0.001697 -70298.100000 1 0 0
-11.575554 11.527822 -12.960907 20.853519 -0.783332 2.241480 0.007739 0.012594 160947.000000 1 0 0
-14.763754 11.527722 -10.401107 21.425215 -0.662931 2.077687 -0.000172 0.012794 174460.000000 1 0 0
-12.724154 9.829722 -13.907207 21.258832 -0.657762 2.283901 0.006382 0.005163 178050.000000 1 0 0
-17.889554 -5.079978 -3.010507 18.838935 0.276680 1.731287 -0.037207 0.000949 -382175.000000 1 0 0
-9.576454 12.568422 -11.610607 19.608159 -0.919694 2.204498 0.009822 0.001314 -37245.700000 1 0 0
-15.868854 7.617122 -8.041907 19.352347 -0.447524 1.999346 0.002320 0.004004 67851.800000 1 0 0
-14.332454 9.211722 2.092993 17.165538 -0.571239 1.448562 -0.000323 0.002312 -163296.000000 1 0 0
-19.642254 6.159422 8.138093 22.135609 -0.303869 1.194319 0.013971 -0.008135 296050.000000 1 0 0
-18.619054 5.875122 3.748993 19.880674 -0.305655 1.381086 -0.000697 0.003493 229003.000000 1 0 0
-14.262054 12.723322 5.975093 20.024756 -0.728439 1.267796 -0.008449 0.002445 165398.000000 1 0 0
17.999546 6.463122 5.433393 19.881583 0.344733 1.293987 -0.000942 -0.003630 74370.200000 1 0 0
18.329346 8.212722 0.357993 20.088352 0.421243 1.552974 0.014230 0.007501 -53240.000000 1 0 0
17.157646 4.312322 8.208793 19.502954 0.246235 1.136359 0.008139 -0.005066 -9354.190000 1 0 0
12.603646 12.498422 11.011293 20.888059 0.781206 1.015545 0.024942 -0.009892 284713.000000 1 0 0
15.010446 12.537022 4.348793 20.035029 0.695851 1.351995 -0.001168 0.000907 195722.000000 1 0 0
5.297246 10.355622 14.530293 18.612607 1.097965 0.675060 -0.000272 0.000772 193995.000000 1 0 0
13.173746 13.169522 -5.187007 19.336208 0.785238 1.842376 0.011687 -0.003866 283439.000000 1 0 0
18.170346 9.118922 -2.767607 20.517696 0.465132 1.706098 0.029360 -0.003876 -56104.500000 1 0 0
14.609946 7.819122 9.519193 19.110317 0.491403 1.049369 0.000806 -0.004327 229529.000000 1 0 0
4.946346 18.986622 -1.984907 19.720497 1.315944 1.671619 0.010002 -0.009014 351611.000000 1 0 0
-4.509054 19.588622 3.527493 20.408059 -1.344550 1.397076 0.001634 0.011663 329099.000000 1 0 0
6.887646 12.820822 12.816693 19.392801 1.077815 0.848780 0.007949 0.008645 26399.900000 1 0 0
-0.181154 17.301022 -9.980207 19.974051 -1.560326 2.094001 0.000170 0.008774 64039.800000 1 0 0
10.758146 9.041622 15.608593 21.002781 0.698920 0.733004 0.007086 -0.011631 -96185.400000 1 0 0
-1.342954 12.828622 0.289793 12.901978 -1.466492 1.548333 -0.000406 0.005754 327471.000000 1 0 0
-4.690654 19.240522 -2.776807 19.997764 -1.331670 1.710102 0.005535 0.007702 56529.800000 1 0 0
5.384246 18.696022 6.036293 20.370767 1.290395 1.269958 -0.006937 0.006386 281085.000000 1 0 0
11.407546 17.226622 -1.128607 20.692084 0.985889 1.625366 -0.004685 -0.002520 308107.000000 1 0 0
18.523946 10.678722 3.435693 21.655846 0.522947 1.411473 0.011117 0.000426 253097.000000 1 0 0
11.567046 15.853022 7.158893 20.889342 0.940452 1.221001 0.016156 0.001680 -111028.000000 1 0 0
17.973146 7.327222 -5.795007 20.255969 0.387106 1.860939 -0.007029 0.003730 342073.000000 1 0 0
0.634846 15.549222 10.926493 19.014983 1.529991 0.958650 -0.000713 0.004667 367263.000000 1 0 0
1.148546 20.310122 -2.299607 20.472137 1.514306 1.683363 0.009902 -0.000671 340964.000000 1 0 0
14.143046 9.769622 -1.270307 17.236152 0.604506 1.644563 -0.006833 -0.001370 -176923.000000 1 0 0
9.395346 17.711422 1.509593 20.105866 1.083072 1.495643 -0.004522 0.001551 211496.000000 1 0 0
0.391446 17.804022 -0.550507 17.816831 1.548813 1.601699 0.006080 -0.000397 84805.900000 1 0 0
0.020746 20.955022 1.020393 20.979861 1.569806 1.522140 0.001264 0.000093 272472.000000 1 0 0
6.035146 17.572122 -0.208407 18.580793 1.239969 1.582013 0.004675 -0.014381 -38845.300000 1 0 0
7.865346 18.834222 -2.538307 20.567804 1.175202 1.694523 -0.001402 -0.002440 112091.000000 1 0 0
10.304746 9.549522 12.830293 19.026234 0.747378 0.830716 0.000637 -0.002710 108731.000000 1 0 0
12.911446 14.747422 8.441493 21.341291 0.851680 1.164133 0.002993 -0.000966 239838.000000 1 0 0
0.588946 17.475422 7.107793 18.874796 1.537108 1.184699 -0.008519 0.003336 253768.000000 1 0 0
6.853546 18.073322 -7.725307 20.815773 1.208342 1.951019 -0.017125 0.002024 -7104.270000 1 0 0
-0.286854 18.299422 9.625393 20.678475 -1.555122 1.086621 -0.008773 -0.000728 257204.000000 1 0 0
15.640646 6.690322 -7.826907 18.725669 0.404200 2.002014 0.003079 0.001974 -263045.000000 1 0 0
-5.324554 19.625822 -6.904007 21.475313 -1.305870 1.898094 0.003081 -0.004590 356017.000000 1 0 0
4.166046 15.682522 10.178893 19.154824 1.311144 1.010543 -0.007063 0.012003 242077.000000 1 0 0
9.214846 14.727922 7.786893 19.038402 1.011714 1.149428 0.005128 0.006076 203213.000000 1 0 0
-2.727254 19.459122 6.519293 20.702573 -1.431550 1.250442 0.009313 0.003974 190452.000000 1 0 0
4.836546 17.916322 7.808193 20.133421 1.307129 1.172528 -0.001781 -0.002430 153113.000000 1 0 0
15.095446 12.079222 -6.601507 20.429390 0.674857 1.899840 0.013917 0.002359 5211.860000 1 0 0
11.971746 6.552722 15.681893 20.789002 0.500806 0.716154 0.002647 -0.004651 308177.000000 1 0 0
17.104846 9.412222 5.070393 20.171132 0.503048 1.316702 0.009440 -0.002246 163699.000000 1 0 0
5.276046 15.043122 13.558093 20.927352 1.233473 0.866018 -0.010312 0.037239 362687.000000 1 0 0
15.818346 10.641222 -3.729107 19.425805 0.592178 1.763962 0.005352 -0.006185 210343.000000 1 0 0
15.339746 13.454222 6.482493 21.409031 0.720008 1.263175 0.002122 0.002571 192751.000000 1 0 0
12.366646 14.881322 -7.869107 20.888047 0.877426 1.957058 0.011647 0.000290 201453.000000 1 0 0
-8.617454 15.597722 9.563293 20.223897 -1.066050 1.078250 0.015201 -0.000343 93153.400000 1 0 0
-5.101654 17.282322 -7.586307 19.551409 -1.283754 1.969277 0.002642 0.024455 43691.900000 1 0 0
2.249046 19.666722 -4.506607 20.301420 1.456933 1.794646 -0.001934 -0.010097 -2647.350000 1 0 0
6.937546 16.711422 8.937793 20.181311 1.177308 1.111994 -0.009708 0.013168 492304.000000 1 0 0
13.351246 15.535522 -1.472007 20.537162 0.860870 1.642533 0.008733 -0.001921 185530.000000 1 0 0
12.471346 16.610822 4.194493 21.190744 0.926786 1.371541 0.002408 -0.001474 337649.000000 1 0 0
2.514146 18.401222 0.633793 18.582992 1.435008 1.536684 0.005468 -0.012279 36239.500000 1 0 0
-7.726854 17.052522 1.543593 18.784979 -1.145350 1.488532 -0.000907 -0.003353 184436.000000 1 0 0
0.549846 19.771322 -5.806507 20.613661 1.542993 1.856343 0.002979 -0.001629 126527.000000 1 0 0
-7.190654 17.877622 -6.518607 20.342249 -1.188382 1.896997 0.000557 -0.001866 -145437.000000 1 0 0
-7.374754 18.345922 -0.586407 19.781398 -1.188581 1.600445 -0.005129 -0.002578 84405.600000 1 0 0
-14.453554 -9.690978 8.909193 19.549783 0.590646 1.097617 -0.001054 0.004683 313603.000000 1 0 0
-13.292854 -13.458278 8.371593 20.685956 0.791582 1.154146 0.005339 -0.000238 -69874.600000 1 0 0
-3.292254 -15.677078 13.024593 20.645816 1.363800 0.888137 -0.001327 0.003452 161116.000000 1 0 0
-2.569154 -13.698178 15.558493 20.887971 1.385396 0.730480 0.005545 -0.023229 519520.000000 1 0 0
-8.010154 -13.928578 12.628693 20.436530 1.048896 0.904668 0.000385 -0.003118 274799.000000 1 0 0
-9.851354 -11.016478 11.728593 18.867216 0.841174 0.899963 0.003331 -0.004981 -254549.000000 1 0 0
-7.513854 -10.520378 13.011593 18.342244 0.950591 0.782180 0.007441 -0.005316 243131.000000 1 0 0
-15.256154 -12.403778 6.985993 20.866434 0.682638 1.229408 -0.003712 -0.006415 184618.000000 1 0 0
-4.603054 -12.563178 13.445593 18.968540 1.219593 0.782949 0.003891 -0.002645 387117.000000 1 0 0
3.611646 -12.788978 13.942193 19.261015 -1.295561 0.761422 -0.005429 0.007212 367071.000000 1 0 0
6.008346 -13.676078 14.033793 20.495918 -1.156849 0.816588 -0.030369 -0.007748 127526.000000 1 0 0
7.021246 -9.260078 16.469093 20.156338 -0.922050 0.614490 0.000140 -0.000103 574977.000000 1 0 0
-4.950654 13.700022 13.419193 19.805916 -1.224036 0.826391 -0.010609 0.006771 385316.000000 1 0 0
-13.258554 -2.067078 17.721593 22.228741 0.154660 0.648091 -0.005571 0.001590 361257.000000 1 0 0
-10.378354 9.912322 13.116993 19.442733 -0.762434 0.830309 0.009629 0.008192 392000.000000 1 0 0
-7.364554 -8.208078 17.234993 20.461041 0.839512 0.569200 -0.003719 0.001861 216459.000000 1 0 0
-4.877254 2.435522 18.237793 19.035137 -0.463138 0.290461 0.008069 -0.000341 562718.000000 1 0 0
-15.209154 -3.837378 14.990693 21.697113 0.247149 0.808053 -0.001183 -0.002732 99682.200000 1 0 0
-14.465154 2.677422 12.595893 19.366615 -0.183023 0.862696 -0.006914 0.001657 333915.000000 1 0 0
-14.717254 10.539622 9.489093 20.438299 -0.621477 1.087975 -0.018805 0.004540 -5287.880000 1 0 0
-4.445654 11.152122 15.856893 19.889060 -1.191465 0.648042 0.011958 -0.006040 264125.000000 1 0 0
-13.148954 12.512422 9.245893 20.370131 -0.760598 1.099665 -0.001779 -0.001240 129268.000000 1 0 0
-3.908754 -6.484878 18.673993 20.150683 1.028358 0.385215 0.011713 -0.000579 393290.000000 1 0 0
0.400146 -3.292178 17.320593 17.635234 -1.449845 0.189182 0.002285 -0.017429 84192.400000 1 0 0
-4.157954 6.670422 21.122993 22.538055 -1.013390 0.356241 0.002362 -0.001872 -18042.700000 1 0 0
1.880146 -10.979878 16.428293 19.848967 -1.401206 0.595862 -0.000558 -0.000547 351840.000000 1 0 0
-14.679154 -0.362078 14.471193 20.616112 0.024661 0.792684 -0.029645 0.011218 -26608.300000 1 0 0
-13.918754 -6.230578 8.348693 17.385410 0.420889 1.069899 -0.001573 -0.000244 182531.000000 1 0 0
10.292846 1.061022 16.775993 19.710464 0.102721 0.552679 0.005519 0.012169 354552.000000 1 0 0
-7.730354 12.358222 12.163293 18.984986 -1.011821 0.875413 0.008913 0.000920 181211.000000 1 0 0
-1.542354 7.855922 19.791593 21.349508 -1.376932 0.384388 -0.002258 -0.014767 347096.000000 1 0 0
1.171546 -13.308578 15.477493 20.446113 -1.482993 0.712103 -0.008229 -0.010587 498820.000000 1 0 0
-3.740054 -11.949378 17.802193 21.764506 1.267464 0.612965 0.009726 -0.005197 395075.000000 1 0 0
-2.022454 8.755222 16.870793 19.114599 -1.343779 0.489404 -0.001607 -0.007867 474375.000000 1 0 0
-4.852054 -9.887178 20.489993 23.262384 1.114582 0.493203 0.024468 -0.001920 219895.000000 1 0 0
-6.568854 -3.015978 19.314793 20.622977 0.430423 0.358094 0.000944 0.001412 254850.000000 1 0 0
-10.874254 -8.371978 15.456693 20.669997 0.656110 0.726078 0.039198 -0.010698 408233.000000 1 0 0
-0.289854 6.338022 17.796793 18.893924 -1.525096 0.342458 0.008036 -0.010710 -101808.000000 1 0 0
-6.177954 -11.443778 18.552593 22.656696 1.075777 0.611380 0.000912 -0.009851 474294.000000 1 0 0
0.778546 3.543122 18.841493 19.187540 1.354499 0.190208 0.009960 0.000925 64237.800000 1 0 0
-18.362454 -0.378778 8.039193 20.048736 0.020625 1.158207 0.000849 -0.002701 86179.400000 1 0 0
-1.649954 -8.762378 17.526193 19.663902 1.384676 0.470619 0.005446 -0.006696 247025.000000 1 0 0
5.977346 3.284122 14.871093 16.360425 0.502404 0.429996 -0.000131 -0.003255 407089.000000 1 0 0
-13.871954 -7.032478 10.504593 18.767880 0.469197 0.976759 0.004841 -0.002976 227844.000000 1 0 0
4.018146 8.167322 16.661393 18.985591 1.113587 0.500003 0.000008 -0.005071 136015.000000 1 0 0
6.495846 4.395122 17.044793 18.762678 0.594851 0.431256 0.006092 -0.028453 180019.000000 1 0 0
5.234346 -9.439478 18.408093 21.339166 -1.064492 0.530323 0.008918 0.016871 290052.000000 1 0 0
-4.438854 -0.530778 19.748593 20.248261 0.119010 0.222617 0.011847 -0.006018 554643.000000 1 0 0
-11.003654 1.613122 17.185493 20.470069 -0.145562 0.574356 0.010157 0.000557 13670.400000 1 0 0
-16.553654 -4.189178 9.030193 19.316238 0.247863 1.084344 -0.012632 -0.007016 231007.000000 1 0 0
-13.126354 -9.634278 12.061193 20.263091 0.633159 0.933245 -0.006409 -0.011017 116980.000000 1 0 0
-14.720254 6.245722 13.302593 20.800334 -0.401273 0.876900 -0.000880 -0.002282 281338.000000 1 0 0
1.170946 9.467122 17.402293 19.845335 1.447736 0.501430 -0.003247 -0.002009 22908.600000 1 0 0
-3.857854 -10.715478 15.028293 18.856142 1.225217 0.648489 0.003631 -0.001086 474317.000000 1 0 0
-17.408954 -3.060478 7.154393 19.068916 0.174021 1.186199 -0.010312 -0.001975 -11385.500000 1 0 0
-0.965254 -0.660378 21.274893 21.307015 0.600009 0.054917 0.009252 0.008294 399562.000000 1 0 0
-1.783554 2.668822 20.406593 20.657510 -0.981669 0.156020 0.006577 0.000205 201292.000000 1 0 0
-7.904954 2.048222 16.485393 18.397056 -0.253531 0.459919 -0.004392 0.011723 592183.000000 1 0 0
2.748346 -1.987178 18.881793 19.183961 -0.626026 0.177722 0.005932 0.000604 187195.000000 1 0 0
-12.606154 4.280322 14.178693 19.449206 -0.327328 0.753920 -0.003749 0.003461 203041.000000 1 0 0
-13.021254 -5.730678 13.657493 19.721076 0.414592 0.805802 -0.024248 0.000921 91637.000000 1 0 0
-17.006354 -1.077878 10.214793 19.867559 0.063296 1.030787 -0.010777 -0.005154 118810.000000 1 0 0
-7.241754 7.645222 14.946693 18.283764 -0.812494 0.613767 0.001983 -0.002737 -58989.700000 1 0 0
-9.225554 0.419222 14.395793 17.103375 -0.045410 0.570385 -0.004577 0.006601 72385.200000 1 0 0
8.217046 -0.866078 14.778893 16.931793 -0.105012 0.509787 0.011257 -0.007585 28243.600000 1 0 0
3.968646 6.343622 18.530593 19.984358 1.011757 0.383783 0.004062 0.005620 45478.900000 1 0 0
1.763046 0.677022 20.074693 20.163332 0.366644 0.093801 0.004097 0.007962 178664.000000 1 0 0
-6.751854 6.702622 17.906893 20.277314 -0.781739 0.488368 -0.002337 -0.000105 531451.000000 1 0 0
7.705246 -3.467678 16.927793 18.919455 -0.422888 0.462971 0.004000 0.012294 395605.000000 1 0 0
-16.401054 2.394922 9.297293 19.004470 -0.144998 1.059606 0.010249 -0.009005 222338.000000 1 0 0
4.430646 -5.253378 18.869293 20.081803 -0.870152 0.349274 0.022348 -0.011298 67721.000000 1 0 0
-3.599254 -3.760378 20.692393 21.337061 0.807288 0.246442 0.007916 0.002600 394993.000000 1 0 0
-9.744754 5.887422 14.612693 18.524383 -0.543475 0.661884 -0.000945 0.003868 -19716.800000 1 0 0
6.545146 2.542922 19.929593 21.130406 0.370571 0.338748 -0.002928 0.000678 57831.700000 1 0 0
-7.385554 11.199222 14.895593 20.046138 -0.987792 0.733157 0.009159 -0.004417 281306.000000 1 0 0
-14.339954 4.882122 9.743493 18.011248 -0.328147 0.999210 -0.000528 -0.002318 369805.000000 1 0 0
1.335646 -5.286578 20.232793 20.954660 -1.323327 0.263244 0.015078 -0.008990 259713.000000 1 0 0
-5.911954 -8.418878 13.790593 17.204917 0.958578 0.640914 0.002314 -0.001077 207199.000000 1 0 0
-12.641654 9.891222 6.903793 17.473123 -0.663936 1.164610 -0.020245 -0.011287 129047.000000 1 0 0
-19.331354 2.418622 8.093293 21.096264 -0.124467 1.177066 -0.016509 -0.001844 50406.600000 1 0 0
-15.147954 8.949122 6.743393 18.841991 -0.533613 1.204787 -0.026170 -0.000153 41465.500000 1 0 0
-12.759854 7.805022 14.471493 20.812408 -0.548968 0.801917 0.003210 0.002404 190233.000000 1 0 0
-16.370854 8.916922 11.177893 21.736183 -0.498752 1.030660 -0.006190 -0.000611 364007.000000 1 0 0
2.769646 10.464922 15.024093 18.517799 1.312068 0.624368 0.004676 -0.030499 321555.000000 1 0 0
2.197046 15.041722 13.272193 20.179978 1.425759 0.853047 -0.005415 0.000496 731027.000000 1 0 0
9.003446 4.850322 16.683993 19.568936 0.494140 0.549903 -0.005425 0.001646 -11148.300000 1 0 0
-0.243754 13.316522 13.333193 18.845774 -1.552494 0.784856 0.005912 0.005253 177476.000000 1 0 0
4.028546 12.422922 14.963993 19.861502 1.257213 0.717553 0.001527 0.004599 98683.900000 1 0 0
-3.722454 -4.525778 -13.546307 14.759464 0.882485 2.733312 -0.005014 -0.002168 119734.000000 1 0 0
5.737146 -12.187578 16.779393 21.517433 -1.130832 0.676443 -0.033281 0.024860 247462.000000 1 0 0
8.945546 -13.742178 6.951293 17.809849 -0.993750 1.169832 -0.005630 -0.008248 265745.000000 1 0 0
-0.531854 15.183622 0.368793 15.197409 -1.535782 1.546527 0.007296 -0.003367 -390136.000000 1 0 0
-14.328754 7.366322 8.999093 18.454256 -0.474859 1.061408 0.015408 0.002368 -63834.000000 1 0 0
-16.262454 -9.505278 5.131593 19.523088 0.528939 1.304824 0.012841 0.001258 231536.000000 1 0 0
9.102146 -10.345378 11.313193 17.828748 -0.849239 0.883373 0.000474 0.002012 114748.000000 1 0 0
-25.269894 6.055722 31.433743 40.783815 -0.235206 0.690794 0.001031 -0.001349 88121.900000 0 0 1
-23.986854 5.490622 31.251093 39.776211 -0.225025 0.667013 -0.004515 0.006559 184799.000000 0 0 1
-23.002754 5.946522 32.147793 39.974597 -0.252975 0.636459 -0.003241 -0.003415 162636.000000 0 0 1
-21.654754 5.227822 31.856573 38.872867 -0.236884 0.610247 -0.009993 0.000991 -68302.700000 0 0 1
-21.586754 3.858022 32.131443 38.901182 -0.176854 0.598865 0.002132 -0.001252 444671.000000 0 0 1
-20.305754 3.268222 31.888193 37.945511 -0.159582 0.572835 -0.001753 0.004067 538870.000000 0 0 1
-19.965454 2.127822 32.883473 38.528818 -0.106174 0.548174 -0.001868 0.006844 -170958.000000 0 0 1
-20.486754 0.889222 32.478143 38.409993 -0.043377 0.563174 -0.000024 0.005049 114592.000000 0 0 1
-20.402754 -0.125178 33.467648 39.196575 0.006135 0.547476 -0.002738 0.007811 53219.200000 0 0 1
-21.069054 -1.533578 33.095783 39.263059 0.072660 0.568101 0.001665 0.002888 273820.000000 0 0 1
-20.317654 -2.413978 32.227593 38.173972 0.118257 0.565670 0.004492 -0.004018 305181.000000 0 0 1
-20.503154 -3.769378 32.659233 38.745491 0.181814 0.568114 0.009293 -0.004028 357977.000000 0 0 1
-21.823854 -4.598778 32.352203 39.294967 0.207684 0.603566 0.007108 -0.004066 419290.000000 0 0 1
-22.908754 -4.304178 33.173133 40.543726 0.185718 0.612512 0.002204 -0.003438 -178834.000000 0 0 1
-22.842854 -4.954178 34.433236 41.617156 0.213573 0.596368 -0.000023 0.000045 -502030.000000 0 0 1
-24.016554 -4.602678 -34.045847 41.917768 0.189350 2.518719 0.001321 -0.000711 131209.000000 0 0 1
-23.866154 -5.022478 -32.724227 40.812910 0.207417 2.501115 0.006662 -0.005508 1066730.000000 0 0 1
-25.021154 -4.519978 -31.989157 40.863120 0.178719 2.470008 0.005307 -0.000696 892673.000000 0 0 1
-25.149374 -5.114678 -30.591207 39.930852 0.200636 2.443554 0.006952 -0.006180 -443921.000000 0 0 1
-25.532554 -6.478078 -30.570707 40.353996 0.248475 2.430368 0.007003 -0.003296 555239.000000 0 0 1
-25.216354 -7.155578 -29.354067 39.353883 0.276499 2.412682 0.002970 -0.006110 -250042.000000 0 0 1
-25.263554 -8.686778 -29.463437 39.771867 0.331182 2.405073 0.005572 -0.002174 465336.000000 0 0 1
-26.619404 -9.141878 -29.411407 40.708691 0.330809 2.378186 0.007425 -0.003414 530067.000000 0 0 1
-26.676214 -10.505078 -29.135057 40.875771 0.375150 2.364237 0.007260 0.000093 56512.700000 0 0 1
-28.029004 -10.752378 -28.431597 41.347242 0.366303 2.329016 0.014752 -0.000508 255510.000000 0 0 1
-28.081974 -11.756078 -27.437227 40.982973 0.396467 2.304303 0.014426 0.001507 675687.000000 0 0 1
-29.452064 -11.868178 -26.998807 41.679891 0.383061 2.275444 0.007680 0.002113 843328.000000 0 0 1
-29.632854 -12.647078 -25.668817 41.193966 0.403388 2.243523 0.012179 0.006387 -51716.500000 0 0 1
-28.992974 -11.948178 -24.615907 39.865955 0.390899 2.236315 0.000061 0.005643 286995.000000 0 0 1
-29.049664 -12.544478 -23.351307 39.325952 0.407640 2.206556 0.000027 0.005542 -239053.000000 0 0 1
-28.590424 -11.650078 -22.154107 37.999226 0.386940 2.193231 0.000439 0.004506 80278.000000 0 0 1
-28.414574 -12.292978 -20.862407 37.332899 0.408315 2.163760 0.000966 0.006934 -320177.000000 0 0 1
-27.321804 -13.139478 -20.804507 36.768932 0.448264 2.172221 0.000856 0.007176 -1158690.000000 0 0 1
-26.930594 -13.568178 -19.398307 35.855916 0.466699 2.142431 -0.001598 0.008099 -225196.000000 0 0 1
-26.491824 -12.378578 -18.773107 34.748748 0.437115 2.141534 -0.000202 0.003855 173485.000000 0 0 1
-26.191664 -12.726178 -17.448207 33.947000 0.452293 2.110619 -0.000504 0.008571 -94430.600000 0 0 1
-26.043194 -11.517578 -16.530107 32.926388 0.416390 2.096743 -0.000965 0.003322 -1096390.000000 0 0 1
-24.906854 -10.760978 -16.635507 31.825935 0.407826 2.120815 0.002057 0.004188 -637992.000000 0 0 1
-24.879454 -9.620478 -15.753007 30.978994 0.368974 2.104245 0.005708 -0.001180 -425552.000000 0 0 1
-23.499854 -8.955078 -15.706807 29.650301 0.364081 2.129085 0.014405 0.002760 -230615.000000 0 0 1
-22.587554 -9.579478 -14.862007 28.685245 0.401112 2.115432 0.011925 0.005465 386031.000000 0 0 1
-21.296954 -8.987878 -14.806207 27.451156 0.399349 2.140480 0.004675 -0.004411 -34731.200000 0 0 1
-20.342754 -9.470678 -13.730407 26.306757 0.435714 2.119914 -0.004758 -0.000148 -716455.000000 0 0 1
-19.735554 -10.679978 -14.073407 26.488013 0.496026 2.130945 -0.001312 0.008011 -662237.000000 0 0 1
-18.569054 -10.721278 -13.314407 25.239434 0.523616 2.126480 0.000127 0.003856 -591410.000000 0 0 1
-17.683654 -11.866978 -13.864807 25.411999 0.591045 2.147902 -0.000220 0.008670 -248069.000000 0 0 1
-16.970854 -11.645178 -15.099407 25.526695 0.601395 2.203732 -0.001547 0.004151 105050.000000 0 0 1
-17.713554 -11.526278 -16.303307 26.691252 0.576870 2.227881 -0.004091 0.001746 -207521.000000 0 0 1
-16.821854 -11.194378 -17.563707 26.772611 0.587171 2.286346 -0.012382 0.003044 -175891.000000 0 0 1
-17.440954 -11.344278 -18.778707 28.027119 0.576684 2.305031 -0.009153 0.002291 -40741.200000 0 0 1
-16.731554 -10.682078 -19.806607 28.041993 0.568205 2.355082 -0.013963 0.000810 103753.000000 0 0 1
-17.356454 -11.104878 -21.207307 29.568813 0.569180 2.370599 -0.015596 0.008462 -18857.900000 0 0 1
-18.667554 -10.674478 -21.409407 30.344436 0.519441 2.353990 -0.009993 0.005276 -647536.000000 0 0 1
-19.272354 -11.355178 -22.425807 31.674604 0.532437 2.357467 -0.009085 0.008719 290816.000000 0 0 1
-20.367754 -10.562478 -23.227607 32.648631 0.478407 2.362344 -0.000820 0.002799 402556.000000 0 0 1
-19.904254 -9.472078 -23.994707 32.582903 0.444168 2.398560 -0.001202 -0.000903 -374186.000000 0 0 1
-20.902554 -8.921978 -24.808807 33.645139 0.403425 2.399960 0.013387 -0.003242 -229871.000000 0 0 1
-20.335054 -8.039278 -25.931837 33.920563 0.376483 2.441042 -0.001803 -0.000745 262285.000000 0 0 1
-19.396454 -8.835178 -26.668297 34.139140 0.427422 2.467326 -0.006039 0.002805 454380.000000 0 0 1
-18.570254 -7.996778 -27.470997 34.109507 0.406624 2.507107 -0.009116 0.001380 -656744.000000 0 0 1
-17.563054 -8.762978 -28.274057 34.419079 0.462802 2.534771 -0.009542 0.004348 -740891.000000 0 0 1
-18.066854 -9.660578 -29.251937 35.712936 0.491031 2.530611 -0.009052 0.005361 -160419.000000 0 0 1
-17.010254 -10.315778 -29.889117 35.904364 0.545145 2.554338 -0.007853 0.005519 -283739.000000 0 0 1
-17.433954 -11.483578 -30.823857 37.228020 0.582460 2.546283 -0.000240 0.004269 -164510.000000 0 0 1
-18.000854 -11.091678 -32.072887 38.415182 0.552228 2.558750 0.006161 0.004602 567028.000000 0 0 1
-18.423054 -12.237778 -32.848717 39.600636 0.586338 2.549008 0.010070 0.001889 59905.100000 0 0 1
-18.934354 -11.926478 -34.258699 40.919545 0.562105 2.562978 0.014985 -0.002373 -111875.000000 0 0 1
-17.941754 -11.756078 34.211848 40.380224 0.580047 0.560023 0.011965 -0.005103 -392520.000000 0 0 1
-18.552554 -11.579478 32.967303 39.561656 0.557984 0.585720 0.010535 -0.007753 -20705.200000 0 0 1
-17.904554 -12.407478 31.878583 38.610396 0.605998 0.599447 0.010952 -0.005548 -461225.000000 0 0 1
-16.555054 -12.058878 31.647743 37.697029 0.629540 0.574381 0.008084 -0.007398 125278.000000 0 0 1
-15.934454 -12.669978 30.536433 36.700258 0.671765 0.588004 0.008260 -0.009195 -37636.000000 0 0 1
-15.695954 -14.186978 30.575603 37.181996 0.734945 0.605315 0.010737 -0.007153 -937325.000000 0 0 1
-16.898154 -14.866578 30.272153 37.722222 0.721528 0.639320 0.012769 -0.004965 70462.100000 0 0 1
-16.928754 -16.179278 30.780453 38.675419 0.762765 0.650360 0.006754 -0.002208 -93559.300000 0 0 1
-17.485054 -16.265078 32.229403 40.112521 0.749267 0.637687 0.009105 0.004355 -355113.000000 0 0 1
-16.569554 -15.928278 33.230283 40.404355 0.765668 0.605104 0.007351 0.001711 -12041.900000 0 0 1
-17.225654 -16.087278 34.462939 41.751861 0.751239 0.599846 0.007633 0.007065 420767.000000 0 0 1
-16.255254 -15.841578 -33.788147 40.704149 0.772511 2.550067 0.011735 0.010445 265150.000000 0 0 1
-15.913254 -14.455478 -33.659357 39.939264 0.737432 2.573193 0.012364 0.008153 172531.000000 0 0 1
-14.718554 -14.216178 -32.920887 38.762358 0.768038 2.585455 0.007599 0.006453 474906.000000 0 0 1
-14.980254 -14.061278 -31.390207 37.516299 0.753765 2.562041 -0.000431 0.006218 -91129.500000 0 0 1
-15.179754 -15.250378 -30.686197 37.478550 0.787719 2.530056 0.003692 0.009151 -185976.000000 0 0 1
-15.391154 -14.935278 -29.321737 36.327874 0.770367 2.510090 0.000717 0.009393 -536829.000000 0 0 1
-15.247654 -16.081478 -28.328127 35.966480 0.812007 2.477743 0.000183 0.006164 160249.000000 0 0 1
-13.944254 -16.445078 -27.897707 35.258544 0.867506 2.483618 0.002166 0.005347 35368.900000 0 0 1
-13.207354 -17.131878 -28.900797 36.099744 0.914039 2.499062 0.006197 0.005613 -1334920.000000 0 0 1
-11.767754 -17.384178 -28.521967 35.414578 0.975727 2.507102 0.010330 0.001145 -701302.000000 0 0 1
-10.973654 -16.213378 -28.720137 34.758323 0.975793 2.543269 0.013411 0.004826 -299788.000000 0 0 1
-9.624954 -16.496478 -28.405237 34.229096 1.042631 2.549647 0.017098 0.002908 218363.000000 0 0 1
-8.775654 -15.218278 -28.314737 33.321651 1.047721 2.586288 0.016347 0.004331 -190847.000000 0 0 1
-9.017154 -14.397778 -27.225537 32.091042 1.011271 2.583722 0.013745 -0.002073 435376.000000 0 0 1
-7.899054 -13.548678 -26.866907 31.109363 1.042961 2.613218 0.010663 -0.000606 640048.000000 0 0 1
-7.710454 -12.168778 -27.473107 31.020991 1.006018 2.658644 0.009705 -0.002195 -235082.000000 0 0 1
-7.155254 -12.207178 -28.765227 32.056999 1.040622 2.684445 0.006832 -0.003529 59961.100000 0 0 1
-7.046754 -10.878678 -29.315577 32.053166 0.995999 2.725295 0.007137 -0.002767 -384383.000000 0 0 1
-6.201154 -10.902178 -30.607017 33.077202 1.053634 2.752677 -0.001321 -0.003833 -722240.000000 0 0 1
-4.847554 -10.880278 -30.206187 32.469878 1.151661 2.765981 0.004826 -0.007706 -71440.400000 0 0 1
-4.023654 -10.436478 -31.303867 33.242172 1.202819 2.798419 0.003100 -0.006063 1792.900000 0 0 1
-3.977054 -8.950978 -31.685087 33.164465 1.152680 2.841783 -0.003238 -0.004899 -1108060.000000 0 0 1
-2.859354 -8.550478 -32.432847 33.662682 1.248078 2.870452 -0.003989 -0.003733 -377594.000000 0 0 1
-3.113354 -7.265378 -32.907837 33.843824 1.165949 2.905862 -0.008154 -0.006427 -413010.000000 0 0 1
-1.900754 -6.489678 -33.405897 34.083468 1.285876 2.941863 -0.004995 -0.006700 -308524.000000 0 0 1
-1.480854 -6.908078 -34.711071 35.422774 1.359627 2.940798 -0.002439 -0.005956 -252155.000000 0 0 1
-0.311654 -6.260978 34.283162 34.851574 1.521060 0.180854 -0.001746 -0.009833 -134010.000000 0 0 1
0.385546 -7.083478 33.187913 33.937618 -1.516421 0.210582 0.002360 -0.004732 -235787.000000 0 0 1
-0.173554 -6.954778 31.898873 32.648693 1.545847 0.214731 0.004783 -0.001747 -9021.990000 0 0 1
0.531146 -7.701978 30.958633 31.906732 -1.501943 0.244389 0.005844 -0.001115 -239424.000000 0 0 1
0.195846 -7.258578 29.510143 30.390358 -1.543822 0.241266 0.006964 0.004806 -192798.000000 0 0 1
0.759046 -6.057478 29.125153 29.758087 -1.446139 0.206616 0.009240 -0.000241 -28307.700000 0 0 1
0.490746 -5.687978 27.771493 28.352244 -1.484732 0.202750 0.007925 0.004331 -330385.000000 0 0 1
-0.717054 -4.793178 27.492803 27.916715 1.422299 0.174490 0.005234 0.006491 -204100.000000 0 0 1
-1.992354 -5.302078 27.765693 28.337523 1.211352 0.201234 0.007266 0.010751 -558816.000000 0 0 1
-2.972854 -4.465678 27.203433 27.727368 0.983455 0.194709 0.004092 0.007151 4209.500000 0 0 1
-4.414954 -4.936478 27.489733 28.276246 0.841110 0.236412 0.001347 0.006025 20981.300000 0 0 1
-4.778454 -6.132778 26.864873 27.967231 0.908889 0.281701 -0.004637 0.011448 824048.000000 0 0 1
-6.192554 -6.363978 27.095863 28.513747 0.799049 0.316683 -0.005466 0.005186 1672910.000000 0 0 1
-6.497354 -7.932878 26.974213 28.857483 0.884552 0.363273 -0.005240 0.004961 340288.000000 0 0 1
-5.742154 -8.632078 27.959483 29.819755 0.983802 0.355087 -0.009612 -0.000536 9689.190000 0 0 1
-6.060354 -10.021378 28.127413 30.468136 1.026897 0.394537 -0.009252 0.000321 -80047.100000 0 0 1
-5.248254 -10.598278 29.282553 31.580621 1.110997 0.383845 -0.008022 0.001112 -228019.000000 0 0 1
-5.143554 -11.962578 29.127273 31.905446 1.164723 0.420402 -0.010097 -0.002979 -8483.400000 0 0 1
-4.692154 -12.582478 30.303773 33.145946 1.213858 0.417137 -0.009090 -0.000259 -257946.000000 0 0 1
-4.698254 -14.101678 30.140003 33.605814 1.249193 0.458158 -0.009942 -0.003018 22745.500000 0 0 1
-6.012754 -14.618178 30.067023 33.968665 1.180569 0.484002 -0.005404 0.000194 -261540.000000 0 0 1
-6.115554 -16.031778 30.069913 34.621057 1.206370 0.518539 -0.008315 -0.001476 -77628.500000 0 0 1
-6.066154 -16.654878 31.499873 36.144505 1.221504 0.512547 -0.003067 0.001537 -1074030.000000 0 0 1
-7.040254 -16.273878 32.358823 36.898479 1.162497 0.501278 -0.005522 0.000030 -1210740.000000 0 0 1
-6.874854 -16.842478 33.620800 38.226835 1.183254 0.495969 -0.000922 0.001294 -364854.000000 0 0 1
-8.219254 -17.211778 34.293493 39.240860 1.125280 0.507581 0.004528 0.007424 380244.000000 0 0 1
-8.810354 -18.430278 33.836246 39.524537 1.124873 0.543156 0.008620 0.004040 333995.000000 0 0 1
-9.344454 -18.446278 32.490973 38.512950 1.101901 0.566774 0.009692 0.002492 -554147.000000 0 0 1
-9.944554 -19.855578 32.157453 39.079917 1.106473 0.604364 0.023020 -0.003978 -960971.000000 0 0 1
-11.090854 -20.133678 32.856883 40.099212 1.067292 0.610451 0.016717 0.003073 -586919.000000 0 0 1
-11.683854 -21.398378 32.601713 40.709639 1.071017 0.642108 0.012778 0.000677 -135336.000000 0 0 1
-11.145454 -22.549478 33.522011 41.909729 1.111746 0.643731 0.017571 -0.007663 736953.000000 0 0 1
-9.796954 -22.983578 33.247673 41.588856 1.167860 0.644439 0.008149 -0.004874 589552.000000 0 0 1
-9.164454 -23.579978 34.343554 42.655390 1.200109 0.634885 0.012703 -0.009873 37240.500000 0 0 1
-9.556554 -25.017778 34.677514 43.814917 1.205911 0.657611 0.016140 -0.004317 -238406.000000 0 0 1
-9.323554 -25.843828 33.580113 43.387281 1.224563 0.685722 0.013969 -0.005207 -45646.100000 0 0 1
-9.444454 -27.221188 33.937113 44.518743 1.236839 0.703920 0.020776 -0.005573 -1066650.000000 0 0 1
-8.814154 -28.210568 32.891613 44.219721 1.267965 0.732025 0.021978 -0.005190 257254.000000 0 0 1
-7.437654 -27.959748 32.673293 43.641841 1.310804 0.724744 0.012989 -0.003908 63942.000000 0 0 1
-6.643154 -28.491778 33.745644 44.661857 1.341728 0.714256 0.010919 -0.005864 -1083940.000000 0 0 1
-5.139154 -28.245078 33.706595 44.275613 1.390817 0.705496 0.008132 -0.002935 -249805.000000 0 0 1
-4.666254 -27.028448 34.246942 43.876691 1.399839 0.675288 0.010577 0.002289 79685.200000 0 0 1
-4.782854 -25.856478 33.412608 42.518649 1.387887 0.666752 0.014540 0.004249 -155649.000000 0 0 1
-4.529054 -24.442878 34.093001 42.193594 1.387583 0.630023 0.007653 0.002415 -56922.000000 0 0 1
-3.211154 -24.265678 34.540838 42.334432 1.439228 0.616505 -0.003498 0.011293 -307289.000000 0 0 1
-3.113054 -23.199678 -33.990937 41.271055 1.437408 2.538530 -0.004069 0.010056 -13968.500000 0 0 1
33.307905 -15.258678 2.171393 36.700937 -0.429578 1.511597 0.006873 -0.003072 -208497.000000 0 0 1
33.769046 -15.892478 3.321493 37.469343 -0.439871 1.482034 -0.003956 -0.004944 237755.000000 0 0 1
32.953585 -16.973178 3.749993 37.257080 -0.475625 1.469974 0.005595 -0.005717 58362.400000 0 0 1
33.405255 -17.453478 5.210993 38.048514 -0.481467 1.433408 0.006322 -0.007659 273156.000000 0 0 1
34.663635 -18.103878 5.204293 39.451269 -0.481307 1.438494 0.008643 -0.012279 181309.000000 0 0 1
-34.235574 -17.860378 6.456793 39.150451 0.480849 1.405117 0.004020 -0.001212 -295596.000000 0 0 1
-32.880424 -18.554478 6.516793 38.312655 0.513757 1.399870 0.004831 0.004741 -482669.000000 0 0 1
-33.024384 -19.954078 6.448193 39.119744 0.543519 1.405208 -0.001524 0.002773 197036.000000 0 0 1
-31.831324 -20.560378 6.899293 38.517043 0.573499 1.390701 0.000289 0.005314 -32323.600000 0 0 1
-31.975994 -22.045178 7.155293 39.492433 0.603596 1.388609 0.004337 -0.000922 -362161.000000 0 0 1
-31.836574 -22.882978 6.038593 39.669418 0.623208 1.417979 0.007804 -0.005344 -138718.000000 0 0 1
-32.193954 -24.208278 6.356493 40.778627 0.644749 1.414280 0.007790 -0.003646 -340644.000000 0 0 1
-31.663634 -25.383278 5.479693 40.950257 0.675749 1.436580 0.003063 0.003206 72943.100000 0 0 1
-31.916424 -25.101198 4.100793 40.811087 0.666434 1.470144 0.000667 -0.000145 -72375.900000 0 0 1
-31.160594 -26.042158 3.417693 40.753616 0.696157 1.486835 -0.002712 0.005612 -248059.000000 0 0 1
-31.405654 -26.058018 1.903593 40.852896 0.692604 1.524183 0.009861 0.004161 -462737.000000 0 0 1
-32.665224 -26.583718 1.538893 42.143554 0.683113 1.534273 0.002215 0.003822 -130810.000000 0 0 1
-33.097084 -26.039328 0.349593 42.113962 0.666613 1.562495 -0.000911 0.004583 -426201.000000 0 0 1
-33.914684 -24.763678 0.520993 41.996631 0.630692 1.558390 -0.007246 0.008646 -202889.000000 0 0 1
34.209886 -25.068478 0.568093 42.415417 -0.632392 1.557402 -0.002745 0.001413 491640.000000 0 0 1
33.534340 -23.936078 1.088693 41.214961 -0.619913 1.544378 0.002609 0.002047 103130.000000 0 0 1
31.997285 -23.979178 0.954593 39.996731 -0.643125 1.546927 -0.000152 0.001097 39230.200000 0 0 1
31.527485 -23.804578 -0.354607 39.506531 -0.646720 1.579772 0.000178 0.001783 -880558.000000 0 0 1
30.137405 -23.765378 -0.235107 38.381137 -0.667731 1.576922 0.001768 0.002068 -485727.000000 0 0 1
29.484095 -23.547878 -1.615007 37.768011 -0.673926 1.613571 0.003253 0.002759 -160230.000000 0 0 1
29.840345 -22.364178 -2.239207 37.357954 -0.643156 1.630772 0.009116 0.002065 -145254.000000 0 0 1
29.421775 -22.192478 -3.581807 37.026697 -0.646239 1.667684 0.010011 -0.006157 -45445.900000 0 0 1
29.483285 -20.817478 -4.167407 36.331787 -0.614793 1.685754 0.006723 -0.007215 61299.800000 0 0 1
28.564275 -19.931278 -3.568507 35.012968 -0.609227 1.672893 0.008069 -0.005767 102822.000000 0 0 1
28.660765 -18.617378 -4.077707 34.419092 -0.576078 1.689547 0.005214 0.000705 -281775.000000 0 0 1
27.850315 -17.788978 -3.098907 33.191731 -0.568415 1.664296 0.002980 0.007732 -486610.000000 0 0 1
28.292325 -17.595778 -1.764907 33.364382 -0.556387 1.623719 0.010037 0.009115 -75717.600000 0 0 1
28.722965 -18.603478 -0.861907 34.232163 -0.574747 1.595977 0.002380 0.013046 -62456.000000 0 0 1
27.782015 -19.810578 -0.622207 34.127504 -0.619445 1.589029 -0.001218 0.013151 -229234.000000 0 0 1
26.582725 -19.642878 0.075293 33.052830 -0.636381 1.568518 -0.002215 0.016421 -255470.000000 0 0 1
26.054605 -20.945078 0.360893 33.431557 -0.677109 1.560001 -0.004521 0.009976 -3094.080000 0 0 1
24.937265 -20.747678 1.411593 32.470385 -0.693948 1.527309 -0.000891 0.009476 -1297900.000000 0 0 1
24.442275 -21.944578 2.013793 32.909644 -0.731605 1.509567 -0.001235 0.010368 98521.800000 0 0 1
23.443975 -21.732978 3.004093 32.108673 -0.747543 1.477099 0.002674 0.003615 1080880.000000 0 0 1
22.083575 -21.120778 2.469193 30.657274 -0.763117 1.490167 -0.002729 -0.001024 -530677.000000 0 0 1
22.014975 -19.724278 2.049093 29.629463 -0.730572 1.501584 -0.000049 0.005169 -61239.000000 0 0 1
22.207175 -18.815178 3.114293 29.272314 -0.702899 1.464204 0.001347 0.005104 -308543.000000 0 0 1
22.301375 -17.360478 2.738293 28.394291 -0.661461 1.474208 0.002203 0.010284 1558560.000000 0 0 1
21.024175 -16.880478 2.189293 27.051053 -0.676512 1.489776 0.000529 0.012671 1282270.000000 0 0 1
21.135575 -15.613578 1.574593 26.324432 -0.636252 1.510946 0.002842 0.004255 1097080.000000 0 0 1
19.765675 -15.094878 0.959193 24.888899 -0.652206 1.532248 -0.004702 0.005125 1002090.000000 0 1 0
18.715575 -14.982478 1.904593 24.049426 -0.675067 1.491518 0.003015 0.001319 964040.000000 0 1 0
17.718775 -13.945778 1.713093 22.613589 -0.666802 1.494969 -0.005584 0.003490 -70336.400000 0 1 0
18.237675 -12.557978 2.071193 22.239727 -0.603016 1.477531 0.000556 0.001944 -515245.000000 0 1 0
19.180375 -11.994678 1.179193 22.652805 -0.558860 1.518718 -0.003990 0.005269 411247.000000 0 1 0
19.636375 -10.736378 1.623493 22.438645 -0.500352 1.498381 -0.004658 0.004448 150500.000000 0 1 0
20.595375 -9.956378 0.627193 22.884325 -0.450302 1.543386 0.001957 0.005907 132825.000000 0 1 0
19.985375 -9.704878 -0.602207 22.225268 -0.452061 1.597895 0.007019 0.010871 598367.000000 0 1 0
20.864975 -8.973078 -1.454807 22.759169 -0.406144 1.634762 0.011222 0.005513 -355866.000000 0 1 0
20.221675 -8.605578 -2.790407 22.153070 -0.402347 1.697092 0.019830 0.004095 -534825.000000 0 1 0
21.024175 -7.918178 -3.714307 22.770805 -0.360192 1.734646 0.014861 0.003197 86543.000000 0 1 0
22.050775 -8.630478 -4.357107 24.077089 -0.373063 1.752764 0.008262 0.001908 -717212.000000 0 1 0
21.629175 -9.857678 -5.179307 24.327356 -0.427632 1.785339 -0.003596 0.002990 -71368.600000 0 1 0
20.905975 -9.676478 -6.421707 23.915107 -0.433494 1.842654 -0.011420 0.002975 1219540.000000 0 1 0
19.524775 -9.326478 -6.319107 22.541765 -0.445628 1.854933 -0.013768 -0.000727 -132793.000000 0 1 0
18.862775 -9.285978 -7.704507 22.391809 -0.457462 1.922052 -0.012481 0.003442 -701191.000000 0 1 0
18.970075 -10.458678 -8.460907 23.255852 -0.503860 1.943160 -0.002047 0.000652 212042.000000 0 1 0
20.152675 -10.613378 -9.186807 24.559551 -0.484739 1.954182 -0.001241 -0.003195 -640190.000000 0 1 0
20.198075 -11.983178 -9.944707 25.504039 -0.535466 1.971348 0.006247 -0.002003 -236496.000000 0 0 1
19.105975 -12.140678 -10.842007 25.099471 -0.566071 2.017463 0.002753 -0.003605 512182.000000 0 0 1
19.053075 -13.391878 -11.464607 25.957644 -0.612651 2.028251 -0.006309 0.001716 -392663.000000 0 0 1
17.627675 -13.786078 -11.877707 25.335169 -0.663712 2.058754 0.004167 -0.002348 -144352.000000 0 0 1
17.623475 -15.034878 -12.454307 26.301030 -0.706301 2.064090 0.004995 -0.000300 204278.000000 0 0 1
16.390175 -15.337578 -13.077707 25.978945 -0.752234 2.098321 0.003997 -0.003076 -249028.000000 0 0 1
16.232975 -16.808678 -13.648607 27.061515 -0.802820 2.099431 0.004602 0.000336 -301246.000000 0 0 1
16.232975 -17.795778 -12.641507 27.203068 -0.831292 2.054102 0.000927 0.000052 178968.000000 0 0 1
16.002375 -19.120678 -13.212107 28.217656 -0.873948 2.058073 0.005566 -0.002512 -373622.000000 0 0 1
15.101775 -20.058178 -12.352107 27.981577 -0.925443 2.027996 0.004646 -0.000894 243455.000000 0 0 1
13.745775 -19.749778 -12.605707 27.164387 -0.962762 2.053361 0.000583 -0.003970 -224034.000000 0 0 1
12.847875 -20.443578 -11.752107 26.853674 -1.009716 2.023763 -0.001652 0.001774 97284.200000 0 0 1
11.437575 -20.519978 -12.372807 26.551346 -1.062299 2.055556 0.002503 -0.003444 -212038.000000 0 0 1
10.567775 -21.173278 -11.486907 26.304650 -1.107862 2.022709 0.000076 -0.008094 364253.000000 0 0 1
9.225375 -21.206078 -12.001707 26.054679 -1.160457 2.049507 0.005398 -0.009925 573402.000000 0 0 1
8.228375 -21.732578 -10.990007 25.705863 -1.208856 2.012554 0.003598 -0.006413 -535427.000000 0 0 1
8.334975 -23.114578 -10.816007 26.846630 -1.224715 1.985459 0.014633 -0.010639 -131967.000000 0 0 1
7.397375 -23.577078 -9.876807 26.611108 -1.266770 1.951047 0.012503 -0.012745 -42202.200000 0 0 1
7.395975 -25.119008 -9.692907 27.921631 -1.284451 1.925323 0.010131 -0.013182 -418055.000000 0 0 1
8.631975 -25.574458 -9.272007 28.540042 -1.245280 1.901678 0.002299 -0.009647 -1071930.000000 0 0 1
8.922475 -26.900768 -9.666307 29.944939 -1.250534 1.899486 0.002222 -0.005640 -687935.000000 0 0 1
10.362275 -27.169878 -9.303007 30.530722 -1.206437 1.880430 0.002486 -0.003687 -770329.000000 0 0 1
10.572775 -27.256578 -7.875307 30.277468 -1.200766 1.833927 0.002217 -0.006902 134995.000000 0 0 1
11.914975 -27.573998 -7.531007 30.967856 -1.162920 1.816447 -0.004216 -0.004158 -128754.000000 0 0 1
12.029775 -28.018898 -6.007407 31.078338 -1.165251 1.765320 -0.004010 -0.004753 -36253.800000 0 0 1
11.605675 -29.317548 -5.582107 32.021403 -1.193863 1.746016 -0.003357 0.000486 -437229.000000 0 0 1
10.215375 -29.408818 -5.699107 31.649839 -1.236478 1.751851 0.003644 -0.004062 -659426.000000 0 0 1
9.596075 -30.583848 -4.852607 32.419195 -1.266761 1.721044 0.010126 -0.001544 -151711.000000 0 0 1
9.846675 -31.928148 -5.212907 33.816240 -1.271650 1.725567 0.011716 -0.006994 -392843.000000 0 0 1
9.109375 -32.399888 -6.297507 34.240211 -1.296717 1.755771 0.013008 -0.001605 -83840.800000 0 0 1
9.389175 -33.924668 -6.612907 35.815782 -1.300790 1.756499 0.007581 -0.001233 -344073.000000 0 0 1
8.989875 -34.730749 -5.534907 36.299835 -1.317511 1.723871 0.004226 -0.001628 24683.700000 0 0 1
9.128875 33.375543 -5.774607 35.080041 1.303807 1.736161 0.007357 0.003160 10168.500000 0 0 1
8.706975 32.566293 -4.521507 34.012040 1.309545 1.704129 0.007603 0.006951 -276984.000000 0 0 1
7.344175 32.298023 -4.398107 33.413209 1.347210 1.702807 0.004602 0.007899 -1006350.000000 0 0 1
7.074475 31.374573 -3.424707 32.344097 1.349021 1.676879 0.003298 0.005170 910262.000000 0 0 1
5.615675 30.800363 -3.582507 31.512418 1.390452 1.684728 0.004616 0.001832 632520.000000 0 0 1
5.497275 29.966903 -4.758407 30.836305 1.389369 1.725727 0.006800 0.003885 16818.400000 0 0 1
5.195375 30.602743 -5.967207 31.608976 1.402631 1.760718 -0.007446 0.000344 -366483.000000 0 0 1
5.442675 29.708193 -7.232407 31.056515 1.389601 1.805833 -0.006520 -0.000420 161170.000000 0 0 1
4.470275 28.681053 -7.384607 29.951938 1.416179 1.819914 -0.011320 -0.003452 192819.000000 0 0 1
4.888475 27.462513 -6.808207 28.713037 1.394636 1.810188 -0.011401 0.000929 199501.000000 0 0 1
3.983975 26.236203 -7.260007 27.512144 1.420097 1.837843 -0.011574 0.004588 -551904.000000 0 0 1
2.671875 26.269223 -6.826607 27.272945 1.469434 1.823794 -0.011167 0.002136 -282418.000000 0 0 1
1.765375 26.912073 -7.813907 28.079055 1.505292 1.852802 -0.005795 0.001528 672506.000000 0 0 1
1.311175 26.192873 -9.095307 27.758069 1.520780 1.904626 -0.000584 0.004075 205695.000000 0 0 1
2.405875 25.976643 -10.020607 27.946140 1.478443 1.937530 -0.007399 -0.002173 723002.000000 0 0 1
2.007175 25.302283 -11.240407 27.759341 1.491634 1.987691 -0.007907 0.000390 -447164.000000 0 0 1
1.937075 23.803633 -11.245607 26.397516 1.489598 2.010874 -0.008246 0.005067 -113681.000000 0 0 1
0.872875 23.304533 -10.450207 25.555234 1.533359 1.992074 0.000059 0.005367 -3884.850000 0 0 1
1.019575 21.942933 -10.113107 24.182778 1.524365 2.002253 -0.010455 0.004385 -662011.000000 0 1 0
-0.057325 21.259233 -9.288807 23.200004 -1.568100 1.982727 0.007411 0.001062 47487.400000 0 1 0
-1.239625 20.977433 -10.050307 23.293734 -1.511772 2.016907 0.018516 -0.004265 91581.600000 0 1 0
-2.192625 20.330633 -9.246907 22.442093 -1.463363 1.995482 0.022551 -0.006935 359501.000000 0 1 0
-3.513225 20.106033 -10.061807 22.755994 -1.397808 2.028803 0.008175 -0.013614 876438.000000 0 1 0
-4.526825 19.329233 -9.388707 21.960401 -1.340747 2.012554 0.002032 -0.019646 821058.000000 0 1 0
-5.688025 19.304833 -10.222507 22.572768 -1.284262 2.040777 -0.000719 -0.007102 251062.000000 0 1 0
-6.760425 18.256633 -9.801207 21.796138 -1.216153 2.037199 0.004593 -0.003314 231463.000000 0 1 0
-7.675725 18.481533 -8.741007 21.837789 -1.177154 1.982608 0.012619 -0.003412 316009.000000 0 1 0
-8.849125 19.133233 -9.197307 22.999523 -1.137596 1.982194 0.006236 0.001602 -18208.600000 0 1 0
-9.866925 19.279633 -8.026507 23.097300 -1.097769 1.925709 0.006481 0.002406 191847.000000 0 1 0
-10.232425 18.069933 -7.388407 22.041179 -1.055549 1.912624 0.007893 0.001956 -510055.000000 0 1 0
-10.977025 18.325833 -6.245707 22.256237 -1.031118 1.855244 0.004214 0.002449 -311277.000000 0 1 0
-11.654825 17.083033 -5.611007 21.427747 -0.972086 1.835742 -0.001047 -0.001161 -190376.000000 0 1 0
-12.207025 17.290633 -4.364807 21.610853 -0.956061 1.774168 -0.008520 -0.007094 226123.000000 0 1 0
-12.962425 16.192233 -3.821007 21.090589 -0.895730 1.752974 0.001086 -0.006663 309994.000000 0 1 0
-14.342325 16.544833 -3.240207 22.134424 -0.856586 1.717712 0.006947 -0.005429 213593.000000 0 1 0
-15.423725 16.698033 -4.161307 23.109134 -0.825049 1.751856 0.012537 -0.010310 70636.600000 0 1 0
-16.501525 17.215733 -3.426907 24.092021 -0.806577 1.713523 0.013058 -0.004698 -340914.000000 0 1 0
-17.773925 17.384333 -4.288507 25.229323 -0.774318 1.741607 0.018387 -0.008363 -147190.000000 0 0 1
-17.590325 18.233933 -5.426607 25.910305 -0.803362 1.781797 0.015683 -0.007627 -154632.000000 0 0 1
-18.814525 18.721033 -5.913007 27.192408 -0.782907 1.789998 0.012734 -0.002914 -376307.000000 0 0 1
-18.611225 19.580333 -7.182007 27.952609 -0.810768 1.830646 0.011021 0.002653 -293353.000000 0 0 1
-18.045525 20.812533 -6.809107 28.375455 -0.856486 1.813126 0.003372 0.003662 63390.500000 0 0 1
-18.083125 21.766533 -7.895107 29.378803 -0.877569 1.842876 -0.005263 0.004746 -17039.900000 0 0 1
-18.099625 23.284233 -7.497307 30.429616 -0.910030 1.819742 -0.010261 0.006150 -232727.000000 0 0 1
-16.913525 23.891133 -7.070007 30.113760 -0.954760 1.807785 -0.001532 0.006542 -195434.000000 0 0 1
-17.222225 24.879033 -6.054207 30.858139 -0.965298 1.768272 -0.011446 0.006869 -363890.000000 0 0 1
-15.993525 25.386203 -5.303807 30.469370 -1.008603 1.745758 0.000917 0.006832 -754508.000000 0 0 1
-16.243925 26.226093 -4.225507 31.137244 -1.016248 1.706922 -0.003329 0.008665 357551.000000 0 0 1
-15.067425 26.806313 -3.652407 30.966850 -1.058722 1.689017 -0.006127 0.008845 766365.000000 0 0 1
-14.298325 27.868173 -4.506107 31.644623 -1.096747 1.713679 0.000063 0.006436 -172527.000000 0 0 1
-14.889425 29.090223 -4.517507 32.990058 -1.097725 1.708163 -0.006867 0.005402 -390930.000000 0 0 1
-14.069025 29.967673 -5.246707 33.519051 -1.131867 1.727972 0.004964 0.000917 -75466.500000 0 0 1
-14.566325 31.388133 -4.877607 34.945440 -1.136303 1.710831 0.004442 -0.007615 92001.700000 0 0 1
-15.812425 31.723393 -5.426707 35.858828 -1.108392 1.722715 -0.001365 -0.000840 -496428.000000 0 0 1
-16.389925 32.745303 -4.674307 36.915222 -1.106727 1.697760 -0.003098 -0.005790 -316165.000000 0 0 1
12.753646 -8.587778 18.663533 24.181251 -0.592621 0.689100 0.008469 0.003305 -192562.000000 0 1 0
13.095446 -9.801678 19.320933 25.315253 -0.642528 0.702525 0.006696 0.002805 67662.000000 0 0 1
13.429846 -10.801778 18.354933 25.178220 -0.677364 0.753936 0.004573 0.005259 25748.700000 0 0 1
13.566846 -12.220178 18.889133 26.271494 -0.733223 0.768438 0.000724 0.003581 169093.000000 0 0 1
14.667846 -12.341678 19.802533 27.560897 -0.699486 0.769152 -0.003919 0.003889 667761.000000 0 0 1
14.712946 -13.579878 20.523833 28.672489 -0.745372 0.773024 -0.003304 0.002372 -335092.000000 0 0 1
15.355246 -14.731878 19.771933 29.047223 -0.764682 0.822103 0.002209 0.008247 -585303.000000 0 0 1
14.610046 -15.073678 18.625333 28.063718 -0.801016 0.845068 0.001178 0.004196 142207.000000 0 0 1
14.751246 -16.411578 18.166933 28.582803 -0.838627 0.882024 0.002871 0.000779 -338600.000000 0 0 1
14.212446 -16.613478 16.711933 27.518902 -0.863131 0.918152 0.003432 0.001310 -586440.000000 0 0 1
12.876846 -16.194078 16.683033 26.577903 -0.899015 0.892197 0.013998 0.001118 -230402.000000 0 0 1
12.179046 -16.328178 15.427133 25.552593 -0.929930 0.922611 0.008291 -0.004134 298635.000000 0 0 1
11.635546 -17.737378 15.058633 26.014668 -0.990222 0.953477 0.003197 -0.000196 -555259.000000 0 0 1
12.609846 -18.722178 14.852933 27.021062 -0.978061 0.988815 0.002218 -0.003812 -194394.000000 0 0 1
12.103946 -19.725678 13.993633 27.044956 -1.020427 1.026962 0.002437 -0.005942 -168475.000000 0 0 1
13.138846 -20.703578 13.399933 27.943257 -1.005311 1.070665 0.003319 -0.005629 -566786.000000 0 0 1
13.826946 -21.439978 14.367133 29.279201 -0.998005 1.057910 0.009993 -0.009590 -239627.000000 0 0 1
14.531246 -22.483678 13.735133 30.088649 -0.997025 1.096751 0.010366 -0.001854 -660016.000000 0 0 1
15.263546 -23.356678 14.689033 31.532173 -0.991966 1.086210 0.011180 -0.003540 -106624.000000 0 0 1
16.560746 -22.875778 15.025533 31.989470 -0.944182 1.081843 -0.001652 0.001628 317632.000000 0 0 1
17.114146 -23.560078 16.164833 33.305752 -0.942568 1.064037 0.002340 0.003485 -905693.000000 0 0 1
18.506546 -23.094078 16.509033 33.887710 -0.895230 1.061951 -0.007310 0.006441 -880615.000000 0 0 1
19.449346 -23.776278 15.722133 34.507592 -0.885167 1.097735 -0.006526 -0.000755 -387873.000000 0 0 1
20.729946 -23.171278 15.696633 34.828481 -0.840951 1.103265 -0.007863 0.007513 242029.000000 0 0 1
21.765846 -24.095678 15.048933 35.788604 -0.836156 1.136805 -0.010647 0.004771 -244394.000000 0 0 1
21.968146 -25.334058 15.701333 37.026285 -0.856436 1.132874 -0.012059 0.005416 -582477.000000 0 0 1
23.165146 -25.890628 15.296733 37.959698 -0.840900 1.156033 -0.014709 0.005741 -678180.000000 0 0 1
23.530046 -27.105438 16.189233 39.375870 -0.855892 1.147085 -0.015865 0.001135 -117128.000000 0 0 1
24.065646 -26.732548 17.458733 39.982394 -0.837850 1.118913 -0.015662 0.006974 176387.000000 0 0 1
24.463346 -27.863948 18.240633 41.322822 -0.850294 1.113618 -0.008049 0.008952 132664.000000 0 0 1
24.880446 -27.392608 19.658333 41.902764 -0.833420 1.082478 -0.005727 0.007645 -377005.000000 0 0 1
23.746746 -27.065028 20.430733 41.398533 -0.850611 1.054672 -0.005612 0.011939 -51928.500000 0 0 1
24.111346 -26.502058 21.632233 41.852952 -0.832598 1.027614 -0.002358 0.006866 -950097.000000 0 0 1
22.943446 -26.237838 22.537333 41.506111 -0.852283 0.996805 -0.007756 0.001874 -694355.000000 0 0 1
22.373146 -27.508248 22.800133 42.155752 -0.887983 0.999343 -0.007208 -0.002363 -762948.000000 0 0 1
21.336146 -27.489058 23.713633 42.109569 -0.910757 0.972614 -0.004646 -0.002662 -705482.000000 0 0 1
20.655446 -28.878208 23.726933 42.703228 -0.949902 0.981683 -0.003260 -0.002226 -673031.000000 0 0 1
21.436346 -29.874228 24.277533 44.061151 -0.948387 0.987239 -0.000298 -0.002350 -83926.100000 0 0 1
21.011946 -31.125978 23.855233 44.490454 -0.977004 1.004882 0.000888 -0.000668 -419760.000000 0 0 1
21.833646 -32.292418 24.469033 46.024363 -0.976276 1.010244 0.006074 0.001433 98355.200000 0 0 1
21.606146 -32.482488 25.827633 46.786795 -0.983836 0.986002 0.001207 0.004131 1527740.000000 0 0 1
22.872346 -32.841818 26.465953 47.980995 -0.962464 0.986524 0.001869 0.003526 941324.000000 0 0 1
22.499246 -33.079068 27.964553 48.810420 -0.973506 0.960730 -0.001138 0.001491 477241.000000 0 0 1
21.897346 -34.364234 28.221553 49.566626 -1.003463 0.965062 0.000157 0.002479 1242100.000000 0 0 1
20.546146 -34.504791 27.714863 48.793835 -1.033723 0.966723 -0.001075 0.002890 242674.000000 0 0 1
19.994446 33.641489 28.234963 48.257028 1.034550 0.945799 -0.005892 -0.003923 -329145.000000 0 0 1
19.595046 33.747894 29.603723 48.982309 1.044741 0.921814 -0.019042 0.004295 75764.800000 0 0 1
19.304846 32.420973 29.982453 48.194855 1.033734 0.899363 -0.015709 0.003085 -219268.000000 0 0 1
19.129246 32.262873 31.556093 49.016406 1.035600 0.871360 -0.015593 0.001992 -464800.000000 0 0 1
20.310446 32.467863 32.262023 50.075088 1.011798 0.870724 -0.017124 0.001301 -512839.000000 0 0 1
20.046946 32.630933 33.607575 50.952202 1.019889 0.850523 -0.018824 0.000159 -368383.000000 0 0 1
21.301446 32.714013 34.480054 52.084857 0.993619 0.847315 -0.017791 0.005155 -253642.000000 0 0 1
21.772546 31.407653 -34.641567 51.580254 0.964632 2.307170 -0.018900 0.005795 660631.000000 0 0 1
22.918246 31.557993 -33.757107 51.581927 0.942685 2.284234 -0.014693 0.004733 842252.000000 0 0 1
23.453646 30.157743 -33.246597 50.644834 0.909802 2.286920 -0.012842 -0.001548 -162520.000000 0 0 1
24.013146 29.239633 -34.242279 51.030589 0.883230 2.306373 -0.009141 -0.001898 46153.700000 0 0 1
23.096146 28.423653 34.513636 50.324220 0.888439 0.815059 -0.014436 -0.002144 -596845.000000 0 0 1
23.448646 28.128163 33.047413 49.327113 0.875880 0.836635 -0.008350 -0.004691 -583822.000000 0 0 1
24.606946 27.366323 33.022923 49.446242 0.838441 0.839473 -0.005476 -0.003757 -215005.000000 0 0 1
24.481346 26.380923 32.032513 48.180611 0.822728 0.843514 -0.001138 -0.002838 -422612.000000 0 0 1
25.436246 25.183483 32.154973 48.116034 0.780405 0.838902 0.004323 0.001519 -181136.000000 0 0 1
25.409046 24.527763 33.401442 48.609537 0.767752 0.813254 0.007959 0.000251 512102.000000 0 0 1
26.289446 25.113723 34.375781 50.035271 0.762530 0.813401 0.006297 -0.004421 -795680.000000 0 0 1
26.313346 24.254433 -33.788647 49.217297 0.744705 2.327488 0.007756 -0.005604 -462626.000000 0 0 1
25.238046 24.320933 -32.861557 48.045277 0.766895 2.323988 0.000300 -0.001470 950466.000000 0 0 1
23.971646 23.823233 -33.319527 47.459215 0.782293 2.349092 -0.001459 -0.003226 187658.000000 0 0 1
23.786746 22.292033 -33.413117 46.681692 0.752971 2.368515 0.001465 0.000449 -629109.000000 0 0 1
23.843346 21.646333 -32.187887 45.531626 0.737139 2.355951 -0.000418 -0.006664 413460.000000 0 0 1
23.645746 20.255833 -32.399017 44.934579 0.708335 2.376079 0.002255 -0.003866 -230548.000000 0 0 1
23.441746 19.571633 -31.023297 43.531704 0.695665 2.364079 0.001571 -0.004406 42251.900000 0 0 1
22.256846 19.929933 -30.327407 42.571364 0.730297 2.363694 0.007002 -0.005045 268179.000000 0 0 1
22.200046 19.231733 -29.097517 41.344493 0.713877 2.351504 0.005614 -0.005549 420629.000000 0 0 1
20.824846 19.469633 -28.387327 40.231594 0.751778 2.354063 0.010282 -0.010484 375428.000000 0 0 1
20.536046 18.947233 -27.101677 38.925926 0.745180 2.340938 0.005411 -0.008931 89829.400000 0 0 1
21.334746 19.556833 -26.090607 38.966150 0.741947 2.304427 0.004648 -0.003906 140726.000000 0 0 1
21.457646 18.680433 -24.805207 37.745032 0.716317 2.287865 0.003041 -0.000755 216534.000000 0 0 1
22.331846 17.560533 -24.943407 37.805518 0.666359 2.291325 0.007686 -0.003387 380379.000000 0 0 1
22.317346 16.803033 -23.760607 36.673864 0.645363 2.275607 0.013862 -0.003073 -214588.000000 0 0 1
23.307146 15.613333 -23.805407 36.792616 0.590234 2.274461 0.013382 -0.004447 -532067.000000 0 0 1
24.667346 15.946333 -23.742707 37.768765 0.573879 2.250591 0.005853 -0.004029 -296144.000000 0 0 1
25.593146 14.905433 -23.827507 38.012250 0.527377 2.248284 0.002768 -0.006781 -146544.000000 0 0 1
25.675146 13.895833 -22.618407 36.931012 0.496075 2.229953 0.008544 -0.007145 -1362330.000000 0 0 1
24.539246 13.115233 -22.584907 35.836601 0.490834 2.252632 0.015463 -0.009374 -588934.000000 0 0 1
24.360746 12.572133 -21.280607 34.704016 0.476430 2.230905 0.010373 -0.003516 373089.000000 0 0 1
22.965446 11.927333 -20.951507 33.296225 0.479015 2.251379 0.009397 -0.003839 938856.000000 0 0 1
21.995046 12.909233 -20.585607 32.774953 0.530743 2.249892 0.015580 -0.005621 -704509.000000 0 0 1
20.856346 12.786233 -21.358107 32.475278 0.549969 2.288522 0.016557 -0.005407 -888903.000000 0 0 1
19.844346 13.887833 -21.070507 32.103524 0.610617 2.286740 0.010576 -0.006231 -806596.000000 0 0 1
20.231546 15.199333 -21.567907 33.249207 0.644313 2.276638 0.011860 -0.010998 357987.000000 0 0 1
19.266446 16.249133 -21.539607 33.153958 0.700644 2.277965 0.007511 -0.011076 329103.000000 0 0 1
18.009646 16.147233 -22.469107 33.014258 0.730927 2.319361 0.004520 -0.008439 277983.000000 0 0 1
17.047246 15.237533 -22.007907 31.735453 0.729402 2.337105 0.002109 -0.009862 61282.200000 0 0 1
15.942046 15.174133 -22.899507 31.761463 0.760724 2.376018 0.000125 -0.014591 356121.000000 0 0 1
14.827946 14.165933 -22.496507 30.440671 0.762569 2.402423 -0.009214 -0.008921 211943.000000 0 0 1
13.659346 14.478133 -23.217207 30.581576 0.814489 2.432863 -0.007259 -0.009591 40556.300000 0 0 1
12.525646 13.738633 -22.758507 29.386927 0.831549 2.456631 -0.004171 -0.002569 146617.000000 0 0 1
11.256846 13.997733 -23.568207 29.632980 0.893505 2.490360 -0.007088 -0.002236 -467837.000000 0 0 1
10.818646 15.376133 -23.506207 30.100006 0.957658 2.466961 -0.004904 -0.000814 76363.800000 0 0 1
10.473446 15.749033 -24.790607 31.181714 0.983934 2.489864 0.000529 -0.008387 -905206.000000 0 0 1
10.404846 17.275733 -24.884407 32.030384 1.028701 2.460524 0.002669 -0.002958 741261.000000 0 0 1
11.675646 17.966333 -24.857307 32.817610 0.994518 2.430177 -0.000347 -0.001606 1024410.000000 0 0 1
12.697746 17.639933 -25.790167 33.727329 0.946885 2.441320 -0.003313 -0.010344 -34422.900000 0 0 1
12.345246 17.906633 -27.255447 34.869930 0.967204 2.468074 0.002241 -0.017147 -850069.000000 0 0 1
13.385046 17.469933 -28.034707 35.641308 0.917023 2.476046 -0.003891 -0.015389 -449172.000000 0 0 1
12.816646 17.209233 -29.268787 36.291680 0.930661 2.508983 -0.001935 -0.019492 -234947.000000 0 0 1
13.809946 17.414933 -30.435057 37.686698 0.900342 2.510835 -0.000915 -0.017112 -478670.000000 0 0 1
14.929146 16.593933 -30.529597 37.819232 0.838161 2.510275 -0.011998 -0.014543 -560219.000000 0 0 1
15.688346 16.945933 -31.652487 39.181230 0.823915 2.511288 -0.012265 -0.010849 119134.000000 0 0 1
16.904446 15.967933 -31.832217 39.421127 0.756917 2.510683 -0.005371 -0.006953 -1186.450000 0 0 1
17.842546 16.205733 -30.779337 39.094115 0.737362 2.477236 0.001157 -0.011044 -630425.000000 0 0 1
19.028146 15.510033 -30.870547 39.441376 0.683887 2.469780 0.003078 -0.006182 -890550.000000 0 0 1
20.111446 16.368533 -31.519237 40.814966 0.683154 2.453167 0.007807 -0.007079 -1087230.000000 0 0 1
19.945846 16.699533 -32.883217 41.928715 0.697042 2.472307 0.002386 -0.004211 527711.000000 0 0 1
21.069146 17.424133 -33.421837 43.180187 0.690987 2.455944 0.007940 -0.006340 348199.000000 0 0 1
21.060546 17.669733 34.444180 44.070031 0.698071 0.673604 0.002648 -0.001728 -452981.000000 0 0 1
22.004346 18.607533 34.021078 44.585483 0.701952 0.702773 0.001743 -0.000829 49483.100000 0 0 1
21.741646 18.846033 32.648763 43.517972 0.714177 0.722377 0.011984 0.004776 -187731.000000 0 0 1
22.620446 20.022933 32.199333 44.152004 0.724561 0.753522 0.012629 0.005139 -130535.000000 0 0 1
24.005046 19.768833 32.299983 44.836792 0.688924 0.766432 0.008467 -0.001121 -318763.000000 0 0 1
24.691846 21.001733 32.384673 45.820597 0.704815 0.785873 0.010800 -0.000701 36357.800000 0 0 1
26.216946 20.820933 32.255983 46.489654 0.671181 0.804000 0.004171 -0.003426 -45357.400000 0 0 1
26.841346 20.192833 33.338053 47.324773 0.644974 0.789145 0.004235 -0.007943 275423.000000 0 0 1
28.218146 19.906833 33.071313 47.814825 0.614382 0.807020 0.004876 -0.010158 664624.000000 0 0 1
28.979346 19.351133 34.292798 48.890335 0.588756 0.793404 0.009363 -0.011322 -111455.000000 0 0 1
29.088746 20.266833 -34.045737 49.152944 0.608524 2.335952 0.005952 -0.007775 42375.500000 0 0 1
28.024646 20.149833 -33.133307 47.845716 0.623367 2.335749 -0.000764 -0.004222 -136341.000000 0 0 1
28.491946 20.712533 -31.766967 47.433535 0.628592 2.304622 -0.000429 -0.002876 836126.000000 0 0 1
29.606046 19.917533 -31.268887 47.444382 0.592204 2.290370 0.000495 -0.007119 931143.000000 0 0 1
30.106746 20.419633 -29.991087 47.147034 0.595973 2.260253 0.001688 0.003400 -736867.000000 0 0 1
31.443846 19.779433 -29.673027 47.543979 0.561499 2.244798 0.000390 0.011298 -604144.000000 0 0 1
32.447546 20.413033 -30.444957 48.953351 0.561548 2.241986 0.004309 0.005068 499019.000000 0 0 1
33.713246 20.446233 -29.753067 49.395105 0.545167 2.217236 -0.002189 0.011954 761760.000000 0 0 1
-34.734883 21.300733 -30.478117 50.883681 -0.550096 2.213018 0.000873 0.003274 417579.000000 0 0 1
-34.059583 20.542233 -31.533837 50.758462 -0.542715 2.241137 0.007305 -0.000486 173524.000000 0 0 1
-33.112683 21.358133 -32.173347 50.869872 -0.572862 2.255526 0.010622 -0.001828 -121205.000000 0 0 1
-32.375383 20.662833 -33.338047 50.858072 -0.568054 2.285656 0.007412 0.000638 228543.000000 0 0 1
-31.461683 19.653633 -32.904657 49.586483 -0.558373 2.296392 0.005433 0.004549 303880.000000 0 0 1
-30.832483 19.024633 -34.003247 49.687015 -0.552849 2.324507 0.003871 0.004018 215017.000000 0 0 1
-30.038583 17.759933 -33.577427 48.427010 -0.533951 2.336940 -0.002331 0.006882 737890.000000 0 0 1
-31.013283 16.702533 -33.346767 48.505724 -0.494018 2.328811 0.001811 0.007688 808988.000000 0 0 1
-30.490583 15.414533 -33.379577 47.764837 -0.468078 2.344559 -0.004910 0.011053 -478211.000000 0 0 1
-31.561683 14.392433 -33.762657 48.406601 -0.427840 2.342672 0.000712 0.004072 3071.430000 0 0 1
-31.013783 13.098933 -33.936407 47.802892 -0.399631 2.360186 0.000734 0.002168 -94669.800000 0 0 1
-32.124683 12.288433 -34.135972 48.458905 -0.365350 2.352418 -0.000814 0.003299 -416979.000000 0 0 1
-31.866483 10.745333 -34.232375 47.987399 -0.325225 2.365080 -0.002189 -0.000158 -406626.000000 0 0 1
-31.313683 10.389033 33.950196 47.340201 -0.320346 0.771087 0.000988 0.002019 -3985.760000 0 0 1
-31.308983 8.984833 33.904380 47.015813 -0.279463 0.765368 0.004841 -0.001321 -272764.000000 0 0 1
-30.396083 8.444133 32.821113 45.524177 -0.270971 0.765610 0.008517 -0.002028 -34002.900000 0 0 1
-29.014983 8.513333 33.109383 44.839462 -0.285401 0.740104 0.001992 0.000504 -157990.000000 0 0 1
-28.252583 8.114233 31.961993 43.423706 -0.279676 0.743581 0.007560 -0.004568 102262.000000 0 0 1
19.899946 -4.762678 -31.422027 37.497130 -0.234913 2.564376 0.001121 -0.000645 317376.000000 0 0 1
20.620746 -4.448078 -32.623627 38.849731 -0.212454 2.567598 0.003203 -0.007541 -9466.800000 0 0 1
21.786646 -3.679978 -32.510277 39.307993 -0.167330 2.544663 -0.005607 -0.002517 -134442.000000 0 0 1
21.557446 -2.175578 -32.598117 39.141971 -0.100579 2.554975 -0.000732 0.001983 -365582.000000 0 0 1
22.730246 -1.446978 -32.344087 39.558789 -0.063573 2.528063 -0.004262 0.001866 -99010.200000 0 0 1
22.481446 -0.068978 -32.263117 39.323389 -0.003068 2.533005 -0.001734 0.000123 -610419.000000 0 0 1
23.631746 0.799622 -31.749017 39.586600 0.033824 2.501456 -0.006999 0.003073 -450203.000000 0 0 1
24.742946 0.741022 -32.619437 40.948628 0.029940 2.492436 -0.010421 0.002064 -953163.000000 0 0 1
25.737346 1.456222 -31.961477 41.061753 0.056520 2.462871 -0.009924 -0.000533 444786.000000 0 0 1
27.188546 1.356522 -32.577217 42.453884 0.049852 2.445503 -0.010019 -0.000329 817669.000000 0 0 1
27.272746 1.991722 -33.812587 43.486328 0.072900 2.461549 -0.007212 -0.000017 -78024.400000 0 0 1
27.752746 1.138122 34.578640 44.353045 0.040986 0.676733 -0.009591 0.001148 -213086.000000 0 0 1
28.307646 1.948422 33.342503 43.781751 0.068722 0.705077 -0.003720 -0.001874 142999.000000 0 0 1
27.402746 2.862522 32.736853 42.787920 0.104084 0.699606 -0.005819 0.001890 202985.000000 0 0 1
27.635246 4.184722 33.159183 43.367616 0.150285 0.700365 -0.001597 0.002589 -478551.000000 0 0 1
26.808646 5.174422 32.391843 42.364014 0.190669 0.700364 0.004673 0.009631 -556691.000000 0 0 1
27.010446 6.530222 32.577573 42.819461 0.237215 0.706232 0.005483 0.009077 -398210.000000 0 0 1
26.326746 7.286622 31.637583 41.798673 0.270017 0.712234 -0.000966 0.009637 -771936.000000 0 0 1
26.642846 8.779222 31.662613 42.301738 0.318310 0.725008 -0.000749 0.001298 574972.000000 0 0 1
27.966546 9.164822 31.283653 42.951002 0.316678 0.754876 -0.005266 -0.001678 294547.000000 0 0 1
28.143446 10.502822 31.611523 43.607926 0.357182 0.759903 -0.008510 -0.005435 -127223.000000 0 0 1
29.533846 10.969722 31.170583 44.319162 0.355636 0.790738 -0.002548 0.000096 -558190.000000 0 0 1
30.578246 10.560322 32.013323 45.512662 0.332530 0.790635 -0.000321 -0.005632 1222690.000000 0 0 1
31.922746 10.811922 31.517463 46.144445 0.326564 0.818910 0.001654 -0.003647 1456920.000000 0 0 1
32.419746 12.314322 31.622253 46.932391 0.363007 0.831480 0.001953 -0.002440 -591906.000000 0 0 1
32.658946 12.738622 32.935953 48.100481 0.371899 0.816560 0.006933 -0.003001 348013.000000 0 0 1
33.183046 14.113722 33.058563 48.920142 0.402150 0.828793 0.008341 -0.001591 -106576.000000 0 0 1
32.154846 15.225022 33.142193 48.622427 0.442216 0.820817 0.001825 -0.007913 -1154490.000000 0 0 1
31.667746 15.589922 31.844823 47.539295 0.457466 0.836772 0.004403 -0.011850 -482141.000000 0 0 1
30.587946 16.438922 31.866923 47.131321 0.493142 0.828298 0.004370 -0.016993 -832198.000000 0 0 1
29.231046 15.822122 32.219703 46.291499 0.496122 0.800960 0.001072 -0.014889 -1228320.000000 0 0 1
28.609446 15.247922 31.116543 44.935941 0.489673 0.805897 -0.000004 -0.012569 -981807.000000 0 0 1
27.396346 14.705822 31.480823 44.247748 0.492637 0.779212 -0.003612 -0.013930 -989506.000000 0 0 1
26.448546 14.350522 30.345953 42.735699 0.497131 0.781178 -0.003935 -0.009809 -410787.000000 0 0 1
26.745046 13.145722 29.682833 42.061598 0.456841 0.787387 -0.005410 -0.005027 -108851.000000 0 0 1
26.280446 13.078822 28.354063 40.812624 0.461777 0.802741 -0.002812 -0.004158 -377055.000000 0 0 1
25.970746 11.654822 27.886763 39.849543 0.421828 0.795677 -0.002913 -0.001344 -332106.000000 0 0 1
27.109446 10.849822 27.730333 40.269245 0.380699 0.811208 -0.001708 -0.000842 -672280.000000 0 0 1
26.654146 9.487122 27.760143 39.636782 0.341952 0.794890 0.002963 0.004169 -686380.000000 0 0 1
27.632146 8.376222 27.557173 39.913586 0.294329 0.808726 0.001380 0.001609 -763397.000000 0 0 1
28.079146 8.187022 26.221803 39.281659 0.283705 0.839906 0.006988 0.001132 -24503.200000 0 0 1
28.970946 7.091622 26.165093 39.676428 0.240063 0.850694 0.005122 0.003105 112295.000000 0 0 1
29.502046 6.983522 24.667553 39.084888 0.232435 0.887790 0.007210 0.003742 404283.000000 0 0 1
30.403246 8.043922 24.227333 39.699190 0.258648 0.914392 0.002850 0.000768 410287.000000 0 0 1
29.866146 9.289822 23.801933 39.304192 0.301562 0.920299 0.004336 0.003052 -370373.000000 0 0 1
29.315746 9.420222 22.377633 38.064577 0.310915 0.942353 0.003547 0.003149 -369391.000000 0 0 1
30.293646 9.561422 21.390333 38.297156 0.305729 0.978177 0.000045 -0.000517 -98082.400000 0 0 1
29.785546 9.628322 20.060933 37.179623 0.312653 1.000872 -0.001481 -0.003322 -700160.000000 0 0 1
30.647646 10.496622 19.154133 37.634267 0.329972 1.036826 -0.002288 -0.005401 394670.000000 0 0 1
31.915746 10.115122 18.633733 38.316400 0.306917 1.062932 -0.001901 -0.004070 806651.000000 0 0 1
32.959146 10.215322 19.611433 39.689626 0.300550 1.053974 0.002350 -0.006546 -201210.000000 0 0 1
34.338246 9.820422 19.046033 40.476008 0.278555 1.080881 -0.004817 -0.004525 -265176.000000 0 0 1
34.465546 8.447722 18.851633 40.182358 0.240368 1.082466 -0.004666 -0.004045 448405.000000 0 0 1
-34.012183 8.124722 17.948333 39.306264 -0.234483 1.096595 -0.004479 -0.004571 -23415.900000 0 0 1
-34.068883 6.601722 17.646433 38.931583 -0.191404 1.100368 -0.005849 -0.002343 -584833.000000 0 0 1
34.225146 6.251722 17.093833 38.763949 0.180673 1.114114 -0.014630 0.000794 -43727.300000 0 0 1
34.391846 4.994922 16.500933 38.471146 0.144227 1.127503 -0.013276 0.004703 946733.000000 0 0 1
33.085146 4.079322 16.497033 37.194352 0.122679 1.111256 -0.012757 0.004840 953190.000000 0 0 1
33.001646 3.468622 17.768833 37.641352 0.104720 1.079175 -0.009560 0.000541 -466427.000000 0 0 1
31.875446 2.657422 17.686833 36.550376 0.083177 1.065687 -0.010264 0.001117 -432099.000000 0 0 1
31.734346 1.704122 18.948433 37.000214 0.053648 1.033149 -0.007205 -0.001556 166518.000000 0 0 1
32.382046 0.415522 18.842533 37.467461 0.012831 1.043841 -0.008439 0.000440 161493.000000 0 0 1
32.167346 -0.419078 20.016133 37.888776 -0.013027 1.014215 -0.006454 0.002649 36879.700000 0 0 1
32.648846 -1.898178 20.058033 38.365022 -0.058074 1.020640 -0.003613 0.007600 16895.600000 0 0 1
32.556646 -2.454278 21.350633 39.010360 -0.075243 0.991653 0.018263 0.000179 -108013.000000 0 0 1
32.805146 -3.847778 21.379633 39.345542 -0.116758 0.996337 0.000339 0.002591 -302609.000000 0 0 1
32.152446 -4.527078 22.571933 39.544486 -0.139881 0.963318 -0.003694 0.000470 -254905.000000 0 0 1
32.785846 -4.121178 23.754233 40.695938 -0.125044 0.947518 -0.010445 0.003843 248027.000000 0 0 1
32.107046 -4.595278 24.913393 40.898119 -0.142158 0.915799 -0.004814 -0.006078 219794.000000 0 0 1
32.641646 -3.956278 26.229023 42.060562 -0.120615 0.897455 -0.003397 -0.006570 -102943.000000 0 0 1
31.768446 -4.212778 27.283503 42.087661 -0.131840 0.865507 0.000444 -0.006708 -112840.000000 0 0 1
32.146246 -3.566078 28.530943 43.129025 -0.110481 0.847945 -0.001400 -0.007325 -252127.000000 0 0 1
31.073946 -3.901778 29.589673 43.085528 -0.124911 0.813766 -0.001247 -0.007027 56264.400000 0 0 1
31.068246 -5.242378 29.946573 43.468560 -0.167163 0.810792 -0.001520 -0.005833 -122163.000000 0 0 1
30.071146 -5.597178 30.873963 43.460371 -0.184025 0.780739 -0.001165 -0.006238 -492340.000000 0 0 1
30.088046 -7.114678 31.116413 43.865024 -0.232197 0.782196 -0.001700 -0.006671 -12459.600000 0 0 1
31.113146 -7.584378 31.963503 45.246173 -0.239104 0.786347 -0.003490 -0.001531 -273331.000000 0 0 1
31.494546 -8.892478 31.631583 45.514170 -0.275186 0.802400 -0.005300 -0.002559 467533.000000 0 0 1
32.852746 -9.285578 32.301563 46.999105 -0.275457 0.813058 -0.006572 -0.003023 309091.000000 0 0 1
32.722046 -9.541378 33.663999 47.906524 -0.283722 0.791609 -0.001171 -0.004432 100084.000000 0 0 1
33.935246 -9.862078 34.323675 49.264350 -0.282824 0.799975 -0.000801 -0.005841 -27044.900000 0 0 1
33.781946 -10.268178 -33.620757 48.754596 -0.295081 2.331721 0.001623 -0.001956 -297135.000000 0 0 1
33.482446 -9.231678 -32.663167 47.677883 -0.269033 2.325510 -0.001140 0.001468 204814.000000 0 0 1
34.484846 -8.262178 -32.422347 48.048692 -0.235156 2.311464 0.003962 0.004322 -172561.000000 0 0 1
34.058446 -7.036878 -31.561767 46.964247 -0.203745 2.307754 0.001690 0.006599 -174549.000000 0 0 1
33.960346 -7.364578 -30.168297 46.018130 -0.213552 2.285739 -0.000963 0.004638 281672.000000 0 0 1
33.330946 -6.347478 -29.394037 44.891557 -0.188185 2.284686 0.005911 -0.001620 -17036.500000 0 0 1
33.883846 -6.368678 -27.953707 44.385638 -0.185789 2.252081 0.004167 -0.002667 345099.000000 0 0 1
-34.274183 -5.985678 -27.955047 44.632193 0.172897 2.247649 0.004129 -0.001615 -181104.000000 0 0 1
-34.016283 -5.346478 -26.730977 43.591714 0.155899 2.230917 0.004100 -0.004496 562104.000000 0 0 1
-32.531683 -5.168678 -26.285027 42.141764 0.157564 2.244300 0.006058 -0.006005 -202647.000000 0 0 1
-32.516083 -4.403578 -25.084077 41.302519 0.134609 2.223486 0.006193 -0.007465 555769.000000 0 0 1
-31.179583 -4.178778 -24.635807 39.956872 0.133229 2.235162 0.010530 -0.005937 730781.000000 0 0 1
-30.215583 -3.274378 -25.440897 39.635114 0.107946 2.267741 0.010938 -0.005967 -477963.000000 0 0 1
-29.755683 -3.762178 -26.644337 40.118267 0.125768 2.297146 0.009863 -0.005173 457294.000000 0 0 1
-28.772383 -2.898978 -27.281367 39.755844 0.100417 2.327080 0.014035 -0.005936 518346.000000 0 0 1
-28.303483 -3.643878 -28.557787 40.372171 0.128039 2.356557 0.012489 -0.003328 -180321.000000 0 0 1
-29.303483 -3.791078 -29.556167 41.792744 0.128658 2.356338 0.016688 0.000106 127058.000000 0 0 1
-28.960583 -4.750578 -30.566687 42.374588 0.162588 2.376538 0.010882 0.002591 -634641.000000 0 0 1
-30.071783 -4.854078 -31.642487 43.921763 0.160036 2.375216 0.007860 0.007713 -242539.000000 0 0 1
-31.179783 -5.642978 -31.219697 44.482486 0.179044 2.348777 0.005257 0.008803 971460.000000 0 0 1
-32.216683 -5.015678 -30.422267 44.593565 0.154446 2.321580 0.004976 0.006688 36319.200000 0 0 1
-33.096183 -4.005078 -31.179427 45.645971 0.120428 2.322755 0.014806 0.003699 -1093680.000000 0 0 1
-32.520983 -2.811978 -31.746497 45.534181 0.086252 2.342283 0.019226 0.004041 -7683.800000 0 0 1
-31.890383 -1.934578 -30.806337 44.382086 0.060589 2.337988 0.012875 0.003246 45203.100000 0 0 1
-31.453683 -0.630478 -31.518267 44.532380 0.020042 2.357120 0.021753 0.005860 614173.000000 0 0 1
-32.533183 0.301222 -31.755107 45.463013 -0.009259 2.344071 0.020307 0.010079 460376.000000 0 0 1
-32.168283 1.352422 -32.623857 45.836051 -0.042017 2.362784 0.022303 0.008437 -424996.000000 0 0 1
-33.361083 2.172922 -33.056857 47.015309 -0.065042 2.350556 0.018275 0.002813 -405452.000000 0 0 1
-34.062383 1.654322 -34.173365 48.278376 -0.048529 2.357232 0.009328 0.005404 -965054.000000 0 0 1
34.314846 2.385222 -34.324305 48.593784 0.069398 2.355127 0.005320 0.003250 -820189.000000 0 0 1
33.360746 1.950422 33.971321 47.652851 0.058398 0.777183 0.000345 0.003710 102479.000000 0 0 1
33.775846 2.456822 32.691943 47.070234 0.072611 0.803022 0.000014 0.005249 321609.000000 0 0 1
34.691946 1.558822 32.082373 47.278322 0.044903 0.824961 -0.000999 0.002640 -115983.000000 0 0 1
-34.587583 1.773522 30.578893 46.200812 -0.051231 0.847487 0.004820 0.000169 -209174.000000 0 0 1
-33.913783 2.992722 30.313953 45.585489 -0.088017 0.843314 0.008405 -0.003067 174408.000000 0 0 1
-33.790383 3.221922 28.922363 44.594550 -0.095063 0.865102 0.005834 -0.003977 -14534.000000 0 0 1
-33.287183 4.588722 28.481713 44.048847 -0.136989 0.867686 0.006518 -0.007615 -299973.000000 0 0 1
-32.807683 4.745922 27.152803 42.850234 -0.143662 0.884511 0.001065 -0.007399 342280.000000 0 0 1
-32.220183 6.050422 27.060483 42.509029 -0.185622 0.880738 -0.001783 -0.005130 -259341.000000 0 0 1
-31.452083 6.150022 25.701973 41.080990 -0.193100 0.894843 -0.005454 -0.003866 -252227.000000 0 0 1
-30.226383 5.450722 25.768943 40.092182 -0.178413 0.872724 -0.006493 -0.005770 -267708.000000 0 0 1
-29.501783 5.504722 24.578423 38.791185 -0.184468 0.884588 -0.003897 -0.006454 -353514.000000 0 0 1
-30.019783 4.923522 23.247633 38.286824 -0.162562 0.918269 -0.009985 -0.003561 -428956.000000 0 0 1
-29.939583 3.525222 23.172533 38.023310 -0.117205 0.915455 -0.004274 0.000140 -186710.000000 0 0 1
-30.587683 3.004622 22.019433 37.808591 -0.097916 0.949128 -0.008500 0.004072 -879156.000000 0 0 1
-30.424783 1.492922 21.617333 37.352448 -0.049030 0.953614 -0.008051 0.002588 -329689.000000 0 0 1
-29.286583 1.046222 20.903833 35.996789 -0.035708 0.951191 -0.004131 0.002343 126657.000000 0 0 1
-29.289183 1.593022 19.573133 35.263317 -0.054336 0.982365 -0.002487 0.000120 -506590.000000 0 0 1
-28.218083 0.913022 18.732533 33.882173 -0.032345 0.984988 -0.006016 -0.002779 -529049.000000 0 0 1
-28.426883 -0.460678 18.559333 33.952154 0.016204 0.992460 0.000787 0.000283 586452.000000 0 0 1
-27.385283 -1.170778 17.852133 32.711208 0.042726 0.993513 0.009124 -0.002437 425926.000000 0 0 1
-27.056383 -0.831778 16.388633 31.643752 0.030733 1.026390 0.004288 -0.001972 -65966.000000 0 0 1
-26.553183 0.473922 16.187733 31.102072 -0.017846 1.023394 0.007423 -0.001505 304181.000000 0 0 1
-26.896583 0.963322 14.886533 30.756512 -0.035800 1.065562 0.012923 -0.002405 161754.000000 0 0 1
-26.381583 2.448222 14.622333 30.262094 -0.092535 1.066502 0.012906 -0.004721 217855.000000 0 0 1
-24.998683 2.559622 14.347833 28.936934 -0.102035 1.052005 0.009762 -0.006645 192889.000000 0 0 1
-24.640483 3.902422 14.024333 28.619298 -0.157070 1.058671 0.011065 -0.005577 544182.000000 0 0 1
-23.136283 4.168322 13.680833 27.199774 -0.178252 1.043758 0.016501 -0.005182 459734.000000 0 0 1
-22.281783 4.297822 14.799733 27.092088 -0.190545 0.992886 0.019562 -0.004043 234405.000000 0 0 1
-20.951683 4.412922 14.322033 25.759805 -0.207590 0.981250 0.007621 -0.008199 -119714.000000 0 0 1
-20.074883 5.106922 15.413833 25.819912 -0.249110 0.931072 0.003481 -0.008744 -562688.000000 0 0 1
-20.469583 6.412422 15.725833 26.597459 -0.303582 0.938184 0.003639 -0.009001 371189.000000 0 0 1
-20.005183 6.952222 16.937833 27.118830 -0.334465 0.896205 0.005307 -0.005429 -327932.000000 0 0 1
-20.356883 8.490422 16.935233 27.808130 -0.395142 0.915993 0.014348 -0.010150 61001.900000 0 0 1
-19.492783 9.340022 16.103033 26.953892 -0.446831 0.930505 -0.002191 -0.007746 951172.000000 0 0 1
-19.726483 10.703122 16.361133 27.773686 -0.497126 0.940867 -0.002777 -0.002898 -367572.000000 0 0 1
-19.139083 11.363422 17.627433 28.392926 -0.535795 0.900984 0.001985 -0.001917 -441284.000000 0 0 1
-19.740683 10.870722 18.801833 29.349210 -0.503362 0.875485 0.015297 -0.005135 452593.000000 0 0 1
-18.921183 10.942622 19.959733 29.599715 -0.524331 0.830750 0.007880 -0.007079 -148187.000000 0 0 1
-12.402854 -33.242989 -22.838707 42.196370 1.213695 2.142717 -0.008170 0.008793 -217732.000000 0 0 1
-12.870854 -34.206089 -21.971907 42.643641 1.210909 2.112089 -0.004220 0.006413 -287512.000000 0 0 1
-13.754554 -33.628989 -21.046707 41.988815 1.182548 2.095834 0.000424 0.004119 -335728.000000 0 0 1
-14.316754 -34.627889 -20.015207 42.481392 1.178753 2.061393 -0.001209 0.006524 -353996.000000 0 0 1
-15.030454 33.806022 -20.657107 42.373078 -1.152435 2.080027 -0.012388 0.004636 -185135.000000 0 0 1
-15.706954 32.885222 -19.863807 41.505627 -1.125205 2.069834 -0.014648 0.006546 433359.000000 0 0 1
-17.101554 33.310722 -19.308007 42.129164 -1.096490 2.046884 -0.002670 0.003967 -194755.000000 0 0 1
-17.118454 34.228222 -18.244507 42.396635 -1.107047 2.015654 0.003547 -0.001598 -1263470.000000 0 0 1
-18.396254 34.564422 -17.907507 43.055781 -1.081698 1.999744 0.006641 -0.002922 -1383680.000000 0 0 1
-18.779554 34.213122 -16.474107 42.362785 -1.068799 1.970214 0.005850 -0.005886 -325200.000000 0 0 1
-18.704554 32.845422 -16.257107 41.145785 -1.053126 1.976984 0.004671 -0.010755 160404.000000 0 0 1
-19.095954 32.431822 -14.961307 40.500855 -1.038651 1.949167 -0.000990 -0.010546 -125647.000000 0 0 1
-19.338954 30.870922 -14.756707 39.303554 -1.011158 1.955684 -0.013499 -0.007310 -388877.000000 0 0 1
-18.146354 30.191222 -14.522107 38.101071 -1.029607 1.961833 -0.016532 -0.006273 -410207.000000 0 0 1
-18.269354 28.750522 -14.389807 36.978756 -1.004722 1.970491 -0.018478 -0.005592 -1051410.000000 0 0 1
-17.026754 28.169422 -13.782207 35.684393 -1.027118 1.967332 -0.014397 -0.004149 -1246490.000000 0 0 1
-15.938254 28.374722 -14.611507 35.674205 -1.059010 1.992792 -0.011269 -0.005430 -1197280.000000 0 0 1
-14.841354 27.575422 -14.239207 34.400940 -1.077050 1.997551 -0.002593 -0.007490 6206.660000 0 0 1
-13.569954 28.028322 -14.981407 34.556809 -1.119908 2.019202 0.001721 -0.006489 -380998.000000 0 0 1
-13.776354 28.035622 -16.423707 35.291956 -1.114062 2.054845 -0.008621 -0.003495 -320141.000000 0 0 1
-12.764054 28.713622 -17.117307 35.782613 -1.152501 2.069593 -0.004583 -0.003325 -195741.000000 0 0 1
-12.933654 28.576022 -18.627807 36.481004 -1.145778 2.106698 -0.004952 -0.007445 -133022.000000 0 0 1
-12.641254 27.328122 -19.087207 35.650372 -1.137536 2.135778 -0.010344 -0.007637 104876.000000 0 0 1
-12.931654 27.271022 -20.481007 36.474758 -1.128009 2.167008 -0.002762 -0.008438 -130876.000000 0 0 1
-12.162954 26.105422 -21.154007 35.734053 -1.134785 2.204315 -0.000052 -0.005037 -492620.000000 0 0 1
-10.818554 26.414622 -21.450307 35.705588 -1.182070 2.215241 -0.002517 -0.006138 -265566.000000 0 0 1
-10.347754 25.256822 -22.090507 35.113723 -1.181955 2.251208 -0.002083 -0.006883 -726217.000000 0 0 1
-9.146154 25.662922 -22.902807 35.591801 -1.228435 2.269839 -0.007117 -0.007624 -619571.000000 0 0 1
-9.488154 26.284722 -24.163807 36.943217 -1.224377 2.283762 -0.007517 -0.009689 -8699.630000 0 0 1
-8.313154 26.500222 -24.899807 37.301082 -1.266817 2.301691 -0.004280 -0.008602 -249651.000000 0 0 1
-8.512854 27.141522 -26.277677 38.725279 -1.266867 2.316606 -0.006191 -0.007194 -127258.000000 0 0 1
-9.353754 26.382322 -27.144037 38.991260 -1.230077 2.340827 -0.001480 -0.005074 100024.000000 0 0 1
-9.713054 26.990622 -28.368727 40.343795 -1.225358 2.350649 -0.000572 -0.005257 -460951.000000 0 0 1
-10.985154 26.465122 -29.019277 40.782285 -1.177358 2.362520 -0.005546 -0.006355 -410702.000000 0 0 1
-11.253954 27.107422 -30.296927 42.182551 -1.177289 2.372057 -0.008614 -0.000659 -162484.000000 0 0 1
-12.423954 26.503022 -30.789767 42.482638 -1.132439 2.381484 -0.002228 -0.000541 -242892.000000 0 0 1
-12.920854 26.889022 -32.201687 43.896659 -1.122850 2.394370 -0.003926 0.001376 116312.000000 0 0 1
-12.137054 26.349622 -33.285507 44.153546 -1.139149 2.424711 -0.008532 -0.000039 264346.000000 0 0 1
-12.041654 24.953722 -33.402757 43.398547 -1.121198 2.449128 -0.003890 -0.001469 169739.000000 0 0 1
-11.341554 24.456522 -34.708119 43.947763 -1.136572 2.481212 -0.005180 -0.002515 521253.000000 0 0 1
-12.136054 24.690422 33.555447 43.392036 -1.113949 0.686753 0.001314 -0.001082 244482.000000 0 0 1
-11.421054 24.061122 32.476243 42.001005 -1.127619 0.686885 -0.004223 0.002596 -286583.000000 0 0 1
-12.014354 24.156022 31.058043 41.139520 -1.109259 0.715227 0.005132 0.002370 -1398220.000000 0 0 1
-13.251154 23.585722 31.093553 41.215148 -1.058916 0.716025 -0.001207 0.002697 -1532240.000000 0 0 1
-13.895754 23.580422 29.849713 40.498564 -1.038288 0.742092 0.000794 0.003056 473661.000000 0 0 1
-15.118954 22.597022 29.829033 40.360617 -0.981133 0.739118 0.005288 0.005284 816539.000000 0 0 1
-14.723054 21.253822 29.976683 39.586548 -0.964970 0.711713 0.000969 0.001758 -111889.000000 0 0 1
-15.881454 20.555422 30.350763 39.948902 -0.912977 0.707884 0.003658 -0.003256 173412.000000 0 0 1
-15.593854 19.007622 30.389483 39.089368 -0.883740 0.680217 0.002088 -0.001935 103070.000000 0 0 1
-15.401954 18.357522 29.101103 37.697387 -0.872723 0.688868 0.008128 -0.000050 247916.000000 0 0 1
-14.775254 17.065222 29.181773 36.893168 -0.857195 0.658387 0.000167 0.002711 124349.000000 0 0 1
-14.498654 16.419922 27.771453 35.370587 -0.847458 0.667847 0.003644 0.004696 575793.000000 0 0 1
-13.459054 17.124722 27.060523 34.737216 -0.904686 0.677716 -0.001745 0.000512 289417.000000 0 0 1
-12.981054 16.342222 25.978593 33.323615 -0.899525 0.676793 -0.006430 0.002733 306767.000000 0 0 1
-11.698054 16.944022 25.327173 32.640620 -0.966546 0.682592 -0.006218 -0.000022 132597.000000 0 0 1
-11.797254 18.019722 24.331233 32.494530 -0.991134 0.724578 -0.001867 -0.002166 -348282.000000 0 0 1
-12.177754 19.303922 24.778693 33.688614 -1.008006 0.744361 -0.000151 -0.003700 -63260.600000 0 0 1
-11.224854 20.075122 25.727973 34.509947 -1.060961 0.729477 -0.005738 -0.001860 90780.300000 0 0 1
-10.978754 19.648422 27.095593 35.224490 -1.061252 0.693167 -0.006491 0.002210 303242.000000 0 0 1
-12.133954 19.816422 27.912913 36.318785 -1.021369 0.694220 0.001352 0.009110 223741.000000 0 0 1
-11.863054 19.443622 29.328303 37.134026 -1.022965 0.660320 0.001092 0.009911 -486392.000000 0 0 1
-10.888654 20.237522 29.920583 37.727462 -1.077180 0.654961 -0.003712 0.006058 -480027.000000 0 0 1
-10.789454 20.016622 31.304363 38.691609 -1.076418 0.628222 -0.005323 0.006673 -380191.000000 0 0 1
-9.773054 20.866922 32.080133 39.497797 -1.132787 0.622882 -0.000711 0.009975 789818.000000 0 0 1
-8.473454 20.209822 32.103923 38.870274 -1.173786 0.598956 0.001940 0.009799 1018230.000000 0 0 1
-7.530854 21.127322 32.671733 39.629782 -1.228386 0.601613 -0.000884 0.008418 58603.200000 0 0 1
-6.253254 20.418622 33.138013 39.422725 -1.273613 0.572440 -0.003947 0.008569 -646557.000000 0 0 1
-6.449354 19.496922 34.199366 39.891362 -1.251338 0.540770 -0.007232 0.006899 -527990.000000 0 0 1
-5.296254 19.133022 -34.547822 39.845638 -1.300746 2.620030 -0.014263 0.005747 -317600.000000 0 0 1
-4.311154 18.187422 34.154452 38.934496 -1.338052 0.500738 -0.015380 0.002631 -312913.000000 0 0 1
-4.777954 16.844722 34.109697 38.341165 -1.294409 0.474248 -0.010706 0.007245 10591.600000 0 0 1
-4.508354 16.126222 32.946323 36.957279 -1.298189 0.470216 -0.001976 0.003156 -262563.000000 0 0 1
-5.160654 14.751822 32.860763 36.387888 -1.234271 0.443935 -0.004854 0.004425 -136612.000000 0 0 1
-4.533454 13.822922 33.780632 36.779838 -1.253884 0.406640 -0.007198 0.002538 -79151.500000 0 0 1
-5.300954 12.688422 33.832686 36.520499 -1.175058 0.386053 -0.006499 -0.001567 -221290.000000 0 0 1
-4.478154 11.411922 34.255327 36.382871 -1.196850 0.343673 -0.002854 0.005953 451568.000000 0 0 1
-4.091054 11.296122 -33.828367 35.898433 -1.223326 2.800338 -0.005540 0.005475 -13379.700000 0 0 1
-3.461554 10.041522 -33.556957 35.197783 -1.238829 2.835050 -0.003805 0.007754 225579.000000 0 0 1
-3.211254 9.641922 -32.119537 33.688922 -1.249300 2.835159 -0.000729 0.006194 625765.000000 0 0 1
-4.446954 9.365322 -31.436897 33.102314 -1.127485 2.823037 -0.003320 0.002591 573253.000000 0 0 1
-4.253554 8.694522 -30.196587 31.709956 -1.115808 2.831400 -0.000702 0.001826 433199.000000 0 0 1
-5.570254 8.140922 -29.559377 31.161822 -0.970734 2.819505 -0.002101 -0.001002 399413.000000 0 0 1
-5.328954 7.274722 -28.481137 29.874647 -0.938570 2.834958 -0.000468 -0.000223 -117242.000000 0 0 1
-6.471754 6.512822 -28.175457 29.633711 -0.788561 2.826574 -0.000145 -0.005526 -568930.000000 0 0 1
-6.366654 5.587522 -26.902307 28.204411 -0.720314 2.836547 -0.003316 -0.003834 -439775.000000 0 0 1
-6.578254 6.323322 -25.699827 27.271578 -0.765641 2.800431 -0.002702 -0.001249 -559641.000000 0 0 1
-5.666854 7.294422 -25.288457 26.922628 -0.910316 2.791384 0.000069 -0.003035 -1159080.000000 0 0 1
-6.016754 8.168722 -24.136407 26.181969 -0.935952 2.743679 -0.000956 -0.000342 -227407.000000 0 0 1
-6.213454 7.428622 -22.987507 24.944276 -0.874239 2.742862 0.001247 0.002301 54024.200000 0 1 0
-7.530954 7.513122 -22.464707 24.856093 -0.784213 2.699342 0.000373 0.004969 -192376.000000 0 1 0
-7.437554 7.668722 -20.941307 23.508825 -0.800700 2.669866 -0.000750 0.002077 -399828.000000 0 1 0
-6.982554 8.921222 -20.609107 23.517644 -0.906700 2.638977 -0.005537 0.005640 -242901.000000 0 1 0
-6.943954 9.261122 -19.240207 22.453785 -0.927426 2.599984 -0.001113 0.014910 -170258.000000 0 1 0
-8.224554 9.354922 -18.364007 22.189967 -0.849610 2.545582 0.002506 0.015229 -249525.000000 0 1 0
-7.917954 9.363622 -16.983707 20.947977 -0.868858 2.516240 0.000653 0.014127 714548.000000 0 1 0
-9.010554 9.723522 -16.091907 20.849135 -0.823437 2.452505 -0.001980 0.012247 908908.000000 0 1 0
-9.580354 11.196022 -16.124207 21.843172 -0.863007 2.401166 -0.001921 0.007532 -87049.100000 0 1 0
-8.615554 12.177522 -15.801207 21.730116 -0.955057 2.384968 -0.005865 0.005704 47256.900000 0 1 0
-9.052854 13.478322 -16.197207 22.934011 -0.979345 2.354987 0.001444 0.002556 863281.000000 0 1 0
-7.942354 14.587522 -15.928507 23.012912 -1.072215 2.335267 0.005359 0.003682 639062.000000 0 1 0
-7.539854 14.954422 -14.594307 22.214363 -1.103803 2.287597 0.006685 0.005187 -60223.600000 0 1 0
-8.514454 15.498822 -13.744207 22.396710 -1.068444 2.231498 0.003133 -0.003828 -603243.000000 0 1 0
-7.833854 16.292922 -12.553907 22.009751 -1.122616 2.177764 0.006674 -0.006775 754769.000000 0 1 0
-7.180654 17.567022 -12.832207 22.909116 -1.182763 2.165346 0.006841 -0.007791 356184.000000 0 1 0
-6.064154 17.462122 -13.696507 23.006390 -1.236551 2.208479 0.007499 -0.006668 -416480.000000 0 1 0
-5.649554 18.810822 -14.270507 24.277806 -1.279032 2.199134 -0.003311 0.002278 -180631.000000 0 1 0
-5.044254 19.722822 -13.440007 24.394016 -1.320406 2.154305 -0.008347 -0.002159 -355386.000000 0 1 0
-5.220854 21.032722 -13.960807 25.778612 -1.327489 2.143095 0.009011 0.007549 20431.900000 0 0 1
-4.528354 22.086322 -12.998507 26.024465 -1.368569 2.093786 0.002291 0.006199 -170118.000000 0 0 1
-4.584754 23.445922 -13.283507 27.334644 -1.377687 2.078256 0.006031 0.009805 1113090.000000 0 0 1
-5.877754 24.122522 -13.191707 28.115213 -1.331791 2.059183 0.009853 0.010554 1381280.000000 0 0 1
-6.583654 24.260922 -11.815607 27.776706 -1.305809 2.010176 0.005518 0.006098 15105.900000 0 0 1
-7.215154 23.073922 -11.360607 26.711940 -1.267732 2.010090 0.006955 0.008019 306438.000000 0 0 1
-8.215954 23.239122 -10.355907 26.735809 -1.230972 1.968543 0.011800 0.001353 427529.000000 0 0 1
-7.677754 23.456922 -8.911607 26.241033 -1.254474 1.917294 0.014428 -0.000250 -68083.000000 0 0 1
-7.311654 24.830422 -8.760507 27.326848 -1.284427 1.897141 0.013152 -0.002328 -108873.000000 0 0 1
-6.629654 25.167122 -7.590507 27.110001 -1.313223 1.854579 0.011009 0.002407 -80925.400000 0 0 1
-6.615054 26.709922 -7.412807 28.497870 -1.328019 1.833941 0.011470 0.002324 336563.000000 0 0 1
-5.679454 27.527722 -8.172507 29.271514 -1.367334 1.853754 0.007709 0.000805 453221.000000 0 0 1
-5.962954 27.542922 -9.542307 29.752731 -1.357590 1.897286 0.009852 0.001482 359763.000000 0 0 1
-5.203454 28.664422 -10.341107 30.913808 -1.391222 1.911886 0.004385 0.003775 632886.000000 0 0 1
-5.847054 29.944922 -10.204307 32.171638 -1.377962 1.893554 0.002387 -0.004042 -51413.100000 0 0 1
-6.694754 30.190722 -11.307807 32.926675 -1.352579 1.921356 0.001318 -0.004201 472867.000000 0 0 1
-7.771854 31.318622 -11.049507 34.107908 -1.327555 1.900706 0.002227 -0.011696 419408.000000 0 0 1
-8.827054 30.861522 -10.232007 33.690420 -1.292213 1.879377 0.003681 -0.010780 -144233.000000 0 0 1
-9.899754 31.764822 -10.259707 34.817677 -1.268679 1.869906 0.001546 -0.015334 -127609.000000 0 0 1
-11.195054 31.435922 -9.522607 34.701966 -1.228677 1.848774 0.005396 -0.011341 -12441.200000 0 0 1
-11.738154 30.195022 -9.860207 33.863657 -1.200030 1.866250 -0.000592 -0.010535 -96630.400000 0 0 1
-12.944054 29.932222 -9.169907 33.875856 -1.162636 1.844908 0.010479 -0.006803 812055.000000 0 0 1
-13.887154 28.759422 -9.680507 33.371689 -1.120944 1.865108 0.003540 -0.003018 690209.000000 0 0 1
-13.474054 27.417222 -9.378607 31.956415 -1.114016 1.868663 -0.002819 0.000481 81846.800000 0 0 1
-14.509254 26.543922 -9.795207 31.796923 -1.070557 1.883944 -0.005269 0.001879 -93091.900000 0 0 1
-14.524054 25.139322 -9.154807 30.442473 -1.046903 1.876249 -0.000833 0.001765 -826055.000000 0 0 1
-13.463854 24.346222 -9.566907 29.420054 -1.065640 1.902002 0.003363 0.002545 -158408.000000 0 0 1
-13.780354 23.008522 -9.203707 28.354867 -1.031168 1.901375 0.007429 0.004461 -44979.200000 0 0 1
-12.689154 21.985722 -9.578307 27.131726 -1.047345 1.931604 0.008891 0.008495 -143514.000000 0 0 1
-12.610254 21.681822 -10.933407 27.361639 -1.044012 1.981865 0.010704 0.005185 147329.000000 0 0 1
-11.767154 20.574122 -11.154007 26.194890 -1.051265 2.010652 0.009806 0.002597 -239674.000000 0 0 1
-11.879754 20.006422 -12.596107 26.458409 -1.034950 2.066979 0.009007 0.003600 120411.000000 0 0 1
-13.116254 19.357322 -12.859407 26.685322 -0.975272 2.073607 0.007815 0.002562 15382.800000 0 0 1
-13.290254 19.041122 -14.229307 27.233589 -0.961430 2.120566 0.004314 0.003091 899695.000000 0 0 1
-14.802554 18.745022 -14.535907 27.960402 -0.902380 2.117501 0.002547 0.005778 960319.000000 0 0 1
-15.541754 19.880422 -14.953407 29.332264 -0.907276 2.105741 -0.001953 0.005874 -215601.000000 0 0 1
-16.861854 19.504222 -15.261007 29.960560 -0.857931 2.105249 -0.001946 0.008358 -597031.000000 0 0 1
-17.697054 20.509522 -16.052807 31.488392 -0.858878 2.105750 -0.004007 0.008176 -277763.000000 0 0 1
-17.988754 21.670022 -15.351707 32.075848 -0.877956 2.069863 -0.002620 0.002507 238659.000000 0 0 1
-18.382054 22.639822 -16.299407 33.408564 -0.888820 2.080457 -0.005747 0.002508 -80907.500000 0 0 1
-18.667154 24.022822 -15.593907 34.186672 -0.910201 2.044449 -0.009251 0.001294 -553084.000000 0 0 1
-19.789854 24.077222 -14.786907 34.496428 -0.882824 2.013795 -0.006579 0.007538 -405999.000000 0 0 1
-19.882754 25.319722 -14.130207 35.157858 -0.905103 1.984395 -0.013284 -0.000019 1123.140000 0 0 1
-25.242904 -0.889978 4.270893 25.617119 0.035242 1.403294 0.024232 0.000674 -68547.800000 0 0 1
-25.531784 0.021622 5.317993 26.079753 -0.000847 1.365443 0.023821 0.003377 180043.000000 0 0 1
-26.737814 -0.335878 5.949493 27.393795 0.012561 1.351868 0.015164 0.007187 -181574.000000 0 0 1
-27.233314 0.681422 6.972393 28.119957 -0.025016 1.320231 0.011058 0.006484 -343018.000000 0 0 1
-27.379614 2.021222 6.583493 28.232446 -0.073688 1.335441 0.017469 0.000207 -61778.000000 0 0 1
-27.604744 2.990222 7.626693 28.794614 -0.107902 1.302732 0.014028 0.003359 -405334.000000 0 0 1
-26.519254 3.435722 8.626493 28.097890 -0.128838 1.258741 0.022434 0.000075 -424833.000000 0 0 1
-26.059874 2.415722 9.440393 27.822181 -0.092435 1.224611 0.022789 0.001064 -339991.000000 0 0 1
-25.051154 2.723422 10.319893 27.230085 -0.108289 1.182093 0.024032 -0.001255 -1053940.000000 0 0 1
-24.334254 1.539822 10.940093 26.724756 -0.063194 1.149042 0.013855 -0.005818 -556685.000000 0 0 1
-23.432954 0.874122 10.066993 25.518851 -0.037286 1.165281 0.005172 -0.003173 123298.000000 0 0 1
-23.943754 -0.224578 9.320993 25.695033 0.009379 1.199574 0.001315 -0.002301 -801096.000000 0 0 1
-22.980454 -1.171178 8.624893 24.573598 0.050920 1.212177 -0.000356 -0.003538 -516584.000000 0 1 0
-22.265254 -2.026278 9.491493 24.288594 0.090756 1.169318 -0.000708 -0.007157 313717.000000 0 1 0
-21.207354 -2.726278 8.844893 23.139071 0.127852 1.178567 0.000664 0.002344 891632.000000 0 1 0
-19.891554 -2.858778 9.705993 22.317097 0.142741 1.120855 -0.006603 0.000465 716553.000000 0 1 0
-19.294254 -1.570478 10.014193 21.794924 0.081217 1.093394 -0.006025 -0.001503 788514.000000 0 1 0
-20.039154 -0.841078 10.997593 22.874050 0.041947 1.069242 -0.001987 -0.005363 -735379.000000 0 1 0
-19.604754 0.643022 11.039993 22.508694 -0.032788 1.058159 -0.002579 -0.007956 -465384.000000 0 1 0
-20.174954 1.559422 10.112193 22.621163 -0.077142 1.107361 -0.000893 -0.009277 391348.000000 0 1 0
-20.473954 2.772222 10.797293 23.312004 -0.134584 1.089234 0.006574 -0.003934 -392508.000000 0 1 0
-21.384954 3.764922 10.051493 23.927461 -0.174269 1.137261 0.006415 -0.002914 -743102.000000 0 1 0
-21.632554 4.955822 10.846593 24.701744 -0.225205 1.116197 0.008108 -0.004989 750814.000000 0 1 0
-22.375254 5.933422 10.158293 25.279407 -0.259212 1.157270 0.017758 -0.009524 -249419.000000 0 0 1
-22.430654 7.230622 11.013893 26.013880 -0.311837 1.133618 0.011887 -0.009573 -8066.090000 0 0 1
-23.311954 7.081722 12.115693 27.210072 -0.294922 1.109326 0.009559 -0.006685 449371.000000 0 0 1
-23.405354 8.222722 12.912893 27.967241 -0.337848 1.090869 0.007707 -0.011032 -281194.000000 0 0 1
-24.040054 7.925222 14.274493 29.060187 -0.318448 1.057324 0.002862 -0.009881 168466.000000 0 0 1
-25.418604 7.644022 14.132093 30.070792 -0.292122 1.081550 0.007540 -0.009831 -13455.200000 0 0 1
-26.066194 7.170422 15.298493 31.062925 -0.268445 1.055836 0.007699 -0.008374 291999.000000 0 0 1
-27.541824 6.817822 14.966493 32.078508 -0.242666 1.085401 0.002846 -0.004187 -46883.500000 0 0 1
-27.694554 5.545722 14.357193 31.683945 -0.197632 1.100514 0.007033 -0.003714 56911.000000 0 0 1
-27.943234 5.712922 12.996593 31.342834 -0.201668 1.143228 0.007205 -0.000858 -472903.000000 0 0 1
-28.154924 4.407022 12.185693 30.993753 -0.155268 1.166724 0.008098 0.002486 -456590.000000 0 0 1
-29.290524 3.715122 12.614993 32.107242 -0.126163 1.167011 -0.001817 0.001399 -82301.500000 0 0 1
-29.524624 2.631122 11.757793 31.888429 -0.088881 1.193168 0.007789 0.002764 -149570.000000 0 0 1
-30.656774 1.711822 12.232093 33.051357 -0.055780 1.191687 0.002229 0.006649 -438331.000000 0 0 1
-30.243194 0.856922 13.270593 33.037762 -0.028327 1.157446 0.005286 0.006331 -249233.000000 0 0 1
-31.346574 0.231522 13.826593 34.261290 -0.007386 1.155388 -0.002165 0.007912 -624438.000000 0 0 1
-30.936094 -0.893678 14.769293 34.292457 0.028880 1.125543 -0.002777 -0.001750 -140484.000000 0 0 1
-30.825254 -2.198078 14.193393 34.007062 0.071187 1.140251 -0.006727 -0.003544 143030.000000 0 0 1
-30.955384 -3.145678 15.269793 34.659741 0.101272 1.114571 -0.008671 -0.003224 -64883.400000 0 0 1
-30.624214 -4.598378 14.896493 34.364125 0.149042 1.122435 -0.005220 -0.003688 80428.000000 0 0 1
-31.747624 -5.169878 14.238593 35.176367 0.161426 1.154061 -0.004339 0.000921 576658.000000 0 0 1
-31.602034 -6.568578 14.078893 35.214344 0.204935 1.159492 -0.000541 -0.003921 -744052.000000 0 0 1
-32.483654 -7.175278 12.972593 35.706590 0.217398 1.198977 0.002579 -0.006957 690195.000000 0 0 1
-33.891374 -7.298678 13.178993 37.088837 0.212115 1.207523 0.004621 0.001878 1036130.000000 0 0 1
-34.592496 -6.034878 13.102993 37.479981 0.172718 1.213652 0.004639 0.004657 -719731.000000 0 0 1
33.451515 -6.051478 12.772293 36.314676 -0.178967 1.211397 0.008447 0.002117 153098.000000 0 0 1
32.535755 -6.467078 13.804193 35.929851 -0.196211 1.176457 0.006289 0.002983 -132139.000000 0 0 1
31.219045 -6.488778 13.347393 34.567122 -0.204929 1.174364 0.001931 0.004595 -462245.000000 0 0 1
30.359155 -7.643178 13.874293 34.243137 -0.246633 1.153632 -0.003095 -0.000707 -331447.000000 0 0 1
29.895115 -7.460078 15.155593 34.337482 -0.244547 1.113670 0.001986 0.000711 -233776.000000 0 0 1
28.957165 -8.463578 15.447393 33.893532 -0.284359 1.097568 0.002801 0.003089 -385837.000000 0 0 1
28.390765 -8.384178 16.838693 34.056887 -0.287152 1.053619 -0.009633 0.002643 -1068000.000000 0 0 1
29.175625 -8.849478 17.870693 35.339666 -0.294498 1.040622 -0.004574 0.006114 -551002.000000 0 0 1
28.525065 -8.819978 19.143393 35.467462 -0.299877 1.000662 -0.002482 0.006158 172864.000000 0 0 1
29.433695 -9.434278 20.285693 36.971034 -0.310180 0.989998 -0.001453 0.006491 819812.000000 0 0 1
30.619205 -8.795478 20.680493 37.981297 -0.279722 0.995014 0.002976 0.004173 -143069.000000 0 0 1
31.750065 -8.920078 19.836893 38.485539 -0.273886 1.029278 0.007747 0.002984 184635.000000 0 0 1
32.980925 -8.185978 20.461993 39.666671 -0.243287 1.028799 0.007373 0.004191 203329.000000 0 0 1
33.479381 -8.841278 21.603493 40.813577 -0.258187 1.012996 0.004827 0.000874 -241111.000000 0 0 1
34.581231 -8.098778 22.072793 41.816981 -0.230050 1.014738 -0.003120 0.002133 -182089.000000 0 0 1
-34.515282 -8.556978 23.463093 42.603325 0.243019 0.987553 0.000231 0.002931 -627755.000000 0 0 1
34.237260 -8.195378 24.532993 42.909462 -0.234949 0.962173 -0.004503 0.001875 -462863.000000 0 0 1
34.422922 -9.041178 25.620693 43.853168 -0.256849 0.946855 -0.004135 -0.004930 -262043.000000 0 0 1
33.556963 -8.626778 26.828693 43.820883 -0.251630 0.911912 -0.000707 -0.007966 -57405.900000 0 0 1
34.247473 -7.666878 27.564693 44.626032 -0.220236 0.905005 -0.002900 -0.011926 78545.900000 0 0 1
33.535612 -7.339178 28.740993 44.772151 -0.215451 0.873772 0.001819 -0.010896 -597121.000000 0 0 1
34.432387 -6.825878 29.816093 46.056284 -0.195703 0.866649 -0.003928 -0.008793 -635774.000000 0 0 1
-34.276897 -7.848178 30.298793 46.416769 0.225084 0.859581 -0.009151 -0.005946 -76608.800000 0 0 1
-32.987914 -7.350178 30.634393 45.614621 0.219233 0.834442 -0.008770 -0.007772 478427.000000 0 0 1
-32.362504 -7.970178 31.886393 46.125887 0.241473 0.807523 -0.006712 -0.006398 -107685.000000 0 0 1
-32.044934 -9.321978 31.888293 46.158859 0.283090 0.808149 -0.000523 -0.008732 103737.000000 0 0 1
-31.708354 -9.726078 33.194993 46.924662 0.297625 0.784969 -0.002709 -0.008591 -334289.000000 0 0 1
-31.617524 -11.285578 33.401493 47.357067 0.342845 0.787934 -0.003622 -0.008050 657891.000000 0 0 1
-32.934364 -11.854778 33.414993 48.391837 0.345513 0.808604 0.002842 -0.008038 806441.000000 0 0 1
-32.844904 -13.237278 33.753493 48.921483 0.383110 0.809373 0.007823 -0.003451 593431.000000 0 0 1
-34.279489 -13.840678 33.855293 50.128122 0.383743 0.829323 0.006232 -0.002781 541092.000000 0 0 1
-34.351037 -15.234778 34.018993 50.689092 0.417438 0.835064 0.001981 -0.001855 -666741.000000 0 0 1
33.837487 -15.605278 34.013993 50.452472 -0.432115 0.830944 0.000770 -0.002228 -700363.000000 0 0 1
33.631056 -17.113978 34.199293 50.926690 -0.470722 0.834512 -0.003303 -0.001270 -200499.000000 0 0 1
33.862277 -17.460078 -33.893748 50.993081 -0.476066 2.297853 0.000719 -0.005234 202698.000000 0 0 1
33.627051 -18.846278 -33.728148 51.220589 -0.510831 2.289604 -0.000315 -0.008408 -392181.000000 0 0 1
34.117740 -19.503178 -32.403648 50.935160 -0.519308 2.260326 0.002117 -0.001942 176237.000000 0 0 1
33.237105 -19.336878 -31.282948 49.570584 -0.526919 2.253740 0.004308 -0.002117 -27039.500000 0 0 1
33.683547 -20.053378 -30.160948 49.461117 -0.536991 2.226593 0.002469 0.002216 -1383050.000000 0 0 1
32.654445 -19.887978 -29.057248 48.022579 -0.547043 2.220656 0.002568 -0.001187 875952.000000 0 0 1
31.467985 -20.718678 -29.200248 47.667097 -0.582261 2.230126 0.001664 0.001707 1552530.000000 0 0 1
30.582375 -20.199378 -30.238848 47.515097 -0.583715 2.260625 -0.003597 -0.000364 -487138.000000 0 0 1
29.189925 -20.889978 -30.360048 47.012503 -0.621157 2.272849 -0.001126 0.000453 591614.000000 0 0 1
28.382035 -20.242778 -31.348348 46.883141 -0.619547 2.303186 0.001254 -0.000292 379881.000000 0 0 1
27.061085 -20.753378 -31.359148 46.329269 -0.654235 2.314306 0.004325 -0.001124 543976.000000 0 0 1
26.037495 -20.187378 -32.392548 46.203447 -0.659510 2.347714 0.004443 0.002229 467393.000000 0 0 1
26.362105 -20.381378 -33.755448 47.431966 -0.658142 2.362655 0.003212 0.001406 251084.000000 0 0 1
25.203495 -20.168378 -34.555148 47.286762 -0.674876 2.390227 -0.001356 0.003145 100092.000000 0 0 1
25.544895 -20.068378 33.382493 46.579741 -0.665906 0.771775 -0.001729 0.006157 647277.000000 0 0 1
26.475575 -18.956578 33.068993 46.409764 -0.621385 0.777679 0.003121 0.001555 1207330.000000 0 0 1
26.880965 -18.838578 31.706293 45.637346 -0.611273 0.802732 0.005777 0.000186 -229734.000000 0 0 1
25.814945 -18.197778 30.809993 44.122853 -0.614028 0.797808 -0.000503 -0.001116 -373918.000000 0 0 1
25.532095 -16.921078 31.211293 43.730488 -0.585278 0.776002 0.000432 -0.002678 364538.000000 0 0 1
24.612305 -16.334478 30.304993 42.319893 -0.585926 0.772607 -0.002653 -0.003111 60005.000000 0 0 1
24.358175 -14.843978 30.659093 41.876537 -0.547306 0.749352 0.004616 -0.003163 139448.000000 0 0 1
25.486225 -14.025078 30.359393 42.046917 -0.503074 0.764056 0.003560 -0.004374 431543.000000 0 0 1
25.317775 -12.755178 30.954193 41.974353 -0.466686 0.741502 0.007364 0.000431 167640.000000 0 0 1
26.613555 -11.921478 31.196793 42.704131 -0.421146 0.751694 0.002108 -0.002104 443135.000000 0 0 1
27.162995 -11.425678 29.946493 42.013889 -0.398167 0.777348 -0.003334 -0.004415 64659.600000 0 0 1
28.537635 -11.151578 30.103693 42.953307 -0.372522 0.794212 -0.003457 -0.000971 137293.000000 0 0 1
29.254055 -10.427878 28.921193 42.437905 -0.342418 0.820994 -0.004715 -0.004048 -42723.900000 0 0 1
28.905065 -9.085078 28.615393 41.675918 -0.304531 0.813971 -0.001841 -0.003064 -346548.000000 0 0 1
29.650195 -8.581878 27.531893 41.361671 -0.281738 0.842448 -0.000417 -0.004798 -189092.000000 0 0 1
29.598415 -7.035378 27.374193 40.925654 -0.233364 0.838100 0.005963 -0.011915 393143.000000 0 0 1
28.302965 -6.437878 27.263193 39.821926 -0.223658 0.816704 -0.000558 -0.008915 18912.100000 0 0 1
28.216275 -5.034378 27.390393 39.645135 -0.176563 0.808078 -0.000170 -0.004158 -360636.000000 0 0 1
26.731035 -4.719378 27.235893 38.452758 -0.174750 0.783716 -0.003268 -0.001327 -208471.000000 0 0 1
26.249265 -4.960878 25.914393 37.218140 -0.186788 0.800589 0.002851 -0.004165 392466.000000 0 0 1
24.850525 -4.656478 25.844293 36.154652 -0.185232 0.774421 0.006439 0.000892 278622.000000 0 0 1
24.228775 -5.034178 24.462793 34.796619 -0.204862 0.791158 0.006034 -0.001604 -375352.000000 0 0 1
24.456175 -4.175878 23.392493 34.099137 -0.169118 0.814800 0.010155 0.002350 74240.900000 0 0 1
24.393375 -4.868678 22.164393 33.316679 -0.197001 0.842949 0.002908 0.001959 2006.110000 0 0 1
24.820305 -4.052678 20.930493 32.719371 -0.161852 0.876692 0.000132 0.001090 -48330.400000 0 0 1
23.885175 -3.045578 20.609093 31.694035 -0.126825 0.862881 -0.000637 0.006169 -30587.800000 0 0 1
24.440675 -2.098178 19.711293 31.468778 -0.085638 0.893901 0.003173 -0.000772 -321183.000000 0 0 1
23.512475 -0.874178 19.315393 30.441502 -0.037162 0.883424 -0.006596 0.002817 -352906.000000 0 0 1
22.496375 -1.446078 18.564093 29.202801 -0.064192 0.881887 -0.002994 0.002191 -713650.000000 0 0 1
21.615875 -0.459578 18.025593 28.149232 -0.021258 0.875832 -0.000681 0.003199 -132523.000000 0 0 1
20.419375 -1.217578 17.436793 26.878897 -0.059558 0.864899 -0.006225 0.003382 -779980.000000 0 0 1
20.770975 -1.958778 16.281693 26.464386 -0.094026 0.908118 -0.001931 0.002054 -35522.300000 0 0 1
19.717775 -2.701378 15.733793 25.370068 -0.136155 0.901835 -0.001355 -0.000994 -350749.000000 0 0 1
20.194775 -3.339878 14.358693 25.003115 -0.163900 0.959077 -0.001085 -0.002044 -380091.000000 0 0 1
19.371075 -4.278278 13.698793 24.108072 -0.217370 0.966450 0.009116 -0.002014 330102.000000 0 1 0
19.806875 -4.545178 12.423793 23.818513 -0.225569 1.022068 0.009883 -0.002129 -17142.300000 0 1 0
18.851275 -5.620178 11.753493 22.915095 -0.289743 1.032219 0.019754 -0.003899 313804.000000 0 1 0
18.837475 -6.918078 12.343093 23.559758 -0.351960 1.019366 0.007441 0.000368 437048.000000 0 1 0
17.712675 -7.586378 11.821193 22.606030 -0.404664 1.020521 0.013329 0.000508 -54817.500000 0 1 0
17.406275 -9.072178 12.234493 23.129324 -0.480465 1.013421 0.005693 0.001567 -471096.000000 0 1 0
18.222775 -9.907078 11.488793 23.711012 -0.497966 1.064966 -0.000947 -0.000974 309135.000000 0 1 0
17.748875 -11.248078 11.401893 23.907007 -0.564856 1.073641 0.002355 -0.000382 31514.300000 0 1 0
18.505175 -12.027078 10.319893 24.363750 -0.576326 1.133407 0.012458 0.002285 118187.000000 0 1 0
18.119575 -11.451678 9.073793 23.276461 -0.563621 1.170353 0.022455 -0.002303 512110.000000 0 1 0
18.676575 -12.160178 7.965493 23.667139 -0.577143 1.227531 0.000737 0.000504 -149677.000000 0 1 0
18.512775 -11.377578 6.657293 22.726453 -0.551071 1.273505 0.004490 -0.000203 -80425.400000 0 1 0
19.106475 -10.076778 6.622593 22.593308 -0.485328 1.273306 0.020157 0.005151 615206.000000 0 1 0
19.341175 -9.768678 5.312593 22.309903 -0.467697 1.330359 -0.010462 0.001856 -272722.000000 0 1 0
19.869475 -8.342378 5.126393 22.151100 -0.397508 1.337251 0.010546 0.005906 -333820.000000 0 1 0
20.473875 -8.104178 3.860193 22.355276 -0.376907 1.397252 0.010991 0.002980 651920.000000 0 1 0
20.667475 -6.719678 3.683793 22.042435 -0.314352 1.402886 0.009920 0.003843 -662953.000000 0 1 0
21.302875 -6.380178 2.312093 22.357659 -0.290997 1.467197 0.005957 0.004235 -151902.000000 0 1 0
20.457175 -6.202178 1.179493 21.409209 -0.294370 1.515676 -0.003522 -0.004987 222300.000000 0 1 0
21.119675 -5.767278 0.021393 21.892981 -0.266577 1.569819 0.009159 0.000533 -489013.000000 0 1 0
-25.416364 -16.433178 0.541393 30.271010 0.573952 1.552911 0.001662 0.002422 -535043.000000 0 0 1
-24.568754 -15.650778 -0.256807 29.131366 0.567196 1.579612 0.002410 0.004680 1098460.000000 0 0 1
-23.152254 -15.948778 -0.128607 28.114177 0.603214 1.575371 0.001314 -0.001714 1655240.000000 0 0 1
-22.427754 -15.242678 1.079893 27.138710 0.596927 1.530994 -0.003052 0.000992 -294372.000000 0 0 1
-22.677554 -15.944478 2.315393 27.818319 0.612800 1.487467 0.003012 0.003873 -34418.800000 0 0 1
-21.727854 -15.512978 3.252393 26.894799 0.620039 1.449569 0.005418 0.006753 -130555.000000 0 0 1
-21.887754 -16.085978 4.654293 27.558935 0.633787 1.401098 0.002610 0.008440 -831561.000000 0 0 1
-21.845254 -17.491478 4.598493 28.360414 0.675167 1.407933 0.007606 0.007171 186638.000000 0 0 1
-22.308054 -18.082578 5.809593 29.298128 0.681162 1.371181 0.005420 0.002233 -189328.000000 0 0 1
-22.531354 -19.623278 5.690193 30.415675 0.716521 1.382607 0.004068 0.001100 103247.000000 0 0 1
-23.012454 -20.178478 6.887593 31.371690 0.719877 1.349445 0.000688 0.001044 226.779000 0 0 1
-23.453854 -21.525278 6.691093 32.529857 0.742547 1.363627 0.006562 -0.001550 -14147.900000 0 0 1
-23.748154 -22.327278 7.965593 33.554923 0.754570 1.331118 0.011220 -0.002261 190932.000000 0 0 1
-22.626554 -22.620978 8.808193 33.185145 0.785275 1.302151 0.009279 -0.000197 -192376.000000 0 0 1
-22.953454 -23.627378 9.676793 34.332993 0.799865 1.285073 0.010723 -0.001632 -340664.000000 0 0 1
-22.012254 -23.949678 10.821293 34.281581 0.827526 1.249645 0.017450 -0.001260 -259890.000000 0 0 1
-22.027454 -22.995278 11.845693 33.975167 0.806891 1.214658 0.012737 -0.005037 172530.000000 0 0 1
-21.246154 -23.434978 12.964793 34.186008 0.834347 1.181819 0.006061 -0.006380 -326604.000000 0 0 1
-21.487254 -22.606478 14.253693 34.291729 0.810776 1.142128 0.005983 -0.002649 -1144540.000000 0 0 1
-22.746054 -22.727878 14.800793 35.397781 0.784998 1.139413 0.011611 -0.005383 -1054780.000000 0 0 1
-23.012354 -21.794878 15.851693 35.438134 0.758233 1.107045 0.010006 0.004540 -396949.000000 0 0 1
-24.416054 -21.930178 16.465993 36.717916 0.731812 1.105771 0.009948 -0.001082 -269031.000000 0 0 1
-25.531574 -21.781778 15.627793 37.020738 0.706309 1.134996 0.015850 -0.002008 -31412.600000 0 0 1
-25.792754 -22.812678 14.654793 37.422552 0.724163 1.168423 0.016213 -0.005232 -946788.000000 0 0 1
-26.955654 -23.739478 15.050393 38.944633 0.722042 1.174010 0.015023 -0.005062 -342857.000000 0 0 1
-26.851764 -24.233178 16.381993 39.706849 0.734184 1.145519 0.015066 -0.005342 37356.000000 0 0 1
-27.778774 -25.266848 16.717093 41.103955 0.738079 1.151954 0.003769 -0.004120 -35962.900000 0 0 1
-27.563984 -26.638908 16.000993 41.538373 0.768333 1.175361 0.004729 -0.003131 -343020.000000 0 0 1
-28.035014 -26.788148 14.681893 41.462331 0.762659 1.208843 0.006004 -0.006495 600253.000000 0 0 1
-29.305104 -27.473198 14.759793 42.795061 0.753145 1.218670 0.009162 -0.011989 670599.000000 0 0 1
-29.946214 -27.849178 13.389893 43.030706 0.749130 1.254372 0.012355 -0.010687 -179285.000000 0 0 1
-29.394144 -28.968398 12.773193 43.201137 0.778103 1.270642 0.010585 -0.010773 -192671.000000 0 0 1
-30.152804 -29.325398 11.668793 43.650101 0.771488 1.300180 0.007732 -0.005841 -64383.700000 0 0 1
-29.520034 -30.537938 10.905893 43.851301 0.802345 1.319457 0.007344 0.001633 43383.200000 0 0 1
-29.663474 -31.818838 11.517493 45.000142 0.820440 1.311973 0.003403 -0.000604 4620.920000 0 0 1
-29.033754 -32.826268 10.753993 45.123953 0.846630 1.330159 0.006699 -0.000399 -493587.000000 0 0 1
-28.906304 -34.237783 11.326893 46.217948 0.869632 1.323199 0.001076 -0.000155 -339686.000000 0 0 1
-30.155714 34.629594 11.488193 47.334495 -0.854346 1.325646 0.004550 -0.001583 -658650.000000 0 0 1
-30.047434 33.249943 11.877593 46.362530 -0.835950 1.311718 0.000245 0.000202 -1468720.000000 0 0 1
-31.313424 32.462383 12.199193 46.724267 -0.803412 1.306646 0.011534 -0.001777 -24987.500000 0 0 1
-32.293474 32.401683 11.153693 47.086541 -0.787071 1.331647 0.008506 -0.004574 341470.000000 0 0 1
-32.952374 33.626831 10.875893 48.320883 -0.795528 1.343775 0.010592 -0.006206 -534968.000000 0 0 1
-34.427614 33.315753 10.416393 49.027556 -0.768987 1.356705 0.009775 -0.007001 612795.000000 0 0 1
-34.546864 32.536323 9.282493 48.355587 -0.755436 1.377634 0.005916 -0.007361 -208027.000000 0 0 1
33.648581 32.513763 8.823893 47.615469 0.768248 1.384403 0.006513 -0.010371 -108250.000000 0 0 1
33.581538 31.950593 7.394793 46.938716 0.760516 1.412596 -0.006838 -0.007227 -137294.000000 0 0 1
33.860643 30.570223 7.188193 46.181726 0.734373 1.414511 0.000190 -0.006705 32352.100000 0 0 1
33.544381 30.159023 5.899393 45.492801 0.732306 1.440753 0.003190 -0.004108 -91917.200000 0 0 1
33.557797 28.633493 5.665593 44.475854 0.706383 1.443063 0.005207 -0.000728 414709.000000 0 0 1
32.617695 27.855953 6.429793 43.372922 0.706820 1.422004 0.012649 0.000539 295799.000000 0 0 1
33.203595 27.402023 7.618193 43.719406 0.689962 1.395650 0.007894 -0.004363 -281705.000000 0 0 1
32.500085 26.217933 8.278393 42.569558 0.678815 1.375082 0.006864 -0.002151 -223072.000000 0 0 1
32.655125 25.039733 7.536093 41.834652 0.654163 1.389668 0.007080 -0.001613 -146234.000000 0 0 1
31.537215 24.186733 7.551293 40.455111 0.654246 1.383037 0.012553 0.002031 -958975.000000 0 0 1
31.738625 22.817333 6.769093 39.671042 0.623307 1.399327 0.009446 0.002934 46009.300000 0 0 1
32.715395 21.951833 7.328693 40.073554 0.590992 1.386880 0.008892 0.003436 -249315.000000 0 0 1
34.014343 22.424933 7.016493 41.341073 0.582870 1.400249 -0.005460 0.002618 -441335.000000 0 0 1
-34.545149 21.170633 7.031893 41.121898 -0.549807 1.398951 -0.003762 0.004314 -74183.900000 0 0 1
34.710788 20.349533 5.882293 40.663788 0.530255 1.425630 -0.001698 0.003559 371435.000000 0 0 1
-34.344688 19.023933 6.206393 39.749049 -0.505842 1.414015 0.000464 0.003472 61917.500000 0 0 1
34.644173 18.005033 5.159593 39.383008 0.479293 1.439408 0.005968 0.003093 99878.900000 0 0 1
-34.089104 17.903033 3.992593 38.710805 -0.483591 1.467474 -0.002181 0.006057 92537.700000 0 0 1
-34.739286 16.992833 3.102393 38.796897 -0.454933 1.490746 0.006888 0.004834 -940458.000000 0 0 1
-33.985644 16.488933 1.841193 37.819293 -0.451716 1.522093 0.003851 0.008284 169066.000000 0 0 1
-32.845344 15.681733 2.086993 36.456672 -0.445439 1.513519 0.005868 0.002951 813685.000000 0 0 1
-31.710994 16.449933 2.541793 35.814077 -0.478531 1.499765 0.006323 -0.000701 143129.000000 0 0 1
-30.439604 15.549133 2.796193 34.295243 -0.472265 1.489173 -0.000947 -0.003684 383275.000000 0 0 1
-30.487984 14.756633 3.958693 34.102003 -0.450778 1.454450 0.003387 -0.005638 -413331.000000 0 0 1
-29.291464 14.113033 4.228793 32.787959 -0.448993 1.441462 -0.004331 -0.000846 -799219.000000 0 0 1
-29.217344 13.572433 5.640093 32.705883 -0.434874 1.397481 -0.007725 -0.002128 -397670.000000 0 0 1
-29.612244 12.262333 5.852093 32.580620 -0.392599 1.390197 -0.004880 -0.003586 302078.000000 0 0 1
-29.227474 11.849833 7.139393 32.336275 -0.385183 1.348176 -0.004051 -0.001571 -181043.000000 0 0 1
-29.289634 10.306133 7.335793 31.904747 -0.338339 1.338793 -0.004654 -0.001888 -287609.000000 0 0 1
-30.581724 9.776433 7.272093 32.919657 -0.309415 1.348055 -0.007453 -0.004087 -541870.000000 0 0 1
-30.532194 8.349233 7.048593 32.428494 -0.266931 1.351689 -0.010408 -0.004096 972357.000000 0 0 1
-31.984854 7.733333 6.913893 33.624950 -0.237228 1.363701 -0.010469 -0.001358 964696.000000 0 0 1
-32.693544 7.867733 8.134893 34.596901 -0.236160 1.333440 -0.011531 0.003304 -560363.000000 0 0 1
-33.927074 7.233333 8.001093 35.600350 -0.210057 1.344112 -0.010646 0.004211 -448703.000000 0 0 1
-34.545366 6.581133 9.251393 36.363194 -0.188251 1.313552 -0.011063 0.006320 -182510.000000 0 0 1
34.426950 7.477133 10.152093 36.663161 0.213867 1.290228 -0.007016 0.008383 732638.000000 0 0 1
-34.100327 8.116833 10.996793 36.737511 -0.233680 1.266802 -0.005989 0.005737 467912.000000 0 0 1
-34.725591 9.057233 12.077693 37.865166 -0.255139 1.246158 -0.000371 -0.000249 64645.900000 0 0 1
34.041738 8.339733 13.074093 37.407526 0.240254 1.213754 -0.008765 0.001445 695832.000000 0 0 1
33.619168 9.210133 14.091493 37.598473 0.267394 1.186627 0.000347 -0.002537 -192469.000000 0 0 1
32.900165 8.544433 15.292593 37.273202 0.254094 1.148031 -0.007039 -0.002286 323140.000000 0 0 1
31.622365 7.946033 15.051793 35.911974 0.246182 1.138309 -0.000401 -0.001648 532704.000000 0 0 1
31.044365 7.648733 16.289593 35.883235 0.241569 1.099590 -0.007050 -0.000069 -11139.900000 0 0 1
29.551695 7.270033 16.197993 34.475078 0.241221 1.081680 -0.004485 0.003123 -1229770.000000 0 0 1
28.649685 8.334233 16.047493 33.878989 0.283089 1.077342 -0.005433 0.001803 -462344.000000 0 0 1
27.329625 7.875733 16.001093 32.633886 0.280574 1.058338 0.001499 0.000682 -313856.000000 0 0 1
26.698105 7.279833 17.267793 32.618422 0.266201 1.012918 0.007366 0.004065 -1342150.000000 0 0 1
26.419395 8.268933 18.216193 33.138940 0.303329 0.988801 0.009110 0.002708 276052.000000 0 0 1
25.837915 7.850733 19.474093 33.293725 0.294981 0.946018 0.009311 0.003353 -273268.000000 0 0 1
26.656015 6.971033 20.379993 34.270724 0.255790 0.933933 0.009549 0.005465 -322723.000000 0 0 1
26.047695 6.845433 21.654593 34.558121 0.256993 0.893596 0.011171 0.005931 136347.000000 0 0 1
26.577325 5.705633 22.358793 35.196933 0.211471 0.882466 0.008594 0.005441 -887487.000000 0 0 1
26.052965 5.506133 23.804493 35.717340 0.208279 0.841334 0.006756 0.010035 604318.000000 0 0 1
24.674545 5.190233 23.983593 34.799201 0.207325 0.810413 0.007350 0.007372 482639.000000 0 0 1
23.753975 6.234433 23.684093 34.118261 0.256670 0.803521 0.008257 0.006704 -933056.000000 0 0 1
22.297375 5.894433 23.941393 33.243158 0.258443 0.766720 0.004611 0.003138 -674766.000000 0 0 1
21.756675 4.993233 23.032093 32.074329 0.225597 0.769750 0.001068 0.005409 1177400.000000 0 0 1
20.315975 5.123933 22.949193 31.075054 0.247059 0.739941 0.000908 -0.000630 329712.000000 0 0 1
19.643975 4.026233 22.112393 29.850531 0.202160 0.736580 0.004183 -0.001294 330193.000000 0 0 1
18.454775 4.319733 21.390693 28.579723 0.229932 0.725064 0.006154 -0.004850 1153700.000000 0 0 1
17.268975 4.493233 22.186193 28.471631 0.254547 0.677346 0.001731 -0.005661 -299511.000000 0 0 1
15.950475 4.253133 21.481693 27.091879 0.260583 0.655210 0.001111 -0.005136 -482030.000000 0 0 1
15.606075 2.859933 21.436893 26.669630 0.181247 0.637151 -0.000905 -0.005106 636205.000000 0 0 1
14.402275 2.635933 20.686493 25.343730 0.181019 0.615929 -0.003984 -0.004352 936403.000000 0 0 1
13.478575 1.462033 21.226293 25.186604 0.108048 0.568404 -0.004162 -0.000832 279461.000000 0 0 1
14.083875 0.176833 21.046793 25.324974 0.012555 0.589770 -0.001653 -0.003579 544577.000000 0 0 1
13.457475 -0.817567 21.864593 25.687204 -0.060677 0.552555 0.001759 -0.002252 190230.000000 0 0 1
14.095975 -2.209467 21.725493 25.991831 -0.155479 0.581102 -0.000159 0.001980 -117266.000000 0 0 1
13.663175 -2.717567 20.479793 24.768719 -0.196335 0.597329 0.007496 0.001427 251734.000000 0 1 0
14.033375 -4.059367 20.321193 25.027284 -0.281580 0.623292 0.003812 0.001068 -493006.000000 0 0 1
13.542775 -4.625767 18.994893 23.782566 -0.329143 0.645682 -0.000874 0.002560 19890.800000 0 1 0
12.138975 -4.581867 18.835493 22.871904 -0.360918 0.603206 0.004604 0.000109 -65574.000000 0 1 0
11.802375 -5.050967 17.577193 21.766167 -0.404377 0.630816 0.009556 0.000994 775774.000000 0 1 0
10.248275 -5.225767 17.408293 20.865868 -0.471550 0.583943 0.010042 -0.001089 909105.000000 0 1 0
9.792475 -6.329867 18.183793 21.601160 -0.573841 0.570193 0.008388 0.004725 -1446570.000000 0 1 0
8.441775 -6.455967 17.973593 20.880448 -0.652883 0.533985 0.011571 -0.004365 -1113790.000000 0 1 0
7.736375 -7.401267 19.035293 21.839703 -0.763264 0.512358 0.010412 -0.001785 -151465.000000 0 1 0
7.814175 -8.781867 18.848593 22.213779 -0.843641 0.557635 0.007638 0.001674 -236980.000000 0 1 0
9.036675 -9.370067 19.193693 23.191755 -0.803509 0.595963 0.008807 -0.005351 -229934.000000 0 1 0
9.170675 -10.842967 18.651293 23.442311 -0.868762 0.650757 0.006345 -0.002070 117328.000000 0 1 0
9.235175 -10.980367 17.274293 22.455692 -0.871514 0.693112 0.006991 -0.003348 24680.900000 0 1 0
9.540575 -12.294167 16.835193 22.925812 -0.910847 0.746112 -0.003474 0.001231 209486.000000 0 1 0
9.672775 -12.157667 15.295393 21.801846 -0.898737 0.793206 0.003383 -0.004061 162763.000000 0 1 0
10.081175 -13.364267 14.652393 22.246940 -0.924525 0.851806 -0.014400 0.003038 81304.300000 0 1 0
9.792375 -13.353967 13.269193 21.220050 -0.938074 0.895263 -0.014668 0.002346 -79585.400000 0 1 0
10.632175 -14.596467 12.683693 22.067534 -0.941258 0.958477 -0.005344 0.003287 1347820.000000 0 1 0
12.026475 -14.476467 12.417093 22.547470 -0.877578 0.987583 -0.006521 0.003569 471114.000000 0 1 0
12.357475 -13.444367 11.481093 21.570204 -0.827498 1.009521 -0.012672 0.001992 36660.400000 0 1 0
13.830175 -13.412267 10.922493 22.146411 -0.770059 1.055038 -0.002899 0.003223 956103.000000 0 1 0
14.085575 -14.554267 10.081893 22.624648 -0.801762 1.108935 -0.000586 -0.001004 -74268.700000 0 1 0
15.404675 -14.578467 9.588793 23.276182 -0.757849 1.146195 0.000205 -0.003636 -362019.000000 0 1 0
15.848975 -15.996267 9.196793 24.323889 -0.790023 1.183056 -0.001393 -0.004821 -298322.000000 0 1 0
16.194175 -16.778467 10.324193 25.502102 -0.803117 1.153996 0.000057 -0.003374 6377.730000 0 0 1
15.156575 -17.616267 10.807293 25.629128 -0.860310 1.135499 0.011633 -0.001004 45375.500000 0 0 1
15.377175 -18.191267 12.254593 26.787213 -0.869034 1.095638 0.008601 0.003608 -709016.000000 0 0 1
16.274875 -19.219367 12.237593 28.000256 -0.868166 1.118477 0.010988 0.002767 -634133.000000 0 0 1
16.785775 -19.651967 13.455893 29.138001 -0.863897 1.090774 0.009296 0.002597 -620952.000000 0 0 1
18.107375 -20.434167 13.414093 30.419897 -0.845696 1.114123 -0.005600 0.002177 -190988.000000 0 0 1
19.082275 -19.581767 12.844693 30.208690 -0.798316 1.131615 -0.005140 0.001323 -644034.000000 0 0 1
20.197075 -20.325967 12.427693 31.233225 -0.788579 1.161570 -0.006990 -0.002575 45222.900000 0 0 1
21.206075 -19.555667 11.567893 31.079541 -0.744931 1.189415 -0.000199 -0.000288 -295562.000000 0 0 1
20.885375 -19.639667 10.142793 30.410387 -0.754669 1.230750 0.003711 -0.004784 391748.000000 0 0 1
19.735875 -18.928467 9.676493 29.007346 -0.764519 1.230690 -0.001140 -0.004154 341784.000000 0 0 1
19.824475 -17.386467 9.569493 28.051279 -0.719973 1.222664 -0.005732 -0.008679 -72567.500000 0 0 1
20.942875 -17.026667 8.790793 28.386431 -0.682621 1.255937 -0.001502 -0.006296 -32096.900000 0 0 1
21.038475 -15.622667 8.788193 27.639057 -0.638733 1.247216 0.002837 -0.001755 -98519.800000 0 0 1
-33.197254 25.353822 7.816193 42.496668 -0.652232 1.385818 0.002906 0.007115 322227.000000 0 0 1
-32.378574 24.564022 8.755793 41.574357 -0.649014 1.358602 0.003511 0.003348 823400.000000 0 0 1
-31.433264 25.497122 9.292993 41.527256 -0.681503 1.345105 0.005581 0.004945 -349326.000000 0 0 1
-30.425784 24.752822 10.187093 40.524158 -0.682947 1.316687 0.005015 0.000517 -790995.000000 0 0 1
-29.603294 23.948222 9.442393 39.230487 -0.680187 1.327719 0.003340 0.001557 -442725.000000 0 0 1
-29.227154 22.809122 10.120293 38.430494 -0.662680 1.304313 0.001714 -0.001230 -108195.000000 0 0 1
-28.279254 21.864322 9.383293 36.956880 -0.658158 1.314088 0.000271 -0.000850 256118.000000 0 0 1
-29.061624 21.126522 8.412593 36.900944 -0.628589 1.340796 -0.000344 -0.002955 275488.000000 0 0 1
-28.285644 20.301522 7.574593 35.631502 -0.622528 1.356580 -0.005104 -0.003448 -400926.000000 0 0 1
-28.992344 19.501422 6.453493 35.531803 -0.592127 1.388157 -0.003869 -0.002532 -445494.000000 0 0 1
-29.584134 18.318122 6.915193 35.476675 -0.554409 1.374618 -0.005178 -0.000485 212531.000000 0 0 1
-30.555874 17.903822 5.971693 35.914752 -0.530015 1.403746 -0.012095 0.000875 -93825.900000 0 0 1
-31.225854 16.574522 6.394493 35.925733 -0.487979 1.391851 -0.002611 0.002458 -628481.000000 0 0 1
-31.956084 16.716522 7.545093 36.845106 -0.481964 1.364559 -0.000939 -0.000389 -582417.000000 0 0 1
-32.857384 15.678122 7.745493 37.221014 -0.445207 1.361170 0.004590 0.001576 -399452.000000 0 0 1
-33.716154 16.038822 8.975293 38.400244 -0.444020 1.334884 0.002782 -0.006677 -360095.000000 0 0 1
-34.526172 17.158522 8.795493 39.545317 -0.461222 1.346505 -0.001324 -0.000886 -296568.000000 0 0 1
34.085292 17.248722 9.855293 39.451899 0.468473 1.318317 0.010879 -0.003126 -323396.000000 0 0 1
33.242535 18.500122 9.813493 39.288997 0.507835 1.318346 0.009712 -0.003924 -515192.000000 0 0 1
32.070575 18.484122 9.048793 38.105973 0.522854 1.331042 0.011329 -0.002686 -134023.000000 0 0 1
31.429245 19.765922 9.042493 38.213293 0.561400 1.331898 0.013384 0.002491 1063520.000000 0 0 1
29.912895 19.739322 8.597793 36.855721 0.583299 1.335344 0.010121 0.000642 1163490.000000 0 0 1
29.300915 21.047722 8.560393 37.078707 0.622922 1.337824 0.004199 -0.001931 502169.000000 0 0 1
28.013405 21.127622 7.941793 35.974982 0.646182 1.348204 0.008220 -0.008081 463697.000000 0 0 1
27.787365 20.880722 6.447193 35.351216 0.644426 1.387394 -0.004485 0.002405 -693425.000000 0 0 1
27.756935 19.462622 6.113393 34.447274 0.611518 1.392380 0.001812 -0.000628 34238.100000 0 0 1
27.546765 19.087222 4.765693 33.850526 0.605947 1.429541 -0.000889 0.001438 -181075.000000 0 0 1
26.174865 19.500922 4.202893 32.910087 0.640309 1.442738 0.000809 -0.000907 -1637090.000000 0 0 1
25.126135 18.881822 4.863393 31.804063 0.644448 1.417277 -0.003831 -0.002754 19059.100000 0 0 1
23.818775 19.192422 4.394593 30.903002 0.678249 1.428107 -0.000303 -0.006817 406471.000000 0 0 1
23.242075 20.578122 4.644093 31.388226 0.724680 1.422295 -0.000064 -0.009138 -523543.000000 0 0 1
24.008675 21.602422 3.944893 32.536799 0.732691 1.449253 0.003980 -0.007035 643883.000000 0 0 1
23.389275 22.805422 4.244593 32.941797 0.772760 1.441586 0.000426 -0.002008 -58685.300000 0 0 1
24.291975 24.050422 3.966993 34.413077 0.780401 1.455264 0.001990 -0.000249 -1933.480000 0 0 1
25.381365 24.073022 4.853993 35.316927 0.758949 1.432919 0.003378 0.003404 325360.000000 0 0 1
26.307775 25.145222 4.696693 36.693870 0.762808 1.442448 0.005094 0.005182 805765.000000 0 0 1
27.663195 24.995422 5.499593 37.686456 0.734780 1.424343 0.001402 0.003919 1585380.000000 0 0 1
28.603345 23.886222 5.211593 37.627963 0.695771 1.431846 0.004394 0.001647 1243870.000000 0 0 1
29.066215 23.774922 3.880493 37.751159 0.685595 1.467823 0.008215 0.001640 -441136.000000 0 0 1
30.080525 24.806622 3.358993 39.134247 0.689606 1.484858 0.007527 0.000412 -1218500.000000 0 0 1
29.521925 26.066322 3.269093 39.518150 0.723314 1.487978 0.006349 0.004146 -114779.000000 0 0 1
30.363605 27.039322 2.635493 40.743334 0.727551 1.506066 0.005678 0.005633 -1064930.000000 0 0 1
29.860635 28.539522 2.770093 41.398493 0.762780 1.503833 0.007837 0.011962 -34434.000000 0 0 1
28.779535 28.909922 1.966093 40.840063 0.787658 1.522636 0.004225 0.007960 -15278.100000 0 0 1
27.564815 28.347122 2.483793 39.617516 0.799389 1.508061 -0.001726 0.010624 -538211.000000 0 0 1
26.292335 28.954922 1.863493 39.155421 0.833555 1.523186 -0.003910 0.004307 -142922.000000 0 0 1
26.044435 30.149822 2.547793 39.922620 0.858326 1.506935 -0.000940 0.002121 -184635.000000 0 0 1
24.822795 30.613422 2.028293 39.464753 0.889476 1.519379 -0.001887 -0.000397 -125549.000000 0 0 1
24.499705 32.005322 2.616293 40.390855 0.917456 1.505977 -0.006982 0.001115 -346275.000000 0 0 1
24.242775 32.120022 4.011593 40.441326 0.924258 1.471438 -0.006528 -0.000657 509222.000000 0 0 1
25.365595 32.074422 4.907993 41.185803 0.901668 1.451345 -0.002159 -0.003970 405332.000000 0 0 1
24.917295 32.092122 6.419893 41.133817 0.910593 1.414082 -0.007717 -0.007052 237592.000000 0 0 1
24.352175 30.903322 7.013293 39.965360 0.903408 1.394399 -0.005725 -0.008761 76341.200000 0 0 1
25.125195 29.735722 6.826993 39.523365 0.869241 1.397193 0.007860 -0.004307 -205328.000000 0 0 1
24.396475 28.457222 7.222493 38.172842 0.862077 1.380444 0.007166 -0.002968 25944.000000 0 0 1
23.317975 28.127922 6.366293 37.086893 0.878622 1.398283 -0.002888 -0.006172 31387.300000 0 0 1
22.800575 26.834622 6.653793 35.836240 0.866494 1.384040 -0.000474 -0.005998 -426328.000000 0 0 1
21.711575 26.338122 5.690093 34.604426 0.881389 1.405614 0.003931 -0.004807 -422498.000000 0 0 1
21.910675 26.218722 4.287093 34.436583 0.874670 1.445980 0.001175 -0.006229 -130687.000000 0 0 1
22.311175 27.410522 3.623193 35.528197 0.887599 1.468638 -0.000527 -0.003974 -66778.800000 0 0 1
22.427575 27.280822 2.096293 35.378437 0.882724 1.511508 0.001428 0.002837 -298637.000000 0 0 1
23.448175 26.407022 1.742993 35.357966 0.844677 1.521481 -0.001279 0.005163 -277493.000000 0 0 1
23.220175 26.023522 0.404293 34.879273 0.842265 1.559205 0.003163 0.004130 -1197510.000000 0 0 1
24.326475 25.273322 -0.231107 35.079504 0.804486 1.577384 0.004921 0.003586 -1667600.000000 0 0 1
25.458555 26.120222 -0.466907 36.477692 0.798226 1.583596 -0.003214 0.007556 837355.000000 0 0 1
26.528305 25.526022 -1.221807 36.835059 0.766146 1.603972 -0.004738 0.007559 730282.000000 0 0 1
27.370525 24.572122 -0.331107 36.783752 0.731575 1.579798 -0.007405 0.006138 -1113190.000000 0 0 1
26.797385 23.294022 -0.316107 35.507904 0.715572 1.579699 0.000512 0.000791 256291.000000 0 0 1
27.421195 22.405922 0.593193 35.416086 0.685083 1.554046 0.002323 0.004079 -185583.000000 0 0 1
26.417215 21.386122 1.101293 34.006592 0.680539 1.538406 0.004937 -0.001788 41018.100000 0 0 1
25.886265 20.382922 0.195793 32.948453 0.667012 1.564854 0.004816 -0.010544 -67629.200000 0 0 1
24.906495 19.653222 0.830993 31.737567 0.668047 1.544610 0.016079 -0.008405 -1023860.000000 0 0 1
24.253675 18.654322 -0.149407 30.598150 0.655635 1.575679 0.004104 -0.013934 283050.000000 0 0 1
22.935075 18.274622 0.331093 29.327276 0.672785 1.559507 0.003001 -0.008403 1332190.000000 0 0 1
22.398575 17.163622 -0.379207 28.221089 0.653840 1.584234 0.005200 -0.016679 -322223.000000 0 0 1
20.921675 16.887222 -0.115407 26.886950 0.679094 1.575089 -0.004481 -0.009819 -861869.000000 0 0 1
20.185475 15.921922 -0.898007 25.724840 0.667863 1.605712 -0.006645 -0.007732 89600.000000 0 0 1
18.836175 15.907822 -0.548307 24.660919 0.701313 1.593032 0.000251 -0.008070 -452796.000000 0 1 0
17.897375 17.058522 -1.021507 24.745761 0.761405 1.612088 0.003881 -0.007267 -576182.000000 0 1 0
18.081475 18.286322 -0.275807 25.717803 0.791031 1.581521 0.002077 -0.010427 12317.600000 0 0 1
17.421875 19.355922 -0.942107 26.058799 0.837937 1.606957 -0.004237 -0.003966 23717.000000 0 0 1
17.431375 20.703922 -0.189207 27.065495 0.871003 1.577787 -0.006025 -0.005574 -655071.000000 0 0 1
16.515375 20.713922 0.862493 26.506000 0.897699 1.538251 -0.002465 -0.002682 -239579.000000 0 0 1
16.511175 21.966822 1.548193 27.523754 0.926245 1.514517 -0.004685 -0.005450 -718713.000000 0 0 1
15.588075 22.986922 0.950893 27.790122 0.974901 1.536573 -0.009556 -0.007877 -1196920.000000 0 0 1
14.303775 22.772222 1.454193 26.931148 1.009954 1.516773 -0.007922 -0.005508 -797836.000000 0 0 1
13.493575 23.896522 1.311893 27.474377 1.056762 1.523028 -0.008531 -0.001776 -551974.000000 0 0 1
12.137875 23.751922 1.987493 26.747559 1.098366 1.496422 -0.005374 -0.003404 -334344.000000 0 0 1
12.252075 23.887222 3.393593 27.059734 1.096871 1.445054 -0.005566 -0.003678 1411170.000000 0 0 1
10.914875 23.980322 3.952493 26.642307 1.143660 1.421893 -0.002158 -0.001427 1477940.000000 0 0 1
11.165775 24.375522 5.422293 27.354010 1.141249 1.371248 -0.003674 -0.000657 -266249.000000 0 0 1
11.689975 23.296222 6.210893 26.794489 1.105712 1.336871 0.000798 -0.005148 463230.000000 0 0 1
10.715675 22.603622 7.006293 25.977636 1.128108 1.297710 0.002861 -0.006067 -356413.000000 0 0 1
11.320175 21.309922 7.686293 25.324656 1.082489 1.262422 0.009303 -0.009306 -48091.200000 0 0 1
12.367875 21.433222 8.627693 26.206572 1.047429 1.235320 0.007415 -0.006987 278520.000000 0 0 1
13.582375 21.675522 7.918693 26.777133 1.011031 1.270581 0.012446 -0.001616 -241590.000000 0 0 1
14.836475 21.796422 8.841293 27.809593 0.973152 1.247259 0.009481 0.000997 107112.000000 0 0 1
15.231775 20.630022 9.561693 27.368426 0.934806 1.213898 0.016541 -0.003502 520849.000000 0 0 1
16.481375 20.711922 10.250293 28.384642 0.898656 1.201327 0.008290 0.001118 553237.000000 0 0 1
16.657275 21.799422 11.405393 29.711321 0.918322 1.176809 0.001872 0.000455 -1015640.000000 0 0 1
15.828675 21.452822 12.453793 29.425626 0.935125 1.133789 0.007069 0.003514 -646516.000000 0 0 1
16.236675 21.892222 13.756893 30.531149 0.932652 1.103375 0.006396 0.010409 -601751.000000 0 0 1
17.428575 21.242822 14.484993 31.061676 0.883712 1.085659 0.001890 0.012060 10742.400000 0 0 1
18.667975 21.669422 13.955493 31.824722 0.859670 1.116855 0.002507 0.012444 -554202.000000 0 0 1
19.708775 21.252022 14.789793 32.539548 0.823057 1.098966 0.000611 0.009896 -537875.000000 0 0 1
21.112375 21.661522 14.369093 33.487680 0.798236 1.127316 -0.003354 0.009767 -451433.000000 0 0 1
21.480875 21.179622 13.074293 32.877675 0.778337 1.161826 0.000237 0.009845 334793.000000 0 0 1
22.876875 21.358422 12.851493 33.833334 0.751085 1.181165 -0.006791 0.009492 408392.000000 0 0 1
23.334275 20.908022 11.409793 33.343922 0.730613 1.221555 -0.008400 0.007478 5008.490000 0 0 1
22.868775 21.789422 10.406093 33.257278 0.761234 1.252555 -0.002218 0.006641 83136.400000 0 0 1
23.467575 21.587322 9.173393 33.179673 0.743690 1.290671 -0.007705 0.004441 -612719.000000 0 0 1
23.120375 22.667422 8.102593 33.376875 0.775506 1.325586 -0.004092 0.001106 -63990.300000 0 0 1
23.529275 24.039422 8.337193 34.655871 0.796122 1.327842 0.000749 -0.000084 680608.000000 0 0 1
24.928405 24.269622 8.479693 35.809847 0.772009 1.331728 0.000684 -0.001754 -88080.200000 0 0 1
25.302025 25.541922 9.173093 37.104284 0.790116 1.320981 0.014155 0.001939 -103024.000000 0 0 1
26.638185 25.919722 8.882193 38.214110 0.771729 1.336219 0.006545 -0.000966 564789.000000 0 0 1
27.225515 26.933322 9.705893 39.507428 0.780003 1.322583 0.007486 -0.002376 -181114.000000 0 0 1
28.490855 27.519122 9.104793 40.643919 0.768051 1.344865 0.011774 -0.006525 -530091.000000 0 0 1
28.266185 28.241122 7.950293 40.739972 0.784955 1.374389 0.008338 -0.006313 1037270.000000 0 0 1
29.483075 28.475522 7.193093 41.615474 0.768016 1.397077 0.013471 -0.004204 772039.000000 0 0 1
29.329115 29.633222 6.150693 42.144464 0.790556 1.424330 0.019430 -0.002155 48839.600000 0 0 1
29.193395 30.916422 6.661193 43.040108 0.814055 1.415405 0.023039 -0.008597 164654.000000 0 0 1
29.443665 31.911222 5.710593 43.793451 0.825594 1.440026 0.010961 -0.003295 -3333.080000 0 0 1
29.316395 33.354322 6.313193 44.853296 0.849740 1.429575 0.010080 -0.005773 885526.000000 0 0 1
27.952845 33.693922 6.619093 44.277018 0.878259 1.420741 0.008059 -0.007000 702249.000000 0 0 1
27.839195 -34.407889 6.908793 44.795703 -0.890535 1.415949 0.004101 -0.002148 403584.000000 0 0 1
26.366475 -33.974689 7.153793 43.596413 -0.910823 1.405960 -0.001995 -0.004356 642846.000000 0 0 1
25.521705 -34.002589 6.016393 42.938683 -0.926923 1.430218 0.001459 -0.009279 -264673.000000 0 0 1
24.188475 -33.661689 6.304493 41.927774 -0.947712 1.419858 -0.002041 -0.005584 351967.000000 0 0 1
23.240875 -33.775489 5.056093 41.309636 -0.968102 1.448094 -0.001669 -0.004443 175896.000000 0 0 1
23.699775 -33.021389 3.980693 40.840389 -0.948283 1.473172 0.000777 0.002740 4183.250000 0 0 1
22.786675 -33.076089 2.897593 40.269793 -0.967548 1.498780 -0.002555 0.001451 127961.000000 0 0 1
23.393675 -32.386489 1.617293 39.984551 -0.945242 1.530337 0.003517 0.004548 252238.000000 0 0 1
23.676975 -31.020289 1.833593 39.066860 -0.918854 1.523844 0.015953 0.002177 -36624.100000 0 0 1
24.247175 -30.351689 0.748093 38.854989 -0.896742 1.551542 0.003665 0.002700 -623967.000000 0 0 1
24.449075 -28.887989 1.110193 37.861665 -0.868431 1.541470 0.002753 -0.001850 591724.000000 0 0 1
23.325575 -27.971289 1.111993 36.437782 -0.875717 1.540274 0.004370 -0.005582 712414.000000 0 0 1
22.698975 -27.681289 -0.152607 35.798331 -0.883972 1.575059 0.004258 -0.003045 -740156.000000 0 0 1
21.607275 -26.666489 -0.027007 34.321665 -0.889820 1.571583 -0.000014 -0.003124 -1139770.000000 0 0 1
21.913075 -25.310189 0.190293 33.478721 -0.857212 1.565112 -0.004893 -0.007737 -619175.000000 0 0 1
21.962875 -24.898889 1.537793 33.236837 -0.847969 1.524512 0.003937 -0.007529 -404972.000000 0 0 1
20.653775 -24.733989 2.296593 32.305154 -0.875054 1.499646 0.002178 -0.007610 -730663.000000 0 0 1
20.763575 -24.076089 3.510793 31.986087 -0.859139 1.460815 0.004693 -0.009736 -667629.000000 0 0 1
19.555175 -23.747089 4.137293 31.039431 -0.881903 1.437107 -0.003188 -0.007095 -606826.000000 0 0 1
19.589075 -22.952289 5.477393 30.668245 -0.864292 1.391231 -0.000184 -0.008010 -557348.000000 0 0 1
19.845675 -21.544089 5.469693 29.797922 -0.826410 1.386190 0.007507 -0.006459 -83414.800000 0 0 1
18.908075 -20.746489 4.754593 28.469954 -0.831726 1.403006 0.002347 -0.007894 -432445.000000 0 0 1
18.915775 -19.219389 4.975393 27.421634 -0.793360 1.388345 0.004980 -0.005521 -7991.350000 0 0 1
18.620675 -18.813789 6.297293 27.209265 -0.790557 1.337239 0.003041 -0.010267 251873.000000 0 0 1
17.262375 -18.977289 6.688493 26.511564 -0.832684 1.315755 0.001949 -0.004309 164938.000000 0 0 1
18.110046 -26.534608 -12.508307 34.474874 -0.971908 1.942093 0.005692 -0.000562 85066.600000 0 0 1
18.445146 -25.243228 -12.995207 33.857339 -0.939764 1.964729 0.002376 0.000182 102105.000000 0 0 1
17.307346 -24.642878 -13.595407 33.040139 -0.958511 1.994875 0.008349 0.001522 232203.000000 0 0 1
17.617946 -23.199478 -13.997107 32.319140 -0.921299 2.018715 0.006754 -0.003021 -14365.000000 0 0 1
17.629046 -22.312378 -12.887807 31.220523 -0.902120 1.996322 0.010464 -0.003108 -192072.000000 0 0 1
18.814346 -22.224978 -12.111707 31.537640 -0.868314 1.964964 0.005724 -0.006058 -577250.000000 0 0 1
18.883846 -23.112578 -10.824807 31.748502 -0.885753 1.918729 0.004105 -0.005437 719374.000000 0 0 1
17.933546 -22.808378 -9.756307 30.610778 -0.904484 1.895176 0.001400 0.000564 102450.000000 0 0 1
16.593646 -23.072378 -10.052707 30.145325 -0.947301 1.910783 0.006219 -0.003791 -796493.000000 0 0 1
15.724546 -22.459378 -8.922607 28.832238 -0.959981 1.885428 0.003201 0.000840 -1045410.000000 0 0 1
15.831546 -21.035978 -8.811307 27.763093 -0.925637 1.893756 0.006017 0.002150 528307.000000 0 0 1
14.947446 -20.365978 -7.874207 26.461337 -0.937652 1.872947 0.007317 0.001720 172967.000000 0 0 1
13.446246 -20.421578 -8.185207 25.784491 -0.988515 1.893832 0.001835 0.007348 -748916.000000 0 0 1
12.840146 -21.665378 -8.060707 26.443013 -1.035793 1.880560 -0.005584 0.003768 -1056990.000000 0 0 1
11.495646 -21.439578 -8.364507 25.724898 -1.078619 1.901969 -0.001014 0.001480 -434573.000000 0 0 1
10.543446 -22.627278 -8.039407 26.225751 -1.134748 1.882359 0.001769 -0.003715 -168586.000000 0 0 1
10.571946 -22.985378 -6.624807 26.153044 -1.139705 1.826896 0.003758 -0.003219 302210.000000 0 0 1
9.974246 -24.258678 -6.419107 27.003222 -1.180705 1.810810 0.003497 -0.001632 186958.000000 0 0 1
10.421246 -24.742778 -4.983607 27.306479 -1.172163 1.754331 0.005635 -0.002575 42910.300000 0 0 1
9.727646 -25.860468 -4.419707 27.980792 -1.211010 1.729416 0.014270 0.003858 -35877.100000 0 0 1
10.358046 -26.312738 -3.215207 28.460268 -1.195775 1.684010 0.007919 -0.006891 -228092.000000 0 0 1
9.447946 -27.051168 -2.263507 28.742875 -1.234779 1.649628 0.018812 -0.003744 -540871.000000 0 0 1
8.466546 -26.307658 -1.629107 27.684459 -1.259436 1.629676 0.007415 -0.002968 -561435.000000 0 0 1
7.847846 -27.077268 -0.613107 28.198281 -1.288694 1.592541 0.010851 -0.003469 453102.000000 0 0 1
7.036546 -26.305218 0.522193 27.235091 -1.309420 1.551622 0.011496 -0.001458 235892.000000 0 0 1
5.823846 -25.684158 0.210893 26.337001 -1.347818 1.562789 0.014130 -0.003453 -570088.000000 0 0 1
5.229346 -25.304588 1.431393 25.878893 -1.367009 1.515457 0.009591 -0.003355 -595076.000000 0 0 1
3.735946 -25.076698 1.243393 25.383934 -1.422903 1.521793 0.002269 -0.001225 -687623.000000 0 0 1
2.895446 -26.150338 0.972793 26.328124 -1.460522 1.533839 0.003263 -0.004462 560885.000000 0 0 1
1.519346 -25.723078 1.008493 25.787637 -1.511799 1.531679 -0.007141 -0.001248 892836.000000 0 0 1
0.565746 -26.885288 0.623293 26.898462 -1.549756 1.547622 0.000320 0.000617 -130309.000000 0 0 1
0.428546 -27.919218 1.571093 27.966672 -1.555448 1.514589 -0.000922 0.001105 -98784.900000 0 0 1
0.631746 -29.212638 0.975193 29.235737 -1.549174 1.537434 0.001704 0.002358 -79248.500000 0 0 1
0.090446 -30.387888 1.840193 30.443690 -1.567820 1.510314 0.005274 0.000966 134743.000000 0 0 1
0.532846 -30.266378 3.172193 30.436826 -1.553193 1.466385 0.006884 -0.001092 112125.000000 0 0 1
-0.152654 -31.155258 4.038193 31.416244 1.565897 1.441901 0.002144 -0.001109 -171531.000000 0 0 1
0.213046 -30.889768 5.523493 31.380442 -1.563899 1.393857 0.003496 -0.002206 -797762.000000 0 0 1
1.549146 -30.964518 5.923493 31.564046 -1.520808 1.382011 0.009331 -0.000465 -457975.000000 0 0 1
1.664046 -31.046828 7.348993 31.948119 -1.517250 1.338689 0.012227 -0.002177 -205377.000000 0 0 1
3.080546 -31.494218 7.696093 32.566937 -1.473293 1.332223 0.004085 -0.006223 -223169.000000 0 0 1
3.333746 -32.803908 7.270193 33.764863 -1.469518 1.353779 0.002858 -0.003588 1111710.000000 0 0 1
4.684346 -33.288968 7.537393 34.451572 -1.430997 1.350230 0.001384 -0.007482 1451260.000000 0 0 1
4.789446 34.663584 7.367193 35.760011 1.433496 1.363293 0.000341 -0.001760 -219779.000000 0 0 1
4.657146 34.185136 6.035693 35.024878 1.435397 1.397606 0.001947 -0.000265 -65317.000000 0 0 1
4.813346 32.827213 5.984293 33.713587 1.425207 1.392347 -0.008054 -0.001926 -400470.000000 0 0 1
5.031046 32.245953 4.572693 32.954854 1.416023 1.431591 -0.000096 0.001379 -105454.000000 0 0 1
6.366546 32.347463 4.171693 33.230923 1.376463 1.444928 0.008714 0.004179 -74193.000000 0 0 1
7.150946 31.127173 4.298093 32.225929 1.344981 1.437024 0.010019 0.007951 -33233.100000 0 0 1
8.508646 31.234903 3.596393 32.572231 1.304841 1.460158 -0.000336 0.009134 -188487.000000 0 0 1
9.433646 31.863953 4.481993 33.531976 1.282958 1.436732 0.001333 0.006091 -1293080.000000 0 0 1
10.677246 31.924993 3.916393 33.890218 1.248043 1.454976 0.000852 0.009563 -701534.000000 0 0 1
11.745446 32.571373 4.875193 34.965945 1.224704 1.430914 -0.006874 0.003078 203716.000000 0 0 1
12.116146 31.635163 5.815893 34.371632 1.205034 1.400772 -0.003953 0.003985 -279178.000000 0 0 1
13.157146 32.175603 6.595793 35.381978 1.182627 1.383283 0.002824 -0.003986 138558.000000 0 0 1
13.941346 31.137253 7.462693 34.922506 1.149825 1.355443 -0.000508 -0.001138 17716.900000 0 0 1
13.164546 30.737853 8.599893 34.526497 1.166147 1.319065 0.002215 -0.005830 478397.000000 0 0 1
13.758046 29.624293 9.188293 33.930919 1.136018 1.296578 0.001876 -0.003201 128103.000000 0 0 1
13.314246 29.513333 10.688693 34.096248 1.147006 1.251935 -0.003262 -0.000379 481768.000000 0 0 1
14.133946 30.361783 11.544393 35.424275 1.135113 1.238844 0.008560 -0.007749 532135.000000 0 0 1
13.744646 30.361713 12.872993 35.727620 1.145702 1.202197 0.004777 -0.004756 -432498.000000 0 0 1
14.403246 31.486533 13.653493 37.219257 1.141771 1.195187 0.010777 -0.004899 587280.000000 0 0 1
15.572846 30.976383 14.316393 37.510117 1.104965 1.179197 0.014513 -0.007224 397703.000000 0 0 1
16.314146 31.996703 14.917193 38.890397 1.099284 1.177137 0.014499 -0.007159 140528.000000 0 0 1
17.509746 31.534153 15.842793 39.395280 1.063921 1.156933 0.016508 -0.005328 628637.000000 0 0 1
18.663846 31.198853 15.090393 39.362768 1.031685 1.177357 0.018108 -0.006656 60180.200000 0 0 1
18.903546 29.820083 15.206793 38.442527 1.005808 1.164106 0.013722 -0.004372 19644.400000 0 0 1
20.322046 29.420683 14.718493 38.667766 0.966312 1.180308 0.016578 -0.006981 301556.000000 0 0 1
21.328946 29.794343 15.649793 39.843981 0.949497 1.167147 0.009114 -0.005462 -467060.000000 0 0 1
22.580046 29.476703 15.098793 40.083762 0.917115 1.184586 0.003487 -0.003860 -451507.000000 0 0 1
23.694946 29.397453 16.151193 41.067283 0.892395 1.166593 -0.000358 -0.003434 -379266.000000 0 0 1
23.507046 28.351743 17.067393 40.591852 0.878549 1.136840 -0.014328 -0.001427 38204.900000 0 0 1
24.302246 28.423813 18.290893 41.630146 0.863409 1.115903 -0.019297 -0.004209 -51589.300000 0 0 1
25.235446 27.131183 18.453993 41.394186 0.821584 1.108716 -0.027317 -0.008339 332824.000000 0 0 1
24.684146 25.802683 18.704993 40.310820 0.807550 1.088269 -0.026502 -0.002030 -57637.900000 0 0 1
24.234146 25.773413 20.067593 40.672729 0.816169 1.054811 -0.019123 -0.002151 -534593.000000 0 0 1
23.868346 24.295833 20.465293 39.734288 0.794274 1.029726 -0.010947 -0.002472 -1218600.000000 0 0 1
24.953946 23.462133 20.481093 39.907972 0.754596 1.031878 -0.014627 0.001138 -979061.000000 0 0 1
24.437446 22.133733 20.679193 38.919403 0.735972 1.010622 -0.006900 -0.003850 -455265.000000 0 0 1
25.415246 20.981033 20.714593 38.925991 0.690115 1.009655 -0.012085 -0.004834 -326945.000000 0 0 1
24.782246 19.698033 20.881993 37.924001 0.671589 0.987681 -0.001464 -0.006143 87634.700000 0 0 1
25.720746 18.656233 21.014893 38.095111 0.627530 0.986464 -0.004439 -0.005174 -20665.400000 0 0 1
26.286446 18.380933 22.420893 39.134797 0.610226 0.960739 -0.005957 -0.002955 -13275.000000 0 0 1
25.359246 17.731033 23.246093 38.702218 0.610185 0.926495 0.004362 -0.001845 234174.000000 0 0 1
26.021346 17.402433 24.436893 39.712930 0.589461 0.907981 0.009405 -0.002330 -58148.100000 0 0 1
25.127346 16.663933 25.456493 39.460147 0.585584 0.869617 -0.001776 -0.002613 -13665.000000 0 0 1
24.704646 15.377833 25.028293 38.382453 0.556776 0.860476 0.007541 -0.003446 375922.000000 0 0 1
23.659146 14.840933 25.818593 38.034303 0.560238 0.824637 0.010048 0.000685 29025.700000 0 0 1
22.839246 13.840133 24.947893 36.545558 0.544805 0.819411 0.003230 -0.000091 267930.000000 0 0 1
21.675646 13.364833 25.633493 36.132095 0.552524 0.782095 0.007407 -0.003958 465861.000000 0 0 1
21.097946 12.310133 24.921093 34.895896 0.528180 0.775380 0.008519 -0.000861 -697771.000000 0 0 1
19.865246 11.692333 25.531193 34.397390 0.531982 0.734386 0.008336 -0.003066 -669154.000000 0 0 1
18.654846 12.362533 25.305393 33.781628 0.585250 0.724113 -0.000050 -0.001134 98373.200000 0 0 1
17.556046 11.580333 25.764093 33.258192 0.583109 0.684605 -0.007594 0.004515 573300.000000 0 0 1
16.241146 12.369933 26.031093 33.081836 0.650910 0.665076 -0.007239 0.005744 107613.000000 0 0 1
16.207946 13.165733 27.208693 34.297915 0.682197 0.654579 -0.005846 0.002609 -377622.000000 0 0 1
14.942746 13.730733 27.389893 34.088486 0.743154 0.637655 -0.003186 0.004308 -507984.000000 0 0 1
14.588946 14.109733 28.864793 35.285948 0.768702 0.612827 -0.001626 0.007124 -233557.000000 0 0 1
14.421046 12.872833 29.615693 35.366165 0.728735 0.578284 -0.006874 0.008732 52028.300000 0 0 1
14.636446 13.050933 31.001893 36.683371 0.728196 0.564005 -0.007916 0.006122 -738430.000000 0 0 1
16.086446 13.098233 31.464193 37.687304 0.683364 0.582890 -0.004281 0.007193 -803664.000000 0 0 1
16.891646 14.131833 30.956993 37.991733 0.696673 0.618352 -0.001746 0.001487 -1107330.000000 0 0 1
18.185146 13.680033 30.872793 38.353255 0.644949 0.635190 0.001679 0.000477 -1867950.000000 0 0 1
19.119346 14.737033 30.332893 38.766144 0.656676 0.672192 0.002518 -0.002035 -1001890.000000 0 0 1
18.821646 15.329833 29.076493 37.877441 0.683507 0.695635 0.001784 0.000449 155448.000000 0 0 1
18.925646 14.482033 27.910193 36.699975 0.653163 0.706719 0.014959 -0.001832 -414318.000000 0 0 1
18.684446 15.279433 26.582493 35.905410 0.685478 0.737209 0.001240 0.000910 236806.000000 0 0 1
19.766046 16.183433 26.272693 36.644978 0.686069 0.771376 0.003079 0.001521 778093.000000 0 0 1
19.723946 16.544433 24.892093 35.810174 0.697955 0.802220 0.003687 -0.003530 868245.000000 0 0 1
20.974046 17.478133 24.527593 36.701479 0.694732 0.838875 0.005706 -0.000883 806534.000000 0 0 1
20.924746 17.990133 23.200893 36.052341 0.710130 0.871690 0.003525 -0.003145 310268.000000 0 0 1
22.140246 18.573233 22.735293 36.770219 0.698009 0.904209 0.007939 -0.001787 252398.000000 0 0 1
22.458046 20.027633 23.261593 38.033822 0.728255 0.912711 0.006941 -0.006809 -76859.000000 0 0 1
21.635046 21.048233 22.658893 37.742929 0.771651 0.926860 0.000730 -0.004218 566551.000000 0 0 1
21.869046 22.286533 23.328193 38.976266 0.794853 0.929140 0.001993 -0.002501 -61402.400000 0 0 1
20.814546 23.384933 23.002193 38.848440 0.843487 0.937133 -0.013122 -0.003959 262196.000000 0 0 1
21.128946 24.068533 21.756893 38.718071 0.850345 0.974078 -0.009441 -0.003359 -276869.000000 0 0 1
20.289746 25.163893 21.638193 38.898672 0.892223 0.980905 -0.008670 -0.003256 -542484.000000 0 0 1
20.813046 26.193803 20.561693 39.269344 0.899370 1.019717 -0.005518 -0.003160 -578103.000000 0 0 1
20.748246 25.691623 19.221693 38.210243 0.891446 1.043671 0.000056 -0.001163 10932.300000 0 0 1
21.044146 26.738693 18.335693 38.652443 0.904014 1.076544 0.004074 -0.004065 -638259.000000 0 0 1
20.961946 26.349343 16.835993 37.644942 0.898781 1.107129 0.004486 0.002442 -1454260.000000 0 0 1
19.712346 26.128833 16.263593 36.548556 0.924467 1.109638 0.005695 0.000973 -816205.000000 0 0 1
19.803946 25.696313 14.901493 35.700858 0.914183 1.140215 0.006569 0.006704 -76037.500000 0 0 1
18.460046 25.185443 14.247293 34.322954 0.938287 1.142749 0.005130 0.009183 342383.000000 0 0 1
17.428046 26.052533 14.037193 34.344054 0.981209 1.149742 0.008316 0.009328 -1041360.000000 0 0 1
16.721546 26.479783 15.162393 34.794930 1.007548 1.119909 0.007658 0.011097 -1987170.000000 0 0 1
15.253146 26.732563 14.833593 34.166121 1.052288 1.121690 0.007468 0.009018 -649588.000000 0 0 1
14.498946 25.525583 14.566293 32.771202 1.054226 1.110198 0.009048 0.009828 284760.000000 0 0 1
14.318946 24.577083 15.583793 32.433313 1.043259 1.069586 0.006087 0.011006 -872420.000000 0 0 1
13.320346 24.995183 16.655993 32.857463 1.081164 1.039192 0.010929 0.008716 -529624.000000 0 0 1
13.807946 26.105523 17.383893 34.268899 1.084275 1.038772 0.011398 0.008051 436421.000000 0 0 1
12.831146 26.683493 18.262493 34.787436 1.122574 1.018112 0.009873 0.002772 337137.000000 0 0 1
13.356246 28.017843 18.842593 36.310220 1.125958 1.025193 0.012192 -0.000847 -183196.000000 0 0 1
13.231646 29.138363 17.993693 36.713671 1.144540 1.058582 0.007890 -0.001868 -145285.000000 0 0 1
13.842546 30.284263 18.501093 38.092559 1.142064 1.063646 0.011812 -0.007895 -258417.000000 0 0 1
13.784746 31.514073 17.670993 38.670660 1.158457 1.096220 0.007567 -0.007115 -109202.000000 0 0 1
12.491146 32.062133 17.709193 38.699155 1.199295 1.095489 -0.003162 -0.007600 -33817.600000 0 0 1
12.527446 33.252083 16.893193 39.344858 1.210500 1.127010 -0.004070 -0.007234 -905921.000000 0 0 1
11.271246 34.055362 17.021093 39.705494 1.251176 1.127761 -0.004521 -0.004954 -1007890.000000 0 0 1
11.249446 -34.137312 16.416393 39.514606 -1.252468 1.142357 -0.007837 -0.003034 5253.690000 0 0 1
12.041846 -33.151138 17.125193 39.208114 -1.222375 1.118784 0.000258 0.000479 -8763.140000 0 0 1
11.874446 -32.848848 18.622093 39.583224 -1.223925 1.080991 -0.000926 -0.001694 -1129910.000000 0 0 1
12.406646 -33.829438 19.469293 40.956185 -1.219286 1.075413 0.002660 -0.005803 115542.000000 0 0 1
12.236346 -33.573528 20.819493 41.356514 -1.221294 1.043250 0.000395 -0.001179 211884.000000 0 0 1
13.366046 -34.174589 21.756193 42.660118 -1.197977 1.035624 0.003305 -0.004684 1556020.000000 0 0 1
14.604846 -33.419878 21.638893 42.407917 -1.158797 1.035314 0.007752 -0.003849 101751.000000 0 0 1
15.587946 -33.893228 22.471793 43.551308 -1.139729 1.028640 0.008302 -0.002732 -153186.000000 0 0 1
16.841746 -32.980898 22.411893 43.285991 -1.098664 1.026562 0.006366 -0.002572 250871.000000 0 0 1
16.534846 -31.730438 22.991893 42.530565 -1.090409 0.999650 0.004679 -0.004716 -3202.270000 0 0 1
17.532346 -30.824158 22.619593 42.061358 -1.053645 1.002999 0.000118 -0.005486 -567443.000000 0 0 1
-4.445354 13.303722 18.236433 23.006905 -1.248317 0.655652 -0.002155 -0.000979 -649290.000000 0 1 0
-4.022454 14.563622 17.782933 23.334779 -1.301316 0.704279 -0.000918 -0.003613 -23461.800000 0 1 0
-5.099154 15.402322 17.387933 23.781781 -1.251090 0.750797 -0.001519 -0.001107 -111793.000000 0 1 0
-4.759354 16.921622 17.380033 24.719593 -1.296621 0.791066 0.000938 -0.003606 -217439.000000 0 1 0
-4.492454 17.469222 18.700733 25.982172 -1.319087 0.767351 -0.003246 -0.004274 267713.000000 0 0 1
-4.234954 18.813022 18.595833 26.789357 -1.349379 0.803558 -0.002589 -0.004925 -778372.000000 0 0 1
-3.568154 19.463622 19.815533 28.003922 -1.389485 0.784703 -0.008105 -0.002559 -402809.000000 0 0 1
-4.440554 19.441222 20.913233 28.897110 -1.346239 0.761628 -0.015484 0.004829 -64470.100000 0 0 1
-4.145554 20.337522 21.915833 30.184502 -1.369713 0.758218 -0.004181 0.004664 -531854.000000 0 0 1
-5.212854 20.404922 23.001933 31.186914 -1.320676 0.741360 -0.002641 0.005804 -247987.000000 0 0 1
-5.451954 19.121522 23.646633 30.895302 -1.293045 0.699165 -0.005225 0.004118 114605.000000 0 0 1
-6.247854 19.209022 24.847363 32.022081 -1.256333 0.682585 -0.006774 0.006297 396246.000000 0 0 1
-5.552154 19.820822 26.136273 33.268546 -1.297679 0.667107 -0.009055 0.009139 -305573.000000 0 0 1
-5.199654 21.188622 25.896903 33.862128 -1.330153 0.700105 -0.005567 0.007718 -154551.000000 0 0 1
-4.165754 21.691622 26.689603 34.644118 -1.381062 0.691338 -0.001128 0.012360 592062.000000 0 0 1
-2.689354 21.296322 26.346423 33.983819 -1.445179 0.683664 0.003357 0.009589 232921.000000 0 0 1
-2.384154 20.058822 26.912303 33.649853 -1.452493 0.643876 0.009601 0.007393 -620998.000000 0 0 1
-1.070954 19.790322 26.524413 33.111150 -1.516734 0.641712 0.009700 0.010695 -211343.000000 0 0 1
-0.402454 18.602322 27.284183 33.024763 -1.549165 0.598515 0.003892 0.006928 -155505.000000 0 0 1
-0.720554 17.304822 26.746943 31.864950 -1.529181 0.574647 0.003736 0.003430 215347.000000 0 0 1
0.123446 16.188722 27.154793 31.614439 1.563171 0.537607 0.005764 -0.004747 23189.400000 0 0 1
1.520446 16.147722 26.504593 31.073367 1.476915 0.549151 0.002758 -0.002827 -791859.000000 0 0 1
1.494346 15.953022 25.068793 29.751914 1.477397 0.568714 0.003141 -0.004747 -138717.000000 0 0 1
0.914846 14.773422 24.570643 28.684620 1.508950 0.542193 0.006707 -0.007310 -640865.000000 0 0 1
1.116546 14.618622 23.064233 27.329648 1.494566 0.566234 -0.000240 -0.007517 -228276.000000 0 0 1
2.480446 14.490622 22.739733 27.078150 1.401263 0.573915 0.002085 -0.009170 -296364.000000 0 0 1
2.780346 13.657322 21.645733 25.744718 1.369962 0.572068 0.000073 -0.009054 809289.000000 0 0 1
4.306046 13.635722 21.276633 25.635328 1.264916 0.591737 0.002640 -0.006687 914532.000000 0 0 1
4.524446 14.814022 20.517933 25.708198 1.274378 0.646647 -0.003038 -0.008227 -186864.000000 0 0 1
5.924546 14.860522 20.323833 25.864910 1.191431 0.666859 0.003434 -0.008092 69120.000000 0 0 1
6.471246 15.905522 19.321433 25.849186 1.184394 0.726554 0.004683 -0.009796 -154079.000000 0 0 1
6.098546 15.657822 18.007833 24.630097 1.199384 0.750818 0.001260 -0.008981 -87977.800000 0 1 0
6.743146 16.553022 17.157233 24.775859 1.183956 0.805850 0.003455 -0.001994 6049.670000 0 1 0
6.711346 16.047122 15.721733 23.446219 1.174676 0.835854 0.000979 0.004029 457102.000000 0 1 0
7.708546 15.084322 15.325633 22.843675 1.098363 0.835386 0.002166 0.006113 488673.000000 0 1 0
7.592846 13.750722 15.870033 22.329165 1.066282 0.780259 -0.000072 -0.003837 -185625.000000 0 1 0
8.646546 12.831722 15.228933 21.710280 0.977843 0.793350 0.000581 -0.003384 -41015.500000 0 1 0
9.948146 13.379222 15.289733 22.621784 0.931435 0.828631 0.009509 -0.002807 -94341.600000 0 1 0
10.817746 12.570322 14.514533 22.038791 0.860193 0.851852 0.003852 -0.000158 726879.000000 0 1 0
12.282246 13.142122 14.425933 23.058111 0.819206 0.894853 0.004569 -0.002196 4645.620000 0 1 0
13.007546 12.889622 15.602933 24.058057 0.780845 0.865114 0.000139 0.002635 984273.000000 0 1 0
14.316646 13.495322 15.716933 25.181582 0.755875 0.896761 0.003105 0.005312 981503.000000 0 0 1
15.407246 13.033722 14.752733 24.998085 0.702137 0.939546 0.002848 0.002956 -1028140.000000 0 1 0
16.631646 13.695722 15.000033 26.252342 0.688891 0.962611 0.006157 0.002672 15751.000000 0 0 1
17.539246 13.462422 13.962033 26.149576 0.654645 1.007555 0.005187 0.006988 738797.000000 0 0 1
18.992646 14.073022 14.105633 27.527067 0.637698 1.032787 -0.003654 0.006919 1147560.000000 0 0 1
19.672846 13.447622 15.189533 28.259181 0.599609 1.003317 0.004034 0.003714 -628018.000000 0 0 1
20.972746 13.929222 15.278333 29.450072 0.586264 1.025364 0.001935 0.005174 -381660.000000 0 0 1
21.737046 13.384322 16.545433 30.420233 0.551911 0.995724 0.006378 0.006575 139863.000000 0 0 1
21.997546 11.988922 16.555133 30.028298 0.499005 0.986853 0.011140 -0.000130 730563.000000 0 0 1
22.796946 11.611622 17.698133 31.108752 0.471100 0.965614 0.007715 0.002940 164007.000000 0 0 1
23.066646 10.151922 17.834433 30.873916 0.414601 0.954945 0.015090 0.001159 173296.000000 0 0 1
21.982346 9.459922 18.456833 30.221984 0.406386 0.913841 0.001090 -0.005120 667339.000000 0 0 1
21.720046 8.179922 17.923033 29.324165 0.360179 0.913216 0.009256 0.006963 -386599.000000 0 0 1
20.378046 7.650222 18.429233 28.520647 0.359134 0.868239 0.002862 0.002517 -600847.000000 0 0 1
20.275846 6.262122 18.220133 27.969579 0.299553 0.861333 0.008095 -0.001260 669727.000000 0 0 1
18.971546 5.873022 18.621433 27.224432 0.300213 0.817568 0.002293 0.000621 -237880.000000 0 0 1
18.767846 4.441522 18.131433 26.470890 0.232381 0.816251 0.003207 -0.003143 -651807.000000 0 0 1
18.661146 4.368722 16.761533 25.461208 0.229966 0.852216 0.007946 -0.008600 352092.000000 0 0 1
18.743346 2.982022 16.284233 25.007633 0.157775 0.861671 0.006769 -0.003777 110002.000000 0 0 1
17.824946 1.798222 16.809433 24.566631 0.100542 0.817237 0.000617 0.002144 95122.200000 0 1 0
18.248446 1.266622 18.050533 25.698869 0.069299 0.792052 0.001646 0.001262 331539.000000 0 0 1
17.165746 0.629722 18.723033 25.408883 0.036668 0.742368 0.006296 -0.000261 -19693.300000 0 0 1
17.555946 -0.103078 19.996733 26.609983 -0.005871 0.720502 -0.002615 -0.001402 -224628.000000 0 0 1
18.188646 -1.351878 19.718633 26.860359 -0.074189 0.746432 0.003867 0.000519 39068.700000 0 0 1
17.397246 -2.527278 19.982033 26.614525 -0.144260 0.721533 -0.001893 0.001767 -172129.000000 0 0 1
17.776946 -3.820478 19.246433 26.477180 -0.211692 0.756990 0.004060 0.000373 -166672.000000 0 0 1
17.252946 -3.853378 17.935833 25.183462 -0.219740 0.778159 0.001067 0.000585 274081.000000 0 0 1
17.147746 -5.166678 17.512233 25.048315 -0.292652 0.796605 -0.001805 0.002357 -261187.000000 0 0 1
16.838646 -5.340878 16.008933 23.840112 -0.307143 0.834548 -0.008234 0.002265 -698844.000000 0 1 0
15.509546 -5.035778 15.721233 22.650877 -0.313951 0.803673 -0.002471 0.002955 -477551.000000 0 1 0
15.249146 -4.965578 14.324933 21.503421 -0.314802 0.841735 0.001768 0.002696 127654.000000 0 1 0
15.776446 -3.743078 13.580733 21.150489 -0.232950 0.873562 0.002129 0.003194 40108.600000 0 1 0
15.097946 -2.540578 13.966633 20.723642 -0.166711 0.831258 0.003273 0.006726 331739.000000 0 1 0
15.698446 -1.431878 13.334333 20.646935 -0.090960 0.868691 0.006485 0.002247 -193184.000000 0 1 0
14.721546 -0.271278 13.106033 19.712068 -0.018425 0.843472 0.008015 -0.002168 -641163.000000 0 1 0
15.216146 0.987022 12.829433 19.927360 0.064776 0.871329 0.010480 0.001672 126398.000000 0 1 0
15.879146 1.724022 13.888733 21.166399 0.108148 0.855066 0.005866 0.003555 1565.060000 0 1 0
16.187546 3.124922 13.355833 21.217447 0.190699 0.889920 0.004279 0.003008 -389918.000000 0 1 0
15.080546 3.984022 13.286933 20.489946 0.258282 0.865235 0.003023 -0.002662 134013.000000 0 1 0
15.362646 5.218122 12.586433 20.534312 0.327436 0.911012 0.008701 -0.007145 745578.000000 0 1 0
14.143046 6.204922 12.739733 20.020679 0.413439 0.881067 0.008269 -0.012513 457507.000000 0 1 0
14.458546 7.340922 12.032433 20.192031 0.469806 0.932410 0.002172 -0.016875 56333.600000 0 1 0
13.592546 8.411322 12.299333 20.168818 0.554142 0.914964 0.004199 -0.010135 -357531.000000 0 1 0
13.801746 9.201622 13.660933 21.489047 0.588026 0.881860 0.022745 -0.009549 -60458.700000 0 1 0
13.230446 8.713722 14.841733 21.708309 0.582405 0.817991 0.001245 -0.008005 263517.000000 0 1 0
13.751046 9.436622 15.894233 23.038397 0.601436 0.809443 0.002629 -0.011213 -660101.000000 0 1 0
13.264446 8.967222 17.270333 23.550393 0.594460 0.747582 0.000253 -0.011026 178736.000000 0 1 0
11.893646 9.322922 17.458733 23.090757 0.664820 0.713475 0.002675 -0.011007 462760.000000 0 1 0
11.207546 8.702522 18.577233 23.376410 0.660239 0.652283 0.000170 0.000044 183389.000000 0 1 0
11.675046 8.860222 20.040833 24.828315 0.649174 0.631443 -0.000960 0.000320 -370298.000000 0 1 0
12.938346 8.293222 20.318633 25.475973 0.570008 0.647556 -0.002828 -0.000327 77750.900000 0 0 1
13.320446 8.606722 21.628533 26.819832 0.573649 0.632693 -0.004069 0.004729 -788739.000000 0 0 1
14.760246 8.287522 22.015633 27.771136 0.511611 0.655485 -0.002143 0.001079 -146113.000000 0 0 1
15.711546 9.132522 21.385833 28.064381 0.526527 0.704358 0.000460 0.002656 244779.000000 0 0 1
16.406646 8.563322 20.297433 27.468060 0.481047 0.739291 -0.000102 -0.000916 -447300.000000 0 0 1
17.053446 9.616222 19.453833 27.599699 0.513443 0.788575 -0.002794 -0.000296 -26237.300000 0 0 1
18.084646 10.332822 20.120433 28.959514 0.519094 0.802685 0.000093 0.002597 481204.000000 0 0 1
18.740946 11.308922 19.330933 29.202735 0.542941 0.847371 0.001866 0.000251 -115392.000000 0 0 1
19.759746 12.185922 20.054133 30.677557 0.552612 0.858324 0.004476 -0.001612 -575240.000000 0 0 1
19.183746 13.186522 20.862833 31.259531 0.602206 0.840075 0.001168 -0.000568 429824.000000 0 0 1
20.034146 13.818322 21.851633 32.707903 0.603806 0.839165 0.004103 0.002101 261440.000000 0 0 1
21.119746 14.810722 21.348833 33.483934 0.611580 0.879438 0.004792 -0.000515 147182.000000 0 0 1
22.355846 14.267022 20.984233 33.818187 0.568020 0.901414 0.005919 -0.002981 -391444.000000 0 0 1
23.462146 15.080822 21.273833 35.078191 0.571278 0.919184 0.006768 -0.002539 716041.000000 0 0 1
24.776046 14.208522 21.411433 35.695714 0.520690 0.927505 0.005993 -0.002889 392335.000000 0 0 1
25.321346 13.849622 20.203933 35.230406 0.500502 0.960049 0.007531 -0.002400 426356.000000 0 0 1
26.501046 13.055922 20.412833 35.908861 0.457756 0.966161 0.001545 -0.001059 517044.000000 0 0 1
26.813146 12.192622 19.152533 35.134376 0.426777 0.994261 0.000859 0.000451 -193332.000000 0 0 1
27.416946 13.019522 18.184433 35.381782 0.443343 1.031014 0.000091 -0.000108 20586.100000 0 0 1
27.779346 12.271222 17.045133 34.825443 0.415963 1.059343 -0.003192 -0.002479 236558.000000 0 0 1
26.640846 11.855122 16.044333 33.282115 0.418686 1.067780 -0.000372 -0.000875 650752.000000 0 0 1
26.009046 12.960722 15.341733 32.860608 0.462299 1.085045 -0.006105 0.002374 582478.000000 0 0 1
24.919646 12.488222 14.558933 31.446891 0.464559 1.089455 -0.000489 -0.000414 219835.000000 0 0 1
24.512346 13.335522 13.298033 30.911631 0.498250 1.126087 -0.006376 0.002524 -219860.000000 0 0 1
23.775746 14.465222 13.617833 30.983449 0.546575 1.115733 -0.004506 0.003465 -18265.100000 0 0 1
23.730146 15.292822 12.505333 30.876748 0.572462 1.153809 -0.002599 0.004107 -155000.000000 0 0 1
22.940046 16.589822 12.762833 31.054111 0.626115 1.147260 -0.001122 0.009759 -871597.000000 0 0 1
21.561646 16.431022 12.878333 30.012239 0.651168 1.127297 -0.002932 0.000798 -641422.000000 0 0 1
21.040446 17.660222 13.354533 30.543860 0.698276 1.118286 0.003555 0.003513 -469080.000000 0 0 1
20.268746 18.412422 12.165033 29.963768 0.737445 1.152733 -0.005883 0.009194 -84377.000000 0 0 1
19.099746 17.803522 11.703833 28.613727 0.750288 1.149407 0.002689 0.004533 116070.000000 0 0 1
17.966946 17.739222 12.562633 28.201257 0.779021 1.109104 0.003408 0.009472 172981.000000 0 0 1
16.659546 17.336522 11.816233 26.790275 0.805309 1.114012 0.009870 0.007323 135209.000000 0 0 1
16.626946 15.971722 11.667033 25.839328 0.765301 1.102326 0.008408 0.006227 671948.000000 0 0 1
15.393446 15.569322 11.070133 24.533850 0.791078 1.102666 0.007732 0.001215 518564.000000 0 1 0
15.630946 14.242622 10.282133 23.513847 0.738958 1.118224 0.009358 -0.002930 -277346.000000 0 1 0
15.779046 13.102322 11.124333 23.332379 0.692982 1.073812 0.022184 -0.005223 427478.000000 0 1 0
16.289046 11.999522 10.384933 22.741336 0.634910 1.096565 0.022324 -0.003242 -104947.000000 0 1 0
16.452646 10.711722 11.202933 22.603899 0.577123 1.052248 0.004957 -0.002919 -617591.000000 0 1 0
17.040646 9.683522 10.426033 22.200369 0.516754 1.081921 0.000274 -0.003580 464564.000000 0 1 0
17.443346 8.469822 11.056433 22.321580 0.452030 1.052588 -0.011687 -0.005595 -10758.300000 0 1 0
18.718946 8.591722 11.897033 23.785626 0.430301 1.046993 -0.008250 -0.003903 -587465.000000 0 1 0
18.411046 9.286822 13.069533 24.413610 0.467174 1.005888 -0.007215 -0.006350 91159.300000 0 1 0
19.530846 9.603322 13.862733 25.804130 0.456986 1.003648 0.000311 -0.004013 -975931.000000 0 0 1
19.075446 9.917222 15.296233 26.385577 0.479436 0.952412 0.000002 0.000767 75016.300000 0 0 1
18.585346 8.760622 15.953833 26.013235 0.440485 0.910569 0.001392 -0.005154 681466.000000 0 0 1
17.227646 8.487222 15.632533 24.762892 0.457751 0.887583 -0.000717 -0.009908 -813031.000000 0 1 0
16.779546 7.031222 15.847833 24.127682 0.396808 0.854187 -0.000222 -0.004056 148520.000000 0 1 0
15.668546 6.993122 16.752433 23.980223 0.419786 0.797366 -0.003035 -0.007138 215725.000000 0 1 0
15.353346 5.655422 17.099333 23.666352 0.352929 0.763361 0.001183 0.001333 -681080.000000 0 1 0
13.989846 5.425422 17.800033 23.280725 0.369955 0.700403 -0.008235 0.000283 13415.300000 0 1 0
13.531846 4.116522 17.924433 22.832913 0.295315 0.668058 -0.003277 -0.001733 139511.000000 0 1 0
13.260146 3.497322 16.688133 21.599919 0.257874 0.687868 0.004537 -0.000943 -829698.000000 0 1 0
13.053046 1.986122 16.836133 21.395842 0.151000 0.665047 0.003004 -0.001039 -531453.000000 0 1 0
14.190546 1.223622 17.143133 22.288021 0.086015 0.693265 -0.001814 0.004966 -137435.000000 0 1 0
14.048446 -0.174278 17.008433 22.060734 -0.012405 0.690414 -0.000627 0.008007 -484298.000000 0 1 0
13.038246 -0.968278 17.858733 22.132957 -0.074128 0.631938 -0.004069 0.005618 177725.000000 0 1 0
11.690946 -0.729478 17.486333 21.047142 -0.062316 0.590221 -0.002785 -0.000619 -25802.100000 0 1 0
10.840446 -1.530578 18.316333 21.338838 -0.140264 0.538738 -0.000773 -0.001936 172139.000000 0 1 0
-24.979754 14.031022 29.219373 40.922237 -0.511778 0.775570 0.001205 0.000343 -19696.200000 0 0 1
-23.928254 14.075422 30.176643 41.003764 -0.531723 0.743730 -0.002733 0.003178 454628.000000 0 0 1
-23.254654 12.842122 30.304583 40.299712 -0.504560 0.719735 -0.005290 -0.000867 -792879.000000 0 0 1
-22.097954 12.909222 31.251233 40.393157 -0.528707 0.686173 -0.003613 0.000214 -763015.000000 0 0 1
-22.579754 12.929222 32.603813 41.713532 -0.520031 0.673550 -0.003393 -0.002823 483492.000000 0 0 1
-21.514354 12.856022 33.556582 41.883039 -0.538620 0.641503 -0.001697 0.001833 -105432.000000 0 0 1
-21.898454 13.052122 -34.368477 42.791266 -0.537495 2.503386 -0.000135 0.006469 212701.000000 0 0 1
-22.532354 11.889822 -33.763537 42.297178 -0.485544 2.495173 -0.003639 0.001783 482433.000000 0 0 1
-23.331754 12.183522 -32.620987 41.915841 -0.481239 2.462670 0.001580 0.005693 82559.800000 0 0 1
-24.238854 11.006122 -32.165437 41.752510 -0.426233 2.450238 0.006443 -0.000710 -256247.000000 0 0 1
-23.663154 9.923622 -31.451877 40.591178 -0.397093 2.457266 0.001810 -0.003541 112694.000000 0 0 1
-22.763254 9.109722 -32.185727 40.460769 -0.380674 2.490595 -0.001522 -0.004144 -184702.000000 0 0 1
-21.999154 8.145122 -31.284757 39.102964 -0.354597 2.498193 0.005450 -0.004098 -273616.000000 0 0 1
-22.805654 7.154022 -30.636777 38.857303 -0.303973 2.479070 -0.000158 -0.006238 216872.000000 0 0 1
-22.128054 6.526622 -29.574967 37.509016 -0.286815 2.479124 -0.001349 -0.001806 -234944.000000 0 0 1
-23.056754 5.804522 -28.577427 37.174934 -0.246624 2.447647 0.000316 -0.000215 -80668.800000 0 0 1
-23.652754 4.624322 -29.073397 37.763733 -0.193073 2.449443 -0.003908 -0.004182 -12780.500000 0 0 1
-23.739654 3.623022 -28.054897 36.929321 -0.151446 2.433635 -0.002128 0.003134 -309905.000000 0 0 1
-24.511354 2.359222 -28.639957 37.770618 -0.095955 2.431437 0.002155 0.005016 758194.000000 0 0 1
-25.924154 2.475622 -28.714887 38.765129 -0.095206 2.404968 0.002920 -0.002386 540483.000000 0 0 1
-26.354334 3.356422 -29.821107 39.938890 -0.126676 2.413836 0.002939 -0.002139 -1140070.000000 0 0 1
-27.668964 2.982222 -30.480237 41.273600 -0.107368 2.401628 0.005061 -0.003417 -971813.000000 0 0 1
-28.778494 3.201522 -29.680167 41.465212 -0.110791 2.368544 0.007541 -0.010083 132190.000000 0 0 1
-30.014684 3.612022 -30.285897 42.792097 -0.119766 2.357098 0.012440 -0.002178 992006.000000 0 0 1
-30.083784 5.082922 -30.863137 43.398196 -0.167378 2.361946 0.009175 0.000408 -655543.000000 0 0 1
-29.268264 5.244422 -31.990217 43.675041 -0.177303 2.392725 0.008879 -0.001865 -92212.500000 0 0 1
-29.325274 6.524722 -32.663587 44.378527 -0.218929 2.397972 0.010242 -0.003700 -470557.000000 0 0 1
-28.814084 7.839722 -31.988737 43.760622 -0.265649 2.390573 0.002011 -0.007318 506392.000000 0 0 1
-27.373664 7.867122 -31.913197 42.774540 -0.279855 2.412951 -0.005472 -0.004445 1093850.000000 0 0 1
-26.857484 7.584222 -30.605217 41.418887 -0.275221 2.402261 -0.011494 -0.011011 -389424.000000 0 0 1
-27.054304 8.735722 -29.542107 40.999809 -0.312328 2.375381 -0.012834 -0.008223 246841.000000 0 0 1
-28.370724 8.918722 -29.009857 41.545318 -0.304582 2.343774 -0.007144 -0.010034 728704.000000 0 0 1
-28.729564 7.891322 -28.114237 40.964267 -0.268065 2.327201 -0.000395 -0.002987 185550.000000 0 0 1
-29.993944 8.151822 -27.218427 41.315030 -0.265372 2.290022 -0.006675 -0.005740 503490.000000 0 0 1
-29.796294 8.973422 -26.105867 40.618441 -0.292520 2.268826 -0.003870 -0.006362 -130038.000000 0 0 1
-29.314704 8.299122 -24.947007 39.377411 -0.275885 2.256911 -0.004628 -0.000003 -246404.000000 0 0 1
-28.788284 9.300922 -23.872107 38.537643 -0.312494 2.238837 -0.010318 -0.007924 -469684.000000 0 0 1
-29.717664 10.147222 -23.198807 39.042161 -0.329041 2.207066 -0.005993 -0.002201 586954.000000 0 0 1
-28.987934 11.150622 -22.475907 38.338011 -0.367216 2.197226 -0.006606 -0.001104 76195.200000 0 0 1
-29.942454 11.963922 -21.620407 38.821746 -0.380130 2.161463 0.000682 0.000403 -249314.000000 0 0 1
-30.446154 11.309122 -20.458307 38.384982 -0.355652 2.132911 -0.010375 0.000530 709461.000000 0 0 1
-31.344664 12.164222 -19.718007 38.977636 -0.370188 2.101198 -0.002946 -0.000476 353297.000000 0 0 1
-30.653004 13.329022 -18.926907 38.412203 -0.410172 2.086022 -0.003235 -0.001441 -181740.000000 0 0 1
-29.961614 12.975822 -17.738407 37.158059 -0.408696 2.068464 -0.001930 -0.000749 247378.000000 0 0 1
-30.743084 12.572022 -16.606007 37.134249 -0.388188 2.034416 -0.005363 -0.001557 -254943.000000 0 0 1
-31.358824 13.733122 -15.763007 37.688816 -0.412775 2.002304 -0.016212 0.000482 129037.000000 0 0 1
-32.427404 14.455322 -16.371107 39.096113 -0.419335 2.002854 -0.012016 -0.002708 366291.000000 0 0 1
-33.172774 15.159922 -15.399507 39.590415 -0.428659 1.970310 -0.013597 0.002774 -159974.000000 0 0 1
-33.951704 16.280122 -16.097207 40.949733 -0.447120 1.974793 -0.006104 -0.001026 -391196.000000 0 0 1
-34.733859 15.706422 -17.102807 41.780841 -0.424676 1.992533 -0.008428 -0.001219 -163145.000000 0 0 1
34.025609 16.596022 -17.828807 41.845387 0.453800 2.010934 -0.009877 0.002811 -796267.000000 0 0 1
33.542177 16.151122 -19.162207 41.870354 0.448752 2.046153 -0.015462 0.005187 32733.700000 0 0 1
32.432515 15.267522 -19.227807 40.677682 0.439973 2.063134 -0.009623 -0.000643 439041.000000 0 0 1
31.191695 15.924622 -19.333907 40.003942 0.472044 2.075217 -0.002283 -0.002314 -31386.700000 0 0 1
29.952295 15.000222 -19.570607 38.796331 0.464290 2.099535 0.000648 -0.002698 248771.000000 0 0 1
29.926525 14.518322 -20.941007 39.305271 0.451683 2.132677 -0.005022 0.000977 208397.000000 0 0 1
29.273965 13.261822 -21.113607 38.452898 0.425366 2.152056 -0.004059 -0.000245 -259360.000000 0 0 1
29.953545 11.947122 -20.678907 38.308821 0.379519 2.140990 -0.000630 0.001261 -302757.000000 0 0 1
29.910525 11.679122 -19.266407 37.446440 0.372263 2.111227 -0.004941 0.000583 -188004.000000 0 0 1
30.904365 10.758022 -18.925807 37.802129 0.334987 2.095151 -0.009545 0.004045 -522489.000000 0 0 1
31.062865 10.665522 -17.398807 37.166832 0.330741 2.057967 -0.008974 0.006575 502752.000000 0 0 1
29.877235 10.230022 -16.701407 35.724495 0.329890 2.057263 -0.003255 0.000287 819708.000000 0 0 1
30.129145 9.935322 -15.324907 35.232496 0.318529 2.020796 -0.017295 -0.002322 -325280.000000 0 0 1
29.726335 11.059622 -14.326107 34.802408 0.356180 1.995051 -0.010853 -0.000387 -239462.000000 0 0 1
28.325775 11.243822 -14.302207 33.664910 0.377871 2.009582 -0.006774 0.004282 104005.000000 0 0 1
28.013275 12.331622 -13.494307 33.450094 0.414680 1.986044 -0.009572 -0.002168 -847385.000000 0 0 1
26.515585 12.609722 -13.471607 32.304265 0.443904 2.000963 -0.003066 -0.000369 -1072190.000000 0 0 1
25.903795 11.525122 -12.849307 31.127797 0.418622 1.996314 -0.015814 -0.001870 400962.000000 0 0 1
24.540205 11.389722 -13.288607 30.141906 0.434538 2.027362 -0.007778 -0.003074 170496.000000 0 0 1
24.341875 10.547122 -14.610707 30.285994 0.408872 2.074217 -0.001447 0.000063 -654945.000000 0 0 1
24.818585 9.253922 -14.401407 30.149590 0.356895 2.068791 -0.007135 0.001685 979601.000000 0 0 1
26.064245 8.954022 -15.062007 31.406742 0.330905 2.070971 -0.006061 0.004927 627933.000000 0 0 1
26.954955 7.830222 -14.431407 31.561804 0.282712 2.045689 -0.001518 0.000383 -333278.000000 0 0 1
26.447435 6.546122 -14.378007 30.806584 0.242638 2.056373 -0.009737 -0.001956 217619.000000 0 0 1
25.501715 6.201822 -13.385007 29.461135 0.238561 2.042414 0.005162 -0.004113 -46534.500000 0 0 1
25.181215 4.685322 -13.350507 28.883938 0.183961 2.051285 0.002430 -0.001607 167052.000000 0 0 1
24.587725 4.194322 -12.114307 27.729136 0.168960 2.022924 -0.003929 -0.005155 347192.000000 0 0 1
24.061475 2.885722 -12.308407 27.180487 0.119361 2.040744 0.000752 0.001841 -374322.000000 0 0 1
23.353775 2.409122 -11.008607 25.930525 0.102794 2.009253 0.008908 -0.000387 -487118.000000 0 0 1
24.023175 2.122422 -9.783007 26.025465 0.088120 1.956166 0.005432 0.002360 -29621.400000 0 0 1
23.131475 2.017322 -8.718307 24.802089 0.086991 1.929985 -0.000494 0.000045 -637267.000000 0 1 0
23.842575 1.455222 -7.453207 25.022717 0.060959 1.873244 0.001341 0.000004 -97278.000000 0 0 1
24.199875 0.075722 -7.309807 25.279893 0.003129 1.864140 0.005262 -0.004267 837432.000000 0 0 1
24.890185 -0.611178 -8.360807 26.264005 -0.024550 1.894771 0.006784 -0.000837 -381428.000000 0 0 1
25.111035 -2.093278 -7.965507 26.427168 -0.083169 1.876971 0.010618 -0.004220 -285400.000000 0 0 1
26.032955 -2.211178 -6.894407 27.021046 -0.084734 1.828799 0.005169 -0.000784 451059.000000 0 0 1
26.018605 -3.575378 -6.450207 27.043600 -0.136561 1.811629 0.000003 -0.001698 69993.200000 0 0 1
27.261935 -3.793978 -5.516907 28.072115 -0.138279 1.768610 -0.004979 0.003372 711881.000000 0 0 1
28.461315 -4.002678 -6.260807 29.415397 -0.139719 1.785278 0.003457 0.004096 351617.000000 0 0 1
29.497295 -4.554178 -5.473007 30.344435 -0.153184 1.752152 -0.001513 0.004939 -868754.000000 0 0 1
30.613195 -4.972678 -6.410007 31.669914 -0.161029 1.774605 -0.004923 0.004749 -770378.000000 0 0 1
30.293345 -6.022678 -7.368907 31.753113 -0.196253 1.805000 -0.006986 0.003488 86185.800000 0 0 1
31.154095 -5.988678 -8.473307 32.836547 -0.189911 1.831794 -0.007391 0.000369 -856108.000000 0 0 1
30.671415 -7.030478 -9.561207 32.887384 -0.225327 1.865782 -0.001763 -0.002771 299887.000000 0 0 1
29.460985 -6.612178 -10.162007 31.858075 -0.220780 1.895447 0.010364 -0.001404 322792.000000 0 0 1
28.305745 -7.064678 -9.482607 30.676452 -0.244588 1.885061 0.009603 0.001420 -152349.000000 0 0 1
27.107475 -6.076778 -9.390407 29.324430 -0.220528 1.896763 0.011627 0.001050 -164724.000000 0 0 1
26.429615 -5.840278 -10.663707 29.092062 -0.217480 1.946095 0.012868 -0.000970 1732000.000000 0 0 1
25.092425 -5.329078 -10.464907 27.704569 -0.209269 1.958142 0.014550 0.001651 1620930.000000 0 0 1
23.962775 -6.267678 -9.902607 26.675082 -0.255828 1.951130 0.019618 0.002799 -663911.000000 0 0 1
23.963975 -6.477878 -8.523207 26.246525 -0.264008 1.901530 0.012480 -0.003408 331165.000000 0 0 1
22.835675 -7.173978 -8.023007 25.244854 -0.304393 1.894213 0.010136 -0.005977 -513309.000000 0 0 1
21.872275 -6.160978 -7.336307 23.878347 -0.274566 1.883084 0.014342 -0.003704 -335068.000000 0 1 0
21.316675 -5.410578 -8.441507 23.557038 -0.248570 1.937289 0.005970 -0.005944 311729.000000 0 1 0
20.884275 -4.126978 -7.991707 22.738784 -0.195098 1.929923 -0.016404 -0.002749 -274163.000000 0 1 0
20.857775 -3.116678 -9.157807 22.991866 -0.148328 1.980466 -0.012844 0.000265 -1143190.000000 0 1 0
22.073175 -2.984178 -9.772507 24.323492 -0.134380 1.984248 0.004184 0.001171 -489511.000000 0 1 0
21.951075 -1.943578 -10.721307 24.506604 -0.088311 2.023598 0.004813 -0.001916 95477.300000 0 1 0
23.045375 -1.870978 -11.850607 25.981277 -0.081009 2.044428 0.009666 0.001915 30523.500000 0 0 1
24.256175 -1.374878 -11.362807 26.820994 -0.056621 2.008271 0.010051 0.000240 449461.000000 0 0 1
25.372025 -1.568078 -12.226507 28.207907 -0.061725 2.019106 0.008134 0.002489 546785.000000 0 0 1
26.501065 -0.541278 -11.946307 29.074279 -0.020422 1.994226 0.009506 0.000544 1385420.000000 0 0 1
27.806825 -0.795778 -12.568707 30.525812 -0.028610 1.995159 0.008381 0.001249 1839920.000000 0 0 1
28.786145 0.174222 -12.286007 31.298857 0.006052 1.974186 0.000005 -0.002539 -191046.000000 0 0 1
28.676415 1.543922 -13.050607 31.544236 0.053787 1.997337 0.000366 -0.003933 -609820.000000 0 0 1
28.831355 1.355522 -14.413707 32.262043 0.046981 2.033948 -0.003127 -0.000969 282237.000000 0 0 1
29.085685 2.548122 -15.063707 32.853999 0.087384 2.047108 0.000777 -0.000092 -446745.000000 0 0 1
29.212505 2.286922 -16.578407 33.666661 0.078126 2.085674 -0.006487 -0.000704 19779.700000 0 0 1
28.010575 1.956322 -17.264607 32.961890 0.069729 2.122073 -0.003275 0.010173 310663.000000 0 0 1
28.298625 1.800822 -18.642907 33.935426 0.063551 2.152399 -0.006580 0.003437 -336324.000000 0 0 1
27.253885 0.970422 -19.381907 33.457052 0.035592 2.188675 0.002396 0.006769 -400640.000000 0 0 1
27.247485 -0.399978 -19.180307 33.323709 -0.014678 2.184104 0.008822 0.003412 76025.300000 0 0 1
26.835355 -1.056678 -20.388807 33.718783 -0.039356 2.220150 0.015656 0.004609 -63707.200000 0 0 1
26.753475 -2.584878 -20.402307 33.744395 -0.096319 2.220077 0.011504 0.001221 280636.000000 0 0 1
25.585285 -3.040378 -19.722807 32.447494 -0.118278 2.224131 0.013342 0.001979 497422.000000 0 0 1
25.302805 -4.458178 -19.797507 32.435298 -0.174403 2.227323 0.007262 -0.002409 -351347.000000 0 0 1
25.964945 -5.413478 -18.811307 32.516909 -0.205547 2.187695 0.010584 -0.006084 -1467860.000000 0 0 1
27.320735 -5.416178 -18.969307 33.698548 -0.195707 2.168701 0.014177 -0.004570 -1399530.000000 0 0 1
28.029805 -5.900278 -17.851307 33.751332 -0.207471 2.128108 0.008436 -0.005414 -67209.300000 0 0 1
29.558065 -5.777478 -17.953007 35.062358 -0.193028 2.108344 0.004220 0.006789 -216279.000000 0 0 1
30.175265 -6.666978 -18.871007 36.209255 -0.217448 2.119012 0.003938 -0.001653 603581.000000 0 0 1
31.481735 -6.142378 -19.197107 37.381244 -0.192689 2.110112 -0.000317 0.002307 573716.000000 0 0 1
32.257015 -7.233278 -19.974307 38.623934 -0.220590 2.114312 0.000699 -0.000237 -574783.000000 0 0 1
32.550495 -8.241878 -19.013107 38.587064 -0.247991 2.086024 0.004314 0.001463 -192010.000000 0 0 1
33.086905 -9.411678 -19.627407 39.605026 -0.277133 2.089297 0.002197 0.004414 -278095.000000 0 0 1
33.681143 -10.385278 -18.593407 39.849570 -0.299091 2.056228 0.002641 0.005044 -547428.000000 0 0 1
32.806815 -10.697678 -17.530707 38.704691 -0.315209 2.040851 0.003895 0.003669 87346.300000 0 0 1
33.361115 -11.413878 -16.410207 38.891330 -0.329648 2.006392 0.006530 0.002053 171640.000000 0 0 1
34.522861 -10.778578 -15.545307 39.365749 -0.302626 1.976749 0.004538 0.000682 493749.000000 0 0 1
-34.417244 -11.604778 -14.562907 39.131775 0.325208 1.952121 0.001223 0.003218 492708.000000 0 0 1
-33.808974 -12.871478 -14.852407 39.106466 0.363769 1.960370 0.002259 0.002869 -467205.000000 0 0 1
-32.434304 -12.876078 -15.523707 38.193756 0.377908 1.989357 -0.001318 0.003109 -646228.000000 0 0 1
-32.547934 -12.568378 -16.861407 38.750990 0.368510 2.020970 -0.000407 0.004851 1146240.000000 0 0 1
-31.225394 -12.639178 -17.447807 37.936790 0.384614 2.048699 -0.002291 0.006700 1093870.000000 0 0 1
-30.952114 -11.599878 -18.509007 37.883689 0.358568 2.081252 0.003321 0.008046 82970.400000 0 0 1
-31.038214 -10.259478 -18.117407 37.374698 0.319238 2.076874 0.003749 0.005635 617866.000000 0 0 1
-31.912214 -9.545178 -19.014407 38.354237 0.290638 2.089503 0.007279 0.004224 356533.000000 0 0 1
-32.513614 -8.226978 -18.424807 38.266066 0.247830 2.073153 0.001800 -0.001522 -61294.700000 0 0 1
-33.590204 -7.703078 -19.149507 39.425155 0.225427 2.077981 0.000978 0.002422 -444891.000000 0 0 1
-34.147276 -6.618578 -18.498407 39.395852 0.191451 2.059580 0.001944 0.001081 -647223.000000 0 0 1
23.056446 28.164822 -27.479427 45.606752 0.884801 2.217463 -0.001172 0.004309 87660.600000 0 0 1
23.658946 27.111622 -26.691227 44.801868 0.853299 2.209010 -0.001191 0.006031 204659.000000 0 0 1
24.819346 26.645022 -27.365827 45.550473 0.820858 2.215273 -0.005139 0.004214 -175894.000000 0 0 1
25.541746 25.619522 -26.488797 44.837452 0.786918 2.202814 0.003360 0.004056 -822684.000000 0 0 1
26.081446 26.138022 -25.262907 44.739831 0.786482 2.170821 0.000873 0.008522 368485.000000 0 0 1
26.461146 25.111322 -24.363507 43.867428 0.759231 2.159628 0.001819 0.010947 63349.100000 0 0 1
27.115546 25.588022 -22.998207 43.805447 0.756423 2.123521 -0.000894 0.005955 372556.000000 0 0 1
26.193646 26.206022 -22.118407 43.151901 0.785634 2.108973 0.005988 0.005226 131571.000000 0 0 1
26.930046 26.865922 -21.136607 43.517368 0.784206 2.077966 0.000943 0.002454 147302.000000 0 0 1
26.153146 28.044722 -20.485807 43.475991 0.820285 2.061445 0.008724 0.002006 -129386.000000 0 0 1
25.366746 27.673122 -19.398507 42.256071 0.828855 2.047745 0.013367 0.000095 -203229.000000 0 0 1
24.602846 28.759622 -18.944507 42.323873 0.863138 2.034885 0.013462 0.002187 -84079.300000 0 0 1
23.685446 28.433422 -17.761807 41.048040 0.876246 2.018290 0.013875 0.002761 -45051.200000 0 0 1
22.635046 27.531922 -18.008707 39.933264 0.882701 2.038648 0.012501 0.006089 56402.700000 0 0 1
21.481346 27.822222 -17.235607 39.148313 0.913305 2.026689 0.010844 0.002031 175449.000000 0 0 1
20.361746 26.829422 -17.635707 38.018900 0.921602 2.053151 -0.001782 0.014310 -218005.000000 0 0 1
19.847046 26.998722 -18.952807 38.497339 0.936893 2.085543 0.002596 0.011785 -360229.000000 0 0 1
18.924946 26.041922 -19.339607 37.554702 0.942368 2.111771 -0.001013 0.014214 -274592.000000 0 0 1
18.321646 26.242522 -20.787407 38.163713 0.961302 2.146816 -0.001746 0.013680 907457.000000 0 0 1
17.314846 27.276122 -20.822707 38.436647 1.005182 2.143303 -0.007756 0.017100 45204.000000 0 0 1
16.416646 27.153022 -21.906107 38.557365 1.027003 2.175044 -0.007145 0.013118 -77324.500000 0 0 1
15.293546 28.190922 -21.699807 38.723407 1.073730 2.165640 -0.001551 0.015849 -172441.000000 0 0 1
14.430046 27.826122 -20.655507 37.538903 1.092396 2.153451 0.001813 0.016555 22109.000000 0 0 1
13.346446 28.708122 -20.395307 37.659692 1.135620 2.143098 -0.006894 0.015031 412648.000000 0 0 1
13.048246 28.828122 -18.881207 36.848573 1.145764 2.108774 -0.008531 0.012024 -221326.000000 0 0 1
12.428746 27.691522 -18.393307 35.490955 1.148917 2.115604 -0.004887 0.015966 -375845.000000 0 0 1
11.973346 27.900822 -17.054407 34.823407 1.165425 2.082588 -0.000843 0.012284 -189261.000000 0 0 1
11.007546 26.804222 -16.664607 33.426659 1.181130 2.092713 0.003710 0.004548 -759838.000000 0 0 1
11.678546 25.639022 -16.278907 32.538449 1.143379 2.094739 -0.001716 0.005062 174717.000000 0 0 1
10.818046 24.473922 -16.151507 31.254986 1.154596 2.113865 0.008695 0.002935 719568.000000 0 0 1
11.663146 23.153622 -16.242607 30.593160 1.104170 2.130486 0.001443 0.004667 437964.000000 0 0 1
12.214246 22.993022 -17.583207 31.417130 1.082489 2.164783 0.005209 0.006353 114377.000000 0 0 1
13.116646 21.877522 -17.672607 31.032135 1.030709 2.176686 0.004017 0.007257 148798.000000 0 0 1
12.464246 20.535422 -18.068507 30.058808 1.025273 2.215680 0.015006 0.004528 306140.000000 0 0 1
11.578646 20.024722 -17.063007 28.743708 1.046547 2.206353 0.008629 0.002296 172747.000000 0 0 1
11.046346 18.730222 -17.292807 27.782803 1.037940 2.242638 0.012165 -0.001352 -141982.000000 0 0 1
12.074646 17.604622 -17.285207 27.468130 0.969610 2.251426 -0.001622 -0.002365 -225845.000000 0 0 1
12.602346 17.318222 -16.000407 26.734864 0.941725 2.212405 0.000572 -0.001439 -579176.000000 0 0 1
13.763546 16.556622 -16.152807 26.915982 0.877258 2.214447 -0.000817 -0.000346 -708113.000000 0 0 1
14.310346 15.826122 -14.844007 25.992243 0.835653 2.178634 0.004715 0.008880 -411139.000000 0 0 1
15.121246 16.565022 -13.933607 26.404496 0.830931 2.126685 -0.000289 0.006197 1376870.000000 0 0 1
16.486146 16.908822 -14.242907 27.578283 0.798054 2.113501 -0.002394 -0.001284 579089.000000 0 0 1
17.439246 15.778722 -14.765707 27.769074 0.735451 2.131441 -0.003602 -0.001856 -830486.000000 0 0 1
17.801646 14.791022 -13.843807 26.968944 0.693288 2.109850 -0.004913 0.006427 55185.100000 0 0 1
18.646846 15.269922 -12.851307 27.313577 0.686160 2.060665 -0.003652 0.004094 -1313200.000000 0 0 1
19.203846 14.124122 -12.012307 26.694082 0.634146 2.037560 -0.008663 0.005041 -863896.000000 0 0 1
18.294846 13.413722 -11.192707 25.296364 0.632660 2.029140 -0.003802 0.005472 301901.000000 0 0 1
18.896546 12.434022 -10.304307 24.856852 0.581982 1.998240 -0.005043 0.003721 -1136.830000 0 1 0
19.500546 11.207222 -11.030907 25.051028 0.521619 2.026771 -0.002056 0.005799 -159245.000000 0 0 1
20.738946 11.488922 -11.713407 26.444340 0.505892 2.029678 -0.007173 0.005525 796879.000000 0 0 1
21.209246 10.435922 -12.433207 26.708149 0.457264 2.055020 -0.004402 0.005660 -655638.000000 0 0 1
21.911146 9.340122 -11.636707 26.509416 0.402948 2.025243 -0.001910 0.002957 -1100210.000000 0 0 1
20.969146 8.498122 -11.029207 25.170748 0.385039 2.024364 -0.004824 0.002740 392020.000000 0 0 1
21.515946 7.552322 -10.086907 24.934297 0.337575 1.987272 -0.004871 0.000771 -926236.000000 0 1 0
22.181446 6.342722 -10.784807 25.466816 0.278515 2.008085 0.011221 -0.003800 -221939.000000 0 0 1
21.309046 5.403322 -11.408707 24.767518 0.248335 2.049503 0.033775 -0.002951 475239.000000 0 1 0
20.507846 5.834722 -12.490707 24.710999 0.277187 2.100725 0.005590 0.001874 -48174.200000 0 1 0
19.369146 4.925222 -12.962707 23.821280 0.249005 2.146190 0.008944 -0.002318 40800.500000 0 1 0
19.864746 3.762922 -13.590607 24.361287 0.187209 2.162622 0.006051 0.005913 348489.000000 0 1 0
18.787446 2.910022 -13.870507 23.533536 0.153671 2.201104 -0.000822 0.009472 -531613.000000 0 1 0
19.221346 1.525622 -14.435107 24.086510 0.079205 2.213426 0.000484 0.009232 -329901.000000 0 1 0
20.120246 0.780822 -13.604607 24.300603 0.038788 2.164997 -0.004295 0.006085 386450.000000 0 1 0
21.325046 0.719322 -14.346107 25.711589 0.033719 2.162725 0.002025 0.008297 -524596.000000 0 0 1
21.554346 -0.647278 -14.985107 26.259517 -0.030021 2.178099 0.011139 0.006190 -673568.000000 0 0 1
20.860046 -1.009978 -16.160607 26.406946 -0.048379 2.229362 0.007070 0.007074 24579.500000 0 0 1
21.486646 -2.140978 -16.711907 27.304717 -0.099314 2.229449 0.007470 -0.000067 -577545.000000 0 0 1
20.617346 -2.949478 -17.672407 27.314618 -0.142094 2.274432 0.004098 0.000065 -83155.400000 0 0 1
19.582446 -3.713078 -17.073507 26.244310 -0.187388 2.279118 0.003617 -0.006321 418720.000000 0 0 1
18.853146 -4.404378 -18.083807 26.492711 -0.229499 2.322105 -0.003479 -0.007515 206862.000000 0 0 1
17.923346 -5.560678 -17.569707 25.707238 -0.300832 2.323280 -0.004723 -0.005607 673373.000000 0 0 1
18.676846 -6.686278 -17.042107 26.152711 -0.343782 2.280539 -0.004832 -0.006844 915506.000000 0 0 1
17.756646 -7.526378 -16.394207 25.312346 -0.400907 2.275327 0.000697 -0.005706 -298551.000000 0 0 1
18.440046 -8.691978 -15.660507 25.706755 -0.440478 2.225845 0.000504 -0.009497 76905.200000 0 0 1
19.239546 -9.430678 -16.583907 27.094719 -0.455754 2.229474 0.004964 -0.007082 381186.000000 0 0 1
19.819646 -10.504378 -15.943707 27.520213 -0.487357 2.188722 -0.005511 -0.006345 -466736.000000 0 0 1
20.388646 -11.468678 -17.024007 28.931718 -0.512392 2.199900 -0.008694 -0.003927 224967.000000 0 0 1
21.540346 -11.030678 -17.757807 30.016697 -0.473276 2.203835 -0.006612 -0.003831 842863.000000 0 0 1
21.996546 -11.989478 -18.716407 31.271385 -0.499044 2.212443 -0.003307 0.000511 -356762.000000 0 0 1
21.210146 -12.025278 -20.063607 31.575718 -0.515770 2.259339 -0.000774 0.005150 -10478.600000 0 0 1
19.914546 -12.571478 -19.997907 30.895752 -0.563096 2.274794 -0.003779 0.002436 -28279.800000 0 0 1
19.870146 -13.984478 -19.944707 31.435325 -0.613267 2.258116 0.000059 0.007017 -411063.000000 0 0 1
18.384446 -14.406678 -19.874107 30.667904 -0.664682 2.275808 0.000377 0.005728 152655.000000 0 0 1
17.851346 -13.998278 -21.127207 30.999697 -0.665006 2.320647 -0.000440 0.010769 -546025.000000 0 0 1
16.471946 -14.187578 -21.297507 30.433472 -0.711028 2.345921 0.000947 0.009403 -208791.000000 0 0 1
15.866546 -13.551778 -22.554507 30.726272 -0.706875 2.395058 -0.000450 0.007503 -365036.000000 0 0 1
16.066446 -14.256278 -23.753207 32.024787 -0.725772 2.406417 -0.001260 0.009432 480487.000000 0 0 1
15.286946 -13.653178 -24.787807 32.164194 -0.729005 2.450680 0.001169 0.008257 7035.030000 0 0 1
15.420346 -14.484278 -26.087537 33.587810 -0.754107 2.460200 -0.001882 0.004870 6905.280000 0 0 1
14.449446 -15.538278 -26.161497 33.684544 -0.821691 2.460145 0.003472 0.004481 294170.000000 0 0 1
14.432546 -16.220978 -27.367977 34.934577 -0.843676 2.470924 0.003060 0.001466 775771.000000 0 0 1
15.480746 -17.435378 -27.519897 36.069248 -0.844711 2.438698 -0.004154 -0.000243 1793880.000000 0 0 1
16.886846 -17.157578 -27.377087 36.456179 -0.793350 2.420309 -0.006239 0.002699 681211.000000 0 0 1
17.641946 -18.314878 -27.480597 37.441371 -0.804111 2.394936 -0.003821 0.001403 -124901.000000 0 0 1
19.152546 -18.016778 -27.439917 38.004912 -0.754851 2.377499 -0.004583 0.002455 -376552.000000 0 0 1
19.638246 -17.702578 -26.139437 37.179459 -0.733607 2.350490 -0.001973 0.001773 -312402.000000 0 0 1
21.007546 -17.409678 -26.069717 37.736508 -0.692018 2.333440 0.003212 0.004693 -410955.000000 0 0 1
21.411046 -16.741978 -24.787307 36.785015 -0.663626 2.310193 -0.000589 0.004300 -121434.000000 0 0 1
21.082346 -15.364478 -24.597707 35.854982 -0.629784 2.326819 0.000878 0.005526 -203977.000000 0 0 1
19.700946 -15.067078 -24.467407 34.839606 -0.652899 2.349402 0.006331 0.007887 165494.000000 0 0 1
19.424946 -13.710778 -23.758307 33.612068 -0.614630 2.355815 0.007471 0.012420 -442349.000000 0 0 1
19.770546 -12.607778 -24.508807 33.919201 -0.567683 2.378301 0.007657 0.006985 -38180.000000 0 0 1
19.458146 -11.352078 -23.920907 32.858772 -0.528132 2.386184 0.003778 0.008561 27188.300000 0 0 1
19.739346 -10.220878 -24.917107 33.391172 -0.477780 2.413160 0.003669 0.000463 122942.000000 0 0 1
19.237446 -8.998878 -24.314707 32.284116 -0.437540 2.423630 0.006187 -0.001982 274607.000000 0 0 1
19.266046 -7.905378 -25.218307 32.705329 -0.389377 2.451326 0.004375 -0.004005 -388625.000000 0 0 1
18.767246 -6.641978 -24.507507 31.574409 -0.340157 2.459385 0.001172 -0.006586 -104051.000000 0 0 1
17.456546 -6.858678 -24.010107 30.467322 -0.374371 2.478449 0.000947 -0.004363 106287.000000 0 0 1
16.970346 -5.900478 -23.059107 29.232357 -0.334619 2.479685 -0.004537 -0.005718 33573.300000 0 0 1
17.638546 -5.873978 -21.633207 28.523982 -0.321468 2.431684 -0.006551 -0.006410 -335309.000000 0 0 1
17.302846 -6.809878 -20.637507 27.778942 -0.374951 2.408217 -0.006660 -0.005796 349380.000000 0 0 1
17.861946 -8.115878 -20.922207 28.681969 -0.426480 2.388321 -0.007186 0.000096 -247255.000000 0 0 1
17.611646 -9.264578 -19.906507 28.147318 -0.484269 2.356363 -0.001226 0.003129 658609.000000 0 0 1
16.249846 -9.727878 -19.897707 27.470127 -0.539422 2.380873 -0.002072 0.004973 449607.000000 0 0 1
16.048246 -10.867378 -19.112907 27.220384 -0.595238 2.349215 0.000673 0.009046 -248427.000000 0 0 1
14.541146 -11.094778 -18.821307 26.244631 -0.651764 2.370499 -0.001830 0.002941 269915.000000 0 0 1
13.900046 -10.251078 -17.868507 24.851145 -0.635443 2.373190 0.005261 0.002897 276674.000000 0 1 0
13.938446 -8.864478 -18.234907 24.604290 -0.566451 2.405544 0.012173 0.000296 -850308.000000 0 1 0
12.828946 -8.052478 -17.508407 23.150995 -0.560524 2.428390 0.018867 0.006025 379839.000000 0 1 0
11.524146 -8.069278 -18.054207 22.888285 -0.610864 2.479645 0.004864 -0.003383 -83370.200000 0 1 0
10.969946 -6.806778 -17.864607 22.041237 -0.555352 2.515816 0.013144 -0.001722 91718.600000 0 1 0
9.452746 -6.696178 -18.161507 21.541438 -0.616331 2.573812 0.016118 -0.005938 441535.000000 0 1 0
9.038846 -6.409778 -19.499407 22.427949 -0.616832 2.624833 0.007930 -0.009949 1203800.000000 0 1 0
7.626246 -6.116778 -19.670507 21.965961 -0.676001 2.680349 0.004672 -0.013456 1376420.000000 0 1 0
7.186546 -6.031478 -21.153607 23.140879 -0.698234 2.724136 0.004464 -0.013491 -160876.000000 0 1 0
7.118746 -7.211278 -21.860107 24.094468 -0.791855 2.707535 0.004539 -0.012669 239287.000000 0 1 0
6.472446 -6.946378 -23.103707 24.978511 -0.820702 2.751683 0.007931 -0.008325 -139813.000000 0 1 0
6.561146 -8.079378 -24.101507 26.252764 -0.888729 2.733945 0.007722 -0.005128 -2677.760000 0 0 1
5.599446 -9.113278 -23.900207 26.184452 -1.019836 2.720795 0.005723 -0.005165 381500.000000 0 0 1
5.709946 -10.048878 -24.925707 27.474976 -1.054074 2.707412 0.004893 -0.000330 223588.000000 0 0 1
4.848146 -11.332278 -24.689807 27.595500 -1.166542 2.678565 0.006877 0.000961 497541.000000 0 0 1
5.457646 -12.272478 -23.812107 27.338911 -1.152354 2.628024 0.008000 0.001663 157054.000000 0 0 1
4.569146 -13.364578 -23.587307 27.492728 -1.241369 2.602057 0.011702 -0.000959 -188025.000000 0 0 1
5.185046 -14.510478 -22.680307 27.419610 -1.227605 2.544825 0.009646 -0.000969 -605808.000000 0 0 1
6.198346 -15.278478 -23.318207 28.558539 -1.185393 2.526129 0.007159 0.004601 -122197.000000 0 0 1
7.473846 -14.722078 -23.530507 28.745134 -1.101038 2.529750 0.003551 0.003337 95280.400000 0 0 1
8.188046 -14.158378 -22.247007 27.612191 -1.046472 2.507644 0.004804 0.005683 -1018960.000000 0 0 1
8.841446 -15.053378 -21.366207 27.591487 -1.039738 2.456526 0.003642 0.008613 321479.000000 0 0 1
7.936246 -15.687478 -20.475807 26.987769 -1.102442 2.432122 -0.001130 0.008756 -158675.000000 0 0 1
8.512946 -15.902978 -19.098307 26.270141 -1.079305 2.384734 0.000248 0.007946 -370954.000000 0 0 1
9.595646 -16.793278 -19.082407 27.170368 -1.051673 2.349454 0.005238 0.007361 -509692.000000 0 0 1
10.018946 -17.216678 -17.785807 26.704461 -1.043768 2.299662 0.000881 0.001539 -551404.000000 0 0 1
9.085046 -18.022678 -16.839807 26.285625 -1.103882 2.266137 0.001201 -0.001529 -762770.000000 0 0 1
8.859946 -19.323378 -17.380807 27.458770 -1.140889 2.256191 -0.006049 0.000186 372541.000000 0 0 1
7.978046 -19.542878 -18.485407 28.058574 -1.183213 2.290039 -0.000017 0.002865 -226170.000000 0 0 1
6.476546 -19.284278 -18.297107 27.360796 -1.246786 2.303302 -0.004408 0.003457 -533685.000000 0 0 1
6.229446 -17.910278 -18.041407 26.173965 -1.236070 2.331303 -0.008420 0.005815 -809699.000000 0 0 1
4.858746 -17.688278 -17.879607 25.615678 -1.302721 2.343390 -0.010977 0.005218 -282415.000000 0 0 1
4.483246 -16.278078 -17.374407 24.226955 -1.302043 2.370503 -0.009943 0.006284 13500.000000 0 1 0
4.812446 -16.085078 -16.040107 23.220130 -1.280086 2.333370 -0.010352 0.003117 40274.300000 0 1 0
4.680946 -14.722278 -15.716307 22.037673 -1.262954 2.364787 -0.011101 0.003272 -110755.000000 0 1 0
9.875146 30.600122 -18.214207 36.954611 1.258632 2.086194 0.004744 0.002713 -206093.000000 0 0 1
9.059646 30.036822 -19.252407 36.809551 1.277856 2.121196 0.011439 0.007406 301595.000000 0 0 1
8.062846 29.265822 -18.552307 35.576480 1.301962 2.119377 0.007213 0.007066 43009.200000 0 0 1
6.998946 28.804522 -19.570807 35.520448 1.332435 2.154326 0.008077 0.007764 -307915.000000 0 0 1
6.182646 29.877322 -20.002307 36.482486 1.366742 2.151092 0.008771 0.004783 -513248.000000 0 0 1
5.422046 29.417222 -21.069507 36.588190 1.388527 2.184446 0.004002 0.005960 -519574.000000 0 0 1
4.422546 30.459722 -21.576207 37.588380 1.426611 2.182194 0.000091 0.005158 -782883.000000 0 0 1
3.577746 30.859222 -20.575007 37.261545 1.455374 2.155771 0.002852 -0.000406 -1023190.000000 0 0 1
2.634346 31.807222 -21.021307 38.216940 1.488163 2.153223 -0.006844 -0.004384 -1427690.000000 0 0 1
1.300146 31.394122 -20.453807 37.491859 1.529406 2.147845 -0.003548 -0.003246 -1043410.000000 0 0 1
0.914046 30.057022 -20.821807 36.576054 1.540395 2.176419 -0.004381 0.003736 220549.000000 0 0 1
0.239946 30.014422 -22.087707 37.266472 1.562802 2.205199 -0.002828 0.000721 -401458.000000 0 0 1
-0.155054 28.553922 -22.583207 36.405381 -1.565366 2.239955 -0.005185 0.000134 -301897.000000 0 0 1
-1.198254 28.023422 -21.840307 35.549219 -1.528063 2.232381 -0.001627 0.000468 -306579.000000 0 0 1
-1.870554 27.000922 -22.560107 35.235028 -1.501629 2.265653 0.005488 -0.001715 308529.000000 0 0 1
-2.975154 26.263622 -21.713507 34.206809 -1.457997 2.258509 0.004390 0.003682 57573.500000 0 0 1
-4.146054 27.017822 -21.629407 34.856617 -1.418528 2.240209 0.008387 0.000976 -499827.000000 0 0 1
-5.132854 26.323322 -20.906907 34.005327 -1.378220 2.232945 0.005056 0.002427 -4943.100000 0 0 1
-6.057754 27.314622 -20.137207 34.471612 -1.352552 2.194651 0.010402 -0.002299 -595535.000000 0 0 1
-7.058654 26.621122 -19.491907 33.740824 -1.311608 2.186698 0.010987 0.002192 -1418680.000000 0 0 1
-8.028954 27.501522 -19.041507 34.400244 -1.286745 2.157391 0.007043 -0.000036 -15166.800000 0 0 1
-9.309654 26.806222 -18.521107 33.886201 -1.236534 2.149057 0.007694 0.009106 45446.600000 0 0 1
-9.115554 26.216822 -17.241207 32.675286 -1.236173 2.126631 0.012732 0.006676 -277070.000000 0 0 1
-10.243054 25.492122 -16.818507 32.212274 -1.188728 2.120125 0.003009 0.002534 132031.000000 0 0 1
-9.858354 24.757022 -15.521307 30.838422 -1.191839 2.098222 0.006766 0.005445 325564.000000 0 0 1
-9.078454 23.580122 -15.572507 29.680692 -1.203284 2.123121 0.010326 0.010418 -138534.000000 0 0 1
-9.310954 22.936522 -14.339807 28.607831 -1.185176 2.095844 0.013845 0.008730 69532.900000 0 0 1
-8.747654 21.437822 -14.145507 27.132951 -1.183372 2.119217 0.015985 0.007883 -390531.000000 0 0 1
-9.471654 20.346822 -14.656907 26.805416 -1.135119 2.149321 0.010008 0.007139 -579969.000000 0 0 1
-9.788754 20.275222 -16.080607 27.667495 -1.121008 2.191010 0.006945 0.009245 671101.000000 0 0 1
-8.631754 20.126022 -17.156007 27.818924 -1.165639 2.235344 0.005081 0.008677 713250.000000 0 0 1
-8.012854 18.851222 -17.256907 26.783862 -1.168877 2.270907 0.010764 0.010479 126414.000000 0 0 1
-7.182454 18.742822 -18.419507 27.242600 -1.204847 2.313292 0.006643 0.010939 370025.000000 0 0 1
-6.592754 17.310422 -18.571907 26.230342 -1.206903 2.357503 0.003061 0.010973 -174381.000000 0 0 1
-7.558954 16.361022 -18.928307 26.136213 -1.138000 2.380696 0.004138 0.004663 -405134.000000 0 0 1
-7.263354 15.492522 -20.051007 26.359390 -1.132394 2.435153 0.010738 0.004089 635750.000000 0 0 1
-5.964554 14.626122 -19.909507 25.414323 -1.183583 2.470909 0.003726 0.007167 436097.000000 0 0 1
-6.180754 13.543922 -19.057007 24.182826 -1.142675 2.478413 0.006120 0.007204 1085500.000000 0 1 0
-4.982254 12.966722 -18.453707 23.097577 -1.203955 2.496336 0.003761 0.010243 1077440.000000 0 1 0
-4.470154 13.567522 -17.159907 22.327614 -1.252523 2.447369 0.006923 0.009476 -209433.000000 0 1 0
-3.879054 14.821522 -17.320307 23.123962 -1.314820 2.417378 -0.003227 0.003950 -494999.000000 0 1 0
-3.322554 15.254322 -16.109407 22.433161 -1.356335 2.371875 -0.004666 0.001625 153041.000000 0 1 0
-2.554054 16.588322 -16.192607 23.321581 -1.418029 2.338269 -0.007066 0.004970 339305.000000 0 1 0
-3.386654 17.701322 -16.508807 24.440682 -1.381759 2.312390 -0.007995 0.004943 220298.000000 0 1 0
-2.560754 18.848722 -16.592007 25.241364 -1.435765 2.288072 -0.006098 0.003804 135342.000000 0 0 1
-3.154454 19.916622 -17.483207 26.688667 -1.413718 2.285085 -0.002462 0.008474 81209.500000 0 0 1
-3.381054 19.560022 -18.796007 27.337079 -1.399632 2.328926 0.002220 0.003227 -218460.000000 0 0 1
-3.890054 20.564822 -19.620607 28.688197 -1.383845 2.323927 0.007765 0.003622 -332297.000000 0 0 1
-3.083054 21.876322 -19.810207 29.673608 -1.430787 2.301782 -0.006449 0.007327 -751879.000000 0 0 1
-1.927254 21.640622 -20.569207 29.918608 -1.481973 2.328845 -0.002775 0.002972 -427140.000000 0 0 1
-0.947454 22.626122 -20.372507 30.461092 -1.528946 2.303396 -0.002902 0.005027 325367.000000 0 0 1
0.045946 22.326522 -19.203707 29.449245 1.568738 2.281141 -0.000665 0.005963 -502440.000000 0 0 1
-0.475354 22.594422 -17.917907 28.840688 -1.549761 2.241161 -0.002908 0.006140 -498433.000000 0 0 1
0.402346 22.145822 -16.917607 27.871217 1.552630 2.223066 0.002156 0.003289 -128285.000000 0 0 1
-0.121254 22.336322 -15.459207 27.164555 -1.565368 2.176201 -0.002032 0.005332 -381664.000000 0 0 1
-0.952254 21.324322 -15.010207 26.094823 -1.526170 2.183667 -0.004770 0.009772 -488998.000000 0 0 1
-0.671854 21.114822 -13.652607 25.153146 -1.538988 2.144539 0.006267 0.006267 132119.000000 0 0 1
-1.411954 19.908122 -13.026707 23.833213 -1.499991 2.149069 0.008149 0.002190 -59127.200000 0 1 0
-0.844654 18.648422 -13.230707 22.880749 -1.525534 2.187374 0.003997 -0.000255 -272329.000000 0 1 0
-1.750454 17.662522 -12.787207 21.875590 -1.472013 2.195112 0.002924 -0.003547 24183.400000 0 1 0
-1.462854 16.118522 -12.898007 20.695538 -1.480288 2.243658 -0.001109 -0.008989 -405460.000000 0 1 0
-0.396354 15.698522 -12.067207 19.804499 -1.545554 2.225995 0.000481 -0.007505 270615.000000 0 1 0
0.061046 14.379522 -12.186907 18.849273 1.566551 2.273843 0.008491 -0.004517 72380.200000 0 1 0
0.708746 13.784822 -13.474807 19.289740 1.519427 2.344162 -0.002490 -0.005234 -396979.000000 0 1 0
-0.165554 13.465022 -14.552607 19.827067 -1.558502 2.394955 -0.004436 -0.011448 -32755.600000 0 1 0
0.583946 12.886022 -15.558907 20.210644 1.525511 2.449382 -0.007347 -0.004168 -711849.000000 0 1 0
-0.099154 12.824122 -16.918807 21.230025 -1.563065 2.492989 -0.002247 0.003896 -232463.000000 0 1 0
-0.127354 14.058222 -17.602707 22.527874 -1.561738 2.467662 -0.008224 0.004262 -70671.400000 0 1 0
-0.738654 13.871822 -18.844507 23.411290 -1.517598 2.506358 -0.008268 0.001422 -213638.000000 0 1 0
-1.341254 15.130122 -19.458407 24.684999 -1.482380 2.478786 -0.005885 0.002537 200888.000000 0 1 0
-0.330854 16.069322 -19.780007 25.486884 -1.550210 2.459231 -0.008739 0.002886 252520.000000 0 0 1
-0.928154 17.353522 -19.817207 26.357691 -1.517362 2.421670 0.000117 0.001183 699923.000000 0 0 1
0.094246 18.459922 -20.284607 27.427047 1.565691 2.403249 0.006577 -0.001430 245499.000000 0 0 1
0.476446 18.295722 -21.627107 28.331823 1.544761 2.439280 0.001051 -0.004984 -114927.000000 0 0 1
1.353146 19.332222 -21.993407 29.313406 1.500916 2.419289 0.005219 -0.002341 -43132.700000 0 0 1
1.792446 19.198022 -23.466807 30.372157 1.477700 2.453789 0.005094 -0.004172 -318660.000000 0 0 1
2.575746 18.075222 -23.705907 29.921867 1.429248 2.485301 0.000030 -0.006467 -447303.000000 0 0 1
3.134146 18.201022 -24.983607 31.068967 1.400272 2.505013 0.004272 -0.010520 -369008.000000 0 0 1
4.051646 17.066722 -25.331347 30.811783 1.337711 2.535942 0.002760 0.001082 185038.000000 0 0 1
5.341046 17.105022 -24.666307 30.488281 1.268139 2.513317 -0.001660 -0.003011 1276830.000000 0 0 1
6.304846 16.095322 -24.961407 30.362515 1.197449 2.535908 0.001765 0.000385 375159.000000 0 0 1
6.781046 16.045922 -26.406867 31.635057 1.170958 2.558446 0.001385 -0.004785 -1494940.000000 0 0 1
7.658246 17.112422 -26.637597 32.573690 1.150002 2.528312 0.003123 -0.005567 46383.400000 0 0 1
8.122646 17.370822 -27.971667 33.913670 1.133401 2.540628 -0.000481 -0.006052 184594.000000 0 0 1
8.776446 16.232422 -28.815627 34.217801 1.075141 2.572006 -0.002670 -0.010736 -352993.000000 0 0 1
9.975346 15.818322 -28.193267 33.831748 1.008166 2.555915 -0.001039 -0.008346 18194.800000 0 0 1
10.556346 14.651022 -28.792807 33.986977 0.946431 2.581436 0.001343 -0.008988 -108902.000000 0 0 1
10.146946 13.369922 -28.019537 32.662054 0.921599 2.601891 -0.003536 -0.009659 -68062.000000 0 0 1
8.813246 12.976722 -28.256897 32.319048 0.974196 2.634811 -0.002240 -0.006553 -172968.000000 0 0 1
8.393846 12.150322 -27.187187 30.939136 0.966249 2.643994 -0.003177 -0.006952 169035.000000 0 0 1
6.915646 11.683022 -27.114317 30.323347 1.036325 2.677377 0.008468 0.002303 146273.000000 0 0 1
6.061646 12.762822 -26.861657 30.350977 1.127392 2.657364 0.011768 0.004949 20234.000000 0 0 1
4.759646 12.251722 -26.511327 29.590698 1.200253 2.681327 0.011116 0.005421 1275690.000000 0 0 1
3.640046 13.341122 -26.665717 30.038241 1.304436 2.663177 0.019709 0.007394 -148833.000000 0 0 1
3.149146 13.547722 -27.972337 31.239551 1.342404 2.680157 0.019329 0.008917 -141575.000000 0 0 1
3.952146 14.404022 -28.745097 32.394072 1.303009 2.662377 0.018195 0.008202 -198056.000000 0 0 1
3.737046 14.488322 -30.282537 33.777345 1.318363 2.682678 0.017679 0.006242 -60193.800000 0 0 1
4.467946 13.439522 -30.900227 33.991283 1.249843 2.711827 0.018568 0.004359 30292.600000 0 0 1
4.560046 13.528522 -32.341677 35.352497 1.245687 2.725894 0.016338 0.004818 -478109.000000 0 0 1
5.556646 12.504222 -33.004347 35.728403 1.152624 2.748572 0.022019 0.002128 2331540.000000 0 0 1
6.998646 12.700622 -32.739477 35.807265 1.067149 2.724634 0.018923 0.004475 2034780.000000 0 0 1
7.395446 12.562222 -31.370627 34.592171 1.038723 2.706594 0.015351 -0.001422 -797732.000000 0 0 1
7.197546 11.166822 -30.712367 33.462697 0.998264 2.733323 0.013740 0.000526 -355213.000000 0 0 1
8.217046 10.303722 -31.108777 33.785242 0.897592 2.740872 0.008434 -0.001553 -305024.000000 0 0 1
8.037146 9.160322 -30.278947 32.639269 0.850616 2.758959 0.010395 -0.001838 563694.000000 0 0 1
9.093446 8.007722 -30.451447 32.773541 0.721995 2.762896 0.002671 -0.003915 583881.000000 0 0 1
10.410146 8.216922 -30.007227 32.807356 0.668194 2.725436 0.000906 -0.001722 6465.110000 0 0 1
11.194546 7.015322 -30.011107 32.790230 0.559802 2.726913 -0.007812 -0.002949 -404538.000000 0 0 1
12.406446 7.148922 -29.057527 32.393933 0.522755 2.683743 -0.002976 0.004797 372034.000000 0 0 1
13.225746 6.005022 -28.847147 32.297655 0.426209 2.675131 0.003370 -0.001755 169204.000000 0 0 1
13.838846 5.408422 -29.973557 33.454130 0.372563 2.681384 0.003876 0.001456 -458673.000000 0 0 1
14.846446 4.275422 -29.475727 33.279343 0.280390 2.658810 0.007037 -0.003715 845906.000000 0 0 1
15.976446 4.740322 -28.746617 33.227782 0.288433 2.616222 -0.008813 -0.008667 554663.000000 0 0 1
16.630746 3.674922 -28.043367 32.810322 0.217477 2.595792 -0.004314 -0.008578 -35837.800000 0 0 1
17.129746 4.144222 -26.668437 31.965737 0.237370 2.557625 -0.001857 -0.006475 -239779.000000 0 0 1
18.190746 5.071122 -26.767237 32.758274 0.271872 2.527183 0.005428 -0.010813 -26842.400000 0 0 1
18.658546 5.336922 -25.505717 32.049426 0.278592 2.491164 0.009575 -0.011504 -382231.000000 0 0 1
19.672846 6.496322 -25.452407 32.818411 0.318944 2.458386 0.002922 -0.007753 -489092.000000 0 0 1
19.190246 7.781422 -25.839607 33.113462 0.385229 2.465998 0.001831 -0.006169 316070.000000 0 0 1
20.152346 8.673522 -26.404777 34.330151 0.406434 2.448295 0.005235 -0.004302 -213680.000000 0 0 1
20.183546 8.405722 -27.916317 35.459166 0.394618 2.477183 0.006632 0.000142 299654.000000 0 0 1
18.952546 8.629222 -28.621457 35.395625 0.427258 2.512592 0.001142 0.004069 711527.000000 0 0 1
18.175546 7.442922 -28.757147 34.824145 0.388671 2.542383 -0.002237 -0.000173 -835230.000000 0 0 1
16.791746 7.743822 -29.295657 34.643398 0.432103 2.578549 -0.004717 0.004791 -832299.000000 0 0 1
16.791546 7.940722 -30.696597 35.878854 0.441734 2.597432 -0.010366 0.006561 181867.000000 0 0 1
15.696846 8.758722 -31.038737 35.867944 0.508959 2.616668 -0.012487 0.003042 -32158.300000 0 0 1
15.088746 8.559622 -32.459757 36.804527 0.516017 2.650780 -0.014959 0.005665 302474.000000 0 0 1
14.322146 7.386422 -32.707087 36.461441 0.476156 2.683804 -0.010122 0.007382 -437251.000000 0 0 1
13.144646 7.635222 -33.385937 36.683772 0.526228 2.714324 -0.007429 0.005524 -474049.000000 0 0 1
12.503446 6.306422 -33.852487 36.634656 0.467141 2.749356 -0.000648 -0.000144 75246.400000 0 0 1
12.163146 5.494022 -32.716837 35.334372 0.424262 2.754263 -0.003196 -0.000680 -61022.100000 0 0 1
11.604446 4.316722 -33.202857 35.436238 0.356128 2.784665 0.000556 -0.002743 -244675.000000 0 0 1
11.290046 3.244222 -32.209087 34.284332 0.279813 2.791875 0.000086 0.003478 97888.000000 0 0 1
12.368546 2.408322 -31.766927 34.174824 0.192307 2.763965 -0.004809 0.004892 339002.000000 0 0 1
11.987346 1.289922 -31.002797 33.264603 0.107194 2.770704 0.001394 0.009358 -411329.000000 0 0 1
11.361546 0.111422 -31.772647 33.743122 0.009807 2.798158 0.004507 0.013778 162909.000000 0 0 1
12.158146 -0.895578 -32.512307 34.722798 -0.073528 2.782850 0.006544 0.013536 167996.000000 0 0 1
12.744646 -1.728578 -31.599187 34.116310 -0.134809 2.755054 0.002508 0.009603 -160836.000000 0 0 1
13.351946 -3.039378 -32.280007 35.064386 -0.223822 2.740391 -0.004929 0.007611 757964.000000 0 0 1
12.428546 -4.091578 -32.623137 35.149379 -0.318033 2.760150 -0.002720 0.009098 570099.000000 0 0 1
13.159746 -5.027678 -33.398057 36.247575 -0.364937 2.742432 0.004556 -0.000761 129002.000000 0 0 1
12.585746 -6.429678 -33.366037 36.235814 -0.472306 2.740930 0.008808 0.001100 -127207.000000 0 0 1
12.692346 -7.090778 -32.127267 35.263807 -0.509472 2.716632 0.004068 -0.000786 -29519.200000 0 0 1
12.175046 -8.408078 -32.082587 35.330156 -0.604389 2.709471 0.003845 -0.001950 3676.930000 0 0 1
12.153746 -8.978678 -30.659257 34.180700 -0.636267 2.683677 0.000815 -0.001954 -435484.000000 0 0 1
13.422446 -9.145778 -30.088257 34.192258 -0.598119 2.646601 0.002464 -0.004002 -217064.000000 0 0 1
13.465946 -9.712278 -28.771107 33.218017 -0.624844 2.618202 -0.000493 -0.004483 -153611.000000 0 0 1
13.518146 -11.237378 -28.711597 33.665632 -0.693526 2.592208 -0.000685 -0.001705 456440.000000 0 0 1
12.203946 -11.680478 -29.039027 33.595163 -0.763485 2.614715 -0.000551 -0.003261 537643.000000 0 0 1
12.314246 -13.065178 -29.329187 34.388090 -0.814978 2.592288 -0.002231 -0.005947 115870.000000 0 0 1
-10.208154 -3.069378 -17.352407 20.365008 0.292080 2.590723 -0.006724 -0.006798 124091.000000 0 1 0
-10.665454 -2.651978 -18.624807 21.625641 0.243709 2.608496 -0.014457 -0.007582 58180.400000 0 1 0
-11.453754 -3.680778 -19.165807 22.628848 0.310936 2.581044 -0.021667 -0.004478 -472317.000000 0 1 0
-12.137554 -3.446478 -20.537107 24.103344 0.276669 2.590674 -0.017595 -0.003131 -812573.000000 0 1 0
-13.142154 -2.480078 -20.447707 24.433087 0.186518 2.562366 -0.005734 -0.004013 -286016.000000 0 1 0
-13.615354 -2.229178 -21.754707 25.760714 0.162285 2.576412 -0.008925 -0.001754 615294.000000 0 0 1
-14.629854 -1.019778 -21.915307 26.369552 0.069593 2.551850 -0.004365 -0.006026 713043.000000 0 0 1
-14.029454 0.243222 -21.801107 25.926300 -0.017335 2.569718 -0.002713 -0.005424 -120127.000000 0 0 1
-15.023254 1.189222 -21.491407 26.248676 -0.078994 2.530047 0.000665 -0.007444 -80857.000000 0 0 1
-14.785154 2.584922 -22.025007 26.653021 -0.173083 2.543410 0.010361 -0.007422 -567447.000000 0 0 1
-13.668254 3.218122 -21.505007 25.683513 -0.231234 2.563137 0.014288 -0.003330 -304698.000000 0 0 1
-13.179754 4.343422 -22.245407 26.218874 -0.318344 2.583846 0.007100 -0.000352 -357476.000000 0 0 1
-11.945354 4.914122 -21.560907 25.133897 -0.390281 2.601852 -0.001567 0.002709 -583762.000000 0 0 1
-12.284654 5.621422 -20.343507 24.420717 -0.429154 2.555382 -0.000258 0.007810 791257.000000 0 1 0
-11.102454 6.058722 -19.669107 23.384747 -0.499544 2.570126 -0.001543 0.008405 458786.000000 0 1 0
-11.423254 6.570022 -18.262407 22.520467 -0.521943 2.516527 0.008284 0.007564 124500.000000 0 1 0
-12.033454 7.867022 -18.217007 23.206753 -0.579016 2.473472 0.009439 0.008839 357399.000000 0 1 0
-12.770254 8.012822 -17.038407 22.750649 -0.560366 2.417227 -0.002817 0.008305 -17467.700000 0 1 0
-13.535454 9.381622 -16.922107 23.613154 -0.606090 2.369768 -0.005411 0.009640 211170.000000 0 1 0
-12.698054 10.471722 -16.574507 23.358335 -0.689604 2.359692 -0.012771 0.020922 982878.000000 0 1 0
-13.572654 11.627022 -16.614107 24.401499 -0.708342 2.319738 -0.001944 0.009881 544654.000000 0 1 0
-12.989354 12.895422 -15.957207 24.282662 -0.781769 2.287820 -0.005452 0.012249 -608632.000000 0 1 0
-13.113654 12.983922 -14.537107 23.492076 -0.780427 2.238022 0.001428 0.015442 108365.000000 0 1 0
-12.676554 14.216522 -14.052007 23.669884 -0.842598 2.206403 -0.000356 0.009763 -842395.000000 0 1 0
-13.004154 14.500122 -12.521807 23.155069 -0.839735 2.142161 -0.001761 0.008766 1550640.000000 0 1 0
-14.390254 14.770622 -12.212907 23.966764 -0.798441 2.105489 -0.000723 0.004179 1216300.000000 0 1 0
-15.397854 13.835122 -12.498507 24.180926 -0.731991 2.113992 0.000605 0.003243 -726692.000000 0 1 0
-16.766454 14.232622 -11.906107 25.008736 -0.703841 2.066986 -0.001390 0.002735 463250.000000 0 0 1
-17.803854 13.486222 -12.586307 25.637288 -0.648277 2.083962 -0.000830 0.001081 580042.000000 0 0 1
-19.069654 13.880522 -12.073107 26.496802 -0.629197 2.043892 0.009017 0.003824 -314556.000000 0 0 1
-20.264754 13.438822 -12.894007 27.523038 -0.585573 2.058366 0.012214 0.005614 -616648.000000 0 0 1
-20.697554 12.144122 -12.536007 27.074341 -0.530614 2.052198 0.016458 0.004986 56541.900000 0 0 1
-21.848054 11.749322 -13.236307 28.117323 -0.493408 2.060940 0.013544 0.007656 -423920.000000 0 0 1
-22.390954 10.371622 -12.773007 27.786239 -0.433782 2.048440 0.009722 0.008716 -251256.000000 0 0 1
-21.444754 9.343722 -12.968207 26.746159 -0.410908 2.077002 0.008276 0.001653 245903.000000 0 0 1
-21.478454 8.488622 -11.897407 25.979396 -0.376375 2.046490 -0.008306 0.000252 -774460.000000 0 0 1
-20.362654 7.495122 -11.740107 24.670725 -0.352692 2.066752 -0.012822 0.004753 -891567.000000 0 1 0
-20.379154 6.474922 -12.724507 24.882677 -0.307636 2.107586 0.002347 0.001206 851475.000000 0 1 0
-19.195054 5.659022 -12.716307 23.710316 -0.286695 2.136867 0.002047 0.001784 368878.000000 0 1 0
-19.166054 4.481822 -13.699707 23.981375 -0.229714 2.178842 0.004699 -0.006671 -651147.000000 0 1 0
-20.002054 3.451822 -13.349007 24.293893 -0.170890 2.152538 -0.000081 -0.006353 -53035.500000 0 1 0
-19.692554 2.299822 -14.131407 24.347126 -0.116260 2.190033 -0.004046 -0.010903 -765220.000000 0 1 0
-20.692654 1.217622 -13.889607 24.951748 -0.058775 2.161155 0.000883 -0.011058 -1441360.000000 0 1 0
-21.808554 1.038922 -14.653707 26.294934 -0.047602 2.161906 -0.005901 -0.002460 -705450.000000 0 0 1
-22.294754 -0.279778 -14.492707 26.592723 0.012548 2.147171 -0.000475 -0.011608 -450886.000000 0 0 1
-23.648754 -0.510178 -15.161607 28.096231 0.021570 2.140796 -0.002566 -0.007149 248363.000000 0 0 1
-24.795554 0.118522 -14.559207 28.754201 -0.004780 2.101724 -0.006287 -0.008095 -68069.000000 0 0 1
-25.927764 -0.097378 -15.327607 30.119661 0.003756 2.104692 -0.000300 -0.006602 -594303.000000 0 0 1
-27.171984 0.416822 -14.569007 30.834176 -0.015339 2.062916 0.002796 0.000948 -285517.000000 0 0 1
-27.371644 -0.296878 -13.364007 30.461315 0.010846 2.024971 -0.000170 -0.000125 687302.000000 0 0 1
-28.714804 -0.105578 -12.895907 31.477858 0.003677 1.992902 0.005679 -0.002479 725195.000000 0 0 1
-29.008514 -0.915378 -11.612707 31.259987 0.031545 1.951407 0.000411 -0.005412 -326199.000000 0 0 1
-29.266244 -2.326078 -11.723007 31.612538 0.079313 1.950703 0.000218 -0.004784 740004.000000 0 0 1
-28.150264 -3.138178 -12.111607 30.805463 0.111021 1.974867 -0.001661 -0.005379 -26415.600000 0 0 1
-28.202764 -4.529078 -11.538107 30.806434 0.159230 1.954692 -0.003615 -0.002653 -315155.000000 0 0 1
-29.264154 -5.324678 -12.009107 32.077431 0.179983 1.954523 -0.002115 0.002016 -7371.480000 0 0 1
-29.672704 -6.484178 -11.289907 32.403332 0.215141 1.926679 -0.000435 0.001539 -653485.000000 0 0 1
-28.991624 -7.797678 -11.548907 32.166680 0.262745 1.938028 0.002392 -0.002281 209654.000000 0 0 1
-27.581324 -7.752378 -11.267907 30.786272 0.274004 1.945508 -0.001073 -0.001769 597099.000000 0 0 1
-27.001414 -8.847278 -11.946007 30.823007 0.316636 1.968788 0.003156 0.000172 -583393.000000 0 0 1
-25.494724 -8.880778 -11.689207 29.419156 0.335193 1.979405 0.003701 -0.005101 -1129040.000000 0 0 1
-24.829154 -7.747078 -12.159107 28.711461 0.302443 2.008094 0.005125 -0.005248 -444809.000000 0 0 1
-23.532354 -7.574978 -11.684807 27.343861 0.311422 2.012332 0.007231 -0.008625 -723002.000000 0 0 1
-23.309954 -7.362778 -10.144607 26.466536 0.305947 1.964162 0.001386 -0.007249 -788356.000000 0 0 1
-23.785854 -6.151978 -9.604807 26.379272 0.253094 1.943467 0.003349 -0.000994 661623.000000 0 0 1
-25.180554 -6.013978 -9.367007 27.531238 0.234442 1.917960 0.012002 -0.008830 -27734.800000 0 0 1
-25.580144 -4.629378 -8.715507 27.417786 0.179038 1.894287 0.011192 -0.006646 -244844.000000 0 0 1
-25.221164 -4.445078 -7.341807 26.641471 0.174452 1.849987 -0.001323 -0.000960 474887.000000 0 0 1
-25.564954 -3.139478 -6.875307 26.658827 0.122192 1.831644 0.003216 -0.001289 -60079.800000 0 0 1
-25.462604 -3.044378 -5.324607 26.190912 0.118998 1.775523 0.005549 0.002736 319243.000000 0 0 1
-24.097154 -3.066778 -4.921707 24.785100 0.126587 1.770700 -0.002686 0.001968 467054.000000 0 1 0
-23.936754 -2.871478 -3.573807 24.371822 0.119391 1.717964 -0.012110 0.002608 -490102.000000 0 1 0
-22.569154 -3.271378 -3.039707 23.006705 0.143947 1.703306 -0.013810 0.004652 -509062.000000 0 1 0
-22.363354 -4.654878 -3.165107 23.060906 0.205217 1.708481 -0.003332 0.006405 -983393.000000 0 1 0
-21.202654 -5.034878 -2.578307 21.944252 0.233146 1.688562 0.001042 0.004620 -1359170.000000 0 1 0
-21.126954 -6.611978 -2.512207 22.279534 0.303308 1.683795 0.013756 0.002617 -229181.000000 0 1 0
-21.984754 -7.139478 -1.547407 23.166701 0.314003 1.637641 0.024491 0.005875 269144.000000 0 1 0
-22.293554 -8.475678 -1.843107 23.921470 0.363309 1.647921 0.016712 0.005871 -24963.600000 0 1 0
-22.710554 -9.265178 -0.560407 24.534198 0.387356 1.593640 0.014724 0.005115 254147.000000 0 1 0
-21.620054 -9.750378 0.210393 23.717944 0.423675 1.561926 0.007142 0.002348 602989.000000 0 1 0
-22.101954 -10.471378 1.340293 24.493724 0.442449 1.516049 0.000991 -0.001880 396211.000000 0 1 0
-20.949554 -11.196178 2.094893 23.845897 0.490815 1.482832 -0.004970 0.002015 207725.000000 0 1 0
-20.420554 -12.300878 1.427793 23.881985 0.542166 1.510975 0.010909 0.004384 -103166.000000 0 1 0
-19.270154 -12.739878 2.095193 23.195542 0.584153 1.480346 -0.006632 0.006458 -566555.000000 0 1 0
-18.435354 -13.782978 1.432493 23.062628 0.641988 1.508643 -0.007513 0.006680 -894322.000000 0 1 0
-19.139954 -15.009778 1.412193 24.364433 0.665040 1.512803 -0.008532 0.005739 -127912.000000 0 1 0
-18.653854 -16.071878 0.663993 24.631533 0.711181 1.543836 -0.009816 0.005187 -314498.000000 0 1 0
-17.335854 -16.733978 1.114793 24.120544 0.767734 1.524562 -0.007333 0.004001 -43695.500000 0 1 0
-16.134954 -15.976878 1.060693 22.731530 0.780476 1.524118 -0.002251 -0.000034 258452.000000 0 1 0
-15.035654 -16.705478 1.552693 22.528976 0.837957 1.501822 -0.000634 0.000999 98788.100000 0 1 0
-14.773054 -16.762978 3.124693 22.561123 0.848415 1.431851 -0.003085 0.006214 -198555.000000 0 1 0
-14.565154 -15.482478 3.690593 21.574784 0.815918 1.398890 -0.009110 0.006317 -171791.000000 0 1 0
-13.964654 -15.462178 4.955093 21.415963 0.836244 1.337307 -0.000119 0.008876 -532998.000000 0 1 0
-14.654554 -16.078878 6.154693 22.608992 0.831709 1.295094 0.000255 0.006885 -794646.000000 0 1 0
-15.475554 -15.120078 6.821093 22.685609 0.773780 1.265392 -0.003162 0.005684 -30442.400000 0 1 0
-15.535254 -15.279678 8.189293 23.278256 0.777104 1.211303 -0.005358 0.000502 -235076.000000 0 1 0
-16.256654 -16.527978 8.785593 24.791924 0.793674 1.208553 -0.010245 0.009123 -413198.000000 0 1 0
-15.696754 -17.842378 8.644893 25.287798 0.849285 1.221901 -0.008324 0.008253 -60329.700000 0 0 1
-16.589054 -18.823578 9.161093 26.710474 0.848414 1.220711 -0.004789 0.006326 275304.000000 0 0 1
-16.162254 -19.337778 10.559093 27.325127 0.874612 1.174045 -0.011913 0.007825 388855.000000 0 0 1
-14.941054 -20.070478 10.550293 27.154518 0.930870 1.171763 0.001257 0.003922 178283.000000 0 0 1
-14.607654 -20.458178 11.886993 27.806855 0.950719 1.129088 -0.008097 -0.002663 -280355.000000 0 0 1
-13.182354 -21.018778 12.061293 27.586922 1.010638 1.118302 -0.003556 -0.002462 100889.000000 0 0 1
-12.218554 -19.970978 11.997393 26.307232 1.021734 1.097246 -0.001822 -0.001675 -1194030.000000 0 0 1
-10.962954 -20.514578 12.131293 26.233615 1.080010 1.090059 -0.004942 -0.003375 -688485.000000 0 0 1
-9.864054 -19.574878 12.655793 25.310956 1.104022 1.047183 -0.001605 -0.003208 238437.000000 0 0 1
-9.227054 -18.741678 11.676593 23.931817 1.113305 1.061102 -0.001575 -0.007267 -858382.000000 0 1 0
-8.038054 -18.267178 12.172793 23.376847 1.156267 1.023102 -0.004800 0.007288 -816505.000000 0 1 0
-7.125254 -17.518278 11.204893 21.982014 1.184500 1.035925 -0.001745 0.006818 -211491.000000 0 1 0
-6.369454 -18.335478 10.384793 22.013715 1.236454 1.079531 -0.004078 0.002328 -392691.000000 0 1 0
-5.692654 -17.617178 9.364893 20.747831 1.258256 1.102499 -0.001052 0.002370 365416.000000 0 1 0
-4.551554 -18.438378 8.611793 20.853139 1.328782 1.145080 -0.002063 0.000982 521021.000000 0 1 0
-3.383554 -18.586978 9.365193 21.086276 1.390729 1.110586 0.002145 0.008319 60664.400000 0 1 0
-2.312654 -19.046478 8.522493 20.994037 1.449966 1.152780 -0.002359 0.002585 420458.000000 0 1 0
-0.918054 -19.168378 9.149993 21.260101 1.522939 1.125879 -0.003046 -0.002928 -186580.000000 0 1 0
-0.067754 -19.883978 8.267593 21.534397 1.567389 1.176753 0.006072 0.013352 57286.400000 0 1 0
1.158246 -20.118678 8.977593 22.061276 -1.513289 1.151696 0.005184 0.008320 576506.000000 0 1 0
2.226846 -20.761678 8.037893 22.374402 -1.463947 1.203338 0.004258 0.004637 -288891.000000 0 1 0
2.062246 -22.111778 7.617693 23.477922 -1.477801 1.240353 0.001450 0.004466 -196175.000000 0 1 0
2.241846 -23.013578 8.696493 24.703839 -1.473689 1.211057 0.002690 0.006265 -207197.000000 0 1 0
1.944746 -24.447578 8.284493 25.886269 -1.491416 1.245031 0.011366 0.002316 95396.900000 0 0 1
1.884046 -25.337048 9.416893 27.096005 -1.496574 1.215852 -0.000219 0.007425 -288652.000000 0 0 1
1.388246 -26.534648 8.909293 28.024815 -1.518526 1.247275 0.004214 0.004255 -714398.000000 0 0 1
1.547646 -27.752628 9.833193 29.483814 -1.515088 1.230770 0.006926 0.002810 263925.000000 0 0 1
0.881746 -27.784018 11.098993 29.931869 -1.539071 1.190917 0.005142 0.001151 416897.000000 0 0 1
-0.540554 -27.653878 11.004693 29.767977 1.551252 1.192129 0.005413 0.005162 41215.500000 0 0 1
-1.166354 -27.707668 12.383093 30.371306 1.528726 1.150837 0.005383 0.001601 -277944.000000 0 0 1
-1.092054 -28.945958 13.054393 31.772287 1.533087 1.147384 0.009117 0.001393 -54720.300000 0 0 1
-1.217154 -28.780338 14.406993 32.207930 1.528530 1.107039 0.001646 0.002983 -151191.000000 0 0 1
-1.004954 -30.065398 15.178193 33.694445 1.537383 1.103509 -0.000103 -0.000685 112596.000000 0 0 1
-1.221254 -29.880518 16.567493 34.187990 1.529948 1.064891 0.000909 -0.000723 11056.200000 0 0 1
-0.846354 -30.985598 17.387293 35.540703 1.543489 1.059599 -0.003640 0.001087 102292.000000 0 0 1
-1.184754 -30.862298 18.914593 36.216666 1.532427 1.021295 -0.002544 0.001507 -306481.000000 0 0 1
-2.541854 -30.972938 19.227693 36.544330 1.488913 1.016733 0.002676 0.005819 -474476.000000 0 0 1
-2.810754 -30.991198 20.629793 37.335547 1.480349 0.985375 -0.003687 0.005707 -88079.800000 0 0 1
-4.347954 -30.887118 20.726693 37.450161 1.430946 0.984299 -0.003739 0.000555 -118747.000000 0 0 1
-4.887654 -29.693898 20.148093 36.215499 1.407658 0.980823 0.002358 -0.001004 720053.000000 0 0 1
-6.136154 -29.229748 20.675393 36.324956 1.363873 0.965290 -0.000364 -0.000015 699521.000000 0 0 1
-5.921054 -28.165488 21.744493 36.071825 1.363590 0.923777 0.002791 -0.000217 -189070.000000 0 0 1
-5.166054 -28.686938 22.817893 37.017358 1.392622 0.906620 0.003183 -0.001247 97412.900000 0 0 1
-5.193954 -27.752678 23.863393 36.968227 1.385785 0.869104 0.002003 -0.000191 -411719.000000 0 0 1
-4.154154 -27.934448 24.992793 37.712466 1.423167 0.846352 0.002090 -0.000628 -69254.900000 0 0 1
-4.321654 -29.152228 25.718793 39.115028 1.423624 0.853278 -0.000529 0.002063 -343722.000000 0 0 1
-3.431754 -30.146338 25.359593 39.543490 1.457448 0.874593 0.002947 0.002182 -425309.000000 0 0 1
-3.737054 -31.523008 25.988393 41.025141 1.452797 0.884761 -0.002478 0.004449 67988.800000 0 0 1
-3.346554 -31.391498 27.356893 41.773498 1.464590 0.856764 -0.001101 0.003348 255785.000000 0 0 1
-3.629154 -32.596988 28.057593 43.162054 1.459919 0.863143 0.000366 0.013493 -128096.000000 0 0 1
-3.392454 -32.702598 29.557793 44.211218 1.467430 0.838527 -0.001312 0.006290 -82542.100000 0 0 1
-2.007754 -32.820568 29.818993 44.389110 1.509699 0.834209 -0.004350 0.006323 296225.000000 0 0 1
-1.781454 -32.865798 31.232393 45.373964 1.516645 0.811608 -0.004695 -0.001813 -152597.000000 0 0 1
-27.133554 3.062522 -10.192007 29.145940 -0.112393 1.928035 0.006514 -0.001898 -94689.800000 0 0 1
-28.125494 2.699422 -11.145307 30.373478 -0.095685 1.946516 0.004362 -0.002779 384566.000000 0 0 1
-28.815644 3.857422 -11.606107 31.303718 -0.133074 1.950621 0.003600 -0.004099 267926.000000 0 0 1
-29.574714 3.634022 -12.947707 32.488659 -0.122263 1.980710 0.008054 -0.007567 422072.000000 0 0 1
-30.619734 2.647522 -12.879207 33.323437 -0.086250 1.967620 0.004415 -0.005131 413582.000000 0 0 1
-31.156214 2.536022 -14.185007 34.327183 -0.081218 1.996794 0.004654 -0.003286 362677.000000 0 0 1
-32.477944 1.690322 -14.081407 35.439527 -0.051998 1.979409 0.003948 -0.006052 480978.000000 0 0 1
-32.233244 0.348622 -13.690607 35.021940 -0.010815 1.972422 0.007146 -0.005620 -382760.000000 0 0 1
-33.355584 -0.282278 -13.175507 35.864588 0.008462 1.946974 -0.000115 -0.002223 -772973.000000 0 0 1
-32.978584 -1.706478 -12.642907 35.360178 0.051699 1.936436 0.002021 -0.002204 91902.400000 0 0 1
-32.810184 -2.728278 -13.584407 35.615836 0.082963 1.962123 -0.002677 0.000908 82815.100000 0 0 1
-32.378584 -3.926278 -13.037107 35.124842 0.120672 1.951060 0.000752 0.003659 -318029.000000 0 0 1
-32.136514 -4.963078 -14.127807 35.453951 0.153227 1.980659 0.005986 0.003496 33110.200000 0 0 1
-31.847524 -6.230778 -13.515907 35.153480 0.193204 1.965444 -0.000966 0.002207 -179124.000000 0 0 1
-32.643694 -7.258278 -14.032707 36.265827 0.218789 1.968107 -0.001220 0.001505 -535613.000000 0 0 1
-32.497004 -8.639678 -13.400107 36.197544 0.259850 1.950014 -0.003034 -0.004146 277240.000000 0 0 1
-31.226784 -9.307378 -13.480207 35.262662 0.289674 1.963059 -0.001601 -0.000852 819226.000000 0 0 1
-30.755294 -9.726378 -14.754807 35.471043 0.306298 1.999803 -0.004662 0.001560 -374655.000000 0 0 1
-29.502644 -10.606278 -14.633807 34.598374 0.345115 2.007508 -0.003600 -0.002370 -421665.000000 0 0 1
-29.715154 -11.815378 -13.928807 34.879868 0.378454 1.981589 -0.001952 -0.002769 -495188.000000 0 0 1
-28.580844 -12.592078 -13.799407 34.144527 0.414991 1.986842 -0.001011 -0.003526 -810827.000000 0 0 1
-28.955624 -14.079678 -14.087607 35.144362 0.452587 1.983240 -0.000357 -0.001809 -213169.000000 0 0 1
-28.993024 -14.283078 -15.526407 35.856256 0.457741 2.018635 -0.003735 0.004348 166007.000000 0 0 1
-29.219014 -15.637978 -15.968907 36.787269 0.491408 2.019822 -0.006231 0.004546 -86433.500000 0 0 1
-28.017174 -16.601878 -15.794707 36.194712 0.534932 2.022370 -0.004638 0.003866 232054.000000 0 0 1
-26.896134 -16.193278 -16.566807 35.497653 0.541938 2.056354 -0.002552 0.006378 392458.000000 0 0 1
-25.774104 -17.089578 -16.439607 35.023118 0.585496 2.059400 -0.002288 0.005720 589453.000000 0 0 1
-24.531654 -16.467078 -17.092107 34.133662 0.591175 2.095250 0.000896 0.007532 -172386.000000 0 0 1
-24.602554 -16.443178 -18.527107 34.912999 0.589169 2.130181 -0.000525 0.009104 -65756.900000 0 0 1
-23.338854 -16.158078 -19.097307 34.212465 0.605557 2.163008 0.002362 0.013651 -256030.000000 0 0 1
-23.402454 -15.559078 -20.532407 34.804303 0.586743 2.201779 0.002394 0.012878 -17069.800000 0 0 1
-23.884954 -16.460178 -21.528107 36.123232 0.603403 2.209261 -0.000965 0.007145 -647521.000000 0 0 1
-25.240564 -16.660578 -21.650407 37.194100 0.583423 2.192096 0.006485 0.006089 -1236200.000000 0 0 1
-25.607014 -17.963878 -22.419307 38.484353 0.611747 2.192667 0.003767 0.004597 -129404.000000 0 0 1
-25.110874 -18.089178 -23.747907 39.009454 0.624268 2.225310 0.009400 0.009368 144622.000000 0 0 1
-25.627174 -19.188278 -24.480507 40.301828 0.642699 2.223617 0.005297 0.004756 -592922.000000 0 0 1
-24.936154 -19.376278 -25.858537 40.815633 0.660581 2.256923 0.010083 0.002370 882532.000000 0 0 1
-23.609354 -19.929978 -25.791777 40.247005 0.701092 2.266385 0.007031 -0.002620 707110.000000 0 0 1
-23.570154 -21.311078 -25.438367 40.704112 0.735106 2.245874 0.008598 -0.002654 -1343700.000000 0 0 1
-22.127254 -21.665278 -25.135887 39.884991 0.774849 2.252619 0.008390 -0.000505 -752822.000000 0 0 1
-21.415654 -21.635378 -26.317657 40.241010 0.790502 2.283658 0.004396 -0.003232 -820071.000000 0 0 1
-20.043754 -21.874878 -26.127067 39.533353 0.829053 2.292796 0.004240 -0.005392 -282372.000000 0 0 1
-19.299754 -21.671878 -27.440807 39.939313 0.843230 2.328235 0.004577 -0.005895 -583619.000000 0 0 1
-19.341854 -22.739278 -28.386597 41.194429 0.865959 2.331026 -0.001543 -0.005345 -280493.000000 0 0 1
-19.974954 -22.325178 -29.581957 42.101123 0.840902 2.349898 0.003213 -0.005403 -24376.500000 0 0 1
-19.144254 -22.492578 -30.857807 42.715604 0.865643 2.378065 -0.000256 -0.001454 15983.000000 0 0 1
-19.103854 -23.798978 -31.353127 43.753482 0.894401 2.369691 -0.001429 -0.006204 -47743.500000 0 0 1
-18.278654 -23.850978 -32.500737 44.263713 0.916901 2.395361 -0.002406 -0.004177 -67773.400000 0 0 1
-17.939054 -25.238068 -33.006817 45.257262 0.952863 2.388117 -0.005597 -0.005715 102700.000000 0 0 1
-17.332254 -25.270858 -34.315968 46.006619 0.969624 2.412669 -0.004753 -0.008194 -242428.000000 0 0 1
-18.260354 -25.097908 34.085600 46.099606 0.941809 0.738632 -0.006949 -0.006626 -151016.000000 0 0 1
-17.584854 -24.905278 32.642833 44.666033 0.956009 0.751274 -0.008908 -0.004339 -195101.000000 0 0 1
-17.023754 -23.619778 32.487533 43.625015 0.946285 0.730712 -0.007160 -0.002083 -443916.000000 0 0 1
-16.427854 -23.665178 31.218753 42.479708 0.963988 0.745263 -0.005727 0.000459 29306.300000 0 0 1
-15.460354 -22.498078 30.904633 41.234481 0.968723 0.723512 -0.002589 0.007307 -17059.200000 0 0 1
-16.137654 -21.239878 30.692453 40.664272 0.921065 0.715482 -0.002877 0.002788 -64862.900000 0 0 1
-15.346054 -20.102178 30.487893 39.612000 0.918773 0.692483 0.001201 0.000446 -469593.000000 0 0 1
-14.505654 -19.541478 31.645873 39.921732 0.932241 0.655574 0.009703 0.003111 -217750.000000 0 0 1
-13.949554 -18.296778 31.310263 38.854790 0.919403 0.633725 0.014773 -0.001373 -156944.000000 0 0 1
-13.431854 -17.636378 32.459263 39.307255 0.919913 0.599207 0.013280 0.003124 64942.700000 0 0 1
-13.104754 -16.145978 32.109233 38.254804 0.888997 0.574707 0.008256 0.002477 -575229.000000 0 0 1
-12.072654 -15.944778 31.206013 37.064811 0.922732 0.569944 0.009352 -0.001334 -543817.000000 0 0 1
-11.815654 -14.569978 30.999223 36.233214 0.889409 0.544190 0.002487 -0.003740 339315.000000 0 0 1
-10.283354 -14.330478 30.909273 35.587823 0.948365 0.518557 0.003139 -0.004800 460966.000000 0 0 1
-9.929754 -12.991878 30.564073 34.663403 0.918203 0.491260 0.009208 0.000407 -503198.000000 0 0 1
-8.616354 -12.641378 30.907343 34.486372 0.972527 0.459625 0.000239 -0.002936 -237544.000000 0 0 1
-8.447054 -11.119378 30.978083 33.979920 0.921135 0.423494 -0.002415 -0.003232 -458829.000000 0 0 1
-9.266254 -10.440278 31.893723 34.814831 0.844903 0.412564 -0.001903 -0.000947 -23144.200000 0 0 1
-8.903654 -9.055778 32.049763 34.474186 0.793868 0.377269 -0.004750 -0.001234 -214388.000000 0 0 1
-9.820254 -8.325178 33.036053 35.455984 0.703190 0.371598 -0.004273 -0.001254 356007.000000 0 0 1
-11.140954 -8.149578 32.522103 35.330209 0.631554 0.401391 -0.003675 0.000079 197520.000000 0 0 1
-12.063754 -7.504378 33.365412 36.264316 0.556482 0.402558 -0.006535 -0.000032 -49837.800000 0 0 1
-11.920054 -5.984578 33.755024 36.294690 0.465294 0.376311 -0.001968 0.002719 -619368.000000 0 0 1
-11.844954 -5.102178 32.635453 35.091423 0.406728 0.376350 -0.006324 0.002178 228848.000000 0 0 1
-11.884354 -3.738278 33.059453 35.329026 0.304756 0.360391 -0.010298 0.001996 -135225.000000 0 0 1
-11.138854 -2.751078 32.119403 34.107163 0.242135 0.343089 -0.007944 0.002136 -505251.000000 0 0 1
-9.750354 -2.758078 32.054273 33.617746 0.275668 0.306178 -0.006041 0.001368 -586925.000000 0 0 1
-9.337354 -1.584578 31.315553 32.716371 0.168102 0.293687 -0.003880 0.001491 395224.000000 0 0 1
-7.903054 -1.084578 31.651533 32.641295 0.136383 0.246888 0.006999 0.002862 304466.000000 0 0 1
-7.672754 -0.854478 33.011713 33.902426 0.110908 0.229733 0.006009 -0.007833 -915060.000000 0 0 1
-6.365954 -0.444878 33.173983 33.782191 0.069771 0.190043 0.009128 -0.009400 -938444.000000 0 0 1
-6.206454 0.401422 34.487197 35.043516 -0.064588 0.178422 0.007646 -0.009830 -555631.000000 0 0 1
-6.854154 1.694922 34.505501 35.220474 -0.242421 0.201836 0.000878 -0.009980 325348.000000 0 0 1
-6.203554 2.714922 33.718827 34.392066 -0.412528 0.198190 0.007760 -0.010375 -253573.000000 0 0 1
-6.923454 4.100322 33.623689 34.573101 -0.534691 0.234894 0.008551 -0.011489 173531.000000 0 0 1
-8.164654 3.852622 32.968163 34.181926 -0.440888 0.267287 0.006886 -0.009270 570612.000000 0 0 1
-8.970554 5.061122 32.999743 34.569768 -0.513674 0.302536 0.005247 -0.003748 -1258230.000000 0 0 1
-10.326754 4.984222 32.422403 34.390355 -0.449673 0.339936 0.001693 -0.005406 -1517750.000000 0 0 1
-10.922354 6.235022 32.595843 34.937978 -0.518710 0.368238 0.003642 -0.002089 -68333.100000 0 0 1
-12.187454 6.324322 31.954923 34.779997 -0.478669 0.405835 -0.000938 -0.000556 442979.000000 0 0 1
-12.967254 7.653322 32.283503 35.622291 -0.533185 0.436416 0.004097 -0.000410 309325.000000 0 0 1
-13.519254 7.690222 33.615941 37.039725 -0.517189 0.433349 0.003649 -0.002044 227246.000000 0 0 1
-14.146154 8.924122 33.878564 37.782413 -0.562796 0.458595 0.007241 0.001486 427342.000000 0 0 1
-14.953954 9.138222 -34.231184 38.456493 -0.548535 2.668421 0.012338 0.003775 181122.000000 0 0 1
-14.043254 9.445322 -33.242187 37.302414 -0.592091 2.670678 0.006632 -0.000815 -202813.000000 0 0 1
-14.727154 9.547122 -32.018517 36.513313 -0.575156 2.640170 0.001660 -0.004308 -911197.000000 0 0 1
-13.870354 9.947922 -30.814757 35.226370 -0.622181 2.635745 -0.001645 -0.007189 110041.000000 0 0 1
-13.212654 11.243322 -30.901247 35.438307 -0.705046 2.630015 0.007334 -0.005692 1020170.000000 0 0 1
-11.947054 11.051522 -31.581637 35.528412 -0.746479 2.665761 0.004207 -0.006209 147810.000000 0 0 1
-11.159454 12.352822 -31.849037 35.937262 -0.836110 2.659960 0.001459 -0.004363 -151653.000000 0 0 1
-11.655954 13.172822 -32.886287 37.294670 -0.846415 2.650453 0.003651 0.005506 -410287.000000 0 0 1
-11.034854 14.396322 -32.829517 37.507323 -0.916815 2.636817 -0.001419 0.005741 -337272.000000 0 0 1
-11.269654 15.411622 -31.637607 36.952150 -0.939408 2.598622 -0.001648 0.005865 852102.000000 0 0 1
-12.597754 15.983422 -31.655787 37.633257 -0.903307 2.570231 0.007674 0.005270 940003.000000 0 0 1
-12.760854 16.997222 -30.661507 37.307814 -0.926808 2.535451 0.003237 0.005429 -106292.000000 0 0 1
-14.100554 17.723022 -30.871047 38.287762 -0.898740 2.508650 0.007278 0.002684 -422397.000000 0 0 1
-14.104654 18.528622 -32.040247 39.608440 -0.920143 2.513117 0.008570 0.002433 477699.000000 0 0 1
-15.391154 18.938022 -32.499837 40.642044 -0.888352 2.497526 0.007053 0.001686 540779.000000 0 0 1
-16.035554 20.125622 -31.677257 40.812109 -0.898026 2.459370 0.005802 -0.004001 -124311.000000 0 0 1
-15.271054 21.342122 -31.758177 41.197974 -0.949720 2.450998 0.002013 -0.001888 408627.000000 0 0 1
-15.822054 22.488922 -31.089617 41.504859 -0.957693 2.417438 0.004944 -0.010880 74238.400000 0 0 1
-17.126154 23.079522 -31.690767 42.781704 -0.932403 2.404990 0.001751 -0.008454 275199.000000 0 0 1
-18.271254 22.329222 -31.330937 42.591789 -0.885016 2.397363 0.005186 -0.008325 565171.000000 0 0 1
-19.351654 22.471822 -32.266837 43.824857 -0.859863 2.398335 0.007691 -0.007994 -173704.000000 0 0 1
-20.666754 21.716022 -31.982767 43.836032 -0.810150 2.388533 0.002297 -0.007279 -205265.000000 0 0 1
-21.579454 22.451222 -31.124617 44.028082 -0.805195 2.355940 0.002616 -0.006054 701021.000000 0 0 1
-22.338454 23.457122 -31.774457 45.374654 -0.809821 2.346570 0.005265 -0.005422 -521594.000000 0 0 1
-23.547954 22.862922 -32.538777 46.216787 -0.770639 2.351876 -0.004382 -0.005222 -790410.000000 0 0 1
-23.198154 22.147622 -33.761067 46.566954 -0.762235 2.381832 -0.000129 -0.003423 -136468.000000 0 0 1
-24.328054 21.604922 -34.409205 47.356312 -0.726183 2.384160 0.000842 -0.000643 -195832.000000 0 0 1
-24.122354 20.695022 33.817501 46.409000 -0.709073 0.754398 0.001283 0.005358 -178149.000000 0 0 1
-23.473354 19.470122 34.130530 45.770920 -0.692446 0.729239 0.006413 0.011453 253531.000000 0 0 1
-23.360454 18.581822 33.072963 44.551272 -0.671954 0.734214 -0.002328 0.013444 -137811.000000 0 0 1
-22.828154 17.119822 33.452271 43.968936 -0.643465 0.706227 0.005051 0.010975 172603.000000 0 0 1
-23.787854 16.165422 33.906998 44.461977 -0.596880 0.703463 0.007089 0.010287 719897.000000 0 0 1
-24.571354 15.563022 32.860583 43.883676 -0.564603 0.724530 0.006224 0.008268 -37503.900000 0 0 1
-25.480034 14.401622 33.277983 44.317751 -0.514447 0.721380 0.002608 0.006031 -585717.000000 0 0 1
-26.748724 14.797522 33.723087 45.516014 -0.505300 0.736378 0.001154 0.007422 -368205.000000 0 0 1
-27.722304 13.764022 33.682959 45.744029 -0.460841 0.743158 0.002524 0.007854 100670.000000 0 0 1
-27.745854 12.538122 34.600601 46.089462 -0.424426 0.721635 0.000096 0.003035 -310554.000000 0 0 1
-26.703574 11.602822 34.350364 45.029478 -0.409893 0.703100 0.003685 -0.002074 39965.900000 0 0 1
-27.137484 10.277122 34.652661 45.198111 -0.362016 0.697136 0.003020 0.000947 135610.000000 0 0 1
-25.981324 9.192422 -34.666639 44.286631 -0.340064 2.469915 0.002058 -0.001833 457917.000000 0 0 1
-25.120244 8.919622 33.696114 42.965270 -0.341191 0.669287 0.004788 0.000490 534997.000000 0 0 1
-24.136454 9.955522 33.476238 42.453968 -0.391208 0.662381 -0.000238 -0.005876 -661526.000000 0 0 1
-22.929854 9.489622 32.681023 41.035112 -0.392393 0.649451 -0.009259 -0.005630 -553952.000000 0 0 1
-23.048054 9.334422 31.303923 39.978492 -0.384808 0.671291 -0.009415 -0.003042 -162503.000000 0 0 1
-21.774654 9.102022 30.753403 38.765373 -0.395935 0.654551 -0.007662 -0.001942 107268.000000 0 0 1
-21.761554 9.166422 29.222343 37.570386 -0.398665 0.679634 -0.004287 -0.004864 -79707.700000 0 0 1
-22.192554 10.393122 28.613363 37.672948 -0.437980 0.708221 0.002547 -0.005294 184283.000000 0 0 1
-21.783454 10.527422 27.265253 36.451879 -0.450179 0.725784 0.004590 -0.007778 -1061430.000000 0 0 1
-22.072654 11.912022 26.687133 36.623782 -0.494880 0.754399 0.006612 -0.004554 947549.000000 0 0 1
-23.445254 12.344722 26.769323 37.665220 -0.484649 0.780279 0.006082 -0.005201 1232290.000000 0 0 1
-24.269354 11.911222 25.670623 37.280822 -0.456255 0.811275 0.004231 -0.002164 485742.000000 0 0 1
-25.766644 12.318522 25.717253 38.432318 -0.445958 0.837723 -0.001905 0.002824 320838.000000 0 0 1
-25.965194 13.664722 25.341683 38.770051 -0.484443 0.858411 0.002194 0.001603 -588100.000000 0 0 1
-27.155054 14.207522 25.813313 40.069662 -0.482035 0.870805 0.000662 0.005299 -476047.000000 0 0 1
-27.409254 15.612722 25.238523 40.398111 -0.517778 0.895991 0.001885 0.002791 152984.000000 0 0 1
-26.689674 16.731522 25.779983 40.704914 -0.559958 0.884937 0.006520 0.000742 184315.000000 0 0 1
-27.098704 17.899422 25.065943 41.024756 -0.583740 0.913479 0.001632 -0.001071 69449.100000 0 0 1
-22.072554 -9.441178 32.335143 40.272757 0.404184 0.638646 0.011773 -0.006361 -555515.000000 0 0 1
-21.182654 -8.937478 31.424313 38.936754 0.399263 0.631640 0.014819 -0.010869 -528582.000000 0 0 1
-21.570954 -9.205778 30.115013 38.170230 0.403367 0.661672 0.010227 -0.011484 -363935.000000 0 0 1
-20.495054 -8.849678 29.095813 36.673293 0.407613 0.654457 0.008837 -0.012479 -933869.000000 0 0 1
-20.205554 -7.503278 28.829473 35.995863 0.355564 0.641982 0.003876 -0.010998 -78471.200000 0 0 1
-19.126554 -6.899878 29.531763 35.854685 0.346218 0.602976 0.007233 -0.008312 367416.000000 0 0 1
-17.731954 -7.290478 28.959433 34.730707 0.390081 0.584790 0.011812 -0.008259 -631017.000000 0 0 1
-17.271254 -8.663378 29.015593 34.860508 0.464932 0.587491 0.009552 -0.011867 232819.000000 0 0 1
-16.850154 -9.167478 30.303513 35.864652 0.498271 0.564342 0.012790 -0.012347 -1002450.000000 0 0 1
-15.453654 -8.846078 30.793673 35.571320 0.519898 0.524273 0.014407 -0.010022 341545.000000 0 0 1
-14.414854 -9.536078 29.999253 34.621958 0.584449 0.522688 0.011745 -0.011202 934465.000000 0 0 1
-13.104154 -9.227278 30.455833 34.415393 0.613505 0.484414 0.007654 -0.005857 921087.000000 0 0 1
-11.970754 -10.016178 29.704033 33.555214 0.696734 0.483811 0.002319 -0.003941 336156.000000 0 0 1
-11.695154 -9.692478 28.358303 32.170081 0.692033 0.491742 0.013817 -0.009857 -381432.000000 0 0 1
-10.574854 -10.439078 27.985243 31.685576 0.778937 0.488118 0.007819 -0.006262 -425119.000000 0 0 1
-10.118354 -10.255478 26.532003 30.191110 0.792128 0.497451 0.008037 -0.004425 -437983.000000 0 0 1
-10.990754 -10.679678 25.551243 29.794601 0.771044 0.540251 0.007434 -0.005015 -230657.000000 0 0 1
-10.404654 -10.445878 24.279833 28.405695 0.787375 0.545723 -0.003158 -0.003886 -91778.200000 0 0 1
-11.335454 -10.948478 23.149433 28.004606 0.768034 0.597705 -0.004061 -0.004497 -442713.000000 0 0 1
-11.456954 -12.365878 23.114133 28.608389 0.823533 0.630132 0.001230 -0.003878 -132373.000000 0 0 1
-12.679254 -12.842678 22.650733 28.961243 0.791801 0.672760 0.004946 -0.002225 -300608.000000 0 0 1
-13.915954 -12.710578 23.570233 30.178941 0.740159 0.674505 0.001432 -0.003453 -653934.000000 0 0 1
-15.088054 -13.206378 22.959733 30.482899 0.718993 0.717882 0.005705 -0.002099 113332.000000 0 0 1
-16.123154 -13.025478 23.945233 31.670071 0.679524 0.713488 0.005005 -0.001695 246700.000000 0 0 1
-17.339454 -13.953878 23.625133 32.457885 0.677629 0.755585 0.007878 -0.002700 -343834.000000 0 0 1
-17.228854 -15.363078 23.814133 33.165804 0.728214 0.769825 0.001555 -0.004294 -298740.000000 0 0 1
-18.426454 -16.066678 23.566533 33.956647 0.717092 0.803741 0.005601 0.002502 -473876.000000 0 0 1
-19.195554 -16.112378 24.917233 35.340438 0.698297 0.788284 0.002177 0.000193 -834056.000000 0 0 1
-18.686054 -16.940678 25.900443 36.152291 0.736447 0.772130 0.004046 -0.001888 -400030.000000 0 0 1
-19.367854 -16.835978 27.100343 37.322815 0.715578 0.758154 0.004633 -0.001315 -625889.000000 0 0 1
-18.848754 -17.793478 28.198673 38.302070 0.756607 0.743332 0.001833 -0.005823 -141404.000000 0 0 1
-18.939454 -19.146778 27.942523 38.808332 0.790842 0.766975 -0.002989 -0.004912 97211.800000 0 0 1
-18.748354 -19.966378 29.062453 39.934737 0.816849 0.755763 -0.000194 -0.000791 -456445.000000 0 0 1
-18.683954 -21.431578 28.657963 40.369314 0.853784 0.781448 -0.002881 0.001663 96965.300000 0 0 1
-19.945754 -22.039078 28.420043 41.124846 0.835216 0.807831 0.001763 0.000816 147945.000000 0 0 1
-19.765554 -23.330978 27.962663 41.435760 0.867941 0.830043 0.000753 0.003039 242930.000000 0 0 1
-21.091554 -24.023578 27.577343 42.219614 0.850297 0.859009 0.004407 0.003814 293732.000000 0 0 1
-21.898654 -24.588378 28.592193 43.607945 0.843193 0.855734 0.000846 0.004643 -284361.000000 0 0 1
-23.014154 -25.242008 28.080153 44.218834 0.831533 0.882753 -0.004567 -0.001574 -287827.000000 0 0 1
-23.830554 -26.003188 29.157323 45.762546 0.828968 0.880010 -0.001230 -0.006021 -391619.000000 0 0 1
-24.555754 -25.241498 30.080493 46.313652 0.799168 0.863876 -0.000345 0.002669 -89740.800000 0 0 1
-25.135144 -26.118168 30.987263 47.687993 0.804576 0.863486 0.006887 0.004213 61421.500000 0 0 1
-26.239934 -25.529388 31.911613 48.565779 0.771674 0.853857 0.011673 0.004586 453177.000000 0 0 1
-27.323334 -25.003678 31.160163 48.401491 0.741097 0.871362 0.010959 0.004212 259163.000000 0 0 1
-28.388514 -24.555678 31.991993 49.319131 0.713130 0.864957 0.005508 0.003339 -14395.800000 0 0 1
-29.626554 -24.217678 31.153063 49.343105 0.685280 0.887496 0.001032 0.005869 -302395.000000 0 0 1
-30.300294 -25.331708 30.562823 49.938857 0.696323 0.912203 -0.002717 0.002524 1111110.000000 0 0 1
-31.543414 -24.969678 29.909133 50.130111 0.669596 0.931501 -0.005963 0.004707 665986.000000 0 0 1
-32.757814 -25.556638 30.604593 51.602880 0.662531 0.935918 -0.008677 0.004692 -665965.000000 0 0 1
-32.724994 -26.970888 30.446393 52.204759 0.689305 0.948120 -0.003077 0.001472 65656.500000 0 0 1
-33.615274 -27.643298 31.310253 53.614089 0.688217 0.947157 0.001775 -0.001525 -167107.000000 0 0 1
-33.258934 -29.217798 31.479773 54.321382 0.720806 0.952669 0.003386 -0.006304 -265397.000000 0 0 1
-32.246274 -29.469338 32.392673 54.383356 0.740433 0.932739 0.007496 -0.002819 -617083.000000 0 0 1
-32.105544 -30.842378 32.617493 55.189846 0.765334 0.938492 0.006984 -0.000408 172219.000000 0 0 1
-31.047074 -31.232328 33.700162 55.453405 0.788373 0.917609 0.008957 0.003275 62117.000000 0 0 1
-31.437524 -30.944468 -34.414234 55.948347 0.777495 2.233318 0.004506 0.006720 -157630.000000 0 0 1
-30.341864 -30.897008 -33.525647 54.765161 0.794463 2.229600 0.002565 -0.001533 -37202.100000 0 0 1
-30.783484 -30.563298 -32.058827 53.939841 0.781809 2.207246 0.002476 -0.003054 -182284.000000 0 0 1
-31.061254 -29.180598 -31.854597 53.207370 0.754190 2.212658 0.000983 0.002244 709230.000000 0 0 1
-29.862394 -28.438748 -31.532247 51.911536 0.760984 2.223608 0.001632 0.000032 630410.000000 0 0 1
-30.056204 -26.940458 -31.489467 51.193264 0.730787 2.233321 -0.002252 0.003073 -177046.000000 0 0 1
-30.724574 -26.524408 -30.299217 50.651617 0.712163 2.212035 -0.002526 0.000944 -155767.000000 0 0 1
-30.534394 -25.142568 -30.005607 49.647099 0.688858 2.219781 -0.000131 -0.002410 327288.000000 0 0 1
-29.139974 -24.686978 -29.496567 48.255906 0.702858 2.228439 0.006794 -0.005973 195438.000000 0 0 1
-29.157474 -23.252278 -29.450387 47.520017 0.673198 2.239217 0.009513 -0.002818 -18938.900000 0 0 1
-28.102834 -22.908978 -28.596047 46.177099 0.683931 2.238608 0.009755 -0.004204 -486948.000000 0 0 1
-27.796094 -21.390478 -28.537097 45.216605 0.655896 2.253792 0.007816 -0.002300 -335838.000000 0 0 1
-27.320124 -20.946278 -29.757747 45.504497 0.654102 2.283593 0.011523 -0.003731 226548.000000 0 0 1
-26.938134 -19.608178 -29.742307 44.662608 0.629204 2.299540 0.002994 -0.002694 -256055.000000 0 0 1
-26.383414 -19.108878 -31.138337 45.064729 0.626834 2.333625 0.001059 0.002870 464382.000000 0 0 1
-27.319544 -18.914578 -32.236147 46.295658 0.605571 2.341040 0.003159 0.003013 360235.000000 0 0 1
-28.222814 -17.858378 -32.054127 46.291641 0.564163 2.335660 0.007402 0.003883 -833486.000000 0 0 1
-28.778074 -17.325478 -33.393727 47.365502 0.541916 2.353251 0.005461 0.006855 -105090.000000 0 0 1
-29.766504 -18.101578 -34.041057 48.708372 0.546368 2.344620 0.003860 0.007353 -156160.000000 0 0 1
-31.058874 -17.811578 -33.573757 49.082616 0.520690 2.324063 0.000830 0.004407 -832189.000000 0 0 1
-32.070134 -18.257578 -34.637893 50.612413 0.517541 2.324543 -0.005568 0.003338 -584409.000000 0 0 1
-32.430904 -19.604878 34.688020 51.374834 0.543731 0.829568 -0.002307 0.004621 -85923.700000 0 0 1
-33.074304 -19.883878 33.509687 51.109464 0.541293 0.855759 -0.008508 0.003085 -497955.000000 0 0 1
-33.787014 -21.282278 33.500406 52.122691 0.562112 0.872750 -0.007140 0.003295 770264.000000 0 0 1
-32.831454 -22.331078 33.259733 51.795669 0.597295 0.873518 -0.007304 0.003782 628013.000000 0 0 1
-33.402074 -23.500978 33.783132 53.002779 0.613124 0.879698 -0.009314 0.004342 -710408.000000 0 0 1
-32.352584 -24.548178 34.194867 53.090411 0.649090 0.870967 -0.002493 0.000968 522311.000000 0 0 1
-31.427904 -24.217678 -34.184643 52.371738 0.656542 2.281980 0.000929 -0.001082 889915.000000 0 0 1
-30.477234 -23.176178 -34.420575 51.485659 0.650151 2.303049 0.002007 -0.002831 -302552.000000 0 0 1
-29.122804 -23.206878 -33.654837 50.193077 0.672825 2.305689 0.002883 -0.001293 121695.000000 0 0 1
-28.332784 -24.320678 -34.103112 50.569401 0.709347 2.310924 0.005545 0.000082 1685930.000000 0 0 1
-26.939334 -24.222178 -33.677907 49.463553 0.732339 2.319737 0.003551 -0.000710 1579460.000000 0 0 1
-26.668114 -24.692478 -32.191267 48.550844 0.746951 2.295672 0.007007 0.004966 -572365.000000 0 0 1
-26.835524 -26.082618 -31.930377 49.193468 0.771171 2.277168 0.009181 0.000172 56252.400000 0 0 1
-25.836584 -26.409548 -30.984917 48.218860 0.796364 2.268669 0.008309 -0.003511 -159562.000000 0 0 1
-25.889664 -27.860768 -30.401377 48.690254 0.822053 2.245138 0.005747 -0.002792 -153091.000000 0 0 1
-27.022014 -28.307328 -29.675707 49.113559 0.808624 2.219591 0.005919 0.001537 -93699.700000 0 0 1
-26.878674 -29.600438 -29.114217 49.459951 0.833552 2.200175 0.012027 0.005916 -28300.000000 0 0 1
-27.581694 -30.848508 -29.744287 50.961779 0.841250 2.194024 0.009591 0.007091 -214901.000000 0 0 1
-27.179654 -31.147398 -31.067387 51.711474 0.853319 2.215277 0.000410 0.003381 101293.000000 0 0 1
-27.459254 -32.452928 -31.443527 52.876257 0.868556 2.207642 0.007171 0.006348 -372816.000000 0 0 1
-27.070684 -32.945228 -32.857157 53.831244 0.882970 2.227328 0.000342 0.001187 148236.000000 0 0 1
-25.662124 -32.901238 -33.069877 53.241458 0.908386 2.240980 -0.004502 -0.001978 40034.000000 0 0 1
-25.473184 -33.316298 -34.406019 54.246041 0.918025 2.257846 -0.001474 -0.005427 393520.000000 0 0 1
-24.020454 -33.228858 34.425989 53.537725 0.944880 0.872357 -0.004112 -0.001673 769617.000000 0 0 1
-23.554154 -34.124281 33.406831 53.247358 0.966647 0.892600 -0.006206 -0.000461 151323.000000 0 0 1
-23.049154 34.153070 33.940416 53.382090 -0.977131 0.881750 -0.007516 0.001937 -650679.000000 0 0 1
-22.758454 33.165323 32.818153 51.912590 -0.969384 0.886431 -0.001476 -0.001650 -643990.000000 0 0 1
-23.911654 32.726863 32.189233 51.758685 -0.939799 0.899617 -0.011500 -0.002239 -489825.000000 0 0 1
-23.576954 32.183503 30.946003 50.490650 -0.938538 0.911064 -0.002571 -0.000772 314404.000000 0 0 1
-24.860254 31.553913 30.357943 50.351627 -0.903498 0.923642 0.003206 0.000912 322233.000000 0 0 1
-25.264974 30.388873 31.070853 50.271268 -0.877207 0.904519 -0.001520 -0.001880 -192043.000000 0 0 1
-26.537994 29.917453 30.716493 50.426402 -0.845187 0.915827 -0.001311 -0.001210 41126.900000 0 0 1
-26.944514 28.638773 31.513983 50.391639 -0.815870 0.895176 -0.008370 -0.008360 289857.000000 0 0 1
-26.111144 27.509083 31.216143 49.122185 -0.811463 0.882167 -0.006097 -0.003488 227678.000000 0 0 1
-26.538704 26.280973 31.864343 49.095099 -0.780519 0.864484 -0.005140 -0.008026 609443.000000 0 0 1
-27.753324 25.654243 31.137013 48.968365 -0.746115 0.881674 -0.000966 -0.008122 211774.000000 0 0 1
-27.283234 25.236483 29.860923 47.675252 -0.746447 0.893947 -0.012971 -0.010550 -365703.000000 0 0 1
-28.182774 24.557913 29.008243 47.316361 -0.716776 0.910856 -0.006857 -0.007312 -415699.000000 0 0 1
-27.726514 24.332833 27.583933 46.062129 -0.720302 0.928742 -0.003458 -0.005473 8344.060000 0 0 1
-26.656514 23.387833 27.589093 44.930152 -0.720175 0.909622 -0.005334 -0.004543 201324.000000 0 0 1
-26.127554 23.168233 26.294243 43.712736 -0.725438 0.925389 -0.009342 0.004522 586441.000000 0 0 1
-24.776054 22.365833 26.328223 42.511865 -0.734316 0.902927 -0.003231 -0.004394 340302.000000 0 0 1
-24.993554 21.133033 26.992093 42.424709 -0.701899 0.881188 0.004212 -0.010035 459157.000000 0 0 1
-23.786654 20.437433 27.238613 41.538363 -0.709809 0.855626 0.000884 -0.007601 16043.900000 0 0 1
-23.977754 19.318333 28.332793 41.843492 -0.678193 0.826963 0.004795 -0.009289 -205072.000000 0 0 1
-22.825854 18.565133 28.599693 41.032015 -0.682821 0.799578 0.001519 -0.002854 -87565.800000 0 0 1
-23.115554 17.542633 29.534573 41.404877 -0.649179 0.776584 0.001761 -0.001093 -156411.000000 0 0 1
-22.004854 16.488133 29.717213 40.486848 -0.643050 0.746608 -0.002899 0.000015 161586.000000 0 0 1
-20.934554 16.962333 30.568263 40.747945 -0.680963 0.722463 -0.000509 0.003057 567808.000000 0 0 1
-19.860754 16.052433 30.345143 39.660533 -0.679751 0.699566 0.000053 0.004887 470595.000000 0 0 1
-18.570554 16.413733 31.157553 39.812928 -0.723825 0.671967 0.000616 0.004087 329252.000000 0 0 1
-18.727454 16.296433 32.579243 40.959716 -0.716099 0.651134 0.002584 0.008131 82003.900000 0 0 1
-17.633454 16.901933 33.220533 41.233698 -0.764220 0.634000 -0.000220 0.003576 -652805.000000 0 0 1
-17.619454 16.858833 -34.682934 42.397775 -0.763341 2.528785 -0.000423 0.002725 71562.200000 0 0 1
-18.532154 17.654433 -33.929127 42.500652 -0.761147 2.495297 0.001053 0.000368 -232247.000000 0 0 1
-19.821054 17.125433 -33.898697 42.840125 -0.712567 2.483702 0.004286 -0.001041 -837264.000000 0 0 1
-20.809354 17.801733 -32.923347 42.823798 -0.707660 2.447774 0.008830 0.000245 141299.000000 0 0 1
-20.598754 17.445933 -31.523937 41.502143 -0.702716 2.433454 0.004484 0.004253 311714.000000 0 0 1
-21.681654 18.021933 -30.833077 41.779933 -0.693482 2.400880 -0.004003 -0.002975 -450217.000000 0 0 1
-21.773654 17.758133 -29.283637 40.582936 -0.684168 2.376871 -0.002103 -0.001216 -112412.000000 0 0 1
-22.301854 16.508333 -28.776217 39.974597 -0.637214 2.374401 -0.001530 0.003866 520673.000000 0 0 1
-23.690654 16.348133 -29.067477 40.907539 -0.604028 2.361098 0.004904 0.002756 264277.000000 0 0 1
-24.431154 15.096533 -28.585517 40.520592 -0.553493 2.353863 0.007778 -0.004804 -337091.000000 0 0 1
-23.907954 13.852333 -28.931227 40.006166 -0.525137 2.379176 0.004033 -0.003485 -465845.000000 0 0 1
-24.666854 12.872533 -28.327807 39.706680 -0.480979 2.365173 -0.004557 -0.003508 -158877.000000 0 0 1
-24.038954 11.493333 -28.478117 38.999630 -0.445985 2.389433 -0.005310 -0.004128 -229674.000000 0 0 1
-23.071854 11.106433 -27.554557 37.615382 -0.448645 2.392834 -0.006265 -0.003349 -450960.000000 0 0 1
-22.436254 9.941733 -27.994157 37.227629 -0.417110 2.421846 -0.004420 0.000100 -205752.000000 0 0 1
-21.503354 9.254033 -26.991417 35.729091 -0.406396 2.427132 0.003538 0.001895 -375207.000000 0 0 1
-22.044454 8.254733 -26.171537 35.200113 -0.358296 2.409096 -0.007437 -0.001178 -713587.000000 0 0 1
-21.138454 7.766033 -25.245877 33.830457 -0.352081 2.413203 0.003746 0.008848 -1214130.000000 0 0 1
-21.688054 6.774633 -24.277107 33.251245 -0.302764 2.389281 -0.000895 0.011495 -232620.000000 0 0 1
-22.310654 5.670133 -24.912407 33.919666 -0.248876 2.395657 -0.004791 0.002105 242177.000000 0 0 1
-22.696454 4.602333 -24.057907 33.393014 -0.200065 2.375243 -0.004160 0.002552 -443451.000000 0 0 1
33.032575 24.813322 -10.697407 42.676533 0.644254 1.824161 0.012281 0.004362 187942.000000 0 0 1
33.834456 24.050822 -9.770107 42.645837 0.617963 1.801948 0.009307 0.001637 398311.000000 0 0 1
-34.555915 23.499222 -10.425107 43.069799 -0.597200 1.815276 0.005343 -0.000571 239848.000000 0 0 1
-33.549344 22.974922 -9.385307 41.731158 -0.600458 1.797636 0.004065 0.000372 70849.100000 0 0 1
-34.136212 21.930222 -8.604707 41.475976 -0.571037 1.779777 0.007085 0.000926 104234.000000 0 0 1
-33.158084 21.586222 -7.670507 40.302112 -0.577084 1.762290 0.000507 0.008152 -363131.000000 0 0 1
-33.646444 20.669622 -6.518707 40.022619 -0.550881 1.734401 -0.002461 0.011178 10689.200000 0 0 1
-34.113430 19.334922 -6.904607 39.815059 -0.515637 1.745094 0.005627 0.001090 329318.000000 0 0 1
-34.496964 18.665722 -5.778507 39.646448 -0.495971 1.717068 0.012409 -0.007673 -64057.500000 0 0 1
34.121942 17.436722 -6.141207 38.807997 0.472418 1.729710 0.005540 -0.002029 1110170.000000 0 0 1
32.895325 17.828622 -6.805007 38.029860 0.496665 1.750704 0.005672 -0.003937 691477.000000 0 0 1
32.270755 16.705122 -7.388007 37.081604 0.477672 1.771375 0.014188 -0.003176 372707.000000 0 0 1
31.114425 17.020322 -8.384607 36.443112 0.500555 1.802950 0.014843 -0.000381 212944.000000 0 0 1
30.643405 15.913922 -9.065707 35.699555 0.478989 1.827553 0.010667 0.000870 -99019.800000 0 0 1
30.285865 16.170922 -10.428707 35.881615 0.490432 1.865694 0.004971 -0.000067 -278971.000000 0 0 1
29.823285 14.891822 -11.237007 35.177621 0.463116 1.895931 -0.001317 -0.003400 465734.000000 0 0 1
28.590675 14.272522 -10.870707 33.753575 0.463009 1.898702 -0.007474 -0.001147 634202.000000 0 0 1
28.476675 13.677422 -9.583307 33.012614 0.447766 1.865329 0.000242 -0.001723 -640464.000000 0 0 1
27.425425 12.573422 -9.603207 31.661751 0.429866 1.878957 -0.010593 -0.002581 -206666.000000 0 0 1
27.936355 11.451622 -10.278207 31.893904 0.389027 1.898915 -0.010627 -0.000900 539165.000000 0 0 1
26.958825 10.429122 -10.294407 30.684192 0.369122 1.912927 -0.011572 -0.000352 -294123.000000 0 0 1
27.554485 9.092122 -10.770807 30.950390 0.318719 1.926236 -0.012697 -0.000230 -965469.000000 0 0 1
28.507825 8.607022 -9.917107 31.386716 0.293215 1.892270 -0.005395 -0.001768 -383245.000000 0 0 1
28.597815 7.232022 -9.958807 31.133824 0.247694 1.896390 -0.007095 -0.000330 -892716.000000 0 0 1
29.672495 6.689322 -9.007507 31.722849 0.221732 1.858701 -0.007551 0.002690 211630.000000 0 0 1
30.955425 7.040322 -9.539307 33.148195 0.223630 1.862702 -0.004679 -0.001165 154184.000000 0 0 1
31.972045 6.509522 -8.717907 33.772584 0.200855 1.831888 -0.000202 0.001007 1313760.000000 0 0 1
33.445895 6.770822 -9.274607 35.362272 0.199742 1.836174 0.003870 0.002300 1213330.000000 0 0 1
33.728722 5.936922 -10.328107 35.770708 0.174235 1.863697 -0.001434 -0.001866 842303.000000 0 0 1
-34.373902 5.983122 -10.529307 36.444879 -0.172333 1.863885 0.003131 -0.002321 -278728.000000 0 0 1
-33.915824 5.432022 -11.921707 36.358178 -0.158813 1.904872 -0.000414 -0.002345 -474022.000000 0 0 1
-32.567784 5.550222 -12.289107 35.248939 -0.168799 1.926913 0.003564 -0.002571 254675.000000 0 0 1
-32.121614 6.884222 -12.661307 35.206524 -0.211124 1.938667 -0.000083 0.000471 -308168.000000 0 0 1
-31.661694 7.780222 -11.448007 34.555052 -0.240956 1.908475 0.000046 -0.003207 -666667.000000 0 0 1
-32.689814 8.478622 -10.751007 35.441432 -0.253774 1.878998 0.002906 0.000544 242939.000000 0 0 1
-33.106434 9.740322 -11.352707 36.328967 -0.286139 1.888617 -0.002687 0.002685 224154.000000 0 0 1
-34.020194 10.507622 -10.404007 37.094839 -0.299569 1.855081 0.006034 0.000601 371116.000000 0 0 1
-33.225634 11.076122 -9.327207 36.243897 -0.321775 1.831071 0.012704 0.000987 111008.000000 0 0 1
-33.923994 11.992522 -8.511807 36.974435 -0.339800 1.803088 0.015363 -0.004045 -287295.000000 0 0 1
-33.146994 12.999522 -7.632007 36.413711 -0.373745 1.781954 0.018697 -0.005158 -30211.700000 0 0 1
-32.358544 13.948922 -8.323807 36.206817 -0.407004 1.802767 0.012707 -0.000811 -433335.000000 0 0 1
-31.737754 14.790922 -7.448507 35.798557 -0.436109 1.780395 0.012198 -0.000934 1749.260000 0 0 1
-30.959514 15.975522 -8.102807 35.768202 -0.476376 1.799317 0.003228 0.002839 782828.000000 0 0 1
-31.810804 16.882622 -8.858407 37.086676 -0.487920 1.811985 0.007034 0.003025 180813.000000 0 0 1
-31.076004 17.958622 -9.309007 37.079479 -0.524006 1.824567 0.008712 0.001277 16589.800000 0 0 1
-31.776934 18.671322 -10.487407 38.319414 -0.531233 1.848017 0.005553 -0.002348 -18535.500000 0 0 1
-31.326864 18.369822 -11.787407 38.180699 -0.530354 1.884651 0.007010 -0.002965 -462093.000000 0 0 1
-32.287544 18.711822 -12.731907 39.429928 -0.525237 1.899588 0.003240 -0.008372 -408678.000000 0 0 1
-31.725784 19.030122 -14.165807 39.614909 -0.540296 1.936480 -0.001011 -0.003373 -217065.000000 0 0 1
-31.020994 20.250022 -14.237907 39.687321 -0.578330 1.937727 -0.002046 -0.009941 64325.700000 0 0 1
-30.632714 20.522022 -15.564907 40.022280 -0.590264 1.970240 -0.007724 -0.006501 -856151.000000 0 0 1
-29.768374 21.739922 -15.708407 40.069120 -0.630775 1.973637 -0.001309 -0.011276 -1578610.000000 0 0 1
-28.456884 21.509722 -15.238707 38.790213 -0.647248 1.974524 -0.006618 -0.010052 -215220.000000 0 0 1
-27.807284 22.722222 -15.074007 38.945733 -0.685100 1.968228 0.002699 -0.010781 -459020.000000 0 0 1
-27.258794 23.308322 -16.379507 39.428517 -0.707433 1.999204 -0.001216 -0.006307 -904086.000000 0 0 1
-28.210434 23.863522 -17.310407 40.803756 -0.702116 2.008914 0.004525 -0.000398 647428.000000 0 0 1
-27.539034 24.566422 -18.378207 41.227006 -0.728410 2.032843 0.006334 0.000303 -45984.500000 0 0 1
-26.770964 25.854922 -18.016907 41.349371 -0.767993 2.021639 0.002951 0.001265 475184.000000 0 0 1
-27.629984 26.943822 -17.630707 42.429087 -0.772826 1.999326 0.008010 -0.000630 466789.000000 0 0 1
-26.848214 28.116622 -17.702507 42.717090 -0.808471 1.998094 0.008174 -0.003778 230989.000000 0 0 1
-27.496554 29.427022 -17.104807 43.755966 -0.819298 1.972420 0.002792 -0.002502 -106206.000000 0 0 1
-27.444524 29.582122 -15.710007 43.302519 -0.822865 1.942064 0.002807 -0.002409 834563.000000 0 0 1
-26.264084 30.270722 -15.232907 42.873770 -0.856150 1.934028 0.008817 -0.003249 622970.000000 0 0 1
-26.351954 30.665022 -13.766207 42.711562 -0.860900 1.898961 0.008004 0.001918 502795.000000 0 0 1
-27.486204 31.503022 -13.461307 43.921960 -0.853387 1.882292 0.001506 0.001868 527336.000000 0 0 1
-27.298594 32.420022 -12.392307 44.156996 -0.870948 1.855259 0.000254 0.002611 63770.700000 0 0 1
-26.315164 33.632522 -12.511607 44.499154 -0.906860 1.855804 -0.004596 0.002925 26596.100000 0 0 1
-26.531344 34.475422 -13.609807 45.581726 -0.914886 1.874001 -0.001842 -0.005099 145537.000000 0 0 1
-25.525394 -33.979889 -13.632707 44.632156 0.926533 1.881203 -0.005576 -0.003528 -100895.000000 0 0 1
-25.764884 -32.963989 -14.781707 44.372882 0.907372 1.910412 -0.005952 -0.002887 -84810.200000 0 0 1
-25.308734 -33.319789 -16.058107 44.817443 0.921198 1.937243 -0.013805 -0.005535 -58579.500000 0 0 1
-25.965154 -32.554489 -17.041807 44.993413 0.897526 1.959255 -0.007009 -0.000526 3501.870000 0 0 1
-25.540594 -32.931089 -18.496107 45.594787 0.911126 1.988500 -0.017558 -0.001447 -630880.000000 0 0 1
-25.859614 -34.201089 -18.966607 46.884607 0.923399 1.987270 -0.015269 -0.002790 -375499.000000 0 0 1
-25.003954 34.206222 -18.621807 46.282124 -0.939582 1.984883 -0.007591 -0.004831 -786557.000000 0 0 1
-25.224884 32.895422 -19.382107 45.761006 -0.916617 2.008158 -0.000234 -0.008964 600330.000000 0 0 1
-26.540694 32.365022 -19.249407 46.069977 -0.883953 2.001852 -0.002788 -0.008308 340652.000000 0 0 1
-27.488094 32.847722 -20.183607 47.349194 -0.873996 2.011163 -0.005734 -0.007699 -1327510.000000 0 0 1
-28.869414 32.328822 -20.008507 47.738204 -0.841866 2.003283 -0.000277 -0.001286 -1167170.000000 0 0 1
-29.069714 31.008422 -20.451107 47.167980 -0.817657 2.019259 -0.002150 -0.004252 -1023780.000000 0 0 1
-30.411954 30.766822 -20.616007 47.921853 -0.791199 2.015511 -0.002612 -0.004577 -1145330.000000 0 0 1
-30.710674 29.368922 -21.259507 47.514690 -0.763069 2.034686 0.000148 -0.008765 -467099.000000 0 0 1
-32.041104 29.069722 -21.573207 48.343400 -0.736814 2.033366 0.000877 -0.008929 -202438.000000 0 0 1
-32.026194 27.797722 -22.248007 47.889083 -0.714834 2.053949 -0.005860 -0.007647 270920.000000 0 0 1
-33.425414 27.164022 -22.525207 48.605837 -0.682422 2.052654 -0.000314 -0.006478 133502.000000 0 0 1
-34.159189 27.880822 -23.458607 49.944937 -0.684543 2.059735 -0.002405 -0.007179 -144261.000000 0 0 1
34.280877 27.060722 -23.892707 49.782755 0.668233 2.071382 0.004177 -0.005575 408065.000000 0 0 1
33.387075 27.675122 -25.015807 50.063957 0.692126 2.094022 0.008250 -0.004392 311566.000000 0 0 1
34.071101 27.797322 -26.273817 51.223476 0.684338 2.109385 0.009141 -0.002229 19306.800000 0 0 1
33.153225 28.078222 -27.285917 51.303452 0.702705 2.131584 0.012614 -0.000704 -80960.500000 0 0 1
33.915026 28.206822 -28.613897 52.579548 0.693768 2.146234 0.015722 0.000704 483202.000000 0 0 1
34.471557 26.992522 -29.141027 52.593573 0.664312 2.158053 0.015052 0.000771 103481.000000 0 0 1
-34.158103 27.214222 -30.211307 53.104736 -0.672734 2.175965 0.010166 -0.000506 -674385.000000 0 0 1
-33.679764 25.831822 -30.792047 52.438151 -0.654282 2.198400 0.010676 -0.003062 423117.000000 0 0 1
-32.719174 25.139122 -30.011447 51.021630 -0.655129 2.199640 0.006529 0.001883 172016.000000 0 0 1
-31.444874 25.754522 -29.896857 50.456888 -0.686242 2.204983 -0.000187 0.003489 -365719.000000 0 0 1
-30.422294 24.875522 -29.157747 48.933442 -0.685425 2.209139 -0.004153 0.003908 -753783.000000 0 0 1
-30.194634 23.647622 -29.830907 48.588157 -0.664396 2.231857 -0.000519 0.007852 85160.400000 0 0 1
-30.399884 22.446622 -28.980657 47.622288 -0.636022 2.225031 0.011661 0.006911 -227847.000000 0 0 1
-30.187444 21.136122 -29.660687 47.305114 -0.610835 2.248503 0.010149 0.005764 691676.000000 0 0 1
-28.778874 20.886422 -29.777217 46.380480 -0.627803 2.267927 0.003150 0.006521 719500.000000 0 0 1
-28.603724 19.500322 -30.013887 45.817781 -0.598366 2.285073 0.005099 0.005681 -26814.500000 0 0 1
-27.149734 19.006222 -30.197247 44.835458 -0.610761 2.309747 0.004340 0.001104 -107716.000000 0 0 1
-26.587644 19.541622 -31.408677 45.555272 -0.633825 2.331544 -0.002663 0.005791 -523278.000000 0 0 1
-25.381924 18.959522 -31.762657 44.861698 -0.641559 2.357477 0.001862 0.003158 -599686.000000 0 0 1
-25.549094 17.575222 -32.485567 44.910541 -0.602559 2.379423 0.004383 0.007096 -212768.000000 0 0 1
-26.035984 16.561222 -31.621657 44.182301 -0.566534 2.368435 0.001808 0.003232 99861.900000 0 0 1
-26.132604 15.329622 -32.363557 44.331819 -0.530515 2.389162 0.001188 0.004877 -7962.240000 0 0 1
-26.729984 14.154622 -31.540577 43.699581 -0.487000 2.377137 0.002150 0.003612 -233485.000000 0 0 1
-28.098394 14.333322 -31.270907 44.416590 -0.471704 2.351862 -0.000228 0.001061 380062.000000 0 0 1
-28.910614 13.129022 -31.200577 44.515962 -0.426279 2.347434 -0.003044 -0.002287 354094.000000 0 0 1
-28.781634 12.142522 -29.985617 43.300815 -0.399229 2.335739 -0.003099 -0.009259 -495722.000000 0 0 1
-28.989544 12.849622 -28.792447 42.831197 -0.417227 2.308014 -0.008099 -0.008878 357745.000000 0 0 1
-29.283974 11.929022 -27.748307 42.069244 -0.386832 2.291065 -0.010239 -0.008515 -173669.000000 0 0 1
-29.055904 12.492422 -26.378267 41.183967 -0.406051 2.265943 -0.007060 -0.010452 -310279.000000 0 0 1
-27.698204 12.832022 -26.264897 40.270288 -0.433842 2.281300 0.000289 -0.011754 -168511.000000 0 0 1
-27.494534 13.524222 -25.033307 39.566658 -0.457137 2.255814 0.000220 -0.014215 237914.000000 0 0 1
-26.027034 13.796422 -24.614907 38.388037 -0.487421 2.266874 0.002837 -0.008854 224307.000000 0 0 1
-25.232454 14.644722 -25.491477 38.742225 -0.525877 2.288925 0.009589 -0.009359 954222.000000 0 0 1
-23.866954 14.838322 -25.122687 37.695579 -0.556230 2.300250 0.005240 -0.004800 670837.000000 0 0 1
-23.572654 15.522322 -23.741007 36.881539 -0.582319 2.270132 0.002477 -0.001023 -1032680.000000 0 0 1
-24.001854 16.866022 -23.590007 37.643594 -0.612533 2.248065 0.003868 -0.005738 90573.300000 0 0 1
-23.908554 17.343822 -22.246807 36.977663 -0.627586 2.216334 0.007164 -0.004961 539740.000000 0 0 1
-25.288164 17.443122 -21.505507 37.499874 -0.603830 2.181546 0.006350 -0.003924 556628.000000 0 0 1
-26.048264 16.258222 -21.548807 37.512570 -0.557993 2.182719 0.008402 0.001727 1274360.000000 0 0 1
-27.372174 16.552322 -20.998307 38.264137 -0.543878 2.151692 0.013000 0.002095 948043.000000 0 0 1
-28.407774 15.382222 -21.141707 38.608110 -0.496278 2.150287 0.005783 -0.000705 451702.000000 0 0 1
-29.104204 15.250922 -22.390607 39.761597 -0.482671 2.168955 0.007642 -0.004479 495907.000000 0 0 1
-29.946244 16.326022 -22.761507 41.004911 -0.499133 2.159270 0.002167 -0.001128 -657221.000000 0 0 1
-30.393534 16.138222 -24.205107 42.072513 -0.488120 2.183790 0.002733 -0.002929 52632.100000 0 0 1
-31.440214 15.164322 -24.332507 42.550143 -0.449406 2.179561 0.005000 -0.003512 453150.000000 0 0 1
-31.920024 15.219522 -25.650457 43.686013 -0.444917 2.198336 0.007126 -0.002570 174883.000000 0 0 1
-33.316604 14.609322 -25.972207 44.698814 -0.413249 2.190814 0.007629 -0.002914 262714.000000 0 0 1
-33.367584 13.227322 -26.054297 44.352949 -0.377410 2.198677 0.004431 -0.002990 -120814.000000 0 0 1
-32.905914 12.481922 -24.948207 43.139432 -0.362554 2.187459 -0.004461 -0.005807 -413010.000000 0 0 1
-32.739764 11.007722 -25.365157 42.853860 -0.324345 2.204209 -0.003737 -0.009425 -120072.000000 0 0 1
-34.003784 10.411722 -25.541367 43.783818 -0.297129 2.193646 0.003300 -0.004372 -148919.000000 0 0 1
-34.045234 9.387822 -26.479917 44.140630 -0.269059 2.214171 0.003059 -0.000522 937255.000000 0 0 1
34.032268 8.807122 -26.757897 44.178566 0.253232 2.221411 0.009502 0.004439 970423.000000 0 0 1
33.526061 7.950622 -25.763987 43.023159 0.232846 2.212848 0.010249 0.002642 -272593.000000 0 0 1
32.486805 7.195522 -26.359077 42.449605 0.217972 2.240750 0.008301 0.005046 -526086.000000 0 0 1
31.864345 6.218222 -25.402827 41.222644 0.192725 2.234749 -0.001669 0.002433 -154674.000000 0 0 1
32.736655 5.155322 -25.015207 41.521398 0.156196 2.217383 0.000538 0.000804 -120780.000000 0 0 1
32.070235 4.127122 -24.346207 40.475559 0.127987 2.216179 -0.000863 0.006641 -416468.000000 0 0 1
32.935515 3.212422 -23.473407 40.571772 0.097229 2.187765 -0.003083 0.003376 95884.200000 0 0 1
33.620202 2.272922 -24.345007 41.571186 0.067503 2.196444 -0.000136 0.005120 -34669.700000 0 0 1
34.679933 1.644422 -23.704507 42.039333 0.047382 2.169855 0.012199 0.004103 -510455.000000 0 0 1
-34.273257 0.430822 -24.344307 42.041492 -0.012570 2.188365 0.016372 0.002520 -328825.000000 0 0 1
34.411116 -0.692078 -24.307307 42.136078 -0.020109 2.185696 0.007184 -0.000501 -68883.800000 0 0 1
-34.498914 -1.839778 -24.865907 42.566104 0.053278 2.194655 0.008055 -0.003205 180144.000000 0 0 1
-21.968654 30.131822 28.121573 46.705153 -0.940816 0.924657 -0.000894 0.000008 -2021480.000000 0 0 1
-23.159254 30.448722 27.565723 47.152357 -0.920547 0.946397 -0.011012 0.003117 -1068770.000000 0 0 1
-23.311254 30.014122 26.219193 46.170425 -0.910440 0.966870 -0.013863 -0.001542 -368826.000000 0 0 1
-23.689054 28.499222 25.906123 45.216193 -0.877308 0.960709 -0.013421 0.001591 -506258.000000 0 0 1
-24.931354 28.068522 26.374143 45.880385 -0.844521 0.958381 -0.009839 -0.001821 -447448.000000 0 0 1
-25.020154 27.651522 27.744593 46.479858 -0.835315 0.931144 -0.012063 -0.001688 -743169.000000 0 0 1
-24.290254 26.357422 28.153603 45.578016 -0.826190 0.904980 -0.010155 -0.003259 604370.000000 0 0 1
-22.935654 26.430122 28.596513 45.192435 -0.856068 0.885668 -0.003749 0.001720 235611.000000 0 0 1
-22.766754 27.004922 29.894063 46.273598 -0.870345 0.868426 -0.000674 -0.005062 498936.000000 0 0 1
-21.396254 26.729822 30.624483 45.936282 -0.895773 0.841060 0.001544 -0.002255 364301.000000 0 0 1
-20.276654 27.253622 29.945053 45.283648 -0.931147 0.848276 0.005576 -0.001393 782585.000000 0 0 1
-18.995854 26.773122 30.426123 44.759262 -0.953715 0.823344 0.007721 -0.005855 1189720.000000 0 0 1
-18.673654 25.259422 30.142983 43.535539 -0.934195 0.806019 0.010870 -0.005346 -797834.000000 0 0 1
-18.268054 25.162422 28.788883 42.375336 -0.942829 0.823881 0.006508 -0.007073 -87307.300000 0 0 1
-19.099154 24.423522 27.892423 41.704597 -0.907129 0.838190 0.013755 -0.001796 -306127.000000 0 0 1
-19.044354 22.905022 27.995423 40.878737 -0.877171 0.816411 0.017915 0.006812 -160417.000000 0 0 1
-19.623954 22.381522 29.144853 41.658787 -0.850952 0.795947 0.003458 0.002659 -162504.000000 0 0 1
-19.668954 20.976322 29.139283 40.938633 -0.817552 0.778768 -0.001465 0.000173 179951.000000 0 0 1
-20.147854 20.434522 30.506143 41.882341 -0.792462 0.754846 -0.005284 -0.001930 327882.000000 0 0 1
-19.118054 20.686322 31.445613 42.216709 -0.824777 0.730469 0.001804 -0.005362 295331.000000 0 0 1
-19.539754 20.332222 32.750943 43.218347 -0.805271 0.710859 0.000324 0.001037 -50086.200000 0 0 1
-18.685054 20.963222 33.862733 43.991734 -0.842794 0.692343 0.003446 -0.006838 -673127.000000 0 0 1
-18.815454 22.389222 33.944596 44.805515 -0.871914 0.711170 -0.001226 -0.009177 115395.000000 0 0 1
-17.869154 23.138522 33.164793 44.210874 -0.913195 0.722507 0.002848 0.001367 -44590.500000 0 0 1
-16.444054 23.121522 33.728228 44.074994 -0.952592 0.699372 0.000466 0.002356 -720303.000000 0 0 1
-15.758054 21.958022 33.417467 42.979043 -0.948326 0.680069 0.005888 -0.005400 1072940.000000 0 0 1
-14.343154 22.009322 33.786930 42.798282 -0.993237 0.660890 0.003552 -0.005608 1409750.000000 0 0 1
-13.544154 20.660022 33.688254 41.775341 -0.990513 0.632732 -0.000685 0.000111 -892346.000000 0 0 1
-12.268154 20.639022 34.194478 41.782044 -1.034493 0.612173 -0.004717 0.009074 -947561.000000 0 0 1
-12.180354 20.688622 -33.792787 41.452775 -1.038693 2.523891 -0.002547 0.005116 -581011.000000 0 0 1
-10.731854 20.653622 -33.288447 40.618537 -1.091583 2.531401 -0.002599 0.005675 228433.000000 0 0 1
-9.890854 21.775722 -33.604227 41.246274 -1.144443 2.523045 -0.005174 0.002318 -412213.000000 0 0 1
-8.616454 21.466622 -33.131227 40.407145 -1.189094 2.532094 -0.008386 0.005152 -507842.000000 0 0 1
-7.669354 22.710122 -33.192187 40.942520 -1.245115 2.516147 -0.009566 0.005323 88427.500000 0 0 1
-7.797354 23.591322 -32.084087 40.580018 -1.251582 2.482646 -0.008990 -0.001379 -103023.000000 0 0 1
-7.032354 23.287722 -30.959927 39.373711 -1.277527 2.475609 -0.007738 -0.005263 -593715.000000 0 0 1
-6.922354 24.450722 -29.935667 39.267047 -1.294902 2.437750 -0.008158 -0.004540 -219304.000000 0 0 1
-6.140454 25.455622 -30.538697 40.228173 -1.334096 2.432783 -0.014916 -0.003245 -16714.900000 0 0 1
-5.881554 26.520222 -29.615197 40.186748 -1.352552 2.399328 -0.007801 -0.003320 28334.900000 0 0 1
-4.562754 27.275222 -29.910657 40.735781 -1.405045 2.395372 -0.006888 -0.004802 -640207.000000 0 0 1
-3.421054 26.602922 -29.473777 39.851256 -1.442901 2.403264 -0.004710 -0.002996 52617.900000 0 0 1
-2.253854 26.828422 -30.268477 40.509564 -1.486983 2.414625 -0.004825 -0.000923 978303.000000 0 0 1
-1.490254 28.194522 -29.890217 41.116627 -1.517989 2.384683 0.000446 -0.007205 -323966.000000 0 0 1
-1.020254 28.127522 -28.545237 40.087766 -1.534540 2.363236 -0.002343 -0.006920 260692.000000 0 0 1
-0.373354 29.328522 -28.161027 40.661346 -1.558067 2.335849 0.000840 -0.004658 -937319.000000 0 0 1
0.169246 29.270922 -26.751247 39.654063 1.565014 2.311240 0.000596 -0.003946 260200.000000 0 0 1
1.272446 28.395922 -26.508997 38.867395 1.526015 2.321341 0.001431 -0.003456 550082.000000 0 0 1
2.529646 28.837122 -27.024207 39.601597 1.483298 2.321840 -0.004445 -0.000200 -737847.000000 0 0 1
3.500846 28.953922 -25.873977 38.987796 1.450469 2.296475 -0.005197 0.001048 -924986.000000 0 0 1
3.908346 27.701222 -25.481917 37.841260 1.430632 2.309581 -0.005404 0.001590 -289290.000000 0 0 1
4.651846 27.656522 -24.303707 37.110552 1.404155 2.284847 -0.007276 0.007584 -149132.000000 0 0 1
5.283646 26.309022 -23.991407 35.995405 1.372603 2.300318 0.000313 0.005575 -77631.600000 0 0 1
5.850246 26.256022 -22.677507 35.183425 1.351562 2.271232 -0.002001 0.008884 148437.000000 0 0 1
6.825546 25.240522 -22.538207 34.520180 1.306693 2.282202 0.002374 0.007605 105794.000000 0 0 1
8.281346 25.725022 -22.546707 35.195333 1.259355 2.266097 0.005592 0.011243 -813097.000000 0 0 1
8.591846 26.411422 -21.350407 35.031741 1.256286 2.226174 0.006882 0.013090 71954.400000 0 0 1
9.962546 26.754522 -21.228307 35.576647 1.214335 2.210169 0.007163 0.012943 594221.000000 0 0 1
10.851146 25.574722 -20.630707 34.604044 1.169526 2.209548 0.004255 0.012509 -122754.000000 0 0 1
11.217446 24.643522 -21.638607 34.660692 1.143636 2.245029 0.008483 0.012456 -3642.520000 0 0 1
11.577946 23.437122 -20.976607 33.516646 1.111960 2.247025 0.002798 0.011445 -391110.000000 0 0 1
11.620046 22.302522 -22.001307 33.413851 1.090475 2.289552 0.000794 0.007261 765779.000000 0 0 1
10.307046 21.874722 -22.426407 32.980030 1.130465 2.318558 0.005930 0.005858 857691.000000 0 0 1
10.396346 20.959322 -23.513607 33.170271 1.110334 2.358700 0.009068 0.003160 -59942.700000 0 0 1
9.811346 21.362322 -24.897707 34.241891 1.140250 2.384903 0.010939 0.005147 -66247.500000 0 0 1
8.411046 21.517222 -24.861707 33.938783 1.198161 2.392850 0.010607 0.002017 -160988.000000 0 0 1
7.969246 21.744022 -26.195497 34.964488 1.219496 2.417654 0.002504 -0.003636 -635893.000000 0 0 1
6.589346 21.140722 -26.522297 34.551148 1.268650 2.445922 -0.001092 -0.001549 856485.000000 0 0 1
5.376846 21.726422 -25.989057 34.298382 1.328191 2.430630 0.001063 0.001056 817275.000000 0 0 1
5.339946 22.048822 -24.599507 33.463433 1.333184 2.396634 -0.000722 -0.001629 -1418790.000000 0 0 1
3.908246 22.103222 -24.056407 32.901938 1.395787 2.390809 -0.000300 0.000011 -53627.700000 0 0 1
3.242946 23.331922 -24.444807 33.947664 1.432689 2.374704 -0.002129 0.004847 677271.000000 0 0 1
2.198546 23.623922 -23.490207 33.387320 1.477999 2.351201 -0.003354 0.000047 390733.000000 0 0 1
1.445446 24.941522 -23.572607 34.348750 1.512908 2.327148 -0.003825 0.000648 182317.000000 0 0 1
0.426546 25.089522 -24.579007 35.125399 1.553797 2.345844 0.004085 -0.004072 609498.000000 0 0 1
0.854846 25.157322 -25.923147 36.133519 1.536829 2.370898 0.007437 -0.007872 -128515.000000 0 0 1
-0.400054 25.214722 -26.813397 36.808973 -1.554932 2.386849 0.007613 -0.008938 112672.000000 0 0 1
-0.972754 23.980722 -27.120347 36.215114 -1.530255 2.417149 0.004744 -0.010670 -304222.000000 0 0 1
-2.125754 24.236522 -27.898687 37.017085 -1.483311 2.424425 0.001590 -0.008273 -21092.800000 0 0 1
-2.855754 22.974722 -28.372187 36.619314 -1.447131 2.457175 -0.000570 -0.012761 -358422.000000 0 0 1
-2.191954 22.303922 -29.398887 36.967069 -1.472834 2.490253 0.009426 -0.010953 -152182.000000 0 0 1
-2.846954 21.095122 -29.697617 36.538443 -1.436649 2.519700 0.004475 -0.003356 163219.000000 0 0 1
-4.086354 21.032322 -30.629137 37.379151 -1.378898 2.531191 -0.010617 -0.003593 14285.200000 0 0 1
-3.902754 21.304722 -32.061907 38.692229 -1.389618 2.547469 -0.002944 -0.002414 8055.180000 0 0 1
-3.390954 22.595322 -32.371897 39.623060 -1.421835 2.526979 -0.006483 -0.004319 -106784.000000 0 0 1
-3.168954 22.814422 -33.865457 40.956188 -1.432778 2.544316 -0.002079 -0.000937 107066.000000 0 0 1
-2.066654 22.020922 -34.271790 40.789063 -1.477221 2.568485 -0.000512 0.001806 312509.000000 0 0 1
-1.672254 22.228622 33.813619 40.500233 -1.495708 0.582846 0.000334 0.001267 -369005.000000 0 0 1
-0.598054 21.240122 33.414983 39.598757 -1.542647 0.566398 0.004569 0.002770 -483264.000000 0 0 1
-1.091854 19.945522 33.138103 38.693021 -1.516109 0.542470 0.001423 0.009200 371948.000000 0 0 1
-0.055354 19.060222 32.709283 37.857527 -1.567892 0.527616 0.009876 0.007894 125448.000000 0 0 1
-0.561054 17.649022 32.355443 36.860242 -1.539017 0.499573 0.009471 0.008964 159377.000000 0 0 1
-1.264354 17.611222 31.088923 35.752970 -1.499127 0.516510 0.006187 0.003839 334977.000000 0 0 1
-1.526454 16.328222 30.564673 34.686311 -1.477582 0.492457 -0.000082 0.000950 -198711.000000 0 0 1
-2.560354 16.243522 29.395483 33.682367 -1.414459 0.510038 0.006838 -0.003526 -305034.000000 0 0 1
-3.843554 16.681522 29.741553 34.316265 -1.344341 0.522269 0.002579 -0.004555 -341829.000000 0 0 1
-4.043954 18.051622 29.509803 34.828768 -1.350413 0.559949 0.001436 0.000919 797520.000000 0 0 1
-5.585754 18.378922 29.693733 35.365283 -1.275745 0.574196 -0.001611 0.001312 1669840.000000 0 0 1
-6.433754 17.705522 28.741493 34.364984 -1.222256 0.580188 -0.006184 -0.001181 1389.560000 0 0 1
-7.783454 18.018922 29.041093 35.052087 -1.163045 0.594350 -0.005690 0.009090 -223336.000000 0 0 1
-8.759954 17.237422 28.143283 34.145423 -1.100615 0.601976 -0.004431 0.004079 -167868.000000 0 0 1
-9.030454 15.896822 28.532793 33.887731 -1.054188 0.569853 0.001099 -0.003863 209175.000000 0 0 1
-9.748454 15.665722 29.751353 35.008431 -1.014156 0.555126 -0.002956 0.002478 -397440.000000 0 0 1
-10.101054 14.165722 30.031703 34.707379 -0.951357 0.525082 0.001321 -0.000366 1014320.000000 0 0 1
-8.978954 13.249522 30.289803 34.258483 -0.975207 0.486114 0.006424 -0.004520 1685260.000000 0 0 1
-8.188354 13.495322 31.497503 35.231599 -1.025425 0.464573 -0.001621 0.000804 314370.000000 0 0 1
-8.937754 13.064922 32.839393 36.455471 -0.970819 0.449169 0.004443 -0.000602 -67383.800000 0 0 1
-9.079354 11.635122 32.987623 36.138539 -0.908159 0.420683 0.000927 -0.000525 331867.000000 0 0 1
-9.467154 11.310922 34.316250 37.351961 -0.873903 0.405952 -0.002201 -0.001115 -402223.000000 0 0 1
-9.641454 9.813222 34.505644 37.146957 -0.794227 0.379377 -0.001349 0.001510 -89880.400000 0 0 1
-8.433454 9.063322 34.566843 36.716939 -0.821382 0.343917 0.000406 0.001882 163642.000000 0 0 1
-8.263854 8.352122 -33.602127 35.597081 -0.790710 2.805218 0.003423 0.001621 -248401.000000 0 0 1
-7.692554 9.190622 -32.458947 34.600956 -0.873898 2.787882 -0.003105 0.001141 -897911.000000 0 0 1
-8.436854 10.286222 -32.050937 34.702297 -0.883854 2.748156 -0.000081 -0.003291 -502156.000000 0 0 1
-7.833754 11.086922 -31.070527 33.906713 -0.955670 2.729671 -0.006997 0.000914 -479812.000000 0 0 1
-6.957354 12.175622 -31.714887 34.676860 -1.051659 2.725273 -0.014012 0.005079 -71838.100000 0 0 1
-7.643654 13.327622 -32.085547 35.574335 -1.050075 2.695013 -0.014480 0.006957 475033.000000 0 0 1
-6.668354 14.145222 -32.748997 36.291198 -1.130272 2.696092 -0.013393 0.010004 608790.000000 0 0 1
-7.161654 15.553822 -33.239237 37.390608 -1.139292 2.665894 -0.013763 0.009501 -520055.000000 0 0 1
-8.058954 15.565622 -34.278956 38.500418 -1.093057 2.668916 -0.008245 0.007779 -480512.000000 0 0 1
-8.559754 16.867122 -34.399222 39.256537 -1.101181 2.638856 -0.004350 0.005622 -708935.000000 0 0 1
-9.068954 17.102922 33.589548 38.768720 -1.083237 0.522832 -0.002619 0.003258 739684.000000 0 0 1
-10.190854 16.366222 33.086523 38.293926 -1.013870 0.527606 0.004144 0.002178 1368130.000000 0 0 1
-11.481454 16.690622 33.659851 39.285955 -0.968238 0.541782 0.003341 0.001574 577963.000000 0 0 1
-12.590154 16.118622 32.729013 38.594174 -0.907690 0.558540 0.002106 0.005089 -174051.000000 0 0 1
-12.566154 14.699122 32.513713 37.830067 -0.863469 0.536569 0.005224 0.003169 79355.600000 0 0 1
-13.089054 13.875822 33.515671 38.563739 -0.814567 0.517420 0.001221 0.004315 -268137.000000 0 0 1
-12.795754 12.429422 33.167323 37.660233 -0.770877 0.493461 0.000443 0.002576 18151.500000 0 0 1
-13.500554 11.950022 32.046643 36.770305 -0.724550 0.512470 0.002600 0.002998 1042270.000000 0 0 1
-12.497054 11.354022 31.167343 35.447051 -0.737511 0.496480 0.004224 0.003418 1011210.000000 0 0 1
-13.023954 11.087922 29.740683 34.308507 -0.705276 0.521927 0.006143 0.004307 33699.700000 0 0 1
-13.877654 9.943522 29.670273 34.231389 -0.621723 0.522135 0.011413 0.003963 167498.000000 0 0 1
-13.651754 9.190722 28.446973 32.864419 -0.592530 0.524477 -0.002978 0.004817 151548.000000 0 0 1
-14.512654 7.930122 28.228033 32.715834 -0.500097 0.529965 -0.001339 0.002312 80824.600000 0 0 1
-14.108554 6.918522 29.105133 33.076064 -0.455920 0.495049 -0.000143 0.001735 -5645.250000 0 0 1
-14.745054 5.754222 28.716993 32.790142 -0.372071 0.503744 -0.005288 -0.001896 -384895.000000 0 0 1
-13.778154 4.541922 28.743693 32.197306 -0.318429 0.467415 -0.005883 -0.002604 391806.000000 0 0 1
-12.840154 4.456922 27.668353 30.826474 -0.334096 0.456611 -0.000791 -0.003183 506187.000000 0 0 1
-13.445254 4.502322 26.351583 29.924099 -0.323127 0.493640 -0.001867 -0.003453 -11144.300000 0 0 1
-12.307554 4.350222 25.314953 28.482401 -0.339753 0.476092 -0.002483 -0.001176 151641.000000 0 0 1
-11.898154 3.018422 25.196983 28.027931 -0.248447 0.453326 -0.000304 -0.001637 -15832.400000 0 0 1
-11.150254 2.710122 24.020533 26.620649 -0.238431 0.445658 -0.003539 0.004155 -107430.000000 0 0 1
-10.211754 1.532122 24.321033 26.422339 -0.148924 0.401509 -0.003267 0.004028 835735.000000 0 0 1
-8.864054 1.882222 24.702763 26.312368 -0.209235 0.351588 -0.002417 0.004045 974953.000000 0 0 1
-7.977954 0.793522 24.749103 26.015294 -0.099138 0.313276 -0.002015 0.002888 170130.000000 0 0 1
-6.494354 1.197422 24.602943 25.473815 -0.182331 0.262235 -0.002138 0.005022 -626472.000000 0 0 1
-6.161454 1.555822 23.263633 24.115985 -0.247339 0.266661 -0.000013 0.003714 486832.000000 0 1 0
-4.798154 1.944522 23.070233 23.644008 -0.385037 0.220753 0.006703 0.004461 618081.000000 0 1 0
-4.290154 3.199122 23.818833 24.412632 -0.640737 0.221010 0.012823 0.008310 -831668.000000 0 1 0
-4.012654 2.967722 25.172433 25.662427 -0.636806 0.195729 0.015307 0.009283 -152314.000000 0 0 1
-3.730454 4.178622 25.770623 26.372376 -0.842003 0.214032 0.007724 0.008023 66953.200000 0 0 1
3.705046 -23.412478 13.096693 27.081264 -1.413847 1.066025 -0.006014 -0.002466 245106.000000 0 0 1
3.828846 -24.746378 13.437093 28.418282 -1.417290 1.078294 -0.007741 -0.001322 263843.000000 0 0 1
2.696846 -25.459938 12.911493 28.673822 -1.465265 1.103708 0.003116 -0.005375 714699.000000 0 0 1
2.445846 -26.783688 13.666493 30.168214 -1.479730 1.100658 0.000623 -0.007595 -51874.300000 0 0 1
2.307346 -26.674388 15.061393 30.719577 -1.484511 1.058378 -0.000365 -0.005965 104991.000000 0 0 1
2.484046 -27.924318 15.694293 32.128630 -1.482073 1.060446 -0.003547 -0.001942 -329902.000000 0 0 1
2.201646 -27.978768 17.232593 32.933584 -1.492268 1.020133 0.001100 -0.002564 -106473.000000 0 0 1
3.110546 -27.389888 18.133193 32.995366 -1.457715 0.988949 -0.001001 -0.002373 19607.100000 0 0 1
2.775146 -27.724798 19.478993 33.997015 -1.471032 0.960681 0.001523 -0.000148 72851.800000 0 0 1
3.435746 -26.811608 20.531093 33.943960 -1.443347 0.921216 0.001335 -0.000565 115660.000000 0 0 1
2.775246 -25.546688 20.713893 33.006069 -1.462586 0.892358 0.003544 -0.000773 178586.000000 0 0 1
3.437046 -24.711178 21.661193 33.040322 -1.432594 0.855821 0.001757 0.001571 156962.000000 0 0 1
2.537746 -23.638478 22.342193 32.625012 -1.463849 0.816443 0.001468 -0.000043 -125933.000000 0 0 1
1.910646 -22.569878 21.693893 31.363593 -1.486343 0.806969 -0.003907 -0.003513 58472.900000 0 0 1
2.751046 -21.608578 20.994793 30.253599 -1.444165 0.803822 -0.006461 0.002473 -156090.000000 0 0 1
2.147246 -20.470978 20.151993 28.805805 -1.466286 0.795985 -0.007877 0.001775 -474355.000000 0 0 1
1.572846 -19.482078 20.957393 28.657242 -1.490238 0.750552 -0.001529 -0.000882 4651.060000 0 0 1
1.025946 -18.480878 20.071793 27.303338 -1.515339 0.744922 0.001346 -0.004946 -135949.000000 0 0 1
0.772046 -17.204978 20.844593 27.038942 -1.525953 0.690528 0.000199 0.002974 -405359.000000 0 0 1
1.866246 -16.327478 20.897493 26.585233 -1.456989 0.666393 0.000024 0.014043 -65645.000000 0 0 1
1.497346 -15.006578 21.368093 26.154059 -1.471346 0.614592 -0.000835 0.013016 668806.000000 0 0 1
2.673046 -14.011678 21.094193 25.464431 -1.382289 0.594589 -0.001837 0.012287 -132922.000000 0 0 1
2.981846 -13.617378 19.788993 24.205963 -1.355225 0.613695 -0.005740 0.010672 440185.000000 0 1 0
1.946146 -13.235378 18.846493 23.111750 -1.424801 0.617289 -0.002777 0.010763 1169070.000000 0 1 0
1.028546 -11.926878 19.048193 22.497599 -1.484772 0.561088 -0.005016 -0.003494 638426.000000 0 1 0
1.714246 -10.691978 18.877493 21.762738 -1.411819 0.520797 -0.002512 -0.003516 -151919.000000 0 1 0
1.389746 -9.663578 19.845793 22.117225 -1.427963 0.457181 0.003871 -0.010090 415156.000000 0 1 0
-0.096554 -9.228578 19.972193 22.001465 1.560334 0.432868 0.008236 -0.009524 191836.000000 0 1 0
-0.229254 -8.327278 21.039593 22.628756 1.543273 0.377002 0.009620 -0.009657 685278.000000 0 1 0
-1.614354 -8.014778 21.271493 22.788576 1.372034 0.366945 0.009329 -0.001031 873557.000000 0 1 0
-1.843454 -7.297178 22.643393 23.861483 1.323348 0.320901 0.012618 0.006964 -481056.000000 0 1 0
-1.937054 -8.120778 23.804993 25.226512 1.336641 0.337306 0.011163 0.010856 190290.000000 0 0 1
-2.060854 -7.408478 24.987993 26.144454 1.299481 0.298541 0.007826 0.008704 -206325.000000 0 0 1
-2.271354 -8.330578 26.180093 27.567278 1.304614 0.318584 0.004479 0.005735 489703.000000 0 0 1
-1.053254 -8.961978 26.569493 28.060013 1.453808 0.327402 0.008562 0.004426 340473.000000 0 0 1
-1.323954 -10.043378 27.338393 29.154931 1.439728 0.354864 0.007703 0.005543 -102176.000000 0 0 1
-0.105354 -10.911278 27.700793 29.772487 1.561141 0.375251 0.008879 0.006276 -284037.000000 0 0 1
0.737446 -10.517078 28.753293 30.625228 -1.500792 0.351446 0.002824 0.004011 53092.200000 0 0 1
1.850846 -11.421078 28.767593 31.007113 -1.410138 0.382394 0.006617 0.003592 141167.000000 0 0 1
2.828746 -10.909278 29.850993 31.907615 -1.317087 0.360999 0.005422 0.001247 -262255.000000 0 0 1
2.369346 -10.975078 31.194493 33.153620 -1.358175 0.345496 0.005172 0.003376 -344793.000000 0 0 1
3.194946 -10.232178 32.028293 33.774498 -1.268144 0.322966 0.005081 -0.004161 -515417.000000 0 0 1
2.695646 -10.160478 33.495193 35.105979 -1.311464 0.304101 -0.000356 -0.007005 -170136.000000 0 0 1
2.750346 -11.364578 34.202093 36.145556 -1.333351 0.329413 -0.008558 -0.007787 325007.000000 0 0 1
2.167346 -11.262078 -33.903348 35.790624 -1.380674 2.815399 -0.007128 -0.008038 -152442.000000 0 0 1
2.955746 -10.522078 -32.806548 34.579187 -1.296945 2.820011 -0.008237 -0.004495 -297894.000000 0 0 1
3.100546 -9.203378 -33.137948 34.531712 -1.245846 2.856509 -0.010524 -0.006036 425703.000000 0 0 1
3.954246 -8.548978 -32.199748 33.549141 -1.137563 2.857009 -0.001549 -0.003899 -3329.880000 0 0 1
3.365446 -7.236878 -31.756948 32.744501 -1.135505 2.895372 -0.005375 -0.001833 -129246.000000 0 0 1
3.375746 -6.276078 -32.775148 33.540947 -1.077310 2.927494 0.002147 -0.003839 16100.400000 0 0 1
3.195246 -5.042578 -32.190648 32.739502 -1.005999 2.958228 -0.001629 0.004228 18946.400000 0 0 1
3.282346 -3.907878 -33.258648 33.647927 -0.872177 2.989333 0.000810 0.004320 -363549.000000 0 0 1
2.207446 -3.826778 -34.139548 34.424203 -1.047579 3.012903 0.003524 0.000558 -512421.000000 0 0 1
2.394346 -2.922778 34.209893 34.417906 -0.884456 0.109999 0.011418 0.002686 -193851.000000 0 0 1
1.707146 -3.340278 32.908593 33.121704 -1.098325 0.113500 0.013471 -0.001942 -144428.000000 0 0 1
0.307946 -3.246778 32.847493 33.009001 -1.476233 0.098963 0.005546 0.000046 -466989.000000 0 0 1
-0.008054 -3.406678 31.443193 31.627202 1.568432 0.107923 0.008510 0.002995 -665806.000000 0 0 1
-1.431454 -3.730878 31.048693 31.304789 1.204440 0.127999 0.003340 -0.003454 -778145.000000 0 0 1
-2.193154 -2.573578 30.760893 30.946175 0.865038 0.109483 0.000489 -0.004539 -874728.000000 0 0 1
-3.525354 -2.954778 30.644593 30.987899 0.697575 0.148992 -0.000660 -0.002914 -658977.000000 0 0 1
-4.356854 -1.872578 29.920893 30.294365 0.405930 0.157185 0.007115 -0.000602 -333214.000000 0 0 1
-4.001554 -1.646078 28.568593 28.894403 0.390261 0.150314 0.013072 0.006451 -16406.500000 0 0 1
-4.962154 -0.915378 27.809093 28.263166 0.182421 0.179494 0.010984 0.003107 -6158.150000 0 0 1
-5.288454 0.571222 28.214193 28.711230 -0.107596 0.186343 0.010814 0.000698 -261729.000000 0 0 1
-6.073354 0.665922 29.367493 29.996312 -0.109210 0.205119 0.012553 -0.001590 -575185.000000 0 0 1
-6.335254 1.972022 29.644993 30.378445 -0.301771 0.220189 0.012755 -0.005920 104010.000000 0 0 1
-7.772954 2.098822 30.222693 31.276749 -0.263727 0.260353 0.006945 -0.003203 181035.000000 0 0 1
-8.738754 2.035822 29.206193 30.553430 -0.228882 0.298068 0.001986 -0.004695 497524.000000 0 0 1
-10.060054 2.453922 29.619793 31.377676 -0.239255 0.336317 -0.004658 -0.005115 645934.000000 0 0 1
-11.108054 1.866022 28.670893 30.804074 -0.166434 0.374338 -0.004068 -0.002049 -508473.000000 0 0 1
-11.307654 0.536522 29.044393 31.172546 -0.047412 0.371649 -0.002861 -0.000665 19953.200000 0 0 1
-11.961954 -0.149178 27.970193 30.421083 0.012470 0.404156 0.000654 -0.002496 -1155790.000000 0 0 1
-12.046954 -1.642278 28.211393 30.719845 0.135488 0.406920 -0.001031 -0.002581 -323488.000000 0 0 1
-10.829354 -2.287678 28.421293 30.500463 0.208187 0.371369 -0.002423 0.000086 99650.700000 0 0 1
-9.736254 -2.106478 27.498993 29.247675 0.213070 0.347546 -0.012417 -0.001993 -220962.000000 0 0 1
-9.827254 -2.767378 26.104793 28.030225 0.274494 0.372807 -0.004916 0.002635 -592860.000000 0 0 1
-10.615654 -2.093378 25.150593 27.379311 0.194699 0.406277 -0.000278 0.000999 162412.000000 0 0 1
-10.572654 -2.731078 23.881993 26.260034 0.252789 0.428855 0.000217 0.005640 -1041460.000000 0 0 1
-9.460454 -2.328978 22.951593 24.933911 0.241381 0.401446 0.002019 0.004312 366626.000000 0 1 0
-8.162254 -2.681778 23.466293 24.989622 0.317447 0.350965 -0.000819 0.005765 697631.000000 0 1 0
-7.142654 -2.378078 22.520293 23.745238 0.321397 0.322604 -0.005478 0.007425 1148070.000000 0 1 0
-5.651154 -2.441078 23.025693 23.834365 0.407752 0.261237 -0.002153 0.014330 1251820.000000 0 1 0
-4.962354 -3.716878 23.016593 23.837023 0.642870 0.263126 0.001893 0.011526 105439.000000 0 1 0
-5.551654 -4.746278 23.766993 24.863989 0.707349 0.298155 0.005951 0.007431 -441063.000000 0 1 0
-5.196254 -6.226378 23.304993 24.675728 0.875338 0.334879 -0.002660 0.007036 -141851.000000 0 1 0
-6.132954 -6.733778 22.343593 24.128677 0.832060 0.387072 -0.003140 0.005377 181652.000000 0 1 0
-5.922554 -6.338778 21.008893 22.729504 0.819331 0.391597 0.007790 0.000078 333563.000000 0 1 0
-7.180554 -6.273478 20.065493 22.215780 0.718080 0.443608 0.012167 0.001835 540309.000000 0 1 0
-8.011754 -5.150478 20.303493 22.426490 0.571343 0.438628 0.004002 0.000375 80343.900000 0 1 0
-9.029154 -5.081678 19.299093 21.904430 0.512623 0.492700 0.006703 -0.000564 395850.000000 0 1 0
-9.654554 -3.660278 19.258593 21.851806 0.362382 0.492132 -0.005185 -0.006939 -355503.000000 0 1 0
-8.860054 -2.773878 18.598993 20.787436 0.303410 0.462986 -0.001030 -0.015947 -293668.000000 0 1 0
-9.344554 -1.454978 18.834093 21.075120 0.154463 0.465350 -0.007607 -0.007976 -510557.000000 0 1 0
-8.382554 -0.395578 18.253293 20.089957 0.047156 0.430929 -0.002091 -0.003420 57192.900000 0 1 0
-7.189054 -0.229778 19.037993 20.351424 0.031951 0.361231 0.000419 0.001688 459086.000000 0 1 0
-7.330754 0.477622 20.271793 21.561857 -0.065061 0.347670 0.002326 0.001220 -461994.000000 0 1 0
-7.389454 2.036222 20.239493 21.642257 -0.268885 0.362018 0.006584 0.000751 326916.000000 0 1 0
-8.560454 2.524822 19.590293 21.527556 -0.286808 0.427488 -0.001425 -0.000691 404604.000000 0 1 0
-8.472454 3.911422 19.429793 21.554548 -0.432511 0.447748 0.001192 0.002349 486321.000000 0 1 0
-9.319554 4.460722 18.218093 20.943997 -0.446415 0.515902 -0.001470 0.002395 -435457.000000 0 1 0
-10.708354 4.416922 18.386293 21.730941 -0.391214 0.562193 0.003060 0.006375 -254275.000000 0 1 0
-11.378554 4.857222 17.201493 21.188569 -0.403458 0.623519 0.001921 0.010238 -546475.000000 0 1 0
-11.496754 6.437222 17.101193 21.588515 -0.510425 0.656484 0.003320 0.010104 -875111.000000 0 1 0
-10.246954 7.153522 17.060593 21.147973 -0.609458 0.632208 0.001921 0.011892 758831.000000 0 1 0
-10.398754 8.533122 16.869293 21.575942 -0.687171 0.673158 -0.003915 -0.000371 390250.000000 0 1 0
-8.994854 9.210622 16.807593 21.171635 -0.797249 0.653644 -0.003640 -0.002321 612308.000000 0 1 0
-8.304254 9.281422 18.067693 21.944178 -0.840907 0.603511 0.002754 0.002897 305135.000000 0 1 0
-7.238754 10.219122 18.157593 22.057384 -0.954486 0.603776 0.003814 -0.000929 129974.000000 0 1 0
-7.637154 11.706422 18.170893 22.924829 -0.992743 0.655687 -0.001269 -0.001414 -347798.000000 0 1 0
-7.992554 12.240222 16.889093 22.337086 -0.992333 0.713462 -0.003167 -0.001677 -129538.000000 0 1 0
-8.402454 13.583922 17.058793 23.369351 -1.016842 0.752527 -0.008191 0.003763 -45481.500000 0 1 0
-8.652754 14.180122 15.649193 22.821990 -1.022908 0.815222 -0.000873 0.003159 -178123.000000 0 1 0
-7.427354 14.343922 15.013493 22.052634 -1.093006 0.821938 0.007124 -0.008657 -661737.000000 0 1 0
-7.616154 15.031222 13.775493 21.764826 -1.101812 0.885471 0.004812 -0.007028 -295147.000000 0 1 0
-6.771654 16.275322 13.550493 22.234146 -1.176515 0.915436 0.004037 -0.005993 -897323.000000 0 1 0
-5.398054 16.061522 13.558193 21.701061 -1.246570 0.895958 0.007513 -0.011094 -1028340.000000 0 1 0
-4.785354 17.319022 13.699693 22.594905 -1.301216 0.919374 0.008329 -0.005601 1388920.000000 0 1 0
-3.191954 17.349122 13.728793 22.353084 -1.388847 0.909451 0.006415 -0.005238 1741350.000000 0 1 0
-2.575654 16.796822 14.888093 22.592532 -1.418640 0.851331 0.008255 -0.007174 -98383.500000 0 1 0
-2.450854 15.327722 14.819293 21.460596 -1.412242 0.808568 0.005687 -0.010494 -760578.000000 0 1 0
-1.511754 14.657722 15.813893 21.615120 -1.468023 0.750112 -0.001885 -0.011229 19177.200000 0 1 0
-0.143754 14.986722 15.607593 21.638379 -1.561205 0.765130 -0.002226 0.001748 -236376.000000 0 1 0
0.633946 14.026722 16.270393 21.491312 1.525631 0.711982 -0.001935 -0.007079 -385319.000000 0 1 0
1.850146 14.669422 16.914193 22.465638 1.445336 0.718351 -0.002008 -0.012541 -513418.000000 0 1 0
1.444346 15.311422 18.115193 23.763122 1.476743 0.703900 0.001957 -0.012772 -69809.300000 0 1 0
2.341046 16.298222 18.583493 24.828587 1.428134 0.725042 -0.005809 -0.012717 -267048.000000 0 1 0
1.530746 17.463322 19.163993 25.972474 1.483365 0.740905 -0.002308 -0.009473 273521.000000 0 0 1
0.933246 18.320122 18.186993 25.831464 1.519899 0.789693 -0.001120 -0.011362 1276230.000000 0 0 1
-0.462654 17.963522 17.961193 25.406822 -1.545047 0.785629 -0.001481 -0.011611 918979.000000 0 0 1
-1.166354 18.767022 16.870993 25.262460 -1.508727 0.839509 -0.000281 -0.010009 -667613.000000 0 0 1
-1.656354 20.011022 17.328293 26.522712 -1.488212 0.858811 -0.001211 -0.004538 -238146.000000 0 0 1
-2.227454 20.739622 16.260593 26.448069 -1.463806 0.908649 0.001836 -0.004445 -391935.000000 0 0 1
-2.867354 22.048822 16.803193 27.869689 -1.441476 0.923640 -0.000289 -0.003752 -79122.300000 0 0 1
-4.018154 21.825622 17.616193 28.334318 -1.388732 0.899851 0.002018 0.001859 282534.000000 0 0 1
-4.413354 23.054222 18.301593 29.764461 -1.381651 0.908562 0.000680 -0.003575 46254.100000 0 0 1
-5.301654 22.888122 19.567193 30.575295 -1.343177 0.876340 -0.008542 0.004380 1219370.000000 0 0 1
-6.655954 22.617122 19.134393 30.363809 -1.284588 0.889023 -0.009721 0.003315 816977.000000 0 0 1
-7.484554 22.003822 20.115893 30.738183 -1.242925 0.857372 -0.014151 0.006141 41996.000000 0 0 1
-8.979154 22.172622 19.808093 31.058186 -1.186016 0.879192 -0.008665 0.004329 -143622.000000 0 0 1
-9.335854 23.547822 19.944293 32.240237 -1.193342 0.903818 -0.011070 0.003713 -1049780.000000 0 0 1
-10.576654 23.733522 19.384093 32.417414 -1.151572 0.929851 -0.010483 0.007573 -782620.000000 0 0 1
-11.132654 25.192722 19.366793 33.670193 -1.154699 0.957959 -0.008002 0.009180 -75825.000000 0 0 1
-11.583054 25.622522 20.593093 34.853353 -1.146226 0.938685 -0.009679 0.001164 -84766.900000 0 0 1
-12.281954 26.863022 20.463293 35.933476 -1.141965 0.964927 -0.007103 0.004195 -222638.000000 0 0 1
-13.006354 27.119222 21.801093 37.147074 -1.123602 0.943589 -0.000451 0.004849 -448565.000000 0 0 1
-14.306554 26.561622 21.880193 37.268486 -1.076734 0.943329 0.011270 0.002957 106443.000000 0 0 1
-14.966554 27.088222 23.018293 38.569564 -1.066027 0.931290 0.010200 0.004579 194178.000000 0 0 1
-16.487954 26.801722 22.931693 38.936454 -1.019288 0.941035 0.015005 0.009445 301355.000000 0 0 1
-16.851554 25.417622 23.019193 38.208816 -0.985345 0.924220 0.016651 0.005258 176922.000000 0 0 1
-18.243954 25.213322 23.212393 38.824846 -0.944417 0.929949 0.016071 0.012957 412473.000000 0 0 1
25.775046 24.430922 23.711433 42.701932 0.758632 0.982099 -0.009891 -0.004915 -54196.800000 0 0 1
25.459846 23.666122 24.805723 42.703782 0.748902 0.950988 -0.006898 -0.003869 122581.000000 0 0 1
25.457946 22.313822 24.440313 41.753354 0.719677 0.945485 -0.001770 0.004998 -370042.000000 0 0 1
25.257446 21.382322 25.640613 41.863866 0.702502 0.911607 0.008426 0.008632 422799.000000 0 0 1
24.043846 21.616122 26.360163 41.715962 0.732279 0.886799 0.008140 0.003601 493484.000000 0 0 1
24.146046 21.176822 27.688143 42.404276 0.719979 0.859315 0.018299 -0.002323 297626.000000 0 0 1
22.822946 21.420522 28.463943 42.307466 0.753711 0.832826 0.011626 0.000622 189418.000000 0 0 1
22.527746 22.700622 28.869383 43.084323 0.789220 0.836497 0.006759 -0.000707 -770865.000000 0 0 1
21.536646 22.706122 29.812013 43.222115 0.811825 0.809667 0.006598 0.005049 -845865.000000 0 0 1
21.319446 24.094022 30.507473 44.336741 0.846418 0.811949 -0.002923 0.002814 -139836.000000 0 0 1
20.886246 25.163122 29.674493 44.158731 0.878008 0.833895 -0.014567 0.003481 81061.800000 0 0 1
20.616146 26.317522 30.437863 45.211735 0.906283 0.832229 -0.014114 -0.001269 332018.000000 0 0 1
19.206246 26.513722 31.093793 45.151759 0.943889 0.811170 -0.016958 0.002283 -644011.000000 0 0 1
18.192346 26.570422 30.108103 44.084540 0.970424 0.818985 -0.016586 -0.001229 716682.000000 0 0 1
16.941646 26.898422 30.760493 44.235194 1.008726 0.801841 -0.013997 0.005002 1133060.000000 0 0 1
16.191546 25.717422 31.537503 43.796873 1.008900 0.766870 -0.018879 0.011428 -759329.000000 0 0 1
16.704546 25.243422 32.745873 44.593322 0.986213 0.746128 -0.016334 0.011083 -196937.000000 0 0 1
15.785646 24.450522 33.432621 44.325555 0.997509 0.716283 -0.018223 0.008497 -228604.000000 0 0 1
16.309346 24.135122 -34.636790 45.257111 0.976531 2.442356 -0.015717 0.009493 -330103.000000 0 0 1
16.600046 25.307222 -33.943937 45.477554 0.990256 2.413416 -0.008237 0.008846 172396.000000 0 0 1
16.508846 25.136122 -32.511277 44.287129 0.989671 2.395140 -0.012523 0.003375 -200061.000000 0 0 1
16.975146 26.338222 -31.691077 44.566601 0.998293 2.361850 -0.006206 0.003411 -480241.000000 0 0 1
15.975346 27.321522 -31.515257 44.664177 1.041690 2.354073 -0.002673 -0.000197 42028.500000 0 0 1
16.456946 28.536822 -31.045497 45.265927 1.047692 2.326563 0.003750 -0.001688 -144705.000000 0 0 1
15.785846 28.898922 -29.692007 44.339101 1.070842 2.304544 0.007115 0.001918 -113129.000000 0 0 1
16.098646 27.951522 -28.717137 43.187127 1.048249 2.298219 0.003341 0.001912 169005.000000 0 0 1
15.706546 28.474122 -27.464027 42.564586 1.066720 2.272123 0.008059 0.001548 -269005.000000 0 0 1
16.191146 27.638322 -26.303427 41.447561 1.040867 2.258312 0.005732 0.011814 -135261.000000 0 0 1
17.591446 27.708922 -26.196117 41.993808 1.005134 2.244403 0.010198 0.010271 -283950.000000 0 0 1
18.194546 27.046522 -25.067207 41.120806 0.978619 2.226351 0.007240 0.012296 147969.000000 0 0 1
19.727546 27.012322 -25.132747 41.838936 0.940012 2.215176 0.004595 0.014231 -72873.600000 0 0 1
20.282046 26.817522 -23.852007 41.224496 0.923276 2.187793 0.006534 0.014513 290113.000000 0 0 1
21.703946 26.702622 -23.960207 41.930691 0.888298 2.179036 0.004968 0.015632 875688.000000 0 0 1
22.447846 26.498322 -22.596407 41.432650 0.867964 2.147635 0.013817 0.013207 163977.000000 0 0 1
22.219946 25.235822 -21.984207 40.173101 0.848864 2.149856 0.016224 0.013852 -97207.700000 0 0 1
22.546046 25.234922 -20.642707 39.638956 0.841614 2.118547 0.008967 0.004399 -520623.000000 0 0 1
21.901546 24.118122 -19.806007 38.126624 0.833527 2.117038 0.008360 0.002068 -495702.000000 0 0 1
22.335946 22.760722 -20.115807 37.703987 0.794817 2.133553 0.006732 0.004678 150901.000000 0 0 1
22.111046 21.841122 -19.114607 36.487000 0.779257 2.122190 0.004237 0.001837 -1019520.000000 0 0 1
22.286146 20.334422 -19.446807 35.893444 0.739637 2.143365 0.012644 0.001614 140744.000000 0 0 1
21.482546 19.881822 -20.510507 35.741678 0.746719 2.182001 0.005286 -0.000795 279319.000000 0 0 1
20.080546 19.964622 -20.306107 34.844690 0.782503 2.192918 0.002919 0.003710 -378689.000000 0 0 1
19.302546 19.777022 -21.657307 35.110651 0.797539 2.235505 0.002244 0.000156 30652.300000 0 0 1
19.585346 20.646622 -22.769007 36.445802 0.811771 2.245590 0.003586 0.002558 -135607.000000 0 0 1
19.509546 22.041322 -22.590707 37.105017 0.846255 2.225383 0.003384 0.007144 45634.600000 0 0 1
19.206846 22.836022 -23.913407 38.239219 0.871506 2.246393 0.002421 0.006724 -204827.000000 0 0 1
17.897046 22.582022 -24.319007 37.704987 0.900624 2.271795 0.008383 0.007205 -706883.000000 0 0 1
17.510946 23.266722 -25.475657 38.690860 0.925622 2.289542 0.004394 0.009355 -962000.000000 0 0 1
16.027446 23.305822 -25.757497 38.255575 0.968372 2.309460 0.008521 0.004550 -838428.000000 0 0 1
15.414446 24.377722 -25.045707 38.199030 1.006953 2.285857 0.003228 0.008559 -393476.000000 0 0 1
14.028146 24.214522 -25.024207 37.541216 1.045716 2.300407 0.005645 0.011102 -134930.000000 0 0 1
13.186546 25.295422 -24.275507 37.457224 1.090253 2.275865 0.001562 0.015734 220371.000000 0 0 1
13.363146 26.571022 -24.758607 38.698598 1.104814 2.265009 0.003164 0.015324 -298786.000000 0 0 1
12.424946 27.419722 -24.172207 38.607202 1.145335 2.247346 0.004237 0.017699 -113423.000000 0 0 1
12.575146 28.882622 -24.643807 39.995717 1.160160 2.234656 0.005704 0.012619 101642.000000 0 0 1
12.282446 29.057422 -26.032847 40.901117 1.170879 2.260725 0.005395 0.009373 -154773.000000 0 0 1
11.946546 30.371222 -26.471997 42.022586 1.196035 2.252281 0.008909 0.002852 -125122.000000 0 0 1
12.988846 31.504422 -26.305937 43.049286 1.179743 2.228202 0.007253 -0.000953 -258071.000000 0 0 1
13.984946 31.487422 -27.290887 43.952576 1.152823 2.240708 0.009448 0.005897 -470495.000000 0 0 1
14.702546 32.680622 -27.379177 45.097752 1.148037 2.223212 0.001875 0.002184 -170960.000000 0 0 1
16.166746 32.507022 -27.818887 45.737956 1.109286 2.224617 0.004358 0.006339 -362998.000000 0 0 1
16.968846 31.855122 -26.896357 45.012271 1.081341 2.211218 -0.000436 0.005174 -790993.000000 0 0 1
18.222646 31.586422 -27.441257 45.637588 1.047525 2.215906 0.000820 0.004618 -409794.000000 0 0 1
19.233346 30.880322 -26.453887 44.981374 1.013755 2.199513 0.000913 0.006039 -332479.000000 0 0 1
19.670146 31.633922 -25.329377 45.046609 1.014497 2.167952 0.007681 0.006737 -35908.500000 0 0 1
20.410746 32.840022 -25.553367 46.346954 1.014703 2.154777 0.003232 -0.001100 939021.000000 0 0 1
21.888446 32.594622 -26.075577 47.132252 0.979431 2.157048 0.003332 0.000966 451225.000000 0 0 1
21.881746 31.991522 -27.392737 47.461883 0.970899 2.186034 0.000171 0.001540 -743357.000000 0 0 1
22.969046 32.302222 -28.192767 48.639929 0.952681 2.189061 -0.006100 0.006116 -1080640.000000 0 0 1
23.014946 31.550322 -29.524937 48.957456 0.940566 2.218145 -0.012761 0.007426 -483060.000000 0 0 1
22.084246 31.929022 -30.485007 49.361037 0.965685 2.236474 -0.010662 0.002763 -67957.500000 0 0 1
20.885046 31.154922 -30.403677 48.282480 0.980240 2.251969 -0.014952 0.003362 516013.000000 0 0 1
19.683646 31.758522 -31.218897 48.689518 1.015952 2.266835 -0.015347 0.002153 58931.900000 0 0 1
19.080346 32.845922 -30.501227 48.715901 1.044536 2.247343 -0.012775 0.005799 -133744.000000 0 0 1
18.398146 33.646522 -31.426247 49.580129 1.070408 2.257314 -0.010646 0.005531 -1174120.000000 0 0 1
16.896546 33.514622 -31.369387 48.915862 1.103831 2.266978 -0.008932 0.001059 -1069070.000000 0 0 1
16.302346 32.257222 -31.847247 48.172004 1.102849 2.293101 -0.006130 0.000257 387949.000000 0 0 1
16.472846 31.816422 -33.211147 48.853041 1.093052 2.318310 -0.005814 -0.001620 -506350.000000 0 0 1
15.827346 32.755022 -34.347271 50.031304 1.120676 2.327482 -0.004635 -0.004029 130732.000000 0 0 1
16.574246 33.970222 -34.631953 51.264547 1.116871 2.312512 -0.009658 0.000027 436339.000000 0 0 1
16.527146 34.383922 33.450552 50.737955 1.122736 0.850935 -0.002836 -0.001606 558785.000000 0 0 1
15.174746 -34.451589 32.954733 50.031983 -1.155899 0.851742 0.001044 -0.004632 610403.000000 0 0 1
14.039546 34.154822 32.895933 49.455062 1.180795 0.843077 0.008578 -0.001978 1102450.000000 0 0 1
12.768846 -34.697689 32.620143 49.305647 -1.218174 0.847859 0.015688 -0.002335 842010.000000 0 0 1
12.574246 -34.111789 31.211043 47.915081 -1.217632 0.861391 0.006575 0.000922 -1006390.000000 0 0 1
13.423246 -33.055389 30.908903 47.203841 -1.185057 0.856883 -0.002885 -0.000133 104722.000000 0 0 1
12.879546 -32.327089 29.777133 45.799575 -1.191658 0.862999 0.002643 -0.002399 337110.000000 0 0 1
13.295946 -30.816389 29.699403 44.816142 -1.163469 0.846385 0.001336 -0.003266 138129.000000 0 0 1
12.841946 -30.087089 30.839093 44.957738 -1.167380 0.814878 -0.002152 0.004408 275390.000000 0 0 1
13.118746 -28.727589 30.581963 43.961714 -1.142418 0.801472 0.002635 -0.000697 -370203.000000 0 0 1
12.734546 -27.834589 31.786733 44.128556 -1.141716 0.766531 0.004405 0.002092 378208.000000 0 0 1
11.388046 -27.362589 31.720603 43.411929 -1.176411 0.751466 0.004722 0.005055 357927.000000 0 0 1
11.134246 -26.241689 30.910773 42.048467 -1.169522 0.744949 0.004781 0.004722 -362957.000000 0 0 1
11.429646 -24.838789 31.536723 41.739276 -1.139531 0.714281 0.010189 0.002198 -140191.000000 0 0 1
10.459846 -24.501589 32.482623 42.010202 -1.167313 0.686912 0.000114 0.001297 -8579.540000 0 0 1
10.859946 -23.254089 33.025003 41.825135 -1.133885 0.660644 0.001672 -0.000430 -50371.900000 0 0 1
9.871846 -22.846189 34.110321 42.224587 -1.162927 0.630334 0.000878 0.000609 -599133.000000 0 0 1
9.826146 -23.631889 -34.126431 42.657152 -1.176744 2.498119 -0.001383 0.001540 906953.000000 0 0 1
11.052046 -23.789489 -33.355897 42.434696 -1.135887 2.475193 0.000227 0.003514 1281310.000000 0 0 1
11.739246 -22.506889 -32.760307 41.444031 -1.090031 2.482374 -0.000489 -0.004639 66929.100000 0 0 1
12.336246 -21.733189 -33.788387 42.025820 -1.054524 2.504773 -0.002925 -0.000093 -36253.700000 0 0 1
13.205846 -20.740589 -33.301817 41.395379 -1.003817 2.505598 -0.006164 -0.002739 -10594.400000 0 0 1
13.364246 -19.587489 -34.314147 41.710113 -0.972059 2.536909 -0.008087 0.003927 -490464.000000 0 0 1
14.008246 -19.943189 33.894400 41.746762 -0.958456 0.623389 -0.007589 0.002037 334772.000000 0 0 1
13.855046 -18.964689 32.836173 40.371227 -0.939846 0.620899 -0.011193 0.004269 -143757.000000 0 0 1
14.765146 -17.713689 32.953843 40.221140 -0.875934 0.610578 -0.010750 0.001839 -724807.000000 0 0 1
14.566646 -16.840589 34.124796 40.746709 -0.857674 0.578130 -0.010299 -0.000361 181511.000000 0 0 1
15.158446 -15.564289 34.058110 40.397778 -0.798607 0.567832 -0.000079 -0.000561 466231.000000 0 0 1
16.693846 -15.510989 34.392624 41.256852 -0.748685 0.585163 -0.002720 0.003127 858702.000000 0 0 1
17.479246 -16.208089 33.425618 41.054819 -0.747682 0.619497 -0.001649 0.001708 748654.000000 0 0 1
18.895346 -16.109589 33.592342 41.773178 -0.705984 0.636534 -0.000710 0.001076 548011.000000 0 0 1
19.638746 -16.692589 32.377513 41.383889 -0.704484 0.672334 0.006160 -0.001463 -533669.000000 0 0 1
19.404846 -16.029489 31.195173 40.082807 -0.690428 0.678893 0.003572 0.001292 207863.000000 0 0 1
20.185046 -16.645889 30.201173 39.957885 -0.689600 0.713883 0.004169 -0.004216 -555641.000000 0 0 1
20.429146 -15.790989 28.952163 38.793467 -0.658037 0.728287 0.008475 -0.002795 -407801.000000 0 0 1
21.250846 -14.668989 29.127493 38.925423 -0.604171 0.725316 0.011859 -0.003375 118943.000000 0 0 1
21.639946 -14.116789 27.855773 37.993619 -0.578025 0.747825 0.007584 0.003159 202022.000000 0 0 1
22.378246 -12.777489 28.170433 38.178835 -0.518806 0.740910 0.002560 -0.000306 532710.000000 0 0 1
21.473346 -11.874989 28.803013 37.838255 -0.505152 0.705613 0.001065 -0.004775 1300750.000000 0 0 1
22.232546 -10.656989 29.076563 38.122225 -0.446985 0.703289 0.002419 -0.003587 909464.000000 0 0 1
21.242846 -9.488189 29.230753 37.359352 -0.420067 0.672252 -0.001610 -0.006065 -47888.900000 0 0 1
20.353946 -9.546789 30.297333 37.727347 -0.438573 0.638383 -0.001050 -0.007781 -403270.000000 0 0 1
19.337046 -8.597289 30.037433 36.743464 -0.418356 0.613756 0.005873 -0.004523 230240.000000 0 0 1
18.161846 -8.603989 31.057633 36.992673 -0.442420 0.574320 -0.002814 0.001666 63068.400000 0 0 1
18.529946 -8.204389 32.428033 38.239354 -0.416820 0.558544 -0.007103 0.002595 284543.000000 0 0 1
18.724146 -9.328589 33.304033 39.329058 -0.462216 0.560847 -0.000771 -0.001588 -351340.000000 0 0 1
18.826946 -8.845389 -34.669960 40.431435 -0.439218 2.601187 -0.003378 -0.004861 184999.000000 0 0 1
17.597846 -8.323789 -34.192938 39.346241 -0.441816 2.624028 -0.004031 -0.002416 166287.000000 0 0 1
17.787946 -7.640689 -32.972247 38.235589 -0.405712 2.610678 0.000166 -0.002843 -65369.400000 0 0 1
16.533246 -7.290589 -32.159007 36.887703 -0.415315 2.629678 0.001795 -0.004478 -115188.000000 0 0 1
16.887046 -6.370489 -31.153577 36.004178 -0.360734 2.616498 0.002921 -0.004978 -66134.400000 0 0 1
15.792946 -5.990989 -30.361237 34.743544 -0.362575 2.633897 0.001624 -0.002484 -185685.000000 0 0 1
16.100946 -4.976289 -29.222847 33.733940 -0.299755 2.618492 0.005415 -0.000206 -4211.120000 0 0 1
16.906946 -5.428589 -28.102567 33.242573 -0.310688 2.578070 0.005501 0.002132 847840.000000 0 0 1
16.253446 -6.314989 -27.184387 32.296199 -0.370582 2.571259 0.008594 -0.002221 605626.000000 0 0 1
14.848546 -5.975089 -26.566357 31.015357 -0.382576 2.599353 0.005278 -0.003253 566455.000000 0 0 1
14.775946 -4.933989 -25.685567 30.040326 -0.322279 2.596417 0.004894 0.005725 -176054.000000 0 0 1
13.458846 -4.887489 -25.172407 28.959941 -0.348335 2.624408 -0.001621 -0.000648 28018.600000 0 0 1
13.115346 -3.701989 -24.210207 27.782209 -0.275107 2.628903 0.002391 0.000952 -61137.700000 0 0 1
13.349746 -2.452989 -24.781307 28.255018 -0.181721 2.640501 0.005509 0.002996 295921.000000 0 0 1
12.935446 -1.405989 -23.876107 27.191378 -0.108268 2.642624 0.006171 0.003419 112009.000000 0 0 1
13.322446 0.037011 -24.462707 27.855215 0.002778 2.642901 0.001149 0.003470 -763689.000000 0 0 1
12.606046 0.361011 -25.588587 28.527505 0.028630 2.683685 0.011558 0.001395 -264930.000000 0 0 1
12.935246 1.687011 -26.098727 29.177220 0.129688 2.678085 0.007976 0.004326 -18213.600000 0 0 1
12.216246 2.201011 -27.408237 30.088080 0.178258 2.716337 0.009199 0.002445 -44713.800000 0 0 1
11.055646 2.916011 -27.053197 29.370153 0.257885 2.741723 0.003531 0.000410 29511.900000 0 0 1
10.464146 3.510011 -28.223027 30.304419 0.323638 2.768809 0.002324 0.005954 272200.000000 0 0 1
9.249946 4.402011 -27.858557 29.682291 0.444179 2.789225 0.007038 0.006373 211906.000000 0 0 1
9.614746 5.672011 -27.292417 29.487134 0.532981 2.753336 0.004617 -0.007996 490935.000000 0 0 1
8.428946 6.390011 -26.957397 28.958257 0.648667 2.767680 0.002967 -0.006909 503945.000000 0 0 1
7.353146 4.895022 -31.853967 33.056092 0.587336 2.871079 0.001121 0.000757 -68689.100000 0 0 1
7.398646 3.957822 -30.793357 31.916064 0.491206 2.875566 -0.002603 0.008805 465009.000000 0 0 1
7.459646 2.665322 -31.323627 32.309749 0.343162 2.893894 -0.004119 0.012645 -160492.000000 0 0 1
7.107746 1.472522 -30.380577 31.235682 0.204282 2.907064 -0.004423 0.014704 223313.000000 0 0 1
8.199246 1.211722 -29.485467 30.628233 0.146723 2.867566 -0.000833 0.012001 970062.000000 0 0 1
7.831246 0.276822 -28.432707 29.492777 0.035334 2.872666 -0.004633 0.012041 -236006.000000 0 0 1
9.048746 -0.174578 -27.632337 29.076732 -0.019291 2.825074 -0.002057 0.008377 27373.500000 0 0 1
9.928846 -1.048278 -28.304527 30.013782 -0.105189 2.802482 0.009267 0.014667 106007.000000 0 0 1
10.954146 -1.633678 -27.545147 29.688337 -0.148047 2.759296 0.006779 0.008921 556533.000000 0 0 1
11.841646 -2.765478 -28.178267 30.690181 -0.229426 2.734189 0.005478 0.009356 675601.000000 0 0 1
11.049246 -3.900278 -28.496347 30.811358 -0.339336 2.751477 0.003575 0.008446 359822.000000 0 0 1
11.869646 -5.010678 -28.860787 31.606019 -0.399448 2.721723 0.004377 0.007083 184862.000000 0 0 1
11.231746 -6.330678 -28.288907 31.088452 -0.513256 2.713957 -0.004514 0.004324 126745.000000 0 0 1
11.211546 -6.309178 -26.875277 29.795721 -0.512571 2.695140 -0.001686 0.002543 -24690.600000 0 0 1
10.837446 -7.532678 -26.310127 29.434916 -0.607403 2.676635 0.000812 0.000344 -223226.000000 0 0 1
10.371546 -7.355578 -24.856407 27.919786 -0.616879 2.668754 0.004444 -0.002770 312874.000000 0 0 1
11.436146 -7.165978 -23.930607 27.473817 -0.559755 2.628098 -0.000715 -0.001518 509222.000000 0 0 1
10.839846 -6.842978 -22.697707 26.067499 -0.563103 2.627478 -0.003692 0.000651 489725.000000 0 0 1
11.893146 -6.957778 -21.561207 25.587951 -0.529335 2.572947 -0.004137 -0.005071 102242.000000 0 0 1
12.828246 -5.949878 -21.488507 25.723936 -0.434279 2.559567 -0.002308 -0.003362 -77736.100000 0 0 1
13.942246 -6.230778 -20.630907 25.667940 -0.420272 2.504388 -0.000490 -0.004895 475138.000000 0 0 1
14.255946 -5.074178 -19.712107 24.850482 -0.341952 2.486889 -0.005156 -0.003194 -168878.000000 0 1 0
14.916046 -4.078478 -20.446307 25.635403 -0.266905 2.494070 -0.002879 -0.004176 -1388.350000 0 0 1
15.332146 -2.951978 -19.717807 25.151159 -0.190208 2.471835 -0.009942 -0.003273 -357115.000000 0 0 1
16.122646 -2.056278 -20.681507 26.303854 -0.126855 2.475519 -0.003753 0.000082 929169.000000 0 0 1
17.519546 -2.402278 -20.736807 27.252901 -0.136270 2.435500 -0.009519 0.000594 673653.000000 0 0 1
18.210746 -1.702178 -21.728207 28.401473 -0.093200 2.441897 -0.010604 0.000878 -25820.700000 0 0 1
19.553746 -2.396178 -22.051907 29.569871 -0.121935 2.412465 -0.001777 0.001637 -979130.000000 0 0 1
20.431346 -2.456478 -20.922507 29.346644 -0.119656 2.364484 0.001680 0.006345 656715.000000 0 0 1
21.601046 -3.240678 -21.158407 30.410284 -0.148914 2.340281 0.003627 0.002545 718901.000000 0 0 1
22.665446 -2.612678 -22.104807 31.767452 -0.114765 2.340374 0.007003 0.002876 -1302830.000000 0 0 1
22.253146 -2.550078 -23.458107 32.434368 -0.114096 2.379291 0.005886 -0.001716 41803.800000 0 0 1
23.071746 -1.843278 -24.391807 33.625339 -0.079724 2.382411 0.012011 0.000303 1166630.000000 0 0 1
24.436246 -2.535278 -24.851007 34.944675 -0.103381 2.361933 0.008497 -0.003021 218476.000000 0 0 1
25.378846 -2.520078 -23.806307 34.888062 -0.098974 2.321786 0.010087 0.002522 698972.000000 0 0 1
26.697246 -2.949478 -24.242307 36.181927 -0.110033 2.305021 0.005282 0.000735 1190650.000000 0 0 1
27.539246 -2.104878 -25.203997 37.390935 -0.076284 2.310497 -0.001842 -0.001373 -1267140.000000 0 0 1
27.323046 -2.107278 -26.578467 38.175966 -0.076972 2.340900 0.001363 0.006569 55599.200000 0 0 1
27.858146 -0.933578 -27.207817 38.951421 -0.033499 2.344105 -0.008611 0.002276 -887183.000000 0 0 1
27.349346 -0.510678 -28.619207 39.589222 -0.018670 2.378792 -0.009897 -0.000716 977104.000000 0 0 1
25.957046 -0.118978 -28.635177 38.649137 -0.004584 2.405207 -0.006967 -0.001737 1026150.000000 0 0 1
25.711346 1.126822 -28.028697 38.051950 0.043798 2.398811 -0.003495 0.003263 -652553.000000 0 0 1
24.266846 1.656022 -28.008247 37.095608 0.068137 2.426494 -0.002843 0.001973 -156548.000000 0 0 1
23.360646 1.043722 -27.116997 35.806992 0.044649 2.429981 -0.000318 0.000785 665075.000000 0 0 1
22.046046 1.332222 -27.611877 35.358432 0.060356 2.466923 -0.000396 0.001297 741682.000000 0 0 1
20.870646 1.033822 -26.621257 33.842931 0.049494 2.476099 0.004865 0.001355 257321.000000 0 0 1
20.918146 1.874922 -25.492177 33.029309 0.089392 2.452471 0.010006 -0.000496 204582.000000 0 0 1
19.882746 1.668222 -24.576207 31.655908 0.083707 2.459658 0.013764 -0.000873 -670010.000000 0 0 1
20.267846 2.362122 -23.222507 30.913590 0.116022 2.420685 0.009602 0.001918 -217525.000000 0 0 1
20.207046 3.752522 -23.110007 30.926988 0.183612 2.414702 0.007675 -0.001934 510348.000000 0 0 1
20.619546 4.166622 -21.794007 30.290348 0.199387 2.373883 0.010677 0.001740 -311583.000000 0 0 1
19.973946 5.524622 -21.464107 29.836016 0.269845 2.373738 0.009653 -0.000701 -232649.000000 0 0 1
20.531046 6.607622 -22.165907 30.927527 0.311367 2.369862 0.011678 -0.004143 147678.000000 0 0 1
20.139546 7.869222 -21.582607 30.550530 0.372494 2.355275 0.014594 -0.004196 -252950.000000 0 0 1
20.615846 8.255922 -20.151607 29.987674 0.380907 2.307698 0.015052 0.003364 -673770.000000 0 0 1
22.013346 8.395222 -20.073607 30.951847 0.364343 2.276465 0.023243 0.004611 -113588.000000 0 0 1
22.486946 8.509522 -18.771907 30.503429 0.361766 2.233694 0.010765 0.005114 -230721.000000 0 0 1
22.354446 9.861822 -18.043007 30.373128 0.415476 2.206874 0.015541 -0.000444 -254669.000000 0 0 1
21.035546 10.258222 -17.729907 29.361112 0.453728 2.219127 0.012317 -0.000898 75072.100000 0 0 1
20.989246 11.656722 -17.549507 29.739079 0.506954 2.201999 0.008635 -0.000632 70298.500000 0 0 1
19.549646 12.172822 -17.225807 28.759254 0.556916 2.213005 0.006185 -0.003824 1236870.000000 0 0 1
18.576046 12.181522 -18.297907 28.779721 0.580417 2.259830 0.003576 -0.004293 831206.000000 0 0 1
17.975046 10.905122 -18.467407 27.983372 0.545318 2.291538 0.003101 -0.004705 -602826.000000 0 0 1
17.068946 10.698922 -19.676707 28.160054 0.559897 2.344438 -0.004708 -0.003428 -87862.900000 0 0 1
17.804546 10.831722 -20.885007 29.504433 0.546550 2.357260 -0.002126 -0.005771 120994.000000 0 0 1
17.009346 10.827722 -22.043907 29.874592 0.566880 2.400722 0.000016 -0.003323 -504542.000000 0 0 1
17.792846 10.635922 -23.344907 31.220072 0.538774 2.415468 0.001656 -0.005202 -266691.000000 0 0 1
18.561846 11.777422 -23.620707 32.267439 0.565399 2.392092 0.002054 -0.007833 62734.900000 0 0 1
19.176046 11.851822 -24.860707 33.559517 0.553588 2.405049 0.006847 -0.007629 -154236.000000 0 0 1
19.678146 13.314222 -24.965907 34.464394 0.594848 2.380956 0.010152 -0.008121 86024.500000 0 0 1
20.486946 13.700522 -26.072127 35.877222 0.589439 2.384308 0.008699 -0.008889 241244.000000 0 0 1
20.507046 15.124722 -26.289037 36.611605 0.635477 2.371796 0.014897 -0.010913 -520440.000000 0 0 1
19.391346 15.772222 -27.113677 36.877348 0.682837 2.396816 0.012670 -0.012144 965869.000000 0 0 1
18.068346 15.423522 -26.631327 35.687221 0.706593 2.413196 0.009201 -0.014000 476400.000000 0 0 1
17.069246 15.800822 -27.545087 36.052142 0.746828 2.440340 0.001630 -0.016350 -705914.000000 0 0 1
15.726346 15.470922 -26.919107 34.803817 0.777211 2.455067 -0.006846 -0.014462 -811516.000000 0 0 1
15.593546 14.075122 -26.774507 34.031485 0.734263 2.476334 -0.007387 -0.009189 -980699.000000 0 0 1
14.305046 13.773822 -26.410637 33.043521 0.766481 2.496873 -0.005943 -0.008652 -999778.000000 0 0 1
14.163546 12.210122 -26.368337 32.326186 0.711466 2.524727 -0.007519 -0.008886 205426.000000 0 0 1
12.840246 11.770922 -26.112287 31.389139 0.741977 2.553300 -0.008585 -0.007807 162655.000000 0 0 1
12.796846 10.353022 -25.952587 30.732411 0.680222 2.576370 -0.010033 -0.007602 -365733.000000 0 0 1
11.380546 9.776522 -25.810977 29.854711 0.709728 2.615056 -0.002429 0.000901 -59120.600000 0 0 1
10.653746 10.316922 -24.721207 28.828445 0.769338 2.601242 -0.003959 -0.002224 -270189.000000 0 0 1
9.413046 9.706322 -24.503707 27.986600 0.800736 2.637372 -0.000106 -0.000822 -610114.000000 0 0 1
8.589746 10.427522 -23.482707 27.091594 0.881736 2.619524 0.007620 0.006261 -611998.000000 0 0 1
8.115846 11.675022 -23.956307 27.858172 0.963335 2.605945 0.003676 0.006608 204442.000000 0 0 1
7.279346 12.332822 -22.991407 27.086753 1.037583 2.584520 0.006246 0.012141 670311.000000 0 0 1
8.061846 13.260122 -21.956907 26.887357 1.024532 2.526337 0.003744 0.010154 66800.900000 0 0 1
8.618446 12.479022 -20.957607 25.869381 0.966383 2.515173 0.002941 0.007665 -179382.000000 0 0 1
9.489646 13.168322 -20.070707 25.812620 0.946351 2.461563 0.001075 0.010342 126906.000000 0 0 1
10.561446 12.340022 -19.312807 25.234992 0.862905 2.442332 -0.001518 0.005972 294378.000000 0 0 1
11.609946 11.726822 -20.063107 25.977634 0.790406 2.453285 -0.000810 0.000219 627824.000000 0 0 1
11.172646 10.689622 -20.960207 26.046618 0.763308 2.505998 -0.000850 0.001357 -759898.000000 0 0 1
12.348446 10.122622 -21.761107 26.990691 0.686667 2.508573 -0.002550 -0.001003 -241209.000000 0 0 1
12.900646 8.983022 -21.182907 26.378721 0.608254 2.503159 -0.000576 -0.000208 235599.000000 0 0 1
13.933346 8.462022 -22.030107 27.405648 0.545786 2.504541 0.006248 -0.002582 166049.000000 0 0 1
14.425746 7.142422 -21.401307 26.779326 0.459733 2.496714 0.010843 -0.000455 -663279.000000 0 0 1
15.253846 7.285022 -20.337407 26.445444 0.445556 2.448123 -0.002410 -0.004400 -627933.000000 0 0 1
15.763946 6.084522 -19.844807 26.064147 0.368360 2.436241 -0.001151 -0.001333 141191.000000 0 0 1
16.644146 6.222322 -18.584907 25.712714 0.357757 2.378628 -0.007315 -0.000889 -400440.000000 0 0 1
17.928646 6.787122 -18.695107 26.777013 0.361891 2.343645 -0.001645 -0.002968 217724.000000 0 0 1
18.599546 7.005922 -17.469607 26.461542 0.360235 2.291866 0.002025 0.006645 120614.000000 0 0 1
19.311846 5.770522 -16.859707 26.277291 0.290362 2.267389 0.007643 0.005774 -300609.000000 0 0 1
20.536446 5.349722 -17.424907 27.458924 0.254835 2.258262 0.008714 0.004346 539093.000000 0 0 1
21.208046 4.376822 -16.663207 27.323987 0.203518 2.226653 0.010358 0.003743 34090.400000 0 0 1
22.584146 3.894222 -17.167707 28.634573 0.170753 2.213728 0.007961 0.016606 224179.000000 0 0 1
23.173146 2.828022 -16.375607 28.515836 0.121438 2.182501 0.004176 0.009451 1597540.000000 0 0 1
24.449146 2.359722 -16.908207 29.819733 0.096217 2.173673 0.002960 0.009635 1302770.000000 0 0 1
25.114446 1.243022 -16.042407 29.826822 0.049454 2.138683 0.001976 0.006281 42752.700000 0 0 1
24.504846 -0.045678 -16.061007 29.299241 -0.001864 2.150973 0.012082 0.001931 358761.000000 0 0 1
25.530046 -1.049678 -16.102007 30.201982 -0.041092 2.133109 0.007058 0.004392 272259.000000 0 0 1
25.002846 -2.541278 -16.171207 29.884918 -0.101292 2.142560 0.004751 0.004844 -328375.000000 0 0 1
24.508746 -3.143678 -14.979707 28.895553 -0.127571 2.115785 0.011744 0.003443 456979.000000 0 0 1
24.417946 -4.550378 -15.227507 29.134498 -0.184240 2.120767 0.009962 -0.001106 -1214940.000000 0 0 1
23.877746 -5.341678 -14.015207 28.197629 -0.220086 2.090975 0.008946 0.000161 407418.000000 0 0 1
22.488046 -5.373678 -13.742807 26.897089 -0.234559 2.107075 0.011427 0.000435 877616.000000 0 0 1
21.539946 -5.620978 -14.794207 26.728884 -0.255263 2.157347 0.011864 0.002231 -111905.000000 0 0 1
20.057746 -5.558878 -14.337407 25.274009 -0.270358 2.173994 0.006466 -0.003644 -138805.000000 0 0 1
19.669246 -6.554078 -13.418207 24.695819 -0.321644 2.145206 0.003400 0.002981 504598.000000 0 1 0
19.895446 -6.165078 -12.069907 24.073214 -0.300491 2.095993 -0.000841 -0.004568 -748723.000000 0 1 0
19.832346 -7.282378 -11.008507 23.823144 -0.351912 2.051150 0.004008 -0.004248 -571848.000000 0 1 0
18.667246 -8.039478 -10.815907 23.023534 -0.406666 2.059834 0.006945 -0.005897 328064.000000 0 1 0
18.288246 -8.889178 -11.868307 23.544302 -0.452433 2.099117 -0.001443 -0.004274 -1031160.000000 0 1 0
16.884946 -9.477478 -11.718207 22.632728 -0.511476 2.115021 0.004832 -0.005867 -434431.000000 0 1 0
15.922546 -8.466778 -11.923607 21.619117 -0.488722 2.154995 0.003986 -0.007298 162610.000000 0 1 0
14.766846 -8.995778 -12.562707 21.373006 -0.547148 2.199113 0.006342 -0.001158 719702.000000 0 1 0
13.607446 -8.014078 -12.959307 20.428697 -0.532253 2.257987 0.005477 -0.001061 40731.900000 0 1 0
13.912646 -7.018678 -13.890807 20.875298 -0.467227 2.298850 0.000344 -0.004998 228949.000000 0 1 0
14.733646 -5.897678 -13.519407 20.847957 -0.380753 2.276378 -0.012367 -0.010552 -6903.330000 0 1 0
14.838246 -4.836978 -14.608307 21.376916 -0.315118 2.323163 -0.007092 -0.007039 -110470.000000 0 1 0
13.605946 -4.166978 -14.782207 20.518263 -0.297191 2.375235 -0.005200 -0.002028 -21170.300000 0 1 0
13.497846 -3.312278 -15.910707 21.126136 -0.240638 2.423602 -0.002619 0.001114 195138.000000 0 1 0
14.452546 -2.046778 -16.026507 21.677507 -0.140685 2.402849 -0.006139 0.001630 703695.000000 0 1 0
15.704446 -2.372578 -16.646107 23.007643 -0.149943 2.379660 -0.006614 0.003961 406643.000000 0 1 0
16.699046 -1.381578 -16.486607 23.506916 -0.082546 2.348088 0.002007 0.007489 -172401.000000 0 1 0
17.700146 -1.819778 -15.415107 23.542139 -0.102452 2.284698 0.000017 0.003699 -1409650.000000 0 1 0
17.247446 -1.921078 -14.109107 22.365863 -0.110926 2.253422 -0.002795 0.004623 289472.000000 0 1 0
18.259846 -2.550078 -13.299507 22.733274 -0.138758 2.195706 -0.000480 0.007293 281592.000000 0 1 0
17.951046 -2.788178 -11.796207 21.660205 -0.154090 2.146712 0.000685 0.003510 -412228.000000 0 1 0
17.911346 -1.575578 -11.055207 21.107259 -0.087740 2.122059 0.010391 0.001316 939307.000000 0 1 0
17.198946 -1.785778 -9.827507 19.889008 -0.103460 2.087616 -0.005021 -0.000016 -1642080.000000 0 1 0
17.157246 -0.565478 -8.876907 19.325898 -0.032947 2.048034 -0.006681 -0.001222 -217988.000000 0 1 0
18.321746 -0.119278 -8.175107 20.063225 -0.006510 1.990475 -0.005984 -0.002727 1866150.000000 0 1 0
19.521446 0.219222 -8.922907 21.465162 0.011229 1.999500 -0.001468 -0.002007 493947.000000 0 1 0
19.449846 1.506922 -9.766507 21.816324 0.077323 2.034954 0.006023 -0.000504 -767338.000000 0 1 0
19.373046 2.633222 -8.908607 21.485159 0.135094 1.998344 0.009433 -0.000815 744074.000000 0 1 0
18.626446 3.569322 -9.667307 21.287118 0.189331 2.042202 -0.008557 0.000619 -184141.000000 0 1 0
18.694646 5.002722 -8.981007 21.334842 0.261475 2.005294 0.014984 0.002186 -285327.000000 0 1 0
17.929046 5.908622 -9.726007 21.235765 0.318347 2.046542 0.007407 -0.001491 425167.000000 0 1 0
18.169846 7.236522 -9.235807 21.628932 0.379015 2.011982 0.006107 -0.005312 -623074.000000 0 1 0
-24.799054 -29.482948 5.764293 38.954645 0.871473 1.422276 0.005022 -0.003402 -31373.900000 0 0 1
-25.000054 -28.563628 6.841693 38.570615 0.851830 1.392472 0.012327 -0.001808 -1246000.000000 0 0 1
-23.933954 -27.734218 6.820193 37.263065 0.858817 1.386730 0.010108 -0.002393 -1308330.000000 0 0 1
-24.128954 -26.510268 7.791393 36.683873 0.832389 1.356773 0.015622 -0.000522 -581426.000000 0 0 1
-25.085664 -25.529168 7.455993 36.559825 0.794160 1.365416 0.012755 -0.001547 899031.000000 0 0 1
-26.477154 -25.879098 7.601493 37.796165 0.773976 1.368297 0.011724 -0.001629 886664.000000 0 0 1
-26.959204 -25.899088 9.062393 38.466718 0.765345 1.332970 0.009882 -0.000436 -645222.000000 0 0 1
-26.353094 -26.973588 9.795393 38.961645 0.797033 1.316658 0.010886 -0.001490 -72716.500000 0 0 1
-26.878474 -27.051848 11.081393 39.712116 0.788613 1.287999 0.017666 -0.004154 127094.000000 0 0 1
-26.030074 -28.034198 11.986293 40.089303 0.822450 1.267162 0.017901 -0.002263 698585.000000 0 0 1
-24.807154 -27.556698 12.524293 39.135973 0.837858 1.245046 0.010972 -0.004566 2758.410000 0 0 1
-24.884754 -26.647278 13.588593 38.909874 0.819587 1.214044 0.016243 -0.003553 58061.800000 0 0 1
-23.487554 -26.203358 14.144893 37.925706 0.839998 1.188596 0.011277 -0.004349 635880.000000 0 0 1
-22.776754 -27.193288 14.864893 38.460636 0.873553 1.173967 0.007388 -0.002149 29831.100000 0 0 1
-21.686054 -26.665258 15.598693 37.744406 0.888016 1.144752 0.003015 -0.002646 13521.500000 0 0 1
-20.856554 -27.701218 16.370593 38.345138 0.925435 1.129704 0.001594 -0.003307 -236927.000000 0 0 1
-21.582754 -28.517638 17.314293 39.734817 0.922944 1.119929 0.003774 0.001508 595308.000000 0 0 1
-20.730454 -29.515648 17.882093 40.257850 0.958492 1.110528 0.001039 0.007968 27459.600000 0 0 1
-21.508254 -30.566698 18.652593 41.771369 0.957625 1.107902 0.003840 0.004098 166413.000000 0 0 1
-22.515354 -31.277908 17.913293 42.498644 0.946873 1.135695 -0.001755 0.006277 644862.000000 0 0 1
-23.175454 -32.229388 18.755693 43.904569 0.947381 1.129411 -0.005683 0.001492 -79934.400000 0 0 1
-24.277954 -32.953248 17.962293 44.698765 0.935836 1.157258 -0.006819 0.001227 -66660.400000 0 0 1
-23.716654 -33.806108 16.999893 44.657911 0.959031 1.180276 -0.004581 -0.000829 -260359.000000 0 0 1
-24.693354 -34.576597 16.390193 45.540545 0.950628 1.202632 -0.006866 0.001428 -845520.000000 0 0 1
-24.233454 34.206290 15.078993 44.550046 -0.954422 1.225503 -0.009021 0.001708 968877.000000 0 0 1
-23.114754 33.300493 15.238393 43.306158 -0.964023 1.211222 -0.011586 0.002891 1353630.000000 0 0 1
-21.815654 33.878135 15.210693 43.069896 -0.998690 1.209847 -0.002547 0.002444 621606.000000 0 0 1
-20.594054 32.910843 15.082093 41.649828 -1.011656 1.200259 0.003465 -0.002254 490313.000000 0 0 1
-20.464654 32.232763 13.817593 40.603927 -1.005108 1.223558 0.004168 -0.000224 395792.000000 0 0 1
-19.141654 31.705773 13.726693 39.497861 -1.027640 1.215861 0.004179 -0.002288 614054.000000 0 0 1
-18.907754 30.773603 12.504093 38.221331 -1.019845 1.237511 -0.000480 -0.002682 78460.800000 0 0 1
-18.810354 31.444953 11.237593 38.326205 -1.031702 1.273215 -0.000909 0.000136 -96305.500000 0 0 1
-19.139254 30.675993 10.115893 37.545424 -1.012977 1.297994 0.005467 0.000640 57582.400000 0 0 1
-18.645654 31.260133 8.752193 37.436041 -1.032978 1.334822 0.000736 -0.004268 370050.000000 0 0 1
-17.221854 31.266543 8.713093 36.743801 -1.067333 1.331385 -0.003073 -0.004054 287025.000000 0 0 1
-16.604454 31.751153 7.505193 36.608353 -1.088953 1.364319 -0.005782 -0.006444 446607.000000 0 0 1
-16.036054 30.607983 6.573593 35.174078 -1.088198 1.382804 -0.008209 -0.006324 -233424.000000 0 0 1
-17.004054 29.658063 6.146893 34.735037 -1.050213 1.392894 -0.007891 -0.001832 137568.000000 0 0 1
-17.024254 28.539753 7.032193 33.967550 -1.032947 1.362261 -0.010972 0.000132 -111046.000000 0 0 1
-18.126954 27.577463 6.533993 33.642176 -0.989299 1.375334 -0.012213 0.006239 140504.000000 0 0 1
-17.754554 26.981573 5.283993 32.728429 -0.988800 1.408637 -0.013031 0.001298 647983.000000 0 0 1
-18.922254 26.437153 4.687493 32.847334 -0.949581 1.427602 -0.010707 0.002314 -449567.000000 0 0 1
-18.640554 25.605283 3.431393 31.857106 -0.941527 1.462875 -0.007948 -0.003165 -1348650.000000 0 0 1
-18.158554 26.303083 2.279693 32.043443 -0.966571 1.499592 -0.009205 0.001262 370350.000000 0 0 1
-16.830854 26.804263 2.189093 31.725987 -1.010102 1.501741 -0.008451 -0.000492 -16269.300000 0 0 1
-15.712654 25.746693 2.384493 30.256660 -1.022853 1.491906 -0.009174 -0.003544 -958161.000000 0 0 1
-15.678154 24.722703 1.361093 29.306469 -1.005637 1.524336 -0.006145 -0.002046 34436.300000 0 0 1
-15.267754 25.148953 0.088993 29.420776 -1.025178 1.567771 -0.010272 0.002950 -192290.000000 0 0 1
-14.938754 23.920333 -0.748507 28.211858 -1.012541 1.597331 -0.003327 0.003105 364673.000000 0 0 1
-16.132854 23.207433 -1.097307 28.285296 -0.963327 1.609600 -0.006524 -0.000594 614252.000000 0 0 1
-15.910754 22.155533 -1.974307 27.348082 -0.948000 1.643051 -0.001903 0.000762 -5652.660000 0 0 1
-15.090754 20.919933 -1.417307 25.833761 -0.945880 1.625686 0.003366 -0.004787 85392.800000 0 0 1
-15.731054 20.005433 -0.592307 25.456516 -0.904441 1.594066 0.008167 -0.011213 -336300.000000 0 0 1
-14.745754 19.205733 0.017193 24.213586 -0.916014 1.570086 0.011946 -0.016180 -179806.000000 0 1 0
-15.297154 18.008733 0.788793 23.641903 -0.866633 1.537426 0.012035 -0.014156 94539.900000 0 1 0
-15.945954 16.974133 0.083993 23.289519 -0.816621 1.567190 0.014757 -0.010976 410559.000000 0 1 0
-16.671854 16.138533 0.993193 23.224758 -0.769145 1.528019 0.013311 -0.018581 -72132.100000 0 1 0
-17.249454 14.907633 0.307193 22.800780 -0.712702 1.557323 0.014752 -0.013872 -732947.000000 0 1 0
-18.258554 15.321333 -0.603007 23.842853 -0.698151 1.596090 0.025853 -0.011909 65078.700000 0 1 0
-18.860054 14.203933 -1.215007 23.641692 -0.645497 1.622212 0.010000 -0.008235 87909.500000 0 1 0
-20.198154 14.594333 -1.900007 24.991399 -0.625706 1.646896 0.021870 0.001605 80046.400000 0 1 0
-21.157354 13.568633 -2.323607 25.241644 -0.570249 1.662981 0.009911 0.000929 1715430.000000 0 0 1
-22.125354 13.192833 -1.335507 25.794684 -0.537677 1.622594 0.003745 0.003018 414842.000000 0 0 1
-23.250754 14.224733 -1.023007 27.276127 -0.549048 1.608311 -0.006940 0.000787 -465409.000000 0 0 1
-22.715454 15.349833 -0.416107 27.418650 -0.594261 1.585973 -0.011561 -0.005120 -18709.400000 0 0 1
-23.762854 16.222033 -0.086907 28.772124 -0.598996 1.573817 -0.013234 -0.006871 -393780.000000 0 0 1
-23.317054 17.428133 0.706293 29.119129 -0.641862 1.546539 -0.008399 -0.010932 -10840.300000 0 0 1
-22.737954 17.072933 1.954793 28.501242 -0.644049 1.502156 -0.008407 -0.011177 183192.000000 0 0 1
-22.605354 18.229433 2.779393 29.172577 -0.678644 1.475377 -0.007546 -0.011560 -393694.000000 0 0 1
-23.899854 18.814633 3.348693 30.600771 -0.666904 1.461145 0.003406 -0.012625 -1886290.000000 0 0 1
-24.534054 17.973733 4.276893 30.712647 -0.632274 1.431087 -0.000661 -0.011908 1003340.000000 0 0 1
-25.947784 18.279433 4.374893 32.040051 -0.613720 1.433824 -0.001037 -0.013199 1313050.000000 0 0 1
-26.820844 18.170433 3.092493 32.543599 -0.595448 1.475627 -0.001139 -0.008234 -1454310.000000 0 0 1
-28.086774 18.786433 3.222993 33.943845 -0.589527 1.475702 -0.004958 -0.006456 133804.000000 0 0 1
-28.583134 19.008633 1.935293 34.381231 -0.586868 1.514477 -0.001654 -0.002367 160025.000000 0 0 1
-29.818174 19.967933 1.921293 35.937908 -0.590070 1.517309 -0.001938 -0.001076 -171781.000000 0 0 1
-31.034224 19.366733 2.287993 36.652808 -0.557912 1.508332 -0.005364 0.006751 252347.000000 0 0 1
-32.086394 20.316833 2.467393 38.057830 -0.564468 1.505918 0.000040 0.004340 235289.000000 0 0 1
-32.092914 20.888333 3.916493 38.491772 -0.576987 1.468871 -0.001669 0.003854 -736770.000000 0 0 1
-31.010974 21.710733 4.251793 38.093493 -0.610792 1.458949 -0.001802 0.004758 257092.000000 0 0 1
-31.407064 22.272333 5.465393 38.888700 -0.616841 1.429790 -0.000746 0.006077 -120002.000000 0 0 1
-30.405444 23.329333 5.966293 38.785892 -0.654466 1.416357 0.000916 0.003349 -101682.000000 0 0 1
-30.447224 24.509593 5.235993 39.435634 -0.677774 1.437630 0.001939 0.005043 474577.000000 0 0 1
-29.480254 25.355003 5.811593 39.315851 -0.710310 1.422435 0.010060 0.005164 -113560.000000 0 0 1
-29.895174 26.826613 5.536193 40.546739 -0.731352 1.433830 0.007576 0.002704 405674.000000 0 0 1
-31.005634 27.248203 6.340693 41.761445 -0.720986 1.418376 0.006722 0.003353 581520.000000 0 0 1
-31.217884 28.623483 6.151993 42.798447 -0.742071 1.426553 0.008216 0.002196 63227.300000 0 0 1
-32.252844 29.278973 7.091293 44.133781 -0.737105 1.409420 0.009788 -0.000884 -306469.000000 0 0 1
-31.767864 29.372503 8.408793 44.075491 -0.746240 1.378838 0.010625 0.001138 150836.000000 0 0 1
-32.635154 29.969183 9.354193 45.284723 -0.742839 1.362734 0.016014 -0.001255 -423981.000000 0 0 1
-33.780574 29.117363 9.936193 45.691092 -0.711394 1.351580 0.012286 -0.004734 -484549.000000 0 0 1
-33.439994 27.975293 10.636593 44.877470 -0.696652 1.331505 0.007810 -0.005549 -629484.000000 0 0 1
-34.423410 27.426343 11.441593 45.476208 -0.672747 1.316468 0.013535 -0.005713 -610677.000000 0 0 1
-33.992374 26.059863 12.041893 44.492754 -0.654065 1.296730 0.007695 -0.003649 -69400.700000 0 0 1
-33.209174 26.334893 13.204193 44.392866 -0.670458 1.268787 0.009234 -0.006342 72860.200000 0 0 1
-32.924614 25.150233 13.868993 43.691113 -0.652321 1.247775 0.013263 -0.002784 80916.300000 0 0 1
-31.810924 25.419973 14.928993 43.370321 -0.674189 1.219387 0.012960 -0.000054 113538.000000 0 0 1
-32.241974 26.350563 15.903493 44.573738 -0.685186 1.205966 0.016735 -0.000974 -529348.000000 0 0 1
-31.169324 26.926733 16.558193 44.393124 -0.712500 1.188567 0.018364 0.001921 -691856.000000 0 0 1
-31.461874 28.198053 17.286593 45.648724 -0.730746 1.182419 0.021474 0.000003 -342254.000000 0 0 1
-31.568664 29.293393 16.432393 46.094543 -0.748031 1.206285 0.019017 0.001091 42756.000000 0 0 1
-31.932754 30.425173 17.243093 47.357324 -0.761227 1.198123 0.021078 -0.001639 56195.400000 0 0 1
-31.535194 31.718433 16.467693 47.662484 -0.788295 1.218018 0.013055 0.000748 31832.900000 0 0 1
-30.148274 31.931993 16.363393 46.865032 -0.814123 1.214122 0.002934 0.001355 -348431.000000 0 0 1
-29.977194 33.223723 15.871493 47.480019 -0.836721 1.229958 0.001782 0.005612 797064.000000 0 0 1
-28.459034 33.534728 15.540493 46.647631 -0.867090 1.231158 0.000685 0.002775 1289960.000000 0 0 1
-27.860194 32.997273 14.341393 45.504791 -0.869610 1.250169 0.000532 0.004415 540691.000000 0 0 1
-27.300064 31.682953 14.464593 44.252994 -0.859569 1.237816 0.003014 0.003408 -169051.000000 0 0 1
-28.318954 30.550483 14.228593 44.019859 -0.823286 1.241654 0.009680 0.002597 -157449.000000 0 0 1
-28.656054 30.397713 12.840093 43.704214 -0.814882 1.272601 0.009023 0.003303 169939.000000 0 0 1
-29.460294 29.237053 12.606893 43.377966 -0.781595 1.275912 0.004115 -0.000318 140539.000000 0 0 1
-29.575424 28.868973 11.124093 42.800336 -0.773311 1.307871 0.009711 -0.003036 -40943.400000 0 0 1
-28.448084 28.194463 10.611593 41.434613 -0.780921 1.311806 0.007560 0.001101 -58770.800000 0 0 1
-28.416944 28.276503 9.199493 41.130451 -0.782921 1.345222 0.003838 0.005986 -421066.000000 0 0 1
-27.230384 27.510733 8.645893 39.662144 -0.790519 1.351043 0.004796 0.010639 -345507.000000 0 0 1
-26.978224 27.763633 7.288793 39.392517 -0.799745 1.384694 0.006780 0.007360 -154310.000000 0 0 1
-26.051854 26.879893 6.688193 38.025776 -0.801040 1.393991 0.001941 0.009005 -513276.000000 0 0 1
-25.785774 27.246253 5.173993 37.868650 -0.812931 1.433738 0.010123 0.002058 -329713.000000 0 0 1
-25.128274 28.464253 4.887493 38.282260 -0.847565 1.442777 0.007327 0.001856 324337.000000 0 0 1
-24.817054 28.528353 3.511193 37.974749 -0.854857 1.478203 0.007114 0.001724 299207.000000 0 0 1
-23.768654 29.624013 3.056793 38.103478 -0.894628 1.490487 0.004139 0.000178 -63109.000000 0 0 1
-22.452254 29.299053 3.340693 37.063438 -0.916936 1.480539 -0.002147 0.002050 -531944.000000 0 0 1
-21.525154 30.344473 3.061993 37.329547 -0.953816 1.488678 -0.005518 -0.001030 687220.000000 0 0 1
-20.050054 29.941603 3.341093 36.189324 -0.980739 1.478342 -0.011665 -0.006028 372394.000000 0 0 1
-19.131254 30.913643 2.947193 36.473883 -1.016624 1.489905 -0.011562 -0.003975 664604.000000 0 0 1
-17.750154 30.512673 3.142593 35.439625 -1.043919 1.482005 -0.008000 -0.004387 1351720.000000 0 0 1
-16.727654 31.542553 2.627393 35.800143 -1.083188 1.497340 0.000210 -0.007473 -213906.000000 0 0 1
-16.795754 32.807873 3.300893 37.004726 -1.097640 1.481476 -0.004021 -0.010272 91207.300000 0 0 1
-15.691754 33.599111 2.921293 37.197652 -1.133872 1.492181 -0.003494 -0.000357 -122345.000000 0 0 1
-15.558354 -34.573475 3.797093 38.102565 1.147935 1.470976 -0.003986 -0.004573 -599481.000000 0 0 1
-16.578254 -33.628648 3.748193 37.679881 1.112780 1.471157 -0.007284 -0.006606 -495289.000000 0 0 1
-16.399354 -32.500938 4.614193 36.695239 1.103491 1.444719 -0.008753 -0.002875 490743.000000 0 0 1
-17.620854 -31.493238 4.672793 36.388921 1.060679 1.442028 -0.004648 -0.005410 584398.000000 0 0 1
-17.713054 -30.653178 3.548393 35.580342 1.046820 1.470901 -0.001073 -0.001435 533805.000000 0 0 1
-18.785054 -29.734188 3.779293 35.373482 1.007346 1.463752 -0.000588 -0.000975 -531971.000000 0 0 1
-19.179854 -28.771618 2.641493 34.679249 0.982823 1.494553 0.000108 0.001135 315867.000000 0 0 1
-18.355054 -27.593188 2.524493 33.236503 0.983808 1.494768 0.000252 0.002494 376801.000000 0 0 1
-18.780654 -26.839698 1.445493 32.789813 0.960249 1.526698 -0.001072 0.001764 -28658.000000 0 0 1
-17.828454 -25.637208 1.294193 31.253722 0.963155 1.529375 -0.000872 0.002156 -185817.000000 0 0 1
-16.545254 -26.047638 0.937593 30.872382 1.004901 1.540422 -0.000060 0.008827 -622859.000000 0 0 1
-15.520854 -25.109398 1.217593 29.544227 1.017153 1.529572 -0.006225 0.005521 916922.000000 0 0 1
-14.159354 -25.382778 0.491593 29.069131 1.061959 1.553884 -0.006717 0.007372 281773.000000 0 0 1
-14.161854 -25.251148 -0.955507 28.967078 1.059669 1.603788 -0.008184 0.007092 -50198.900000 0 0 1
-14.308854 -23.936978 -1.447107 27.925192 1.032017 1.622640 -0.004867 0.000608 -295393.000000 0 0 1
-14.531354 -23.848278 -2.969307 28.084113 1.023548 1.676723 -0.004737 0.007974 611916.000000 0 0 1
-13.376854 -24.337178 -3.715407 28.018614 1.068224 1.703793 -0.001421 0.007050 1021550.000000 0 0 1
-13.726754 -24.549078 -5.065907 28.578741 1.060951 1.748999 -0.003533 0.005958 890109.000000 0 0 1
-12.539754 -25.197008 -5.896407 28.755909 1.109016 1.777311 -0.002529 0.008203 676618.000000 0 0 1
-12.267754 -26.546988 -5.674307 29.789900 1.137914 1.762445 -0.001977 0.005797 -236304.000000 0 0 1
-11.331654 -27.046028 -6.605107 30.058634 1.174039 1.792345 0.007882 0.009638 -45897.500000 0 0 1
22.459846 13.801922 29.241343 39.369962 0.551024 0.733655 0.007905 -0.005355 -513359.000000 0 0 1
23.091146 12.577522 28.916693 39.084143 0.498757 0.737938 0.002373 -0.006792 17611.500000 0 0 1
22.442546 11.379822 29.364343 38.670827 0.469283 0.708497 0.004691 -0.007711 -134416.000000 0 0 1
22.272746 11.153522 30.902033 39.691459 0.464263 0.678434 0.006117 0.000298 9904.280000 0 0 1
21.362946 12.085922 31.444663 39.889996 0.514849 0.662780 0.003692 -0.002493 -32882.100000 0 0 1
21.702946 12.459422 32.784533 41.244159 0.521149 0.651972 0.001989 -0.001821 412121.000000 0 0 1
20.733646 13.527422 33.463310 41.625333 0.578087 0.636944 -0.003048 -0.000791 1266390.000000 0 0 1
19.563146 12.958922 34.097762 41.392121 0.585053 0.602760 -0.003969 0.005282 719021.000000 0 0 1
18.847746 13.861322 -34.510360 41.693390 0.634115 2.545825 -0.001663 0.008488 -1217600.000000 0 0 1
17.693046 13.207422 -33.849877 40.414033 0.641241 2.563630 -0.000226 0.010499 -2345550.000000 0 0 1
16.692946 12.868222 -34.702874 40.602156 0.656730 2.595779 -0.008514 0.008707 -1218410.000000 0 0 1
15.839646 12.113222 -33.887707 39.319222 0.652869 2.609724 -0.015228 0.005198 -679687.000000 0 0 1
14.457746 11.792822 -34.448272 39.176275 0.684226 2.645218 -0.015554 0.008864 -190794.000000 0 0 1
14.560946 10.862522 33.930898 38.487938 0.640939 0.491559 -0.016887 0.011390 213286.000000 0 0 1
13.276546 10.386022 33.552366 37.548600 0.663844 0.465557 -0.007030 0.010823 258834.000000 0 0 1
13.331246 9.353722 32.388643 36.252427 0.611825 0.465895 -0.003900 0.009992 -157591.000000 0 0 1
13.711046 8.062322 32.790003 36.444178 0.531562 0.451641 -0.008937 0.011148 -74410.500000 0 0 1
14.336746 7.333622 31.761103 35.610279 0.472826 0.469249 -0.010023 0.003652 418393.000000 0 0 1
15.014246 6.002922 32.235093 36.063332 0.380347 0.464944 -0.001776 0.001873 -168895.000000 0 0 1
14.031746 5.017622 32.473503 35.729467 0.343421 0.430225 -0.005300 0.003354 15112.400000 0 0 1
14.555446 3.766622 32.814613 36.094976 0.253223 0.429633 -0.005299 0.001887 423070.000000 0 0 1
13.361846 2.777822 33.002213 35.712761 0.204972 0.392119 -0.004417 0.000996 610055.000000 0 0 1
13.802646 1.459922 33.292723 36.070068 0.105379 0.394987 -0.000966 -0.000551 486559.000000 0 0 1
12.696946 0.579422 33.549292 35.876220 0.045603 0.362142 0.004698 -0.000054 700391.000000 0 0 1
13.257046 -0.852778 33.855981 36.368997 -0.064238 0.373921 -0.007535 0.007556 231049.000000 0 0 1
13.709346 -1.618878 32.727513 35.519812 -0.117541 0.399161 -0.009327 0.001572 130841.000000 0 0 1
14.415546 -2.769078 33.192343 36.293352 -0.189778 0.416385 0.000478 0.002236 -47188.400000 0 0 1
14.260946 -3.968478 32.222413 35.459940 -0.271409 0.430639 -0.004042 -0.002448 -1269500.000000 0 0 1
14.529146 -5.337178 32.613893 36.100521 -0.352041 0.443119 -0.002928 -0.000327 107141.000000 0 0 1
15.801646 -5.705178 33.127033 37.143524 -0.346484 0.469343 -0.005532 0.001066 676809.000000 0 0 1
17.062746 -5.346078 32.282133 36.903306 -0.303631 0.505823 -0.003471 0.003978 -593359.000000 0 0 1
17.248446 -3.933778 32.266633 36.798358 -0.224230 0.501526 -0.001726 -0.002586 -656454.000000 0 0 1
18.208746 -3.531078 31.345303 36.421902 -0.191545 0.534317 0.000551 -0.003731 -462304.000000 0 0 1
18.220746 -2.015778 31.177233 36.167372 -0.110183 0.531542 0.000070 -0.001645 -56119.100000 0 0 1
18.455346 -1.376078 32.415023 37.325958 -0.074425 0.518767 0.009224 -0.000222 -72272.800000 0 0 1
18.076946 -0.017878 32.415293 37.115058 -0.000989 0.508711 0.007358 -0.000633 200968.000000 0 0 1
19.172246 1.062022 32.096013 37.401296 0.055337 0.539136 0.002349 0.003330 -11783.500000 0 0 1
19.651946 0.940522 30.809183 36.555291 0.047822 0.568312 0.009917 0.002362 153160.000000 0 0 1
20.531946 1.943522 30.271413 36.629176 0.094377 0.598061 0.008508 0.006663 149044.000000 0 0 1
20.111246 3.456522 30.211623 36.457536 0.170207 0.594051 0.003803 0.007467 -518089.000000 0 0 1
19.870246 4.001022 31.499903 37.457693 0.198700 0.571767 0.001875 0.010981 486818.000000 0 0 1
19.138046 5.216822 31.467403 37.197816 0.266123 0.562457 0.003768 0.009236 -130134.000000 0 0 1
18.839846 5.778922 32.877083 38.330645 0.297628 0.539972 0.000841 0.013656 -187670.000000 0 0 1
17.764746 5.234922 33.607876 38.372906 0.286569 0.503658 -0.005470 0.010557 -17930.700000 0 0 1
17.752646 5.794122 -34.513756 39.241912 0.315480 2.645633 -0.008093 0.011047 -295307.000000 0 0 1
16.662146 5.156822 -33.654567 37.905802 0.300143 2.663442 -0.002679 0.009726 -342105.000000 0 0 1
16.714346 3.728422 -33.533897 37.653589 0.219474 2.669436 -0.002870 0.004287 -178997.000000 0 0 1
15.550846 3.291222 -32.877767 36.518605 0.208565 2.691259 0.004160 0.002726 -117792.000000 0 0 1
15.474346 1.754722 -33.057637 36.542329 0.112913 2.701330 0.004693 0.001121 -37733.700000 0 0 1
16.492846 1.064722 -32.362967 36.338812 0.064467 2.669436 0.002805 0.003032 87527.200000 0 0 1
16.463246 -0.300578 -32.689047 36.601948 -0.018256 2.674977 0.001062 0.005048 -273668.000000 0 0 1
17.655546 -1.088178 -32.115907 36.665160 -0.061556 2.638145 0.001309 0.002880 -248393.000000 0 0 1
17.640546 -1.443678 -30.729297 35.462132 -0.081657 2.619021 0.009500 0.004318 330132.000000 0 0 1
17.479746 -0.355478 -29.816857 34.564619 -0.020334 2.611264 0.003250 0.005550 -339913.000000 0 0 1
17.370946 -0.588478 -28.270177 33.185825 -0.033864 2.590351 0.004586 -0.001275 209931.000000 0 0 1
16.119546 -1.152878 -27.897907 32.240690 -0.071399 2.616547 0.005033 0.001678 262776.000000 0 0 1
15.900846 -1.474278 -26.564787 30.995134 -0.092453 2.600338 -0.000817 0.001466 7963.880000 0 0 1
16.840346 -2.588178 -26.025297 31.106463 -0.152496 2.561939 -0.001583 0.000565 139824.000000 0 0 1
18.119846 -2.184378 -25.536687 31.388258 -0.119973 2.521070 -0.003395 0.000686 585182.000000 0 0 1
19.097446 -3.224478 -25.430107 31.965607 -0.167266 2.490704 -0.002599 0.002119 672021.000000 0 0 1
19.741346 -3.580278 -26.814977 33.490030 -0.179409 2.499235 -0.001401 -0.001492 -748775.000000 0 0 1
20.725446 -2.609978 -27.114627 34.228046 -0.125272 2.485162 0.000141 0.001070 -145700.000000 0 0 1
21.000146 -2.719678 -28.490387 35.497957 -0.128791 2.502425 0.000759 -0.001656 41516.000000 0 0 1
22.500646 -2.477678 -28.730727 36.576941 -0.109674 2.474280 -0.006180 -0.002651 452056.000000 0 0 1
23.411346 -3.522178 -28.353697 36.938178 -0.149328 2.445882 -0.002783 -0.003487 577957.000000 0 0 1
24.755846 -3.221878 -28.695017 38.034674 -0.129419 2.425602 -0.004370 -0.001029 436652.000000 0 0 1
25.751846 -4.403678 -28.467757 38.638881 -0.169366 2.399069 -0.003307 -0.004166 -47712.900000 0 0 1
25.655946 -5.529578 -29.322977 39.352774 -0.212281 2.411528 0.001085 -0.004792 37363.300000 0 0 1
26.413046 -6.622378 -28.853887 39.674320 -0.245660 2.385130 0.001191 -0.005546 -288229.000000 0 0 1
26.021246 -7.417078 -27.545897 38.612106 -0.277676 2.365135 0.000979 -0.001848 -530077.000000 0 0 1
26.279146 -6.821078 -26.287827 37.791143 -0.253958 2.340062 0.002453 -0.002079 211566.000000 0 0 1
26.132446 -7.738678 -25.237597 37.144693 -0.287905 2.317796 0.003980 -0.000835 -190197.000000 0 0 1
26.230546 -7.031978 -23.851507 36.143944 -0.261925 2.291486 0.004008 0.002108 -460529.000000 0 0 1
27.572246 -6.720478 -23.589907 36.903622 -0.239079 2.264293 0.008169 0.003745 19485.100000 0 0 1
27.663646 -6.220778 -22.279007 36.060082 -0.221193 2.236777 0.012441 -0.000994 -111168.000000 0 0 1
29.083246 -5.689778 -22.001107 36.908772 -0.193198 2.209424 0.010802 -0.000780 -184927.000000 0 0 1
29.328046 -4.535478 -22.822707 37.437692 -0.153431 2.226375 0.005072 -0.001824 319547.000000 0 0 1
30.580346 -3.980978 -22.426407 38.130690 -0.129453 2.199561 -0.000882 -0.001304 641115.000000 0 0 1
31.127746 -2.813878 -23.309407 38.989523 -0.090153 2.211597 -0.005352 -0.001862 255684.000000 0 0 1
30.385446 -1.674678 -22.935807 38.106838 -0.055059 2.216652 -0.000840 -0.001879 498550.000000 0 0 1
31.084546 -0.469778 -23.252107 38.821775 -0.015112 2.212979 -0.000686 -0.002871 -269694.000000 0 0 1
30.220346 0.725322 -23.014107 37.992690 0.023997 2.221506 0.002373 -0.001650 -306851.000000 0 0 1
29.067146 0.722722 -23.834307 37.596483 0.024859 2.257447 0.006960 0.001172 613943.000000 0 0 1
27.954646 1.392822 -23.233507 36.375789 0.049783 2.263614 0.005071 0.005103 366309.000000 0 0 1
26.848046 1.707522 -24.254107 36.221470 0.063514 2.304474 0.000192 0.005139 -530105.000000 0 0 1
25.811446 2.451522 -23.712807 35.135992 0.094694 2.311607 -0.000564 0.005341 -517295.000000 0 0 1
24.794646 2.671922 -24.660007 35.071778 0.107348 2.350586 0.002054 0.004383 -55077.100000 0 0 1
23.701746 3.692922 -24.294707 34.141518 0.154565 2.362553 0.003945 0.001930 -269333.000000 0 0 1
24.213646 4.957722 -23.995607 34.448060 0.201958 2.341407 0.007286 0.002444 344422.000000 0 0 1
23.176846 5.878222 -23.616507 33.607426 0.248387 2.350005 0.011201 -0.004863 -201522.000000 0 0 1
23.687746 7.234422 -23.115907 33.879069 0.296411 2.321709 0.016637 -0.001161 -263101.000000 0 0 1
24.291846 7.929922 -24.161107 35.167265 0.315537 2.328196 0.011281 -0.002942 47425.300000 0 0 1
24.519246 9.319722 -23.820807 35.432774 0.363233 2.308083 0.010989 -0.000793 -479312.000000 0 0 1
25.155646 10.155522 -24.893307 36.818717 0.383698 2.313259 0.015812 0.000737 -324727.000000 0 0 1
24.436246 10.398122 -26.092227 37.229765 0.402311 2.347375 0.013621 -0.003200 489961.000000 0 0 1
23.402146 11.390822 -26.078357 36.844158 0.452986 2.357178 0.019833 -0.003526 519424.000000 0 0 1
23.101746 11.947422 -27.508537 37.856983 0.477285 2.384220 0.011766 -0.002452 49047.200000 0 0 1
22.553446 10.991822 -28.462717 37.942118 0.453491 2.419103 0.013667 -0.000996 605454.000000 0 0 1
23.401446 9.900022 -28.887627 38.472498 0.400219 2.420166 0.009694 0.002167 -131749.000000 0 0 1
24.374746 10.242822 -30.011837 39.996925 0.397817 2.419393 0.005602 0.003018 -815173.000000 0 0 1
25.450046 11.088622 -29.690127 40.646845 0.410900 2.389764 0.001610 0.003389 971424.000000 0 0 1
26.383546 11.427222 -30.768377 42.111352 0.408728 2.390060 0.003481 0.003775 952346.000000 0 0 1
27.277146 10.307522 -31.340787 42.808091 0.361294 2.392230 -0.002349 0.001956 -915293.000000 0 0 1
26.589246 9.389022 -32.150037 42.764081 0.339446 2.421584 -0.002184 0.003504 -73866.400000 0 0 1
27.443446 8.448222 -32.753817 43.558325 0.298635 2.421816 -0.005362 0.004719 -340910.000000 0 0 1
26.723146 7.397122 -33.609587 43.571186 0.270044 2.451790 -0.003668 0.009719 -23011.400000 0 0 1
25.722146 6.684022 -32.914447 42.304442 0.254232 2.462332 -0.002178 0.009707 -392777.000000 0 0 1
25.212046 5.707322 -33.715397 42.484689 0.222621 2.487482 -0.005643 0.009947 -621699.000000 0 0 1
24.057346 4.968722 -33.017427 41.153306 0.203673 2.501940 0.004060 0.009582 -21211.100000 0 0 1
22.818246 5.645622 -33.017007 40.529843 0.242546 2.522895 0.002654 0.011857 24917.300000 0 0 1
22.617846 6.291322 -31.797047 39.524675 0.271299 2.505606 0.005316 0.010251 -1252630.000000 0 0 1
21.272546 6.920022 -31.568797 38.691044 0.314506 2.525115 0.002143 0.009646 -805895.000000 0 0 1
20.931846 7.844122 -32.581147 39.512069 0.358548 2.540269 0.000710 0.009615 -61463.900000 0 0 1
19.590446 8.274722 -32.482457 38.824820 0.399654 2.561919 -0.002236 0.009880 2622.870000 0 0 1
19.228846 9.323122 -33.603597 39.822994 0.451455 2.575166 -0.002548 0.012345 -301233.000000 0 0 1
18.882646 8.825422 34.583986 40.379382 0.437215 0.542392 0.002356 0.013766 -47697.700000 0 0 1
18.860646 9.924622 33.739210 39.906846 0.484393 0.563391 -0.004233 0.011022 155862.000000 0 0 1
17.761846 9.919622 32.617283 38.441764 0.509330 0.557679 -0.002220 0.007479 210814.000000 0 0 1
17.830646 8.818322 31.694773 37.419960 0.459286 0.560477 -0.006717 0.007075 569097.000000 0 0 1
18.827046 8.853322 30.648473 37.042784 0.439561 0.596369 0.001901 0.007446 176341.000000 0 0 1
18.544246 9.968022 29.601723 36.325095 0.493216 0.618221 -0.000577 0.002147 143363.000000 0 0 1
17.630146 9.514622 28.615133 34.931017 0.494885 0.610799 -0.005930 0.002436 531014.000000 0 0 1
16.287346 9.919422 28.824663 34.562028 0.547030 0.584482 -0.005321 0.003176 -179840.000000 0 0 1
15.245046 9.167322 27.997773 33.171170 0.541398 0.566025 -0.000924 0.003873 -635604.000000 0 0 1
15.227146 9.442622 26.630463 32.096895 0.555081 0.592245 0.000342 0.004693 1249070.000000 0 0 1
14.011346 8.925822 26.004973 30.858495 0.567212 0.568486 0.002299 0.003809 1095800.000000 0 0 1
13.895246 7.384322 25.738323 30.167323 0.488473 0.548734 0.004018 0.005709 -269456.000000 0 0 1
13.979146 6.603922 26.908443 31.033734 0.441335 0.521504 -0.003449 0.002264 24820.500000 0 0 1
13.817546 5.235522 26.626283 30.451506 0.362189 0.506633 -0.002444 -0.003789 -211310.000000 0 0 1
14.165046 4.416622 27.885003 31.586840 0.302244 0.488997 -0.004500 -0.006328 833764.000000 0 0 1
15.571146 4.585322 28.171253 32.513155 0.286381 0.522735 0.001870 0.000688 885602.000000 0 0 1
16.031946 3.996422 29.385953 33.712445 0.244300 0.512207 0.003419 0.001152 -73463.200000 0 0 1
16.647946 2.557222 29.295763 33.792532 0.152415 0.521787 0.001480 0.003114 123659.000000 0 0 1
15.718946 1.498322 28.948543 32.974966 0.095032 0.499349 -0.003664 -0.002647 552902.000000 0 0 1
14.993646 1.047722 30.081473 33.627402 0.069764 0.463368 -0.002940 -0.002651 -62438.700000 0 0 1
14.672246 -0.485378 30.121443 33.508383 -0.033069 0.453492 -0.007364 -0.004509 -254267.000000 0 0 1
13.851246 -0.859578 29.024233 32.171447 -0.061978 0.446014 -0.008541 -0.005925 338813.000000 0 0 1
14.478846 -1.014278 27.723273 31.292900 -0.069938 0.482304 -0.007425 -0.007291 -764329.000000 0 0 1
15.617546 -2.114878 27.506543 31.701583 -0.134598 0.520298 -0.005103 -0.004034 1433970.000000 0 0 1
16.933246 -1.936078 28.037463 32.811318 -0.113842 0.546198 -0.004839 -0.003340 529615.000000 0 0 1
17.465046 -0.743478 27.451463 32.544791 -0.042544 0.567034 -0.007939 -0.005056 -2886800.000000 0 0 1
18.934346 -0.608478 27.753793 33.602868 -0.032125 0.598937 0.006294 0.000680 -917370.000000 0 0 1
19.630046 -1.506978 26.881453 33.319997 -0.076619 0.632137 -0.000781 0.002975 648362.000000 0 0 1
21.010246 -1.605478 27.266953 34.460045 -0.076266 0.657925 0.003762 0.005438 1472250.000000 0 0 1
22.064946 -2.283878 26.287603 34.396454 -0.103140 0.700914 0.004204 0.000972 460716.000000 0 0 1
22.193946 -1.541778 25.067773 33.516288 -0.069357 0.725861 0.000983 0.007004 77414.700000 0 0 1
21.628846 -2.114278 23.934933 32.328906 -0.097443 0.737195 -0.002213 0.009513 -399428.000000 0 0 1
21.657846 -1.203478 22.705033 31.401102 -0.055511 0.762567 0.000731 -0.001375 -127879.000000 0 0 1
20.773246 -0.096278 22.938133 30.946647 -0.004635 0.735917 0.000826 0.006451 510096.000000 0 0 1
20.684446 0.686322 21.731333 30.009468 0.033168 0.760996 0.001045 0.003372 -141172.000000 0 0 1
-29.141564 -27.999389 -10.451207 41.742356 0.765412 1.823863 -0.002153 0.002970 143924.000000 0 0 1
-29.015654 -26.865189 -9.528507 40.674796 0.746934 1.807254 -0.001402 -0.000677 -60034.700000 0 0 1
-29.633914 -27.279289 -8.316107 41.127681 0.744050 1.774402 -0.002024 -0.002332 -317173.000000 0 0 1
-29.937604 -25.989389 -7.434107 40.335771 0.714919 1.756162 0.003174 -0.001249 -256100.000000 0 0 1
-28.869124 -25.247989 -6.910707 38.969798 0.718585 1.749074 0.000365 -0.000114 -561048.000000 0 0 1
-28.052154 -25.946189 -5.970807 38.675297 0.746417 1.725799 0.001249 0.002303 68861.700000 0 0 1
-26.876184 -25.103489 -5.449007 37.178033 0.751308 1.717891 0.007678 -0.000862 -362924.000000 0 0 1
-27.165654 -23.983389 -4.635407 36.533036 0.723263 1.698022 0.010877 -0.005509 -437903.000000 0 0 1
-27.961184 -22.991289 -5.200907 36.571528 0.688166 1.713492 0.006169 -0.007218 -443495.000000 0 0 1
-28.139094 -21.809889 -4.289507 35.859166 0.659356 1.690704 0.001722 -0.008919 -38838.700000 0 0 1
-27.004744 -20.974789 -4.061107 34.433858 0.660376 1.689011 0.005058 -0.010248 399284.000000 0 0 1
-27.288734 -19.940189 -3.176507 33.946669 0.631042 1.664507 0.000265 -0.006911 -180289.000000 0 0 1
-26.159864 -18.887189 -3.082807 32.412468 0.625333 1.666052 0.002095 -0.007762 27691.200000 0 0 1
-26.050184 -18.089789 -4.223007 31.995099 0.606972 1.703172 0.004280 -0.006327 181040.000000 0 0 1
-25.043654 -17.107889 -4.025307 30.595222 0.599309 1.702745 0.006465 -0.003638 125472.000000 0 0 1
-25.174334 -15.940489 -5.043407 30.220560 0.564477 1.738467 0.005042 -0.005709 46749.900000 0 0 1
-26.317624 -15.123889 -4.842207 30.737539 0.521585 1.728989 0.001647 -0.004454 176834.000000 0 0 1
-26.436564 -14.228289 -5.900107 30.596526 0.493742 1.764848 0.002817 -0.005678 210503.000000 0 0 1
-27.772584 -13.418289 -5.955507 31.413930 0.450076 1.761532 0.005594 -0.006056 775773.000000 0 0 1
-28.820024 -14.131989 -6.628807 32.775723 0.455900 1.774449 0.002652 -0.001761 -323288.000000 0 0 1
-30.011454 -13.423489 -6.634007 33.539342 0.420589 1.769907 -0.002421 0.000869 -1182890.000000 0 0 1
-31.015084 -14.271389 -7.394207 34.932539 0.431257 1.784081 -0.004532 0.000187 -901439.000000 0 0 1
-31.331344 -15.502589 -6.752507 35.603086 0.459475 1.761613 -0.007897 -0.001022 92138.700000 0 0 1
-31.702784 -16.355789 -7.794307 36.514786 0.476295 1.785908 -0.008236 0.003588 -284008.000000 0 0 1
-32.588074 -17.595689 -7.335007 37.754380 0.495089 1.766322 -0.011038 0.000001 1359210.000000 0 0 1
-33.965054 -17.244689 -7.069007 38.742419 0.469803 1.754286 0.001635 -0.004273 1021260.000000 0 0 1
-34.239764 -16.533989 -5.859307 38.471622 0.449865 1.723693 0.005617 0.001159 208979.000000 0 0 1
33.733662 -16.360489 -5.722907 37.925944 -0.451568 1.722272 0.013751 0.002108 534806.000000 0 0 1
33.220695 -15.328989 -6.573807 37.172670 -0.432317 1.748577 0.010218 -0.006186 960394.000000 0 0 1
31.795065 -15.229989 -6.633907 35.873214 -0.446711 1.756793 0.012075 -0.000277 772502.000000 0 0 1
30.971285 -14.598289 -5.501407 34.678466 -0.440465 1.730110 0.013555 -0.000413 -505038.000000 0 0 1
30.973785 -15.361789 -4.261807 34.835656 -0.460411 1.693444 0.019239 -0.001701 363349.000000 0 0 1
30.668205 -14.545689 -3.172107 34.090734 -0.442871 1.663980 0.002375 0.000563 -1204060.000000 0 0 1
30.598795 -15.252589 -1.787907 34.236301 -0.462423 1.623043 0.001477 -0.000065 739357.000000 0 0 1
31.851255 -15.594589 -1.124407 35.481797 -0.455298 1.602491 0.005638 -0.003505 981856.000000 0 0 1
32.709185 -16.458189 -1.852607 36.663264 -0.466178 1.621348 0.002905 -0.003962 -689360.000000 0 0 1
32.296635 -17.947889 -2.114607 37.009065 -0.507224 1.627965 0.004003 0.003227 -686385.000000 0 0 1
32.548005 -18.828989 -0.974407 37.614531 -0.524460 1.596704 0.003992 0.001442 346951.000000 0 0 1
32.225005 -20.170189 -1.296107 38.039024 -0.559259 1.604876 0.007568 0.002284 317071.000000 0 0 1
33.201105 -20.881589 -2.334307 39.291260 -0.561429 1.630242 0.004290 0.003715 337646.000000 0 0 1
33.228225 -20.325489 -3.627107 39.120281 -0.548973 1.663646 -0.005585 0.000239 7878.990000 0 0 1
34.019772 -21.029189 -4.557407 40.253467 -0.553655 1.684257 -0.004284 -0.004001 -215702.000000 0 0 1
34.045966 -20.261989 -5.877307 40.052700 -0.536836 1.718067 0.006759 -0.003381 -99313.200000 0 0 1
32.851405 -20.341589 -6.629107 39.203828 -0.554418 1.740706 0.007568 -0.006958 181157.000000 0 0 1
32.858135 -19.359789 -7.606307 38.888486 -0.532435 1.767658 0.008378 -0.006981 -128044.000000 0 0 1
31.730725 -19.433189 -8.649807 38.200876 -0.549517 1.799207 0.006406 -0.007889 -33324.100000 0 0 1
31.970125 -20.490589 -9.522707 39.148884 -0.569972 1.816505 0.005008 -0.008818 44847.200000 0 0 1
30.856825 -20.691889 -10.346307 38.566099 -0.590705 1.842398 0.009581 -0.011117 -538653.000000 0 0 1
30.957625 -22.053489 -11.048007 39.582691 -0.618984 1.853666 0.004246 -0.006289 -136769.000000 0 0 1
30.654955 -23.123489 -10.179207 39.724530 -0.646257 1.829932 0.001833 -0.010777 73727.800000 0 0 1
30.554335 -24.411189 -10.739407 40.556238 -0.674096 1.838796 -0.001574 -0.009104 -399284.000000 0 0 1
29.985805 -25.468989 -9.752607 40.533088 -0.704127 1.813789 0.003616 -0.006869 -494224.000000 0 0 1
28.651535 -25.182289 -9.484907 39.306763 -0.721044 1.814506 0.003381 -0.003393 -711678.000000 0 0 1
27.914555 -26.304589 -9.004107 39.398321 -0.755713 1.801374 -0.002564 -0.001657 -208100.000000 0 0 1
26.470555 -25.908889 -8.693907 38.046614 -0.774676 1.801340 -0.002401 -0.007851 -399839.000000 0 0 1
25.844315 -25.588889 -9.920407 37.697935 -0.780432 1.837088 -0.003497 -0.002843 1193860.000000 0 0 1
24.435975 -25.252589 -9.755207 36.468811 -0.801831 1.841588 -0.003917 -0.009219 1266770.000000 0 0 1
23.720575 -24.841589 -11.025107 36.073858 -0.808478 1.881392 0.009689 -0.003901 -298302.000000 0 0 1
23.331075 -25.957589 -11.798307 36.842035 -0.838636 1.896780 0.007421 -0.003762 -63802.400000 0 0 1
22.493975 -25.580989 -12.861007 36.411144 -0.849523 1.931803 0.010040 0.003354 -414692.000000 0 0 1
21.750975 -26.807589 -13.405807 37.033328 -0.889159 1.941201 0.008449 0.000992 -428994.000000 0 0 1
22.542375 -27.736689 -14.135307 38.435524 -0.888343 1.947403 0.013076 0.002445 90059.400000 0 0 1
22.103975 -29.076489 -14.055607 39.135508 -0.920799 1.938156 0.012809 0.000552 -138432.000000 0 0 1
22.976175 -30.130289 -14.866307 40.703145 -0.919305 1.944684 0.009075 -0.003635 170743.000000 0 0 1
22.868575 -29.936189 -16.269107 41.034510 -0.918452 1.978469 0.010741 -0.001408 371557.000000 0 0 1
23.441475 -31.000689 -17.009707 42.424941 -0.923365 1.983335 0.013444 -0.006437 -258821.000000 0 0 1
23.319075 -31.000489 -18.542107 42.995573 -0.925878 2.016681 0.000231 0.000198 -253460.000000 0 0 1
21.974475 -31.192989 -18.903307 42.581864 -0.957078 2.030775 0.000400 0.001699 -227629.000000 0 0 1
21.886875 -31.252589 -20.310107 43.223374 -0.959854 2.059959 0.002839 -0.000889 58721.400000 0 0 1
20.500475 -30.875689 -20.891907 42.544676 -0.984664 2.084100 -0.000621 0.000486 18452.200000 0 0 1
20.411675 -30.696889 -22.276207 43.071625 -0.983988 2.114361 -0.003829 -0.000416 611514.000000 0 0 1
19.078275 -30.346089 -22.674707 42.414715 -1.009548 2.134825 -0.002861 -0.002047 231807.000000 0 0 1
18.722475 -30.571689 -24.099907 43.196814 -1.021300 2.162661 -0.007197 -0.000132 -904555.000000 0 0 1
19.220975 -29.619189 -24.952007 43.235921 -0.995169 2.185985 -0.003932 0.000428 121170.000000 0 0 1
18.983075 -29.992489 -26.280447 44.165240 -1.006517 2.208122 -0.010447 -0.000555 -383385.000000 0 0 1
19.607075 -29.007489 -27.268877 44.378638 -0.976407 2.232497 -0.010180 -0.004217 -288326.000000 0 0 1
19.018675 -27.748389 -27.399827 43.387021 -0.969938 2.254310 -0.004418 -0.006933 -314442.000000 0 0 1
17.848175 -27.762389 -28.192987 43.406821 -0.999435 2.277731 -0.003732 -0.008950 -16887.000000 0 0 1
17.142675 -26.387089 -28.403907 42.390231 -0.994659 2.305083 -0.005709 -0.005320 -339438.000000 0 0 1
16.369875 -25.965689 -27.302437 41.080566 -1.008293 2.297764 -0.008050 -0.001396 -89445.700000 0 0 1
16.054375 -24.622489 -27.347857 40.148664 -0.993002 2.320149 -0.009681 0.000768 -1104220.000000 0 0 1
14.977975 -24.227189 -26.400777 38.836806 -1.017080 2.318269 -0.004404 -0.000753 -340305.000000 0 0 1
13.749275 -24.977889 -26.595997 38.990827 -1.067602 2.321439 -0.003530 -0.005527 944289.000000 0 0 1
12.628975 -24.565389 -25.821027 37.811041 -1.095935 2.322517 0.001600 -0.004635 294666.000000 0 0 1
12.782175 -24.897489 -24.320807 37.077899 -1.096493 2.286221 0.006478 -0.000317 -962023.000000 0 0 1
13.635375 -24.058689 -23.623807 36.370706 -1.055181 2.277760 -0.000073 -0.000626 -433990.000000 0 0 1
13.747875 -24.500489 -22.292707 35.864228 -1.059451 2.241562 0.009173 0.002034 92877.800000 0 0 1
14.895375 -23.778389 -21.551907 35.380343 -1.011173 2.225784 -0.005847 0.002155 22777.300000 0 0 1
14.786575 -22.378589 -21.367207 34.292880 -0.986903 2.243471 -0.003404 -0.000260 153683.000000 0 0 1
16.019375 -21.789489 -20.984407 34.230798 -0.936842 2.230683 0.002911 -0.000368 84391.100000 0 0 1
15.810075 -20.375189 -20.463907 32.922307 -0.910895 2.241557 0.003219 0.000085 55753.300000 0 0 1
15.072875 -20.317389 -19.264207 31.797760 -0.932518 2.221612 0.004153 0.000399 -217330.000000 0 0 1
13.727175 -19.956789 -19.442207 31.059752 -0.968275 2.247160 -0.002055 -0.002028 -473511.000000 0 0 1
12.891275 -20.028089 -18.141507 29.940334 -0.998891 2.221721 0.002047 -0.003394 -178490.000000 0 0 1
13.093375 -18.940389 -17.256907 28.774566 -0.965937 2.213957 0.007639 -0.004650 -38402.900000 0 0 1
12.743475 -19.216389 -15.907807 28.012927 -0.985228 2.174717 0.006257 -0.003092 -179687.000000 0 0 1
12.929275 -17.999489 -15.012807 26.768118 -0.947885 2.166204 0.006613 -0.004301 9887.230000 0 0 1
11.805075 -17.106389 -15.072807 25.674459 -0.966747 2.198236 -0.006825 -0.000885 688830.000000 0 0 1
12.169675 -15.795289 -14.688807 24.765969 -0.914327 2.205706 0.004463 -0.003718 -82767.700000 0 1 0
10.974075 -14.909589 -14.252107 23.363406 -0.936289 2.226880 0.004581 -0.006610 -183369.000000 0 1 0
10.134775 -14.632089 -15.341507 23.498373 -0.965027 2.282171 0.005790 0.004137 536855.000000 0 1 0
8.957275 -13.865489 -15.023307 22.320043 -0.997230 2.309170 -0.001638 -0.000846 730612.000000 0 1 0
8.208875 -13.372789 -16.281707 22.612189 -1.020256 2.374658 0.001295 0.008334 -321624.000000 0 1 0
8.612075 -12.232989 -16.957807 22.613737 -0.957388 2.418692 0.001399 0.009717 -546132.000000 0 1 0
9.765775 -12.384289 -17.729707 23.729380 -0.903069 2.414579 0.004028 0.009796 -365978.000000 0 1 0
10.042075 -11.194689 -18.654907 23.961843 -0.839619 2.463109 0.012602 0.006653 387173.000000 0 1 0
9.055175 -11.075489 -19.686507 24.335596 -0.885423 2.513176 0.004657 0.004492 466776.000000 0 1 0
9.231275 -9.878589 -20.379407 24.456557 -0.819259 2.555829 0.012071 -0.002155 242367.000000 0 1 0
8.747475 -9.982489 -21.884807 25.595179 -0.851241 2.596417 0.011296 -0.004736 139517.000000 0 0 1
9.749675 -10.563389 -22.709807 26.877066 -0.825435 2.577270 -0.010453 0.008306 -769477.000000 0 0 1
9.408575 -10.798589 -24.067307 28.006537 -0.854078 2.604786 -0.009270 0.005742 -217871.000000 0 0 1
10.388375 -11.557189 -25.003807 29.439384 -0.838608 2.585515 0.005510 0.007499 -12446.900000 0 0 1
10.392475 -12.906189 -24.708507 29.750354 -0.892873 2.550852 0.000412 0.007192 266334.000000 0 0 1
11.480075 -13.614289 -25.325337 30.959872 -0.870242 2.528731 -0.002241 0.002529 346313.000000 0 0 1
11.580875 -15.117689 -24.994407 31.422629 -0.917103 2.490508 -0.002515 0.003159 -376638.000000 0 0 1
10.482175 -15.830389 -25.504447 31.795503 -0.985924 2.501667 -0.001414 0.002074 -307926.000000 0 0 1
10.455075 -17.147789 -24.938707 32.020218 -1.023272 2.463615 -0.000656 0.002191 -159967.000000 0 0 1
9.286875 -18.014789 -25.410137 32.503134 -1.094815 2.468304 0.002252 -0.000348 -121964.000000 0 0 1
9.396075 -18.689789 -26.622187 33.857574 -1.104960 2.475593 0.002908 -0.003761 352377.000000 0 0 1
8.244375 -19.516189 -26.858317 34.208487 -1.171098 2.473712 0.006826 -0.004047 356333.000000 0 0 1
8.509775 -20.391989 -28.093617 35.742143 -1.175457 2.475122 0.003911 -0.004627 -181023.000000 0 0 1
9.567175 -21.353389 -28.053197 36.530534 -1.149573 2.446413 -0.001074 -0.008029 -276810.000000 0 0 1
9.371675 -22.403889 -28.962777 37.796891 -1.174609 2.443818 0.003528 -0.007065 -133929.000000 0 0 1
10.165875 -23.709589 -28.941017 38.769474 -1.165740 2.413567 0.002379 -0.011013 155666.000000 0 0 1
9.536275 -24.638689 -29.855667 39.866859 -1.201508 2.417173 0.005792 -0.008824 -13082.600000 0 0 1
10.057775 -25.916689 -29.773167 40.734201 -1.200607 2.390455 0.003601 -0.007371 -222223.000000 0 0 1
9.595475 -26.798989 -28.607447 40.356474 -1.226965 2.358690 0.006434 -0.010711 70596.300000 0 0 1
10.419175 -26.649689 -27.452127 39.653303 -1.198100 2.335473 -0.000450 -0.008234 -410402.000000 0 0 1
9.979875 -27.153489 -26.199707 39.029918 -1.218586 2.306720 0.003804 -0.006620 -202431.000000 0 0 1
8.957975 -26.319889 -25.435367 37.682088 -1.242744 2.311760 0.001012 -0.005659 19298.000000 0 0 1
9.554775 -25.084189 -25.087127 36.740634 -1.206856 2.322408 0.002501 -0.003658 -600566.000000 0 0 1
8.589175 -24.129689 -24.796007 35.649093 -1.228823 2.339992 0.001656 -0.004854 -532881.000000 0 0 1
9.198975 -22.706089 -24.758707 34.830751 -1.185873 2.361472 0.000591 -0.007571 51178.900000 0 0 1
9.905975 -22.519889 -23.532107 34.044586 -1.156393 2.333964 0.005709 -0.002361 -100420.000000 0 0 1
10.698975 -21.361089 -23.700307 33.652173 -1.106459 2.352195 0.000087 -0.006621 90754.100000 0 0 1
11.445775 -21.022689 -22.349707 32.748567 -1.072225 2.321924 -0.002858 -0.001021 220373.000000 0 0 1
10.643275 -20.373489 -21.370707 31.385753 -1.089383 2.319794 0.000785 -0.001386 113122.000000 0 0 1
10.334475 -18.969789 -21.591307 30.542410 -1.071965 2.355943 0.005347 -0.000032 417266.000000 0 0 1
11.557675 -17.992089 -21.484807 30.313232 -0.999800 2.358535 -0.003659 -0.000195 443098.000000 0 0 1
12.514875 -18.098789 -22.537607 31.498127 -0.965814 2.368168 -0.000917 -0.000829 945212.000000 0 0 1
13.577275 -17.130389 -22.210407 31.162394 -0.900594 2.364180 0.000480 0.002995 -2868.700000 0 0 1
14.782975 -17.276189 -23.081107 32.399700 -0.863011 2.363689 -0.003217 0.004090 -435103.000000 0 0 1
15.877675 -18.023089 -22.515207 32.922133 -0.848599 2.323881 0.004007 0.005876 779348.000000 0 0 1
17.079575 -17.605489 -23.124207 33.710445 -0.800560 2.326726 0.002388 0.005907 464257.000000 0 0 1
18.407375 -17.974389 -22.383807 34.101979 -0.773498 2.286805 0.002483 0.005037 503239.000000 0 0 1
18.615075 -19.357789 -22.171707 34.825703 -0.804955 2.260940 0.001113 0.001141 -383821.000000 0 0 1
19.952775 -19.534489 -21.802207 35.426625 -0.774806 2.233713 0.003807 0.001035 -163382.000000 0 0 1
20.374775 -21.025389 -21.762507 36.480202 -0.801112 2.210000 -0.002109 0.002480 61096.600000 0 0 1
19.923575 -21.703089 -20.557407 35.924642 -0.828122 2.180027 0.005222 0.004280 293063.000000 0 0 1
20.143375 -23.083189 -20.710407 36.979861 -0.853303 2.165237 0.000816 0.001891 -218933.000000 0 0 1
-15.803854 13.155122 29.009083 35.557643 -0.694187 0.616629 0.001856 0.003220 100765.000000 0 0 1
-16.990954 13.846622 28.640413 36.065146 -0.683785 0.653222 0.002485 0.001423 307989.000000 0 0 1
-17.311754 13.727522 27.248603 35.080309 -0.670433 0.681309 0.001542 0.002932 434855.000000 0 0 1
-18.626154 14.447422 26.813263 35.701718 -0.659718 0.721167 0.000047 0.003463 400159.000000 0 0 1
-18.554554 15.840622 27.052393 36.428406 -0.706657 0.733825 -0.002179 0.002932 -353643.000000 0 0 1
-19.548954 16.526922 26.363413 36.746841 -0.701824 0.770685 0.002817 0.001214 -930598.000000 0 0 1
-19.636754 18.092722 26.698043 37.758896 -0.744497 0.785455 0.004773 0.003482 222059.000000 0 0 1
-18.630954 18.867422 26.050503 37.171505 -0.791704 0.794251 0.002584 -0.000232 984918.000000 0 0 1
-17.384354 18.838522 26.785683 37.075308 -0.825522 0.763433 -0.002251 0.002437 434018.000000 0 0 1
-16.257554 19.732122 26.218963 36.621015 -0.881643 0.772807 0.002656 0.003934 57566.000000 0 0 1
-16.501454 21.137122 26.223633 37.506731 -0.907944 0.796558 0.006056 0.003122 -189777.000000 0 0 1
-15.407254 21.802622 25.649773 37.022273 -0.955608 0.805404 0.014743 -0.004128 3286.420000 0 0 1
-15.490854 23.331622 25.640473 37.970581 -0.984682 0.829463 0.015547 0.000880 -176034.000000 0 0 1
-15.246254 24.028122 26.851893 39.125734 -1.005383 0.814410 0.011812 -0.002682 -179911.000000 0 0 1
-15.412454 25.415022 26.732133 39.975918 -1.025662 0.838329 0.009161 -0.004615 -313998.000000 0 0 1
-14.766254 26.266322 27.816553 41.008811 -1.058654 0.825341 0.001256 -0.005535 -272156.000000 0 0 1
-13.357554 26.209122 27.838493 40.500914 -1.099456 0.812956 -0.002898 -0.009845 -426886.000000 0 0 1
-12.922954 27.155122 28.799033 41.638776 -1.126619 0.807039 0.003422 -0.007887 782335.000000 0 0 1
-11.350454 27.133022 28.812833 41.172965 -1.174592 0.795679 0.007789 -0.006583 773026.000000 0 0 1
-10.851854 27.915622 27.784833 40.853906 -1.200036 0.822894 0.003065 -0.010555 -580892.000000 0 0 1
-9.443754 27.910822 27.790933 40.503511 -1.244533 0.814632 0.000237 -0.003977 -423902.000000 0 0 1
-8.903654 28.554922 26.517273 39.972796 -1.268542 0.845466 -0.005925 -0.010996 719226.000000 0 0 1
-7.456454 28.465722 26.510273 39.606699 -1.314607 0.837479 -0.008029 -0.005276 1273540.000000 0 0 1
-6.866254 29.035122 25.350543 39.151421 -1.338581 0.866497 -0.003770 -0.009861 -416396.000000 0 0 1
-5.422054 28.523822 25.283253 38.500000 -1.382949 0.854351 -0.002923 -0.006243 -138345.000000 0 0 1
-4.545754 29.128322 26.275023 39.490503 -1.415985 0.842833 -0.002114 -0.007466 1877550.000000 0 0 1
-3.146354 28.760822 26.075463 38.948866 -1.461832 0.837289 -0.002168 -0.007010 1781480.000000 0 0 1
-2.332754 29.678422 25.115203 38.948991 -1.492357 0.870005 0.000306 -0.008181 -515056.000000 0 0 1
-2.770954 29.617622 23.754933 38.068078 -1.477510 0.896930 0.002191 -0.006498 29195.200000 0 0 1
-2.431154 30.779922 23.027633 38.517347 -1.491975 0.929979 -0.000361 -0.000998 -175224.000000 0 0 1
-2.746754 30.554922 21.491533 37.457094 -1.481142 0.959702 0.004408 -0.000262 1181680.000000 0 0 1
-4.126054 30.431422 21.087833 37.253087 -1.436033 0.969066 -0.000708 -0.003515 723571.000000 0 0 1
-4.589954 29.119022 21.244133 36.335909 -1.414455 0.946336 0.001439 -0.001251 -1111220.000000 0 0 1
-6.080254 28.950322 21.049333 36.306543 -1.363781 0.952354 -0.003372 -0.002308 -974756.000000 0 0 1
-6.557054 29.034222 19.661333 35.672805 -1.348684 0.987046 0.001568 -0.001382 691669.000000 0 0 1
-7.435754 27.922722 19.406633 34.807847 -1.310539 0.979381 -0.008858 0.008021 -350330.000000 0 0 1
-6.699054 26.549522 19.231233 33.460346 -1.323633 0.958501 -0.015435 0.012306 557379.000000 0 0 1
-5.812054 26.582422 18.074133 32.666182 -1.355541 0.984478 -0.009788 0.007049 273771.000000 0 0 1
-4.490654 26.823022 18.501333 32.892853 -1.404917 0.973423 -0.000440 0.005732 -445807.000000 0 0 1
-3.517454 27.189322 17.342133 32.440427 -1.442142 1.006781 0.006506 0.005708 148943.000000 0 0 1
-3.173154 26.110122 16.457633 31.026780 -1.449860 1.011685 0.004655 0.003465 549011.000000 0 0 1
-2.234054 26.555522 15.432533 30.795289 -1.486866 1.045889 0.004283 0.002922 604723.000000 0 0 1
-1.630954 25.299122 14.771133 29.340960 -1.506419 1.043232 0.006196 0.002136 -106934.000000 0 0 1
-0.719554 24.519422 15.523533 29.029294 -1.541458 1.006580 -0.000918 0.001452 -102458.000000 0 0 1
-0.182754 23.451622 14.760033 27.710477 -1.563004 1.009066 0.003112 -0.001906 -744866.000000 0 0 1
1.003446 22.900922 15.563133 27.706863 1.527008 0.974349 -0.000095 -0.000051 -795489.000000 0 0 1
2.013546 23.854722 15.470133 28.503108 1.486587 0.997085 -0.001102 0.000755 -1091600.000000 0 0 1
3.227546 23.339822 15.938433 28.446406 1.433383 0.976052 -0.001020 -0.001046 148340.000000 0 0 1
4.442446 24.332022 15.737633 29.316475 1.390209 1.004134 0.001512 0.001819 342924.000000 0 0 1
5.630546 23.631122 15.978733 29.076672 1.336889 0.988985 0.005742 0.001073 -424605.000000 0 0 1
6.771746 24.467422 16.081133 30.051857 1.300789 1.006155 0.007975 0.002478 974435.000000 0 0 1
8.141946 23.659822 15.993133 29.696107 1.239365 1.002069 0.011903 0.006450 845226.000000 0 0 1
8.397046 23.137322 14.724933 28.682219 1.222656 1.031675 0.008485 0.005542 -142001.000000 0 0 1
8.843046 24.004622 13.722033 29.029563 1.217834 1.078454 0.007407 0.005383 -563958.000000 0 0 1
9.417346 23.323822 12.485133 28.081411 1.187048 1.110063 0.009363 0.003676 139363.000000 0 0 1
10.677246 22.717722 12.764333 28.160729 1.131438 1.100369 0.010281 0.004571 231019.000000 0 0 1
11.098846 21.962422 11.654633 27.227979 1.102873 1.128475 0.022487 0.002095 541463.000000 0 0 1
12.450046 21.180922 11.745733 27.232285 1.039399 1.124845 0.012292 -0.000700 608951.000000 0 0 1
12.330346 20.053822 12.568633 26.686396 1.019520 1.080400 0.016197 0.012661 867308.000000 0 0 1
13.655346 19.514222 12.753533 27.017141 0.960229 1.079178 0.013305 0.008204 227012.000000 0 0 1
13.969346 18.919222 14.175133 27.459315 0.934781 1.028361 0.016393 0.008490 896202.000000 0 0 1
15.346946 18.569022 14.461233 28.097412 0.880116 1.030160 0.004919 0.008574 1196660.000000 0 0 1
15.480946 18.252622 15.804633 28.681079 0.867378 0.987177 0.006321 0.011647 -26120.600000 0 0 1
16.559846 17.194822 16.096333 28.792053 0.804207 0.977551 0.001254 0.009037 22869.400000 0 0 1
16.705846 16.814022 17.432733 29.422726 0.788625 0.936647 0.003317 0.008215 -56869.700000 0 0 1
17.730346 15.838422 17.455933 29.494582 0.729098 0.937463 -0.001712 0.008468 -7335.530000 0 0 1
17.949346 15.398722 18.872333 30.256646 0.709062 0.897276 0.002356 0.008151 -534700.000000 0 0 1
18.552446 16.456622 19.516133 31.557774 0.725604 0.904059 0.003322 0.009618 -476995.000000 0 0 1
17.731246 17.198022 20.370233 32.017424 0.770134 0.881203 -0.001915 0.003822 -799944.000000 0 0 1
18.328446 18.382722 21.115833 33.462439 0.786877 0.887915 -0.002999 0.004776 259117.000000 0 0 1
17.340746 19.139122 21.827233 33.814724 0.834656 0.869125 -0.009130 0.009078 344920.000000 0 0 1
18.003046 20.288322 22.229933 35.069867 0.845009 0.884242 -0.003234 0.000603 455671.000000 0 0 1
17.061046 21.424722 22.776933 35.621436 0.898300 0.877057 -0.005826 -0.002753 388385.000000 0 0 1
16.377046 21.130822 23.992333 35.921460 0.911467 0.839398 -0.006505 -0.002242 45562.500000 0 0 1
15.685246 22.303422 24.427773 36.608546 0.957882 0.840259 -0.007210 -0.005438 108749.000000 0 0 1
14.841046 22.130522 25.702143 37.021842 0.980066 0.803429 -0.004260 -0.007416 -908029.000000 0 0 1
13.812946 21.223922 25.615813 36.019748 0.993845 0.779649 -0.003924 -0.005430 -842565.000000 0 0 1
13.217546 20.970622 26.889393 36.571983 1.008403 0.744767 -0.004488 -0.012520 374700.000000 0 0 1
12.259746 19.707522 26.825693 35.472604 1.014296 0.713254 0.005898 -0.010374 155444.000000 0 0 1
12.919346 18.482222 26.599973 34.872060 0.960732 0.703183 -0.005554 -0.006705 -337461.000000 0 0 1
13.482346 18.239522 25.345783 34.012682 0.934254 0.729982 -0.004493 -0.005353 -645301.000000 0 0 1
12.544046 18.078522 24.141333 32.664813 0.964200 0.739119 -0.000516 -0.001811 -680305.000000 0 0 1
12.428746 19.082222 23.178533 32.493835 0.993490 0.776571 0.002638 0.002215 388560.000000 0 0 1
13.571746 19.475222 22.391333 32.632014 0.962172 0.814576 -0.005154 0.005730 575922.000000 0 0 1
14.218746 18.374422 21.463633 31.630360 0.912215 0.824973 -0.001028 0.009023 -541740.000000 0 0 1
13.393346 17.949222 20.431533 30.315076 0.929745 0.831223 0.012633 0.010341 55571.900000 0 0 1
13.960646 16.814122 19.734333 29.445853 0.877855 0.836331 0.007120 0.011549 766615.000000 0 0 1
12.907546 16.152422 18.746933 27.909729 0.896599 0.834297 0.005324 0.011582 918843.000000 0 0 1
12.400946 16.927522 17.636633 27.411226 0.938531 0.871853 0.011279 0.014139 912460.000000 0 0 1
11.313746 16.264522 16.941033 26.067875 0.963024 0.863368 0.014673 0.009828 872625.000000 0 0 1
10.962246 16.895822 15.583933 25.465636 0.995255 0.912261 0.016657 0.006276 57070.300000 0 0 1
10.226546 18.103222 15.677733 26.040357 1.056584 0.924724 0.015693 0.008543 174344.000000 0 0 1
9.794746 18.512722 14.414733 25.425233 1.084155 0.968003 0.010579 0.011541 -281275.000000 0 0 1
8.773546 19.655122 14.318233 25.851706 1.150961 0.983803 0.013719 0.010356 115753.000000 0 0 1
7.469746 19.257322 14.718733 25.363017 1.200772 0.951672 0.002984 0.008745 -274980.000000 0 0 1
6.706646 20.419322 14.888933 26.145901 1.253451 0.964953 0.003311 0.004889 -581195.000000 0 0 1
5.376246 20.181122 15.592033 26.063254 1.310443 0.929496 0.000536 0.002307 -552128.000000 0 0 1
4.404346 19.622022 14.727933 24.926573 1.349997 0.938681 -0.001234 -0.002859 -266711.000000 0 1 0
3.245846 19.498122 15.554033 25.152340 1.405839 0.904100 -0.003596 -0.003666 468018.000000 0 0 1
1.950746 18.980922 14.884833 24.199981 1.468382 0.908314 -0.003849 -0.002382 151355.000000 0 1 0
1.373146 19.881122 13.938533 24.319277 1.501838 0.960455 -0.003630 -0.006524 -137087.000000 0 1 0
0.404746 19.184122 13.179333 23.278513 1.549701 0.968958 -0.001281 -0.009917 57655.400000 0 1 0
-0.551554 20.134822 12.440733 23.674609 -1.543410 1.017507 0.004568 -0.009223 -71118.000000 0 1 0
-1.448554 20.827422 13.281033 24.744002 -1.501358 1.004231 0.003189 -0.006967 -273719.000000 0 1 0
-2.535954 21.227022 12.467933 24.748068 -1.451892 1.042811 0.007809 -0.001936 -400393.000000 0 1 0
-3.714154 21.798222 13.202533 25.753918 -1.402029 1.032538 0.002011 -0.001010 -859008.000000 0 0 1
-4.507654 20.975422 13.994733 25.615226 -1.359114 0.992803 0.002402 -0.006277 -666974.000000 0 0 1
-5.634454 21.677622 14.409233 26.632543 -1.316503 0.999125 -0.003167 -0.001717 -650666.000000 0 0 1
-6.318954 20.960322 15.624733 26.896032 -1.277989 0.950925 -0.002318 0.000650 -684045.000000 0 0 1
-6.970954 19.726822 15.206733 25.864772 -1.231119 0.942296 0.002183 -0.000669 223610.000000 0 0 1
-7.601554 18.984922 16.258733 26.125797 -1.189946 0.899087 0.004039 0.003804 -423085.000000 0 0 1
-8.849354 19.639822 16.807833 27.322828 -1.147458 0.908211 -0.001436 0.007206 -1889740.000000 0 0 1
-9.905054 19.629822 15.915733 27.143150 -1.103482 0.944235 -0.003176 0.001149 -733869.000000 0 0 1
-11.094454 19.693522 16.707033 28.107769 -1.057757 0.934287 -0.002783 0.006391 -363472.000000 0 0 1
-12.315254 19.777822 15.822233 28.163288 -1.013867 0.974232 0.000696 0.004178 -641961.000000 0 0 1
-12.828154 21.101222 15.528033 29.170926 -1.024563 1.009467 -0.001791 0.005226 -209982.000000 0 0 1
-13.799254 21.040422 14.549033 29.065325 -0.990323 1.046547 -0.002428 0.003415 -530969.000000 0 0 1
-14.764154 22.272822 14.465533 30.386025 -0.985422 1.074629 -0.004917 0.003709 197681.000000 0 0 1
-15.850154 22.046922 15.361933 31.197486 -0.947479 1.055941 -0.010646 0.002631 -107812.000000 0 0 1
-16.830654 23.065622 15.190233 32.342495 -0.940424 1.081882 -0.003962 0.000745 109534.000000 0 0 1
-18.115454 22.697922 15.971933 33.143144 -0.897208 1.067966 -0.000017 -0.000606 -781812.000000 0 0 1
-18.884454 21.728722 15.246833 32.576462 -0.855317 1.083734 -0.004670 0.000371 1062790.000000 0 0 1
-20.181754 21.486422 15.826733 33.458258 -0.816699 1.078071 -0.004715 0.002095 1005720.000000 0 0 1
-21.225254 22.614122 15.884033 34.845551 -0.817068 1.097479 0.003114 -0.002573 -1046900.000000 0 0 1
-21.651554 23.045222 14.585033 34.822338 -0.816569 1.138627 0.003283 0.002505 -493176.000000 0 0 1
-22.588954 24.020922 14.633233 36.074881 -0.816111 1.153123 0.010290 0.001214 -994877.000000 0 0 1
-22.138554 25.354622 14.002633 36.456085 -0.853011 1.176568 0.005323 0.002731 96445.900000 0 0 1
-21.007054 25.863022 14.693933 36.415709 -0.888635 1.155452 -0.002966 -0.000832 89573.000000 0 0 1
-20.560554 27.019522 13.994633 36.723844 -0.920323 1.179835 -0.004605 0.002102 272589.000000 0 0 1
-19.092854 27.475922 14.257433 36.369462 -0.963505 1.167974 -0.003722 -0.001740 479964.000000 0 0 1
-18.170354 26.649522 13.591333 35.001187 -0.972372 1.171999 -0.005866 0.001151 -7889.820000 0 0 1
-16.888854 27.240022 13.441633 34.755283 -1.015800 1.173691 -0.004042 -0.005429 -144918.000000 0 0 1
-15.986654 26.551522 12.469433 33.407233 -1.028835 1.188281 -0.006622 -0.008458 -430700.000000 0 0 1
-14.650554 26.968022 12.516033 33.144593 -1.073145 1.183573 -0.010135 -0.004516 -800323.000000 0 0 1
-13.747654 26.194622 11.835233 31.862658 -1.087485 1.190231 -0.011766 -0.004953 -1005180.000000 0 0 1
-12.332454 26.714722 12.013233 31.781812 -1.138309 1.183171 -0.009637 -0.002773 -1020840.000000 0 0 1
-11.355754 25.814522 11.440333 30.433927 -1.156375 1.185421 -0.003937 -0.005714 230783.000000 0 0 1
-10.054654 26.180422 11.817733 30.433031 -1.204113 1.171989 -0.001254 -0.003024 -227479.000000 0 0 1
-9.438054 27.347122 10.980433 30.943688 -1.238475 1.208040 -0.000244 -0.007669 -566194.000000 0 0 1
-8.390754 28.015422 11.675233 31.489358 -1.279794 1.190961 0.010054 -0.008175 467051.000000 0 0 1
-7.793054 29.077422 10.929133 32.026147 -1.308940 1.222543 0.009863 -0.010296 -708050.000000 0 0 1
-6.753854 29.896022 11.681333 32.800003 -1.348615 1.206665 0.007754 -0.008706 -662944.000000 0 0 1
-5.491654 29.329822 11.437433 31.956401 -1.385702 1.204770 0.003550 -0.004681 -793204.000000 0 0 1
-4.529854 30.169822 12.026733 32.792988 -1.421764 1.195286 0.002575 -0.002889 -673941.000000 0 0 1
-3.112254 29.849122 11.569033 32.163624 -1.466906 1.202857 -0.001462 0.001767 -538907.000000 0 0 1
-2.809954 30.435722 10.276833 32.246586 -1.478733 1.246444 0.009312 0.000390 -229355.000000 0 0 1
-1.678254 29.857222 9.695733 31.436881 -1.514646 1.257266 -0.010712 0.000819 -494451.000000 0 0 1
-1.272254 30.382122 8.309133 31.523541 -1.528946 1.304060 -0.014408 0.002083 -129637.000000 0 0 1
-2.158154 30.160722 7.206333 31.084691 -1.499363 1.336839 -0.005398 0.003111 333770.000000 0 0 1
-1.943154 31.091922 6.134833 31.750900 -1.508380 1.376356 -0.005714 0.005542 -185312.000000 0 0 1
10.198046 -34.484989 -26.686767 44.781672 -1.283267 2.209220 0.007484 0.000773 -12780.600000 0 0 1
10.892646 -34.452689 -25.460687 44.202761 -1.264578 2.184620 0.002205 -0.002002 760442.000000 0 0 1
12.111546 -33.705389 -25.526257 43.981048 -1.225829 2.190007 0.000692 -0.003450 424000.000000 0 0 1
12.880546 -33.544889 -24.180007 43.310978 -1.204177 2.163117 0.004077 -0.004532 -633354.000000 0 0 1
12.323046 -32.595389 -23.240107 41.885790 -1.209345 2.158973 0.003638 -0.008377 289231.000000 0 0 1
12.956046 -32.472689 -21.979707 41.297000 -1.191167 2.132035 0.007314 -0.003722 203650.000000 0 0 1
14.493446 -32.259789 -21.923207 41.609866 -1.148547 2.125716 -0.002142 -0.004883 384071.000000 0 0 1
15.323546 -33.384789 -22.194607 42.918012 -1.140485 2.114302 -0.003863 -0.004406 450053.000000 0 0 1
16.704246 -33.152689 -21.949107 43.126511 -1.104067 2.104757 -0.006515 -0.006637 269006.000000 0 0 1
17.544346 -34.449289 -22.107407 44.534201 -1.099752 2.090259 -0.000708 -0.002057 -1487730.000000 0 0 1
18.886246 -34.226689 -21.965407 44.840112 -1.066573 2.082726 -0.001954 -0.001068 -1208860.000000 0 0 1
19.585046 34.062222 -21.725107 44.897542 1.048978 2.075881 0.000763 0.003167 -558169.000000 0 0 1
21.095246 34.234222 -21.563907 45.628866 1.018548 2.063028 0.004950 0.004646 -321895.000000 0 0 1
21.783546 34.710822 -22.718907 46.856299 1.010349 2.077003 0.002514 0.001301 546718.000000 0 0 1
23.173646 -34.636089 -22.415307 47.319367 -0.981138 2.064287 0.005890 0.004769 798850.000000 0 0 1
24.136746 -34.316289 -23.590907 48.132329 -0.957818 2.083031 0.008693 0.000633 108601.000000 0 0 1
24.087146 -32.969589 -24.103407 47.414751 -0.939836 2.104067 0.003886 0.001209 514508.000000 0 0 1
22.846846 -32.553989 -24.706907 46.820635 -0.958854 2.126678 0.001476 0.000697 677256.000000 0 0 1
22.446146 -31.078489 -24.540907 45.518766 -0.945299 2.140210 0.000487 -0.001322 -532761.000000 0 0 1
23.357146 -30.176389 -25.114607 45.682756 -0.912098 2.152875 0.006290 -0.002975 -244389.000000 0 0 1
23.056646 -28.828189 -24.845207 44.496716 -0.896180 2.163205 0.003601 -0.001271 -70333.800000 0 0 1
23.776546 -27.839989 -25.712737 44.738507 -0.863960 2.183075 0.000422 -0.002765 -22433.500000 0 0 1
23.201146 -27.857789 -27.009027 45.208817 -0.876348 2.211087 0.006751 -0.006971 -42279.700000 0 0 1
23.891246 -26.915889 -27.846827 45.504972 -0.844860 2.229322 0.005615 -0.004057 -720884.000000 0 0 1
23.160446 -26.507689 -29.180567 45.722744 -0.852689 2.262963 0.005510 -0.004048 263184.000000 0 0 1
22.347246 -25.366889 -29.051717 44.574440 -0.848600 2.280696 0.007703 -0.003692 512867.000000 0 0 1
21.102746 -25.670189 -28.373497 43.695993 -0.882741 2.277511 -0.003666 -0.003667 -299123.000000 0 0 1
20.251546 -24.469189 -28.007797 42.347409 -0.879431 2.293456 -0.007430 -0.001172 -273138.000000 0 0 1
19.755846 -23.750189 -29.148087 42.473238 -0.876953 2.327144 -0.006523 -0.001206 121126.000000 0 0 1
19.138146 -22.567189 -28.691037 41.215559 -0.867434 2.340777 -0.007430 0.003224 -1111010.000000 0 0 1
18.167046 -21.955289 -29.643907 41.119795 -0.879536 2.375919 -0.008737 0.001109 -322558.000000 0 0 1
16.944946 -22.697889 -29.653237 41.007802 -0.929511 2.379094 -0.007608 -0.002502 -102290.000000 0 0 1
15.908146 -21.825089 -29.994377 40.361693 -0.940941 2.408547 -0.008540 -0.001826 -426188.000000 0 0 1
14.549146 -22.555089 -30.069097 40.305835 -0.997909 2.412867 -0.009100 -0.005068 -374145.000000 0 0 1
14.562846 -23.620689 -31.022887 41.622506 -1.018312 2.411840 -0.010933 -0.005556 42077.900000 0 0 1
14.073246 -24.838889 -30.572587 41.829532 -1.055312 2.390414 -0.008712 -0.005640 -92321.900000 0 0 1
14.591446 -26.116789 -31.322577 43.313979 -1.061298 2.379151 -0.011026 -0.004342 139318.000000 0 0 1
13.982646 -27.282889 -30.777727 43.441212 -1.097194 2.358155 -0.007184 -0.004733 52037.200000 0 0 1
14.599546 -28.445689 -31.208607 44.679762 -1.096611 2.344089 -0.011313 -0.006684 53040.000000 0 0 1
14.091246 -29.650489 -30.350537 44.708722 -1.127148 2.316992 -0.009080 -0.005986 -147478.000000 0 0 1
14.343146 -29.668589 -28.950607 43.864435 -1.120480 2.291618 -0.010295 -0.009261 121286.000000 0 0 1
13.720446 -28.655589 -28.142427 42.442781 -1.124248 2.295706 -0.013432 -0.009871 -147685.000000 0 0 1
14.319746 -28.584289 -26.715057 41.663065 -1.106377 2.266879 -0.008355 -0.003864 -119944.000000 0 0 1
14.148046 -29.680289 -25.867817 41.835759 -1.125977 2.237398 -0.002117 -0.004311 30216.900000 0 0 1
15.050746 -29.692289 -24.784807 41.502333 -1.101651 2.210790 -0.003380 -0.006447 -996748.000000 0 0 1
14.868946 -28.665289 -23.593207 39.992797 -1.092294 2.201776 0.002832 -0.002020 794733.000000 0 0 1
13.686246 -28.733689 -22.782307 39.140411 -1.126277 2.192064 0.004784 -0.004344 903013.000000 0 0 1
12.417246 -28.656689 -23.440707 39.049463 -1.161908 2.214651 0.006671 -0.004898 -387605.000000 0 0 1
11.367746 -28.410889 -22.361907 37.900649 -1.190187 2.201872 0.011124 -0.003757 -477045.000000 0 0 1
11.230046 -27.051189 -21.989507 36.625390 -1.177306 2.214785 0.006312 0.002073 408897.000000 0 0 1
9.932246 -26.760189 -21.475107 35.720267 -1.215399 2.215801 0.007340 0.000005 164728.000000 0 0 1
9.691846 -25.265189 -21.135807 34.336336 -1.204503 2.233883 0.007605 0.001297 159276.000000 0 0 1
10.357046 -24.762289 -19.971007 33.455650 -1.174649 2.210478 0.010149 -0.000912 305318.000000 0 0 1
9.983446 -23.409789 -19.857707 32.280272 -1.167686 2.233392 0.009426 -0.001205 39147.300000 0 0 1
10.460646 -22.757289 -18.543207 31.163598 -1.139937 2.208097 0.003289 -0.006467 286768.000000 0 0 1
9.496046 -22.952589 -17.515007 30.393613 -1.178515 2.184957 0.003974 -0.004181 624560.000000 0 0 1
9.874346 -22.218289 -16.401007 29.328282 -1.152589 2.164243 0.005996 -0.000196 -935.641000 0 0 1
9.117746 -22.809089 -15.183407 28.877737 -1.190513 2.124431 0.006097 -0.002300 290429.000000 0 0 1
9.543946 -24.117789 -14.795307 29.860606 -1.193983 2.089183 0.006179 -0.002197 149401.000000 0 0 1
8.845746 -24.510589 -13.633007 29.408759 -1.224449 2.052816 0.008881 -0.002121 -243162.000000 0 0 1
8.978246 -26.022889 -13.320107 30.581447 -1.238571 2.021459 0.006841 -0.000327 -235612.000000 0 0 1
10.286746 -26.412089 -13.014407 31.189588 -1.199399 2.001233 0.002867 -0.001865 -523721.000000 0 0 1
10.404846 -27.805789 -13.199407 32.490723 -1.212730 1.989144 0.002575 -0.002470 39121.300000 0 0 1
11.797346 -28.333589 -12.691307 33.212030 -1.176255 1.962896 -0.003839 0.001591 1032110.000000 0 0 1
13.000646 -27.813089 -13.226107 33.429248 -1.133543 1.977566 -0.008305 0.006153 306221.000000 0 0 1
13.162846 -28.222589 -14.607707 34.397095 -1.134393 2.009403 0.001871 0.004746 -918711.000000 0 0 1
14.533146 -27.757889 -15.144007 34.800197 -1.088472 2.021024 0.000132 0.004559 544266.000000 0 0 1
15.619046 -28.614089 -14.769107 35.788926 -1.071144 1.996182 -0.000311 0.001397 539898.000000 0 0 1
16.817946 -28.270089 -15.455907 36.344550 -1.034133 2.010046 0.004087 0.000439 68108.400000 0 0 1
17.916546 -29.310189 -15.388407 37.641638 -1.022129 1.991950 0.002381 -0.001388 -279095.000000 0 0 1
17.813146 -30.501889 -16.092207 38.815365 -1.042224 1.998281 0.005086 -0.003543 707396.000000 0 0 1
19.145746 -31.012989 -16.325007 39.935835 -1.017720 1.991914 0.008095 -0.003718 1134310.000000 0 0 1
19.329246 -32.053389 -17.449707 41.298084 -1.028150 2.007032 0.003301 -0.006497 -147114.000000 0 0 1
18.777346 -33.303889 -17.107907 41.885776 -1.057406 1.991543 0.006822 -0.007282 95035.000000 0 0 1
19.076346 -34.156089 -18.161507 43.132189 -1.061447 2.005417 0.002097 -0.006352 -248583.000000 0 0 1
18.867246 33.862022 -17.722607 42.622767 1.062457 1.999620 0.001743 -0.002414 -1239960.000000 0 0 1
19.754946 33.362322 -16.801107 42.256119 1.036181 1.979698 0.002574 -0.006218 -432002.000000 0 0 1
19.550146 32.036922 -16.364307 40.943414 1.022883 1.981965 0.001610 -0.006065 -374182.000000 0 0 1
20.490346 31.804822 -15.145507 40.752759 0.998472 1.951575 0.002840 -0.009212 150994.000000 0 0 1
21.839346 31.633722 -15.564007 41.471529 0.966555 1.955510 0.014647 -0.008645 288457.000000 0 0 1
22.745046 31.278922 -14.528707 41.313332 0.942068 1.930152 0.020667 -0.006879 34715.800000 0 0 1
22.548846 30.015822 -13.607407 39.931961 0.926507 1.918527 0.021991 -0.002473 -983152.000000 0 0 1
22.624746 28.769722 -14.313807 39.299632 0.904398 1.943594 0.021669 -0.004151 99673.700000 0 0 1
22.370246 27.590422 -13.531607 38.010047 0.889506 1.934781 0.004670 0.000642 263612.000000 0 0 1
20.860446 27.413022 -13.207207 36.892578 0.920312 1.936912 -0.000274 0.000962 -463684.000000 0 0 1
20.023046 26.976622 -14.228307 36.484315 0.932282 1.971411 0.002498 -0.003865 -233706.000000 0 0 1
18.640846 27.062822 -13.999807 35.719351 0.967627 1.973535 0.001559 -0.004201 -15859.600000 0 0 1
17.985946 28.491622 -14.152707 36.545395 1.007700 1.968458 -0.000919 -0.006752 -561950.000000 0 0 1
17.967346 29.031722 -15.476407 37.485805 1.016605 1.996389 -0.003574 -0.003516 365325.000000 0 0 1
17.178946 28.295422 -16.426907 36.953895 1.025152 2.031440 -0.012015 0.004281 -185775.000000 0 0 1
17.276946 29.084822 -17.711607 38.185347 1.034786 2.053113 -0.006474 0.004881 -281674.000000 0 0 1
16.720446 30.358922 -17.722107 38.926990 1.067371 2.043466 -0.006248 -0.001733 -178730.000000 0 0 1
16.859846 31.038222 -18.993107 40.104410 1.073192 2.064160 -0.004456 0.007035 -428058.000000 0 0 1
15.799446 32.097822 -19.258907 40.630016 1.113386 2.064632 -0.006248 0.002773 -318981.000000 0 0 1
16.025546 33.357622 -18.600207 41.418797 1.122938 2.036528 -0.001501 -0.003656 -616764.000000 0 0 1
15.255546 34.356122 -19.143507 42.184697 1.152908 2.041824 -0.003968 0.000057 -597875.000000 0 0 1
15.423746 -33.814489 -18.407807 41.474799 -1.142858 2.030666 -0.006586 -0.003859 802846.000000 0 0 1
14.319146 -32.878689 -18.631007 40.412381 -1.160054 2.049943 -0.001583 0.000252 1089170.000000 0 0 1
13.883746 -32.323689 -17.408807 39.251062 -1.165101 2.030324 -0.003550 -0.002274 53055.600000 0 0 1
12.793046 -31.217789 -17.529507 38.019679 -1.181870 2.049990 -0.000370 0.003002 630051.000000 0 0 1
11.513046 -31.752089 -17.885907 38.218465 -1.222948 2.057813 0.005434 0.002900 -116523.000000 0 0 1
10.581246 -30.725789 -17.997007 37.147398 -1.239140 2.076560 0.002951 0.004839 -1226990.000000 0 0 1
9.212546 -31.254089 -18.279107 37.360606 -1.284151 2.082039 0.007068 0.002928 -1519790.000000 0 0 1
8.428646 -31.789189 -17.178207 37.103712 -1.311618 2.052149 0.008156 0.001358 623905.000000 0 0 1
7.322746 -32.585589 -17.561407 37.733887 -1.349745 2.054884 0.007531 0.002674 731031.000000 0 0 1
6.089346 -31.913189 -18.264007 37.270709 -1.382253 2.082928 0.004790 0.007916 -364881.000000 0 0 1
6.323946 -31.312489 -19.527807 37.440613 -1.371515 2.119483 0.000394 0.009142 -91875.200000 0 0 1
6.276046 -32.285089 -20.533707 38.773043 -1.378796 2.128910 0.000564 0.005665 -868041.000000 0 0 1
6.532046 -31.675489 -21.928907 39.075327 -1.367429 2.166626 0.000590 0.004577 466042.000000 0 0 1
7.868646 -31.316689 -22.315807 39.251062 -1.324632 2.175527 0.004550 0.002410 1905900.000000 0 0 1
8.984946 -32.250989 -22.264107 40.206293 -1.299091 2.157654 0.006123 -0.001404 738737.000000 0 0 1
8.830746 -33.438789 -23.238607 41.667344 -1.312604 2.162430 0.002712 0.000173 -358706.000000 0 0 1
7.793946 -34.356189 -22.889507 42.012175 -1.347715 2.146983 0.001221 0.004418 292348.000000 0 0 1
7.569646 34.149522 -23.950907 42.392633 1.352661 2.171203 -0.006710 0.003666 -516090.000000 0 0 1
6.397946 33.148622 -23.747507 41.276009 1.380133 2.183809 -0.004591 0.003824 255196.000000 0 0 1
5.064146 33.533222 -23.939607 41.511773 1.420910 2.185473 -0.002210 0.002804 60004.100000 0 0 1
4.608046 34.451322 -22.951907 41.652343 1.437830 2.154401 -0.006836 0.003013 -798856.000000 0 0 1
3.187546 -34.441089 -23.134407 41.611896 -1.478509 2.160310 -0.006664 0.002215 114109.000000 0 0 1
2.119146 34.099522 -22.952707 41.159385 1.508730 2.162354 -0.003200 -0.000091 39077.500000 0 0 1
0.972246 -34.702289 -23.404607 41.868482 -1.542787 2.163979 -0.000266 -0.001924 -205764.000000 0 0 1
-0.386354 34.148522 -22.967207 41.155357 -1.559483 2.162844 -0.000251 -0.004812 196580.000000 0 0 1
-0.640854 34.587922 -21.652907 40.811560 -1.552270 2.130055 -0.001518 -0.006300 323790.000000 0 0 1
-1.814954 33.948122 -21.148107 40.037626 -1.517385 2.127283 0.003362 -0.005495 697128.000000 0 0 1
-2.205054 34.254722 -19.689507 39.571769 -1.506513 2.091585 0.001143 -0.004959 34151.100000 0 0 1
-1.241654 33.639122 -18.878007 38.594188 -1.533902 2.081901 -0.002883 -0.001725 -60017.700000 0 0 1
-1.603654 33.582122 -17.519007 37.911030 -1.523079 2.051168 -0.002983 -0.004901 -244472.000000 0 0 1
-1.026654 32.376622 -16.740907 36.463100 -1.539097 2.047800 -0.003874 0.000757 469058.000000 0 0 1
0.186046 32.696422 -16.073407 36.434119 1.565106 2.027691 -0.006020 -0.002940 228534.000000 0 0 1
0.815646 31.561222 -15.444207 35.146828 1.544959 2.025749 -0.008108 0.000592 517461.000000 0 0 1
1.748646 31.889522 -14.250007 34.972304 1.516017 1.990473 -0.002406 -0.001403 -73864.300000 0 0 1
2.897146 32.534522 -14.722307 35.827851 1.481982 1.994257 -0.001507 -0.002949 -11285.700000 0 0 1
3.796646 32.907322 -13.646707 35.826512 1.455930 1.961578 0.002007 -0.004207 827430.000000 0 0 1
5.157546 33.476622 -14.144607 36.706326 1.417934 1.966378 0.004155 -0.007418 648190.000000 0 0 1
6.015446 32.461622 -14.688607 36.134439 1.387565 1.989415 0.007638 -0.007178 -870744.000000 0 0 1
7.136346 33.008022 -15.294807 37.072740 1.357873 1.996061 0.009269 -0.000998 -640201.000000 0 0 1
8.177446 31.879322 -15.445607 36.355585 1.319698 2.009591 0.008771 -0.004085 -136842.000000 0 0 1
8.808546 31.577422 -14.193407 35.723618 1.298761 1.979382 0.009432 -0.008836 -168654.000000 0 0 1
9.774846 30.546022 -14.277507 35.106328 1.261090 1.989628 0.010026 -0.006961 80356.100000 0 0 1
9.320246 29.065122 -14.089207 33.617764 1.260488 2.003250 0.012036 -0.010693 -577200.000000 0 0 1
8.475946 28.565622 -15.063407 33.387762 1.282353 2.038867 0.019947 -0.006970 -368181.000000 0 0 1
8.023746 27.285322 -14.729207 32.028407 1.284790 2.048656 0.010646 -0.004907 -260345.000000 0 0 1
7.120846 26.547422 -15.760907 31.684038 1.308734 2.091442 0.015437 -0.001025 -107970.000000 0 0 1
7.725246 26.139722 -16.964407 32.105383 1.283439 2.127508 0.013089 0.003561 -501756.000000 0 0 1
6.994846 25.179922 -17.705307 31.566347 1.299834 2.166259 0.009735 0.009160 686956.000000 0 0 1
7.930646 24.367722 -18.715507 31.732495 1.256151 2.201595 0.005962 0.011399 618201.000000 0 0 1
7.196846 23.450622 -19.528007 31.353936 1.273027 2.243144 0.014985 0.010333 -284372.000000 0 0 1
8.013346 22.472922 -20.105107 31.200341 1.228274 2.271018 0.011720 0.011273 -675827.000000 0 0 1
7.331446 21.511022 -21.085907 31.001446 1.242320 2.318776 0.012137 0.003332 -197446.000000 0 0 1
6.498846 20.508422 -20.524307 29.733442 1.263920 2.332668 0.004797 0.000597 -96359.000000 0 0 1
5.826846 19.809622 -21.530507 29.831795 1.284722 2.377095 0.001385 0.001165 -220222.000000 0 0 1
23.878846 -12.353678 -9.804107 28.617008 -0.477430 1.920476 -0.004660 0.005772 -613283.000000 0 0 1
24.511346 -11.636178 -8.807207 28.526718 -0.443225 1.884660 -0.004630 0.005446 247197.000000 0 0 1
24.239846 -12.184978 -7.510607 28.150542 -0.465792 1.840869 -0.013250 0.010721 -424863.000000 0 0 1
25.164446 -11.732978 -6.350207 28.482227 -0.436287 1.795639 -0.006781 0.009654 -406420.000000 0 0 1
25.061446 -10.377178 -5.850807 27.748763 -0.392576 1.783240 -0.007321 0.011956 534475.000000 0 0 1
25.679246 -9.360578 -6.655207 28.130693 -0.349551 1.809642 -0.015233 0.011696 -502177.000000 0 0 1
25.538046 -8.002478 -5.872807 27.399294 -0.303664 1.786814 -0.009100 0.006538 -191743.000000 0 0 1
26.241046 -7.763578 -4.640207 27.756029 -0.287651 1.738763 -0.004536 0.006284 1813390.000000 0 0 1
27.686946 -7.699978 -4.713807 29.121755 -0.271254 1.733377 -0.009373 0.009030 1248310.000000 0 0 1
28.397246 -7.527378 -3.308507 29.563681 -0.259115 1.682942 -0.005964 0.007674 -104833.000000 0 0 1
28.258046 -6.256378 -2.742507 29.071993 -0.217887 1.665272 -0.011865 0.004908 499085.000000 0 0 1
28.905146 -6.179878 -1.460707 29.594459 -0.210628 1.620174 -0.009915 0.006004 -271476.000000 0 0 1
29.165646 -4.796278 -0.881107 29.570518 -0.162991 1.600598 -0.007707 -0.000644 -841820.000000 0 0 1
28.009446 -4.190278 -0.435907 28.324504 -0.148501 1.586187 -0.009636 -0.001088 -706142.000000 0 0 1
28.114246 -2.949678 0.250093 28.269665 -0.104535 1.561950 -0.008030 -0.003123 -431047.000000 0 0 1
28.904546 -2.903778 1.579693 29.092957 -0.100125 1.516471 -0.003230 0.000473 -932683.000000 0 0 1
28.147446 -3.495378 2.612693 28.483724 -0.123549 1.478941 0.000596 -0.002714 839182.000000 0 0 1
28.812746 -3.300578 3.884693 29.260194 -0.114056 1.437639 0.004402 -0.003981 -140932.000000 0 0 1
28.260346 -4.268878 4.977293 29.011100 -0.149922 1.398378 0.003995 -0.006519 -344897.000000 0 0 1
28.665446 -5.591578 4.738893 29.587677 -0.192644 1.409939 0.002038 -0.007847 41703.100000 0 0 1
28.401746 -6.402678 5.848093 29.696021 -0.221726 1.372569 -0.003023 -0.006965 -243734.000000 0 0 1
29.122446 -7.761378 5.809093 30.693670 -0.260455 1.380388 -0.006118 -0.008873 48859.100000 0 0 1
30.505546 -7.586678 6.047593 32.011239 -0.243753 1.380733 -0.001398 -0.009278 -210207.000000 0 0 1
31.219946 -8.783778 5.904793 32.965229 -0.274261 1.390703 -0.005229 -0.008194 568416.000000 0 0 1
32.764246 -8.580978 6.019393 34.400030 -0.256148 1.394909 0.002719 -0.006291 499142.000000 0 0 1
33.344946 -7.814478 4.998893 34.611276 -0.230198 1.425860 0.002834 -0.005636 59544.000000 0 0 1
34.750846 -7.656478 5.093393 35.946983 -0.216860 1.428626 0.003583 0.001373 149774.000000 0 0 1
-34.172283 -7.442678 3.742393 35.173057 0.214450 1.464195 0.002045 0.002947 -569420.000000 0 0 1
-34.258783 -8.532778 2.798993 35.416195 0.244102 1.491682 0.005845 -0.002904 262562.000000 0 0 1
-33.307083 -8.212478 1.817393 34.352722 0.241746 1.517868 0.008517 -0.000867 -310209.000000 0 0 1
-33.026983 -9.404078 0.881593 34.351063 0.277398 1.545129 0.005567 0.000773 -258846.000000 0 0 1
-32.496683 -10.493378 1.560493 34.184507 0.312337 1.525131 0.001599 -0.001009 173439.000000 0 0 1
-32.364183 -11.571678 0.658193 34.376988 0.343381 1.551649 0.000954 -0.000548 -577364.000000 0 0 1
-32.435083 -13.007378 1.298093 34.970152 0.381392 1.533668 0.004454 -0.003030 78917.100000 0 0 1
-31.307783 -13.443478 2.030393 34.132490 0.405589 1.511276 0.006035 -0.005768 -109392.000000 0 0 1
-30.251883 -13.878878 1.201493 33.305304 0.430129 1.534713 0.008435 -0.001311 -746333.000000 0 0 1
-28.977683 -14.209378 1.951593 32.332975 0.455903 1.510400 0.006518 -0.000822 -351913.000000 0 0 1
-28.291983 -13.145278 2.635793 31.307859 0.434953 1.486507 0.006511 -0.001117 824593.000000 0 0 1
-27.129283 -13.631178 3.322693 30.542549 0.465608 1.461792 0.001723 0.000540 173757.000000 0 0 1
-26.227183 -12.441678 3.684493 29.261510 0.442943 1.444545 0.008367 0.000196 254720.000000 0 0 1
-25.015483 -12.826678 4.347593 28.446435 0.473795 1.417361 0.009793 0.002206 564662.000000 0 0 1
-24.154883 -11.745578 4.607193 27.251481 0.452596 1.400918 0.009004 0.001186 226030.000000 0 0 1
-22.808083 -12.220578 5.220193 26.397000 0.491876 1.371727 0.004654 0.002939 284892.000000 0 0 1
-22.878083 -12.583778 6.612793 26.934870 0.502871 1.322750 0.008393 0.008584 801495.000000 0 0 1
-21.690183 -13.358778 6.946493 26.404067 0.552022 1.304579 0.011467 0.006505 968968.000000 0 0 1
-21.231483 -13.025978 8.389593 26.283783 0.550303 1.245919 0.004695 0.004318 -198960.000000 0 0 1
-20.656683 -11.736978 8.679893 25.294184 0.516703 1.220520 -0.001269 0.003912 529119.000000 0 0 1
-21.580383 -10.756678 9.117293 25.778753 0.462404 1.209300 0.007701 0.005340 -768889.000000 0 0 1
-22.031583 -10.821578 10.623993 26.746335 0.456571 1.162318 0.023557 0.007202 -453306.000000 0 0 1
-22.762083 -11.930978 11.072193 27.983104 0.482788 1.163994 0.015993 0.002292 -200041.000000 0 0 1
-24.082883 -11.984778 10.596693 28.912109 0.461764 1.195537 0.013353 0.001647 -367936.000000 0 0 1
-25.108483 -11.548778 11.705593 30.013849 0.431102 1.170158 0.014446 0.000020 -448080.000000 0 0 1
-25.132983 -12.390178 12.825993 30.817032 0.458020 1.141536 0.014578 0.002732 -290668.000000 0 0 1
-26.150783 -12.057178 13.705393 31.891642 0.432016 1.126582 0.007749 -0.000322 -509230.000000 0 0 1
-26.096283 -12.816578 15.088793 32.755951 0.456524 1.092077 0.004444 0.002164 -173128.000000 0 0 1
-26.384083 -14.194978 15.019993 33.514436 0.493594 1.106085 0.008968 0.007014 534359.000000 0 0 1
-25.872983 -14.905378 16.176393 33.959641 0.522659 1.074307 -0.005165 0.009731 -545276.000000 0 0 1
-25.597883 -16.383978 15.933993 34.315864 0.569350 1.087915 0.003625 0.006831 -389681.000000 0 0 1
-26.831083 -17.089478 15.831493 35.532991 0.567131 1.109015 0.003002 0.005340 314781.000000 0 0 1
-26.663683 -18.472378 15.847593 36.101620 0.605872 1.116342 0.008338 0.004786 433607.000000 0 0 1
-27.716683 -19.347578 16.661693 37.684948 0.609415 1.112823 0.009214 -0.000349 538314.000000 0 0 1
-27.569483 -19.257978 18.050593 38.167657 0.609735 1.078184 -0.001338 0.001680 -96480.500000 0 0 1
-28.192383 -20.341078 18.714593 39.481716 0.625017 1.076961 -0.000801 -0.002139 -169459.000000 0 0 1
-27.296883 -21.583378 18.961393 39.629490 0.669038 1.071889 0.002007 -0.003461 201334.000000 0 0 1
-26.170483 -21.275578 19.778293 39.098917 0.682594 1.040426 0.002740 -0.004970 461555.000000 0 0 1
-25.403283 -22.458878 20.006493 39.369884 0.723957 1.037741 0.000440 -0.003116 27709.000000 0 0 1
-24.041983 -22.299278 20.717293 38.787640 0.747810 1.007329 0.007011 0.002376 -538925.000000 0 0 1
-23.046683 -21.940378 19.836393 37.496830 0.760811 1.013357 0.009171 -0.000200 -1049160.000000 0 0 1
-21.834183 -21.800878 20.531893 37.061685 0.784635 0.983644 0.006965 0.003560 384263.000000 0 0 1
-20.674883 -21.328878 19.570593 35.572179 0.800967 0.988234 0.002462 0.003654 399965.000000 0 0 1
-20.456283 -22.282278 18.550293 35.483416 0.828097 1.020678 0.002379 0.002613 759193.000000 0 0 1
-19.145283 -22.116278 17.988093 34.340109 0.857278 1.019465 -0.000389 0.002070 660454.000000 0 0 1
-19.030383 -23.075078 16.744993 34.278412 0.881165 1.060427 -0.002785 0.000950 -908804.000000 0 0 1
-19.162383 -24.401978 17.137193 35.444842 0.905096 1.066160 -0.004182 -0.000178 1254340.000000 0 0 1
-17.929983 -25.132698 17.457793 35.467046 0.951125 1.056151 -0.006110 0.000024 1710630.000000 0 0 1
-16.762983 -25.188488 16.417793 34.423850 0.983601 1.073637 -0.007755 -0.004443 144391.000000 0 0 1
-16.089683 -23.970178 16.258393 33.132804 0.979636 1.057899 -0.007639 -0.004163 -468605.000000 0 0 1
-14.906083 -24.102978 15.500393 32.301812 1.016933 1.070300 -0.007156 -0.005122 122506.000000 0 0 1
-14.020683 -22.816678 15.546393 30.965637 1.019788 1.044825 -0.005754 -0.005889 148141.000000 0 0 1
-14.635783 -21.679578 14.846293 30.076946 0.976981 1.054560 -0.008038 -0.000962 866835.000000 0 0 1
-15.703783 -20.947378 15.500793 30.424925 0.927501 1.036220 -0.006404 0.001201 517152.000000 0 0 1
-15.307783 -19.891778 16.556393 30.068675 0.914898 0.987690 -0.003111 0.006074 -469925.000000 0 0 1
-14.696383 -18.795578 15.900293 28.671881 0.907186 0.982962 -0.004562 0.004879 -100354.000000 0 0 1
-14.821783 -17.590178 16.659193 28.401203 0.870604 0.943983 -0.006254 0.008632 -989223.000000 0 0 1
-13.991183 -16.364978 16.121093 26.897125 0.863437 0.928094 -0.008601 0.007247 318831.000000 0 0 1
-14.514983 -15.769378 14.913493 26.110731 0.826795 0.962874 -0.009651 0.000664 194286.000000 0 0 1
-14.647883 -16.685778 13.840493 26.163618 0.850345 1.013377 -0.008285 0.002487 -203108.000000 0 0 1
-15.410483 -15.968778 12.722393 25.580151 0.803188 1.050250 -0.009095 0.001750 -1109820.000000 0 0 1
-16.778283 -15.950478 12.867993 26.486105 0.760111 1.063473 -0.008587 0.001064 -1414510.000000 0 0 1
-17.411483 -14.805178 12.355093 25.980788 0.704675 1.075210 -0.009450 -0.000954 -529818.000000 0 0 1
-18.940083 -14.943378 12.578693 27.207624 0.667986 1.090184 -0.003311 0.001670 334641.000000 0 0 1
-19.578183 -15.962278 11.770393 27.868293 0.684007 1.134751 0.005125 0.000848 266884.000000 0 0 1
-19.447783 -15.782978 10.346393 27.099198 0.681748 1.179057 -0.001782 0.003692 -250890.000000 0 0 1
-20.450783 -16.850078 9.708093 28.220679 0.689165 1.219616 -0.005358 0.005840 695195.000000 0 0 1
-19.963683 -18.148878 9.830293 28.715241 0.737817 1.221393 0.000045 0.006475 330933.000000 0 0 1
-20.973183 -19.102078 9.484193 29.911766 0.738742 1.248155 -0.001768 0.009077 437497.000000 0 0 1
-20.397383 -20.540978 9.543093 30.480414 0.788906 1.252352 -0.002048 0.007780 166174.000000 0 0 1
-19.392183 -20.712378 8.564993 29.638126 0.818305 1.277629 0.003573 0.003591 -366046.000000 0 0 1
-19.365283 -22.102978 8.238793 30.519396 0.851322 1.297452 -0.004087 -0.001165 1028780.000000 0 0 1
-18.098883 -22.336878 7.278293 29.656015 0.889825 1.322839 -0.003949 -0.004735 1376840.000000 0 0 1
-16.920183 -22.160778 8.049893 29.020570 0.918699 1.289724 -0.008574 0.003835 -571207.000000 0 0 1
-15.758883 -22.508278 7.350793 28.442910 0.959978 1.309389 -0.002968 0.002752 297859.000000 0 0 1
-14.475183 -22.155378 8.176793 27.699308 0.992071 1.271133 -0.003262 0.004488 252967.000000 0 0 1
-13.296183 -22.761178 7.702493 27.462486 1.042105 1.286509 -0.002603 0.011722 -383148.000000 0 0 1
-12.227083 -22.532778 8.614193 27.044999 1.073625 1.246636 0.001919 0.004893 -113997.000000 0 0 1
-10.934483 -22.858678 7.865693 26.532079 1.124617 1.269813 0.006097 0.005719 -434212.000000 0 0 1
-10.664483 -24.225278 7.784893 27.589851 1.156104 1.284746 0.001059 0.006412 -357594.000000 0 0 1
-9.379183 -24.457778 7.229193 27.173760 1.204608 1.301518 0.000618 0.004929 337429.000000 0 0 1
-9.101583 -25.958978 7.163593 28.425770 1.233575 1.316039 -0.003696 0.010833 -335717.000000 0 0 1
-9.987283 -26.617198 6.300193 29.118954 1.211834 1.352711 -0.007887 0.009892 -435996.000000 0 0 1
-9.897083 -28.035258 6.435993 30.419565 1.231431 1.357611 -0.009184 0.006708 328709.000000 0 0 1
-8.719583 -28.748858 5.708293 30.579611 1.276313 1.383025 -0.007990 0.005027 843991.000000 0 0 1
-7.436583 -28.490638 6.287293 30.108957 1.315475 1.360430 -0.008701 0.006413 801499.000000 0 0 1
-6.375583 -29.415218 5.930793 30.676985 1.357353 1.376241 -0.009948 0.010314 963407.000000 0 0 1
-6.387683 -30.806648 6.516393 32.129666 1.366346 1.366564 -0.011685 0.010621 -404317.000000 0 0 1
-6.330583 -30.849948 7.894393 32.467168 1.368400 1.325184 -0.012913 0.011707 144242.000000 0 0 1
-6.558483 -32.169678 8.375893 33.882997 1.369681 1.321006 -0.011193 0.008940 65821.900000 0 0 1
-6.921983 -32.258458 9.888593 34.442797 1.359423 1.279596 -0.008584 0.007131 177615.000000 0 0 1
-5.764983 -31.969698 10.648993 34.186221 1.392387 1.254026 -0.008229 0.016003 425840.000000 0 0 1
-6.206683 -31.901858 11.965193 34.632605 1.378641 1.218036 -0.004288 0.004546 -335238.000000 0 0 1
-5.301683 -31.037798 12.849093 34.008116 1.401615 1.183351 -0.005759 0.007645 -154434.000000 0 0 1
-5.468983 -29.615208 12.583893 32.639312 1.388186 1.174999 -0.010641 0.005980 -280843.000000 0 0 1
-4.803283 -28.760658 13.477293 32.122958 1.405315 1.137843 -0.006271 0.002324 -481357.000000 0 0 1
-5.505983 -28.247258 14.775293 32.350158 1.378289 1.096480 -0.001195 -0.000186 -149206.000000 0 0 1
-6.030783 -29.143128 15.787393 33.688782 1.366740 1.083063 -0.002420 0.000759 9427.220000 0 0 1
-5.087283 -29.959058 16.428893 34.544669 1.402593 1.075168 -0.002629 -0.004127 -150391.000000 0 0 1
-5.706983 -31.237618 17.128293 36.079591 1.390093 1.076132 -0.001664 -0.003530 103007.000000 0 0 1
-6.026883 -32.200328 16.134393 36.517162 1.385769 1.113158 -0.001725 -0.003950 61003.100000 0 0 1
-6.276583 -33.457208 16.687393 37.911072 1.385351 1.115006 -0.001882 -0.006983 -54097.600000 0 0 1
-5.513183 -34.597670 15.989893 38.510656 1.412774 1.142626 0.001378 -0.009124 -295099.000000 0 0 1
-5.976983 34.567978 14.684793 38.030416 -1.399584 1.174361 -0.001358 -0.010723 -97783.900000 0 0 1
-5.296483 33.501024 14.033793 36.705840 -1.413995 1.178478 0.005111 -0.007628 -203125.000000 0 0 1
-4.052883 33.935299 13.235393 36.649775 -1.451930 1.201315 0.001617 -0.006223 -129916.000000 0 0 1
-4.437883 34.417592 11.968993 36.708612 -1.442562 1.238670 -0.002304 -0.008365 530253.000000 0 0 1
-3.340883 -34.499165 11.223093 36.432289 1.474258 1.257650 -0.006151 -0.003224 107007.000000 0 0 1
-3.629883 -34.380736 9.694793 35.905432 1.465607 1.297394 -0.007100 0.001040 -1013560.000000 0 0 1
-3.645883 33.938498 8.785193 35.246187 -1.463781 1.318888 -0.006803 -0.003480 797941.000000 0 0 1
-4.650283 32.924013 9.088093 34.470410 -1.430482 1.303993 -0.003532 -0.002709 800808.000000 0 0 1
-6.106983 33.359113 9.328593 35.173119 -1.389733 1.302365 0.003045 -0.001519 -931013.000000 0 0 1
-6.720483 33.835250 8.173793 35.451374 -1.374724 1.338140 0.004977 -0.001415 -493742.000000 0 0 1
-8.113583 33.956383 8.381593 35.904279 -1.336253 1.335180 0.006630 -0.001863 180895.000000 0 0 1
-8.874483 34.180570 7.053093 36.011303 -1.316770 1.373664 0.005288 -0.001889 -182478.000000 0 0 1
-8.764283 -33.980958 6.534593 35.696205 1.318380 1.386697 0.003561 0.003310 195036.000000 0 0 1
-9.469483 -33.876688 5.289093 35.570713 1.298225 1.421551 0.000829 0.005116 -440636.000000 0 0 1
-9.620583 -32.419258 4.750793 34.148704 1.282319 1.431223 -0.002719 0.005190 480903.000000 0 0 1
-10.542783 -31.522638 5.406693 33.675797 1.248040 1.409547 0.002850 0.001577 562022.000000 0 0 1
-11.903183 -31.835308 5.095093 34.367610 1.212991 1.421995 0.008205 0.002406 -181136.000000 0 0 1
-12.823783 -30.910288 5.858693 33.973808 1.177536 1.397483 0.004621 0.003262 -484441.000000 0 0 1
-12.962283 -31.190318 7.208493 34.537213 1.176926 1.360534 0.006444 0.002599 -552205.000000 0 0 1
-13.740583 -30.227078 7.823793 34.112924 1.144141 1.339387 -0.001994 0.001840 -127884.000000 0 0 1
32.232945 -13.318478 -13.124007 37.263711 -0.391829 1.930709 0.006400 -0.000836 595876.000000 0 0 1
31.071055 -13.090578 -12.296807 35.888510 -0.398742 1.920521 0.011512 0.000770 622947.000000 0 0 1
30.709175 -14.294678 -11.626507 35.812944 -0.435657 1.901433 0.002560 -0.002139 -94704.300000 0 0 1
31.640175 -14.918478 -10.541307 36.534652 -0.440592 1.863486 0.008761 0.001166 605339.000000 0 0 1
32.928295 -15.248678 -11.069707 37.938545 -0.433684 1.866884 0.012609 -0.004057 93743.900000 0 0 1
33.697438 -16.006178 -10.152807 38.662573 -0.443446 1.836513 0.004608 -0.005088 592163.000000 0 0 1
-34.383756 -16.219278 -10.717207 39.498939 0.440763 1.845570 -0.003168 -0.009970 422447.000000 0 0 1
-33.741854 -14.997578 -10.958207 38.516521 0.418254 1.859288 -0.006050 -0.004258 -561813.000000 0 0 1
-32.388884 -15.153378 -11.249607 37.486242 0.437604 1.875593 -0.007316 -0.003151 -270571.000000 0 0 1
-31.640884 -13.841678 -11.626907 36.440672 0.412378 1.895538 -0.006741 -0.005872 -137456.000000 0 0 1
-31.660614 -12.837478 -10.624407 35.778113 0.385214 1.872296 -0.005587 -0.003439 276462.000000 0 0 1
-30.902254 -11.717078 -10.974107 34.823415 0.362418 1.891396 -0.003989 -0.004717 -570539.000000 0 0 1
-31.327514 -10.498178 -10.100207 34.549082 0.323349 1.867473 -0.004911 -0.007455 -180975.000000 0 0 1
-31.088424 -10.597778 -8.727807 33.984962 0.328537 1.830520 -0.004049 -0.001900 9821.320000 0 0 1
-31.802704 -9.608778 -8.057007 34.185611 0.293416 1.808719 0.000919 0.000133 -579584.000000 0 0 1
-31.498734 -9.331578 -6.601607 33.508653 0.288015 1.769106 0.006474 0.002156 -372446.000000 0 0 1
-30.313084 -8.522478 -6.511607 32.154576 0.274073 1.774716 0.004404 0.000286 761247.000000 0 0 1
-29.963944 -8.278878 -5.148107 31.510011 0.269569 1.734912 0.010044 -0.000277 -362620.000000 0 0 1
-29.380974 -9.420178 -4.290007 31.151012 0.310267 1.708952 0.010747 0.002505 -1018050.000000 0 0 1
-30.232794 -10.521178 -4.121007 32.275373 0.334897 1.698829 0.012051 0.002616 242716.000000 0 0 1
-29.896764 -11.288078 -2.986107 32.096013 0.361021 1.663968 0.008156 0.003563 -323669.000000 0 0 1
-30.621064 -12.651678 -2.974907 33.265066 0.391807 1.660346 0.006689 0.000554 -521930.000000 0 0 1
-31.973454 -12.487678 -2.644307 34.427260 0.372345 1.647681 0.006728 0.002232 159135.000000 0 0 1
-32.705014 -13.741478 -2.798607 35.584805 0.397768 1.649524 0.005222 -0.000466 -232406.000000 0 0 1
-34.207360 -13.510578 -2.666107 36.875294 0.376155 1.643160 0.003181 -0.001951 -622560.000000 0 0 1
-34.483830 -13.000578 -1.379407 36.878887 0.360527 1.608209 -0.000407 0.001630 477966.000000 0 0 1
33.638368 -12.819078 -1.216207 36.018714 -0.364095 1.604569 0.007410 -0.002199 258087.000000 0 0 1
33.260455 -11.797878 -0.154207 35.291239 -0.340866 1.575166 0.004083 -0.003079 -194895.000000 0 0 1
33.610217 -12.107078 1.187893 35.744078 -0.345750 1.537557 0.011981 -0.004071 23461.200000 0 0 1
33.120975 -11.156278 2.113193 35.013242 -0.324898 1.510406 0.015062 -0.004359 63229.200000 0 0 1
33.540840 -11.548078 3.553193 35.650684 -0.331587 1.470964 0.006787 -0.005067 338677.000000 0 0 1
32.737365 -12.647078 3.918893 35.313473 -0.368657 1.459593 0.003702 -0.009036 110138.000000 0 0 1
33.271315 -13.231478 5.097293 36.166764 -0.378508 1.429387 0.009676 -0.005267 -501181.000000 0 0 1
32.306155 -13.396878 6.262193 35.529974 -0.393101 1.393620 0.007024 -0.002007 -546813.000000 0 0 1
31.771295 -12.247978 6.815393 34.725750 -0.367948 1.373251 -0.000556 -0.000283 -221057.000000 0 0 1
31.578625 -12.389578 8.183793 34.895353 -0.373886 1.334068 0.003723 -0.001774 -175643.000000 0 0 1
31.113875 -11.162178 8.937893 34.242567 -0.344451 1.306721 0.001191 -0.003856 1564270.000000 0 0 1
29.721995 -10.806778 8.630693 32.782195 -0.348735 1.304382 -0.003307 -0.002728 1698730.000000 0 0 1
29.285155 -9.683178 9.378893 32.238919 -0.319335 1.275610 -0.002466 -0.002743 -1471550.000000 0 0 1
27.793505 -9.626278 9.387393 30.875027 -0.333419 1.261861 -0.010374 -0.000036 -1463300.000000 0 0 1
27.228305 -8.998978 8.280993 29.848569 -0.319199 1.289675 -0.007359 -0.004960 -225426.000000 0 0 1
26.060555 -9.675878 7.882693 28.894844 -0.355509 1.294488 -0.004977 -0.006231 -227269.000000 0 0 1
25.367755 -9.134778 6.633693 27.766401 -0.345639 1.329552 -0.005745 -0.005639 50074.700000 0 0 1
24.533565 -7.997678 6.822693 26.690969 -0.315126 1.312309 -0.007463 -0.004298 904255.000000 0 0 1
23.633075 -7.660278 5.749993 25.500285 -0.313448 1.343353 -0.003342 -0.004121 312504.000000 0 0 1
24.132375 -6.402778 4.987393 25.460581 -0.259344 1.373635 -0.000477 -0.002382 -204039.000000 0 0 1
25.081255 -6.726778 3.995293 26.273204 -0.262033 1.418137 0.009731 -0.006354 150291.000000 0 0 1
25.333525 -5.555378 3.253993 26.138825 -0.215873 1.445984 0.001041 -0.005628 16605.700000 0 0 1
25.886965 -5.780178 1.795893 26.585158 -0.219682 1.503192 -0.001588 -0.002407 612157.000000 0 0 1
24.847945 -6.188378 0.889893 25.622418 -0.244084 1.536058 -0.000987 -0.000167 523619.000000 0 0 1
25.356395 -6.243978 -0.420107 26.117246 -0.241445 1.586882 -0.002010 0.000459 -408868.000000 0 0 1
24.342075 -6.262078 -1.599607 25.185491 -0.251794 1.634352 -0.007451 -0.001848 -338817.000000 0 0 1
23.793075 -4.995978 -1.834807 24.381073 -0.206969 1.646123 0.011479 0.000469 165236.000000 0 1 0
22.947575 -4.954178 -2.985507 23.665340 -0.212628 1.697289 -0.003506 -0.001837 -144781.000000 0 1 0
22.197375 -3.646778 -3.094007 22.706724 -0.162834 1.707481 0.004347 -0.002188 -623382.000000 0 1 0
23.055775 -2.528278 -3.078207 23.397357 -0.109223 1.702741 0.005547 -0.003729 196534.000000 0 1 0
23.294975 -1.987778 -4.351107 23.781069 -0.085125 1.754798 0.001207 -0.004126 -263598.000000 0 1 0
22.144975 -1.229278 -5.085407 22.754613 -0.055454 1.796189 0.004314 -0.002779 9880.010000 0 1 0
21.870875 -0.057178 -4.360107 22.301322 -0.002614 1.767573 -0.002472 -0.000195 1078400.000000 0 1 0
20.982175 0.874322 -5.068107 21.603283 0.041646 1.807602 0.011506 0.000034 147339.000000 0 1 0
20.643875 2.098022 -4.173007 21.165662 0.101282 1.769256 0.005191 0.002974 34649.500000 0 1 0
21.562875 3.209322 -4.150607 22.192000 0.147751 1.758936 -0.001474 -0.000715 727350.000000 0 1 0
22.550075 3.147822 -3.139807 22.984191 0.138696 1.707832 0.003338 0.003885 -46282.700000 0 1 0
23.759375 4.089822 -3.343807 24.339589 0.170465 1.708614 -0.000267 0.005819 -170169.000000 0 1 0
23.565075 5.510522 -3.274107 24.421269 0.229715 1.705269 -0.003482 0.003798 370012.000000 0 1 0
24.792365 6.102522 -2.896107 25.696100 0.241347 1.683742 -0.001653 0.002713 -472216.000000 0 0 1
24.751435 7.685322 -2.910507 26.080045 0.301062 1.682628 -0.003282 -0.001022 -305495.000000 0 0 1
23.966975 8.407922 -2.000907 25.477690 0.337399 1.649413 -0.004474 0.006595 247474.000000 0 0 1
22.626275 8.523422 -2.466507 24.303924 0.360264 1.672457 -0.003759 -0.002802 -544581.000000 0 1 0
21.682175 8.788522 -1.299007 23.431651 0.385096 1.626263 -0.001241 0.000439 -722018.000000 0 1 0
21.827875 10.058922 -0.598507 24.041552 0.431823 1.595694 -0.013790 0.005964 283858.000000 0 1 0
20.920575 10.051422 0.450693 23.214320 0.447891 1.551381 0.001703 -0.001330 -280071.000000 0 1 0
21.490075 10.837022 1.650293 24.124424 0.467066 1.502335 0.020828 -0.004361 -505633.000000 0 1 0
21.940675 12.149222 1.447093 25.121522 0.505703 1.513161 0.004869 0.000774 572560.000000 0 0 1
21.000075 13.202722 1.207393 24.834911 0.561255 1.522160 -0.001496 -0.000769 -66468.400000 0 1 0
20.203475 13.790922 2.383793 24.577477 0.598953 1.473653 0.001600 0.001314 23608.300000 0 1 0
19.072175 13.064422 2.811693 23.288035 0.600587 1.449766 0.027200 -0.001941 624867.000000 0 1 0
18.185875 13.842822 3.647193 23.144152 0.650621 1.412551 0.017650 0.002715 327635.000000 0 1 0
18.295875 13.710322 5.155393 23.436938 0.643096 1.349014 0.006183 0.002483 -522331.000000 0 1 0
17.882075 12.450722 5.589993 22.495268 0.608217 1.319669 0.003498 0.002837 471211.000000 0 1 0
18.146775 12.313922 6.973193 23.012247 0.596201 1.262935 0.004577 -0.000147 -207940.000000 0 1 0
18.197975 10.876422 7.446393 22.470238 0.538706 1.233021 -0.003702 -0.001735 -212929.000000 0 1 0
19.093375 10.065122 6.721893 22.606359 0.485133 1.268885 -0.019704 -0.011387 283120.000000 0 1 0
19.496575 8.880722 7.372193 22.656851 0.427420 1.239378 0.006733 -0.003548 90455.600000 0 1 0
20.510675 8.087622 6.509593 22.988524 0.375594 1.283702 0.008179 -0.001955 146988.000000 0 1 0
19.892675 7.709422 5.290093 21.980418 0.369728 1.327737 -0.006398 -0.003342 737129.000000 0 1 0
20.804775 6.997322 4.447493 22.396012 0.324447 1.370883 -0.007955 -0.007301 123274.000000 0 1 0
20.434375 6.891722 2.924293 21.762606 0.325281 1.436016 -0.007694 -0.006011 11487.100000 0 1 0
21.398475 6.005422 2.362593 22.350429 0.273609 1.464892 -0.013428 -0.006381 738981.000000 0 1 0
21.521375 6.071622 0.940493 22.381213 0.274974 1.528762 0.012307 0.002801 -427642.000000 0 1 0
22.663575 5.145622 0.588293 23.247820 0.223259 1.545488 0.011149 0.004421 -340247.000000 0 1 0
22.289975 3.814522 0.806493 22.628389 0.169490 1.535148 0.002287 0.000624 227921.000000 0 1 0
23.381775 2.999322 0.499793 23.578658 0.127579 1.549598 -0.002390 0.002957 -553459.000000 0 1 0
23.118575 1.469522 0.452493 23.169652 0.063479 1.551266 -0.000280 0.000316 -338323.000000 0 1 0
22.271775 0.964722 -0.558007 22.299642 0.043289 1.595822 0.007929 0.002076 676135.000000 0 1 0
22.549875 -0.341278 -0.952107 22.572546 -0.015133 1.612989 0.014594 0.002101 -1121430.000000 0 1 0
22.148475 -1.538378 -0.027107 22.201853 -0.069346 1.572017 0.013829 0.005313 -54567.000000 0 1 0
22.942375 -1.776578 1.118993 23.038250 -0.077282 1.522206 0.007170 0.005979 1517680.000000 0 1 0
24.299175 -2.236378 0.906193 24.418691 -0.091777 1.533677 0.010539 0.004264 334910.000000 0 1 0
25.200655 -1.846378 2.038293 25.350281 -0.073136 1.490304 0.000369 -0.001843 -1151830.000000 0 0 1
25.253065 -0.476378 2.283493 25.360571 -0.018862 1.480633 -0.007849 -0.000133 258622.000000 0 0 1
26.135785 -0.142778 3.306793 26.344535 -0.005463 1.444943 -0.002333 -0.000590 -255716.000000 0 0 1
25.751175 1.216922 4.062393 26.098026 0.047222 1.414502 0.002162 -0.001147 -286142.000000 0 0 1
25.740315 2.401422 3.319093 26.064286 0.093025 1.443107 -0.009636 0.004379 151050.000000 0 0 1
26.992665 2.851822 2.832093 27.290247 0.105261 1.466832 0.000276 0.003934 -58302.600000 0 0 1
27.061095 4.016722 1.797993 27.416595 0.147356 1.505169 -0.005537 0.001667 -409565.000000 0 0 1
26.500475 3.790622 0.506093 26.774991 0.142076 1.551894 -0.010214 0.003226 386220.000000 0 0 1
26.981855 4.689522 -0.489407 27.390722 0.172084 1.588665 -0.006708 0.007787 26937.400000 0 0 1
28.424865 4.477222 -1.010907 28.793062 0.156227 1.605913 -0.004274 0.011312 -82261.000000 0 0 1
29.489055 4.724122 -0.141907 29.865395 0.158849 1.575548 0.001784 0.009190 -100023.000000 0 0 1
30.729345 4.323622 -0.676207 31.039388 0.139783 1.592584 0.003704 0.009965 609805.000000 0 0 1
31.922505 4.379822 0.363293 32.223612 0.136350 1.559522 -0.003080 0.004999 368907.000000 0 0 1
31.839935 3.445122 1.443193 32.058277 0.107782 1.525763 -0.004166 0.003252 182445.000000 0 0 1
31.094345 3.950222 2.541693 31.447142 0.126363 1.489884 0.003018 0.004414 -22769.100000 0 0 1
31.126485 2.978922 3.794393 31.498087 0.095413 1.450039 -0.000689 0.005352 -390813.000000 0 0 1
30.264055 1.891622 3.566593 30.532144 0.062423 1.453715 0.005093 0.001035 2549.980000 0 0 1
30.402945 0.676322 4.260693 30.707491 0.022242 1.431596 0.003289 0.000334 -332029.000000 0 0 1
31.666435 -0.142978 3.917693 31.908179 -0.004515 1.447706 0.002224 -0.001282 -206392.000000 0 0 1
32.835325 0.368722 4.509193 33.145548 0.011229 1.434331 -0.006139 0.004037 -474654.000000 0 0 1
33.959333 -0.316078 4.053393 34.201845 -0.009307 1.452003 -0.010223 0.001935 -181704.000000 0 0 1
-34.240609 0.461822 4.391193 34.524124 -0.013487 1.443259 -0.010374 0.001094 241308.000000 0 0 1
-34.011244 1.721522 3.760693 34.261803 -0.050573 1.460811 -0.008419 0.001886 237137.000000 0 0 1
-33.859744 1.682222 2.380693 33.984994 -0.049641 1.500688 -0.011376 0.006882 -1018740.000000 0 0 1
-33.895824 3.050922 1.665293 34.073571 -0.089767 1.521903 -0.015902 0.003716 -715012.000000 0 0 1
-32.846834 3.948322 1.807893 33.132646 -0.119630 1.516204 -0.008595 0.004109 24260.900000 0 0 1
-31.733924 3.515222 0.976593 31.942956 -0.110322 1.540219 0.004721 0.006547 -798460.000000 0 0 1
-30.491534 4.245722 1.418293 30.818361 -0.138353 1.524759 0.003486 0.002709 -1261390.000000 0 0 1
-30.111364 3.811922 2.668993 30.468812 -0.125924 1.483086 0.003508 -0.000248 -4587.150000 0 0 1
-29.366754 4.846322 3.287993 29.945016 -0.163553 1.460773 0.007130 -0.000959 -748136.000000 0 0 1
-29.420434 4.799622 4.826293 30.197540 -0.161714 1.410284 -0.000987 0.000008 -4211.950000 0 0 1
-30.687024 5.144622 5.358593 31.573329 -0.166103 1.400252 -0.011020 0.005059 460452.000000 0 0 1
-31.685564 4.132722 5.363793 32.400997 -0.129697 1.404487 -0.009963 0.004245 -591358.000000 0 0 1
-31.714264 3.135222 6.553093 32.535630 -0.098538 1.367996 -0.010167 0.007054 -224382.000000 0 0 1
-32.395524 3.811622 7.661993 33.506784 -0.117120 1.340085 -0.007407 0.012538 651122.000000 0 0 1
-32.389294 3.224622 8.957393 33.759435 -0.099231 1.302250 -0.005426 0.012287 -361496.000000 0 0 1
-33.313814 2.011222 9.215493 34.623410 -0.060299 1.301385 -0.006867 0.013436 -426112.000000 0 0 1
-32.997694 0.791422 8.511393 34.086918 -0.023980 1.318429 -0.007332 0.012881 192252.000000 0 0 1
-33.936024 -0.220278 8.813693 35.062565 0.006491 1.316700 -0.003896 0.009580 -70127.500000 0 0 1
-33.709884 -0.935178 10.215093 35.236046 0.027735 1.276669 0.003418 0.006777 -96392.000000 0 0 1
-32.627624 -1.859178 10.107193 34.207802 0.056920 1.270855 0.004090 0.003028 138939.000000 0 0 1
-32.593924 -2.727978 11.221293 34.579230 0.083501 1.240303 0.002290 0.004221 391331.000000 0 0 1
-31.331534 -3.663378 11.268293 33.497161 0.116395 1.227710 0.003582 0.004336 418254.000000 0 0 1
-31.421704 -4.747678 10.353093 33.422305 0.149961 1.255849 0.003673 0.005602 -502605.000000 0 0 1
-30.248234 -5.461978 10.456793 32.467420 0.178647 1.242881 0.003091 0.001074 -704213.000000 0 0 1
-30.117984 -6.447278 9.248893 32.159017 0.210885 1.279078 -0.000562 0.004106 -109859.000000 0 0 1
-31.050454 -7.480678 9.315693 33.269707 0.236415 1.286997 -0.002486 -0.000565 -304243.000000 0 0 1
-31.006994 -8.340478 8.184093 33.135731 0.262767 1.321227 0.002642 0.002135 609668.000000 0 0 1
-32.049234 -9.537478 8.174793 34.423018 0.289243 1.331025 0.002690 -0.000170 640669.000000 0 0 1
-33.389054 -9.153878 8.065893 35.548292 0.267583 1.341903 0.005606 0.000044 106463.000000 0 0 1
-34.404746 -10.138878 8.232593 36.800258 0.286582 1.345177 0.008157 -0.003227 435811.000000 0 0 1
7.236446 -24.183378 11.007193 27.538341 -1.280044 1.159602 0.001550 -0.001751 -27205.600000 0 0 1
6.791546 -24.901278 9.846293 27.625138 -1.304534 1.206357 -0.000879 0.005715 -526615.000000 0 0 1
5.671346 -25.686908 10.080393 28.170831 -1.353495 1.204852 0.004423 0.001628 -253398.000000 0 0 1
5.400646 -26.706828 8.948893 28.679336 -1.371267 1.253464 0.000683 0.003759 -399566.000000 0 0 1
4.813846 -26.032768 7.870993 27.619389 -1.387947 1.281810 0.001845 0.007914 -344540.000000 0 0 1
4.697946 -26.901368 6.781893 28.138024 -1.397904 1.327377 0.002734 0.007054 -477975.000000 0 0 1
4.017446 -26.359318 5.538493 27.232856 -1.419549 1.365992 0.004248 0.007968 701033.000000 0 0 1
2.595546 -26.254278 5.447993 26.938905 -1.472255 1.367157 0.000335 0.005396 499642.000000 0 0 1
1.892246 -27.432038 5.029393 27.953392 -1.501926 1.389891 0.001269 -0.000567 400136.000000 0 0 1
0.360846 -27.138858 5.005693 27.599000 -1.557501 1.388415 0.005368 0.000987 261955.000000 0 0 1
-0.170454 -27.204588 6.295693 27.924083 1.564531 1.343384 0.006201 0.002538 -97277.900000 0 0 1
-1.592054 -27.107438 6.339293 27.884305 1.512132 1.341448 -0.003879 0.005284 437267.000000 0 0 1
-2.255454 -28.413288 6.670393 29.272789 1.491582 1.340907 -0.004082 0.005548 -664102.000000 0 0 1
-2.046154 -28.909568 7.942893 30.050614 1.500136 1.303301 0.004013 0.002866 168141.000000 0 0 1
-2.591954 -30.263678 8.094093 31.434420 1.485359 1.310371 -0.008334 0.008312 283506.000000 0 0 1
-2.359954 -30.766458 9.561993 32.304428 1.494241 1.270298 -0.008410 0.007530 -559479.000000 0 0 1
-1.111454 -31.328358 9.722693 32.821214 1.535334 1.270051 -0.001318 0.003851 -959559.000000 0 0 1
-0.879254 -31.589378 11.087093 33.490081 1.542970 1.233374 -0.000970 0.007234 -60165.300000 0 0 1
0.602146 -31.836138 11.426793 33.830073 -1.551885 1.226249 0.005731 0.001644 -317447.000000 0 0 1
1.034146 -33.103838 10.952193 34.883866 -1.539567 1.251434 0.003440 -0.002363 602702.000000 0 0 1
2.453246 -33.183078 11.170793 35.098742 -1.497000 1.246895 0.001498 -0.002558 948835.000000 0 0 1
3.012946 -33.812838 12.458593 36.160785 -1.481924 1.219055 0.003390 -0.001876 -187271.000000 0 0 1
2.594546 -33.082628 13.613493 35.868080 -1.492530 1.181494 0.014980 -0.003189 547645.000000 0 0 1
3.266846 -33.625798 14.796793 36.882403 -1.473947 1.157982 0.008220 0.000653 -241343.000000 0 0 1
2.977646 -32.719648 16.033293 36.558285 -1.480041 1.116792 0.003444 0.000912 -45258.500000 0 0 1
3.442446 -31.397148 15.864793 35.345763 -1.461591 1.105323 -0.001351 -0.002540 468020.000000 0 0 1
4.863346 -31.299658 15.874193 35.430365 -1.416649 1.106225 0.000312 -0.001575 -17043.600000 0 0 1
5.515046 -30.101118 15.190093 34.164777 -1.389589 1.110055 0.001929 -0.003316 -289864.000000 0 0 1
5.493646 -30.130008 13.794493 33.589962 -1.390446 1.147604 -0.000536 -0.002402 -717126.000000 0 0 1
4.262646 -30.126088 13.155493 33.148429 -1.430236 1.162696 -0.002835 -0.002294 -931376.000000 0 0 1
4.506546 -30.070268 11.591893 32.540774 -1.422036 1.206570 0.000111 -0.004012 219689.000000 0 0 1
5.053746 -31.268638 11.003893 33.531384 -1.410559 1.236434 0.001094 -0.004629 796537.000000 0 0 1
6.479346 -31.395848 11.143593 33.939076 -1.367278 1.236250 0.000561 -0.002703 620174.000000 0 0 1
7.035146 -32.695378 10.515493 35.057904 -1.358855 1.266160 0.000140 -0.007552 -382693.000000 0 0 1
6.737346 -33.802638 11.286293 36.268314 -1.374060 1.254353 0.001771 -0.003263 109804.000000 0 0 1
6.781746 34.427298 10.612193 36.658554 1.376299 1.277105 0.007382 -0.003772 -316578.000000 0 0 1
6.467246 33.226743 11.451393 35.734802 1.378560 1.244587 -0.000159 -0.005646 716760.000000 0 0 1
5.122846 33.203143 11.949693 35.657922 1.417715 1.229063 0.001826 -0.005952 508194.000000 0 0 1
4.859746 31.957863 12.569493 34.683054 1.419885 1.199944 0.000068 -0.005385 1242130.000000 0 0 1
3.571346 31.888823 13.512693 34.817300 1.459267 1.172224 0.002278 -0.006266 1164130.000000 0 0 1
3.886446 32.182893 14.861793 35.661126 1.450617 1.140929 0.012417 -0.004785 138248.000000 0 0 1
2.794746 31.929023 15.723393 35.700114 1.483489 1.114719 0.012803 0.001395 -71827.500000 0 0 1
3.260546 32.065803 17.203293 36.534917 1.469462 1.080517 0.008937 0.001188 -352604.000000 0 0 1
3.576146 33.419771 17.533793 37.909152 1.464195 1.089959 0.005573 -0.001784 110190.000000 0 0 1
4.202846 33.555307 18.777593 38.681010 1.446194 1.063922 0.003822 0.000325 -311757.000000 0 0 1
4.452046 -34.424777 19.152393 39.644674 -1.442183 1.066603 -0.003869 0.000004 29214.200000 0 0 1
3.311346 -33.613288 19.406393 38.954156 -1.472600 1.049292 -0.006160 0.000262 -100111.000000 0 0 1
3.628946 -32.451088 20.183493 38.387703 -1.459431 1.017164 -0.004447 0.003894 -570987.000000 0 0 1
2.465946 -31.746568 20.828493 38.049331 -1.493276 0.991533 -0.004283 0.008939 -335333.000000 0 0 1
1.761246 -32.556658 21.785293 39.212714 -1.516751 0.981752 -0.007014 0.005411 -212377.000000 0 0 1
0.639346 -31.971648 22.346793 39.012488 -1.550802 0.960865 -0.006112 0.003371 -683221.000000 0 0 1
-0.436554 -32.916938 22.860293 40.078777 1.557535 0.963823 -0.007848 0.005756 -1432220.000000 0 0 1
-1.213654 -33.535688 21.894193 40.068329 1.534622 0.992711 -0.001287 0.005947 -213477.000000 0 0 1
-1.943054 -34.656407 22.412693 41.317924 1.514789 0.997452 -0.000602 0.006041 -893210.000000 0 0 1
-3.198154 -34.277289 23.110393 41.463852 1.477763 0.979591 -0.003436 0.004524 -2356260.000000 0 0 1
-4.244454 -33.819468 22.333493 40.749929 1.445946 0.990751 -0.003638 -0.001485 -457503.000000 0 0 1
-5.343554 -33.511398 23.191393 41.102410 1.412673 0.971291 -0.004964 0.001290 -7584.620000 0 0 1
-6.634154 -33.155888 22.458093 40.591758 1.373314 0.984515 -0.000705 -0.000766 -393232.000000 0 0 1
-7.140354 -34.172607 21.586993 41.045706 1.364810 1.016993 -0.002737 -0.000578 718082.000000 0 0 1
-8.253954 -33.649638 20.815393 40.419135 1.330255 1.029802 -0.000220 -0.004162 1214640.000000 0 0 1
-9.432754 -34.693700 20.685393 41.479093 1.305327 1.048704 -0.002333 -0.002444 662539.000000 0 0 1
-9.854154 34.430493 21.993693 42.027202 -1.292044 1.020053 -0.000109 -0.003542 737283.000000 0 0 1
-11.140154 33.763768 22.063693 41.843776 -1.252099 1.015391 0.003362 -0.003049 946245.000000 0 0 1
-11.555254 33.479320 23.540893 42.527196 -1.238452 0.984176 0.007606 -0.005375 -256896.000000 0 0 1
-11.930754 34.610299 24.287993 43.933157 -1.238836 0.985028 0.011940 -0.004514 387200.000000 0 0 1
-10.850454 -33.961138 24.595493 43.313156 1.261550 0.966902 0.009853 0.002006 342782.000000 0 0 1
-11.292654 -32.643428 25.234993 42.777591 1.237743 0.939847 0.006174 0.007097 -262168.000000 0 0 1
-11.711654 -32.664428 26.541193 43.687099 1.226530 0.917850 0.009375 0.004237 -105752.000000 0 0 1
-12.251654 -31.408058 26.827593 43.084671 1.198871 0.898644 0.012223 0.007716 -174028.000000 0 0 1
-13.038354 -31.175018 28.141993 43.975586 1.174673 0.876369 0.006032 0.006624 -341238.000000 0 0 1
-12.397454 -30.769908 29.367293 44.304876 1.187785 0.846183 0.007363 0.005053 -323093.000000 0 0 1
-13.274354 -30.330498 30.361293 44.921662 1.158254 0.828649 0.008947 0.002227 -272478.000000 0 0 1
-12.558354 -29.752668 31.615893 45.194006 1.171392 0.796016 0.007349 -0.001092 142362.000000 0 0 1
-13.506654 -29.471348 32.667293 46.023278 1.141063 0.781583 0.003463 -0.001147 407048.000000 0 0 1
-13.066054 -29.163798 33.948393 46.623409 1.149588 0.755191 0.007587 -0.003272 -575000.000000 0 0 1
-12.291954 -30.241688 34.694493 47.637797 1.184736 0.754962 0.007123 -0.005616 -615888.000000 0 0 1
-10.967154 -30.504988 34.359993 47.238140 1.225666 0.756303 0.013474 -0.002565 -744791.000000 0 0 1
-10.491754 -31.535478 -34.265648 47.735709 1.249619 2.371462 0.014625 0.000856 792074.000000 0 0 1
-9.005354 -31.999168 -34.509648 47.916166 1.296467 2.374900 0.016604 -0.000301 1218110.000000 0 0 1
-8.077754 -31.113618 -33.894448 46.713391 1.316783 2.382678 0.020379 -0.002353 751132.000000 0 0 1
-6.729554 -31.602868 -33.783948 46.748083 1.360989 2.378470 0.011683 -0.001633 1065950.000000 0 0 1
-5.858354 -30.807178 -32.798048 45.377467 1.382878 2.378617 0.008953 -0.001483 100483.000000 0 0 1
-6.351654 -30.847128 -31.464948 44.518892 1.367727 2.355729 0.010354 -0.002026 107830.000000 0 0 1
-5.545154 -30.041288 -30.631548 43.261062 1.388266 2.357547 0.010681 -0.000851 315059.000000 0 0 1
-6.153054 -30.096868 -29.188448 42.375076 1.369134 2.330645 0.007754 -0.000710 37565.600000 0 0 1
-5.938654 -31.354918 -28.620248 42.866270 1.383613 2.301862 0.006416 0.002047 293017.000000 0 0 1
-6.782854 -31.543848 -27.483048 42.383244 1.358992 2.276332 0.005617 0.003228 106382.000000 0 0 1
-6.377254 -32.848418 -26.789848 42.864716 1.379040 2.245910 0.003908 0.000064 533129.000000 0 0 1
-5.372154 -32.741538 -25.775548 42.014845 1.408168 2.231265 -0.000352 0.000159 366115.000000 0 0 1
-5.142054 -33.973838 -25.107148 42.556213 1.420583 2.201826 -0.000752 -0.002603 -197164.000000 0 0 1
-4.227154 -33.934558 -23.874248 41.706148 1.446867 2.180274 0.001975 -0.005515 -194048.000000 0 0 1
-4.799554 -33.587478 -22.626648 40.781363 1.428860 2.158953 0.002256 -0.002635 -37355.700000 0 0 1
-4.907454 -32.157008 -22.512748 39.559829 1.419356 2.176184 -0.004354 -0.003860 -184240.000000 0 0 1
-5.431754 -31.766928 -21.114148 38.528547 1.401446 2.150783 -0.000178 -0.003696 854367.000000 0 0 1
-6.864554 -31.792698 -20.882348 38.651911 1.358145 2.141551 0.000660 -0.003433 1241190.000000 0 0 1
-7.382754 -30.559598 -20.403148 37.479095 1.333753 2.146455 0.001006 -0.000347 -142630.000000 0 0 1
-7.656654 -29.587258 -21.583648 37.415024 1.317569 2.185689 0.003404 -0.002489 -586227.000000 0 0 1
-6.491754 -28.989338 -22.115048 37.035118 1.350495 2.210724 0.004991 0.002083 -33794.400000 0 0 1
-6.810754 -28.115388 -23.215248 37.091901 1.333132 2.247061 0.003752 -0.000805 523208.000000 0 0 1
-5.627254 -28.227028 -24.295048 37.665375 1.374019 2.271850 0.002213 -0.002258 1931660.000000 0 0 1
-4.367554 -27.555218 -24.200348 36.932674 1.413602 2.285317 0.008627 -0.000639 754868.000000 0 0 1
-3.666154 -27.883488 -22.987248 36.322764 1.440065 2.256039 0.006149 -0.002480 -1083900.000000 0 0 1
-2.157954 -27.587278 -23.104448 36.048997 1.492732 2.266490 0.010506 -0.007362 -339278.000000 0 0 1
-1.837654 -26.190738 -23.223848 35.052516 1.500747 2.295007 0.012587 -0.006502 160858.000000 0 0 1
-2.193654 -25.343528 -22.124448 33.713465 1.484455 2.286634 0.010996 -0.003114 -780334.000000 0 0 1
-1.781954 -23.884778 -22.456448 32.832149 1.496328 2.323997 0.002947 -0.006484 121668.000000 0 0 1
-2.550354 -23.244978 -23.446048 33.114204 1.461517 2.357509 0.000181 -0.007373 568021.000000 0 0 1
-3.969554 -23.123078 -23.277448 33.049564 1.400783 2.352260 0.000310 -0.005019 226682.000000 0 0 1
-4.671354 -23.204178 -24.617548 34.150829 1.372136 2.375821 0.000969 -0.005369 -459585.000000 0 0 1
-4.448254 -22.046478 -25.402448 33.928138 1.371702 2.416915 0.003769 -0.005482 237928.000000 0 0 1
-4.905754 -22.287478 -26.729148 35.146059 1.354139 2.434904 0.001306 -0.002409 70832.100000 0 0 1
-4.804154 -21.053278 -27.621248 35.060715 1.346447 2.478045 0.001930 0.001213 270909.000000 0 0 1
-5.402454 -21.094078 -28.931148 36.209915 1.320073 2.496400 0.005571 0.003504 501235.000000 0 0 1
-4.658754 -21.967378 -29.794748 37.309472 1.361817 2.495735 0.005043 0.003488 54149.600000 0 0 1
-5.424554 -22.408078 -31.027448 38.655534 1.333285 2.502547 0.012896 0.005609 -372886.000000 0 0 1
-5.615254 -21.242178 -31.831348 38.678106 1.312363 2.537435 0.009093 0.008975 557063.000000 0 0 1
-6.609954 -21.595678 -32.832848 39.850479 1.273773 2.539057 0.013973 0.003849 655442.000000 0 0 1
-6.606754 -20.696578 -34.051148 40.391561 1.261801 2.573681 0.009841 0.001991 -577086.000000 0 0 1
-5.548454 -21.048478 34.570693 40.852865 1.313056 0.561937 0.009071 0.001617 -1003250.000000 0 0 1
-5.589354 -20.339278 33.321093 39.436307 1.302611 0.564354 0.008632 0.001750 446795.000000 0 0 1
-4.379154 -20.582878 32.374393 38.612604 1.361165 0.576380 -0.009381 0.002103 -647686.000000 0 0 1
-4.326454 -21.925378 31.895193 38.945394 1.375973 0.611179 -0.008257 0.001726 347302.000000 0 0 1
-3.284854 -22.271178 30.958793 38.278486 1.424359 0.628725 -0.012891 0.002911 861767.000000 0 0 1
-1.819554 -22.118078 31.465993 38.504920 1.488716 0.614271 -0.009641 0.002540 -524872.000000 0 0 1
-1.348754 -20.857978 31.121193 37.488705 1.506223 0.591422 -0.010877 0.001175 -41439.900000 0 0 1
-0.291654 -20.338678 31.926093 37.855281 1.556457 0.567268 -0.007339 -0.000858 3983.850000 0 0 1
-0.576754 -20.120278 33.436293 39.027476 1.542139 0.541886 -0.011256 -0.000682 -1164480.000000 0 0 1
-1.474654 -19.147678 33.646993 38.741816 1.493933 0.518642 -0.011727 -0.001061 -1086220.000000 0 0 1
-1.762154 -18.844278 -34.422848 39.282877 1.477556 2.638885 -0.010381 -0.002461 315061.000000 0 0 1
-2.834854 -17.735878 -34.259848 38.682489 1.412300 2.658727 -0.014613 -0.005652 420794.000000 0 0 1
-2.314354 -16.456878 -34.491348 38.286266 1.431081 2.692590 -0.005368 -0.004386 62002.300000 0 0 1
-3.343854 -15.545978 -34.222848 37.736747 1.358930 2.706625 -0.009790 -0.005317 236102.000000 0 0 1
-2.867754 -14.165178 -34.676348 37.567611 1.371045 2.746701 -0.009725 -0.005310 -358135.000000 0 0 1
-1.924854 -13.507078 -33.917248 36.558527 1.429242 2.759140 -0.007419 -0.005522 -637706.000000 0 0 1
-2.134054 -12.095278 -33.900148 36.056483 1.396157 2.794000 -0.012868 -0.004210 273274.000000 0 0 1
-1.529254 -11.289378 34.329893 36.170848 1.436156 0.320418 -0.009130 -0.004762 -262750.000000 0 0 1
-2.349854 -11.487578 33.224493 35.232842 1.369024 0.339270 -0.003712 -0.006580 -161092.000000 0 0 1
-1.836454 -10.945378 32.030793 33.899049 1.404561 0.333545 -0.005438 -0.004872 236493.000000 0 0 1
-0.760454 -11.854078 31.343993 33.519298 1.506733 0.362247 -0.003078 -0.004837 18476.400000 0 0 1
-1.371054 -12.981178 30.879293 33.524938 1.465568 0.399940 0.001176 -0.002528 -684531.000000 0 0 1
-0.480054 -14.029478 30.824293 33.870248 1.536592 0.427344 0.002994 -0.000540 -628671.000000 0 0 1
-1.017254 -15.366578 31.336693 34.916398 1.504694 0.456779 -0.002003 0.001616 11516.500000 0 0 1
-1.826954 -16.082878 30.415293 34.454125 1.457685 0.489056 -0.000121 0.001262 169333.000000 0 0 1
-2.150954 -17.381078 30.860693 35.483952 1.447670 0.516185 -0.007387 0.000890 -223639.000000 0 0 1
-2.638754 -18.332178 29.753993 35.047566 1.427837 0.556782 -0.012441 -0.001251 855042.000000 0 0 1
-4.035254 -18.119778 29.414893 34.782834 1.351673 0.562972 -0.015559 -0.000042 775792.000000 0 0 1
-4.533854 -19.140978 28.602793 34.713868 1.338216 0.602434 -0.008411 -0.001952 -158619.000000 0 0 1
-4.093354 -19.132378 27.065193 33.396528 1.360025 0.625929 -0.012002 -0.002641 -254085.000000 0 0 1
-4.826154 -20.014278 26.207993 33.327496 1.334178 0.665873 -0.007133 -0.004239 -351890.000000 0 0 1
-4.509754 -21.388678 26.291193 34.191231 1.362992 0.693606 -0.007950 -0.001244 -140842.000000 0 0 1
-27.979474 -34.451489 -0.735307 44.388025 0.888696 1.587363 -0.001207 -0.006891 63949.600000 0 0 1
-27.262034 -33.370789 -0.145507 43.091174 0.885809 1.574173 0.000165 0.000381 208476.000000 0 0 1
-27.587424 -33.313489 1.203893 43.270127 0.879145 1.542970 -0.000986 -0.000462 -150424.000000 0 0 1
-26.966354 -32.052789 1.864493 41.929010 0.871369 1.526314 -0.005147 -0.001268 544382.000000 0 0 1
-25.583404 -32.094689 2.191693 41.102106 0.897812 1.517448 0.007486 -0.004288 -42283.400000 0 0 1
-25.146484 -30.752189 2.111693 39.780674 0.885347 1.517688 0.002840 -0.001235 638281.000000 0 0 1
-23.621754 -30.557189 2.395293 38.697112 0.912716 1.508858 0.003183 -0.005155 284996.000000 0 0 1
-23.218754 -31.128789 3.623593 39.003109 0.929929 1.477757 0.004090 -0.004060 -1044870.000000 0 0 1
-21.840354 -31.106689 3.743793 38.192187 0.958655 1.472614 -0.001621 -0.002269 -1613890.000000 0 0 1
-21.547754 -31.753989 5.100693 38.712254 0.974588 1.438653 0.005334 -0.006778 -241706.000000 0 0 1
-21.895754 -30.894989 6.212393 38.373405 0.954245 1.408187 0.002801 -0.008477 103207.000000 0 0 1
-21.370354 -31.423489 7.446993 38.724481 0.973568 1.377284 0.004828 -0.005983 -185683.000000 0 0 1
-22.026854 -30.766589 8.651593 38.815143 0.949456 1.346016 0.006396 0.001058 -98082.800000 0 0 1
-21.683454 -29.413389 8.869693 37.603073 0.935540 1.332676 0.007440 -0.002403 -384410.000000 0 0 1
-22.111654 -29.027889 10.143193 37.873843 0.919825 1.299672 0.004739 0.001252 -321207.000000 0 0 1
-21.460054 -27.864389 10.866693 36.810910 0.914517 1.271128 0.002847 0.002482 -221709.000000 0 0 1
-20.155654 -28.134389 11.311893 36.410893 0.949144 1.254895 -0.001524 0.000135 -667639.000000 0 0 1
-19.624254 -27.051489 12.033493 35.520408 0.943199 1.225180 0.001084 -0.002346 -512251.000000 0 0 1
-18.321554 -27.437389 12.686093 35.347229 0.982038 1.203708 0.000196 -0.002179 -459733.000000 0 0 1
-18.570554 -28.358389 13.741593 36.577248 0.991018 1.185658 0.001195 -0.000673 260193.000000 0 0 1
-17.405354 -28.415389 14.560093 36.364502 1.021213 1.158851 -0.000376 -0.005126 454289.000000 0 0 1
-17.595854 -29.553589 15.609993 37.771690 1.033775 1.144752 -0.002235 0.002034 -31777.600000 0 0 1
-17.369554 -30.844489 15.005393 38.447961 1.057926 1.169863 0.006066 0.000791 -266591.000000 0 0 1
-17.727354 -31.896489 15.855793 39.787577 1.063528 1.160903 0.004505 0.002785 288246.000000 0 0 1
-17.085154 -33.250889 15.420893 40.439189 1.096150 1.179556 0.009291 0.002375 321334.000000 0 0 1
-17.432154 -34.287489 16.297393 41.774597 1.100442 1.170027 0.009377 0.004654 59068.500000 0 0 1
-16.837754 34.003622 15.787393 41.097421 -1.111016 1.176514 0.003618 0.001136 -53432.000000 0 0 1
-16.833754 32.837922 16.848293 40.565618 -1.097095 1.142486 0.004712 0.007161 37949.100000 0 0 1
-18.014854 32.050722 16.918693 40.472533 -1.058731 1.139522 0.013747 0.005095 -48117.300000 0 0 1
-18.034654 30.909722 17.758093 39.950088 -1.042626 1.110173 0.014792 0.004756 17206.000000 0 0 1
-18.670854 31.159022 19.183793 41.079232 -1.030957 1.084907 0.009944 -0.002223 589525.000000 0 0 1
-17.869554 32.005622 20.021093 41.767511 -1.061584 1.070887 0.010223 -0.000086 769116.000000 0 0 1
-18.670254 32.232422 21.185893 42.852648 -1.045783 1.053664 0.009349 -0.000282 438624.000000 0 0 1
-18.036254 33.302622 22.114093 43.856632 -1.074435 1.042299 0.002852 0.003294 742166.000000 0 0 1
-17.040654 32.703722 22.995693 43.459397 -1.090442 1.013221 0.005082 -0.003470 547865.000000 0 0 1
-16.799854 33.463422 24.197093 44.581779 -1.105521 0.997080 0.006765 -0.008671 83693.300000 0 0 1
-17.798654 33.146722 25.362593 45.373543 -1.078015 0.977649 0.005212 -0.008186 -494698.000000 0 0 1
-19.105754 33.558722 25.166993 46.093331 -1.053239 0.993213 0.007857 -0.009026 -1093510.000000 0 0 1
-19.896354 32.969222 26.173193 46.560396 -1.027820 0.973832 0.003367 -0.006676 -752602.000000 0 0 1
-21.355854 33.341722 25.962693 47.347696 -1.001118 0.990417 -0.006748 -0.004606 -981644.000000 0 0 1
-21.830754 32.888622 24.765993 46.600404 -0.984796 1.010480 -0.006420 0.002400 -760730.000000 0 0 1
-23.176454 33.034222 24.481093 47.198853 -0.959005 1.025490 -0.009769 0.001324 -863496.000000 0 0 1
-23.574254 32.613822 23.087893 46.394586 -0.944912 1.049918 -0.014325 0.002095 -383887.000000 0 0 1
-23.188154 33.430022 22.022793 46.262947 -0.964357 1.074655 -0.013020 0.001417 33947.800000 0 0 1
-22.870754 32.644422 20.858293 44.986643 -0.959666 1.088680 -0.016641 0.004960 -90088.300000 0 0 1
-22.442554 33.466522 19.663393 44.836652 -0.980078 1.116805 -0.006310 0.002942 -305289.000000 0 0 1
-21.144054 33.970722 19.792393 44.641010 -1.014054 1.111444 0.003858 0.002070 -471912.000000 0 0 1
-20.635154 34.667222 18.706693 44.469835 -1.033888 1.136623 0.003666 0.005880 -906671.000000 0 0 1
-19.299554 -34.160689 18.967693 43.579798 1.056537 1.120491 0.010477 0.004858 -868806.000000 0 0 1
-19.306354 -33.111589 19.874093 43.175134 1.042919 1.092448 0.001408 0.003715 -668299.000000 0 0 1
-18.083954 -32.473089 19.975193 42.196436 1.062678 1.077666 0.006265 0.003949 -621670.000000 0 0 1
-18.138954 -31.346589 21.029293 41.879129 1.046217 1.044722 0.000786 0.003708 -220364.000000 0 0 1
-18.638454 -30.140789 20.603493 40.992232 1.016972 1.044170 0.007381 0.005268 -114408.000000 0 0 1
-19.164854 -29.465689 21.708693 41.313264 0.994131 1.017534 0.005975 0.004653 -256957.000000 0 0 1
-19.958154 -28.193089 21.363393 40.614932 0.954782 1.016908 -0.000040 0.002137 -214936.000000 0 0 1
-19.138054 -27.106189 20.942393 39.237666 0.956028 1.007789 -0.003131 0.005476 149636.000000 0 0 1
-19.802554 -25.857689 20.912293 38.705106 0.917242 1.000005 0.000434 0.005842 -369781.000000 0 0 1
-20.805054 -25.607189 19.754993 38.455665 0.888498 1.031295 0.007042 0.005938 -239142.000000 0 0 1
-22.139154 -25.905989 20.117393 39.572363 0.863640 1.037506 0.000474 0.004238 -210452.000000 0 0 1
-22.829354 -25.999889 18.888193 39.420014 0.850238 1.071108 0.001628 0.003096 -443502.000000 0 0 1
-24.367454 -26.042889 19.087593 40.451713 0.818622 1.079396 0.002973 0.004012 314835.000000 0 0 1
-24.944754 -27.211289 19.674593 41.830427 0.828828 1.081118 -0.003917 0.002164 170842.000000 0 0 1
-24.931554 -28.356389 18.818493 42.187710 0.849580 1.108432 -0.006261 0.002932 -688516.000000 0 0 1
-25.751514 -29.530489 19.478193 43.756031 0.853650 1.109450 -0.006512 0.005413 1019990.000000 0 0 1
-27.176304 -29.472089 19.520693 44.589382 0.825903 1.117660 -0.008463 0.008664 951030.000000 0 0 1
-27.860954 -29.580589 18.253693 44.547069 0.815326 1.148603 -0.009092 0.006032 817398.000000 0 0 1
-29.389624 -29.191089 18.326693 45.296107 0.782009 1.154258 -0.004947 0.005706 1030020.000000 0 0 1
-29.597194 -27.794189 18.206693 44.497129 0.753993 1.149257 -0.005030 0.005541 -681643.000000 0 0 1
-30.924954 -27.445889 18.429093 45.268765 0.725866 1.151515 0.009114 0.010272 -654549.000000 0 0 1
-31.456434 -26.224589 17.657393 44.598429 0.694943 1.163727 0.002336 0.000478 -105197.000000 0 0 1
-31.957244 -26.479889 16.300493 44.588743 0.691940 1.196547 0.005163 -0.005882 561500.000000 0 0 1
-32.626604 -25.362289 15.726993 44.216279 0.660777 1.207151 0.000739 -0.007613 11532.400000 0 0 1
-31.693794 -24.175589 15.267193 42.685394 0.651634 1.205027 -0.002714 -0.003318 348404.000000 0 0 1
-31.018504 -23.551889 16.344893 42.237360 0.649417 1.173445 -0.005514 -0.007076 412082.000000 0 0 1
-30.442664 -22.264889 16.032493 40.981971 0.631472 1.168852 0.003455 -0.003074 367696.000000 0 0 1
-31.464184 -21.163989 16.442493 41.331161 0.592125 1.161653 0.000833 -0.001875 249656.000000 0 0 1
-31.463664 -20.858089 17.866993 41.764237 0.585409 1.128732 -0.004603 -0.001845 532588.000000 0 0 1
-32.368254 -19.754789 18.070593 42.005974 0.547969 1.126092 -0.001736 0.000842 263864.000000 0 0 1
-32.706834 -19.468789 19.567793 42.798005 0.536921 1.095938 -0.003373 -0.004024 -677141.000000 0 0 1
-33.742154 -20.245389 20.075693 44.175131 0.540422 1.099034 -0.000493 -0.005670 -171480.000000 0 0 1
-34.036884 -19.658089 21.342393 44.726364 0.523750 1.073357 -0.001244 -0.003650 -248170.000000 0 0 1
34.067336 -19.878889 21.938693 45.133799 -0.528212 1.063196 0.003148 -0.004691 360992.000000 0 0 1
33.671252 -21.246589 22.255493 45.612254 -0.562903 1.061082 0.008290 -0.006793 20622.600000 0 0 1
34.454026 -21.878489 23.225993 46.959503 -0.565762 1.053426 0.009523 -0.001842 -347666.000000 0 0 1
33.883470 -23.289889 23.514393 47.364915 -0.602187 1.051290 0.005055 -0.000636 150294.000000 0 0 1
32.654625 -23.310989 24.200993 46.855254 -0.619971 1.028032 0.009532 -0.002766 -98535.400000 0 0 1
32.395435 -24.577789 24.617493 47.534754 -0.649034 1.026421 0.007974 -0.008030 -244864.000000 0 0 1
31.518305 -24.692489 25.855993 47.661881 -0.664557 0.997401 0.011814 -0.010789 1041460.000000 0 0 1
30.151955 -24.212489 25.856293 46.518092 -0.676577 0.981432 0.016254 -0.007734 942055.000000 0 0 1
29.528405 -24.449089 27.110793 46.954017 -0.691574 0.955268 0.009883 -0.001635 -82675.300000 0 0 1
28.225275 -25.223089 26.885093 46.429286 -0.729287 0.953228 0.012531 -0.005538 -441495.000000 0 0 1
27.152855 -24.429689 26.411493 45.073875 -0.732655 0.944732 0.009236 -0.002308 -385063.000000 0 0 1
26.031485 -25.223089 26.125993 44.681203 -0.769627 0.946261 0.002112 -0.005180 412351.000000 0 0 1
24.829535 -24.436989 25.490993 43.167846 -0.777431 0.939107 -0.003471 -0.000165 208980.000000 0 0 1
24.973715 -23.939189 24.122993 42.174518 -0.764251 0.961878 -0.009600 -0.003223 118091.000000 0 0 1
25.655825 -22.663889 24.048993 41.835718 -0.723558 0.958383 -0.006301 0.003616 365075.000000 0 0 1
25.719835 -22.031289 22.648493 40.741156 -0.708306 0.981337 -0.001865 0.004439 240187.000000 0 0 1
24.824245 -20.936589 22.511093 39.513709 -0.700646 0.964651 -0.009960 0.005243 1543.870000 0 0 1
24.903365 -20.344089 21.234693 38.535331 -0.684974 0.987181 -0.012523 0.008270 -205506.000000 0 0 1
24.019775 -19.122989 21.097593 37.252473 -0.672380 0.968737 -0.007620 0.012881 -294847.000000 0 0 1
24.477385 -17.956489 21.761793 37.351754 -0.632919 0.948851 -0.003975 0.001503 -9788.630000 0 0 1
24.556535 -18.051189 23.181393 38.291589 -0.633888 0.920539 -0.006746 0.000306 -215141.000000 0 0 1
24.746205 -16.744289 23.963393 38.301306 -0.594876 0.894826 0.003674 0.000721 -272272.000000 0 0 1
23.675975 -15.843389 23.773193 37.104305 -0.589738 0.875370 0.001880 0.003692 -113572.000000 0 0 1
23.870275 -14.579189 24.367193 37.095860 -0.548299 0.854135 0.007223 0.003738 512502.000000 0 0 1
22.595875 -13.684389 24.145893 35.789107 -0.544538 0.830277 0.001136 0.004334 788221.000000 0 0 1
21.463975 -14.228589 24.798093 35.750530 -0.585394 0.804262 0.003134 0.004049 -462442.000000 0 0 1
20.322275 -13.486289 24.478993 34.555693 -0.585891 0.783578 0.006633 0.000319 250697.000000 0 0 1
18.950275 -14.058689 24.947593 34.338638 -0.638279 0.757557 0.006224 0.003448 420253.000000 0 0 1
18.517375 -15.152289 24.162593 34.004646 -0.685785 0.780492 0.006349 -0.001067 -498817.000000 0 0 1
17.282375 -15.699089 24.492393 33.838132 -0.737430 0.761488 0.001103 0.003509 -596968.000000 0 0 1
16.827675 -16.973989 23.819193 33.743753 -0.789727 0.787125 0.000816 0.006894 -129945.000000 0 0 1
17.434575 -18.225289 24.213093 34.962829 -0.807568 0.805795 0.000204 0.004513 230222.000000 0 0 1
16.964675 -19.212989 23.320693 34.652473 -0.847465 0.832555 0.001759 0.005715 -196905.000000 0 0 1
17.496075 -20.647189 23.641693 35.935340 -0.867824 0.852776 -0.002927 0.003934 -379688.000000 0 0 1
16.872575 -21.272089 24.771393 36.753333 -0.900228 0.831199 -0.003209 0.000307 108592.000000 0 0 1
17.314775 -22.550389 25.138793 37.951026 -0.915984 0.846777 -0.002757 -0.000318 -393575.000000 0 0 1
16.783875 -23.686389 24.192593 37.789218 -0.954330 0.876040 -0.004868 -0.000702 136985.000000 0 0 1
17.423875 -23.803589 22.915493 37.354010 -0.938925 0.910352 0.001764 0.001008 -451245.000000 0 0 1
18.444375 -24.761689 23.050493 38.531305 -0.930583 0.929509 -0.006185 0.001326 -340635.000000 0 0 1
19.291175 -24.749189 21.714793 38.160241 -0.908702 0.965456 -0.006724 0.009901 148439.000000 0 0 1
18.692275 -25.291789 20.500593 37.541311 -0.934330 0.993117 0.003214 -0.001168 769193.000000 0 0 1
19.724675 -25.659889 19.566593 37.819892 -0.915436 1.027030 -0.005605 0.005297 593547.000000 0 0 1
19.115275 -26.393589 18.366393 37.407749 -0.943987 1.057584 -0.000312 0.003990 160905.000000 0 0 1
18.482575 -27.596689 18.760493 38.146283 -0.980670 1.056636 0.004330 -0.002813 128398.000000 0 0 1
17.735175 -28.139689 17.686593 37.672193 -1.008427 1.082087 0.008313 -0.000654 -54429.700000 0 0 1
16.910875 -29.412989 17.953093 38.385090 -1.049003 1.084098 0.013292 -0.003801 175107.000000 0 0 1
15.999175 -29.274089 19.041793 38.412703 -1.070621 1.052137 0.013342 -0.003790 -64170.500000 0 0 1
15.375475 -30.521889 19.314093 39.255893 -1.104151 1.056405 0.014845 -0.003387 -219251.000000 0 0 1
14.064075 -30.242889 20.085193 38.933861 -1.135508 1.028762 0.009156 0.000293 -192290.000000 0 0 1
13.217875 -29.551189 19.189593 37.632771 -1.150200 1.035708 0.013224 0.000855 31932.100000 0 0 1
11.901075 -29.281689 19.674693 37.230988 -1.184756 1.014023 0.005718 0.002401 369293.000000 0 0 1
11.063875 -28.719789 18.554693 35.937616 -1.203083 1.028268 0.000881 0.001276 -574639.000000 0 0 1
10.711775 -29.662289 17.580693 36.106430 -1.224246 1.062244 0.000279 0.003099 -211870.000000 0 0 1
9.924775 -29.081289 16.605993 34.928234 -1.241914 1.075342 0.000131 0.005725 -493708.000000 0 0 1
9.734375 -30.018289 15.396393 35.112742 -1.257214 1.116885 0.002247 0.006253 -80563.200000 0 0 1
8.895375 -31.128989 15.616493 35.944631 -1.292456 1.121358 -0.010986 0.002570 -120537.000000 0 0 1
9.005875 -32.025389 14.545393 36.308398 -1.296665 1.158617 -0.012478 0.000892 -511217.000000 0 0 1
7.935175 -33.078389 14.314393 36.905943 -1.335355 1.172486 -0.010133 -0.004598 -584353.000000 0 0 1
7.776575 -34.056589 15.316693 38.143511 -1.346302 1.157583 -0.010811 -0.005591 392649.000000 0 0 1
6.851675 34.394522 14.864393 38.090402 1.374162 1.169904 -0.010590 -0.009477 464553.000000 0 0 1
6.705575 33.292022 15.931893 37.511980 1.372039 1.132150 -0.011975 -0.008487 319558.000000 0 0 1
7.888075 32.487022 16.013193 37.068189 1.332599 1.124095 -0.009102 -0.007305 323124.000000 0 0 1
7.912675 31.729822 17.163193 36.931927 1.326404 1.087472 -0.005359 -0.003489 -724235.000000 0 0 1
9.200175 30.960222 17.321893 36.650055 1.281946 1.078524 -0.007424 -0.004269 -813571.000000 0 0 1
9.457775 30.168022 16.151093 35.502350 1.266998 1.098502 -0.002148 -0.004688 -98849.000000 0 0 1
10.559575 29.312122 16.400993 35.209341 1.225023 1.086242 0.004197 0.000293 -335780.000000 0 0 1
11.210875 28.765822 15.157393 34.393354 1.199175 1.114410 0.001373 0.001219 -325483.000000 0 0 1
10.458175 27.772122 14.490993 33.025037 1.210649 1.116547 0.002575 0.004700 301735.000000 0 0 1
11.281375 26.923622 13.653993 32.227044 1.174007 1.133291 -0.000789 0.006872 452402.000000 0 0 1
-9.032154 -9.382178 19.308733 23.290175 0.804404 0.593389 -0.012696 0.000425 -99907.800000 0 1 0
-9.633854 -9.663478 18.059233 22.634705 0.786933 0.647066 0.003587 0.001443 7367.290000 0 1 0
-9.355654 -11.006178 17.683933 22.833872 0.866281 0.684934 -0.004963 -0.000102 -126097.000000 0 1 0
-9.432854 -11.200678 16.156833 21.805439 0.870867 0.736306 -0.004382 -0.002482 559597.000000 0 1 0
-10.756254 -11.037178 15.629933 21.950196 0.798288 0.778364 -0.004996 -0.005664 537028.000000 0 1 0
-10.999654 -11.583978 14.366633 21.484438 0.811266 0.838338 -0.011684 -0.011676 154079.000000 0 1 0
-11.289454 -13.117778 14.360933 22.489204 0.860168 0.878158 -0.008392 -0.006327 -329436.000000 0 1 0
-10.100254 -13.834278 14.134733 22.207951 0.940161 0.880881 -0.002428 0.000335 -244865.000000 0 1 0
-10.180554 -15.230678 14.371433 23.284229 0.981578 0.905595 0.006763 0.000971 119763.000000 0 1 0
-9.785254 -15.752278 15.748133 24.328772 1.014937 0.866753 0.004879 0.001560 140910.000000 0 1 0
-10.780654 -15.443778 16.697133 25.169963 0.961375 0.845476 -0.007217 0.008139 -164651.000000 0 0 1
-10.258854 -15.391578 18.026933 25.828571 0.982893 0.798272 0.000908 0.006483 -132962.000000 0 0 1
-11.211154 -14.754678 19.080533 26.598069 0.921029 0.770783 -0.002689 0.001168 -766742.000000 0 0 1
-11.425154 -13.379678 18.804633 25.751974 0.864032 0.752151 -0.003240 0.008594 -337419.000000 0 0 1
-12.617254 -13.064078 18.159233 25.683127 0.802795 0.785480 -0.006582 0.003938 402826.000000 0 0 1
-13.963054 -13.243978 18.980133 27.029896 0.758975 0.792327 -0.006280 0.006406 384454.000000 0 0 1
-14.346854 -14.607478 19.265433 28.113476 0.794399 0.815817 -0.002802 0.007765 -744979.000000 0 0 1
-15.407154 -14.618678 20.152033 29.277817 0.759144 0.811648 0.006890 0.001564 -536242.000000 0 0 1
-15.848354 -16.102178 20.394533 30.436614 0.793342 0.836499 0.001106 0.007902 -249361.000000 0 0 1
-16.693654 -16.679478 19.446433 30.578536 0.784973 0.881557 0.007671 0.008690 -359947.000000 0 0 1
-17.160554 -17.942778 19.939133 31.843319 0.807678 0.894173 0.001581 0.006256 -615964.000000 0 0 1
-18.443754 -18.369178 19.264133 32.383724 0.783372 0.933691 0.004198 0.006202 -839684.000000 0 0 1
-18.362154 -18.666578 17.886833 31.710387 0.793619 0.971491 -0.001370 0.007527 -99443.100000 0 0 1
-18.355354 -17.447378 17.080733 30.546382 0.760043 0.977408 0.002135 0.016759 -807350.000000 0 0 1
-18.094054 -17.690878 15.587733 29.721026 0.774132 1.018706 -0.001141 0.004886 -581778.000000 0 0 1
-19.010054 -18.585178 14.975633 30.513286 0.774097 1.057799 -0.001494 0.002171 92959.000000 0 0 1
-18.669854 -18.718978 13.608033 29.734528 0.786712 1.095445 -0.002851 -0.002496 139334.000000 0 0 1
-18.982054 -20.107378 12.984233 30.548574 0.814179 1.131795 -0.000496 -0.007937 -317646.000000 0 0 1
-18.108454 -21.102478 13.394033 30.864718 0.861607 1.121913 -0.007052 -0.003407 -439452.000000 0 0 1
-18.022154 -22.138178 12.410633 31.127493 0.887531 1.160694 -0.006352 -0.003876 -855513.000000 0 0 1
-17.179354 -23.328278 12.936233 31.728298 0.936045 1.150842 -0.015512 -0.006344 -213625.000000 0 0 1
-17.051454 -24.484278 12.079733 32.189314 0.962474 1.186107 -0.011374 -0.009576 -19733.600000 0 0 1
-16.253654 -24.281678 10.948033 31.203215 0.980918 1.212304 -0.015707 -0.005118 -407653.000000 0 0 1
-16.475654 -25.392068 9.896833 31.845747 0.995230 1.254789 -0.010493 -0.004585 237283.000000 0 0 1
-17.784854 -25.384948 9.361033 32.377856 0.959664 1.277491 -0.008469 -0.001657 -202721.000000 0 0 1
-18.002854 -26.603558 8.657133 33.268574 0.975874 1.307547 -0.004690 0.002174 482725.000000 0 0 1
-19.060654 -26.528358 7.513033 33.518771 0.947761 1.344732 -0.001138 -0.000716 307542.000000 0 0 1
-18.684954 -25.671908 6.481933 32.406633 0.941631 1.369419 -0.004584 -0.000260 141680.000000 0 0 1
-19.714654 -25.555628 5.511633 32.743485 0.913714 1.401663 -0.000421 -0.000963 447421.000000 0 0 1
-19.386154 -24.410978 4.540833 31.501397 0.899628 1.426145 -0.001318 0.002920 203400.000000 0 0 1
-20.446554 -24.355778 3.619433 32.005715 0.872433 1.457467 -0.001334 0.000097 -110793.000000 0 0 1
-20.419554 -23.124578 2.930333 30.988565 0.847440 1.476093 0.000836 0.003969 82157.400000 0 0 1
-21.113854 -23.169578 1.554533 31.385359 0.831787 1.521246 -0.002345 -0.000284 67746.300000 0 0 1
-20.516254 -23.984178 0.528933 31.566394 0.863171 1.554039 -0.006529 -0.002282 -28412.200000 0 0 1
-20.874054 -23.572578 -0.812067 31.496857 0.846038 1.596582 -0.000019 -0.002914 -651904.000000 0 0 1
-20.111954 -24.287878 -1.905167 31.591476 0.879175 1.631139 -0.003064 -0.001405 -1047080.000000 0 0 1
-18.788554 -23.762878 -1.938667 30.355273 0.901771 1.634706 -0.003922 0.003055 182236.000000 0 0 1
-18.045254 -24.345078 -3.018567 30.453666 0.932933 1.670079 -0.001905 0.000047 -368464.000000 0 0 1
-17.907854 -25.922148 -3.147167 31.663128 0.966250 1.670356 0.001486 0.006894 -617284.000000 0 0 1
-19.136954 -26.680578 -3.219667 32.991552 0.948579 1.668543 0.004580 0.006706 245218.000000 0 0 1
-19.054354 -28.070388 -3.356267 34.092222 0.974436 1.669403 0.001456 0.006562 86823.900000 0 0 1
-20.266054 -28.701578 -4.137967 35.378190 0.955991 1.688028 0.000588 0.003111 643520.000000 0 0 1
-20.465254 -28.122228 -5.405667 35.198119 0.941704 1.724985 -0.001188 0.008327 -376612.000000 0 0 1
-21.290554 -29.007168 -6.127067 36.499924 0.937630 1.739460 -0.006739 0.007740 -43980.300000 0 0 1
-21.694154 -28.393778 -7.494667 36.510450 0.918366 1.777541 -0.007406 0.013819 -250939.000000 0 0 1
-20.588354 -28.249508 -8.355167 35.940560 0.940999 1.805415 -0.004619 0.015213 22090.200000 0 0 1
-20.917254 -28.360348 -9.739267 36.560829 0.935309 1.840437 -0.004153 0.012908 -105523.000000 0 0 1
-21.758354 -27.202538 -10.373667 36.345798 0.896138 1.860237 0.000240 0.012100 -232412.000000 0 0 1
-21.111954 -25.993068 -10.687367 35.150733 0.888652 1.879731 0.003477 0.013104 2733.740000 0 0 1
-20.951254 -25.147228 -9.573067 34.102518 0.876170 1.855335 0.001022 0.012536 103323.000000 0 0 1
-20.566454 -23.684878 -9.890067 32.890210 0.855753 1.876222 0.006711 0.004899 -83520.500000 0 0 1
-21.714454 -23.012878 -10.324967 33.282353 0.814420 1.886224 -0.001248 0.003373 -80252.500000 0 0 1
-21.470854 -21.674078 -10.705867 32.332319 0.790108 1.908286 0.005662 0.001378 1043180.000000 0 0 1
-22.825154 -20.846978 -10.830867 32.755028 0.740133 1.907802 0.006364 0.004101 382179.000000 0 0 1
-23.502854 -21.152178 -12.082267 33.849372 0.732806 1.935789 0.003724 0.000352 1124440.000000 0 0 1
-24.821654 -20.602378 -12.206067 34.490007 0.692778 1.932536 0.005232 -0.003525 668561.000000 0 0 1
-24.844654 -19.095078 -12.074867 33.580966 0.655286 1.938608 0.003109 -0.003027 -1789980.000000 0 0 1
-24.169054 -18.474878 -13.134767 33.135878 0.652655 1.978379 0.006668 0.000723 331738.000000 0 0 1
-23.982254 -17.054278 -12.904967 32.133084 0.618151 1.984070 0.006769 0.001504 -330255.000000 0 0 1
-23.091954 -16.539578 -11.786567 30.752547 0.621548 1.964132 0.009261 0.004435 -538740.000000 0 0 1
-23.643654 -16.843978 -10.532167 30.881524 0.619006 1.918831 0.008308 -0.000989 271957.000000 0 0 1
-22.571054 -16.941278 -9.630967 29.819707 0.643869 1.899666 0.007999 -0.003526 87514.800000 0 0 1
-23.071954 -17.492578 -8.246567 30.105003 0.648713 1.848270 0.000144 -0.004486 340112.000000 0 0 1
-23.420254 -18.900178 -8.337967 31.228941 0.678996 1.841070 0.004237 -0.004165 402078.000000 0 0 1
-24.281054 -19.314878 -7.272667 31.867315 0.671973 1.801042 0.005591 0.001197 156091.000000 0 0 1
-24.500654 -20.799778 -7.311367 32.960111 0.703883 1.794482 0.003033 0.000839 448339.000000 0 0 1
-25.540894 -21.100778 -8.269467 34.146218 0.690488 1.815406 -0.002557 -0.002192 569639.000000 0 0 1
-25.968604 -22.455378 -8.136967 35.282044 0.712974 1.803518 0.000697 -0.001317 23402.000000 0 0 1
-25.157224 -23.521978 -8.902967 35.572914 0.751818 1.823759 -0.001367 0.004981 246696.000000 0 0 1
-25.666664 -24.821078 -8.597767 36.725811 0.768651 1.807096 -0.002543 0.004821 50294.300000 0 0 1
-24.854254 -25.838538 -9.142167 36.999233 0.804812 1.820473 -0.006319 0.009801 -10826.600000 0 0 1
-25.464634 -27.187928 -8.729567 38.260115 0.818116 1.800987 -0.003817 0.010261 126222.000000 0 0 1
-25.057054 -27.620788 -7.458767 38.031528 0.834028 1.768196 -0.001280 0.003876 -55803.700000 0 0 1
-25.710104 -28.800998 -7.153567 39.264239 0.842040 1.754010 -0.001186 0.007861 -72125.300000 0 0 1
-25.149744 -29.425808 -5.841367 39.147278 0.863590 1.720571 0.000347 0.003966 6056.470000 0 0 1
-25.512004 -28.656578 -4.702867 38.654609 0.843385 1.692762 0.000131 -0.000797 158123.000000 0 0 1
-24.664554 -28.900408 -3.602967 38.164842 0.864313 1.665343 0.000892 0.002648 17022.100000 0 0 1
-25.112454 -30.084338 -2.659967 39.278215 0.875231 1.638569 0.001958 0.005670 -228204.000000 0 0 1
-24.894254 -31.344308 -3.272667 40.160925 0.899590 1.652376 0.008905 0.003035 -91396.400000 0 0 1
-25.088194 -32.457498 -2.400467 41.093417 0.912765 1.629244 0.011894 0.000454 392313.000000 0 0 1
-24.074154 -32.726338 -1.194567 40.644866 0.936562 1.600191 0.005366 0.000207 1118340.000000 0 0 1
-22.726654 -32.903088 -1.686767 40.024483 0.966329 1.612952 0.001644 -0.003416 796670.000000 0 0 1
-21.834254 -33.050118 -0.569167 39.615261 0.986977 1.585164 0.004504 -0.003442 191248.000000 0 0 1
-20.919054 -31.851718 -0.228767 38.107625 0.989681 1.576800 0.005711 -0.002114 -351007.000000 0 0 1
-21.489354 -30.636998 0.231233 37.422874 0.959119 1.564617 0.004157 -0.001648 -382116.000000 0 0 1
-21.609454 -29.712928 -0.822167 36.749185 0.941999 1.593171 0.001597 0.002568 -279841.000000 0 0 1
-22.180354 -28.317418 -0.596267 35.974989 0.906336 1.587372 -0.003025 -0.002674 203820.000000 0 0 1
-23.563754 -28.413028 -0.242967 36.913544 0.878426 1.577378 0.007969 -0.004462 324958.000000 0 0 1
-24.107254 -27.101448 -0.052567 36.271903 0.843802 1.572246 0.007294 -0.008085 37979.300000 0 0 1
-23.721054 -26.318348 1.216333 35.451704 0.837257 1.536480 0.005809 -0.000611 -763772.000000 0 0 1
-24.147654 -26.828148 2.434433 36.177136 0.837933 1.503453 -0.009750 0.000068 -283174.000000 0 0 1
-23.495454 -26.153428 3.479433 35.329090 0.838883 1.472150 0.001668 -0.001362 -12551.300000 0 0 1
-24.330254 -25.007978 4.083933 35.128888 0.799134 1.454277 0.005428 0.000932 -142000.000000 0 0 1
-24.542854 -23.992678 3.104833 34.462157 0.774063 1.480580 0.003090 -0.000975 -9970.720000 0 0 1
-25.417244 -22.978778 3.568833 34.449922 0.735055 1.467015 0.003160 -0.000860 -33769.500000 0 0 1
-25.527634 -21.828278 2.578333 33.686520 0.707438 1.494182 -0.000351 -0.002287 146886.000000 0 0 1
-24.275954 -21.162078 2.562833 32.306712 0.716975 1.491385 -0.000718 0.000379 155679.000000 0 0 1
-24.241754 -20.020478 1.723233 31.487326 0.690316 1.516041 -0.002005 -0.000949 -775746.000000 0 0 1
-23.024654 -19.131678 1.869433 29.994176 0.693313 1.508429 0.006452 0.000929 -857350.000000 0 0 1
-21.883454 -19.747778 1.337433 29.506763 0.734143 1.525454 0.002934 0.000262 -511408.000000 0 0 1
-20.744954 -19.088878 1.843133 28.251293 0.743847 1.505509 0.000476 0.002372 -1115630.000000 0 0 1
-19.434154 -19.680878 1.447733 27.696918 0.791706 1.518502 -0.001721 -0.000028 -1287500.000000 0 0 1
-19.103054 -19.612278 0.068033 27.378327 0.798550 1.568311 0.002431 -0.002259 -87238.600000 0 0 1
-18.053654 -20.504778 -0.224667 27.320886 0.848882 1.579020 0.000228 -0.001293 4336.000000 0 0 1
-17.695154 -20.686078 -1.744967 27.277779 0.863168 1.634810 -0.001096 -0.002796 131052.000000 0 0 1
-17.140054 -19.527978 -2.380267 26.091935 0.850429 1.662149 -0.012402 -0.004891 -33406.500000 0 0 1
-16.994754 -19.831378 -3.736167 26.383028 0.862274 1.712886 0.001985 -0.004450 -268690.000000 0 0 1
-16.152754 -18.813478 -4.501367 25.201602 0.861346 1.750374 0.005113 -0.008703 -464083.000000 0 0 1
-14.788954 -19.095178 -4.325367 24.536662 0.911807 1.748004 0.006025 -0.005765 -771242.000000 0 1 0
-14.072654 -18.351978 -5.247067 23.714266 0.916617 1.793905 0.007152 -0.009930 532604.000000 0 1 0
-12.515154 -18.317178 -5.024467 22.746282 0.971403 1.793525 0.004243 -0.009842 996318.000000 0 1 0
-11.978054 -19.649478 -5.140467 23.579656 1.023358 1.790565 0.011269 -0.009073 -189078.000000 0 1 0
-10.574754 -19.685878 -5.273867 22.960246 1.077853 1.802561 0.005323 -0.005977 54851.600000 0 1 0
-9.966654 -21.062678 -5.483467 23.938233 1.128826 1.801916 0.008386 -0.003640 -244527.000000 0 1 0
-10.389354 -21.725278 -6.663267 24.986507 1.124728 1.840737 0.010796 -0.003356 -514800.000000 0 1 0
-9.493754 -22.749778 -7.033567 25.635031 1.175456 1.848734 0.013377 0.003038 -71063.000000 0 0 1
-10.067554 -23.757378 -8.054267 27.030351 1.169972 1.873363 0.010024 0.005495 -104320.000000 0 0 1
-10.299954 -23.095178 -9.290767 26.940576 1.151292 1.922888 0.011742 0.006450 -102174.000000 0 0 1
-10.435554 -23.976878 -10.332767 28.116855 1.160289 1.947109 0.007858 0.006455 -171391.000000 0 0 1
-11.056954 -23.459478 -11.651367 28.431632 1.130354 1.993034 0.014727 0.004717 62301.000000 0 0 1
-10.233154 -22.713878 -12.565167 27.901991 1.147506 2.037934 0.008839 0.009833 -111634.000000 0 0 1
-10.990354 -22.290778 -13.678367 28.368370 1.112728 2.073926 0.010492 0.006445 -351403.000000 0 0 1
-10.382954 -21.093078 -14.337167 27.536849 1.113372 2.118413 0.008724 0.004541 -329931.000000 0 0 1
-10.286154 -19.896578 -13.584367 26.195683 1.093656 2.115977 0.009639 0.009474 -196427.000000 0 0 1
-10.257554 -18.713778 -14.263867 25.668674 1.069391 2.159991 0.007884 0.012401 -685.580000 0 0 1
-9.808154 -17.497078 -13.395267 24.120133 1.059882 2.159588 0.012318 0.004321 378023.000000 0 1 0
-10.811554 -17.191478 -12.397067 23.793358 1.009404 2.118854 0.005605 0.000820 554808.000000 0 1 0
-10.471454 -16.156878 -11.489167 22.420906 0.995750 2.108810 0.003239 -0.004105 19095.000000 0 1 0
-10.262754 -14.677378 -12.036367 21.578315 0.960592 2.162528 0.010617 -0.002659 699187.000000 0 1 0
-11.445654 -14.115778 -12.629467 22.130559 0.889480 2.178130 0.014030 0.004958 437562.000000 0 1 0
-11.261754 -13.791578 -13.988767 22.643329 0.886035 2.236722 0.010971 0.002881 858075.000000 0 1 0
-12.575054 -13.192978 -14.641867 23.378856 0.809374 2.247577 0.012247 0.010252 643510.000000 0 1 0
-12.816554 -11.837078 -14.131167 22.451511 0.745690 2.251588 0.012266 0.001015 -396.069000 0 1 0
-13.802754 -11.209878 -14.937267 23.222819 0.682104 2.269486 -0.001108 -0.003718 -182239.000000 0 1 0
-14.154954 -9.794478 -14.438467 22.466950 0.605301 2.268753 -0.005907 -0.004149 -46435.200000 0 1 0
-13.135654 -8.817078 -14.590567 21.521406 0.591157 2.315775 -0.000064 -0.003765 308073.000000 0 1 0
-13.250854 -8.003978 -15.700467 22.048888 0.543381 2.363246 -0.001063 -0.005169 -217155.000000 0 1 0
-12.095954 -7.004678 -15.713567 21.030782 0.524905 2.414590 -0.000005 -0.001301 -296093.000000 0 1 0
-10.802154 -7.495678 -15.890567 20.624787 0.606624 2.450358 -0.000800 -0.003586 -513769.000000 0 1 0
-9.816854 -6.539378 -15.669567 19.612991 0.587636 2.496324 -0.003634 -0.000365 -98180.300000 0 1 0
11.450046 21.958822 15.632133 29.285781 1.090150 1.007733 0.011475 0.009135 -496806.000000 0 0 1
11.907546 21.823022 16.918033 30.070813 1.071306 0.973261 0.015525 0.012917 -152003.000000 0 0 1
12.596946 20.591522 17.037033 29.545800 1.021779 0.956197 0.011536 0.015618 -373767.000000 0 0 1
13.598546 20.533522 18.187433 30.615824 0.985850 0.934708 0.009248 0.011361 -459301.000000 0 0 1
14.663446 21.417122 17.936033 31.550135 0.970440 0.966123 0.004421 0.006697 -441467.000000 0 0 1
15.664246 21.293222 18.912933 32.503368 0.936546 0.949763 0.005307 0.003235 -56965.900000 0 0 1
17.088546 21.574122 18.399433 33.105895 0.900900 0.981501 0.002144 0.006475 -1305330.000000 0 0 1
17.358346 22.972722 18.346033 34.141398 0.923716 1.003499 0.000481 0.008953 478440.000000 0 0 1
18.565846 23.302722 17.634833 34.622172 0.898056 1.036366 -0.003099 0.007958 1138660.000000 0 0 1
19.906346 22.878522 18.311133 35.425795 0.854755 1.027586 -0.003538 0.002144 -599480.000000 0 0 1
20.103246 21.530222 18.359633 34.709755 0.819659 1.013437 -0.002753 0.005433 -655307.000000 0 0 1
21.178146 21.219122 19.184433 35.592239 0.786365 1.001540 -0.001598 -0.000424 -719209.000000 0 0 1
21.529646 19.769122 19.015033 34.869977 0.742795 0.994034 0.004434 0.001001 -193379.000000 0 0 1
21.898546 19.387622 17.673933 34.173003 0.724655 1.027232 -0.002127 0.004398 119511.000000 0 0 1
21.712646 17.966822 17.523933 33.186351 0.691275 1.014498 0.001969 0.001394 94937.200000 0 0 1
22.784146 17.059522 18.188533 33.778208 0.642698 1.002177 -0.001047 -0.000393 -488058.000000 0 0 1
23.911146 16.923322 17.400433 34.072229 0.615914 1.034806 -0.001963 0.001523 -677629.000000 0 0 1
24.883646 16.072322 17.953433 34.638723 0.573487 1.025928 -0.000137 -0.006755 228268.000000 0 0 1
26.048846 15.804322 16.920133 34.851253 0.545345 1.063866 -0.005871 0.003418 529767.000000 0 0 1
26.932346 16.929822 16.688633 35.923260 0.561188 1.087655 -0.007937 0.000144 457024.000000 0 0 1
28.097846 17.112722 17.459833 37.244865 0.547040 1.082882 -0.003795 -0.006256 15698.800000 0 0 1
29.262746 16.229022 16.948633 37.509274 0.506365 1.101956 0.000438 -0.006291 -467217.000000 0 0 1
29.406246 16.485222 15.551233 37.125876 0.510947 1.138586 0.000216 -0.006626 -124421.000000 0 0 1
29.310446 15.298222 14.823933 36.233780 0.481043 1.149308 0.006169 -0.004385 -583339.000000 0 0 1
28.567946 15.505222 13.542733 35.212854 0.497259 1.176026 -0.000718 -0.001533 -867804.000000 0 0 1
29.064846 16.288622 12.472533 35.575955 0.510811 1.212597 0.000561 0.001432 -460173.000000 0 0 1
28.351646 16.226022 11.244133 34.547506 0.519813 1.239289 -0.003265 0.002243 880765.000000 0 0 1
26.935846 16.916722 11.198633 33.721279 0.560781 1.232274 -0.005132 0.003895 405847.000000 0 0 1
26.949546 18.369822 11.156533 34.470228 0.598296 1.241204 -0.010871 0.006568 191874.000000 0 0 1
27.610146 19.148622 12.166533 35.735338 0.606374 1.223388 -0.006121 0.006839 -116169.000000 0 0 1
27.035346 19.009722 13.624133 35.747678 0.612832 1.179790 -0.005330 0.002752 184619.000000 0 0 1
25.689446 19.453622 13.694933 35.013458 0.648132 1.168934 -0.008348 0.003528 217779.000000 0 0 1
25.066146 19.317622 14.944633 34.997489 0.656597 1.129602 -0.011217 0.001683 -139405.000000 0 0 1
25.644246 20.109122 16.165233 36.377450 0.665006 1.110320 -0.011915 -0.001505 -335661.000000 0 0 1
25.459846 21.503622 16.271233 37.085881 0.701356 1.116595 -0.015516 0.000523 141098.000000 0 0 1
24.164846 21.894422 16.710433 36.640743 0.736144 1.097232 -0.016565 0.003009 28474.500000 0 0 1
23.943146 23.439622 16.765333 37.466872 0.774772 1.106861 -0.017792 0.006836 -97698.200000 0 0 1
23.803246 23.916322 15.426933 37.102227 0.787768 1.141979 -0.008730 0.006064 173890.000000 0 0 1
23.767746 25.326922 15.303033 37.954467 0.817146 1.155791 -0.009545 0.002597 -870768.000000 0 0 1
23.616146 25.807522 13.843533 37.621722 0.829708 1.193975 -0.007920 0.001970 -842322.000000 0 0 1
22.389146 25.692822 13.206333 36.548628 0.854000 1.201096 -0.005925 0.006631 -654798.000000 0 0 1
22.556446 26.187622 11.869633 36.544124 0.859756 1.239993 -0.001746 0.005891 100144.000000 0 0 1
21.853546 25.264022 10.827133 35.115169 0.857654 1.257357 0.003918 0.005773 -230538.000000 0 0 1
20.437546 25.294622 10.861633 34.285365 0.891209 1.248442 0.003586 0.006692 100067.000000 0 0 1
19.919046 23.951122 11.075033 33.061775 0.877050 1.229212 0.005019 0.006019 104028.000000 0 0 1
19.840346 22.983222 9.879633 31.929218 0.858658 1.256210 -0.000597 0.009546 -1017760.000000 0 0 1
18.758946 23.305922 9.068233 31.261748 0.893074 1.276492 -0.000954 0.010981 -359602.000000 0 0 1
19.203246 23.614622 7.790333 31.418216 0.888062 1.320227 0.003375 -0.002779 -89956.800000 0 0 1
18.114846 23.979922 6.752533 30.802289 0.923837 1.349780 0.004175 -0.004452 -653326.000000 0 0 1
17.388046 22.889422 6.313433 29.430073 0.921145 1.354593 0.007119 0.000386 1015910.000000 0 0 1
16.370346 23.089022 5.275233 28.790958 0.954049 1.386530 0.014376 -0.005724 1354170.000000 0 0 1
15.131446 24.013322 5.492533 28.909656 1.008519 1.379645 0.004428 -0.004231 -170458.000000 0 0 1
15.381146 25.410122 5.415233 30.192361 1.026477 1.390463 0.010200 -0.003260 -158257.000000 0 0 1
14.239146 26.109322 5.801033 30.300197 1.071518 1.378155 0.006115 -0.000174 -752594.000000 0 0 1
14.133246 27.572722 5.226433 31.421636 1.097135 1.403687 0.005474 0.004048 -382298.000000 0 0 1
13.937246 27.402222 3.805433 30.977571 1.100279 1.447640 -0.002951 0.002671 454909.000000 0 0 1
13.850846 28.711622 3.272333 32.045457 1.121317 1.468503 -0.003742 0.008322 -134806.000000 0 0 1
13.250946 28.849822 1.837233 31.800554 1.140229 1.512991 -0.005555 0.011302 -173050.000000 0 0 1
14.179346 28.750122 0.797833 32.066492 1.112609 1.545913 -0.004013 0.008531 -141911.000000 0 0 1
14.456746 27.394422 0.370433 30.977235 1.085215 1.558838 -0.007534 0.010102 -531888.000000 0 0 1
15.372046 27.270222 -0.794867 31.314479 1.057501 1.596182 -0.001787 0.004917 -901912.000000 0 0 1
14.863446 27.714722 -1.965767 31.510190 1.078531 1.633222 0.004506 0.000199 -350496.000000 0 0 1
15.828246 27.682122 -2.996467 32.028301 1.051381 1.664490 -0.002717 0.000158 -120469.000000 0 0 1
15.243046 28.099722 -4.349067 32.262349 1.073758 1.706011 -0.002649 0.003196 -442331.000000 0 0 1
14.422946 27.183022 -5.037567 31.181968 1.082980 1.733061 0.009601 -0.001378 -289385.000000 0 0 1
14.233446 27.665922 -6.357067 31.755417 1.095635 1.772347 0.011469 -0.003259 745829.000000 0 0 1
12.944746 27.169222 -7.121167 30.926430 1.126166 1.803143 0.020024 -0.003323 761248.000000 0 0 1
12.869546 25.831322 -7.596467 29.842733 1.108578 1.828179 0.023209 -0.000839 -1065040.000000 0 0 1
11.625746 25.537622 -8.108467 29.207453 1.143593 1.852108 0.018633 -0.000930 -842428.000000 0 0 1
11.329946 24.072722 -8.667467 27.981933 1.130899 1.885729 0.021235 0.001866 -59802.500000 0 0 1
11.887346 23.767722 -9.909667 28.362212 1.107031 1.927724 0.018821 -0.002172 1471.150000 0 0 1
11.397246 22.499522 -10.358167 27.265680 1.101918 1.960482 0.022280 0.001428 -10849.400000 0 0 1
11.851146 21.975422 -11.746667 27.592626 1.076212 2.010551 0.017439 -0.001207 -311964.000000 0 0 1
11.242946 20.791722 -12.154567 26.578808 1.075089 2.045756 0.015288 -0.000633 -449033.000000 0 0 1
11.433046 20.392522 -13.513667 27.003494 1.059814 2.094905 0.015646 0.002509 -709957.000000 0 0 1
12.828046 19.944322 -13.906867 27.490647 0.999221 2.101194 0.007223 -0.000856 3061.510000 0 0 1
13.827146 20.999022 -13.939167 28.748030 0.988492 2.077015 0.008883 -0.003145 403586.000000 0 0 1
15.043646 20.444822 -14.415567 29.190933 0.936434 2.087293 0.011741 -0.000248 339634.000000 0 0 1
16.256546 21.410022 -14.334667 30.465505 0.921372 2.060678 -0.001101 -0.000283 -14543.600000 0 0 1
16.285446 22.582822 -15.126367 31.686063 0.946021 2.068470 -0.006413 0.001924 -246953.000000 0 0 1
15.346946 23.593922 -14.807167 31.803366 0.994097 2.055092 -0.000458 0.000706 15694.200000 0 0 1
15.850746 24.930122 -15.344367 33.289739 1.004463 2.049844 -0.006933 0.001256 82102.500000 0 0 1
15.959546 25.000522 -16.780167 34.077958 1.002641 2.085647 -0.012432 0.004612 681113.000000 0 0 1
14.669446 25.156522 -17.417667 33.932556 1.042876 2.109825 -0.013722 0.010569 734715.000000 0 0 1
14.747546 25.110322 -18.945067 34.740955 1.039760 2.147572 -0.004592 0.016479 38457.800000 0 0 1
15.135446 23.850022 -19.428067 34.283451 1.005317 2.173278 -0.006674 0.018168 -139159.000000 0 0 1
15.187646 23.793222 -20.865867 35.102228 1.002677 2.207355 -0.008799 0.018825 -324342.000000 0 0 1
15.748846 22.478422 -21.461067 34.840823 0.959654 2.234419 -0.006221 0.010811 -86962.000000 0 0 1
14.888746 21.392322 -21.182667 33.585883 0.962770 2.253253 0.007400 0.004650 -33201.400000 0 0 1
15.176046 20.345022 -22.083767 33.644094 0.929902 2.286825 -0.003383 0.005081 252603.000000 0 0 1
14.139246 19.161722 -22.162067 32.530709 0.935091 2.320287 0.001363 0.003616 -72182.000000 0 0 1
13.888346 18.523222 -20.920867 31.203823 0.927436 2.305623 0.000620 0.002393 470541.000000 0 0 1
13.087846 17.307822 -21.019167 30.210226 0.923351 2.340278 0.001974 -0.001202 538407.000000 0 0 1
11.592746 17.311522 -21.403867 29.869818 0.980728 2.369671 0.002567 -0.003837 -229194.000000 0 0 1
10.721446 17.825422 -20.411867 29.143428 1.029297 2.346745 -0.000322 0.000659 -622403.000000 0 0 1
9.449246 17.992622 -20.963667 29.197569 1.087213 2.371712 0.007021 0.004888 321893.000000 0 0 1
8.300146 17.622222 -19.933467 27.870741 1.130613 2.367723 0.006288 0.004372 374112.000000 0 0 1
8.238446 16.244022 -19.576167 26.738858 1.101431 2.392232 0.000135 -0.000373 -383431.000000 0 0 1
7.081646 15.787622 -18.936267 25.651139 1.149143 2.401229 -0.000261 0.004098 -425719.000000 0 0 1
7.042646 15.973522 -17.335067 24.601967 1.155540 2.352685 -0.004942 0.001596 -80684.200000 0 1 0
6.981846 17.303822 -16.899767 25.174800 1.187289 2.306754 -0.000515 -0.004426 -15302.300000 0 0 1
6.267946 17.322522 -15.662767 24.180140 1.223615 2.275428 -0.009240 -0.005822 86933.500000 0 1 0
5.650246 18.689222 -15.350267 24.836324 1.277207 2.237065 -0.001796 -0.003099 -368613.000000 0 1 0
6.593246 19.668622 -14.962667 25.577470 1.247352 2.195669 0.001891 -0.006154 8245.550000 0 0 1
7.110946 20.405522 -16.082967 26.937199 1.235475 2.210620 0.007889 -0.003789 663909.000000 0 0 1
8.385946 21.278722 -15.818367 27.808790 1.195386 2.175874 0.006828 0.004382 551605.000000 0 0 1
8.051746 22.448622 -15.015967 28.182450 1.226415 2.132717 0.002835 0.001880 235392.000000 0 0 1
8.017346 22.282922 -13.604767 27.311099 1.225420 2.092249 -0.003334 0.002141 -136396.000000 0 0 1
7.666646 23.576122 -12.808567 27.904666 1.256395 2.047679 -0.000419 -0.002070 -704440.000000 0 0 1
6.357746 24.044522 -12.939767 28.035647 1.312297 2.050535 -0.001916 -0.000210 -584626.000000 0 0 1
6.008846 25.082922 -12.065867 28.475329 1.335668 2.008356 -0.006860 0.000607 182965.000000 0 0 1
5.459346 24.594622 -10.699467 27.371125 1.352365 1.972409 -0.010420 -0.002986 -307849.000000 0 0 1
6.553946 24.122522 -9.925167 26.895338 1.305506 1.948761 -0.013282 0.000945 390801.000000 0 0 1
6.011746 23.593922 -8.738467 25.868418 1.321305 1.915380 -0.014261 0.000113 -247202.000000 0 0 1
6.961646 23.430622 -7.567767 25.587685 1.281986 1.871045 -0.014508 0.000040 -371650.000000 0 0 1
7.240746 24.645322 -6.887767 26.594391 1.285039 1.832776 -0.011220 0.002780 -424255.000000 0 0 1
8.203446 24.544322 -5.920167 26.547479 1.248239 1.795690 -0.000629 0.004686 -622443.000000 0 0 1
8.373246 25.877622 -5.166067 27.684848 1.257858 1.758499 0.001356 0.006748 103695.000000 0 0 1
8.837446 26.935022 -5.993567 28.974449 1.253761 1.779158 0.011418 0.006902 108605.000000 0 0 1
8.982846 28.193122 -5.349267 30.069225 1.262347 1.749647 0.009528 0.002999 130540.000000 0 0 1
9.117346 29.302122 -6.404767 31.349025 1.269142 1.776550 0.010524 0.002362 -200807.000000 0 0 1
10.316146 29.388122 -7.132167 31.952345 1.233203 1.795905 0.013891 -0.002555 -211001.000000 0 0 1
10.234846 30.475922 -8.051467 33.141515 1.246797 1.816194 0.012781 -0.005021 776531.000000 0 0 1
11.615846 30.712322 -8.763567 33.984919 1.209210 1.831610 0.003999 -0.008063 1302230.000000 0 0 1
12.699246 31.061922 -7.884567 34.471441 1.182696 1.801567 0.008969 -0.007382 -373912.000000 0 0 1
13.864146 31.111922 -8.643467 35.140799 1.151589 1.819313 -0.000762 -0.005872 -429516.000000 0 0 1
15.150846 31.450622 -7.874267 35.786783 1.121868 1.792644 -0.006044 0.000130 -14511.300000 0 0 1
15.724646 30.358222 -7.186767 34.936167 1.092876 1.777987 -0.000490 -0.007588 -628191.000000 0 0 1
16.980046 30.747222 -6.715367 35.760450 1.066230 1.759705 -0.007642 0.001374 273487.000000 0 0 1
18.114446 29.661222 -6.651367 35.385900 1.022538 1.759888 -0.009011 0.000036 260852.000000 0 0 1
17.951946 28.830322 -5.552667 34.413543 1.013870 1.732856 -0.004874 0.001338 -28451.000000 0 0 1
18.919646 27.786322 -5.424567 34.050824 0.973006 1.730786 -0.009126 0.003457 -378265.000000 0 0 1
18.739846 26.565822 -6.356767 33.126020 0.956447 1.763891 -0.010737 0.008168 -324863.000000 0 0 1
19.088346 26.904122 -7.675667 33.869050 0.953726 1.799410 -0.009944 0.009178 276668.000000 0 0 1
18.941846 25.858022 -8.603767 33.188185 0.938568 1.833033 -0.006929 0.008970 -1234690.000000 0 0 1
19.358246 26.229022 -10.037067 34.109324 0.934989 1.869479 -0.009575 0.004185 -1150310.000000 0 0 1
20.710446 26.402122 -10.202067 35.072450 0.905626 1.865949 -0.008011 0.003863 -918411.000000 0 0 1
21.440146 25.161222 -10.205867 34.596628 0.865078 1.870248 -0.012719 0.007125 97318.000000 0 0 1
22.979146 25.336622 -9.896167 35.607860 0.834153 1.852425 -0.002046 0.005099 879239.000000 0 0 1
23.672046 25.753422 -11.065367 36.688511 0.827485 1.877170 -0.000394 0.001198 -552616.000000 0 0 1
25.032246 25.640022 -10.769467 37.416647 0.797392 1.862752 0.000669 0.005948 -429978.000000 0 0 1
26.045546 25.933722 -11.882867 38.628110 0.783247 1.883489 0.004402 0.003358 -343816.000000 0 0 1
25.875046 27.214922 -12.418367 39.552317 0.810631 1.890171 0.010492 0.001588 -218887.000000 0 0 1
26.609146 27.344322 -13.605267 40.507553 0.799023 1.913325 0.006570 0.000404 -96188.400000 0 0 1
26.091846 28.399522 -14.627767 41.246683 0.827722 1.933326 0.004039 -0.002483 -226865.000000 0 0 1
26.511046 29.717022 -14.326267 42.322321 0.842354 1.916123 0.009774 -0.006158 -20722.200000 0 0 1
26.346946 30.619222 -15.442867 43.245583 0.860255 1.935954 0.009777 -0.002852 -272327.000000 0 0 1
27.006646 32.005522 -15.241667 44.564793 0.869906 1.919853 0.007093 -0.001301 -714621.000000 0 0 1
28.364346 32.017022 -14.977167 45.320429 0.845818 1.907601 0.008132 -0.002177 -891284.000000 0 0 1
28.896846 33.295022 -15.157067 46.618911 0.856000 1.901942 0.010033 0.001302 -212357.000000 0 0 1
14.102046 -33.085489 -28.938987 46.162563 -1.167884 2.248355 0.002013 -0.003960 190149.000000 0 0 1
15.089846 -33.587189 -28.061827 46.295452 -1.148546 2.222003 -0.000097 0.000142 -25481.800000 0 0 1
15.411646 -32.696889 -27.056837 45.151720 -1.130331 2.213351 -0.002154 -0.001031 -1321310.000000 0 0 1
16.536146 -33.268789 -26.193487 45.457180 -1.109514 2.184896 -0.006297 -0.003793 -631300.000000 0 0 1
17.828146 -33.057089 -26.672577 46.065609 -1.076194 2.188314 -0.000107 -0.006631 -283035.000000 0 0 1
18.204146 -33.837989 -27.815147 47.435038 -1.077229 2.197384 -0.005357 -0.004212 -323238.000000 0 0 1
19.737046 -33.713989 -28.128887 48.139571 -1.041162 2.194838 -0.001259 -0.005561 613279.000000 0 0 1
20.119346 -32.489389 -28.584997 47.722642 -1.016336 2.213025 -0.008256 -0.002254 -588187.000000 0 0 1
21.505446 -32.399189 -28.406597 48.157309 -0.984805 2.201695 -0.005636 0.000157 -413161.000000 0 0 1
22.125846 -31.050889 -28.810407 47.788600 -0.951686 2.217892 -0.000986 -0.000826 -276815.000000 0 0 1
22.334146 -31.007989 -30.200357 48.706992 -0.946595 2.239592 -0.002702 0.001495 15460.400000 0 0 1
23.115946 -29.880789 -30.548677 48.584259 -0.912358 2.250776 -0.002775 -0.003507 132717.000000 0 0 1
23.499146 -29.896489 -32.019587 49.711808 -0.904640 2.270648 -0.001302 -0.004712 -124770.000000 0 0 1
24.542946 -30.769589 -32.324697 50.931423 -0.897498 2.258379 0.005104 -0.002730 -564868.000000 0 0 1
24.731146 -30.789689 -33.713517 51.925290 -0.894090 2.277420 -0.000548 -0.006256 -526465.000000 0 0 1
25.767346 -31.808089 -34.212877 53.350085 -0.889934 2.266975 -0.000200 -0.002029 -379310.000000 0 0 1
26.946346 -31.034989 -34.199467 53.468492 -0.855798 2.264799 0.003854 -0.004229 -949129.000000 0 0 1
28.048946 -31.773089 -34.665043 54.753427 -0.847572 2.256363 0.007430 -0.001060 132790.000000 0 0 1
29.383446 -31.001489 -34.607188 54.973964 -0.812187 2.251731 0.004925 -0.002215 -136150.000000 0 0 1
29.344046 -29.967789 33.848580 53.896825 -0.795914 0.891783 0.001716 -0.003694 -409976.000000 0 0 1
30.614746 -29.470489 33.548680 54.141355 -0.766357 0.902500 -0.004965 -0.001744 -634866.000000 0 0 1
30.732146 -28.282189 32.525373 52.936253 -0.743907 0.909139 -0.003045 -0.004619 -858595.000000 0 0 1
31.977446 -28.099889 31.961053 53.232225 -0.720945 0.926785 -0.020835 -0.003933 -630303.000000 0 0 1
31.946346 -26.921689 31.151143 52.112763 -0.700250 0.930087 -0.004121 -0.003266 -307439.000000 0 0 1
32.657446 -27.085389 29.809973 51.853270 -0.692400 0.958326 -0.005996 0.000185 -296449.000000 0 0 1
32.193646 -28.103889 28.892923 51.585467 -0.717676 0.976292 -0.004317 -0.003752 692051.000000 0 0 1
30.889446 -27.878489 28.340253 50.344195 -0.734208 0.972870 -0.003117 -0.005458 519077.000000 0 0 1
30.521846 -28.901389 27.202243 50.068307 -0.758135 0.996430 -0.005648 -0.009326 -638349.000000 0 0 1
29.329346 -28.558289 26.599873 48.819460 -0.772079 0.994572 0.001236 -0.010143 -602312.000000 0 0 1
28.726046 -29.498189 25.682713 48.527627 -0.798659 1.013093 0.006209 -0.008414 582295.000000 0 0 1
27.366046 -28.938289 25.182873 47.122204 -0.813315 1.006979 0.009083 -0.005604 854173.000000 0 0 1
26.298546 -28.860089 26.152863 46.994580 -0.831804 0.980619 0.009696 -0.007300 215659.000000 0 0 1
25.085246 -28.745289 25.464453 45.869375 -0.853286 0.982251 0.003078 -0.002833 47779.000000 0 0 1
23.797546 -28.867889 26.306993 45.735502 -0.881377 0.957950 0.003808 -0.003031 117733.000000 0 0 1
23.814546 -27.797989 27.235753 45.625070 -0.862425 0.931106 0.004679 -0.006323 127864.000000 0 0 1
22.587146 -27.669189 27.928163 45.340330 -0.886178 0.907183 0.004712 -0.009788 -5163.770000 0 0 1
22.541246 -26.416689 28.880163 45.166504 -0.864392 0.877058 0.001998 -0.004725 -487407.000000 0 0 1
21.404246 -26.478189 29.703823 45.183552 -0.890971 0.853429 0.003100 -0.004029 -80840.900000 0 0 1
21.309146 -25.420389 30.654073 45.165784 -0.873152 0.824804 0.002525 -0.005979 13538.000000 0 0 1
20.798846 -24.010689 30.131543 43.783731 -0.856953 0.811804 0.001145 -0.008848 -528676.000000 0 0 1
21.662646 -23.547189 29.129063 43.269419 -0.827058 0.832266 -0.002556 -0.007690 -14069.400000 0 0 1
21.584946 -22.172389 28.721063 42.218766 -0.798822 0.822636 0.002462 -0.005232 -187802.000000 0 0 1
22.175246 -21.092989 29.673143 42.628056 -0.760391 0.800853 0.000787 -0.006836 63197.700000 0 0 1
21.574546 -21.062989 30.974693 43.226637 -0.773401 0.771931 -0.000417 -0.003134 136201.000000 0 0 1
22.213546 -20.025589 31.658343 43.551309 -0.733645 0.756969 0.000088 0.001019 -106166.000000 0 0 1
21.712446 -19.727589 33.105623 44.233363 -0.737538 0.725103 0.001015 -0.001740 -250824.000000 0 0 1
22.097046 -20.700389 34.060957 45.573395 -0.752776 0.726676 0.005069 -0.001682 33784.800000 0 0 1
21.453646 -20.403489 -34.148116 45.195742 -0.760314 2.427306 0.000965 -0.002899 -369789.000000 0 0 1
21.400346 -21.488089 -33.093087 44.887250 -0.787444 2.399786 -0.001147 0.000654 -59647.800000 0 0 1
22.615446 -21.707989 -32.392367 45.077274 -0.764928 2.372578 -0.002608 0.001129 293749.000000 0 0 1
22.313746 -22.653989 -31.368887 44.666694 -0.792964 2.349403 -0.001553 -0.003703 104073.000000 0 0 1
23.575146 -22.963689 -30.547297 44.902738 -0.772260 2.318967 0.002192 -0.001913 -51975.300000 0 0 1
24.573746 -23.620489 -31.283507 46.265044 -0.765621 2.313362 0.005822 -0.002017 -455136.000000 0 0 1
25.643646 -23.961289 -30.436327 46.455462 -0.751496 2.285207 0.004848 -0.003583 78746.500000 0 0 1
26.751846 -24.859289 -31.045207 47.931726 -0.748745 2.275353 0.003315 -0.002981 165030.000000 0 0 1
27.695846 -24.215489 -31.904557 48.696515 -0.718454 2.285206 0.000019 -0.002830 216756.000000 0 0 1
27.342946 -24.186589 -33.275167 49.394985 -0.724221 2.309939 0.001662 -0.000627 -70227.600000 0 0 1
27.559446 -25.511489 -34.078772 50.712147 -0.746828 2.307708 0.001179 0.001180 -155876.000000 0 0 1
26.739246 -26.569689 -33.632457 50.518094 -0.782218 2.299296 0.008713 -0.000931 -115863.000000 0 0 1
26.800046 -27.769089 -34.401133 51.699156 -0.803154 2.298839 0.011103 -0.000909 57078.700000 0 0 1
26.268746 -27.714689 33.558530 50.836266 -0.812177 0.849805 0.011156 -0.003670 172791.000000 0 0 1
27.138446 -26.995589 32.681443 50.332234 -0.782759 0.864114 0.004849 -0.005189 147999.000000 0 0 1
26.685646 -27.046589 31.334513 49.249298 -0.792116 0.881178 0.005917 -0.001542 -482068.000000 0 0 1
27.618146 -26.428989 30.264853 48.756690 -0.763399 0.901120 0.005790 -0.001513 -83642.300000 0 0 1
27.885246 -25.042689 30.234023 48.154121 -0.731744 0.891996 -0.003356 -0.005294 189051.000000 0 0 1
28.549246 -24.554589 31.403073 49.032033 -0.710316 0.875699 0.004806 -0.000734 -705153.000000 0 0 1
29.009146 -23.007289 31.434443 48.569436 -0.670522 0.866882 0.004987 0.001743 1557760.000000 0 0 1
30.311246 -22.647089 30.893643 48.847512 -0.641675 0.886083 0.001756 0.001092 1606380.000000 0 0 1
31.411546 -23.005389 31.753703 50.241724 -0.632133 0.886641 -0.004057 0.002189 738633.000000 0 0 1
32.800846 -22.543289 31.210663 50.578660 -0.602136 0.905780 -0.006890 0.001000 377692.000000 0 0 1
33.156046 -23.016089 29.932193 50.249377 -0.606806 0.932693 -0.007788 -0.000370 541265.000000 0 0 1
34.351446 -22.424889 29.414533 50.478830 -0.578346 0.948737 -0.017546 -0.001964 362683.000000 0 0 1
34.754446 -22.919489 28.019273 50.182210 -0.583003 0.978400 -0.005628 -0.001599 -60905.600000 0 0 1
-34.315783 -24.252989 27.923283 50.452851 0.615248 0.984292 -0.008417 -0.003393 210218.000000 0 0 1
-34.016383 -24.637389 26.594643 49.713080 0.626836 1.006333 -0.005005 -0.003827 -265959.000000 0 0 1
-33.923083 -26.183889 26.338923 50.300204 0.657346 1.019685 -0.010020 -0.003570 -213600.000000 0 0 1
34.341946 -26.773289 26.533243 50.992070 -0.662183 1.023547 -0.003159 -0.005244 -125307.000000 0 0 1
34.265346 -28.143089 26.215653 51.511240 -0.687611 1.036854 -0.003885 -0.002394 17882.700000 0 0 1
-34.447683 -29.089689 27.142833 52.626859 0.701269 1.028902 -0.006143 -0.001435 -855567.000000 0 0 1
-34.252083 -30.335089 26.476263 52.862230 0.724826 1.046211 -0.001874 -0.002340 732300.000000 0 0 1
-33.159683 -31.057389 27.062923 52.882207 0.752673 1.033566 0.002343 -0.001160 -73166.400000 0 0 1
-31.737783 -30.538089 26.994673 51.658244 0.766136 1.020942 0.010283 0.002858 -1650790.000000 0 0 1
-31.262483 -30.527989 25.684843 50.685423 0.773512 1.039386 0.008816 0.004095 -594128.000000 0 0 1
-29.963483 -30.036989 25.643373 49.574324 0.786623 1.027137 0.003289 0.003540 -627421.000000 0 0 1
-29.298683 -29.965989 24.255933 48.422346 0.796657 1.046130 -0.000149 0.005227 -207470.000000 0 0 1
-29.205483 -31.183089 23.521933 48.771166 0.818134 1.067527 -0.001158 0.005794 342171.000000 0 0 1
-28.777183 -30.847089 22.247833 47.693136 0.820100 1.085491 -0.007370 0.006796 -606362.000000 0 0 1
-28.829983 -32.116989 21.300733 48.128891 0.839278 1.112326 -0.007434 0.010372 -147211.000000 0 0 1
-27.999283 -33.218089 21.597133 48.516363 0.870443 1.109453 -0.009941 0.003385 133414.000000 0 0 1
-26.624783 -33.001389 21.327133 47.463853 0.891936 1.104776 -0.006038 0.004273 -162022.000000 0 0 1
-25.863783 -34.335489 21.304833 47.976630 0.925208 1.110664 -0.006813 0.004773 -617089.000000 0 0 1
-26.132683 34.197922 20.260133 47.569822 -0.918294 1.130837 -0.015786 0.003073 91542.700000 0 0 1
-27.312183 33.421322 20.402133 47.740833 -0.885650 1.129235 -0.011411 0.002550 90421.500000 0 0 1
-27.227483 32.325922 21.484033 47.411652 -0.870801 1.100514 -0.009453 0.006872 4439.920000 0 0 1
-26.358783 31.305122 21.002833 45.999077 -0.870967 1.096635 -0.012390 0.008419 119634.000000 0 0 1
-26.383483 30.203722 21.896233 45.692429 -0.852807 1.071043 -0.009217 0.008442 52925.100000 0 0 1
-25.341083 29.105622 21.600933 44.225649 -0.854430 1.060512 -0.004504 0.013972 812131.000000 0 0 1
-23.968683 29.448222 21.834133 43.799828 -0.887621 1.048931 -0.011557 0.014042 470263.000000 0 0 1
-23.086483 28.429522 21.451833 42.442957 -0.888745 1.040919 -0.007381 0.012891 -29057.100000 0 0 1
-21.613083 28.834722 21.675333 42.052189 -0.927583 1.029277 -0.004752 0.014671 -82935.400000 0 0 1
-21.374983 28.953022 23.081433 42.754180 -0.934848 1.000521 -0.006184 0.014527 132623.000000 0 0 1
-20.117283 29.542522 23.329233 42.681598 -0.972963 0.992512 0.011940 0.013870 -35122.800000 0 0 1
-19.721983 29.597622 24.806463 43.362847 -0.983022 0.961772 0.008741 0.014238 -700909.000000 0 0 1
-19.469283 28.288922 25.200753 42.595705 -0.968013 0.937721 0.013238 0.007369 260777.000000 0 0 1
-19.008183 28.144622 26.540143 43.102320 -0.976789 0.907462 0.006878 -0.003454 -336689.000000 0 0 1
-17.578283 28.524722 26.911033 42.975103 -1.018516 0.894126 0.009298 -0.004415 -903028.000000 0 0 1
-17.290883 29.906322 26.701893 43.661812 -1.046584 0.912763 0.008182 -0.006643 -451735.000000 0 0 1
-16.036283 30.339422 27.163663 43.766511 -1.084561 0.901226 0.006024 -0.006787 -369786.000000 0 0 1
-15.833283 30.653022 28.709783 44.883764 -1.094010 0.876757 -0.000497 0.000928 -793630.000000 0 0 1
-15.854183 29.478822 29.436563 44.574290 -1.077355 0.849454 -0.004428 0.001794 111528.000000 0 0 1
-15.902783 29.697722 30.831873 45.666811 -1.079163 0.829631 -0.002859 0.000917 -295472.000000 0 0 1
-15.942683 28.444322 31.652303 45.443557 -1.059937 0.800262 -0.010057 0.000612 -683127.000000 0 0 1
-14.715083 27.788522 31.710033 44.657159 -1.083798 0.781188 -0.002654 -0.000463 -500686.000000 0 0 1
-14.651883 26.484422 32.270813 44.243730 -1.065479 0.753370 -0.000844 -0.001302 -259834.000000 0 0 1
-14.692083 26.323522 33.847976 45.326268 -1.061729 0.727615 0.002065 -0.000290 -679706.000000 0 0 1
-16.015783 26.203422 34.283832 46.027228 -1.022175 0.730472 0.007278 0.000370 -641822.000000 0 0 1
-16.372583 27.126122 -34.108263 46.553857 -1.027754 2.393022 0.001598 0.000886 -6189.850000 0 0 1
-17.680083 26.664422 -33.448707 46.285989 -0.985296 2.378429 -0.000546 -0.001371 -830030.000000 0 0 1
-18.801883 26.871622 -34.208631 47.390140 -0.960276 2.377270 -0.001590 -0.000816 -848037.000000 0 0 1
-19.958283 26.261022 -33.646267 47.117360 -0.920928 2.366127 0.008009 -0.003584 -717.760000 0 0 1
-21.185183 26.446222 -34.550767 48.393906 -0.895405 2.365918 0.006300 -0.009902 -526167.000000 0 0 1
-21.319183 25.686122 33.652685 47.400292 -0.878035 0.781344 0.005106 -0.005766 -46687.400000 0 0 1
-21.594183 24.314922 33.867646 46.952547 -0.844593 0.765095 0.002323 -0.005736 -323406.000000 0 0 1
-21.804783 23.512522 32.561343 45.700419 -0.823064 0.777748 -0.005158 -0.004163 646713.000000 0 0 1
-23.108983 23.872722 32.082613 46.186860 -0.801653 0.802896 -0.005430 -0.004267 424890.000000 0 0 1
-23.359283 23.307722 30.766813 45.116547 -0.784293 0.820383 -0.002121 -0.005605 138511.000000 0 0 1
-24.828683 22.958222 30.486203 45.529683 -0.746276 0.837140 -0.004751 -0.007345 -119393.000000 0 0 1
-25.278583 21.766422 31.116683 45.618328 -0.710881 0.820153 -0.001533 -0.007268 14040.700000 0 0 1
-26.601483 21.446422 30.701813 45.936796 -0.678517 0.838809 0.000004 -0.008697 207919.000000 0 0 1
-26.980983 20.005322 30.957413 45.678746 -0.638013 0.826138 0.003214 -0.006414 -315192.000000 0 0 1
-27.186083 19.805922 32.389133 46.694899 -0.629619 0.804276 0.006985 -0.002609 -55000.800000 0 0 1
-27.201383 18.434322 32.877913 46.483294 -0.595601 0.785116 0.006011 0.003430 -62971.600000 0 0 1
-28.191183 17.435422 32.230673 46.233679 -0.553890 0.799416 0.001824 0.001840 1090120.000000 0 0 1
-29.610783 17.602822 32.453123 47.327191 -0.536346 0.815206 0.003456 -0.002935 1257740.000000 0 0 1
-30.276783 16.432222 31.934413 46.973485 -0.497247 0.823253 0.000277 0.002146 -554418.000000 0 0 1
-31.788783 16.600622 31.908843 48.002934 -0.481262 0.843668 -0.005964 0.001904 -838295.000000 0 0 1
-32.244283 16.627022 33.224873 49.193941 -0.476095 0.829309 -0.004722 0.003625 -226078.000000 0 0 1
-33.616283 16.923322 33.243893 50.215633 -0.466385 0.847282 0.003516 -0.000982 -415663.000000 0 0 1
-34.029583 17.293022 34.685706 51.576733 -0.470167 0.833206 0.009260 0.007471 -444160.000000 0 0 1
34.121746 17.544622 -34.605355 51.668539 0.474925 2.304678 0.006830 -0.000870 -567779.000000 0 0 1
33.868946 17.723722 -33.260167 50.670253 0.482116 2.286839 0.006303 -0.002402 -141710.000000 0 0 1
32.374446 17.916422 -32.969257 49.558802 0.505459 2.298632 0.001410 -0.000913 91754.500000 0 0 1
31.617246 16.690522 -33.036797 48.679089 0.485712 2.316740 -0.000668 0.002016 -664176.000000 0 0 1
30.375046 16.914622 -32.468997 47.570827 0.508094 2.322029 -0.001519 0.002871 -1020060.000000 0 0 1
29.570546 15.594522 -32.587277 46.685511 0.485301 2.343421 -0.003842 0.003345 -255423.000000 0 0 1
28.956446 15.513922 -33.899277 47.205069 0.491851 2.371905 -0.001166 -0.007012 -304595.000000 0 0 1
28.216346 14.344822 -34.108620 46.533150 0.470335 2.393512 -0.001533 -0.008944 -1131900.000000 0 0 1
28.845446 12.939622 -34.245971 46.607726 0.421676 2.396124 -0.007336 -0.005149 -384348.000000 0 0 1
29.355446 12.412022 -33.034717 45.903083 0.400021 2.374112 -0.007133 0.001610 -78558.800000 0 0 1
30.208346 11.358722 -33.337677 46.400059 0.359658 2.372416 -0.001214 0.001430 -556237.000000 0 0 1
16.791746 -21.807178 10.188293 29.348204 -0.914611 1.216264 -0.001736 -0.006087 32681.600000 0 0 1
16.454546 -22.967478 10.885993 30.278077 -0.949130 1.203028 -0.000395 -0.004969 1313900.000000 0 0 1
17.656346 -23.774878 11.142893 31.641040 -0.932018 1.210912 -0.001803 -0.002790 886817.000000 0 0 1
17.346746 -25.044678 11.956193 32.727604 -0.965032 1.196815 0.005510 -0.003308 107762.000000 0 0 1
16.563546 -26.025398 11.320693 32.860774 -1.004014 1.219085 0.005211 -0.000760 -532711.000000 0 0 1
15.188546 -25.810038 11.294593 32.006528 -1.038895 1.210145 0.017367 -0.001584 -1125340.000000 0 0 1
14.441346 -26.741088 10.393693 32.119575 -1.075630 1.241271 0.022095 0.004008 -411979.000000 0 0 1
14.432846 -26.383208 9.036593 31.401285 -1.070223 1.278891 0.021391 -0.001349 -257194.000000 0 0 1
13.636946 -27.203048 8.247393 31.527632 -1.106108 1.306125 0.017407 -0.000768 -301194.000000 0 0 1
13.281146 -26.518208 6.854193 30.439845 -1.106484 1.343677 0.011792 -0.003994 -181352.000000 0 0 1
12.654046 -25.265348 7.049993 29.123274 -1.106472 1.326293 0.014198 -0.008263 -116758.000000 0 0 1
12.335446 -24.756578 5.765193 28.254006 -1.108534 1.365304 0.012441 -0.000246 -202119.000000 0 0 1
11.546846 -23.453978 5.917193 26.803580 -1.113312 1.348201 0.015302 0.004768 -172292.000000 0 0 1
11.137846 -22.818478 4.692493 25.821581 -1.116709 1.388053 0.018746 0.002123 384930.000000 0 0 1
10.279746 -21.674078 4.894993 24.482643 -1.127929 1.369502 0.011636 0.004246 400722.000000 0 1 0
9.683246 -21.100378 3.583593 23.491133 -1.140555 1.417647 0.006933 0.004167 157066.000000 0 1 0
10.608446 -20.501178 2.696193 23.240200 -1.093282 1.454520 0.008951 0.003399 -81903.000000 0 1 0
9.911846 -19.972978 1.576093 22.352821 -1.110143 1.500228 0.009007 0.015257 281564.000000 0 1 0
10.848946 -19.407378 0.491993 22.239335 -1.061061 1.548672 0.013472 0.009089 -233292.000000 0 1 0
11.648246 -18.320178 0.849693 21.726310 -1.004458 1.531677 0.009468 0.012920 -393061.000000 0 1 0
12.214646 -17.746278 -0.307507 21.545824 -0.967970 1.585069 0.010648 0.004479 623518.000000 0 1 0
13.518446 -16.890578 -0.065707 21.634332 -0.895839 1.573834 0.011537 0.008611 1344160.000000 0 1 0
14.670046 -17.640878 0.345493 22.946246 -0.877086 1.555739 0.014181 0.008132 788926.000000 0 1 0
15.911746 -16.991178 0.123393 23.278725 -0.818193 1.565496 0.011741 0.003833 125858.000000 0 1 0
17.073046 -17.602978 0.891893 24.538729 -0.800679 1.534442 0.015109 0.002290 -436736.000000 0 1 0
17.436046 -18.833178 0.343593 25.667535 -0.823900 1.557410 0.005448 0.002236 428326.000000 0 0 1
18.617946 -19.360778 0.961693 26.877360 -0.804955 1.535008 0.001491 0.003457 629553.000000 0 0 1
18.773046 -20.829578 0.469893 28.044953 -0.837281 1.554041 -0.004802 0.002358 259051.000000 0 0 1
17.909746 -21.747078 1.157993 28.196371 -0.881861 1.529716 0.001177 -0.002897 384289.000000 0 0 1
17.931346 -22.902878 0.355493 29.089541 -0.906551 1.558575 0.000491 -0.005149 -219261.000000 0 0 1
16.711146 -23.749378 0.751993 29.049283 -0.957628 1.544907 0.000477 -0.010086 -402036.000000 0 0 1
16.753246 -24.491978 1.987693 29.740194 -0.970869 1.503911 0.000395 -0.010804 -603507.000000 0 0 1
15.617046 -25.272468 2.135393 29.785058 -1.017285 1.499041 0.001831 -0.011627 -1403990.000000 0 0 1
15.589246 -26.217738 3.341893 30.684893 -1.034352 1.461670 0.005996 -0.007902 -42476.100000 0 0 1
16.572346 -27.206828 3.582693 32.057602 -1.023695 1.458804 0.005911 -0.007915 -538263.000000 0 0 1
17.816146 -26.638978 3.867093 32.280096 -0.981318 1.450710 0.004921 -0.003483 -2240990.000000 0 0 1
18.889946 -27.647498 3.946493 33.716302 -0.971406 1.453477 0.007551 0.000311 -1163360.000000 0 0 1
19.287846 -28.012288 2.634293 34.112297 -0.967797 1.493495 0.002925 -0.003381 386341.000000 0 0 1
20.291946 -29.055018 2.616493 35.535942 -0.961147 1.497100 0.013309 -0.002053 330634.000000 0 0 1
19.766746 -30.523098 2.789793 36.471451 -0.996110 1.494229 0.012796 0.004396 768.513000 0 0 1
19.598346 -30.812728 4.163593 36.753978 -1.004292 1.457270 0.016773 -0.001058 -169643.000000 0 0 1
19.457146 -32.257998 4.306193 37.917045 -1.028047 1.456982 0.008318 0.003084 -215786.000000 0 0 1
19.077746 -32.596228 5.738693 38.202187 -1.041275 1.420007 0.008540 -0.000095 -421617.000000 0 0 1
19.803646 -33.643728 6.299493 39.544512 -1.038780 1.410813 0.007860 0.000684 4322.060000 0 0 1
19.126246 -34.068318 7.461893 39.776167 -1.059236 1.382081 0.004443 0.000676 280027.000000 0 0 1
19.984246 34.650610 8.547893 40.903561 1.047659 1.360268 0.006409 -0.005644 150205.000000 0 0 1
20.879346 -34.045418 9.299293 41.006273 -1.020670 1.342029 0.001764 -0.004070 -7674.750000 0 0 1
21.959446 34.649936 9.796393 42.175877 1.005929 1.336381 0.003827 -0.009164 22441.000000 0 0 1
23.068246 -33.969108 10.417493 42.362347 -0.974239 1.322334 0.004477 -0.005483 -548618.000000 0 0 1
23.763646 -33.196148 9.483793 41.912259 -0.949508 1.342542 -0.003953 -0.005157 -163769.000000 0 0 1
24.706846 -32.400488 10.168993 41.995575 -0.919314 1.326221 -0.006599 -0.004886 112712.000000 0 0 1
25.389746 -31.356278 9.233793 41.389833 -0.890158 1.345810 -0.007396 -0.004533 -588021.000000 0 0 1
24.585846 -30.284138 8.931393 40.017029 -0.888878 1.345711 -0.005303 -0.002216 -701239.000000 0 0 1
25.246946 -29.347558 8.168893 39.565367 -0.860368 1.362835 -0.003302 -0.000373 -734361.000000 0 0 1
24.757046 -27.959368 8.505693 38.301232 -0.846070 1.346856 -0.002902 0.000832 -329440.000000 0 0 1
25.330246 -27.474688 9.664793 38.599068 -0.825987 1.317714 -0.002795 -0.007514 -283105.000000 0 0 1
24.939346 -26.155778 9.980093 37.492639 -0.809201 1.301360 -0.002366 -0.005559 -41027.500000 0 0 1
25.886246 -25.553078 11.038093 38.011801 -0.778921 1.276166 -0.002822 -0.001308 5268.100000 0 0 1
27.180646 -25.284638 10.576393 38.600007 -0.749276 1.293247 -0.002535 0.002827 -783982.000000 0 0 1
27.900846 -24.448278 11.435893 38.819520 -0.719541 1.271769 0.000978 0.001563 -826443.000000 0 0 1
29.171746 -24.016378 10.755093 39.286756 -0.688773 1.293497 -0.001838 0.000478 -630409.000000 0 0 1
28.977846 -23.183078 9.657893 38.346389 -0.674758 1.316195 0.000438 -0.003316 317363.000000 0 0 1
30.256546 -22.974978 9.047893 39.053458 -0.649451 1.336992 -0.004216 -0.002201 434999.000000 0 0 1
30.167546 -22.058778 7.815293 38.180483 -0.631366 1.364646 -0.002369 -0.002244 -381666.000000 0 0 1
29.894746 -20.665978 8.034693 37.220086 -0.604857 1.353214 -0.001546 -0.000016 -244104.000000 0 0 1
30.116346 -19.863878 6.857893 36.723271 -0.583074 1.382948 -0.005865 -0.000009 -218483.000000 0 0 1
29.850646 -18.343678 6.980693 35.725084 -0.551024 1.374131 -0.005306 -0.000756 -67531.700000 0 0 1
30.665546 -17.795078 7.998093 36.345701 -0.525805 1.348924 -0.003018 0.002037 109834.000000 0 0 1
30.406246 -16.378278 8.075393 35.468292 -0.494086 1.341103 -0.002076 0.002708 157237.000000 0 0 1
31.000746 -15.709078 9.326493 35.983397 -0.469019 1.308614 0.002463 0.000259 3118.540000 0 0 1
32.403646 -15.745478 9.476493 37.252118 -0.452318 1.313581 -0.000425 -0.000342 -73335.700000 0 0 1
32.725446 -15.021378 10.642993 37.548234 -0.430323 1.283408 0.006977 0.001003 -975452.000000 0 0 1
34.175146 -14.634878 10.744693 38.698432 -0.404605 1.289447 0.008031 0.008268 -1033030.000000 0 0 1
34.706146 -13.706978 9.846593 38.592139 -0.376140 1.312799 0.005926 0.006837 1011520.000000 0 0 1
-33.634083 -14.310378 9.254193 37.705153 0.402271 1.322827 0.010237 0.007149 941547.000000 0 0 1
-32.875383 -13.504878 8.193193 36.473291 0.389773 1.344227 0.007308 0.001648 -630377.000000 0 0 1
-33.524683 -13.334178 6.970093 36.746250 0.378558 1.379958 0.007534 -0.004437 -366643.000000 0 0 1
-32.733283 -12.907978 5.882693 35.674778 0.375616 1.405142 0.001085 -0.004148 -576105.000000 0 0 1
-31.755983 -13.960978 5.345493 35.098799 0.414199 1.417903 0.002145 -0.001618 379530.000000 0 0 1
-30.691183 -14.324578 6.227193 34.437192 0.436681 1.388969 0.002987 -0.001971 266324.000000 0 0 1
-29.721483 -15.168378 5.641193 33.841828 0.471894 1.403322 0.001070 -0.001567 71204.400000 0 0 1
-29.047383 -15.971978 6.793793 33.837999 0.502735 1.368648 -0.001130 0.006333 -339513.000000 0 0 1
-29.935783 -16.742278 7.560193 35.122806 0.509935 1.353848 0.002192 0.005047 -69795.800000 0 0 1
-29.358383 -17.173778 8.806693 35.134188 0.529295 1.317436 0.005012 0.004366 -236805.000000 0 0 1
-30.368283 -17.886278 9.693793 36.552992 0.532276 1.302387 0.002968 0.005646 -76556.800000 0 0 1
-31.530883 -17.068978 9.895193 37.194912 0.496171 1.301518 -0.000635 0.008336 1153400.000000 0 0 1
-32.574883 -17.512378 10.794293 38.526915 0.493276 1.286820 -0.000421 0.008135 784182.000000 0 0 1
-33.398983 -18.729978 10.351593 39.666858 0.511093 1.306776 0.000354 0.000399 -846790.000000 0 0 1
-32.768283 -20.050978 10.332193 39.781356 0.549125 1.308059 -0.001410 0.001065 -148160.000000 0 0 1
-32.478783 -20.659578 11.576393 40.195801 0.566538 1.278659 0.004525 0.000934 -37425.800000 0 0 1
-33.640783 -21.328678 12.380293 41.711946 0.565054 1.269452 -0.011315 -0.000176 288429.000000 0 0 1
-33.718783 -22.697578 12.193893 42.436157 0.592473 1.279341 0.004503 -0.002089 -862977.000000 0 0 1
34.513346 -23.070078 12.498293 43.354433 -0.589229 1.278364 0.001945 0.001498 -697140.000000 0 0 1
34.139146 -24.560878 12.355793 43.833590 -0.623650 1.285044 0.004029 0.000975 -341064.000000 0 0 1
-34.750183 -25.381238 13.289893 45.037803 0.630833 1.271254 -0.001637 0.001193 128724.000000 0 0 1
34.066146 -26.582978 13.557193 45.287465 -0.662634 1.266776 0.002803 -0.000730 -17310.300000 0 0 1
33.198046 -26.567738 14.837093 45.034368 -0.674912 1.235063 0.003340 0.000482 796161.000000 0 0 1
32.081246 -25.661258 14.813793 43.670985 -0.674670 1.224716 0.000322 0.000316 489385.000000 0 0 1
31.386946 -25.557718 16.040293 43.538814 -0.683387 1.193494 0.001645 -0.002223 -337786.000000 0 0 1
30.979246 -24.109878 16.411393 42.548017 -0.661343 1.174814 0.003683 -0.001676 62845.600000 0 0 1
32.021446 -23.241278 16.846793 43.004005 -0.627835 1.168264 0.009904 -0.000608 112794.000000 0 0 1
32.882146 -22.799278 15.799393 43.019338 -0.606258 1.194732 0.000074 -0.000005 225803.000000 0 0 1
34.135446 -22.047578 16.328393 43.794301 -0.573477 1.188725 0.000169 0.004453 35385.200000 0 0 1
33.979246 -20.663978 16.708793 43.136677 -0.546380 1.173046 0.002972 0.004727 267459.000000 0 0 1
33.062646 -20.485278 17.796693 42.772742 -0.554699 1.141671 0.007282 0.001168 246263.000000 0 0 1
33.079546 -19.084678 18.440493 42.409115 -0.523286 1.120954 -0.000454 0.001194 -341163.000000 0 0 1
32.652346 -18.061278 17.556793 41.238652 -0.505250 1.131021 0.003464 0.000669 -15272.700000 0 0 1
32.559446 -16.776278 18.209293 40.904026 -0.475774 1.109431 0.006899 0.000538 -254647.000000 0 0 1
33.780546 -16.058178 18.816793 41.869584 -0.443748 1.104687 0.008935 -0.004014 -249651.000000 0 0 1
34.399946 -16.591078 19.984893 43.104711 -0.449387 1.088702 0.004008 -0.001161 91816.000000 0 0 1
-34.079983 -15.716778 20.310393 42.672877 0.432107 1.074746 -0.001414 -0.004804 -333365.000000 0 0 1
-33.625283 -15.798778 21.798193 43.074613 0.439237 1.040190 -0.003652 -0.002112 -137847.000000 0 0 1
-32.853283 -16.922478 22.122093 43.070819 0.475649 1.031396 -0.008733 -0.003462 -106455.000000 0 0 1
-32.603383 -16.971678 23.495293 43.623930 0.479952 1.002037 -0.008998 -0.001229 338663.000000 0 0 1
-31.658583 -18.217878 23.774793 43.582081 0.522171 0.993790 -0.012488 -0.001639 -437500.000000 0 0 1
-32.373583 -19.416778 23.852093 44.654031 0.540252 1.007291 -0.006994 -0.002117 285262.000000 0 0 1
-31.610383 -20.583878 24.164193 44.797551 0.577200 1.001061 -0.011204 -0.003680 -432908.000000 0 0 1
-30.536983 -21.169078 23.237493 43.824859 0.606166 1.011918 -0.011464 -0.005588 -1028300.000000 0 0 1
-29.410283 -20.404778 23.283293 42.701656 0.606551 0.994103 -0.009380 -0.009075 -1041100.000000 0 0 1
-28.269583 -21.101278 22.799293 42.002869 0.641213 0.997025 -0.009800 -0.005397 1250100.000000 0 0 1
-26.984883 -20.150278 22.743593 40.638512 0.641402 0.976826 -0.004955 -0.006026 846564.000000 0 0 1
-26.634983 -19.742878 24.045793 40.956119 0.637870 0.943311 -0.000605 -0.006710 233245.000000 0 0 1
-25.536183 -18.846778 24.013993 39.799115 0.635804 0.923063 0.004901 -0.002903 -160088.000000 0 0 1
-25.134183 -18.407178 25.430593 40.215251 0.632113 0.886198 0.006513 -0.003171 -1002230.000000 0 0 1
-24.125483 -17.404278 25.481593 39.169624 0.624949 0.862495 0.008111 0.000342 210766.000000 0 0 1
-23.825083 -16.976878 26.802593 39.676542 0.619108 0.829117 0.005876 -0.003534 30593.400000 0 0 1
-22.843883 -17.793378 27.647593 40.035443 0.661750 0.808509 0.003878 -0.004804 -499061.000000 0 0 1
-23.344083 -19.094078 28.029593 41.172662 0.685585 0.821967 0.011097 -0.001959 -494399.000000 0 0 1
-22.436883 -19.705078 28.869493 41.534942 0.720665 0.802286 0.007805 0.000064 -868791.000000 0 0 1
-22.906383 -21.020578 29.516993 42.869802 0.742494 0.811341 0.003142 0.001805 -766858.000000 0 0 1
-23.898383 -20.706778 30.432993 43.887019 0.713968 0.804544 0.005032 0.002418 -207139.000000 0 0 1
-24.415583 -21.810078 31.128793 45.175236 0.729093 0.810595 0.000590 0.002873 -825748.000000 0 0 1
-25.649183 -21.614878 32.004093 46.361034 0.700248 0.808861 -0.000693 0.003951 -1025770.000000 0 0 1
-25.446783 -21.045378 33.295093 46.893602 0.691010 0.781279 -0.002218 0.007576 152687.000000 0 0 1
-26.593783 -20.959978 34.115793 48.067009 0.667475 0.781646 -0.000557 0.004713 354674.000000 0 0 1
-27.796783 -20.048678 33.682693 48.053454 0.624852 0.794079 0.002873 0.006915 -204531.000000 0 0 1
-28.615983 -20.742778 32.797093 48.216041 0.627221 0.822746 0.013247 0.008523 125593.000000 0 0 1
-29.610583 -19.842278 32.270293 48.081955 0.590381 0.835035 -0.002278 0.004885 41089.200000 0 0 1
-30.383183 -20.443478 31.074793 48.028287 0.592275 0.867140 0.002657 0.011126 -302804.000000 0 0 1
-30.959883 -19.554978 30.172393 47.447706 0.563348 0.881611 -0.002687 0.002219 412071.000000 0 0 1
-31.688183 -20.200678 29.139193 47.553138 0.567526 0.911234 -0.004158 0.002545 -199957.000000 0 0 1
-32.254783 -19.247678 28.092493 46.904502 0.538018 0.928633 -0.003182 0.006685 254423.000000 0 0 1
-33.310083 -19.862678 27.338193 47.449599 0.537692 0.956783 -0.009258 0.003088 596452.000000 0 0 1
-34.068583 -18.897578 26.648893 47.201169 0.506439 0.970871 -0.004035 0.003129 -290181.000000 0 0 1
34.170046 -19.437478 26.003893 47.133958 -0.517197 0.986393 0.000689 0.000810 361449.000000 0 0 1
33.189046 -19.832678 26.978093 47.145152 -0.538629 0.961568 -0.005346 0.007214 238222.000000 0 0 1
32.106646 -20.519378 26.391193 46.350584 -0.568675 0.965042 0.009220 0.004401 181282.000000 0 0 1
30.926546 -20.739578 27.387993 46.224274 -0.590726 0.936635 0.007033 0.004938 473683.000000 0 0 1
30.158746 -19.538278 27.641693 45.336050 -0.574861 0.915106 0.002219 -0.002535 597014.000000 0 0 1
29.176146 -19.834578 28.633093 45.436901 -0.597055 0.889021 0.006700 0.004954 -58903.800000 0 0 1
-29.162264 -6.186378 34.452723 45.559840 0.209037 0.713298 0.001391 -0.000707 89750.700000 0 0 1
-29.787744 -6.113178 33.178813 45.005714 0.202414 0.741860 0.001825 0.005507 387337.000000 0 0 1
-29.403544 -4.925878 32.542943 44.134746 0.165985 0.741651 0.005980 0.001925 -353104.000000 0 0 1
-29.981484 -4.806078 31.158733 43.506947 0.158949 0.772485 0.003297 -0.002926 -163849.000000 0 0 1
-29.642804 -5.734178 30.165313 42.679301 0.191082 0.785846 0.001601 -0.006680 -904718.000000 0 0 1
-28.302374 -5.828778 29.828443 41.529930 0.203107 0.769527 0.005743 -0.005451 -1145440.000000 0 0 1
-28.132694 -6.710978 28.573803 40.656462 0.234171 0.791455 0.005293 -0.009856 -174276.000000 0 0 1
-28.649054 -6.248778 27.343993 40.093759 0.214751 0.820301 0.001081 -0.007993 -126807.000000 0 0 1
-28.348064 -7.089378 26.235043 39.270212 0.245057 0.839191 0.001463 -0.005411 150539.000000 0 0 1
-29.131234 -6.602078 24.949643 38.919159 0.222868 0.874913 -0.005496 0.003284 -81455.000000 0 0 1
-28.612814 -5.508278 24.287633 37.933144 0.190184 0.875940 -0.003582 0.002709 -221986.000000 0 0 1
-29.538604 -4.906278 23.398933 38.001458 0.164595 0.907474 0.001670 0.004626 -193495.000000 0 0 1
-28.988434 -3.562778 22.910433 37.120219 0.122290 0.905623 0.000291 0.003513 808256.000000 0 0 1
-27.707174 -3.712978 22.286833 35.751596 0.133214 0.897738 0.002066 0.003429 314779.000000 0 0 1
-27.382914 -2.535578 21.602533 34.970310 0.092334 0.904932 0.003062 0.005652 551675.000000 0 0 1
-25.971704 -2.579578 20.933733 33.457508 0.098998 0.894792 0.000339 0.005248 443185.000000 0 0 1
-25.829134 -3.442578 19.844433 32.753581 0.132502 0.919937 0.002260 -0.000738 -682309.000000 0 0 1
-24.560554 -3.319678 19.266033 31.391418 0.134349 0.910013 0.011198 -0.001481 -549879.000000 0 0 1
-24.239954 -4.218478 18.063633 30.523201 0.172304 0.937506 0.009919 -0.003844 -97291.100000 0 0 1
-25.064654 -3.817278 16.958533 30.502465 0.151136 0.981264 0.009061 -0.001734 471247.000000 0 0 1
-24.730054 -4.569278 15.816733 29.708971 0.182706 1.009376 0.011940 -0.001175 624890.000000 0 0 1
-25.855954 -4.561778 14.696333 30.088576 0.174633 1.060500 0.011115 -0.006320 668601.000000 0 0 1
-26.254324 -3.310178 14.181633 30.022750 0.125419 1.078827 0.012597 -0.006480 67117.700000 0 0 1
-27.480714 -3.370378 13.485433 30.796201 0.122036 1.117543 0.006165 -0.008491 -63469.900000 0 0 1
-27.837474 -2.012178 12.859933 30.730306 0.072158 1.139028 0.008602 -0.004654 -173415.000000 0 0 1
-27.012324 -1.795778 11.725533 29.502180 0.066382 1.162064 0.014199 -0.001375 334097.000000 0 0 1
-27.424004 -0.673978 10.953933 29.538431 0.024571 1.190887 0.010695 0.001972 220287.000000 0 0 1
-28.794674 -0.765978 10.209033 30.560503 0.026595 1.230189 0.007748 0.005308 387733.000000 0 0 1
-28.804874 -1.504578 9.013533 30.219668 0.052186 1.267920 0.007274 0.004994 230155.000000 0 0 1
-30.127654 -1.694978 8.532433 31.358426 0.056201 1.295228 0.003897 0.008588 -213515.000000 0 0 1
-30.044924 -2.372478 7.138433 30.972300 0.078801 1.338227 0.000667 0.006745 -403421.000000 0 0 1
-29.800944 -1.596978 6.014233 30.443679 0.053537 1.371935 0.004798 0.007100 730840.000000 0 0 1
-30.792714 -0.600678 5.681533 31.318236 0.019505 1.388373 -0.006827 0.006930 116824.000000 0 0 1
-30.414874 0.137422 4.356733 30.725634 -0.004518 1.428522 -0.002675 0.003872 -89812.500000 0 0 1
-30.779804 -0.519678 3.152133 30.945151 0.016882 1.468757 -0.003423 0.003650 390495.000000 0 0 1
-30.157384 0.106522 2.040633 30.226534 -0.003532 1.503234 -0.001825 0.001493 -196033.000000 0 0 1
-30.505154 -0.444778 0.625433 30.514807 0.014579 1.550299 0.000260 -0.000587 379769.000000 0 0 1
-31.895964 -0.183778 0.441133 31.899544 0.005762 1.556967 0.001860 0.000561 455212.000000 0 0 1
-32.382914 -0.842778 -0.659767 32.400597 0.026020 1.591161 0.001560 -0.000815 -495310.000000 0 0 1
-33.898184 -0.682678 -0.878967 33.916449 0.020136 1.596715 -0.004932 0.004566 -335833.000000 0 0 1
-34.628863 -1.486878 -0.000067 34.660770 0.042911 1.570798 -0.004195 0.003368 -1331750.000000 0 0 1
33.555665 -1.249278 -0.051167 33.578951 -0.037213 1.572320 -0.005296 0.006957 -1216410.000000 0 0 1
32.654765 -2.390678 0.468433 32.745510 -0.073080 1.556491 -0.003624 -0.001337 -47109.800000 0 0 1
33.001425 -2.718378 1.809033 33.162573 -0.082186 1.516219 -0.001848 -0.001342 764818.000000 0 0 1
32.084795 -3.741178 2.179333 32.375608 -0.116079 1.503431 0.001252 -0.002233 -745919.000000 0 0 1
32.447255 -4.315878 3.543633 32.924284 -0.132236 1.462958 0.001298 -0.002838 65473.200000 0 0 1
31.942715 -3.468678 4.598433 32.457886 -0.108167 1.428644 0.001228 -0.006583 400290.000000 0 0 1
32.370125 -4.007578 5.827933 33.133827 -0.123178 1.393986 0.001675 -0.004967 -388808.000000 0 0 1
31.720875 -3.164578 6.959333 32.629140 -0.099434 1.355859 0.001265 -0.003529 -593875.000000 0 0 1
30.330885 -3.164778 6.925933 31.272143 -0.103966 1.347472 0.005105 -0.008094 -718065.000000 0 0 1
29.875075 -1.935478 7.499433 30.862723 -0.064695 1.325346 0.007800 -0.004346 -464024.000000 0 0 1
28.419315 -1.893778 7.975733 29.577968 -0.066539 1.297766 0.002225 -0.006570 -1204300.000000 0 0 1
27.506245 -1.565778 6.961133 28.416589 -0.056863 1.323310 -0.002551 -0.005689 -28757.000000 0 0 1
26.160275 -1.638178 7.367033 27.227133 -0.062539 1.296804 -0.002797 -0.002756 -222744.000000 0 0 1
25.562165 -3.061078 7.473133 26.807503 -0.119183 1.288283 -0.002667 -0.002043 -1290260.000000 0 0 1
26.090665 -3.887378 8.511833 27.717969 -0.147907 1.258666 -0.005611 -0.003573 475108.000000 0 0 1
25.596475 -5.189978 8.307533 27.406760 -0.200049 1.262831 -0.003371 -0.003355 -388355.000000 0 0 1
26.052655 -6.146678 9.418833 28.376697 -0.231696 1.232457 -0.012655 -0.005481 -361660.000000 0 0 1
25.278215 -6.056078 10.609033 28.075182 -0.235145 1.183292 -0.010674 -0.002749 927930.000000 0 0 1
25.963495 -6.786878 11.634133 29.249237 -0.255680 1.161724 -0.016066 -0.001982 5576.410000 0 0 1
25.112175 -6.836478 12.936933 29.064119 -0.265796 1.109491 -0.012307 -0.001875 837713.000000 0 0 1
24.037675 -7.804878 12.796633 28.328074 -0.313955 1.102093 -0.011335 0.000287 1025450.000000 0 0 1
22.795575 -7.152178 13.134133 27.263480 -0.304026 1.068148 -0.009255 -0.002449 370873.000000 0 0 1
21.626975 -8.129378 13.118933 26.569141 -0.359551 1.054381 -0.001531 -0.002627 -505745.000000 0 0 1
21.803575 -9.186178 14.010133 27.496647 -0.398745 1.036168 -0.005880 -0.000983 203861.000000 0 0 1
20.755475 -10.135678 13.838033 26.926063 -0.454274 1.031040 0.000806 -0.005474 90644.600000 0 0 1
20.992675 -11.322078 14.764733 28.051367 -0.494618 1.016499 -0.002009 0.000146 -178469.000000 0 0 1
20.930375 -11.083978 16.146333 28.664250 -0.487018 0.972432 0.006607 -0.003138 98822.900000 0 0 1
21.136375 -12.275878 16.918233 29.726590 -0.526178 0.965351 0.001306 0.000505 -232955.000000 0 0 1
20.877275 -11.923478 18.424733 30.290275 -0.518915 0.916914 0.007399 0.000379 911382.000000 0 0 1
19.508775 -11.611978 18.750733 29.445209 -0.536896 0.880454 0.011779 -0.006353 503070.000000 0 0 1
19.199375 -11.850878 20.123733 30.232829 -0.553009 0.842465 0.008452 -0.003716 170310.000000 0 0 1
19.774075 -10.956578 21.251833 31.027424 -0.505976 0.816279 0.015209 -0.006036 -381552.000000 0 0 1
19.084075 -9.731078 21.460133 30.322156 -0.471541 0.784505 0.009397 -0.004711 -271596.000000 0 0 1
19.388275 -8.651378 20.611733 29.590456 -0.419704 0.800195 0.008009 -0.002455 -1000830.000000 0 0 1
20.480675 -7.629878 21.184833 30.437974 -0.356613 0.800985 0.007867 -0.001902 338506.000000 0 0 1
21.756875 -8.059078 21.523833 31.647840 -0.354745 0.822891 0.006112 -0.000240 -68131.400000 0 0 1
22.374775 -8.570378 20.292333 31.398419 -0.365799 0.868090 0.005237 -0.001618 -1376270.000000 0 0 1
23.728475 -9.295778 20.498633 32.705443 -0.373380 0.893401 -0.006405 0.000734 21016.600000 0 0 1
23.609175 -10.608778 20.898433 33.266858 -0.422313 0.891551 -0.005604 -0.000930 99854.600000 0 0 1
24.726465 -11.415178 20.595133 34.144749 -0.432507 0.923325 -0.010666 0.003513 -25031.400000 0 0 1
24.436175 -12.926078 20.881433 34.644544 -0.486557 0.923874 -0.011020 0.002566 -58232.100000 0 0 1
23.471275 -13.457678 20.001033 33.645968 -0.520607 0.934208 0.000204 0.001882 186825.000000 0 0 1
23.320175 -14.842978 20.183533 34.227468 -0.566817 0.940124 0.000045 0.004505 408946.000000 0 0 1
22.290575 -15.469678 19.176233 33.225120 -0.606688 0.955549 0.000599 0.005466 266636.000000 0 0 1
22.901675 -15.602978 17.892533 32.986094 -0.598067 0.997474 0.000279 0.004852 851220.000000 0 0 1
21.985375 -16.118878 16.921733 32.086134 -0.632638 1.015277 -0.001490 0.010796 106397.000000 0 0 1
21.755075 -17.667778 17.037133 32.797829 -0.682089 1.024578 -0.003623 0.007371 -185242.000000 0 0 1
22.914575 -18.401678 16.735233 33.819632 -0.676601 1.053148 0.002763 0.006170 -105913.000000 0 0 1
22.741175 -19.743378 17.041733 34.603218 -0.714953 1.055848 -0.000299 0.009957 -428002.000000 0 0 1
23.914675 -20.664878 16.740133 35.765639 -0.712628 1.083713 -0.003271 0.009058 -436026.000000 0 0 1
24.054075 -20.801378 15.372733 35.321619 -0.713010 1.120512 0.001373 0.005213 41565.200000 0 0 1
24.917335 -21.894978 15.111833 36.450393 -0.720924 1.143308 -0.001654 0.005640 -70177.000000 0 0 1
25.430205 -22.011078 13.699233 36.316000 -0.713452 1.184000 0.000633 -0.002022 501586.000000 0 0 1
24.319975 -22.278578 12.828333 35.388732 -0.741618 1.199850 0.001782 -0.000984 920942.000000 0 0 1
24.778225 -22.142678 11.497133 35.163087 -0.729287 1.237705 0.002226 -0.007031 -235841.000000 0 0 1
23.616175 -22.041878 10.519233 33.973849 -0.750932 1.255995 -0.005648 -0.004621 -338224.000000 0 0 1
23.050975 -23.319078 10.367733 34.389195 -0.791180 1.264549 -0.005055 0.000012 -119259.000000 0 0 1
21.761275 -23.237678 9.795233 33.308998 -0.818196 1.272312 -0.011507 0.000129 147267.000000 0 0 1
21.624575 -24.197078 8.627633 33.579114 -0.841481 1.310947 -0.013236 -0.005134 -452234.000000 0 0 1
21.500475 -25.552718 8.942433 34.571360 -0.871307 1.309155 -0.011385 -0.000584 104052.000000 0 0 1
21.145975 -26.303948 7.775233 34.633859 -0.893677 1.344368 -0.008308 0.004139 550669.000000 0 0 1
19.623475 -26.613258 7.642233 33.937443 -0.935436 1.343663 -0.007185 0.004121 548413.000000 0 0 1
18.771275 -25.495418 7.463933 32.528256 -0.936146 1.339273 -0.000881 0.000769 469107.000000 0 0 1
17.412075 -25.912968 7.661733 32.145986 -0.979149 1.330138 0.003270 -0.002000 459221.000000 0 0 1
16.410075 -24.773078 7.430333 30.630146 -0.985743 1.325769 0.003885 -0.007201 -693497.000000 0 0 1
16.401375 -24.190478 6.132433 29.862871 -0.974982 1.363972 0.004763 -0.008121 133265.000000 0 0 1
15.751575 -22.943378 6.266833 28.526898 -0.969160 1.349308 0.012708 -0.006649 -227272.000000 0 0 1
15.366175 -22.303078 4.959833 27.534462 -0.967511 1.389676 0.014961 -0.005407 -179334.000000 0 0 1
14.715075 -21.073378 5.164333 26.216236 -0.961227 1.372510 0.019959 -0.002338 -93664.000000 0 0 1
14.142975 -20.560078 3.988933 25.271568 -0.968247 1.412291 0.002796 0.000928 89390.400000 0 0 1
13.660075 -19.119578 4.173433 23.865738 -0.950435 1.395021 0.006674 0.006302 94615.600000 0 1 0
14.714475 -18.197278 4.306533 23.795019 -0.890828 1.388809 0.006293 0.000726 -263321.000000 0 1 0
14.243475 -16.881078 4.144033 22.472659 -0.869940 1.385332 0.003404 0.005439 -310455.000000 0 1 0
15.209775 -15.716478 4.286533 22.287201 -0.801781 1.377259 -0.005215 0.001675 -1042620.000000 0 1 0
15.678375 -15.649078 5.623033 22.854400 -0.784463 1.322207 -0.001700 -0.000443 323781.000000 0 1 0
16.763175 -14.754778 5.843933 23.083740 -0.721762 1.314849 0.001603 -0.001262 1498010.000000 0 1 0
18.185475 -15.225678 5.316933 24.306430 -0.697042 1.350267 0.001217 -0.004606 1363420.000000 0 1 0
19.275475 -14.294178 5.560533 24.633047 -0.638086 1.343099 0.001799 -0.001798 1061110.000000 0 1 0
20.520375 -14.866878 5.171533 25.862224 -0.626976 1.369474 0.000297 0.000713 365476.000000 0 0 1
21.675375 -13.868978 5.415233 26.296296 -0.569206 1.363381 0.005776 -0.002136 -268063.000000 0 0 1
21.714975 -13.281978 6.671033 26.314516 -0.548942 1.314488 0.010619 -0.001474 119011.000000 0 0 1
22.600075 -12.185278 6.762433 26.551363 -0.494490 1.313267 0.007389 0.000816 -37158.400000 0 0 1
22.379475 -11.352978 8.037433 26.350168 -0.469466 1.260833 -0.005589 -0.000809 -261368.000000 0 0 1
22.938175 -12.043278 9.153133 27.476904 -0.483472 1.231185 -0.005525 -0.003024 407153.000000 0 0 1
22.633675 -11.405278 10.416433 27.401929 -0.466769 1.180854 -0.009546 0.000824 -258792.000000 0 0 1
23.008475 -12.352478 11.532733 28.547812 -0.492704 1.154933 -0.009794 0.000074 -556230.000000 0 0 1
22.182175 -13.442278 11.775533 28.485205 -0.544816 1.144621 -0.003418 0.000219 -110104.000000 0 0 1
22.688675 -14.300278 12.764733 29.702060 -0.562389 1.126570 0.002124 0.000086 -186842.000000 0 0 1
21.808275 -15.567678 12.973233 29.770090 -0.619956 1.119891 -0.000230 0.001839 157291.000000 0 0 1
20.558775 -15.126078 13.493033 28.870806 -0.634317 1.084495 0.003843 0.005989 224930.000000 0 0 1
19.685975 -16.211278 13.838533 29.014620 -0.688903 1.073615 -0.003333 0.005248 1067260.000000 0 0 1
18.329675 -15.718778 14.473933 28.152295 -0.708866 1.030804 -0.002501 0.003919 290877.000000 0 0 1
18.381975 -15.245478 15.815533 28.643546 -0.692395 0.985856 -0.002513 0.010541 -24094.900000 0 0 1
18.026075 -13.920978 15.932933 27.795528 -0.657602 0.960367 0.009503 0.003885 -1042240.000000 0 0 1
16.577875 -13.491178 15.944833 26.666000 -0.683103 0.929860 0.008384 0.005410 -1480850.000000 0 0 1
15.922875 -13.699178 14.766333 25.675865 -0.710470 0.958063 0.005833 0.003494 1252190.000000 0 0 1
14.509475 -13.305378 14.809533 24.634939 -0.742135 0.925845 0.012566 -0.001092 1745650.000000 0 1 0
14.133475 -11.863778 14.492533 23.463543 -0.698314 0.905030 0.011411 0.000103 -450355.000000 0 1 0
14.609275 -10.938678 15.399733 23.879644 -0.642700 0.869918 0.001061 0.006756 20803.800000 0 1 0
14.452275 -9.652478 14.857333 22.864360 -0.588847 0.863471 0.004026 0.003645 -638257.000000 0 1 0
15.010275 -8.512078 15.662933 23.304320 -0.515864 0.833749 0.003402 0.001454 -252011.000000 0 1 0
16.404575 -8.414878 15.754633 24.251365 -0.473961 0.863687 0.001130 0.000217 -204133.000000 0 1 0
17.106575 -9.072378 16.747133 25.600965 -0.487628 0.857725 0.007710 0.002143 -693340.000000 0 0 1
18.628075 -9.058778 16.789233 26.663552 -0.452625 0.889668 0.005647 0.001875 -710014.000000 0 0 1
19.070875 -7.812678 17.228133 26.861586 -0.388811 0.874518 0.009063 -0.004782 617138.000000 0 0 1
20.455475 -7.669778 16.891133 27.614531 -0.358727 0.912620 0.009617 -0.001213 340728.000000 0 0 1
21.063275 -6.294878 17.149033 27.881470 -0.290407 0.908323 0.009633 0.001554 -367381.000000 0 0 1
21.117875 -6.034178 18.533133 28.737658 -0.278322 0.869894 0.002046 0.002401 413949.000000 0 0 1
21.607575 -4.698678 18.654133 28.929942 -0.214122 0.870030 0.001804 -0.000508 -82675.400000 0 0 1
-5.260154 -33.407689 -6.291307 34.399469 1.414625 1.754721 0.005883 -0.005361 -98599.900000 0 0 1
-6.061254 -32.264789 -6.523407 33.471036 1.385101 1.766949 0.009857 -0.008033 67006.000000 0 0 1
-5.856754 -31.302589 -5.519707 32.320594 1.385834 1.742417 0.009339 -0.006328 -534088.000000 0 0 1
-6.743654 -30.017089 -5.606307 31.271923 1.349805 1.751047 0.015572 -0.005678 444943.000000 0 0 1
-8.109854 -30.148089 -5.273107 31.662007 1.308016 1.738120 0.020940 -0.002549 -267081.000000 0 0 1
-8.869654 -30.683989 -6.324307 32.560326 1.289402 1.766272 0.014609 -0.004183 -92646.700000 0 0 1
-10.360154 -30.743689 -5.806307 32.957858 1.245763 1.747894 -0.010498 -0.005237 330623.000000 0 0 1
-11.227354 -31.207889 -6.784107 33.852768 1.225453 1.772563 0.001378 -0.003715 -1309240.000000 0 0 1
-12.524254 -30.903289 -6.380707 33.949722 1.185753 1.759867 -0.001434 0.001182 -775539.000000 0 0 1
-13.558354 -31.274589 -7.451407 34.892010 1.161726 1.786010 0.003462 -0.003217 -207200.000000 0 0 1
-13.459754 -30.390189 -8.557107 34.321315 1.153864 1.822778 0.001879 -0.000313 10870.200000 0 0 1
-14.383954 -30.755989 -9.558407 35.273108 1.133338 1.845210 0.004768 -0.003127 -502576.000000 0 0 1
-14.301254 -29.930189 -10.878507 34.909655 1.125049 1.887693 0.005524 -0.001077 -605415.000000 0 0 1
-14.683254 -28.569489 -10.835107 33.900047 1.096052 1.896124 0.003351 0.002262 445523.000000 0 0 1
-13.605254 -27.770389 -10.340807 32.607204 1.115246 1.893501 0.004096 0.001901 21751.700000 0 0 1
-13.822854 -26.342889 -9.839907 31.334372 1.087562 1.890230 -0.000416 0.009410 -376122.000000 0 0 1
-14.175354 -25.282989 -10.724307 30.906002 1.059800 1.925164 0.007090 0.003889 232761.000000 0 0 1
-14.731554 -24.198989 -10.002607 30.044332 1.023955 1.910204 0.009767 0.006337 -313468.000000 0 0 1
-15.392154 -23.234889 -11.001207 29.963395 0.985713 1.946745 0.013414 0.005140 -222273.000000 0 0 1
-16.593954 -23.788389 -11.494707 31.198959 0.961706 1.948119 0.012748 0.002252 -355919.000000 0 0 1
-17.121854 -23.022989 -12.548907 31.315986 0.931349 1.983098 0.019238 0.000405 -676449.000000 0 0 1
-18.476954 -23.570789 -12.965007 32.635431 0.905955 1.979334 0.015171 0.005200 -770983.000000 0 0 1
-18.497954 -24.869889 -13.644007 33.865094 0.931282 1.985472 0.018939 0.007024 -144475.000000 0 0 1
-18.135154 -25.926689 -12.826907 34.140981 0.960421 1.955953 0.011476 0.005655 -876756.000000 0 0 1
-18.429254 -27.382389 -13.419307 35.630190 0.978399 1.956949 0.009835 0.006126 -265260.000000 0 0 1
-17.597354 -27.792789 -14.468207 35.936542 1.006349 1.985156 0.012984 0.005635 -443477.000000 0 0 1
-16.282054 -27.992189 -14.035107 35.293798 1.043968 1.979767 0.014750 0.002249 -883322.000000 0 0 1
-15.700954 -29.384189 -14.385007 36.288827 1.080061 1.978392 0.013552 -0.000183 -319376.000000 0 0 1
-15.568054 -29.603789 -15.785507 36.985550 1.086659 2.011750 0.019359 0.002536 22780.400000 0 0 1
-14.996054 -30.834589 -16.252807 37.944792 1.118137 2.013438 0.011970 0.002691 -213640.000000 0 0 1
-15.745554 -32.169189 -16.066407 39.254409 1.115616 1.992471 0.011588 0.000750 -371261.000000 0 0 1
-15.824154 -32.470789 -14.675907 38.988950 1.117332 1.956717 0.011422 -0.000950 18035.600000 0 0 1
-15.995154 -33.868289 -14.394107 40.126005 1.129574 1.937695 0.007172 -0.001894 -1021750.000000 0 0 1
-16.513454 -34.083289 -12.956207 40.027841 1.119623 1.900413 0.006130 -0.003075 821152.000000 0 0 1
-17.915954 -33.838489 -12.727007 40.348500 1.083863 1.891703 0.004768 0.000327 1111720.000000 0 0 1
-18.380554 -32.473489 -12.791007 39.445939 1.055739 1.901033 0.007041 -0.002115 -212833.000000 0 0 1
-17.657754 -31.445989 -11.801707 37.946367 1.059147 1.887052 0.009955 0.001261 -114206.000000 0 0 1
-18.086954 -31.647289 -10.483007 37.928647 1.051584 1.850830 0.001624 0.001999 257349.000000 0 0 1
-17.877454 -30.481789 -9.752107 36.658511 1.040365 1.840064 0.004134 0.006110 -741532.000000 0 0 1
-18.256154 -30.695189 -8.279007 36.660930 1.034241 1.798588 -0.000271 0.005973 432824.000000 0 0 1
-17.343654 -31.574789 -7.582107 36.813829 1.068500 1.778239 0.000145 -0.000440 635777.000000 0 0 1
-17.811354 -31.832589 -6.258107 37.009755 1.060664 1.740706 0.000230 -0.003239 248201.000000 0 0 1
-16.942954 -32.951389 -5.583307 37.470402 1.095869 1.720359 -0.000959 -0.005507 470332.000000 0 0 1
-15.604954 -32.594389 -5.307307 36.525009 1.124283 1.716619 -0.000971 -0.000856 185580.000000 0 0 1
-15.546554 -32.429789 -3.893707 36.173851 1.123771 1.678644 -0.001749 -0.003673 -56467.300000 0 0 1
-14.302554 -31.659889 -3.383207 34.904981 1.146483 1.667875 -0.001186 0.001038 572218.000000 0 0 1
-13.078354 -32.380389 -3.459007 35.092701 1.186935 1.669524 -0.010942 -0.004295 -404924.000000 0 0 1
-12.075254 -31.852589 -2.688307 34.170546 1.208438 1.649551 -0.003071 0.000542 -726264.000000 0 0 1
-10.662254 -32.399289 -2.812007 34.224333 1.252870 1.653053 0.003324 -0.007004 -845596.000000 0 0 1
-10.491354 -33.636889 -2.023807 35.293124 1.268458 1.628171 0.003305 0.001182 8621.060000 0 0 1
-9.151654 -34.103489 -1.963607 35.364622 1.308623 1.626350 0.005161 -0.002522 395663.000000 0 0 1
-8.237854 -33.269289 -1.032207 34.289551 1.328067 1.600904 0.000475 0.000647 -523809.000000 0 0 1
-8.633154 -33.421689 0.306093 34.520057 1.318012 1.561929 0.003632 0.000225 -226128.000000 0 0 1
-7.713354 -32.876089 1.204793 33.790303 1.340345 1.535134 -0.002350 -0.000999 61595.400000 0 0 1
-6.738154 -33.909689 1.823693 34.620739 1.374643 1.518096 0.003042 0.002206 15021.000000 0 0 1
-7.365954 34.725422 2.790393 35.607562 -1.361775 1.492351 0.010941 -0.003381 111322.000000 0 0 1
-6.459954 33.751022 3.254693 34.517467 -1.381683 1.476365 0.004471 0.001596 -331707.000000 0 0 1
-5.707154 33.991322 4.558693 34.767273 -1.404448 1.439297 0.002056 -0.003401 -212062.000000 0 0 1
-4.714854 -34.500889 4.456193 35.105539 1.434979 1.443516 -0.003103 0.001921 -485964.000000 0 0 1
-4.052854 -34.158589 5.653893 34.859738 1.452700 1.407887 -0.011600 0.000246 139251.000000 0 0 1
-3.038154 -33.011689 5.290093 33.570628 1.479022 1.412556 -0.004380 0.002754 -339231.000000 0 0 1
-3.463554 -31.836589 4.611193 32.354717 1.462431 1.427789 -0.006286 0.003511 -126868.000000 0 0 1
-3.899354 -31.951189 3.270293 32.353953 1.449356 1.469545 -0.012485 -0.000880 -158909.000000 0 0 1
-4.401654 -30.582589 2.690393 31.014634 1.427851 1.483941 -0.000447 -0.001686 -27856.700000 0 0 1
-3.391354 -29.605289 2.735393 29.924184 1.456741 1.479258 0.003115 -0.001401 -263751.000000 0 0 1
-3.719554 -28.464889 1.986593 28.775537 1.440861 1.501704 0.001650 0.002232 -16573.200000 0 0 1
-2.894954 -27.175289 2.236793 27.420436 1.464668 1.489132 -0.000105 0.002762 -145839.000000 0 0 1
-3.121354 -26.024689 1.400693 26.248604 1.451428 1.517408 -0.003101 -0.003882 -321308.000000 0 0 1
-2.866854 -24.748589 1.997993 24.994069 1.455471 1.490772 -0.009908 -0.004082 -239753.000000 0 1 0
-3.901754 -24.250589 3.035793 24.749359 1.411270 1.447825 -0.010516 -0.000217 -166647.000000 0 1 0
-3.987954 -25.002989 4.272793 25.677032 1.412630 1.403613 -0.001109 -0.001356 -96434.300000 0 0 1
-4.818154 -24.347689 5.204493 25.359640 1.375431 1.364100 -0.008534 -0.000668 -133169.000000 0 0 1
-5.464954 -25.328989 6.258193 26.656864 1.358295 1.333816 -0.002555 0.006828 -727512.000000 0 0 1
-4.690754 -25.933889 7.235593 27.329903 1.391857 1.302852 -0.002024 0.005289 -1036730.000000 0 0 1
-5.395654 -26.522489 8.298193 28.309283 1.370098 1.273301 -0.004100 0.006456 -533378.000000 0 0 1
-4.596354 -27.095389 9.474093 29.069658 1.402760 1.238822 -0.006024 0.007099 -180253.000000 0 0 1
-4.219554 -26.093289 10.427993 28.414915 1.410474 1.195025 -0.003816 -0.000127 208423.000000 0 0 1
-5.225354 -25.759889 11.412493 28.655212 1.370663 1.161167 -0.005118 0.001365 328398.000000 0 0 1
-4.859754 -24.722789 12.457293 28.107253 1.376701 1.111625 -0.000844 -0.001923 424650.000000 0 0 1
-3.943254 -25.336089 13.388393 28.926039 1.416397 1.089590 -0.005582 -0.001009 180341.000000 0 0 1
-3.570354 -24.431289 14.386593 28.576378 1.425685 1.043217 0.001565 -0.005787 -31542.200000 0 0 1
-2.482954 -24.862389 15.383693 29.342145 1.471258 1.018919 0.002806 -0.002989 -67336.200000 0 0 1
-2.934154 -25.713889 16.428593 30.654722 1.457180 1.005195 0.001105 0.000069 619843.000000 0 0 1
-1.807254 -26.339089 17.085093 31.447006 1.502289 0.996436 -0.003825 0.001313 724537.000000 0 0 1
-2.180154 -26.849689 18.492893 32.674852 1.489776 0.969190 -0.004783 -0.005887 28458.200000 0 0 1
-2.498054 -25.797089 19.339093 32.337758 1.474263 0.929750 -0.005049 -0.006405 -195076.000000 0 0 1
-2.671754 -26.231289 20.697293 33.520094 1.469293 0.905288 0.001926 -0.007355 63256.500000 0 0 1
-2.979254 -25.088389 21.658393 33.277458 1.452600 0.862102 0.004670 -0.010781 -98426.600000 0 0 1
-2.909354 -25.554489 22.971193 34.484373 1.457435 0.841784 0.006439 -0.008068 -17628.800000 0 0 1
-3.190354 -24.626389 24.034693 34.558702 1.441964 0.801716 0.000506 -0.004354 -4091.780000 0 0 1
-2.181654 -23.464689 24.173493 33.759576 1.478087 0.772671 -0.000528 -0.001252 33095.900000 0 0 1
-2.431854 -22.456789 23.182893 32.367697 1.462926 0.772403 0.004860 -0.003667 -154971.000000 0 0 1
-1.302854 -21.619689 23.106293 31.670320 1.510607 0.753077 -0.003242 -0.003531 -662320.000000 0 0 1
-1.428954 -20.359889 22.273493 30.210519 1.500726 0.741767 0.003908 0.002011 -544096.000000 0 0 1
-2.233254 -19.373589 22.855793 30.045143 1.456030 0.706382 -0.001082 -0.003585 679192.000000 0 0 1
-3.647654 -19.633789 22.889193 30.376079 1.387106 0.717386 -0.001078 -0.004096 560429.000000 0 0 1
-4.538554 -19.596389 21.585693 29.505238 1.343207 0.750147 0.001696 -0.002712 -117299.000000 0 0 1
-4.186254 -20.601589 20.661693 29.476359 1.370325 0.794056 0.006257 0.001717 358334.000000 0 0 1
-5.032354 -21.778889 20.751593 30.500380 1.343716 0.822527 0.002395 -0.004792 407370.000000 0 0 1
-4.817454 -22.693789 19.467893 30.285554 1.361621 0.872634 0.008183 -0.003159 -497547.000000 0 0 1
-5.509154 -23.899189 19.471093 31.315259 1.344238 0.899787 0.010668 -0.002877 -544663.000000 0 0 1
-5.356254 -24.464289 18.177693 30.945426 1.355256 0.942940 0.007319 -0.005449 18524.000000 0 0 1
-6.054454 -25.831989 17.980293 32.050569 1.340574 0.975206 -0.000053 -0.007882 1393830.000000 0 0 1
-7.496054 -25.779789 18.080493 32.368079 1.287826 0.978111 0.007696 -0.007205 563921.000000 0 0 1
-8.062554 -27.071289 17.981193 33.484067 1.281335 1.003911 0.003715 -0.002749 711009.000000 0 0 1
-9.608254 -27.003089 18.142093 33.920803 1.228946 1.006482 0.009489 -0.006799 184579.000000 0 0 1
-10.406254 -26.457389 17.081293 33.167064 1.196061 1.029780 0.014547 -0.006562 448038.000000 0 0 1
-11.804654 -26.528189 17.327593 33.813313 1.152120 1.032762 0.005725 -0.007169 595759.000000 0 0 1
-12.407554 -25.629289 18.434793 33.921224 1.119936 0.996244 0.011190 -0.005695 -976990.000000 0 0 1
-12.408754 -24.282889 17.970693 32.658562 1.098381 0.988121 0.006374 -0.007332 -127663.000000 0 0 1
-12.628354 -23.442989 19.070593 32.752657 1.076683 0.949289 0.001648 0.002896 -193471.000000 0 0 1
-11.438954 -22.676389 19.692093 32.137934 1.103600 0.911277 -0.001754 0.000322 29093.200000 0 0 1
-10.612554 -23.423089 20.549493 32.917306 1.145383 0.896592 0.001490 -0.003380 -640824.000000 0 0 1
-9.272554 -23.107889 20.343093 32.152702 1.189194 0.885758 0.007522 -0.005767 -376785.000000 0 0 1
-8.221954 -23.933389 21.090393 32.942561 1.239893 0.876015 0.003594 -0.005156 -234118.000000 0 0 1
-8.315654 -23.736389 22.478893 33.732283 1.233824 0.841438 0.003033 -0.004485 -224205.000000 0 0 1
-7.452454 -24.552989 23.200093 34.592378 1.276108 0.835684 0.000108 -0.000258 -236527.000000 0 0 1
-7.592754 -24.392189 24.727193 35.553662 1.269025 0.801696 -0.001078 0.001137 86457.300000 0 0 1
-6.564654 -24.976989 25.526493 36.311796 1.313781 0.791216 0.000803 -0.001541 171926.000000 0 0 1
-6.492054 -24.539789 26.883393 36.973840 1.312169 0.756719 0.005012 -0.002121 54063.600000 0 0 1
-5.346254 -25.004189 27.822293 37.787192 1.360154 0.743227 -0.000240 -0.001723 681001.000000 0 0 1
-4.036054 -24.642289 27.385793 37.060947 1.408452 0.739301 0.001295 -0.003209 -131696.000000 0 0 1
-3.028754 -24.828089 28.325293 37.787955 1.449407 0.723361 -0.000376 -0.000996 493154.000000 0 0 1
-1.737054 -24.095889 27.790893 36.823402 1.498832 0.715588 -0.004194 -0.001890 -129565.000000 0 0 1
-1.808654 -22.664289 27.747093 35.872585 1.491163 0.686467 -0.005364 0.001250 138552.000000 0 0 1
-0.630954 -22.000789 27.293493 35.062338 1.542125 0.678639 -0.003075 -0.001181 613906.000000 0 0 1
0.423646 -21.785789 28.434793 35.823700 -1.551353 0.653859 -0.006747 0.000920 -191451.000000 0 0 1
1.055746 -22.971289 28.827893 36.876037 -1.524869 0.673327 -0.002801 -0.001459 -392833.000000 0 0 1
1.944846 -22.737289 29.868493 37.588477 -1.485468 0.652418 0.002254 -0.000935 -417589.000000 0 0 1
2.415446 -24.079889 30.491993 38.928615 -1.470821 0.670872 -0.001805 -0.001861 -589729.000000 0 0 1
3.296146 -24.847989 29.664693 38.836595 -1.438914 0.701564 -0.000685 -0.007018 153060.000000 0 0 1
3.760246 -25.980089 30.302493 40.091714 -1.427059 0.713877 0.002427 0.000973 -990431.000000 0 0 1
4.958846 -25.612289 31.218293 40.683674 -1.379551 0.696111 -0.001853 0.002326 -558701.000000 0 0 1
6.124946 -25.128089 30.576493 40.048193 -1.331710 0.702093 0.002489 0.001940 810654.000000 0 0 1
6.789946 -26.161289 29.705493 40.161333 -1.316858 0.738240 0.002004 0.001912 -248722.000000 0 0 1
7.995146 -25.631589 28.892293 39.441923 -1.268435 0.748769 0.004447 0.007342 214640.000000 0 0 1
7.548846 -24.705989 27.892893 38.018212 -1.274258 0.747086 0.003719 -0.000167 -108090.000000 0 0 1
8.572346 -24.410589 26.991893 37.388825 -1.233077 0.764217 0.006644 0.002418 -392800.000000 0 0 1
8.268846 -23.149889 26.121393 35.869462 -1.227733 0.755054 0.009206 -0.000816 154292.000000 0 0 1
7.366646 -23.406989 25.054693 35.069819 -1.265890 0.774997 0.007431 0.000581 162019.000000 0 0 1
7.030046 -22.230289 24.355493 33.716425 -1.264510 0.763583 0.004120 -0.000984 -155477.000000 0 0 1
6.348446 -22.477489 23.004093 32.783053 -1.295530 0.793006 0.008054 0.003613 -247113.000000 0 0 1
7.182446 -22.985989 21.984793 32.607888 -1.267938 0.830892 0.007190 0.009131 101248.000000 0 0 1
6.657946 -22.727989 20.674093 31.437364 -1.285829 0.853130 0.004293 0.006393 -17868.100000 0 0 1
7.232446 -23.696289 19.605093 31.594019 -1.274563 0.901376 0.000615 0.001855 184905.000000 0 0 1
8.605146 -23.522589 19.340693 31.645270 -1.220094 0.913256 -0.000151 0.000617 -441922.000000 0 0 1
9.016346 -24.373089 18.270593 31.767224 -1.216478 0.958021 0.000741 -0.002133 470198.000000 0 0 1
10.443346 -24.092589 17.729493 31.683611 -1.161776 0.976918 0.001235 -0.004617 398751.000000 0 0 1
10.502646 -22.901989 17.026393 30.408958 -1.140821 0.976515 0.004440 -0.002337 -278838.000000 0 0 1
11.805846 -22.688389 16.547293 30.462336 -1.091004 0.996547 0.008659 -0.008331 -331065.000000 0 0 1
-12.274154 22.673122 11.700893 28.313181 -1.074616 1.144758 -0.002885 -0.002187 -245923.000000 0 0 1
-13.081354 21.707522 11.044893 27.646482 -1.028454 1.159820 -0.013265 -0.000875 203669.000000 0 0 1
-12.344654 20.571622 10.612993 26.233904 -1.030317 1.154307 -0.001189 -0.005778 -154034.000000 0 0 1
-13.129554 19.894622 9.487493 25.655286 -0.987455 1.191996 -0.004539 -0.004099 -317802.000000 0 0 1
-13.287154 20.791922 8.367093 26.054956 -1.002155 1.243871 -0.004964 -0.005844 70063.200000 0 0 1
-14.097754 20.291022 7.288593 25.760354 -0.963584 1.283940 -0.001066 -0.002702 813343.000000 0 0 1
-15.635454 20.416522 7.545293 26.799874 -0.917245 1.285395 -0.006043 0.001440 99728.500000 0 0 1
-16.090154 19.373122 8.405393 26.549229 -0.877709 1.248657 -0.009132 0.000861 -382854.000000 0 0 1
-17.438654 19.518222 8.753893 27.598882 -0.841609 1.248039 -0.007062 0.000191 -343949.000000 0 0 1
-17.864954 18.476122 9.818493 27.512297 -0.802214 1.205874 -0.013570 0.002845 -26943.000000 0 0 1
-18.118854 17.228822 9.197993 26.640725 -0.760224 1.218280 -0.014903 0.003681 11478.900000 0 0 1
-18.627354 16.267422 10.114893 26.719251 -0.717871 1.182554 -0.010360 0.005921 -853433.000000 0 0 1
-17.657854 15.381622 10.899693 25.830165 -0.716613 1.135173 -0.005273 0.006343 -125339.000000 0 0 1
-17.037654 14.405922 10.026493 24.461047 -0.701896 1.148456 -0.004705 0.009315 382864.000000 0 1 0
-16.288254 13.362022 10.717293 23.637073 -0.687025 1.100208 -0.005155 0.002885 177677.000000 0 1 0
-17.012454 12.387222 11.672793 24.064932 -0.629355 1.064371 -0.005860 0.003165 -550713.000000 0 1 0
-17.976354 11.598422 11.033493 24.070951 -0.572997 1.094632 -0.002858 0.001504 -99247.100000 0 1 0
-18.797754 10.956922 11.992593 24.844154 -0.527740 1.067047 -0.002388 0.000673 22586.900000 0 1 0
-19.787554 9.894822 11.455493 24.913513 -0.463690 1.093015 -0.000787 -0.002309 -353292.000000 0 1 0
-19.190254 8.809122 10.778293 23.707342 -0.430347 1.098829 -0.002806 -0.002164 417481.000000 0 1 0
-18.711854 9.071022 9.416793 22.827460 -0.451393 1.145577 0.007178 -0.002563 -429944.000000 0 1 0
-19.698454 9.603622 8.338893 23.447724 -0.453623 1.207200 0.016008 0.003966 -37031.600000 0 1 0
-20.601954 8.596022 7.898593 23.679524 -0.395282 1.230717 0.020760 0.006055 586575.000000 0 1 0
-21.127654 8.935422 6.631493 23.878782 -0.400112 1.289382 0.008485 0.008929 -103380.000000 0 1 0
-21.147754 7.598622 5.858093 23.222485 -0.344946 1.315782 -0.001669 0.006510 -516447.000000 0 1 0
-22.131354 6.724122 6.327093 23.980049 -0.294965 1.303787 0.016541 0.001529 395554.000000 0 1 0
-21.896354 5.366722 5.847393 23.290428 -0.240358 1.317017 0.021541 -0.004047 -630510.000000 0 1 0
-23.049554 4.419522 6.178293 24.269022 -0.189441 1.313388 0.048405 0.001717 -377108.000000 0 1 0
-24.047154 4.498022 5.176593 25.005898 -0.184913 1.362274 0.028425 -0.002074 420026.000000 0 0 1
-24.733754 3.246422 5.104393 25.462770 -0.130509 1.368964 0.033553 0.002503 -69265.300000 0 0 1
-25.819434 3.076022 4.007693 26.309061 -0.118577 1.417870 0.032501 -0.002737 161650.000000 0 0 1
-25.299204 2.949422 2.680093 25.611164 -0.116058 1.465959 0.020677 0.001101 330086.000000 0 0 1
-26.362494 3.035822 1.786793 26.596803 -0.114652 1.503565 0.016780 0.001875 -515733.000000 0 0 1
-25.857064 2.948222 0.376793 26.027327 -0.113530 1.556319 0.017259 0.000347 -338453.000000 0 0 1
-25.215654 4.134922 -0.011407 25.552435 -0.162536 1.571243 0.015114 -0.005513 314322.000000 0 0 1
-24.904354 4.056422 -1.375007 25.269983 -0.161462 1.625236 0.015599 -0.004670 -1297940.000000 0 0 1
-25.896734 4.583822 -2.409807 26.409457 -0.175189 1.662171 0.009180 -0.002260 -378074.000000 0 0 1
-27.037394 3.752622 -2.449307 27.406239 -0.137913 1.660286 0.008567 -0.002570 36415.900000 0 0 1
-28.201864 4.506322 -2.718207 28.688686 -0.158449 1.665687 0.003273 -0.000482 -219765.000000 0 0 1
-29.457404 3.625222 -2.759507 29.807646 -0.122451 1.663506 -0.000896 0.000087 -547143.000000 0 0 1
-29.623384 2.878922 -3.951707 30.024141 -0.096880 1.702797 0.002242 -0.001956 569473.000000 0 0 1
-30.777744 2.047122 -3.986407 31.102278 -0.066415 1.699321 0.004246 0.002497 176135.000000 0 0 1
-30.849184 1.375422 -5.391407 31.346949 -0.044556 1.743647 0.002462 -0.001868 370002.000000 0 0 1
-29.683364 0.593122 -5.751007 30.241164 -0.019979 1.762133 0.006393 -0.000948 943726.000000 0 0 1
-29.730014 -0.238078 -6.892007 30.519341 0.008008 1.798585 0.008603 0.002184 -380290.000000 0 0 1
-30.139664 0.498922 -8.199207 31.239003 -0.016552 1.836374 0.007470 0.000887 -507896.000000 0 0 1
-31.508094 0.699522 -8.412607 32.619339 -0.022198 1.831647 0.007481 0.000058 -156345.000000 0 0 1
-31.783974 1.436522 -9.591507 33.230733 -0.045166 1.863596 0.006176 -0.006720 -377441.000000 0 0 1
-33.260954 1.833122 -9.740607 34.706352 -0.055058 1.855276 0.001589 -0.005319 -272797.000000 0 0 1
-33.650174 2.797422 -8.823807 34.900134 -0.082942 1.826401 0.000892 -0.000842 1083360.000000 0 0 1
34.585978 2.566022 -8.216007 35.640947 0.074057 1.803410 0.000092 0.001180 762328.000000 0 0 1
34.356769 3.600522 -7.136407 35.274348 0.104417 1.774514 -0.003001 0.007579 1229380.000000 0 0 1
32.979215 3.540422 -6.665807 33.831881 0.106944 1.769121 -0.000469 0.006022 1486920.000000 0 0 1
32.708605 4.476722 -5.672707 33.497365 0.136022 1.740964 -0.001541 0.005493 -567305.000000 0 0 1
31.499325 4.144122 -4.822907 32.134742 0.130811 1.721449 0.002163 0.005324 -546347.000000 0 0 1
31.592965 3.027622 -3.968107 31.984806 0.095540 1.695179 0.000554 0.008443 106953.000000 0 0 1
30.318845 2.377422 -3.866307 30.656693 0.078254 1.697249 0.008381 0.011601 454698.000000 0 0 1
30.334955 1.002222 -3.170107 30.516611 0.033026 1.674865 0.011756 0.002500 -417741.000000 0 0 1
30.871475 -0.054778 -3.929607 31.120617 -0.001774 1.697405 -0.001978 0.005566 58722.100000 0 0 1
30.709255 -1.269578 -3.266807 30.908610 -0.041318 1.676687 -0.003980 0.005442 130540.000000 0 0 1
31.730475 -2.357378 -3.702507 32.032621 -0.074158 1.686641 -0.006222 0.003561 196735.000000 0 0 1
31.603155 -3.600078 -2.985907 31.947388 -0.113426 1.664396 -0.001179 0.001289 334524.000000 0 0 1
32.776245 -4.373378 -3.257507 33.226797 -0.132648 1.668993 -0.002026 0.000279 429225.000000 0 0 1
32.740735 -5.761978 -2.734207 33.356139 -0.174204 1.652859 -0.000110 0.005798 -181975.000000 0 0 1
32.732815 -5.760678 -1.321007 33.262105 -0.174207 1.610522 0.001685 0.003245 -144852.000000 0 0 1
32.875495 -7.088778 -0.904307 33.643227 -0.212373 1.597679 -0.002933 0.004564 -321522.000000 0 0 1
32.398225 -7.393778 0.560793 33.235936 -0.224373 1.553922 -0.004399 0.004574 -495785.000000 0 0 1
31.003895 -7.328778 0.650793 31.864965 -0.232122 1.550371 -0.010088 0.002646 -655837.000000 0 0 1
30.453305 -7.450278 1.909393 31.409492 -0.239933 1.509969 -0.009165 -0.002222 -361524.000000 0 0 1
30.372635 -8.935778 2.445493 31.754142 -0.286132 1.493707 -0.008788 -0.005744 -486391.000000 0 0 1
29.418855 -9.821278 1.869893 31.071257 -0.322209 1.510579 -0.011559 -0.005602 758871.000000 0 0 1
28.124795 -9.678978 2.475193 29.846495 -0.331448 1.487770 -0.010888 -0.004384 -402087.000000 0 0 1
27.192415 -10.888878 2.125193 29.368547 -0.380884 1.498370 -0.009976 -0.003089 -369663.000000 0 0 1
25.914295 -10.817178 2.732793 28.214007 -0.395434 1.473785 -0.000883 -0.003535 1161620.000000 0 0 1
24.980825 -9.783778 2.266793 26.924009 -0.373289 1.486504 -0.002313 -0.001236 1849.170000 0 0 1
24.517025 -9.827878 0.764693 26.424543 -0.381247 1.541854 -0.000373 0.004824 -1403310.000000 0 0 1
25.585355 -9.929778 -0.117507 27.444939 -0.370209 1.575078 0.001520 0.003285 -352075.000000 0 0 1
25.280815 -9.801878 -1.497407 27.155822 -0.369876 1.625966 0.006718 0.010193 -568868.000000 0 0 1
24.525125 -10.976278 -2.182007 26.957774 -0.420817 1.651827 0.002855 0.011119 -439799.000000 0 0 1
23.189075 -11.115078 -1.795407 25.777930 -0.446970 1.640502 0.008254 0.005776 -504329.000000 0 0 1
22.819175 -12.473078 -1.966507 26.079869 -0.500233 1.646271 0.001531 0.008884 531229.000000 0 0 1
21.351075 -12.862278 -1.572607 24.975582 -0.542196 1.633804 0.003000 0.008260 871937.000000 0 1 0
20.420775 -12.502878 -2.597007 24.084735 -0.549387 1.678834 -0.003201 0.010947 1556180.000000 0 1 0
19.060775 -12.868878 -2.208307 23.104064 -0.593853 1.666523 0.000822 0.013749 1252810.000000 0 1 0
18.026775 -12.409778 -3.253807 22.125878 -0.602904 1.718391 -0.004458 0.012742 -355604.000000 0 1 0
18.092775 -13.059878 -4.495407 22.762197 -0.625226 1.769598 -0.003540 0.007078 229682.000000 0 1 0
17.457175 -12.311778 -5.508807 22.060820 -0.614245 1.823177 0.007501 0.000923 -342557.000000 0 1 0
17.410675 -13.039778 -6.837207 22.801641 -0.642831 1.875338 -0.000647 -0.000158 -539298.000000 0 1 0
16.619275 -14.168278 -6.808207 22.875579 -0.705956 1.872994 -0.002446 0.001186 -251209.000000 0 1 0
16.651475 -14.792678 -8.041107 23.680252 -0.726353 1.917256 -0.001322 0.000488 -167378.000000 0 1 0
15.797575 -16.079778 -8.212707 23.991065 -0.794251 1.920185 0.003638 0.004262 -42437.200000 0 1 0
14.407175 -15.808478 -8.256307 22.926868 -0.831742 1.939187 0.012387 0.004024 261555.000000 0 1 0
13.683475 -16.727578 -9.051507 23.430304 -0.885164 1.967431 0.015808 0.005986 -565217.000000 0 1 0
13.695075 -16.361078 -10.607907 23.827876 -0.873867 2.032182 0.015031 0.000380 -516930.000000 0 1 0
12.934075 -15.252478 -11.119207 22.881546 -0.867466 2.078242 0.013087 -0.001285 437636.000000 0 1 0
13.413075 -13.986778 -10.693607 22.133544 -0.806333 2.075034 0.021184 -0.000656 -137135.000000 0 1 0
13.200375 -12.936878 -11.798707 21.927659 -0.775317 2.138947 0.019904 0.003130 171664.000000 0 1 0
14.214575 -12.982178 -12.818207 23.127852 -0.740115 2.158237 0.015428 0.003179 637587.000000 0 1 0
13.696175 -12.594178 -14.070707 23.327738 -0.743506 2.218272 0.012359 0.003819 -257983.000000 0 1 0
14.864275 -12.136278 -14.984107 24.346650 -0.684705 2.233751 0.011293 0.000546 170891.000000 0 1 0
15.564475 -13.274578 -15.408007 25.610037 -0.706162 2.216348 0.011150 -0.000335 144268.000000 0 0 1
16.638775 -12.890178 -16.281907 26.610262 -0.659127 2.229214 0.012628 -0.002098 44096.100000 0 0 1
17.654075 -14.028878 -16.461707 27.918875 -0.671473 2.201393 0.004927 -0.002663 -99040.200000 0 0 1
18.631275 -14.002078 -15.424407 27.948076 -0.644484 2.155431 0.002507 -0.006741 242602.000000 0 0 1
19.649175 -14.968978 -15.539907 29.183028 -0.651018 2.132346 -0.001019 -0.005219 -308285.000000 0 0 1
20.737175 -14.847578 -14.470507 29.323652 -0.621376 2.086878 -0.004505 -0.002775 -300367.000000 0 0 1
21.477475 -13.661178 -14.761307 29.424580 -0.566520 2.096320 0.001005 -0.006280 157893.000000 0 0 1
22.238175 -13.318378 -13.593007 29.269190 -0.539608 2.053769 -0.011445 -0.001998 113373.000000 0 0 1
22.858775 -11.899978 -13.625807 29.151256 -0.479981 2.057164 -0.009822 -0.009277 -13153.300000 0 0 1
21.996775 -10.819678 -13.187107 27.835649 -0.457127 2.064339 -0.000575 -0.006348 665566.000000 0 0 1
22.540175 -9.511878 -13.370707 27.880300 -0.399324 2.070967 0.001657 -0.006935 -183518.000000 0 0 1
23.647275 -9.115478 -12.380707 28.205806 -0.367924 2.025217 0.002784 -0.007569 -138337.000000 0 0 1
24.855885 -9.790578 -12.584107 29.530157 -0.375231 2.011023 -0.003144 -0.002736 197505.000000 0 0 1
25.899245 -9.488878 -11.649807 29.942073 -0.351189 1.970427 0.003541 -0.001574 825938.000000 0 0 1
27.186505 -10.356078 -11.858707 31.416291 -0.363957 1.957859 -0.000749 -0.000250 198904.000000 0 0 1
27.817555 -10.040478 -13.032207 32.318199 -0.346388 1.985858 0.001761 -0.002525 77186.900000 0 0 1
29.029415 -10.779878 -13.207907 33.665435 -0.355561 1.973958 0.002386 -0.002396 540059.000000 0 0 1
29.757215 -10.361878 -14.535907 34.700907 -0.335083 2.003020 0.006080 -0.002161 -88183.900000 0 0 1
29.041055 -10.691178 -15.697807 34.700221 -0.352743 2.040232 0.003172 -0.004429 74136.700000 0 0 1
29.601075 -10.081478 -16.823607 35.509064 -0.328257 2.064378 0.002971 -0.002251 -481779.000000 0 0 1
29.244095 -10.848978 -18.144007 36.084933 -0.355242 2.097647 0.004104 -0.000775 353319.000000 0 0 1
27.936175 -10.721078 -18.678507 35.274042 -0.366438 2.128838 0.005866 -0.002265 350791.000000 0 0 1
27.643315 -9.438678 -19.221007 34.966965 -0.329033 2.152790 0.007425 -0.000973 -147014.000000 0 0 1
26.182725 -9.271278 -19.715207 34.061431 -0.340322 2.188069 0.009974 -0.004103 182700.000000 0 0 1
25.802145 -9.979778 -20.905207 34.675270 -0.369059 2.217909 0.004179 0.004636 567206.000000 0 0 1
24.396275 -9.869778 -21.091207 33.725803 -0.384432 2.246406 0.003880 0.008567 330743.000000 0 0 1
23.789175 -10.360378 -22.435507 34.301811 -0.410737 2.283738 0.002699 0.006174 -36120.100000 0 0 1
23.907975 -11.813078 -22.579907 34.942700 -0.458921 2.273388 0.005226 0.006392 292637.000000 0 0 1
23.315475 -12.336178 -23.776207 35.511980 -0.486654 2.304367 0.002079 0.005638 -856425.000000 0 0 1
23.683975 -13.821178 -24.093807 36.502975 -0.528249 2.291682 -0.000417 0.009787 445782.000000 0 0 1
24.968755 -14.132978 -24.619307 37.805953 -0.515064 2.279963 0.004205 0.009267 640611.000000 0 0 1
26.108565 -13.857878 -23.818907 37.961010 -0.487967 2.249080 0.000829 0.010562 -50044.700000 0 0 1
27.471085 -14.250978 -24.425007 39.425016 -0.478545 2.238941 0.001859 0.007798 118802.000000 0 0 1
27.711775 -13.828278 -25.748007 40.275596 -0.462850 2.264378 -0.000521 0.004165 118815.000000 0 0 1
29.040975 -14.143978 -26.119217 41.540870 -0.453222 2.250753 -0.000741 0.007953 242390.000000 0 0 1
29.553125 -13.575378 -27.495427 42.587282 -0.430606 2.272638 -0.002997 0.004651 246607.000000 0 0 1
29.124475 -14.295378 -28.657837 43.288157 -0.456291 2.294314 -0.007226 0.001169 357828.000000 0 0 1
29.979445 -13.945078 -29.734487 44.467652 -0.435385 2.303224 -0.006142 0.000810 235000.000000 0 0 1
29.808115 -14.797378 -31.005647 45.484462 -0.460780 2.320847 -0.006455 -0.000717 -106023.000000 0 0 1
30.388215 -16.051978 -30.859797 46.189141 -0.485976 2.302473 0.000644 -0.004653 -230086.000000 0 0 1
30.603375 -16.759978 -32.066917 47.389351 -0.501038 2.314026 0.008129 -0.006561 13709.700000 0 0 1
29.393315 -17.373378 -32.809007 47.352214 -0.533824 2.336260 -0.000324 -0.005603 -130647.000000 0 0 1
28.755195 -16.480678 -33.669247 47.245023 -0.520433 2.364067 -0.001159 -0.002663 -613266.000000 0 0 1
27.625625 -17.112578 -34.209463 47.183714 -0.554595 2.381870 0.004242 -0.003342 -139897.000000 0 0 1
26.788005 -16.041578 34.426644 46.477126 -0.539562 0.736651 0.006874 -0.003206 -319225.000000 0 0 1
26.185765 -14.953178 -34.315651 45.682116 -0.518855 2.420649 0.005701 -0.005198 -412924.000000 0 0 1
27.031455 -13.900778 -34.015297 45.617668 -0.474978 2.412322 0.006464 -0.005058 -963229.000000 0 0 1
26.272915 -12.602578 -33.794197 44.622178 -0.447259 2.430028 0.001320 -0.002611 -166512.000000 0 0 1
25.597785 -12.191078 34.471840 44.633807 -0.444472 0.688302 0.005754 -0.005009 -329450.000000 0 0 1
24.995915 -11.003778 -34.648597 44.118071 -0.414694 2.474075 0.002733 -0.001563 -263705.000000 0 0 1
19.897146 -30.350589 9.406693 37.490539 -0.990511 1.317178 -0.001967 0.003375 -31893.800000 0 0 1
20.352246 -29.928889 8.165893 37.103020 -0.973606 1.348893 0.001648 0.001864 -326597.000000 0 0 1
21.566646 -30.503489 7.800793 38.163273 -0.955373 1.364940 0.003077 0.001227 -267395.000000 0 0 1
22.135746 -30.287989 6.323193 38.043873 -0.939669 1.403813 -0.001351 -0.000277 93260.000000 0 0 1
22.382946 -28.962189 5.960493 37.085471 -0.912841 1.409373 -0.003977 0.000219 196565.000000 0 0 1
23.257046 -28.847989 4.847993 37.371108 -0.892291 1.440704 -0.004160 0.000751 73637.900000 0 0 1
23.410146 -27.391389 4.390293 36.298730 -0.863607 1.449551 -0.004500 -0.002347 46780.300000 0 0 1
24.072746 -26.600389 5.360193 36.274088 -0.835238 1.422484 0.000370 -0.003289 26159.800000 0 0 1
23.909346 -25.209189 5.128493 35.120670 -0.811855 1.424247 -0.000164 -0.003213 179258.000000 0 0 1
24.624346 -24.324789 6.209493 35.165488 -0.779278 1.393286 -0.005349 -0.002117 991256.000000 0 0 1
26.044546 -24.191889 5.989993 36.047828 -0.748536 1.403854 -0.004444 0.000223 1228470.000000 0 0 1
26.758646 -23.399189 6.981593 36.225541 -0.718520 1.376857 -0.002492 -0.003498 275099.000000 0 0 1
26.466646 -21.857389 6.936993 35.019290 -0.690304 1.371387 -0.000780 -0.002225 -379916.000000 0 0 1
26.987746 -21.239589 5.810793 34.831363 -0.666769 1.403186 -0.002557 0.004988 -100834.000000 0 0 1
26.489446 -19.919389 5.800393 33.646952 -0.644764 1.397541 0.002281 0.004254 -302314.000000 0 0 1
26.599746 -19.097689 4.566693 33.062409 -0.622682 1.432230 0.003561 0.011487 886578.000000 0 0 1
27.870846 -18.437789 4.315693 33.695123 -0.584448 1.442363 -0.000039 0.013143 1057490.000000 0 0 1
27.917546 -17.923989 2.963893 33.308308 -0.570754 1.481695 -0.001921 0.014037 -17835.700000 0 0 1
29.011946 -16.872189 2.827893 33.680272 -0.526750 1.486734 -0.003271 0.005181 -221798.000000 0 0 1
28.641246 -15.725389 3.536993 32.865166 -0.502111 1.462966 -0.004567 0.002441 306902.000000 0 0 1
29.698946 -14.812689 3.831393 33.408423 -0.462656 1.455860 -0.004146 0.001920 248681.000000 0 0 1
29.105346 -13.583289 4.557593 32.440693 -0.436650 1.429840 -0.008040 -0.000126 132704.000000 0 0 1
28.679246 -13.969189 5.878693 32.437577 -0.453261 1.388558 -0.004290 0.002557 79135.000000 0 0 1
28.008546 -12.882089 6.497193 31.506196 -0.431084 1.363086 -0.003435 -0.000953 43652.800000 0 0 1
27.534846 -13.162589 7.960693 31.540357 -0.445921 1.315640 -0.010025 0.005432 35877.100000 0 0 1
26.330246 -13.851489 8.204193 30.861860 -0.484284 1.301725 0.003920 0.001061 -392114.000000 0 0 1
25.892146 -13.897589 9.541493 30.896380 -0.492613 1.256842 -0.002488 -0.001341 202541.000000 0 0 1
26.544546 -14.928789 10.502893 32.214786 -0.512317 1.238698 -0.002320 -0.000543 713705.000000 0 0 1
27.849846 -14.690189 11.056693 33.371635 -0.485388 1.233094 -0.011811 0.004390 587315.000000 0 0 1
28.257646 -15.824189 11.765593 34.457636 -0.510486 1.222336 -0.002446 0.004743 -132394.000000 0 0 1
28.824846 -15.719689 13.172093 35.376325 -0.499268 1.189265 0.009545 0.007960 360056.000000 0 0 1
30.149446 -15.196889 13.212993 36.256278 -0.466884 1.197772 0.014579 0.005746 227653.000000 0 0 1
30.564246 -14.922589 14.524893 36.984176 -0.454193 1.167195 0.017685 0.005116 211039.000000 0 0 1
32.100546 -14.930389 14.711893 38.337988 -0.435351 1.176951 0.012110 0.008896 239248.000000 0 0 1
32.790246 -13.746289 14.344693 38.339678 -0.396964 1.187319 0.012854 0.005595 236315.000000 0 0 1
34.106446 -13.748089 14.850893 39.658651 -0.383170 1.186973 0.008929 0.003308 -10938.100000 0 0 1
-34.519083 -12.530889 14.460593 39.467696 0.348221 1.195669 0.012088 0.002059 -390329.000000 0 0 1
-33.719783 -12.699989 13.365793 38.431210 0.360202 1.215589 0.009087 0.002398 -400089.000000 0 0 1
-32.963883 -11.592389 13.021393 37.290183 0.338161 1.214089 0.008667 -0.001036 -61594.900000 0 0 1
-31.979183 -11.696089 11.802893 36.038520 0.350628 1.237132 0.005190 -0.001516 21921.100000 0 0 1
-30.786683 -12.365189 12.070993 35.304768 0.381920 1.221850 -0.001882 0.000321 -455335.000000 0 0 1
-30.895183 -13.771589 11.926293 35.866495 0.419316 1.231823 -0.000007 0.003641 -743324.000000 0 0 1
-29.724283 -14.642489 12.355493 35.363734 0.457718 1.213884 0.003279 0.007088 -505708.000000 0 0 1
-28.605983 -14.604989 11.526393 34.124269 0.472058 1.226242 0.002518 0.001832 -428577.000000 0 0 1
-27.562483 -15.443289 11.983493 33.790380 0.510717 1.208265 0.008602 0.005852 332642.000000 0 0 1
-26.214583 -15.165389 11.268193 32.313551 0.524468 1.214598 0.007208 0.003728 24475.400000 0 0 1
-26.157983 -15.639989 9.956493 32.062144 0.538878 1.255038 0.006886 0.003943 1830390.000000 0 0 1
-24.864483 -15.325589 9.310693 30.656243 0.552366 1.262209 0.008578 0.001424 1794460.000000 0 0 1
-25.092983 -15.045789 7.794093 30.278399 0.540126 1.310451 0.006322 0.007196 -105678.000000 0 0 1
-25.336883 -16.155989 7.012793 30.856975 0.567642 1.341525 0.007268 0.008937 257343.000000 0 0 1
-25.331383 -15.736789 5.676193 30.356954 0.555889 1.382708 0.004584 0.005205 -671039.000000 0 0 1
-25.542883 -16.854189 4.694493 30.960311 0.583261 1.418580 0.001248 0.004304 -616744.000000 0 0 1
-26.911083 -17.110689 4.517393 32.208522 0.566344 1.430078 0.005112 0.000963 -274835.000000 0 0 1
-27.142083 -18.272289 3.762893 32.935218 0.592518 1.456295 0.002699 -0.000388 -528598.000000 0 0 1
-28.604683 -18.691189 3.841693 34.385274 0.578783 1.458838 0.000588 -0.000775 -626648.000000 0 0 1
-29.490083 -17.767889 3.247493 34.581919 0.542259 1.476751 -0.001371 -0.000818 -929036.000000 0 0 1
-30.780183 -18.201289 3.524193 35.932249 0.534021 1.472560 -0.005203 -0.000557 -863156.000000 0 0 1
-31.869383 -17.316289 2.910793 36.386593 0.497725 1.490714 0.004173 -0.006531 -236972.000000 0 0 1
-32.033783 -17.573789 1.522993 36.569398 0.501769 1.529138 0.000663 -0.006856 -639797.000000 0 0 1
-32.992483 -16.745289 0.961093 37.011246 0.469668 1.544826 0.004154 -0.007152 -720263.000000 0 0 1
-33.371683 -17.179789 -0.458907 37.536982 0.475418 1.583022 -0.000316 -0.002595 -116130.000000 0 0 1
-32.325283 -17.360489 -1.404807 36.718987 0.492851 1.609064 -0.005012 0.001940 173362.000000 0 0 1
-32.855183 -17.945389 -2.548007 37.523225 0.499918 1.638753 -0.002647 0.004063 -91378.200000 0 0 1
-31.780183 -18.507589 -3.471907 36.940020 0.527350 1.664923 -0.002769 0.001194 89163.100000 0 0 1
-32.424083 -19.337089 -4.378907 38.005513 0.537754 1.686270 -0.004500 -0.000477 551111.000000 0 0 1
-31.376583 -20.136689 -4.915707 37.605058 0.570571 1.701891 -0.008055 -0.002986 -78780.300000 0 0 1
-31.770583 -21.254289 -5.796207 38.661490 0.589611 1.721286 -0.008455 -0.004258 -714030.000000 0 0 1
-32.357883 -22.322889 -5.149007 39.646643 0.603898 1.701037 -0.000075 -0.005981 -57868.500000 0 0 1
-32.640583 -23.284489 -6.157707 40.564670 0.619636 1.723185 -0.000093 -0.002272 13872.300000 0 0 1
-33.227283 -24.655089 -5.665507 41.761510 0.638370 1.706879 -0.001559 0.001486 -236595.000000 0 0 1
-32.310283 -25.466689 -4.963707 41.438449 0.667499 1.690870 -0.000747 0.002085 -513116.000000 0 0 1
-32.840983 -26.718489 -4.748507 42.602302 0.682962 1.682490 -0.005274 0.005822 404247.000000 0 0 1
-31.815783 -27.769189 -4.155207 42.433921 0.717589 1.668875 -0.006877 0.000230 265938.000000 0 0 1
-30.766583 -28.090789 -5.045507 41.965846 0.739967 1.691317 -0.011665 0.001679 368137.000000 0 0 1
-29.962783 -29.224289 -4.668107 42.114352 0.772922 1.681868 -0.011450 0.001829 236770.000000 0 0 1
-28.881983 -29.125789 -3.597607 41.175519 0.789601 1.658280 -0.005352 0.001973 -699109.000000 0 0 1
-29.428083 -28.875389 -2.334107 41.294651 0.775919 1.627350 -0.010487 0.000215 323401.000000 0 0 1
-28.459683 -29.049689 -1.288207 40.687805 0.795657 1.602462 -0.011438 0.001225 262177.000000 0 0 1
-29.089883 -28.874889 0.115993 40.987730 0.781689 1.567966 -0.012956 0.004319 252260.000000 0 0 1
-29.735483 -30.039489 0.621393 42.272402 0.790484 1.556096 -0.010200 0.003574 -6536.070000 0 0 1
-30.516183 -29.768289 1.758093 42.667076 0.772993 1.529580 -0.005813 0.005971 -387522.000000 0 0 1
-31.049983 -31.023189 2.385293 43.957131 0.784967 1.516506 -0.003042 0.001507 -594759.000000 0 0 1
-31.970583 -30.789089 3.446993 44.519299 0.766575 1.493292 -0.002993 0.002734 367708.000000 0 0 1
-32.515583 -31.965889 4.015993 45.773458 0.776874 1.482947 0.002708 0.004603 466531.000000 0 0 1
-33.473583 -32.867889 3.110493 47.015466 0.776268 1.504589 -0.000225 0.005125 -61659.700000 0 0 1
-34.256583 -33.741589 3.888193 48.240298 0.777825 1.490108 0.000429 0.000187 30596.900000 0 0 1
34.291146 -34.358489 3.036893 48.637549 -0.786379 1.508316 -0.000497 0.005684 -624406.000000 0 0 1
33.212646 34.388822 3.918393 47.968997 0.802795 1.489019 0.000750 0.002278 -49797.100000 0 0 1
32.462846 -34.204389 4.751793 47.395740 -0.811515 1.470370 -0.008554 -0.000727 398008.000000 0 0 1
31.817946 -33.060589 4.199593 46.076250 -0.804549 1.479525 -0.004055 0.001925 -680540.000000 0 0 1
30.769546 -33.032689 3.075093 45.247980 -0.820855 1.502783 0.000797 0.006779 -454752.000000 0 0 1
31.293846 -33.469489 1.854493 45.857940 -0.818979 1.530345 -0.001965 0.005948 -3882.940000 0 0 1
30.417346 -33.127689 0.765793 44.980497 -0.828025 1.553771 0.002075 0.006075 -640537.000000 0 0 1
30.679246 -33.948889 -0.553307 45.760784 -0.835947 1.582888 0.007146 0.009903 -517741.000000 0 0 1
31.818746 -33.677289 -1.265407 46.348610 -0.813767 1.598102 0.005776 0.009765 -453982.000000 0 0 1
33.074346 -33.849289 -0.599607 47.329127 -0.796977 1.583466 -0.004942 0.010303 381570.000000 0 0 1
34.334446 -33.484589 -1.470507 47.981603 -0.772868 1.601448 -0.004581 0.007145 259614.000000 0 0 1
-34.705783 -34.548689 -2.206007 49.020096 0.783130 1.615814 -0.013252 0.001982 55770.400000 0 0 1
-33.961183 -34.122089 -3.327707 48.257150 0.787762 1.639809 -0.007634 0.000611 -503304.000000 0 0 1
-33.292583 34.202122 -4.116607 47.907491 -0.798873 1.656831 -0.009397 -0.002293 -267899.000000 0 0 1
-32.136183 33.655922 -3.523007 46.667622 -0.808493 1.646360 -0.003830 0.000650 -179329.000000 0 0 1
-31.624783 32.711622 -4.403207 45.711764 -0.802290 1.667271 -0.005521 0.001552 337722.000000 0 0 1
-30.395483 31.900422 -3.861507 44.231590 -0.809551 1.658210 0.001040 -0.000692 -373297.000000 0 0 1
-29.215583 32.605022 -3.736107 43.938551 -0.840170 1.655929 0.000647 -0.006917 -720184.000000 0 0 1
-28.110583 31.812222 -3.340407 42.583808 -0.847093 1.649320 0.011812 -0.006950 431075.000000 0 0 1
-27.891483 31.570922 -1.830007 42.166419 -0.847198 1.614210 0.009772 -0.009760 -431031.000000 0 0 1
-28.935283 30.802722 -1.277307 42.281081 -0.816648 1.601011 0.011070 -0.005899 -297089.000000 0 0 1
-28.858683 30.677422 0.138193 42.118249 -0.815937 1.567515 0.013335 -0.006384 166804.000000 0 0 1
-30.209983 30.096122 0.646793 42.647837 -0.783510 1.555630 0.010852 -0.001622 112740.000000 0 0 1
-30.395483 28.801222 0.295893 41.874614 -0.758473 1.563730 0.013434 -0.002562 -169439.000000 0 0 1
-31.287783 28.701422 -0.789607 42.465521 -0.742311 1.589391 0.009618 -0.004487 -283693.000000 0 0 1
-31.626483 27.240622 -1.098507 41.755151 -0.711031 1.597108 0.005020 -0.001230 -74815.200000 0 0 1
-32.123783 26.473722 -0.036507 41.626875 -0.689274 1.571673 0.008444 -0.002042 -24896.400000 0 0 1
-32.820783 25.362422 -0.567407 41.482264 -0.657906 1.584475 0.012911 0.006680 -300458.000000 0 0 1
-33.049383 24.190722 0.361093 40.958310 -0.631853 1.561980 0.001597 0.007692 -175191.000000 0 0 1
-31.916483 23.476422 0.801393 39.628860 -0.634194 1.550572 0.003754 0.000583 -18870.800000 0 0 1
-31.236483 24.040122 1.872593 39.460765 -0.655938 1.523324 0.003656 0.001210 -1843640.000000 0 0 1
-29.754883 23.865522 1.891593 38.190239 -0.676002 1.521245 0.007348 -0.003149 -974055.000000 0 0 1
-28.836983 24.712822 1.211393 37.996877 -0.708534 1.538910 0.010101 -0.002659 435586.000000 0 0 1
-28.611883 26.000422 1.835093 38.704384 -0.737616 1.523365 0.012739 -0.002662 -237651.000000 0 0 1
-27.885983 27.052222 0.975993 38.863908 -0.770223 1.545681 0.014130 -0.003588 1639870.000000 0 0 1
-26.503783 26.690022 0.655793 37.619647 -0.788899 1.553363 0.018001 -0.004529 1307850.000000 0 0 1
-25.876183 27.563922 -0.238907 37.807456 -0.816970 1.577115 0.019701 -0.005449 822685.000000 0 0 1
-24.605883 27.009422 -0.978107 36.550172 -0.831931 1.597560 0.021125 -0.003735 293081.000000 0 0 1
-24.921383 25.939922 -1.905207 36.022003 -0.805421 1.623711 0.024387 -0.003925 -300155.000000 0 0 1
-23.851783 25.393422 -2.648907 34.939235 -0.816693 1.646684 0.019441 -0.001308 -110230.000000 0 0 1
-22.864883 24.515422 -1.917707 33.578064 -0.820220 1.627939 0.012894 -0.000731 -681561.000000 0 0 1
-23.405883 23.211922 -1.689707 33.007329 -0.781238 1.622011 0.024147 -0.001764 -91412.700000 0 0 1
-22.533783 22.375722 -0.973507 31.770931 -0.781879 1.601443 0.005618 -0.002598 -935308.000000 0 0 1
-23.088983 20.931122 -0.795607 31.174445 -0.736417 1.596320 0.003752 -0.004322 73804.200000 0 0 1
-24.133683 20.694322 0.145693 31.791679 -0.708825 1.566214 0.000627 -0.006877 740576.000000 0 0 1
-25.404183 21.305222 -0.100207 33.155619 -0.697868 1.573819 0.003806 -0.010235 76664.000000 0 0 1
-26.270283 20.569022 -1.133807 33.384097 -0.664274 1.604765 -0.004002 -0.006565 -706079.000000 0 0 1
-26.651583 19.282122 -0.672607 32.902272 -0.626317 1.591240 -0.007690 -0.005514 -96802.900000 0 0 1
-27.423683 18.760722 -1.722607 33.271466 -0.599979 1.622594 -0.002351 -0.001328 -77896.100000 0 0 1
-27.676783 17.238422 -1.621107 32.646524 -0.557050 1.620473 -0.014811 -0.002181 505118.000000 0 0 1
-28.592783 16.934622 -0.529007 33.235651 -0.534716 1.586714 -0.007438 -0.000928 577795.000000 0 0 1
-28.707583 15.556522 -0.257507 32.652672 -0.496600 1.578683 -0.005736 -0.006023 -436527.000000 0 0 1
-27.532683 14.672022 0.200293 31.198670 -0.489616 1.564376 -0.005837 -0.004795 -803012.000000 0 0 1
-27.255283 14.824922 1.562093 31.065558 -0.498170 1.520491 -0.003065 -0.000744 708392.000000 0 0 1
-26.019783 14.299522 2.088593 29.763529 -0.502508 1.500566 -0.006535 -0.002447 611996.000000 0 0 1
-25.790283 12.770222 1.947793 28.844604 -0.459765 1.503218 -0.005682 0.001856 -467645.000000 0 0 1
-25.531683 12.307322 0.669793 28.351114 -0.449178 1.547169 -0.012944 0.001114 392899.000000 0 0 1
-25.170883 10.933622 0.656793 27.450844 -0.409785 1.546868 -0.006560 0.010027 -81126.300000 0 0 1
-24.911583 10.319522 -0.760607 26.975137 -0.392727 1.598997 -0.012265 0.009683 -382863.000000 0 0 1
-26.118783 10.084822 -1.437507 28.034994 -0.368478 1.622094 -0.014482 0.000043 20698.100000 0 0 1
-26.088883 9.195322 -2.552707 27.779490 -0.338866 1.662818 -0.012982 -0.001257 -920520.000000 0 0 1
-27.437583 8.763722 -3.100607 28.969597 -0.309164 1.678031 -0.003378 -0.003460 -642183.000000 0 0 1
-27.441883 7.884322 -4.199007 28.859161 -0.279774 1.716815 0.001036 -0.000828 16718.400000 0 0 1
-28.757083 7.630222 -4.627107 30.109803 -0.259357 1.725082 0.011310 -0.002649 -248571.000000 0 0 1
-10.946154 18.006522 -19.925507 29.001361 -1.024589 2.328223 0.014837 0.001677 134696.000000 0 0 1
-11.425354 17.141922 -20.931307 29.368415 -0.982898 2.364157 0.005508 -0.002949 -292562.000000 0 0 1
-10.616754 17.096522 -22.111607 29.898657 -1.015086 2.403201 0.004602 -0.007227 -244040.000000 0 0 1
-10.707554 15.882822 -23.050207 29.970449 -0.977624 2.448225 0.001367 -0.003630 -142476.000000 0 0 1
-9.948054 14.747522 -22.690307 28.832330 -0.977351 2.476686 0.006582 -0.006413 -82076.000000 0 0 1
-10.082754 13.670322 -23.534307 29.024184 -0.935301 2.516402 0.000175 -0.005887 -78741.500000 0 0 1
-9.337554 12.372522 -23.114707 27.830898 -0.924293 2.550875 -0.001224 -0.000417 1203900.000000 0 0 1
-7.894554 12.494922 -23.150807 27.466469 -1.007307 2.573401 -0.001999 -0.000191 1009300.000000 0 0 1
-7.330254 11.359722 -22.518307 26.264997 -0.997743 2.600896 -0.000877 -0.003023 -894528.000000 0 0 1
-5.852754 11.484922 -22.250807 25.714910 -1.099496 2.616521 0.003736 -0.000857 -482299.000000 0 0 1
-5.106454 11.424622 -23.496307 26.620937 -1.150466 2.652214 -0.004067 -0.002851 -99986.300000 0 0 1
-3.710654 11.316822 -23.331307 26.195215 -1.253954 2.669614 -0.000665 0.000973 134464.000000 0 0 1
-3.066554 10.816622 -24.692507 27.131586 -1.294541 2.714326 0.007970 0.000851 -188888.000000 0 0 1
-3.079454 9.426122 -25.057807 26.948627 -1.255033 2.764764 0.003698 -0.003404 -42859.600000 0 0 1
-2.809254 9.247422 -26.457127 28.167114 -1.275868 2.791356 0.004838 -0.002541 -408783.000000 0 0 1
-2.419254 7.753622 -26.770407 27.975456 -1.268352 2.847015 0.010721 0.004645 30514.600000 0 0 1
-1.086054 7.512822 -26.329067 27.401492 -1.427231 2.860895 0.007987 -0.001148 223054.000000 0 0 1
-0.893754 6.197422 -25.819887 26.568278 -1.427570 2.903677 0.002849 0.003097 426101.000000 0 0 1
0.527346 5.952122 -25.217487 25.915777 1.482429 2.908928 0.000680 0.000293 479143.000000 0 0 1
0.754946 6.445022 -23.901607 24.766814 1.454191 2.876491 -0.007916 -0.003313 -18994.800000 0 1 0
1.598346 5.568022 -23.167007 23.880281 1.291255 2.896568 -0.002669 -0.001798 8693.330000 0 1 0
1.777946 6.108322 -21.700207 22.613529 1.287553 2.856415 -0.000388 -0.006073 744282.000000 0 1 0
2.670646 7.249522 -21.730007 23.062548 1.217834 2.799995 0.004962 0.001477 516525.000000 0 1 0
2.411746 7.990222 -20.556307 22.186075 1.277655 2.755908 0.004799 -0.000028 -116414.000000 0 1 0
3.077446 9.345222 -20.570807 22.802674 1.252674 2.695460 -0.002218 -0.000050 -652384.000000 0 1 0
2.587646 10.290322 -19.648707 22.330659 1.324440 2.646444 -0.004451 -0.001440 -70201.100000 0 1 0
3.218546 11.570022 -19.707707 23.078522 1.299476 2.594310 -0.004235 0.003558 52176.300000 0 1 0
4.494446 11.657022 -18.844407 22.609686 1.202803 2.556147 -0.003516 -0.002679 -384737.000000 0 1 0
5.586246 10.983622 -19.370907 22.958182 1.100294 2.575024 0.001426 0.007292 -1004110.000000 0 1 0
6.553346 10.799622 -18.378007 22.300882 1.025383 2.539396 0.002921 0.008753 -402430.000000 0 1 0
7.541146 9.637022 -18.636707 22.295020 0.906806 2.560591 0.004453 0.000957 -356394.000000 0 1 0
7.119046 8.289122 -18.777507 21.725219 0.861191 2.614590 0.001712 -0.003044 -409304.000000 0 1 0
6.562446 8.106422 -20.051607 22.601919 0.890267 2.661959 0.001666 0.001554 -321911.000000 0 1 0
6.034246 6.750422 -20.300607 22.228247 0.841358 2.722061 0.003618 0.002931 -85062.200000 0 1 0
7.116746 5.823422 -20.303007 22.288392 0.685783 2.716312 0.004838 0.003637 325777.000000 0 1 0
6.719446 4.491822 -20.463207 22.001597 0.589258 2.765422 0.000963 -0.006183 -247485.000000 0 1 0
6.756846 4.034222 -21.893707 23.265088 0.538253 2.796530 0.002412 -0.013418 -177380.000000 0 1 0
5.783746 4.644222 -22.720707 23.900859 0.676554 2.826034 -0.000294 -0.009559 71422.500000 0 1 0
5.990646 4.262222 -24.058307 25.156640 0.618389 2.845008 -0.001406 -0.005202 -33339.700000 0 0 1
5.005446 4.934922 -25.023707 25.992189 0.778304 2.867753 -0.001994 -0.006012 -137134.000000 0 0 1
5.370046 6.273822 -25.306517 26.619881 0.862861 2.826160 -0.008393 -0.001187 281491.000000 0 0 1
5.024046 7.237022 -24.335107 25.880745 0.963964 2.794244 0.002089 -0.001312 -823533.000000 0 0 1
4.805946 8.704022 -24.786807 26.706608 1.066302 2.760114 0.008151 0.001651 -320256.000000 0 0 1
3.685546 8.964422 -25.569957 27.345325 1.180732 2.779270 0.012955 0.009956 -147584.000000 0 0 1
2.504646 9.081522 -24.790107 26.519742 1.301690 2.778434 0.005179 0.012141 -157944.000000 0 0 1
1.240846 9.618822 -25.498917 27.281060 1.442503 2.778139 0.009008 0.007690 27045.000000 0 0 1
1.314146 10.985822 -25.878887 28.144841 1.451740 2.737576 0.013632 0.006891 -430591.000000 0 0 1
0.177346 11.320122 -26.593527 28.903154 1.555131 2.739109 0.015215 0.006683 -801295.000000 0 0 1
0.138346 12.815322 -26.915037 29.810583 1.560001 2.697192 0.010402 0.004627 -415560.000000 0 0 1
-0.159754 13.673122 -25.837067 29.232411 -1.559113 2.654826 0.010422 0.006160 30988.100000 0 0 1
-0.225054 14.999322 -26.210807 30.199946 -1.555793 2.621774 0.009929 0.003312 -91786.700000 0 0 1
-0.636054 15.848922 -25.015207 29.620153 -1.530686 2.576489 0.010690 -0.002417 -1157620.000000 0 0 1
-1.898254 15.530022 -24.599307 29.153231 -1.449168 2.575109 0.006106 0.004778 -1292480.000000 0 0 1
-2.160554 16.284022 -23.442607 28.625045 -1.438887 2.530383 0.003104 0.001195 831067.000000 0 0 1
-3.468954 15.854222 -22.641707 27.857439 -1.355388 2.519688 0.003952 -0.004756 1762820.000000 0 0 1
-4.765354 16.120822 -23.178707 28.632883 -1.283379 2.514119 0.003262 -0.003883 374352.000000 0 0 1
-5.125154 15.094622 -24.085507 28.882979 -1.243475 2.556932 0.004922 -0.001383 -422785.000000 0 0 1
-6.621054 15.198122 -24.428007 29.522005 -1.159940 2.545349 0.004184 -0.000906 -121238.000000 0 0 1
-6.936654 16.371422 -25.185097 30.829041 -1.170023 2.526860 -0.000615 0.000538 535674.000000 0 0 1
-8.248354 16.326322 -25.770027 31.601874 -1.102983 2.524318 -0.000022 -0.002018 732907.000000 0 0 1
-8.774354 17.697922 -26.347047 32.929814 -1.110527 2.498253 -0.001379 0.001621 34173.400000 0 0 1
-9.244354 18.606722 -25.387457 32.805353 -1.109689 2.455744 -0.000161 -0.001754 -429591.000000 0 0 1
-10.182054 19.476922 -25.946547 34.003647 -1.089095 2.438818 -0.001262 0.000276 -89343.700000 0 0 1
-10.940954 20.189522 -24.794007 33.794438 -1.074184 2.394505 0.007770 -0.000682 -199399.000000 0 0 1
-10.146254 21.199622 -24.213207 33.743886 -1.124410 2.371087 -0.002449 -0.003321 9408.070000 0 0 1
-10.293854 22.529822 -24.696707 34.978331 -1.142220 2.354711 -0.004618 -0.003309 -220592.000000 0 0 1
-9.700854 22.920522 -26.065567 36.039849 -1.170418 2.379283 -0.009202 -0.004428 -430602.000000 0 0 1
-10.382454 22.422422 -27.184177 36.736084 -1.137152 2.403845 -0.004257 -0.002288 -25923.800000 0 0 1
-9.953554 23.123622 -28.299827 37.876845 -1.164319 2.414566 -0.015475 0.000625 -216754.000000 0 0 1
-10.534254 22.570722 -29.628927 38.707639 -1.134124 2.442543 -0.016631 0.002461 -293968.000000 0 0 1
-9.872154 21.458122 -30.144787 38.296457 -1.139603 2.476959 -0.022112 0.006623 -79532.600000 0 0 1
-10.215654 20.215322 -29.546487 37.229205 -1.102884 2.487561 -0.010027 0.005610 -50998.700000 0 0 1
-9.199054 19.175722 -30.031387 36.799662 -1.123501 2.525388 -0.014103 0.004518 185827.000000 0 0 1
-7.848254 19.479822 -29.678667 36.357693 -1.187800 2.525767 -0.012829 0.007797 222869.000000 0 0 1
-6.919354 18.577122 -30.245377 36.163099 -1.214249 2.561406 -0.014346 0.008429 15645.800000 0 0 1
-6.715854 17.165522 -29.602547 34.872176 -1.197864 2.584673 -0.008791 0.005989 -1538430.000000 0 0 1
-7.749154 16.276922 -29.705587 34.747798 -1.126465 2.596137 -0.016225 0.002122 -771966.000000 0 0 1
-7.439054 15.031922 -29.116817 33.601894 -1.111250 2.618990 -0.015400 0.001141 845793.000000 0 0 1
-8.715054 14.062322 -29.041027 33.422782 -1.015985 2.623770 -0.011902 0.000329 680389.000000 0 0 1
-9.581154 14.452322 -28.017767 32.949407 -0.985372 2.587403 -0.009282 0.003565 -828667.000000 0 0 1
-10.815454 13.812722 -28.210167 33.220158 -0.906503 2.585243 0.002967 -0.000376 -289645.000000 0 0 1
-11.876754 14.228322 -27.186837 32.903291 -0.875237 2.543241 -0.001031 0.002546 -239238.000000 0 0 1
-12.163554 15.619922 -27.327667 33.745154 -0.909166 2.514650 -0.004376 0.003486 -600538.000000 0 0 1
-12.921854 15.981922 -26.205387 33.303430 -0.890876 2.476513 -0.000494 -0.000479 379795.000000 0 0 1
-13.952754 17.147322 -26.451407 34.472989 -0.887758 2.445429 -0.001769 -0.004743 374955.000000 0 0 1
-13.391154 18.435922 -26.680067 35.086069 -0.942596 2.434752 0.000371 0.000514 104090.000000 0 0 1
-14.389054 19.437622 -26.845707 36.132506 -0.933553 2.408307 0.001567 -0.000151 115292.000000 0 0 1
-13.780254 20.780122 -27.330627 36.995568 -0.985235 2.402016 0.004096 -0.003832 24425.900000 0 0 1
-14.728654 21.783322 -27.621887 38.136794 -0.976261 2.380792 0.003960 -0.001685 98363.700000 0 0 1
-14.133154 23.069022 -27.796847 38.789052 -1.021130 2.369734 0.001808 -0.003115 137477.000000 0 0 1
-13.632554 23.752022 -26.487097 38.099493 -1.049749 2.339506 -0.003303 -0.002592 322128.000000 0 0 1
-13.088154 25.066022 -26.817667 38.971689 -1.089588 2.329708 -0.000159 -0.005934 245851.000000 0 0 1
-12.633654 25.796622 -25.648707 38.508844 -1.115390 2.299693 -0.001906 -0.006808 27199.700000 0 0 1
-12.560954 27.336522 -25.822847 39.646973 -1.140076 2.280118 -0.006490 -0.005562 -35138.600000 0 0 1
-13.803154 27.909222 -26.169687 40.673139 -1.111500 2.269747 -0.006333 -0.005117 -460827.000000 0 0 1
-14.337154 28.655322 -25.151727 40.734394 -1.106884 2.236302 -0.004168 -0.009499 -511231.000000 0 0 1
-15.706054 29.207422 -25.574677 41.878607 -1.077413 2.227723 -0.003991 -0.005621 -657342.000000 0 0 1
-16.724854 28.285822 -25.350087 41.502234 -1.036813 2.227883 -0.001204 -0.007670 -1022320.000000 0 0 1
-17.860254 28.690622 -26.102707 42.702363 -1.013988 2.228462 0.000239 -0.001797 -330176.000000 0 0 1
-18.940354 27.638422 -25.845957 42.315870 -0.970011 2.227850 0.004342 -0.000793 -522491.000000 0 0 1
-19.397954 27.708122 -24.489207 41.758136 -0.960015 2.197470 0.001376 0.000039 -338843.000000 0 0 1
-20.218454 26.623422 -24.170407 41.252892 -0.921291 2.196797 0.006952 -0.005726 -542267.000000 0 0 1
-20.727554 26.669122 -22.752007 40.725022 -0.910106 2.163582 0.005075 -0.001965 -515525.000000 0 0 1
-21.649354 27.720422 -22.678307 41.849993 -0.907755 2.143487 0.004639 -0.001075 -416524.000000 0 0 1
-21.878254 28.119922 -21.322607 41.521580 -0.909594 2.110091 0.004549 0.000267 -389513.000000 0 0 1
-23.152454 28.927722 -20.982507 42.580686 -0.895839 2.086067 0.002629 0.003047 -350728.000000 0 0 1
-24.289954 28.157222 -21.209407 42.809695 -0.859001 2.089131 0.009518 -0.002014 -749461.000000 0 0 1
-25.474444 28.898822 -21.057007 43.903152 -0.848294 2.071023 0.002549 -0.000175 485291.000000 0 0 1
-26.752094 28.072722 -21.427607 44.304566 -0.809482 2.075609 0.001611 -0.003098 421830.000000 0 0 1
-26.870034 27.944122 -22.834207 44.991929 -0.804991 2.103098 0.000381 -0.003988 -1041650.000000 0 0 1
-28.171354 27.682222 -23.193507 45.802504 -0.776641 2.101779 -0.007394 -0.001776 -1022770.000000 0 0 1
-28.246654 27.241122 -24.658107 46.346245 -0.767278 2.131806 -0.004933 0.001864 103662.000000 0 0 1
-27.949774 25.862322 -24.881307 45.487680 -0.746626 2.149561 0.000175 0.006890 -172315.000000 0 0 1
-28.170434 25.552422 -26.245367 46.209511 -0.736705 2.174827 0.002207 0.004186 -75783.800000 0 0 1
-28.291024 24.011422 -26.554957 45.629992 -0.703756 2.191937 -0.000591 0.001228 900561.000000 0 0 1
-27.062174 23.259022 -26.298577 44.327853 -0.709964 2.205917 0.002011 0.001057 1210980.000000 0 0 1
-27.178414 22.050322 -27.032667 44.222709 -0.681604 2.228479 0.004125 0.003381 117271.000000 0 0 1
-26.012884 21.068422 -26.767827 42.860998 -0.680762 2.245321 0.003687 -0.003065 67617.500000 0 0 1
-26.363654 20.316722 -25.595217 41.987219 -0.656576 2.226346 0.004859 -0.002959 695475.000000 0 0 1
-25.594414 19.097122 -25.609107 40.934099 -0.641029 2.246720 0.000909 -0.005850 151672.000000 0 0 1
-26.463074 17.839322 -25.744547 41.003871 -0.593146 2.249593 0.011167 -0.008188 -37101.900000 0 0 1
-26.962094 17.658022 -27.073047 42.091687 -0.579826 2.269456 0.014902 -0.004837 121004.000000 0 0 1
-27.589054 16.413222 -27.151577 42.044713 -0.536674 2.272839 0.010221 -0.005235 -182961.000000 0 0 1
-28.365554 16.040922 -28.453317 43.260919 -0.514671 2.288576 0.003711 -0.003247 410129.000000 0 0 1
-29.594004 16.740122 -28.607687 44.434632 -0.514786 2.270270 0.001610 -0.000296 367253.000000 0 0 1
-30.382574 16.142222 -29.628347 45.403867 -0.488372 2.281743 0.000352 0.001275 -172173.000000 0 0 1
-31.702604 16.835022 -29.964667 46.758468 -0.488162 2.266387 0.003090 0.002900 -694305.000000 0 0 1
-32.662094 16.655222 -28.974707 46.730530 -0.471556 2.239588 -0.003790 0.003553 -974258.000000 0 0 1
-33.875404 17.096322 -29.504897 48.066269 -0.467387 2.231709 -0.005401 0.006076 348875.000000 0 0 1
34.371698 16.610322 -28.711187 47.766606 0.450163 2.215639 -0.005699 0.009932 662870.000000 0 0 1
34.017829 17.504822 -27.675307 47.218154 0.475242 2.197053 -0.003582 0.010104 -559237.000000 0 0 1
32.832025 17.076922 -27.101677 45.870078 0.479622 2.202891 -0.007774 0.008301 -576808.000000 0 0 1
32.244965 18.046122 -26.049647 45.210446 0.510227 2.184851 -0.016492 0.009524 162542.000000 0 0 1
31.590465 19.221522 -26.560427 45.528899 0.546617 2.193674 -0.013345 0.010275 240375.000000 0 0 1
31.147755 20.043122 -25.465317 44.948768 0.571782 2.173098 -0.011969 0.008349 -583164.000000 0 0 1
30.477265 21.354322 -25.848137 45.310009 0.611171 2.177878 -0.012520 0.004365 416711.000000 0 0 1
29.191625 21.151322 -26.432757 44.701455 0.627025 2.203488 -0.007483 0.003906 -142415.000000 0 0 1
28.145195 21.359022 -25.525127 43.587750 0.649165 2.196420 -0.008980 0.006528 302365.000000 0 0 1
26.768355 20.919322 -26.155157 42.874877 0.663355 2.226901 0.000482 0.006307 671710.000000 0 0 1
26.669375 19.529522 -26.334687 42.263146 0.632065 2.243512 -0.003082 0.006209 -357819.000000 0 0 1
25.385375 19.227222 -26.790987 41.615626 0.648229 2.270214 -0.005015 0.002411 -641265.000000 0 0 1
25.267635 17.717122 -26.984217 40.993875 0.611516 2.289288 -0.007469 -0.000432 680301.000000 0 0 1
26.273055 17.116422 -27.854687 41.941971 0.577416 2.297118 -0.012073 -0.001486 888366.000000 0 0 1
27.372955 16.603922 -27.118967 41.957208 0.545245 2.273585 -0.007553 0.004574 -335791.000000 0 0 1
28.348525 15.752422 -27.947687 42.811808 0.507186 2.282075 -0.007119 0.005376 -431038.000000 0 0 1
27.906745 14.657622 -28.763187 42.672629 0.483632 2.310465 -0.007558 0.007466 92296.900000 0 0 1
27.018605 13.729122 -28.103247 41.331420 0.470135 2.318489 -0.009489 0.003132 -97630.600000 0 0 1
27.455445 12.757522 -26.996737 40.563280 0.434980 2.299022 -0.007042 -0.001909 -414220.000000 0 0 1
27.837635 13.423422 -25.806437 40.262816 0.449310 2.266531 -0.003794 0.000773 33082.400000 0 0 1
28.478645 12.606422 -24.837707 39.835497 0.416735 2.244017 -0.005626 -0.001775 -169137.000000 0 0 1
-14.056654 -31.724289 -25.910187 43.305402 1.153705 2.212190 0.003670 0.007002 166935.000000 0 0 1
-13.314254 -30.496289 -25.968757 42.209825 1.159153 2.233474 0.001407 0.005811 390570.000000 0 0 1
-13.449754 -29.918989 -27.263547 42.653755 1.148326 2.264232 -0.000960 0.004904 -415969.000000 0 0 1
-12.757854 -28.572089 -27.407817 41.597062 1.150845 2.290136 0.003305 0.004080 -527521.000000 0 0 1
-13.086854 -27.536589 -26.534787 40.418120 1.127141 2.286975 0.003480 0.001419 -286432.000000 0 0 1
-12.447254 -26.364789 -26.951517 39.704163 1.129703 2.316935 -0.001908 -0.001872 -463782.000000 0 0 1
-12.784254 -25.017089 -26.183727 38.404160 1.098371 2.321009 -0.002331 -0.001850 -388577.000000 0 0 1
-12.354454 -24.934189 -24.853007 37.309761 1.110769 2.299799 0.000422 -0.005806 -31212.300000 0 0 1
-12.810654 -23.694089 -24.409807 36.350535 1.075145 2.307043 0.000472 -0.008401 -255625.000000 0 0 1
-12.169454 -23.245589 -23.070007 34.938206 1.088513 2.292026 0.002323 -0.009805 -435328.000000 0 0 1
-10.823754 -22.906689 -23.204907 34.356044 1.129377 2.312336 0.003520 -0.007983 -491439.000000 0 0 1
-10.259354 -22.408089 -21.943207 32.998199 1.141441 2.298266 0.007800 -0.005684 686734.000000 0 0 1
-8.769754 -21.983789 -22.050607 32.348491 1.191222 2.320823 0.002889 -0.001427 225846.000000 0 0 1
-8.489654 -20.896589 -22.888807 32.134703 1.184897 2.363533 0.003408 -0.006529 -458822.000000 0 0 1
-7.095854 -20.789989 -22.979307 31.790303 1.241883 2.378700 0.002803 -0.005468 -323348.000000 0 0 1
-6.786854 -19.648989 -23.969807 31.728470 1.238221 2.427163 0.001628 -0.000501 25297.200000 0 0 1
-7.385754 -18.466789 -23.477407 30.769470 1.190335 2.438753 0.011020 -0.000953 -67747.700000 0 0 1
-7.764854 -17.460989 -24.401407 30.993673 1.152361 2.477219 0.013026 -0.000425 940361.000000 0 0 1
-6.575354 -16.710289 -25.169937 30.919165 1.195913 2.521899 0.008466 -0.002798 936962.000000 0 0 1
-5.919054 -17.527689 -26.116377 32.005003 1.245123 2.525269 0.020177 0.000552 -130527.000000 0 0 1
-5.178454 -16.699089 -26.973977 32.144539 1.270096 2.566508 0.002782 0.000900 -395197.000000 0 0 1
-4.974554 -17.324789 -28.360437 33.603704 1.291184 2.575434 0.001998 0.003205 -389476.000000 0 0 1
-6.105954 -17.215789 -29.183387 34.428711 1.229966 2.582330 0.013659 0.001635 -16303.000000 0 0 1
-5.883554 -18.033589 -30.375897 35.812312 1.255429 2.583368 0.007624 0.003070 -701868.000000 0 0 1
-6.751354 -17.761189 -31.547197 36.827521 1.207546 2.599479 0.010004 0.006414 -530112.000000 0 0 1
-6.611654 -16.533989 -32.350787 36.927770 1.190391 2.638417 0.004355 0.005950 -147688.000000 0 0 1
-6.498654 -15.301089 -31.605087 35.710466 1.169164 2.657370 0.008829 0.004960 -162863.000000 0 0 1
-6.997254 -14.086589 -32.377997 35.996226 1.109767 2.689381 0.005457 0.003415 -495468.000000 0 0 1
-6.249154 -13.676089 -33.504967 36.724245 1.142186 2.719758 -0.004466 -0.001344 -201415.000000 0 0 1
-6.974954 -12.905689 -34.457078 37.449927 1.075310 2.739091 -0.005002 -0.002087 -813356.000000 0 0 1
-7.246654 -11.446989 -34.041087 36.638002 1.006421 2.762821 -0.008221 -0.002987 334986.000000 0 0 1
-6.180154 -10.490489 -34.181740 36.285480 1.038415 2.799404 -0.014281 -0.003425 189272.000000 0 0 1
-5.821854 -10.182289 33.920358 35.890997 1.051398 0.332915 -0.021489 -0.004325 162641.000000 0 0 1
-4.674654 -9.128589 33.854873 35.374227 1.097524 0.294149 -0.004317 -0.004736 73709.600000 0 0 1
-4.373554 -8.891889 32.502133 33.979146 1.113683 0.295928 -0.002146 -0.003135 116291.000000 0 0 1
-3.440754 -7.818189 32.328563 33.437985 1.156209 0.258316 -0.006576 -0.011885 -457532.000000 0 0 1
-3.631054 -6.794689 31.104773 32.044645 1.080012 0.242794 -0.005824 -0.007267 232472.000000 0 0 1
-4.761154 -5.925289 31.104503 32.019803 0.893906 0.239678 -0.002676 -0.006227 371055.000000 0 0 1
-5.940654 -6.567689 30.596983 31.852807 0.835486 0.281736 -0.005590 -0.001824 -438368.000000 0 0 1
-7.108454 -5.607189 30.618813 31.929335 0.667878 0.287501 -0.007104 -0.000645 -629351.000000 0 0 1
-8.268654 -6.238489 30.111113 31.842872 0.646359 0.331315 -0.003561 0.002915 -926564.000000 0 0 1
-9.330554 -5.338089 30.174743 32.032321 0.519659 0.342228 -0.004449 0.002596 -196174.000000 0 0 1
-10.536954 -5.904489 29.371383 31.757968 0.510762 0.390153 0.000976 -0.000624 -114898.000000 0 0 1
-10.231354 -5.900089 27.955033 30.347579 0.523087 0.399741 0.001637 0.001136 495115.000000 0 0 1
-11.243854 -6.584089 27.255313 30.209710 0.529743 0.445944 -0.000893 0.000264 57995.000000 0 0 1
-10.927254 -6.324289 25.768613 28.695347 0.524658 0.455578 -0.002274 0.001264 -103059.000000 0 0 1
-9.770154 -6.995789 25.335703 28.040949 0.621408 0.442871 -0.001012 0.004086 81903.300000 0 0 1
-9.114254 -6.325789 24.272333 26.687664 0.606725 0.428725 -0.000625 0.007156 -244050.000000 0 0 1
-9.777854 -6.563789 22.883433 25.735992 0.591197 0.475289 -0.006974 0.006395 -198972.000000 0 0 1
-10.977554 -5.838489 22.792233 25.963061 0.488807 0.499397 -0.008477 0.004197 -57549.500000 0 0 1
-11.693554 -6.080789 21.560533 25.269978 0.479529 0.548692 -0.010554 0.001673 -20266.600000 0 0 1
-12.868154 -5.115789 21.406133 25.494769 0.378396 0.574198 -0.013060 0.007148 -188009.000000 0 0 1
-12.511554 -3.750989 21.092733 24.809520 0.291275 0.554456 -0.011777 0.005480 -235755.000000 0 1 0
-13.621554 -2.939989 21.366633 25.509278 0.212573 0.577917 -0.012750 0.009918 -5909.100000 0 0 1
-13.478454 -1.526989 20.828733 24.856318 0.112810 0.577252 -0.008055 0.007124 -189688.000000 0 1 0
-12.347654 -0.982989 21.466633 24.784010 0.079442 0.523353 -0.012557 0.003184 -166238.000000 0 1 0
-12.135054 0.420011 21.336733 24.549789 -0.034598 0.517374 -0.015063 0.000991 -286493.000000 0 1 0
-11.575554 0.923011 19.935933 23.071342 -0.079570 0.527438 -0.022124 -0.003102 169280.000000 0 1 0
-12.462554 0.740011 18.803633 22.570766 -0.059309 0.586113 -0.012056 0.001997 189016.000000 0 1 0
-13.700254 1.406011 18.887033 23.375069 -0.102269 0.630048 -0.008215 0.009704 29214.800000 0 1 0
-14.748954 0.869011 17.862633 23.181037 -0.058852 0.691060 -0.004642 0.008293 167301.000000 0 1 0
-15.202554 -0.401989 18.239033 23.747454 0.026436 0.695019 -0.012520 0.003329 149589.000000 0 1 0
-16.208354 -0.961989 17.425733 23.817900 0.059282 0.750096 -0.009902 0.007128 -183324.000000 0 1 0
-16.396554 -2.539989 17.662533 24.233522 0.153688 0.754160 -0.004431 0.008061 -549197.000000 0 1 0
-16.836554 -2.890989 18.974333 25.531406 0.170051 0.732991 -0.001274 0.008802 83382.100000 0 0 1
-16.552054 -4.272989 19.143133 25.664927 0.252639 0.728931 0.003381 0.005670 -137316.000000 0 0 1
-17.335654 -4.892589 20.332133 27.163541 0.275073 0.724987 0.005515 0.008749 -283537.000000 0 0 1
-16.944254 -4.448989 21.608733 27.817955 0.256770 0.681242 0.003550 0.007640 -382365.000000 0 0 1
-17.999354 -4.513989 22.502333 29.166896 0.245718 0.689597 0.003632 0.002706 -660202.000000 0 0 1
-18.257254 -5.903089 23.053933 29.994293 0.312719 0.694130 0.003371 0.001321 315393.000000 0 0 1
-17.261654 -6.414789 23.980333 30.235254 0.355805 0.654874 0.013050 0.001561 1131350.000000 0 0 1
-16.202554 -7.109489 23.289733 29.248577 0.413491 0.649694 0.003367 0.002305 -209010.000000 0 0 1
-15.074754 -7.560989 24.179833 29.480182 0.464900 0.609025 0.001474 0.001704 -569768.000000 0 0 1
-15.384454 -8.743889 24.934253 30.575382 0.516829 0.617202 0.006242 -0.005334 -294010.000000 0 0 1
-14.452454 -9.056689 25.932983 31.038954 0.559788 0.581758 0.003351 -0.002406 -199489.000000 0 0 1
-14.851754 -10.087389 26.946443 32.379636 0.596633 0.587727 0.010771 -0.009929 -471869.000000 0 0 1
-14.883254 -11.421089 26.454043 32.430987 0.654531 0.616853 0.008034 -0.009388 -221908.000000 0 0 1
-14.092554 -12.239989 27.268793 33.045491 0.715161 0.600259 0.006669 -0.011133 -190298.000000 0 0 1
-14.235654 -13.742789 26.966653 33.447249 0.767784 0.633021 -0.009133 -0.010282 246924.000000 0 0 1
-15.354954 -14.396489 27.570303 34.686527 0.753194 0.652049 -0.000919 -0.012343 282521.000000 0 0 1
-15.549054 -15.691189 27.059203 34.931175 0.789948 0.684645 -0.000075 -0.007115 631603.000000 0 0 1
-14.538254 -16.720089 27.733733 35.497636 0.855085 0.674076 -0.001200 -0.003284 2127870.000000 0 0 1
-13.114454 -16.605689 27.491013 34.691406 0.902333 0.655990 0.005034 -0.008331 1343530.000000 0 0 1
-12.383354 -17.622089 28.167403 35.458258 0.958249 0.652807 0.009034 -0.002195 2012020.000000 0 0 1
-10.795054 -17.665889 27.968073 34.796982 1.022279 0.637225 0.008310 -0.003387 2026170.000000 0 0 1
-10.053154 -18.643489 28.697803 35.668046 1.076258 0.635828 0.004253 -0.004019 324984.000000 0 0 1
-9.122754 -19.351489 27.905573 35.162847 1.130270 0.654077 0.002598 -0.006267 -551343.000000 0 0 1
-8.029954 -20.014889 28.703853 35.902467 1.189257 0.644342 0.003226 -0.004211 -790931.000000 0 0 1
-8.368854 -21.232889 29.343243 37.173905 1.195347 0.661046 0.005283 -0.001121 -19310.000000 0 0 1
-7.241354 -21.747789 30.009013 37.761679 1.249373 0.652292 0.009919 0.001312 -21384.800000 0 0 1
-7.481954 -23.066289 30.736253 39.150359 1.257137 0.667967 0.013201 0.001796 125007.000000 0 0 1
-7.650654 -24.200289 29.901083 39.220674 1.264600 0.703812 0.001387 0.003795 -126946.000000 0 0 1
-8.119154 -25.327989 30.562483 40.515344 1.260585 0.716143 0.006665 0.000464 -246968.000000 0 0 1
-8.246254 -26.556989 29.583283 40.601047 1.269724 0.754472 0.003813 0.000133 142245.000000 0 0 1
-9.484654 -26.586289 28.874763 40.379963 1.228121 0.774063 0.001347 0.002303 487745.000000 0 0 1
-9.574854 -27.790589 28.149143 40.698513 1.238998 0.807025 0.004873 0.003995 -501743.000000 0 0 1
-10.839954 -27.997089 27.315213 40.588945 1.201389 0.832577 0.004836 0.011162 -333104.000000 0 0 1
-10.938154 -27.306489 26.064193 39.301778 1.189799 0.845735 0.002566 0.010692 57070.000000 0 0 1
-11.312254 -25.951889 26.211273 38.581064 1.159735 0.823876 -0.003450 0.008844 -369808.000000 0 0 1
-11.259454 -25.180189 24.933633 37.182029 1.150311 0.835802 0.001297 0.002961 -709565.000000 0 0 1
-12.426354 -25.346089 24.202633 37.183410 1.114965 0.862029 -0.002645 0.005559 -341925.000000 0 0 1
-12.360954 -24.707689 22.967233 35.927105 1.106919 0.877244 -0.000523 0.006167 -26154.300000 0 0 1
-13.692254 -24.730589 22.184333 35.933612 1.065150 0.905401 -0.004605 0.006688 -111534.000000 0 0 1
-14.127154 -26.000389 21.769333 36.735549 1.073078 0.936519 -0.003776 0.005786 -87223.200000 0 0 1
-15.196954 -25.931689 20.859733 36.585904 1.040706 0.964099 -0.001549 -0.000804 -273892.000000 0 0 1
-15.666854 -27.273289 20.388433 37.482940 1.049383 0.995672 -0.002718 0.002939 224671.000000 0 0 1
-14.625754 -27.819489 19.598633 37.039750 1.086771 1.013228 0.000123 -0.001200 243878.000000 0 0 1
-14.907554 -29.167489 19.239833 37.988798 1.098307 1.039721 0.004318 0.000508 108612.000000 0 0 1
-14.022054 -29.696389 18.105833 37.500863 1.129651 1.066934 0.005036 -0.004237 -142185.000000 0 0 1
-14.357054 -29.184689 16.864833 36.637326 1.113619 1.092443 0.004443 -0.005798 699769.000000 0 0 1
-13.383454 -29.622189 15.865133 36.170338 1.146442 1.116731 0.004980 -0.003700 620525.000000 0 0 1
-13.695754 -28.912489 14.551033 35.145957 1.128412 1.143933 -0.006509 -0.008111 -274024.000000 0 0 1
-13.407254 -27.517089 14.507333 33.873402 1.117414 1.128207 -0.002919 -0.010965 -43374.600000 0 0 1
-13.689554 -26.850589 13.235133 32.916968 1.099306 1.157013 -0.007802 -0.019757 260404.000000 0 0 1
-12.723654 -27.179589 12.071133 32.347082 1.132966 1.188367 -0.005889 -0.014576 263654.000000 0 0 1
-13.240354 -26.701889 10.842533 31.715271 1.110468 1.221889 -0.009534 -0.004124 39018.100000 0 0 1
-12.310754 -26.974689 9.820333 31.235036 1.142648 1.250971 -0.007756 -0.002345 120465.000000 0 0 1
-12.747154 -26.359389 8.497933 30.488066 1.120362 1.288325 -0.001640 0.005037 1055650.000000 0 0 1
-13.952454 -26.961989 7.926233 31.375867 1.093258 1.315407 -0.007703 0.000152 949213.000000 0 0 1
-14.376354 -26.262789 6.766233 30.695204 1.069948 1.348538 -0.005760 0.005327 294240.000000 0 0 1
-15.258254 -27.092889 5.774333 31.625652 1.057888 1.387182 -0.006504 0.004068 576782.000000 0 0 1
-14.552554 -28.040189 4.964833 31.979347 1.092073 1.414915 -0.001218 0.006948 -28080.300000 0 0 1
-15.194654 -28.070889 3.730133 32.136680 1.074660 1.454463 -0.002984 0.008410 -47367.800000 0 0 1
-14.635554 -29.228589 2.803833 32.808099 1.106567 1.485230 -0.001306 0.008747 443825.000000 0 0 1
-13.426054 -28.896689 2.132533 31.934703 1.135849 1.503969 -0.001667 0.013454 13819.300000 0 0 1
-12.904254 -30.067689 1.549733 32.756486 1.165396 1.523468 -0.005877 0.008817 164984.000000 0 0 1
-11.544954 -29.859789 0.827733 32.024648 1.201861 1.544947 -0.007328 0.007466 -123401.000000 0 0 1
-11.448354 -29.230289 -0.453667 31.395548 1.197500 1.585247 -0.007049 0.010317 -118106.000000 0 0 1
-11.703254 -27.821289 -0.481467 30.186455 1.172609 1.586747 -0.008645 0.012135 -503444.000000 0 0 1
-11.459854 -27.204889 -1.887867 29.580370 1.172113 1.634661 -0.004723 0.007584 -177388.000000 0 0 1
-10.094554 -27.088089 -2.185067 28.990328 1.214082 1.646240 -0.001195 0.005597 -489167.000000 0 0 1
-9.921454 -26.347689 -3.379567 28.355907 1.210660 1.690264 0.011472 0.003933 910254.000000 0 0 1
-8.463154 -26.577689 -3.926967 28.167705 1.262517 1.710666 0.011855 0.003211 947016.000000 0 0 1
-8.156954 -25.787989 -5.048567 27.514438 1.264446 1.755330 0.015517 0.002735 151741.000000 0 0 1
-6.797054 -26.012289 -5.412467 27.425060 1.315209 1.769455 0.019082 0.005298 960431.000000 0 0 1
-6.054454 -24.938289 -6.309067 26.426861 1.332627 1.811861 0.015063 0.005120 96078.900000 0 0 1
-6.504554 -24.913789 -7.664167 26.865323 1.315415 1.860096 0.013396 0.006465 97903.300000 0 0 1
-5.894554 -23.795089 -8.294267 25.879469 1.327963 1.897049 0.000663 0.008421 67574.500000 0 0 1
-6.061154 -23.696589 -9.824867 26.358944 1.320383 1.952750 0.013188 0.002365 283579.000000 0 0 1
-5.265654 -24.757189 -10.417967 27.371145 1.361227 1.961261 0.006755 0.001271 350257.000000 0 0 1
-5.658054 -24.994189 -11.737067 28.186554 1.348174 2.000286 0.004639 0.006102 -42979.300000 0 0 1
-7.068954 -25.474689 -12.161767 29.100489 1.300117 2.001954 0.002043 0.001420 182501.000000 0 0 1
-7.206854 -25.847489 -13.548767 30.059949 1.298880 2.038374 0.004555 0.004674 12132.700000 0 0 1
-8.413854 -26.556089 -13.784467 31.081028 1.263969 2.030297 0.006568 0.001985 -422533.000000 0 0 1
-8.752554 -26.649989 -15.293867 31.948889 1.253469 2.069967 0.002828 -0.001054 -591645.000000 0 0 1
-7.860454 -27.368889 -16.079367 32.701512 1.291120 2.084838 0.002350 0.002188 -215680.000000 0 0 1
-6.600654 -26.748289 -16.247467 31.984680 1.328861 2.103630 -0.000914 0.000592 -756643.000000 0 0 1
-5.632254 -27.602789 -17.018267 32.912880 1.369513 2.114221 -0.000377 0.000052 -686167.000000 0 0 1
-5.771054 -27.613289 -18.461167 33.713699 1.364766 2.150273 0.001854 0.003386 -52046.200000 0 0 1
-4.689154 -28.234589 -19.116867 34.418524 1.406220 2.159669 0.003343 0.002187 -40628.200000 0 0 1
-23.958354 14.829722 -6.111307 28.831779 -0.554258 1.784381 -0.012172 -0.002949 199828.000000 0 0 1
-24.472954 13.638922 -5.509907 28.553542 -0.508435 1.764982 -0.015356 -0.000414 168218.000000 0 0 1
-23.406654 12.996922 -4.877107 27.213556 -0.506877 1.750986 -0.010800 0.002071 -402223.000000 0 0 1
-23.799754 11.585922 -4.413207 26.835392 -0.453039 1.736002 -0.004856 0.000473 -194336.000000 0 0 1
-23.934454 10.662222 -5.473607 26.767545 -0.419085 1.776736 -0.016098 0.007406 749696.000000 0 0 1
-25.271104 10.490522 -5.967107 28.005109 -0.393472 1.785515 -0.012838 -0.002165 391251.000000 0 0 1
-25.343884 9.566722 -7.184707 28.025964 -0.360940 1.830050 -0.012174 -0.005084 -286468.000000 0 0 1
-24.712454 10.123822 -8.326907 27.973819 -0.388810 1.873045 -0.014760 -0.003274 -683026.000000 0 0 1
-25.243414 9.623622 -9.547007 28.652913 -0.364224 1.910487 0.004750 0.002271 -442190.000000 0 0 1
-25.944274 10.682722 -10.473307 29.948557 -0.390600 1.928058 0.004146 0.009018 340567.000000 0 0 1
-25.107284 11.651222 -11.148607 29.839875 -0.434482 1.953699 0.007270 0.003194 360555.000000 0 0 1
-25.837444 12.463122 -12.045807 31.112769 -0.449442 1.968352 0.004203 0.001980 -135090.000000 0 0 1
-24.921654 13.508822 -12.714807 31.068367 -0.496720 1.992431 0.008348 0.002055 -186459.000000 0 0 1
-24.633254 14.642422 -11.930907 31.041010 -0.536304 1.965310 0.008748 0.005411 -413772.000000 0 0 1
-23.585654 15.346222 -12.481407 30.782708 -0.576838 1.988287 0.004320 0.004433 -676466.000000 0 0 1
-23.565554 16.707822 -11.827607 31.215044 -0.616736 1.959412 -0.002661 0.007375 14790.500000 0 0 1
-22.875554 16.919522 -10.606407 30.365393 -0.636833 1.927612 0.010559 0.006142 -93563.600000 0 0 1
-22.710254 18.310122 -10.362807 30.958100 -0.678540 1.912122 0.008526 0.006614 -415115.000000 0 0 1
-21.525754 18.627222 -9.468807 29.999830 -0.713336 1.891915 0.000182 0.006596 -761506.000000 0 0 1
-21.568954 18.064922 -8.158307 29.293671 -0.697217 1.853029 -0.001366 0.002111 189049.000000 0 0 1
-22.423154 18.884022 -7.356907 30.224629 -0.699929 1.816674 -0.006765 0.003245 -282982.000000 0 0 1
-22.780554 18.398922 -5.964307 29.883891 -0.679394 1.771728 -0.010227 0.002100 -655432.000000 0 0 1
-21.833354 18.414422 -4.972307 28.991553 -0.700654 1.743157 -0.006501 -0.003066 -631848.000000 0 0 1
-22.422054 17.927322 -3.797407 28.957860 -0.674460 1.702311 -0.011881 -0.006040 -374935.000000 0 0 1
-21.362754 17.661722 -2.768507 27.856208 -0.690842 1.670346 -0.007992 -0.008098 -760218.000000 0 0 1
-20.804154 18.816522 -2.198207 28.137278 -0.735274 1.649000 0.004764 -0.008304 579274.000000 0 0 1
-19.736354 18.529422 -1.282707 27.101817 -0.753868 1.618143 0.020758 -0.014437 595936.000000 0 0 1
-18.921354 19.759222 -0.848607 27.370872 -0.807056 1.601805 0.005638 -0.011977 -316946.000000 0 0 1
-19.622454 20.379722 0.183393 28.291472 -0.804327 1.564314 0.005153 -0.009626 148522.000000 0 0 1
-18.998454 21.612222 0.613093 28.782030 -0.849671 1.549493 -0.000585 -0.009246 15486.900000 0 0 1
-19.731554 22.473722 1.659893 29.952590 -0.850279 1.515351 -0.002255 -0.007120 -185781.000000 0 0 1
-19.863254 21.824822 2.900493 29.652733 -0.832417 1.472824 -0.003135 -0.007117 255891.000000 0 0 1
-20.995254 22.273622 3.616893 30.822019 -0.814934 1.453178 -0.008915 -0.004266 552.421000 0 0 1
-20.873154 21.949322 5.120293 30.719354 -0.810524 1.403335 -0.001860 -0.002753 -302056.000000 0 0 1
-20.093054 22.899622 5.829093 31.017766 -0.850586 1.381745 -0.006657 -0.001483 159928.000000 0 0 1
-19.519354 22.443422 7.054293 30.569191 -0.854968 1.337933 -0.004178 0.001503 52994.900000 0 0 1
-20.423354 22.276422 8.337593 31.350723 -0.828769 1.301611 -0.004080 -0.002912 80792.600000 0 0 1
-21.308054 21.131922 8.301793 31.136972 -0.781248 1.300910 0.000153 -0.003743 751668.000000 0 0 1
-21.701054 20.689622 9.585893 31.478334 -0.761543 1.261358 0.001222 -0.002033 -129949.000000 0 0 1
-22.390854 21.564622 10.673693 32.868085 -0.766603 1.240056 0.004007 -0.002221 -544869.000000 0 0 1
-23.588254 22.088022 10.121393 33.863388 -0.752565 1.267268 0.006123 -0.004822 206821.000000 0 0 1
-24.135954 22.772422 11.221393 35.029233 -0.756338 1.244704 0.009265 -0.001427 309349.000000 0 0 1
-25.395064 23.691822 11.017393 36.436172 -0.750714 1.263613 0.009681 0.000033 307781.000000 0 0 1
-25.956924 23.975022 12.248593 37.397749 -0.745727 1.237116 0.009484 0.001696 105544.000000 0 0 1
-26.617854 25.258622 12.334493 38.712373 -0.759203 1.246524 0.012109 -0.000953 348068.000000 0 0 1
-26.964664 25.738722 13.760293 39.735633 -0.762141 1.217176 0.011771 -0.000635 306558.000000 0 0 1
-25.778004 26.019222 14.472293 39.382136 -0.790055 1.194494 0.005192 -0.003258 275635.000000 0 0 1
-26.158524 26.546022 15.685993 40.435257 -0.792750 1.172413 0.009926 0.003906 -88018.600000 0 0 1
-24.971054 26.716522 16.626893 40.171876 -0.819155 1.144069 0.004167 0.005818 -185894.000000 0 0 1
-24.688254 25.607322 17.397893 39.597115 -0.803669 1.115896 0.009367 0.006007 -50078.200000 0 0 1
-23.501254 25.765422 18.141893 39.310230 -0.831323 1.091105 0.002316 0.011389 -378693.000000 0 0 1
-23.311854 24.604522 19.139593 38.924915 -0.812369 1.056749 0.009914 0.009823 22558.100000 0 0 1
-21.990454 24.521522 19.646093 38.351715 -0.839762 1.032981 0.021120 0.010241 511928.000000 0 0 1
-21.859854 23.275222 20.335493 37.856590 -0.816746 1.003716 0.014000 0.005700 -680965.000000 0 0 1
-20.423354 22.824622 20.573893 36.896637 -0.840864 0.979294 0.013765 0.009246 -1048600.000000 0 0 1
-19.744854 22.645822 19.341493 35.732140 -0.853726 0.998824 0.010149 0.011580 -222567.000000 0 0 1
-18.379354 22.365222 19.451693 34.876527 -0.882914 0.979148 0.011996 0.009134 -230683.000000 0 0 1
-18.019854 20.877322 19.717693 33.902288 -0.858729 0.950098 0.012216 0.004548 -556399.000000 0 0 1
-18.482554 20.316322 20.942693 34.539168 -0.832626 0.919339 0.017515 0.003604 203307.000000 0 0 1
-17.751754 20.753622 22.085193 35.122547 -0.863201 0.890782 0.014978 0.004600 147596.000000 0 0 1
-18.646054 20.584922 23.347093 36.283620 -0.834780 0.871785 0.009342 0.001242 166408.000000 0 0 1
-19.732154 21.486122 23.449593 37.428528 -0.827926 0.893721 0.011533 0.006666 -34858.600000 0 0 1
-20.232554 21.360322 24.738293 38.439598 -0.812506 0.871652 0.013082 0.007159 -399253.000000 0 0 1
-21.264154 22.465522 25.012293 39.780381 -0.812864 0.890839 0.011031 0.004323 -844360.000000 0 0 1
-20.763654 23.723122 25.328693 40.440803 -0.851825 0.893979 0.006324 0.006110 163729.000000 0 0 1
-21.734754 24.732222 25.683293 41.757800 -0.849816 0.908342 -0.000932 0.007219 -242587.000000 0 0 1
-22.540154 25.344922 24.525393 41.855925 -0.843904 0.944747 -0.003417 0.008208 -55742.200000 0 0 1
-23.619954 24.490222 24.182793 41.743031 -0.803485 0.952896 0.000466 0.004724 -282979.000000 0 0 1
-24.258554 25.003622 23.052693 41.774217 -0.800522 0.986227 -0.003899 0.010663 -127657.000000 0 0 1
-25.222754 23.956922 22.448493 41.401162 -0.759665 0.997721 -0.003383 0.010099 -210297.000000 0 0 1
-26.360034 23.738422 23.240993 42.408818 -0.733117 0.990798 -0.007288 0.000777 -268684.000000 0 0 1
-27.171044 22.699522 22.676393 42.044651 -0.695975 1.001142 -0.005575 -0.001260 648717.000000 0 0 1
-28.632864 22.852922 23.203393 43.364667 -0.673603 1.006199 0.005337 0.000810 -186752.000000 0 0 1
-29.292774 24.054022 22.740693 44.201829 -0.687510 1.030402 0.002685 0.003975 635865.000000 0 0 1
-30.709294 24.084622 22.640693 45.119073 -0.665081 1.045119 -0.005977 0.002616 238007.000000 0 0 1
-31.307004 23.189522 21.556593 44.526050 -0.637531 1.065423 -0.004009 -0.000242 -1267710.000000 0 0 1
-31.085124 21.765722 21.862593 43.795029 -0.610858 1.048118 -0.011870 0.001906 278883.000000 0 0 1
-31.584324 20.815822 20.885193 43.209481 -0.582715 1.066322 -0.013737 0.009582 357360.000000 0 0 1
-33.110154 20.895222 20.581893 44.232419 -0.562961 1.086809 -0.013308 0.008648 43815.400000 0 0 1
-33.466334 19.905122 19.608293 43.596956 -0.536573 1.104296 -0.015542 0.007572 -587749.000000 0 0 1
34.672180 19.955622 19.495093 44.502197 0.522249 1.117345 0.002380 0.004574 -570951.000000 0 0 1
34.126734 19.108522 18.327793 43.193490 0.510434 1.132587 -0.002791 -0.002942 -224657.000000 0 0 1
34.343181 17.750922 18.539493 42.874959 0.477051 1.123634 0.001940 -0.000307 218739.000000 0 0 1
33.626618 17.039322 17.555393 41.584609 0.469010 1.134969 0.000269 -0.001357 17736.100000 0 0 1
33.673818 15.493522 17.713793 41.082280 0.431226 1.124998 0.000606 0.001195 -264187.000000 0 0 1
32.771605 14.771322 16.925993 39.732345 0.423465 1.130729 -0.000233 -0.002552 -211075.000000 0 0 1
33.057035 13.379122 16.835093 39.435882 0.384576 1.129737 -0.008678 -0.006035 -632194.000000 0 0 1
32.102665 12.692122 15.937493 38.022030 0.376500 1.138271 -0.002863 -0.004714 -716107.000000 0 0 1
32.305145 13.122822 14.618093 37.808987 0.385852 1.173822 0.006582 -0.008450 401530.000000 0 0 1
31.612275 12.340222 13.625693 36.568791 0.372170 1.188982 0.010279 -0.004670 -145289.000000 0 0 1
31.642445 12.792622 12.156593 36.230902 0.384196 1.228627 0.006545 -0.004631 243858.000000 0 0 1
32.875975 12.447922 11.525493 36.994830 0.361952 1.253980 0.009656 -0.005504 503100.000000 0 0 1
32.851915 12.762222 10.141593 36.673894 0.370534 1.290610 0.007486 -0.006068 -630510.000000 0 0 1
34.199103 12.616722 9.454593 37.658328 0.353429 1.317019 0.010177 -0.005272 -885839.000000 0 0 1
34.703300 11.316022 9.435193 37.701382 0.315208 1.317846 0.008123 -0.003826 302883.000000 0 0 1
-33.478344 11.320822 8.965193 36.460050 -0.326082 1.322358 0.001876 -0.004300 456766.000000 0 0 1
-33.237644 11.293722 7.428793 35.881417 -0.327548 1.362251 0.013917 -0.006608 -563969.000000 0 0 1
-33.662934 12.459722 6.722393 36.518877 -0.354496 1.385661 0.007591 -0.007465 -55561.700000 0 0 1
-33.162244 12.452222 5.444693 35.839042 -0.359204 1.418285 0.010058 -0.010034 -234908.000000 0 0 1
-34.081604 13.287422 4.509493 36.857114 -0.371744 1.448138 0.007403 -0.008526 -1227630.000000 0 0 1
34.199522 12.673622 4.471093 36.745322 0.354889 1.448816 0.005055 -0.009521 -122293.000000 0 0 1
33.130215 13.655022 4.346993 36.096636 0.390947 1.450077 0.009888 -0.003544 719431.000000 0 0 1
32.830715 14.370922 5.718893 36.291665 0.412602 1.412555 0.009223 -0.001678 -1562400.000000 0 0 1
32.113815 15.581322 5.550993 36.123237 0.451730 1.416517 0.007027 0.002049 78404.900000 0 0 1
31.755925 16.264222 6.730593 36.307913 0.473331 1.384342 0.011201 0.000369 -138850.000000 0 0 1
30.549495 15.630822 7.449993 35.115476 0.472929 1.357015 0.004709 -0.003116 -594001.000000 0 0 1
30.772105 14.392422 8.041093 34.910219 0.437484 1.338373 0.005418 -0.002992 678776.000000 0 0 1
29.532235 13.661922 8.201793 33.556973 0.433291 1.323881 0.003594 -0.002693 655602.000000 0 0 1
29.597045 12.342322 7.405093 32.911296 0.395085 1.343852 0.006080 -0.007532 -99102.500000 0 0 1
29.592365 12.467122 5.995093 32.666165 0.398728 1.386224 -0.001653 -0.007448 45495.600000 0 0 1
29.982165 11.323922 5.312193 32.486625 0.361126 1.406539 0.005504 -0.011482 -456352.000000 0 0 1
29.967975 11.498222 3.794893 32.321662 0.366362 1.453115 0.003385 -0.012269 -863392.000000 0 0 1
28.651535 11.489922 3.349893 31.050774 0.381388 1.462702 -0.001217 -0.008557 -557940.000000 0 0 1
28.486725 11.800122 1.973393 30.897098 0.392715 1.506883 -0.006433 -0.010609 -4750.270000 0 0 1
27.022775 11.659422 1.496993 29.468856 0.407335 1.519975 -0.005922 -0.008110 5047.010000 0 0 1
26.555335 10.332122 1.426493 28.530220 0.371056 1.520776 -0.009977 -0.002371 171085.000000 0 0 1
25.165005 10.295922 1.162893 27.214625 0.388358 1.528053 -0.010397 -0.001973 20566.800000 0 0 1
24.624745 8.822622 1.171993 26.183779 0.344035 1.526021 -0.008443 -0.002216 -361822.000000 0 0 1
24.766315 7.999122 2.344793 26.131482 0.312407 1.480945 -0.006754 -0.003236 1538480.000000 0 0 1
26.148015 7.615322 2.562993 27.354721 0.283400 1.476964 -0.003294 -0.002408 848664.000000 0 0 1
26.358175 6.971322 3.972593 27.552390 0.258564 1.426109 -0.003558 -0.005575 -56784.800000 0 0 1
27.697645 6.556822 4.172993 28.767435 0.232449 1.425223 0.005159 -0.007316 397913.000000 0 0 1
27.983735 5.904222 5.381593 29.101732 0.207938 1.384802 0.003529 -0.000495 -801024.000000 0 0 1
29.455445 5.900922 5.742593 30.584661 0.197717 1.381915 0.007830 0.000918 -695610.000000 0 0 1
30.001655 7.137522 6.106693 31.437799 0.233562 1.375307 0.010759 -0.007191 -695584.000000 0 0 1
31.354795 7.003022 6.430093 32.764487 0.219741 1.373262 -0.002898 -0.002893 -219022.000000 0 0 1
31.853285 8.283422 7.178993 33.686567 0.254414 1.356038 -0.003377 -0.005407 29607.800000 0 0 1
31.150255 8.323722 8.377293 33.313687 0.261111 1.316601 0.000460 -0.008550 -100883.000000 0 0 1
31.701155 9.344722 9.157693 34.295049 0.286657 1.300490 0.006112 -0.006617 -85931.400000 0 0 1
31.260035 9.323022 10.624193 34.307171 0.289842 1.255941 -0.000067 0.000473 -596667.000000 0 0 1
29.976305 9.844022 10.799393 33.348321 0.317298 1.241015 0.000582 0.000477 -464453.000000 0 0 1
29.531845 9.590422 12.123093 33.332798 0.314004 1.198561 -0.003166 0.001127 125953.000000 0 0 1
28.031635 9.884722 12.417293 32.212877 0.339014 1.175073 -0.006418 -0.002892 214675.000000 0 0 1
27.709555 11.290622 12.473793 32.417481 0.386924 1.175820 -0.004564 -0.000675 160428.000000 0 0 1
27.714525 12.152322 11.294793 32.300869 0.413234 1.213573 0.000768 -0.003721 -762761.000000 0 0 1
26.579865 12.170322 10.269293 30.984905 0.429386 1.232979 -0.004368 -0.005813 -497039.000000 0 0 1
26.549945 13.357822 9.463993 31.191315 0.466141 1.262519 -0.006409 -0.002287 1305.000000 0 0 1
25.551145 13.386622 8.465693 30.062112 0.482596 1.285328 -0.004454 -0.002948 -141345.000000 0 0 1
25.672815 14.633522 7.581293 30.507530 0.518069 1.319659 -0.005268 -0.001521 -107447.000000 0 0 1
25.384935 15.848122 8.268493 31.047155 0.558104 1.301223 -0.008637 -0.000332 328136.000000 0 0 1
25.638825 17.001522 7.497693 31.664120 0.585541 1.331738 -0.004411 -0.000020 -661269.000000 0 0 1
25.149895 18.285322 8.193893 32.156027 0.628653 1.313138 -0.013476 0.000181 1324250.000000 0 0 1
23.737375 18.606922 8.177493 31.249830 0.664825 1.306033 -0.013777 0.002334 1117250.000000 0 0 1
22.840575 17.805622 8.919393 30.303261 0.662153 1.272034 -0.010757 0.002064 1179640.000000 0 0 1
21.407275 18.523222 8.974593 29.697213 0.713297 1.263793 -0.007275 0.001928 1172490.000000 0 0 1
20.793075 18.750022 7.737393 29.047935 0.733778 1.301175 -0.002227 -0.004208 325446.000000 0 0 1
19.871175 19.850522 7.700493 29.123949 0.784878 1.303210 0.010934 -0.003071 578326.000000 0 0 1
19.277175 20.178822 6.297193 28.608547 0.808246 1.348863 0.010090 -0.003132 145226.000000 0 0 1
20.173375 20.875222 5.480593 29.542797 0.802494 1.384202 0.002984 -0.002174 301330.000000 0 0 1
19.447375 21.166422 4.273093 29.059889 0.827700 1.423217 0.003114 -0.003084 177512.000000 0 0 1
17.602346 17.266922 33.259503 41.402702 0.775779 0.637952 -0.008982 0.001711 279490.000000 0 0 1
16.658846 17.960822 32.415083 40.630603 0.822988 0.647159 -0.011027 0.004692 751459.000000 0 0 1
16.007746 17.095122 31.477713 39.234392 0.818235 0.639660 -0.005991 0.003074 251525.000000 0 0 1
15.404746 17.864822 30.265713 38.372796 0.859208 0.662059 -0.005744 0.002087 -117315.000000 0 0 1
16.370346 18.133522 29.273413 38.128015 0.836455 0.695448 -0.007979 0.001458 -286237.000000 0 0 1
15.845946 18.611122 28.064743 37.216900 0.865476 0.716535 -0.009417 -0.005627 -1019690.000000 0 0 1
16.855146 18.784622 26.936683 36.912638 0.839484 0.752853 -0.000882 -0.005393 -844837.000000 0 0 1
17.603446 19.941722 27.185283 38.034106 0.847597 0.774514 -0.004391 -0.003488 -303421.000000 0 0 1
18.354446 20.149422 25.994763 37.664474 0.831983 0.809077 0.001388 -0.001546 -340415.000000 0 0 1
19.371846 21.325422 26.146523 38.906075 0.833364 0.833833 -0.002886 0.001440 -103210.000000 0 0 1
18.805546 22.615722 26.337793 39.481626 0.877126 0.840501 -0.017120 -0.004586 -167325.000000 0 0 1
19.769546 23.618622 26.553863 40.666717 0.873879 0.859306 -0.015198 -0.001997 -556291.000000 0 0 1
19.179046 24.984922 26.567313 41.205634 0.916110 0.870101 -0.010365 -0.005117 -342938.000000 0 0 1
19.052746 25.392022 25.231473 40.551068 0.927075 0.899228 -0.009188 -0.006357 -232917.000000 0 0 1
17.904546 26.165422 25.120273 40.450342 0.970697 0.900759 -0.003406 -0.005842 -553929.000000 0 0 1
17.794146 26.997122 23.835533 40.169751 0.988042 0.935557 -0.001422 -0.005471 -316744.000000 0 0 1
18.893446 27.863422 23.712633 41.177925 0.974938 0.957143 -0.002248 -0.004275 -340687.000000 0 0 1
18.652346 28.949222 22.878633 41.344882 0.998430 0.984403 -0.000980 0.001718 -174003.000000 0 0 1
19.757846 29.991022 22.616033 42.441946 0.988265 1.008808 0.002172 -0.000866 315229.000000 0 0 1
20.794146 29.575422 21.719633 42.176351 0.958000 1.029822 -0.003138 -0.002702 -281223.000000 0 0 1
21.793246 30.529422 21.639633 43.304329 0.950839 1.047532 -0.006572 -0.004259 -349377.000000 0 0 1
22.280646 30.768622 20.150233 43.001944 0.944055 1.083104 -0.007903 -0.008381 -120328.000000 0 0 1
21.446446 31.579322 19.372833 42.807830 0.974215 1.101170 -0.009096 -0.006460 -327386.000000 0 0 1
21.980946 31.762822 18.126633 42.668650 0.965437 1.132030 -0.001334 -0.009912 -222617.000000 0 0 1
21.303246 32.900822 17.319833 42.851709 0.996181 1.154713 -0.002684 -0.011795 -188876.000000 0 0 1
21.857546 34.213022 17.570533 44.238070 1.002288 1.162353 -0.003812 -0.004606 268224.000000 0 0 1
22.099846 -34.428689 16.461633 44.099016 -1.000135 1.188246 -0.005939 -0.006243 105255.000000 0 0 1
23.208746 34.605922 15.454633 44.441663 0.980035 1.215625 -0.005532 -0.007682 -663973.000000 0 0 1
22.937046 33.400922 14.774333 43.127840 0.969040 1.221145 -0.000832 -0.009955 202075.000000 0 0 1
22.034246 33.669022 13.681633 42.500566 0.991308 1.243043 0.001532 -0.010264 253042.000000 0 0 1
21.634846 32.457422 12.841633 41.066511 0.982867 1.252759 0.010819 -0.006569 70236.400000 0 0 1
22.641646 31.914122 11.984733 40.924188 0.953753 1.273588 0.005000 -0.011816 181538.000000 0 0 1
22.192146 30.802022 11.184433 39.577107 0.946459 1.284294 0.004200 -0.010733 -496502.000000 0 0 1
23.376046 29.967822 10.693333 39.482366 0.908346 1.296533 0.000463 -0.006347 423641.000000 0 0 1
24.183946 29.212522 11.653233 39.674079 0.879296 1.272676 -0.001707 -0.006629 -112896.000000 0 0 1
25.137946 30.011822 12.243733 41.018712 0.873544 1.267685 -0.003252 -0.006797 -799333.000000 0 0 1
26.397946 29.161722 12.631733 41.313657 0.835101 1.260068 -0.003831 -0.005139 263767.000000 0 0 1
26.288046 28.299522 13.730533 40.993314 0.822230 1.229249 -0.001629 -0.002845 101693.000000 0 0 1
27.036346 27.086822 13.547333 40.597908 0.786331 1.230575 -0.008665 0.000633 13583.000000 0 0 1
27.628046 26.320222 14.763233 40.914741 0.761161 1.201639 -0.007743 -0.004330 -141714.000000 0 0 1
28.709446 26.980422 15.359133 42.285676 0.754361 1.199071 -0.013004 -0.002757 -309581.000000 0 0 1
29.143546 26.260922 16.507533 42.561496 0.733416 1.172497 -0.012877 -0.003079 160687.000000 0 0 1
30.370646 26.968822 17.154533 44.090492 0.726140 1.171168 -0.011829 -0.003523 1243980.000000 0 0 1
31.534846 26.949922 16.293833 44.567183 0.707163 1.196517 -0.000859 -0.000471 720161.000000 0 0 1
32.764646 27.131722 16.980233 45.803719 0.691629 1.191015 0.002325 0.001099 255522.000000 0 0 1
33.920646 27.409422 16.025333 46.461790 0.679627 1.218649 0.011643 0.002332 -150576.000000 0 0 1
33.865146 28.693922 15.462133 47.002838 0.702924 1.235592 0.009370 -0.009089 -20844.100000 0 0 1
-34.447383 28.955422 14.775633 47.364100 -0.698994 1.253543 0.015556 -0.008564 376024.000000 0 0 1
-34.587083 30.229522 13.921533 47.998952 -0.718270 1.276529 0.012305 -0.009167 75532.200000 0 0 1
-34.756083 31.399022 14.730933 49.100757 -0.734696 1.266089 0.016896 -0.010236 -21944.200000 0 0 1
34.526546 32.456922 13.829533 49.363854 0.754510 1.286841 0.013846 -0.008462 -15432.600000 0 0 1
33.587246 33.532622 14.408733 49.599913 0.784584 1.276048 0.008202 -0.010481 -776297.000000 0 0 1
33.257746 34.505922 13.423433 49.768714 0.803816 1.297698 -0.001675 -0.011618 646080.000000 0 0 1
31.941346 -34.426289 13.501833 48.864286 -0.822823 1.290841 0.001627 -0.006996 1063630.000000 0 0 1
30.713546 34.096922 13.296533 47.777817 0.837555 1.288773 -0.005654 -0.007871 -263209.000000 0 0 1
30.400346 33.180122 14.289233 47.215291 0.829091 1.263335 -0.004730 -0.009415 475886.000000 0 0 1
29.417546 32.229122 13.789633 45.763110 0.830974 1.264713 -0.007249 -0.006529 255330.000000 0 0 1
29.012446 31.118222 14.749033 45.028877 0.820404 1.237091 -0.014649 -0.004538 -531873.000000 0 0 1
28.180446 31.560422 15.753433 45.148294 0.841915 1.214371 -0.018992 -0.008170 -368844.000000 0 0 1
28.026646 30.550622 16.763933 44.719826 0.828460 1.186544 -0.015075 -0.002705 402283.000000 0 0 1
26.919046 30.930822 17.818933 44.708670 0.854635 1.160854 -0.017293 -0.006975 202965.000000 0 0 1
26.755446 29.986822 18.856833 44.391931 0.842285 1.132077 -0.020839 -0.003720 -754599.000000 0 0 1
27.646746 30.038722 19.914033 45.422859 0.826840 1.116963 -0.008651 -0.002135 -569023.000000 0 0 1
27.456946 28.950122 21.027933 45.101745 0.811863 1.085768 -0.008642 -0.000721 -739592.000000 0 0 1
26.192746 29.002022 21.608633 44.655461 0.836252 1.065694 -0.011385 0.002181 -584633.000000 0 0 1
26.107646 28.408322 22.887733 44.860787 0.827575 1.035385 -0.013115 -0.002669 -97614.200000 0 0 1
24.712746 28.416822 23.533633 44.407966 0.855003 1.012265 -0.012835 0.000872 -174145.000000 0 0 1
23.824046 27.401122 23.183933 43.080174 0.855115 1.002546 -0.010822 -0.002485 426432.000000 0 0 1
22.632646 27.369522 23.992733 42.859989 0.879850 0.976660 -0.015061 -0.001733 782071.000000 0 0 1
22.505946 26.203522 24.967663 42.620727 0.861164 0.944917 -0.007322 0.000011 -105785.000000 0 0 1
23.466646 26.389422 25.993773 43.849302 0.843955 0.936268 -0.006497 -0.002555 99972.600000 0 0 1
23.248146 25.464022 27.058243 43.829684 0.830856 0.905427 -0.001069 0.000358 21949.200000 0 0 1
24.491046 25.403522 28.018883 45.057830 0.803684 0.899703 0.005576 0.000940 542321.000000 0 0 1
24.868146 26.501822 28.827083 46.387196 0.817190 0.900211 -0.000201 0.004678 261438.000000 0 0 1
25.172846 27.667122 28.027753 46.740740 0.832567 0.927742 0.005748 0.001892 -994183.000000 0 0 1
25.639346 28.851222 28.888623 48.211219 0.844274 0.928283 0.009718 0.003857 248237.000000 0 0 1
27.016546 28.715022 29.266823 49.101865 0.815865 0.932232 0.011436 -0.002846 599967.000000 0 0 1
27.410046 29.727822 30.199913 50.468691 0.825941 0.929307 0.007094 -0.000769 -31866.100000 0 0 1
28.933646 29.905222 30.273423 51.458316 0.801909 0.941829 0.005211 0.003468 43970.000000 0 0 1
29.500846 30.300322 28.993423 51.274048 0.798766 0.969805 -0.000270 -0.001186 -279677.000000 0 0 1
30.901046 30.388822 29.032953 52.165769 0.777041 0.980567 0.007335 -0.001377 -13978.700000 0 0 1
31.565046 30.901222 27.713593 52.146725 0.774772 1.010480 0.006156 0.002442 -251521.000000 0 0 1
31.190646 32.253322 27.480213 52.614592 0.802146 1.021259 0.001713 -0.000376 212142.000000 0 0 1
31.601146 32.691122 26.215593 52.484276 0.802350 1.047781 0.004577 -0.002729 -241515.000000 0 0 1
31.225446 34.208922 26.068403 53.149228 0.830962 1.058161 -0.001447 -0.006969 -332552.000000 0 0 1
32.089546 -34.409289 26.786283 54.140956 -0.820268 1.053248 -0.004846 -0.000427 101934.000000 0 0 1
31.712646 -33.040389 26.668543 52.995947 -0.805900 1.043477 -0.007899 -0.003215 -113878.000000 0 0 1
32.686646 -32.170789 27.476383 53.463334 -0.777445 1.031037 -0.013489 -0.001635 -161904.000000 0 0 1
32.481046 -32.284089 28.845553 54.123439 -0.782357 1.008703 -0.014507 -0.000278 142736.000000 0 0 1
33.320546 -31.383189 29.510773 54.461446 -0.755465 0.998141 -0.011051 -0.001343 -338105.000000 0 0 1
32.807846 -30.992789 30.944363 54.721672 -0.756957 0.969773 -0.007736 -0.000629 -249117.000000 0 0 1
32.887146 -31.974889 31.986813 55.920605 -0.771335 0.961849 -0.001661 0.000764 309535.000000 0 0 1
31.835746 -32.924489 32.004383 55.873225 -0.802208 0.960874 -0.004503 -0.001970 -141845.000000 0 0 1
31.794146 -33.829089 33.254753 57.106511 -0.816398 0.949206 0.005387 -0.001370 -375355.000000 0 0 1
31.565546 -33.135989 34.469316 57.293204 -0.809666 0.925256 0.008114 -0.004457 53330.600000 0 0 1
32.019846 -33.865789 -33.825007 57.587267 -0.813408 2.198601 0.009288 -0.005351 -119426.000000 0 0 1
31.350646 34.259222 -33.404627 57.205126 0.829701 2.194376 0.009777 -0.002066 -178156.000000 0 0 1
31.488546 33.356022 -34.513866 57.405223 0.814189 2.215839 0.013868 -0.001564 81649.200000 0 0 1
30.720446 32.191322 -34.330368 56.201434 0.808774 2.227924 0.012628 0.002485 -48183.500000 0 0 1
30.750246 31.216322 33.861735 55.377373 0.792919 0.912876 0.006966 0.003000 18114.800000 0 0 1
32.037246 30.694422 33.603204 55.657057 0.763996 0.922594 0.008995 0.004218 -613.409000 0 0 1
31.988046 29.666022 32.643333 54.487569 0.747754 0.928424 0.007196 0.002675 1467710.000000 0 0 1
33.402346 28.921422 32.471483 54.832131 0.713624 0.937012 0.008739 0.003821 1494520.000000 0 0 1
33.779546 28.087022 33.550476 55.277237 0.693644 0.918580 0.009906 0.006076 385455.000000 0 0 1
-34.415783 27.617222 33.430355 55.360146 -0.676238 0.922448 0.015625 0.000992 138255.000000 0 0 1
-34.286583 26.385922 34.338406 55.235068 -0.655909 0.899914 0.014041 -0.003551 36925.100000 0 0 1
34.613246 25.275722 33.736668 54.544493 0.630730 0.903943 0.007453 -0.003211 102220.000000 0 0 1
34.451546 24.283222 -34.705637 54.599131 0.613975 2.259639 0.011384 -0.009669 69419.800000 0 0 1
33.965346 22.951522 34.105235 53.325267 0.594253 0.876858 0.006836 -0.013063 -137945.000000 0 0 1
-34.567583 22.278622 33.378335 52.965725 -0.572495 0.889002 0.006318 -0.013523 -108610.000000 0 0 1
34.471646 21.145822 32.763633 52.047054 0.550233 0.889886 0.005571 -0.012247 -45705.000000 0 0 1
-33.931783 20.362722 32.074573 50.939028 -0.540499 0.889673 0.001960 -0.011855 93229.400000 0 0 1
-33.010483 21.059222 31.268723 50.109040 -0.567861 0.896928 -0.002741 -0.010212 -4576.550000 0 0 1
-32.149483 20.209022 30.501883 48.706865 -0.561181 0.894083 -0.001289 -0.010575 -33519.100000 0 0 1
-32.711583 19.350622 29.285383 47.980495 -0.534185 0.914281 -0.000451 -0.007313 -223521.000000 0 0 1
-33.645483 18.304422 29.528323 48.363129 -0.498254 0.914036 -0.001523 -0.007484 380715.000000 0 0 1
-33.876383 17.599322 28.303003 47.522684 -0.479138 0.932823 -0.000821 -0.004032 -290303.000000 0 0 1
-34.590683 16.267322 28.496673 47.678103 -0.439591 0.930181 -0.004449 -0.007886 -224313.000000 0 0 1
-33.704183 15.230822 28.875193 46.922561 -0.424430 0.907929 -0.002304 -0.007599 75342.500000 0 0 1
-34.388783 14.050522 29.217593 47.261753 -0.387880 0.904336 0.004007 -0.004512 135478.000000 0 0 1
-33.440083 12.903322 29.711523 46.556519 -0.368261 0.878662 0.010054 -0.003240 200027.000000 0 0 1
-32.835683 13.202122 30.980603 47.034837 -0.382286 0.851742 0.007080 -0.001287 494715.000000 0 0 1
-32.099983 12.102422 31.546143 46.605114 -0.360543 0.827278 0.008868 0.001783 798892.000000 0 0 1
-30.556183 12.366322 31.529073 45.614567 -0.384558 0.807639 0.005488 0.003871 -165386.000000 0 0 1
-30.014983 12.493122 30.198133 44.372340 -0.394419 0.822267 0.003976 0.001652 -551840.000000 0 0 1
-28.667383 12.790722 30.303083 43.631391 -0.419670 0.803037 0.010053 0.000403 238596.000000 0 0 1
-27.542383 11.713822 30.635313 42.828949 -0.402126 0.773751 0.004434 0.000879 378336.000000 0 0 1
-27.150883 10.844822 29.602283 41.606199 -0.380013 0.779184 0.001776 -0.005893 -33470.500000 0 0 1
-25.923783 10.208522 29.882553 40.856131 -0.375141 0.750410 0.008410 -0.005258 -390314.000000 0 0 1
-25.594683 9.187722 28.787523 39.600802 -0.344643 0.756937 -0.001032 -0.008879 267446.000000 0 0 1
-26.279183 7.877622 28.740653 39.732575 -0.291243 0.762151 0.002458 -0.007105 566255.000000 0 0 1
-27.629283 7.994722 28.297183 40.348773 -0.281664 0.793556 0.003549 -0.007612 61445.600000 0 0 1
-28.327983 6.612322 28.285463 40.574190 -0.229314 0.799411 0.000499 -0.003700 -139788.000000 0 0 1
-28.709183 6.085622 29.537613 41.637995 -0.208883 0.782163 0.002467 -0.002491 -205716.000000 0 0 1
-29.522883 4.980422 29.386333 41.951899 -0.167123 0.794731 0.010658 -0.005927 -345301.000000 0 0 1
-30.239683 4.437422 30.688913 43.312106 -0.145702 0.783351 0.007310 0.002487 264328.000000 0 0 1
-31.382483 5.204022 31.017253 44.429856 -0.164330 0.798032 0.008134 -0.004149 -137062.000000 0 0 1
-31.906283 4.850622 32.284113 45.648696 -0.150872 0.785224 0.009081 -0.003189 391513.000000 0 0 1
-33.389183 5.172822 32.602063 46.951999 -0.153703 0.803252 0.012300 0.001128 400791.000000 0 0 1
-33.665083 6.578022 32.852573 47.496313 -0.192965 0.806974 0.009848 0.001517 225915.000000 0 0 1
34.464446 6.785522 33.014813 48.206008 0.194398 0.816372 0.007568 0.004337 430971.000000 0 0 1
34.108146 8.249822 33.183863 48.296935 0.237315 0.813334 0.009105 0.000854 -401366.000000 0 0 1
34.210646 8.656122 34.579217 49.406670 0.247823 0.795553 0.008015 0.002528 212808.000000 0 0 1
34.023346 10.019122 -34.485729 49.469550 0.286383 2.342155 0.011136 0.001161 -337935.000000 0 0 1
33.975446 10.199122 -32.938997 48.407960 0.291632 2.319167 0.005174 0.002656 -360516.000000 0 0 1
32.861446 9.607822 -32.323577 47.085014 0.284446 2.327453 0.009176 0.004039 -107059.000000 0 0 1
32.967046 9.706822 -30.926497 46.233070 0.286348 2.303559 0.003921 0.006432 -500947.000000 0 0 1
31.876146 8.987322 -30.177297 44.805467 0.274811 2.309755 0.005883 0.003625 -561334.000000 0 0 1
31.909046 7.537522 -30.317217 44.655740 0.231967 2.317073 0.008116 0.003783 303637.000000 0 0 1
30.808046 6.913622 -29.667167 43.325220 0.220752 2.325064 0.001780 0.006079 50398.100000 0 0 1
33.605454 6.278122 -20.411507 39.816717 0.184690 2.109049 0.002512 -0.001923 -372327.000000 0 0 1
33.075755 7.014622 -19.345207 38.954429 0.208981 2.090487 -0.002727 0.000988 369296.000000 0 0 1
33.632429 8.371622 -19.263607 39.652376 0.243957 2.078088 -0.003361 0.002581 1753590.000000 0 0 1
-34.347620 8.565322 -18.807207 40.085344 -0.244387 2.059157 0.002030 0.002635 1734490.000000 0 0 1
-33.426224 8.027222 -19.694307 39.618361 -0.235684 2.091050 0.003857 0.000816 -361449.000000 0 0 1
-33.076764 8.871122 -20.787807 40.061229 -0.262032 2.116361 0.001608 0.001709 -358214.000000 0 0 1
-32.061924 8.131522 -21.716107 39.568648 -0.248382 2.151750 -0.001403 0.005409 -77983.500000 0 0 1
-32.537114 7.022422 -22.407107 40.125511 -0.212567 2.163283 0.001372 0.006734 119036.000000 0 0 1
-33.286474 7.257722 -23.590107 41.438594 -0.214678 2.176425 0.001164 0.005211 246363.000000 0 0 1
-33.416124 6.136422 -24.601307 41.946601 -0.181613 2.197516 0.009259 0.004497 706892.000000 0 0 1
-32.234964 6.026422 -25.418787 41.491269 -0.184819 2.230180 0.005695 0.001404 538114.000000 0 0 1
-32.072034 4.705822 -25.851497 41.461549 -0.145687 2.244015 0.003796 0.004751 534948.000000 0 0 1
-30.758014 4.522622 -26.693677 40.976358 -0.145993 2.280278 0.003363 0.004919 -115098.000000 0 0 1
-29.598174 4.693622 -25.978527 39.660634 -0.157269 2.285006 0.003568 0.005593 -1243420.000000 0 0 1
-28.498724 4.309622 -26.760417 39.330269 -0.150084 2.319108 0.003956 0.005039 -571046.000000 0 0 1
-27.153334 4.567322 -26.064937 37.914970 -0.166645 2.328779 -0.005357 0.000695 -450881.000000 0 0 1
-26.888134 5.956122 -26.094747 37.939201 -0.217995 2.329256 -0.014206 0.000546 36300.300000 0 0 1
-25.998034 6.329622 -25.061107 36.660892 -0.238819 2.323470 -0.008016 0.000442 -499836.000000 0 0 1
-25.335284 7.653922 -25.264677 36.589111 -0.293387 2.332972 -0.009291 0.000105 -426005.000000 0 0 1
-26.049124 8.851322 -24.857307 37.078140 -0.327553 2.305549 -0.006144 -0.003667 -487079.000000 0 0 1
-25.453944 10.042222 -25.346467 37.298698 -0.375778 2.317950 -0.007645 -0.004560 754776.000000 0 0 1
-24.099254 10.423922 -24.624307 35.997065 -0.408241 2.324116 -0.006763 -0.001690 583508.000000 0 0 1
-24.313754 10.713922 -23.247407 35.304231 -0.415054 2.289604 -0.002608 0.000865 1089460.000000 0 0 1
-23.036854 11.086922 -22.664507 34.165719 -0.448551 2.296110 -0.002370 0.001535 573503.000000 0 0 1
-22.922054 11.477622 -21.179707 33.252614 -0.464227 2.261310 0.002125 -0.002417 -786345.000000 0 0 1
-23.375554 12.812022 -20.791507 33.806082 -0.501379 2.233211 0.006938 -0.001777 1849890.000000 0 0 1
-24.781754 13.137322 -20.945907 35.006508 -0.487453 2.212228 0.004284 -0.000662 885731.000000 0 0 1
-25.905164 12.313522 -20.322407 35.152533 -0.443718 2.187220 0.004702 -0.000495 -803486.000000 0 0 1
-25.789124 12.221722 -18.899607 34.229294 -0.442559 2.155734 0.005296 0.000422 243457.000000 0 0 1
-26.787104 11.320522 -18.471807 34.451572 -0.399845 2.136686 -0.003106 0.002679 -803373.000000 0 0 1
-26.551374 10.649522 -17.115107 33.336387 -0.381447 2.109946 0.005481 0.003703 61825.700000 0 0 1
-25.547524 9.653322 -16.991207 32.164635 -0.361273 2.127343 0.008469 0.004016 279433.000000 0 0 1
-24.238054 10.174222 -17.094907 31.356561 -0.397426 2.147398 0.012276 0.004080 -909974.000000 0 0 1
-23.231854 9.035122 -16.835007 30.079394 -0.370910 2.164803 0.014142 0.003138 -1301160.000000 0 0 1
-21.896554 9.372522 -16.702207 29.090668 -0.404440 2.182354 0.017098 0.004119 -553701.000000 0 0 1
-21.294354 8.213022 -16.132107 27.949027 -0.368110 2.186089 0.008064 0.004163 1018000.000000 0 0 1
-19.718254 8.362022 -15.989007 26.727913 -0.401087 2.212067 0.007410 0.004079 997281.000000 0 0 1
-19.156854 8.412922 -17.256707 27.121140 -0.413803 2.260466 0.005380 0.002697 -224094.000000 0 0 1
-17.751154 8.486722 -17.163607 26.109717 -0.445970 2.288113 0.004142 0.008521 -290773.000000 0 0 1
-17.028054 9.099122 -18.387907 26.662029 -0.490757 2.331825 0.001029 0.010841 -329617.000000 0 0 1
-16.918554 8.324122 -19.572107 27.177120 -0.457236 2.374842 0.005915 0.007138 427193.000000 0 0 1
-16.056054 7.185022 -19.486407 26.251504 -0.420770 2.407288 0.005946 0.006936 -9178.310000 0 0 1
-15.396854 6.699022 -20.821907 26.748679 -0.410386 2.462953 0.004829 0.001846 727116.000000 0 0 1
-16.265754 5.841722 -21.631107 27.687638 -0.344796 2.467470 0.000200 -0.000194 135524.000000 0 0 1
-17.413054 6.385122 -22.182107 28.914185 -0.351462 2.445214 0.003351 0.003143 -1098160.000000 0 0 1
-18.362954 5.361822 -22.741107 29.717086 -0.284093 2.442232 0.008443 0.003526 -764482.000000 0 0 1
-18.953354 4.606422 -21.737307 29.205467 -0.238417 2.410266 0.010554 0.005409 -349480.000000 0 0 1
-19.829654 3.696022 -22.273707 30.049855 -0.184274 2.405690 -0.008628 0.007912 -986440.000000 0 0 1
-20.521554 2.763022 -21.285207 29.695598 -0.133835 2.369970 -0.001074 0.005365 -50718.500000 0 0 1
-21.212154 1.672622 -21.899207 30.534054 -0.078689 2.370581 0.003577 0.007325 992440.000000 0 0 1
-22.171954 1.136222 -20.931907 30.512805 -0.051201 2.326779 0.005679 0.002499 608100.000000 0 0 1
-22.904554 -0.198178 -21.358207 31.318220 0.008652 2.321254 -0.001126 0.005608 84173.500000 0 0 1
-22.036954 -1.283878 -21.134407 30.560413 0.058194 2.334445 0.010905 0.001496 54416.700000 0 0 1
-22.538954 -2.605378 -21.447507 31.221595 0.115084 2.328073 0.008801 0.000277 -453709.000000 0 0 1
-22.956354 -2.884078 -22.965607 32.599559 0.124978 2.352481 0.007222 -0.002262 285531.000000 0 0 1
-21.958454 -2.758278 -23.984807 32.635147 0.124959 2.396371 0.004666 -0.003881 656285.000000 0 0 1
-20.838554 -3.659578 -23.784207 31.832788 0.173843 2.414576 -0.003434 -0.008180 498082.000000 0 0 1
-19.793454 -3.441978 -24.903207 31.996840 0.172173 2.462753 0.004660 -0.012957 -317539.000000 0 0 1
-20.285854 -3.881178 -26.129087 33.306285 0.189040 2.472701 0.001448 -0.010164 211293.000000 0 0 1
-19.305154 -3.966878 -27.118507 33.523701 0.202662 2.513135 0.003897 -0.009517 -27454.000000 0 0 1
-20.082554 -4.266778 -28.468577 35.099491 0.209349 2.516796 -0.000499 -0.008135 490400.000000 0 0 1
-20.579354 -5.599278 -28.497807 35.594757 0.265652 2.499122 -0.000171 -0.005454 563368.000000 0 0 1
-21.517254 -5.839578 -29.539037 37.008751 0.265007 2.495037 0.000752 -0.007392 -97196.700000 0 0 1
-21.131754 -7.035978 -30.362697 37.655669 0.321412 2.508708 0.003779 -0.004623 249908.000000 0 0 1
-20.038854 -6.735078 -31.233617 37.715458 0.324239 2.546575 0.003890 -0.007970 244134.000000 0 0 1
-19.444654 -7.916278 -31.726767 38.044051 0.386628 2.557020 0.006408 -0.006166 -4604.540000 0 0 1
-18.092654 -7.603878 -32.431567 37.907383 0.397861 2.597404 0.009898 0.002788 -505978.000000 0 0 1
-18.238754 -6.890878 -33.695347 38.929588 0.361236 2.617036 0.003786 -0.001105 326181.000000 0 0 1
-18.681254 -7.678078 34.644956 40.102558 0.389957 0.527816 0.009586 -0.001675 -350450.000000 0 0 1
-18.534654 -7.054378 33.208503 38.679482 0.363675 0.538350 0.008629 -0.006680 189431.000000 0 0 1
-17.181354 -6.938378 32.801233 37.673080 0.383805 0.514211 0.008860 -0.004584 283319.000000 0 0 1
-16.617654 -5.679078 33.046703 37.423027 0.329306 0.488457 0.007132 0.000572 -382355.000000 0 0 1
-15.320654 -5.477678 32.267103 36.137146 0.343372 0.467036 0.003471 -0.000790 -509369.000000 0 0 1
-15.608754 -5.286178 30.898603 35.018575 0.326544 0.489966 0.003890 -0.005796 636892.000000 0 0 1
-14.421454 -5.050178 30.128423 33.781719 0.336840 0.469365 0.001592 -0.005322 514461.000000 0 0 1
-14.668754 -5.085978 28.566103 32.512486 0.333751 0.497833 0.008401 -0.007047 176181.000000 0 0 1
-15.535154 -4.033678 28.146733 32.401391 0.254039 0.518247 -0.001664 -0.009095 143870.000000 0 0 1
-16.142054 -4.248478 26.883123 31.643606 0.257357 0.555647 0.006173 -0.007200 -183718.000000 0 0 1
-15.286154 -3.807178 25.684693 30.130791 0.244094 0.550162 0.007068 -0.004134 143055.000000 0 0 1
-15.041754 -2.432478 25.697963 29.875686 0.160327 0.535207 0.007294 -0.002293 -272637.000000 0 0 1
-14.086754 -2.015578 24.757563 28.555842 0.142119 0.521671 0.005022 0.001142 -59985.500000 0 0 1
-13.849854 -0.477178 24.882303 28.481137 0.034440 0.508160 0.006981 0.001433 -689601.000000 0 0 1
-14.923654 0.166622 24.318033 28.532612 -0.011164 0.550450 -0.001090 0.000527 -681412.000000 0 0 1
-14.888054 1.569022 24.557973 28.761259 -0.105000 0.547447 -0.008283 -0.002664 330414.000000 0 0 1
-15.848154 2.483722 23.703833 28.621750 -0.155455 0.594952 0.002035 -0.002985 274118.000000 0 0 1
-15.134554 2.972122 22.593433 27.356013 -0.193912 0.598993 -0.001659 0.000014 186122.000000 0 0 1
-15.744454 4.111222 22.023533 27.382951 -0.255419 0.636335 -0.002589 0.003156 -166931.000000 0 0 1
-14.930454 4.817322 20.894033 26.128254 -0.312106 0.644048 -0.010963 0.009058 -265031.000000 0 0 1
-13.957654 5.707722 21.350833 26.139095 -0.388182 0.614926 -0.008367 0.002320 -645597.000000 0 0 1
-12.967854 5.846022 20.401233 24.870696 -0.423526 0.608875 -0.003577 0.007679 -662010.000000 0 1 0
-11.815854 6.799922 20.740933 24.820146 -0.522203 0.581483 -0.006816 0.003398 -50168.000000 0 1 0
-12.238754 8.170422 20.753833 25.441393 -0.588639 0.616771 -0.003103 0.002356 727506.000000 0 0 1
-11.137454 9.089522 20.866033 25.338777 -0.684494 0.603275 -0.006847 0.002725 433865.000000 0 0 1
-11.601654 10.549022 20.832833 26.074646 -0.737912 0.645218 -0.006596 0.002204 -346791.000000 0 0 1
-12.016954 11.014922 19.566233 25.467100 -0.741919 0.694624 -0.004171 0.002617 640062.000000 0 0 1
-12.715054 12.284822 19.642233 26.427387 -0.768190 0.732877 -0.003751 0.001375 -1463.600000 0 0 1
-13.020454 12.986922 18.286533 25.934334 -0.784109 0.788219 -0.010559 0.002871 377194.000000 0 0 1
-11.876954 13.661722 17.724933 25.335310 -0.855170 0.795939 -0.003864 0.003860 600515.000000 0 0 1
-11.742554 15.007422 18.136833 26.306938 -0.906849 0.810092 -0.002130 0.004915 -457630.000000 0 0 1
-12.819454 16.083922 17.808233 27.205957 -0.897866 0.857181 0.002861 0.004475 -137303.000000 0 0 1
-12.970654 16.553422 16.467833 26.710357 -0.906158 0.906464 0.004162 0.005198 -60841.600000 0 0 1
-13.442954 15.628822 15.528233 25.808896 -0.860446 0.925216 0.003758 0.004688 -511292.000000 0 0 1
-13.876054 16.397322 14.229633 25.766247 -0.868490 0.985725 -0.002218 0.005690 -390401.000000 0 0 1
-14.929754 17.275122 14.398733 26.993535 -0.858096 1.008165 -0.003887 0.002358 -874401.000000 0 0 1
-15.225154 17.876922 13.135633 26.906031 -0.865336 1.060766 -0.007582 0.004209 -672214.000000 0 0 1
-16.455754 18.728622 13.377833 28.293454 -0.849907 1.078303 -0.009490 0.002806 -1184830.000000 0 0 1
-17.592154 17.908322 13.435533 28.472889 -0.794304 1.079385 -0.008929 0.003733 -1034420.000000 0 0 1
-18.633754 18.760122 13.846433 29.847658 -0.788778 1.088400 -0.010637 0.007491 -759587.000000 0 0 1
-19.986554 18.059322 13.900533 30.312147 -0.734786 1.094400 -0.009244 0.005462 -241398.000000 0 0 1
-20.276454 17.556222 12.591433 29.629372 -0.713620 1.131874 -0.010607 0.006809 -39651.200000 0 0 1
-21.649554 17.232422 12.463733 30.348051 -0.672280 1.147582 -0.005397 0.004406 -79219.400000 0 0 1
-22.101454 16.525222 11.190933 29.779090 -0.642026 1.185538 -0.003416 0.002907 -466894.000000 0 0 1
-21.700854 15.162322 11.016233 28.673689 -0.609851 1.176463 -0.003858 0.000101 17037.800000 0 0 1
-22.155454 14.569622 9.813733 28.274501 -0.581706 1.216332 -0.001014 0.001030 -19726.600000 0 0 1
-21.489554 13.180022 9.390833 26.901704 -0.550158 1.214208 0.008657 0.004660 -389784.000000 0 0 1
-21.826254 11.995622 10.110733 26.879495 -0.502533 1.185158 0.006680 0.004401 671650.000000 0 0 1
-23.191454 11.563622 10.146733 27.830147 -0.462540 1.197598 0.005735 0.005602 816241.000000 0 0 1
-23.940254 11.217822 8.821633 27.871069 -0.438194 1.248742 0.008758 0.003372 -183248.000000 0 0 1
-24.041954 12.289722 7.916533 28.137596 -0.472550 1.285595 0.006720 0.002385 102817.000000 0 0 1
-25.177954 12.067922 7.104233 28.810315 -0.446955 1.321640 0.006619 0.001896 -291562.000000 0 0 1
-25.536314 13.290922 6.203233 29.448804 -0.479890 1.358562 0.000310 -0.003452 -1202280.000000 0 0 1
-24.842754 13.570922 5.002733 28.746473 -0.499977 1.395876 0.000743 0.002705 307411.000000 0 0 1
-23.581554 14.174922 5.293633 28.018577 -0.541229 1.380721 0.003236 0.007842 -99865.400000 0 0 1
-23.613754 15.566422 5.889833 28.889670 -0.582822 1.365484 0.001595 -0.000815 -681080.000000 0 0 1
-22.337854 16.060222 6.305033 28.225235 -0.623344 1.345513 0.004951 -0.004228 657565.000000 0 0 1
-22.314354 17.396522 6.739133 29.085826 -0.662185 1.336973 0.003698 -0.007699 76766.400000 0 0 1
-20.891154 18.023522 6.809233 28.419242 -0.711841 1.328843 0.001277 -0.004866 413761.000000 0 0 1
-20.407754 18.501622 5.540433 28.097737 -0.736448 1.372311 0.001772 -0.003968 1485430.000000 0 0 1
-18.971954 18.677322 5.631133 27.211892 -0.777573 1.362354 0.001090 -0.004324 1040540.000000 0 0 1
-18.327754 19.338622 4.394333 27.003685 -0.812229 1.407339 0.002479 -0.007784 301155.000000 0 0 1
-16.898854 19.453222 4.478033 26.154386 -0.855550 1.398733 -0.004307 -0.012429 712394.000000 0 0 1
-16.372054 20.482422 3.672733 26.477589 -0.896469 1.431637 -0.002663 -0.010840 -85549.600000 0 0 1
-16.760754 21.967222 4.040333 27.925007 -0.919034 1.425602 -0.004946 -0.007578 -618567.000000 0 0 1
-16.106654 22.397722 5.199833 28.073484 -0.947353 1.384498 -0.000649 -0.006460 -45588.900000 0 0 1
-16.407854 23.759122 5.542033 29.401151 -0.966413 1.381165 -0.004962 -0.009637 -133773.000000 0 0 1
-15.725854 24.267822 6.876733 29.724050 -0.995819 1.337329 -0.009617 -0.003783 185299.000000 0 0 1
-16.303754 23.654922 8.021233 29.827972 -0.967333 1.298528 -0.012847 0.001730 229624.000000 0 0 1
-15.454254 23.753322 9.137433 29.774938 -0.993989 1.258880 -0.007822 0.000278 -60626.600000 0 0 1
-15.994854 22.957322 10.346933 29.831745 -0.962274 1.216593 -0.010715 -0.000524 428516.000000 0 0 1
-17.088054 23.631522 10.966333 31.156233 -0.944732 1.211112 -0.011636 0.002301 -398738.000000 0 0 1
-18.076054 22.783222 11.443933 31.253520 -0.900097 1.195912 -0.013919 -0.001185 287853.000000 0 0 1
-19.305454 23.609022 11.990833 32.769903 -0.885346 1.196186 -0.011600 -0.003494 307222.000000 0 0 1
-20.142754 24.226422 11.057033 33.390239 -0.877178 1.233279 -0.005102 0.004411 -122354.000000 0 0 1
-19.622454 25.419722 10.536833 33.796861 -0.913402 1.253741 -0.010775 0.002295 -183164.000000 0 0 1
-20.671754 26.397822 9.919233 34.965091 -0.906454 1.283157 -0.007020 0.002776 375451.000000 0 0 1
-21.612454 26.882522 10.864333 36.163544 -0.893646 1.265661 -0.004534 -0.002681 232890.000000 0 0 1
-22.688754 27.555822 10.229833 37.131555 -0.881964 1.291684 -0.003327 0.002735 -63325.000000 0 0 1
-23.770954 27.889222 11.272433 38.339727 -0.864948 1.272372 -0.001845 0.001617 -464643.000000 0 0 1
-23.310654 28.787722 12.313233 39.035051 -0.890143 1.249876 -0.014312 -0.000286 -135562.000000 0 0 1
-24.275554 29.231822 13.216533 40.230320 -0.877762 1.236058 -0.006881 -0.002485 -296087.000000 0 0 1
7.831646 -32.878989 28.529933 44.230303 -1.336958 0.869732 0.007716 0.004833 -26480.700000 0 0 1
9.208246 -32.856489 28.235233 44.289604 -1.297550 0.879529 0.007515 0.000651 158690.000000 0 0 1
9.382246 -32.768589 26.837053 43.382420 -1.291938 0.903817 0.006135 0.001812 -532619.000000 0 0 1
10.853046 -32.843589 26.454213 43.546703 -1.251646 0.917899 0.005572 0.001516 -450544.000000 0 0 1
11.380246 -34.169889 26.353163 44.627128 -1.249302 0.939095 0.003868 -0.000185 733722.000000 0 0 1
12.777246 -34.128189 26.056743 44.798942 -1.212561 0.950056 0.006977 -0.001062 778110.000000 0 0 1
13.554746 33.986322 25.963613 44.865470 1.191299 0.953664 0.007151 -0.000770 -55679.800000 0 0 1
13.396746 33.279722 24.744423 43.580950 1.188094 0.966989 0.008499 -0.000471 39475.400000 0 0 1
14.278146 32.181022 24.745913 43.033055 1.153209 0.958138 0.004577 -0.004912 -327419.000000 0 0 1
14.672846 31.726022 23.303533 42.010564 1.137608 0.982786 0.007195 -0.008493 -162201.000000 0 0 1
13.756546 30.842022 22.688033 40.684392 1.151247 0.979233 0.008814 -0.006767 -95216.500000 0 0 1
14.193546 29.433122 22.569433 39.713281 1.121465 0.966347 0.010403 -0.002028 -39181.400000 0 0 1
14.203246 28.567522 23.869633 39.844634 1.109406 0.928460 0.007807 -0.006759 -230320.000000 0 0 1
15.013746 28.952422 24.950413 41.063103 1.092406 0.917747 0.002525 -0.004197 -22398.900000 0 0 1
14.753846 28.279622 26.161793 41.253514 1.089930 0.883860 -0.001649 -0.006810 -347349.000000 0 0 1
15.534046 28.941322 27.310403 42.717266 1.078188 0.877171 -0.002258 -0.006985 -130475.000000 0 0 1
15.227646 30.296522 27.614843 43.730310 1.105055 0.887335 -0.002767 -0.000335 201786.000000 0 0 1
15.857146 30.724522 28.842833 45.026152 1.094346 0.875544 -0.000637 -0.000136 151193.000000 0 0 1
15.489446 32.170322 29.316643 46.198681 1.122072 0.883335 -0.000535 0.000867 13168.600000 0 0 1
16.072046 33.199422 28.490393 46.607025 1.119944 0.913107 -0.000996 -0.001656 94897.100000 0 0 1
15.857246 34.510622 28.952383 47.756421 1.140080 0.919458 -0.000593 0.003609 -407391.000000 0 0 1
16.615846 -33.918489 28.177903 47.122653 -1.115281 0.929831 -0.005973 -0.000536 -797604.000000 0 0 1
16.243946 -33.838289 26.800233 46.121016 -1.123239 0.950735 -0.001907 -0.001381 -165711.000000 0 0 1
16.418746 -32.596489 26.235073 44.948697 -1.104196 0.947559 -0.005996 -0.004039 -427100.000000 0 0 1
17.798046 -31.921889 26.125113 44.925482 -1.062175 0.950199 -0.009309 -0.000525 -310902.000000 0 0 1
18.248646 -31.505889 27.347893 45.536155 -1.045801 0.926576 -0.008436 -0.000853 -652547.000000 0 0 1
19.433046 -30.768789 27.398573 45.552645 -1.007477 0.925456 -0.006317 -0.001049 -374755.000000 0 0 1
19.708546 -30.166589 28.782573 46.118179 -0.992088 0.896811 -0.002613 -0.002241 681258.000000 0 0 1
18.618046 -29.249489 29.078363 45.251690 -1.003952 0.872920 -0.010369 -0.004140 857042.000000 0 0 1
18.769046 -28.564689 30.286883 45.667426 -0.989466 0.845703 -0.007593 -0.004176 -531958.000000 0 0 1
17.571346 -27.711189 30.650093 44.900895 -1.005688 0.819459 -0.002915 -0.005813 -578650.000000 0 0 1
17.261046 -26.612089 29.808273 43.527924 -0.995394 0.816456 -0.004534 -0.003003 410074.000000 0 0 1
15.973346 -26.147689 30.213433 43.031395 -1.022408 0.792418 -0.002339 -0.002102 260738.000000 0 0 1
15.171546 -25.527789 29.051063 41.542846 -1.034568 0.796373 -0.001855 0.000413 -756676.000000 0 0 1
14.731446 -26.384189 28.005173 41.199887 -1.061570 0.823389 -0.002264 0.002684 82759.100000 0 0 1
14.087646 -25.703189 26.991493 39.845406 -1.069421 0.826567 -0.002370 -0.001859 -974896.000000 0 0 1
12.640746 -25.230589 27.187053 39.185545 -1.106342 0.804040 0.005962 0.004002 -413544.000000 0 0 1
11.588746 -26.174789 27.134193 39.442148 -1.153992 0.812137 0.011192 0.005429 300324.000000 0 0 1
11.400946 -26.771089 25.850763 38.922163 -1.168191 0.844419 0.012174 0.004904 -1170380.000000 0 0 1
10.565146 -28.026889 25.838943 39.557298 -1.210304 0.858989 0.007750 0.004436 -443410.000000 0 0 1
9.215346 -27.847489 26.198893 39.329216 -1.251218 0.841771 0.004212 0.005106 -370227.000000 0 0 1
8.524946 -29.043989 26.178113 40.019016 -1.285296 0.857749 0.007871 0.009007 -942912.000000 0 0 1
7.139746 -28.995789 26.844593 40.154252 -1.329365 0.838557 0.008500 0.001525 391128.000000 0 0 1
6.080746 -28.530189 25.976753 39.060707 -1.360805 0.843255 0.003824 0.003325 486785.000000 0 0 1
6.153346 -27.197689 25.459543 37.759321 -1.348297 0.830836 0.004101 -0.003136 -749319.000000 0 0 1
5.004246 -26.903589 24.436083 36.687433 -1.386891 0.841880 0.004814 0.000695 -158013.000000 0 0 1
4.858346 -27.794989 23.312533 36.601081 -1.397752 0.880280 0.001449 0.004230 125498.000000 0 0 1
4.183646 -29.018989 23.614333 37.646266 -1.427614 0.892755 0.001715 0.007071 182226.000000 0 0 1
2.666046 -28.931189 23.920733 37.634067 -1.478905 0.881993 -0.001932 0.001728 -79336.800000 0 0 1
1.753946 -28.531389 22.852033 36.596884 -1.509399 0.896400 -0.004175 0.002018 2084010.000000 0 0 1
0.382946 -28.367989 23.323833 36.727247 -1.557298 0.882716 -0.005547 -0.001894 1542030.000000 0 0 1
0.114146 -26.989889 23.878833 36.037006 -1.566567 0.846485 0.003461 -0.004418 -397760.000000 0 0 1
0.896446 -26.760189 25.038373 36.658307 -1.537310 0.818906 0.001002 -0.003746 24982.200000 0 0 1
0.859746 -25.387589 25.395063 35.919049 -1.536944 0.785538 0.004909 -0.004377 -539045.000000 0 0 1
1.935146 -25.038489 26.424903 36.454715 -1.493663 0.759952 0.004955 -0.001346 460327.000000 0 0 1
3.187146 -24.708789 25.766333 35.841123 -1.442516 0.768572 0.004203 -0.000698 1281520.000000 0 0 1
4.090946 -23.920789 26.587343 35.997594 -1.401414 0.739825 0.007273 -0.000336 488860.000000 0 0 1
3.790746 -22.416489 26.731993 35.092281 -1.403276 0.704767 0.005093 -0.002778 -810222.000000 0 0 1
3.847046 -21.706989 25.511083 33.716591 -1.395391 0.712648 0.004921 0.000767 46508.800000 0 0 1
3.175546 -20.501389 25.575603 32.931786 -1.417123 0.681508 0.007070 -0.006672 -362697.000000 0 0 1
3.316246 -19.695089 24.273533 31.434033 -1.403982 0.688491 0.006865 -0.006123 1125710.000000 0 0 1
4.678946 -19.286189 24.002533 31.144361 -1.332789 0.690879 0.009932 -0.001013 916348.000000 0 0 1
4.785546 -18.359989 22.917333 29.752224 -1.315819 0.691527 0.008024 0.001755 293168.000000 0 0 1
6.237446 -17.881989 22.694833 29.558869 -1.235181 0.695421 0.014667 -0.001000 -180323.000000 0 0 1
7.132646 -18.840489 22.189733 29.970367 -1.208890 0.737147 0.010333 0.004402 628235.000000 0 0 1
8.444046 -18.292289 21.944533 29.790473 -1.138323 0.742724 0.009903 0.003351 803869.000000 0 0 1
9.438046 -18.551289 23.083133 31.081475 -1.100170 0.733755 0.009329 0.001133 -750796.000000 0 0 1
9.219146 -17.713589 24.201933 31.376702 -1.090918 0.689861 0.005475 -0.001018 -250796.000000 0 0 1
10.252946 -17.751189 25.138193 32.436960 -1.047016 0.684103 0.007208 0.001807 -338168.000000 0 0 1
10.215646 -16.610989 26.206433 32.665908 -1.019425 0.639731 0.006541 -0.000709 -255162.000000 0 0 1
10.395546 -15.232689 25.760903 31.681640 -0.971946 0.621308 0.007498 -0.002605 151911.000000 0 0 1
10.242946 -14.355989 26.874213 32.143984 -0.951070 0.580739 0.001766 -0.007981 -17047.100000 0 0 1
10.728346 -12.906389 26.655873 31.499331 -0.877293 0.561915 -0.001345 -0.008518 -66254.700000 0 0 1
9.828346 -12.184389 25.832533 30.205554 -0.892023 0.544812 0.000071 -0.003953 298674.000000 0 0 1
10.173446 -10.820989 25.976343 29.922620 -0.816232 0.519400 -0.004786 0.001323 -352008.000000 0 0 1
9.328446 -9.861389 25.147303 28.577154 -0.813163 0.494978 -0.001719 0.003332 -593131.000000 0 0 1
8.070846 -9.733589 25.766543 28.701848 -0.878517 0.456204 0.003186 0.003281 -149434.000000 0 0 1
7.131446 -9.180889 24.836623 27.422693 -0.910381 0.437778 0.008010 0.009070 -1259790.000000 0 0 1
5.723746 -9.310489 25.267693 27.530034 -1.019592 0.408235 0.006352 0.006481 -2585290.000000 0 0 1
5.343346 -8.340889 26.293223 28.097248 -1.001043 0.360293 0.009533 0.009080 998783.000000 0 0 1
3.981846 -8.525189 26.740943 28.348051 -1.133839 0.338337 0.011494 0.008956 1858910.000000 0 0 1
2.825346 -8.396689 25.671873 27.157541 -1.246213 0.332300 0.010430 0.010466 -340796.000000 0 0 1
2.657546 -7.103189 25.167183 26.285071 -1.212785 0.292692 0.012092 0.012832 -105619.000000 0 0 1
1.632146 -7.062189 24.201433 25.263566 -1.343674 0.290998 0.015162 0.002412 -131132.000000 0 0 1
1.745246 -5.749989 23.485333 24.241888 -1.276112 0.250489 0.008247 0.001537 -103214.000000 0 1 0
1.408346 -4.668489 24.323633 24.807607 -1.277808 0.197853 0.007767 0.008537 288284.000000 0 1 0
1.928946 -3.468989 23.719133 24.048950 -1.063317 0.165806 0.007027 0.007104 -506833.000000 0 1 0
1.004246 -2.782989 22.666833 22.859109 -1.224487 0.129793 0.006081 0.002796 707395.000000 0 1 0
-0.120054 -2.011989 23.099133 23.186903 1.511198 0.087037 0.009651 0.001229 1051550.000000 0 1 0
-1.146154 -2.705989 23.843233 24.023651 1.170144 0.122633 0.012883 0.005174 -84647.400000 0 1 0
-2.042354 -1.611989 24.502293 24.640051 0.668170 0.105792 0.014602 0.005843 153093.000000 0 1 0
-1.381154 -0.801989 25.499223 25.549191 0.526082 0.062552 0.008473 0.006813 203108.000000 0 0 1
-2.249054 0.182011 25.951093 26.049004 -0.080752 0.086730 0.004118 0.008044 -1007470.000000 0 0 1
-1.623754 1.112011 26.995713 27.067354 -0.600478 0.072773 0.009168 0.000148 -408996.000000 0 0 1
-1.620154 0.635011 28.361033 28.414369 -0.373543 0.061280 0.003490 0.000947 341025.000000 0 0 1
-0.817254 -0.538989 28.635043 28.651773 0.583033 0.034175 0.008911 -0.002243 302772.000000 0 0 1
0.643646 -0.201989 29.071733 29.079559 -0.304087 0.023200 0.010815 -0.004202 16089.900000 0 0 1
1.551546 0.347011 28.124773 28.169675 0.220034 0.056469 0.015542 -0.002241 387753.000000 0 0 1
2.078546 -0.583989 27.104193 27.190048 -0.273899 0.079489 0.012750 -0.004092 466547.000000 0 0 1
3.192646 -1.498989 27.710383 27.933945 -0.438962 0.126601 0.012727 -0.005058 -318110.000000 0 0 1
2.591046 -2.534989 28.460343 28.690257 -0.774463 0.126684 0.015516 -0.004101 83012.800000 0 0 1
3.504746 -3.460989 29.015973 29.431079 -0.779117 0.168152 0.013597 -0.000626 133916.000000 0 0 1
4.081446 -4.529989 28.025133 28.680779 -0.837438 0.214232 0.015061 -0.001758 408388.000000 0 0 1
5.037846 -3.945989 27.137583 27.881878 -0.664456 0.231578 0.011048 0.000899 -54344.600000 0 0 1
5.474546 -4.789889 26.138503 27.131809 -0.718795 0.271426 0.008278 0.002970 -940938.000000 0 0 1
6.584646 -4.229989 25.272193 26.456268 -0.571015 0.300313 0.008360 0.002754 -697665.000000 0 0 1
7.834446 -4.171989 25.951493 27.427432 -0.489323 0.329552 0.007969 0.000353 528206.000000 0 0 1
8.665546 -5.356589 25.870383 27.803983 -0.553657 0.375141 0.003908 0.007001 314300.000000 0 0 1
9.280846 -5.615289 24.444113 26.742854 -0.544118 0.417655 -0.002469 0.004095 -590449.000000 0 0 1
8.306046 -6.034489 23.502533 25.647115 -0.628302 0.411852 0.003069 0.002548 10142.000000 0 0 1
8.799546 -6.118289 22.183733 24.637035 -0.607562 0.450057 -0.002032 -0.000420 -275576.000000 0 1 0
8.996346 -4.772489 21.447633 23.742617 -0.487743 0.443305 -0.001880 -0.006319 -237335.000000 0 1 0
7.815046 -4.143989 21.064733 22.846675 -0.487560 0.397571 0.006559 -0.011441 -609916.000000 0 1 0
8.083946 -3.098989 20.170233 21.949766 -0.366072 0.405445 0.003964 -0.010776 174566.000000 0 1 0
6.822946 -2.224989 19.992433 21.241482 -0.315230 0.344638 0.009147 -0.006263 227186.000000 0 1 0
6.401546 -1.441989 21.074433 22.072400 -0.221558 0.301855 0.009425 -0.005825 18350.300000 0 1 0
5.143046 -0.818989 20.939333 21.577241 -0.157916 0.243765 0.002977 -0.001367 -184195.000000 0 1 0
4.510146 -0.538989 22.277233 22.735590 -0.118942 0.201139 -0.000771 -0.002090 862028.000000 0 1 0
3.136846 -0.084989 22.244833 22.465076 -0.027087 0.140142 0.001098 0.000094 1031810.000000 0 1 0
2.706646 0.213011 23.584233 23.739995 0.078537 0.114615 0.009261 0.000508 -48749.600000 0 1 0
1.316446 0.845011 23.769733 23.821152 0.570652 0.065716 0.011411 0.001313 -190049.000000 0 1 0
1.114746 2.154011 23.159933 23.286583 1.093230 0.104342 0.012728 0.001322 643253.000000 0 1 0
-0.244554 2.536011 23.353033 23.491601 -1.474661 0.108668 0.009038 0.007781 402607.000000 0 1 0
-0.554454 3.885011 22.653533 22.990939 -1.429037 0.171532 0.004005 0.001550 -242535.000000 0 1 0
-0.425254 5.026011 23.483233 24.018823 -1.486387 0.211576 0.007692 0.000791 -147825.000000 0 1 0
-1.297254 6.068011 23.124033 23.942108 -1.360181 0.262165 0.001778 -0.003810 -239710.000000 0 1 0
-1.373054 7.443011 23.965633 25.132355 -1.388372 0.305898 0.008636 -0.001138 26995.500000 0 0 1
-0.230954 8.245011 23.773333 25.163563 -1.542792 0.333958 0.002059 0.002637 81922.200000 0 0 1
-0.432454 9.505011 24.307433 26.103325 -1.525330 0.373103 -0.000681 0.002330 -718037.000000 0 0 1
0.305746 10.603011 23.524433 25.805354 1.541969 0.423611 -0.003790 -0.002854 1145710.000000 0 0 1
1.737146 10.682011 23.742633 26.092828 1.409584 0.427682 -0.005644 -0.001338 1080090.000000 0 0 1
2.166846 11.125011 25.054913 27.499268 1.378432 0.424822 -0.008436 -0.002728 -440195.000000 0 0 1
3.508346 11.947011 25.073553 27.995047 1.285167 0.460923 -0.005251 -0.005022 533434.000000 0 0 1
4.677346 11.221011 24.761613 27.584890 1.175859 0.456385 0.001851 -0.003326 -114052.000000 0 0 1
4.787746 10.701011 23.472633 26.237352 1.150098 0.463202 -0.000805 -0.001650 -563554.000000 0 0 1
6.235846 10.289011 23.035233 25.987910 1.025927 0.481324 0.006760 0.003481 451601.000000 0 0 1
7.012046 11.316011 22.548133 26.184713 1.016048 0.533331 0.006211 0.003396 -276815.000000 0 0 1
8.243446 10.853011 22.029633 25.904575 0.921209 0.554023 0.003836 0.009614 -177043.000000 0 0 1
9.070746 11.858011 21.308033 26.017747 0.917798 0.611164 0.007446 -0.003297 -1021620.000000 0 0 1
8.541346 12.197011 20.057433 24.980438 0.959881 0.638609 0.006442 -0.004883 190928.000000 0 1 0
9.290346 13.174011 19.329333 25.169192 0.956587 0.695121 0.009281 -0.007849 58258.300000 0 0 1
10.705646 12.766011 18.883133 25.182427 0.872955 0.722956 0.006660 -0.002335 -362459.000000 0 0 1
11.698646 12.781011 19.874233 26.366602 0.829584 0.717023 0.000404 -0.000396 499932.000000 0 0 1
12.975846 12.407011 19.321433 26.374690 0.762992 0.748699 0.002189 0.000632 878855.000000 0 0 1
14.063446 12.176011 20.400833 27.608509 0.713591 0.739311 -0.002615 0.004753 -31366.700000 0 0 1
14.554646 13.366011 20.940633 28.792327 0.742852 0.756418 -0.007092 0.006556 -295913.000000 0 0 1
15.680646 13.044011 21.714133 29.791483 0.693865 0.754126 -0.008990 0.004538 -266174.000000 0 0 1
16.292646 14.188011 22.459933 31.164059 0.716459 0.765985 -0.006048 0.005229 -271998.000000 0 0 1
15.477046 14.674011 23.518433 31.748736 0.758771 0.736584 -0.009761 0.004431 382030.000000 0 0 1
16.079646 15.802011 24.172233 33.053826 0.776690 0.750572 -0.004591 0.000128 -300873.000000 0 0 1
-20.206654 12.864422 -25.500247 34.986638 -0.566928 2.387447 0.000086 0.002739 46298.600000 0 0 1
-19.844854 12.912122 -26.907847 35.840945 -0.576834 2.420004 0.002389 0.003167 66837.800000 0 0 1
-20.618154 13.845022 -27.643927 37.161534 -0.591339 2.409662 0.004614 0.000152 -162250.000000 0 0 1
-20.326654 13.952622 -29.161647 38.187042 -0.601554 2.439749 0.001721 0.003924 -353509.000000 0 0 1
-18.996954 14.344522 -29.348607 37.788759 -0.646755 2.460125 0.002367 0.001476 -623289.000000 0 0 1
-18.850154 14.864122 -30.643217 38.926562 -0.667715 2.477061 0.009999 0.002092 -1215680.000000 0 0 1
-17.423554 15.177322 -30.977407 38.646230 -0.716606 2.500702 0.013990 0.003627 -1170490.000000 0 0 1
-16.646154 14.008422 -31.010867 37.881450 -0.699563 2.529817 0.018072 -0.001137 448269.000000 0 0 1
-15.225554 14.243822 -30.950887 37.318379 -0.752097 2.548782 0.010019 0.000681 906177.000000 0 0 1
-14.738454 13.779422 -29.495177 35.735976 -0.751782 2.541642 0.008935 0.003918 -520641.000000 0 0 1
-15.180854 14.437122 -28.324887 35.230499 -0.760293 2.504767 0.010660 -0.001745 -92658.100000 0 0 1
-16.079654 13.526622 -27.653197 34.730737 -0.699378 2.491813 0.010876 0.003970 173574.000000 0 0 1
-16.730154 14.108622 -26.426267 34.311789 -0.700594 2.449920 0.010885 0.001538 -958984.000000 0 0 1
-15.851854 14.265822 -25.391557 33.159103 -0.732786 2.443002 0.018354 -0.002436 -448291.000000 0 0 1
-16.541254 14.612922 -24.211407 32.761911 -0.723581 2.402397 0.005099 -0.004034 168954.000000 0 0 1
-15.599954 15.074222 -23.047507 31.650882 -0.768261 2.386458 0.005075 -0.002736 206317.000000 0 0 1
-14.945354 16.274322 -23.339407 32.139463 -0.827941 2.383562 -0.003185 -0.006122 -8688.720000 0 0 1
-14.395654 16.957022 -22.198807 31.425507 -0.866912 2.355188 0.001106 -0.005330 -690260.000000 0 0 1
-14.245954 18.507922 -22.586707 32.490764 -0.914792 2.339457 0.004019 -0.006013 -196801.000000 0 0 1
-15.413254 19.294922 -22.609207 33.481915 -0.896773 2.312122 0.000751 -0.005801 273996.000000 0 0 1
-16.256054 18.980822 -23.730607 34.462626 -0.862572 2.330339 -0.004628 -0.006071 418897.000000 0 0 1
-17.548954 19.821822 -23.956407 35.704059 -0.846143 2.306315 -0.002478 -0.000042 396805.000000 0 0 1
-17.259754 21.148322 -24.286907 36.537713 -0.886298 2.297899 -0.000405 -0.000712 746626.000000 0 0 1
-18.467654 21.929022 -24.424307 37.662754 -0.870874 2.276409 0.003711 -0.005335 961274.000000 0 0 1
-18.124254 23.401622 -24.828007 38.633592 -0.911807 2.268753 0.005513 -0.005664 372608.000000 0 0 1
-17.413554 24.036022 -23.774007 38.028485 -0.943831 2.246137 -0.001513 0.001380 -377104.000000 0 0 1
-16.690954 25.185422 -24.116207 38.658568 -0.985529 2.244424 -0.005749 -0.001497 -366508.000000 0 0 1
-15.615154 25.466122 -23.029907 37.719133 -1.020747 2.227568 -0.010739 0.000395 -38443.700000 0 0 1
-14.531054 24.559922 -22.959307 36.626098 -1.036534 2.248308 -0.007445 -0.006336 -134430.000000 0 0 1
-14.835554 23.224822 -22.558907 35.614468 -1.002349 2.256761 -0.002081 -0.003569 -1188660.000000 0 0 1
-13.670154 22.269422 -22.260807 34.327013 -1.020253 2.276399 0.004295 -0.003727 -242491.000000 0 0 1
-12.960954 22.640022 -21.100807 33.552958 -1.050858 2.250909 0.006974 -0.002781 -441617.000000 0 0 1
-12.190954 21.521422 -20.750607 32.285890 -1.055406 2.268833 0.007601 -0.000428 -752761.000000 0 0 1
-11.372454 21.851922 -19.525707 31.433938 -1.090937 2.241027 0.006594 0.003045 -447296.000000 0 0 1
-12.022954 21.878922 -18.250707 30.924537 -1.068320 2.202065 0.012983 0.004691 519546.000000 0 0 1
-13.023854 22.908922 -18.088107 31.962777 -1.053856 2.172335 0.002003 0.003226 659718.000000 0 0 1
-13.731154 22.873822 -16.681707 31.464832 -1.030156 2.129597 0.007146 0.003956 535770.000000 0 0 1
-12.963454 23.429222 -15.602707 30.990709 -1.065421 2.098400 0.007172 0.000593 197788.000000 0 0 1
-13.737554 23.401622 -14.433607 30.735734 -1.039965 2.059638 0.004205 0.003816 -56361.100000 0 0 1
-12.932354 23.782022 -13.164607 30.102113 -1.072736 2.023426 0.002987 0.004774 -18952.500000 0 0 1
-12.484354 25.133822 -13.024707 30.938828 -1.109780 2.005325 0.001787 -0.000835 504081.000000 0 0 1
-11.499954 25.274522 -12.006607 30.252422 -1.143791 1.978912 -0.002221 -0.001546 97974.800000 0 0 1
-11.312154 26.771522 -11.718407 31.336884 -1.171008 1.954060 -0.002296 -0.004660 -208880.000000 0 0 1
-10.743654 27.408922 -12.839107 32.117250 -1.197226 1.982048 -0.004294 -0.010993 62542.800000 0 0 1
-10.825154 28.788822 -12.641607 33.253428 -1.211132 1.960765 -0.000557 -0.010369 -506965.000000 0 0 1
-10.291654 29.601122 -13.872507 34.272307 -1.236192 1.987527 0.001076 -0.010193 1199850.000000 0 0 1
-8.873654 29.694922 -14.136707 34.064301 -1.280416 1.998740 0.004493 -0.002955 1077920.000000 0 0 1
-8.216254 28.463022 -14.463307 32.967222 -1.289772 2.024968 0.002946 -0.000281 474765.000000 0 0 1
-6.780854 28.697422 -15.049707 33.106128 -1.338764 2.042708 0.008548 0.002471 733967.000000 0 0 1
-5.860554 29.223222 -14.115207 32.978506 -1.372877 2.013089 0.004061 -0.001272 111289.000000 0 0 1
-4.580454 29.158122 -14.771207 33.005533 -1.414980 2.034806 0.003354 -0.000047 978569.000000 0 0 1
-3.486954 30.222522 -14.446607 33.678838 -1.455928 2.014129 0.000279 -0.000814 320505.000000 0 0 1
-3.709154 31.590322 -14.817607 35.089425 -1.453917 2.006757 -0.002435 -0.004311 -87165.300000 0 0 1
-4.540754 32.249322 -13.855907 35.392420 -1.430914 1.973051 -0.003595 -0.010201 191138.000000 0 0 1
-4.572754 33.772422 -13.971307 36.833191 -1.436216 1.959850 -0.002868 -0.012841 677202.000000 0 0 1
-3.450754 34.411422 -13.328607 37.063532 -1.470851 1.938652 -0.004370 -0.012762 354953.000000 0 0 1
-3.495454 -33.685889 -13.562007 36.481302 1.467400 1.951692 -0.002692 -0.008910 6510.940000 0 0 1
-2.630954 -32.882389 -12.618007 35.318374 1.490955 1.936134 -0.006251 -0.012132 -121059.000000 0 0 1
-3.124054 -32.867389 -11.287807 34.891827 1.476031 1.900232 -0.001399 -0.013313 65430.300000 0 0 1
-2.243454 -32.116389 -10.478207 33.856881 1.501056 1.885448 -0.001519 -0.010687 -46618.200000 0 0 1
-2.650954 -32.169889 -8.975407 33.503541 1.488577 1.842003 -0.000681 -0.007747 -408190.000000 0 0 1
-1.896554 -31.275389 -8.239307 32.398041 1.510230 1.827936 0.001026 -0.005931 -407676.000000 0 0 1
-1.979254 -31.576089 -6.898707 32.381461 1.508196 1.785487 -0.002125 -0.009849 13603.700000 0 0 1
-0.853954 -30.909289 -6.080107 31.513189 1.543176 1.764952 -0.004837 -0.003556 138889.000000 0 0 1
-1.065954 -31.030489 -4.719707 31.405464 1.536458 1.721651 0.003930 -0.003550 -47888.200000 0 0 1
0.050646 -30.500889 -4.037307 30.766973 -1.569136 1.702398 0.002405 -0.000618 35856.700000 0 0 1
0.113246 -30.717289 -2.490607 30.818303 -1.567110 1.651700 0.001089 0.003793 -594742.000000 0 0 1
0.064646 -32.060689 -1.948607 32.119916 -1.568780 1.631500 0.006512 0.000760 -176878.000000 0 0 1
1.117746 -32.935489 -2.283107 33.033443 -1.536872 1.639966 0.005616 -0.002081 -24071.000000 0 0 1
2.406046 -32.560189 -1.485607 32.682748 -1.497035 1.616267 0.006078 0.004092 -1002050.000000 0 0 1
2.464846 -32.729589 -0.079407 32.822367 -1.495629 1.573216 0.010090 0.001419 -17360.600000 0 0 1
3.698746 -32.374589 0.513593 32.589239 -1.457041 1.555036 0.006671 -0.000184 125522.000000 0 0 1
4.031946 -30.846889 0.537893 31.113927 -1.440825 1.553508 0.002998 0.002504 -529120.000000 0 0 1
4.201046 -30.226889 -0.738507 30.526366 -1.432697 1.594991 0.004961 0.000721 124626.000000 0 0 1
4.119446 -28.820989 -0.612707 29.120348 -1.428826 1.591838 0.011911 0.000544 -217571.000000 0 0 1
3.664246 -27.983689 -1.867507 28.284291 -1.440595 1.636871 0.007672 -0.000480 -404002.000000 0 0 1
2.365746 -28.317389 -2.279907 28.507354 -1.487446 1.650858 0.000255 0.003323 -123146.000000 0 0 1
1.850446 -27.372789 -3.244707 27.626470 -1.503297 1.688517 -0.006119 0.007184 -236140.000000 0 0 1
2.419946 -27.302189 -4.671807 27.804522 -1.482392 1.739620 -0.004891 0.005667 -498266.000000 0 0 1
2.115546 -28.395289 -5.494807 28.999326 -1.496430 1.761429 -0.007972 0.001538 56367.200000 0 0 1
2.583746 -28.135489 -6.833507 29.068511 -1.479221 1.808100 -0.000939 -0.003591 -124263.000000 0 0 1
2.010846 -29.018689 -7.977107 30.162262 -1.501612 1.838454 -0.011220 -0.005391 -216590.000000 0 0 1
0.692346 -28.636589 -8.277507 29.816953 -1.546624 1.852103 -0.008203 -0.003234 -515105.000000 0 0 1
0.423946 -28.780089 -9.634607 30.352906 -1.556067 1.893803 -0.004239 -0.001515 238498.000000 0 0 1
-0.942854 -28.218489 -10.105107 29.988086 1.537396 1.914494 -0.012295 -0.004848 -382302.000000 0 0 1
-1.061054 -26.807089 -9.917107 28.602358 1.531236 1.924872 -0.012783 0.000132 -116783.000000 0 0 1
-2.359954 -26.312789 -9.665607 28.131054 1.481347 1.921536 -0.003776 -0.004945 91708.400000 0 0 1
-3.159754 -26.810789 -8.478307 28.296363 1.453484 1.875096 0.003782 -0.003785 -607114.000000 0 0 1
-2.639454 -26.438789 -7.193607 27.526792 1.471293 1.835197 0.004478 -0.003337 -251701.000000 0 0 1
-1.884254 -27.397589 -6.522907 28.226346 1.502130 1.803997 -0.008330 -0.001623 81140.700000 0 0 1
-1.488054 -27.068889 -5.084307 27.582408 1.515879 1.756188 -0.003460 0.004385 -467696.000000 0 0 1
-2.528254 -27.343089 -4.199707 27.779023 1.478594 1.722561 -0.001422 0.001564 -400409.000000 0 0 1
-2.239954 -27.075589 -2.844707 27.316612 1.488255 1.675124 -0.000674 0.006049 -317120.000000 0 0 1
-3.408754 -27.137289 -1.849607 27.413010 1.445839 1.638320 0.005979 0.002550 -524280.000000 0 0 1
-4.328354 -26.098589 -1.943607 26.526376 1.406446 1.644133 0.006636 0.000233 -189683.000000 0 0 1
-5.299454 -26.236989 -0.907607 26.782225 1.371494 1.604691 0.015686 0.000623 -309428.000000 0 0 1
-6.243954 -25.058589 -0.793607 25.836982 1.326595 1.601517 0.004664 -0.002279 -212328.000000 0 0 1
-5.643254 -23.871589 -0.414207 24.533052 1.338658 1.587681 -0.000774 0.003537 -383051.000000 0 1 0
-6.620054 -23.202189 0.310093 24.130123 1.292861 1.557945 0.001541 0.004750 79845.000000 0 1 0
-6.130754 -21.749189 0.650593 22.606120 1.296041 1.542013 -0.002656 0.002684 686667.000000 0 1 0
-5.143854 -21.684889 1.681193 22.349945 1.337892 1.495504 -0.003241 0.000268 316514.000000 0 1 0
-4.388154 -20.479789 1.645793 21.009195 1.359720 1.492379 -0.005673 -0.000303 -204081.000000 0 1 0
-3.301454 -20.290089 2.697093 20.733104 1.409497 1.440340 -0.004542 -0.000971 -856422.000000 0 1 0
-3.787354 -20.161289 4.007593 20.901733 1.385108 1.377867 -0.006068 0.002586 -339084.000000 0 1 0
-2.792254 -19.975989 4.985793 20.777270 1.431916 1.328468 -0.001267 -0.002532 -305419.000000 0 1 0
-2.112354 -21.301689 5.418193 22.081232 1.471956 1.322889 -0.006950 -0.004049 341820.000000 0 1 0
-1.288854 -21.812489 4.356493 22.280594 1.511777 1.374000 0.000872 -0.006201 -337509.000000 0 1 0
-0.656054 -22.972789 4.707193 23.459265 1.542246 1.368771 0.002125 -0.006513 -2221950.000000 0 1 0
0.190446 -23.521889 3.589893 23.795018 -1.562700 1.419351 0.002958 -0.007182 -440802.000000 0 1 0
1.398146 -22.820789 3.411693 23.116723 -1.509606 1.422670 -0.005034 -0.003491 -562994.000000 0 1 0
2.335846 -23.149989 4.390093 23.678072 -1.470236 1.384310 0.000189 -0.002055 -1907230.000000 0 1 0
3.415546 -22.067389 4.501393 22.779336 -1.417237 1.371879 0.000076 -0.001617 -242928.000000 0 1 0
4.145246 -21.852389 3.309793 22.486990 -1.383331 1.423073 -0.001685 0.001492 -233522.000000 0 1 0
5.097146 -20.819289 3.473593 21.713810 -1.330691 1.410134 -0.001021 0.000022 167219.000000 0 1 0
5.757146 -20.472389 2.154093 21.375303 -1.296661 1.469850 -0.003464 0.000482 -192737.000000 0 1 0
6.659846 -21.447189 1.717093 22.522963 -1.269714 1.494485 0.003449 0.001783 -452161.000000 0 1 0
6.510946 -21.715589 0.323093 22.672971 -1.279497 1.556546 0.005750 -0.002014 277493.000000 0 1 0
7.473046 -22.800089 -0.306507 23.995508 -1.254067 1.583570 0.010458 0.004484 -462257.000000 0 1 0
8.727946 -22.296389 -0.507907 23.949196 -1.197681 1.592006 0.007714 0.008225 -1598100.000000 0 1 0
9.628146 -23.165689 -1.144707 25.112959 -1.176897 1.616394 0.006929 0.002356 99863.000000 0 0 1
10.909846 -22.514789 -1.680107 25.075152 -1.119574 1.637849 0.013321 0.002151 -71208.400000 0 0 1
10.750446 -21.520689 -2.708007 24.208376 -1.107517 1.682893 0.012627 0.006148 -771799.000000 0 1 0
12.010246 -21.330289 -3.263807 24.695742 -1.057981 1.703345 0.013060 -0.000046 -595537.000000 0 1 0
12.220646 -20.063989 -4.181807 23.862006 -1.023724 1.746956 0.006615 -0.000756 -145368.000000 0 1 0
12.458046 -18.808089 -3.561107 22.839190 -0.985769 1.727356 0.021309 -0.000435 124782.000000 0 1 0
12.638846 -17.833189 -4.603607 22.337329 -0.954238 1.778379 0.021879 0.000283 -865749.000000 0 1 0
12.923746 -16.425889 -4.030607 21.285649 -0.904162 1.761305 0.034418 0.000745 285547.000000 0 1 0
14.181046 -16.102889 -3.436307 21.730470 -0.848774 1.729596 0.020044 0.000010 257394.000000 0 1 0
15.184046 -16.076089 -4.415907 22.549859 -0.813927 1.767899 0.013213 0.002427 -778959.000000 0 1 0
16.597046 -15.776289 -3.862507 23.222235 -0.760051 1.737901 0.005905 0.003752 -42418.300000 0 1 0
17.222346 -16.798789 -3.117307 24.259557 -0.772949 1.699651 0.004449 0.006783 481623.000000 0 1 0
18.628546 -16.579289 -3.099007 25.129652 -0.727259 1.694432 -0.008657 0.013064 -75584.200000 0 0 1
19.373346 -17.732189 -2.496007 26.381568 -0.741198 1.665550 -0.005123 0.008276 398093.000000 0 0 1
20.793146 -17.527589 -2.486107 27.308461 -0.700387 1.661961 -0.006070 0.010720 460889.000000 0 0 1
21.414846 -18.225189 -1.490507 28.159807 -0.705106 1.623751 -0.005825 0.012852 1344800.000000 0 0 1
22.999346 -17.999089 -1.537207 29.245515 -0.664035 1.623383 0.001715 0.009726 1511570.000000 0 0 1
23.505646 -16.771389 -1.082807 28.895802 -0.619732 1.608278 -0.001992 0.005305 -59568.500000 0 0 1
24.840946 -16.955989 -0.674007 30.083757 -0.598940 1.593203 0.002847 0.011462 55712.100000 0 0 1
25.570046 -15.658889 -0.204507 29.984494 -0.549481 1.577617 -0.001087 0.012142 76806.000000 0 0 1
24.950246 -15.124189 0.978393 29.192689 -0.544947 1.537275 0.000702 0.013062 268381.000000 0 0 1
25.763746 -14.383889 1.875893 29.566634 -0.509193 1.507307 -0.002026 0.007877 -73710.600000 0 0 1
24.975146 -13.813589 3.076193 28.706029 -0.505215 1.463428 0.001500 0.003536 -98993.200000 0 0 1
24.543746 -14.716889 4.107693 28.911164 -0.540139 1.428234 0.004449 0.004195 541506.000000 0 0 1
25.576546 -15.422289 4.827793 30.254161 -0.542612 1.410537 -0.001545 0.001454 675931.000000 0 0 1
24.887546 -16.182289 6.010993 30.288421 -0.576527 1.371012 0.008138 -0.003592 514623.000000 0 0 1
24.157646 -17.348589 5.683393 30.279801 -0.622797 1.381981 0.001696 -0.001049 -273130.000000 0 0 1
23.289446 -17.649889 6.744893 29.990173 -0.648506 1.343952 -0.001010 -0.003037 -553232.000000 0 0 1
22.499446 -18.944689 6.581993 30.140487 -0.699835 1.350645 -0.002742 -0.001312 230975.000000 0 0 1
23.359346 -20.091989 6.689493 31.529294 -0.710344 1.357004 -0.001747 -0.000725 13479.000000 0 0 1
22.618646 -21.275489 6.551693 31.736009 -0.754808 1.362858 -0.004601 -0.004538 -508031.000000 0 0 1
1.487046 23.698322 -2.858107 23.916324 1.508129 1.690587 0.005603 -0.001088 -416780.000000 0 1 0
2.354146 24.644922 -2.386107 24.871825 1.475563 1.666880 0.005648 -0.003253 -555344.000000 0 1 0
3.022146 25.394922 -3.378007 25.796247 1.452347 1.702123 -0.001852 0.001966 -516245.000000 0 0 1
3.984746 26.338722 -2.735007 26.778475 1.420646 1.673109 0.001602 -0.003745 -842604.000000 0 0 1
5.080846 25.695522 -2.156407 26.281646 1.375582 1.652939 0.001556 0.002486 -390314.000000 0 0 1
5.934546 26.625222 -1.508007 27.320237 1.351489 1.626022 0.007193 -0.001675 214324.000000 0 0 1
7.106946 25.937422 -0.775307 26.904640 1.303357 1.599617 0.008419 -0.007108 704660.000000 0 0 1
8.176346 25.378022 -1.559907 26.708237 1.259115 1.629235 0.009022 -0.001591 365149.000000 0 0 1
9.039846 24.535422 -0.805007 26.160156 1.217789 1.601573 0.007100 -0.003628 -327642.000000 0 0 1
10.297146 24.316622 -1.630707 26.457296 1.170230 1.632471 0.005768 0.000148 -1052380.000000 0 0 1
11.129746 25.459222 -1.778607 27.842533 1.158672 1.634721 0.003143 0.004242 181607.000000 0 0 1
11.894346 25.561722 -2.967107 28.349265 1.135277 1.675651 0.003428 0.005718 1192240.000000 0 0 1
13.073846 24.519222 -3.207507 27.971517 1.080937 1.685720 0.003417 0.007377 154304.000000 0 0 1
12.620746 23.212022 -3.412007 26.640626 1.072791 1.699224 0.015701 0.003492 -104256.000000 0 0 1
12.520346 22.774222 -4.794507 26.427477 1.068138 1.753228 0.011974 0.001539 126442.000000 0 0 1
11.655246 21.465722 -4.982207 24.928786 1.073366 1.772009 0.015397 -0.002873 -110291.000000 0 1 0
10.280046 21.709822 -4.904907 24.516399 1.128556 1.772222 0.008685 0.001413 -41288.800000 0 1 0
9.487646 20.484122 -5.019807 23.126027 1.137044 1.789601 -0.002344 0.002077 1366090.000000 0 1 0
7.942846 20.747922 -4.926707 22.756043 1.205182 1.789025 -0.008866 0.005264 869045.000000 0 1 0
7.476946 21.220922 -3.645107 22.792961 1.232040 1.731408 -0.008253 -0.003438 -226053.000000 0 1 0
6.121346 21.563822 -3.753607 22.727931 1.294202 1.736710 -0.004052 0.000501 -260109.000000 0 1 0
5.637546 22.256022 -2.461207 23.090474 1.322710 1.677589 0.003088 -0.007088 40384.700000 0 1 0
5.290846 21.407222 -1.374507 22.094150 1.328500 1.633048 0.003478 -0.011744 -98706.200000 0 1 0
4.669646 22.119222 -0.364207 22.609693 1.362739 1.586905 0.008099 -0.006527 -47521.400000 0 1 0
3.945946 21.211622 0.665793 21.585798 1.386871 1.539947 -0.000420 -0.008117 -33405.400000 0 1 0
3.254346 21.928922 1.655193 22.230790 1.423467 1.496272 -0.003772 -0.002557 128874.000000 0 1 0
3.041846 21.162722 2.789093 21.561370 1.428038 1.441077 -0.000513 0.000804 -132646.000000 0 1 0
2.182046 21.872322 3.877693 22.320311 1.471362 1.396181 -0.002563 0.005489 52762.400000 0 1 0
0.813346 21.833522 3.513893 22.129429 1.533561 1.411333 0.000850 -0.000078 -353907.000000 0 1 0
0.003546 22.241522 4.588593 22.709920 1.570637 1.367343 -0.009312 -0.005718 -664142.000000 0 1 0
-1.415954 22.397922 4.087593 22.811844 -1.507662 1.390636 -0.004653 -0.000943 -928595.000000 0 1 0
-2.343254 22.920522 5.006693 23.577704 -1.468916 1.356819 -0.003142 -0.003875 -312362.000000 0 1 0
-3.619854 22.761822 4.410893 23.466143 -1.413085 1.381703 0.003109 -0.003638 287604.000000 0 1 0
-4.798154 23.185622 5.334693 24.270441 -1.366732 1.349185 0.013345 -0.009879 66101.200000 0 1 0
-4.815454 24.582122 5.653093 25.679306 -1.377353 1.348836 0.007651 -0.001525 346399.000000 0 0 1
-5.766254 24.863222 6.697493 26.387230 -1.342906 1.314173 0.008127 -0.004989 502589.000000 0 0 1
-6.026454 26.322222 6.976093 27.889844 -1.345726 1.317982 0.011067 -0.001410 460775.000000 0 0 1
-4.853454 26.900922 7.577993 28.366205 -1.392297 1.300363 0.007832 -0.006967 703682.000000 0 0 1
-5.064454 28.212322 8.253693 29.827961 -1.393176 1.290428 0.005837 -0.002310 -229552.000000 0 0 1
-5.533454 29.374822 7.422093 30.799135 -1.384604 1.327417 -0.001234 -0.003172 -745083.000000 0 0 1
-6.859254 29.349322 7.032793 30.949834 -1.341206 1.341562 0.007496 -0.002730 -1386130.000000 0 0 1
-7.047854 30.511922 6.240293 31.931033 -1.343791 1.374100 0.008586 -0.002428 -945465.000000 0 0 1
-8.489054 30.776422 5.796993 32.447763 -1.301659 1.391176 0.012722 -0.004541 165760.000000 0 0 1
-9.355054 31.169022 6.877293 33.261421 -1.279212 1.362529 0.017995 -0.002438 55700.100000 0 0 1
-9.774154 30.078222 7.696393 32.549470 -1.256603 1.332083 0.006113 -0.002999 -921424.000000 0 0 1
-10.546354 30.644322 8.954493 33.622656 -1.239339 1.301220 -0.002567 -0.002573 184531.000000 0 0 1
-9.843154 31.288722 10.003593 34.292035 -1.266008 1.274774 -0.006634 -0.005449 449440.000000 0 0 1
-10.847054 31.534222 11.006293 35.117007 -1.239497 1.252006 -0.002893 -0.005095 636795.000000 0 0 1
-10.288154 32.080722 12.333793 35.876751 -1.260462 1.219855 0.000011 -0.006128 -186476.000000 0 0 1
-9.718554 33.346422 12.144593 36.795724 -1.287209 1.234435 -0.006248 -0.007104 -157960.000000 0 0 1
-8.865554 33.716122 13.179193 37.270176 -1.313670 1.209366 -0.009818 -0.008067 -379791.000000 0 0 1
-8.607054 -34.197989 13.150893 37.636815 1.324234 1.213849 -0.010450 -0.010645 558568.000000 0 0 1
-9.703954 -33.425889 13.719493 37.412314 1.288251 1.195325 -0.008851 -0.001868 801267.000000 0 0 1
-9.297254 -32.089589 13.905093 36.187460 1.288790 1.176399 -0.006466 0.001073 -182690.000000 0 0 1
-10.381754 -31.193789 14.523393 35.941094 1.249513 1.154814 -0.006715 -0.007153 -288680.000000 0 0 1
-10.600354 -31.359889 15.890993 36.719665 1.244831 1.123239 -0.004188 -0.003692 367547.000000 0 0 1
-9.656054 -30.660089 16.742693 36.243595 1.265691 1.090605 -0.006778 0.005112 459483.000000 0 0 1
-9.749554 -31.012589 18.237193 37.275054 1.266205 1.059555 -0.010789 0.000851 358568.000000 0 0 1
-10.978454 -30.537889 18.790293 37.498856 1.225681 1.045939 0.007572 -0.001799 524599.000000 0 0 1
-11.200654 -31.263589 19.995693 38.764602 1.226777 1.028828 0.006921 -0.001665 -322950.000000 0 0 1
-11.219654 -30.430589 21.330393 38.818643 1.217563 0.989045 0.005477 0.002578 115541.000000 0 0 1
-9.952254 -30.174189 21.908893 38.594412 1.252205 0.967123 0.003972 -0.001261 85346.300000 0 0 1
-10.058354 -29.346689 23.057893 38.653138 1.240602 0.931621 0.001493 0.000512 -226628.000000 0 0 1
-8.868254 -29.334089 24.016493 38.934903 1.277213 0.906078 0.003726 0.002111 -274293.000000 0 0 1
-8.769854 -30.434689 24.856793 40.262151 1.290243 0.905397 0.006935 0.003998 234587.000000 0 0 1
-7.636354 -30.502889 25.714393 40.619824 1.325490 0.885309 0.010009 0.004708 259704.000000 0 0 1
-7.790254 -31.827689 26.547993 42.172097 1.330752 0.889867 0.010606 0.008267 28367.400000 0 0 1
-7.479354 -33.068889 25.864293 42.643332 1.348364 0.919112 0.010155 0.006612 285004.000000 0 0 1
-7.544254 -34.167489 26.745693 44.041630 1.353481 0.918161 0.011258 0.007124 -290753.000000 0 0 1
-7.385254 33.946222 26.091093 43.446899 -1.356577 0.926635 0.002588 0.003651 588739.000000 0 0 1
-6.027554 33.743122 25.661193 42.818530 -1.394030 0.928169 0.002420 0.005216 853687.000000 0 0 1
-5.871554 32.507422 24.925993 41.382517 -1.392101 0.924378 0.002597 -0.001032 -281439.000000 0 0 1
-6.525954 32.284122 23.536393 40.482272 -1.371343 0.950348 0.003301 0.000539 760160.000000 0 0 1
-7.754054 31.557522 23.778193 40.266673 -1.329858 0.939096 -0.001008 -0.003172 986335.000000 0 0 1
-8.501654 31.313022 22.582693 39.531778 -1.305682 0.962763 -0.005775 -0.003167 -38401.000000 0 0 1
-9.513554 30.174922 22.676093 38.926068 -1.265381 0.948943 -0.002071 -0.005337 71597.900000 0 0 1
-8.829154 28.923322 22.751493 37.843664 -1.274520 0.925798 -0.007694 -0.002121 204711.000000 0 0 1
-9.679154 27.850322 23.063993 37.433597 -1.236313 0.906975 -0.007869 -0.000023 -717462.000000 0 0 1
-9.069354 26.535122 22.668793 36.058841 -1.241457 0.890966 -0.011243 -0.003082 -791466.000000 0 0 1
-7.857954 26.271122 23.300493 35.983778 -1.280156 0.866461 -0.012926 -0.000133 -522627.000000 0 0 1
-7.373554 25.017822 22.895493 34.705393 -1.284179 0.850364 -0.008018 -0.002049 1255390.000000 0 0 1
-5.855354 24.837122 23.346993 34.586845 -1.339274 0.829797 -0.011741 0.001761 1554380.000000 0 0 1
-4.931754 25.577922 22.529693 34.440374 -1.380321 0.857718 -0.010048 0.003887 -519202.000000 0 0 1
-3.698354 25.546522 23.180393 34.693417 -1.427026 0.839077 0.005587 0.004112 -640780.000000 0 0 1
-2.569654 26.063722 22.276693 34.382725 -1.472523 0.865967 0.004119 0.005784 -246879.000000 0 0 1
-2.311354 25.040722 21.341193 32.982217 -1.478753 0.867085 0.003829 0.009724 266202.000000 0 0 1
-1.328754 25.406722 20.361993 32.586467 -1.518545 0.895844 0.005110 0.007052 481663.000000 0 0 1
-0.884054 24.227722 19.441393 31.076226 -1.534323 0.894892 0.002383 0.004824 -69637.600000 0 0 1
0.044246 23.310722 19.976193 30.699185 1.568898 0.862280 0.002210 0.002388 28861.200000 0 0 1
0.266646 22.254922 19.059593 29.302231 1.558815 0.862622 0.000922 -0.000772 -58548.900000 0 0 1
1.317746 21.200222 19.536293 28.859186 1.508719 0.827182 0.001891 -0.006386 1361300.000000 0 0 1
2.621446 21.844822 19.505193 29.402734 1.451364 0.845469 0.001525 0.000164 1123250.000000 0 0 1
3.693146 20.909722 19.413993 28.770800 1.395976 0.830128 0.005530 0.002088 1386400.000000 0 0 1
5.149746 21.524522 19.319693 29.378146 1.335960 0.853140 0.005479 -0.000444 1132960.000000 0 0 1
6.084846 20.484122 19.066393 28.638295 1.282046 0.842277 0.009862 0.000500 -358566.000000 0 0 1
7.357646 21.063822 18.872093 29.222858 1.234743 0.868727 0.011781 0.006376 -766010.000000 0 0 1
8.415246 20.038122 18.569993 28.586488 1.173201 0.863728 0.015699 0.010840 -721514.000000 0 0 1
8.676846 19.391622 19.798893 29.039952 1.150062 0.820602 0.010664 0.006023 -197528.000000 0 0 1
9.640646 18.371322 19.614693 28.551422 1.087533 0.813450 0.014945 0.007440 -133893.000000 0 0 1
9.960246 17.618122 20.917193 29.105561 1.056251 0.768914 0.012732 0.001430 -465392.000000 0 0 1
9.022046 16.719422 21.447993 28.652273 1.075961 0.724906 0.011217 -0.001503 -172130.000000 0 0 1
9.568746 16.037322 22.584293 29.305407 1.032840 0.690931 0.013048 -0.003793 751213.000000 0 0 1
8.493146 15.127322 23.323293 29.067944 1.059209 0.639538 0.009251 -0.004391 479899.000000 0 0 1
7.444646 15.837122 23.932593 29.648038 1.131373 0.631363 0.010142 -0.006086 598891.000000 0 0 1
6.281246 15.083622 24.328293 29.305896 1.176208 0.591419 0.004736 -0.005968 972954.000000 0 0 1
6.503346 13.987522 25.428993 29.741855 1.135589 0.545265 0.000644 -0.002062 -669329.000000 0 0 1
7.199946 14.461222 26.555393 31.083035 1.108847 0.546522 0.001758 -0.002902 -180452.000000 0 0 1
7.450646 13.396422 27.445593 31.436234 1.063231 0.509362 -0.001755 0.000657 -422019.000000 0 0 1
8.444646 13.787122 28.603393 32.856519 1.021235 0.514468 -0.003754 0.000612 1647290.000000 0 0 1
9.806946 14.075822 28.162793 32.976474 0.962273 0.547119 0.002780 0.001495 1455360.000000 0 0 1
9.990746 15.231822 27.426193 32.924451 0.990276 0.586281 0.002115 -0.001342 -703457.000000 0 0 1
11.340546 15.326122 26.652793 32.769946 0.933759 0.620943 0.002407 -0.000186 419679.000000 0 0 1
11.235446 14.487822 25.517593 31.421008 0.911168 0.623022 0.002120 0.001229 -333741.000000 0 0 1
12.462746 14.254722 24.889993 31.273453 0.852369 0.650333 0.000863 0.001674 -768225.000000 0 0 1
12.424346 13.063222 23.903693 29.939917 0.810459 0.646182 0.001754 0.007273 69843.600000 0 0 1
12.119946 11.761422 24.485293 29.744809 0.770387 0.603809 0.004547 0.007991 108125.000000 0 0 1
10.763646 11.568722 24.828893 29.430687 0.821432 0.566770 0.006730 0.007722 -129704.000000 0 0 1
10.368546 10.124822 25.278893 29.138311 0.773506 0.520545 0.002033 0.006667 -32696.200000 0 0 1
10.449946 9.155922 24.294393 27.986600 0.719492 0.519490 0.000961 0.007135 186828.000000 0 0 1
9.959946 7.931822 24.833293 27.907109 0.672525 0.473768 0.001692 0.000954 38964.000000 0 0 1
10.045046 6.724122 23.859593 26.746905 0.589890 0.468934 -0.000093 0.001466 1766680.000000 0 0 1
11.450646 6.281922 23.694893 27.056012 0.501774 0.503764 -0.002006 0.003956 2218950.000000 0 0 1
11.550446 5.172222 22.848793 26.119571 0.421018 0.505822 -0.002505 0.000079 45228.300000 0 0 1
11.306146 3.804422 23.553493 26.402075 0.324590 0.468808 -0.001895 -0.000942 43341.500000 0 0 1
12.428846 3.465922 24.348493 27.556087 0.271952 0.487306 -0.001040 -0.004195 299518.000000 0 0 1
12.358646 2.093622 24.857093 27.838722 0.167812 0.467059 -0.002933 -0.000443 -734617.000000 0 0 1
13.734946 1.692322 25.373893 28.902372 0.122595 0.499301 -0.003191 -0.004015 -595702.000000 0 0 1
14.529146 1.129222 24.403793 28.423869 0.077565 0.538328 -0.002722 -0.003969 -100351.000000 0 0 1
15.913046 1.389922 24.587793 29.320922 0.087124 0.576134 0.001620 -0.004663 -173240.000000 0 0 1
16.791446 0.452722 23.817693 29.145156 0.026955 0.614244 0.000919 -0.003398 -365202.000000 0 0 1
16.711446 -0.805378 24.389993 29.576896 -0.048156 0.601249 -0.001544 -0.004256 678918.000000 0 0 1
17.732546 -1.614778 23.749993 29.683545 -0.090812 0.643324 -0.000400 0.002328 592055.000000 0 0 1
17.837246 -3.134478 24.042793 30.100634 -0.173951 0.645586 -0.002955 0.003990 -179649.000000 0 0 1
16.767946 -3.910578 23.562493 29.183004 -0.229122 0.631056 -0.007844 0.004861 29244.600000 0 0 1
17.031946 -5.266378 23.822193 29.754307 -0.299881 0.642450 -0.003604 0.006772 118250.000000 0 0 1
16.049246 -6.303778 23.217693 28.920186 -0.374264 0.638787 -0.000100 0.002965 -422612.000000 0 0 1
16.045246 -6.288378 21.810193 27.797088 -0.373517 0.668711 -0.001056 0.001131 -266723.000000 0 0 1
15.136746 -7.139278 21.194393 27.005419 -0.440713 0.668391 -0.006488 -0.004074 -521462.000000 0 0 1
15.536446 -8.678578 21.184593 27.667415 -0.509418 0.698687 -0.004555 -0.002760 -251639.000000 0 0 1
15.474446 -9.373378 22.441693 28.826173 -0.544624 0.678495 -0.004908 -0.004279 31837.700000 0 0 1
16.249646 -10.551978 22.317293 29.554302 -0.575930 0.714946 -0.005399 -0.005307 -408543.000000 0 0 1
16.027846 -11.438478 23.588293 30.726832 -0.619837 0.695587 -0.004475 0.000612 -139116.000000 0 0 1
14.731146 -11.982078 23.556893 30.257297 -0.682849 0.678440 -0.004537 0.001937 -166184.000000 0 0 1
14.603146 -12.856278 24.671193 31.419795 -0.721867 0.667758 -0.001148 0.001533 75950.200000 0 0 1
13.486046 -13.890178 24.442493 31.180858 -0.800159 0.669883 -0.000635 0.002000 -76589.000000 0 0 1
13.875746 -14.885278 23.530293 31.109203 -0.820484 0.713039 -0.005578 0.003661 -161160.000000 0 0 1
12.806046 -15.728878 23.241893 30.847658 -0.887472 0.717516 -0.001395 0.003556 -487707.000000 0 0 1
13.064846 -16.700778 22.106493 30.631735 -0.906948 0.764562 -0.010016 0.003672 12280.800000 0 0 1
13.957446 -17.775278 22.401193 31.821129 -0.905135 0.789821 -0.002757 0.002766 269572.000000 0 0 1
14.142146 -18.565978 21.243493 31.559180 -0.919834 0.832361 -0.002329 0.006857 -179709.000000 0 0 1
-22.749954 -32.485389 26.803173 47.867223 0.959860 0.976473 -0.002406 -0.003995 -197908.000000 0 0 1
-23.471854 -33.246889 27.748693 49.257218 0.956064 0.972370 -0.003326 -0.007194 -1020630.000000 0 0 1
-24.560954 -33.821289 27.185573 49.861563 0.942703 0.994144 -0.004441 -0.005086 -889245.000000 0 0 1
-25.356244 34.698322 28.134123 51.365762 -0.939721 0.991158 -0.003664 -0.001743 -387694.000000 0 0 1
-26.029254 -34.218189 29.209073 51.976692 0.920492 0.974037 0.006007 -0.004409 -46973.800000 0 0 1
-25.291344 -33.821289 30.353653 52.008422 0.928709 0.947605 -0.001197 -0.003958 -44720.700000 0 0 1
-26.264204 -33.042889 31.276533 52.534393 0.899202 0.933091 -0.000781 -0.006705 219958.000000 0 0 1
-26.472714 -31.719989 30.920933 51.604907 0.875326 0.928312 0.004960 -0.006078 -213202.000000 0 0 1
-27.443034 -31.090589 31.698873 52.197351 0.847633 0.918153 0.003794 -0.002496 -323615.000000 0 0 1
-27.691014 -29.550289 31.341963 51.208696 0.817868 0.912154 0.009575 -0.006707 81283.500000 0 0 1
-28.253114 -29.430989 30.024733 50.654775 0.805815 0.936349 0.005544 -0.001536 102982.000000 0 0 1
-28.828294 -28.180589 29.859463 50.167755 0.774037 0.933291 0.007756 -0.000927 -425317.000000 0 0 1
-29.284404 -27.996989 28.421803 49.489460 0.762927 0.959047 0.001800 -0.001483 -685758.000000 0 0 1
-28.332634 -27.758689 27.447433 48.235304 0.775166 0.965468 0.006031 -0.002667 -102298.000000 0 0 1
-27.684814 -26.458689 27.502193 47.147447 0.762756 0.947982 0.012037 0.000651 371441.000000 0 0 1
-26.697324 -26.047889 26.385383 45.688380 0.773086 0.955124 0.005594 0.003092 354483.000000 0 0 1
-27.332174 -25.981889 25.091463 45.295561 0.760077 0.983695 0.002596 0.009728 232765.000000 0 0 1
-26.343884 -25.852889 24.098433 44.080683 0.775992 0.992391 0.003156 0.006326 -111355.000000 0 0 1
-26.885794 -26.214189 22.706533 43.881845 0.772751 1.026931 -0.000122 0.008347 -98120.400000 0 0 1
-27.798334 -25.283389 22.200733 43.644813 0.738055 1.037159 -0.000330 0.006967 -33767.100000 0 0 1
-28.149594 -25.614389 20.872233 43.406759 0.738279 1.069170 -0.002320 0.007423 -57161.300000 0 0 1
-29.018194 -24.584989 20.139333 43.035683 0.702882 1.083806 -0.007082 0.002107 1125280.000000 0 0 1
-30.353084 -24.338389 20.671933 44.056733 0.675863 1.082398 -0.005928 0.000550 1311530.000000 0 0 1
-30.983844 -23.332889 19.880433 43.585020 0.645461 1.097155 -0.005613 -0.005822 -744750.000000 0 0 1
-32.456894 -23.167589 20.201633 44.702272 0.619925 1.101885 -0.007566 -0.007311 -557463.000000 0 0 1
-33.276644 -24.230289 19.699833 45.634695 0.629368 1.124436 0.000625 -0.006051 -283938.000000 0 0 1
-34.618890 -23.840189 19.699333 46.420749 0.603066 1.132536 0.004145 -0.005710 -870765.000000 0 0 1
34.041571 -24.855589 19.045933 46.253394 -0.630678 1.146397 0.009686 -0.004927 -620722.000000 0 0 1
33.882006 -25.981089 19.878633 47.097424 -0.654174 1.135064 0.009909 -0.003731 -251656.000000 0 0 1
33.326775 -26.976689 19.067433 46.925288 -0.680483 1.152356 0.009477 -0.001386 -128404.000000 0 0 1
33.158345 -28.222889 19.906433 47.877692 -0.705164 1.142000 0.008394 -0.003190 -365997.000000 0 0 1
31.987755 -28.233689 20.680333 47.413435 -0.723141 1.119458 0.005304 0.000363 -314594.000000 0 0 1
32.131245 -27.565689 21.911733 47.669783 -0.709068 1.093188 0.011979 -0.003844 431966.000000 0 0 1
30.737615 -27.485489 22.643933 47.042542 -0.729600 1.068602 0.004603 -0.005429 919043.000000 0 0 1
29.736685 -26.837189 21.864733 45.635203 -0.734191 1.071145 0.007024 -0.001340 -164748.000000 0 0 1
28.788905 -26.312789 22.801733 45.178346 -0.740491 1.041756 0.008656 -0.006040 433399.000000 0 0 1
27.796645 -25.274189 22.145733 43.610453 -0.737904 1.038158 0.006680 0.000036 502132.000000 0 0 1
28.393655 -24.164089 21.432333 43.005206 -0.705097 1.049083 0.009629 -0.001861 180832.000000 0 0 1
29.409355 -23.381989 22.043833 43.560971 -0.671717 1.040203 0.012153 -0.003278 626141.000000 0 0 1
30.122345 -22.277489 21.222833 43.058691 -0.636790 1.055398 0.010711 -0.000145 -236835.000000 0 0 1
29.351535 -21.178189 21.205133 41.948611 -0.625034 1.040832 0.005851 -0.002378 -659722.000000 0 0 1
30.082255 -20.048889 20.808733 41.712149 -0.587866 1.048508 0.005396 -0.000519 107040.000000 0 0 1
29.232085 -18.732689 20.987933 40.569961 -0.569899 1.027072 0.003460 0.001087 365477.000000 0 0 1
29.118775 -18.244789 22.329333 40.980172 -0.559724 0.994549 0.011556 -0.000996 -13060.600000 0 0 1
28.270005 -18.955889 23.211633 41.198287 -0.590673 0.972286 0.006553 0.000072 -256808.000000 0 0 1
28.456585 -18.501689 24.705423 41.981516 -0.576496 0.941615 0.004595 0.001107 40597.300000 0 0 1
28.052635 -17.160389 24.919333 41.260180 -0.548993 0.922341 -0.000255 -0.000426 146149.000000 0 0 1
28.326505 -16.804889 26.238043 42.109739 -0.535446 0.898113 0.000076 -0.003163 -177705.000000 0 0 1
28.121215 -15.307489 26.531163 41.581541 -0.498487 0.878831 -0.000526 -0.002802 477134.000000 0 0 1
26.711665 -15.038789 26.601953 40.587463 -0.512773 0.856054 -0.001503 -0.002676 890018.000000 0 0 1
26.388305 -13.772489 27.211173 40.329543 -0.481027 0.830210 -0.004943 -0.002831 -111300.000000 0 0 1
26.841545 -12.478389 26.565173 39.772945 -0.435168 0.839385 -0.004259 -0.003259 -571306.000000 0 0 1
26.304945 -12.343089 25.283513 38.516984 -0.438731 0.854726 -0.002474 -0.003457 147956.000000 0 0 1
27.125445 -11.581389 24.404483 38.281812 -0.403527 0.879553 -0.002164 -0.003153 -169644.000000 0 0 1
28.024085 -12.486889 23.602733 38.708665 -0.419170 0.915047 -0.003700 0.002218 -297882.000000 0 0 1
27.232735 -13.335789 22.770433 37.920413 -0.455371 0.926696 0.005743 0.002046 230345.000000 0 0 1
27.790205 -14.617989 22.678033 38.733374 -0.484240 0.945311 -0.002399 0.000628 -660720.000000 0 0 1
27.220345 -15.481989 21.576533 38.028752 -0.517136 0.967483 0.001774 0.000539 -363702.000000 0 0 1
27.556715 -15.183489 20.257533 37.420296 -0.503603 0.998753 0.001545 -0.001410 -15538.700000 0 0 1
26.962345 -16.171089 19.436233 36.962675 -0.540247 1.017101 0.000201 -0.003078 310054.000000 0 0 1
27.736065 -16.087789 18.069933 36.805281 -0.525607 1.057605 0.002621 -0.000364 443394.000000 0 0 1
27.300465 -17.071389 17.120833 36.467392 -0.558826 1.082091 -0.002553 -0.000300 -720625.000000 0 0 1
25.974995 -17.024689 16.706933 35.265593 -0.580180 1.077257 0.005580 0.001210 -826560.000000 0 0 1
25.648885 -16.076389 15.458733 33.989528 -0.559883 1.098639 -0.000112 0.002188 -244548.000000 0 0 1
25.748415 -16.683989 14.155933 33.789448 -0.574941 1.138513 0.002811 0.002619 795782.000000 0 0 1
24.678325 -17.625689 13.910833 33.364591 -0.620204 1.140727 -0.011690 -0.000509 328617.000000 0 0 1
24.774715 -18.191589 12.477933 33.172567 -0.633364 1.185156 0.006319 -0.002279 -156832.000000 0 0 1
24.377775 -17.248589 11.497433 31.999699 -0.615778 1.203281 0.002402 -0.001895 -323093.000000 0 0 1
24.204475 -17.789689 10.199633 31.723212 -0.633816 1.243463 -0.000458 -0.006727 -298881.000000 0 0 1
25.425195 -18.161289 9.326433 32.607596 -0.620261 1.280725 0.001795 -0.005458 -50181.600000 0 0 1
26.139745 -19.236789 9.951233 33.946537 -0.634430 1.273282 0.007469 -0.003685 303269.000000 0 0 1
27.539305 -19.181689 9.639633 34.918090 -0.608387 1.291100 0.004813 0.000480 1116380.000000 0 0 1
28.428365 -20.044989 10.640333 36.375682 -0.614144 1.273943 0.003823 -0.000886 207868.000000 0 0 1
28.550625 -19.404189 11.896033 36.512687 -0.596931 1.238933 0.003106 -0.001247 -56968.900000 0 0 1
28.883835 -20.318289 12.891533 37.593888 -0.613037 1.220777 -0.002783 -0.001338 -321918.000000 0 0 1
28.555075 -19.715689 14.218833 37.500346 -0.604284 1.181902 0.008399 -0.003637 17094.400000 0 0 1
28.563215 -20.646789 15.288633 38.417307 -0.625894 1.161502 0.001807 0.000261 -6538.900000 0 0 1
28.394715 -20.057989 16.559233 38.507025 -0.615007 1.126269 0.005674 0.001939 -14382.100000 0 0 1
28.327755 -21.095989 17.686633 39.500879 -0.640108 1.106546 0.003229 0.006528 198522.000000 0 0 1
27.107545 -21.801589 17.583633 38.978359 -0.677335 1.102785 -0.000580 0.005775 23330.800000 0 0 1
27.060165 -22.689189 18.652633 39.937108 -0.697763 1.084845 0.003793 0.006781 323576.000000 0 0 1
25.717715 -23.469889 18.644233 39.494860 -0.739731 1.079162 -0.002249 0.011137 -44517.600000 0 0 1
24.621185 -22.797389 19.150333 38.634945 -0.746955 1.052186 -0.004705 0.004695 -620835.000000 0 0 1
23.461375 -23.586189 19.165933 38.393716 -0.788051 1.048127 -0.006275 0.010502 -24528.100000 0 0 1
22.256575 -23.024589 19.927033 37.717019 -0.802358 1.014164 -0.008898 0.010551 -405747.000000 0 0 1
21.773575 -21.751389 19.520833 36.445499 -0.784888 1.005558 -0.009523 0.011169 221383.000000 0 0 1
20.505275 -21.387989 20.033733 35.766784 -0.806466 0.976264 -0.004786 0.009636 370078.000000 0 0 1
20.519275 -20.899489 21.464833 36.312097 -0.794578 0.938349 -0.004804 0.009903 -333059.000000 0 0 1
21.013375 -21.787089 22.459833 37.691953 -0.803473 0.932437 -0.004261 0.007829 -71353.300000 0 0 1
21.157975 -21.164489 23.726133 38.190639 -0.785552 0.900453 -0.002879 0.002896 -77516.200000 0 0 1
21.573775 -22.280789 24.781773 39.698836 -0.801519 0.896632 -0.004277 0.001863 -222322.000000 0 0 1
20.615775 -23.260889 25.067613 39.930745 -0.845611 0.892102 -0.003129 0.000504 -349716.000000 0 0 1
21.072175 -24.207889 25.966523 41.283396 -0.854539 0.890553 -0.004268 -0.000664 -582823.000000 0 0 1
19.938075 -25.058489 26.538453 41.590194 -0.898706 0.878776 -0.000608 -0.004727 -413273.000000 0 0 1
19.353275 -26.023989 25.687303 41.371908 -0.931358 0.900922 0.000536 -0.002312 321365.000000 0 0 1
18.259575 -26.590289 26.417223 41.693228 -0.969052 0.884587 -0.001368 -0.002658 92815.000000 0 0 1
17.458275 -27.625989 25.623743 41.527856 -1.007214 0.905839 -0.005363 -0.001776 -210596.000000 0 0 1
16.743475 -26.980089 24.564913 40.146035 -1.015377 0.912350 -0.004151 -0.002757 260365.000000 0 0 1
16.147775 -27.929489 23.721933 40.044189 -1.046589 0.936769 -0.000261 -0.001142 -495789.000000 0 0 1
15.321675 -27.320489 22.584533 38.616369 -1.059690 0.946109 0.005834 -0.001080 163992.000000 0 0 1
14.034875 -26.854789 22.961133 38.018036 -1.089216 0.922344 0.004559 -0.002862 65249.100000 0 0 1
13.522975 -26.002389 21.946933 36.615065 -1.091225 0.928050 0.004896 -0.004213 -1040950.000000 0 0 1
12.151975 -25.506389 22.303033 35.995440 -1.126183 0.902554 0.007409 -0.001570 -1279610.000000 0 0 1
11.182875 -26.501889 22.175033 36.319952 -1.171499 0.914045 0.000968 0.003153 -649654.000000 0 0 1
9.916375 -25.873689 22.234933 35.527096 -1.204803 0.894565 0.000350 0.004211 279014.000000 0 0 1
8.718675 -26.853089 22.106933 35.858335 -1.256853 0.906497 -0.002308 0.007728 181506.000000 0 0 1
8.633875 -27.595589 20.912433 35.684593 -1.267573 0.944639 -0.002716 0.006933 223550.000000 0 0 1
7.449975 -28.375689 20.990633 36.073377 -1.314043 0.949749 -0.002466 0.006264 269203.000000 0 0 1
7.132575 -29.318789 19.760133 36.068378 -1.332156 0.991002 -0.007739 0.004197 13333.900000 0 0 1
7.883675 -30.496489 19.891033 37.253743 -1.317824 1.007550 -0.005029 0.005989 205134.000000 0 0 1
7.776775 -31.274089 18.677633 37.247830 -1.327074 1.045531 -0.010519 0.004088 225568.000000 0 0 1
8.474375 -32.703389 18.690333 38.609005 -1.317245 1.065470 -0.011778 -0.003777 -510087.000000 0 0 1
7.695075 -33.632789 19.408033 39.585988 -1.345871 1.058391 -0.005079 0.002941 306379.000000 0 0 1
8.468075 -34.723989 19.898033 40.907156 -1.331597 1.062809 -0.008021 -0.005352 -437283.000000 0 0 1
7.749075 33.954922 20.936233 40.636323 1.346422 1.029544 -0.004163 0.001451 -516666.000000 0 0 1
7.086175 32.833822 20.447433 39.323927 1.358237 1.023975 -0.011131 -0.002020 -265452.000000 0 0 1
7.146975 31.704822 21.255133 38.833692 1.349080 0.991617 -0.012420 -0.001606 -367631.000000 0 0 1
6.241475 30.566322 20.741233 37.462712 1.369371 0.984055 -0.003649 -0.004448 -347908.000000 0 0 1
4.907475 30.683822 21.124633 37.574331 1.412203 0.973742 -0.001384 -0.002442 -811075.000000 0 0 1
4.176675 29.530722 20.853833 36.392176 1.430293 0.960597 0.002082 -0.002244 918544.000000 0 0 1
2.698475 29.560022 21.405333 36.595969 1.479761 0.946028 -0.000331 -0.002159 596539.000000 0 0 1
2.557475 29.055922 22.745533 36.988465 1.483004 0.908492 -0.002111 -0.002622 -480708.000000 0 0 1
1.232875 28.888522 23.145833 37.037768 1.528145 0.895761 -0.003049 -0.004930 -506880.000000 0 0 1
1.113875 28.307822 24.603903 37.522334 1.531468 0.855669 0.004956 -0.008767 -392524.000000 0 0 1
1.311975 29.289522 25.663363 38.964158 1.526033 0.851786 0.001717 -0.006458 252951.000000 0 0 1
1.172775 28.766222 26.983503 39.458591 1.530050 0.817779 0.004634 -0.007679 55314.300000 0 0 1
2.383875 27.943822 27.518373 39.291232 1.485693 0.794882 -0.000376 -0.008436 -125468.000000 0 0 1
2.739275 26.791222 26.811053 38.001392 1.468905 0.787628 0.005298 -0.004056 55794.400000 0 0 1
3.699175 26.074622 27.552853 38.114689 1.429868 0.762816 0.004776 -0.003472 26654.500000 0 0 1
4.255375 24.808722 26.866003 36.815255 1.400922 0.752837 0.007416 0.002660 228733.000000 0 0 1
3.270575 23.788322 26.950023 36.095494 1.434166 0.727813 0.013488 0.008801 210174.000000 0 0 1
3.815775 22.510422 26.664913 35.104086 1.402881 0.708105 0.017688 0.010480 466226.000000 0 0 1
2.703875 21.403122 26.444993 34.128320 1.445131 0.684288 0.011524 0.010786 395186.000000 0 0 1
2.972675 19.994622 26.565083 33.381512 1.423204 0.650465 0.006633 0.011389 -156068.000000 0 0 1
3.833075 19.538522 25.527813 32.374613 1.377076 0.662408 0.011121 0.007581 -307572.000000 0 0 1
4.222475 18.059922 25.850003 31.815291 1.341118 0.622364 0.002488 0.000891 -36206.100000 0 0 1
5.237075 17.926822 26.864923 32.718832 1.286569 0.607488 0.002033 0.004393 587619.000000 0 0 1
6.531575 17.907722 26.281023 32.465985 1.221055 0.627506 0.003267 0.005074 -754096.000000 0 0 1
7.692275 17.911522 27.283483 33.531808 1.165154 0.620376 -0.000515 -0.001642 -419615.000000 0 0 1
8.035375 19.102022 27.893453 34.749090 1.172611 0.638970 -0.002595 -0.005214 200560.000000 0 0 1
8.372475 20.219622 27.039363 34.785897 1.178214 0.680421 -0.003255 -0.009795 -407823.000000 0 0 1
8.908375 21.437622 27.920733 36.311129 1.176958 0.693630 -0.006570 -0.009273 1013640.000000 0 0 1
10.119675 21.116622 28.655773 37.006390 1.123904 0.685114 -0.003150 -0.011859 727316.000000 0 0 1
10.368275 22.141022 29.591843 38.384934 1.132842 0.690507 0.000451 -0.008499 -870968.000000 0 0 1
11.560875 21.744922 30.415023 39.135267 1.082144 0.680629 0.001695 -0.007396 389527.000000 0 0 1
12.826275 22.105322 29.798563 39.257012 1.045037 0.708923 -0.007459 -0.009016 -32793.200000 0 0 1
13.894975 21.825722 30.624903 40.091360 1.003875 0.701496 -0.007268 0.003164 -725671.000000 0 0 1
15.213775 21.880722 29.856443 40.020397 0.963228 0.728715 -0.009994 0.000051 -471244.000000 0 0 1
15.491775 23.193522 29.339213 40.481156 0.981916 0.760107 -0.009115 -0.003804 -253604.000000 0 0 1
16.687675 23.206822 28.597673 40.433427 0.947376 0.785156 -0.011056 -0.002979 -376730.000000 0 0 1
-8.691254 16.863622 4.602993 19.521967 -1.094917 1.332770 -0.003718 -0.004441 -38098.200000 0 1 0
-8.476254 18.246722 4.692693 20.659407 -1.135920 1.341651 0.000033 -0.007175 197653.000000 0 1 0
-7.174754 18.514822 5.192393 20.524051 -1.201100 1.315026 0.005339 -0.002104 156868.000000 0 1 0
-6.951254 19.962822 5.819193 21.924808 -1.235717 1.302161 0.009871 0.000686 -89638.100000 0 1 0
-7.119954 21.075922 4.960293 22.792383 -1.245010 1.351411 0.005198 -0.003256 1438170.000000 0 1 0
-8.496054 21.312922 4.517493 23.384425 -1.191468 1.376390 0.004131 -0.009765 1467150.000000 0 1 0
-8.626454 22.448122 3.428793 24.291779 -1.203911 1.429173 0.007978 -0.009251 224989.000000 0 1 0
-7.976354 22.245922 2.151293 23.730388 -1.226522 1.480016 0.000449 -0.011291 -10307.500000 0 1 0
-8.492454 21.202922 1.362193 22.881024 -1.189831 1.511227 0.009517 -0.008274 -599978.000000 0 1 0
-7.889654 21.256122 -0.063007 22.673185 -1.215387 1.573575 0.000070 0.000802 836514.000000 0 1 0
-6.557654 20.765622 -0.226207 21.777627 -1.264914 1.581184 0.004491 0.003221 967089.000000 0 1 0
-5.503954 21.693022 0.168693 22.381000 -1.322320 1.563259 0.006755 0.001085 -58468.600000 0 1 0
-4.165654 21.232222 -0.380607 21.640351 -1.377062 1.588385 0.009198 -0.002678 -702418.000000 0 1 0
-4.130654 21.372222 -1.804707 21.842416 -1.379878 1.653515 0.012024 -0.010435 1600030.000000 0 1 0
-2.785854 21.536722 -2.391307 21.847419 -1.442157 1.680471 0.014500 0.003185 1614300.000000 0 1 0
-2.693154 21.531922 -3.930007 22.052703 -1.446365 1.749963 0.016703 -0.006441 1016850.000000 0 1 0
-1.373454 21.957622 -4.359007 22.428207 -1.508327 1.766395 0.014293 0.000373 1290350.000000 0 1 0
-1.344554 22.336022 -5.715007 23.094740 -1.510672 1.820853 0.017568 -0.005653 -194963.000000 0 1 0
-0.028954 23.029122 -6.112307 23.826489 -1.569539 1.830231 0.009154 -0.004231 102447.000000 0 1 0
1.095846 22.173522 -6.115007 23.027359 1.521415 1.839575 -0.007859 -0.001418 165702.000000 0 1 0
2.295046 22.891122 -6.418707 23.884524 1.470871 1.842880 -0.008273 0.001974 48778.100000 0 1 0
3.465446 21.918022 -6.539207 23.133746 1.413985 1.857372 -0.003001 0.005114 -649599.000000 0 1 0
3.449346 21.258922 -7.810807 22.909571 1.409944 1.918714 -0.003045 0.006131 6850.930000 0 1 0
3.998646 19.955922 -7.822207 21.804011 1.373041 1.937726 -0.004078 0.000784 -100943.000000 0 1 0
3.418146 19.163122 -8.977107 21.435891 1.394282 2.002907 -0.009964 0.004113 -276116.000000 0 1 0
3.777846 19.452822 -10.315307 22.340321 1.378979 2.050746 -0.013363 0.000567 -77518.100000 0 1 0
2.779546 19.074922 -11.268907 22.328609 1.426097 2.099813 -0.012457 0.002165 201610.000000 0 1 0
3.157846 19.417722 -12.753207 23.444919 1.409581 2.145951 -0.014854 0.001056 32467.800000 0 1 0
3.157246 20.879022 -12.913507 24.751978 1.420717 2.119658 -0.007908 0.000675 -163901.000000 0 1 0
3.637446 21.279722 -14.176607 25.826997 1.401498 2.151852 0.002257 -0.000711 -127357.000000 0 0 1
3.804346 22.803622 -14.319707 27.194342 1.405488 2.125356 0.001847 -0.003985 359879.000000 0 0 1
2.620646 23.558222 -14.610607 27.844702 1.460011 2.123180 0.000664 0.001861 -128959.000000 0 0 1
2.889546 24.920222 -14.965507 29.211870 1.455360 2.108668 0.003974 0.000163 253471.000000 0 0 1
1.764446 25.746422 -15.701607 30.208144 1.502372 2.117390 0.000660 0.006034 166245.000000 0 0 1
0.751946 26.192322 -14.868307 30.127557 1.542096 2.086919 0.002354 0.010230 -853325.000000 0 0 1
0.987546 27.471122 -14.312907 30.991888 1.534863 2.050851 0.003642 0.005191 -731052.000000 0 0 1
0.168846 27.737022 -13.029107 30.645204 1.564709 2.009935 0.002682 -0.000833 176434.000000 0 0 1
-1.240954 27.853722 -13.110207 30.809858 -1.526273 2.010333 0.000531 -0.000975 332642.000000 0 0 1
-2.017854 26.730522 -13.478607 30.004423 -1.495450 2.036689 0.005294 0.006279 -537492.000000 0 0 1
-1.932654 25.399222 -12.649507 28.440564 -1.494852 2.031714 0.011202 0.005629 -440607.000000 0 0 1
-2.414254 25.544422 -11.318507 28.043800 -1.476564 1.986246 0.013002 0.008385 149959.000000 0 0 1
-2.531754 24.314822 -10.672307 26.674304 -1.467046 1.982419 0.031442 0.002640 -291602.000000 0 0 1
-3.179054 24.308722 -9.305007 26.222195 -1.440756 1.933552 0.019008 0.004475 82780.200000 0 0 1
-2.432554 24.723422 -8.141307 26.142796 -1.472721 1.887480 0.014239 0.003380 172458.000000 0 0 1
-2.451354 26.133122 -8.082707 27.464147 -1.477267 1.869520 0.016535 -0.000106 -104400.000000 0 0 1
-2.264454 26.585722 -6.594707 27.484878 -1.485826 1.813100 0.013364 -0.000005 52932.400000 0 0 1
-0.976854 26.352522 -6.061107 27.058209 -1.533745 1.796716 0.011923 0.001412 -189500.000000 0 0 1
-0.871154 26.720722 -4.675307 27.140641 -1.538206 1.743922 0.007468 0.001961 -257318.000000 0 0 1
-1.598754 25.950322 -3.520107 26.236737 -1.509266 1.705369 0.013846 0.001626 2013930.000000 0 0 1
-3.059454 26.099922 -3.613607 26.525918 -1.454108 1.707451 0.007886 0.001707 1583270.000000 0 0 1
-3.704054 25.240422 -2.784207 25.662243 -1.425086 1.679505 0.004552 0.001923 15532.600000 0 0 1
-5.064854 24.631922 -3.212007 25.351554 -1.368001 1.697836 0.003524 0.006036 -118572.000000 0 0 1
-6.071954 25.568122 -3.412907 26.499914 -1.337634 1.699944 -0.002292 0.007562 231922.000000 0 0 1
-7.214854 24.889622 -4.016107 26.223587 -1.288655 1.724550 0.008473 0.004221 827417.000000 0 0 1
-8.425254 25.820322 -4.235807 27.488470 -1.255386 1.725507 0.003766 0.009580 -256881.000000 0 0 1
-9.062454 26.080922 -2.987507 27.771708 -1.236373 1.678579 0.000674 0.009233 69788.400000 0 0 1
-10.330654 26.710522 -3.192707 28.816103 -1.201753 1.681820 0.004794 0.007535 929402.000000 0 0 1
-11.203354 26.704522 -1.870707 29.019755 -1.173568 1.635304 0.006946 0.008744 154606.000000 0 0 1
-11.603554 25.421422 -1.407007 27.979829 -1.142593 1.621104 0.008428 0.009944 -65638.400000 0 0 1
-10.599454 24.566622 -0.901607 26.770884 -1.163469 1.604481 0.007938 0.007995 -294865.000000 0 0 1
-11.116954 23.217722 -0.351007 25.744368 -1.124241 1.584431 0.007834 -0.001132 -376836.000000 0 0 1
-11.809554 23.362422 0.870593 26.192103 -1.102764 1.537551 0.007267 -0.004921 -181280.000000 0 0 1
-12.304954 22.072822 1.174493 25.298237 -1.062235 1.524354 0.001044 -0.009118 419159.000000 0 0 1
-13.383754 22.080022 2.347193 25.926079 -1.025869 1.480138 0.001798 -0.010449 236952.000000 0 0 1
-12.852854 22.101722 3.630393 25.823666 -1.044067 1.429745 -0.000871 -0.011188 -82839.900000 0 0 1
-12.546654 23.410722 4.106593 26.876468 -1.078815 1.417400 0.001470 -0.009744 11333.400000 0 0 1
-12.264454 23.434122 5.620993 27.040164 -1.088637 1.361394 0.002569 -0.010676 -612124.000000 0 0 1
-11.065754 22.870222 6.040593 26.114875 -1.120152 1.337374 0.004511 -0.010540 -549492.000000 0 0 1
-11.120754 22.634222 7.413593 26.285748 -1.114113 1.284878 0.005412 -0.009808 -307021.000000 0 0 1
-9.764254 22.296922 8.063993 25.642179 -1.158034 1.250886 0.005704 -0.012263 57759.800000 0 0 1
-8.891154 23.402622 8.244593 26.357326 -1.207718 1.252656 0.006598 -0.011407 354957.000000 0 0 1
-7.796754 23.190122 9.133893 26.115113 -1.246459 1.213487 0.008355 -0.008778 19857.300000 0 0 1
-8.025354 23.031422 10.674293 26.623171 -1.235501 1.158254 0.005698 -0.005298 -543167.000000 0 0 1
-8.870154 21.953422 10.963393 26.092688 -1.186808 1.137162 0.006355 -0.007823 -389786.000000 0 0 1
-8.510954 21.365122 12.135393 26.003318 -1.191707 1.085256 0.006494 -0.004960 -177861.000000 0 0 1
-9.522254 20.400722 12.829293 25.912420 -1.134092 1.052844 0.012656 -0.001188 -219972.000000 0 0 1
-9.735454 19.269122 11.998293 24.698930 -1.102969 1.063539 0.010282 0.002607 -86743.000000 0 1 0
-10.046354 18.045222 12.693793 24.242352 -1.062799 1.019701 0.005197 0.007521 -74889.600000 0 1 0
-10.326754 16.824422 11.814093 23.005995 -1.020295 1.031512 -0.000222 0.001471 -241349.000000 0 1 0
-10.654354 15.695622 12.470393 22.701949 -0.974433 0.989259 -0.000259 0.005686 -5328.160000 0 1 0
-11.186654 14.772422 11.523293 21.820906 -0.922661 1.014452 -0.001028 0.005479 28971.900000 0 1 0
-11.470554 13.385122 12.107093 21.384967 -0.862274 0.968969 0.003348 0.004368 -331079.000000 0 1 0
-12.477854 13.381122 13.056893 22.477404 -0.820314 0.950975 -0.001486 0.008302 -430492.000000 0 1 0
-12.869154 12.023922 13.412893 22.138101 -0.751457 0.919933 0.000787 0.010232 87294.100000 0 1 0
-13.706854 11.879922 14.686693 23.339009 -0.714118 0.890174 -0.000767 0.004968 -148806.000000 0 1 0
-14.964854 12.472722 14.503593 24.287236 -0.694818 0.930829 0.001245 -0.001805 -733827.000000 0 1 0
-15.600854 12.671322 15.762093 25.541977 -0.682148 0.905738 -0.003223 0.000400 -771956.000000 0 0 1
-16.584854 13.791622 15.551593 26.591695 -0.693702 0.946127 -0.006845 0.003134 -771592.000000 0 0 1
-17.634954 13.333222 14.710693 26.555054 -0.647373 0.983672 -0.015829 -0.000513 -512659.000000 0 0 1
-18.496654 14.407322 14.461793 27.547061 -0.661751 1.018099 -0.010220 0.003124 77772.000000 0 0 1
-19.737454 13.900322 13.647593 27.731621 -0.613580 1.056260 -0.007526 -0.002309 -121806.000000 0 0 1
-20.483154 12.992722 14.420693 28.219263 -0.565268 1.034422 -0.001580 0.001562 -1520220.000000 0 0 1
-21.702854 12.919322 13.821693 28.791699 -0.536943 1.070075 -0.006638 -0.002200 -1083330.000000 0 0 1
-22.673954 11.893222 14.535393 29.442054 -0.483080 1.054463 -0.004330 -0.001036 1577.030000 0 0 1
-23.088154 12.431522 15.779093 30.603682 -0.493923 1.029095 0.006838 0.004943 195060.000000 0 0 1
-24.021754 11.565222 16.405893 31.304191 -0.448696 1.019162 0.006931 0.003927 -626357.000000 0 0 1
-24.892954 12.214622 17.391893 32.731240 -0.456169 1.010598 0.006937 0.001169 -798631.000000 0 0 1
-25.802604 13.205322 16.932193 33.568647 -0.473029 1.042104 0.005962 0.002420 311918.000000 0 0 1
-26.437844 13.704622 18.113593 34.855107 -0.478236 1.024317 0.000268 0.007336 -91906.700000 0 0 1
-27.493334 14.765922 17.830193 35.942060 -0.492864 1.051716 -0.002918 0.006367 -68160.600000 0 0 1
-26.894644 15.995022 17.492393 35.848939 -0.536535 1.061060 0.005011 0.006616 477204.000000 0 0 1
-27.889274 16.981022 17.128993 36.872335 -0.546918 1.087671 -0.003787 0.002180 660009.000000 0 0 1
-27.365554 18.473222 17.189493 37.223811 -0.593787 1.090787 -0.005254 0.008763 -68270.400000 0 0 1
-26.992154 18.952922 18.445593 37.789278 -0.612177 1.060865 0.000308 0.009141 13925.500000 0 0 1
-28.071324 19.194722 19.320193 39.111462 -0.599760 1.054138 -0.004485 0.005616 -662075.000000 0 0 1
-27.554944 19.515322 20.711993 39.611985 -0.616230 1.020580 0.003851 0.003976 14540.900000 0 0 1
-27.226034 18.413622 21.549393 39.302605 -0.594659 0.990473 -0.000239 0.003921 666139.000000 0 0 1
-25.912764 17.932522 21.170893 37.963843 -0.605360 0.979233 0.007821 0.006204 277135.000000 0 0 1
-25.477554 16.631422 21.818993 37.440331 -0.578332 0.948667 0.012777 0.003379 -424346.000000 0 0 1
-26.362434 15.532522 21.757193 37.544808 -0.532434 0.952682 -0.007317 0.009959 68456.200000 0 0 1
-25.772424 14.285422 22.111293 36.840201 -0.506132 0.927052 -0.003312 0.015001 354400.000000 0 0 1
-26.908144 13.228822 22.328293 37.384524 -0.456928 0.930715 -0.003527 0.002623 566919.000000 0 0 1
-27.675784 12.875122 21.164993 37.143973 -0.435432 0.964522 -0.001038 0.006134 581714.000000 0 0 1
-28.694854 11.954122 21.584493 37.844233 -0.394730 0.963863 -0.004938 0.007462 -112703.000000 0 0 1
-29.662214 11.638622 20.418893 37.844889 -0.373913 1.000904 -0.007110 0.004989 -445917.000000 0 0 1
-29.192094 11.081822 19.171893 36.640778 -0.362812 1.020149 0.001093 -0.000801 196587.000000 0 0 1
-28.691634 9.744922 19.151493 35.846242 -0.327419 1.007155 0.003991 -0.000873 41047.000000 0 0 1
-27.942354 9.272222 17.852593 34.430572 -0.320401 1.025689 0.006480 -0.007603 343283.000000 0 0 1
-28.745814 9.182122 16.646593 34.463637 -0.309181 1.066697 -0.000251 -0.003444 723764.000000 0 0 1
-29.235014 10.419222 16.109493 34.968014 -0.342361 1.092021 0.001767 -0.003169 -259655.000000 0 0 1
-28.172014 11.339022 15.464893 34.079300 -0.382653 1.099781 0.005556 -0.003394 -126068.000000 0 0 1
-27.948714 11.099022 14.105193 33.215589 -0.378022 1.132215 -0.000409 -0.008446 -390193.000000 0 0 1
-26.699484 11.558122 13.708093 32.161537 -0.408540 1.130479 -0.001653 -0.001074 -739620.000000 0 0 1
-26.478604 11.721622 12.171093 31.410960 -0.416752 1.172901 0.006949 -0.004006 -359370.000000 0 0 1
-26.069024 10.534222 11.429793 30.351343 -0.384027 1.184692 0.014310 -0.003546 246020.000000 0 0 1
-26.986384 9.475522 11.432393 30.801786 -0.337674 1.190538 0.004207 -0.001011 -712854.000000 0 0 1
-26.469284 8.274922 10.594393 29.687346 -0.302997 1.205886 0.008379 -0.003955 -105886.000000 0 0 1
-26.251004 8.628922 9.244093 29.138064 -0.317582 1.247967 0.010904 0.000499 136635.000000 0 0 1
-25.844974 7.554122 8.444793 28.219532 -0.284365 1.266886 0.016439 -0.004914 44391.700000 0 0 1
-25.158734 7.956422 7.082993 27.320969 -0.306297 1.308550 0.016631 0.000942 -193984.000000 0 0 1
-25.990544 8.696822 6.240993 28.108594 -0.322903 1.346899 0.010294 0.005664 -100547.000000 0 0 1
-25.382494 8.986622 4.983493 27.383674 -0.340277 1.387789 0.014521 0.007731 225578.000000 0 0 1
-26.419804 9.040522 3.814993 28.183173 -0.329698 1.435015 0.011186 0.010830 -103586.000000 0 0 1
-26.932424 7.754822 3.462593 28.239729 -0.280353 1.447873 0.008755 0.004571 110797.000000 0 0 1
-26.054334 6.669322 3.165693 27.080063 -0.250597 1.453627 0.014311 0.001891 -172316.000000 0 0 1
-25.035454 6.762522 1.995593 26.009384 -0.263822 1.493995 0.019385 -0.000183 -511746.000000 0 0 1
-23.935454 7.541722 2.288393 25.199609 -0.305239 1.479860 0.012932 0.007074 122369.000000 0 0 1
-22.964054 7.590422 1.226793 24.217087 -0.319230 1.520116 0.015637 0.007813 830224.000000 0 1 0
-21.711554 8.402022 1.707093 23.343087 -0.369235 1.497600 0.009392 0.009550 352119.000000 0 1 0
-22.128354 9.756422 1.757993 24.247523 -0.415262 1.498231 0.009379 0.009074 968212.000000 0 1 0
-21.073954 10.567222 2.250193 23.682084 -0.464795 1.475636 0.021199 0.009337 -72510.400000 0 1 0
-21.489254 12.078222 2.253493 24.753782 -0.512054 1.479634 0.020259 0.008505 -363786.000000 0 1 0
-20.364554 12.904722 2.269693 24.215665 -0.564821 1.476930 0.018022 0.003356 40332.300000 0 1 0
-20.627854 14.243922 2.665993 25.209228 -0.604334 1.464844 0.006019 -0.001032 582823.000000 0 0 1
-19.458954 14.854322 3.560493 24.738207 -0.652001 1.426368 -0.009350 -0.002353 771084.000000 0 1 0
-19.345054 14.199222 4.801993 24.472600 -0.633181 1.373296 0.000815 0.003380 124152.000000 0 1 0
-18.703054 14.937622 5.867393 24.644737 -0.673931 1.330409 0.004782 0.004414 68554.400000 0 1 0
-18.264554 13.884322 6.895993 23.956691 -0.649984 1.278813 0.004123 0.008519 21240.900000 0 1 0
-17.274554 12.996122 6.401893 22.545368 -0.644989 1.282879 0.005407 0.006304 146633.000000 0 1 0
-16.887554 12.174522 7.480093 22.121488 -0.624627 1.225860 0.001588 0.008124 -194639.000000 0 1 0
9.773146 -33.712789 -14.603107 38.017329 -1.288636 1.965048 0.003040 -0.000416 -263441.000000 0 0 1
10.837946 -33.460289 -13.719607 37.752876 -1.257555 1.942717 0.006078 0.001251 216842.000000 0 0 1
11.529346 -32.248489 -14.098707 37.035988 -1.227442 1.961323 0.001149 -0.000941 911749.000000 0 0 1
12.979146 -32.005989 -13.538807 37.096373 -1.185538 1.944389 -0.010382 -0.004736 833220.000000 0 0 1
13.967446 -32.786089 -14.168407 38.350501 -1.168064 1.949208 -0.009339 -0.002503 399309.000000 0 0 1
15.300346 -32.350889 -13.820207 38.362465 -1.129022 1.939336 -0.008128 -0.003593 1387600.000000 0 0 1
16.324446 -33.362189 -14.483107 39.865820 -1.115737 1.942600 -0.000209 -0.005391 334966.000000 0 0 1
16.489046 -34.517489 -13.718507 40.639182 -1.125146 1.915129 -0.001353 -0.002802 -284337.000000 0 0 1
17.051746 33.868422 -14.468307 40.585268 1.104376 1.935306 0.008518 -0.002315 -4920.770000 0 0 1
17.021746 32.552322 -13.648907 39.187832 1.088994 1.926547 0.003370 -0.006948 -254441.000000 0 0 1
17.851546 32.548722 -12.490907 39.167841 1.069139 1.895373 0.002751 -0.011761 163965.000000 0 0 1
17.480346 31.396522 -11.704107 37.792727 1.062777 1.885665 -0.002708 -0.006343 603967.000000 0 0 1
18.438846 31.211022 -10.472507 37.733173 1.037184 1.852030 -0.006576 -0.006330 946719.000000 0 0 1
19.746846 30.751422 -10.783807 38.103522 0.999964 1.857731 -0.000207 -0.009891 600111.000000 0 0 1
20.486046 30.261922 -9.672607 37.802398 0.975703 1.829547 0.001624 -0.000550 366350.000000 0 0 1
21.787546 29.465922 -9.881907 37.955102 0.934104 1.834189 0.007118 0.005377 100588.000000 0 0 1
22.864446 30.164622 -10.443607 39.265204 0.922202 1.840013 0.012999 0.000599 -256621.000000 0 0 1
24.070846 29.489122 -10.220807 39.414196 0.886218 1.833112 0.010840 0.003822 -386893.000000 0 0 1
25.311546 29.957222 -10.973507 40.725021 0.869257 1.843622 0.013327 0.000321 -168723.000000 0 0 1
25.798646 31.269322 -10.605107 41.902374 0.880969 1.826670 0.015741 -0.007480 -261561.000000 0 0 1
26.757546 31.659622 -11.519407 43.023187 0.869117 1.841852 0.012610 0.000046 -568717.000000 0 0 1
27.126946 33.132822 -11.500607 44.338686 0.884737 1.833177 0.012901 -0.002472 -450458.000000 0 0 1
26.207046 34.049922 -12.012507 44.615096 0.914828 1.843408 0.014100 -0.004997 -547143.000000 0 0 1
26.667246 -34.105089 -11.838007 44.882486 -0.907181 1.837710 0.017343 -0.003969 -108917.000000 0 0 1
25.656246 -32.968789 -12.105407 43.493964 -0.909491 1.852845 0.013406 -0.000117 552846.000000 0 0 1
24.544746 -33.071889 -11.202007 42.681136 -0.932330 1.836365 0.019508 -0.000430 592549.000000 0 0 1
23.405046 -32.222789 -11.333707 41.407212 -0.942603 1.848048 0.016961 -0.002061 603064.000000 0 0 1
23.651646 -30.697689 -11.096007 40.309674 -0.914323 1.849666 0.011210 -0.000419 -384889.000000 0 0 1
24.482946 -30.012289 -12.015707 40.552797 -0.886517 1.871610 0.008824 0.002250 -214792.000000 0 0 1
24.872946 -28.762189 -11.614207 39.759486 -0.857784 1.867230 -0.002587 0.005511 81511.200000 0 0 1
25.863946 -28.080089 -12.632807 40.212223 -0.826457 1.890361 -0.000029 0.003478 1499560.000000 0 0 1
27.128046 -28.730589 -12.937307 41.578258 -0.814080 1.887205 -0.002791 0.005369 949760.000000 0 0 1
27.024146 -29.792889 -13.861107 42.544694 -0.834091 1.902655 -0.003778 0.004235 -223732.000000 0 0 1
28.341646 -30.405989 -14.392907 43.987826 -0.820523 1.904137 -0.016264 0.006495 585219.000000 0 0 1
29.123046 -31.108089 -13.407807 44.672523 -0.818343 1.875631 -0.000779 0.000017 58807.500000 0 0 1
30.247946 -31.778489 -13.883307 46.016919 -0.810069 1.877272 0.002407 -0.000093 -299519.000000 0 0 1
30.729046 -32.860989 -12.931107 46.811669 -0.818912 1.850673 -0.005386 -0.000920 492144.000000 0 0 1
31.758346 -33.727889 -13.438007 48.236325 -0.815465 1.853119 -0.006774 -0.008201 511167.000000 0 0 1
32.485446 -34.545889 -12.545607 49.052165 -0.816127 1.829431 -0.004353 -0.005276 264581.000000 0 0 1
31.740546 33.708422 -11.811507 47.783173 0.815456 1.820575 -0.006070 -0.005623 432926.000000 0 0 1
30.848346 34.134422 -10.791207 47.257056 0.835924 1.801180 -0.005155 -0.006664 61911.800000 0 0 1
30.474246 33.282722 -9.731607 46.164092 0.829419 1.783194 0.006928 -0.004021 -245811.000000 0 0 1
29.886546 34.047522 -8.552807 46.104120 0.850389 1.757388 0.003539 0.000146 -2371.360000 0 0 1
28.614146 34.608622 -8.803407 45.760529 0.879931 1.764383 0.007085 -0.006019 -281959.000000 0 0 1
28.126046 -34.284289 -7.592007 44.990282 -0.883753 1.740355 0.007112 -0.002802 325103.000000 0 0 1
27.064546 -33.197289 -7.878607 43.550225 -0.886817 1.752706 0.008180 -0.001199 -73804.500000 0 0 1
27.605346 -31.924789 -8.259107 43.005350 -0.857830 1.764045 0.007198 -0.002641 437888.000000 0 0 1
26.643946 -30.922989 -8.614007 41.717289 -0.859593 1.778778 0.002171 -0.000296 119547.000000 0 0 1
25.660946 -30.361589 -7.599707 40.473025 -0.869108 1.759690 0.002386 0.002577 91142.500000 0 0 1
24.581146 -29.660589 -8.172307 39.379816 -0.878770 1.779841 0.007460 -0.003162 -161374.000000 0 0 1
23.711346 -29.113589 -7.217507 38.235081 -0.887311 1.760702 0.005130 -0.002827 -123615.000000 0 0 1
22.674846 -28.214689 -7.918907 37.053022 -0.893831 1.786176 0.006542 -0.001568 188632.000000 0 0 1
21.840546 -28.903789 -8.865607 37.296615 -0.923702 1.810799 0.009833 0.000284 -229834.000000 0 0 1
20.815146 -28.187189 -9.433007 36.287319 -0.934721 1.833770 0.004369 -0.002571 -2779.140000 0 0 1
19.738246 -29.080789 -10.147907 36.582382 -0.974483 1.851882 0.005983 0.000396 176878.000000 0 0 1
20.211946 -29.721989 -11.299407 37.677526 -0.973597 1.875382 0.008071 -0.001221 57871.700000 0 0 1
19.284446 -30.543589 -12.034007 38.073849 -1.007626 1.892381 0.008685 -0.000429 454156.000000 0 0 1
18.844246 -31.907989 -11.419107 38.776557 -1.037331 1.869713 0.008474 -0.001201 507850.000000 0 0 1
19.902746 -32.845189 -11.511607 40.092928 -1.026009 1.862018 0.010916 -0.003005 46779.300000 0 0 1
19.556146 -33.968189 -10.789007 40.653209 -1.048422 1.839406 0.008724 -0.001452 261519.000000 0 0 1
20.643846 34.381522 -10.786707 41.528430 1.030058 1.833552 0.005867 -0.001481 -314733.000000 0 0 1
21.700946 34.691122 -9.957607 42.113643 1.011803 1.809503 0.007095 0.003563 -265225.000000 0 0 1
22.728246 33.677722 -10.057007 41.855770 0.977133 1.813448 0.017569 0.000128 2000860.000000 0 0 1
24.136446 33.993722 -9.351207 42.726879 0.953373 1.791442 0.022759 -0.002731 1209170.000000 0 0 1
24.289246 33.706722 -7.989107 42.307640 0.946375 1.760771 0.017379 -0.003315 3137.660000 0 0 1
24.687946 32.427622 -7.733307 41.483121 0.920087 1.758314 0.013049 -0.001889 -379417.000000 0 0 1
24.698346 32.103622 -6.229807 40.981231 0.915037 1.723404 0.005233 0.001270 -113564.000000 0 0 1
25.619046 32.759522 -5.342407 41.929263 0.907107 1.698558 0.005617 -0.003750 714923.000000 0 0 1
26.672746 31.905722 -4.831307 41.865881 0.874494 1.686454 0.006567 0.001616 430618.000000 0 0 1
26.297046 30.684822 -3.930507 40.602239 0.862250 1.667753 0.010119 0.004251 -653356.000000 0 0 1
25.686246 31.046822 -2.696207 40.385120 0.879606 1.637608 0.002503 0.002566 109480.000000 0 0 1
25.534046 29.857622 -1.940407 39.334848 0.863295 1.620147 0.002279 -0.002161 -306770.000000 0 0 1
24.185546 29.133422 -1.927107 37.913199 0.877931 1.621648 -0.000948 0.002299 -176952.000000 0 0 1
23.154146 29.769922 -1.198207 37.733253 0.909758 1.602556 -0.000682 0.001768 489975.000000 0 0 1
21.869046 29.210622 -1.533807 36.522160 0.928149 1.612805 -0.010111 0.006254 910054.000000 0 0 1
20.736746 29.963722 -0.789107 36.448044 0.965418 1.592448 -0.008907 0.004658 2313.410000 0 0 1
20.633046 29.537322 0.494493 36.033602 0.961050 1.557073 -0.009123 0.003274 448194.000000 0 0 1
19.498846 30.142822 1.110693 35.916964 0.996616 1.539867 -0.007279 0.005425 182505.000000 0 0 1
18.868546 29.376622 2.298593 34.989877 0.999855 1.505056 -0.003439 0.005875 -150938.000000 0 0 1
18.244046 28.171722 1.889693 33.616396 0.996109 1.514553 0.000767 0.002140 121608.000000 0 0 1
17.802646 27.454222 3.021693 32.860297 0.995513 1.478711 0.001666 0.000611 -315947.000000 0 0 1
17.235646 26.051122 2.626093 31.346847 0.986304 1.486923 0.000193 -0.002375 -79827.300000 0 0 1
18.073946 25.105622 1.971993 30.997557 0.946828 1.507136 -0.002126 -0.006690 -398158.000000 0 0 1
19.058146 24.565122 2.777893 31.214978 0.910973 1.481686 -0.001004 -0.006420 41731.200000 0 0 1
20.323846 23.932422 2.093593 31.467486 0.866756 1.504215 0.000703 -0.005084 270356.000000 0 0 1
20.091946 22.752522 1.381193 30.385379 0.847417 1.525325 -0.000881 -0.007075 360968.000000 0 0 1
21.281546 22.067122 0.999993 30.673475 0.803518 1.538189 -0.001156 -0.011522 122575.000000 0 0 1
21.134346 21.018522 -0.147407 29.807056 0.782650 1.575742 0.007053 -0.011218 -409318.000000 0 0 1
21.009546 21.728422 -1.378507 30.256001 0.802217 1.616374 -0.002928 -0.004607 335790.000000 0 0 1
21.215646 20.830222 -2.485007 29.835835 0.776232 1.654182 0.007236 -0.007881 40123.100000 0 0 1
20.819746 21.453822 -3.838007 30.140647 0.800396 1.698480 0.000830 0.000463 -243017.000000 0 0 1
21.580146 22.580622 -4.086207 31.500544 0.808050 1.700882 -0.004408 0.006288 -54126.300000 0 0 1
21.147946 23.192222 -5.264007 31.824904 0.831470 1.736965 -0.012699 0.006008 -170567.000000 0 0 1
21.939546 24.471222 -5.691507 33.355324 0.839893 1.742268 -0.015168 0.010825 -313319.000000 0 0 1
21.749546 25.671722 -4.897107 34.000907 0.867920 1.715328 -0.018204 0.010561 24059.300000 0 0 1
22.243046 25.663622 -3.557207 34.147156 0.856678 1.675159 -0.010098 0.010575 91197.200000 0 0 1
21.207646 25.413222 -2.397407 33.186498 0.875363 1.643100 -0.009057 0.005510 -1345210.000000 0 0 1
20.288346 26.458122 -2.093007 33.407033 0.916623 1.633489 -0.014619 0.013081 1210340.000000 0 0 1
19.217246 26.131122 -1.173307 32.457891 0.936694 1.606953 -0.015836 -0.003528 531433.000000 0 0 1
18.341746 24.983722 -1.694907 31.039953 0.937518 1.625428 -0.010765 0.000425 -2048220.000000 0 0 1
17.790446 25.192822 -2.989607 30.985738 0.955941 1.667430 -0.010890 0.004112 -11683.900000 0 0 1
17.298346 23.959622 -3.444207 29.751619 0.945471 1.686822 -0.004766 0.005475 -141392.000000 0 0 1
16.688746 24.216922 -4.825707 29.803708 0.967399 1.733429 -0.002009 0.007095 -307760.000000 0 0 1
16.117946 23.125522 -5.508007 28.721352 0.962102 1.763766 -0.001383 0.002052 183194.000000 0 0 1
15.722646 23.529522 -6.792807 29.102959 0.981726 1.806375 0.005011 0.005242 -17156.000000 0 0 1
14.971046 22.462222 -7.634807 28.053055 0.982910 1.846429 0.011942 0.004407 207541.000000 0 0 1
15.817146 21.377122 -7.981207 27.764422 0.933784 1.862372 0.000128 0.004838 446949.000000 0 0 1
15.003746 20.336522 -8.491907 26.660814 0.935166 1.894960 0.016668 0.003624 -199719.000000 0 0 1
15.654246 19.009922 -8.845607 26.166339 0.881903 1.915644 0.002650 0.004940 -278808.000000 0 0 1
16.656646 19.244922 -9.808607 27.276723 0.857367 1.938631 0.002906 0.002347 394990.000000 0 0 1
17.473446 18.085622 -10.047007 27.080498 0.802612 1.950888 -0.001315 0.002735 82973.400000 0 0 1
18.753046 18.363722 -10.861207 28.405437 0.774909 1.963149 -0.000304 0.002236 -389586.000000 0 0 1
18.694446 18.478722 -12.235207 28.993892 0.779595 2.006438 0.000151 0.001351 -63527.900000 0 0 1
19.874346 19.090022 -12.701407 30.343769 0.765272 2.002682 -0.005695 0.002570 -150599.000000 0 0 1
19.845546 19.313922 -14.192407 31.117482 0.771823 2.044394 0.002534 -0.000653 -129718.000000 0 0 1
19.881946 18.225022 -15.032507 30.877491 0.741945 2.079269 0.005837 -0.003914 276850.000000 0 0 1
19.982546 18.581922 -16.411307 31.842126 0.749095 2.112266 0.005714 -0.004308 29262.200000 0 0 1
20.064046 17.396922 -17.382907 31.739318 0.714321 2.150382 0.009223 -0.002559 88910.600000 0 0 1
21.321446 16.723622 -17.309807 32.154518 0.665129 2.139253 0.005358 0.000396 536054.000000 0 0 1
21.590146 15.732222 -18.307607 32.385270 0.629714 2.171601 0.012972 -0.004912 -174735.000000 0 0 1
22.657146 16.107922 -19.372307 33.883590 0.618032 2.179411 0.014139 -0.003668 -68105.200000 0 0 1
23.963846 16.378722 -18.918507 34.647343 0.599550 2.148415 0.011227 0.002431 386536.000000 0 0 1
24.618946 17.287522 -19.803507 36.015688 0.612204 2.152990 0.008095 -0.005627 -322258.000000 0 0 1
25.978746 17.774822 -19.319107 36.933284 0.600047 2.121259 0.005259 -0.000634 -450107.000000 0 0 1
25.924446 18.981422 -18.592407 37.122081 0.632000 2.095371 0.005825 -0.001126 155809.000000 0 0 1
27.174646 19.531422 -18.245607 38.116138 0.623191 2.069952 0.011651 -0.000771 -249118.000000 0 0 1
26.881746 20.807922 -17.359107 38.169837 0.658719 2.042928 0.004443 -0.004563 168090.000000 0 0 1
26.316946 20.342922 -16.124407 36.965019 0.658058 2.022176 -0.000251 -0.004316 552209.000000 0 0 1
24.899646 20.515322 -16.152807 36.080244 0.689157 2.034978 0.000733 -0.004613 152727.000000 0 0 1
24.245546 19.623622 -15.047907 34.631958 0.680428 2.020290 -0.005265 -0.002895 -265152.000000 0 0 1
24.650146 19.949822 -13.755007 34.566245 0.680397 1.980058 -0.008231 -0.004402 -403290.000000 0 0 1
23.684346 19.695922 -12.815507 33.363375 0.693715 1.965050 -0.006328 -0.006552 -800552.000000 0 0 1
24.159146 20.107622 -11.396507 33.434431 0.694127 1.918629 -0.003404 -0.000892 -162395.000000 0 0 1
24.244446 21.514022 -11.370707 34.350244 0.725798 1.908183 -0.005042 -0.002839 125196.000000 0 0 1
24.839146 22.002522 -10.165707 34.704981 0.724914 1.868073 -0.004565 0.000074 73051.400000 0 0 1
24.054546 21.934122 -8.813007 33.725302 0.739323 1.835183 -0.005723 0.001897 -833471.000000 0 0 1
24.151546 20.724022 -8.077407 32.833318 0.709168 1.819361 -0.003348 0.006161 323299.000000 0 0 1
23.272646 20.488022 -6.948007 31.774988 0.721851 1.791240 -0.006080 0.005015 575946.000000 0 0 1
21.821146 20.105522 -7.384207 30.576477 0.744501 1.814707 -0.008857 0.002194 -128993.000000 0 0 1
21.167346 21.209322 -7.946207 31.000550 0.786389 1.830014 -0.011171 0.006026 -231226.000000 0 0 1
19.902846 20.772122 -8.439607 29.980515 0.806766 1.856156 -0.014019 0.005690 -240829.000000 0 0 1
19.074246 21.997222 -8.686907 30.383663 0.856446 1.860749 -0.002556 0.002550 -1331420.000000 0 0 1
19.422046 22.688122 -9.919507 31.470039 0.862803 1.891469 -0.003111 0.001086 128501.000000 0 0 1
18.729846 22.386322 -11.147807 31.244650 0.874095 1.935627 0.001773 0.007522 391838.000000 0 0 1
17.190646 22.609422 -11.005907 30.460372 0.920716 1.940478 -0.000073 0.002853 -193842.000000 0 0 1
16.921746 23.961022 -10.893107 31.291146 0.955908 1.926362 0.001735 0.001999 39483.200000 0 0 1
15.549046 24.286322 -11.004907 30.865940 1.001314 1.935357 0.001946 0.003051 214529.000000 0 0 1
15.264746 25.525522 -10.165807 31.431010 1.031835 1.900151 0.005355 0.002195 16786.100000 0 0 1
15.772446 26.718422 -10.803707 32.853679 1.037524 1.905875 0.003722 -0.001687 254881.000000 0 0 1
15.711946 27.768022 -9.897407 33.404894 1.055882 1.871598 0.003263 -0.007047 -225217.000000 0 0 1
19.407746 29.295022 -34.190987 49.029405 0.985689 2.342499 -0.018733 -0.002922 316529.000000 0 0 1
18.093546 29.576622 -34.668292 49.031046 1.021781 2.356140 -0.006344 0.002924 235530.000000 0 0 1
17.362246 28.385022 34.507701 47.936818 1.021841 0.767199 -0.013312 0.005269 1459460.000000 0 0 1
15.816646 28.663722 34.237680 47.370814 1.066572 0.763010 0.001849 0.006275 1328760.000000 0 0 1
15.374946 29.305122 33.033533 46.758886 1.087623 0.786305 -0.001762 0.006849 1135600.000000 0 0 1
13.958946 29.622222 33.116863 46.573113 1.130427 0.779774 0.017612 0.002102 760758.000000 0 0 1
13.429146 29.789722 31.705213 45.530100 1.147279 0.800487 0.016592 -0.002035 -266554.000000 0 0 1
13.158946 28.591822 30.949933 44.142366 1.139464 0.793803 0.014368 0.003354 136317.000000 0 0 1
11.801146 28.225122 31.075463 43.607442 1.174778 0.777573 0.018825 0.006412 -255555.000000 0 0 1
11.487346 26.747222 30.794673 42.375522 1.165139 0.757277 0.019244 0.001560 -71418.700000 0 0 1
11.677146 26.206622 29.505073 41.154491 1.151624 0.771401 0.014169 0.003446 -469861.000000 0 0 1
12.981846 25.801222 29.233373 41.095273 1.104633 0.779371 0.004893 0.003340 -623706.000000 0 0 1
13.107546 25.004522 27.937053 39.717916 1.087971 0.790645 -0.004426 -0.005029 -375198.000000 0 0 1
12.773246 25.739922 26.758733 39.264859 1.110159 0.820995 -0.005921 -0.004734 117038.000000 0 0 1
12.727246 24.948522 25.630433 37.964861 1.099069 0.829683 -0.003196 -0.010425 -252412.000000 0 0 1
11.639846 23.858322 25.482003 36.797256 1.116897 0.805851 -0.001407 -0.007160 -719128.000000 0 0 1
11.581846 23.288122 24.208433 35.532014 1.109288 0.821241 0.002828 -0.007389 367846.000000 0 0 1
10.564546 22.300622 24.038433 34.449581 1.128382 0.798494 0.004940 -0.006018 329780.000000 0 0 1
10.697046 21.808822 22.557633 33.149635 1.114784 0.822380 0.008904 0.004524 -196952.000000 0 0 1
10.437646 22.899122 21.660733 33.203939 1.143121 0.860110 0.012396 0.000203 247830.000000 0 0 1
10.549946 22.558022 20.262733 32.105203 1.133337 0.887780 0.015620 0.006490 -700240.000000 0 0 1
10.379146 23.656322 19.242733 32.212280 1.157340 0.930575 0.014846 0.006204 -434960.000000 0 0 1
9.082746 24.144722 19.078633 32.085170 1.210992 0.933998 0.010851 0.003511 -440894.000000 0 0 1
8.614546 25.036822 20.080633 33.230779 1.239410 0.921937 0.007707 0.003040 297282.000000 0 0 1
7.146346 25.529122 19.867933 33.129158 1.297853 0.927656 0.007865 0.004768 506565.000000 0 0 1
7.085346 26.484922 18.810833 33.249070 1.309394 0.969448 0.008201 0.001306 567599.000000 0 0 1
5.798546 27.099922 18.654433 33.406837 1.360006 0.978338 0.000949 0.000109 112700.000000 0 0 1
5.857846 28.252522 17.576933 33.785617 1.366354 1.023654 0.000777 0.001811 67363.700000 0 0 1
6.041946 27.776822 16.282133 32.759194 1.356615 1.050630 0.002344 0.003164 49980.700000 0 0 1
6.545746 28.852422 15.450633 33.377104 1.347703 1.089520 -0.000570 0.001904 85461.300000 0 0 1
7.187946 28.326722 14.202233 32.492663 1.322290 1.118435 -0.000020 0.002096 -101413.000000 0 0 1
6.191446 27.882422 13.305033 31.508528 1.352286 1.134851 -0.000879 0.009532 -57428.700000 0 0 1
6.712046 27.012322 12.315633 30.436687 1.327248 1.154221 0.002344 0.004928 -52234.300000 0 0 1
6.043746 27.131222 10.912233 29.861462 1.351615 1.196703 -0.004008 0.006022 -314382.000000 0 0 1
6.447646 28.047422 9.923533 30.441855 1.344838 1.238745 -0.000369 0.002364 -63288.900000 0 0 1
6.305946 29.407722 10.371133 31.814139 1.359563 1.238736 0.001759 0.001029 -178139.000000 0 0 1
6.372146 30.362122 9.114833 32.334855 1.363927 1.285034 0.011759 -0.001521 1018510.000000 0 0 1
5.252546 30.281922 8.164733 31.800108 1.399050 1.311137 0.000634 0.003400 805735.000000 0 0 1
5.432646 29.245122 7.171633 30.597763 1.387127 1.334211 -0.005826 0.004207 -659850.000000 0 0 1
4.101146 28.798222 6.619433 29.832430 1.429338 1.347047 -0.003218 0.007242 -589508.000000 0 0 1
3.390746 29.821622 5.899633 30.588102 1.457582 1.376707 0.012560 0.002498 134861.000000 0 0 1
2.176846 29.186222 5.515833 29.782522 1.496349 1.384517 -0.009276 0.001312 74662.800000 0 0 1
1.213446 30.021522 4.685833 30.409230 1.530399 1.416087 -0.008909 0.004877 -451396.000000 0 0 1
1.761246 30.175522 3.362433 30.413320 1.512496 1.460012 0.004201 -0.000398 569936.000000 0 0 1
0.873046 30.831222 2.484033 30.943446 1.542487 1.490433 0.002857 -0.000444 -64460.600000 0 0 1
-0.398554 30.132222 1.999433 30.201115 -1.557570 1.504544 -0.006903 -0.002226 -307519.000000 0 0 1
-0.180954 29.278322 0.922533 29.293411 -1.564616 1.539298 -0.000079 -0.002583 78672.500000 0 0 1
-1.186354 28.282822 1.035133 28.326612 -1.528875 1.534245 -0.004551 -0.000489 277920.000000 0 0 1
-1.545654 27.870222 -0.417867 27.916177 -1.515394 1.585766 -0.000730 -0.001987 -131001.000000 0 0 1
-2.207854 28.932322 -1.089667 29.036894 -1.494633 1.608332 -0.000237 0.001203 -287411.000000 0 0 1
-1.451154 29.721522 -1.956567 29.821181 -1.522010 1.636453 -0.002839 0.000818 -542297.000000 0 0 1
-2.285854 30.910022 -2.591367 31.102568 -1.496979 1.654210 -0.001889 -0.000140 433755.000000 0 0 1
-3.475254 30.643222 -3.293367 31.015008 -1.457869 1.677183 -0.001822 0.001974 79982.100000 0 0 1
-3.285254 29.855322 -4.438067 30.361646 -1.461198 1.717495 -0.003115 0.002165 -148078.000000 0 0 1
-4.664154 29.589822 -5.089067 30.384379 -1.414456 1.739079 -0.004640 0.007353 540201.000000 0 0 1
-5.323054 30.694822 -5.738967 31.677164 -1.399085 1.752973 -0.002007 0.004084 -37439.500000 0 0 1
-6.239654 30.256922 -6.700667 31.611921 -1.367425 1.784383 -0.000002 0.006940 -186947.000000 0 0 1
-6.972354 31.443622 -7.362667 33.038219 -1.352586 1.795536 0.003653 -0.004521 -92030.200000 0 0 1
-7.993754 32.102222 -6.643567 33.742995 -1.326750 1.768978 -0.000479 0.000738 -39273.300000 0 0 1
-8.145954 33.353022 -7.246967 35.089873 -1.331251 1.778819 0.001224 -0.009633 390780.000000 0 0 1
-9.232254 34.173022 -6.467967 35.984226 -1.306933 1.751523 0.005496 -0.011944 838252.000000 0 0 1
-10.565654 33.743222 -6.683167 35.984758 -1.267347 1.757603 0.008730 -0.010950 -65627.700000 0 0 1
-11.527254 34.621422 -6.143767 37.003599 -1.249389 1.737600 0.010816 -0.012311 102946.000000 0 0 1
-12.983454 34.224422 -6.424467 37.163892 -1.208207 1.744538 0.008580 -0.013201 -98766.800000 0 0 1
-13.285854 34.420822 -7.781567 37.707555 -1.202432 1.778656 0.008774 -0.013941 -689596.000000 0 0 1
-14.637654 34.189022 -8.034567 38.048711 -1.166270 1.783563 0.006056 -0.013925 -1290390.000000 0 0 1
-15.009854 34.366722 -9.509767 38.688538 -1.159011 1.819145 0.005444 -0.009367 -40205.000000 0 0 1
-16.374054 34.173522 -9.817067 39.144783 -1.123972 1.824291 0.002921 -0.010201 338103.000000 0 0 1
-17.276454 -34.281289 -9.403467 39.523510 1.103984 1.811021 0.005755 -0.010669 -871105.000000 0 0 1
-18.773554 -34.590489 -9.532067 40.494550 1.073546 1.808418 0.005313 -0.003753 -219320.000000 0 0 1
-19.378454 33.919322 -8.670067 40.015184 -1.051739 1.789198 0.002571 -0.002263 211454.000000 0 0 1
-19.323654 34.201322 -7.271067 39.949999 -1.056512 1.753821 -0.004622 0.001193 -743928.000000 0 0 1
-19.676654 33.021122 -6.380367 38.965039 -1.033411 1.735283 -0.005202 -0.004141 -651145.000000 0 0 1
-19.516054 33.173722 -4.974367 38.808717 -1.039025 1.699326 -0.005872 -0.005787 338487.000000 0 0 1
-20.648554 33.406122 -4.108167 39.486818 -1.017169 1.675024 -0.002397 -0.001721 532664.000000 0 0 1
-21.340054 -34.656989 -4.156167 40.911838 1.018876 1.672560 -0.000774 0.000669 -38203.600000 0 0 1
-21.761154 -34.435889 -5.465067 41.100429 1.007227 1.704160 0.003445 -0.001345 -253784.000000 0 0 1
-22.271954 -33.120989 -5.538467 40.295341 0.978806 1.708680 0.004558 0.001325 3364.860000 0 0 1
-22.890754 -32.829189 -6.945367 40.619951 0.961906 1.742625 0.001500 0.005446 -14044.900000 0 0 1
-21.950754 -32.468689 -7.961767 39.993013 0.976319 1.771214 0.001543 0.002913 115179.000000 0 0 1
-22.256654 -32.785689 -9.298067 40.702753 0.974405 1.801270 -0.001768 0.010706 25182.600000 0 0 1
-23.479154 -32.095289 -9.976667 40.998929 0.939211 1.816604 -0.006859 0.010908 153978.000000 0 0 1
-24.728154 -32.453289 -9.377667 41.864522 0.919684 1.796714 -0.005569 0.006984 284562.000000 0 0 1
-25.841804 -32.207089 -10.206367 42.535460 0.894616 1.813110 -0.006182 0.008858 -11240.200000 0 0 1
-26.301374 -30.722989 -10.307767 41.736248 0.862782 1.820353 -0.000721 0.010377 -963222.000000 0 0 1
-25.446924 -29.723789 -10.845467 40.603864 0.862764 1.841183 -0.002148 0.014857 -206951.000000 0 0 1
-25.623124 -29.543089 -12.258467 40.983028 0.856336 1.874557 -0.007249 0.009045 -738316.000000 0 0 1
-24.537254 -28.707289 -12.912367 39.911333 0.863557 1.900250 -0.011164 0.009770 -166314.000000 0 0 1
-23.319854 -29.455789 -13.016367 39.760343 0.901143 1.904316 -0.012203 0.007962 -5587.590000 0 0 1
-22.393354 -28.804089 -13.849867 39.025077 0.909966 1.933600 -0.012661 0.009563 -124106.000000 0 0 1
-21.170354 -29.751689 -14.020467 39.114197 0.952349 1.937403 -0.009209 0.006235 -162427.000000 0 0 1
-21.329154 -30.941189 -14.864167 40.413283 0.967257 1.947443 -0.005494 0.002292 14175.200000 0 0 1
-21.901254 -32.044389 -14.158067 41.315356 0.971253 1.920568 -0.010942 0.002582 -73209.500000 0 0 1
-21.925054 -33.381289 -14.968967 42.650773 0.989651 1.929399 -0.008603 -0.000515 -532651.000000 0 0 1
-22.409654 -34.429089 -14.262067 43.485185 0.993794 1.904956 -0.010402 -0.003058 -339965.000000 0 0 1
-22.507054 33.862222 -15.004367 43.339919 -0.984180 1.924316 -0.002856 -0.005180 -382151.000000 0 0 1
-23.188054 32.771822 -14.134267 42.561199 -0.955014 1.909318 -0.001569 -0.005353 -462193.000000 0 0 1
-22.440754 32.246022 -13.048267 41.396264 -0.962812 1.891468 -0.001300 -0.006088 92852.100000 0 0 1
-22.403854 33.111122 -11.941367 41.723798 -0.975930 1.861055 0.009375 -0.000898 144630.000000 0 0 1
-21.551854 32.557922 -10.751667 40.498136 -0.986063 1.839504 0.001636 -0.003253 -193704.000000 0 0 1
-22.136054 31.484422 -10.130167 39.798166 -0.958007 1.828167 -0.000191 -0.006211 -132080.000000 0 0 1
-21.387954 31.050022 -9.023667 38.768222 -0.967611 1.805710 0.002293 -0.003108 -640745.000000 0 0 1
-22.089054 30.028322 -8.130267 38.153999 -0.936570 1.785534 0.010079 0.000285 -330090.000000 0 0 1
-22.259354 28.849422 -8.860867 37.500439 -0.913633 1.809339 0.015814 -0.001528 -72455.400000 0 0 1
-22.776254 27.771222 -8.059967 36.809803 -0.883896 1.791547 0.009064 -0.000831 -84700.000000 0 0 1
-21.819654 27.151622 -7.028367 35.534572 -0.893850 1.769899 0.012083 0.005152 -466224.000000 0 0 1
-21.783654 27.845022 -5.798867 35.825964 -0.906931 1.733374 0.004526 0.007177 99146.000000 0 0 1
-20.883754 27.307622 -4.832767 34.715890 -0.917916 1.710459 0.000458 0.008127 -202725.000000 0 0 1
-19.573554 28.105322 -4.834867 34.589147 -0.962466 1.711035 -0.014572 0.003958 -511317.000000 0 0 1
-18.968754 28.092422 -6.100467 34.441450 -0.976891 1.748862 -0.012808 0.008124 -759359.000000 0 0 1
-17.832054 28.896122 -6.102267 34.499358 -1.017892 1.748612 -0.009239 0.006284 -1061340.000000 0 0 1
-16.964454 28.794422 -7.319467 34.212367 -1.038387 1.786405 -0.005503 0.008986 -948274.000000 0 0 1
-17.478954 29.180122 -8.559267 35.074982 -1.031111 1.817313 -0.005764 0.000428 -163274.000000 0 0 1
-17.541654 30.609722 -8.674567 36.330604 -1.050410 1.811893 0.001183 -0.003369 -133820.000000 0 0 1
-17.610154 31.114822 -10.104567 37.153088 -1.055772 1.846237 -0.008387 -0.006562 -566810.000000 0 0 1
-16.444654 30.694122 -10.738567 36.439986 -1.078952 1.869929 -0.005110 -0.007235 -400923.000000 0 0 1
-16.180254 31.379022 -11.921667 37.263518 -1.094716 1.896450 -0.003204 -0.006327 1114710.000000 0 0 1
-14.642154 31.510922 -12.326667 36.868382 -1.135811 1.911704 0.002689 -0.006822 1429830.000000 0 0 1
-14.411854 32.187622 -13.492467 37.759650 -1.149819 1.936199 0.004091 -0.008524 -496445.000000 0 0 1
-14.911554 31.641022 -14.639067 37.918478 -1.130393 1.967160 -0.004245 -0.011028 -435916.000000 0 0 1
-14.418254 32.398222 -15.893867 38.860595 -1.152081 1.992151 -0.003517 -0.005015 668439.000000 0 0 1
-13.020754 32.269622 -16.124267 38.351799 -1.187277 2.004716 -0.000402 -0.006974 -73233.900000 0 0 1
-12.578354 32.708922 -17.381267 39.117732 -1.203676 2.031225 -0.005878 -0.005352 -303466.000000 0 0 1
-11.074654 32.464422 -17.497967 38.506694 -1.242043 2.042510 0.006476 -0.004618 -640373.000000 0 0 1
-10.687154 31.084822 -17.484767 37.231686 -1.239650 2.059657 0.003942 -0.006220 703784.000000 0 0 1
-9.404754 30.772822 -18.067967 36.903487 -1.274193 2.082428 0.005645 -0.003817 705331.000000 0 0 1
-9.245254 30.947222 -19.593467 37.777099 -1.280493 2.116079 0.007129 -0.005966 -376709.000000 0 0 1
-10.089954 30.193622 -20.436167 37.829868 -1.248288 2.141486 -0.000884 -0.008119 35836.900000 0 0 1
-9.582154 30.109322 -21.750567 38.359824 -1.262686 2.173673 0.007451 -0.010024 -531126.000000 0 0 1
-10.570954 29.482022 -22.827067 38.755769 -1.226520 2.200615 0.004880 -0.008501 751064.000000 0 0 1
-11.548654 30.348722 -23.403667 40.026840 -1.207185 2.195306 -0.005253 -0.009195 865780.000000 0 0 1
-12.582354 30.718422 -22.459067 40.079256 -1.182039 2.165624 -0.006878 -0.013357 -233277.000000 0 0 1
-13.120154 32.138422 -22.745667 41.501590 -1.183208 2.150848 -0.009048 -0.004390 86693.000000 0 0 1
-13.889254 32.148022 -23.939267 42.420457 -1.162977 2.170421 -0.005576 -0.001582 -9916.160000 0 0 1
-14.531054 33.369422 -24.182967 43.697663 -1.160099 2.157256 -0.003096 0.000285 22863.400000 0 0 1
-14.954254 33.498022 -25.636367 44.754558 -1.150922 2.180740 -0.006314 0.002126 -321337.000000 0 0 1
-13.909354 33.831922 -26.494767 45.166821 -1.180731 2.197648 -0.005079 0.003951 -350847.000000 0 0 1
-14.280054 33.764122 -27.850467 46.038944 -1.170675 2.220478 0.000744 0.001471 -54075.500000 0 0 1
-14.744154 -34.397289 -28.564467 47.079638 1.165844 2.222732 0.001407 0.000515 -283165.000000 0 0 1
-15.886254 -33.841089 -28.009367 46.713135 1.131897 2.213802 0.006268 0.005582 -747263.000000 0 0 1
-16.403754 -32.762289 -28.741967 46.567708 1.106597 2.235986 0.002810 0.004209 189053.000000 0 0 1
-17.842554 -32.464589 -28.236967 46.579315 1.068260 2.222086 0.001516 0.003785 147446.000000 0 0 1
-18.816754 -33.401689 -28.641267 47.854626 1.057763 2.212431 -0.006277 0.006691 -687162.000000 0 0 1
-20.018854 -33.088589 -27.977067 47.731808 1.026703 2.197071 0.000313 0.009296 -178283.000000 0 0 1
-21.076354 -34.187389 -28.163667 49.052853 1.018336 2.182361 0.006396 0.010690 -330479.000000 0 0 1
-20.853854 34.017422 -27.597067 48.514599 -1.020848 2.175892 0.002377 0.009671 -944462.000000 0 0 1
-21.978454 33.209722 -27.673067 48.494708 -0.986165 2.178082 0.005947 0.007981 -499350.000000 0 0 1
-21.805554 31.689322 -27.376767 47.214221 -0.968099 2.189331 0.005391 0.009917 -374903.000000 0 0 1
-21.498954 31.427522 -26.008467 46.112195 -0.970835 2.170049 0.004767 0.008201 -56277.700000 0 0 1
-21.682954 30.072722 -25.679467 45.099380 -0.946104 2.176569 0.008051 0.001928 9852.930000 0 0 1
29.870335 9.878622 -26.836227 41.352233 0.319394 2.277022 -0.003814 -0.000603 -258364.000000 0 0 1
29.693975 8.504122 -26.747077 40.859006 0.278926 2.284475 -0.005950 0.002374 -102101.000000 0 0 1
28.322415 8.252622 -26.961487 39.964819 0.283531 2.311260 -0.011390 0.001098 69039.800000 0 0 1
28.061325 6.743122 -26.563207 39.223866 0.235828 2.314775 -0.007364 0.001878 -164917.000000 0 0 1
28.329205 6.469922 -25.232887 38.485092 0.224533 2.285844 -0.009050 0.007165 -227495.000000 0 0 1
27.664235 5.367022 -24.765507 37.515932 0.191625 2.291792 -0.001832 0.005579 -198073.000000 0 0 1
27.654335 5.296722 -23.247007 36.513571 0.189241 2.260965 -0.001847 0.004835 -170713.000000 0 0 1
28.936085 4.968522 -22.786907 37.164854 0.170049 2.230814 -0.008574 0.001602 -113439.000000 0 0 1
28.896375 4.841422 -21.348407 36.251819 0.166002 2.200484 -0.007861 0.001698 -486602.000000 0 0 1
30.209365 4.506022 -20.647007 36.867450 0.148068 2.165223 -0.009296 -0.001007 -438892.000000 0 0 1
30.634195 3.132522 -20.710707 37.110645 0.101902 2.162866 -0.003867 0.002468 411761.000000 0 0 1
31.768545 2.865622 -19.899707 37.595885 0.089960 2.128578 -0.002129 0.000629 34404.800000 0 0 1
32.239315 1.411622 -19.968107 37.948536 0.043758 2.124909 0.006024 -0.001144 -748284.000000 0 0 1
31.340055 0.542722 -19.379507 36.851851 0.017315 2.124541 0.005207 -0.000742 -548003.000000 0 0 1
31.701515 -0.816078 -19.400507 37.175687 -0.025737 2.119826 0.006906 0.002092 -335754.000000 0 0 1
30.614745 -1.771278 -18.893007 36.018686 -0.057793 2.122963 -0.004496 0.003223 27448.100000 0 0 1
30.576485 -1.804078 -17.469107 35.261109 -0.058934 2.089116 -0.005126 0.001908 173810.000000 0 0 1
29.203555 -1.851878 -17.112007 33.898346 -0.063328 2.099951 -0.000435 0.000265 145112.000000 0 0 1
29.056595 -2.201978 -15.649407 33.076251 -0.075638 2.063638 -0.001559 0.002515 -292417.000000 0 0 1
29.209655 -3.579778 -15.348507 33.190291 -0.121947 2.051541 0.003477 -0.005064 273200.000000 0 0 1
28.634745 -3.790178 -14.089107 32.137471 -0.131598 2.024615 0.021018 -0.000280 -149610.000000 0 0 1
28.335445 -5.280878 -13.850507 31.978456 -0.184256 2.018748 0.010406 -0.000993 -264691.000000 0 0 1
27.467545 -5.876878 -14.767507 31.734571 -0.210779 2.054820 0.010721 -0.007387 222328.000000 0 0 1
27.155485 -7.175378 -14.326707 31.530318 -0.258329 2.042471 0.009778 -0.008629 -429492.000000 0 0 1
26.535745 -8.097078 -15.371207 31.717226 -0.296164 2.076740 0.010086 -0.008194 275424.000000 0 0 1
25.275475 -7.615578 -15.859607 30.795678 -0.292652 2.111798 0.016028 -0.012566 637133.000000 0 0 1
24.634155 -8.569378 -16.690607 30.965339 -0.334772 2.140057 0.005541 -0.011640 109263.000000 0 0 1
23.195075 -8.124478 -17.053907 29.914117 -0.336913 2.177419 -0.001277 -0.013686 -112377.000000 0 0 1
23.043275 -7.043078 -17.952407 30.048068 -0.296628 2.211122 -0.001675 -0.009649 -448798.000000 0 0 1
21.707075 -6.907078 -18.331207 29.239323 -0.308065 2.248411 0.003161 -0.013289 -478456.000000 0 0 1
21.424475 -7.583678 -19.692707 30.071964 -0.340210 2.284784 -0.000554 -0.009846 -405153.000000 0 0 1
22.077675 -6.871278 -20.741907 31.062275 -0.301729 2.301982 -0.003610 -0.007294 500612.000000 0 0 1
21.646975 -7.196078 -22.107107 31.766323 -0.320936 2.340509 0.011269 -0.005819 -302128.000000 0 0 1
22.377275 -6.340378 -23.135707 32.805545 -0.276103 2.353555 -0.000688 -0.006300 -340503.000000 0 0 1
22.327875 -6.773478 -24.435907 33.786500 -0.294540 2.379286 0.003239 -0.005368 122975.000000 0 0 1
22.779775 -5.799578 -25.357137 34.576548 -0.249297 2.394051 0.002856 -0.004300 -418747.000000 0 0 1
22.692875 -6.345478 -26.788607 35.677180 -0.272660 2.420161 0.005864 -0.006433 -1344630.000000 0 0 1
21.438975 -6.790378 -27.137697 35.244766 -0.306734 2.449603 0.004575 -0.004316 -1064860.000000 0 0 1
21.352375 -6.780278 -28.545007 36.286548 -0.307472 2.476169 0.003407 -0.006848 513000.000000 0 0 1
20.088175 -7.552578 -29.064967 36.129607 -0.359622 2.505569 0.009717 -0.008921 460082.000000 0 0 1
20.012275 -8.980478 -28.932097 36.307112 -0.421813 2.492895 0.003281 -0.003866 387984.000000 0 0 1
18.921575 -9.530578 -29.664357 36.453148 -0.466594 2.521400 0.006722 -0.005795 124596.000000 0 0 1
18.999575 -11.029178 -29.344887 36.657183 -0.525955 2.498962 0.010752 -0.002545 -128475.000000 0 0 1
18.147175 -11.409078 -28.255387 35.466237 -0.561254 2.492585 0.012638 -0.002505 381577.000000 0 0 1
18.337175 -12.693878 -27.684717 35.550388 -0.605505 2.463460 0.007910 -0.001650 -582170.000000 0 0 1
18.262175 -13.994878 -28.550437 36.667303 -0.653872 2.463283 0.006719 -0.000637 48787.100000 0 0 1
17.010075 -14.187978 -29.210147 36.658888 -0.695186 2.492793 0.001591 -0.003422 664289.000000 0 0 1
17.144275 -15.180378 -30.248707 37.938824 -0.724717 2.493609 -0.000537 -0.000529 -453969.000000 0 0 1
15.992075 -15.387678 -31.254767 38.332592 -0.766140 2.524143 -0.011742 -0.000837 -648710.000000 0 0 1
14.839675 -15.912378 -30.665377 37.600334 -0.820266 2.524495 0.002277 0.003368 -603193.000000 0 0 1
13.924875 -16.308278 -31.628347 38.212752 -0.864070 2.545777 -0.004187 0.006389 125921.000000 0 0 1
12.668175 -16.977078 -30.953117 37.507323 -0.929736 2.541450 -0.006460 0.004561 578695.000000 0 0 1
13.036975 -18.175478 -30.277167 37.643294 -0.948564 2.505323 -0.005963 -0.002071 -166739.000000 0 0 1
12.004675 -18.557078 -29.427667 36.803057 -0.996600 2.497423 -0.004395 -0.002534 -296754.000000 0 0 1
12.212775 -19.901578 -28.687047 36.988801 -1.020394 2.458399 -0.001405 -0.001083 80037.800000 0 0 1
13.346975 -19.982078 -27.814377 36.756833 -0.981908 2.429067 -0.000803 -0.003380 484561.000000 0 0 1
13.099375 -20.917878 -26.826857 36.453141 -1.011314 2.397831 0.005784 -0.001682 494977.000000 0 0 1
14.142975 -20.668578 -25.680497 35.870626 -0.970703 2.368737 0.000353 0.000462 1340370.000000 0 0 1
15.515275 -20.893878 -26.065067 36.832942 -0.932064 2.356972 -0.003737 -0.003745 1055590.000000 0 0 1
16.367475 -20.772678 -24.924507 36.340466 -0.903457 2.326582 -0.004070 -0.003280 578250.000000 0 0 1
17.831675 -21.223478 -25.287797 37.521692 -0.872027 2.310341 -0.002136 -0.003742 616372.000000 0 0 1
18.141975 -22.623478 -25.407927 38.555360 -0.894892 2.290283 -0.002571 -0.001957 203732.000000 0 0 1
17.871075 -23.340978 -24.249307 38.107814 -0.917353 2.260533 -0.002274 -0.002900 -776678.000000 0 0 1
18.288575 -24.833478 -24.210707 39.208825 -0.936025 2.236333 -0.010751 -0.000810 488094.000000 0 0 1
19.717475 -24.910078 -24.080307 39.864170 -0.901232 2.219381 -0.001858 0.002124 705646.000000 0 0 1
20.245275 -26.194148 -23.966107 40.870269 -0.912804 2.197397 0.002750 0.001487 -122307.000000 0 0 1
20.187175 -26.773118 -22.530707 40.397459 -0.924734 2.162440 0.002515 0.002332 -152699.000000 0 0 1
18.884775 -27.000598 -21.997007 39.617362 -0.960459 2.159444 -0.006280 0.002246 335810.000000 0 0 1
18.972475 -27.052588 -20.581007 38.927820 -0.959186 2.127861 -0.004005 0.002538 235411.000000 0 0 1
17.745875 -27.665428 -19.831707 38.387350 -1.000458 2.113696 -0.004315 0.000295 -154608.000000 0 0 1
17.525875 -29.050818 -20.162807 39.467013 -1.027966 2.107002 -0.004621 -0.002362 264356.000000 0 0 1
16.645975 -29.777478 -19.287207 39.189068 -1.061060 2.085363 -0.002618 -0.001955 215131.000000 0 0 1
15.156975 -29.470498 -19.528007 38.465403 -1.095766 2.103283 -0.000657 -0.001650 -585778.000000 0 0 1
14.612775 -28.330918 -18.849807 37.033625 -1.094597 2.104809 0.006875 0.001293 -769519.000000 0 0 1
13.326975 -28.044758 -19.261207 36.539168 -1.127182 2.126026 0.011922 0.001802 -815349.000000 0 0 1
12.571675 -26.947308 -18.508207 35.025108 -1.134283 2.127543 0.013533 0.001897 -487523.000000 0 0 1
11.913775 -27.455928 -17.408707 34.624112 -1.161392 2.097621 0.007985 0.004686 -271950.000000 0 0 1
10.972475 -26.579198 -16.826007 33.316115 -1.179286 2.100226 0.006458 0.000886 610699.000000 0 0 1
9.484175 -26.649068 -17.275307 33.144512 -1.228883 2.119066 0.004698 0.003432 325562.000000 0 0 1
8.699275 -27.645448 -16.649007 33.423609 -1.265933 2.092227 0.005988 0.004503 1197150.000000 0 0 1
7.265075 -27.584388 -16.830107 33.119968 -1.313268 2.103839 0.002843 0.010050 1670050.000000 0 0 1
6.549275 -28.080218 -18.119007 34.054223 -1.341658 2.131832 -0.002021 0.009735 -232259.000000 0 0 1
6.665275 -27.312658 -19.254507 34.075552 -1.331439 2.171294 0.006452 0.004718 210253.000000 0 0 1
6.068075 -28.084918 -20.314107 35.188736 -1.358006 2.186202 0.011572 0.006059 107216.000000 0 0 1
6.352575 -27.370198 -21.645307 35.468328 -1.342736 2.227200 0.001983 0.000521 -278728.000000 0 0 1
5.551975 -26.212518 -21.727707 34.496577 -1.362075 2.252158 0.002305 -0.003712 215092.000000 0 0 1
5.482175 -25.683558 -23.039007 34.935587 -1.360501 2.290911 0.002317 -0.007107 202214.000000 0 0 1
3.989375 -25.362918 -23.333707 34.693726 -1.414783 2.308463 -0.003326 -0.008214 38016.800000 0 0 1
3.189575 -26.494258 -23.507807 35.563129 -1.450986 2.292969 -0.004348 -0.006098 -178421.000000 0 0 1
1.949075 -26.039728 -24.025407 35.483609 -1.496086 2.314590 -0.007324 -0.008911 509650.000000 0 0 1
1.111975 -27.112758 -24.780307 36.747813 -1.529806 2.310859 -0.001623 -0.007744 228398.000000 0 0 1
1.795075 -27.457498 -25.976677 37.840775 -1.505513 2.327424 0.000634 -0.003139 274248.000000 0 0 1
1.011475 -28.350588 -26.731247 38.978693 -1.535134 2.326487 0.003736 -0.001422 -110203.000000 0 0 1
1.755275 -29.069718 -27.875397 40.313364 -1.510488 2.334315 0.007154 -0.001239 -693126.000000 0 0 1
2.227375 -28.190238 -28.883237 40.421431 -1.491948 2.366781 0.006727 -0.001993 290930.000000 0 0 1
2.800375 -28.940478 -29.962597 41.751055 -1.474333 2.371217 0.004533 -0.001910 177501.000000 0 0 1
4.254275 -29.467258 -29.835807 42.149657 -1.427414 2.357252 0.001231 -0.004156 -594842.000000 0 0 1
4.599075 -30.366588 -28.805207 42.107258 -1.420487 2.324153 -0.000952 -0.006438 -126259.000000 0 0 1
5.713375 -31.158468 -29.128537 43.034457 -1.389446 2.314292 -0.003464 -0.001762 68166.500000 0 0 1
6.165875 -32.229618 -28.105027 43.204848 -1.381770 2.279047 0.006225 -0.005962 16973.400000 0 0 1
5.219375 -33.271758 -27.979707 43.784881 -1.415193 2.264029 0.010500 -0.004588 248950.000000 0 0 1
5.723675 -34.387143 -27.257017 44.251340 -1.405860 2.234399 0.012507 -0.001845 353789.000000 0 0 1
4.552475 34.114798 -26.863797 43.660143 1.438134 2.233554 0.002345 -0.001633 404124.000000 0 0 1
3.889175 33.637046 -28.006117 43.942225 1.455686 2.261837 0.000384 -0.003243 74747.500000 0 0 1
2.518075 33.433463 -27.729567 43.509379 1.495622 2.261817 -0.006276 -0.002397 398864.000000 0 0 1
1.522875 33.559769 -28.934037 44.336844 1.525449 2.281802 -0.009470 0.000207 -18516.100000 0 0 1
1.636375 32.628223 -29.996637 44.351740 1.520686 2.313572 -0.011046 -0.003666 392021.000000 0 0 1
0.578475 32.834163 -30.940547 45.119113 1.553180 2.326433 -0.006858 0.002150 547408.000000 0 0 1
0.252775 31.542483 -31.797577 44.789262 1.562783 2.360206 -0.011219 0.006243 166837.000000 0 0 1
1.234875 31.248543 -32.807297 45.324553 1.531299 2.380134 -0.007570 0.000266 329043.000000 0 0 1
0.937375 30.147963 -33.667877 45.202923 1.539714 2.411056 -0.010653 0.000667 -623241.000000 0 0 1
2.036775 29.741843 -34.654088 45.712487 1.502421 2.431173 -0.005496 0.001788 -383161.000000 0 0 1
2.314975 30.755213 33.798584 45.755727 1.495667 0.739695 -0.003827 -0.001034 198340.000000 0 0 1
3.087175 30.382773 32.633343 44.694279 1.469534 0.752261 -0.002136 -0.002985 -85345.900000 0 0 1
2.457275 29.384453 31.615703 43.232360 1.487365 0.750574 -0.003131 -0.005389 54529.900000 0 0 1
2.370675 28.002743 31.925553 42.532513 1.486339 0.721804 0.001287 -0.008398 122784.000000 0 0 1
3.656775 27.403903 31.829113 42.159677 1.438140 0.715194 0.008128 -0.005193 -3265.120000 0 0 1
3.662375 25.889193 31.950323 41.285427 1.430265 0.685838 0.011477 -0.005234 -68715.600000 0 0 1
3.016175 25.277253 30.836913 39.986898 1.452034 0.690111 0.016372 0.000333 264020.000000 0 0 1
3.127075 23.846733 30.878723 39.140015 1.440408 0.661731 0.003682 -0.000842 -159978.000000 0 0 1
2.106775 23.147133 29.950973 37.911595 1.480030 0.659952 0.009243 0.004425 944325.000000 0 0 1
0.814675 22.798733 30.494283 38.083424 1.535078 0.642295 0.006308 0.005605 484343.000000 0 0 1
0.072175 22.225433 29.437833 36.885784 1.567549 0.646693 0.009795 0.009471 -59039.500000 0 0 1
-1.314725 21.768133 29.930373 37.032517 -1.510473 0.629675 0.008195 0.011634 -421318.000000 0 0 1
-2.200825 22.805933 30.154573 37.871526 -1.474592 0.649753 0.009967 0.009730 414534.000000 0 0 1
-3.532425 22.311533 30.395953 37.870787 -1.413777 0.639117 0.005307 0.011119 1431180.000000 0 0 1
-4.630525 23.335133 30.835633 38.946199 -1.374905 0.657129 -0.007501 0.007656 400816.000000 0 0 1
-4.456025 23.679533 32.206643 40.222435 -1.384791 0.642311 -0.004295 0.005265 91193.100000 0 0 1
-4.287825 25.057543 32.300883 41.104902 -1.401319 0.666782 0.001677 0.001024 -381028.000000 0 0 1
-4.392525 25.623433 33.722960 42.580425 -1.401020 0.656747 -0.001266 0.003207 200266.000000 0 0 1
-5.702125 26.029443 34.153436 43.318626 -1.355139 0.662554 -0.004702 0.002325 564336.000000 0 0 1
-5.760025 26.439723 -33.923127 43.393725 -1.356293 2.468267 -0.005763 0.004086 15414.100000 0 0 1
-7.206825 26.732173 -33.458767 43.428522 -1.307463 2.450316 -0.001995 0.002428 -363356.000000 0 0 1
-7.759825 27.871273 -34.096624 44.716915 -1.299257 2.437964 -0.002677 0.001487 580047.000000 0 0 1
-9.097225 28.137573 -33.635927 44.786807 -1.258092 2.420407 0.001083 0.002453 793765.000000 0 0 1
-9.214425 28.618953 -32.162957 44.027331 -1.259308 2.389883 -0.002070 0.002993 -949669.000000 0 0 1
-8.773825 29.907733 -31.911217 44.606931 -1.285440 2.367974 -0.000587 0.003782 41192.100000 0 0 1
-8.931425 30.177323 -30.540887 43.854155 -1.283046 2.341192 0.000792 0.000662 -493856.000000 0 0 1
-8.266025 31.537113 -30.215757 44.451194 -1.314458 2.318220 0.002194 -0.000017 -700191.000000 0 0 1
-6.889725 31.660943 -30.379647 44.416287 -1.356527 2.323995 -0.003007 -0.000687 -771824.000000 0 0 1
-6.467725 32.862733 -29.810097 44.837847 -1.376470 2.298079 -0.004103 0.000326 940877.000000 0 0 1
-4.892825 32.995683 -29.772827 44.711028 -1.423582 2.299488 -0.003253 0.000733 829987.000000 0 0 1
-4.407925 34.283002 -29.267317 45.291609 -1.442923 2.273387 -0.006579 0.000768 -23415.200000 0 0 1
-4.411525 -34.052608 -30.097717 45.660861 1.441964 2.290495 -0.002827 -0.001152 346428.000000 0 0 1
-3.110525 -33.947738 -30.964267 46.053340 1.479425 2.308184 -0.000790 -0.004072 339303.000000 0 0 1
-2.964125 34.430611 -31.924077 47.046783 -1.484918 2.316597 0.000491 -0.000398 217749.000000 0 0 1
-3.654725 34.651777 -33.153357 48.096234 -1.465715 2.331337 -0.000898 -0.001643 135413.000000 0 0 1
-2.913025 -33.861968 -34.111861 48.153273 1.484981 2.358027 0.005255 0.000947 91377.400000 0 0 1
-2.910925 -32.505608 -33.637337 46.867457 1.481483 2.371307 0.006784 -0.002832 629081.000000 0 0 1
-1.824225 -31.823798 -34.277604 46.808504 1.513536 2.392481 0.005296 -0.002623 272416.000000 0 0 1
31.335365 20.161122 12.487733 39.297830 0.571720 1.247418 0.014482 -0.006367 -665981.000000 0 0 1
32.206695 19.274922 13.044933 39.736181 0.539298 1.236305 0.007376 -0.006609 -473934.000000 0 0 1
31.688475 17.967522 13.158733 38.731687 0.515805 1.224155 0.013069 -0.003545 -239065.000000 0 0 1
32.769245 17.087822 13.791433 39.446428 0.480667 1.213626 0.009490 -0.008459 -185461.000000 0 0 1
33.831366 16.729822 12.967533 39.907458 0.459243 1.239848 0.005953 0.002283 -53782.800000 0 0 1
34.605789 15.682122 13.601533 40.354570 0.425483 1.227014 0.007659 -0.000081 495454.000000 0 0 1
-33.922064 14.936822 12.667133 39.169776 -0.414781 1.241486 0.009468 -0.006421 151269.000000 0 0 1
-33.151014 13.937922 13.314833 38.347623 -0.398000 1.216198 0.003588 -0.007572 242857.000000 0 0 1
-33.935924 12.773122 13.691333 38.758898 -0.359988 1.209760 0.005756 -0.005251 141608.000000 0 0 1
-33.278764 11.948322 14.819033 38.338522 -0.344703 1.173929 0.005671 -0.005039 47865.700000 0 0 1
-33.242054 12.685422 15.999233 39.011916 -0.364551 1.148220 0.004010 -0.002330 -1721.190000 0 0 1
-32.440894 12.080422 16.976633 38.555859 -0.356474 1.114849 -0.001078 -0.003579 -340019.000000 0 0 1
-32.407694 12.850122 18.321433 39.383489 -0.377498 1.086929 -0.002130 -0.001794 383799.000000 0 0 1
-33.614334 12.881522 19.094433 40.748674 -0.365953 1.083102 -0.003289 0.001950 499483.000000 0 0 1
-33.359224 13.573122 20.355333 41.369156 -0.386421 1.056363 -0.003203 -0.000053 -971351.000000 0 0 1
-34.514022 13.662622 21.286733 42.790302 -0.376930 1.050121 0.002122 -0.000447 -1032410.000000 0 0 1
34.732485 12.366822 21.758533 42.810251 0.342063 1.037639 0.000244 0.004664 477084.000000 0 0 1
33.761075 12.443422 22.805533 42.599780 0.353124 1.005881 -0.008000 -0.003205 159980.000000 0 0 1
33.183975 11.181722 23.398633 42.115355 0.325012 0.981731 0.003503 -0.003751 32111.900000 0 0 1
34.195483 10.482322 24.117433 43.137695 0.297447 0.977520 0.000921 -0.001984 184432.000000 0 0 1
34.236316 10.798722 25.513373 44.041684 0.305540 0.952926 0.001807 -0.000821 -1627770.000000 0 0 1
-33.963314 11.091322 26.142633 44.271451 -0.315649 0.939109 0.006330 -0.004664 -963134.000000 0 0 1
-33.338624 12.317122 25.766103 43.898376 -0.353900 0.943511 -0.008343 -0.000383 140555.000000 0 0 1
-32.427634 12.255622 24.684223 42.556581 -0.361344 0.952027 -0.005246 -0.002019 -433386.000000 0 0 1
-31.811534 13.684022 24.481123 42.409333 -0.406232 0.955430 -0.006155 0.003624 762682.000000 0 0 1
-30.855844 14.139922 25.466753 42.433195 -0.429700 0.927094 -0.006578 0.001975 1063880.000000 0 0 1
-31.556304 14.426522 26.661043 43.757697 -0.428799 0.915634 -0.002550 -0.001478 -103214.000000 0 0 1
-30.534034 14.950622 27.703293 43.855681 -0.455324 0.887062 -0.005301 -0.001249 256756.000000 0 0 1
-29.968344 16.228122 27.391183 43.723341 -0.496301 0.893785 -0.007692 0.000801 314251.000000 0 0 1
-29.312924 16.883922 28.498233 44.231930 -0.522577 0.870701 -0.008429 -0.001127 212096.000000 0 0 1
-28.684564 18.236722 28.208763 44.171445 -0.566305 0.878093 -0.003080 -0.000004 -338763.000000 0 0 1
-29.652114 19.229322 28.037023 45.111965 -0.575318 0.900142 -0.009126 -0.004930 169440.000000 0 0 1
-29.037944 20.446022 27.603843 44.980153 -0.613482 0.910071 -0.008541 -0.007647 -327797.000000 0 0 1
-29.948384 21.449622 26.925433 45.628620 -0.621529 0.939614 -0.007071 -0.003495 -378954.000000 0 0 1
-31.048914 21.822922 27.762513 47.021613 -0.612640 0.939217 -0.006251 -0.003269 804952.000000 0 0 1
-31.978304 22.689122 27.073063 47.648284 -0.617084 0.966497 -0.005728 -0.001770 -376969.000000 0 0 1
-31.593214 24.087922 26.661093 47.845303 -0.651415 0.979744 0.001960 0.001384 -970422.000000 0 0 1
-32.422884 24.570322 25.651403 48.093020 -0.648480 1.008216 0.009615 0.001916 -266040.000000 0 0 1
-32.191494 25.927922 25.372943 48.500883 -0.678042 1.020261 0.009444 0.002720 124376.000000 0 0 1
-33.236954 26.681122 24.486003 49.154265 -0.676418 1.049337 0.013641 0.005230 161446.000000 0 0 1
-33.045414 26.445122 23.100733 48.218127 -0.674903 1.071181 0.014515 0.006571 -731473.000000 0 0 1
-34.174910 26.795922 22.381333 48.855603 -0.664959 1.094926 0.015305 0.006731 -505658.000000 0 0 1
-34.020234 26.837122 20.851133 48.087183 -0.667910 1.122300 0.023161 -0.001714 31353.800000 0 0 1
-33.978884 25.469222 20.388633 47.105649 -0.643220 1.123169 0.010973 0.003881 -108959.000000 0 0 1
-33.331744 25.416722 19.157933 46.087323 -0.651477 1.142098 0.009933 0.003890 -230972.000000 0 0 1
-33.422684 24.086322 18.416333 45.126356 -0.624456 1.150418 0.013682 0.003665 -632912.000000 0 0 1
-34.680673 23.764622 17.931433 45.706046 -0.600752 1.167643 0.007325 0.001837 -933823.000000 0 0 1
-34.644562 23.280322 16.598833 44.919265 -0.591669 1.192298 0.006252 -0.002344 -438449.000000 0 0 1
33.505025 23.235522 15.933833 43.776286 0.606346 1.198255 0.005805 -0.002395 -473965.000000 0 0 1
32.743085 22.206222 16.469333 42.853994 0.595942 1.176333 -0.002529 -0.005962 -827074.000000 0 0 1
31.611755 22.001322 15.671533 41.580743 0.608027 1.184356 -0.000470 -0.005165 -486516.000000 0 0 1
30.640295 20.903522 16.319833 40.523103 0.598695 1.156300 -0.003487 -0.005041 868985.000000 0 0 1
29.673685 21.277822 17.275833 40.394649 0.622084 1.128876 -0.002606 -0.000435 420603.000000 0 0 1
28.740215 22.288022 16.849933 40.083365 0.659622 1.136941 -0.001122 0.003309 -75902.900000 0 0 1
27.850985 22.839222 17.998433 40.264761 0.686848 1.107385 -0.005998 -0.000593 195359.000000 0 0 1
28.663805 23.449822 18.982833 41.615572 0.685680 1.097135 -0.009768 0.003550 -273391.000000 0 0 1
27.893935 24.168722 19.903933 41.932866 0.713967 1.076216 -0.019855 -0.001148 49847.200000 0 0 1
28.737075 25.007922 20.981033 43.490452 0.716123 1.067371 -0.010263 -0.001639 792277.000000 0 0 1
29.450865 26.073322 20.324833 44.274941 0.724643 1.093860 -0.001071 -0.000884 160659.000000 0 0 1
30.442955 26.555322 21.224233 45.633614 0.717297 1.087048 0.004088 0.001094 -575374.000000 0 0 1
31.133745 27.722822 20.629733 46.512910 0.727510 1.111266 0.011672 0.000750 12147.500000 0 0 1
32.146425 28.204922 21.550733 47.888875 0.720181 1.104014 0.010351 0.000733 875341.000000 0 0 1
31.643165 29.214322 22.419933 48.553269 0.745509 1.090819 0.011779 -0.001054 -236370.000000 0 0 1
32.488355 29.388622 23.671733 49.794932 0.735345 1.075395 0.009370 -0.000474 449685.000000 0 0 1
33.703730 30.125722 23.604733 50.996901 0.729401 1.089571 0.015592 -0.001287 257248.000000 0 0 1
34.256972 30.433622 24.892223 52.147562 0.726365 1.073169 0.022422 0.003897 -261847.000000 0 0 1
-33.976034 31.222422 24.791613 52.381625 -0.743189 1.077776 0.014270 0.004196 159802.000000 0 0 1
-32.780414 30.494122 24.505083 51.038673 -0.749281 1.069996 0.011520 0.002235 220789.000000 0 0 1
-31.700574 31.392422 24.371233 50.836675 -0.780514 1.070822 0.009260 0.002325 631105.000000 0 0 1
-30.276224 30.818222 24.077933 49.458664 -0.794269 1.062340 0.011718 0.001542 352821.000000 0 0 1
-30.079614 30.425022 22.720533 48.442623 -0.791107 1.082616 0.003301 -0.000585 -99175.700000 0 0 1
-30.634264 29.209722 22.304433 47.845101 -0.761598 1.085828 0.012642 0.004284 -640983.000000 0 0 1
-30.139414 27.945522 22.916033 47.058273 -0.747646 1.062177 0.008999 0.005103 -74723.900000 0 0 1
-28.712964 27.838422 22.855033 46.062616 -0.769935 1.051611 -0.005603 0.006886 891462.000000 0 0 1
-28.126204 26.916722 23.839733 45.650040 -0.763428 1.021335 -0.002895 0.005483 302062.000000 0 0 1
-28.055994 27.422522 25.334473 46.700846 -0.773980 0.997405 -0.001215 -0.002607 306764.000000 0 0 1
-29.333594 27.472922 25.975553 47.853428 -0.752655 0.997011 0.003881 0.003497 429709.000000 0 0 1
-29.125504 28.181622 27.163023 48.788612 -0.768929 0.980329 0.001683 0.000044 -90034.000000 0 0 1
-30.348124 28.319322 28.081753 50.115641 -0.750831 0.976001 0.008847 -0.000624 -127648.000000 0 0 1
-30.750684 27.074922 28.645043 49.991944 -0.721917 0.960643 0.004104 -0.004020 -72042.800000 0 0 1
-31.612304 27.190522 29.754423 51.224876 -0.710343 0.951013 0.009511 0.000017 -174519.000000 0 0 1
-32.050814 25.833722 30.328393 51.131666 -0.678403 0.935839 0.002946 0.001711 314879.000000 0 0 1
-31.226174 25.234822 31.336633 50.929901 -0.679679 0.908043 0.002175 -0.003828 122526.000000 0 0 1
-31.859904 24.070222 31.787563 51.038008 -0.647013 0.898453 -0.002360 -0.009387 324756.000000 0 0 1
-30.988214 23.372722 32.895703 50.879080 -0.646213 0.867747 0.000837 -0.016525 -1408880.000000 0 0 1
-29.762744 23.001822 32.401083 49.646097 -0.657959 0.859731 0.003668 -0.006262 -1427990.000000 0 0 1
-29.131284 22.204922 33.365241 49.547246 -0.651286 0.831995 0.000624 -0.009265 191785.000000 0 0 1
-28.215254 23.074122 34.299808 50.049900 -0.685494 0.815764 -0.003293 -0.003758 -485844.000000 0 0 1
-28.985684 23.592222 -34.050597 50.558936 -0.683175 2.309707 -0.003479 -0.003448 209702.000000 0 0 1
-28.878324 22.949622 -32.756517 49.331858 -0.671501 2.296956 -0.008960 0.006719 -122978.000000 0 0 1
-27.599254 23.322722 -31.968047 48.245458 -0.701613 2.295098 -0.004985 0.000060 -77267.100000 0 0 1
-27.488904 24.699822 -31.631077 48.644076 -0.732007 2.278717 -0.003635 -0.001857 183920.000000 0 0 1
-26.707884 24.847622 -30.432067 47.506064 -0.749331 2.266067 -0.005381 0.000382 -2070.980000 0 0 1
-27.077554 26.097222 -29.693927 47.916472 -0.766964 2.239159 -0.009817 -0.001401 -336621.000000 0 0 1
-26.870354 27.334822 -30.333937 48.881041 -0.793967 2.240261 -0.004020 -0.000398 245783.000000 0 0 1
-27.942634 27.690822 -31.191967 50.204693 -0.780872 2.241192 -0.007963 0.003074 -23088.400000 0 0 1
-27.633944 29.074122 -31.872737 51.232907 -0.810789 2.242237 -0.005508 0.002032 -141662.000000 0 0 1
-27.596954 30.128522 -30.909187 51.231802 -0.829225 2.218454 -0.001468 -0.001552 -63086.000000 0 0 1
-27.077934 31.272222 -31.472797 51.977912 -0.857156 2.221194 -0.006423 -0.001929 -383137.000000 0 0 1
-27.427214 32.593822 -30.784227 52.557378 -0.871266 2.196572 -0.005997 0.002842 -4059.000000 0 0 1
-26.619594 32.790722 -29.656447 51.607549 -0.888900 2.182977 -0.007476 0.003057 148499.000000 0 0 1
-27.105624 33.924622 -29.003107 52.218532 -0.896668 2.159662 -0.008439 0.006562 -249711.000000 0 0 1
-26.555024 34.148822 -27.520297 51.270636 -0.909848 2.137395 -0.007153 0.007132 1501770.000000 0 0 1
-25.186994 34.656722 -27.487257 50.902086 -0.942338 2.141236 0.000796 0.005348 1192600.000000 0 0 1
-24.970754 -33.460189 -27.660217 50.082037 0.929679 2.155915 0.001921 0.011202 -345962.000000 0 0 1
-25.481544 -32.530489 -26.503777 49.091670 0.906314 2.141095 0.001983 0.011567 -645078.000000 0 0 1
-26.863974 -32.396589 -26.414697 49.688513 0.878489 2.131292 -0.001285 0.008211 -774402.000000 0 0 1
-27.216284 -31.399289 -25.465017 48.735086 0.856641 2.120599 -0.005179 0.007510 -636238.000000 0 0 1
-28.730154 -31.305489 -25.394947 49.501098 0.828269 2.109493 -0.008251 0.004296 -633946.000000 0 0 1
-29.206604 -30.535989 -26.480517 49.866724 0.807646 2.130607 -0.005169 0.001746 352371.000000 0 0 1
-30.625544 -30.397789 -26.455397 50.614598 0.781666 2.120792 -0.007589 0.002961 189562.000000 0 0 1
-31.151444 -29.607489 -27.644387 51.100176 0.759992 2.142403 -0.004548 0.000931 134533.000000 0 0 1
-32.561924 -29.730189 -27.776377 52.112284 0.739970 2.132951 -0.002808 0.001574 191798.000000 0 0 1
-32.982584 -29.076489 -28.971597 52.655926 0.722540 2.153407 -0.001959 0.000822 822052.000000 0 0 1
-34.551401 -29.131889 -29.134087 53.770450 0.700502 2.143401 0.000671 0.002374 994884.000000 0 0 1
34.435281 -28.186989 -28.210777 52.689116 -0.685950 2.135801 0.001289 0.003781 -316237.000000 0 0 1
33.045065 -28.118189 -28.452087 51.885741 -0.705019 2.151199 -0.002044 0.002752 13993.100000 0 0 1
32.214275 -27.454689 -27.342137 50.389601 -0.705800 2.144343 -0.007356 0.003099 -141888.000000 0 0 1
32.004575 -28.417889 -26.291197 50.230432 -0.726108 2.121646 -0.004109 0.003049 328677.000000 0 0 1
31.172575 -27.921889 -25.250717 48.876989 -0.730445 2.113692 -0.003366 0.009113 -12582.300000 0 0 1
31.048525 -28.846389 -24.024207 48.716400 -0.748648 2.086497 -0.001817 0.008269 4867.370000 0 0 1
30.323145 -30.072789 -24.223107 49.098113 -0.781253 2.086746 0.002729 0.001261 116774.000000 0 0 1
29.890355 -30.728789 -23.046207 48.670519 -0.799228 2.064073 0.003411 0.005131 -409646.000000 0 0 1
30.863385 -30.982389 -21.864307 48.892790 -0.787322 2.034416 -0.000882 0.007736 -926852.000000 0 0 1
31.920115 -31.873189 -22.190907 50.271565 -0.784663 2.027978 0.000385 0.008853 716770.000000 0 0 1
32.972655 -31.853489 -21.207507 50.513356 -0.768136 2.004065 -0.005525 0.011886 1075980.000000 0 0 1
33.903066 -30.565089 -21.202207 50.330668 -0.733667 2.005629 -0.006977 0.008570 -702877.000000 0 0 1
33.276735 -29.371489 -20.759207 48.999695 -0.723143 2.008278 -0.007063 0.006612 -535616.000000 0 0 1
33.838987 -28.149589 -21.129907 48.825704 -0.693873 2.018351 -0.008704 0.005393 -404558.000000 0 0 1
33.022095 -26.906289 -20.689707 47.354737 -0.683698 2.022956 -0.009702 0.004399 580390.000000 0 0 1
31.821125 -26.853689 -21.464807 46.844878 -0.700939 2.046777 0.000195 0.005576 85317.900000 0 0 1
30.896485 -25.959189 -20.905007 45.447680 -0.698776 2.048769 0.008279 0.006768 92930.000000 0 0 1
29.593785 -25.767189 -21.727807 44.853514 -0.716387 2.076493 0.006093 0.005743 266923.000000 0 0 1
28.861335 -26.949789 -21.929807 45.168399 -0.751161 2.077745 0.007567 0.005408 -72249.300000 0 0 1
27.966375 -26.824789 -23.017107 45.071883 -0.764566 2.106767 -0.003828 0.007238 199277.000000 0 0 1
27.306715 -28.197989 -23.401707 45.699269 -0.801454 2.108402 -0.000589 0.006146 -10614.600000 0 0 1
26.715995 -28.929089 -22.342007 45.274738 -0.825149 2.086878 0.002115 0.006258 140637.000000 0 0 1
26.202915 -30.189189 -22.749207 45.994634 -0.855969 2.088177 0.003189 0.005769 -217666.000000 0 0 1
25.438655 -30.982089 -21.661907 45.565922 -0.883336 2.066212 0.004349 0.006788 -575129.000000 0 0 1
26.184515 -31.462689 -20.591107 45.820556 -0.876704 2.036874 0.009389 0.002404 -560202.000000 0 0 1
27.034635 -32.517089 -20.921207 47.179757 -0.877201 2.030225 0.006718 0.003316 -367516.000000 0 0 1
27.998755 -32.790189 -19.763607 47.431287 -0.864056 2.000585 0.002625 0.001767 -166225.000000 0 0 1
27.428295 -33.447989 -18.646307 47.103759 -0.883962 1.977796 0.002039 0.001256 -153335.000000 0 0 1
27.456155 -32.619589 -17.529707 46.099552 -0.871136 1.960871 0.008569 -0.001755 -125626.000000 0 0 1
26.741515 -33.305289 -16.368507 45.741436 -0.894277 1.936759 0.011246 -0.001687 337440.000000 0 0 1
25.380405 -33.665589 -16.604607 45.312800 -0.924805 1.945981 0.014684 -0.004885 222544.000000 0 0 1
24.862005 -34.293889 -15.487407 45.100442 -0.943508 1.921329 0.023928 -0.004064 -125326.000000 0 0 1
23.328975 -34.484089 -15.551507 44.443704 -0.976007 1.928276 0.019150 -0.004359 -169576.000000 0 0 1
22.555875 -33.441189 -15.060407 43.056898 -0.977394 1.928132 0.010382 -0.005192 -776711.000000 0 0 1
21.313075 -33.978089 -14.740207 42.732089 -1.010574 1.922976 0.009695 -0.010031 -609625.000000 0 0 1
-0.242254 -7.015678 -29.364607 30.192029 1.536280 2.906938 0.000149 -0.001624 91293.600000 0 0 1
-0.136954 -8.403578 -29.235067 30.419205 1.554501 2.861655 -0.010232 -0.001292 -143707.000000 0 0 1
-0.369254 -8.912478 -30.513357 31.790464 1.529389 2.857183 -0.015663 -0.001443 -284372.000000 0 0 1
-0.308254 -10.455578 -30.393247 32.142863 1.541323 2.810131 -0.013524 -0.001220 -465911.000000 0 0 1
0.984346 -10.928878 -30.156947 32.091288 -1.480970 2.792618 -0.016236 0.003020 -389823.000000 0 0 1
1.066846 -12.322378 -30.037397 32.484218 -1.484434 2.750982 -0.012505 0.001876 -829782.000000 0 0 1
2.436246 -12.798278 -29.630687 32.368331 -1.382690 2.727352 -0.009575 0.000630 -1214210.000000 0 0 1
3.436346 -12.785978 -30.631787 33.370587 -1.308242 2.733622 -0.004792 -0.001583 985563.000000 0 0 1
4.771846 -12.839278 -30.089317 33.060317 -1.214957 2.714404 -0.003566 0.003425 1163540.000000 0 0 1
5.317246 -14.176678 -29.523677 33.179795 -1.211964 2.667723 0.001650 -0.001926 -1676580.000000 0 0 1
4.811346 -14.543278 -28.306537 32.185650 -1.251301 2.645558 0.002391 -0.000511 -387646.000000 0 0 1
5.630546 -15.454378 -27.610347 32.138328 -1.221410 2.604324 0.010030 0.000814 -667532.000000 0 0 1
5.428946 -16.929278 -27.780307 32.982107 -1.260473 2.572303 0.009842 0.001935 -248965.000000 0 0 1
5.804046 -17.547378 -28.996627 34.386070 -1.251360 2.574128 0.017362 -0.001464 -9817.960000 0 0 1
5.487046 -18.909478 -29.031737 35.078737 -1.288378 2.545644 0.016374 -0.004512 -781825.000000 0 0 1
5.565946 -19.642278 -30.438257 36.650871 -1.294669 2.550787 0.009260 0.000524 543989.000000 0 0 1
6.914646 -19.679978 -30.917667 37.296327 -1.232915 2.548066 0.007966 0.001820 480432.000000 0 0 1
7.027046 -20.354778 -32.138967 38.686039 -1.238379 2.551275 0.007931 -0.000189 18690.800000 0 0 1
8.332546 -20.255478 -32.959487 39.573268 -1.180525 2.555074 0.002153 0.003012 -29890.300000 0 0 1
8.483746 -19.076578 -33.689397 39.634143 -1.152341 2.586800 0.001585 0.003603 -262419.000000 0 0 1
9.670546 -19.088078 -34.424755 40.533171 -1.101861 2.585451 0.002111 0.005371 -602167.000000 0 0 1
9.934146 -17.744378 34.258784 39.839860 -1.060424 0.535699 0.000216 0.004462 194765.000000 0 0 1
9.091046 -17.484878 33.123643 38.542753 -1.091326 0.536701 0.004001 0.007161 201256.000000 0 0 1
9.077746 -16.160878 32.802353 37.677232 -1.059006 0.514346 -0.000852 0.003941 -575167.000000 0 0 1
8.053846 -15.768178 31.782323 36.381533 -1.098573 0.508278 -0.000525 0.003061 -817091.000000 0 0 1
8.367446 -16.211178 30.495983 35.536199 -1.094310 0.539108 0.003099 0.004546 -54508.800000 0 0 1
7.470346 -15.656478 29.545863 34.262070 -1.125603 0.530905 0.002079 0.002021 -383397.000000 0 0 1
7.272746 -16.553078 28.320523 33.599840 -1.156827 0.568189 0.004893 0.003627 -596513.000000 0 0 1
6.568046 -17.746678 28.506663 34.215693 -1.216328 0.586025 0.009063 0.003459 -233664.000000 0 0 1
6.728446 -18.584978 27.391613 33.778305 -1.223439 0.625068 0.008335 -0.001299 -99731.600000 0 0 1
6.321546 -20.050978 27.718913 34.789967 -1.265387 0.648898 0.008085 -0.004770 -400552.000000 0 0 1
7.007846 -20.623678 28.818743 36.124313 -1.243241 0.647215 0.006525 -0.002806 343086.000000 0 0 1
6.463046 -21.832178 29.192763 37.022053 -1.282983 0.662392 0.005053 -0.003486 -437147.000000 0 0 1
7.014446 -22.217678 30.580443 38.444651 -1.264986 0.651062 0.004807 -0.002048 -30487.300000 0 0 1
6.530146 -21.486278 31.700363 38.848629 -1.275746 0.616345 0.006218 0.000645 139034.000000 0 0 1
6.599646 -20.080078 31.647903 38.057255 -1.253252 0.588838 0.004607 -0.001391 -234936.000000 0 0 1
6.372146 -19.357078 33.020713 38.802941 -1.252780 0.552939 0.001317 0.002233 133459.000000 0 0 1
5.027746 -19.421478 33.482575 39.032741 -1.317482 0.539808 0.007221 -0.004358 56876.700000 0 0 1
4.836646 -18.607178 34.635823 39.613892 -1.316490 0.506732 0.007712 -0.001284 692208.000000 0 0 1
3.323746 -18.410278 -34.441172 39.194132 -1.392183 2.643997 0.001085 0.000294 812918.000000 0 0 1
2.712246 -19.580978 -33.906537 39.248239 -1.433158 2.613758 0.002477 0.003982 181143.000000 0 0 1
2.127246 -19.366478 -32.626887 38.001308 -1.461393 2.603276 0.004386 -0.002569 -20547.700000 0 0 1
1.683846 -20.684678 -31.932737 38.083999 -1.489570 2.565287 -0.001244 0.006231 -149483.000000 0 0 1
0.506846 -21.207778 -32.583217 38.880494 -1.546902 2.564468 -0.002796 0.006377 1503180.000000 0 0 1
-0.501554 -21.731078 -31.669607 38.411656 1.547720 2.540077 -0.006876 0.005690 999865.000000 0 0 1
-1.047454 -20.828978 -30.512367 36.958734 1.520550 2.542024 -0.005770 0.005374 -1069850.000000 0 0 1
-1.569254 -19.687178 -31.105597 36.845702 1.491255 2.575890 -0.012119 0.006186 -145127.000000 0 0 1
-2.016854 -18.812578 -30.077237 35.533379 1.463997 2.580079 -0.006523 0.002897 -18220.800000 0 0 1
-1.748654 -17.386278 -30.501037 35.151867 1.470557 2.621339 -0.010831 0.003764 -362884.000000 0 0 1
-2.147654 -16.453578 -29.494207 33.841408 1.441002 2.629135 -0.012711 0.002183 -310452.000000 0 0 1
-1.850954 -15.130378 -29.955237 33.610573 1.449068 2.670878 -0.009623 0.001854 113846.000000 0 0 1
-2.820054 -13.974078 -29.560287 32.818259 1.371665 2.692236 -0.011315 0.000210 209160.000000 0 0 1
-2.865554 -13.709678 -28.173447 31.462832 1.364746 2.680241 -0.009717 -0.003145 93330.000000 0 0 1
-3.854754 -12.765178 -27.790327 30.823874 1.277529 2.694215 -0.004893 -0.003332 11005.500000 0 0 1
-3.861754 -12.662878 -26.214267 29.367489 1.274789 2.673940 -0.005473 -0.000025 -459010.000000 0 0 1
-4.303954 -13.811978 -25.486037 29.305850 1.268722 2.625303 -0.004230 -0.000115 325609.000000 0 0 1
-4.384854 -13.621478 -24.065007 27.998146 1.259364 2.605129 -0.000734 -0.001706 -135463.000000 0 0 1
-5.615854 -12.816278 -23.575507 27.415312 1.157814 2.605947 0.008152 0.002817 638777.000000 0 0 1
-6.887754 -13.479578 -23.675807 28.101317 1.098406 2.572733 0.011839 0.007410 545581.000000 0 0 1
-7.930954 -12.591178 -23.309607 27.654576 1.008694 2.573417 0.015834 0.004437 904142.000000 0 0 1
-9.356854 -13.247578 -23.415707 28.484108 0.955850 2.535820 0.017225 0.002354 786144.000000 0 0 1
-9.645854 -14.159378 -22.339407 28.152790 0.972776 2.487345 0.015033 0.001582 26661.200000 0 0 1
-10.865954 -14.859078 -22.591507 29.141677 0.939393 2.457876 0.009219 0.001144 548812.000000 0 0 1
-11.370254 -15.713078 -21.360007 28.851922 0.944395 2.404361 0.009311 -0.001625 -133156.000000 0 0 1
-10.584454 -16.849978 -21.102807 29.004843 1.009929 2.385557 0.017926 -0.002668 -611424.000000 0 0 1
-11.124754 -18.143578 -21.317407 30.122773 1.020763 2.357011 0.006637 -0.000991 -173975.000000 0 0 1
-11.430454 -18.705278 -22.723607 31.573803 1.022268 2.374164 0.006429 -0.004618 96579.600000 0 0 1
-12.609954 -18.140778 -23.232807 32.060289 0.963355 2.381337 0.001406 -0.005762 -665230.000000 0 0 1
-12.939154 -18.367478 -24.586107 33.305595 0.957083 2.401191 0.001910 -0.006151 276029.000000 0 0 1
-14.189854 -17.574278 -25.073177 33.747169 0.891546 2.408295 0.001581 -0.002654 -298835.000000 0 0 1
-15.360454 -18.125278 -24.534907 34.153052 0.867779 2.372269 -0.001961 -0.004921 -348651.000000 0 0 1
-16.573154 -17.779178 -25.165167 34.986487 0.820491 2.373565 -0.005821 -0.004461 172625.000000 0 0 1
-17.159354 -16.408478 -24.816907 34.344730 0.763033 2.378327 -0.009715 0.002119 -814178.000000 0 0 1
-17.840154 -16.267678 -23.579707 33.747756 0.739328 2.344381 -0.005447 0.000696 503233.000000 0 0 1
-18.549754 -15.025178 -23.446807 33.460456 0.680805 2.347219 -0.007618 0.003053 -259555.000000 0 0 1
-19.367754 -15.016678 -22.153407 33.036101 0.659525 2.305789 -0.005178 0.002194 -183595.000000 0 0 1
-18.581454 -14.606278 -21.055307 31.653432 0.666188 2.298534 -0.005635 0.006312 83141.600000 0 0 1
-19.144454 -14.896978 -19.803707 31.314803 0.661266 2.255453 -0.007834 0.007868 -447609.000000 0 0 1
-19.686954 -13.617378 -19.079307 30.610931 0.605131 2.243732 -0.002268 0.007550 97485.500000 0 0 1
-20.927854 -13.218378 -19.653307 31.606219 0.563343 2.241858 0.001166 0.006156 145249.000000 0 0 1
-21.431054 -12.167378 -18.902307 31.058532 0.516365 2.225095 0.002977 0.006001 326198.000000 0 0 1
-22.854754 -11.749978 -19.384907 32.189694 0.474876 2.217061 0.012700 0.003795 466028.000000 0 0 1
-22.865254 -11.041878 -20.634607 32.718954 0.449883 2.253203 0.007655 0.002736 702223.000000 0 0 1
-24.260354 -10.826678 -20.890007 33.796067 0.419748 2.237145 0.009179 -0.002844 736057.000000 0 0 1
-24.545854 -9.788778 -22.033807 34.406508 0.379468 2.265811 0.010362 -0.003249 -72233.700000 0 0 1
-24.326254 -10.264378 -23.365607 35.257279 0.399281 2.295238 0.004883 0.002310 543033.000000 0 0 1
-25.312694 -9.758278 -24.279907 36.407010 0.367952 2.300840 0.016748 -0.008947 176723.000000 0 0 1
-25.293154 -10.405978 -25.662827 37.504783 0.390308 2.324378 0.011894 -0.004957 -166019.000000 0 0 1
-24.237954 -10.130378 -26.569007 37.363286 0.395889 2.361857 0.010015 -0.005531 165787.000000 0 0 1
-23.614854 -11.354878 -26.968377 37.601702 0.448199 2.370589 0.005757 -0.006052 93511.900000 0 0 1
-22.409554 -11.313378 -27.909417 37.538197 0.467517 2.409076 0.005925 -0.005216 4846.810000 0 0 1
-22.924954 -10.996278 -29.200167 38.718489 0.447247 2.425179 0.015281 -0.001503 26529.500000 0 0 1
-22.020254 -11.271178 -30.229307 39.060748 0.473087 2.455781 0.008443 0.001043 53302.600000 0 0 1
-22.741054 -11.593678 -31.575157 40.602457 0.471467 2.461741 0.003383 0.003138 183380.000000 0 0 1
-23.484354 -10.542178 -32.135407 41.174468 0.421941 2.466212 0.006303 -0.001256 339902.000000 0 0 1
-22.678054 -9.584478 -32.830287 41.036376 0.399863 2.498140 0.007167 -0.000306 -113221.000000 0 0 1
-23.560554 -8.354178 -33.247107 41.596420 0.340752 2.496889 0.005252 -0.003388 345370.000000 0 0 1
-24.485254 -8.614978 -34.352077 43.055902 0.338316 2.494514 0.004314 -0.005919 1348850.000000 0 0 1
-25.702664 -9.299578 -34.149500 43.741256 0.347160 2.466607 0.001185 -0.004956 -265408.000000 0 0 1
-26.665864 -8.711578 -33.091627 43.382205 0.315763 2.438417 -0.000928 -0.000685 -778027.000000 0 0 1
-27.951344 -9.301178 -33.200237 44.385192 0.321237 2.415844 0.001813 -0.000299 695045.000000 0 0 1
-28.827064 -9.039078 -32.099057 44.080087 0.303852 2.386486 0.002300 0.002847 425366.000000 0 0 1
-30.309344 -9.431678 -32.223197 45.232149 0.301682 2.363703 0.004871 0.003658 35458.100000 0 0 1
-30.465084 -10.853578 -32.177807 45.621626 0.342243 2.353670 0.004070 0.003142 -704003.000000 0 0 1
-31.794834 -11.238978 -32.208297 46.632612 0.339776 2.333228 0.005841 -0.001029 -838340.000000 0 0 1
-31.901894 -12.806178 -32.107067 47.038206 0.381733 2.322076 0.004486 -0.001870 -355556.000000 0 0 1
-33.217414 -13.254078 -31.892387 47.918593 0.379653 2.299032 0.005137 -0.003200 -262709.000000 0 0 1
-33.307754 -14.658078 -31.925487 48.409735 0.414574 2.290930 0.005737 0.000111 294049.000000 0 0 1
-34.615114 -15.216978 -31.310197 49.092678 0.414176 2.262405 0.009780 -0.004043 223807.000000 0 0 1
-34.652724 -15.101078 -29.890727 48.190346 0.410969 2.239875 0.006769 -0.001413 138415.000000 0 0 1
34.251992 -16.240078 -29.289857 47.904434 -0.442743 2.228654 0.009136 0.001289 73189.400000 0 0 1
34.443925 -16.148078 -27.744617 47.084055 -0.438396 2.200935 0.002415 0.003623 731729.000000 0 0 1
-33.721834 -16.301478 -27.317307 46.358770 0.450288 2.200937 0.007504 0.000002 684098.000000 0 0 1
-33.652344 -16.025478 -25.944637 45.413879 0.444433 2.178877 0.004777 -0.000683 -507898.000000 0 0 1
-32.222134 -15.715278 -25.502487 43.995599 0.453773 2.189108 0.013243 0.004184 -758251.000000 0 0 1
-31.381454 -16.783278 -25.672267 43.880969 0.491110 2.195730 0.011249 0.006353 -381879.000000 0 0 1
-30.107234 -16.553478 -25.087187 42.542099 0.502703 2.201487 0.011269 0.018482 978956.000000 0 0 1
-28.981624 -17.590378 -25.499567 42.421503 0.545514 2.215673 0.008296 0.011072 469318.000000 0 0 1
-28.887114 -18.780878 -24.669807 42.376717 0.576479 2.192173 0.003542 0.004085 -119165.000000 0 0 1
-29.697634 -19.835578 -25.104587 43.653636 0.588868 2.183505 0.005519 0.000350 -517346.000000 0 0 1
-29.528244 -21.128478 -24.276207 43.676813 0.621076 2.160139 0.002798 -0.005124 145607.000000 0 0 1
-28.197554 -21.613678 -24.386307 43.092286 0.653983 2.172332 0.005449 -0.001479 275956.000000 0 0 1
-28.061624 -22.840778 -23.753107 43.282398 0.683190 2.151717 0.000987 -0.002222 -210344.000000 0 0 1
-26.676754 -23.609278 -23.923407 42.911265 0.724473 2.162178 0.005255 -0.009446 1149210.000000 0 0 1
-25.592594 -22.885078 -23.355507 41.523336 0.729605 2.168163 0.000272 -0.005661 20795.600000 0 0 1
-25.650134 -22.613878 -21.962207 40.640564 0.722572 2.141710 0.001829 -0.001290 -1112470.000000 0 0 1
-25.664914 -23.840178 -20.988707 40.835863 0.748555 2.110611 0.002343 -0.004796 -64730.800000 0 0 1
-25.405144 -23.496278 -19.633007 39.786322 0.746383 2.086861 -0.007369 -0.003271 45037.800000 0 0 1
-25.464534 -24.649778 -18.825707 40.130553 0.769142 2.059081 -0.006986 0.005122 -209031.000000 0 0 1
-25.284644 -24.485178 -17.286407 39.212971 0.769336 2.027324 -0.008972 0.000170 -125370.000000 0 0 1
-26.351354 -23.774478 -16.699407 39.223588 0.734035 2.010586 -0.003768 0.000049 -209186.000000 0 0 1
-25.964794 -22.658078 -15.906507 37.954921 0.717495 2.003239 -0.005689 0.000985 -773022.000000 0 0 1
-27.086234 -22.002278 -15.141607 38.039882 0.682199 1.980182 -0.002798 -0.002111 -1039450.000000 0 0 1
-28.046804 -21.422578 -15.953907 38.730831 0.652284 1.995354 -0.002053 -0.000652 -718611.000000 0 0 1
-29.187004 -21.256578 -15.137907 39.152006 0.629461 1.967787 -0.007432 -0.004649 15142.800000 0 0 1
-30.328524 -20.483778 -15.863307 39.887956 0.594022 1.979801 0.002636 -0.000840 330597.000000 0 0 1
-30.877894 -21.164078 -17.013807 41.119730 0.600868 1.997380 0.008015 -0.002081 -435041.000000 0 0 1
-31.875024 -20.398878 -17.612307 41.741164 0.569288 2.006381 -0.002462 0.003340 -222718.000000 0 0 1
-32.631394 -21.161678 -18.755807 43.178754 0.575325 2.020142 0.001146 0.006367 836028.000000 0 0 1
-33.695154 -22.071478 -18.389507 44.279652 0.579906 1.999073 0.000935 0.004377 269531.000000 0 0 1
-33.382454 -23.189578 -17.567707 44.280573 0.607136 1.978755 -0.000575 0.001152 -663576.000000 0 0 1
-34.306350 -24.393978 -17.683007 45.658302 0.618112 1.968487 -0.000232 0.004999 137242.000000 0 0 1
33.917488 -24.125178 -17.177207 45.027510 -0.618263 1.962196 -0.005888 0.004527 246926.000000 0 0 1
33.089255 -25.279098 -17.297007 45.090110 -0.652380 1.964498 -0.003481 0.004065 92146.100000 0 0 1
31.689735 -25.136238 -16.679307 43.752361 -0.670580 1.961913 -0.004967 0.003931 -55983.600000 0 0 1
30.728375 -24.519378 -17.532407 43.044375 -0.673483 1.990303 -0.002671 0.002206 394516.000000 0 0 1
29.470645 -25.138368 -17.197207 42.381605 -0.706231 1.988618 0.000965 0.007465 846268.000000 0 0 1
28.320355 -24.735578 -18.155207 41.755274 -0.717935 2.020613 -0.000691 0.007254 97939.700000 0 0 1
28.120095 -23.326678 -18.191207 40.814136 -0.692494 2.032762 -0.010365 0.003428 488474.000000 0 0 1
26.813495 -23.094178 -18.731307 40.039561 -0.711012 2.057619 0.000809 -0.002229 302738.000000 0 0 1
33.011815 29.481922 -18.355707 47.915505 0.728974 1.963930 0.001293 -0.003314 -404976.000000 0 0 1
32.322295 29.879622 -19.499507 48.143051 0.746148 1.987811 0.002885 -0.005171 -322795.000000 0 0 1
32.970405 29.414322 -20.615807 48.757168 0.728457 2.007358 -0.000038 -0.007498 83647.100000 0 0 1
32.053105 29.495222 -21.896507 48.752709 0.743863 2.036592 0.002733 -0.011419 593508.000000 0 0 1
30.923935 28.598922 -21.834007 47.443777 0.746357 2.049026 0.003075 -0.007853 694390.000000 0 0 1
30.173555 28.542722 -23.023607 47.489124 0.757630 2.076952 0.011616 -0.003747 151534.000000 0 0 1
29.034915 29.591222 -23.181307 47.497786 0.794887 2.080651 0.013000 -0.000646 -230900.000000 0 0 1
29.471325 30.945522 -23.220507 48.635134 0.809794 2.068539 0.015849 -0.000085 394265.000000 0 0 1
28.349055 31.844622 -23.178207 48.528117 0.843405 2.068745 0.011785 0.006975 50431.300000 0 0 1
28.711445 33.296522 -22.975807 49.607390 0.859207 2.052346 0.008316 0.001976 23956.200000 0 0 1
29.262275 33.756122 -21.759607 49.691418 0.856588 2.024052 0.007057 0.001470 63084.800000 0 0 1
30.662185 33.532622 -21.698807 50.353198 0.830083 2.016322 0.004728 0.001856 955.270000 0 0 1
31.183565 33.488522 -20.228407 50.030833 0.821024 1.987030 0.005162 -0.000145 -144180.000000 0 0 1
31.092665 34.702822 -19.517007 50.516861 0.840213 1.967463 0.008590 -0.000541 66673.100000 0 0 1
31.215285 34.426122 -18.132107 49.883115 0.834274 1.942810 0.000985 -0.003939 -463437.000000 0 0 1
31.106005 -33.830789 -17.145307 49.051681 -0.827334 1.927872 0.000579 -0.005920 583297.000000 0 0 1
32.112915 -32.754689 -17.272707 49.014849 -0.795291 1.930928 -0.000702 0.001562 770149.000000 0 0 1
33.246565 -33.166289 -16.522407 49.782796 -0.784189 1.909103 -0.003196 -0.001875 -973583.000000 0 0 1
34.342485 -32.151089 -16.554507 49.871340 -0.752454 1.909160 0.005297 0.000419 -473026.000000 0 0 1
-34.439217 -32.150189 -17.797407 50.363102 0.751036 1.931980 -0.000759 -0.000376 -352058.000000 0 0 1
-33.326714 -31.291989 -17.763107 49.044739 0.753920 1.941404 -0.001736 0.002607 -20286.000000 0 0 1
-32.186724 -31.919489 -18.587807 48.993322 0.781230 1.959938 -0.003642 -0.001613 -461735.000000 0 0 1
-31.596424 -33.128889 -17.973207 49.182248 0.809070 1.944903 -0.004599 -0.000564 865427.000000 0 0 1
-30.538954 -33.844489 -18.605107 49.236442 0.836695 1.958294 -0.002899 -0.003606 294429.000000 0 0 1
-29.254804 -33.118489 -18.975607 48.091076 0.847264 1.976403 -0.003827 -0.002389 -1534180.000000 0 0 1
-29.484464 -32.256789 -20.116407 48.109291 0.830270 2.002193 -0.010932 0.000015 362683.000000 0 0 1
-28.315374 -31.733189 -20.763507 47.327359 0.842254 2.024971 -0.009557 0.001225 1014820.000000 0 0 1
-27.379914 -32.816589 -21.457207 47.822588 0.875469 2.036088 -0.011037 0.008792 -50165.200000 0 0 1
-28.150524 -33.500689 -22.379907 49.148840 0.871962 2.043561 -0.012491 0.007231 90411.100000 0 0 1
-27.391984 -34.462789 -23.133007 49.730681 0.899217 2.054618 -0.010808 0.002378 111001.000000 0 0 1
-28.257524 34.454022 -24.258607 50.735070 -0.883888 2.069335 -0.015468 0.001732 -82933.500000 0 0 1
-29.314954 33.614322 -23.780307 50.544952 -0.853613 2.060629 -0.019321 -0.002782 287245.000000 0 0 1
-29.905404 32.780322 -24.785307 50.825133 -0.831228 2.080202 -0.011588 -0.004334 184216.000000 0 0 1
-30.728284 33.435922 -25.929797 52.292855 -0.827572 2.089618 -0.008257 -0.005757 -540088.000000 0 0 1
-30.024404 33.987222 -26.993027 52.775180 -0.847227 2.107693 -0.010901 -0.002666 -636161.000000 0 0 1
-30.901554 -34.638089 -27.680037 54.045238 0.842348 2.108499 -0.008272 -0.000625 -125045.000000 0 0 1
-30.321604 -33.768989 -28.789717 53.745624 0.839136 2.136093 -0.009977 -0.002087 -407645.000000 0 0 1
-30.060104 -34.492189 -29.979667 54.700104 0.853949 2.150855 -0.007121 0.002570 58064.700000 0 0 1
-31.187334 -34.701189 -30.817137 55.915278 0.838678 2.154526 -0.000597 0.003278 -44996.400000 0 0 1
-30.871154 34.225022 -32.199767 56.224597 -0.836874 2.180591 0.001647 0.005112 96157.900000 0 0 1
-30.275374 -34.267389 -33.074757 56.433960 0.847170 2.197007 0.002148 -0.009071 -53970.600000 0 0 1
-30.374414 -34.700189 -34.417113 57.543426 0.851775 2.211933 0.000089 -0.007560 -81124.100000 0 0 1
-29.210274 -34.420689 34.017126 56.526001 0.867101 0.925048 -0.008252 -0.005148 -74015.900000 0 0 1
-27.992704 34.373022 34.171059 55.971041 -0.887348 0.914088 0.000557 -0.004141 -303977.000000 0 0 1
-27.975194 32.984922 33.842988 54.917797 -0.867394 0.906827 0.004645 -0.005761 -869306.000000 0 0 1
-26.575114 32.403022 33.909344 53.907663 -0.883893 0.890496 0.002387 -0.000778 -918366.000000 0 0 1
-26.213704 31.921622 -34.255039 53.661494 -0.883268 2.263155 -0.001931 -0.000873 272351.000000 0 0 1
-24.830954 31.615922 -34.159006 52.753962 -0.905025 2.275116 -0.004524 -0.001842 -324837.000000 0 0 1
-24.465954 30.156022 -34.509721 51.950837 -0.889196 2.297322 -0.002347 0.000865 -420354.000000 0 0 1
-25.030654 29.226722 -33.640627 51.111904 -0.862581 2.289190 -0.003555 0.000885 -118962.000000 0 0 1
-24.814354 27.878822 -34.006947 50.492112 -0.843490 2.309744 -0.002218 -0.007375 -372952.000000 0 0 1
-24.582954 26.854922 -32.861567 49.044786 -0.829539 2.305048 -0.000006 -0.004843 995591.000000 0 0 1
-23.359254 27.027622 -32.078167 48.012039 -0.858074 2.302486 0.004764 -0.008785 1121490.000000 0 0 1
-23.406854 28.207022 -31.233497 48.156498 -0.878133 2.276518 0.003082 -0.005505 802860.000000 0 0 1
-22.095654 28.318222 -30.360797 47.031028 -0.908207 2.272537 0.005659 -0.004356 40869.400000 0 0 1
-20.902554 28.580622 -31.008627 47.067013 -0.939336 2.290044 0.006371 -0.006552 -754435.000000 0 0 1
-19.785654 28.519922 -30.154437 45.979867 -0.964278 2.286062 0.007062 -0.005724 109327.000000 0 0 1
-19.509554 29.825322 -29.329767 46.156341 -0.991525 2.259380 0.006328 0.000720 -481312.000000 0 0 1
-18.945454 30.937522 -30.148407 47.169767 -1.021325 2.264185 0.005940 0.001714 559214.000000 0 0 1
-18.630154 32.057622 -29.289787 47.251089 -1.044356 2.239380 0.003026 0.003861 -208731.000000 0 0 1
-18.227154 33.246322 -30.206887 48.476831 -1.069301 2.243522 -0.003887 0.005031 1137010.000000 0 0 1
-16.996854 33.001622 -30.946427 48.328888 -1.095196 2.265724 0.000929 0.004135 767891.000000 0 0 1
-16.868954 33.971122 -31.952267 49.593811 -1.109899 2.270877 -0.000865 0.003991 200165.000000 0 0 1
-15.457354 34.101222 -32.583767 49.633910 -1.145219 2.286942 -0.000070 0.004908 488781.000000 0 0 1
-14.554554 -34.677389 -31.665647 49.163702 1.173412 2.270624 -0.000739 -0.000078 1802140.000000 0 0 1
-13.134254 -34.707989 -31.978957 48.987823 1.209029 2.282063 0.011100 0.003111 1799750.000000 0 0 1
-12.421954 33.403922 -31.756837 47.734931 -1.214772 2.298658 0.009564 -0.000464 -814739.000000 0 0 1
-12.318554 32.992622 -30.419707 46.536206 -1.213453 2.283231 0.007245 -0.003338 5189.550000 0 0 1
-12.191954 31.593922 -30.254407 45.410889 -1.202508 2.299947 0.005551 0.001369 -529813.000000 0 0 1
-12.109254 31.147422 -28.782707 44.104877 -1.200006 2.281803 -0.001810 0.001118 -185056.000000 0 0 1
-10.800354 31.238222 -28.258807 43.486025 -1.237920 2.278166 -0.003796 0.000360 10805.000000 0 0 1
-10.832654 30.818722 -26.938237 42.341571 -1.232789 2.260375 -0.006013 -0.001574 23320.000000 0 0 1
-9.552754 31.263322 -26.201207 41.894554 -1.274248 2.246451 -0.001462 0.001958 681191.000000 0 0 1
-8.460054 30.400122 -26.539557 41.232124 -1.299374 2.270070 0.002322 0.007207 234359.000000 0 0 1
-7.192554 31.032722 -26.502467 41.438429 -1.343044 2.264725 0.004248 -0.002070 63300.100000 0 0 1
-6.085554 30.028622 -26.817647 40.717789 -1.370846 2.289783 0.000092 -0.001559 -497854.000000 0 0 1
-5.945754 28.964722 -25.906537 39.312285 -1.368333 2.290276 -0.003688 -0.006789 -446194.000000 0 0 1
-4.796554 28.229322 -26.206517 38.816016 -1.402490 2.311960 -0.007257 -0.006582 -63890.000000 0 0 1
-4.408154 27.040522 -25.221717 37.239182 -1.409198 2.314869 -0.004596 -0.006535 -86643.200000 0 0 1
-5.093354 25.878022 -25.575577 36.738596 -1.376459 2.340817 0.003935 -0.005535 56812.300000 0 0 1
-4.520854 24.827322 -24.837407 35.408062 -1.390678 2.348243 0.006357 -0.005391 -450502.000000 0 0 1
-5.353654 23.589822 -24.748207 34.606576 -1.347629 2.367607 0.006895 -0.005405 -525292.000000 0 0 1
-5.367054 22.881222 -25.991107 35.041308 -1.340400 2.406439 -0.002987 -0.007772 652803.000000 0 0 1
-6.212254 21.700622 -25.807817 34.286331 -1.291982 2.422972 -0.000198 -0.008837 260470.000000 0 0 1
-6.276054 20.943922 -27.158597 34.865830 -1.279652 2.463780 -0.002380 -0.001801 385492.000000 0 0 1
-5.171054 20.082322 -27.448277 34.401270 -1.318778 2.494576 -0.002785 -0.001702 138144.000000 0 0 1
-5.173754 18.930022 -26.611647 33.064985 -1.304002 2.506183 -0.000232 0.001285 -108626.000000 0 0 1
-3.890854 18.148922 -26.958707 32.730628 -1.359608 2.538621 -0.000229 -0.001531 103152.000000 0 0 1
-3.851954 17.793522 -28.332807 33.677811 -1.357605 2.570462 -0.006245 -0.003510 347259.000000 0 0 1
-2.741254 16.930722 -28.630997 33.375108 -1.410279 2.601877 -0.004316 0.004804 277338.000000 0 0 1
-2.608654 16.774022 -30.150377 34.600840 -1.416515 2.628798 -0.002269 0.004810 -319912.000000 0 0 1
-1.981054 17.826422 -30.791717 35.634755 -1.460120 2.614141 0.001866 0.002683 -72266.400000 0 0 1
-2.011454 17.688522 -32.202297 36.795621 -1.457567 2.636576 -0.000817 0.005528 -319373.000000 0 0 1
-1.169254 18.773422 -32.859657 37.862456 -1.508594 2.621693 0.004316 0.003523 -445089.000000 0 0 1
0.149246 18.783022 -32.372927 37.427672 1.562851 2.615840 0.009610 0.000974 7598.200000 0 0 1
0.917146 19.981522 -32.723947 38.353085 1.524929 2.592941 0.010179 0.005159 492673.000000 0 0 1
0.592246 21.387322 -32.156587 38.624013 1.543112 2.554499 0.003981 -0.002496 -270545.000000 0 0 1
1.139846 21.564522 -30.868907 37.672500 1.517988 2.531163 0.007697 -0.009055 -152268.000000 0 0 1
0.873546 22.844322 -30.324937 37.976676 1.532576 2.495620 0.005227 -0.007537 -219439.000000 0 0 1
1.708246 22.922722 -29.028997 37.027719 1.496412 2.471848 0.004820 -0.007369 -475853.000000 0 0 1
3.055746 22.996922 -29.366637 37.424529 1.438694 2.472991 -0.003796 -0.006477 -864292.000000 0 0 1
3.947746 23.176922 -28.288357 36.782952 1.402085 2.448168 -0.005835 -0.004734 49154.100000 0 0 1
4.351946 24.646022 -27.914767 37.491333 1.396020 2.410681 -0.007188 -0.005179 -17214.000000 0 0 1
5.326346 25.126622 -28.834327 38.615224 1.361908 2.413897 -0.003308 -0.007265 363069.000000 0 0 1
5.563246 26.523122 -28.733067 39.497023 1.364043 2.385430 -0.007315 -0.004281 82894.500000 0 0 1
6.410746 27.043322 -29.946287 40.856077 1.338038 2.393474 0.004215 -0.003470 -1004970.000000 0 0 1
7.737346 26.690522 -29.899037 40.819149 1.288639 2.392748 0.016356 -0.001183 -1216190.000000 0 0 1
8.426646 27.497022 -30.852967 42.178195 1.273427 2.391302 0.020348 -0.001701 571702.000000 0 0 1
9.913746 27.704222 -30.411417 42.316197 1.227152 2.372685 0.019298 -0.001676 683617.000000 0 0 1
10.631846 28.683322 -31.166937 43.670895 1.215833 2.365531 0.026039 -0.000664 125729.000000 0 0 1
11.871246 29.059622 -30.600027 43.837766 1.182972 2.343437 0.017368 -0.003872 162860.000000 0 0 1
12.667446 30.055622 -31.482687 45.331713 1.171922 2.338515 0.019601 -0.000475 -416988.000000 0 0 1
12.058546 31.303722 -31.641837 46.114395 1.203104 2.326993 0.019843 0.000661 -142136.000000 0 0 1
12.767346 32.198622 -32.469907 47.476850 1.193295 2.323905 0.025536 -0.000438 -715732.000000 0 0 1
12.228346 33.622822 -32.522427 48.350128 1.221976 2.308573 0.018978 -0.003621 -478747.000000 0 0 1
11.055446 33.671522 -33.263507 48.605094 1.253553 2.324525 0.023142 -0.002082 -592551.000000 0 0 1
10.295546 -34.640389 -33.103857 49.008369 -1.281899 2.312403 0.012024 0.002690 -229698.000000 0 0 1
9.289646 -34.475089 -34.251040 49.476894 -1.307588 2.335417 0.011947 0.003232 -45557.400000 0 0 1
9.793846 -33.791389 34.073355 48.977249 -1.288693 0.801406 0.008256 0.002233 -190265.000000 0 0 1
8.743446 -33.643989 33.175353 48.051742 -1.316539 0.808742 0.010358 0.007123 -206701.000000 0 0 1
8.994246 -32.555589 32.090283 46.589152 -1.301247 0.810973 0.012388 0.009430 -29761.500000 0 0 1
8.966946 -31.202089 32.528133 45.957110 -1.290955 0.784427 0.002854 0.010912 34098.600000 0 0 1
9.193746 -30.325489 31.442343 44.640578 -1.276435 0.789297 0.008248 0.007847 -670838.000000 0 0 1
8.518946 -28.937689 31.534093 43.638989 -1.284495 0.763222 0.005825 -0.001340 -40502.300000 0 0 1
7.114646 -28.952589 31.421683 43.315041 -1.329836 0.759149 0.004364 0.007069 -8554.500000 0 0 1
6.443846 -29.252089 32.656593 44.313214 -1.353973 0.742250 0.005521 0.008396 587985.000000 0 0 1
4.870446 -29.376789 32.560643 44.123831 -1.406498 0.740787 0.002411 0.007076 968677.000000 0 0 1
4.295046 -30.552689 31.999843 44.451144 -1.431133 0.767155 -0.000897 0.008154 -154988.000000 0 0 1
4.758046 -31.049989 30.754903 43.961402 -1.418741 0.795975 0.004075 0.006761 -692575.000000 0 0 1
4.624346 -30.250489 29.469093 42.484163 -1.419102 0.804254 0.000692 0.003412 -383169.000000 0 0 1
3.257946 -30.089889 29.204893 42.058785 -1.462943 0.803235 -0.004139 0.003370 -158350.000000 0 0 1
2.932046 -29.201489 28.129983 40.652427 -1.470724 0.806591 -0.003383 -0.000373 1139100.000000 0 0 1
1.370246 -29.211589 27.831943 40.370925 -1.523923 0.810128 -0.003153 0.001177 1271060.000000 0 0 1
0.810046 -30.328989 27.231893 40.768612 -1.544094 0.839329 -0.008993 0.002698 52568.000000 0 0 1
0.544346 -31.466089 28.053963 42.159648 -1.553499 0.842737 -0.004725 0.003964 -645001.000000 0 0 1
0.637546 -32.857589 27.377783 42.773481 -1.551395 0.876214 -0.006275 0.005571 291691.000000 0 0 1
1.897346 -33.364489 26.949603 42.930993 -1.513990 0.892147 -0.009549 0.006302 232965.000000 0 0 1
2.467546 -32.751589 25.818123 41.777157 -1.495597 0.904605 -0.007277 0.004398 104308.000000 0 0 1
4.017946 -32.863289 25.740833 41.937217 -1.449138 0.909938 -0.003983 0.012632 269761.000000 0 0 1
4.526746 -32.278589 24.560043 40.811695 -1.431465 0.925057 -0.002605 0.005587 97039.600000 0 0 1
5.917446 -32.525089 24.535303 41.168904 -1.390830 0.932327 -0.000257 0.000675 -161735.000000 0 0 1
6.697346 -31.881889 23.397633 40.109332 -1.363740 0.947954 -0.001704 0.009080 648640.000000 0 0 1
8.004346 -31.410189 23.739233 40.177366 -1.321274 0.938671 0.006378 0.003297 948129.000000 0 0 1
8.917146 -31.229689 22.683033 39.614757 -1.292663 0.961134 0.001017 0.008110 1419240.000000 0 0 1
10.254746 -30.404889 22.950533 39.450527 -1.245504 0.949912 0.000709 0.011546 1696820.000000 0 0 1
11.342146 -31.083289 23.620233 40.653789 -1.220914 0.950828 -0.001163 0.000654 456923.000000 0 0 1
12.414846 -30.158589 23.608533 40.262038 -1.180286 0.944224 0.001069 0.002599 -309.446000 0 0 1
13.639746 -30.696689 24.414803 41.526040 -1.152660 0.942287 0.008726 0.002426 -101404.000000 0 0 1
13.578046 -30.632089 25.844213 42.315618 -1.153560 0.913790 0.012958 0.000557 87140.300000 0 0 1
13.947746 -29.395889 26.435423 41.922423 -1.127773 0.888497 0.006424 0.000761 -383643.000000 0 0 1
-10.366754 -14.024278 26.119993 31.407070 0.934243 0.588706 0.008366 -0.014789 341172.000000 0 0 1
-9.044154 -14.333978 25.688433 30.775888 1.007923 0.583220 -0.002134 -0.010242 312397.000000 0 0 1
-8.200154 -14.441478 26.841553 31.563710 1.054375 0.554065 0.006174 -0.009393 -128214.000000 0 0 1
-6.689154 -14.467778 26.594783 31.005546 1.137721 0.539934 -0.002956 -0.005455 -472475.000000 0 0 1
-6.237154 -15.520778 25.778813 30.730178 1.188689 0.575581 -0.005256 -0.005068 -112829.000000 0 0 1
-6.335754 -15.251878 24.428183 29.487246 1.177078 0.594494 -0.005565 -0.004029 -133364.000000 0 0 1
-5.702554 -16.409178 23.511233 29.232830 1.236331 0.636342 -0.003615 -0.001847 322354.000000 0 0 1
-6.461954 -17.588178 23.358733 29.945472 1.218702 0.676063 -0.000435 -0.007048 -330510.000000 0 0 1
-6.669454 -18.335978 24.587983 31.388830 1.221937 0.670783 0.001685 -0.005198 -640424.000000 0 0 1
-7.280654 -19.692778 24.371073 32.167727 1.216670 0.711130 0.005655 -0.006370 -408454.000000 0 0 1
-8.672054 -19.595378 24.151733 32.287607 1.154150 0.725725 -0.002937 -0.004390 -568911.000000 0 0 1
-9.202954 -20.882278 23.947433 33.079351 1.155698 0.761301 -0.003054 -0.003079 -327490.000000 0 0 1
-10.727654 -20.818178 24.092333 33.599399 1.094982 0.771241 0.000895 -0.004780 -491771.000000 0 0 1
-11.122754 -20.808278 25.432053 34.691345 1.079904 0.747935 -0.003352 -0.004478 -399446.000000 0 0 1
-12.522454 -20.736978 25.484803 35.161191 1.027536 0.760053 0.000049 0.000052 -429595.000000 0 0 1
-12.946754 -20.780778 26.970433 36.426137 1.013625 0.737110 -0.000775 -0.000339 -433138.000000 0 0 1
-12.828354 -21.980178 27.653243 37.581867 1.042498 0.743929 -0.002081 -0.000349 -59926.500000 0 0 1
-11.982754 -21.936178 28.772653 38.113618 1.070833 0.715267 -0.007674 0.002077 -40426.000000 0 0 1
-11.468954 -23.229578 29.464303 39.233855 1.112184 0.721234 -0.001678 0.000168 83258.200000 0 0 1
-12.447854 -23.923178 30.215213 40.499712 1.091020 0.728671 -0.004566 0.004091 -249810.000000 0 0 1
-11.946554 -25.108968 30.760383 41.465427 1.126705 0.734998 0.001415 0.006879 -82621.600000 0 0 1
-12.939054 -25.811058 31.708653 42.884362 1.106110 0.738619 0.001137 -0.005174 278496.000000 0 0 1
-12.925154 -25.171238 32.915243 43.405807 1.096416 0.710073 0.012058 -0.006920 -901039.000000 0 0 1
-13.987354 -25.547878 33.701473 44.543568 1.069878 0.712705 -0.000132 -0.008006 -718023.000000 0 0 1
-13.897254 -25.068678 -34.268225 44.675313 1.064606 2.445028 0.000496 -0.008071 -72710.700000 0 0 1
-13.820954 -23.720978 -34.015937 43.712556 1.043234 2.462548 -0.000417 -0.006205 93358.500000 0 0 1
-15.043954 -23.030778 -34.233183 43.916377 0.992167 2.464677 -0.002804 -0.004006 -261630.000000 0 0 1
-15.081354 -21.530278 -33.869287 42.873404 0.959754 2.481579 -0.005823 0.000585 -52378.300000 0 0 1
-15.102654 -21.333278 -32.436117 41.656940 0.954762 2.463305 -0.000485 0.006288 171286.000000 0 0 1
-15.491454 -19.960878 -32.271267 40.986053 0.910805 2.477331 0.004090 0.005944 -49825.900000 0 0 1
-15.438654 -19.416278 -30.821707 39.564145 0.899026 2.463916 -0.004108 0.004050 -428103.000000 0 0 1
-16.524454 -19.844978 -30.064317 39.632612 0.876446 2.431920 0.001584 0.004240 -447971.000000 0 0 1
-16.499154 -19.575978 -28.659307 38.429115 0.870482 2.412487 -0.005163 0.002821 -84137.700000 0 0 1
-15.638154 -20.623778 -27.894967 38.052875 0.922031 2.393604 -0.007431 -0.000739 181449.000000 0 0 1
-14.253954 -20.470878 -28.132607 37.598878 0.962555 2.416186 -0.011077 0.002695 -45925.200000 0 0 1
-13.511654 -21.458178 -27.416877 37.345728 1.008843 2.395191 -0.009561 -0.002886 593237.000000 0 0 1
-11.975854 -21.358278 -27.591997 36.890587 1.059766 2.415752 0.003279 -0.002993 -331018.000000 0 0 1
-11.327454 -20.436378 -26.750377 35.518157 1.064674 2.423628 0.009597 0.001268 653912.000000 0 0 1
-9.894254 -20.470078 -26.811477 35.153601 1.120556 2.438266 0.012644 0.002472 1070770.000000 0 0 1
-9.204854 -21.649978 -26.069097 35.114794 1.168784 2.407437 0.006956 -0.001817 -728019.000000 0 0 1
-9.411254 -22.920778 -26.575497 36.334430 1.181186 2.391189 0.002708 -0.002086 25884.400000 0 0 1
-9.088554 -23.869078 -25.580227 36.148067 1.206979 2.356965 0.008055 -0.002735 -270310.000000 0 0 1
-9.169454 -25.313348 -26.115467 37.508161 1.223261 2.340971 0.006518 -0.004273 -461286.000000 0 0 1
-8.122854 -25.647878 -27.010777 38.123175 1.264084 2.358186 0.000982 -0.005852 274338.000000 0 0 1
-8.500154 -26.786568 -27.770567 39.509205 1.263518 2.350247 0.002161 -0.002216 39359.800000 0 0 1
-8.487654 -28.211648 -27.048827 39.994705 1.278554 2.313538 0.004712 0.005103 -75737.600000 0 0 1
-9.500554 -28.309748 -26.063387 39.635874 1.247013 2.288386 0.002652 0.001840 -137378.000000 0 0 1
-9.569654 -29.566438 -25.432977 40.157053 1.257771 2.256655 0.003207 0.004880 -345702.000000 0 0 1
-10.602154 -29.690228 -24.307907 39.809417 1.227817 2.227623 0.002226 0.006107 -264336.000000 0 0 1
-10.379754 -28.793588 -23.226907 38.422640 1.224808 2.219948 -0.000234 0.003675 -256387.000000 0 0 1
-10.917854 -27.520688 -23.399107 37.737330 1.193126 2.239605 0.004066 0.002085 -492248.000000 0 0 1
-10.617954 -26.489718 -22.261707 36.194333 1.189572 2.233259 0.003468 -0.002711 -61221.800000 0 0 1
-11.008854 -26.895718 -20.953607 35.827757 1.182285 2.195483 0.011112 -0.001916 -92125.500000 0 0 1
-10.988554 -25.825518 -19.999207 34.462647 1.168509 2.189912 0.006490 0.002382 -562680.000000 0 0 1
-11.722054 -26.180418 -18.687607 34.235180 1.149822 2.148211 0.006452 0.002573 282417.000000 0 0 1
-13.120754 -26.357678 -18.867407 34.969422 1.108913 2.140687 0.010272 0.000313 32867.600000 0 0 1
-13.689954 -26.519008 -17.607507 34.651074 1.094248 2.103817 0.011546 -0.001837 -14057.300000 0 0 1
-15.211854 -26.798788 -17.530107 35.452506 1.054517 2.088018 0.017878 -0.001791 -552178.000000 0 0 1
-16.005154 -25.707768 -17.936807 35.196354 1.013939 2.105541 0.022922 0.000032 -356975.000000 0 0 1
-17.366754 -25.861958 -17.640607 35.799945 0.979443 2.086049 0.015522 0.000601 -186816.000000 0 0 1
-18.163354 -26.680968 -18.700907 37.302888 0.973100 2.095927 0.008581 -0.001499 -1240640.000000 0 0 1
-17.937454 -28.057508 -18.722307 38.203414 1.001973 2.082965 0.012720 0.001914 -90040.700000 0 0 1
-18.294854 -28.822608 -17.620807 38.417929 1.005224 2.047284 0.016784 0.001164 -109354.000000 0 0 1
-19.787854 -29.254818 -17.578407 39.451286 0.976088 2.032610 0.008591 0.004239 348076.000000 0 0 1
-20.162054 -30.309348 -18.454207 40.813267 0.983803 2.039984 0.010263 0.001048 -167202.000000 0 0 1
-21.334354 -30.994438 -18.081407 41.746223 0.967947 2.018755 0.001035 0.001479 10095.100000 0 0 1
-21.973354 -31.922898 -19.158007 43.231111 0.967948 2.029909 0.003581 0.002595 -357875.000000 0 0 1
-21.231954 -33.038698 -19.436007 43.819058 0.999613 2.030354 0.005140 -0.003117 -172703.000000 0 0 1
-21.937254 -33.874118 -20.333607 45.190205 0.996102 2.037512 0.001045 0.001520 178262.000000 0 0 1
-21.234754 34.240092 -20.418307 45.168639 -1.015676 2.039854 0.000734 -0.001704 154107.000000 0 0 1
-21.558654 33.444453 -19.308907 44.228281 -0.998219 2.022583 0.007689 -0.007352 -213562.000000 0 0 1
-20.758154 32.328983 -19.266207 42.979656 -1.000001 2.035618 0.006063 -0.007953 -481224.000000 0 0 1
-21.593354 31.131083 -18.769007 42.281117 -0.964360 2.030754 0.005808 -0.010040 232330.000000 0 0 1
-22.164154 31.195273 -17.460907 42.062787 -0.953060 1.998866 0.001441 -0.012087 -210824.000000 0 0 1
-22.770454 29.987623 -17.035407 41.327427 -0.921352 1.995670 -0.001806 -0.010030 -425491.000000 0 0 1
-21.914354 28.767193 -16.701607 39.833830 -0.919797 2.003451 0.001422 -0.010161 -268863.000000 0 0 1
-21.242354 28.232453 -17.838307 39.579214 -0.925755 2.038344 -0.007462 -0.008340 -178813.000000 0 0 1
-20.837054 26.937773 -17.623407 38.345937 -0.912408 2.048330 -0.006589 -0.007337 117714.000000 0 0 1
-20.255154 26.378343 -18.981207 38.293269 -0.915956 2.089414 -0.004738 -0.010596 -779203.000000 0 0 1
-20.123554 24.986523 -18.882107 37.226573 -0.892786 2.102754 -0.000205 -0.007531 28226.400000 0 0 1
-19.553054 24.285633 -20.000807 37.042491 -0.892936 2.141165 -0.001658 -0.004379 1533370.000000 0 0 1
-18.008954 24.634613 -20.224407 36.608923 -0.939539 2.156091 -0.004834 -0.006210 684272.000000 0 0 1
-17.217954 24.524913 -19.070307 35.519092 -0.958689 2.137558 -0.002868 -0.004217 125677.000000 0 0 1
-16.042454 25.311783 -19.137107 35.556653 -1.005898 2.139114 -0.000425 -0.000981 176224.000000 0 0 1
-16.166054 26.460743 -18.141507 35.925290 -1.022368 2.100154 -0.009642 -0.003913 137232.000000 0 0 1
-17.157354 27.417543 -18.499007 37.260028 -1.011636 2.090340 -0.008354 -0.005824 78237.800000 0 0 1
-16.858654 28.626633 -17.852707 37.714950 -1.038567 2.063896 -0.014442 -0.009457 131804.000000 0 0 1
-17.845254 29.779893 -18.208507 39.202613 -1.030937 2.053834 -0.007817 -0.009264 234038.000000 0 0 1
-17.561254 30.220723 -19.533307 40.040477 -1.044390 2.080409 -0.015553 -0.007997 335524.000000 0 0 1
-18.197254 29.451183 -20.564707 40.266852 -1.017334 2.106807 -0.009453 -0.007536 -291908.000000 0 0 1
-17.876854 29.908973 -21.967107 41.190804 -1.032063 2.133295 -0.008646 -0.007164 -254106.000000 0 0 1
-18.473854 31.059893 -22.392507 42.513817 -1.034223 2.125523 -0.005898 -0.005355 -299663.000000 0 0 1
-17.942654 31.426423 -23.667807 43.240305 -1.052017 2.149997 0.000938 -0.001402 295970.000000 0 0 1
-18.669054 32.631333 -24.349507 44.791025 -1.051129 2.145546 0.002254 0.004410 324735.000000 0 0 1
-18.251554 33.936491 -23.907607 45.347308 -1.077356 2.126112 0.002875 0.004272 146341.000000 0 0 1
-19.052454 -34.577801 -24.577907 46.504773 1.067184 2.127632 0.001710 0.007898 324198.000000 0 0 1
-18.327854 -33.182538 -24.512307 45.142489 1.066163 2.144800 0.007988 0.008225 165192.000000 0 0 1
-18.367354 -32.490308 -23.248207 43.971115 1.056269 2.127883 0.005093 0.005570 52268.900000 0 0 1
-17.639554 -33.128638 -22.204907 43.608697 1.081522 2.105034 0.002736 0.005698 -118055.000000 0 0 1
-17.532854 -32.300038 -20.969507 42.313280 1.073488 2.089296 0.006888 0.003590 140031.000000 0 0 1
-16.603354 -31.262978 -21.240407 41.281958 1.082590 2.111245 0.006932 0.005448 5518.260000 0 0 1
-16.271854 -30.575138 -20.064107 40.027250 1.081728 2.095852 0.012987 0.006664 693401.000000 0 0 1
-14.983154 -29.687128 -20.323807 38.972781 1.103394 2.119389 0.013900 0.002674 464509.000000 0 0 1
-13.788154 -30.392608 -20.279407 39.052249 1.144896 2.116815 0.015602 0.002543 -619642.000000 0 0 1
-12.688454 -29.505488 -20.401107 38.049650 1.164667 2.136690 0.013366 -0.000461 -743772.000000 0 0 1
-11.323954 -30.180158 -20.478507 38.189569 1.211840 2.136764 0.005742 0.000691 -552072.000000 0 0 1
-10.868754 -30.822558 -19.302807 37.957322 1.231786 2.104284 0.005394 0.001902 110891.000000 0 0 1
-10.395454 -29.933978 -18.299907 36.592282 1.236547 2.094514 0.004280 -0.003172 -378473.000000 0 0 1
-9.658954 -30.666158 -17.103807 36.417700 1.265662 2.059698 0.006043 -0.001061 430603.000000 0 0 1
-10.512554 -31.382038 -16.168107 36.834139 1.247559 2.025219 0.004835 -0.001058 430094.000000 0 0 1
-11.049954 -32.588598 -16.710507 38.253879 1.243888 2.022870 0.001185 -0.000604 -47013.100000 0 0 1
-12.120954 -33.058568 -15.708707 38.555803 1.219365 1.990432 0.001542 -0.005114 -347037.000000 0 0 1
-11.536654 -33.536608 -14.497407 38.314140 1.239475 1.958845 0.007421 -0.005885 434639.000000 0 0 1
-12.533554 -34.222201 -13.708207 38.937950 1.219727 1.930560 0.004245 -0.005512 -124806.000000 0 0 1
-12.090754 -34.639311 -12.332307 38.705995 1.234971 1.895064 0.011549 -0.008259 -309803.000000 0 0 1
-11.906654 -33.536548 -11.448207 37.383552 1.229643 1.882033 0.006213 -0.011917 107017.000000 0 0 1
-11.650854 -33.953948 -10.130007 37.299196 1.240249 1.845839 0.011806 -0.013581 -817305.000000 0 0 1
-10.579254 -33.095698 -9.411207 35.997454 1.261405 1.835311 0.003181 -0.012121 540779.000000 0 0 1
-9.347854 -33.471848 -10.049007 36.176367 1.298460 1.852277 0.004706 -0.013842 -479319.000000 0 0 1
-8.238954 -32.883328 -9.480707 35.200532 1.325299 1.843498 0.007731 -0.013956 -320802.000000 0 0 1
-6.851554 -33.283858 -10.006807 35.424500 1.367780 1.857178 0.010511 -0.013788 107453.000000 0 0 1
-6.479354 -34.584651 -9.630407 36.480472 1.385596 1.837951 0.011891 -0.015115 361534.000000 0 0 1
-5.182254 34.587067 -10.168707 36.421471 -1.422071 1.853752 0.013099 -0.016015 523672.000000 0 0 1
-4.515154 33.327713 -9.543807 34.960082 -1.436139 1.847298 0.002053 -0.011283 -26753.000000 0 0 1
-4.160354 33.672338 -8.241007 34.914883 -1.447865 1.809076 -0.001012 -0.008623 -34443.200000 0 0 1
-3.262954 32.756673 -7.635307 33.792668 -1.471512 1.798710 -0.003566 -0.005632 119732.000000 0 0 1
-2.811654 33.208943 -6.150207 33.890475 -1.486332 1.753280 -0.002010 -0.002005 -1094330.000000 0 0 1
-2.038854 34.333876 -6.253007 34.958147 -1.511483 1.750635 -0.001563 -0.000917 -616783.000000 0 0 1
-1.670854 -34.591994 -4.965107 34.986427 1.522532 1.713192 -0.002158 -0.002991 411426.000000 0 0 1
-0.632954 34.047647 -4.095607 34.298934 -1.552208 1.690491 -0.002378 -0.000403 340404.000000 0 0 1
0.690446 34.165604 -4.607107 34.481743 1.550590 1.704807 -0.001109 -0.002572 -72598.300000 0 0 1
1.569146 33.228323 -4.022407 33.507662 1.523608 1.691131 -0.001977 -0.003526 -436199.000000 0 0 1
2.992846 33.428041 -4.529707 33.866049 1.481503 1.704952 0.000183 0.003939 -375536.000000 0 0 1
3.522546 34.676008 -4.022907 35.085861 1.469559 1.685708 0.001730 0.002502 -209354.000000 0 0 1
4.919446 -34.718795 -4.186707 35.314646 -1.430039 1.689630 0.004270 0.004951 81022.000000 0 0 1
5.508546 -33.408008 -3.663807 34.056755 -1.407380 1.678584 0.008110 0.003645 -181045.000000 0 0 1
5.331946 -32.306348 -4.490507 33.049878 -1.407228 1.707089 0.007402 0.002545 -174915.000000 0 0 1
5.957746 -31.122618 -4.043207 31.944634 -1.381656 1.697706 0.006004 0.002181 -173794.000000 0 0 1
5.640746 -29.891988 -4.852807 30.804200 -1.384285 1.728993 0.009439 0.002137 -47658.800000 0 0 1
6.382646 -29.905998 -6.064507 31.175072 -1.360527 1.766575 0.014661 0.001809 -34168.800000 0 0 1
6.415946 -28.773398 -6.962707 30.291122 -1.351404 1.802730 0.016912 -0.000418 78380.900000 0 0 1
6.833446 -27.351828 -6.399507 28.909725 -1.325973 1.794007 0.020631 -0.001277 -4431.090000 0 0 1
5.848446 -26.775428 -5.612407 27.975471 -1.355748 1.772786 0.015605 0.005654 -706748.000000 0 0 1
6.422646 -25.820918 -4.755607 27.029354 -1.327006 1.747659 0.014708 -0.001687 81772.400000 0 0 1
5.507046 -25.353418 -3.597507 26.192851 -1.356908 1.708579 0.007972 -0.002610 -635233.000000 0 0 1
4.519146 -24.513378 -4.035107 25.250950 -1.388489 1.731285 -0.002298 -0.008238 -1082250.000000 0 0 1
3.796946 -23.961778 -2.971107 24.441994 -1.413645 1.692655 -0.006838 -0.007897 64014.200000 0 1 0
2.461546 -23.282778 -3.368407 23.653607 -1.465464 1.713688 -0.008996 -0.006292 261279.000000 0 1 0
1.578546 -24.138878 -4.031207 24.524027 -1.505495 1.735924 -0.010560 -0.003205 -861888.000000 0 1 0
0.410746 -23.455678 -4.384007 23.865395 -1.553287 1.755543 -0.020822 -0.004320 -829460.000000 0 1 0
-14.767254 23.653522 18.222333 33.310874 -1.012690 0.991974 -0.001613 0.005653 -83543.700000 0 0 1
-14.647554 22.934122 19.411933 33.426755 -1.002420 0.951171 0.000354 0.006045 319520.000000 0 0 1
-14.656254 23.791822 20.533933 34.677067 -1.018680 0.937075 0.004943 0.005232 -881763.000000 0 0 1
-14.768954 23.151722 21.930333 35.143474 -1.002960 0.896916 0.010026 0.000060 323565.000000 0 0 1
-13.717154 22.256822 22.390633 34.421896 -1.018469 0.862585 0.010654 -0.000871 909152.000000 0 0 1
-12.399354 22.773022 22.463233 34.306725 -1.072204 0.856910 0.000643 -0.002001 -84132.600000 0 0 1
-12.046554 23.881622 23.486633 35.595973 -1.103613 0.850228 0.006034 -0.006395 -677683.000000 0 0 1
-12.016454 23.346122 24.818153 36.130006 -1.095451 0.813564 0.006438 -0.003359 17546.700000 0 0 1
-11.798854 24.346822 25.824823 37.401901 -1.119532 0.808660 0.006947 -0.002797 -364010.000000 0 0 1
-11.316354 23.781822 27.128813 37.810150 -1.126662 0.770589 0.003426 -0.001242 -161241.000000 0 0 1
-9.982754 23.338722 27.061523 37.103603 -1.166613 0.753425 -0.003541 0.001276 -520808.000000 0 0 1
-9.582054 22.578422 28.168773 37.350779 -1.169443 0.716410 -0.004537 0.006430 -39954.200000 0 0 1
-8.059854 22.243522 28.120893 36.749424 -1.223165 0.699434 -0.009560 0.011303 868586.000000 0 0 1
-7.257154 23.429822 28.259423 37.419485 -1.270428 0.714828 -0.006421 0.009124 124677.000000 0 0 1
-6.976354 24.231722 27.105433 37.020945 -1.290476 0.749302 -0.009698 0.006459 -844475.000000 0 0 1
-5.968254 25.309322 27.443083 37.806146 -1.339215 0.758470 -0.010871 0.003947 972336.000000 0 0 1
-4.597054 24.829022 27.502723 37.336484 -1.387721 0.742740 -0.009949 0.007213 432743.000000 0 0 1
-3.812254 25.785222 28.127413 38.347912 -1.424013 0.747369 0.002572 0.004055 353229.000000 0 0 1
-2.297354 25.385122 28.041723 37.894861 -1.480542 0.737745 0.001128 0.009644 525292.000000 0 0 1
-1.774054 25.430322 26.718233 36.928478 -1.501148 0.761919 0.005017 0.004945 546730.000000 0 0 1
-0.414754 24.962122 26.770663 36.605300 -1.554183 0.750522 0.011344 0.007866 871684.000000 0 0 1
0.210846 24.713122 25.409383 35.446010 1.562265 0.771526 0.013428 0.003772 -43032.200000 0 0 1
-0.217354 23.472122 24.905853 34.224104 -1.561536 0.755792 0.008298 0.005798 71706.900000 0 0 1
0.259846 23.282722 23.574533 33.134744 1.559636 0.779202 0.010521 0.011885 165759.000000 0 0 1
-0.281054 21.999622 22.890233 31.749411 -1.558022 0.765602 0.002955 0.009016 363810.000000 0 0 1
0.323546 20.827022 23.498033 31.401068 1.555263 0.725271 0.006172 0.008392 284315.000000 0 0 1
0.106746 19.631722 22.675233 29.993034 1.565359 0.713590 0.009220 0.008334 10599.600000 0 0 1
1.127746 18.502022 22.984633 29.527783 1.509919 0.678672 0.005440 0.008458 -772099.000000 0 0 1
2.362546 18.773622 22.437733 29.351020 1.445610 0.700590 0.005264 0.003359 -908329.000000 0 0 1
3.197746 17.615522 22.447633 28.712862 1.391222 0.673253 0.002060 -0.000279 -104277.000000 0 0 1
4.606646 17.908722 21.923033 28.680357 1.319025 0.700699 0.001672 0.000354 121134.000000 0 0 1
5.454546 18.690622 22.780233 29.967156 1.286849 0.707216 0.002001 0.002846 -255090.000000 0 0 1
6.692846 18.945622 22.160433 29.913468 1.231215 0.736509 0.004447 -0.001597 -740611.000000 0 0 1
7.630446 19.665522 23.125033 31.300537 1.200668 0.739499 0.007033 -0.003529 -799654.000000 0 0 1
7.263846 20.881822 23.714833 32.422326 1.236034 0.750372 0.002363 -0.002510 -112350.000000 0 0 1
6.935646 21.958622 22.832633 32.428589 1.264862 0.789656 0.005475 0.000525 -562245.000000 0 0 1
5.616646 22.585222 23.268933 32.910214 1.327054 0.785489 0.002921 0.002726 -351455.000000 0 0 1
5.577846 23.920522 22.849433 33.546987 1.341707 0.821509 0.001338 0.002751 -599886.000000 0 0 1
4.332046 24.449222 23.130633 33.934603 1.395431 0.820817 -0.006033 0.006348 -873332.000000 0 0 1
4.024546 25.891522 22.573233 34.584949 1.416592 0.859667 0.000302 0.002531 15861.700000 0 0 1
3.873046 26.123622 21.147133 33.832608 1.423610 0.895598 0.004561 -0.000985 -64131.000000 0 0 1
3.112846 25.164422 20.461533 32.582392 1.447721 0.891824 0.010065 0.003994 -473308.000000 0 0 1
2.768846 25.473122 18.982533 31.888603 1.462525 0.933187 0.008136 0.002890 -719261.000000 0 0 1
1.821246 26.510522 19.014933 32.675563 1.502205 0.949695 0.003871 0.004728 82701.500000 0 0 1
1.538046 27.112122 17.786233 32.462021 1.514128 0.990934 0.007456 0.005659 -281651.000000 0 0 1
0.555746 28.262622 17.951133 33.486233 1.551135 1.005016 0.008630 0.006566 -61576.100000 0 0 1
1.107646 29.358022 18.631533 34.788710 1.533085 1.005622 0.004432 0.000219 358956.000000 0 0 1
0.082346 30.335222 18.639133 35.604069 1.568082 1.019829 0.007853 0.000557 67580.400000 0 0 1
0.466046 31.726522 19.194733 37.084055 1.556108 1.026752 0.005319 -0.002529 -570869.000000 0 0 1
0.754846 31.698722 20.549333 37.784307 1.546988 0.995768 0.004237 0.000916 -153820.000000 0 0 1
1.172546 32.972322 20.946733 39.080871 1.535250 1.005123 0.002145 -0.001167 -327766.000000 0 0 1
1.598446 33.058022 22.370033 39.947543 1.522481 0.976428 -0.002629 -0.000142 -243595.000000 0 0 1
0.561846 32.830522 23.287433 40.254980 1.553684 0.953910 -0.006353 0.003417 358276.000000 0 0 1
1.137646 32.885322 24.568423 41.065144 1.536216 0.929444 -0.009638 0.005632 34159.600000 0 0 1
0.030146 32.508622 25.567293 41.358166 1.569869 0.904356 -0.004337 -0.001982 682163.000000 0 0 1
-1.093354 33.440722 25.558343 42.103518 -1.538113 0.918471 -0.004188 0.001444 1051340.000000 0 0 1
-2.117954 33.126922 26.497543 42.473503 -1.506949 0.897124 -0.007035 0.002128 274912.000000 0 0 1
-1.831354 33.390222 28.007993 43.620046 -1.516004 0.873575 -0.006406 0.002019 -662459.000000 0 0 1
-0.850754 32.520522 28.500723 43.250426 -1.544642 0.851348 -0.006196 -0.002914 -83131.100000 0 0 1
-0.381454 33.000622 29.744543 44.428869 -1.559238 0.837279 -0.003088 0.001660 -684068.000000 0 0 1
0.830646 32.203222 30.238743 44.182791 1.545008 0.817015 -0.006582 -0.000578 459791.000000 0 0 1
2.127946 32.529922 29.703803 44.102606 1.505474 0.831841 -0.008607 -0.000564 784146.000000 0 0 1
2.373046 32.009222 28.387003 42.849079 1.496795 0.846661 -0.007466 -0.003138 -430631.000000 0 0 1
3.898146 31.865922 28.155823 42.701088 1.449071 0.850816 -0.006128 -0.000003 359631.000000 0 0 1
4.458746 30.700422 28.815523 42.340651 1.426571 0.822264 -0.002769 -0.003014 -611625.000000 0 0 1
5.831546 30.661122 28.658943 42.372708 1.382848 0.827995 0.000816 -0.000847 -214003.000000 0 0 1
6.533746 29.467822 29.538243 42.232099 1.352601 0.796202 0.008586 0.000469 482719.000000 0 0 1
6.421746 29.598322 30.954823 43.307050 1.357144 0.774493 0.008201 0.002000 558877.000000 0 0 1
7.242746 28.727622 31.775723 43.444565 1.323825 0.750411 0.007039 0.003843 279441.000000 0 0 1
7.007746 29.053322 33.336903 44.772236 1.334114 0.730878 0.014864 -0.006764 535766.000000 0 0 1
5.644946 28.798422 33.727391 44.707398 1.377235 0.716052 0.007681 -0.005403 531521.000000 0 0 1
5.456046 28.523622 -34.320995 44.958827 1.381798 2.439337 0.012558 -0.005126 -343514.000000 0 0 1
5.666546 27.033322 -34.017667 43.819082 1.364174 2.459604 0.009505 -0.007107 1037860.000000 0 0 1
6.997946 26.456022 -34.204710 43.804732 1.312206 2.466814 0.009457 -0.005172 1401290.000000 0 0 1
7.057146 25.034722 -34.129765 42.911321 1.296032 2.490391 0.008077 -0.001147 -263231.000000 0 0 1
8.484346 24.473022 -34.343881 43.016452 1.237081 2.495412 0.010758 0.003644 -149312.000000 0 0 1
8.774746 24.279822 33.717167 42.465907 1.224001 0.653465 0.011954 -0.001107 -495905.000000 0 0 1
10.019446 23.702422 33.495569 42.239167 1.170860 0.655082 0.009052 -0.000985 -671611.000000 0 0 1
10.070346 22.189722 33.767572 41.641861 1.144763 0.625100 0.008023 0.001125 -400952.000000 0 0 1
9.342446 21.444022 32.752423 40.247343 1.159926 0.620172 0.004662 -0.002196 385287.000000 0 0 1
8.982846 20.150122 33.212163 39.871879 1.151444 0.586339 0.000456 -0.005607 487772.000000 0 0 1
7.696646 19.977822 34.108415 40.270780 1.203061 0.560524 0.002744 -0.008056 296648.000000 0 0 1
7.820246 20.487722 -34.004807 40.462698 1.206161 2.568815 0.003899 -0.004855 -506797.000000 0 0 1
6.587846 20.699722 -33.397937 39.840939 1.262675 2.564921 0.011988 -0.005512 -577211.000000 0 0 1
6.714346 21.298122 -31.970677 38.997649 1.265403 2.531876 0.015778 -0.003758 -96056.800000 0 0 1
7.139946 22.667222 -31.985947 39.848245 1.265645 2.502595 0.013647 -0.004360 205337.000000 0 0 1
7.224446 23.167722 -30.675107 39.113913 1.268520 2.472284 0.010162 -0.005842 -339059.000000 0 0 1
8.667446 23.262122 -30.174837 39.073927 1.214132 2.453171 0.008932 -0.000813 -389564.000000 0 0 1
9.150946 22.025122 -29.794827 38.165135 1.177019 2.466552 0.005134 -0.005571 919777.000000 0 0 1
10.563146 22.108022 -29.476127 38.329972 1.125068 2.448087 0.007952 -0.005923 1863270.000000 0 0 1
11.387646 20.736522 -29.433497 37.762582 1.068599 2.464561 0.006746 -0.011397 152322.000000 0 0 1
11.512546 19.925122 -30.560477 38.255613 1.046867 2.496176 0.003713 -0.011178 -463612.000000 0 0 1
10.348246 19.463322 -31.182127 38.186806 1.082128 2.526237 0.008072 -0.007595 -630912.000000 0 0 1
10.545346 18.329422 -32.216417 38.536600 1.048719 2.560740 0.006976 -0.008827 -512030.000000 0 0 1
10.936146 17.117322 -31.664707 37.619884 1.002268 2.571223 0.008505 -0.009557 -137022.000000 0 0 1
10.911746 15.972222 -32.472837 37.797662 0.971455 2.604350 0.005243 -0.007174 314435.000000 0 0 1
12.105046 15.854822 -33.509497 38.997358 0.918715 2.604649 -0.000424 -0.000473 371547.000000 0 0 1
12.144946 16.799922 -34.547756 40.290006 0.944855 2.601142 0.000799 -0.001031 229126.000000 0 0 1
12.908446 16.203922 33.822787 39.663283 0.898117 0.549572 -0.001073 0.002138 84312.600000 0 0 1
12.234546 16.390722 32.477693 38.381512 0.929583 0.562019 0.000687 0.000946 -591914.000000 0 0 1
12.404746 17.643122 31.818423 38.439167 0.957998 0.595692 -0.001333 0.002273 252555.000000 0 0 1
11.716046 17.645122 30.551733 37.175590 0.984655 0.606194 0.001012 -0.001512 214239.000000 0 0 1
10.201646 17.927722 30.466353 36.792329 1.053450 0.595153 0.001405 -0.001222 226238.000000 0 0 1
9.394546 16.906622 31.059223 36.589161 1.063608 0.556964 0.001668 0.000132 316975.000000 0 0 1
8.001246 17.164922 30.954863 36.288539 1.134602 0.549051 0.002507 -0.002322 336683.000000 0 0 1
7.246346 16.260022 31.940243 36.566063 1.151562 0.508462 0.002742 -0.000564 -381967.000000 0 0 1
7.370346 16.677322 33.285813 37.952608 1.154667 0.501138 0.007702 -0.001008 30295.000000 0 0 1
7.039746 15.639422 34.164182 38.227489 1.147836 0.465255 0.013307 0.003843 -190851.000000 0 0 1
7.294246 15.954222 -33.773757 38.057981 1.141972 2.662534 0.013401 0.002239 -385444.000000 0 0 1
6.287646 16.744322 -33.191137 37.703559 1.211579 2.647329 0.013260 0.003556 -10198.000000 0 0 1
6.414946 16.956622 -31.787007 36.593611 1.209122 2.623265 0.012734 -0.001009 -205137.000000 0 0 1
5.187946 17.719122 -31.243607 36.291115 1.285969 2.607864 0.017654 -0.003303 -766237.000000 0 0 1
5.293746 18.160822 -29.889057 35.372234 1.287163 2.577336 0.009441 -0.003908 29266.700000 0 0 1
4.527346 19.289422 -29.451317 35.495898 1.340263 2.549385 0.009438 -0.005895 354836.000000 0 0 1
2.992746 19.053022 -29.489017 35.236009 1.414995 2.562391 0.005792 -0.005725 -866659.000000 0 0 1
2.598246 18.190722 -28.398187 33.824699 1.428922 2.567287 0.015189 -0.004152 -438065.000000 0 0 1
1.213846 18.029922 -28.384607 33.648736 1.503574 2.574668 0.012490 -0.005736 38802.700000 0 0 1
0.241146 19.208022 -28.015087 33.968388 1.558243 2.540539 0.005560 -0.007699 -369771.000000 0 0 1
0.159846 19.521222 -26.630777 33.019721 1.562608 2.509024 0.007626 -0.007659 -213152.000000 0 0 1
-0.666854 20.654622 -26.577967 33.666696 -1.538522 2.480699 0.009865 -0.004927 -221205.000000 0 0 1
-1.136554 20.914822 -25.173517 32.747939 -1.516508 2.447611 0.002788 -0.004538 108564.000000 0 0 1
-2.274554 20.188522 -24.738307 32.011464 -1.458604 2.454030 0.004589 -0.003091 74865.700000 0 0 1
-2.754854 20.649522 -23.522007 31.420961 -1.438169 2.416758 0.001916 0.003828 634810.000000 0 0 1
-3.871954 19.671722 -22.948607 30.473058 -1.376452 2.423525 0.003610 -0.001251 497166.000000 0 0 1
-5.191154 19.998422 -23.271207 31.119673 -1.316823 2.415534 0.007933 0.001460 -436592.000000 0 0 1
-6.132354 19.080922 -22.733807 30.306985 -1.259836 2.419036 0.007155 0.000296 -140877.000000 0 0 1
-7.523854 19.674722 -22.572707 30.874426 -1.205543 2.390749 0.006697 -0.000621 -622655.000000 0 0 1
-7.626854 20.543722 -21.445007 30.661079 -1.215317 2.345384 0.001639 0.000670 89371.900000 0 0 1
-7.243854 21.876722 -21.612907 31.594021 -1.251038 2.324141 -0.000658 0.001754 -212744.000000 0 0 1
-7.519254 22.823722 -20.413207 31.530311 -1.252546 2.274985 0.004824 0.003713 -292411.000000 0 0 1
-6.580454 22.684522 -19.391107 30.559858 -1.288460 2.258195 0.008424 0.009252 -184858.000000 0 0 1
-6.867054 23.564722 -18.305807 30.619522 -1.287236 2.211610 0.011493 0.010929 -324292.000000 0 0 1
-5.814854 23.719322 -17.219907 29.882168 -1.330385 2.184942 0.005090 0.015679 804727.000000 0 0 1
-4.595554 24.361722 -17.650407 30.432704 -1.384349 2.189502 -0.001214 0.016864 408233.000000 0 0 1
-3.537654 24.324322 -16.722507 29.729276 -1.426372 2.168194 0.000976 0.018072 62536.400000 0 0 1
-2.267254 25.030422 -17.172807 30.439576 -1.480463 2.170213 0.000104 0.014355 -359689.000000 0 0 1
-2.445754 26.424022 -17.115807 31.577864 -1.478501 2.143634 -0.002301 0.016618 -417241.000000 0 0 1
-1.485054 27.085622 -17.882407 32.490257 -1.516023 2.153631 -0.002095 0.018142 -270624.000000 0 0 1
-1.280354 28.578322 -17.550007 33.561325 -1.526025 2.121074 -0.008220 0.007178 850052.000000 0 0 1
-2.436854 29.377022 -17.916407 34.495584 -1.488035 2.116925 -0.001043 0.007392 678429.000000 0 0 1
-2.606354 29.601822 -19.279007 35.422324 -1.482976 2.146305 0.002496 -0.001543 -828272.000000 0 0 1
-3.969654 30.147222 -19.684707 36.222932 -1.439874 2.145317 0.003331 0.000559 -424611.000000 0 0 1
-4.352954 31.491122 -19.405507 37.245304 -1.433439 2.118841 0.009260 -0.007235 -168784.000000 0 0 1
-4.844254 31.663422 -18.099107 36.791531 -1.418981 2.085109 0.001495 -0.004282 17926.400000 0 0 1
-5.499754 33.120622 -17.822807 38.011516 -1.406246 2.058818 0.005041 -0.010179 834771.000000 0 0 1
-6.660654 33.367722 -18.632407 38.793502 -1.373772 2.071790 0.006551 -0.004545 311844.000000 0 0 1
-7.157754 34.617122 -18.220907 39.769084 -1.366900 2.046729 0.005528 -0.007493 -576308.000000 0 0 1
-8.056154 -34.227489 -19.265107 40.094476 1.339633 2.072013 0.005304 -0.001773 -442451.000000 0 0 1
-9.328254 34.642022 -19.162807 40.673077 -1.307760 2.061382 0.003795 -0.000485 -434784.000000 0 0 1
-10.236954 -34.178989 -20.011507 40.907933 1.279789 2.081950 0.004829 0.000763 -330939.000000 0 0 1
28.529046 -20.652678 -26.683817 44.186714 -0.626598 2.219166 0.004818 -0.000506 549815.000000 0 0 1
27.684946 -21.789978 -26.368217 44.006162 -0.666807 2.213290 0.006224 -0.002202 563986.000000 0 0 1
26.412346 -21.837578 -27.011147 43.635925 -0.690867 2.238280 0.003158 -0.000417 319939.000000 0 0 1
25.734846 -23.168378 -26.642257 43.690570 -0.732966 2.226597 0.003420 0.000397 -240809.000000 0 0 1
26.301346 -24.388778 -27.067937 44.936027 -0.747685 2.217258 -0.001126 0.003823 -335790.000000 0 0 1
27.543246 -24.747378 -26.513987 45.541790 -0.731981 2.192216 0.002342 0.004390 -148771.000000 0 0 1
28.126346 -26.049118 -27.030317 46.907206 -0.747074 2.184930 0.006128 0.005953 163909.000000 0 0 1
27.288446 -27.120058 -26.603347 46.774939 -0.782303 2.175784 0.004088 0.001991 90705.700000 0 0 1
27.739446 -28.378448 -27.088967 48.048156 -0.796784 2.169761 0.000869 0.002093 139929.000000 0 0 1
26.738246 -29.140618 -27.983397 48.447703 -0.828364 2.186582 0.008174 -0.005418 -287608.000000 0 0 1
26.399546 -28.633818 -29.290227 48.731396 -0.825974 2.215616 0.004609 -0.004790 227362.000000 0 0 1
27.393046 -28.804358 -30.303787 49.983893 -0.810506 2.222160 0.000047 -0.002832 -183948.000000 0 0 1
27.478646 -30.301128 -30.800827 51.204739 -0.834208 2.216203 0.006575 -0.004893 -593722.000000 0 0 1
28.111846 -31.213878 -29.857747 51.537046 -0.837639 2.188722 0.005803 -0.006993 1851590.000000 0 0 1
29.503346 -31.120998 -29.392277 51.989133 -0.812075 2.171659 0.000203 -0.003262 2820910.000000 0 0 1
30.588446 -30.741838 -30.534707 53.038495 -0.787899 2.184267 -0.001457 -0.002183 135628.000000 0 0 1
30.417146 -29.398978 -30.982107 52.434661 -0.768378 2.202934 -0.001180 -0.005664 -1101380.000000 0 0 1
31.332446 -29.075278 -31.941817 53.360788 -0.748050 2.212550 0.000587 -0.004085 -557493.000000 0 0 1
31.195346 -27.616338 -32.553037 52.872601 -0.724618 2.234055 -0.002761 -0.000336 8601.960000 0 0 1
31.368346 -26.544748 -31.686737 51.890713 -0.702300 2.227670 -0.005492 0.008555 177665.000000 0 0 1
30.242546 -26.123778 -30.877147 50.502095 -0.712456 2.228629 0.000477 0.003706 368504.000000 0 0 1
30.490746 -24.820878 -30.072747 49.498805 -0.683247 2.223762 -0.008430 0.005818 -129343.000000 0 0 1
31.159346 -24.862278 -28.812697 49.185458 -0.673464 2.196660 -0.001917 0.007282 96398.700000 0 0 1
31.068146 -23.665478 -28.057457 48.088517 -0.650965 2.193772 -0.003986 0.005845 -24299.900000 0 0 1
32.034546 -23.540378 -26.835927 47.963825 -0.633730 2.164583 -0.004705 0.007552 1250.840000 0 0 1
31.696246 -24.313078 -25.630177 47.462446 -0.654333 2.141245 -0.006735 0.009172 -215059.000000 0 0 1
30.702246 -23.753378 -24.830807 46.080580 -0.658478 2.139875 0.002765 0.004608 -562422.000000 0 0 1
31.033946 -22.526178 -23.972807 45.224219 -0.627869 2.129500 0.000811 -0.002601 -480420.000000 0 0 1
31.226846 -21.359478 -24.667207 45.164304 -0.599914 2.148577 -0.000568 -0.002046 -234232.000000 0 0 1
31.395446 -20.293778 -23.796807 44.314777 -0.573835 2.137667 -0.013061 0.002059 -83164.500000 0 0 1
31.679746 -18.955278 -24.510407 44.313304 -0.539198 2.156896 -0.006007 0.002858 -232306.000000 0 0 1
30.588646 -18.639578 -25.330487 43.871776 -0.547275 2.186307 -0.002861 -0.004662 -166351.000000 0 0 1
30.798246 -17.500678 -26.147507 44.028375 -0.516736 2.206667 -0.001635 -0.001299 -401100.000000 0 0 1
29.859046 -17.475378 -27.335537 44.092891 -0.529513 2.239480 -0.005459 0.004301 -903899.000000 0 0 1
28.526446 -17.229578 -27.027167 42.907858 -0.543345 2.252206 -0.004608 0.002863 -654565.000000 0 0 1
27.732346 -17.173078 -28.188087 43.111088 -0.554449 2.283455 -0.008821 0.001460 592650.000000 0 0 1
26.203646 -16.925778 -27.907817 41.856413 -0.573510 2.300638 -0.012605 -0.001462 914379.000000 0 0 1
25.470546 -17.992178 -27.335167 41.469007 -0.615003 2.290512 -0.009139 -0.000019 206598.000000 0 0 1
25.514646 -17.835478 -25.919817 40.508497 -0.610074 2.265114 -0.007194 0.001660 -329957.000000 0 0 1
24.751246 -18.873378 -25.067207 39.964903 -0.651467 2.248789 -0.005529 0.000186 -191478.000000 0 0 1
24.806946 -18.500978 -23.682207 38.968163 -0.640807 2.223998 -0.003358 0.006305 24000.700000 0 0 1
24.463046 -19.588778 -22.828007 38.772139 -0.675198 2.200337 -0.003450 0.003188 -801751.000000 0 0 1
24.546546 -19.047378 -21.367807 37.708338 -0.659916 2.173243 0.000316 0.001786 325230.000000 0 0 1
23.496446 -18.164478 -20.939707 36.338720 -0.658105 2.184913 0.004229 0.000434 350956.000000 0 0 1
23.490146 -16.836378 -21.467307 36.001331 -0.621874 2.209670 -0.000255 0.002528 -572041.000000 0 0 1
24.616546 -15.873978 -21.108907 36.104619 -0.572746 2.195257 0.000999 -0.000081 -451650.000000 0 0 1
24.675246 -15.338178 -19.818207 35.169430 -0.556152 2.169421 0.002087 -0.004137 862278.000000 0 0 1
25.860446 -14.541278 -19.644707 35.582664 -0.512236 2.155661 0.003844 -0.000255 491736.000000 0 0 1
25.592446 -13.407978 -18.629407 34.377347 -0.482587 2.143504 0.002839 -0.001634 -149323.000000 0 0 1
25.545546 -13.845578 -17.320107 33.826928 -0.496677 2.108333 0.001676 0.000507 191577.000000 0 0 1
25.421546 -12.719478 -16.486107 32.860795 -0.463922 2.096354 -0.000832 0.000362 418268.000000 0 0 1
26.253446 -12.812678 -15.146407 32.906258 -0.454032 2.049118 -0.002563 -0.003180 434530.000000 0 0 1
25.729546 -13.895278 -14.333907 32.566074 -0.495173 2.026560 -0.007863 -0.003425 1039420.000000 0 0 1
26.567246 -14.012278 -13.157907 32.791661 -0.485348 1.983686 0.001342 -0.003714 426894.000000 0 0 1
26.069546 -15.226478 -12.342207 32.615900 -0.528625 1.958875 -0.008516 -0.007910 1123440.000000 0 0 1
24.691446 -15.149378 -11.911407 31.321762 -0.550321 1.960908 -0.014659 -0.002362 1045410.000000 0 0 1
24.387946 -16.347678 -11.247807 31.440923 -0.590526 1.936647 -0.016040 -0.004800 706309.000000 0 0 1
22.878846 -16.388778 -10.808507 30.147263 -0.621601 1.937482 -0.013830 -0.004295 511687.000000 0 0 1
22.633446 -15.640978 -9.653107 29.156398 -0.604698 1.908244 -0.018232 -0.009074 797807.000000 0 0 1
21.277546 -15.697178 -9.210307 27.999377 -0.635605 1.905984 -0.015264 -0.002400 263274.000000 0 0 1
21.029046 -15.370178 -7.691907 27.159319 -0.631166 1.857940 -0.009913 -0.001394 -390411.000000 0 0 1
21.389246 -14.061678 -7.340607 26.629216 -0.581572 1.850072 -0.010486 0.002465 456217.000000 0 0 1
21.164346 -13.734578 -5.941807 25.920518 -0.575636 1.802085 -0.010521 0.004174 -580827.000000 0 0 1
21.914946 -14.498878 -4.848007 26.720507 -0.584485 1.753241 -0.006816 0.004767 169983.000000 0 0 1
23.336646 -14.411378 -4.964307 27.873486 -0.553219 1.749853 -0.008327 0.011866 873392.000000 0 0 1
23.922446 -15.198878 -3.908707 28.610615 -0.566000 1.707842 -0.012449 0.008733 -254120.000000 0 0 1
25.460146 -15.244678 -4.052507 29.950660 -0.539512 1.706519 -0.006888 0.011979 -394698.000000 0 0 1
25.919946 -14.026078 -3.498107 29.678464 -0.496008 1.688938 -0.002073 0.010085 -412416.000000 0 0 1
27.167946 -13.728478 -4.042307 30.706818 -0.467894 1.702822 -0.001608 0.003067 -905146.000000 0 0 1
27.747046 -12.388278 -3.584907 30.597705 -0.419916 1.688229 -0.004067 0.006923 -1255960.000000 0 0 1
28.088246 -12.401678 -2.192107 30.782406 -0.415784 1.642070 -0.005940 0.002556 501389.000000 0 0 1
28.546246 -11.186778 -1.568807 30.700054 -0.373489 1.621920 -0.013009 0.004580 -200529.000000 0 0 1
29.934146 -10.624478 -1.970207 31.824744 -0.341059 1.632744 -0.012211 0.005079 -276765.000000 0 0 1
29.889546 -10.221778 -3.328207 31.763921 -0.329517 1.675768 -0.011108 0.007685 -402794.000000 0 0 1
30.885446 -10.778778 -4.121907 32.970941 -0.335777 1.696141 -0.002460 0.006381 -891347.000000 0 0 1
30.787946 -10.633678 -5.668607 33.062151 -0.332557 1.743101 -0.003878 0.008138 364457.000000 0 0 1
29.806146 -11.458278 -6.347307 32.557438 -0.367009 1.767010 -0.002574 0.009344 681550.000000 0 0 1
29.821646 -11.260878 -7.758007 32.807387 -0.361055 1.809529 -0.001800 0.011098 624810.000000 0 0 1
28.573846 -11.898678 -8.471207 32.090568 -0.394580 1.837941 -0.000528 0.004813 417823.000000 0 0 1
28.699446 -13.301478 -8.516007 32.758356 -0.434003 1.833782 0.005415 0.007799 107039.000000 0 0 1
27.498746 -14.020478 -8.711107 32.072390 -0.471504 1.845859 0.001095 0.007213 -40283.200000 0 0 1
27.748446 -15.559878 -8.526007 32.935981 -0.511057 1.832644 -0.000440 0.000135 -24824.800000 0 0 1
28.066746 -16.119978 -9.790607 33.814966 -0.521341 1.864537 0.004030 -0.004974 292606.000000 0 0 1
28.306746 -17.522778 -9.702807 34.676564 -0.554296 1.854391 -0.000202 -0.007903 -210716.000000 0 0 1
28.590546 -17.991278 -11.152807 35.573733 -0.561667 1.889686 0.003684 -0.009244 -1171530.000000 0 0 1
29.889146 -17.713878 -11.534007 36.608412 -0.534999 1.891321 0.002233 -0.004310 -808163.000000 0 0 1
30.223346 -18.037878 -12.870607 37.476235 -0.538078 1.921367 -0.001454 -0.000859 -246017.000000 0 0 1
29.427346 -17.499678 -14.088407 37.022839 -0.536494 1.961169 -0.003153 -0.005141 -189729.000000 0 0 1
29.658446 -16.119878 -14.356307 36.682113 -0.497852 1.972917 0.003036 -0.001093 74230.700000 0 0 1
28.916546 -15.707778 -15.477907 36.365733 -0.497616 2.010441 0.006194 -0.006557 -563287.000000 0 0 1
29.616646 -14.498478 -16.270307 36.770565 -0.455243 2.029161 0.004118 0.003544 556262.000000 0 0 1
30.686846 -14.815578 -17.139407 38.143717 -0.449792 2.036820 0.002010 0.002546 602047.000000 0 0 1
31.921546 -15.075178 -16.467007 38.953927 -0.441208 2.007252 0.006984 -0.000347 -596414.000000 0 0 1
32.989246 -15.503578 -17.471807 40.421719 -0.439327 2.017770 0.006035 0.001258 -871454.000000 0 0 1
34.216446 -15.720878 -16.821607 41.241698 -0.430688 1.990926 0.000138 0.001776 -266185.000000 0 0 1
-34.469183 -16.398778 -17.746307 42.094845 0.444062 2.005982 -0.000873 0.002782 -93924.200000 0 0 1
-32.964583 -16.430478 -17.390607 40.731531 0.462389 2.011921 0.000132 0.005819 -15267.400000 0 0 1
-32.506083 -17.209778 -16.293207 40.227982 0.486915 1.987799 -0.002704 -0.000821 327023.000000 0 0 1
-33.002483 -16.801078 -15.005707 39.957620 0.470889 1.955776 -0.002662 -0.003258 -571603.000000 0 0 1
-32.414383 -17.607878 -13.863207 39.407082 0.497617 1.930284 -0.005816 -0.007503 -892070.000000 0 0 1
-31.118183 -17.202378 -13.543307 38.048447 0.504996 1.934726 -0.002678 -0.007005 -402992.000000 0 0 1
-30.540283 -18.046178 -12.574007 37.636141 0.533700 1.911440 -0.008608 -0.002739 -551843.000000 0 0 1
-29.066883 -17.803378 -12.286107 36.232477 0.549558 1.916747 -0.002763 -0.004693 -686096.000000 0 0 1
-28.846283 -16.489778 -11.815307 35.265030 0.519308 1.912447 -0.005845 -0.006203 1284550.000000 0 0 1
-27.464583 -16.301978 -11.394607 33.910100 0.535673 1.913489 0.006430 -0.007528 1299370.000000 0 0 1
-27.468083 -16.446478 -9.878707 33.504792 0.539499 1.870089 0.000803 -0.008382 -29101.700000 0 0 1
-27.633083 -17.756378 -9.386007 34.160992 0.571139 1.849134 0.002283 -0.008643 -180822.000000 0 0 1
-27.888883 -17.736578 -8.030107 34.012625 0.566451 1.809138 0.001767 -0.006226 -139181.000000 0 0 1
-28.355183 -19.084778 -7.363307 34.963745 0.592417 1.782983 0.000415 -0.007500 151450.000000 0 0 1
-29.599283 -19.566478 -7.837507 36.337187 0.584101 1.788193 -0.009781 -0.005118 -79745.500000 0 0 1
-29.555883 -20.230478 -9.115307 36.958237 0.600235 1.820006 -0.009474 -0.005879 671092.000000 0 0 1
-30.857983 -21.009678 -9.570007 38.538380 0.597758 1.821746 -0.010323 -0.003638 802487.000000 0 0 1
-31.990783 -20.229278 -9.884807 39.119603 0.563865 1.826247 -0.008656 -0.002225 163328.000000 0 0 1
-33.127983 -21.074378 -10.015207 40.520329 0.566577 1.820550 -0.003886 -0.005024 414005.000000 0 0 1
-34.392083 -20.312278 -10.492307 41.297609 0.533486 1.827678 0.001473 -0.008684 48059.600000 0 0 1
-34.269083 -20.017278 -11.876807 41.426079 0.528662 1.861576 -0.002868 -0.008758 324219.000000 0 0 1
33.993946 -19.827078 -12.477407 41.284223 -0.528015 1.877829 0.001316 -0.008825 -529.720000 0 0 1
34.212246 -19.656278 -13.977807 41.859600 -0.521488 1.911257 0.003336 -0.008515 -517393.000000 0 0 1
34.450946 -20.818378 -14.730007 42.863104 -0.543568 1.921600 -0.002570 -0.006796 410302.000000 0 0 1
33.702446 -20.636578 -15.938807 42.611839 -0.549427 1.954165 -0.003828 -0.005332 1240110.000000 0 0 1
32.249546 -21.257678 -15.899007 41.769612 -0.582789 1.961280 -0.005789 -0.001704 -101192.000000 0 0 1
31.372046 -20.559578 -14.991207 40.393537 -0.580125 1.951021 -0.001178 -0.005498 567298.000000 0 0 1
30.159546 -21.332978 -14.897307 39.832448 -0.615634 1.954114 -0.002577 -0.001577 887405.000000 0 0 1
29.152246 -21.135578 -16.071007 39.431502 -0.627313 1.990585 -0.003643 -0.003400 -922796.000000 0 0 1
28.743846 -19.760578 -16.186807 38.453893 -0.602268 2.005278 -0.001963 -0.003162 299105.000000 0 0 1
27.807946 -19.676778 -17.253307 38.185522 -0.615805 2.039610 -0.001353 -0.006385 204437.000000 0 0 1
27.000846 -18.355878 -17.291107 36.945451 -0.597058 2.057842 -0.001254 -0.004595 79992.800000 0 0 1
26.127946 -18.128578 -16.198607 35.689071 -0.606579 2.041913 -0.006122 -0.004439 563063.000000 0 0 1
25.419946 -16.863778 -16.278307 34.576639 -0.585743 2.060981 -0.003470 -0.002679 -673375.000000 0 0 1
24.025246 -16.892878 -15.594307 33.253033 -0.612824 2.058908 -0.008339 -0.005860 533140.000000 0 0 1
22.964146 -17.496378 -16.334807 33.170788 -0.651074 2.085694 -0.005782 -0.005829 552412.000000 0 0 1
22.570846 -16.690678 -17.426407 33.040906 -0.636734 2.126356 -0.000698 -0.002045 -997807.000000 0 0 1
21.435046 -17.370378 -18.226007 33.066275 -0.681034 2.154594 0.002332 -0.001580 -73362.400000 0 0 1
20.152346 -17.408178 -17.658507 31.952849 -0.712468 2.156328 -0.001240 0.004160 134018.000000 0 0 1
19.237846 -17.860678 -18.684907 32.221488 -0.748293 2.189390 0.001765 -0.001521 356582.000000 0 0 1
17.773146 -18.006278 -18.258507 31.200703 -0.791914 2.195917 0.003144 -0.000721 -352294.000000 0 0 1
17.005146 -16.840078 -18.161007 30.043059 -0.780521 2.219933 0.002237 -0.000000 -621418.000000 0 0 1
15.708046 -17.255778 -17.873507 29.393313 -0.832316 2.224437 0.000555 -0.000989 -301151.000000 0 0 1
14.617346 -16.129978 -17.755307 28.090816 -0.834554 2.255015 0.001571 0.002881 445753.000000 0 0 1
14.176346 -15.454478 -18.959307 28.271275 -0.828507 2.305842 -0.001091 0.003226 303582.000000 0 0 1
12.919446 -14.852478 -18.715007 27.161732 -0.854890 2.330934 -0.000764 0.005692 -114769.000000 0 0 1
12.240246 -14.372178 -19.955907 27.470372 -0.865338 2.383941 -0.000639 0.006401 -43034.600000 0 0 1
12.841046 -13.187678 -20.583407 27.613112 -0.798715 2.411963 -0.003647 0.006761 113317.000000 0 0 1
12.126246 -12.763278 -21.700107 27.943546 -0.810987 2.459999 0.001922 0.008957 -99880.100000 0 0 1
12.544646 -11.324978 -22.095407 27.817805 -0.734346 2.488635 -0.000693 0.004948 -479667.000000 0 0 1
13.587146 -11.212578 -23.057207 29.016672 -0.689939 2.489177 -0.004491 0.006801 -125169.000000 0 0 1
13.840046 -9.862878 -23.277507 28.821270 -0.619154 2.510953 -0.009571 0.005093 334501.000000 0 0 1
15.106546 -9.656078 -24.153807 30.080791 -0.568744 2.503049 -0.007595 0.002820 399976.000000 0 0 1
14.903146 -10.134578 -25.495047 31.221961 -0.597197 2.526247 -0.000995 0.003493 145631.000000 0 0 1
16.109746 -10.161078 -26.229677 32.415542 -0.562717 2.513534 0.002962 0.001071 -362971.000000 0 0 1
21.728846 4.756022 -6.931207 23.298157 0.215482 1.872870 0.034724 0.002937 -377361.000000 0 1 0
21.725146 6.138422 -7.098207 23.665306 0.275371 1.875428 0.007804 0.001356 432382.000000 0 1 0
21.313046 6.803922 -5.947907 23.149879 0.309011 1.830641 0.003420 0.000087 -310502.000000 0 1 0
21.266846 8.341722 -6.197207 23.669990 0.373799 1.835701 -0.004104 0.000643 263325.000000 0 1 0
20.109246 8.600722 -7.006807 22.966269 0.404155 1.880831 0.000508 0.005482 853274.000000 0 1 0
19.925646 9.969222 -7.338207 23.457750 0.463904 1.888964 0.007294 0.008519 -137559.000000 0 1 0
19.154346 10.883122 -6.334707 22.922910 0.516694 1.850789 0.000315 0.004865 -144827.000000 0 1 0
19.800646 11.105522 -5.072807 23.262235 0.511148 1.790633 -0.011242 0.000971 298165.000000 0 1 0
19.167546 12.117022 -4.277607 23.076286 0.563734 1.757243 -0.003658 0.004392 -330951.000000 0 1 0
20.099146 12.594422 -3.200507 23.934042 0.559760 1.704920 -0.007066 0.001835 49297.400000 0 1 0
21.223446 13.399022 -3.661307 25.364810 0.563139 1.715648 -0.005963 0.000137 1319580.000000 0 0 1
22.121046 13.729422 -2.602807 26.165097 0.555465 1.670437 -0.008541 -0.004208 192044.000000 0 0 1
23.047946 12.630022 -2.028107 26.359789 0.501298 1.647812 -0.012195 -0.004883 -671867.000000 0 0 1
24.217546 12.458522 -2.821207 27.379984 0.475134 1.674019 -0.010457 -0.004220 200448.000000 0 0 1
24.965946 11.368322 -2.333607 27.531490 0.427297 1.655660 -0.010969 -0.007260 240936.000000 0 0 1
26.344746 11.187022 -3.065707 28.785303 0.401565 1.677501 -0.006306 -0.009474 -81726.000000 0 0 1
27.179446 12.231822 -2.738807 29.930600 0.422887 1.662430 -0.004656 -0.011363 -1270090.000000 0 0 1
28.470146 11.729322 -2.720607 30.911614 0.390797 1.658923 -0.009132 -0.010636 -916825.000000 0 0 1
29.556346 12.713422 -2.284507 32.255661 0.406218 1.641681 -0.007741 -0.010952 -495360.000000 0 0 1
29.368646 13.056222 -0.905007 32.152781 0.418324 1.598947 -0.003994 -0.012756 345794.000000 0 0 1
30.207146 14.084722 -0.467607 33.332712 0.436302 1.584825 0.000611 -0.010799 -485584.000000 0 0 1
31.703746 13.900222 -0.182107 34.617580 0.413200 1.576057 0.006830 -0.008763 38547.700000 0 0 1
32.464546 15.130822 -0.088007 35.817541 0.436139 1.573253 0.007238 -0.006239 546469.000000 0 0 1
33.359346 15.332722 -1.179607 36.733225 0.430828 1.602915 0.007786 -0.003630 -209054.000000 0 0 1
32.864846 16.230122 -2.338807 36.728531 0.458711 1.634518 0.001800 -0.001271 -379478.000000 0 0 1
31.791146 15.618922 -2.978007 35.545692 0.456662 1.654674 0.007317 -0.001815 -318886.000000 0 0 1
30.997046 16.555322 -3.722707 35.337715 0.490549 1.676339 0.004132 0.001470 517357.000000 0 0 1
29.639646 16.041222 -4.278007 33.972500 0.496068 1.697057 0.000937 -0.001502 -222147.000000 0 0 1
29.720746 15.003722 -5.274607 33.708395 0.467499 1.727920 -0.001776 -0.004119 352111.000000 0 0 1
28.547846 14.901622 -6.074607 32.771004 0.481083 1.757240 -0.002632 -0.008185 845758.000000 0 0 1
27.237646 14.303322 -5.458507 31.245314 0.483549 1.746396 -0.005008 -0.005977 -70577.500000 0 0 1
26.273646 13.935122 -6.386307 30.418366 0.487658 1.782319 -0.008642 -0.001966 -429252.000000 0 0 1
25.163446 13.311222 -5.800707 29.052295 0.486570 1.771812 -0.009392 -0.002087 -388561.000000 0 0 1
24.123546 12.974022 -6.873307 28.240274 0.493441 1.816652 -0.014271 -0.003219 -674351.000000 0 0 1
24.470046 11.896422 -7.723207 28.283492 0.452517 1.847373 -0.012884 -0.002248 673973.000000 0 0 1
23.442746 11.715622 -8.714907 27.618250 0.463451 1.891831 -0.013049 0.001800 327085.000000 0 0 1
23.148446 12.897322 -9.690807 28.215301 0.508322 1.921394 -0.014443 0.001512 -288507.000000 0 0 1
22.399646 13.947222 -9.153407 27.929447 0.556910 1.904700 -0.008823 -0.000940 -191935.000000 0 0 1
22.078846 14.917222 -10.118407 28.502300 0.594185 1.933714 -0.006877 0.000960 -669316.000000 0 0 1
21.457046 16.256822 -9.605407 28.582388 0.648376 1.913527 -0.003064 -0.001615 575965.000000 0 0 1
20.139046 16.251222 -9.058407 27.417843 0.678965 1.907506 -0.008916 0.003491 479085.000000 0 0 1
20.044946 15.580922 -7.817207 26.564520 0.660745 1.869491 -0.002911 0.000789 -663760.000000 0 0 1
18.678446 14.946922 -7.498907 25.070469 0.674877 1.874559 0.003048 0.003613 -402211.000000 0 0 1
17.658246 15.891122 -7.445007 24.895171 0.732774 1.874498 0.002222 0.000015 -269024.000000 0 1 0
16.360846 15.372922 -7.669807 23.724037 0.754277 1.900003 0.005735 0.000816 662429.000000 0 1 0
15.421246 15.237022 -6.407507 22.606145 0.779389 1.858177 -0.003427 0.000179 32182.000000 0 1 0
15.808646 14.307622 -5.414707 21.998645 0.735598 1.819490 -0.016559 -0.000874 273635.000000 0 1 0
15.716546 14.763322 -4.086507 21.946868 0.754134 1.758089 0.005405 -0.000472 -253963.000000 0 1 0
15.430246 13.786522 -3.010207 20.909855 0.729198 1.715259 0.002742 0.004668 -924696.000000 0 1 0
16.521246 12.975122 -2.640107 21.172518 0.665750 1.695817 0.000865 0.000275 186400.000000 0 1 0
16.392246 12.271522 -1.412107 20.525351 0.642616 1.639649 -0.000076 -0.000181 -177174.000000 0 1 0
16.557846 13.115122 -0.173007 21.123414 0.669892 1.578987 0.007253 -0.002356 277007.000000 0 1 0
15.471746 14.053722 -0.012807 20.901727 0.737408 1.571409 0.002509 -0.005784 1018280.000000 0 1 0
15.714646 14.874422 1.099093 21.665792 0.757937 1.520045 0.008922 -0.002922 -464849.000000 0 1 0
14.539446 15.829622 1.369893 21.537154 0.827856 1.507147 0.006555 0.002479 -160620.000000 0 1 0
14.569446 17.004722 0.561593 22.399659 0.862375 1.545722 0.015419 0.005997 -142116.000000 0 1 0
13.523046 17.752422 1.081293 22.342570 0.919813 1.522381 0.002148 -0.001147 -532918.000000 0 1 0
13.436846 19.159122 0.550693 23.407777 0.959179 1.547268 -0.008560 -0.000650 91864.600000 0 1 0
12.757446 19.188322 -0.738807 23.054066 0.984049 1.602849 -0.007295 -0.002104 174076.000000 0 1 0
12.470346 20.532522 -1.051707 24.045791 1.024993 1.614548 -0.003236 -0.002893 -1155740.000000 0 1 0
10.983146 20.716222 -1.026907 23.470106 1.083304 1.614564 0.001336 -0.004698 -1431210.000000 0 1 0
10.388446 20.657822 0.227193 23.123949 1.104846 1.560971 -0.000410 -0.015832 -559744.000000 0 1 0
9.031546 20.977122 0.055093 22.838816 1.164240 1.568384 0.005373 0.001958 30151.600000 0 1 0
8.193346 20.948522 1.360193 22.534898 1.197970 1.510400 0.008179 -0.004342 125381.000000 0 1 0
8.124746 22.101622 2.111193 23.642130 1.218521 1.481379 0.008239 -0.004875 287575.000000 0 1 0
6.993946 22.075122 2.969393 23.346168 1.263976 1.443261 -0.003526 -0.006972 289149.000000 0 1 0
6.598846 23.483022 3.473993 24.638703 1.296856 1.429328 -0.003441 -0.004275 -294010.000000 0 1 0
7.471846 23.891322 4.452493 25.425350 1.267690 1.394768 -0.001318 -0.005902 -178563.000000 0 0 1
6.997746 25.074722 5.086093 26.525053 1.298645 1.377855 0.003177 -0.005005 -29901.300000 0 0 1
7.460546 25.351422 6.538693 27.223314 1.284591 1.328238 -0.003079 0.001230 -162636.000000 0 0 1
7.145146 24.375022 7.482193 26.479766 1.285651 1.284332 -0.002473 -0.006285 -43178.400000 0 0 1
7.721846 24.685822 8.700193 27.289376 1.267634 1.246320 -0.002264 0.000913 -330715.000000 0 0 1
7.223246 23.688222 9.774893 26.624343 1.274823 1.194863 -0.000925 0.002560 -459442.000000 0 0 1
5.927246 23.903722 10.226393 26.666445 1.327735 1.177221 -0.003222 0.003182 -546139.000000 0 0 1
5.418046 23.019722 11.206093 26.169435 1.339638 1.128282 -0.009529 0.007368 156998.000000 0 0 1
4.085446 23.505022 11.845993 26.636525 1.398704 1.109926 -0.012639 0.005299 -174464.000000 0 0 1
3.075346 23.352222 10.908093 25.957090 1.439856 1.137091 -0.014909 0.004726 -561673.000000 0 0 1
1.799146 23.519922 11.498793 26.242063 1.494450 1.117221 -0.009241 0.003599 389130.000000 0 0 1
0.637146 23.745122 10.497693 25.969950 1.543970 1.154665 -0.005724 0.004273 -198649.000000 0 0 1
0.828046 24.921122 9.700793 26.755436 1.537582 1.199769 -0.014769 0.011302 789093.000000 0 0 1
-0.159754 25.044022 8.642993 26.493959 -1.564417 1.238489 -0.011004 0.008165 -24523.500000 0 0 1
-1.459654 25.738622 8.973593 27.297117 -1.514146 1.235830 -0.005129 0.005374 -804533.000000 0 0 1
-2.224054 25.000822 9.894893 26.979555 -1.482071 1.195278 0.003223 0.002464 -309510.000000 0 0 1
-3.401454 25.727722 10.170093 27.873219 -1.439349 1.197303 0.008148 -0.000083 -922675.000000 0 0 1
-4.613254 24.836722 10.492193 27.353811 -1.387146 1.177134 0.014328 -0.007116 -282799.000000 0 0 1
-5.041654 24.837322 11.866493 27.984361 -1.370530 1.132895 0.012221 0.003093 152883.000000 0 0 1
-5.641854 26.025122 12.268293 29.319763 -1.357315 1.139079 0.005984 -0.000838 -835339.000000 0 0 1
-5.854254 26.115422 13.793993 30.109164 -1.350273 1.094903 0.003981 0.007774 675596.000000 0 0 1
-6.909454 25.233522 14.256393 29.794562 -1.303527 1.071862 0.005115 0.002017 564330.000000 0 0 1
-7.084254 25.339922 15.617293 30.597355 -1.298187 1.035131 -0.001792 0.004953 358350.000000 0 0 1
-8.375454 24.545122 15.973993 30.459476 -1.241959 1.018746 -0.002496 -0.001005 575455.000000 0 0 1
-9.608754 25.013422 15.458793 30.934991 -1.204033 1.047522 -0.009366 0.007585 -502101.000000 0 0 1
-10.560854 23.990022 15.543793 30.473961 -1.156106 1.035532 -0.009799 0.005038 42008.000000 0 0 1
-11.934154 24.582922 15.101993 31.222016 -1.118844 1.065923 -0.011897 0.004718 49586.200000 0 0 1
-12.407454 25.570722 16.023093 32.627385 -1.119042 1.057452 -0.003748 0.009842 265045.000000 0 0 1
-13.689854 26.028922 15.609993 33.295476 -1.086607 1.082828 -0.003289 0.005035 144773.000000 0 0 1
-14.261054 27.205722 16.394893 34.818407 -1.087982 1.080521 -0.004262 0.003115 -401701.000000 0 0 1
-14.975854 26.715322 17.474893 35.261261 -1.059873 1.052290 0.001303 0.001937 -417538.000000 0 0 1
-15.352354 27.853722 18.260293 36.673736 -1.067049 1.049607 0.003697 0.006729 10274.700000 0 0 1
-16.626254 27.579722 19.116393 37.450098 -1.028289 1.035089 0.008135 0.005560 314563.000000 0 0 1
-17.757754 27.647422 18.258493 37.591094 -0.999858 1.063617 0.004266 -0.000371 39655.400000 0 0 1
-18.855054 26.974922 18.869693 37.937116 -0.960752 1.050204 0.008618 0.007956 45331.300000 0 0 1
-20.202054 27.068322 18.150593 38.343983 -0.929645 1.077693 0.006785 0.003646 -732737.000000 0 0 1
-20.823154 28.305822 18.343793 39.639854 -0.936543 1.089689 0.004125 0.002195 -5537.130000 0 0 1
-21.435854 28.786822 17.169693 39.786622 -0.930734 1.124592 -0.003446 0.002520 -541976.000000 0 0 1
-22.340254 29.998822 17.178693 41.159735 -0.930693 1.140251 -0.005306 -0.002766 -563716.000000 0 0 1
-23.614354 29.753922 17.703193 41.908670 -0.899936 1.134679 -0.006041 0.002238 -162865.000000 0 0 1
-24.426054 30.926122 17.545893 43.138330 -0.902294 1.151918 -0.006486 -0.000492 626080.000000 0 0 1
-25.861424 30.649222 18.101693 43.998402 -0.869920 1.146788 -0.009195 0.003207 149547.000000 0 0 1
-26.699024 29.825822 17.312393 43.613490 -0.840659 1.162604 -0.002295 0.004159 -408372.000000 0 0 1
-27.985484 29.674022 17.831693 44.516336 -0.814674 1.158663 0.006036 0.006489 -397823.000000 0 0 1
-28.101744 28.605222 19.000593 44.373294 -0.794277 1.128298 0.004518 0.006298 -725014.000000 0 0 1
-28.098984 27.256722 18.532193 43.311938 -0.770184 1.128653 0.006851 0.003300 223615.000000 0 0 1
-28.329174 26.292922 19.574593 43.324641 -0.748137 1.102001 0.007435 0.005148 445.062000 0 0 1
-28.358374 24.848222 19.100493 42.266539 -0.719521 1.101896 0.003477 0.002561 97900.100000 0 0 1
-29.506564 24.628022 18.294993 42.566225 -0.695522 1.126524 0.007534 0.003057 149892.000000 0 0 1
-29.325094 23.715522 17.242393 41.469112 -0.680030 1.141986 0.006331 0.002150 -356909.000000 0 0 1
-29.647814 22.235322 17.501493 40.984200 -0.643489 1.129590 0.007301 -0.000791 88371.200000 0 0 1
-30.962284 21.955422 17.052493 41.611190 -0.616809 1.148556 0.001639 -0.002120 77970.500000 0 0 1
-31.139384 20.548222 16.911193 40.961923 -0.583289 1.145214 -0.004006 -0.004016 280054.000000 0 0 1
-32.498874 20.215522 16.239293 41.575940 -0.556466 1.169520 -0.000881 -0.006910 74116.600000 0 0 1
-32.547814 20.397922 14.852993 41.183089 -0.559825 1.201824 -0.002188 -0.010757 -595800.000000 0 0 1
-33.792634 20.045722 14.347393 41.828468 -0.535403 1.220682 0.001492 -0.007047 -373022.000000 0 0 1
-33.987964 20.475522 12.874593 41.715511 -0.542208 1.257046 0.000800 -0.005809 -238708.000000 0 0 1
-34.052674 21.915422 12.742993 42.452964 -0.571845 1.265928 -0.001979 -0.007681 45349.800000 0 0 1
-34.180357 22.368122 11.395293 42.408518 -0.579472 1.298750 -0.001535 -0.007159 352771.000000 0 0 1
-33.063704 21.854322 10.404193 40.976422 -0.584053 1.314079 -0.001547 -0.005221 161419.000000 0 0 1
-32.997364 20.432122 10.185793 40.125404 -0.554421 1.314139 -0.002765 0.000084 90551.200000 0 0 1
-31.883504 20.058322 9.375993 38.817565 -0.561551 1.326844 0.003592 0.002295 -261754.000000 0 0 1
-30.951194 19.053722 10.042593 37.707750 -0.551815 1.301216 -0.000219 -0.004398 -336060.000000 0 0 1
-30.485204 19.482522 11.303493 37.903631 -0.568661 1.267973 0.003540 -0.006316 98446.500000 0 0 1
-30.070244 18.443722 12.140193 37.306497 -0.550181 1.239343 0.005329 -0.011747 -43158.400000 0 0 1
-29.679434 19.018022 13.514593 37.751797 -0.569867 1.204687 -0.002829 -0.005703 -56203.400000 0 0 1
-28.519634 19.808522 13.551793 37.274632 -0.607064 1.198703 0.003912 -0.005157 -97034.100000 0 0 1
-28.868994 21.189022 13.654293 38.325359 -0.633164 1.206520 0.003989 -0.001193 163448.000000 0 0 1
-27.574784 21.963422 13.909093 37.897539 -0.672606 1.194995 0.009637 -0.003246 -123045.000000 0 0 1
-27.158804 21.881222 15.231893 38.057838 -0.678193 1.159028 0.009298 0.000091 -353456.000000 0 0 1
-25.956124 22.572022 15.442193 37.705144 -0.715776 1.148834 0.005983 -0.000698 -415726.000000 0 0 1
-25.416154 22.290922 16.891493 37.791383 -0.719983 1.107425 0.005907 0.002498 -203308.000000 0 0 1
-24.871654 21.020822 17.154293 36.806846 -0.701684 1.085961 0.015488 0.001815 40771.900000 0 0 1
-24.265754 20.981822 18.431493 36.997075 -0.712948 1.049289 0.007155 0.006813 -79518.900000 0 0 1
-23.423054 19.670322 18.469393 35.730652 -0.698534 1.027564 0.009436 0.008987 -108601.000000 0 0 1
-22.882654 19.524622 19.736393 35.977103 -0.706378 0.990129 0.007392 0.006773 -290784.000000 0 0 1
-22.183054 18.296422 19.837093 34.933611 -0.689677 0.966903 0.001865 0.009378 -134191.000000 0 0 1
-21.498854 18.216922 21.181093 35.251889 -0.702950 0.926232 0.009789 0.006787 -230556.000000 0 0 1
-22.384854 17.757222 22.169493 36.164721 -0.670623 0.910926 0.012884 0.005326 46513.800000 0 0 1
-22.053854 18.310722 23.415293 37.012578 -0.692930 0.885851 0.018253 -0.002693 -162251.000000 0 0 1
-22.932954 17.807422 24.553093 38.024716 -0.660246 0.868838 0.013250 -0.000468 -316567.000000 0 0 1
-22.627954 16.469422 24.832193 37.415290 -0.629164 0.845054 0.015259 -0.002259 -361765.000000 0 0 1
-23.230554 15.926722 25.906893 38.268606 -0.600992 0.827151 0.015397 -0.004195 -574180.000000 0 0 1
20.042146 24.624322 34.536606 46.912919 0.887627 0.743380 -0.008388 0.000203 103481.000000 0 0 1
20.686646 23.734622 33.628902 46.067045 0.853906 0.752476 -0.012257 0.002116 78048.500000 0 0 1
20.431646 22.353922 33.927386 45.477659 0.830296 0.728726 -0.005414 0.003187 169770.000000 0 0 1
19.158746 21.740522 33.288803 44.134479 0.848440 0.716272 -0.001747 0.006861 3298.340000 0 0 1
19.449746 21.344522 31.927513 43.049359 0.831812 0.735271 0.001391 0.007469 39249.100000 0 0 1
18.481946 20.540522 31.301133 41.752321 0.838103 0.723209 -0.003924 0.006037 -523473.000000 0 0 1
18.981346 20.023222 29.935203 40.710408 0.812103 0.744657 -0.003021 0.001533 422352.000000 0 0 1
20.109946 19.115222 29.972343 40.842906 0.760044 0.746832 0.003474 0.001048 575833.000000 0 0 1
20.389646 18.417922 28.757813 39.773978 0.734634 0.762617 0.005469 -0.008289 -69213.000000 0 0 1
21.566646 17.417622 28.849563 40.009887 0.679369 0.765464 0.011429 -0.004708 -516062.000000 0 0 1
22.770946 18.021422 29.099833 41.110679 0.669488 0.784359 0.013928 -0.004644 -1113830.000000 0 0 1
23.774046 17.215322 29.670273 41.736048 0.626733 0.780015 0.017046 -0.004404 -263711.000000 0 0 1
25.141346 17.867222 29.723533 42.834721 0.617852 0.803888 0.013850 -0.009542 -566253.000000 0 0 1
25.960346 17.873022 28.593133 42.555279 0.602948 0.834018 0.012511 -0.003338 691555.000000 0 0 1
27.308246 18.255022 28.920893 43.765331 0.589257 0.848889 0.008222 -0.006549 1114530.000000 0 0 1
28.296446 18.279322 27.727063 43.630408 0.573554 0.882142 0.011235 -0.004561 135955.000000 0 0 1
28.188046 19.434322 26.899363 43.541182 0.603612 0.904866 0.002113 0.006078 867909.000000 0 0 1
29.289446 19.399822 25.950483 43.676679 0.585007 0.934588 0.001487 0.003345 711484.000000 0 0 1
29.496646 20.638622 25.101873 43.887457 0.610520 0.961903 -0.001610 0.006228 119107.000000 0 0 1
28.500546 20.896922 24.104933 42.778619 0.632669 0.972203 0.001499 0.004093 402206.000000 0 0 1
28.957946 21.676422 22.991633 42.860764 0.642571 1.004600 0.001066 0.000097 -237437.000000 0 0 1
29.656046 20.897322 21.840233 42.345896 0.613844 1.028904 -0.000851 0.001380 -759701.000000 0 0 1
28.931846 19.926122 21.136633 40.998284 0.603120 1.029148 -0.002027 -0.001254 -146893.000000 0 0 1
29.537046 19.375722 19.965633 40.576868 0.580568 1.056359 -0.005461 -0.001492 94214.200000 0 0 1
30.625846 18.267322 20.095433 40.932431 0.537818 1.057626 -0.001017 -0.002290 312751.000000 0 0 1
30.112346 17.034922 20.515933 40.222450 0.514826 1.035540 -0.000188 0.000452 732395.000000 0 0 1
31.222546 16.166722 20.801233 40.852192 0.477778 1.036561 0.000238 0.006640 458870.000000 0 0 1
30.730946 14.708922 21.252933 40.155082 0.446410 1.013055 0.000938 0.005709 383240.000000 0 0 1
30.204746 14.531522 22.563533 40.405505 0.448414 0.978308 0.002465 0.005162 778929.000000 0 0 1
28.927946 15.142422 22.793933 39.820628 0.482234 0.961348 0.001321 0.005122 528162.000000 0 0 1
28.051246 14.388822 23.875833 39.547010 0.473952 0.922621 -0.003006 0.002735 343033.000000 0 0 1
27.464346 13.159822 23.441033 38.431149 0.446837 0.914800 -0.004646 0.003134 123211.000000 0 0 1
26.930246 12.475722 24.561423 38.524606 0.433827 0.879480 -0.002907 0.002533 -279283.000000 0 0 1
26.315246 11.150922 24.204633 37.452630 0.400806 0.868106 0.000322 0.005988 -193458.000000 0 0 1
25.169546 11.304622 23.381933 36.166494 0.422138 0.867798 0.006617 0.006254 266047.000000 0 0 1
24.820546 10.091322 22.707433 35.121529 0.386158 0.867758 0.009265 0.005470 -873527.000000 0 0 1
23.539346 10.142222 21.925333 33.729597 0.406826 0.863169 0.011334 0.001268 -1025840.000000 0 0 1
22.339046 9.807922 22.551333 33.223349 0.413709 0.824697 0.004463 0.004535 182325.000000 0 0 1
21.510146 8.928622 21.793433 31.896087 0.393446 0.818573 -0.000066 0.006837 -1076520.000000 0 0 1
20.072446 8.870522 22.194333 31.211819 0.416119 0.779753 0.001128 0.005670 -1344670.000000 0 0 1
19.822746 8.208322 23.390333 31.739967 0.392590 0.742270 0.002889 0.004931 -205986.000000 0 0 1
18.455146 8.365022 23.650333 31.143286 0.425564 0.708400 -0.001418 0.004568 -555065.000000 0 0 1
17.905146 7.842422 24.969373 31.710683 0.412829 0.664197 -0.002475 0.002843 -500076.000000 0 0 1
17.688746 6.450322 24.872483 31.195173 0.349672 0.647957 0.008077 0.001938 195158.000000 0 0 1
17.628146 5.889422 26.165043 32.094334 0.322433 0.617628 0.005023 -0.002977 -295307.000000 0 0 1
17.852746 4.327922 26.099023 31.915677 0.237835 0.613307 0.007148 -0.005910 348225.000000 0 0 1
19.213246 3.995122 25.823183 32.433726 0.205014 0.649836 0.012813 -0.005099 416731.000000 0 0 1
19.412546 2.584022 25.874963 32.450544 0.132333 0.647878 0.002984 -0.004494 12748.600000 0 0 1
20.888646 2.185322 25.610493 33.121119 0.104238 0.686865 0.001718 -0.001172 376016.000000 0 0 1
21.736946 2.653622 26.670823 34.508975 0.121478 0.687451 0.003653 -0.001652 1650.160000 0 0 1
23.044946 2.855422 26.155003 34.975808 0.123278 0.726050 0.002193 0.006698 305080.000000 0 0 1
23.897846 3.367722 27.366683 36.488134 0.140000 0.722710 0.002829 0.002235 -579561.000000 0 0 1
24.060146 2.293122 28.305383 37.220206 0.095021 0.706738 -0.000671 -0.002695 -11810.000000 0 0 1
24.851846 2.489122 29.454583 38.618421 0.099826 0.703306 0.004960 0.001693 573524.000000 0 0 1
26.383446 2.649822 29.220513 39.458157 0.100099 0.736916 0.001577 0.003372 -508597.000000 0 0 1
26.772946 3.870722 28.594323 39.362526 0.143581 0.757676 0.000192 0.012033 401642.000000 0 0 1
28.132746 3.852222 28.167593 39.996304 0.136084 0.789423 -0.001927 0.009706 374815.000000 0 0 1
28.517946 2.877022 27.022133 39.392210 0.100544 0.814851 0.002019 0.006483 -637694.000000 0 0 1
28.056446 3.119122 25.694583 38.172041 0.110718 0.832369 0.008414 0.010812 -57568.100000 0 0 1
28.418646 2.064722 24.807403 37.779489 0.072526 0.854446 0.011372 0.007804 -394241.000000 0 0 1
28.024946 2.384122 23.317833 36.534956 0.084867 0.878595 0.009568 0.008477 313126.000000 0 0 1
28.717946 3.544022 22.787833 36.831588 0.122787 0.903705 0.013942 0.007540 -22198.400000 0 0 1
30.122746 3.367822 22.703133 37.870230 0.111341 0.927922 0.011770 0.007295 -159720.000000 0 0 1
30.696246 4.572022 21.936333 38.004810 0.147857 0.955502 -0.002188 0.006285 -848558.000000 0 0 1
30.520346 4.512622 20.503333 37.043784 0.146793 0.984248 0.003512 -0.007576 -47933.000000 0 0 1
30.952846 5.721222 19.931633 37.256960 0.182774 1.006315 -0.001366 -0.000117 307947.000000 0 0 1
32.462246 6.100822 19.879233 38.551282 0.185769 1.029022 -0.009369 0.000099 126519.000000 0 0 1
33.179446 6.166222 21.134333 39.819065 0.183748 1.011300 -0.007838 0.000202 382451.000000 0 0 1
32.856146 7.300622 21.955433 40.185401 0.218647 0.992792 -0.002156 -0.003965 -800448.000000 0 0 1
33.539446 7.198122 23.296433 41.466024 0.211410 0.974212 -0.004587 -0.005582 -558927.000000 0 0 1
32.945046 6.214522 24.084333 41.280158 0.186442 0.947843 -0.002827 -0.001989 -518619.000000 0 0 1
33.698646 5.876522 25.183153 42.477329 0.172648 0.936189 -0.000696 -0.004129 -309926.000000 0 0 1
33.039146 4.823022 26.103053 42.381790 0.144955 0.907265 -0.006209 -0.001480 50810.700000 0 0 1
33.026246 3.545822 25.511683 41.882595 0.106954 0.915841 -0.005092 0.001552 -291973.000000 0 0 1
32.493446 2.582822 26.331283 41.902643 0.079321 0.891312 0.002433 0.003759 -295304.000000 0 0 1
32.554546 1.165322 25.736803 41.515533 0.035781 0.902140 -0.002455 0.001453 -616986.000000 0 0 1
31.568946 0.833222 24.817003 40.164365 0.026388 0.904745 -0.003180 0.000133 -500915.000000 0 0 1
31.749946 -0.530278 24.409293 40.051890 -0.016700 0.915440 -0.001757 0.003066 260408.000000 0 0 1
30.586446 -1.079778 23.541633 38.612240 -0.035288 0.915122 0.003474 0.000183 -186697.000000 0 0 1
29.423946 -1.369778 24.240033 38.147400 -0.046520 0.882230 0.006636 0.001549 -887655.000000 0 0 1
28.648546 -2.344678 23.586033 37.182491 -0.081661 0.883653 0.006670 -0.000733 538954.000000 0 0 1
27.107246 -2.256778 23.791933 36.137957 -0.083062 0.852153 0.006491 0.007096 351586.000000 0 0 1
26.653746 -1.015578 23.351933 35.450901 -0.038084 0.851691 0.010194 0.004191 -1474210.000000 0 0 1
25.288146 -0.914778 23.466133 34.510673 -0.036158 0.823078 0.009551 0.005195 -1130110.000000 0 0 1
24.721146 0.555322 23.376733 34.028151 0.022460 0.813468 0.002193 0.004839 -145531.000000 0 0 1
24.815246 1.186122 22.057133 33.222288 0.047762 0.844740 0.003111 0.002477 212142.000000 0 0 1
24.139746 2.451922 22.096033 32.817281 0.101225 0.832127 0.004753 0.004312 79057.800000 0 0 1
24.001046 3.300622 20.866633 31.974376 0.136663 0.859779 0.000433 0.000277 50588.500000 0 0 1
22.932846 2.861822 20.040833 30.589875 0.124150 0.856421 -0.002867 0.000129 408419.000000 0 0 1
22.594646 3.883122 19.109433 29.845722 0.170198 0.875942 0.003735 -0.000745 -137572.000000 0 0 1
22.554846 3.448622 17.602133 28.817515 0.151724 0.913708 0.002621 0.001240 242792.000000 0 0 1
23.830446 3.435922 16.953533 29.446867 0.143195 0.957296 0.000742 0.002085 523455.000000 0 0 1
23.833346 3.403322 15.548733 28.659625 0.141838 0.997349 -0.004912 -0.001375 -381173.000000 0 0 1
23.432146 2.124222 14.775033 27.782717 0.090407 1.010064 -0.006471 0.007396 -189149.000000 0 0 1
22.032546 1.970322 14.801733 26.615908 0.089191 0.981082 0.001511 0.006617 169885.000000 0 0 1
21.686846 0.794422 14.099033 25.879203 0.036615 0.994644 -0.002642 0.011778 -1163190.000000 0 0 1
20.201446 0.532822 13.975133 24.570036 0.026369 0.965765 -0.004787 0.003368 -902970.000000 0 1 0
19.423146 1.391222 13.146233 23.495054 0.071505 0.976975 0.012460 0.001775 724409.000000 0 1 0
19.551046 1.109622 11.727733 22.825739 0.056694 1.031195 0.016884 -0.000987 -779764.000000 0 1 0
19.119146 -0.264078 11.139133 22.128980 -0.013811 1.043298 0.007659 0.001562 -222018.000000 0 1 0
20.036246 -1.313078 11.323433 23.052016 -0.065442 1.057315 0.002162 -0.002523 379379.000000 0 1 0
21.149246 -1.365378 10.432833 23.622000 -0.064470 1.113351 -0.002772 -0.001720 329885.000000 0 1 0
22.246746 -2.264278 11.096733 24.963616 -0.101431 1.110162 -0.005819 0.002145 -126016.000000 0 1 0
22.646846 -1.788478 12.381533 25.872392 -0.078809 1.071781 -0.010822 -0.000108 -32462.200000 0 0 1
23.600946 -2.719478 12.823533 26.997096 -0.114722 1.075836 -0.019489 -0.001947 -377250.000000 0 0 1
23.931746 -2.473678 14.308933 27.992733 -0.102998 1.034255 0.001586 -0.000790 -324692.000000 0 0 1
24.885246 -1.474678 14.513933 28.846220 -0.059190 1.043558 -0.006115 0.001056 -223427.000000 0 0 1
25.108946 -1.187678 15.862833 29.723715 -0.047266 1.007855 -0.006305 -0.001990 -457264.000000 0 0 1
26.294046 -0.248578 16.163233 30.865656 -0.009454 1.019650 0.008965 -0.000831 -577428.000000 0 0 1
27.440046 -1.025178 15.939133 31.750009 -0.037343 1.044864 0.004370 0.002726 -896976.000000 0 0 1
28.578346 -0.308878 16.364333 32.933397 -0.010808 1.050783 0.000956 0.002879 -259554.000000 0 0 1
29.796546 -1.257378 16.390633 34.030398 -0.042174 1.068263 -0.002069 0.006711 -193451.000000 0 0 1
30.212446 -1.589878 15.079233 33.803888 -0.052575 1.108416 -0.000618 0.006766 -61977.300000 0 0 1
31.498746 -2.151678 15.049533 34.975551 -0.068204 1.125985 0.000871 0.003445 -41906.200000 0 0 1
32.053646 -2.649578 13.666433 34.946071 -0.082473 1.169000 -0.000394 0.005610 173441.000000 0 0 1
32.021146 -1.619278 12.709833 34.489356 -0.050526 1.193386 0.002645 0.007377 397018.000000 0 0 1
32.575946 -2.092578 11.470733 34.599839 -0.064149 1.232876 0.001356 0.003012 84856.400000 0 0 1
31.921046 -1.325978 10.288633 33.564376 -0.041515 1.259246 0.004042 0.004222 -253690.000000 0 0 1
32.343946 0.016222 10.252333 33.929949 0.000502 1.263837 -0.000048 0.010120 561848.000000 0 0 1
31.413646 0.833222 9.551833 32.844313 0.026518 1.275711 -0.007657 0.007913 49466.800000 0 0 1
31.956546 2.279022 9.312833 33.363807 0.071196 1.287909 -0.012105 0.009426 60883.600000 0 0 1
32.887146 2.285822 8.241533 33.981057 0.069393 1.325820 -0.007878 0.006313 192494.000000 0 0 1
33.274246 3.580122 7.898233 34.385677 0.107182 1.339032 -0.008497 0.007937 -225377.000000 0 0 1
33.857346 3.691822 6.449933 34.663396 0.108611 1.383632 -0.004391 0.008549 -154321.000000 0 0 1
34.076846 5.010822 6.042233 34.969249 0.145998 1.397138 -0.011754 0.004082 53663.300000 0 0 1
34.409246 5.004322 4.690133 35.086134 0.144423 1.436720 -0.010870 0.004656 -380812.000000 0 0 1
-34.538983 6.381222 4.256233 35.380459 -0.182694 1.450205 -0.016641 -0.002325 -176546.000000 0 0 1
33.969246 7.345522 4.211233 35.008582 0.212961 1.450213 -0.006412 -0.003152 3867.070000 0 0 1
34.346546 8.545222 3.609633 35.577176 0.243843 1.469162 -0.008274 -0.007101 -1135540.000000 0 0 1
33.232646 9.548222 3.795433 34.784804 0.279778 1.461467 -0.000240 -0.013125 381488.000000 0 0 1
32.122846 9.459622 2.882233 33.610548 0.286387 1.484937 0.002997 -0.014787 797513.000000 0 0 1
31.202646 8.380022 3.013133 32.448557 0.262376 1.477804 -0.000376 -0.004704 -302891.000000 0 0 1
30.006646 8.338222 2.030033 31.209706 0.271041 1.505705 0.000005 -0.007763 -94110.600000 0 0 1
30.264146 8.174522 0.612433 31.354687 0.263810 1.551263 0.002315 -0.014836 -247356.000000 0 0 1
29.109246 8.130022 -0.166067 30.223716 0.272353 1.576291 0.000626 -0.003391 -265838.000000 0 0 1
29.536146 8.124522 -1.718467 30.681344 0.268432 1.626836 0.004289 0.003467 -45891.400000 0 0 1
28.599446 7.387422 -2.440167 29.638771 0.252781 1.653220 0.001361 0.004062 369025.000000 0 0 1
29.138846 7.144322 -3.720067 30.231648 0.240439 1.694161 0.002711 -0.000271 -641993.000000 0 0 1
28.292846 6.427222 -4.755967 29.400910 0.223377 1.733273 0.002176 0.000704 -805472.000000 0 0 1
28.043746 5.048222 -4.593567 28.862382 0.178105 1.730630 0.001172 0.002921 510206.000000 0 0 1
27.300146 4.618722 -5.697967 28.268311 0.167596 1.773754 -0.002470 0.003552 -475662.000000 0 0 1
27.074246 3.088322 -5.779467 27.855964 0.113578 1.779791 -0.003684 0.003471 -414711.000000 0 0 1
26.267446 2.619322 -4.729867 26.818113 0.099389 1.748092 -0.004049 0.004196 377726.000000 0 0 1
26.301946 1.171522 -4.710667 26.746125 0.044512 1.747845 -0.004305 0.009598 -151468.000000 0 0 1
26.044646 0.503922 -3.334867 26.262118 0.019346 1.698124 -0.008042 0.008327 -215579.000000 0 0 1
27.050546 0.912022 -2.453467 27.176889 0.033703 1.661197 -0.004378 0.008230 317133.000000 0 0 1
26.865746 0.318222 -1.216567 26.895159 0.011844 1.616045 -0.005525 0.005405 439244.000000 0 0 1
27.990846 0.792522 -0.215367 28.002891 0.028306 1.578487 -0.005808 0.004093 685185.000000 0 0 1
29.241346 0.151122 -0.302567 29.243302 0.005168 1.581143 -0.003198 0.011811 608986.000000 0 0 1
30.247046 0.701222 0.561233 30.260378 0.023179 1.552248 -0.002928 0.006924 412185.000000 0 0 1
-2.477154 -21.339278 -8.726807 23.187459 1.455229 1.956659 -0.007949 0.003464 211040.000000 0 1 0
-2.917954 -21.889378 -7.519907 23.328273 1.438273 1.899009 -0.010304 0.006940 -20796.500000 0 1 0
-2.179254 -23.050978 -7.222607 24.254130 1.476536 1.873172 -0.005706 0.005621 -36113.200000 0 1 0
-2.787054 -23.683478 -5.982407 24.585850 1.453656 1.816591 -0.007209 0.007773 -820150.000000 0 1 0
-2.731754 -22.884478 -4.768807 23.535151 1.451987 1.774834 -0.015327 0.007047 -154554.000000 0 1 0
-3.306154 -23.597478 -3.707807 24.114715 1.431596 1.725166 -0.005516 0.007923 -358308.000000 0 1 0
-2.958954 -22.917978 -2.357907 23.228191 1.442396 1.672482 -0.010573 0.002883 950221.000000 0 1 0
-1.546854 -22.931078 -2.081107 23.077221 1.503442 1.661099 -0.014171 -0.003488 279692.000000 0 1 0
-1.368854 -22.798578 -0.681007 22.849786 1.510827 1.600604 -0.011850 -0.004441 -917921.000000 0 1 0
0.018846 -22.705078 -0.119707 22.705402 -1.569966 1.576069 -0.010469 -0.008006 -919148.000000 0 1 0
0.725846 -21.607678 -0.684007 21.630684 -1.537217 1.602424 -0.014986 -0.010228 520772.000000 0 1 0
1.967346 -21.408378 0.033793 21.498610 -1.479158 1.569224 -0.012463 -0.007215 668082.000000 0 1 0
2.829946 -20.263278 -0.492707 20.465869 -1.432035 1.594873 -0.010084 -0.008503 -133321.000000 0 1 0
3.568146 -20.720478 -1.604507 21.086591 -1.400265 1.646961 -0.011936 -0.005567 -864101.000000 0 1 0
4.360546 -19.667278 -2.037007 20.247607 -1.352610 1.671572 -0.006798 -0.008755 -816473.000000 0 1 0
5.201746 -20.181478 -3.201107 21.085476 -1.318538 1.723201 -0.002440 -0.005190 -1815240.000000 0 1 0
6.069146 -21.201778 -2.756307 22.224922 -1.291995 1.695135 0.002182 -0.007865 -424284.000000 0 1 0
6.676846 -21.864278 -3.873607 23.186888 -1.274414 1.738644 0.007237 -0.003856 -405172.000000 0 1 0
7.915146 -21.106578 -4.298107 22.948004 -1.212018 1.759207 0.009887 0.000133 -1601810.000000 0 1 0
7.621946 -20.025878 -5.061407 22.016987 -1.207121 1.802757 0.003539 0.000229 -965817.000000 0 1 0
8.786846 -19.538478 -5.613407 22.146583 -1.148175 1.827058 0.004077 -0.000022 -1022460.000000 0 1 0
8.542546 -18.280778 -6.491107 21.196613 -1.133652 1.882030 0.000437 0.004470 -285726.000000 0 1 0
9.479346 -18.080178 -7.527407 21.758049 -1.087902 1.924058 0.003345 0.010616 81142.600000 0 1 0
9.359146 -16.869878 -8.202707 20.963559 -1.064287 1.972823 0.004957 0.006806 538692.000000 0 1 0
10.285646 -16.706178 -9.494607 21.795377 -1.018928 2.021529 0.010909 -0.000143 -412335.000000 0 1 0
9.814346 -17.365478 -10.630207 22.602711 -1.056385 2.060435 0.016991 -0.003278 -335276.000000 0 1 0
8.903946 -16.626778 -11.349607 22.012351 -1.079139 2.112506 -0.003603 -0.006552 -415034.000000 0 1 0
8.346446 -17.115678 -12.702507 22.890244 -1.117078 2.159076 -0.002981 -0.012263 -103582.000000 0 1 0
7.269046 -18.019478 -12.569107 23.141372 -1.187363 2.144974 -0.004193 -0.002821 -153278.000000 0 1 0
6.761746 -18.393178 -13.817307 23.978077 -1.218509 2.184926 -0.007110 -0.001096 1454270.000000 0 1 0
5.387746 -19.186178 -13.550007 24.098546 -1.297033 2.167930 -0.004806 -0.002403 1177090.000000 0 1 0
5.700746 -20.426778 -13.023907 24.887224 -1.298639 2.121535 0.000617 -0.007207 -263561.000000 0 1 0
4.513546 -21.133278 -12.857107 25.145432 -1.360382 2.107505 0.003826 -0.002271 -498122.000000 0 0 1
4.749646 -22.638778 -12.581307 26.331781 -1.363994 2.068944 0.000052 -0.004162 -157173.000000 0 0 1
5.082346 -23.229178 -13.820007 27.503046 -1.355399 2.097273 0.004371 -0.006019 -126270.000000 0 0 1
5.043346 -24.656678 -13.784907 28.695135 -1.369037 2.071898 -0.000555 -0.005506 -544854.000000 0 0 1
3.704246 -25.271628 -14.182207 29.214921 -1.425255 2.077667 -0.003735 -0.001469 -653591.000000 0 0 1
2.675746 -24.868678 -13.305507 28.331031 -1.463614 2.059684 0.000487 -0.004461 -112724.000000 0 0 1
1.373346 -25.132528 -13.825807 28.717294 -1.516206 2.073099 -0.005138 -0.003621 323774.000000 0 0 1
0.742146 -26.463838 -13.354007 29.651560 -1.542760 2.037970 -0.009282 0.003568 -723165.000000 0 0 1
1.418546 -27.644168 -13.805007 30.932031 -1.519527 2.033424 -0.012069 0.007273 24599.400000 0 0 1
0.848546 -28.859848 -13.413807 31.836160 -1.541402 2.005717 -0.012232 0.003887 69515.200000 0 0 1
-0.560854 -29.355928 -13.851007 32.464372 1.551693 2.011585 -0.007269 -0.001295 503680.000000 0 0 1
-1.628354 -28.659058 -13.261807 31.620700 1.514039 2.003584 -0.013423 -0.001482 -507376.000000 0 0 1
-2.877254 -29.080928 -13.726207 32.286030 1.472178 2.009917 -0.004730 -0.001030 -860508.000000 0 0 1
-4.060554 -28.334948 -13.138007 31.495470 1.428460 2.001092 0.002264 -0.004427 -473576.000000 0 0 1
-4.240154 -28.434408 -11.734207 31.051346 1.422767 1.958320 0.011449 -0.010505 -24212.100000 0 0 1
-4.800254 -29.652108 -11.300207 32.093374 1.410303 1.930615 0.003871 -0.010036 -653846.000000 0 0 1
-5.344454 -29.742538 -9.845107 31.782195 1.393003 1.885745 0.011492 -0.012677 954731.000000 0 0 1
-6.715654 -29.427328 -9.524107 31.650850 1.346427 1.876445 0.012368 -0.008498 711356.000000 0 0 1
-7.043954 -28.042498 -9.545407 30.448543 1.324699 1.889666 0.009288 -0.004350 -644983.000000 0 0 1
-8.513854 -27.784238 -9.125107 30.458450 1.273453 1.875061 0.011582 0.002072 1086200.000000 0 0 1
-9.516954 -28.043768 -10.155807 31.307599 1.243631 1.901161 0.008927 -0.000100 501667.000000 0 0 1
-9.602554 -29.352208 -10.659307 32.670813 1.254622 1.903145 0.016149 -0.007544 -1244560.000000 0 0 1
-10.795154 -29.611998 -11.591207 33.582166 1.221216 1.923205 0.006873 -0.004973 -739095.000000 0 0 1
-10.868754 -28.761548 -12.714307 33.271761 1.209493 1.962902 0.007953 -0.003074 86395.100000 0 0 1
-11.779154 -29.242868 -13.685207 34.368281 1.187875 1.980342 0.006624 -0.003686 -201540.000000 0 0 1
-11.909554 -28.307658 -14.885907 34.128452 1.172558 2.022138 0.007543 -0.001563 -302159.000000 0 0 1
-12.858854 -27.241248 -14.812307 33.568440 1.129769 2.027795 0.002712 -0.000252 508598.000000 0 0 1
-12.508154 -26.189858 -13.900707 32.180619 1.125233 2.017460 0.007455 0.001862 -107956.000000 0 0 1
-13.581054 -25.101388 -14.020807 31.797921 1.074852 2.027436 0.009902 0.005058 -100403.000000 0 0 1
-13.331854 -24.206578 -15.096307 31.489606 1.067375 2.070774 0.003623 0.005080 1042640.000000 0 0 1
-14.483354 -23.394978 -15.446507 31.554511 1.016466 2.082333 0.014271 0.005219 747493.000000 0 0 1
-14.182954 -22.551778 -16.699007 31.441942 1.009393 2.130702 0.011573 0.004361 454670.000000 0 0 1
-13.145254 -21.577478 -16.548807 30.203448 1.023631 2.150662 0.004945 0.002367 600092.000000 0 0 1
-12.739954 -20.907178 -17.720807 30.223229 1.023524 2.197318 0.005041 0.002175 -202280.000000 0 0 1
-12.836954 -19.399078 -17.766007 29.270166 0.986219 2.223034 0.011183 0.001408 -27247.300000 0 0 1
-11.698754 -18.682478 -17.305007 28.024259 1.011343 2.236358 0.009431 0.000276 211317.000000 0 0 1
-11.894554 -17.281878 -17.421307 27.269868 0.967988 2.263797 0.014372 0.001873 -691047.000000 0 0 1
-10.636654 -16.497278 -17.689307 26.423667 0.998119 2.304264 0.016506 -0.001571 -249028.000000 0 0 1
-9.878854 -16.094878 -16.531007 25.098029 1.020300 2.289830 0.012472 -0.000544 1242390.000000 0 0 1
-8.611554 -15.512078 -16.931307 24.524531 1.064007 2.332814 0.016740 0.002892 807795.000000 0 1 0
-7.804354 -14.871578 -15.761607 23.032587 1.087519 2.324464 0.011945 0.000861 69368.400000 0 1 0
-7.393654 -15.775278 -14.764807 22.836923 1.132512 2.273826 0.004069 0.007328 -132696.000000 0 1 0
-6.329254 -16.668378 -14.947707 23.266462 1.207897 2.268497 0.004179 0.011905 -540849.000000 0 1 0
-6.076854 -17.550078 -13.700007 23.078639 1.237459 2.206350 0.002426 0.013804 -257578.000000 0 1 0
-5.511054 -16.858778 -12.572207 21.740527 1.254851 2.187421 -0.002073 0.011316 281287.000000 0 1 0
-5.353454 -17.700678 -11.434707 21.742263 1.277099 2.124594 -0.001307 0.008216 216702.000000 0 1 0
-4.211254 -18.782878 -11.375807 22.359342 1.350237 2.104554 -0.000439 0.006773 -639420.000000 0 1 0
-2.973354 -18.208978 -11.544907 21.764480 1.408934 2.129924 0.001551 0.007982 -1722070.000000 0 1 0
-2.031954 -19.220678 -11.685407 22.585660 1.465470 2.114585 -0.003366 0.011040 -308082.000000 0 1 0
-0.629654 -18.750878 -12.086507 22.317606 1.537229 2.143098 -0.001934 0.016056 -1058800.000000 0 1 0
-0.577454 -18.181578 -13.419907 22.605246 1.539047 2.206400 0.000903 0.005507 442685.000000 0 1 0
0.665246 -17.586678 -13.849707 22.395272 -1.532988 2.237528 0.001095 0.009342 537973.000000 0 1 0
1.925946 -18.449678 -13.920407 23.192189 -1.466784 2.214572 0.000989 0.003369 -1032680.000000 0 1 0
1.923146 -19.453078 -14.930207 24.597395 -1.472256 2.223055 0.006693 0.005391 386583.000000 0 1 0
1.198446 -20.639978 -14.496707 25.250733 -1.512797 2.182314 -0.001742 0.000741 -241439.000000 0 0 1
1.073846 -21.644978 -15.696107 26.758662 -1.521225 2.197626 -0.001816 0.002258 -357987.000000 0 0 1
2.202246 -22.356878 -16.104307 27.641067 -1.472609 2.192748 -0.004724 0.005073 -306994.000000 0 0 1
3.046846 -21.612678 -16.990807 27.660055 -1.430744 2.232260 -0.003695 0.012347 462813.000000 0 0 1
4.466846 -22.194978 -17.226507 28.448591 -1.372195 2.221229 -0.006546 0.008768 343478.000000 0 0 1
4.322746 -23.385678 -17.955907 29.799173 -1.388014 2.217506 -0.009125 0.005881 187563.000000 0 0 1
5.607746 -23.929178 -18.174007 30.567089 -1.340603 2.207516 0.000345 0.002848 39313.500000 0 0 1
6.065946 -23.825878 -19.623307 31.456992 -1.321498 2.244409 -0.000769 0.004377 -259084.000000 0 0 1
6.255346 -22.537678 -20.182207 30.893329 -1.300060 2.282714 0.002144 0.000298 130420.000000 0 0 1
6.489846 -22.592778 -21.548707 31.888846 -1.291075 2.312770 0.016505 -0.002539 164760.000000 0 0 1
6.848946 -21.270278 -22.268907 31.547377 -1.259284 2.354472 0.002965 -0.014922 -370252.000000 0 0 1
5.661246 -20.557578 -22.369707 30.904167 -1.302072 2.380150 -0.001347 -0.005611 -323369.000000 0 0 1
5.858546 -19.174178 -22.466807 30.111943 -1.274262 2.412996 0.000152 -0.005150 385948.000000 0 0 1
4.560346 -18.415178 -22.882907 29.724451 -1.328040 2.449378 0.006361 -0.003218 -440795.000000 0 0 1
4.220846 -18.542178 -24.245807 30.813748 -1.346975 2.476485 0.003694 -0.001508 797814.000000 0 0 1
3.373046 -17.414978 -24.711207 30.418788 -1.379479 2.518995 0.004534 0.003229 1201290.000000 0 0 1
1.971846 -17.225878 -24.092007 29.682383 -1.456822 2.517785 -0.001880 0.006018 -601360.000000 0 0 1
2.127246 -16.277978 -23.040707 28.290846 -1.440850 2.522530 0.005950 0.003333 120951.000000 0 0 1
0.929646 -15.865378 -22.387607 27.455044 -1.512267 2.524264 0.000920 0.004108 455627.000000 0 0 1
1.320646 -15.149578 -21.061507 25.977700 -1.483842 2.516234 -0.003023 0.005698 -226255.000000 0 0 1
2.143946 -14.042378 -21.203807 25.522271 -1.419289 2.551333 -0.000590 0.008809 -512563.000000 0 0 1
2.142046 -13.341378 -19.975907 24.116749 -1.411598 2.546863 -0.000702 0.001811 -528188.000000 0 1 0
3.351846 -12.474978 -19.730107 23.582559 -1.308310 2.561916 0.005906 -0.000417 -1260420.000000 0 1 0
4.564346 -13.122178 -19.396607 23.859027 -1.236052 2.520026 0.004319 -0.002928 -309356.000000 0 1 0
5.632546 -12.224878 -19.561407 23.744934 -1.139043 2.538903 0.004774 -0.003612 -68579.300000 0 1 0
5.844546 -11.205178 -18.385107 22.309794 -1.090024 2.539377 0.007432 -0.004553 -744585.000000 0 1 0
4.886546 -10.157378 -18.269507 21.466848 -1.122396 2.588791 -0.000977 -0.000862 -27441.000000 0 1 0
5.101546 -9.004478 -19.084007 21.709577 -1.055331 2.644682 0.003209 -0.005625 -225533.000000 0 1 0
4.638746 -9.100578 -20.536107 22.936220 -1.099403 2.680029 0.009414 -0.006271 -880773.000000 0 1 0
3.256846 -9.271478 -20.575307 22.801549 -1.232985 2.696021 0.005101 -0.009490 -854574.000000 0 1 0
2.881846 -9.167478 -21.928607 23.941836 -1.266222 2.728570 0.001437 -0.010655 -664086.000000 0 1 0
1.373646 -9.018778 -22.050807 23.863432 -1.419648 2.749318 -0.004449 -0.011162 -604254.000000 0 1 0
0.967446 -7.706778 -21.708107 23.055852 -1.445918 2.797982 -0.000441 -0.008607 513302.000000 0 1 0
-0.423454 -7.489378 -21.999507 23.243245 1.514316 2.812978 -0.002862 -0.003252 770140.000000 0 1 0
-0.703454 -6.529778 -23.175307 24.087916 1.463480 2.865447 0.001641 0.004113 -299087.000000 0 1 0
-0.495154 -7.060678 -24.469107 25.472251 1.500783 2.860015 0.000299 0.000545 -226130.000000 0 0 1
-1.058054 -6.289878 -25.553787 26.337769 1.404141 2.896990 -0.002353 0.001103 -322252.000000 0 0 1
-0.468354 -4.948878 -25.966557 26.438095 1.476439 2.952443 0.003841 -0.000920 -566318.000000 0 0 1
-0.970054 -4.403778 -27.177287 27.548851 1.353981 2.977167 -0.002025 -0.000734 -210803.000000 0 0 1
-0.540354 -3.113578 -27.549847 27.730497 1.398960 3.027386 -0.003940 0.000605 -1283770.000000 0 0 1
-0.929254 -1.912778 -26.666477 26.751135 1.118562 3.062015 -0.002982 0.000855 245216.000000 0 0 1
-2.335454 -1.741878 -26.580627 26.739825 0.640834 3.032419 0.000106 0.004597 8097.680000 0 0 1
-2.945554 -1.224678 -27.726897 27.909800 0.394028 3.027045 0.001220 0.002602 -939683.000000 0 0 1
-4.458654 -1.292878 -27.458377 27.848045 0.282230 2.974109 0.001575 0.003668 -373583.000000 0 0 1
-4.978054 -0.396178 -26.545467 27.011105 0.079418 2.955644 -0.003628 0.001570 545514.000000 0 0 1
-6.362254 -0.722378 -26.304217 27.072347 0.113057 2.902811 -0.006781 0.002388 459718.000000 0 0 1
-7.081754 0.409222 -25.609957 26.574210 -0.057721 2.871382 -0.006461 0.006226 -955336.000000 0 0 1
-7.251954 1.663722 -26.302987 27.335068 -0.225515 2.865924 -0.002990 0.001136 493954.000000 0 0 1
-8.136654 1.764022 -27.445187 28.680223 -0.213495 2.847059 -0.002321 0.004885 345464.000000 0 0 1
-9.625254 1.419922 -27.245417 28.930511 -0.146464 2.798604 -0.001768 0.000039 -383184.000000 0 0 1
-10.450754 1.991222 -28.275867 30.211056 -0.188277 2.781728 0.003043 -0.001523 94598.300000 0 0 1
-11.739654 1.472722 -28.080047 30.470928 -0.124797 2.742813 0.007897 -0.003494 -340650.000000 0 0 1
-12.906754 2.132322 -28.841987 31.670038 -0.163731 2.715778 0.005843 -0.001700 -951796.000000 0 0 1
-14.132354 1.492222 -28.599307 31.935412 -0.105199 2.680430 0.001496 -0.001967 -21106.500000 0 0 1
-15.168854 2.101522 -29.364297 33.117556 -0.137666 2.660887 0.002816 -0.001528 341650.000000 0 0 1
-15.795254 3.458922 -28.821557 33.047486 -0.215582 2.630326 0.006304 -0.002654 143279.000000 0 0 1
-14.951954 4.674122 -28.942857 32.910444 -0.302985 2.645487 0.006660 -0.003851 617642.000000 0 0 1
-14.783954 5.347722 -30.202877 34.049629 -0.347082 2.661658 0.000817 -0.002648 -257258.000000 0 0 1
-16.039454 5.818822 -30.979267 35.367185 -0.348016 2.638162 0.003206 -0.003148 100201.000000 0 0 1
-16.717054 6.835722 -30.229087 35.213417 -0.388161 2.603043 0.003720 -0.001519 40035.700000 0 0 1
-17.697154 7.491922 -30.982637 36.458771 -0.400464 2.586401 -0.003191 0.000970 -748572.000000 0 0 1
-18.275654 8.609822 -30.165787 36.305692 -0.440269 2.551489 0.002605 -0.002440 -1028360.000000 0 0 1
-17.382854 9.585122 -29.725427 35.744079 -0.503927 2.552812 0.001406 -0.001258 -8959.950000 0 0 1
-17.984054 10.791022 -29.275507 36.012882 -0.540444 2.519941 0.010297 0.002903 -183062.000000 0 0 1
-8.118654 25.048322 31.285833 40.891739 -1.257361 0.699616 -0.006837 0.002111 -380745.000000 0 0 1
-8.947454 26.202522 31.196583 41.711580 -1.241738 0.725886 -0.005748 -0.001105 126372.000000 0 0 1
-8.637154 27.316422 32.052043 42.989776 -1.264554 0.729401 -0.002361 -0.002771 157002.000000 0 0 1
-7.323454 28.032622 31.627223 42.892215 -1.315260 0.741635 -0.002817 -0.001091 215611.000000 0 0 1
-7.462454 28.824322 30.443633 42.583384 -1.317464 0.774289 0.001307 -0.001967 362739.000000 0 0 1
-6.184854 28.977222 29.837373 42.049978 -1.360513 0.781910 -0.003078 -0.001795 143974.000000 0 0 1
-6.047554 30.190822 28.930293 42.249503 -1.373102 0.816537 0.001363 -0.000914 -314782.000000 0 0 1
-6.182854 31.364322 29.677393 43.619904 -1.376162 0.822538 0.004674 0.003154 110635.000000 0 0 1
-5.843454 32.521922 29.027563 43.982051 -1.393016 0.849995 0.003936 0.005139 -444810.000000 0 0 1
-5.939554 33.813522 29.797173 45.458818 -1.396914 0.855983 0.006418 0.007563 -251795.000000 0 0 1
-5.092954 33.845922 30.949743 46.145110 -1.421442 0.835638 0.005815 0.003570 51346.800000 0 0 1
-5.482854 -34.700089 31.991453 47.514324 1.414085 0.832132 0.002887 0.004087 142389.000000 0 0 1
-6.670554 34.400322 32.907243 48.070418 -1.379264 0.816792 0.004654 0.001638 127249.000000 0 0 1
-6.343554 33.388522 33.849158 47.966651 -1.383042 0.787412 0.011052 0.001127 133244.000000 0 0 1
-6.514554 32.078122 33.427704 46.785219 -1.370437 0.774897 0.006769 0.005022 -370675.000000 0 0 1
-6.563054 30.992822 34.565508 46.887131 -1.362119 0.741869 0.007408 0.004053 280838.000000 0 0 1
-5.337954 30.932322 -34.133851 46.372644 -1.399911 2.398053 0.006186 0.006308 312528.000000 0 0 1
-5.461254 30.230522 -32.934637 45.037763 -1.392070 2.390974 0.003198 0.004504 46844.600000 0 0 1
-4.064754 30.100322 -32.223637 44.282213 -1.436568 2.385742 -0.004588 0.002585 1280310.000000 0 0 1
-3.298554 28.949822 -32.656567 43.765558 -1.457345 2.413088 -0.005129 0.002475 500831.000000 0 0 1
-2.695454 29.006422 -33.954377 44.738548 -1.478136 2.432497 -0.003434 0.003709 -520540.000000 0 0 1
-2.065354 27.650222 -34.349186 44.143709 -1.496239 2.462466 -0.006789 -0.003867 -192384.000000 0 0 1
-0.904154 27.270122 -33.536957 43.234298 -1.537653 2.458624 -0.000717 -0.006507 1219610.000000 0 0 1
-0.246454 26.077022 -33.870047 42.746367 -1.561346 2.485446 0.000416 -0.004158 110126.000000 0 0 1
0.136646 25.865522 34.070823 42.776920 1.565513 0.649350 -0.000511 -0.002346 -885425.000000 0 0 1
-0.996054 25.635822 33.253163 41.999528 -1.531962 0.657126 0.001987 0.001811 53544.200000 0 0 1
-0.698354 25.314922 31.910993 40.738734 -1.543217 0.670826 0.011163 0.002086 -283696.000000 0 0 1
-0.408854 26.519922 30.982613 40.784749 -1.555381 0.708004 0.000886 -0.001074 1287680.000000 0 0 1
-1.683554 27.121322 30.634063 40.949314 -1.508801 0.725606 -0.005572 -0.001157 1206360.000000 0 0 1
-1.376254 28.332822 29.939773 41.243580 -1.522260 0.758417 -0.003765 -0.002679 120391.000000 0 0 1
-2.413754 29.451922 30.162883 42.226075 -1.489023 0.775146 0.000071 -0.000567 -320190.000000 0 0 1
-2.359054 30.022922 31.478523 43.564187 -1.492382 0.763272 -0.001083 -0.002786 83965.600000 0 0 1
-3.123654 31.203322 31.681413 44.577084 -1.471022 0.780288 -0.001858 0.001539 -184506.000000 0 0 1
-2.739154 31.880322 32.997373 45.963948 -1.485087 0.770020 0.002088 0.002883 37530.900000 0 0 1
-1.519754 32.578722 32.846193 46.287743 -1.524181 0.781853 -0.009218 0.001614 -174260.000000 0 0 1
-0.921354 32.882622 34.087906 47.371944 -1.542784 0.767599 -0.009957 0.002620 -399771.000000 0 0 1
0.408646 33.609522 33.893776 47.734212 1.558638 0.781224 -0.008705 0.003373 -268293.000000 0 0 1
0.258746 -34.540589 33.441117 48.077308 -1.563305 0.801584 -0.002528 0.003470 404741.000000 0 0 1
1.558746 -34.108589 33.083043 47.542752 -1.525129 0.801181 -0.006375 0.001318 113757.000000 0 0 1
1.677146 -32.629289 32.624623 46.171954 -1.519442 0.786129 -0.006015 -0.002149 -500427.000000 0 0 1
1.182546 -31.823189 33.612569 46.302468 -1.533654 0.758404 -0.004295 -0.002000 -138286.000000 0 0 1
1.408446 -30.415489 33.460579 45.240425 -1.524523 0.738295 -0.004829 0.007554 -452376.000000 0 0 1
1.115846 -29.441289 34.638005 45.473355 -1.532914 0.704831 -0.005372 0.009592 236631.000000 0 0 1
-0.246654 -29.177689 -34.475307 45.165752 1.562343 2.439212 -0.004394 0.009066 246585.000000 0 0 1
-0.442854 -28.373189 -33.297347 43.748684 1.555189 2.435812 -0.004153 0.010318 420692.000000 0 0 1
-1.914754 -27.900589 -33.104437 43.336046 1.502276 2.440133 -0.003071 0.012197 363972.000000 0 0 1
-2.176354 -27.414989 -31.801397 42.043394 1.491577 2.428580 -0.007250 0.006242 186562.000000 0 0 1
-3.376154 -26.686189 -31.656357 41.541257 1.444952 2.437264 -0.000071 0.003833 -191645.000000 0 0 1
-3.588654 -26.191389 -30.211007 40.144393 1.434628 2.422735 0.004459 -0.000022 -172356.000000 0 0 1
-4.105454 -27.209889 -29.371667 40.248325 1.421045 2.388769 0.004314 -0.000872 79831.700000 0 0 1
-4.537654 -26.788389 -28.040587 39.044624 1.403000 2.371962 0.006419 -0.001392 -182399.000000 0 0 1
-3.511954 -26.317889 -26.996247 37.865056 1.438136 2.364506 0.007622 -0.003585 -312781.000000 0 0 1
-2.899254 -25.098489 -27.351667 37.235112 1.455791 2.395824 0.004156 -0.000279 52483.400000 0 0 1
-1.839954 -24.779289 -26.461507 36.298898 1.496679 2.387641 0.002730 -0.000639 -1222330.000000 0 0 1
-1.108854 -23.551589 -27.046507 35.880642 1.523749 2.424609 0.009422 -0.002303 55874.600000 0 0 1
-0.392254 -23.781889 -28.280777 36.953139 1.554304 2.442326 -0.002914 -0.001292 85585.100000 0 0 1
0.677646 -24.672689 -28.153677 37.441025 -1.543338 2.421807 -0.000245 -0.005037 -1164840.000000 0 0 1
1.256646 -25.115089 -29.508177 38.769568 -1.520803 2.435830 0.004165 -0.003883 33397.300000 0 0 1
2.224746 -24.181489 -29.962277 38.567240 -1.479053 2.460498 0.010905 -0.005303 162245.000000 0 0 1
2.989446 -24.754489 -31.012567 39.793226 -1.450615 2.464413 0.007884 -0.003350 -17441.000000 0 0 1
4.023246 -23.674589 -31.529937 39.633441 -1.402465 2.490693 0.007986 0.000113 333776.000000 0 0 1
5.153746 -23.411489 -30.657567 38.917160 -1.354115 2.477968 0.006020 -0.007260 1420080.000000 0 0 1
6.212446 -24.367389 -30.516407 39.542575 -1.321165 2.452362 0.007887 -0.004762 558544.000000 0 0 1
7.075946 -24.430889 -31.827127 40.741912 -1.288879 2.467364 0.006778 -0.002670 -836293.000000 0 0 1
6.332146 -25.231389 -32.722167 41.802623 -1.324911 2.469914 0.002478 -0.000184 -27671.500000 0 0 1
6.702946 -25.186489 -34.069337 42.895320 -1.310693 2.488558 0.002415 0.001026 -271640.000000 0 0 1
6.243946 -23.930989 34.652955 42.573541 -1.315572 0.619868 0.004281 0.004008 -330117.000000 0 0 1
4.861446 -23.696589 34.607642 42.223819 -1.368450 0.610042 0.009031 0.004801 -219319.000000 0 0 1
4.487146 -22.679389 33.692127 40.861334 -1.375468 0.601394 0.007698 0.003967 602653.000000 0 0 1
3.009546 -22.142789 33.757217 40.483456 -1.435709 0.584746 0.000175 0.002453 1246270.000000 0 0 1
1.901046 -22.977289 33.482374 40.652665 -1.488248 0.603031 -0.003389 0.006612 276478.000000 0 0 1
1.572246 -24.024489 34.453187 42.031775 -1.505446 0.609920 -0.000865 0.011294 -221232.000000 0 0 1
0.298246 -24.840189 34.167518 42.243855 -1.558790 0.628660 -0.003695 0.011791 134503.000000 0 0 1
0.380146 -25.702889 33.048303 41.868525 -1.556007 0.661071 -0.002393 0.009167 622758.000000 0 0 1
-0.916154 -26.267989 32.801463 42.033113 1.535933 0.675536 -0.006829 0.014367 607784.000000 0 0 1
-0.913154 -27.087689 31.535223 41.581812 1.537098 0.709957 -0.003907 -0.002784 755442.000000 0 0 1
-2.187554 -27.595589 31.086313 41.625242 1.491690 0.727538 0.001460 -0.000474 812623.000000 0 0 1
-2.056154 -28.548489 30.051543 41.501075 1.498897 0.761046 0.000364 -0.003465 855359.000000 0 0 1
-3.420354 -28.810589 29.291363 41.227816 1.452631 0.780622 0.004751 -0.000175 958266.000000 0 0 1
-4.443454 -29.359289 30.088873 42.273543 1.420589 0.778787 0.007932 0.000374 -602059.000000 0 0 1
-5.617254 -29.496189 29.360203 41.995241 1.382610 0.796614 0.000596 0.004310 -273615.000000 0 0 1
-6.784454 -30.079389 30.196533 43.158187 1.348957 0.795859 0.006802 0.003840 -136922.000000 0 0 1
-8.001454 -30.399089 29.554923 43.146511 1.313421 0.816207 0.007170 0.006289 168597.000000 0 0 1
-9.026154 -30.882389 30.401523 44.265630 1.286442 0.813723 0.010177 0.006435 110633.000000 0 0 1
-8.757354 -32.190289 31.187513 45.668008 1.305175 0.819046 0.009871 0.007498 -841900.000000 0 0 1
-8.637354 -33.376689 30.515543 46.041347 1.317568 0.846264 0.011181 0.008275 -82949.700000 0 0 1
-9.784954 -33.895789 29.899553 46.245574 1.289759 0.867758 0.008926 0.006321 -404367.000000 0 0 1
-9.659254 34.085022 29.608563 46.170953 -1.294650 0.874630 0.008324 0.003084 -511506.000000 0 0 1
-9.661154 33.224622 30.721023 46.270884 -1.287817 0.844723 0.009752 0.003841 176562.000000 0 0 1
-9.347254 31.906522 30.364093 45.026386 -1.285813 0.830696 0.004112 0.005965 -410312.000000 0 0 1
-10.023454 30.820622 31.208493 44.992782 -1.256366 0.804275 0.001712 0.001760 -947392.000000 0 0 1
-11.383954 30.642922 30.940873 45.010229 -1.215095 0.812868 -0.001777 0.007181 -750796.000000 0 0 1
-11.946254 29.505122 31.510183 44.790142 -1.186084 0.790476 0.001991 0.003053 -167159.000000 0 0 1
-11.931954 29.439422 33.070623 45.855395 -1.185725 0.765272 0.001638 -0.003068 -629934.000000 0 0 1
-12.965554 30.250422 33.609416 47.040264 -1.165874 0.774913 0.001341 0.002019 406403.000000 0 0 1
-13.183354 29.856122 -34.475218 47.473461 -1.154981 2.383574 -0.002429 0.001982 -105136.000000 0 0 1
-14.327954 30.491322 -33.675637 47.634646 -1.131515 2.355982 -0.005334 0.004216 -45686.700000 0 0 1
-14.362354 29.905522 -32.421727 46.387346 -1.123067 2.344703 -0.006190 0.003143 1043090.000000 0 0 1
-15.636554 30.188222 -31.777887 46.536703 -1.092877 2.322462 -0.000671 0.004764 1273270.000000 0 0 1
-15.617854 29.642022 -30.325527 45.190756 -1.085875 2.306428 0.001127 -0.000011 -63109.000000 0 0 1
-15.603454 28.212822 -30.345007 44.274717 -1.065605 2.325922 0.002812 -0.003133 66735.000000 0 0 1
-15.432654 27.768522 -28.983907 43.003773 -1.063541 2.310387 0.002307 -0.002556 -295434.000000 0 0 1
-15.932554 26.341122 -28.752317 42.123589 -1.026815 2.322070 0.008604 -0.004949 918413.000000 0 0 1
-17.364154 26.331022 -28.873537 42.761171 -0.987802 2.312070 0.004152 -0.004225 731291.000000 0 0 1
-18.014654 25.081022 -28.789147 42.218484 -0.947921 2.321165 0.005497 -0.007989 1000160.000000 0 0 1
-19.532954 25.068022 -29.183167 43.146254 -0.908869 2.313630 0.009918 -0.010459 671927.000000 0 0 1
-20.420554 25.587222 -28.251147 43.241557 -0.897230 2.282775 0.008777 -0.009338 329243.000000 0 0 1
-21.780654 25.255622 -28.520797 43.882562 -0.859143 2.278295 0.002406 -0.006061 1012800.000000 0 0 1
-22.790554 25.312422 -27.323557 43.665831 -0.837777 2.246879 0.001905 -0.004475 448538.000000 0 0 1
-23.157054 26.586822 -26.836357 44.309122 -0.854238 2.221394 0.006989 -0.004656 -67129.700000 0 0 1
-24.218454 26.541122 -25.897777 44.290626 -0.831124 2.195336 0.002396 -0.002926 44362.000000 0 0 1
-23.957254 26.106022 -24.447707 43.048401 -0.828293 2.174763 0.004006 -0.003359 -754404.000000 0 0 1
-23.938054 24.701622 -24.189207 42.051377 -0.801095 2.183681 0.003200 -0.000838 141745.000000 0 0 1
-25.199444 24.049722 -24.026707 42.316472 -0.762057 2.174610 0.001125 -0.000327 282241.000000 0 0 1
-25.964544 24.306622 -22.665707 42.174681 -0.752431 2.138176 0.004264 -0.001614 185622.000000 0 0 1
-25.276754 23.865722 -21.488007 40.868343 -0.756693 2.124435 0.000645 -0.003040 568889.000000 0 0 1
-24.337454 24.775122 -20.913707 40.540122 -0.794309 2.112827 -0.000413 -0.002063 -29400.200000 0 0 1
-23.508254 24.275222 -19.738207 39.134655 -0.801448 2.099444 -0.002632 -0.002459 -385690.000000 0 0 1
-24.083554 24.223122 -18.451107 38.822939 -0.788287 2.066059 -0.008052 -0.006853 -227835.000000 0 0 1
-23.068554 23.878522 -17.540607 37.550165 -0.802649 2.056832 -0.006569 -0.009178 -75043.100000 0 0 1
-23.386354 23.952322 -16.018307 37.110934 -0.797353 2.017099 -0.005416 -0.008103 -34197.300000 0 0 1
-23.803854 25.240522 -15.560807 38.024284 -0.814683 1.992410 0.001661 -0.008921 9776.640000 0 0 1
-24.003554 25.262322 -14.142107 37.607908 -0.810943 1.956316 -0.005170 -0.009592 207839.000000 0 0 1
-24.035854 26.672722 -13.515807 38.364481 -0.837352 1.930824 0.004665 -0.010656 -746927.000000 0 0 1
-22.862654 27.368122 -13.567707 38.154917 -0.874854 1.934347 -0.000948 -0.005540 -1159950.000000 0 0 1
-22.869554 28.308522 -12.521907 38.486193 -0.891276 1.902190 -0.000160 -0.005143 -13279.900000 0 0 1
-21.450054 28.606022 -12.017007 37.720257 -0.927395 1.895030 -0.002526 -0.003816 56288.300000 0 0 1
-20.701054 27.490322 -11.491707 36.280997 -0.925358 1.893089 -0.003998 -0.002066 -713043.000000 0 0 1
-19.646254 27.980022 -10.766207 35.843662 -0.958627 1.875872 -0.003851 -0.000449 -533669.000000 0 0 1
-18.778654 26.763922 -10.202907 34.249740 -0.958970 1.873286 -0.012034 -0.001876 311538.000000 0 0 1
-18.286154 25.989022 -11.300107 33.726920 -0.957651 1.912452 -0.015643 0.000872 65604.500000 0 0 1
-17.644554 24.842122 -10.798607 32.327561 -0.953213 1.911380 -0.014879 0.003157 -780585.000000 0 0 1
-17.163954 23.779222 -11.810607 31.615552 -0.945586 1.953651 -0.007613 0.006701 129294.000000 0 0 1
-16.640154 22.607922 -11.113907 30.191585 -0.936295 1.947775 -0.001260 0.006802 491945.000000 0 0 1
-16.057254 21.667822 -12.033007 29.531732 -0.933038 1.990468 -0.004705 0.007636 -13899.700000 0 0 1
-15.937554 20.305622 -11.362607 28.203417 -0.905341 1.985458 -0.000492 0.004953 -227932.000000 0 0 1
-17.166054 19.626222 -11.186507 28.372521 -0.852165 1.976073 0.001454 0.009573 81650.700000 0 0 1
-17.040954 18.292422 -10.822807 27.242246 -0.820802 1.979348 0.004177 0.010701 556884.000000 0 0 1
-18.418854 17.476622 -10.929907 27.643252 -0.759155 1.977290 0.009650 0.006326 1142340.000000 0 0 1
-18.876354 17.123122 -12.209407 28.259294 -0.736735 2.017560 0.007726 0.008873 77606.300000 0 0 1
-19.476754 18.214922 -12.897007 29.621953 -0.751933 2.021264 0.002610 0.010922 -759574.000000 0 0 1
-20.041754 17.703422 -14.214507 30.284241 -0.723527 2.059373 0.002511 0.009342 -623876.000000 0 0 1
-19.118554 17.404122 -15.199807 29.990944 -0.738491 2.102280 0.003880 0.010153 -226036.000000 0 0 1
-19.795854 16.821122 -16.363707 30.701741 -0.704337 2.132926 0.011124 0.008346 352360.000000 0 0 1
-18.940554 16.590522 -17.623507 30.733988 -0.719354 2.181472 -0.000761 0.007188 -219096.000000 0 0 1
-18.506454 17.807822 -18.238907 31.500240 -0.766162 2.188308 -0.001108 0.000953 -464.596000 0 0 1
-17.722254 17.454922 -19.365007 31.523897 -0.777799 2.232290 -0.006751 0.002513 -485673.000000 0 0 1
-16.638254 18.528622 -19.629707 31.709095 -0.839101 2.238337 -0.007891 0.001574 -286520.000000 0 0 1
-15.674654 18.462622 -18.573407 30.521052 -0.866887 2.225021 -0.004276 0.001952 -37650.500000 0 0 1
-14.868754 19.604822 -18.701807 30.906091 -0.921926 2.220709 -0.000277 0.005174 -237760.000000 0 0 1
31.108775 31.944522 2.096993 44.638613 0.798652 1.523802 0.000040 0.004015 729283.000000 0 0 1
32.318525 31.452622 1.497093 45.122010 0.771821 1.537611 0.000719 0.001107 487473.000000 0 0 1
32.438375 31.963822 0.193593 45.540878 0.778030 1.566545 -0.001223 0.006214 528355.000000 0 0 1
33.846119 31.828022 -0.515007 46.463405 0.754679 1.581881 -0.003758 0.003295 792992.000000 0 0 1
-34.749908 32.737122 0.053393 47.741786 -0.755582 1.569678 0.002811 0.002078 -320387.000000 0 0 1
-33.549634 32.573622 -0.652307 46.765845 -0.770639 1.584745 -0.006649 -0.001270 79634.900000 0 0 1
-32.409124 33.591622 -0.257107 46.677773 -0.803313 1.576304 -0.005262 -0.002288 329385.000000 0 0 1
-31.955314 33.327222 1.026493 46.183325 -0.806410 1.548568 -0.011294 0.001944 -189801.000000 0 0 1
-31.095954 34.347222 1.469593 46.355687 -0.835038 1.539088 -0.001251 0.000937 -26785.400000 0 0 1
-30.419274 34.072122 2.887393 45.766568 -0.841979 1.507665 -0.001877 0.002348 137068.000000 0 0 1
-29.859514 -34.204889 3.449493 45.535305 0.853123 1.494969 0.001840 0.002933 -177000.000000 0 0 1
-29.272994 -34.553489 4.628093 45.522204 0.867942 1.468954 0.006340 0.002566 -722121.000000 0 0 1
-28.995014 -33.309789 5.496693 44.502433 0.854540 1.446966 0.008688 0.001808 -517697.000000 0 0 1
-30.053364 -32.550089 6.021993 44.709925 0.825259 1.435695 0.007087 0.002513 -262652.000000 0 0 1
-30.564874 -33.064489 7.234993 45.605012 0.824662 1.411479 0.002341 -0.001629 624633.000000 0 0 1
-31.709154 -32.259589 8.047993 45.944768 0.794003 1.394721 -0.000966 -0.000635 2417980.000000 0 0 1
-33.069074 -32.244989 7.565393 46.803185 0.772782 1.408441 -0.005239 0.001991 1083360.000000 0 0 1
-33.747194 -33.490489 7.572493 48.143833 0.781580 1.412852 0.000267 -0.000214 489383.000000 0 0 1
34.251391 -33.467789 7.170793 48.421802 -0.773827 1.422159 0.002149 -0.002141 898248.000000 0 0 1
33.476958 -33.091089 8.283393 47.794785 -0.779602 1.396605 0.002955 -0.002964 -272934.000000 0 0 1
32.130835 -33.456189 8.111993 47.090462 -0.805603 1.397669 0.002826 0.000595 -386792.000000 0 0 1
31.395815 -33.552589 9.455693 46.913575 -0.818593 1.367850 0.003627 -0.001017 -1371520.000000 0 0 1
30.043825 -33.513989 9.227893 45.945325 -0.839943 1.368576 -0.000811 -0.001019 -845376.000000 0 0 1
29.130195 -33.467989 10.314793 45.552931 -0.854583 1.342380 -0.002881 -0.003274 233465.000000 0 0 1
28.951665 -32.127889 11.131493 44.657701 -0.837353 1.318878 0.000333 -0.003917 -417714.000000 0 0 1
28.317075 -30.989989 10.587293 43.293497 -0.830437 1.323744 -0.003905 -0.003432 393294.000000 0 0 1
29.139885 -30.340889 9.622193 43.154247 -0.805587 1.345934 -0.004693 -0.005737 -92194.900000 0 0 1
28.618345 -28.951889 9.255793 41.747949 -0.791192 1.347232 -0.007873 -0.000272 -416213.000000 0 0 1
29.022105 -28.389489 8.005893 41.380430 -0.774380 1.376098 -0.002701 -0.007113 157436.000000 0 0 1
28.424195 -27.079289 8.000093 40.065250 -0.761172 1.369768 -0.005844 -0.002415 116457.000000 0 0 1
28.601615 -26.308689 6.653393 39.426731 -0.743665 1.401232 -0.000767 -0.000602 598583.000000 0 0 1
29.982965 -25.974189 6.511293 40.199921 -0.713880 1.408107 -0.001714 -0.001249 230868.000000 0 0 1
30.122485 -25.214589 5.279893 39.636055 -0.696939 1.437190 -0.002096 -0.001583 -295102.000000 0 0 1
31.535105 -24.821489 4.859293 40.425016 -0.666830 1.450300 -0.002295 -0.003692 -270173.000000 0 0 1
32.339365 -25.941989 4.605093 41.713645 -0.676069 1.460173 0.000633 0.000208 -717193.000000 0 0 1
33.666620 -25.685789 4.258793 42.559821 -0.651735 1.470563 0.001743 0.000105 -213330.000000 0 0 1
34.434938 -26.998589 4.041893 43.943437 -0.664937 1.478687 0.001223 -0.000449 -151949.000000 0 0 1
34.576132 -27.823289 5.195193 44.683715 -0.677598 1.454267 -0.003073 -0.000195 -291475.000000 0 0 1
-34.590449 -29.126889 4.803593 45.474711 0.699861 1.464967 -0.002853 0.001934 -1047800.000000 0 0 1
34.317550 -30.179989 5.755893 46.061440 -0.721335 1.445508 0.001384 0.000850 690988.000000 0 0 1
32.921335 -30.402589 5.580493 45.158317 -0.745644 1.446903 0.005308 0.002109 841218.000000 0 0 1
32.041875 -29.314989 5.990693 43.839922 -0.740984 1.433718 0.003607 -0.003872 166287.000000 0 0 1
30.566985 -29.500389 5.531993 42.839427 -0.767643 1.441302 0.001506 -0.003130 -443635.000000 0 0 1
30.403035 -29.445989 4.091493 42.522360 -0.769409 1.474427 -0.001428 -0.002770 128475.000000 0 0 1
29.094645 -29.211289 3.612693 41.386584 -0.787399 1.483394 0.001020 -0.001799 749547.000000 0 0 1
27.899125 -30.113889 4.046393 41.250222 -0.823557 1.472544 0.001467 -0.002133 -29843.200000 0 0 1
27.998265 -31.412689 3.511793 42.225497 -0.842806 1.487533 0.002128 -0.004179 -255872.000000 0 0 1
26.800855 -32.146589 3.684593 42.015060 -0.875837 1.482987 0.001475 -0.002093 94296.700000 0 0 1
26.898725 -33.524889 2.993293 43.086186 -0.894624 1.501268 0.004546 0.000513 -126521.000000 0 0 1
26.788705 -33.498189 1.594793 42.922101 -0.896235 1.533632 0.005348 0.011842 70345.400000 0 0 1
26.957475 34.695822 0.992793 43.948733 0.910259 1.548205 -0.000349 0.008287 -340287.000000 0 0 1
26.620875 34.511522 -0.473407 43.588304 0.913763 1.581657 -0.001431 0.004428 1050.190000 0 0 1
27.645575 -34.609089 -1.405607 44.317520 -0.896790 1.602518 -0.007208 0.009374 88859.400000 0 0 1
27.112135 -34.444289 -2.692107 43.917244 -0.903952 1.632134 0.002515 0.003391 -19202.100000 0 0 1
28.090095 -33.831389 -3.745907 44.132167 -0.877853 1.655778 0.007255 0.006181 285332.000000 0 0 1
28.450445 -32.469289 -3.663907 43.325590 -0.851272 1.655464 -0.002500 0.006116 384842.000000 0 0 1
29.292065 -32.075289 -4.773107 43.699334 -0.830721 1.680241 0.004563 0.004979 158949.000000 0 0 1
29.600585 -30.579289 -4.748107 42.823266 -0.801660 1.681902 0.006016 0.006422 -531510.000000 0 0 1
28.601765 -29.722289 -5.265907 41.583713 -0.804608 1.697771 0.002737 0.006890 -53685.700000 0 0 1
28.799175 -28.343189 -5.093607 40.726818 -0.777419 1.696192 0.005583 -0.005439 -366826.000000 0 0 1
29.927825 -27.688989 -5.894107 41.195817 -0.746560 1.714364 0.011335 -0.006158 -634994.000000 0 0 1
31.203575 -28.203289 -5.611807 42.433253 -0.734937 1.703435 0.009266 -0.002699 -374938.000000 0 0 1
32.202555 -27.675389 -6.472407 42.951412 -0.709935 1.722064 0.005385 -0.003433 50509.500000 0 0 1
32.307265 -28.350789 -7.913507 43.705265 -0.720265 1.752866 0.005301 0.001718 -560614.000000 0 0 1
31.110025 -28.255689 -8.691007 42.915629 -0.737355 1.774721 0.007439 0.002412 251195.000000 0 0 1
30.907885 -29.095989 -9.767207 43.557689 -0.755211 1.796955 0.008586 0.003494 122692.000000 0 0 1
30.694105 -30.608289 -9.263707 44.326197 -0.783998 1.781338 0.009942 -0.001916 119899.000000 0 0 1
31.920765 -31.242189 -8.907607 45.545088 -0.774655 1.767643 0.010971 0.002611 -174282.000000 0 0 1
31.786495 -32.494689 -8.231307 46.195676 -0.796415 1.749936 0.008856 0.002804 207119.000000 0 0 1
33.098885 -33.139989 -7.699007 47.466512 -0.786019 1.733715 0.003376 0.002060 326914.000000 0 0 1
32.890685 -34.359089 -6.992907 48.075409 -0.807230 1.716771 0.000286 -0.000763 -76236.500000 0 0 1
32.501795 -34.260989 -5.637907 47.560152 -0.811742 1.689618 0.000887 -0.001624 -157328.000000 0 0 1
32.340625 33.854722 -4.960307 47.081449 0.808267 1.676348 -0.003190 0.001607 -310095.000000 0 0 1
31.421035 33.009322 -5.623007 45.918569 0.810044 1.693561 0.001125 -0.004591 225987.000000 0 0 1
31.428025 31.699922 -5.072607 44.925907 0.789705 1.683948 -0.002361 0.002466 -60965.900000 0 0 1
30.198875 30.916522 -5.575207 43.576213 0.797140 1.699089 0.003340 0.002238 -19905.300000 0 0 1
30.324035 30.652222 -6.956207 43.674874 0.790780 1.730750 0.007504 0.001730 -275732.000000 0 0 1
29.112705 30.130322 -7.411907 42.547882 0.802573 1.745891 0.008145 0.003171 -175500.000000 0 0 1
29.190515 29.654522 -8.910007 42.554260 0.793283 1.781737 0.006559 0.002442 -416227.000000 0 0 1
29.797745 28.368722 -9.032307 42.122115 0.760835 1.786906 0.002351 0.005379 113047.000000 0 0 1
30.049645 28.059722 -10.409807 42.411004 0.751167 1.818781 0.003759 0.004033 397482.000000 0 0 1
31.233625 28.867422 -11.031007 43.938030 0.746048 1.824570 0.002211 -0.001954 -532357.000000 0 0 1
32.522285 28.571522 -10.522607 44.550602 0.720821 1.809244 0.004072 -0.000513 712464.000000 0 0 1
33.539942 29.519222 -10.818907 45.971305 0.721723 1.808365 0.002157 -0.000179 237226.000000 0 0 1
33.402375 30.833422 -10.026807 46.550568 0.745427 1.787894 -0.000907 0.000857 -1086300.000000 0 0 1
33.900208 30.713622 -8.729007 46.569800 0.736121 1.759351 -0.001372 0.001302 -41582.300000 0 0 1
33.840467 31.905522 -8.028407 47.197403 0.755976 1.741730 -0.006323 0.000170 -542560.000000 0 0 1
-34.510081 32.058822 -6.990607 47.619138 -0.748592 1.718131 -0.011697 -0.000123 868119.000000 0 0 1
-33.281164 32.193422 -7.714807 46.942204 -0.768786 1.735892 -0.017458 0.003526 -116527.000000 0 0 1
-32.628094 31.000022 -7.982207 45.708965 -0.759816 1.746327 -0.014852 0.004898 -833529.000000 0 0 1
-31.158264 31.265322 -8.412707 44.934746 -0.787113 1.759128 -0.008526 0.004678 -33548.400000 0 0 1
-30.368794 31.801822 -7.367107 44.585803 -0.808444 1.736792 -0.006308 0.004177 280655.000000 0 0 1
-29.051424 32.217722 -7.709107 44.061289 -0.837031 1.746665 0.003652 0.006768 240362.000000 0 0 1
-28.827694 33.362122 -8.774007 44.956093 -0.858182 1.767225 0.004181 0.005615 -589895.000000 0 0 1
-29.076604 34.692622 -8.325607 46.025457 -0.873239 1.752689 -0.004262 0.002864 364607.000000 0 0 1
-28.001924 -34.367789 -7.483607 44.958393 0.887113 1.738031 0.001674 0.001052 190593.000000 0 0 1
-28.107624 -32.902389 -6.953207 43.828676 0.863827 1.730115 -0.002597 -0.000099 4733.980000 0 0 1
-28.934494 -32.694089 -5.797507 44.042247 0.846327 1.702815 -0.000211 -0.008423 104509.000000 0 0 1
-28.711284 -33.399189 -4.604107 44.283648 0.860732 1.674953 -0.001112 -0.003148 -593243.000000 0 0 1
-29.969794 -33.456389 -3.749507 45.073022 0.840314 1.654080 -0.001064 -0.003965 -785641.000000 0 0 1
-30.197834 -32.225289 -3.071207 44.269750 0.817866 1.640227 -0.001899 -0.002321 -313801.000000 0 0 1
-31.058474 -32.306889 -1.973807 44.858219 0.805097 1.614812 -0.002268 0.001373 -686759.000000 0 0 1
-31.817434 -31.009789 -1.809507 44.466060 0.772544 1.611502 -0.000232 0.005055 -430891.000000 0 0 1
-32.727804 -31.059089 -0.733507 45.125538 0.759243 1.587052 -0.000553 0.007206 -409973.000000 0 0 1
-33.314074 -29.783889 -0.566907 44.690368 0.729509 1.583482 -0.000835 0.005587 101024.000000 0 0 1
-34.312966 -29.678189 0.634993 45.371552 0.713096 1.556800 -0.003286 0.005702 89190.500000 0 0 1
33.998667 -30.428289 0.476593 45.629127 -0.730037 1.560351 -0.001915 0.004294 639907.000000 0 0 1
33.034035 -30.113089 1.470293 44.723678 -0.739175 1.537915 -0.004776 0.002731 149497.000000 0 0 1
32.303505 -28.789589 1.316893 43.290774 -0.727944 1.540372 -0.000371 0.001645 -1520030.000000 0 0 1
31.241065 -28.841289 0.416893 42.520559 -0.745478 1.560992 -0.002149 0.004250 -413234.000000 0 0 1
30.499005 -27.655789 0.455993 41.173291 -0.736547 1.559721 0.000886 0.005192 -202304.000000 0 0 1
29.297525 -27.725289 -0.537507 40.340123 -0.757833 1.584121 -0.009077 -0.000306 827493.000000 0 0 1
28.094935 -28.275889 0.048993 39.860427 -0.788608 1.569567 -0.006381 0.001316 769051.000000 0 0 1
28.013775 -29.707589 -0.000807 40.832737 -0.814734 1.570816 -0.002384 0.008714 -509488.000000 0 0 1
27.644515 -30.309689 -1.355407 41.045506 -0.831353 1.603824 -0.001896 -0.003301 -53681.000000 0 0 1
26.323445 -29.970189 -1.749107 39.927376 -0.850089 1.614618 0.002902 0.001079 161590.000000 0 0 1
26.119335 -30.359589 -3.127607 40.170963 -0.860334 1.648733 0.000478 0.006899 -200008.000000 0 0 1
24.672215 -30.887189 -3.279407 39.667255 -0.896797 1.653564 0.001137 0.008369 756000.000000 0 0 1
23.722475 -29.794589 -3.169807 38.216764 -0.898376 1.653835 0.000923 0.006104 -65267.000000 0 0 1
22.408275 -30.246589 -3.359707 37.792520 -0.933175 1.659813 0.003852 0.002900 -2773.810000 0 0 1
21.372075 -29.076989 -3.307307 36.237759 -0.936954 1.662190 0.004832 0.000734 231063.000000 0 0 1
21.339175 -28.372689 -4.504607 35.786329 -0.925951 1.697006 0.005940 0.002834 -203263.000000 0 0 1
20.999775 -27.060489 -4.341407 34.526923 -0.910843 1.696870 0.005602 -0.001998 -151634.000000 0 0 1
20.595475 -26.302589 -5.625407 33.876909 -0.906495 1.737623 0.004766 -0.006711 -504397.000000 0 0 1
19.389575 -26.701789 -6.199207 33.576351 -0.942733 1.756492 0.000712 -0.004800 -658865.000000 0 0 1
18.982675 -25.897689 -7.256907 32.919522 -0.938273 1.793066 0.005788 -0.001305 100066.000000 0 0 1
17.476675 -26.037689 -7.567207 32.259232 -0.979657 1.807578 -0.001675 0.001145 176056.000000 0 0 1
16.648675 -25.406189 -6.632307 31.090840 -0.990704 1.785769 -0.004799 -0.001312 469156.000000 0 0 1
15.234075 -25.505989 -6.850007 30.488606 -1.032383 1.797405 -0.008457 -0.001315 946902.000000 0 0 1
14.420375 -24.661889 -5.830407 29.157326 -1.041686 1.772117 -0.008980 -0.000683 -167363.000000 0 0 1
14.379175 -25.201489 -4.522907 29.365497 -1.052299 1.725433 -0.014038 -0.003255 215756.000000 0 0 1
13.959175 -24.273289 -3.533107 28.222933 -1.048899 1.696311 -0.004481 -0.002065 -234487.000000 0 0 1
14.166375 -24.936289 -2.156007 28.760269 -1.054161 1.645832 0.001292 -0.008123 176507.000000 0 0 1
13.399275 -26.138389 -2.026607 29.442539 -1.097097 1.639683 0.005616 -0.006030 763058.000000 0 0 1
14.114475 -27.036289 -1.178507 30.521602 -1.089659 1.609418 0.007305 -0.010788 -428569.000000 0 0 1
13.648975 -28.407089 -1.421407 31.548021 -1.122888 1.615867 0.000979 -0.004019 402691.000000 0 0 1
12.317275 -28.564389 -0.904707 31.120059 -1.163677 1.599872 0.007493 -0.006643 887771.000000 0 0 1
11.594375 -29.716589 -1.392407 31.928733 -1.198797 1.614420 0.005408 -0.005368 141322.000000 0 0 1
12.139675 -31.066289 -0.915507 33.366513 -1.198275 1.598238 -0.001480 -0.004044 -291050.000000 0 0 1
13.312075 -31.434789 -1.615807 34.175549 -1.170212 1.618094 -0.000561 -0.000864 -235891.000000 0 0 1
13.802575 -32.732189 -1.268107 35.545961 -1.171739 1.606479 -0.001681 0.001907 184519.000000 0 0 1
15.261375 -32.946789 -1.766107 36.352711 -1.137009 1.619398 -0.004020 0.004061 2799.340000 0 0 1
16.019675 -31.838289 -1.481307 35.672131 -1.104626 1.612334 0.001307 0.005501 5293.480000 0 0 1
17.406375 -31.887089 -1.826307 36.374493 -1.071125 1.621026 -0.004808 0.003014 342951.000000 0 0 1
18.161175 -30.854189 -0.974307 35.815619 -1.038792 1.598003 -0.002393 0.004416 -439245.000000 0 0 1
17.840575 -29.519089 -1.253207 34.514247 -1.027167 1.607114 -0.001487 0.000792 97457.900000 0 0 1
18.191475 -28.600789 -0.262607 33.896959 -1.004292 1.578544 0.004318 -0.001987 -452676.000000 0 0 1
17.742375 -27.136589 -0.455807 32.425208 -0.991742 1.584854 0.006669 -0.009385 -536606.000000 0 0 1
18.228275 -26.502089 -1.650407 32.207989 -0.968302 1.622061 0.001875 -0.010461 508584.000000 0 0 1
17.402375 -26.630389 -2.822207 31.937206 -0.991980 1.659279 -0.001352 -0.007705 -299413.000000 0 0 1
31.655145 -30.417089 13.364293 45.889561 -0.765455 1.275287 -0.001526 0.002649 206266.000000 0 0 1
32.130605 -30.538489 14.703793 46.703069 -0.759999 1.250513 0.001684 0.007177 -43627.400000 0 0 1
31.162565 -31.117589 15.549393 46.703248 -0.784676 1.231376 0.000444 0.003579 -20225.100000 0 0 1
31.605735 -31.206989 17.018993 47.565163 -0.779050 1.204881 0.004251 0.002052 412382.000000 0 0 1
30.616105 -31.806489 17.865093 47.625205 -0.804466 1.186272 0.000278 0.001239 855848.000000 0 0 1
31.184235 -32.064189 19.200193 48.674594 -0.799310 1.165316 0.009911 -0.001258 412664.000000 0 0 1
32.113905 -33.264889 19.445693 50.159652 -0.803001 1.172687 0.008803 0.003559 -59784.700000 0 0 1
33.333265 -33.241289 18.708893 50.656811 -0.784017 1.192512 0.003999 0.008589 -27330.700000 0 0 1
34.024532 -34.412889 18.900193 51.953181 -0.791073 1.198460 0.014494 0.004106 -652940.000000 0 0 1
-34.254892 -34.489589 18.030793 51.846300 0.788812 1.215601 0.014077 0.003398 -75115.100000 0 0 1
-33.098074 -33.817289 18.496493 50.805628 0.796146 1.198169 0.013713 0.007387 547592.000000 0 0 1
-32.043384 -33.785989 17.539193 49.758364 0.811864 1.210569 0.016290 0.008107 285012.000000 0 0 1
-30.864544 -32.848689 18.043193 48.551141 0.816530 1.190029 0.007578 0.008044 859174.000000 0 0 1
-29.767734 -32.800589 17.123793 47.489166 0.833833 1.201903 0.001097 0.004966 294546.000000 0 0 1
-30.074804 -32.069489 15.954893 46.770766 0.817485 1.222678 0.005963 -0.000766 -718532.000000 0 0 1
-28.911884 -31.923189 14.962393 45.594520 0.834857 1.236439 -0.005596 0.000531 -593240.000000 0 0 1
-27.827284 -31.184789 15.362993 44.529432 0.842232 1.218549 -0.005685 -0.000163 -1500760.000000 0 0 1
-26.777404 -31.343089 14.493893 43.697729 0.863793 1.232707 -0.004289 0.003420 -962862.000000 0 0 1
-25.455844 -30.788489 14.992193 42.669625 0.879928 1.211778 0.000260 0.003076 -995850.000000 0 0 1
-24.386654 -30.949589 14.144693 41.864762 0.903448 1.226147 0.005936 0.003806 -1628140.000000 0 0 1
-23.242754 -30.437389 14.729693 41.031989 0.918632 1.203621 0.001351 0.002973 -694161.000000 0 0 1
-22.089254 -30.347689 13.714793 39.962644 0.941608 1.220485 0.004682 -0.000120 110309.000000 0 0 1
-21.567054 -31.590289 13.287093 40.492358 0.971768 1.236464 0.009239 0.002363 331281.000000 0 0 1
-20.307554 -31.566789 12.616893 39.598547 0.999131 1.246523 0.006965 -0.001512 659982.000000 0 0 1
-19.912554 -33.010189 12.205293 40.437007 1.028009 1.264180 0.006698 0.000522 -136509.000000 0 0 1
-20.548254 -33.435089 11.045593 40.769364 1.019731 1.296439 0.006412 0.002570 -176347.000000 0 0 1
-20.600454 34.623222 10.971993 41.755608 -1.034069 1.304908 0.008405 0.006135 391001.000000 0 0 1
-21.596354 34.132822 9.841993 41.573030 -1.006668 1.331787 0.005926 0.001371 225547.000000 0 0 1
-21.255354 34.459822 8.493793 41.369239 -1.018104 1.364009 0.004220 -0.001014 -593272.000000 0 0 1
-22.378654 34.169422 7.732693 41.571001 -0.990962 1.383695 0.004140 0.004998 -843982.000000 0 0 1
-22.096054 34.215322 6.238493 41.204886 -0.997383 1.418810 -0.000131 -0.004667 -931951.000000 0 0 1
-21.316554 33.222222 5.670293 39.878111 -1.000324 1.428122 -0.001331 -0.005762 163467.000000 0 0 1
-19.909554 33.209722 5.872193 39.163230 -1.030737 1.420287 -0.002438 -0.004089 278226.000000 0 0 1
-19.053054 34.463422 5.533793 39.766433 -1.065769 1.431186 -0.006160 -0.003120 -1107890.000000 0 0 1
-18.993654 -33.889389 6.429293 39.377473 1.059958 1.406789 -0.001104 -0.003294 55685.000000 0 0 1
-18.351754 -34.123489 7.698193 39.502678 1.077365 1.374664 -0.003684 -0.003067 -252758.000000 0 0 1
-18.346454 -32.885189 8.625493 38.631945 1.061913 1.345625 0.003317 -0.001482 -483568.000000 0 0 1
-17.477854 -31.880689 8.148593 37.259271 1.069315 1.350315 -0.001543 -0.005429 -296619.000000 0 0 1
-17.576854 -30.666589 8.881093 36.445292 1.050346 1.324635 -0.001844 -0.006116 159690.000000 0 0 1
-17.146254 -30.580489 10.367793 36.560244 1.059781 1.283270 -0.002715 -0.000730 -932490.000000 0 0 1
-15.895954 -31.090189 10.579693 36.485766 1.098161 1.276603 -0.006255 -0.003071 -1460110.000000 0 0 1
-15.519054 -31.068089 11.947193 36.726048 1.107535 1.239461 -0.004225 -0.002334 245433.000000 0 0 1
-14.219654 -31.857589 12.208893 36.961623 1.150981 1.234162 -0.007627 -0.002071 -147631.000000 0 0 1
-13.064054 -31.318089 11.635893 35.873196 1.175601 1.240459 -0.009959 0.000843 -616667.000000 0 0 1
-12.123354 -32.377089 11.477293 36.427735 1.212515 1.250266 -0.005131 -0.000060 -361397.000000 0 0 1
-11.036254 -31.906989 10.514293 35.361069 1.237789 1.268890 -0.007392 -0.000727 -213181.000000 0 0 1
-10.193854 -30.886489 11.041193 34.348185 1.252010 1.243537 -0.011166 0.000859 -359782.000000 0 0 1
-9.808054 -30.001289 10.045193 33.123725 1.254828 1.262682 -0.003158 0.006096 237105.000000 0 0 1
-8.710354 -28.998189 10.471093 32.037619 1.278995 1.237841 -0.006166 0.010393 177969.000000 0 0 1
-9.217754 -28.188289 11.469493 31.797734 1.254751 1.201776 -0.003923 0.002453 -436766.000000 0 0 1
-8.394054 -28.046389 12.600693 31.872206 1.279989 1.164347 -0.005465 0.001522 -439487.000000 0 0 1
-8.853154 -26.865989 13.426093 31.311654 1.252473 1.127644 -0.001516 -0.002781 -53889.500000 0 0 1
-8.541954 -25.602389 12.818093 29.878936 1.248771 1.127410 -0.000877 -0.003396 -990748.000000 0 0 1
-9.457754 -25.037389 11.998893 29.330758 1.209621 1.149341 -0.000412 -0.003974 -872941.000000 0 0 1
-8.932754 -23.700689 11.382593 27.768330 1.210362 1.148438 -0.001605 -0.005943 596771.000000 0 0 1
-7.876754 -23.714089 10.413393 27.071018 1.250107 1.175947 -0.005041 -0.003474 107916.000000 0 0 1
-7.521354 -22.373689 10.178793 25.705263 1.246495 1.163661 -0.005637 0.000873 -211820.000000 0 0 1
-6.309154 -22.240389 9.247193 24.898813 1.294378 1.190290 -0.005902 -0.001443 43514.100000 0 1 0
-5.158054 -22.888889 9.742893 25.405329 1.349147 1.177215 0.003036 0.000689 203888.000000 0 0 1
-4.032854 -22.715489 8.869393 24.716866 1.395089 1.203772 -0.004070 0.001465 711682.000000 0 1 0
-2.706854 -23.337789 9.359793 25.290021 1.455326 1.191682 -0.003229 0.000645 600319.000000 0 0 1
-1.998254 -22.466189 10.297693 24.794458 1.482085 1.142499 -0.002807 -0.002878 -78620.000000 0 1 0
-0.904054 -23.117989 10.876493 25.564757 1.531710 1.131339 0.005533 -0.002372 -61032.900000 0 0 1
-0.275154 -22.438289 12.122493 25.505046 1.558534 1.075494 0.006866 -0.005559 -143042.000000 0 0 1
-0.996754 -22.443289 13.352893 26.134163 1.526413 1.034523 0.005113 0.001213 -239699.000000 0 0 1
-0.234154 -22.281089 14.543793 26.608714 1.560288 0.992522 -0.001419 -0.001132 -65518.100000 0 0 1
0.706946 -21.084889 14.793593 25.766698 -1.537280 0.959248 0.000149 0.003871 -93432.700000 0 0 1
1.867946 -21.077389 14.000593 25.372468 -1.482404 0.986272 -0.000884 0.004317 -586153.000000 0 0 1
2.261146 -19.763289 13.710493 24.159428 -1.456880 0.967329 -0.005162 0.005100 -1259450.000000 0 1 0
3.639646 -19.612889 13.169993 23.903162 -1.387309 0.987267 -0.003438 0.005337 -954568.000000 0 1 0
3.758346 -20.254489 11.887593 23.784120 -1.387327 1.047414 0.000756 0.004345 -318506.000000 0 1 0
5.051646 -20.046589 11.358093 23.587945 -1.323941 1.068407 -0.004853 -0.002362 -18563.000000 0 1 0
5.388246 -21.137189 10.254693 24.103375 -1.321195 1.131341 -0.005066 0.003421 -498265.000000 0 1 0
5.411346 -20.705489 8.930593 23.189554 -1.315166 1.175466 0.002206 0.002709 -463211.000000 0 1 0
5.745446 -21.784789 8.034093 23.919319 -1.312931 1.228254 -0.001526 0.006131 -171765.000000 0 1 0
7.257246 -22.170889 7.882993 24.624328 -1.254456 1.244929 -0.000621 0.007047 494839.000000 0 1 0
8.055246 -21.233289 7.141093 23.806192 -1.208201 1.266137 0.001547 0.007699 -140621.000000 0 1 0
8.231746 -19.928189 7.728693 22.904739 -1.179073 1.226613 0.001224 0.004374 -332160.000000 0 1 0
9.114946 -19.929589 8.999093 23.690809 -1.141841 1.181156 -0.003256 0.003938 -11863.300000 0 1 0
8.323646 -20.033489 10.155193 23.953115 -1.177011 1.132982 -0.007776 -0.000662 -607318.000000 0 1 0
9.101746 -19.862189 11.344993 24.618229 -1.141107 1.091858 -0.005037 -0.001349 -17955.000000 0 1 0
8.411946 -20.077089 12.687693 25.195791 -1.174034 1.043077 0.001846 -0.002719 -529567.000000 0 0 1
8.224546 -21.437689 13.065393 26.418216 -1.204465 1.053468 -0.005488 -0.004403 -184971.000000 0 0 1
7.585146 -21.567889 14.317293 26.975788 -1.232619 1.011316 -0.001769 -0.004810 58171.200000 0 0 1
7.742646 -23.022789 14.879193 28.484869 -1.246375 1.021187 -0.004044 -0.002542 188296.000000 0 0 1
7.140346 -24.093189 14.149093 28.838570 -1.282679 1.057983 -0.006623 0.000752 -276460.000000 0 0 1
7.333646 -25.320589 14.837293 30.249956 -1.288879 1.058145 -0.003553 -0.003675 277818.000000 0 0 1
7.174746 -26.577989 13.955193 30.864444 -1.307130 1.101628 -0.007571 -0.003557 1327000.000000 0 0 1
8.351146 -26.903589 13.158393 31.091607 -1.269817 1.133807 -0.002506 0.000995 954022.000000 0 0 1
8.052946 -28.071489 12.458593 31.750196 -1.291426 1.167563 -0.002724 0.004065 -346475.000000 0 0 1
9.263146 -28.627889 11.738393 32.297860 -1.257858 1.198837 -0.000366 0.001032 -392035.000000 0 0 1
10.240346 -29.320489 12.455293 33.461770 -1.234785 1.189392 0.005606 0.001759 -56091.200000 0 0 1
11.495646 -29.310789 11.812693 33.627547 -1.197033 1.211858 0.008235 -0.002045 -147344.000000 0 0 1
12.570646 -30.105989 12.525793 34.946920 -1.175256 1.204218 0.004203 0.002783 -600967.000000 0 0 1
13.097446 -29.531089 13.733593 35.103274 -1.153349 1.168824 0.011662 0.005189 1437130.000000 0 0 1
14.192546 -30.201589 14.437093 36.359235 -1.131495 1.162476 0.014339 0.007237 3265150.000000 0 0 1
15.616646 -30.460089 13.702593 36.870825 -1.097047 1.190024 0.021740 0.005430 1702800.000000 0 0 1
16.440446 -29.326889 13.559893 36.252246 -1.059857 1.187432 0.020721 0.006811 -1142410.000000 0 0 1
17.733746 -29.643289 13.287193 37.010266 -1.031673 1.203585 0.012236 0.008967 -1393110.000000 0 0 1
18.633546 -28.397289 12.972893 36.358094 -0.990094 1.205947 -0.003002 0.004392 303244.000000 0 0 1
19.891846 -28.738789 12.418093 37.091947 -0.965351 1.229412 -0.003165 0.003536 -190005.000000 0 0 1
20.707346 -27.596489 12.288893 36.624818 -0.927064 1.228624 -0.006305 0.006557 -330316.000000 0 0 1
22.082646 -28.075689 11.812293 37.622039 -0.904317 1.251422 -0.004671 0.005610 -601840.000000 0 0 1
22.784346 -28.827989 12.755893 38.895915 -0.901964 1.236664 -0.009293 0.004844 354577.000000 0 0 1
24.060946 -29.205289 12.235993 39.769304 -0.881678 1.258049 -0.013063 0.001399 -52717.200000 0 0 1
25.074046 -29.730789 13.298793 41.103351 -0.870164 1.241322 -0.011031 0.003693 310081.000000 0 0 1
25.980246 -28.787389 13.899193 41.193137 -0.836609 1.226627 -0.011480 0.004604 326445.000000 0 0 1
27.095446 -28.681189 13.022993 41.549635 -0.813821 1.251991 -0.013224 0.005425 -593899.000000 0 0 1
28.287146 -27.956589 13.717093 42.070086 -0.779521 1.238671 -0.000614 0.004378 -27346.400000 0 0 1
28.202146 -26.580289 14.007793 41.207900 -0.755801 1.223954 -0.001230 0.004518 517344.000000 0 0 1
27.148246 -26.146389 14.915693 40.535649 -0.766602 1.193977 -0.002348 0.002417 642171.000000 0 0 1
27.631346 -25.930789 16.399293 41.289634 -0.753660 1.162358 0.000168 0.008097 -263522.000000 0 0 1
27.914646 -27.164989 17.027393 42.509954 -0.771789 1.158679 -0.002032 0.005533 192280.000000 0 0 1
28.452346 -26.830089 18.316193 43.184170 -0.756062 1.132783 0.004807 0.008587 -128025.000000 0 0 1
28.719246 -28.075889 19.155993 44.497221 -0.774071 1.125751 0.001853 0.005038 -422000.000000 0 0 1
27.597446 -28.710189 19.695193 44.427408 -0.805157 1.111506 -0.007311 0.001690 -837752.000000 0 0 1
27.932246 -29.722489 20.666193 45.724482 -0.816439 1.101821 0.003463 0.005887 -488760.000000 0 0 1
26.762346 -30.559389 21.140593 45.793275 -0.851542 1.090939 -0.003701 0.003924 -1034460.000000 0 0 1
25.776046 -29.852489 21.908093 45.116961 -0.858547 1.063765 -0.001529 0.006357 1002640.000000 0 0 1
24.596046 -30.590289 22.246393 45.117992 -0.893592 1.055180 0.010047 0.002102 1094090.000000 0 0 1
23.684646 -31.189389 21.124893 44.497208 -0.921318 1.076120 -0.002205 0.004998 -907758.000000 0 0 1
24.327246 -32.298689 20.511593 45.340331 -0.925253 1.101351 -0.007778 0.002994 57617.900000 0 0 1
23.783046 -32.660689 19.252893 44.755198 -0.941403 1.126102 -0.010144 0.004611 -544848.000000 0 0 1
24.211346 -31.761689 18.128693 43.859362 -0.919481 1.144681 -0.013097 0.009372 265156.000000 0 0 1
25.542146 -32.104189 17.739393 44.696378 -0.898743 1.162674 -0.012894 0.003224 626778.000000 0 0 1
26.068146 -31.156089 16.779993 43.952455 -0.874077 1.179079 -0.014999 0.001186 -138741.000000 0 0 1
27.385746 -31.469689 16.072893 44.706356 -0.854677 1.203041 -0.007465 0.005925 -354520.000000 0 0 1
27.224246 -32.365289 14.950693 44.857493 -0.871459 1.231002 -0.005744 0.004623 235771.000000 0 0 1
27.410446 -33.638489 15.502493 46.078279 -0.887064 1.227664 -0.013183 0.003780 -220497.000000 0 0 1
26.596946 -34.723589 14.755393 46.161096 -0.917158 1.245436 -0.015960 -0.002207 -485126.000000 0 0 1
26.939246 34.621222 13.393193 45.866432 0.909544 1.274475 -0.003862 -0.006483 256882.000000 0 0 1
26.142446 33.620922 12.775493 44.463548 0.909886 1.279363 -0.006805 -0.005249 -39144.100000 0 0 1
26.471046 33.579422 11.281393 44.221755 0.903223 1.312835 -0.005246 -0.005918 295751.000000 0 0 1
27.813646 33.169222 11.040793 44.673205 0.872994 1.321063 -0.004420 -0.002383 487092.000000 0 0 1
27.869246 32.240222 9.981993 43.769475 0.857987 1.340713 0.001660 -0.006731 -357458.000000 0 0 1
29.251946 31.634922 9.724593 44.170265 0.824516 1.348816 0.005829 -0.011082 -387549.000000 0 0 1
29.743046 30.861822 10.775493 44.195159 0.803856 1.324498 0.004235 -0.012386 547319.000000 0 0 1
31.073646 30.421522 10.465793 44.727768 0.774794 1.334618 0.006402 -0.008924 586889.000000 0 0 1
31.585346 29.660222 11.716393 44.884704 0.753976 1.306704 0.001516 -0.009845 -149233.000000 0 0 1
30.991546 28.382222 11.819993 43.654767 0.741479 1.296613 0.001406 -0.008022 347884.000000 0 0 1
31.380046 27.684522 13.008293 43.821863 0.722912 1.269409 0.001993 -0.007264 73049.400000 0 0 1
31.177646 26.194122 12.823793 42.692239 0.698752 1.265708 0.003326 -0.006322 285765.000000 0 0 1
32.127646 25.697522 11.875393 42.820243 0.674654 1.289781 0.004632 -0.005361 239604.000000 0 0 1
32.175046 24.323622 11.734993 42.006930 0.647316 1.287670 0.000750 -0.007291 -81338.000000 0 0 1
30.997046 23.615822 10.988993 40.488046 0.651057 1.295935 0.010214 -0.008314 99954.300000 0 0 1
29.861046 23.412222 11.789093 39.734077 0.664933 1.269561 0.002778 -0.006311 -812690.000000 0 0 1
28.754746 23.397822 10.952993 38.655679 0.683041 1.283513 0.003188 -0.004076 -975089.000000 0 0 1
27.467746 22.870122 11.583493 37.572554 0.694316 1.257394 -0.002169 -0.002209 -361403.000000 0 0 1
27.113246 23.677122 12.669093 38.160714 0.717848 1.232381 -0.001842 0.001997 -101231.000000 0 0 1
26.266946 22.959522 13.542893 37.423282 0.718311 1.200508 -0.001137 0.002485 -266353.000000 0 0 1
23.250346 9.432422 26.121833 36.220151 0.385401 0.765269 0.004762 0.003133 -340595.000000 0 0 1
22.975246 8.283822 26.845683 36.292896 0.346046 0.738179 0.003861 0.003392 1733550.000000 0 0 1
21.532546 8.127622 27.046933 35.514016 0.360923 0.705041 0.006730 0.001833 1616340.000000 0 0 1
20.987546 6.847722 27.728633 35.443553 0.315385 0.672395 0.004199 0.006244 -131742.000000 0 0 1
21.307346 6.673222 29.104283 36.682342 0.303512 0.654399 0.005836 0.011620 1039540.000000 0 0 1
22.683646 6.450922 29.475133 37.748452 0.277072 0.674803 0.001662 0.007324 700572.000000 0 0 1
22.916146 6.393722 31.013713 39.088103 0.272086 0.654371 0.003959 0.010314 -527313.000000 0 0 1
22.833946 7.642622 31.671403 39.785381 0.322984 0.650045 0.000530 0.010999 255113.000000 0 0 1
22.747246 7.505722 33.134773 40.886260 0.318713 0.625939 0.005608 0.012993 -150712.000000 0 0 1
22.446846 8.836822 33.845533 41.562849 0.375044 0.619237 0.004555 0.008489 103528.000000 0 0 1
23.449246 9.832822 33.625577 42.157217 0.397053 0.647452 -0.001077 0.005758 343353.000000 0 0 1
24.161246 10.187022 -34.622718 43.431254 0.399010 2.493413 0.000930 0.006197 354816.000000 0 0 1
25.418046 11.100222 34.634792 44.371847 0.411744 0.675239 -0.001298 0.000498 60362.000000 0 0 1
25.209546 12.431122 34.120910 44.207358 0.458122 0.689070 -0.001286 -0.002406 199993.000000 0 0 1
24.970746 13.302622 -34.245445 44.421261 0.489486 2.451088 -0.001780 -0.005073 -1100320.000000 0 0 1
24.447746 14.687122 34.681304 44.902079 0.540975 0.688222 -0.003885 -0.007474 -927329.000000 0 0 1
25.354746 15.415522 33.959349 45.096994 0.546276 0.718143 -0.000857 -0.011196 -359860.000000 0 0 1
24.859946 16.744322 33.734007 45.126184 0.592750 0.726433 -0.002289 -0.010303 -31735.100000 0 0 1
25.536346 17.777622 34.674740 46.588479 0.608150 0.731344 -0.003297 -0.007795 -299267.000000 0 0 1
25.155846 17.640122 -33.372607 45.362114 0.611553 2.397486 0.001008 -0.010590 155034.000000 0 0 1
26.185346 17.121222 -32.542057 45.141932 0.579075 2.375872 -0.001267 -0.007749 -531171.000000 0 0 1
25.729646 16.360722 -31.301647 43.697609 0.566378 2.369316 -0.001481 -0.004105 -291910.000000 0 0 1
24.922746 15.265822 -31.590997 43.036957 0.549579 2.395053 -0.002914 -0.005094 -110341.000000 0 0 1
23.942346 15.040122 -30.599107 41.662292 0.560883 2.395661 0.000867 -0.003075 -23546.700000 0 0 1
23.162146 13.740622 -30.885777 40.978298 0.535431 2.424486 -0.001303 -0.001228 -284840.000000 0 0 1
22.279746 13.875422 -32.018507 41.401681 0.557003 2.454924 -0.001002 -0.000161 761981.000000 0 0 1
21.621546 12.637222 -32.447747 40.988375 0.528925 2.484273 -0.001206 0.004988 395781.000000 0 0 1
20.769446 11.804622 -31.421007 39.471492 0.516833 2.491525 0.001379 0.006009 -695038.000000 0 0 1
19.518446 12.361922 -31.136057 38.771651 0.564578 2.503213 0.003267 0.001464 -183323.000000 0 0 1
18.847646 11.573322 -30.186117 37.421614 0.550683 2.509257 -0.002331 0.008703 347796.000000 0 0 1
17.600646 12.248222 -29.548247 36.508911 0.607966 2.513830 -0.004657 0.005611 823479.000000 0 0 1
16.466846 12.465522 -30.383037 36.737926 0.647971 2.544584 -0.010795 0.007208 707149.000000 0 0 1
15.319046 12.946922 -29.706667 35.843856 0.701673 2.547720 -0.008190 -0.001207 -187728.000000 0 0 1
14.215146 13.395622 -30.700647 36.387399 0.755726 2.574966 -0.006151 -0.000874 187521.000000 0 0 1
13.549546 12.282422 -31.318127 36.266695 0.736385 2.613065 -0.010567 0.000493 -259850.000000 0 0 1
12.412146 11.839822 -30.623227 35.100211 0.761803 2.630993 -0.011662 -0.002090 -778593.000000 0 0 1
11.471846 11.125222 -31.582997 35.395756 0.770060 2.673171 -0.005992 -0.000955 -479639.000000 0 0 1
11.022846 11.956322 -32.568967 36.403220 0.825999 2.678494 -0.003638 0.001041 -27106.700000 0 0 1
10.162646 11.226122 -33.473867 36.739692 0.835078 2.716763 0.003782 0.006660 176869.000000 0 0 1
9.682846 12.126722 -34.655810 37.971569 0.896988 2.720586 0.006556 0.006778 -312230.000000 0 0 1
10.617246 12.438822 33.778427 37.529087 0.864241 0.450889 0.000467 0.009290 13211.500000 0 0 1
10.023846 13.076922 32.623803 36.548542 0.916800 0.467682 -0.002434 0.007540 -644841.000000 0 0 1
10.903746 12.973822 31.390163 35.672876 0.871877 0.495050 0.000790 0.008047 -738517.000000 0 0 1
11.019846 11.654522 30.989323 34.894169 0.813382 0.477613 -0.002467 0.007441 145718.000000 0 0 1
11.269746 11.544922 29.627903 33.735812 0.797459 0.498642 0.004596 0.007498 -322602.000000 0 0 1
11.823846 10.196322 29.148653 33.066785 0.711622 0.491749 0.004328 0.006821 645511.000000 0 0 1
10.818446 9.147922 29.074793 32.342957 0.701926 0.453423 0.003368 0.003423 637435.000000 0 0 1
11.473546 7.949022 28.745213 31.954913 0.605886 0.452046 0.001154 -0.000322 -260712.000000 0 0 1
10.648046 6.657422 28.773233 31.394284 0.558761 0.411525 -0.001157 -0.001368 451378.000000 0 0 1
9.630446 6.623222 27.742483 30.104118 0.602449 0.398740 -0.003327 -0.003116 58263.000000 0 0 1
8.814146 5.477422 27.733143 29.611122 0.556032 0.358060 -0.005050 -0.007077 -267300.000000 0 0 1
9.420846 4.087322 27.307653 29.174757 0.409351 0.359699 -0.000849 -0.007628 -210762.000000 0 0 1
10.311646 3.530722 28.243133 30.273266 0.329889 0.368303 -0.002797 -0.008964 109694.000000 0 0 1
10.671946 2.208022 27.878753 29.933103 0.204021 0.372642 -0.008685 -0.007573 90843.200000 0 0 1
11.289846 1.352322 29.052393 31.198252 0.119214 0.373054 -0.003575 -0.007248 97628.200000 0 0 1
10.259646 1.087922 29.968923 31.695114 0.105644 0.331554 0.001683 -0.009275 -5285.000000 0 0 1
10.344546 -0.168078 30.565583 32.269068 -0.016247 0.326378 -0.005481 -0.005256 266543.000000 0 0 1
9.270746 -0.267678 31.682253 33.011870 -0.028865 0.284781 -0.003179 -0.001660 307304.000000 0 0 1
9.430846 0.749822 32.651513 33.994476 0.079340 0.282022 -0.003507 0.001998 754015.000000 0 0 1
8.154146 0.973422 33.278193 34.276461 0.118815 0.241936 0.001470 0.002925 634692.000000 0 0 1
8.212246 2.308122 34.133065 35.182873 0.273990 0.244901 0.002278 0.001439 -577722.000000 0 0 1
8.225346 3.547222 33.480957 34.658528 0.407157 0.261421 0.000312 -0.002016 -573022.000000 0 0 1
9.395746 3.745822 32.764613 34.290394 0.379361 0.299432 0.000370 -0.002026 -681671.000000 0 0 1
9.428246 5.140822 32.075253 33.825164 0.499195 0.323068 -0.000290 -0.001660 19080.100000 0 0 1
9.553846 6.195722 33.029783 34.937509 0.575324 0.331989 -0.000561 -0.001909 24002.500000 0 0 1
9.712846 7.415222 32.376173 34.605512 0.652050 0.360903 0.001251 -0.000042 -247474.000000 0 0 1
9.738546 8.639222 33.352653 35.803281 0.725651 0.372135 0.004166 0.001731 212118.000000 0 0 1
8.521446 8.991022 34.012271 36.197902 0.812206 0.349278 0.006590 -0.000174 145131.000000 0 0 1
8.074546 8.104622 -34.433871 36.284634 0.787257 2.820824 0.003447 -0.001868 138809.000000 0 0 1
6.663246 8.566322 -33.944627 35.637318 0.909713 2.832146 0.005237 -0.004724 445085.000000 0 0 1
6.127246 7.777222 -32.915237 34.372099 0.903511 2.849401 0.005227 0.001267 -73953.900000 0 0 1
4.841846 8.262022 -32.573187 33.951686 1.040707 2.855657 0.010068 -0.000523 60377.300000 0 0 1
4.307146 7.585222 -31.280687 32.474120 1.054364 2.869646 0.006157 0.001551 -190601.000000 0 0 1
4.914446 7.912522 -30.008047 31.420418 1.015008 2.840622 0.010436 0.000568 163435.000000 0 0 1
4.529346 7.048522 -28.927437 30.116329 0.999644 2.859674 0.005634 0.005235 390767.000000 0 0 1
3.096646 7.229822 -28.340087 29.411224 1.166121 2.870880 0.006701 0.005389 973180.000000 0 0 1
2.048146 6.831022 -29.224317 30.081863 1.279495 2.902245 0.002495 0.003608 1065720.000000 0 0 1
0.713046 7.275622 -28.945727 29.854618 1.473104 2.894208 0.002898 0.005113 738096.000000 0 0 1
-0.270154 6.917722 -30.095647 30.881642 -1.531764 2.915493 -0.002500 0.004620 -181099.000000 0 0 1
-0.118154 7.521622 -31.366627 32.256070 -1.555089 2.906212 0.000339 0.008269 265195.000000 0 0 1
-0.748854 6.824922 -32.445577 33.164074 -1.461510 2.933057 -0.002210 0.002730 -505031.000000 0 0 1
-0.407554 7.505222 -33.816247 34.641493 -1.516547 2.922880 0.000916 0.005844 -1073160.000000 0 0 1
0.924846 7.492622 -34.156217 34.980593 1.447983 2.924062 -0.001031 0.005843 -589744.000000 0 0 1
1.509246 6.210922 -34.628466 35.213407 1.332418 2.959069 -0.003113 0.004248 23337.000000 0 0 1
1.527946 5.898122 33.274563 33.827785 1.317312 0.181101 -0.001584 0.000569 -870392.000000 0 0 1
0.254846 5.766822 32.713233 33.218621 1.526633 0.174658 0.000767 -0.004062 -620378.000000 0 0 1
0.288546 5.854222 31.264603 31.809285 1.521548 0.185324 0.006325 -0.005788 -202881.000000 0 0 1
0.899046 4.696422 30.504143 30.876648 1.381653 0.155490 0.005688 -0.005204 -343634.000000 0 0 1
0.785646 4.887522 29.118073 29.535865 1.411415 0.168397 0.006329 -0.007142 -28282.700000 0 0 1
1.335846 3.902522 28.310053 28.608972 1.240995 0.144684 0.004020 -0.006171 -247226.000000 0 0 1
1.411946 4.232422 26.786103 27.155153 1.248804 0.165053 0.005458 -0.001486 22037.900000 0 0 1
2.217246 5.349822 26.466263 27.092432 1.177894 0.215415 0.002877 -0.000478 -55763.100000 0 0 1
2.128346 5.769922 25.147983 25.889050 1.217411 0.239843 0.002257 0.000259 -654471.000000 0 0 1
2.893546 7.117722 24.831953 25.993470 1.184676 0.300072 -0.001053 0.002956 -796854.000000 0 0 1
4.261546 7.048722 24.932293 26.257656 1.027013 0.319079 -0.005672 0.009779 -1295750.000000 0 0 1
4.803346 6.592222 23.691633 25.056396 0.941107 0.331570 -0.002468 -0.000120 -107894.000000 0 0 1
6.372746 6.550922 23.730033 25.429136 0.799184 0.367627 0.005423 0.003825 328156.000000 0 0 1
6.991746 5.721522 24.688953 26.290012 0.685815 0.350794 0.002860 0.006710 -183319.000000 0 0 1
6.813846 4.312022 24.691783 25.975107 0.564212 0.315652 0.002562 0.005313 -900008.000000 0 0 1
7.060146 3.608922 23.306333 24.618187 0.472542 0.327927 -0.001001 0.004931 -464023.000000 0 1 0
6.206846 3.913422 22.269633 23.447311 0.562545 0.318285 0.002699 0.006014 165874.000000 0 1 0
4.921246 3.282022 22.328433 23.098685 0.588170 0.258972 0.000520 0.002794 696349.000000 0 1 0
3.805546 3.659622 21.343233 21.986555 0.765853 0.242502 0.003866 0.004959 88665.500000 0 1 0
3.435946 4.979222 21.419133 22.257081 0.966775 0.275272 0.000656 -0.001323 -699048.000000 0 1 0
2.304746 5.225222 20.665133 21.439742 1.155384 0.269627 0.004215 0.000610 -942307.000000 0 1 0
1.822846 6.668622 20.768733 21.889120 1.303968 0.321333 0.004493 0.001773 -544194.000000 0 1 0
2.484746 7.698022 20.120433 21.685602 1.258576 0.382259 0.001024 0.004244 -305858.000000 0 1 0
1.851746 8.923122 20.414733 22.356484 1.366178 0.419860 0.001476 0.004971 514990.000000 0 1 0
2.796546 10.078222 19.969933 22.543058 1.300122 0.482458 -0.000066 -0.001925 10262.600000 0 1 0
2.940646 10.247822 18.564733 21.408283 1.291352 0.521294 0.000950 -0.004340 617608.000000 0 1 0
3.969446 11.204522 18.222033 21.756385 1.230321 0.578015 -0.000308 -0.006514 746868.000000 0 1 0
5.460146 10.825122 18.308933 21.959360 1.103638 0.584905 0.002793 -0.004908 -264905.000000 0 1 0
5.827546 9.953122 17.305433 20.796705 1.041107 0.587870 0.002080 -0.003240 -347490.000000 0 1 0
7.096946 9.356922 17.405533 20.996933 0.921896 0.593558 0.000785 -0.005965 -192678.000000 0 1 0
7.092146 7.918622 17.977933 20.885622 0.840402 0.533995 0.001760 -0.000371 -335859.000000 0 1 0
7.002646 7.893222 19.372133 22.059455 0.845114 0.498756 0.003961 0.000571 -28712.100000 0 1 0
6.953546 6.556622 19.849933 22.030909 0.756027 0.448718 0.001634 -0.004961 -16503.600000 0 1 0
8.315946 5.931622 20.241533 22.672864 0.619585 0.467351 0.001074 0.001481 -235537.000000 0 1 0
9.122846 5.795922 19.090933 21.938158 0.565986 0.515156 -0.002386 0.001237 8509.730000 0 1 0
10.350246 5.125222 19.402733 22.580114 0.459783 0.536928 -0.001953 0.002156 443305.000000 0 1 0
10.310346 3.587422 19.370233 22.234630 0.334842 0.513208 -0.000155 0.001962 -504096.000000 0 1 0
9.585046 2.971422 20.388233 22.724051 0.300611 0.457387 0.001867 0.000831 -124389.000000 0 1 0
9.793546 1.624822 20.359533 22.650920 0.164410 0.453683 0.005286 -0.007790 -313447.000000 0 1 0
8.979646 0.796522 21.348333 23.173688 0.088471 0.399562 0.008877 -0.005795 -269948.000000 0 1 0
9.153646 1.027322 22.708333 24.505367 0.111763 0.385348 0.003998 -0.004521 31818.400000 0 1 0
8.456446 0.096522 23.494733 24.970448 0.011413 0.345514 0.004296 -0.008404 -197214.000000 0 1 0
8.938846 0.270222 24.968073 26.521325 0.030221 0.343939 -0.000479 -0.005518 513263.000000 0 0 1
10.236446 -0.153578 25.406823 27.391880 -0.015002 0.383044 -0.003879 -0.003932 705787.000000 0 0 1
10.371746 -1.595278 25.529793 27.602325 -0.152614 0.389985 -0.006557 -0.000668 -365360.000000 0 0 1
11.832846 -2.051978 25.427793 28.121158 -0.171706 0.441240 -0.014579 0.000184 -270601.000000 0 0 1
11.910446 -3.450178 25.501973 28.356888 -0.281959 0.452580 -0.011410 0.002806 63492.400000 0 0 1
13.228046 -3.928178 25.349993 28.862327 -0.288664 0.498486 -0.011148 0.007200 -96007.700000 0 0 1
13.196346 -5.472078 25.503823 29.232382 -0.393085 0.510601 -0.012680 0.003592 -417369.000000 0 0 1
12.569146 -6.136678 24.477433 28.191967 -0.454190 0.519150 -0.009353 0.007269 25124.100000 0 0 1
12.598746 -7.550078 24.674683 28.715363 -0.539884 0.536926 -0.013452 0.002142 -63246.800000 0 0 1
12.355446 -8.339078 23.318433 27.675740 -0.593703 0.568780 -0.002332 -0.001338 -163661.000000 0 0 1
11.986246 -9.662378 23.459033 28.059898 -0.678463 0.580781 -0.001315 0.003572 -468457.000000 0 0 1
12.220846 -10.301678 22.231033 27.380513 -0.700392 0.623347 -0.004097 0.001046 -141480.000000 0 0 1
11.603046 -11.710978 22.173833 27.630718 -0.790028 0.639312 0.000187 0.003966 -1077640.000000 0 0 1
10.233146 -11.727878 22.099533 27.030534 -0.853356 0.613607 0.001690 0.004531 -1735020.000000 0 0 1
9.733646 -12.984678 22.360633 27.628674 -0.927535 0.627791 0.001705 0.003715 -1857260.000000 0 0 1
8.317846 -12.913278 22.757033 27.455817 -0.998558 0.593729 0.004359 0.002907 -1421440.000000 0 0 1
7.454246 -12.494478 21.675633 26.105763 -1.032878 0.591149 0.001580 0.003573 245332.000000 0 0 1
6.099446 -12.435378 22.088433 26.071838 -1.114785 0.560077 0.005691 0.007010 338836.000000 0 0 1
5.316046 -11.333978 21.358933 24.757291 -1.132225 0.530146 0.002951 0.006417 11757.700000 0 1 0
5.577546 -10.060278 21.929833 24.763598 -1.064572 0.483082 0.008364 0.007168 -277254.000000 0 1 0
4.977546 -9.026978 21.233333 23.603320 -1.066873 0.451964 0.005091 0.004071 9544.460000 0 1 0
5.381546 -7.677678 21.876433 23.800969 -0.959444 0.404903 0.009856 0.001952 204690.000000 0 1 0
4.702346 -6.587378 21.258433 22.747013 -0.950841 0.363778 0.000890 0.004008 84821.800000 0 1 0
5.078946 -5.443378 21.973433 23.200384 -0.820019 0.326673 0.007942 0.001938 -242905.000000 0 1 0
-7.535854 -15.864378 -20.931807 27.324131 1.127334 2.443479 0.019079 0.005681 -281278.000000 0 0 1
-6.870554 -15.396978 -19.798907 26.005157 1.151084 2.436182 0.008353 0.008294 -147350.000000 0 0 1
-6.436054 -14.052678 -19.969307 25.252204 1.141314 2.482902 0.011143 0.000301 -138105.000000 0 0 1
-5.831454 -13.409378 -18.743907 23.772912 1.160588 2.479092 0.013507 0.000111 487519.000000 0 1 0
-4.615654 -14.093178 -18.380907 23.617360 1.254296 2.462717 0.001458 0.008584 301640.000000 0 1 0
-4.093354 -13.471778 -17.266807 22.279744 1.275814 2.457512 0.002781 0.004252 -303896.000000 0 1 0
-3.156954 -14.495878 -16.584307 22.251654 1.356362 2.411791 -0.000440 0.006381 -117060.000000 0 1 0
-1.924754 -14.629778 -17.250607 22.700629 1.439983 2.433983 -0.006555 0.001844 -497815.000000 0 1 0
-1.094154 -15.556978 -16.553207 22.742590 1.500580 2.385979 -0.007204 0.006463 708426.000000 0 1 0
0.265546 -15.654278 -17.355707 23.374078 -1.553835 2.407620 -0.007602 0.009605 735374.000000 0 1 0
0.180946 -16.546578 -18.409007 24.753051 -1.559861 2.409394 -0.006257 0.005903 -76982.000000 0 1 0
0.191146 -17.970678 -18.224407 25.595133 -1.560160 2.363176 -0.005351 0.016186 -138028.000000 0 0 1
0.005346 -18.680878 -19.625607 27.095012 -1.570510 2.380852 -0.001097 0.007075 -85610.000000 0 0 1
-1.332354 -18.470378 -20.011807 27.265408 1.498786 2.394935 -0.001988 0.008542 -181641.000000 0 0 1
-1.450154 -18.874778 -21.373507 28.551480 1.494117 2.416737 -0.001328 0.003604 712818.000000 0 0 1
-2.777654 -18.227678 -21.920907 28.644193 1.419573 2.442277 -0.005719 0.003375 751607.000000 0 0 1
-2.686454 -16.814478 -22.034507 27.847140 1.412365 2.483674 -0.011109 0.004158 -169605.000000 0 0 1
-3.077454 -15.986778 -20.902607 26.494656 1.380623 2.479873 -0.003122 0.004444 -211378.000000 0 0 1
-2.299154 -14.695678 -20.610207 25.417115 1.415603 2.516449 -0.007755 0.004087 -425018.000000 0 0 1
-2.400454 -13.748278 -21.619707 25.733035 1.397938 2.568363 -0.011033 -0.000633 -186281.000000 0 0 1
-1.572354 -12.681678 -21.292807 24.833061 1.447440 2.601066 -0.009618 0.003303 -256024.000000 0 1 0
-1.537154 -11.629878 -22.457407 25.336773 1.439385 2.660211 -0.007302 0.000824 -348400.000000 0 0 1
-2.717054 -10.903678 -22.620107 25.257510 1.326583 2.680528 -0.004239 -0.002367 -115292.000000 0 0 1
-2.602554 -10.216478 -23.829907 26.057901 1.321361 2.725063 -0.007143 -0.002463 89303.200000 0 0 1
-3.607054 -9.032378 -23.983207 25.880281 1.190853 2.756326 -0.001342 0.003381 352289.000000 0 0 1
-4.902354 -9.466378 -24.396507 26.623955 1.092955 2.729630 0.008020 0.005126 345280.000000 0 0 1
-5.756554 -8.353278 -24.301407 26.333886 0.967398 2.746131 0.012187 0.005194 940168.000000 0 0 1
-7.299954 -8.760778 -24.178107 26.732404 0.876105 2.700884 0.008717 0.005625 1606200.000000 0 0 1
-7.957454 -9.129378 -25.397547 28.137200 0.853877 2.696643 0.009621 -0.001820 251792.000000 0 0 1
-8.456454 -7.997578 -26.142827 28.616783 0.757517 2.722722 0.006822 -0.000141 -157578.000000 0 0 1
-9.352854 -8.363278 -27.327437 30.070070 0.729599 2.711176 0.010066 -0.001227 -122421.000000 0 0 1
-9.691954 -7.227678 -28.071857 30.564726 0.640769 2.734914 0.004933 0.001908 229992.000000 0 0 1
-10.605154 -7.596778 -29.119997 31.908535 0.621601 2.720416 0.011401 -0.000878 265159.000000 0 0 1
-11.262254 -6.373278 -29.755037 32.447177 0.514966 2.731365 0.004495 0.001818 -284993.000000 0 0 1
-10.419954 -5.600478 -30.520687 32.733059 0.493177 2.771826 -0.000087 0.002002 -283352.000000 0 0 1
-11.230654 -4.809578 -31.356917 33.652874 0.404624 2.770069 0.000877 -0.002708 -110240.000000 0 0 1
-10.378954 -3.933878 -32.240457 34.097583 0.362294 2.810030 -0.004782 0.004924 -161371.000000 0 0 1
-9.581654 -4.585578 -33.211377 34.868771 0.446364 2.832033 0.004358 -0.000033 218070.000000 0 0 1
-8.911154 -3.565978 -33.970147 35.300082 0.380653 2.866223 -0.004814 0.001467 87356.300000 0 0 1
-7.826354 -4.055878 34.479643 35.588590 0.478128 0.250293 0.002844 -0.001968 370790.000000 0 0 1
-6.604754 -4.512378 -34.370643 35.289169 0.599363 2.912935 0.002446 -0.003752 147999.000000 0 0 1
-5.614754 -4.624278 34.063545 34.831516 0.688963 0.210379 -0.000967 -0.003653 -143147.000000 0 0 1
-4.277554 -4.003278 34.488788 34.982856 0.752288 0.168265 0.000719 -0.004162 -275708.000000 0 0 1
-4.241654 -2.588078 34.431334 34.788023 0.547855 0.143323 0.005054 -0.007078 -479798.000000 0 0 1
-2.930354 -2.181178 34.683075 34.874923 0.639869 0.104939 -0.000670 -0.006114 -306019.000000 0 0 1
-2.782954 -0.668378 -34.238498 34.357915 0.235704 3.058194 0.005830 -0.009258 -402229.000000 0 0 1
-3.123954 -0.657678 -32.862547 33.017248 0.207497 3.044751 0.005165 -0.006763 322575.000000 0 0 1
-3.567554 0.599722 -32.426567 32.627739 -0.166547 3.030489 0.002973 -0.004169 -904400.000000 0 0 1
-4.032754 0.461522 -30.984437 31.249183 -0.113948 3.011331 0.004642 -0.005237 956959.000000 0 0 1
-5.197454 -0.362078 -30.770947 31.208906 0.069552 2.973866 -0.004056 -0.005215 1122040.000000 0 0 1
-6.473454 0.168422 -31.087577 31.754865 -0.026011 2.936226 0.000661 -0.002342 -146692.000000 0 0 1
-7.654154 -0.790378 -30.943167 31.885583 0.102897 2.897860 -0.000628 -0.002676 -182006.000000 0 0 1
-7.859754 -1.235278 -29.613657 30.663828 0.155890 2.879123 0.004998 0.001015 467247.000000 0 0 1
-8.859654 -2.267178 -29.506547 30.891259 0.250523 2.841045 -0.002798 0.003684 305811.000000 0 0 1
-9.014654 -2.903178 -28.079127 29.633255 0.311562 2.816292 -0.002080 0.003782 -46254.100000 0 0 1
-9.620954 -1.982778 -27.174797 28.895740 0.203244 2.794728 -0.003222 0.003759 218629.000000 0 0 1
-9.677154 -2.491778 -25.851737 27.715855 0.252016 2.772741 -0.010752 0.003145 222008.000000 0 0 1
-10.672754 -1.694078 -24.947607 27.187510 0.157416 2.732829 -0.005768 0.001482 314904.000000 0 0 1
-10.155354 -0.438178 -24.616307 26.632420 0.043121 2.749990 -0.010382 0.002810 -412658.000000 0 0 1
-11.010854 0.265522 -23.776507 26.203658 -0.024110 2.707789 -0.003002 0.002449 -166059.000000 0 0 1
-10.413254 1.571022 -23.199807 25.478128 -0.149738 2.715475 -0.009174 0.000245 203381.000000 0 0 1
-10.453654 2.654822 -24.080707 26.385743 -0.248703 2.720495 -0.011137 -0.001248 -366063.000000 0 0 1
-9.475354 3.603622 -23.776507 25.847451 -0.363422 2.738566 -0.006182 0.001117 -868148.000000 0 0 1
-9.369954 4.808922 -24.756807 26.903927 -0.474174 2.739370 -0.005319 -0.000538 -339231.000000 0 0 1
-10.505054 5.603622 -25.010907 27.700221 -0.490026 2.697297 0.005611 -0.000484 -158640.000000 0 0 1
-11.363454 5.098722 -26.012687 28.840682 -0.421768 2.695047 0.002635 -0.003498 324501.000000 0 0 1
-12.687454 5.850722 -26.297497 29.778529 -0.432081 2.653231 0.005852 -0.002692 291655.000000 0 0 1
-12.472454 6.968322 -27.124827 30.657395 -0.509496 2.656802 0.005315 -0.002988 -39853.400000 0 0 1
-13.702354 7.579822 -27.451627 31.603798 -0.505279 2.623203 0.009366 0.001772 -132004.000000 0 0 1
-13.833954 9.096422 -27.299567 31.927880 -0.581660 2.596421 0.006483 0.001071 -196383.000000 0 0 1
-13.649954 9.588122 -25.956167 30.854107 -0.612354 2.570396 0.009020 -0.004509 116583.000000 0 0 1
-13.898454 10.950122 -25.733517 31.229571 -0.667298 2.539251 0.003072 -0.000698 -244488.000000 0 0 1
-13.717354 11.555022 -24.370107 30.258659 -0.700045 2.507134 -0.002012 -0.002797 -433412.000000 0 0 1
-14.603654 11.243722 -23.362507 29.757264 -0.656132 2.473658 0.003580 -0.004913 -373733.000000 0 0 1
-14.145654 11.833422 -22.175107 28.842066 -0.696628 2.447831 -0.001739 -0.001351 -555246.000000 0 0 1
-15.102754 11.642122 -21.003907 28.368932 -0.656719 2.404438 -0.005979 0.002081 289726.000000 0 0 1
-16.345854 12.334622 -21.137207 29.429770 -0.646440 2.372045 -0.001604 -0.001892 368021.000000 0 0 1
-16.985354 12.635422 -19.937307 29.080102 -0.639586 2.326223 0.000651 0.001739 -927025.000000 0 0 1
-18.428854 13.034422 -20.120507 30.238281 -0.615597 2.298824 0.000471 -0.000103 -914058.000000 0 0 1
-18.573254 14.249022 -20.818107 31.327208 -0.654406 2.297671 -0.003841 -0.001043 -731075.000000 0 0 1
-19.901954 14.590722 -20.999807 32.403223 -0.632617 2.275854 -0.004052 0.000478 -682164.000000 0 0 1
-20.068854 15.917022 -21.774507 33.619037 -0.670532 2.275337 -0.003269 0.000278 -165196.000000 0 0 1
-20.024554 15.788922 -23.164807 34.451141 -0.667676 2.308237 0.003877 -0.001241 207553.000000 0 0 1
-20.297354 17.046022 -23.793007 35.618207 -0.698551 2.302316 0.001097 -0.001739 -358422.000000 0 0 1
-20.194154 17.108722 -25.370127 36.662727 -0.702873 2.335034 -0.002777 0.002010 -141634.000000 0 0 1
-18.836854 17.100122 -25.746007 36.195278 -0.737109 2.362154 0.001035 0.002363 -11077.300000 0 0 1
-18.706054 17.060522 -27.142717 37.117448 -0.739423 2.390972 0.000857 -0.000453 61797.700000 0 0 1
-18.244254 18.354022 -27.846087 38.014833 -0.788397 2.392792 -0.002253 0.001322 -337561.000000 0 0 1
-19.323654 19.223922 -27.811737 38.941694 -0.782811 2.366261 -0.003190 -0.004061 50960.800000 0 0 1
-18.860854 20.465422 -28.257687 39.661848 -0.826177 2.363801 -0.003135 0.002878 -173270.000000 0 0 1
-20.011654 21.478522 -28.453477 40.882681 -0.820738 2.340578 -0.001006 -0.003565 112485.000000 0 0 1
-20.623554 21.842522 -27.216667 40.536079 -0.814095 2.306917 0.003733 -0.001237 1215520.000000 0 0 1
-21.892754 21.160622 -27.017187 40.706179 -0.768395 2.296567 0.001935 -0.003257 613986.000000 0 0 1
-22.539454 21.547722 -25.668387 40.388085 -0.762907 2.259509 0.005225 -0.001791 -212403.000000 0 0 1
-21.958454 21.016922 -24.492007 39.035153 -0.763493 2.249051 -0.000229 -0.001119 147487.000000 0 0 1
-22.647054 21.616622 -23.409407 39.091786 -0.762123 2.212838 -0.000750 -0.008309 -253724.000000 0 0 1
-22.112554 21.252522 -22.065507 37.782553 -0.765568 2.194460 0.000606 -0.003911 -71425.500000 0 0 1
-20.772554 21.660022 -21.839507 37.116299 -0.806310 2.199884 0.000047 0.000462 319973.000000 0 0 1
-19.921854 20.716222 -21.167407 35.694555 -0.804943 2.205595 0.000015 0.002972 211900.000000 0 0 1
-20.271054 20.195422 -19.735907 34.760275 -0.783529 2.174593 0.005271 0.000768 -1001270.000000 0 0 1
-21.202154 19.110622 -19.819907 34.750193 -0.733562 2.177733 0.007635 0.000530 450384.000000 0 0 1
-22.060654 18.903622 -18.718707 34.560228 -0.708482 2.143166 0.008206 0.003771 -155191.000000 0 0 1
-23.164654 19.936822 -18.529907 35.741230 -0.710649 2.115829 -0.006234 -0.003239 -1248370.000000 0 0 1
-24.137054 19.957822 -19.568307 36.930078 -0.690902 2.129249 0.001987 -0.001215 -637564.000000 0 0 1
-24.958654 20.990122 -19.172407 37.829893 -0.699243 2.102272 0.007869 -0.008608 -1074820.000000 0 0 1
-26.408624 20.716722 -19.688507 38.913177 -0.665198 2.101291 0.001816 -0.007229 227799.000000 0 0 1
-27.068864 19.528522 -19.272107 38.542194 -0.624970 2.094425 0.002590 -0.007849 191360.000000 0 0 1
-27.336454 19.468422 -17.875307 38.024042 -0.618852 2.060207 0.003416 -0.008151 -1000100.000000 0 0 1
-28.213244 18.297422 -17.447807 37.884149 -0.575348 2.049419 -0.006421 -0.004835 -126223.000000 0 0 1
-27.548184 17.038022 -17.607207 36.867471 -0.553898 2.068696 0.000093 -0.003293 475785.000000 0 0 1
-28.435604 15.977422 -17.298307 36.920090 -0.511919 2.058427 -0.006554 -0.000119 381884.000000 0 0 1
-27.759024 15.028322 -16.273307 35.513862 -0.496205 2.046792 -0.001176 0.002290 -172768.000000 0 0 1
-27.309214 15.575922 -15.082007 34.869320 -0.518336 2.018093 0.001007 0.005282 431321.000000 0 0 1
-28.351864 15.841822 -14.117607 35.413251 -0.509542 1.980844 -0.006572 0.004848 700305.000000 0 0 1
-27.765054 16.241622 -12.751407 34.601834 -0.529292 1.948211 -0.002422 0.004470 163177.000000 0 0 1
-27.025384 17.438222 -12.741807 34.595038 -0.573031 1.947990 -0.003229 0.002081 -543789.000000 0 0 1
-27.798044 18.565622 -12.695407 35.757334 -0.588839 1.933757 -0.004293 -0.001811 -264675.000000 0 0 1
-26.988164 19.891822 -12.682807 35.845490 -0.635166 1.932447 -0.014373 0.000393 -100365.000000 0 0 1
-26.205754 20.233822 -11.568407 35.071030 -0.657504 1.906948 -0.002656 -0.002489 165243.000000 0 0 1
-25.451974 21.418722 -11.822507 35.303489 -0.699559 1.912276 -0.003475 -0.002678 260122.000000 0 0 1
-24.713054 21.997722 -10.583807 34.736894 -0.727333 1.880404 -0.001554 -0.001828 99745.100000 0 0 1
-25.533504 22.662222 -9.616607 35.468511 -0.725893 1.845364 0.005653 0.000597 118564.000000 0 0 1
-25.833004 23.959722 -10.047707 36.638351 -0.747794 1.848596 0.003818 -0.000484 -77120.500000 0 0 1
-26.515484 24.881622 -8.995807 37.457850 -0.753620 1.813325 0.007933 0.003825 379324.000000 0 0 1
-25.695034 25.331822 -7.885907 36.934043 -0.778280 1.785966 0.013405 0.007109 805114.000000 0 0 1
-26.517954 25.757922 -6.755307 37.580668 -0.770860 1.751534 0.014362 0.004540 686094.000000 0 0 1
-26.457624 24.792922 -5.533807 36.678575 -0.752928 1.722248 0.013441 0.003438 29809.100000 0 0 1
-26.910974 23.453622 -5.787807 36.163125 -0.716859 1.731535 0.006835 0.004327 -440878.000000 0 0 1
-26.776714 22.749822 -4.580407 35.433416 -0.704269 1.700427 0.007447 0.002755 -211727.000000 0 0 1
-27.027554 21.230022 -4.734307 34.693172 -0.665834 1.707686 -0.005175 0.002494 -29368.200000 0 0 1
-26.115334 20.422222 -5.470207 33.600610 -0.663669 1.734325 -0.011417 0.000149 -1896.100000 0 0 1
-25.924564 20.709122 -6.855307 33.881352 -0.674022 1.774536 -0.005467 0.002748 -439884.000000 0 0 1
-26.673314 19.841222 -7.884207 34.165780 -0.639560 1.803658 -0.010589 0.001990 -477026.000000 0 0 1
-26.323194 18.508222 -7.866407 33.126201 -0.612813 1.810555 -0.013578 0.003985 178986.000000 0 0 1
-26.705864 17.839822 -9.012707 33.357028 -0.588933 1.844386 -0.012071 0.004175 -110947.000000 0 0 1
-26.138714 16.402822 -9.042507 32.156677 -0.560416 1.855842 -0.010057 0.007250 -294281.000000 0 0 1
-26.934494 15.471322 -8.411107 32.180359 -0.521387 1.835242 -0.010789 0.002862 -329226.000000 0 0 1
-26.489654 14.147722 -8.678807 31.259903 -0.490542 1.852127 -0.011951 0.004429 41409.600000 0 0 1
-27.164104 13.030122 -7.804307 31.122015 -0.447261 1.824267 -0.002781 0.002830 539215.000000 0 0 1
-28.491664 12.825822 -8.293407 32.327345 -0.422987 1.830242 -0.003469 0.002461 344956.000000 0 0 1
-29.219894 11.952022 -7.400007 32.425501 -0.388273 1.801041 0.000452 -0.000367 446932.000000 0 0 1
-29.786444 10.659822 -8.106907 32.658628 -0.343673 1.821651 -0.004237 -0.003696 227694.000000 0 0 1
-28.720224 9.901322 -8.627207 31.580313 -0.331991 1.847497 -0.003851 -0.002907 189918.000000 0 0 1
-29.160034 8.581022 -8.651607 31.603668 -0.286195 1.848090 -0.005579 0.001413 -250090.000000 0 0 1
-28.148054 7.602222 -9.267507 30.594010 -0.263786 1.878550 0.002724 0.004462 -558301.000000 0 0 1
-27.888644 7.920922 -10.620107 30.875624 -0.276732 1.921932 0.006437 0.005526 281742.000000 0 0 1
-26.980354 6.986122 -11.168507 30.024673 -0.253369 1.951935 0.004121 0.000554 -438271.000000 0 0 1
-26.844214 7.116622 -12.652907 30.518096 -0.259147 1.998303 0.010101 0.001549 -304153.000000 0 0 1
-26.227524 8.350422 -12.970407 30.427685 -0.308236 2.011162 0.008619 0.005356 572081.000000 0 0 1
-25.258844 8.193422 -14.009207 30.023312 -0.313670 2.056251 0.008804 0.005822 65233.200000 0 0 1
-30.335364 26.294922 -33.711047 52.422247 -0.714171 2.269294 -0.006383 0.003701 -198875.000000 0 0 1
-30.822884 27.554122 -34.069497 53.572479 -0.729463 2.260037 0.000876 0.004579 137548.000000 0 0 1
-30.649174 27.860922 33.984274 53.577362 -0.737780 0.883690 -0.002317 0.004736 -177800.000000 0 0 1
-30.917784 29.347822 33.594041 54.274889 -0.759353 0.903377 0.003414 0.000114 -13258.100000 0 0 1
-30.662444 29.662922 32.275443 53.495595 -0.768831 0.923127 0.006252 0.003511 90922.100000 0 0 1
-30.960024 31.021522 31.967733 54.247524 -0.786390 0.940612 0.007941 0.002258 20247.600000 0 0 1
-30.919814 31.248122 30.468123 53.486321 -0.790679 0.964725 0.007965 0.000834 -770005.000000 0 0 1
-29.686244 31.299922 29.845323 52.456663 -0.811852 0.965565 0.011435 -0.000758 -812043.000000 0 0 1
-29.652034 32.174822 28.772883 52.367367 -0.826180 0.989099 0.003846 0.003226 -646059.000000 0 0 1
-28.254984 32.296722 28.197613 51.347130 -0.852048 0.989442 0.006543 0.004435 -844397.000000 0 0 1
-27.949974 31.192022 27.352293 50.022907 -0.840161 0.992264 0.007746 0.004068 373575.000000 0 0 1
-26.847054 31.345222 26.457683 49.023426 -0.862543 1.000722 -0.003863 0.004374 133006.000000 0 0 1
-27.116734 32.244122 25.232363 49.108786 -0.871561 1.031182 -0.001730 -0.001852 -391518.000000 0 0 1
-27.312264 33.604222 25.555383 50.282016 -0.888321 1.037655 -0.001900 0.000347 94247.600000 0 0 1
-27.912464 34.447722 24.616253 50.712041 -0.889816 1.063962 0.002508 0.005911 -191230.000000 0 0 1
-28.229984 -33.710389 25.398323 50.777920 0.873647 1.046985 0.005503 0.002135 -459437.000000 0 0 1
-28.910384 -33.940889 26.615203 51.924592 0.865266 1.032616 0.009678 -0.001829 140930.000000 0 0 1
-28.825624 -32.866589 27.537123 51.666454 0.850807 1.008679 0.010285 0.000882 -183608.000000 0 0 1
-29.215014 -33.176189 29.007133 52.873343 0.848802 0.990089 0.012656 -0.005820 -734711.000000 0 0 1
-30.567684 -33.426389 29.190003 53.886576 0.830040 0.998346 0.012468 -0.004787 -827203.000000 0 0 1
-30.778414 -33.640789 30.555353 54.887549 0.829803 0.980400 0.009730 -0.002766 790711.000000 0 0 1
-32.230794 -34.142689 30.883273 56.198967 0.814195 0.988989 0.012816 -0.001000 753146.000000 0 0 1
-32.433034 -34.369689 32.240093 57.206650 0.814381 0.972092 0.012085 -0.001343 685334.000000 0 0 1
-33.828304 -34.657989 32.400543 58.269422 0.797512 0.981174 0.001446 0.002432 596994.000000 0 0 1
-34.249402 34.465922 33.812756 59.196485 -0.788549 0.962835 0.003604 -0.000098 -10613.000000 0 0 1
-33.629644 33.312322 34.357515 58.490192 -0.780658 0.942946 0.008913 -0.001543 217737.000000 0 0 1
-34.561754 32.796722 -34.150115 58.620561 -0.759201 2.192674 0.016643 0.001496 247835.000000 0 0 1
-34.283711 31.311722 -33.814047 57.438546 -0.740121 2.200245 0.014240 0.005588 -37725.400000 0 0 1
-33.156484 31.248522 -32.987657 56.249516 -0.755782 2.197468 0.010575 0.002189 -469100.000000 0 0 1
-32.799684 29.930822 -32.668787 55.126428 -0.739697 2.205099 0.006431 -0.000439 1063810.000000 0 0 1
-31.716514 29.931122 -31.482937 53.786473 -0.756445 2.196086 0.005145 -0.001325 1020880.000000 0 0 1
-32.317434 30.124522 -30.207507 53.520060 -0.750293 2.170520 0.008108 0.001039 -11913.600000 0 0 1
-32.660564 31.449922 -29.759787 54.235182 -0.766517 2.151626 0.004074 0.006815 -109262.000000 0 0 1
-33.657524 31.499122 -28.589887 54.243942 -0.752284 2.125935 0.005563 0.004736 27436.100000 0 0 1
-33.151814 31.207122 -27.335847 53.105327 -0.755191 2.111510 -0.003043 -0.000851 -510137.000000 0 0 1
-34.225533 31.202622 -26.449507 53.334484 -0.739229 2.089687 0.009682 -0.001404 -401147.000000 0 0 1
-33.818594 31.050122 -24.989207 52.271100 -0.742746 2.069252 0.003661 -0.003696 -206808.000000 0 0 1
-33.459574 32.235422 -24.352707 52.456838 -0.766766 2.053576 0.003762 -0.003288 -75471.900000 0 0 1
-33.016614 31.969522 -23.053607 51.416106 -0.769287 2.035741 -0.000343 -0.003118 699756.000000 0 0 1
-34.203082 31.925622 -21.975907 51.691747 -0.750972 2.009906 -0.003060 -0.004360 1321870.000000 0 0 1
34.541375 33.120422 -21.712307 52.549912 0.764400 1.996734 -0.005751 -0.002764 443894.000000 0 0 1
-34.380258 34.133522 -20.896407 52.761343 -0.781797 1.978013 -0.002250 -0.001032 87140.100000 0 0 1
-34.197418 33.849022 -19.419507 51.887734 -0.780278 1.954395 -0.004812 -0.006504 373324.000000 0 0 1
-33.292894 32.794122 -19.090707 50.480950 -0.777851 1.958622 -0.004458 -0.007529 117190.000000 0 0 1
-33.161614 32.650322 -17.688807 49.785842 -0.777629 1.934029 0.001240 -0.006923 543123.000000 0 0 1
-32.001074 31.647022 -17.350507 48.235286 -0.779836 1.938749 -0.005719 -0.001478 505644.000000 0 0 1
-32.025144 31.207522 -15.966507 47.481034 -0.772469 1.913751 -0.002228 -0.002394 -107081.000000 0 0 1
-30.889104 30.389222 -15.744307 46.103414 -0.777241 1.919309 -0.001852 0.001072 -88710.800000 0 0 1
-30.577194 30.300822 -14.274807 45.352781 -0.780858 1.890990 0.000626 0.000144 894532.000000 0 0 1
-31.609714 29.478922 -13.612207 45.315263 -0.750532 1.875897 0.000741 -0.000490 1005860.000000 0 0 1
-31.291804 29.267922 -12.261807 44.566133 -0.751991 1.849529 -0.006235 0.000377 -294879.000000 0 0 1
-32.153204 28.263222 -11.521907 44.332749 -0.721101 1.833711 -0.001256 0.000225 -177657.000000 0 0 1
-31.491134 27.985722 -10.328607 43.377094 -0.726529 1.811218 -0.002879 0.006156 180252.000000 0 0 1
-32.082084 26.813822 -9.800807 42.945279 -0.696185 1.801041 -0.011772 0.008564 -380813.000000 0 0 1
-31.282834 26.125222 -8.712307 41.677899 -0.695797 1.781388 -0.005955 0.013506 -261336.000000 0 0 1
-31.104184 26.776622 -7.406507 41.705085 -0.710770 1.749336 -0.010868 0.010453 -120898.000000 0 0 1
-30.147524 27.789322 -7.416307 41.666788 -0.744718 1.749741 0.004059 0.008922 -674054.000000 0 0 1
-30.009424 28.406722 -6.008307 41.756522 -0.757969 1.715187 0.010810 0.010571 -510316.000000 0 0 1
-29.466704 27.394822 -5.233007 40.572741 -0.748977 1.700135 0.012830 0.003655 168949.000000 0 0 1
-29.161294 27.760822 -3.906607 40.451278 -0.760800 1.667523 0.012326 0.001965 172440.000000 0 0 1
-28.361634 26.672822 -3.078807 39.055099 -0.754721 1.649711 0.010807 -0.002943 70189.400000 0 0 1
-29.132754 25.550922 -2.779607 38.849623 -0.719991 1.642405 0.013056 0.005561 43143.800000 0 0 1
-28.363244 24.622722 -2.004607 37.613435 -0.714920 1.624117 0.003870 0.002486 440741.000000 0 0 1
-29.156754 23.344722 -1.634607 37.386686 -0.675145 1.614532 0.000769 0.002834 147438.000000 0 0 1
-29.351724 22.423622 -2.692707 37.035027 -0.652377 1.643568 -0.002343 0.006777 319353.000000 0 0 1
-30.483304 21.579722 -2.436607 37.427975 -0.616021 1.635944 0.007853 0.006251 586806.000000 0 0 1
-30.859004 20.749622 -3.711707 37.371135 -0.591962 1.670281 -0.002608 0.004884 -112211.000000 0 0 1
-29.939854 19.703922 -3.961507 36.060130 -0.582060 1.680877 -0.002413 0.001547 -10962.400000 0 0 1
-30.241944 18.954122 -5.142407 36.059371 -0.559856 1.713894 0.000824 0.005190 -357859.000000 0 0 1
-29.253584 17.868322 -5.535207 34.723013 -0.548329 1.730890 -0.001004 0.004722 -343470.000000 0 0 1
-29.063384 16.762422 -4.719307 33.881130 -0.523151 1.710541 -0.007642 -0.000562 824204.000000 0 0 1
-27.978504 15.930722 -5.206207 32.614248 -0.517609 1.731112 -0.002374 0.002442 736748.000000 0 0 1
-27.734634 14.657922 -4.279607 31.660380 -0.486192 1.706384 -0.005150 -0.000644 501906.000000 0 0 1
-28.904074 13.824322 -4.286807 32.325440 -0.446123 1.703802 0.008167 0.000996 1005260.000000 0 0 1
-28.657124 12.647422 -3.497007 31.518520 -0.415626 1.681976 -0.001058 -0.001625 -653372.000000 0 0 1
-29.965464 12.013222 -3.083807 32.430794 -0.381284 1.666029 0.010937 -0.009561 -1070260.000000 0 0 1
-30.552444 11.328522 -4.148907 32.848146 -0.355074 1.697440 0.014164 -0.004237 -102949.000000 0 0 1
-31.575114 10.489822 -3.717607 33.479020 -0.320746 1.682069 0.018360 -0.004599 -539358.000000 0 0 1
-32.620274 9.949222 -4.693607 34.425271 -0.296039 1.707564 0.011880 -0.001154 -22647.700000 0 0 1
-32.122884 9.021522 -5.710607 33.850828 -0.273791 1.740306 0.012415 -0.005344 336000.000000 0 0 1
-33.177774 8.463922 -6.465407 34.845432 -0.249781 1.757423 0.011583 -0.000571 -84158.200000 0 0 1
-32.724234 7.527422 -7.584607 34.424756 -0.226093 1.792943 0.005529 -0.002989 -356328.000000 0 0 1
-32.131734 6.323122 -7.128907 33.514945 -0.194305 1.785142 0.005202 0.002809 100817.000000 0 0 1
-31.563664 5.612422 -8.170407 33.083527 -0.175974 1.820341 -0.001386 0.002648 -450096.000000 0 0 1
-30.558744 4.569922 -7.571107 31.812618 -0.148445 1.811093 -0.004699 -0.001736 -42138.300000 0 0 1
-29.334784 5.174322 -7.233907 30.653427 -0.174593 1.809034 -0.002699 -0.000957 -577889.000000 0 0 1
-28.433574 4.223922 -6.809907 29.541234 -0.147475 1.803411 -0.006760 -0.003894 -164979.000000 0 0 1
-27.014404 4.776422 -6.467707 28.185519 -0.175002 1.802329 -0.001043 -0.001464 585227.000000 0 0 1
-26.330254 5.178822 -7.663107 27.907449 -0.194208 1.848960 0.001131 0.002174 -8677.200000 0 0 1
-24.936954 5.053722 -7.535107 26.536195 -0.199952 1.858714 0.002251 -0.000856 -91401.200000 0 0 1
-24.146154 5.499722 -8.799407 26.281424 -0.223948 1.912205 -0.001398 -0.000906 24934.000000 0 0 1
-24.391754 4.606922 -9.851507 26.706434 -0.186673 1.948602 0.003838 -0.008419 92208.100000 0 0 1
-23.765054 5.064122 -10.997907 26.671653 -0.209951 1.995822 0.000791 -0.008112 -575690.000000 0 0 1
-23.988554 4.235322 -12.297407 27.287633 -0.174755 2.038299 -0.001376 -0.008739 -547862.000000 0 0 1
-25.190244 4.439022 -12.966607 28.677277 -0.174429 2.039978 -0.001436 -0.003883 -233048.000000 0 0 1
-25.274694 3.561022 -14.077507 29.149052 -0.139971 2.074816 0.006014 0.000308 240995.000000 0 0 1
-25.996254 4.288122 -15.278407 30.456903 -0.163479 2.096290 0.003472 0.004280 -363804.000000 0 0 1
-25.112944 4.981422 -16.121607 30.255260 -0.195819 2.132765 -0.000726 0.005644 -232981.000000 0 0 1
-25.583734 5.976822 -17.041207 31.315373 -0.229502 2.146208 0.004278 0.008209 6649.810000 0 0 1
-26.467904 5.345622 -18.221107 32.575058 -0.199285 2.164407 -0.004330 0.000096 579837.000000 0 0 1
-27.738994 4.948322 -17.707907 33.279238 -0.176532 2.131876 -0.004688 0.000054 -4853.010000 0 0 1
-28.437674 4.420622 -18.853107 34.404692 -0.154215 2.150745 -0.003646 0.002642 -234562.000000 0 0 1
-29.800034 3.826422 -18.434407 35.249268 -0.127704 2.121131 0.001103 -0.000712 -348243.000000 0 0 1
-29.792274 2.687822 -17.556107 34.684592 -0.089975 2.101528 0.004246 -0.001529 218542.000000 0 0 1
-29.200894 1.500022 -18.081807 34.378686 -0.051324 2.124640 0.013403 -0.001543 76857.000000 0 0 1
-29.647064 0.252622 -17.233907 34.293145 -0.008521 2.097338 0.007688 -0.001981 -259282.000000 0 0 1
-29.059144 -0.988278 -17.603707 33.989720 0.033996 2.115205 0.006852 0.001144 260449.000000 0 0 1
-29.527004 -2.060278 -16.806507 34.037441 0.069663 2.087211 0.007638 -0.000489 -169063.000000 0 0 1
-29.281844 -3.450278 -17.412007 34.241916 0.117289 2.104238 0.003842 0.001946 -631871.000000 0 0 1
-30.121184 -3.710178 -18.474507 35.529686 0.122558 2.117617 0.001439 0.000729 -286556.000000 0 0 1
-29.897854 -4.922878 -19.121907 35.829649 0.163192 2.133754 0.004517 0.001564 -124627.000000 0 0 1
-30.877114 -5.111478 -20.282007 37.294547 0.164055 2.145794 0.002216 -0.003197 -71482.000000 0 0 1
-30.792234 -6.391278 -20.822907 37.717418 0.204655 2.155649 0.003531 -0.001680 -177294.000000 0 0 1
-31.748514 -6.585878 -21.835807 39.091488 0.204538 2.163472 0.006692 -0.002637 -532058.000000 0 0 1
-31.512154 -7.826978 -22.698907 39.617141 0.243453 2.180905 0.010550 -0.003025 -429669.000000 0 0 1
-30.286514 -7.680978 -23.349207 39.005844 0.248374 2.212558 0.005015 -0.009185 -508076.000000 0 0 1
-30.130404 -8.638978 -24.385707 39.713171 0.279229 2.231973 0.003984 -0.001152 927536.000000 0 0 1
-28.786824 -8.449778 -25.212687 39.188769 0.285510 2.269682 0.003956 -0.003458 670111.000000 0 0 1
-28.691894 -7.197878 -25.892367 39.312198 0.245795 2.289799 0.007773 -0.006293 -78629.300000 0 0 1
-28.633204 -7.344478 -27.299127 40.237347 0.251089 2.316450 0.015059 -0.004559 -109705.000000 0 0 1
-29.962164 -7.315178 -28.087267 41.714958 0.239463 2.309478 0.008665 -0.003595 75404.000000 0 0 1
-30.821844 -8.407278 -27.806897 42.354362 0.266292 2.287005 0.005211 -0.002873 -1031600.000000 0 0 1
-31.979454 -8.372678 -28.564507 43.688881 0.256067 2.283414 0.007615 0.000014 -373921.000000 0 0 1
-32.801854 -9.573678 -27.995567 44.174300 0.283976 2.257191 0.003435 0.000185 -387120.000000 0 0 1
-32.216974 -10.790378 -28.411767 44.289888 0.323185 2.267243 0.002291 -0.000146 188298.000000 0 0 1
-33.066284 -11.891478 -28.179307 45.042866 0.345224 2.246711 0.000089 0.000627 -551433.000000 0 0 1
-34.286930 -12.152078 -29.055027 46.556001 0.340610 2.244760 -0.002354 0.002836 -572983.000000 0 0 1
34.265145 -11.205178 -28.673077 46.063017 -0.316052 2.242697 -0.005518 0.003431 -619217.000000 0 0 1
33.225495 -11.187878 -29.626627 45.900318 -0.324801 2.272416 -0.009061 0.004096 612078.000000 0 0 1
32.095445 -10.129378 -29.263357 44.598946 -0.305708 2.286495 -0.008881 0.003758 1085270.000000 0 0 1
31.098005 -10.542178 -28.305887 43.352586 -0.326841 2.282233 -0.010314 0.001217 216972.000000 0 0 1
30.513435 -9.414278 -27.731317 42.293313 -0.299263 2.285893 -0.009487 0.003256 -111880.000000 0 0 1
29.411495 -9.796478 -26.734187 40.935605 -0.321526 2.282440 -0.001241 0.005853 -38627.400000 0 0 1
29.952785 -10.088578 -25.454227 40.581602 -0.324882 2.248795 -0.002311 0.007311 -509909.000000 0 0 1
28.968585 -10.391178 -24.547307 39.366557 -0.344409 2.244081 0.001654 0.011224 -629505.000000 0 0 1
29.448285 -10.669778 -23.072607 38.902325 -0.347610 2.205689 0.006096 0.009383 469805.000000 0 0 1
30.186735 -11.881578 -22.740607 39.617497 -0.374979 2.182184 0.004734 0.009077 581761.000000 0 0 1
30.514835 -11.885578 -21.365207 39.101077 -0.371423 2.148868 0.011015 0.007873 -349229.000000 0 0 1
31.447585 -13.010378 -20.876807 39.925701 -0.392275 2.121036 0.009742 0.006872 75175.000000 0 0 1
32.743765 -12.744678 -21.394407 41.137594 -0.371183 2.117729 0.004865 0.009298 354863.000000 0 0 1
33.752281 -13.479678 -20.698507 41.825189 -0.379964 2.088495 0.003295 0.007478 262189.000000 0 0 1
-34.384256 -13.413778 -21.372207 42.649475 0.371955 2.095681 -0.003390 0.006139 -498568.000000 0 0 1
-33.695774 -12.205278 -21.164307 41.620931 0.347519 2.104240 -0.004238 0.006102 254972.000000 0 0 1
-33.972914 -11.127578 -22.067307 42.011284 0.316530 2.123830 -0.003040 0.005039 -807404.000000 0 0 1
-33.558704 -11.307378 -23.560907 42.534219 0.324996 2.157872 -0.006560 0.002760 -150598.000000 0 0 1
-34.253863 -12.226378 -24.357607 43.773331 0.342839 2.160902 -0.004754 0.004926 99772.200000 0 0 1
33.884261 -11.998378 -24.507307 43.505314 -0.340322 2.169192 -0.001214 0.004072 -102936.000000 0 0 1
33.226785 -13.042378 -25.490167 43.861960 -0.374047 2.190932 -0.005984 0.007091 24902.100000 0 0 1
33.219295 -14.442378 -25.071917 44.053432 -0.410107 2.176238 -0.002078 0.003517 357089.000000 0 0 1
32.343335 -14.686278 -23.981807 42.859132 -0.426237 2.164639 -0.005026 0.001177 -179967.000000 0 0 1
-28.284924 7.692922 -20.643207 35.851917 -0.265556 2.184367 -0.008060 0.000098 119350.000000 0 0 1
-27.013374 7.382622 -21.174607 35.108254 -0.266780 2.218207 -0.008315 0.000405 -437603.000000 0 0 1
-26.092444 8.388622 -20.967607 34.508335 -0.311060 2.223844 -0.003483 0.002165 -358160.000000 0 0 1
-24.643854 7.946222 -21.262907 33.504824 -0.311917 2.258316 -0.010539 0.007066 -493804.000000 0 0 1
-24.247554 6.980622 -20.283807 32.374462 -0.280310 2.247899 0.001033 0.001594 539797.000000 0 0 1
-22.925454 6.462722 -20.381307 31.348699 -0.274771 2.278576 0.000184 0.000257 1534010.000000 0 0 1
-21.697654 7.401422 -20.015907 30.433629 -0.328739 2.288545 0.003878 -0.001376 397774.000000 0 0 1
-21.322754 8.317722 -20.990707 31.055662 -0.371931 2.312990 0.004469 -0.000027 -157981.000000 0 0 1
-20.058254 8.845322 -20.677507 30.135238 -0.415329 2.326989 0.006625 -0.000837 -290312.000000 0 0 1
-19.428554 9.794122 -21.697607 30.727507 -0.466930 2.354814 0.008268 0.003657 -212712.000000 0 0 1
-18.961254 9.135922 -22.855007 31.070011 -0.448999 2.397344 0.006439 0.004642 -26498.100000 0 0 1
-18.169254 9.936922 -23.683607 31.460729 -0.500467 2.423100 0.012544 0.001459 111167.000000 0 0 1
-17.276254 9.139822 -24.650007 31.458356 -0.486608 2.471197 0.007848 -0.001073 418971.000000 0 0 1
-18.134954 8.435822 -25.580347 32.471431 -0.435397 2.477993 0.011927 0.001983 514928.000000 0 0 1
-17.400554 7.696322 -26.527157 32.645103 -0.416435 2.519382 0.002673 0.004951 -182732.000000 0 0 1
-18.310954 6.618022 -27.167867 33.424277 -0.346816 2.519771 -0.006854 0.002015 114875.000000 0 0 1
-18.653054 5.491122 -26.364657 32.759487 -0.286295 2.506126 0.002460 -0.001702 99824.500000 0 0 1
-19.599254 4.612022 -26.930687 33.625339 -0.231112 2.499601 -0.006279 -0.000653 -682375.000000 0 0 1
-19.727654 3.273822 -26.166797 32.933259 -0.164452 2.489046 -0.000199 -0.002234 -511561.000000 0 0 1
-18.639954 2.420822 -25.974357 32.062057 -0.129150 2.515166 0.004032 0.000531 -569942.000000 0 0 1
-17.553554 2.904722 -25.227977 30.870949 -0.163992 2.527346 0.004446 -0.002312 -858858.000000 0 0 1
-16.732454 1.673822 -24.851107 30.005903 -0.099703 2.546698 0.004530 -0.001352 -562835.000000 0 0 1
-17.239054 0.839222 -23.824207 29.419078 -0.048643 2.514644 0.002013 -0.000674 593696.000000 0 0 1
-18.532654 0.224522 -23.958907 30.290905 -0.012114 2.483173 0.003334 -0.000760 465983.000000 0 0 1
-18.927554 -0.443178 -22.597807 29.480665 0.023410 2.444216 -0.001677 -0.003223 -241394.000000 0 0 1
-18.094954 -1.486278 -22.151907 28.641637 0.081954 2.455009 0.001928 -0.002149 -83648.500000 0 0 1
-18.539554 -1.944778 -20.927907 28.026319 0.104517 2.413918 0.006954 -0.004079 -130666.000000 0 0 1
-17.957354 -3.290778 -20.514907 27.461923 0.181244 2.414381 0.002256 -0.005959 -43679.100000 0 0 1
-18.351154 -4.295778 -21.419307 28.530778 0.229947 2.419984 0.001658 -0.007648 192872.000000 0 0 1
-18.538754 -5.492978 -20.738207 28.353685 0.288056 2.391186 0.008181 -0.003818 -556635.000000 0 0 1
-18.424254 -6.710678 -21.715607 29.258400 0.349296 2.407145 -0.005575 -0.001507 737699.000000 0 0 1
-17.140354 -6.817478 -22.375607 28.998923 0.378560 2.452151 -0.007724 -0.002177 880075.000000 0 0 1
-17.135154 -7.948378 -23.296907 29.992268 0.434323 2.460307 -0.011446 -0.000945 -296995.000000 0 0 1
-15.765654 -8.159078 -23.940007 29.803529 0.477567 2.503546 -0.026061 0.001847 -708537.000000 0 0 1
-15.879754 -8.978878 -25.070607 31.005196 0.514612 2.512554 -0.022876 0.007095 345372.000000 0 0 1
-14.641454 -8.892178 -25.769607 30.943750 0.545791 2.554923 -0.017916 0.008063 1135400.000000 0 0 1
-13.400454 -9.734778 -25.274607 30.218270 0.628259 2.561481 -0.008746 0.005008 260690.000000 0 0 1
-12.700354 -9.060078 -24.240107 28.826495 0.619644 2.569734 -0.009560 0.005459 -165616.000000 0 0 1
-11.756354 -9.906278 -23.624107 28.185895 0.700201 2.564685 -0.003317 0.006451 -355987.000000 0 0 1
-11.011854 -9.125478 -22.579307 26.727521 0.691995 2.576980 -0.000119 0.003075 -144875.000000 0 0 1
-11.773554 -8.785278 -21.389307 25.948028 0.641057 2.539785 -0.007798 0.005680 627143.000000 0 0 1
-11.083754 -7.862978 -20.559407 24.644782 0.617017 2.557531 -0.006194 0.005400 -347860.000000 0 1 0
-11.891054 -7.577578 -19.263507 23.872569 0.567360 2.509733 -0.010338 -0.001857 139654.000000 0 1 0
-12.924654 -6.636178 -19.383007 24.223677 0.474351 2.498371 -0.015351 -0.002995 405112.000000 0 1 0
-14.228454 -7.179578 -19.593907 25.257008 0.467315 2.458748 -0.022188 -0.009331 308689.000000 0 0 1
-15.330254 -6.112778 -19.419407 25.485214 0.379419 2.437173 -0.009767 -0.004795 -613297.000000 0 0 1
-15.420754 -5.588178 -18.106307 24.430836 0.347661 2.405541 -0.005277 -0.006204 -6137.030000 0 1 0
-14.819454 -4.371378 -17.941107 23.677173 0.286841 2.430637 -0.006846 -0.003421 -1380310.000000 0 1 0
-14.700054 -4.204878 -16.445107 22.454713 0.278605 2.392589 -0.004672 -0.002034 -103929.000000 0 1 0
-15.837354 -4.014078 -15.624407 22.606563 0.248229 2.333868 -0.001941 -0.004707 -101084.000000 0 1 0
-16.625754 -2.906578 -15.996207 23.253872 0.173075 2.329380 -0.014709 -0.007839 662770.000000 0 1 0
-17.937754 -2.744478 -15.101807 23.608468 0.151823 2.264875 -0.002547 -0.005962 952797.000000 0 1 0
-17.572454 -2.524578 -13.708207 22.429436 0.142690 2.228335 0.002994 -0.003565 975249.000000 0 1 0
-18.601254 -1.798178 -13.041607 22.788673 0.096370 2.180085 -0.002211 -0.004583 128633.000000 0 1 0
-18.004054 -0.715378 -12.117107 21.713637 0.039713 2.162820 -0.000407 -0.009691 88145.700000 0 1 0
-17.565054 0.432922 -12.864507 21.776457 -0.024642 2.202788 0.003748 -0.010496 -413542.000000 0 1 0
-16.464254 1.098322 -12.392207 20.636007 -0.066611 2.214940 0.002096 -0.007914 -1492500.000000 0 1 0
-15.966454 2.250922 -13.340207 20.927385 -0.140055 2.261983 0.004202 -0.007369 -126525.000000 0 1 0
-15.456354 1.670522 -14.527207 21.277436 -0.107662 2.322319 0.013019 -0.006350 1147650.000000 0 1 0
-14.075154 1.283122 -14.370507 20.156087 -0.090911 2.364508 0.008792 -0.006244 177507.000000 0 1 0
-13.489654 0.281422 -15.412507 20.484027 -0.020859 2.422519 0.001503 -0.009381 -212408.000000 0 1 0
-13.305954 0.894922 -16.655207 21.336477 -0.067156 2.466418 -0.001063 -0.012576 45141.400000 0 1 0
-13.016854 -0.083578 -17.611707 21.900176 0.006421 2.505093 0.000875 -0.011130 -241142.000000 0 1 0
-12.282454 0.554822 -18.803607 22.466467 -0.045141 2.562507 -0.001585 -0.008618 -142014.000000 0 1 0
-11.124654 1.238422 -18.378907 21.519197 -0.110866 2.594557 -0.004335 -0.011988 -210468.000000 0 1 0
-10.661754 2.067422 -19.450707 22.277281 -0.191533 2.632359 -0.007517 -0.007502 752254.000000 0 1 0
-9.195954 2.610122 -19.406707 21.633275 -0.276560 2.683905 -0.014156 -0.004871 -112826.000000 0 1 0
-8.214854 1.618422 -19.610607 21.323204 -0.194520 2.738071 -0.008851 0.004855 353804.000000 0 1 0
-6.859154 2.045322 -19.448207 20.723516 -0.289794 2.788943 -0.003236 0.005624 1012800.000000 0 1 0
-6.328954 3.262022 -20.318607 21.530031 -0.475901 2.804539 0.000526 0.007909 -1003140.000000 0 1 0
-6.207754 2.944022 -21.679407 22.742035 -0.442835 2.834693 -0.004363 0.012136 264608.000000 0 1 0
-5.839054 4.022622 -22.528007 23.617518 -0.603249 2.836665 -0.002652 0.005079 -452330.000000 0 1 0
-5.421554 3.524822 -23.918507 24.777260 -0.576480 2.877543 -0.004654 0.004717 99780.800000 0 1 0
-4.190554 2.816622 -23.933207 24.460019 -0.591779 2.933672 0.001149 0.000852 139444.000000 0 1 0
-3.867254 2.342122 -25.200507 25.602866 -0.544548 2.964072 -0.003267 0.001526 -334046.000000 0 0 1
-2.462554 1.717322 -25.281387 25.459024 -0.608962 3.023394 -0.000844 -0.001436 -1053540.000000 0 0 1
-1.486954 2.705422 -25.161347 25.350024 -1.068245 3.019510 0.002284 -0.004047 875660.000000 0 0 1
-0.140754 2.149522 -25.251887 25.343600 -1.505408 3.056493 -0.000955 -0.003520 1425820.000000 0 0 1
0.449146 1.340222 -24.071207 24.112672 1.247431 3.082939 -0.001874 0.000367 -816878.000000 0 1 0
0.074146 -0.027378 -24.031707 24.031837 -0.353718 3.138304 0.001049 -0.000318 -106244.000000 0 1 0
0.714146 -0.673578 -22.979707 23.000666 -0.756173 3.098899 0.002834 0.001274 -1091940.000000 0 1 0
0.514246 -2.175078 -22.840507 22.949601 -1.338633 3.044049 0.005060 -0.001151 -1736.260000 0 1 0
-0.715254 -2.590478 -22.287307 22.448747 1.301399 3.021592 0.007180 -0.001944 103248.000000 0 1 0
-1.875654 -2.617778 -23.092207 23.315679 0.949078 3.003029 0.009282 -0.003564 -293560.000000 0 1 0
-2.751654 -1.379478 -23.085907 23.290206 0.464709 3.009043 0.008122 -0.002330 -1333990.000000 0 1 0
-3.320954 -1.141178 -21.803007 22.083979 0.330988 2.981906 0.004279 0.002229 331848.000000 0 1 0
-4.143554 0.008522 -21.738807 22.130180 -0.002057 2.953245 -0.002027 0.002824 1029710.000000 0 1 0
-5.625554 -0.117878 -22.242707 22.943382 0.020951 2.893818 0.000216 0.003389 636317.000000 0 1 0
-6.333154 -1.241878 -21.735507 22.673407 0.193635 2.852961 -0.000650 0.011669 232371.000000 0 1 0
-7.728054 -0.994178 -21.648707 23.008210 0.127943 2.796110 -0.001653 0.004533 529159.000000 0 1 0
-8.607754 -2.222378 -21.310007 23.090015 0.252666 2.746368 -0.004851 -0.000150 -234301.000000 0 1 0
-8.860454 -3.077378 -22.452507 24.332961 0.334282 2.745874 0.020988 0.001649 -64731.500000 0 1 0
-9.126454 -4.435978 -22.005007 24.232012 0.452431 2.709512 -0.003891 0.001402 -825715.000000 0 1 0
-9.796254 -5.358078 -23.023507 25.588229 0.500500 2.690037 -0.008533 0.006085 -495014.000000 0 0 1
-11.157954 -5.087878 -23.128207 26.178243 0.427821 2.654056 -0.014028 0.008252 -664650.000000 0 0 1
-11.806754 -5.718178 -24.227207 27.550945 0.451020 2.645313 -0.013939 0.004272 273508.000000 0 0 1
-13.334954 -5.478978 -24.164507 28.138294 0.389845 2.603673 -0.022865 0.000135 -67436.500000 0 0 1
-13.747454 -4.137378 -24.335007 28.254256 0.292334 2.608592 -0.018626 -0.002675 670787.000000 0 0 1
-15.159754 -4.094578 -24.600207 29.184823 0.263801 2.573467 -0.012430 -0.006555 907382.000000 0 0 1
-15.586354 -2.657778 -24.983707 29.566600 0.168895 2.577357 -0.003341 -0.005216 -327425.000000 0 0 1
-15.072254 -2.201978 -26.211357 30.315950 0.145069 2.615162 -0.003898 -0.001572 149608.000000 0 0 1
-15.645554 -0.982678 -26.686727 30.950451 0.062726 2.610473 -0.001265 -0.001358 1570880.000000 0 0 1
-17.152454 -0.977978 -27.248967 32.212875 0.056955 2.579052 0.002433 0.001838 1439710.000000 0 0 1
-17.417954 -1.644378 -28.481517 33.425827 0.094128 2.590745 0.007396 -0.002277 -66965.500000 0 0 1
-16.896054 -1.022978 -29.639487 34.132424 0.060472 2.622697 0.007709 -0.002957 -289143.000000 0 0 1
-17.063554 -1.926578 -30.874257 35.328407 0.112430 2.634009 0.005347 -0.003732 1702400.000000 0 0 1
-18.438054 -2.364378 -31.135497 36.262533 0.127538 2.603355 0.002806 -0.002891 1508120.000000 0 0 1
-18.499754 -3.021078 -32.343347 37.382615 0.161875 2.616341 0.005985 -0.003165 -1006970.000000 0 0 1
-19.896354 -3.504578 -32.664977 38.407652 0.174353 2.587695 0.004614 -0.003384 -320981.000000 0 0 1
-20.853654 -2.454778 -32.880367 39.013067 0.117175 2.573268 0.001687 -0.003764 635983.000000 0 0 1
-21.620954 -2.052078 -31.734597 38.454666 0.094628 2.541436 -0.000226 0.002628 -326769.000000 0 0 1
-22.743454 -1.154078 -32.229147 39.462825 0.050700 2.526459 0.003704 0.000991 -565094.000000 0 0 1
-22.201154 0.092022 -32.564047 39.412141 -0.004145 2.543203 0.004424 -0.002763 474751.000000 0 0 1
-23.154254 1.030522 -33.095137 40.403831 -0.044477 2.530652 0.006475 -0.005325 205360.000000 0 0 1
-22.544454 2.233822 -33.790847 40.682475 -0.098763 2.550980 0.002322 -0.001250 -298184.000000 0 0 1
-21.915654 3.329722 -33.067757 39.810294 -0.150780 2.551040 0.001845 -0.002710 1045600.000000 0 0 1
-22.834254 4.252422 -32.407447 39.871404 -0.184121 2.519738 0.000271 -0.004715 414052.000000 0 0 1
-23.838654 5.106122 -33.244697 41.225766 -0.211007 2.508845 -0.010398 -0.002437 51790.100000 0 0 1
-24.889954 4.238122 -33.614617 42.040623 -0.168657 2.497383 -0.006221 -0.004336 -439707.000000 0 0 1
-25.819784 4.814022 -34.498350 43.358647 -0.184331 2.490878 0.001086 0.000192 -613896.000000 0 0 1
-27.084844 3.959122 -34.445026 43.996855 -0.145147 2.470106 0.005266 0.002140 -758099.000000 0 0 1
-26.973664 2.656922 34.470145 43.850071 -0.098184 0.666337 0.003662 0.002148 940071.000000 0 0 1
-28.011554 2.315022 33.506496 43.734332 -0.082458 0.697987 0.005620 0.005143 712889.000000 0 0 1
-28.094164 0.816922 33.196763 43.496833 -0.029070 0.702546 0.008952 0.007299 -386086.000000 0 0 1
-28.258474 0.075422 34.399071 44.517897 -0.002669 0.687709 0.006222 0.008298 239782.000000 0 0 1
-28.425004 -1.326678 34.167860 44.465533 0.046639 0.694440 0.004725 0.007271 -694203.000000 0 0 1
-28.573404 -2.140778 -33.968007 44.439261 0.074782 2.440859 -0.001345 0.003859 -28944.400000 0 0 1
-27.484834 -2.277678 -33.066667 43.058198 0.082681 2.446435 -0.000227 -0.000713 451337.000000 0 0 1
-26.983564 -1.073278 -32.484987 42.243805 0.039754 2.448053 0.001787 -0.002420 -272155.000000 0 0 1
-26.948104 -1.050578 -30.917277 41.026602 0.038966 2.424304 0.005838 -0.005330 112811.000000 0 0 1
-25.812544 -1.669078 -30.319237 39.853851 0.064572 2.435280 0.005142 -0.004682 577634.000000 0 0 1
-25.678684 -1.213378 -28.962997 38.726248 0.047217 2.415675 0.005781 -0.009129 -598136.000000 0 0 1
-24.417554 -1.806778 -28.348277 37.458060 0.073860 2.429201 0.002102 -0.006891 -494076.000000 0 0 1
-24.587654 -3.142278 -27.991147 37.388915 0.127110 2.416817 0.004524 -0.011684 69570.700000 0 0 1
-23.557554 -3.584978 -27.140577 36.116774 0.151021 2.421080 0.004664 -0.005244 -247181.000000 0 0 1
-23.897654 -4.904378 -26.283867 35.860737 0.202414 2.393434 0.009463 -0.008858 332007.000000 0 0 1
-24.990354 -4.751578 -25.382847 35.935835 0.187894 2.355108 0.016528 -0.009854 71858.600000 0 0 1
-25.194744 -5.945678 -24.655007 35.749064 0.231749 2.331828 0.014084 -0.010038 -444598.000000 0 0 1
-26.374524 -5.831678 -23.722207 35.949508 0.217609 2.291450 0.014635 -0.007804 -545393.000000 0 0 1
-26.465834 -6.933578 -22.869807 35.658701 0.256224 2.267056 0.008266 -0.005234 -737468.000000 0 0 1
-27.497774 -6.696378 -21.991307 35.841131 0.238875 2.231379 0.005010 -0.005923 -785366.000000 0 0 1
-27.901494 -7.906978 -21.059007 35.839859 0.276149 2.198869 0.003457 -0.005518 -365428.000000 0 0 1
-26.935654 -8.095478 -20.063207 34.548495 0.291960 2.190416 0.003184 -0.003365 -13137.500000 0 0 1
-27.332364 -8.997978 -19.063607 34.517284 0.318031 2.155907 0.003511 0.003862 141578.000000 0 0 1
-28.110354 -8.296378 -17.881507 34.333223 0.286988 2.118610 0.004044 -0.000472 345622.000000 0 0 1
-27.296054 -7.447578 -17.029007 33.023145 0.266361 2.112584 0.004012 -0.000083 426467.000000 0 0 1
-27.948944 -6.826378 -15.906707 32.875010 0.239555 2.075850 -0.003305 0.002214 -517517.000000 0 0 1
-27.039454 -6.036478 -14.990807 31.500721 0.219645 2.066769 -0.002442 0.002691 -339315.000000 0 0 1
-26.752564 -4.873478 -15.754507 31.426978 0.180193 2.095903 -0.000612 0.000524 41740.200000 0 0 1
-25.950484 -3.964778 -15.032407 30.250956 0.151610 2.090846 0.000144 -0.002338 -77586.400000 0 0 1
-14.081854 21.941522 -5.103207 26.566364 -1.000214 1.764091 0.006002 0.005425 54385.800000 0 0 1
-14.000054 21.237322 -6.333107 26.213233 -0.987967 1.814810 0.018838 0.004391 -152314.000000 0 0 1
-14.602254 20.010822 -6.137407 25.521101 -0.940403 1.813660 0.009135 0.000752 -163213.000000 0 0 1
-14.873954 19.214722 -7.427507 25.408816 -0.912054 1.867448 0.012957 0.000318 -383554.000000 0 0 1
-13.667654 18.830122 -8.052407 24.621526 -0.942938 1.903974 0.006545 0.002996 -58783.000000 0 1 0
-13.750854 18.049122 -9.144207 24.463714 -0.919750 1.953884 -0.001385 0.001023 -424907.000000 0 1 0
-14.149554 16.553422 -8.917007 23.531653 -0.863533 1.959443 -0.000179 0.003293 -122082.000000 0 1 0
-15.485954 16.355622 -8.494307 24.072274 -0.812704 1.931430 0.004805 0.003731 273698.000000 0 1 0
-15.723254 15.102022 -7.791207 23.151559 -0.765248 1.914026 0.010971 0.000776 479167.000000 0 1 0
-17.129354 15.053722 -7.106107 23.885688 -0.720993 1.872874 0.020373 -0.006928 497191.000000 0 1 0
-18.149854 14.753322 -8.021407 24.726922 -0.682534 1.901173 0.018473 -0.006412 -354977.000000 0 1 0
-19.380154 15.365422 -7.696607 25.902207 -0.670362 1.872493 0.008921 -0.001466 261987.000000 0 0 1
-20.525554 14.873822 -8.619407 26.773553 -0.627078 1.898571 0.005484 0.002744 17989.900000 0 0 1
-20.844554 13.507822 -8.345907 26.203260 -0.574987 1.894950 0.010654 0.000505 19839.500000 0 0 1
-21.607254 12.851822 -9.339007 26.819020 -0.536581 1.926471 0.006381 0.003202 33464.300000 0 0 1
-22.231254 11.544722 -8.813507 26.555361 -0.478969 1.909105 0.001636 0.003596 -1272430.000000 0 0 1
-21.278954 10.600922 -8.445607 25.228986 -0.462197 1.912145 0.006283 0.003944 -944128.000000 0 0 1
-21.676554 9.611822 -7.559007 24.887722 -0.417369 1.879396 0.004376 -0.000099 -1010800.000000 0 1 0
-20.720754 8.452622 -7.138507 23.489460 -0.387324 1.879583 -0.000334 0.003429 -139212.000000 0 1 0
-20.500254 7.512722 -8.124907 23.296256 -0.351271 1.927049 -0.006101 0.002036 294172.000000 0 1 0
-19.540754 6.572622 -7.679407 22.000312 -0.324467 1.927363 0.002153 0.001763 -94181.000000 0 1 0
-19.540054 5.337922 -8.582607 21.999279 -0.266672 1.971571 0.006624 -0.006127 -1131240.000000 0 1 0
-20.555954 4.401922 -8.569107 22.701404 -0.210957 1.957859 0.009211 -0.001637 -262811.000000 0 1 0
-20.436654 3.550222 -9.697607 22.897696 -0.172002 2.008123 0.005288 0.002428 145273.000000 0 1 0
-21.284654 2.242622 -9.553007 23.437700 -0.104976 1.990611 -0.002525 0.002195 486334.000000 0 1 0
-20.634154 1.382022 -8.659407 22.420161 -0.066878 1.967341 -0.011718 -0.004446 651325.000000 0 1 0
-21.557754 0.424622 -8.122007 23.040922 -0.019694 1.931041 -0.005189 -0.003510 58334.400000 0 1 0
-21.572954 -0.975078 -8.851507 23.338644 0.045168 1.959797 -0.008872 -0.008752 311363.000000 0 1 0
-20.485054 -1.814978 -8.455507 22.235719 0.088369 1.960881 -0.000606 -0.009025 298559.000000 0 1 0
-20.502254 -3.112778 -9.089907 22.641957 0.150675 1.983910 -0.008048 -0.009149 -534921.000000 0 1 0
-21.448854 -4.100778 -8.452307 23.416046 0.188909 1.940096 -0.006591 -0.005159 -338538.000000 0 1 0
-21.068154 -4.423078 -7.135607 22.679233 0.206936 1.890865 -0.008267 -0.000757 133287.000000 0 1 0
-22.085654 -5.135678 -6.449107 23.574187 0.228474 1.847895 -0.001054 0.000810 -222728.000000 0 1 0
-22.069654 -6.651978 -6.773007 24.024822 0.292748 1.856588 -0.005047 -0.002142 266473.000000 0 1 0
-21.003554 -7.412078 -6.180507 23.114646 0.339253 1.841474 -0.003348 -0.001159 1015910.000000 0 1 0
-21.102954 -8.787978 -6.570407 23.785153 0.394592 1.850676 -0.004607 0.002099 -749825.000000 0 1 0
-20.050954 -9.652678 -5.898707 23.021940 0.448663 1.829907 -0.005480 0.005008 249925.000000 0 1 0
-18.725254 -9.469378 -6.448507 21.951936 0.468198 1.868950 -0.020502 0.000390 738435.000000 0 1 0
-17.810654 -10.226178 -5.710107 21.316647 0.521203 1.841979 -0.007548 0.002271 -722869.000000 0 1 0
-17.426854 -11.635978 -6.280807 21.875552 0.588720 1.862010 0.002041 0.003663 -1087310.000000 0 1 0
-16.403854 -11.653778 -7.214707 21.376365 0.617691 1.915065 -0.004652 0.002146 -118085.000000 0 1 0
-16.552054 -10.853278 -8.379207 21.493610 0.580376 1.971261 -0.011495 -0.003625 -503450.000000 0 1 0
-15.401254 -11.233478 -9.339007 21.227499 0.630178 2.026338 -0.012565 -0.007207 171107.000000 0 1 0
-15.535754 -12.511678 -9.977607 22.303686 0.677993 2.034599 -0.009081 -0.002644 140824.000000 0 1 0
-14.458254 -12.706978 -10.855607 22.098702 0.721020 2.084301 -0.002106 -0.000510 -111691.000000 0 1 0
-14.625054 -14.035778 -11.517307 23.314023 0.764841 2.087490 0.009227 -0.001896 -126658.000000 0 1 0
-15.439454 -14.108778 -12.647607 24.441693 0.740395 2.114677 0.004523 0.005681 -170957.000000 0 1 0
-15.533254 -15.405878 -13.184407 25.543133 0.781281 2.113161 -0.000092 0.008068 72787.300000 0 0 1
-15.657154 -15.398778 -14.742307 26.450037 0.777079 2.162004 0.001183 0.010648 -30827.300000 0 0 1
-15.930654 -16.619878 -15.392707 27.693709 0.806569 2.160145 0.005762 0.011072 157214.000000 0 0 1
-15.853454 -16.597778 -16.758407 28.419403 0.808331 2.201461 -0.001527 0.006142 -246133.000000 0 0 1
-16.446354 -17.825078 -17.438607 29.871743 0.825606 2.194176 -0.003262 0.004327 90654.700000 0 0 1
-17.810754 -18.069178 -17.155107 30.627045 0.792601 2.165338 0.000358 0.008989 21541.100000 0 0 1
-18.634154 -18.209178 -18.317907 31.848887 0.773864 2.183585 0.002911 0.006488 964148.000000 0 0 1
-20.165254 -18.215578 -17.966107 32.576460 0.734644 2.154965 0.007188 0.007177 750996.000000 0 0 1
-20.689554 -17.027878 -17.401207 31.950091 0.688620 2.146753 0.008532 0.015618 78702.600000 0 0 1
-20.480054 -16.933878 -15.990007 31.014016 0.690898 2.112473 0.004108 0.012587 -363711.000000 0 0 1
-20.487454 -15.490778 -15.493707 29.995916 0.647400 2.113587 0.005024 0.010092 -24253.800000 0 0 1
-21.741854 -14.914978 -15.203807 30.435515 0.601270 2.093866 0.012197 0.010681 268596.000000 0 0 1
-21.586154 -13.605178 -14.648807 29.421939 0.562382 2.091957 0.015555 0.006612 152480.000000 0 0 1
-22.973254 -12.999678 -14.306507 30.023960 0.514939 2.067469 0.014459 0.004491 204172.000000 0 0 1
-23.542554 -13.511078 -13.116807 30.147168 0.521007 2.020937 0.013782 0.004281 107933.000000 0 0 1
-24.665454 -12.758178 -12.738407 30.551968 0.477351 2.000875 0.007973 -0.000932 -295647.000000 0 0 1
-25.286134 -13.176578 -11.371907 30.697411 0.480384 1.950292 0.009573 -0.004515 -307934.000000 0 0 1
-26.332674 -12.346378 -10.986707 31.089396 0.438428 1.931990 0.009343 -0.004208 -110117.000000 0 0 1
-27.108394 -12.786678 -9.885607 31.560884 0.440742 1.889382 0.004805 -0.003981 148244.000000 0 0 1
-27.820534 -11.607678 -9.233207 31.527328 0.395275 1.868017 0.007151 -0.001222 -528619.000000 0 0 1
-26.912004 -10.674578 -8.694007 30.228932 0.377613 1.862522 0.002076 -0.003871 450159.000000 0 0 1
-27.659124 -9.595678 -8.133707 30.385217 0.333934 1.841787 0.004940 -0.001447 235393.000000 0 0 1
-26.752604 -8.526078 -7.451207 29.050238 0.308524 1.830189 0.002677 0.001460 192662.000000 0 0 1
-26.257494 -8.971778 -6.175607 28.426870 0.329248 1.789788 0.000695 -0.000889 242910.000000 0 0 1
-25.502644 -8.021578 -5.436307 27.281569 0.304741 1.771406 0.004270 0.001023 -232979.000000 0 0 1
-26.247864 -6.703178 -5.041007 27.555303 0.250036 1.754774 0.004768 0.002952 -501075.000000 0 0 1
-27.292074 -6.876578 -4.117907 28.444715 0.246825 1.716076 0.007965 0.003537 -183225.000000 0 0 1
-26.999814 -7.318178 -2.830507 28.116854 0.264686 1.671637 0.010237 0.002487 -736644.000000 0 0 1
-26.315084 -6.269278 -1.864607 27.115757 0.233879 1.639615 0.007292 0.002975 -493156.000000 0 0 1
-27.083744 -5.211278 -1.485007 27.620497 0.190090 1.624587 0.007494 0.001718 -149241.000000 0 0 1
-26.382294 -4.225078 -0.699707 26.727632 0.158800 1.596978 0.006628 0.002479 -686974.000000 0 0 1
-27.333224 -3.184578 -0.160407 27.518583 0.115986 1.576625 0.007900 0.000679 -12822.100000 0 0 1
-28.081934 -3.479378 1.069093 28.316851 0.123273 1.533033 0.010442 0.003255 617293.000000 0 0 1
-27.369164 -3.505678 2.307693 27.689102 0.127395 1.487357 0.007740 0.006519 -50301.800000 0 0 1
-28.309574 -3.820278 3.491593 28.778772 0.134136 1.449171 0.002083 0.005082 60145.500000 0 0 1
-28.667274 -5.179278 3.513893 29.342545 0.178741 1.450754 0.003059 0.002637 -127522.000000 0 0 1
-29.538134 -5.533078 4.547993 30.394088 0.185174 1.420598 0.001616 0.001408 657705.000000 0 0 1
-30.550204 -6.754678 4.259393 31.576622 0.217600 1.435493 -0.001804 0.003508 615229.000000 0 0 1
-29.880964 -8.010578 4.177093 31.216814 0.261924 1.436585 0.002661 0.001520 546577.000000 0 0 1
-30.819124 -9.099278 4.279893 32.418093 0.287091 1.438388 0.003088 0.002225 37830.900000 0 0 1
-30.080934 -10.345478 4.689793 32.154093 0.331249 1.424421 0.001121 -0.000347 -17777.900000 0 0 1
-29.628214 -10.367478 6.051193 31.967681 0.336603 1.380356 0.003261 -0.000922 682895.000000 0 0 1
-28.759824 -11.500278 6.325293 31.613181 0.380397 1.369353 0.004110 -0.000818 300296.000000 0 0 1
-28.814094 -11.831778 7.804093 32.111476 0.389632 1.325307 0.000470 0.001248 -120780.000000 0 0 1
-28.408854 -10.760578 8.626893 31.579682 0.362077 1.294101 0.008374 0.000294 343546.000000 0 0 1
-28.419544 -11.210778 10.007393 32.148094 0.375734 1.254246 0.002630 -0.000763 -394264.000000 0 0 1
-28.485514 -9.977378 10.978093 32.116835 0.336908 1.221946 0.005551 0.002206 -485230.000000 0 0 1
-27.279404 -9.297178 11.160893 30.905808 0.328467 1.201321 0.006671 0.005146 -140529.000000 0 0 1
-27.509064 -8.262578 12.041593 31.145124 0.291786 1.173823 0.006516 0.002737 -181699.000000 0 0 1
-26.531714 -7.113078 11.888493 29.930987 0.261937 1.162336 0.013356 0.003420 -88824.800000 0 0 1
-26.948064 -6.298178 10.755393 29.690801 0.229594 1.200119 0.009279 0.003742 1066710.000000 0 0 1
-26.090574 -5.120978 10.708193 28.663703 0.193813 1.187931 0.013205 0.002240 241766.000000 0 0 1
-26.280494 -4.289578 9.423793 28.246641 0.161796 1.230650 0.015655 0.001063 -624.425000 0 0 1
-25.682464 -4.866878 8.261893 27.414127 0.187281 1.264663 0.010587 0.000571 407946.000000 0 0 1
-26.025734 -4.140678 7.077493 27.286901 0.157777 1.308423 0.008593 -0.000132 54290.600000 0 0 1
-25.145174 -4.553678 5.857193 26.216836 0.179154 1.345481 0.013212 0.004842 174888.000000 0 0 1
-23.779754 -4.209278 6.015293 24.887316 0.175196 1.326678 0.009612 0.003670 168958.000000 0 1 0
-23.063554 -4.515878 4.844393 23.995600 0.193355 1.367512 0.014297 0.003252 -359925.000000 0 1 0
-21.704154 -3.818178 4.913993 22.578665 0.174137 1.351402 0.013738 0.000290 -506108.000000 0 1 0
-21.856854 -2.406278 4.908693 22.530147 0.109651 1.351163 0.015140 0.002744 447147.000000 0 1 0
-20.593854 -1.793178 5.114393 21.295054 0.086854 1.328257 0.007314 0.000483 -247123.000000 0 1 0
-20.520554 -0.210678 5.196493 21.169343 0.010266 1.322789 0.004024 0.000920 -719772.000000 0 1 0
-20.644354 0.559622 3.984193 21.032744 -0.027101 1.380217 0.007517 -0.000709 1168920.000000 0 1 0
-21.979054 0.858522 3.567993 22.283322 -0.039041 1.409985 0.008049 -0.001759 244158.000000 0 1 0
-21.898054 1.990222 2.552793 22.136000 -0.090637 1.455216 0.008552 0.000841 -277818.000000 0 1 0
-21.440354 3.227622 3.147693 21.909229 -0.149418 1.426628 0.002803 0.000922 383029.000000 0 1 0
-21.434054 4.275622 2.193093 21.966094 -0.196894 1.470790 0.002381 0.006006 -429953.000000 0 1 0
-20.297054 4.389722 1.178193 20.799716 -0.212993 1.514121 0.002118 0.005044 -1144830.000000 0 1 0
-20.525854 5.164422 0.014493 21.165589 -0.246489 1.570112 0.005543 0.013264 538849.000000 0 1 0
-21.446454 4.609122 -0.947207 21.956584 -0.211693 1.613950 0.010224 0.003461 -160302.000000 0 1 0
-21.039554 3.328022 -1.749407 21.372856 -0.156879 1.652740 0.014803 0.002670 -540991.000000 0 1 0
-20.919254 2.205322 -0.889207 21.053962 -0.105033 1.613044 -0.001445 0.004296 405695.000000 0 1 0
-20.433354 1.127922 -1.652307 20.531057 -0.055144 1.651362 -0.004354 0.002704 -366946.000000 0 1 0
-19.661254 0.104422 -0.768307 19.676537 -0.005311 1.609853 -0.002131 0.002054 50337.000000 0 1 0
-20.472254 -0.601778 0.179293 20.481882 0.029386 1.562042 0.002512 0.001932 517065.000000 0 1 0
-19.703154 -1.313178 1.110293 19.778055 0.066550 1.514629 0.002111 0.001799 -436047.000000 0 1 0
-19.059454 -2.639378 0.650393 19.252328 0.137606 1.537007 0.003028 0.002947 253594.000000 0 1 0
-18.306154 -3.457078 1.546493 18.693804 0.186650 1.487974 0.007523 0.002272 514375.000000 0 1 0
-17.623654 -4.518478 0.985893 18.220368 0.250981 1.516661 0.000902 0.003491 -494278.000000 0 1 0
-18.480854 -5.746178 0.762693 19.368589 0.301450 1.531408 -0.001493 0.006513 -304146.000000 0 1 0
-19.001954 -6.195878 1.997493 20.086143 0.315195 1.471185 0.007519 0.005159 116243.000000 0 1 0
-20.036254 -7.116678 1.842893 21.342325 0.341291 1.484339 0.001612 0.002558 19791.400000 0 1 0
-20.790054 -7.590978 3.175493 22.359183 0.350086 1.428293 0.010327 0.002417 248144.000000 0 1 0
-19.928654 -8.303478 4.002193 21.957153 0.394786 1.387499 0.005255 -0.000535 720234.000000 0 1 0
-20.643854 -8.713878 5.172593 22.996872 0.399416 1.343929 0.007409 -0.000554 409165.000000 0 1 0
-19.722154 -9.619478 5.991693 22.746387 0.453800 1.304238 0.001685 -0.003836 60062.500000 0 1 0
-19.450254 -10.884278 5.377693 22.928137 0.510180 1.334045 0.005816 0.000035 343465.000000 0 1 0
-18.393654 -11.501478 6.101493 22.535277 0.558812 1.296621 -0.002943 -0.000203 -53447.900000 0 1 0
-17.853454 -12.727278 5.424293 22.586553 0.619315 1.328270 -0.007140 0.000376 -78438.500000 0 1 0
-18.683654 -13.884078 5.563093 23.933127 0.639079 1.336207 -0.002204 0.004659 624732.000000 0 1 0
-18.018254 -14.958878 4.894593 23.924518 0.692890 1.364757 -0.006140 0.006951 120688.000000 0 1 0
-18.437454 -16.362078 5.508793 25.258743 0.725831 1.350935 -0.009461 0.003515 -444285.000000 0 0 1
-17.881054 -17.490878 4.834793 25.476227 0.774368 1.379862 -0.004697 0.005000 -67097.900000 0 0 1
-18.434254 -18.705778 5.201793 26.772869 0.792709 1.375259 -0.002870 0.006663 -342525.000000 0 0 1
-17.498854 -19.876778 4.906293 26.932655 0.848935 1.387604 -0.006120 0.007849 -499883.000000 0 0 1
-17.294854 -20.325678 3.546593 26.922546 0.865788 1.438679 -0.002506 0.007570 267582.000000 0 0 1
-16.457754 -21.481078 3.457793 27.280959 0.917038 1.443707 -0.005274 0.007737 769036.000000 0 0 1
-14.931254 -21.487678 3.761093 26.434986 0.963518 1.428035 -0.002455 0.009440 343782.000000 0 0 1
-14.421054 -22.757078 3.980793 27.234135 1.005969 1.424102 -0.003390 0.007488 -326843.000000 0 0 1
-13.076454 -22.848478 4.379693 26.687606 1.050985 1.405941 0.000639 0.009608 173912.000000 0 0 1
-12.412954 -24.285078 4.528393 27.646931 1.098280 1.406261 0.003620 0.008528 15116.100000 0 0 1
-12.289954 -24.959678 3.319393 28.018688 1.113253 1.452047 0.005793 0.005606 96460.500000 0 0 1
-11.939754 -26.287928 3.609293 29.097077 1.144462 1.446433 0.006448 0.006901 -611877.000000 0 0 1
17.149846 19.067722 -24.805607 35.679313 0.838303 2.339547 0.014866 -0.006601 -262845.000000 0 0 1
16.401346 19.603422 -25.831607 36.339651 0.874100 2.361485 0.012406 -0.009971 -311035.000000 0 0 1
17.106546 19.508822 -27.053377 37.484840 0.850913 2.377073 0.012668 -0.010809 252103.000000 0 0 1
16.262846 19.859722 -28.327787 38.227637 0.884645 2.405398 0.009604 -0.011229 201461.000000 0 0 1
16.094046 21.253622 -28.528817 39.046487 0.922679 2.390051 0.004192 -0.003675 35554.600000 0 0 1
15.112946 21.353122 -29.519057 39.442765 0.954879 2.416446 -0.004084 -0.004385 -491285.000000 0 0 1
14.776746 22.793822 -29.864127 40.370492 0.995632 2.403497 -0.003213 0.001078 -159608.000000 0 0 1
14.067446 23.501522 -28.826717 39.764233 1.031425 2.381745 -0.000384 0.002934 530511.000000 0 0 1
14.063846 24.863622 -29.200277 40.849084 1.056025 2.367182 0.002823 0.006394 236735.000000 0 0 1
13.167446 25.701922 -28.195517 40.360347 1.097346 2.344228 0.003104 0.005793 32459.300000 0 0 1
11.864746 25.201222 -28.088487 39.558019 1.130780 2.360377 0.007314 0.004331 -317443.000000 0 0 1
11.102846 26.056222 -27.195517 39.265711 1.167985 2.335887 0.006130 0.006322 202306.000000 0 0 1
9.595646 25.638922 -27.100797 38.521214 1.212674 2.351148 0.011231 0.006306 1398400.000000 0 0 1
8.747046 26.539822 -26.316817 38.385516 1.252426 2.326213 0.006173 0.012834 658210.000000 0 0 1
8.630846 27.870022 -26.819097 39.629454 1.270481 2.314131 0.004944 0.010868 -774024.000000 0 0 1
8.112846 28.920022 -25.776017 39.580159 1.297299 2.280008 -0.000295 0.014197 62021.400000 0 0 1
8.960046 29.085122 -24.642907 39.159924 1.271959 2.251434 0.001646 0.009361 414196.000000 0 0 1
8.352446 29.827822 -23.537407 38.903365 1.297767 2.220590 0.001638 0.007885 -703536.000000 0 0 1
9.328846 30.104222 -22.460107 38.700749 1.270296 2.189959 0.005080 0.009101 143314.000000 0 0 1
10.431046 30.972222 -22.859607 39.882915 1.245941 2.181163 0.001969 0.004805 869970.000000 0 0 1
11.077246 31.479622 -21.730107 39.822977 1.232442 2.147982 0.005078 0.006405 417064.000000 0 0 1
12.276446 32.458022 -22.022707 41.100291 1.209201 2.136285 0.004182 0.007862 1188880.000000 0 0 1
13.451246 31.847822 -22.550707 41.276557 1.171164 2.148775 0.000955 0.011136 735482.000000 0 0 1
14.448446 32.798822 -22.997507 42.584101 1.155856 2.141292 -0.000527 0.009905 2254480.000000 0 0 1
15.795546 32.147822 -23.607207 42.898508 1.114100 2.153524 0.000040 0.012875 1404890.000000 0 0 1
16.616946 31.507322 -22.676907 42.226489 1.085470 2.137709 -0.003931 0.017063 -426546.000000 0 0 1
17.707646 30.900422 -23.320907 42.570665 1.050425 2.150548 0.001736 0.015217 208895.000000 0 0 1
18.708746 30.098822 -22.383107 41.916104 1.014662 2.134118 0.001929 0.014514 421126.000000 0 0 1
19.595246 30.849822 -21.594307 42.449962 1.004909 2.104471 0.007850 0.011396 578407.000000 0 0 1
20.526846 29.960422 -20.919007 41.911611 0.970119 2.093382 0.011205 0.014666 534031.000000 0 0 1
21.060346 30.619822 -19.658307 42.042368 0.968305 2.057351 0.009693 0.005441 -596170.000000 0 0 1
22.043546 31.574822 -19.876807 43.335606 0.961322 2.047296 0.011987 0.001772 -382346.000000 0 0 1
22.532146 32.078322 -18.672307 43.420863 0.958454 2.015323 0.012414 -0.002237 -692485.000000 0 0 1
23.782146 32.939822 -18.797407 44.765666 0.945465 2.004139 0.013812 0.000511 193115.000000 0 0 1
24.925646 32.146522 -19.139007 44.955403 0.911251 2.010568 0.010406 0.000997 -179435.000000 0 0 1
26.099846 32.893322 -19.015407 46.095100 0.900050 1.996021 0.007317 -0.000153 -457430.000000 0 0 1
27.389046 32.263122 -19.517707 46.604825 0.866925 2.002910 0.008859 0.000331 -393753.000000 0 0 1
27.771946 31.199922 -18.693907 45.762193 0.843462 1.991608 0.021325 0.000731 -296848.000000 0 0 1
28.901046 30.582422 -19.269807 46.280454 0.813657 2.000246 0.010228 -0.002569 -87747.400000 0 0 1
29.296446 29.353722 -18.417807 45.377730 0.786375 1.988735 0.005706 -0.004541 -316948.000000 0 0 1
29.821346 29.758922 -17.171407 45.494652 0.784350 1.957824 0.007105 -0.001888 49208.200000 0 0 1
29.576646 28.786222 -16.182207 44.331573 0.771856 1.944458 -0.001353 -0.005506 -505049.000000 0 0 1
29.971746 29.300722 -14.757607 44.436751 0.774078 1.909329 0.000284 -0.007330 594908.000000 0 0 1
31.354346 29.612222 -14.539807 45.512467 0.756831 1.895965 0.005398 -0.001838 612502.000000 0 0 1
31.770146 30.883122 -14.999607 46.777105 0.771241 1.897224 -0.004054 -0.004894 -1178820.000000 0 0 1
33.242746 31.182822 -14.931407 47.962438 0.753435 1.887372 -0.002273 -0.004076 -716790.000000 0 0 1
33.822746 31.321422 -13.612607 48.065712 0.747020 1.857934 -0.003543 -0.001138 -426062.000000 0 0 1
-34.364783 31.652022 -13.856207 48.731748 -0.744329 1.859110 -0.001130 -0.002236 -226617.000000 0 0 1
-33.534683 32.056922 -12.602907 48.073428 -0.762872 1.836056 -0.001348 -0.002966 -134137.000000 0 0 1
-34.080983 33.243722 -12.030407 49.105897 -0.772963 1.818305 -0.000709 -0.006123 466439.000000 0 0 1
-33.259083 33.740822 -10.979807 48.632971 -0.792588 1.798528 -0.005677 -0.001208 -3462.980000 0 0 1
-33.885883 -34.505889 -10.229407 49.432279 0.794463 1.779240 -0.003240 0.001142 569263.000000 0 0 1
-32.999683 -33.694189 -9.389507 48.087840 0.795811 1.767316 -0.001046 0.002266 527086.000000 0 0 1
-32.499983 -34.368089 -8.264607 48.017894 0.813328 1.743773 -0.003173 -0.001678 67977.600000 0 0 1
-32.019883 -33.504789 -7.066707 46.880509 0.808056 1.722112 0.012225 0.004983 722014.000000 0 0 1
-33.106283 -32.649089 -6.624207 46.966681 0.778445 1.712309 0.003096 0.002260 842165.000000 0 0 1
-32.661483 -31.728289 -5.678707 45.887956 0.770906 1.694866 0.004389 -0.000564 -6243.740000 0 0 1
-33.846583 -30.819689 -5.295907 46.081353 0.738624 1.685976 0.000085 0.002038 494381.000000 0 0 1
34.652746 -31.492089 -4.576307 47.047923 -0.737651 1.668219 0.001802 0.000893 238947.000000 0 0 1
33.449746 -30.803589 -4.346407 45.679731 -0.744238 1.666090 -0.001032 0.005554 -88595.700000 0 0 1
33.348646 -29.940389 -3.079507 44.922627 -0.731598 1.639401 -0.007920 0.007070 -243607.000000 0 0 1
34.062046 -28.730989 -3.103307 44.669041 -0.700702 1.640326 -0.007323 0.003381 365190.000000 0 0 1
33.331446 -27.903989 -2.221607 43.526468 -0.696997 1.621859 -0.006544 0.002747 109178.000000 0 0 1
33.479246 -26.368089 -2.503907 42.689642 -0.667131 1.629484 0.002770 0.004356 -46736.000000 0 0 1
33.011246 -26.078689 -3.834807 42.243889 -0.668610 1.661699 0.003725 0.000624 409006.000000 0 0 1
32.723846 -24.674089 -3.944107 41.173010 -0.646062 1.666737 0.005721 -0.000058 -110267.000000 0 0 1
32.246146 -24.309489 -5.364007 40.737424 -0.645975 1.702853 0.004792 -0.004488 471947.000000 0 0 1
33.340346 -24.258989 -6.315207 41.712816 -0.629021 1.722778 0.002076 -0.003586 705122.000000 0 0 1
32.933046 -23.909889 -7.638207 41.407856 -0.627973 1.756322 -0.015070 -0.004387 -65336.700000 0 0 1
34.148846 -23.862489 -8.591807 42.536822 -0.609906 1.774181 -0.014328 -0.007551 167481.000000 0 0 1
34.669546 -25.160089 -8.929007 43.757681 -0.627774 1.776295 -0.011548 -0.002270 295410.000000 0 0 1
-33.667083 -24.994889 -9.685307 43.035127 0.638628 1.797797 0.001683 -0.005372 214181.000000 0 0 1
-33.201583 -26.112489 -10.681207 43.569432 0.666445 1.818475 0.007737 -0.006082 -306429.000000 0 0 1
-32.676483 -27.304389 -10.141007 43.773534 0.696073 1.804590 0.009208 -0.000008 -185805.000000 0 0 1
-33.630783 -28.199389 -9.655207 44.938382 0.697779 1.787339 0.003404 -0.000733 -303251.000000 0 0 1
-32.991683 -29.472789 -9.054207 45.156120 0.729123 1.772674 0.007236 0.000171 406399.000000 0 0 1
-32.155983 -30.112289 -10.018907 45.178930 0.752589 1.794416 0.004712 0.000344 276526.000000 0 0 1
-31.164683 -30.945489 -9.477807 44.929830 0.781869 1.783340 0.004423 0.000138 -6276.630000 0 0 1
-30.426283 -31.782289 -10.560007 45.248054 0.807192 1.806349 0.000706 0.000856 569598.000000 0 0 1
-29.500183 -31.073089 -11.429007 44.344333 0.811359 1.831472 -0.006556 0.003622 666196.000000 0 0 1
-29.153283 -31.879589 -12.500507 44.972045 0.830038 1.852468 -0.009732 0.004236 -59909.500000 0 0 1
-29.332383 -30.930689 -13.747807 44.789490 0.811914 1.882775 -0.005559 0.003144 266871.000000 0 0 1
-28.376983 -29.876989 -13.770507 43.445535 0.811142 1.893319 -0.010534 0.005888 -92959.100000 0 0 1
-28.548183 -29.033089 -14.948707 43.374911 0.793819 1.922651 -0.010204 0.000934 -365099.000000 0 0 1
-27.319483 -28.161989 -15.222307 42.085276 0.800582 1.940889 -0.010004 0.002914 -753459.000000 0 0 1
-26.288383 -28.938789 -15.742007 42.146689 0.833352 1.953581 -0.008099 0.002826 -1038880.000000 0 0 1
-25.359183 -28.131789 -16.386607 41.267501 0.837185 1.979132 -0.010237 0.005786 -632017.000000 0 0 1
-24.175583 -28.897589 -16.978607 41.325568 0.874136 1.994182 -0.010481 0.004831 -723985.000000 0 0 1
-24.474683 -29.712489 -18.080207 42.529237 0.881760 2.009895 -0.013259 0.005850 -209137.000000 0 0 1
-24.724883 -29.064589 -19.354807 42.786432 0.865903 2.040204 -0.008219 0.004998 125537.000000 0 0 1
-23.617383 -28.142189 -19.937507 41.800332 0.872596 2.068000 -0.000541 0.002410 28257.500000 0 0 1
-23.490683 -26.986589 -19.143107 40.577663 0.854545 2.062087 -0.005633 0.000541 804667.000000 0 0 1
-22.096683 -26.631089 -19.287707 39.616839 0.878187 2.079283 0.003851 -0.005716 932864.000000 0 0 1
-21.626183 -25.541189 -18.323107 38.154690 0.868211 2.071716 0.001871 -0.002909 -395047.000000 0 0 1
-21.640583 -25.914289 -16.963107 37.783756 0.875026 2.036389 0.001465 0.001209 94256.200000 0 0 1
-21.151583 -24.880989 -16.157607 36.435167 0.866238 2.030254 -0.003748 0.001983 -85035.800000 0 0 1
-21.619983 -25.005689 -14.696207 36.175775 0.857886 1.989137 -0.006751 0.006214 816947.000000 0 0 1
-23.031183 -24.734389 -14.604907 36.817506 0.821041 1.978698 -0.010725 0.007911 637931.000000 0 0 1
-23.307483 -24.491489 -13.226807 36.304549 0.810164 1.943709 -0.014173 0.007798 -169761.000000 0 0 1
-24.783583 -24.324289 -12.827107 37.019343 0.776046 1.924631 -0.010862 0.013848 -180348.000000 0 0 1
-25.519183 -25.520989 -13.036407 38.373135 0.785434 1.917423 -0.007797 0.012994 979842.000000 0 0 1
-26.800283 -25.731089 -12.411307 39.171223 0.765048 1.893200 -0.013063 0.007854 539165.000000 0 0 1
-28.012883 -25.065989 -13.097607 39.806692 0.729936 1.906073 -0.010930 -0.001475 -712807.000000 0 0 1
-28.322083 -23.734989 -12.745607 39.088881 0.697509 1.902937 -0.003875 0.004434 255751.000000 0 0 1
-28.785883 -23.545589 -11.396907 38.896161 0.685594 1.868168 -0.003857 0.003843 1106530.000000 0 0 1
-30.280083 -24.050489 -11.033607 40.212560 0.671236 1.848743 -0.001494 -0.001935 2549260.000000 0 0 1
-31.467183 -23.329289 -11.488207 40.821787 0.637964 1.856073 0.000843 -0.003310 1284050.000000 0 0 1
-31.552083 -23.286489 -12.916807 41.287267 0.635798 1.888991 -0.001586 -0.001556 21953.700000 0 0 1
-33.039583 -23.073889 -13.405407 42.470264 0.609632 1.891930 0.001503 -0.005423 818561.000000 0 0 1
-33.729783 -24.297789 -13.323707 43.653202 0.624264 1.880963 0.002653 -0.004184 141528.000000 0 0 1
34.457646 -24.143589 -13.774607 44.271685 -0.611178 1.887187 -0.003725 -0.001129 347435.000000 0 0 1
33.556046 -25.363089 -13.431107 44.155284 -0.647230 1.879873 -0.002823 -0.001794 19720.400000 0 0 1
33.710646 -26.459989 -14.286907 45.173603 -0.665475 1.892588 -0.002450 0.000206 306566.000000 0 0 1
32.876846 -27.577689 -13.879807 45.100609 -0.697966 1.883626 -0.006873 0.000816 718926.000000 0 0 1
32.867746 -28.635089 -15.008607 46.103312 -0.716686 1.902382 -0.005160 0.000269 -82865.600000 0 0 1
31.970146 -28.319489 -16.014707 45.613096 -0.724920 1.929541 -0.005359 -0.002555 -569663.000000 0 0 1
31.838846 -29.305289 -17.005707 46.494152 -0.743986 1.945246 -0.010946 -0.001178 -385747.000000 0 0 1
30.709746 -29.122189 -17.984607 45.985177 -0.758871 1.972618 -0.003145 0.002351 -1135330.000000 0 0 1
29.392346 -29.388489 -17.648107 45.155830 -0.785333 1.972326 -0.010546 0.006863 -899662.000000 0 0 1
28.649946 -29.100889 -18.798907 44.956424 -0.793206 2.002213 0.002855 0.006669 -701736.000000 0 0 1
27.165046 -28.861689 -18.576207 43.772278 -0.815672 2.009077 0.004237 0.003963 -559159.000000 0 0 1
26.884646 -27.723589 -17.789307 42.518714 -0.800760 2.002466 0.005053 0.002267 -35157.000000 0 0 1
25.537046 -27.770889 -17.349707 41.525599 -0.827278 2.001827 0.003353 0.001223 172328.000000 0 0 1
25.268246 -26.849589 -16.181307 40.264369 -0.815731 1.984362 0.003853 0.002798 -61795.500000 0 0 1
25.317246 -25.480089 -16.480507 39.519679 -0.788604 2.000961 0.008999 0.003164 -88899.400000 0 0 1
24.887746 -24.772589 -15.348007 38.322870 -0.783079 1.982850 0.003630 0.004991 -199470.000000 0 0 1
24.747346 -23.242489 -15.365407 37.265804 -0.754051 1.995795 -0.004422 -0.000228 64950.600000 0 0 1
23.701846 -22.763089 -16.187307 36.632836 -0.765197 2.028489 0.003675 0.003170 -87782.800000 0 0 1
23.543246 -21.376589 -16.072007 35.630779 -0.737202 2.038761 0.002224 -0.000019 332922.000000 0 0 1
22.129446 -20.855989 -16.496607 34.595125 -0.755782 2.067861 0.009815 0.000398 536322.000000 0 0 1
21.158346 -21.383889 -15.592107 33.883036 -0.790700 2.048988 0.005531 -0.002092 947423.000000 0 0 1
19.909846 -20.682789 -15.415007 32.585306 -0.804437 2.063564 0.006276 -0.003428 818666.000000 0 0 1
19.944346 -19.269889 -14.762707 31.417242 -0.768201 2.059965 0.000877 -0.003158 -429355.000000 0 0 1
20.364846 -19.364289 -13.386807 31.127307 -0.760219 2.015363 0.008436 -0.004269 348744.000000 0 0 1
20.194346 -18.139989 -12.651707 29.948898 -0.731859 2.006935 0.000256 -0.005165 400850.000000 0 0 1
19.131546 -18.135789 -11.474807 28.750549 -0.758685 1.981349 -0.002295 -0.003457 50892.500000 0 0 1
19.563246 -18.808489 -10.353607 29.046119 -0.765731 1.935266 -0.005843 0.000217 325451.000000 0 0 1
18.484546 -19.031989 -9.444407 28.161887 -0.799989 1.912785 -0.004223 -0.002207 106621.000000 0 0 1
18.827146 -19.637289 -8.079907 28.379032 -0.806457 1.859504 -0.004675 -0.000405 -309859.000000 0 0 1
19.623846 -18.808089 -7.264507 28.135611 -0.764175 1.831951 -0.010101 0.000600 325605.000000 0 0 1
20.252546 -19.483289 -6.185007 28.775310 -0.766041 1.787428 -0.010983 0.001778 -31896.600000 0 0 1
21.609646 -18.866689 -5.785707 29.264367 -0.717735 1.769812 -0.007746 0.004369 -3160.710000 0 0 1
22.580546 -18.835089 -6.835707 30.188881 -0.695208 1.799209 -0.017752 0.002139 -23644.800000 0 0 1
23.506346 -17.856189 -6.479007 30.222001 -0.649638 1.786854 -0.016197 0.001023 -832764.000000 0 0 1
24.615146 -17.651289 -7.562207 31.219551 -0.622104 1.815457 -0.012062 -0.005813 -273851.000000 0 0 1
25.563646 -18.658089 -7.453407 32.514267 -0.630492 1.802088 -0.005649 -0.010486 -154564.000000 0 0 1
25.247446 -19.703189 -8.337007 33.093124 -0.662677 1.825466 -0.003756 -0.009148 -758171.000000 0 0 1
26.065646 -20.983489 -8.059707 34.419233 -0.677797 1.807154 0.007535 -0.012740 169379.000000 0 0 1
27.425846 -20.935689 -8.426007 35.517287 -0.651994 1.810317 0.004706 -0.006635 -216136.000000 0 0 1
28.102846 -22.130189 -8.302907 36.721295 -0.667055 1.798875 0.006032 -0.008523 -152400.000000 0 0 1
-28.338274 30.484822 4.257393 41.839067 -0.821874 1.468864 0.010928 -0.000357 77114.800000 0 0 1
-27.723674 31.502422 3.510893 42.110937 -0.849114 1.487327 0.009038 -0.000404 -645550.000000 0 0 1
-26.668304 32.050822 4.221193 41.907900 -0.876808 1.469900 0.006787 0.001858 -486124.000000 0 0 1
-26.032574 33.208622 3.413593 42.333912 -0.905944 1.490074 0.006930 0.000001 -671304.000000 0 0 1
-25.319624 32.739622 2.283493 41.450941 -0.912510 1.515679 0.009036 -0.003538 -27877.800000 0 0 1
-24.761154 33.822022 1.568693 41.946451 -0.938849 1.533390 0.009816 -0.008370 -541078.000000 0 0 1
-23.422854 34.344422 2.066693 41.622598 -0.972254 1.521123 0.002304 -0.011337 -1685030.000000 0 0 1
-22.302354 33.651722 1.659693 40.405296 -0.985517 1.529709 0.001468 -0.007924 -1036150.000000 0 0 1
-21.185254 34.215722 2.318593 40.310129 -1.016402 1.513246 -0.004051 -0.009476 46620.200000 0 0 1
-19.848454 33.787622 1.682093 39.222365 -1.039658 1.527897 -0.007446 -0.005365 -134570.000000 0 0 1
-19.534654 34.473022 0.500793 39.626288 -1.055249 1.558158 -0.009702 -0.007785 -352205.000000 0 0 1
-18.223954 34.119122 0.152693 38.681395 -1.080221 1.566849 -0.006522 -0.004046 -592379.000000 0 0 1
-17.700554 -34.643989 -1.096907 38.919388 1.098445 1.598984 -0.004371 -0.002000 -269060.000000 0 0 1
-17.563654 -33.219489 -1.049007 37.591446 1.084441 1.598705 0.000336 -0.000748 487734.000000 0 0 1
-16.811054 -32.609489 0.016893 36.687745 1.094805 1.570336 -0.000975 -0.001935 -123486.000000 0 0 1
-17.048654 -31.131889 0.186893 35.494874 1.069777 1.565531 -0.004200 0.004592 19461.000000 0 0 1
-16.331954 -30.455389 -0.861107 34.568844 1.078565 1.595709 0.000528 0.007145 491499.000000 0 0 1
-16.341254 -29.067089 -0.783107 33.354842 1.058642 1.594277 -0.009914 0.008561 -274722.000000 0 0 1
-15.354254 -28.539189 -1.828207 32.458909 1.077208 1.627150 -0.010616 0.011349 -227086.000000 0 0 1
-15.831154 -28.706189 -3.146907 32.932867 1.066810 1.666498 -0.011492 0.008741 -462341.000000 0 0 1
-15.027754 -28.046089 -4.023607 32.071887 1.078902 1.696584 -0.018103 0.012376 -635205.000000 0 0 1
-15.528354 -28.246189 -5.492607 32.697794 1.068145 1.739578 -0.009877 0.006904 -48754.200000 0 0 1
-16.683354 -27.528689 -5.817507 32.710953 1.025951 1.749593 -0.011000 0.012165 -612551.000000 0 0 1
-16.830054 -27.218589 -7.168707 32.794705 1.017008 1.791169 -0.004731 0.006765 191162.000000 0 0 1
-17.518854 -25.857089 -7.458807 32.111261 0.975313 1.805218 -0.006276 0.008905 312834.000000 0 0 1
-16.798854 -24.739589 -6.946307 30.700162 0.974285 1.799036 0.003118 0.008696 111868.000000 0 0 1
-17.395254 -23.550289 -7.372807 30.192205 0.934603 1.817487 0.006940 0.003204 92554.900000 0 0 1
-16.498554 -22.372689 -6.893107 28.640084 0.935381 1.813863 0.005075 0.001479 -438849.000000 0 0 1
-15.214954 -22.459289 -7.396607 28.118042 0.975368 1.836984 0.014489 0.002481 -1457650.000000 0 0 1
-14.425654 -21.437189 -6.828407 26.726012 0.978472 1.829158 0.017969 -0.006910 -64787.500000 0 0 1
-13.215154 -21.089489 -7.696107 26.050661 1.011031 1.870700 0.017096 -0.010680 -522220.000000 0 0 1
-13.575154 -20.522089 -8.924107 26.174045 0.986386 1.918726 0.016787 0.001853 -401732.000000 0 0 1
-12.466154 -20.443689 -9.782507 25.865940 1.023217 1.958648 0.014089 0.001954 -16920.300000 0 0 1
-12.744754 -19.648989 -11.115107 25.924065 0.995391 2.013912 0.011443 0.002631 -202633.000000 0 0 1
-13.635354 -20.175389 -12.044407 27.166836 0.976469 2.030129 0.011189 0.004216 -405787.000000 0 0 1
-13.852554 -19.263789 -13.126007 27.116026 0.947368 2.076094 0.007326 0.007417 -625181.000000 0 0 1
-14.912954 -19.703289 -14.104007 28.452396 0.922909 2.089443 0.011835 0.009525 -48359.900000 0 0 1
-16.224354 -19.587589 -13.562407 28.824334 0.879037 2.060676 0.014382 0.005238 465402.000000 0 0 1
-17.212354 -19.992689 -14.515207 30.110862 0.859990 2.073799 0.010208 0.008722 1363640.000000 0 0 1
-18.712754 -19.847389 -14.035107 30.676868 0.814815 2.045994 0.006785 0.006400 948816.000000 0 0 1
-19.599854 -20.588389 -14.816807 32.055792 0.809991 2.051293 0.002424 0.000014 613036.000000 0 0 1
-20.971254 -20.297189 -14.492007 32.585083 0.769066 2.031684 0.000759 0.003623 1360640.000000 0 0 1
-22.091454 -21.033289 -15.305607 34.127602 0.760866 2.035862 0.002233 0.001874 296109.000000 0 0 1
-22.262054 -20.418589 -16.580807 34.459266 0.742233 2.072787 0.001018 0.001041 210936.000000 0 0 1
-22.622454 -21.437989 -17.502907 35.745134 0.758522 2.082494 0.000936 0.000619 -290040.000000 0 0 1
-23.186554 -20.962189 -18.816007 36.483857 0.735057 2.112662 -0.006211 0.002183 -522259.000000 0 0 1
-22.202154 -20.634589 -19.720907 36.161251 0.748821 2.147615 -0.000681 0.002410 -214483.000000 0 0 1
-22.796154 -20.381089 -20.999807 37.095085 0.729523 2.172573 -0.002659 0.001787 -317370.000000 0 0 1
-21.907254 -19.586989 -21.938307 36.672432 0.729539 2.212079 0.001692 0.001205 -165734.000000 0 0 1
-20.738954 -20.305789 -22.314907 36.611260 0.774845 2.226238 0.004067 -0.004602 15490.900000 0 0 1
-19.795354 -19.340189 -22.773107 35.840108 0.773768 2.259334 0.000389 -0.004196 1054890.000000 0 0 1
-18.322654 -19.916789 -22.828307 35.405222 0.827062 2.271522 -0.001202 -0.006349 816789.000000 0 0 1
-18.151654 -21.074989 -23.600607 36.477752 0.859785 2.274422 -0.001782 -0.005196 503668.000000 0 0 1
-16.736954 -21.298889 -23.690407 35.986160 0.904766 2.289381 -0.001315 -0.006326 700510.000000 0 0 1
-16.494754 -22.734689 -24.221307 37.089280 0.943139 2.282407 0.000229 -0.004660 -321092.000000 0 0 1
-16.833454 -22.924789 -25.558407 38.237983 0.937425 2.302857 0.004101 -0.006140 103202.000000 0 0 1
-16.708054 -24.310389 -25.773337 39.171661 0.968658 2.288901 0.002913 -0.005548 -115109.000000 0 0 1
-16.820654 -24.651789 -27.287727 40.438412 0.972028 2.311486 -0.000273 -0.005252 591751.000000 0 0 1
-15.680454 -24.244289 -28.059497 40.261614 0.996696 2.341903 -0.010314 -0.002640 732161.000000 0 0 1
-16.013454 -24.442389 -29.444207 41.482797 0.990809 2.360001 -0.005948 -0.002193 33694.300000 0 0 1
-14.782154 -24.307289 -30.364177 41.609370 1.024415 2.388743 -0.009239 0.000116 -277120.000000 0 0 1
-13.968054 -25.442589 -30.203127 41.888671 1.068719 2.376089 -0.011742 -0.001128 -641811.000000 0 0 1
-12.793954 -25.196789 -30.922277 41.889744 1.100959 2.401169 -0.008040 0.000448 -419268.000000 0 0 1
-11.795354 -26.377489 -30.732847 42.183056 1.150294 2.387012 0.002266 -0.001555 -1009800.000000 0 0 1
-12.150154 -27.614089 -31.345237 43.505035 1.156291 2.375315 0.000028 0.000880 700797.000000 0 0 1
-11.196754 -28.674889 -31.088437 43.750514 1.198530 2.361125 0.006997 -0.002288 961517.000000 0 0 1
-9.785354 -28.515189 -31.715117 43.757489 1.240225 2.381530 0.014713 -0.006304 73369.400000 0 0 1
-8.972054 -27.473689 -31.224997 42.547642 1.255146 2.394817 0.015067 -0.003520 -109139.000000 0 0 1
-7.952654 -27.019089 -32.089057 42.696411 1.284545 2.421225 0.015465 -0.004793 57085.900000 0 0 1
-7.114454 -25.833289 -31.446987 41.314492 1.302059 2.435898 0.011340 -0.000257 -66227.700000 0 0 1
-7.701354 -24.539389 -31.329247 40.534112 1.266694 2.454212 0.016553 0.003570 356014.000000 0 0 1
-8.663054 -24.428089 -30.265737 39.847144 1.229998 2.433411 0.010241 0.004407 331025.000000 0 0 1
-9.272554 -22.980289 -30.070357 38.965373 1.187276 2.452338 0.013371 0.002279 332554.000000 0 0 1
-9.913954 -22.527789 -31.279697 39.802101 1.156225 2.474915 0.013990 0.002323 96245.500000 0 0 1
-10.223654 -21.187889 -31.219907 39.091334 1.121227 2.495828 0.009957 0.004268 38462.800000 0 0 1
-10.850854 -20.636689 -32.510697 40.006992 1.086719 2.519439 0.007323 0.004604 43459.900000 0 0 1
-11.251754 -19.301189 -32.402257 39.357898 1.043003 2.537948 0.012438 0.008493 181576.000000 0 0 1
-11.928754 -18.868789 -33.580087 40.323053 1.007040 2.554900 0.006931 0.007877 -461296.000000 0 0 1
-12.569654 -17.505689 -33.470857 39.808839 0.948070 2.569536 0.014423 0.013542 171986.000000 0 0 1
-11.779954 -16.273789 -33.542137 39.098318 0.944235 2.601949 0.008583 0.014034 -12026.700000 0 0 1
-10.988154 -15.940189 -32.445157 37.782501 0.967263 2.603592 0.008669 0.010770 -90639.100000 0 0 1
-10.864954 -14.415189 -32.346887 37.042759 0.924921 2.632590 0.009362 0.008719 -159564.000000 0 0 1
-9.966554 -13.808289 -33.265427 37.370974 0.945602 2.668450 0.010828 0.009089 -355314.000000 0 0 1
-10.247054 -13.904889 -34.643909 38.711090 0.935707 2.679082 0.010198 0.008792 -1000580.000000 0 0 1
-10.739254 -12.592589 34.123309 37.924993 0.864665 0.451582 0.010605 0.009305 -579686.000000 0 0 1
-12.068154 -12.368689 34.485623 38.573087 0.797696 0.464528 -0.005284 0.012217 -1050050.000000 0 0 1
-12.672554 -11.419489 33.654501 37.730940 0.733433 0.469134 -0.000272 0.002259 -18578.600000 0 0 1
-13.860854 -10.749889 34.303432 38.528027 0.659658 0.472683 0.001834 0.000003 -5909.790000 0 0 1
-13.359554 -9.874089 -34.152997 37.978975 0.636491 2.688873 -0.007605 -0.000925 -236361.000000 0 0 1
-14.423454 -9.456389 -33.351197 37.546793 0.580320 2.664333 -0.001175 0.002508 53572.300000 0 0 1
-13.990054 -8.507089 -32.181977 36.107781 0.546340 2.670946 0.002078 0.000503 -25787.000000 0 0 1
-13.675254 -7.172089 -32.523707 36.003374 0.483022 2.698317 -0.001192 0.001172 -269526.000000 0 0 1
-14.803354 -6.352389 -32.658437 36.415185 0.405354 2.683360 -0.001810 0.000458 -447581.000000 0 0 1
-15.188354 -5.530989 -31.420067 35.334099 0.349233 2.666451 -0.003235 -0.001366 -90003.100000 0 0 1
-15.697554 -6.309689 -30.307387 34.709698 0.382189 2.632460 -0.003188 0.000549 174677.000000 0 0 1
-16.126054 -5.431189 -29.220357 33.813854 0.324864 2.614262 0.004490 -0.000736 420365.000000 0 0 1
-14.945754 -4.749189 -28.450227 32.486086 0.307671 2.637818 -0.001735 0.001861 624414.000000 0 0 1
-14.300254 -3.769989 -29.261977 32.786787 0.257766 2.673639 -0.003361 -0.003248 992348.000000 0 0 1
-13.115454 -3.144989 -28.690767 31.702779 0.235349 2.702158 -0.003094 -0.001083 1020410.000000 0 0 1
-12.809254 -1.786989 -29.384907 32.105188 0.138613 2.726973 -0.004857 0.004099 -77113.900000 0 0 1
-12.642354 -1.954989 -30.769257 33.322639 0.153423 2.747575 -0.007455 0.006053 210097.000000 0 0 1
-12.549454 -0.718989 -31.480727 33.897521 0.057230 2.761696 -0.009174 0.006690 -159088.000000 0 0 1
-12.767854 -0.822989 -33.009507 35.402302 0.064369 2.771825 -0.009685 -0.000164 -391774.000000 0 0 1
-14.058254 -1.157989 -33.491937 36.341234 0.082185 2.742969 -0.007331 0.000660 396709.000000 0 0 1
-14.043254 -1.053989 34.567181 37.325781 0.074913 0.386871 -0.012169 0.001422 -270826.000000 0 0 1
-15.358854 -1.545989 33.953827 37.298081 0.100320 0.426698 -0.008180 0.003711 -162688.000000 0 0 1
-15.309754 -1.596989 32.534183 35.991833 0.103936 0.441920 -0.010429 0.000182 34605.500000 0 0 1
-16.585454 -1.853989 32.002333 36.092435 0.111322 0.480688 -0.000642 -0.000164 4050.020000 0 0 1
-16.614954 -1.848989 30.453013 34.739912 0.110829 0.502045 -0.002934 -0.002062 -46808.400000 0 0 1
-16.234854 -0.572989 29.926483 34.051332 0.035279 0.497321 -0.006107 -0.001930 92626.300000 0 0 1
-16.233854 -0.537989 28.471563 32.778916 0.033128 0.518439 -0.009839 -0.002001 -349267.000000 0 0 1
-15.705054 0.846011 28.056953 32.164531 -0.053817 0.510920 -0.004991 -0.003574 -16280.300000 0 0 1
-16.476754 1.921011 28.583133 33.047984 -0.116065 0.525849 -0.006611 -0.004054 862787.000000 0 0 1
-17.812254 2.125011 28.087803 33.327418 -0.118739 0.568362 -0.003577 -0.002780 724239.000000 0 0 1
-17.951254 2.793011 26.669243 32.269133 -0.154351 0.598001 -0.001713 -0.011963 -661250.000000 0 0 1
-17.514554 4.134011 26.727613 32.221343 -0.231791 0.592584 -0.001293 -0.008164 76490.200000 0 0 1
-17.804554 4.868011 25.528843 31.502722 -0.266891 0.626014 -0.000609 -0.007328 -447631.000000 0 0 1
-17.599354 6.387011 25.543793 31.670436 -0.348131 0.632503 -0.006850 -0.006504 -937688.000000 0 0 1
-16.272654 6.743011 25.637023 31.105055 -0.392838 0.601995 -0.002848 -0.004973 -1079680.000000 0 0 1
-15.785054 7.025011 24.349033 29.856224 -0.418723 0.617130 -0.000468 -0.006156 -493542.000000 0 0 1
-14.510154 7.841011 24.231033 29.311585 -0.495428 0.597631 -0.002763 -0.005711 -761807.000000 0 0 1
-13.345754 7.437011 24.880233 29.196649 -0.508397 0.550696 0.000655 -0.006673 -138850.000000 0 0 1
-12.280254 8.015011 24.112633 28.221696 -0.578253 0.546400 0.002913 -0.009555 48771.500000 0 0 1
-10.949754 8.126011 24.880833 28.372258 -0.638438 0.501334 0.005769 0.003359 -180863.000000 0 0 1
-9.977254 8.799011 24.083133 27.513006 -0.722729 0.504665 0.001899 0.001542 452287.000000 0 0 1
-8.726754 8.947011 24.748273 27.725120 -0.797860 0.467650 0.000655 -0.001054 124004.000000 0 0 1
-8.560854 10.190011 25.626303 28.876149 -0.872065 0.479001 0.002795 -0.005367 -597060.000000 0 0 1
-9.450354 10.256011 26.745913 30.163535 -0.826258 0.480645 0.000514 -0.004016 441781.000000 0 0 1
-9.510054 11.542011 27.345543 31.167898 -0.881621 0.500459 -0.000852 -0.005243 -124901.000000 0 0 1
-10.216254 12.748011 26.600773 31.216739 -0.895202 0.550751 -0.002500 -0.006024 782764.000000 0 0 1
-11.630054 12.690011 26.396273 31.512819 -0.828954 0.577855 -0.000241 -0.004000 773748.000000 0 0 1
-12.128954 11.855011 25.351943 30.502030 -0.773977 0.589613 0.002000 -0.002661 166784.000000 0 0 1
-13.670854 11.812011 25.174733 30.986821 -0.712582 0.622482 -0.006281 0.000653 140776.000000 0 0 1
-14.230154 12.904011 24.498303 31.131618 -0.736563 0.664984 -0.001097 -0.000927 -775308.000000 0 0 1
-15.468154 12.549011 23.971333 31.166750 -0.681582 0.693315 0.001856 -0.000029 -666012.000000 0 0 1
-15.542354 11.881011 22.568833 29.867632 -0.652671 0.714183 0.001568 0.000532 -257587.000000 0 0 1
-15.050654 10.538011 22.439533 29.001802 -0.610840 0.686090 -0.004520 -0.000692 50140.200000 0 0 1
-15.210154 10.166011 21.097533 27.924944 -0.589181 0.714366 -0.001593 -0.003751 -453419.000000 0 0 1
-15.671754 8.718011 20.970033 27.592569 -0.507658 0.707501 -0.007552 -0.008047 -301727.000000 0 0 1
-17.041254 8.558011 21.190433 28.507514 -0.465401 0.732765 0.002568 -0.001516 -818086.000000 0 0 1
-17.531254 7.256011 20.940933 28.258048 -0.392423 0.736147 0.001266 -0.003065 360004.000000 0 0 1
-19.049654 7.080011 21.236733 29.394127 -0.355840 0.763411 0.010013 -0.009327 324545.000000 0 0 1
-19.345254 7.537011 22.508533 30.621552 -0.371513 0.745048 0.005627 -0.007962 558812.000000 0 0 1
-20.768854 7.552011 22.688933 31.672794 -0.348758 0.772234 0.003185 -0.007768 550403.000000 0 0 1
-21.139954 8.295011 23.972233 33.020794 -0.373925 0.758347 0.005222 -0.008636 -1004480.000000 0 0 1
-20.887554 9.710011 24.085333 33.326829 -0.435151 0.763094 0.006066 -0.007130 248986.000000 0 0 1
-19.578754 10.253011 24.090833 32.692814 -0.482412 0.742346 0.005155 -0.004677 141157.000000 0 0 1
-18.588554 9.717011 25.158193 32.754989 -0.481675 0.694971 -0.005433 -0.012441 -630046.000000 0 0 1
-18.808054 10.220011 26.469003 34.041147 -0.497750 0.680022 -0.001189 -0.002515 -197197.000000 0 0 1
-18.366354 9.356011 27.458013 34.333663 -0.471148 0.643934 -0.008975 0.000132 -331920.000000 0 0 1
-29.594624 -14.450478 20.899133 39.005536 0.454228 1.005342 -0.014085 0.003936 14494.900000 0 0 1
-29.190714 -15.758778 21.269833 39.406125 0.495022 1.000645 -0.012422 0.002288 -66484.700000 0 0 1
-29.853744 -16.826278 20.637533 40.003468 0.513243 1.028746 -0.014303 -0.000362 -204579.000000 0 0 1
-29.603354 -16.976478 19.097933 39.106143 0.520680 1.060585 -0.011458 -0.003638 -78827.500000 0 0 1
-29.987744 -15.796678 18.368733 38.551397 0.484834 1.074157 -0.015017 -0.000741 -181914.000000 0 0 1
-29.448034 -15.639578 17.079033 37.463002 0.488210 1.097424 -0.004906 0.003070 -1329520.000000 0 0 1
-29.985594 -14.487878 16.275233 37.066396 0.450086 1.116218 -0.006158 0.002004 627200.000000 0 0 1
-31.348614 -14.532878 15.809933 37.998607 0.434097 1.141681 0.000419 0.002469 1025300.000000 0 0 1
-32.381614 -14.519878 16.777533 39.254062 0.421522 1.129172 0.000215 0.000606 -807514.000000 0 0 1
-32.646314 -13.116578 17.433833 39.265315 0.382038 1.110737 -0.000017 -0.001426 -689666.000000 0 0 1
-33.668294 -13.152878 18.411933 40.565398 0.372429 1.099678 0.003489 -0.002495 184957.000000 0 0 1
-34.156870 -11.857978 18.767333 40.737160 0.334145 1.092020 0.000868 -0.000755 -380298.000000 0 0 1
34.297248 -12.025878 19.808433 41.391992 -0.337242 1.071786 0.003539 -0.000735 -920280.000000 0 0 1
-34.741779 -12.524278 20.986833 42.477005 0.345995 1.054026 -0.000291 -0.002175 -5447.120000 0 0 1
34.012463 -12.191078 22.153433 42.382126 -0.344165 1.020773 0.003607 -0.001632 -583683.000000 0 0 1
-34.728887 -12.548378 23.463533 43.750369 0.346727 1.004743 -0.000755 -0.003071 925334.000000 0 0 1
-33.504714 -11.832978 23.704133 42.713829 0.339499 0.982491 -0.002486 -0.001214 888348.000000 0 0 1
-32.427124 -12.349778 22.939433 41.596310 0.363887 0.986662 -0.007740 -0.001456 -899439.000000 0 0 1
-31.168544 -11.483778 22.919233 40.356493 0.353008 0.966821 -0.006938 0.003854 -280940.000000 0 0 1
-31.270264 -10.322378 22.058433 39.635280 0.318840 0.980587 -0.007748 0.000563 -381026.000000 0 0 1
-29.991444 -9.769678 21.966433 38.437710 0.314909 0.962486 -0.011474 -0.000766 -746096.000000 0 0 1
-29.921094 -8.412778 21.224733 37.636897 0.274089 0.971654 -0.009056 0.005500 3719.490000 0 0 1
-30.135324 -8.437678 19.813233 37.039120 0.273002 1.006375 -0.010000 0.003796 749971.000000 0 0 1
-31.530644 -8.546878 19.500033 38.045787 0.264705 1.032655 -0.006373 -0.000239 356942.000000 0 0 1
-31.856054 -8.649978 18.019533 37.607631 0.265140 1.071115 -0.003654 0.000869 -424317.000000 0 0 1
-33.225044 -8.851078 17.780633 38.709121 0.260351 1.093545 0.005209 0.001339 -103083.000000 0 0 1
-33.386254 -8.845378 16.353333 38.214057 0.258990 1.128584 0.012240 -0.002673 -66197.900000 0 0 1
34.656133 -8.856778 15.948933 39.164506 -0.250206 1.151378 0.009934 -0.000655 -162067.000000 0 0 1
33.961661 -9.997778 16.379033 39.007983 -0.286297 1.137473 0.008979 0.002380 1494290.000000 0 0 1
32.526405 -9.790078 16.193733 37.630435 -0.292364 1.125931 0.010019 0.004191 1624490.000000 0 0 1
31.641185 -11.023378 16.521033 37.358051 -0.335237 1.112707 0.010098 0.001829 -23525.100000 0 0 1
31.501905 -11.501678 17.799533 37.966854 -0.350072 1.082845 0.002845 -0.000258 -440216.000000 0 0 1
30.402545 -12.351178 17.779433 37.322575 -0.385887 1.074272 0.002725 0.001022 -322183.000000 0 0 1
30.138105 -12.835778 19.240833 37.990423 -0.402632 1.039716 0.004451 0.003303 9.168500 0 0 1
30.951305 -13.912078 19.657333 39.216577 -0.422424 1.045753 0.010380 0.004177 -128306.000000 0 0 1
30.934955 -14.041278 21.065233 39.973403 -0.426090 1.015752 0.001860 0.004647 -218844.000000 0 0 1
31.378435 -15.416878 21.571533 41.080620 -0.456680 1.017961 -0.000242 0.006415 16502.200000 0 0 1
31.653325 -15.300978 22.971533 41.996955 -0.450274 0.992043 -0.010059 0.000026 -212227.000000 0 0 1
32.004875 -16.550178 23.493033 43.013289 -0.477245 0.992998 -0.000722 -0.000569 95466.100000 0 0 1
32.276595 -16.424778 24.987433 43.999133 -0.470723 0.966835 0.008624 -0.001583 817817.000000 0 0 1
33.436495 -15.587078 25.193273 44.672779 -0.436219 0.971633 0.002683 -0.001520 650494.000000 0 0 1
33.800665 -15.431678 26.556343 45.671227 -0.428287 0.950265 0.004538 -0.001502 -6709.560000 0 0 1
-34.560073 -14.414578 26.738363 46.012159 0.395150 0.950698 0.002626 -0.003826 -561622.000000 0 0 1
-33.343334 -14.950278 26.339553 45.045098 0.421501 0.946240 -0.002428 0.001253 -1082000.000000 0 0 1
-32.361324 -13.978778 26.381263 44.029906 0.407751 0.928336 -0.007405 -0.001820 586228.000000 0 0 1
-30.890724 -14.530478 26.174473 43.017144 0.439675 0.916670 -0.011048 0.001815 754869.000000 0 0 1
-30.614154 -14.928278 24.871553 42.174330 0.453700 0.940069 -0.013835 0.000226 -138363.000000 0 0 1
-29.235774 -15.113278 24.659513 41.124607 0.477111 0.927759 -0.008198 -0.000900 -184032.000000 0 0 1
-28.706684 -16.541178 24.816323 41.394857 0.522746 0.927917 -0.008082 -0.003835 -772793.000000 0 0 1
-28.711574 -16.964178 26.171783 42.392217 0.533663 0.905398 -0.000558 0.000432 144312.000000 0 0 1
-28.391634 -18.288478 26.448393 42.896047 0.572252 0.906418 -0.002843 -0.004297 -821821.000000 0 0 1
-28.285034 -18.440878 27.995103 43.861543 0.577756 0.878559 -0.000700 0.000409 -1045480.000000 0 0 1
-27.230914 -17.798478 28.562453 43.291134 0.578911 0.850276 -0.000350 -0.001051 -971323.000000 0 0 1
-26.933474 -18.319578 29.861173 44.189463 0.597299 0.828810 0.003382 0.002611 -58061.100000 0 0 1
-25.729344 -17.629278 30.511883 43.632163 0.600711 0.796381 -0.002416 0.002202 -297829.000000 0 0 1
-25.933074 -16.305678 30.924673 43.528553 0.561299 0.780665 -0.000624 0.000076 221136.000000 0 0 1
-24.956454 -15.382178 30.424833 42.250521 0.552363 0.766842 0.004250 -0.001278 78017.200000 0 0 1
-25.120594 -14.005278 31.124853 42.378633 0.508600 0.745945 0.007552 0.003391 -163710.000000 0 0 1
-24.502654 -13.905678 32.411953 42.945112 0.516193 0.715554 0.008031 0.001873 238202.000000 0 0 1
-24.315754 -12.598278 32.896393 42.803565 0.478032 0.694235 0.008781 -0.001743 -183506.000000 0 0 1
-23.679854 -12.592178 34.305154 43.544713 0.488738 0.663544 0.004356 -0.001287 859137.000000 0 0 1
-22.280454 -12.923978 34.388171 42.965034 0.525628 0.642875 0.008129 0.001041 943499.000000 0 0 1
-21.943654 -14.307078 34.514846 43.330025 0.577774 0.649217 0.002634 0.002318 -270923.000000 0 0 1
-21.905054 -14.873378 -33.479377 42.683925 0.596488 2.472453 -0.004064 0.007621 -629516.000000 0 0 1
-20.772854 -14.568678 -32.669507 41.364895 0.611620 2.481260 0.004613 0.007410 195502.000000 0 0 1
-20.552954 -15.596178 -31.632157 40.819825 0.649128 2.457387 -0.000804 0.006054 780440.000000 0 0 1
-19.158054 -15.496578 -30.905017 39.525878 0.680133 2.468493 0.002925 0.006329 635717.000000 0 0 1
-18.892854 -14.496978 -29.992357 38.296786 0.654498 2.470521 -0.005692 0.006724 44049.900000 0 0 1
-19.477754 -14.535778 -28.673867 37.588062 0.641113 2.438498 -0.011540 0.004081 -114595.000000 0 0 1
-19.188754 -13.331078 -27.795007 36.310995 0.607183 2.442569 -0.008629 0.000563 416804.000000 0 0 1
-17.849954 -13.361978 -27.288767 35.239752 0.642587 2.456522 -0.012025 0.004603 569042.000000 0 0 1
-17.668054 -12.247878 -26.431207 34.070212 0.606162 2.458757 -0.018411 0.003626 359445.000000 0 0 1
-16.338554 -12.320078 -25.641817 32.806028 0.646088 2.468054 -0.013753 0.004490 -481894.000000 0 0 1
-16.512954 -13.123178 -24.472707 32.308031 0.671513 2.430242 -0.012293 0.007836 281610.000000 0 0 1
-15.335254 -13.405878 -23.731307 31.273991 0.718369 2.432295 -0.016405 0.001250 621829.000000 0 0 1
-14.080554 -14.128078 -24.344807 31.472754 0.787083 2.455173 -0.011941 -0.000968 218400.000000 0 0 1
-13.419854 -13.333878 -25.313687 31.601702 0.782185 2.499798 -0.009738 0.002393 -276288.000000 0 0 1
-12.900454 -14.190978 -26.337507 32.580207 0.832998 2.512208 0.003027 0.000918 -110597.000000 0 0 1
-12.215954 -13.321978 -27.422467 32.843513 0.828680 2.558826 0.012627 0.007554 282683.000000 0 0 1
-13.120354 -12.426678 -28.141167 33.443853 0.758252 2.570748 -0.004511 0.008651 355567.000000 0 0 1
-12.521654 -11.293178 -28.775697 33.352188 0.733859 2.611545 0.003456 0.001022 -260509.000000 0 0 1
-11.532854 -11.625178 -29.871967 34.065906 0.789385 2.640145 0.008511 0.006273 -91412.000000 0 0 1
-10.975854 -10.442778 -30.460407 34.019956 0.760515 2.680055 0.010400 0.005236 40824.700000 0 0 1
-10.695854 -10.679778 -31.822177 35.229390 0.784646 2.698162 0.010402 0.001568 -113589.000000 0 0 1
-10.294154 -9.415778 -32.615197 35.473618 0.740862 2.737403 0.007258 0.000536 736256.000000 0 0 1
-8.914054 -9.115578 -32.349547 34.771358 0.796575 2.766164 -0.001433 -0.000479 374310.000000 0 0 1
-8.609554 -7.852078 -32.883977 34.887469 0.739416 2.801048 -0.004642 0.002480 -381306.000000 0 0 1
-7.130954 -7.474478 -32.790207 34.379006 0.808914 2.836389 -0.004135 -0.001332 -474783.000000 0 0 1
-6.570454 -7.330378 -31.482617 32.985762 0.840011 2.838542 -0.000371 -0.004322 -329757.000000 0 0 1
-6.898554 -6.135278 -30.781127 32.135798 0.726904 2.850203 0.000022 -0.005881 -142823.000000 0 0 1
-6.053754 -4.877778 -31.130957 32.087025 0.678234 2.896867 -0.001306 -0.003074 -688300.000000 0 0 1
-4.709054 -4.946078 -30.786677 31.535034 0.809942 2.923302 0.005928 -0.004546 -823442.000000 0 0 1
-4.231054 -3.650278 -30.894867 31.396165 0.711841 2.962654 0.005374 -0.004518 451279.000000 0 0 1
-2.701154 -3.440678 -30.606307 30.917318 0.905229 2.999633 -0.006122 -0.002934 52231.900000 0 0 1
-1.950754 -3.905678 -31.729607 32.028546 1.107576 3.004859 -0.002950 -0.007347 1786500.000000 0 0 1
-0.517754 -3.581278 -31.681907 31.887880 1.427219 3.027872 -0.003273 -0.000942 1889950.000000 0 0 1
-0.114154 -2.116678 -31.688117 31.758938 1.516918 3.074798 -0.001538 -0.002572 -988337.000000 0 0 1
-0.126954 -1.438878 -30.470937 30.505155 1.482793 3.094223 -0.005186 -0.003330 -72062.900000 0 0 1
0.530546 -0.204878 -30.525767 30.531065 -0.368523 3.122964 -0.005524 0.001405 -137989.000000 0 0 1
0.712146 0.618522 -29.247377 29.262584 0.715155 3.109353 -0.003340 0.002022 -125864.000000 0 0 1
-0.447454 1.216922 -28.720987 28.750239 -1.218447 3.096479 0.003629 -0.001764 -413693.000000 0 0 1
-0.428854 2.607822 -28.951877 29.072252 -1.407806 3.050561 0.003744 -0.002940 -227102.000000 0 0 1
-1.706054 3.415822 -28.706477 28.959287 -1.107584 3.009361 -0.001422 -0.000348 -169238.000000 0 0 1
-2.710754 3.345522 -29.712467 30.022848 -0.889828 2.997676 -0.005193 -0.003300 -133755.000000 0 0 1
-3.767954 4.159322 -29.306777 29.839314 -0.834728 2.952383 0.000758 -0.004053 -113605.000000 0 0 1
-4.879154 4.258822 -30.412077 31.094021 -0.717617 2.931772 0.003048 -0.003702 344894.000000 0 0 1
-4.379354 5.045222 -31.483577 32.184603 -0.855933 2.932495 0.004662 0.000024 -466836.000000 0 0 1
-5.322654 5.273622 -32.423777 33.278267 -0.780771 2.914490 0.006680 -0.005410 -1525320.000000 0 0 1
-4.699854 6.014722 -33.636197 34.491438 -0.907505 2.918439 0.006165 0.000302 106478.000000 0 0 1
-4.036554 5.235722 -34.602782 35.228669 -0.914013 2.952811 0.010795 0.000268 -166725.000000 0 0 1
-2.950054 4.466522 -34.203609 34.619930 -0.987088 2.986353 0.004284 -0.002230 -1263810.000000 0 0 1
-2.187554 3.800822 34.065376 34.346492 -1.048551 0.128030 0.004845 0.002202 -459847.000000 0 0 1
-2.945154 2.758722 33.494590 33.736806 -0.752725 0.119901 0.008828 -0.003909 -9304.580000 0 0 1
-2.533054 2.161322 32.242323 32.413810 -0.706376 0.102910 0.013297 -0.008293 -144301.000000 0 0 1
-2.337854 3.084022 30.946983 31.188019 -0.922161 0.124406 0.011864 -0.008088 -19365.300000 0 0 1
-3.575754 3.714822 30.673233 31.103588 -0.804471 0.166542 0.013248 -0.006106 278825.000000 0 0 1
-3.474954 4.496522 29.469653 30.012572 -0.912856 0.190497 0.009018 -0.010067 -722659.000000 0 0 1
-4.650654 5.395222 29.344783 30.196909 -0.859380 0.238129 0.009987 -0.004112 -726056.000000 0 0 1
-4.572854 6.020822 28.085413 29.085249 -0.921239 0.262963 0.009933 0.001071 -779659.000000 0 0 1
-5.639254 6.874422 27.886933 29.270120 -0.883785 0.308651 0.003000 0.001931 -895346.000000 0 0 1
-5.639154 7.599722 26.582083 28.216360 -0.932421 0.342016 0.004304 0.002772 123203.000000 0 0 1
-4.816154 8.767122 26.533683 28.356553 -1.068458 0.360513 0.004287 0.002558 30161.900000 0 0 1
-4.807354 9.323222 25.253343 27.345282 -1.094721 0.393692 0.003616 0.000296 -97111.100000 0 0 1
-4.224554 10.750322 25.317983 27.828341 -1.196365 0.428015 0.005428 -0.003210 -570472.000000 0 0 1
-4.203654 11.480822 24.143133 27.062351 -1.219811 0.468758 0.005594 -0.003897 255991.000000 0 0 1
-3.754754 12.833622 24.420973 27.842126 -1.286168 0.500957 0.002875 -0.003365 -426093.000000 0 0 1
-2.233654 13.031722 24.518673 27.856423 -1.401045 0.494555 0.003921 -0.005107 -587646.000000 0 0 1
-1.545854 12.384222 25.616493 28.494970 -1.446614 0.453354 0.006697 -0.003862 179192.000000 0 0 1
-1.679854 13.176422 26.796123 29.907728 -1.443991 0.460209 0.005017 -0.006923 -590813.000000 0 0 1
-0.881054 12.627722 28.001003 30.729331 -1.501138 0.424574 0.003599 -0.004544 -71717.800000 0 0 1
0.505146 12.760022 27.800103 30.592794 1.531229 0.430603 0.002077 -0.000932 -441949.000000 0 0 1
1.177246 12.375422 28.976803 31.530812 1.475954 0.405261 -0.000439 -0.007436 378496.000000 0 0 1
2.663946 12.827722 29.071503 31.887291 1.366036 0.423404 -0.001912 -0.004685 414328.000000 0 0 1
2.888046 14.161622 29.222043 32.600923 1.369620 0.459315 -0.004426 -0.005932 164289.000000 0 0 1
4.227646 14.514822 28.928773 32.640879 1.287373 0.481558 -0.000840 -0.008337 -65899.700000 0 0 1
4.538846 16.022722 29.132343 33.556254 1.294753 0.519305 -0.004181 -0.005080 -637754.000000 0 0 1
4.416846 16.445622 30.476863 34.911405 1.308415 0.509523 -0.003700 -0.001431 1706000.000000 0 0 1
3.172546 17.143822 30.883103 35.464655 1.387812 0.513941 -0.006432 -0.002513 1379840.000000 0 0 1
2.849546 18.430322 30.119593 35.425790 1.417399 0.554400 0.001671 0.003668 -393463.000000 0 0 1
3.708946 19.509322 30.436733 36.342326 1.382927 0.578103 0.007987 0.002994 -542734.000000 0 0 1
4.626846 19.814422 29.455523 35.800096 1.341398 0.604515 0.002930 0.000836 -862553.000000 0 0 1
5.801046 20.533622 30.118993 36.911184 1.295457 0.616364 0.005285 0.001139 -510932.000000 0 0 1
5.550546 21.827822 30.553623 37.957690 1.321786 0.635224 0.007144 -0.000282 -652299.000000 0 0 1
6.678946 22.232022 31.240933 38.921293 1.278954 0.639039 0.003679 -0.003893 -867986.000000 0 0 1
6.977246 23.733322 31.078123 39.721559 1.284867 0.672287 0.006404 -0.002376 -269835.000000 0 0 1
7.573146 23.894622 29.792593 38.934613 1.263872 0.699451 -0.000405 -0.000889 82784.600000 0 0 1
7.755046 25.216222 29.362753 39.473660 1.272435 0.731974 -0.002424 0.000406 265597.000000 0 0 1
8.423646 25.336022 27.916703 38.629188 1.249817 0.763118 -0.001028 -0.001964 131878.000000 0 0 1
7.635546 24.671022 26.955673 37.330540 1.270652 0.763991 0.002924 -0.004809 144665.000000 0 0 1
7.945246 24.953722 25.599073 36.621411 1.262546 0.796771 0.005775 -0.004295 -305204.000000 0 0 1
27.913245 2.005922 6.853493 28.812208 0.071739 1.330626 -0.003677 0.008455 -133716.000000 0 0 1
28.119095 2.872122 7.933293 29.357618 0.101788 1.297165 -0.005277 0.005008 484381.000000 0 0 1
27.199925 2.698322 9.032493 28.787198 0.098880 1.251638 -0.002778 0.006524 -195897.000000 0 0 1
27.461175 3.559622 10.221793 29.517318 0.128905 1.217174 -0.006765 0.004971 -209014.000000 0 0 1
27.267785 4.925622 9.997793 29.457592 0.178712 1.224521 -0.005939 0.004816 227838.000000 0 0 1
28.430465 5.631122 9.577693 30.524303 0.195536 1.251633 -0.004288 0.001776 -134399.000000 0 0 1
28.308915 7.203622 9.479693 30.710770 0.249176 1.256995 -0.006755 -0.002073 -71745.600000 0 0 1
27.426005 7.720522 8.483893 29.728247 0.274403 1.281392 -0.000659 0.001041 80809.500000 0 0 1
27.706325 9.067722 8.200293 30.283805 0.316293 1.296592 0.001474 -0.007321 -12275.700000 0 0 1
27.431085 9.430622 6.707193 29.772260 0.331135 1.343563 0.003996 -0.007132 -1403200.000000 0 0 1
26.230155 10.076422 6.608193 28.865611 0.366772 1.339818 0.002399 -0.000052 -1042070.000000 0 0 1
26.069085 10.696022 5.329593 28.677633 0.389350 1.383865 -0.004198 -0.004740 199883.000000 0 0 1
24.545765 10.878222 5.087193 27.325992 0.417169 1.383537 -0.008059 -0.004671 623748.000000 0 0 1
23.905075 12.020022 5.670893 27.351281 0.465903 1.361946 -0.008193 -0.001962 95471.500000 0 0 1
22.503775 12.001622 5.492493 26.088815 0.489944 1.358679 -0.005126 -0.001174 320537.000000 0 0 1
21.818275 13.193822 6.233293 26.248200 0.543879 1.331031 -0.000502 0.004872 -304515.000000 0 0 1
21.968175 14.371022 5.477493 26.816598 0.579304 1.365091 -0.001786 0.006641 272592.000000 0 0 1
21.553575 15.477222 6.216593 27.253385 0.622758 1.340667 -0.002378 -0.001103 -312761.000000 0 0 1
21.283175 16.616822 5.217793 27.501230 0.662892 1.379910 0.006576 -0.003979 -429133.000000 0 0 1
20.174475 16.457422 4.378193 26.401226 0.684274 1.404194 0.013386 -0.003450 -54808.100000 0 0 1
20.116275 17.541922 3.417193 26.908377 0.717143 1.443459 0.006929 -0.004446 177808.000000 0 0 1
18.679175 17.737622 2.850893 25.916450 0.759549 1.460570 0.011140 0.001668 182451.000000 0 0 1
17.777075 18.268522 3.772293 25.768071 0.799031 1.423874 0.006736 -0.001030 -1668590.000000 0 0 1
16.520875 18.322322 3.274693 24.887153 0.837054 1.438832 0.009679 -0.003748 -1148780.000000 0 1 0
15.565275 19.265022 4.139093 25.110773 0.891223 1.405207 0.005508 -0.009431 540337.000000 0 0 1
14.185475 19.126322 3.862693 24.123936 0.932646 1.409985 0.006607 -0.010384 166496.000000 0 1 0
13.509275 20.324022 4.196493 24.762410 0.984160 1.400504 0.004298 -0.013964 -648407.000000 0 1 0
12.002275 20.266722 4.027993 23.896011 1.036120 1.401424 0.001213 -0.006897 -569728.000000 0 1 0
11.380775 19.467022 5.025093 23.102782 1.041764 1.351533 -0.001862 -0.006975 622161.000000 0 1 0
10.043375 19.109422 4.635993 22.080123 1.086901 1.359260 0.001717 -0.009061 690073.000000 0 1 0
9.224775 18.518422 5.790693 21.483960 1.108637 1.297886 0.003607 -0.007706 -784487.000000 0 1 0
8.871275 19.573122 6.661093 22.498373 1.145253 1.270221 0.001299 -0.006616 -513056.000000 0 1 0
8.409775 18.987222 7.818893 22.189502 1.153848 1.210695 0.002125 -0.000449 140314.000000 0 1 0
7.413075 19.988422 8.611993 22.992545 1.215653 1.186879 -0.000898 0.000799 975793.000000 0 1 0
6.216275 20.209122 7.884393 22.565778 1.272384 1.213870 -0.004197 -0.001920 -45369.700000 0 1 0
6.278375 21.351122 7.048993 23.344736 1.284804 1.264057 -0.006162 0.001717 -393696.000000 0 1 0
5.005875 21.664422 6.234093 23.092637 1.343717 1.297445 -0.009332 0.004257 1983040.000000 0 1 0
3.669875 21.821422 6.852393 23.164579 1.404178 1.270489 -0.020878 0.002228 1889760.000000 0 1 0
3.472575 22.870022 7.745693 24.394516 1.420108 1.247686 -0.015412 0.002927 -351899.000000 0 1 0
3.622075 24.285322 7.132793 25.568985 1.422741 1.288083 -0.008190 0.005569 -241300.000000 0 0 1
2.606575 24.434522 6.164293 25.334534 1.464522 1.325013 -0.005497 0.003221 101393.000000 0 0 1
2.665075 25.617822 5.381693 26.312317 1.467137 1.364811 -0.005320 0.000378 -7673.620000 0 0 1
1.415875 25.690622 4.455893 26.112597 1.515740 1.399316 -0.009023 -0.001041 243087.000000 0 0 1
0.262975 26.043922 5.209993 26.561232 1.560699 1.373366 -0.008662 0.003449 -361895.000000 0 0 1
-0.776225 26.261522 4.298193 26.622256 -1.541247 1.408635 -0.008549 0.001518 -360349.000000 0 0 1
-2.057025 26.870622 4.906093 27.392178 -1.494392 1.390719 -0.007232 0.006928 445092.000000 0 0 1
-2.953525 27.321022 3.850093 27.748599 -1.463110 1.431598 -0.002059 0.003443 447949.000000 0 0 1
-3.927825 28.189722 4.350993 28.792696 -1.432352 1.419101 -0.007600 0.003845 -481523.000000 0 0 1
-4.876825 28.827522 3.346193 29.427987 -1.403211 1.456842 -0.012782 0.004573 -212391.000000 0 0 1
-4.291125 29.830522 2.569193 30.246893 -1.427926 1.485753 -0.005583 0.004378 228411.000000 0 0 1
-5.195825 30.266122 1.577593 30.749366 -1.400782 1.519469 0.002960 0.003182 -245224.000000 0 0 1
-4.529125 31.324122 0.637693 31.656283 -1.427202 1.550651 0.004894 0.007158 -225050.000000 0 0 1
-4.264125 32.628522 1.114993 32.924860 -1.440846 1.536925 0.003423 0.010356 292433.000000 0 0 1
-3.076025 32.601822 1.901393 32.801768 -1.476723 1.512798 -0.004241 0.000793 -543807.000000 0 0 1
-2.231025 33.865922 1.889993 33.991914 -1.505013 1.515166 -0.003437 0.000132 -1442310.000000 0 0 1
-1.551325 34.136822 0.701593 34.179255 -1.525383 1.550268 -0.007959 0.000772 320354.000000 0 0 1
-0.643225 -34.211889 0.787793 34.227003 1.551997 1.547778 -0.002078 0.002348 897543.000000 0 0 1
0.610775 -34.444289 1.707693 34.492004 -1.553066 1.521266 -0.000354 0.002301 -986620.000000 0 0 1
0.421375 -34.572189 3.108593 34.714221 -1.558609 1.481128 -0.000897 0.002149 -231496.000000 0 0 1
1.599075 34.726222 3.860093 34.976676 1.524781 1.460209 -0.003747 0.000795 -70621.000000 0 0 1
1.287675 -34.509289 5.354793 34.946000 -1.533500 1.416960 -0.003949 -0.004253 620476.000000 0 0 1
0.281575 33.998922 5.753093 34.483388 1.562515 1.403176 -0.005778 -0.001112 733947.000000 0 0 1
-0.481225 34.359122 6.897293 35.047874 -1.556792 1.372707 -0.011107 -0.002043 418688.000000 0 0 1
0.354775 34.237522 8.246793 35.218509 1.560435 1.334441 -0.000555 -0.001139 454245.000000 0 0 1
0.605075 32.893322 8.501893 33.979684 1.552403 1.317904 -0.005151 -0.000903 -560633.000000 0 0 1
1.898175 32.812422 9.035793 34.086708 1.513011 1.302507 -0.000007 0.001646 -369851.000000 0 0 1
2.412375 31.361722 9.100493 32.744406 1.494027 1.289163 -0.000710 0.001656 -241457.000000 0 0 1
1.857475 30.486422 10.079093 32.163026 1.509944 1.252051 -0.004777 0.003014 131652.000000 0 0 1
2.527075 29.240822 10.005193 31.008316 1.484588 1.242256 -0.006447 0.006073 -162073.000000 0 0 1
2.295975 28.223922 11.151493 30.433814 1.489627 1.195640 -0.006630 0.008589 -237654.000000 0 0 1
2.694275 28.824122 12.334493 31.467902 1.477594 1.168024 -0.009068 0.006172 -193415.000000 0 0 1
2.705575 27.965022 13.511393 31.175637 1.474348 1.122539 -0.010038 0.003324 226168.000000 0 0 1
1.337475 27.475122 14.164293 30.940238 1.522155 1.095283 -0.006012 0.007582 746186.000000 0 0 1
0.568175 28.462822 14.775493 32.074448 1.550837 1.092055 0.001705 0.006067 -20834.900000 0 0 1
0.092275 29.580722 14.007393 32.729721 1.567677 1.128549 0.001433 0.005911 -701234.000000 0 0 1
-0.655725 30.561122 14.952993 34.029460 -1.549343 1.115851 0.002915 0.004641 -333404.000000 0 0 1
-1.970425 30.229722 15.293093 33.935193 -1.505707 1.103296 0.002384 0.007135 -398009.000000 0 0 1
-2.559425 31.325922 15.990293 35.264054 -1.489274 1.100170 0.004855 0.001368 21563.900000 0 0 1
-3.883825 30.863322 16.654493 35.284570 -1.445615 1.079233 0.000801 -0.003023 -176710.000000 0 0 1
-4.876325 30.613322 15.692193 34.744768 -1.412836 1.102192 0.007406 0.002142 -350555.000000 0 0 1
-5.850225 29.815622 16.296693 34.478669 -1.377044 1.078489 0.004787 -0.001683 -633288.000000 0 0 1
-6.975125 29.346422 15.338893 33.840013 -1.337444 1.100358 -0.003559 0.000464 363591.000000 0 0 1
-8.155225 28.977022 16.048893 34.113669 -1.296455 1.080992 -0.009494 0.003396 -459040.000000 0 0 1
-9.142725 28.592422 15.148193 33.624154 -1.261311 1.103454 -0.003308 -0.000330 -451453.000000 0 0 1
-10.412825 28.156222 15.922493 33.981253 -1.216572 1.083128 -0.006707 0.001313 -78127.200000 0 0 1
-11.186325 29.195522 16.486593 35.345723 -1.204898 1.085537 -0.007988 -0.000858 72781.600000 0 0 1
-10.652025 29.655422 17.701193 36.141969 -1.225955 1.058972 -0.008735 -0.000326 -515974.000000 0 0 1
-11.391825 30.783322 18.484093 37.670257 -1.216359 1.057925 -0.006188 0.003473 -967899.000000 0 0 1
-12.627925 30.450422 18.980693 38.038919 -1.177678 1.048374 -0.008553 0.006390 -840859.000000 0 0 1
-13.371325 31.586122 19.330793 39.372007 -1.170342 1.057584 -0.001253 0.001267 555686.000000 0 0 1
-14.393625 31.306322 20.490893 40.089137 -1.139850 1.034294 0.008150 0.001456 611846.000000 0 0 1
-13.697825 31.113722 21.698493 40.330121 -1.156080 1.002708 0.011506 -0.001057 226385.000000 0 0 1
-14.599525 30.672722 22.710393 40.862256 -1.126551 0.981496 0.010359 -0.002100 88529.000000 0 0 1
-13.988325 30.501622 24.119793 41.325374 -1.140806 0.947573 0.005954 -0.010262 -742424.000000 0 0 1
-13.001125 29.479122 24.232693 40.314653 -1.155428 0.925933 0.001735 -0.007815 456051.000000 0 0 1
-12.677525 29.230422 25.587193 40.863696 -1.161571 0.894179 0.006886 -0.010423 -48691.500000 0 0 1
-12.024625 30.414022 26.402693 42.032208 -1.194292 0.891618 0.002506 -0.014361 -747637.000000 0 0 1
-12.967725 31.441922 26.607093 43.182100 -1.179617 0.906938 0.004406 -0.004123 639696.000000 0 0 1
-12.322925 32.552322 27.234593 44.195375 -1.208910 0.906847 0.002900 -0.000918 604379.000000 0 0 1
-13.490725 33.462322 27.736193 45.508494 -1.187567 0.915401 0.007854 -0.001055 423746.000000 0 0 1
-14.149725 32.992222 28.876093 46.070925 -1.165643 0.893389 0.000988 -0.000445 -79174.200000 0 0 1
-13.459725 33.291522 30.087793 46.848318 -1.186590 0.873381 0.005628 0.004343 -176896.000000 0 0 1
-14.082125 32.612622 31.361393 47.385929 -1.163180 0.847540 0.001424 0.005682 11262.200000 0 0 1
-15.304125 33.221522 31.751793 48.436165 -1.139106 0.855900 -0.000091 0.007093 -15386.300000 0 0 1
-15.748225 32.783222 33.008893 49.115509 -1.122972 0.833800 -0.001680 0.009921 -145608.000000 0 0 1
-17.215425 32.970822 33.395893 49.987314 -1.089593 0.839161 -0.011789 0.004528 -146599.000000 0 0 1
-17.599025 34.273322 33.668693 51.166074 -1.096415 0.852600 -0.007866 0.002629 -208260.000000 0 0 1
-18.986825 34.416522 33.911093 51.912992 -1.066666 0.858955 -0.010588 -0.002561 68338.600000 0 0 1
-19.403225 -33.552889 33.880393 51.479729 1.046495 0.852463 -0.009340 0.001338 -325054.000000 0 0 1
-19.183325 -32.732289 -34.425648 51.230147 1.040684 2.307676 -0.004706 0.004872 -181733.000000 0 0 1
-19.959125 -33.062889 -33.303448 50.996480 1.027682 2.282406 -0.005029 0.003102 -358970.000000 0 0 1
-19.623625 -32.309289 -32.070748 49.573276 1.024977 2.274356 -0.004804 0.001338 -234335.000000 0 0 1
-19.793025 -30.917289 -32.162748 48.806608 1.001346 2.290263 -0.006426 0.002083 499742.000000 0 0 1
-19.145325 -30.281589 -31.017548 47.387829 1.007005 2.284379 -0.004200 -0.000213 54259.300000 0 0 1
-19.425725 -28.779689 -31.141748 46.641588 0.977060 2.301887 -0.004500 0.000471 -232517.000000 0 0 1
-20.769025 -28.468289 -30.872248 46.849670 0.940513 2.290237 0.003088 0.001871 -244597.000000 0 0 1
-21.027125 -27.029189 -31.020348 46.205833 0.909651 2.306827 -0.000368 -0.000010 -205543.000000 0 0 1
-22.184125 -26.494289 -30.198048 45.891228 0.873711 2.289003 0.005823 0.000657 -600033.000000 0 0 1
-21.986225 -26.654189 -28.789748 44.974320 0.881074 2.265474 0.005382 -0.001160 570614.000000 0 0 1
-21.092325 -25.654889 -28.201848 43.570675 0.882691 2.274790 0.004858 -0.003497 544325.000000 0 0 1
-20.883725 -25.851589 -26.644548 42.595382 0.891298 2.246603 0.004157 -0.007249 -1333510.000000 0 0 1
-22.040025 -25.788289 -25.941448 42.705471 0.863607 2.223643 0.005325 -0.011004 -1397540.000000 0 0 1
-21.870425 -26.017489 -24.524648 41.912809 0.871782 2.195843 0.006058 -0.006055 -736623.000000 0 0 1
-23.160425 -25.793289 -23.718548 42.003197 0.839129 2.170847 0.001814 -0.006138 332065.000000 0 0 1
-24.254525 -26.676389 -23.921148 43.268153 0.832914 2.156587 0.001484 -0.004291 156489.000000 0 0 1
-24.023125 -27.962189 -23.431148 43.680811 0.861026 2.136983 0.003392 0.000414 -1317040.000000 0 0 1
-25.265725 -28.877589 -23.393748 44.939286 0.852009 2.118307 -0.001600 0.001806 -26970.900000 0 0 1
-26.160325 -28.559389 -22.358848 44.720458 0.829213 2.094359 -0.006205 0.001949 -1256630.000000 0 0 1
-27.325525 -28.069789 -22.911748 45.382216 0.798833 2.100018 -0.003267 -0.000197 -1296360.000000 0 0 1
-28.098825 -27.366589 -21.813348 44.880912 0.772197 2.078335 0.000972 0.000833 -707013.000000 0 0 1
-28.512125 -28.242889 -20.778248 45.192230 0.780654 2.048538 -0.005892 0.003066 81716.200000 0 0 1
-28.948725 -27.549889 -19.627448 44.522598 0.760644 2.027333 -0.006480 0.003898 -651920.000000 0 0 1
-29.595325 -28.515489 -18.628448 45.122449 0.766818 1.996369 -0.007033 0.004589 225689.000000 0 0 1
-30.924425 -29.009489 -18.815848 46.388648 0.753458 1.988446 -0.004250 0.003440 898190.000000 0 0 1
-32.023425 -28.125689 -18.645448 46.521037 0.720687 1.983182 0.000903 0.003373 12245.000000 0 0 1
-32.314825 -27.720589 -17.168348 45.906766 0.709022 1.954096 0.000638 0.004497 -785073.000000 0 0 1
-31.478425 -26.722489 -16.613048 44.508157 0.703863 1.953315 -0.000160 0.000732 29392.300000 0 0 1
-31.879425 -26.185189 -15.357348 44.020563 0.687644 1.927159 0.002145 -0.001452 -86203.000000 0 0 1
-31.888625 -27.160389 -14.145048 44.211464 0.705496 1.896463 0.009590 -0.001787 -346626.000000 0 0 1
-32.784925 -28.209689 -14.240948 45.535068 0.710528 1.888880 0.016430 0.000393 -427822.000000 0 0 1
-32.655025 -29.073989 -13.084448 45.638254 0.727451 1.861576 0.005408 -0.007497 -121323.000000 0 0 1
-33.500325 -30.351589 -12.888648 47.006467 0.736125 1.848542 0.010097 -0.003317 -1068.170000 0 0 1
-33.099025 -31.308689 -13.865248 47.623781 0.757608 1.866216 0.009460 -0.005094 287273.000000 0 0 1
-33.542325 -32.573589 -13.429948 48.646580 0.770747 1.850501 0.007731 -0.006518 -316133.000000 0 0 1
-33.013425 -33.778989 -14.224148 49.327809 0.796860 1.863310 0.001409 0.005946 189090.000000 0 0 1
-31.599725 -33.898989 -14.065848 48.430694 0.820488 1.865475 -0.000606 -0.000667 470338.000000 0 0 1
-31.199725 34.471322 -14.847548 48.807218 -0.835175 1.879903 -0.003736 -0.004146 123042.000000 0 0 1
-29.667725 34.253222 -14.958648 47.720208 -0.857012 1.889637 -0.004945 -0.003327 329695.000000 0 0 1
-29.433425 33.457222 -16.069248 47.370169 -0.849292 1.916892 -0.000399 -0.003693 -810595.000000 0 0 1
-28.064525 33.389322 -16.315448 46.568855 -0.871829 1.928742 0.000481 -0.001363 -619083.000000 0 0 1
8.782946 20.069922 -8.862907 23.632457 1.158287 1.955227 -0.007316 -0.008228 81587.300000 0 1 0
7.376046 20.357422 -8.946307 23.427913 1.223182 1.962610 -0.007952 -0.003050 825290.000000 0 1 0
6.892546 20.575922 -10.246007 23.997008 1.247563 2.011936 -0.001581 -0.002381 -98534.600000 0 1 0
6.855046 19.345322 -11.141207 23.352936 1.230250 2.068125 -0.003809 0.002446 -754671.000000 0 1 0
8.146246 18.991022 -11.576607 23.686242 1.165583 2.081451 -0.002774 0.008889 -233345.000000 0 1 0
8.038246 17.771622 -12.394007 23.109638 1.146025 2.136859 0.000569 -0.000383 96936.000000 0 1 0
9.321446 17.334222 -13.155807 23.673611 1.077408 2.160020 0.004370 0.005626 178374.000000 0 1 0
9.195746 16.096322 -13.831407 23.129227 1.051751 2.211807 0.006359 -0.010704 414297.000000 0 1 0
10.374046 15.834822 -14.608207 23.911548 0.990815 2.228027 0.011394 -0.005914 -42673.400000 0 1 0
10.199146 14.794322 -15.716507 23.872644 0.967223 2.289418 0.011670 0.002905 -699628.000000 0 1 0
10.137446 13.468322 -15.204807 22.701314 0.925577 2.304704 0.014845 0.003666 419546.000000 0 1 0
11.273146 12.918322 -14.527907 22.472805 0.853300 2.273740 0.017767 0.000668 194449.000000 0 1 0
12.195646 12.120522 -15.513407 23.158295 0.782309 2.304851 0.010451 0.002524 302090.000000 0 1 0
12.888546 12.911322 -16.506107 24.602204 0.786281 2.306245 0.007700 0.001099 640914.000000 0 1 0
13.788546 12.220922 -17.374807 25.325064 0.725200 2.326872 0.006858 0.004455 219213.000000 0 0 1
14.291446 13.176122 -18.461907 26.808537 0.744815 2.330433 0.000827 0.002915 19067.400000 0 0 1
15.145246 14.183822 -17.921307 27.417741 0.752629 2.283179 -0.004031 0.000309 72347.200000 0 0 1
15.907846 14.735022 -18.993607 28.825987 0.747143 2.290159 -0.005700 -0.002967 649077.000000 0 0 1
17.157546 15.594122 -18.571207 29.706022 0.737699 2.246141 -0.001683 -0.005447 89890.000000 0 0 1
16.951146 16.891122 -18.100207 30.004480 0.783625 2.218366 -0.003451 -0.006595 -313549.000000 0 0 1
16.355446 17.796422 -18.960207 30.719744 0.827566 2.235975 -0.002798 -0.002978 -405653.000000 0 0 1
16.143646 19.233022 -18.467507 31.170102 0.872505 2.204924 -0.003900 -0.002924 -737149.000000 0 0 1
17.155746 20.097522 -18.800207 32.429582 0.864202 2.189186 -0.003835 0.001624 -766120.000000 0 0 1
16.938646 21.413322 -18.247407 32.839244 0.901547 2.159951 -0.011458 0.003968 -362667.000000 0 0 1
18.142446 22.320022 -18.518807 34.209325 0.888279 2.142824 -0.002160 0.009107 609475.000000 0 0 1
19.236446 22.290622 -17.582007 34.293434 0.858813 2.109115 -0.004052 0.003174 93020.700000 0 0 1
19.009246 23.206922 -16.522607 34.247762 0.884505 2.074238 -0.007599 0.001265 -554018.000000 0 0 1
20.174046 23.450022 -15.558807 34.626177 0.860353 2.036819 -0.006737 -0.004716 -966491.000000 0 0 1
20.594346 22.380122 -14.786707 33.817801 0.826929 2.023331 0.001153 -0.006829 151863.000000 0 0 1
21.462746 22.872422 -13.741607 34.243670 0.817183 1.983720 -0.004310 -0.005837 424012.000000 0 0 1
22.963346 22.986022 -14.096507 35.417283 0.785892 1.980145 -0.003749 -0.004354 -495650.000000 0 0 1
23.247446 23.745722 -15.272107 36.572398 0.796001 2.001583 0.002657 -0.001497 -1030730.000000 0 0 1
24.513946 24.281222 -15.250507 37.723855 0.780629 1.986974 -0.000023 -0.001950 -1294590.000000 0 0 1
25.035246 24.914022 -16.515407 38.990136 0.782971 2.008189 0.009225 -0.001099 -552088.000000 0 0 1
25.399846 23.884222 -17.456807 38.991645 0.754655 2.034995 0.002701 -0.001644 186496.000000 0 0 1
25.559446 24.391022 -18.754307 39.999141 0.762011 2.058805 0.004189 -0.001372 -489297.000000 0 0 1
25.920946 23.377222 -19.889307 40.174301 0.733845 2.088718 0.001336 -0.005291 307703.000000 0 0 1
27.325546 23.292522 -20.094707 41.146376 0.705891 2.081019 -0.004679 -0.007892 89409.100000 0 0 1
27.624446 22.298922 -21.081407 41.288953 0.679126 2.106658 -0.008367 0.001674 972921.000000 0 0 1
29.151546 22.208322 -21.450407 42.463421 0.651025 2.100352 -0.000836 0.005297 890901.000000 0 0 1
29.648946 23.336422 -22.136907 43.745757 0.666820 2.101378 -0.001670 -0.000623 302690.000000 0 0 1
31.071546 23.418422 -22.147507 44.770253 0.645861 2.088277 -0.009182 0.004170 575233.000000 0 0 1
31.562446 24.817922 -22.652907 46.100666 0.666339 2.084469 -0.003502 0.001124 -128930.000000 0 0 1
31.638046 25.073122 -24.102007 47.016318 0.670150 2.109042 -0.002154 0.000607 631534.000000 0 0 1
30.349046 25.071622 -24.735207 46.491733 0.690460 2.131798 -0.008171 0.001807 231394.000000 0 0 1
30.254546 25.706122 -26.109147 47.516627 0.704297 2.152531 0.002118 0.001064 -565778.000000 0 0 1
30.127646 27.155322 -26.134167 48.250194 0.733556 2.143182 0.007857 -0.002475 824575.000000 0 0 1
28.873446 27.723422 -26.613807 48.068272 0.765081 2.157557 0.005613 0.003935 1057540.000000 0 0 1
28.536946 27.480422 -28.114677 48.579481 0.766540 2.187974 0.008557 0.006078 -434211.000000 0 0 1
28.278446 26.142022 -28.377757 47.836941 0.746161 2.205847 -0.001320 0.002959 -167634.000000 0 0 1
28.233646 25.868322 -29.741187 48.485534 0.741706 2.231159 -0.001137 -0.000776 -160743.000000 0 0 1
27.752346 24.422822 -29.946277 47.575692 0.721670 2.251635 -0.008089 0.003046 567511.000000 0 0 1
26.400546 24.297222 -29.511927 46.457482 0.743934 2.259123 -0.006706 0.005295 368331.000000 0 0 1
25.756146 23.055622 -29.796877 45.637645 0.730129 2.282205 -0.004055 0.004851 939401.000000 0 0 1
24.280446 23.086222 -29.246847 44.473495 0.760191 2.288457 -0.008719 0.002900 735181.000000 0 0 1
24.215946 23.161622 -27.852457 43.573296 0.763148 2.264266 0.000677 0.008014 -95099.800000 0 0 1
22.885846 23.253822 -27.404987 42.609101 0.793373 2.269430 0.000979 0.004076 -355760.000000 0 0 1
22.834546 23.511122 -25.860577 41.748758 0.799996 2.238817 0.001551 0.008689 -335142.000000 0 0 1
23.366446 22.374822 -25.215927 41.017879 0.763723 2.232871 -0.007026 0.004401 260071.000000 0 0 1
23.544146 22.735322 -23.856707 40.501409 0.767923 2.200659 -0.000744 0.007991 -183976.000000 0 0 1
23.909746 21.507922 -22.973907 39.522994 0.732564 2.191097 0.011992 0.002500 1250970.000000 0 0 1
25.150446 20.787622 -23.242107 40.060775 0.690710 2.189735 -0.004248 0.006402 1080000.000000 0 0 1
25.124046 19.468922 -22.663107 39.036816 0.659255 2.190209 0.005842 0.003207 254391.000000 0 0 1
26.367046 18.652922 -23.152107 39.738806 0.615697 2.192729 0.004098 0.007805 -397359.000000 0 0 1
27.522546 19.088522 -22.521907 40.362092 0.606390 2.162766 0.001584 0.003068 -1397760.000000 0 0 1
28.527646 18.258022 -22.994807 40.938284 0.569321 2.167229 -0.007979 0.007141 1013430.000000 0 0 1
29.861746 18.299822 -22.081907 41.403115 0.549791 2.133340 -0.010096 0.008386 1649990.000000 0 0 1
30.599746 19.504322 -22.014107 42.442714 0.567468 2.116100 -0.009651 0.006060 165495.000000 0 0 1
31.912546 19.328022 -21.515607 43.068601 0.544568 2.093894 -0.011363 0.004654 244156.000000 0 0 1
32.309446 20.259722 -20.383907 43.241881 0.560074 2.061666 0.000453 0.004437 -317396.000000 0 0 1
31.403446 20.106022 -19.327307 41.999683 0.569490 2.048991 -0.002544 0.003135 158929.000000 0 0 1
31.478746 21.133622 -18.388007 42.138584 0.591246 2.022356 -0.006501 0.008058 -133872.000000 0 0 1
30.814546 20.891422 -17.049307 40.947120 0.595789 2.000250 -0.000785 -0.000905 -303005.000000 0 0 1
31.538046 19.934822 -16.321207 40.723792 0.563680 1.983162 -0.000412 -0.002064 316489.000000 0 0 1
31.179046 19.878922 -14.908607 39.869424 0.567590 1.954045 0.003936 -0.006266 -84551.800000 0 0 1
31.694846 18.559522 -14.214907 39.383787 0.529741 1.940064 -0.000704 -0.003401 -469261.000000 0 0 1
33.082946 18.366522 -14.271907 40.441288 0.506801 1.931470 -0.001668 -0.001678 -30822.900000 0 0 1
33.581046 17.288522 -13.460807 40.097044 0.475441 1.913151 0.000188 0.000758 -144077.000000 0 0 1
33.464746 17.419422 -11.925807 39.567036 0.479937 1.876965 0.008644 -0.003998 -266005.000000 0 0 1
34.363746 18.405722 -11.379407 40.609464 0.491732 1.854815 0.010175 -0.005063 490200.000000 0 0 1
33.913746 18.942322 -10.130207 40.144424 0.509379 1.825898 0.005004 -0.007054 40896.800000 0 0 1
32.822046 20.049622 -10.206107 39.792445 0.548365 1.830179 0.009583 -0.005927 -48383.900000 0 0 1
31.610746 19.577722 -10.710707 38.694259 0.554517 1.851262 0.007857 -0.012127 -545210.000000 0 0 1
30.548546 20.486922 -10.420807 38.229842 0.590745 1.846873 0.002279 -0.002601 651595.000000 0 0 1
29.133346 19.880322 -10.601407 36.828914 0.598810 1.862783 -0.001134 -0.002261 237112.000000 0 0 1
29.055446 19.325422 -11.863407 36.856903 0.586933 1.898508 -0.002110 -0.006155 692580.000000 0 0 1
27.695746 19.005522 -12.209307 35.739773 0.601421 1.919433 -0.005132 -0.009383 643670.000000 0 0 1
27.581146 18.461622 -13.666807 35.893352 0.589863 1.961416 0.000710 -0.002683 -412087.000000 0 0 1
27.916346 17.089522 -13.671107 35.472148 0.549319 1.966442 0.002615 -0.001742 175258.000000 0 0 1
27.647646 16.407522 -14.891007 35.430794 0.535590 2.004555 0.008465 -0.001232 -519535.000000 0 0 1
28.916146 16.144622 -15.716407 36.657847 0.509213 2.013886 0.001031 -0.001314 -11489.200000 0 0 1
29.758746 15.175822 -15.141807 36.676462 0.471585 1.996375 -0.006321 -0.001161 657282.000000 0 0 1
31.036446 15.074422 -15.781207 37.941345 0.452143 1.999769 -0.005794 -0.003298 826592.000000 0 0 1
31.873946 13.827822 -15.326707 37.974531 0.409325 1.986250 -0.005502 0.000699 81054.200000 0 0 1
32.256946 14.034922 -13.964607 37.848380 0.410392 1.948688 -0.003815 0.002009 473202.000000 0 0 1
33.059146 12.919422 -13.505307 37.976465 0.372548 1.934377 -0.002674 0.004971 210250.000000 0 0 1
33.938146 13.136922 -12.262207 38.402320 0.369323 1.895797 0.002476 0.001576 483759.000000 0 0 1
-34.453483 13.972522 -12.507507 39.226415 -0.385279 1.895317 -0.001630 0.001782 262076.000000 0 0 1
-33.732683 14.391122 -11.368607 38.395879 -0.403244 1.871392 -0.001599 -0.001119 -815784.000000 0 0 1
-32.366183 14.972922 -11.779907 37.556949 -0.433291 1.889836 0.000636 -0.003232 -86308.700000 0 0 1
-31.443683 14.041522 -12.306907 36.569516 -0.419990 1.914031 -0.000355 0.002408 10976.000000 0 0 1
-30.801683 13.265022 -11.323307 35.396635 -0.406654 1.896418 0.004337 0.008186 -1233530.000000 0 0 1
-29.673983 12.431322 -11.892407 34.300326 -0.396718 1.924862 0.002949 0.005937 -628649.000000 0 0 1
-30.098083 11.441022 -12.859907 34.672306 -0.363256 1.950773 -0.012355 0.001969 -30743.000000 0 0 1
-29.212183 10.359322 -12.953607 33.592605 -0.340788 1.966664 -0.002889 0.005521 -525051.000000 0 0 1
-29.172283 9.534022 -14.255607 33.839947 -0.315875 2.005637 -0.003808 0.002544 -350674.000000 0 0 1
-30.294883 8.776622 -14.652507 34.777939 -0.281987 2.005692 -0.008146 0.001222 164677.000000 0 0 1
-29.977883 8.141722 -15.851407 34.874464 -0.265194 2.042638 -0.003173 0.005065 -205488.000000 0 0 1
-31.202983 7.677122 -16.660207 36.195675 -0.241246 2.049109 0.000799 0.001444 -123276.000000 0 0 1
-31.758783 6.536522 -15.996407 36.155656 -0.202983 2.029105 -0.000621 0.001325 -409488.000000 0 0 1
-32.817583 5.944522 -16.639607 37.272076 -0.179195 2.033575 -0.000005 -0.003433 45470.000000 0 0 1
-33.723383 4.961922 -15.767907 37.556812 -0.146088 2.004067 -0.005660 -0.006209 1306520.000000 0 0 1
34.655746 4.304222 -16.332707 38.552618 0.123567 2.008264 -0.003503 -0.006340 765882.000000 0 0 1
33.701546 3.976222 -15.342507 37.242409 0.117440 1.995404 -0.002147 -0.007030 -14316.600000 0 0 1
32.836546 2.801522 -15.757207 36.529123 0.085111 2.016796 -0.000491 -0.009208 -605264.000000 0 0 1
33.623546 1.625522 -15.795107 37.184279 0.048307 2.009514 -0.000754 -0.007861 130249.000000 0 0 1
32.847346 0.457322 -15.910607 36.500749 0.013922 2.021832 0.001069 -0.001627 123031.000000 0 0 1
32.111146 0.045722 -14.573307 35.263424 0.001424 1.996838 -0.003441 -0.005162 62551.600000 0 0 1
33.012246 -0.472878 -13.594307 35.704862 -0.014323 1.961394 -0.005984 -0.003039 73062.800000 0 0 1
32.617646 -0.457878 -12.217307 34.833649 -0.014037 1.929150 -0.004248 -0.001337 -610903.000000 0 0 1
32.794946 0.931322 -11.529707 34.775135 0.028391 1.908743 -0.004619 -0.000871 -179648.000000 0 0 1
31.837546 1.874522 -11.962307 34.062295 0.058810 1.929637 -0.002991 -0.000658 469667.000000 0 0 1
32.239846 3.189122 -11.601507 34.411817 0.098598 1.914671 -0.008984 -0.002864 69798.500000 0 0 1
31.103646 4.171022 -11.960307 33.583972 0.133305 1.934921 -0.009493 0.003408 -11983.400000 0 0 1
31.212746 4.622422 -13.276507 34.232557 0.147025 1.969075 -0.005423 -0.006133 110321.000000 0 0 1
30.199446 5.530822 -13.567107 33.565800 0.181136 1.986894 -0.000884 -0.007657 -488340.000000 0 0 1
30.522946 6.188222 -14.875707 34.514214 0.200029 2.016400 -0.010872 -0.006854 -313451.000000 0 0 1
30.526846 5.364122 -16.039807 34.898962 0.173942 2.048349 -0.004079 -0.003564 199764.000000 0 0 1
30.932146 5.967322 -17.301707 35.941002 0.190575 2.073038 -0.005438 -0.002200 -516497.000000 0 0 1
29.866946 6.987322 -17.865507 35.496950 0.229815 2.098206 -0.004274 -0.000578 959576.000000 0 0 1
28.687146 6.449922 -18.466007 34.720992 0.221159 2.131568 -0.006134 -0.004276 628820.000000 0 0 1
27.796646 5.843622 -17.534507 33.380539 0.207210 2.123854 -0.004682 0.000066 -1332830.000000 0 0 1
26.398146 5.722822 -18.153307 32.544667 0.213485 2.162525 0.000493 0.003055 -531172.000000 0 0 1
26.356446 4.713422 -19.084207 32.879865 0.176963 2.190044 0.002786 0.000730 63435.400000 0 0 1
25.176246 4.881122 -19.828907 32.416882 0.191502 2.228985 0.012453 0.000120 -255838.000000 0 0 1
24.797846 3.764122 -20.808307 32.589683 0.150642 2.263336 0.020118 0.010511 -681537.000000 0 0 1
24.031946 2.831922 -20.178707 31.507688 0.117299 2.265864 0.026630 0.009167 -296646.000000 0 0 1
23.941746 1.616622 -20.939007 31.847491 0.067421 2.288262 0.009129 0.007538 -134386.000000 0 0 1
22.939446 0.717122 -20.122707 30.523037 0.031251 2.290634 0.005369 0.009805 -418481.000000 0 0 1
21.657046 1.239422 -20.254507 29.678424 0.057167 2.321927 0.005936 0.006762 -684910.000000 0 0 1
20.893646 0.647222 -19.204707 28.386337 0.030967 2.313861 0.004458 0.009258 846347.000000 0 0 1
19.496546 1.370122 -19.013507 27.267306 0.070160 2.342421 -0.000594 0.007070 16430.400000 0 0 1
18.651246 1.321322 -20.139607 27.481242 0.070725 2.393297 -0.003435 0.005570 391238.000000 0 0 1
17.556046 2.223022 -20.128407 26.801294 0.125954 2.420407 -0.010325 0.004875 585884.000000 0 0 1
16.413346 2.015022 -19.094707 25.259970 0.122156 2.427866 0.001916 0.000942 -938361.000000 0 0 1
16.716346 2.298022 -17.713107 24.463673 0.136615 2.380463 -0.001355 0.001554 25093.700000 0 1 0
15.628146 2.145322 -16.829807 23.066941 0.136420 2.388544 -0.007536 0.002648 222213.000000 0 1 0
14.599446 3.292722 -16.717207 22.437711 0.221826 2.411406 -0.000449 0.004577 -63362.400000 0 1 0
13.896046 3.611922 -17.891007 22.939795 0.254297 2.465321 0.006290 0.006083 243605.000000 0 1 0
12.980546 4.673622 -17.699807 22.441490 0.345598 2.479503 0.010311 -0.000067 -356824.000000 0 1 0
-18.464754 -21.964678 -17.531907 33.626805 0.871752 2.119248 0.006744 0.000615 -18091.300000 0 0 1
-18.263454 -22.323278 -18.902107 34.484376 0.885095 2.150930 0.008938 -0.001076 405240.000000 0 0 1
-19.459654 -22.395478 -19.692407 35.609360 0.855426 2.156771 0.002925 -0.001285 175777.000000 0 0 1
-19.411454 -23.029278 -21.132907 36.793369 0.870437 2.182627 0.002547 0.001818 -219560.000000 0 0 1
-19.119254 -24.378378 -21.136407 37.504652 0.905720 2.169495 0.003179 0.002765 72858.400000 0 0 1
-19.000554 -24.943578 -22.445107 38.561457 0.919823 2.192057 0.007523 -0.002187 -164262.000000 0 0 1
-18.765654 -26.429498 -22.329107 39.360604 0.953373 2.174015 0.009143 -0.002218 6328.540000 0 0 1
-19.914454 -27.136188 -21.916707 40.165909 0.937698 2.147966 0.006595 -0.004329 -74000.500000 0 0 1
-19.543954 -28.476268 -21.778507 40.830961 0.969308 2.133390 0.014159 0.003146 232843.000000 0 0 1
-20.759454 -29.425808 -21.611907 41.998901 0.956399 2.111317 0.017229 0.005587 353226.000000 0 0 1
-21.572954 -29.669638 -22.775007 43.178475 0.942109 2.126407 0.006060 0.007858 159559.000000 0 0 1
-20.926554 -30.460528 -23.753507 43.931692 0.968845 2.142056 0.009692 0.006931 -581939.000000 0 0 1
-21.309554 -30.057058 -25.227677 44.653774 0.954076 2.171183 0.007355 0.005095 -509522.000000 0 0 1
-22.661254 -30.122298 -25.593327 45.562086 0.925820 2.167265 0.006641 0.009403 -236457.000000 0 0 1
-22.935354 -29.418678 -26.776377 45.918008 0.908607 2.193378 0.006101 0.008535 -77577.400000 0 0 1
-22.404554 -29.857628 -28.204437 46.786027 0.927052 2.217851 0.004914 0.004245 -205610.000000 0 0 1
-23.019054 -30.981708 -28.769857 48.139877 0.931798 2.211339 0.003422 0.008720 68621.600000 0 0 1
-22.686354 -31.061218 -30.151247 48.872975 0.939974 2.235633 -0.000683 0.004415 -478330.000000 0 0 1
-23.375454 -32.150448 -30.963607 50.386587 0.942136 2.232575 -0.003661 0.007373 -136038.000000 0 0 1
-22.895954 -33.499798 -30.749347 50.911527 0.971254 2.219277 -0.002604 0.005446 317463.000000 0 0 1
-23.747554 -34.451163 -31.392997 52.310126 0.967280 2.214463 -0.003224 0.006400 -88739.600000 0 0 1
-23.221154 33.583853 -31.251567 51.417484 -0.965840 2.224084 0.001815 0.004560 1114830.000000 0 0 1
-22.071354 33.244303 -32.082287 51.201577 -0.984702 2.247964 -0.000805 0.004174 943886.000000 0 0 1
-21.731654 31.887323 -32.000407 50.130751 -0.972585 2.263135 0.001095 0.002805 -110057.000000 0 0 1
-20.534954 31.452533 -32.881177 49.921117 -0.992394 2.289836 0.001976 0.002520 -190689.000000 0 0 1
-20.753754 31.097843 -34.271780 50.718331 -0.982307 2.312748 0.001688 0.004572 -144409.000000 0 0 1
-19.832454 30.191753 34.624751 50.037402 -0.989598 0.806572 0.001535 0.000124 -280883.000000 0 0 1
-20.155454 29.812283 33.155123 48.931347 -0.976306 0.826323 -0.002642 0.000553 -1441.300000 0 0 1
-19.797554 30.834463 32.252323 48.815157 -1.000024 0.849041 -0.006663 0.006831 125196.000000 0 0 1
-19.729454 30.425983 30.929353 47.661480 -0.995518 0.864608 -0.002669 0.004572 -14906.200000 0 0 1
-19.227254 31.621163 30.000683 47.640594 -1.024479 0.889592 -0.005282 -0.000755 20283.000000 0 0 1
-20.112554 32.719463 30.117203 48.807008 -1.019640 0.905786 -0.006347 -0.002867 363629.000000 0 0 1
-19.527654 33.891590 29.566953 49.032376 -1.048076 0.923529 -0.007044 -0.007855 420950.000000 0 0 1
-20.504554 -34.376337 29.784733 49.892882 1.032974 0.931073 -0.003644 -0.008954 385964.000000 0 0 1
-20.604154 -33.863688 31.096753 50.381431 1.024191 0.905584 -0.012762 -0.005321 127321.000000 0 0 1
-21.556454 -32.798978 31.148873 50.106946 0.989356 0.899952 -0.009146 -0.005749 47301.600000 0 0 1
-20.970554 -31.397388 30.783613 48.715408 0.981935 0.886785 -0.014846 -0.008113 -278074.000000 0 0 1
-20.927354 -31.172468 29.346693 47.654017 0.979565 0.907359 -0.009441 -0.007564 -125084.000000 0 0 1
-20.760554 -29.787858 29.003093 46.470383 0.962122 0.896792 -0.007201 -0.008423 -365162.000000 0 0 1
-22.066754 -29.060068 28.627513 46.378483 0.921338 0.905543 -0.006819 -0.004864 -989978.000000 0 0 1
-23.081254 -29.066118 29.597543 47.472077 0.899666 0.897620 -0.003191 -0.002029 -49504.400000 0 0 1
-24.059554 -30.073508 29.480733 48.501461 0.896040 0.917469 -0.002104 -0.005635 -43607.400000 0 0 1
-25.117744 -29.810368 28.339233 48.194100 0.870623 0.942184 0.001184 -0.000613 -361792.000000 0 0 1
-24.555854 -29.850568 27.043143 47.173912 0.882410 0.960311 -0.002372 0.002451 -42866.700000 0 0 1
-25.595474 -29.850018 26.074303 47.180729 0.861982 0.985259 0.002357 0.007823 131569.000000 0 0 1
-25.140474 -29.990778 24.598543 46.223139 0.873150 1.009635 0.002606 0.003328 -132863.000000 0 0 1
-24.254954 -28.982698 24.093833 44.819777 0.873970 1.003242 -0.006700 0.005361 604660.000000 0 0 1
-23.849454 -29.226528 22.726933 44.039754 0.886363 1.028558 -0.002362 0.006744 832705.000000 0 0 1
-22.790254 -30.410078 22.443233 44.134649 0.927660 1.037334 -0.008241 0.006651 26734.900000 0 0 1
-23.270454 -31.736168 22.562533 45.362609 0.938104 1.050218 -0.005741 -0.000110 579510.000000 0 0 1
-22.322454 -32.736098 22.127733 45.382603 0.972328 1.061478 -0.006229 0.005164 567939.000000 0 0 1
-21.247754 -33.241588 23.109733 45.722314 1.002057 1.040908 -0.006027 0.002304 209138.000000 0 0 1
-20.294354 -32.298188 23.588933 44.849432 1.009796 1.016955 -0.000288 0.003022 79436.100000 0 0 1
-19.474054 -32.992898 24.490063 45.470136 1.037577 1.002026 0.001882 -0.001817 -351981.000000 0 0 1
-19.096954 -32.086028 25.662153 45.307317 1.033929 0.968663 0.001672 0.005732 -1593420.000000 0 0 1
-18.073854 -31.205678 25.379633 44.097441 1.045823 0.957538 0.004599 0.006818 -453308.000000 0 0 1
-17.565154 -30.517648 26.514043 44.077840 1.048531 0.925384 -0.001495 0.007146 -88089.900000 0 0 1
-16.720254 -31.381858 27.489703 44.945208 1.081254 0.912681 -0.003333 0.006533 -882280.000000 0 0 1
-17.391354 -32.527018 28.011673 46.315440 1.079796 0.921279 -0.004993 0.001346 -179319.000000 0 0 1
-16.715254 -33.097488 29.110463 47.140879 1.103132 0.905210 0.001790 -0.001224 -77469.000000 0 0 1
-17.042054 -32.393538 30.487423 47.636707 1.086492 0.876300 -0.001566 -0.001385 131510.000000 0 0 1
-16.665854 -31.015528 30.581953 46.636569 1.077726 0.855620 -0.002491 0.001867 142400.000000 0 0 1
-17.117454 -30.489698 31.813703 47.273044 1.059229 0.832569 -0.005399 0.000541 -90208.000000 0 0 1
-16.810154 -28.995808 32.085513 46.398473 1.045404 0.807204 -0.010242 -0.003461 -390256.000000 0 0 1
-17.536754 -27.992088 31.416053 45.585778 1.011127 0.810462 -0.010437 -0.003365 -473471.000000 0 0 1
-17.380254 -27.915458 29.994663 44.508717 1.013922 0.831314 -0.009678 -0.005891 210613.000000 0 0 1
-15.970654 -27.560428 29.409253 43.353698 1.045603 0.825273 -0.009969 -0.000626 396221.000000 0 0 1
-15.778954 -26.163818 29.249963 42.297531 1.028113 0.807193 -0.009454 0.002762 1047890.000000 0 0 1
-14.695354 -25.900148 28.288133 41.072979 1.054704 0.811062 -0.002736 0.004941 824493.000000 0 0 1
-14.774854 -24.513478 27.589573 39.754138 1.028377 0.803759 -0.000243 0.003616 48623.800000 0 0 1
-15.937754 -24.375878 26.786793 39.569278 0.991731 0.827173 -0.010243 0.005367 300677.000000 0 0 1
-15.627654 -23.435478 25.766823 38.175573 0.982676 0.829892 -0.005998 0.003342 179340.000000 0 0 1
-16.261854 -21.993378 25.912693 37.677901 0.934115 0.812422 -0.003167 0.001295 -541009.000000 0 0 1
-15.965254 -21.105678 24.837903 36.294083 0.923184 0.817083 -0.004250 0.000627 219045.000000 0 0 1
-16.619354 -19.839878 25.087503 36.044507 0.873502 0.800964 -0.000828 0.003098 -79729.600000 0 0 1
-16.081154 -18.618078 24.325533 34.597224 0.858380 0.791040 -0.005713 -0.003158 -1314010.000000 0 0 1
-14.790854 -18.265378 24.630853 34.045151 0.890123 0.761972 0.000750 -0.002695 -1408300.000000 0 0 1
-14.447654 -17.119878 23.939933 32.786359 0.869848 0.752211 0.003683 -0.000755 96986.500000 0 0 1
-13.024054 -16.636278 24.300233 32.200824 0.906588 0.715681 0.002207 -0.003475 337953.000000 0 0 1
-11.949054 -17.542678 23.958933 32.008685 0.972839 0.724979 0.005526 -0.001686 1341300.000000 0 0 1
-10.633854 -16.960378 23.972733 31.231798 1.010773 0.695748 0.005266 -0.005030 644352.000000 0 0 1
-10.353454 -16.087978 22.725033 29.705962 0.998967 0.699756 -0.005110 -0.001717 -713409.000000 0 0 1
-10.229254 -16.729878 21.498133 29.098045 1.022010 0.739483 0.000772 -0.003200 1303560.000000 0 0 1
-8.862854 -17.226678 21.396733 28.863971 1.095629 0.735798 -0.000209 -0.003099 868981.000000 0 0 1
-8.673054 -18.530078 20.621733 29.048951 1.133032 0.781446 0.004309 -0.000137 -170247.000000 0 0 1
-8.675554 -18.381578 19.234233 27.983984 1.129823 0.812990 0.000858 0.003542 -156356.000000 0 0 1
-8.345254 -19.611078 18.559933 28.261436 1.168470 0.854331 0.001215 0.003577 -212193.000000 0 0 1
-7.716554 -19.416378 17.189033 27.055569 1.192512 0.882369 0.002950 -0.000068 -1145200.000000 0 0 1
-6.573254 -18.666378 17.212833 26.228286 1.232213 0.854932 0.010507 -0.002534 -1398900.000000 0 0 1
-6.187554 -18.526778 15.877533 25.171877 1.248465 0.888258 0.010189 0.003332 256313.000000 0 0 1
-5.280354 -17.299878 15.718833 23.963506 1.274553 0.855357 0.004102 0.005958 33430.300000 0 1 0
-6.133454 -16.214078 15.962633 23.565255 1.209154 0.826601 0.004200 0.002882 -118246.000000 0 1 0
-5.609554 -14.960078 15.589833 22.322946 1.212054 0.797669 0.006239 0.000560 -126329.000000 0 1 0
-6.019654 -13.730978 16.405933 22.224550 1.157631 0.740414 0.008555 -0.004915 -183551.000000 0 1 0
-5.394554 -13.567978 17.637933 22.897335 1.192365 0.691477 -0.001798 -0.010167 -200338.000000 0 1 0
-5.821854 -14.477778 18.656033 24.321752 1.188461 0.696564 -0.000772 -0.002821 -106356.000000 0 1 0
-7.078054 -14.189178 19.527933 25.154956 1.108081 0.682013 -0.001593 -0.003282 251669.000000 0 0 1
-6.946654 -13.096378 20.447733 25.256305 1.083106 0.627311 -0.005968 -0.006144 207772.000000 0 0 1
-8.029054 -13.151678 21.367033 26.343547 1.022695 0.624780 -0.005935 0.005884 464257.000000 0 0 1
-7.692154 -12.187578 22.461133 26.687240 1.007789 0.570478 -0.005636 0.012250 -433969.000000 0 0 1
-7.628454 -10.864978 22.056933 25.743919 0.958653 0.541799 0.001186 0.011883 184544.000000 0 0 1
-7.135554 -9.879478 22.949533 25.984636 0.945286 0.488162 -0.002385 0.004724 -431930.000000 0 0 1
-5.686954 -9.970778 23.456333 26.114315 1.052455 0.455099 0.000484 0.003563 -275495.000000 0 0 1
-5.529054 -10.882478 24.507213 27.378865 1.100714 0.462109 -0.006671 0.004689 -203250.000000 0 0 1
-4.177254 -11.264878 24.595133 27.372751 1.215694 0.454396 -0.001435 0.003212 -459206.000000 0 0 1
-3.968754 -12.313678 25.708753 28.780509 1.259004 0.466229 -0.002447 0.007384 112927.000000 0 0 1
-2.609254 -12.653178 26.016333 29.047560 1.367434 0.460915 0.001128 0.002722 693453.000000 0 0 1
-2.408454 -13.635978 27.010883 30.353391 1.395974 0.473714 0.003527 -0.001337 -144972.000000 0 0 1
-2.568454 -15.122078 26.656993 30.754991 1.402554 0.522141 -0.000442 -0.004118 255224.000000 0 0 1
-1.426654 -15.647878 25.990673 30.371146 1.479875 0.543762 0.000703 -0.001374 289272.000000 0 0 1
-1.753954 -16.930878 25.489053 30.650005 1.467570 0.588784 -0.001288 -0.003389 -592969.000000 0 0 1
-0.513354 -17.848778 25.300043 30.966669 1.542043 0.614592 -0.002529 -0.004378 417646.000000 0 0 1
0.108146 -18.402778 26.451603 32.223613 -1.564920 0.607852 -0.001991 -0.004856 163490.000000 0 0 1
0.613346 -17.435878 27.349363 32.440310 -1.535634 0.567835 0.008788 -0.003736 -1000850.000000 0 0 1
1.191846 -18.177778 28.570533 33.884030 -1.505324 0.567615 0.003899 -0.001006 -866135.000000 0 0 1
2.439946 -18.763778 28.374903 34.105247 -1.441487 0.588128 0.004617 -0.002113 -50696.000000 0 0 1
3.252646 -19.004778 29.544173 35.279165 -1.401290 0.578215 0.000469 0.001462 196043.000000 0 0 1
4.040046 -17.777978 30.047273 35.145656 -1.347341 0.545370 0.002794 0.001184 -1355470.000000 0 0 1
3.344146 -16.636578 30.485873 34.890507 -1.372428 0.507919 -0.002475 0.000817 -126407.000000 0 0 1
4.274346 -15.746778 31.036733 35.064367 -1.305740 0.484010 0.006228 -0.002831 -423374.000000 0 0 1
3.577846 -14.665478 31.875683 35.269483 -1.331507 0.442287 0.007293 -0.003429 4746.610000 0 0 1
2.870846 -15.223278 32.938013 36.399212 -1.384403 0.439628 -0.004851 -0.005178 394014.000000 0 0 1
1.858346 -14.353278 33.478601 36.473097 -1.442041 0.408045 -0.002767 -0.001349 298093.000000 0 0 1
1.042346 -14.983778 34.591734 37.711910 -1.501343 0.409644 -0.004990 -0.002127 -18250.600000 0 0 1
1.775846 -14.991678 -33.620257 36.854114 -1.452890 2.719546 0.006155 0.002841 82226.400000 0 0 1
1.121146 -15.753678 -32.619467 36.241758 -1.499749 2.690685 -0.000510 -0.003575 217864.000000 0 0 1
2.033046 -15.969278 -31.394727 35.281440 -1.444168 2.667784 -0.001993 -0.001372 533716.000000 0 0 1
1.268046 -16.706578 -30.438607 34.745165 -1.495041 2.638412 -0.006230 -0.000203 31508.300000 0 0 1
1.897946 -16.616578 -29.204577 33.654423 -1.457069 2.621510 -0.008972 0.002683 93053.700000 0 0 1
1.413746 -17.795178 -28.266137 33.431147 -1.491517 2.578303 -0.006195 -0.000890 351044.000000 0 0 1
2.269946 -18.922578 -28.362957 34.171245 -1.451407 2.549947 -0.000355 -0.000332 265357.000000 0 0 1
1.697846 -19.978478 -27.631537 34.139773 -1.486016 2.513866 0.005096 -0.006197 -725120.000000 0 0 1
2.481246 -21.303078 -27.773217 35.090302 -1.454845 2.484020 0.008936 -0.008126 679840.000000 0 0 1
3.827346 -21.316478 -27.283037 34.833962 -1.393141 2.470642 0.011008 -0.008599 729865.000000 0 0 1
3.900646 -21.290678 -25.881007 33.739214 -1.389597 2.445089 0.009498 -0.009108 -538545.000000 0 0 1
5.250246 -21.863878 -25.320727 33.863453 -1.335125 2.415433 0.001793 -0.010925 310100.000000 0 0 1
5.444246 -23.271778 -25.376327 34.859338 -1.340987 2.386143 0.003765 -0.015400 37155.200000 0 0 1
5.619246 -23.737378 -26.725567 36.184182 -1.338350 2.401785 0.004011 -0.014032 -781079.000000 0 0 1
5.012146 -25.116578 -27.044957 37.247736 -1.373828 2.383405 0.005351 -0.015714 -49875.900000 0 0 1
5.624446 -26.198358 -26.384747 37.605096 -1.359319 2.348475 0.006730 -0.015248 -91532.700000 0 0 1
5.090346 -27.439698 -26.784087 38.681210 -1.387371 2.335650 0.009766 -0.007115 -140392.000000 0 0 1
5.643646 -28.535678 -25.886377 38.938929 -1.375541 2.298015 0.006371 -0.004759 -460947.000000 0 0 1
7.022246 -28.754968 -25.906487 39.335813 -1.331275 2.289750 0.004913 -0.006895 -625277.000000 0 0 1
7.364846 -29.949858 -25.259597 39.865803 -1.329675 2.257014 0.004998 -0.009961 -49469.100000 0 0 1
8.798746 -30.375518 -25.642087 40.713716 -1.288847 2.252111 0.006194 -0.010049 5724.430000 0 0 1
8.951246 -30.660458 -27.014787 41.832849 -1.286743 2.272840 0.005813 -0.006798 937862.000000 0 0 1
10.340946 -30.652818 -27.425197 42.410752 -1.245429 2.273990 -0.001767 -0.006363 1243790.000000 0 0 1
10.603546 -30.514248 -28.922337 43.359614 -1.236355 2.301017 0.002030 -0.008521 -192658.000000 0 0 1
10.210546 -31.684338 -29.587097 44.537050 -1.259046 2.297387 0.008521 -0.006418 152062.000000 0 0 1
10.077846 -31.329028 -30.984367 45.200686 -1.259572 2.326065 0.003699 0.000708 10259.800000 0 0 1
-33.685504 -4.552378 -5.535407 34.439484 0.134330 1.732225 0.006994 -0.002036 -84371.100000 0 0 1
-33.465644 -3.825478 -4.349507 33.963242 0.113817 1.699214 0.005624 -0.005056 337852.000000 0 0 1
-32.537794 -2.779378 -4.566307 32.973992 0.085213 1.709725 0.002557 -0.002805 -637946.000000 0 0 1
-33.101394 -1.533878 -5.244407 33.549350 0.046306 1.727759 0.009025 0.001681 -173509.000000 0 0 1
-33.875844 -0.758578 -4.333007 34.160258 0.022389 1.697982 0.001753 0.001993 41661.400000 0 0 1
-34.704750 0.126622 -5.012507 35.065096 -0.003649 1.714236 -0.005470 0.002685 -249254.000000 0 0 1
34.101558 0.979322 -3.972707 34.346146 0.028710 1.686723 -0.003622 0.004269 -541627.000000 0 0 1
-34.520757 1.881422 -3.421007 34.740836 -0.054447 1.669428 -0.003666 0.006222 170334.000000 0 0 1
34.321389 2.692422 -2.481307 34.516138 0.078287 1.642747 -0.003925 0.010021 -291681.000000 0 0 1
-34.544226 4.053122 -2.194007 34.850323 -0.116797 1.633793 -0.005497 0.006449 -288297.000000 0 0 1
-34.485866 4.965522 -3.292807 34.996771 -0.143004 1.665025 -0.003540 0.007098 -184629.000000 0 0 1
-33.330104 4.838522 -4.072207 33.924770 -0.144163 1.691123 -0.005792 0.004296 -865423.000000 0 0 1
-32.322034 5.939322 -3.740107 33.075336 -0.181727 1.684117 0.000261 -0.003091 -630923.000000 0 0 1
-31.726534 5.943022 -2.473707 32.373009 -0.185174 1.647284 -0.007888 -0.002489 270298.000000 0 0 1
-31.832534 7.244922 -1.904307 32.702072 -0.223783 1.629061 -0.000370 -0.004683 -262942.000000 0 0 1
-31.245324 7.368422 -0.459607 32.105687 -0.231593 1.585112 0.000274 -0.002299 -572307.000000 0 0 1
-29.844914 7.356022 -0.600007 30.743942 -0.241658 1.590314 -0.001047 -0.001928 207684.000000 0 0 1
-29.109684 7.648922 0.589393 30.103606 -0.256954 1.551216 -0.004504 -0.000990 7880.540000 0 0 1
-29.082434 9.106722 1.041593 30.492709 -0.303463 1.536631 -0.001243 -0.000192 -945919.000000 0 0 1
-30.268854 9.641622 1.570893 31.806165 -0.308371 1.521387 0.005101 -0.004504 -63086.800000 0 0 1
-30.187294 10.960922 1.945393 32.174510 -0.348295 1.510296 0.002053 -0.004684 206630.000000 0 0 1
-31.374524 11.839022 1.422693 33.564077 -0.360825 1.528396 0.012871 -0.003113 -685052.000000 0 0 1
-31.417784 12.114122 -0.011907 33.672381 -0.368015 1.571150 0.012760 0.001008 225424.000000 0 0 1
-32.410114 13.031322 -0.414807 34.934266 -0.382295 1.582671 0.016179 -0.004666 853699.000000 0 0 1
-33.905774 12.567422 -0.175707 36.160372 -0.354958 1.575655 0.016738 -0.007275 113132.000000 0 0 1
-34.318415 11.547722 -1.061607 36.224722 -0.324587 1.600107 0.013841 -0.007409 -16842.900000 0 0 1
34.020374 10.938522 -0.606207 35.740797 0.311089 1.587758 0.011052 -0.007558 -23119.500000 0 0 1
33.678237 9.735922 -1.450707 35.087268 0.281415 1.612154 0.004653 -0.011857 -53765.200000 0 0 1
33.253885 10.121922 -2.740307 34.868086 0.295473 1.649468 0.007550 -0.008979 214408.000000 0 0 1
32.901145 8.980822 -3.448107 34.278710 0.266472 1.671557 0.001233 -0.009075 -300251.000000 0 0 1
32.243735 9.218622 -4.804707 33.878115 0.278475 1.713099 0.003186 -0.008323 60615.100000 0 0 1
30.895255 9.655622 -4.767007 32.718071 0.302910 1.717016 0.001009 -0.011368 271375.000000 0 0 1
30.394325 9.787122 -6.065007 32.502109 0.311521 1.758500 0.000974 -0.006109 -37721.100000 0 0 1
28.952225 10.367722 -6.146707 31.360851 0.343870 1.768073 -0.003582 -0.005113 156780.000000 0 0 1
27.922205 9.410522 -6.088907 30.087909 0.325071 1.774574 -0.002660 -0.004157 -305976.000000 0 0 1
26.766315 9.953322 -6.635107 29.317723 0.356015 1.799092 -0.008222 -0.004614 -420110.000000 0 0 1
25.612565 8.933522 -6.889407 27.987055 0.335600 1.819517 -0.009219 -0.004983 25975.800000 0 0 1
25.930705 7.925922 -7.845607 28.227208 0.296639 1.852450 -0.010947 -0.003992 -182532.000000 0 0 1
24.931775 6.983122 -8.063807 27.117935 0.273091 1.872723 -0.009803 -0.002575 -661697.000000 0 0 1
25.323105 5.839722 -9.044507 27.516633 0.226646 1.905715 -0.009301 -0.002215 -358595.000000 0 0 1
26.426755 5.021122 -8.689007 28.268072 0.187763 1.883234 -0.008083 -0.002408 607530.000000 0 0 1
26.595665 4.015422 -9.657507 28.578321 0.149849 1.915514 -0.003966 -0.002811 -489648.000000 0 0 1
27.713995 2.998322 -9.329507 29.395496 0.107769 1.893760 -0.004339 0.001592 228767.000000 0 0 1
29.057725 3.522522 -9.400407 30.742921 0.120636 1.881548 -0.005529 0.003426 1424670.000000 0 0 1
29.988905 2.918022 -8.485107 31.302497 0.096998 1.845299 0.006693 0.002677 179004.000000 0 0 1
30.032365 1.387222 -8.204007 31.163650 0.046158 1.837192 0.003793 -0.001248 -1463870.000000 0 0 1
28.918445 0.952022 -7.461807 29.880786 0.032909 1.823187 0.005040 -0.001355 112888.000000 0 0 1
29.006225 -0.371778 -7.022907 29.846617 -0.012816 1.808323 0.003614 0.001179 -322746.000000 0 0 1
28.800995 -1.500778 -8.098507 29.955558 -0.052061 1.844554 0.002783 0.001775 -914129.000000 0 0 1
29.714045 -1.668578 -9.153807 31.136808 -0.056096 1.869192 0.003007 0.001314 205891.000000 0 0 1
29.404595 -2.926678 -9.785307 31.127928 -0.099205 1.890576 0.005263 0.002784 -150435.000000 0 0 1
30.325355 -3.285078 -10.985207 32.420575 -0.107907 1.916474 -0.000325 -0.002002 745134.000000 0 0 1
31.711515 -3.391878 -10.594207 33.605985 -0.106555 1.891514 -0.003202 -0.002865 1095500.000000 0 0 1
32.419675 -3.936878 -11.723807 34.698444 -0.120843 1.915457 -0.001699 -0.005425 -158419.000000 0 0 1
33.873042 -4.305678 -11.414507 36.002956 -0.126434 1.893407 -0.013315 -0.001412 -616883.000000 0 0 1
33.890656 -5.442678 -10.578907 35.918137 -0.159236 1.869758 -0.009496 -0.000174 32032.800000 0 0 1
-34.451502 -5.598778 -9.842207 36.264602 0.161103 1.845643 -0.005980 -0.007377 -452520.000000 0 0 1
-34.320236 -6.908778 -8.968707 36.139280 0.198648 1.821588 -0.001532 -0.005290 -224237.000000 0 0 1
34.522908 -6.781078 -7.735907 36.023027 -0.193953 1.787231 0.000575 -0.005084 424737.000000 0 0 1
34.266461 -8.070678 -7.249107 35.942673 -0.231311 1.773875 0.002318 -0.000921 -217836.000000 0 0 1
33.566473 -8.003078 -5.841907 34.998361 -0.234055 1.738501 0.003787 0.002909 521834.000000 0 0 1
34.489325 -7.723878 -4.723007 35.657799 -0.220315 1.703640 0.004371 0.001753 1094850.000000 0 0 1
34.527026 -8.751078 -3.723207 35.812835 -0.248229 1.674947 0.003568 0.000771 196878.000000 0 0 1
-34.321125 -10.164178 -4.122207 36.031136 0.287920 1.685454 0.009786 0.000867 138679.000000 0 0 1
34.499562 -10.715378 -5.211507 36.499301 -0.301148 1.714070 0.005525 0.005913 594477.000000 0 0 1
-34.260299 -11.691478 -5.910507 36.679597 0.328863 1.732641 0.007517 0.007850 -156439.000000 0 0 1
34.481196 -12.247878 -7.101207 37.274529 -0.341304 1.762479 0.008365 0.005778 -125002.000000 0 0 1
34.381454 -11.280478 -8.116707 37.083884 -0.317031 1.791457 0.016151 0.003465 337873.000000 0 0 1
33.872641 -11.943278 -9.268407 37.093141 -0.338984 1.823341 0.009825 0.004486 -33566.000000 0 0 1
34.117347 -11.161478 -10.559807 37.417663 -0.316175 1.856898 0.001297 0.002549 -148575.000000 0 0 1
33.549426 -9.867878 -10.626507 36.549441 -0.286062 1.865800 0.001101 0.002655 282490.000000 0 0 1
33.810307 -9.369678 -11.882407 37.042129 -0.270341 1.897350 -0.000279 -0.000108 -269718.000000 0 0 1
32.870165 -8.231678 -12.362507 36.069930 -0.245383 1.920625 -0.004438 -0.001888 -144102.000000 0 0 1
33.079095 -7.989678 -13.712807 36.689270 -0.236994 1.953851 -0.003545 0.004151 348549.000000 0 0 1
32.147475 -7.090678 -14.260307 35.876096 -0.217091 1.979574 -0.004162 0.002591 -242006.000000 0 0 1
32.365545 -6.726078 -15.738407 36.612376 -0.204900 2.015140 -0.003455 0.002894 221293.000000 0 0 1
33.407515 -5.746778 -15.965207 37.469659 -0.170353 2.010956 -0.004323 0.001143 872488.000000 0 0 1
32.965215 -4.408478 -15.936007 36.879485 -0.132942 2.017628 0.000703 0.004674 -446799.000000 0 0 1
34.141553 -3.465778 -15.961407 37.847375 -0.101165 2.006150 -0.000218 0.005015 -325732.000000 0 0 1
34.725548 -3.136078 -17.221307 38.887943 -0.090066 2.029565 -0.000047 -0.001092 865474.000000 0 0 1
-33.471044 -2.592078 -17.165907 37.705411 0.077288 2.043465 0.000438 0.000435 731205.000000 0 0 1
-33.259614 -1.088878 -16.807407 37.281048 0.032727 2.038491 -0.003116 0.003874 -550786.000000 0 0 1
-33.655284 -0.284778 -17.892807 38.117080 0.008461 2.059427 0.001096 0.003920 218783.000000 0 0 1
-33.396664 1.083622 -17.670107 37.798732 -0.032436 2.057233 0.004299 -0.003280 -392424.000000 0 0 1
-33.783034 1.985822 -18.855707 38.739832 -0.058714 2.079135 -0.005196 0.000602 -428139.000000 0 0 1
-32.846644 2.124222 -19.892107 38.459203 -0.064581 2.114403 0.000535 -0.001556 28142.500000 0 0 1
-32.933154 3.373322 -20.434307 38.904150 -0.102073 2.123802 0.004965 0.000921 -227486.000000 0 0 1
-32.102534 3.576422 -21.717307 38.923064 -0.110949 2.162716 0.006904 0.003865 93242.300000 0 0 1
-30.712784 3.768522 -21.493307 37.675445 -0.122092 2.177894 0.006072 0.004126 176977.000000 0 0 1
-30.162844 4.121022 -22.725907 37.990089 -0.135785 2.212057 0.005722 0.005303 -828440.000000 0 0 1
-28.695884 4.535522 -22.652907 36.839910 -0.156758 2.233057 0.000735 0.006035 -451715.000000 0 0 1
-27.887954 3.496122 -22.131007 35.773487 -0.124713 2.237810 -0.004764 0.010964 202222.000000 0 0 1
-26.601744 3.970122 -21.766607 34.600576 -0.148149 2.251168 -0.011889 0.013020 267423.000000 0 0 1
-25.689114 2.822022 -21.249007 33.457655 -0.109414 2.258936 -0.008942 0.008942 -28164.300000 0 0 1
-26.083134 2.450322 -19.922207 32.912434 -0.093668 2.220951 -0.006953 0.009733 998230.000000 0 0 1
-25.127734 1.580322 -19.218207 31.673963 -0.062809 2.222763 -0.009786 0.006998 267569.000000 0 0 1
-24.450654 2.272122 -17.969707 30.428727 -0.092661 2.202537 -0.005696 0.007585 821978.000000 0 0 1
-23.297754 3.101922 -18.278807 29.774520 -0.132364 2.231798 -0.005091 0.007717 589609.000000 0 0 1
-22.574854 3.192022 -17.068007 28.480343 -0.140466 2.213411 0.000945 0.004904 -715223.000000 0 0 1
-21.364154 4.083222 -17.311007 27.798755 -0.188847 2.243018 0.002131 0.004944 -793362.000000 0 0 1
-20.283954 3.445722 -17.947907 27.302732 -0.168268 2.288115 0.003912 0.000344 -723946.000000 0 0 1
-19.259554 4.411922 -18.021207 26.742464 -0.225192 2.310244 -0.000702 0.000819 -1091030.000000 0 0 1
-17.973754 3.753122 -18.457007 26.034648 -0.205853 2.358791 -0.002042 -0.001655 -1047140.000000 0 0 1
-17.570054 2.814422 -17.486507 24.948060 -0.158834 2.347478 0.001723 -0.001155 -160188.000000 0 1 0
-16.632854 1.893322 -17.976607 24.564098 -0.113342 2.391792 0.006802 -0.003970 -534713.000000 0 1 0
-16.972554 0.504222 -17.342107 24.270775 -0.029699 2.366743 0.009462 -0.008143 688150.000000 0 1 0
-18.105854 -0.180378 -17.886407 25.451484 0.009962 2.350073 0.008952 -0.005731 603523.000000 0 0 1
-19.376354 0.301622 -17.466507 26.088560 -0.015565 2.304343 0.007089 -0.000246 116426.000000 0 0 1
-20.507654 -0.667778 -17.945007 27.258633 0.032551 2.289386 0.007563 0.000688 -7021.850000 0 0 1
-20.403554 -1.835878 -17.188507 26.741732 0.089737 2.268892 0.007830 -0.005426 112384.000000 0 0 1
-21.345954 -2.774678 -17.597307 27.803126 0.129261 2.256122 0.002799 -0.006313 -276463.000000 0 0 1
-21.308854 -4.011978 -16.678207 27.355545 0.186099 2.226457 0.002154 -0.007467 61344.400000 0 0 1
-21.836154 -3.744978 -15.376207 26.967948 0.169851 2.177504 0.006138 -0.007607 314062.000000 0 0 1
-21.941654 -4.902378 -14.611707 26.813644 0.219818 2.147109 0.009038 -0.009975 -59196.900000 0 0 1
-22.113654 -4.518678 -13.149607 26.121721 0.201564 2.098323 0.000500 -0.006953 76524.100000 0 0 1
-23.292354 -3.750278 -12.959807 26.917558 0.159639 2.073119 0.003934 -0.011864 611453.000000 0 0 1
-23.379254 -3.245478 -11.698807 26.343590 0.137937 2.030950 -0.013360 -0.013754 -219426.000000 0 0 1
-24.247354 -1.961478 -11.666107 26.979245 0.080719 2.017961 -0.005464 -0.008030 -202126.000000 0 0 1
-24.501854 -1.591278 -10.329807 26.637904 0.064854 1.969025 -0.006280 -0.010580 813615.000000 0 0 1
-25.337104 -0.425778 -10.433707 27.404605 0.016803 1.961380 -0.002613 -0.009719 -301842.000000 0 0 1
-25.852314 0.058422 -9.077807 27.399857 -0.002260 1.908486 -0.001704 -0.001473 -733322.000000 0 0 1
-24.898854 0.555622 -8.172807 26.211761 -0.022311 1.887882 -0.002442 -0.004740 372907.000000 0 0 1
-25.504604 1.001922 -6.957507 26.455540 -0.039264 1.836915 0.000169 -0.000846 -347142.000000 0 0 1
-24.512154 1.242422 -5.841407 25.229177 -0.050643 1.804450 0.002188 0.000485 -508727.000000 0 0 1
-23.911554 2.489322 -5.828607 24.737255 -0.103732 1.808653 -0.000631 -0.004633 524221.000000 0 1 0
-22.703254 2.526422 -5.065607 23.398310 -0.110824 1.789019 -0.005413 -0.001286 244982.000000 0 1 0
-22.110154 3.944222 -5.139807 23.039822 -0.176533 1.795773 0.002270 -0.000257 -292082.000000 0 1 0
-22.758654 4.915822 -4.328107 23.682360 -0.212730 1.754586 0.006935 0.000562 787946.000000 0 1 0
-22.131254 6.212622 -4.522307 23.427342 -0.273674 1.765051 0.000403 -0.001170 265689.000000 0 1 0
-22.817354 7.443722 -3.789207 24.298122 -0.315345 1.727382 0.010183 0.004728 -180462.000000 0 1 0
-22.498954 7.619922 -2.391507 23.874368 -0.326554 1.671135 0.031901 0.003605 1135970.000000 0 1 0
-21.154054 7.994522 -2.061407 22.708056 -0.361327 1.661700 0.029658 0.004188 637562.000000 0 1 0
-20.664154 9.443522 -2.360407 22.842042 -0.428660 1.674317 0.025250 0.004921 -447888.000000 0 1 0
-20.395554 9.663022 -3.738207 22.876337 -0.442453 1.734942 0.010799 0.001019 484065.000000 0 1 0
-19.933954 11.027122 -3.873507 23.107661 -0.505284 1.739220 0.030890 0.003574 -191943.000000 0 1 0
-19.699854 11.528122 -5.325807 23.438133 -0.529457 1.800027 0.026133 0.001328 67175.200000 0 1 0
-18.497454 10.990922 -5.865607 22.301604 -0.536133 1.836940 0.012879 0.005405 517462.000000 0 1 0
-18.369754 11.438622 -7.188007 22.802574 -0.556935 1.891493 0.008767 0.005150 384804.000000 0 1 0
-17.075554 10.974022 -7.958107 21.802183 -0.571208 1.944444 0.007168 0.001475 86325.600000 0 1 0
-17.023054 9.654722 -8.489107 21.332205 -0.515919 1.980075 0.017135 0.001157 172301.000000 0 1 0
-17.947054 9.385722 -9.534007 22.384946 -0.481852 2.010765 0.013965 0.009515 -132765.000000 0 1 0
-17.740454 10.158122 -10.885007 23.160193 -0.520026 2.060073 -0.006547 0.008325 -57667.600000 0 1 0
-16.663054 9.653422 -11.627307 22.495337 -0.525083 2.113994 -0.002483 0.004461 -11302.000000 0 1 0
-16.885754 10.220922 -12.899207 23.579344 -0.544306 2.149639 -0.006112 0.012397 -29659.700000 0 1 0
-15.833854 9.958422 -13.996607 23.362066 -0.561422 2.213194 -0.000505 0.014217 -404915.000000 0 1 0
-15.819954 8.716222 -14.686207 23.279350 -0.503583 2.253468 -0.006187 0.011048 25938.300000 0 1 0
-15.657654 7.602022 -13.833907 22.233530 -0.451992 2.242358 -0.003227 0.011126 -440010.000000 0 1 0
-15.621654 6.183722 -14.524507 22.208913 -0.376918 2.283649 -0.001195 0.006447 -86468.500000 0 1 0
-14.598054 5.963022 -15.483307 22.099629 -0.387796 2.347054 -0.002721 0.004109 518703.000000 0 1 0
-14.737154 4.694922 -16.079307 22.310763 -0.308412 2.375604 -0.002826 0.002280 3149.400000 0 1 0
30.759345 -15.892278 28.763563 45.011603 -0.476891 0.877566 0.001984 0.004636 -477788.000000 0 0 1
30.272085 -14.662478 29.314403 44.617504 -0.451055 0.853943 -0.003157 0.001498 -373739.000000 0 0 1
29.279515 -14.829378 30.287983 44.660524 -0.468815 0.825510 0.003918 0.000207 86355.600000 0 0 1
29.767425 -15.073778 31.778413 46.078042 -0.468743 0.809770 0.008490 -0.001029 92611.000000 0 0 1
30.500575 -14.021678 32.357563 46.625148 -0.430906 0.803775 0.001394 -0.000483 6154.050000 0 0 1
30.443345 -13.957978 33.759632 47.553498 -0.429892 0.781398 -0.002061 -0.000479 -145975.000000 0 0 1
30.607675 -12.465378 34.248418 47.593798 -0.386752 0.767573 -0.002746 -0.002057 93272.000000 0 0 1
30.239695 -12.221378 -33.819337 46.984559 -0.384079 2.374306 -0.004217 0.000123 113424.000000 0 0 1
29.984725 -10.848878 -33.703437 46.397237 -0.347160 2.383881 0.003652 0.003117 -165824.000000 0 0 1
29.634835 -10.497878 -32.222277 45.018930 -0.340448 2.368493 0.000513 0.004730 -575323.000000 0 0 1
28.315245 -10.866078 -31.954957 44.056147 -0.366423 2.382300 0.002022 0.003956 -431295.000000 0 0 1
28.053035 -10.306978 -30.683227 42.833013 -0.352100 2.369347 0.006702 0.003576 -162509.000000 0 0 1
27.000445 -11.150678 -29.963887 41.847296 -0.391647 2.368894 0.007334 0.002642 -340095.000000 0 0 1
26.460745 -10.691978 -28.787977 40.536861 -0.384010 2.360533 0.006337 0.004072 103401.000000 0 0 1
25.807495 -11.748478 -28.097607 39.919031 -0.427199 2.351620 0.016030 0.004246 -1111990.000000 0 0 1
25.321525 -11.327078 -26.701707 38.502773 -0.420631 2.337133 0.013571 0.007735 -13946.600000 0 0 1
24.332175 -10.294478 -26.640887 37.520233 -0.400244 2.360352 0.008554 0.002344 1181890.000000 0 0 1
23.149075 -10.308578 -27.440807 37.351631 -0.418949 2.395964 0.002864 -0.000664 577148.000000 0 0 1
22.169275 -11.559678 -27.470077 37.144422 -0.480643 2.403195 0.003814 0.006117 -698701.000000 0 0 1
22.668875 -12.687978 -28.119867 38.283020 -0.510267 2.395764 0.002926 0.000415 291374.000000 0 0 1
21.900375 -13.899378 -27.984957 38.157266 -0.565518 2.394122 -0.004224 -0.001312 -99283.600000 0 0 1
22.752675 -14.967878 -28.667507 39.541719 -0.581875 2.381822 0.003157 0.001659 161295.000000 0 0 1
22.911275 -14.869178 -30.041277 40.601691 -0.575665 2.403721 -0.001620 0.000797 -49039.500000 0 0 1
23.977675 -15.627878 -30.537877 41.853571 -0.577617 2.388586 -0.002064 0.001022 -438998.000000 0 0 1
24.072975 -15.672378 -32.095767 43.072843 -0.577103 2.411557 0.002827 -0.001590 -472221.000000 0 0 1
22.932175 -16.294478 -32.623477 43.077673 -0.617772 2.429992 0.002545 -0.000299 -15683.000000 0 0 1
22.944275 -16.447778 -34.022837 44.209983 -0.621950 2.448970 0.006962 -0.000956 -27550.300000 0 0 1
23.166975 -15.231778 34.421841 44.199309 -0.581614 0.678067 0.004556 -0.000940 -669056.000000 0 0 1
22.034575 -14.426878 34.307065 43.250804 -0.579699 0.654730 -0.001552 -0.002451 -300374.000000 0 0 1
22.235475 -13.464478 33.286843 42.234138 -0.544483 0.662999 0.004346 -0.001043 -435099.000000 0 0 1
21.215975 -12.297378 33.336023 41.383977 -0.525306 0.634227 0.007586 -0.004855 76935.800000 0 0 1
19.869675 -12.552478 33.036353 40.543425 -0.563432 0.618345 0.001051 -0.001130 60038.300000 0 0 1
19.607675 -12.793478 31.698863 39.407511 -0.578112 0.636155 -0.001721 0.002323 -1554260.000000 0 0 1
18.187375 -13.232378 31.348283 38.582267 -0.628983 0.622360 -0.001629 0.000165 -625528.000000 0 0 1
17.335975 -12.133278 31.555023 37.993051 -0.610652 0.590707 -0.002276 0.000797 -867379.000000 0 0 1
16.249175 -12.445078 32.361943 38.291135 -0.653593 0.563941 -0.005082 -0.001074 -1023320.000000 0 0 1
15.641775 -11.202078 32.806783 38.032048 -0.621492 0.530392 -0.008922 -0.004744 -1489910.000000 0 0 1
14.960175 -10.562178 31.763383 36.664410 -0.614755 0.522994 -0.001511 -0.005358 273539.000000 0 0 1
14.195975 -9.379078 32.066433 36.300812 -0.583851 0.487828 -0.000383 -0.002812 693520.000000 0 0 1
13.056275 -9.496778 33.107513 36.834258 -0.628862 0.453717 0.000541 -0.002630 -536621.000000 0 0 1
11.973675 -10.345278 32.758923 36.380499 -0.712567 0.449987 0.000537 -0.006050 -153618.000000 0 0 1
10.874875 -10.382178 33.608801 36.818529 -0.762224 0.420652 0.001587 -0.003919 -588159.000000 0 0 1
9.762375 -9.457978 33.159353 35.837132 -0.769562 0.389025 0.003924 -0.006214 -1013580.000000 0 0 1
10.182675 -8.106378 33.177313 35.638944 -0.672355 0.373849 0.006611 -0.006857 197984.000000 0 0 1
9.162075 -7.324878 32.604273 34.650196 -0.674423 0.345356 0.004676 -0.003739 -266073.000000 0 0 1
9.594875 -5.894878 32.293843 34.200929 -0.550924 0.335521 0.006708 -0.000039 -146895.000000 0 0 1
9.742875 -5.061878 33.447101 35.203051 -0.479162 0.317178 0.004829 -0.003162 12677.100000 0 0 1
10.265975 -3.835878 33.119643 34.885742 -0.357586 0.319557 -0.001615 -0.000126 -348704.000000 0 0 1
10.299875 -2.874078 34.317506 35.944944 -0.272118 0.302065 0.002620 0.004778 -13063.200000 0 0 1
8.980675 -2.544578 -34.692017 35.925805 -0.276103 2.878758 0.001291 0.005395 242338.000000 0 0 1
8.941175 -1.785878 -33.512947 34.731133 -0.197142 2.875955 0.003899 0.008968 1357500.000000 0 0 1
7.412875 -1.519978 -33.131757 33.984914 -0.202242 2.917050 0.002849 0.010311 1531320.000000 0 0 1
6.688275 -0.563378 -33.896787 34.554922 -0.084035 2.946110 0.003587 0.009548 374536.000000 0 0 1
5.405375 -0.409378 -33.283397 33.721954 -0.075591 2.980141 -0.001672 0.013674 274888.000000 0 0 1
4.568175 0.676722 -33.974937 34.287352 0.147069 3.006496 0.005723 0.009876 -79711.100000 0 0 1
5.171075 1.970022 -33.896567 34.345280 0.363994 2.979770 -0.000486 0.006818 217270.000000 0 0 1
4.540575 2.810322 34.591043 35.000786 0.554226 0.153164 0.003294 0.005337 -10633.400000 0 0 1
5.297475 4.146722 34.396397 35.048119 0.664148 0.193148 0.001155 0.006022 -178287.000000 0 0 1
4.637175 4.978122 33.436113 34.121236 0.820842 0.200732 0.002112 -0.002592 -22695.200000 0 0 1
5.514475 6.012822 33.197643 34.185479 0.828603 0.240984 0.001917 -0.004302 -413180.000000 0 0 1
5.064775 6.966222 32.059203 33.195974 0.942147 0.262456 -0.001551 -0.000637 -436091.000000 0 0 1
3.943775 7.669822 32.516443 33.640728 1.095858 0.259261 0.000350 0.001420 -614220.000000 0 0 1
3.769075 9.028822 32.161873 33.617133 1.175339 0.295314 -0.004316 -0.002909 -58191.800000 0 0 1
3.572475 9.409422 30.720603 32.327314 1.207938 0.316603 -0.004512 -0.003033 919831.000000 0 0 1
2.419775 8.735822 30.119823 31.454310 1.300577 0.292334 0.001880 -0.003714 722157.000000 0 0 1
2.413275 8.870222 28.714403 30.149986 1.305161 0.309830 0.004070 -0.001675 160.769000 0 0 1
1.102775 8.281522 28.120593 29.335430 1.438414 0.288794 -0.000791 -0.000900 -819372.000000 0 0 1
0.080275 9.124322 28.423293 29.852023 1.561999 0.310635 0.001527 -0.001675 -1108580.000000 0 0 1
-1.106325 8.668722 27.772183 29.114685 -1.443860 0.304859 0.002566 0.001131 489974.000000 0 0 1
-2.392625 8.922022 28.575493 30.031416 -1.308790 0.312656 0.007459 -0.000947 -230241.000000 0 0 1
-2.813625 10.254722 28.674993 30.583182 -1.303013 0.355115 0.005857 -0.002757 526972.000000 0 0 1
-4.044925 10.308222 29.431853 31.446062 -1.196861 0.359857 0.003758 -0.004412 648349.000000 0 0 1
-4.256725 11.769322 30.050153 32.552240 -1.223755 0.394637 0.003957 -0.005469 -134476.000000 0 0 1
-4.510225 12.880622 29.224393 32.253956 -1.233983 0.436891 0.003746 -0.007146 -145514.000000 0 0 1
-5.669825 12.841922 28.441173 31.716907 -1.155026 0.458495 0.009255 -0.007834 -334599.000000 0 0 1
-5.975725 14.207622 27.796683 31.783980 -1.172658 0.506289 0.009631 -0.007157 -659759.000000 0 0 1
-5.055225 14.591022 26.866223 30.987855 -1.237277 0.521662 0.003151 -0.007345 -766285.000000 0 0 1
-5.300925 15.829422 26.364493 31.205078 -1.247656 0.564459 0.001420 -0.003563 307977.000000 0 0 1
-4.037625 16.504022 25.741573 30.843374 -1.330864 0.583408 0.012426 -0.001899 391131.000000 0 0 1
-3.533425 15.966522 24.515273 29.468857 -1.353004 0.588265 0.001186 -0.006278 -53824.500000 0 0 1
-2.440625 16.734722 24.064833 29.412986 -1.425975 0.612575 0.002374 -0.003289 -55753.500000 0 0 1
-2.372325 16.728822 22.497233 28.135510 -1.429925 0.644163 0.005346 -0.004641 -145728.000000 0 0 1
-1.758325 15.577022 21.973433 26.991982 -1.458393 0.619666 0.005062 -0.004739 -158861.000000 0 0 1
-1.797925 15.592522 20.586333 25.887379 -1.455996 0.651415 -0.002849 -0.000495 -153192.000000 0 0 1
-1.140825 14.425922 19.873833 24.584100 -1.491879 0.629364 -0.001262 -0.005731 -278181.000000 0 1 0
-1.742025 13.179522 20.122833 24.117688 -1.439381 0.583826 -0.001961 -0.000438 -229362.000000 0 1 0
-1.082525 12.141222 19.410033 22.920090 -1.481870 0.560749 -0.004193 -0.000070 -384583.000000 0 1 0
-1.873325 10.830822 19.158133 22.087329 -1.399528 0.520881 -0.007145 -0.005451 -529971.000000 0 1 0
-1.961625 9.914422 20.300133 22.676842 -1.375463 0.461934 0.002251 -0.005684 157398.000000 0 1 0
-2.794025 10.364322 21.351133 23.897628 -1.307475 0.465847 0.002808 -0.002874 901044.000000 0 1 0
-4.368725 10.229622 21.175033 23.918883 -1.167177 0.483689 0.001688 0.002179 979083.000000 0 1 0
-4.790425 8.899522 21.295133 23.571855 -1.076997 0.443131 0.001522 0.000174 -201097.000000 0 1 0
-6.196625 8.809322 21.290533 23.859780 -0.957781 0.468340 0.002603 0.004424 59335.300000 0 1 0
-6.808225 7.407422 21.490233 23.728716 -0.827524 0.437854 -0.002087 0.006176 -233378.000000 0 1 0
-6.832625 6.855422 22.750033 24.723381 -0.787064 0.402249 0.004392 0.005090 343678.000000 0 1 0
-7.707425 5.711922 22.729733 24.671263 -0.637776 0.399376 0.004084 0.007171 465100.000000 0 1 0
-7.754125 4.917422 24.044133 25.737673 -0.565165 0.364786 0.004002 0.007083 -92564.900000 0 0 1
-8.576325 5.527622 25.013503 27.014502 -0.572514 0.387309 -0.006434 0.003149 163370.000000 0 0 1
-8.431725 4.791322 26.238183 27.973077 -0.516746 0.354040 0.006704 0.003711 -13832.800000 0 0 1
-9.241925 5.344822 27.433223 29.437426 -0.524328 0.371134 0.010662 -0.002111 -76447.300000 0 0 1
-8.826125 6.612222 27.867763 29.970555 -0.642966 0.376824 0.001320 -0.000184 421501.000000 0 0 1
-9.735425 7.168922 28.828313 31.260895 -0.634724 0.397105 0.002460 0.000230 109086.000000 0 0 1
-8.990425 8.280122 29.477203 31.910714 -0.744293 0.393064 0.003521 0.001330 316027.000000 0 0 1
-7.997825 7.756522 30.380093 32.358599 -0.770083 0.351501 0.004899 0.000064 259148.000000 0 0 1
-7.621925 8.665822 31.341113 33.398437 -0.849402 0.352824 0.006031 0.001382 -57326.500000 0 0 1
-6.538025 8.095022 32.296683 33.931562 -0.891402 0.311685 0.009423 0.001308 292661.000000 0 0 1
-5.266525 8.069022 31.682353 33.115207 -0.992536 0.295244 0.007461 -0.000419 -170111.000000 0 0 1
-4.309625 7.290122 32.382373 33.471433 -1.036903 0.255793 0.005858 0.000967 730649.000000 0 0 1
-2.817325 7.522322 32.020743 33.012886 -1.212439 0.245784 0.001170 0.002010 259954.000000 0 0 1
-2.419925 8.781922 32.489543 33.742386 -1.301912 0.273356 -0.002731 0.004312 706440.000000 0 0 1
-1.041625 9.137622 32.226203 33.512823 -1.457293 0.277993 -0.003293 -0.000173 1191520.000000 0 0 1
-0.931125 10.598722 31.753133 33.488227 -1.483169 0.323313 -0.001636 -0.001964 -147052.000000 0 0 1
-0.995025 11.511722 32.819073 34.793697 -1.484575 0.338519 0.002098 -0.001945 14987.100000 0 0 1
-1.371925 12.763622 32.335433 34.790408 -1.463720 0.377917 0.004358 -0.005497 -309111.000000 0 0 1
-1.384225 13.853922 33.362566 36.151183 -1.471211 0.395349 0.002485 -0.008382 -1503990.000000 0 0 1
-0.180225 14.348822 33.765829 36.688587 -1.558237 0.401858 0.006843 -0.002168 -1335690.000000 0 0 1
-0.247625 15.166422 -34.518510 37.704233 -1.554471 2.727564 0.008557 -0.003251 -218222.000000 0 0 1
1.170575 15.521922 -34.045827 37.435527 1.495525 2.712761 0.003755 0.000876 -692312.000000 0 0 1
1.850475 16.303222 34.471488 38.177255 1.457776 0.444252 0.003206 0.002460 -414934.000000 0 0 1
2.925175 16.846922 -34.228444 38.261754 1.398878 2.678301 0.008583 0.000761 -249907.000000 0 0 1
3.735875 17.908522 34.428115 38.986754 1.365137 0.488427 0.011957 0.000857 -273061.000000 0 0 1
3.073675 19.111122 34.335727 39.416045 1.411330 0.513337 0.011103 0.000948 -264583.000000 0 0 1
3.774975 20.019322 33.519331 39.224600 1.384418 0.546115 0.005856 -0.000012 -223335.000000 0 0 1
3.345975 21.513522 33.517067 39.967749 1.416504 0.576083 0.002132 -0.003931 -31848.600000 0 0 1
3.757775 22.104822 -34.672284 41.290572 1.402408 2.567553 0.003430 -0.002346 229257.000000 0 0 1
3.256275 23.402522 -34.514671 41.827549 1.432542 2.541292 -0.001455 -0.004730 -57485.400000 0 0 1
3.581975 24.037122 -33.119017 41.078986 1.422866 2.508544 0.000908 -0.003388 -77882.800000 0 0 1
3.043375 25.366922 -32.966647 41.707825 1.451393 2.482289 -0.003949 -0.005067 231403.000000 0 0 1
2.902075 25.590522 -31.577057 40.748097 1.457874 2.457406 -0.005502 -0.006864 -123774.000000 0 0 1
2.289475 26.913122 -31.142617 41.224027 1.485932 2.427134 -0.004757 -0.004189 -84457.700000 0 0 1
3.245875 27.927622 -31.305537 42.077600 1.455091 2.409826 -0.003091 -0.006474 77532.000000 0 0 1
2.817075 29.129222 -30.714387 42.424298 1.474387 2.380352 -0.008024 -0.007118 -1037920.000000 0 0 1
3.867675 30.202222 -30.619467 43.181997 1.443430 2.358988 -0.008978 -0.005841 -1204520.000000 0 0 1
4.829375 29.895522 -29.661237 42.389316 1.410638 2.345821 -0.009705 -0.006623 -826024.000000 0 0 1
5.544475 31.077622 -29.541347 43.234835 1.394247 2.323037 0.000642 -0.005258 -798564.000000 0 0 1
6.778275 30.910222 -28.644317 42.683530 1.354924 2.306469 0.003005 -0.005734 949190.000000 0 0 1
8.046275 30.460022 -29.188687 42.948049 1.312537 2.318051 0.007650 -0.003813 1701150.000000 0 0 1
9.056775 31.427322 -29.561867 44.086344 1.290217 2.305739 0.014784 -0.003167 482665.000000 0 0 1
8.695275 32.710622 -30.376517 45.478846 1.310981 2.302215 0.010388 -0.003381 -1144310.000000 0 0 1
8.026075 33.737622 -29.651687 45.627487 1.337241 2.278203 0.002671 -0.003405 82168.900000 0 0 1
7.550975 -34.610789 -30.363337 46.656791 -1.355994 2.279408 0.004890 -0.000923 -471882.000000 0 0 1
6.316575 34.627322 -31.209267 47.042203 1.390364 2.296192 0.002819 0.003514 -1023570.000000 0 0 1
6.558875 33.903922 -32.368747 47.331074 1.379702 2.323863 0.000919 0.002938 -302477.000000 0 0 1
5.385675 33.638722 -33.094927 47.495719 1.412040 2.341720 0.006095 0.002944 -248873.000000 0 0 1
5.575675 32.784622 -34.401844 47.847743 1.402338 2.373138 0.003866 -0.001933 250076.000000 0 0 1
6.390675 33.499022 34.083878 48.215516 1.382289 0.785681 0.007237 -0.001099 275005.000000 0 0 1
6.408175 32.863522 32.788653 46.863328 1.378219 0.795867 0.006951 -0.001581 200700.000000 0 0 1
5.192975 33.116722 31.830643 46.226336 1.415255 0.811264 -0.002971 0.006159 350276.000000 0 0 1
5.184575 34.462322 31.346873 46.873851 1.421474 0.838270 -0.001891 0.002232 339832.000000 0 0 1
4.074875 -34.726689 30.501643 46.399330 -1.453989 0.853470 -0.007458 -0.001544 -21190.300000 0 0 1
17.290546 -22.575378 29.811013 41.198388 -0.917195 0.761797 0.000296 -0.006773 -327375.000000 0 0 1
16.523246 -21.511978 30.343623 40.700348 -0.915815 0.729456 0.000863 -0.003554 -388397.000000 0 0 1
15.148546 -21.748478 30.341943 40.287818 -0.962401 0.717990 -0.001157 -0.001813 -263994.000000 0 0 1
14.531246 -22.332878 31.648013 41.370416 -0.993953 0.699768 0.004029 -0.001776 -559624.000000 0 0 1
14.987046 -23.574178 31.985423 42.466701 -1.004511 0.717901 0.010705 -0.003352 -18731.400000 0 0 1
14.674946 -23.765378 33.357120 43.506835 -1.017614 0.697096 -0.000457 -0.001208 -57960.900000 0 0 1
15.437346 -24.929478 34.057639 44.941221 -1.016349 0.710821 0.002180 -0.006165 50798.100000 0 0 1
15.064846 -26.240478 33.714828 45.301235 -1.049633 0.731405 -0.003967 -0.008139 -382654.000000 0 0 1
15.938046 -27.169068 34.294614 46.565010 -1.040270 0.742931 -0.005133 -0.005540 -120309.000000 0 0 1
15.653746 -28.685758 34.118871 47.244152 -1.071262 0.763845 -0.005706 -0.003896 -102441.000000 0 0 1
16.273446 -29.220898 32.948493 46.949858 -1.062662 0.792903 -0.007255 -0.007452 187355.000000 0 0 1
15.871646 -30.588668 32.790803 47.569029 -1.092164 0.810231 -0.007946 -0.002910 -420706.000000 0 0 1
16.584146 -31.353848 31.705793 47.574731 -1.084270 0.841370 -0.005318 -0.005639 -952169.000000 0 0 1
17.734846 -31.986848 32.131213 48.683653 -1.064549 0.849978 -0.009673 -0.001243 -852690.000000 0 0 1
18.372846 -32.669018 31.054803 48.674706 -1.058488 0.878889 -0.010162 0.003062 -609227.000000 0 0 1
19.761946 -33.143988 31.485313 49.803448 -1.033142 0.886418 -0.009358 0.002183 -300296.000000 0 0 1
20.668646 -32.063088 31.452763 49.441995 -0.998209 0.881292 -0.004533 0.001608 1315440.000000 0 0 1
22.047946 -32.324008 31.808183 50.425330 -0.972191 0.888215 -0.000486 0.001702 1657110.000000 0 0 1
23.061946 -31.154668 31.608263 50.015488 -0.933571 0.886704 0.005227 0.005111 504899.000000 0 0 1
23.670346 -31.062808 30.316873 49.439823 -0.919649 0.910682 0.008467 0.002695 -341755.000000 0 0 1
24.668146 -30.092648 30.342663 49.343309 -0.884134 0.908500 0.015285 0.000566 -1110630.000000 0 0 1
25.792146 -30.326698 29.395843 49.487968 -0.866026 0.934775 0.010407 0.000032 -1642980.000000 0 0 1
26.590046 -31.364468 29.719603 50.734754 -0.867595 0.944949 0.007674 0.000632 -297572.000000 0 0 1
27.657846 -31.394938 28.725573 50.751918 -0.848598 0.969151 0.009772 -0.004905 729520.000000 0 0 1
28.726446 -32.369528 29.262613 52.242661 -0.844956 0.976255 -0.005614 -0.004363 -63793.900000 0 0 1
28.298946 -33.694328 28.995083 52.695853 -0.872211 0.988151 0.002415 -0.003262 723714.000000 0 0 1
29.380046 -34.594844 29.260933 54.001783 -0.866732 0.998158 -0.001901 -0.002456 311519.000000 0 0 1
28.772946 33.605622 29.917103 53.406491 0.862717 0.976197 0.001157 0.002062 -131373.000000 0 0 1
28.278346 33.687141 31.282943 53.973242 0.872465 0.952557 0.000506 0.004410 749894.000000 0 0 1
27.151746 34.506732 31.606523 54.100870 0.904123 0.946884 -0.000085 0.003277 1945760.000000 0 0 1
25.730446 34.130695 30.946033 52.769472 0.924817 0.944142 0.002823 -0.001509 1410420.000000 0 0 1
25.081146 32.998403 31.511123 52.066394 0.920881 0.920766 0.006888 0.002812 853520.000000 0 0 1
23.662646 32.995903 31.237283 51.229076 0.948660 0.915042 -0.001494 0.003661 1299940.000000 0 0 1
23.172546 31.529083 31.202443 50.046402 0.936992 0.897623 -0.007136 0.006316 -141491.000000 0 0 1
23.090246 30.964813 29.950133 48.877291 0.930057 0.911246 -0.009217 0.002580 -48192.500000 0 0 1
22.209446 29.883753 30.083903 47.867937 0.931665 0.891203 -0.011361 0.000866 -377374.000000 0 0 1
21.897546 29.191663 28.736003 46.447966 0.927212 0.903747 -0.008144 -0.000153 -823259.000000 0 0 1
20.787046 29.834623 28.194333 46.012242 0.962260 0.911251 -0.010813 -0.004517 -388782.000000 0 0 1
20.404246 29.142773 26.994143 44.657790 0.959971 0.921700 -0.005427 -0.000230 422246.000000 0 0 1
19.122746 29.752123 26.339033 44.097765 0.999545 0.930682 -0.011022 0.000104 251601.000000 0 0 1
19.226046 31.134873 26.013863 44.897018 1.017602 0.952789 -0.009407 0.002359 295596.000000 0 0 1
17.938146 31.704023 25.760223 44.615146 1.055903 0.955271 -0.002406 0.001134 162605.000000 0 0 1
17.919146 33.170923 25.161223 45.326516 1.075503 0.982301 0.001119 -0.001478 -234994.000000 0 0 1
18.366246 33.305123 23.810733 44.872054 1.066837 1.011445 0.004713 -0.003216 825013.000000 0 0 1
19.751746 33.689480 23.776233 45.721130 1.040520 1.023913 -0.002778 0.002918 1023590.000000 0 0 1
20.375946 33.965390 22.329933 45.469251 1.030448 1.057445 0.003908 0.000654 140175.000000 0 0 1
19.901246 -34.322694 21.757133 45.249086 -1.045342 1.069195 0.008004 0.000813 396000.000000 0 0 1
20.401246 -34.198667 20.391633 44.739003 -1.032917 1.097536 0.010598 -0.000952 261808.000000 0 0 1
19.893546 -32.801618 19.802533 43.172209 -1.025625 1.094279 0.004365 -0.002739 59904.800000 0 0 1
20.368946 -31.700548 20.603233 42.945453 -0.999682 1.070423 0.000949 -0.004273 1064.360000 0 0 1
20.157546 -30.396978 20.045433 41.618774 -0.985237 1.068267 0.001051 -0.002409 -597566.000000 0 0 1
20.995146 -29.845918 18.896433 41.093189 -0.957758 1.092977 -0.001184 -0.000323 -721060.000000 0 0 1
20.890746 -30.675998 17.725133 41.129314 -0.972927 1.125239 -0.008988 -0.005247 231680.000000 0 0 1
21.229246 -29.956888 16.514433 40.259440 -0.954282 1.148123 -0.003228 0.002474 -299453.000000 0 0 1
20.914146 -30.634168 15.125233 40.057789 -0.971771 1.183609 0.000795 -0.004607 39556.900000 0 0 1
21.649546 -31.843078 14.806433 41.254272 -0.973700 1.203700 0.003966 -0.005171 232867.000000 0 0 1
21.788446 -32.023798 13.422233 40.992882 -0.973358 1.237216 0.003772 -0.002066 -88837.900000 0 0 1
20.533546 -32.277698 12.539233 40.258026 -1.004217 1.254055 0.004388 0.000789 207248.000000 0 0 1
19.922446 -33.585548 12.748833 41.078287 -1.035403 1.255230 0.009254 -0.005893 497751.000000 0 0 1
18.671646 -33.696738 12.088733 40.376206 -1.064804 1.266730 0.014770 -0.005061 521760.000000 0 0 1
17.584046 -34.423559 12.944233 40.764363 -1.098535 1.247664 0.020313 -0.002608 101407.000000 0 0 1
17.327146 -33.679698 14.098733 40.414432 -1.095641 1.214448 0.021114 -0.003482 169967.000000 0 0 1
17.735046 -34.379471 15.249533 41.581584 -1.094540 1.195296 0.009073 -0.009113 -591291.000000 0 0 1
17.733646 -33.502028 16.525833 41.351799 -1.083961 1.159672 0.014841 -0.013849 1238430.000000 0 0 1
16.397746 -33.102068 16.956333 40.646651 -1.110860 1.140473 0.022616 -0.009274 1574010.000000 0 0 1
15.552346 -34.122422 17.515433 41.388471 -1.143145 1.133827 0.018805 -0.002535 -426105.000000 0 0 1
16.031946 34.693424 18.857033 42.617422 1.137923 1.112443 0.007859 -0.005668 -22827.500000 0 0 1
16.962646 33.638362 18.605533 42.017099 1.103743 1.112068 0.007152 -0.004465 121349.000000 0 0 1
17.424746 33.096223 19.806333 42.323428 1.086184 1.083798 0.012076 -0.005001 -79172.600000 0 0 1
18.270346 31.827043 19.703333 41.653181 1.049676 1.078066 0.012467 -0.005084 -46665.400000 0 0 1
17.507646 30.704163 19.291733 40.267037 1.052574 1.071173 0.009846 -0.006750 -744951.000000 0 0 1
18.332146 29.663213 19.058933 39.739359 1.017240 1.070599 0.004648 -0.007244 -515282.000000 0 0 1
17.643846 28.301843 18.729333 38.250327 1.013336 1.059106 0.002837 -0.001699 91153.700000 0 0 1
17.163146 27.571133 19.863433 38.069632 1.013994 1.021877 0.004066 -0.003495 107437.000000 0 0 1
16.705146 26.288843 19.434433 36.713245 1.004720 1.012953 0.003066 0.003088 -362270.000000 0 0 1
16.736146 25.335843 20.650433 36.721164 0.987025 0.973562 0.000918 0.000167 -85848.300000 0 0 1
15.671546 25.523803 21.562333 36.905231 1.020148 0.946826 -0.002605 0.000243 262591.000000 0 0 1
14.468346 24.838583 21.261933 35.754133 1.043348 0.933940 0.004833 0.004939 308669.000000 0 0 1
13.264546 25.247353 22.155233 36.114143 1.087049 0.910339 0.007302 -0.002533 428241.000000 0 0 1
12.611046 26.478803 21.731133 36.502159 1.126313 0.933110 0.010885 -0.005567 -34308.800000 0 0 1
11.329746 26.541843 22.305933 36.474473 1.167348 0.912779 0.001921 -0.005003 -789624.000000 0 0 1
10.577146 27.682473 21.657533 36.704823 1.205826 0.939681 0.003816 -0.005389 -777780.000000 0 0 1
11.017946 29.018013 21.788733 37.923464 1.207917 0.958748 0.001887 -0.006273 -446600.000000 0 0 1
10.627046 29.789063 20.740833 37.822011 1.228127 0.990371 0.002884 -0.005495 -441088.000000 0 0 1
11.062446 31.241273 20.802333 39.129680 1.230476 1.010278 0.006776 -0.007262 -255799.000000 0 0 1
10.392046 32.098253 21.731833 40.131845 1.257689 0.998563 0.002253 -0.004596 -115231.000000 0 0 1
10.746246 31.865273 23.127533 40.813726 1.245534 0.968349 0.004391 -0.002414 -232469.000000 0 0 1
10.199446 32.919983 24.133833 42.073696 1.270350 0.959892 -0.003601 -0.001725 -111709.000000 0 0 1
8.842446 32.747903 24.445183 41.811254 1.307070 0.946341 -0.000362 -0.003563 -237694.000000 0 0 1
8.318746 33.678344 25.411353 43.001968 1.328638 0.938579 0.007538 0.002777 788184.000000 0 0 1
6.940746 33.243213 26.069443 42.812393 1.364966 0.916094 0.001467 0.003799 677168.000000 0 0 1
5.756746 33.600865 25.412183 42.519846 1.401116 0.930224 -0.006648 0.003781 580.828000 0 0 1
5.419146 32.854573 24.232833 41.182767 1.407325 0.941691 -0.004418 0.000484 -261068.000000 0 0 1
4.747746 31.444913 24.411493 40.090456 1.420942 0.916110 -0.006036 -0.003466 -146983.000000 0 0 1
5.588246 30.561953 25.114603 39.950028 1.389944 0.890980 -0.003392 -0.004693 -179166.000000 0 0 1
4.993246 29.267073 25.078793 38.864378 1.401814 0.869394 -0.006040 -0.004835 -1240410.000000 0 0 1
5.936846 28.176023 25.590923 38.523107 1.363128 0.844239 -0.003476 -0.003531 235748.000000 0 0 1
7.010746 27.896703 24.660073 37.887937 1.324584 0.862068 0.006230 -0.003463 1211740.000000 0 0 1
8.020546 28.932343 24.527453 38.768616 1.300370 0.885810 0.003245 -0.004564 -1364080.000000 0 0 1
9.240346 28.559023 25.336933 39.280554 1.257874 0.869741 -0.002679 -0.004087 -1700220.000000 0 0 1
9.205546 28.468853 26.742103 40.129263 1.258053 0.841428 -0.003011 0.003646 979263.000000 0 0 1
10.504146 28.422593 27.394913 40.849261 1.216794 0.835733 0.006086 0.004126 1274430.000000 0 0 1
11.355946 29.730403 27.384543 41.985325 1.205934 0.860259 0.005772 0.005826 -349569.000000 0 0 1
10.712746 30.765883 28.098743 43.021411 1.235724 0.859081 0.009913 0.002399 -63033.900000 0 0 1
11.205846 32.058733 27.925683 43.967910 1.234530 0.882609 0.011120 0.005003 -23979.400000 0 0 1
10.207446 33.077043 28.596073 44.900090 1.271472 0.880349 0.016068 0.005101 284365.000000 0 0 1
10.273246 33.080353 29.997753 45.822642 1.269685 0.857078 0.026049 0.001529 186858.000000 0 0 1
9.852646 31.969503 30.765033 45.448993 1.271844 0.827235 0.022074 -0.002130 -298282.000000 0 0 1
10.138746 32.107053 32.309913 46.664628 1.264927 0.806006 0.030218 -0.003456 -300200.000000 0 0 1
10.037146 30.904773 32.990663 46.305865 1.256767 0.777811 0.026795 -0.002648 389729.000000 0 0 1
10.362646 30.919153 34.413026 47.409227 1.247409 0.758495 0.035800 -0.002769 -202823.000000 0 0 1
10.368546 29.523593 -34.339553 46.458091 1.233057 2.402606 0.028270 0.001074 -93757.300000 0 0 1
11.543946 28.782393 -34.614165 46.473963 1.189362 2.411043 0.025894 0.010491 97022.100000 0 0 1
11.334046 27.451943 -34.153604 45.260783 1.179246 2.425835 0.027315 0.004587 70657.200000 0 0 1
12.475046 26.477243 -34.533352 45.268351 1.130485 2.438519 0.027681 0.004922 12109.600000 0 0 1
12.335546 25.065103 -34.283952 44.224591 1.113456 2.457866 0.020874 0.003237 -259632.000000 0 0 1
12.576646 24.662763 -32.891727 42.991739 1.099225 2.441948 0.027350 0.005476 -86201.400000 0 0 1
12.469946 23.116933 -32.781307 42.006026 1.076105 2.466094 0.010515 0.002674 -429872.000000 0 0 1
13.531346 22.411033 -33.346017 42.394676 1.027602 2.476017 0.004686 0.005590 -352525.000000 0 0 1
13.367946 21.047733 -33.314477 41.612059 1.004949 2.499087 0.000424 0.008236 -536718.000000 0 0 1
14.592846 20.255333 -33.782747 42.005996 0.946481 2.505186 -0.001036 0.005107 522364.000000 0 0 1
15.699246 20.451833 -32.880777 41.783840 0.916113 2.476607 -0.001480 -0.000129 214601.000000 0 0 1
16.890646 19.866233 -33.329057 42.317693 0.866175 2.477687 -0.005465 0.001795 -115192.000000 0 0 1
18.091046 20.149933 -32.388907 42.217852 0.839186 2.445237 -0.008808 -0.002170 -222571.000000 0 0 1
18.735746 21.331533 -32.756197 43.347790 0.850093 2.427458 -0.004157 0.002153 -300502.000000 0 0 1
19.834346 21.703233 -31.963877 43.429495 0.830361 2.397931 -0.000456 0.001863 1658.660000 0 0 1
19.494246 22.197933 -30.528107 42.482222 0.850156 2.372596 0.002736 -0.002082 -223419.000000 0 0 1
18.810946 23.413733 -30.571007 42.856050 0.893976 2.365051 -0.001674 -0.000169 -269463.000000 0 0 1
18.342846 23.842633 -29.293177 41.988348 0.915039 2.342909 -0.001350 -0.000212 -290660.000000 0 0 1
19.335746 24.380933 -28.233237 42.016861 0.900296 2.307635 0.000541 -0.000726 -25934.300000 0 0 1
20.069446 25.561473 -28.575417 43.275004 0.905180 2.292043 0.002475 -0.003808 333291.000000 0 0 1
19.239246 26.745883 -28.673167 43.676554 0.947211 2.286951 -0.002240 -0.000330 -257925.000000 0 0 1
19.910646 27.936053 -29.382407 45.168382 0.951583 2.279050 -0.004193 -0.000026 -629072.000000 0 0 1
19.993646 27.972283 -30.814637 46.170730 0.950229 2.301517 -0.007675 0.001068 31274.300000 0 0 1
20.633946 26.875333 -31.485627 46.253518 0.916022 2.319539 -0.004043 0.000766 1133100.000000 0 0 1
22.141346 26.534913 -31.105227 46.495978 0.875415 2.303642 -0.006142 -0.001570 630735.000000 0 0 1
23.095946 27.424243 -31.607317 47.796802 0.870864 2.293327 -0.014594 0.003636 542195.000000 0 0 1
24.400746 26.965383 -31.206907 47.920761 0.835285 2.279986 -0.009823 -0.001225 1322860.000000 0 0 1
25.643846 27.888783 -31.460177 49.245647 0.827309 2.263788 -0.011232 -0.002740 476989.000000 0 0 1
25.587046 29.098363 -30.668667 49.416382 0.849520 2.240326 -0.011391 -0.001189 171000.000000 0 0 1
26.713246 29.874043 -31.019737 50.678201 0.841197 2.229500 -0.004500 -0.000936 178561.000000 0 0 1
26.706346 31.122263 -30.112807 50.878338 0.861612 2.204160 -0.004979 0.000654 -91946.200000 0 0 1
27.157746 30.977753 -28.770307 50.248332 0.851013 2.180424 0.002174 0.004101 321948.000000 0 0 1
26.638646 32.032663 -27.974807 50.182654 0.877077 2.162119 -0.002811 0.008258 -354718.000000 0 0 1
27.211746 31.854363 -26.561387 49.605310 0.863837 2.135842 0.000893 0.011370 -79749.200000 0 0 1
26.990746 30.643063 -25.859227 48.334225 0.848685 2.135314 0.000293 0.010116 839716.000000 0 0 1
25.612746 30.257433 -25.660497 47.222729 0.868341 2.145270 0.004514 0.009461 878075.000000 0 0 1
25.101346 29.877503 -24.239107 45.937752 0.872053 2.126629 0.003114 0.010228 -14206.400000 0 0 1
24.982146 31.058223 -23.451007 46.245762 0.893399 2.102608 0.007647 0.009081 -100571.000000 0 0 1
24.439246 30.764843 -22.218207 45.137579 0.899486 2.085450 0.014764 0.010365 -42977.600000 0 0 1
2.886246 -26.168618 -19.122507 32.539165 -1.460946 2.198981 -0.010649 0.013479 -245426.000000 0 0 1
2.908746 -27.472528 -18.585807 33.296139 -1.465311 2.163008 -0.011461 0.012323 210287.000000 0 0 1
2.823846 -27.398568 -17.152507 32.447868 -1.468094 2.127767 -0.008062 0.008068 -276046.000000 0 0 1
2.916546 -28.738408 -16.463607 33.248349 -1.469657 2.088828 -0.008925 0.008124 -436131.000000 0 0 1
4.182546 -29.181098 -16.063107 33.571619 -1.428435 2.069711 -0.004318 0.011328 -386726.000000 0 0 1
4.103946 -29.990898 -14.926207 33.750378 -1.434801 2.028906 -0.002255 0.007328 261145.000000 0 0 1
5.509746 -30.553178 -14.585107 34.301302 -1.392381 2.009985 0.000633 0.005502 336269.000000 0 0 1
6.468646 -29.579128 -14.205007 33.444737 -1.355496 2.009461 0.005857 0.004744 -525233.000000 0 0 1
7.762046 -30.063458 -14.026507 34.070571 -1.318126 1.995104 0.006458 0.002227 -451711.000000 0 0 1
8.143846 -30.926858 -12.784707 34.441857 -1.313315 1.951094 0.003667 0.002683 -826509.000000 0 0 1
7.982646 -30.254918 -11.482507 33.330627 -1.312829 1.922506 0.001091 0.003095 29638.400000 0 0 1
8.131646 -31.102418 -10.351407 33.773299 -1.315073 1.882307 0.005947 0.007009 -516799.000000 0 0 1
9.412946 -31.879758 -10.158707 34.758047 -1.283690 1.867395 0.001192 0.005093 -981592.000000 0 0 1
10.586246 -31.143248 -9.955907 34.366999 -1.243129 1.864703 0.000615 0.009467 -755273.000000 0 0 1
11.626846 -32.030908 -9.695707 35.428369 -1.222598 1.848004 -0.004326 0.006998 -638816.000000 0 0 1
12.615646 -31.405308 -8.709307 34.947102 -1.188822 1.822665 -0.009150 0.003476 28713.400000 0 0 1
13.644546 -30.587208 -9.295007 34.758425 -1.151201 1.841508 -0.016403 0.010192 233049.000000 0 0 1
14.591746 -30.270598 -8.320207 34.618695 -1.121617 1.813511 -0.013022 0.003390 404653.000000 0 0 1
15.825246 -29.498478 -8.978507 34.658509 -1.078395 1.832841 -0.003961 0.004150 667628.000000 0 0 1
15.639046 -28.117118 -9.313107 33.494568 -1.063197 1.852558 -0.005128 0.000190 -259071.000000 0 0 1
14.912146 -27.946128 -10.477907 33.363823 -1.080629 1.890252 -0.009063 -0.001573 -403817.000000 0 0 1
14.589146 -26.453878 -10.746007 32.064428 -1.066807 1.912548 -0.013124 -0.005667 -425473.000000 0 0 1
13.507446 -25.963728 -9.965307 30.917206 -1.091086 1.898978 -0.017671 -0.005992 233661.000000 0 0 1
13.141046 -24.630378 -10.254207 29.740400 -1.080686 1.922812 -0.008804 -0.006144 -111681.000000 0 0 1
12.525246 -24.314878 -11.665007 29.734954 -1.095121 1.973926 -0.005191 -0.003572 -45172.400000 0 0 1
13.469546 -24.060678 -12.701407 30.359029 -1.060448 2.002450 -0.006374 -0.008441 -331303.000000 0 0 1
12.844146 -24.077478 -13.947207 30.646723 -1.080748 2.043277 0.001529 -0.005607 -221296.000000 0 0 1
13.566246 -23.513478 -15.206407 31.115294 -1.047493 2.081409 -0.000944 -0.005449 -49656.200000 0 0 1
14.562446 -24.385378 -15.701607 32.453844 -1.032453 2.075803 0.003840 -0.002362 -122864.000000 0 0 1
15.013446 -23.836578 -16.906807 32.854621 -1.008718 2.111331 -0.002236 -0.001757 -764872.000000 0 0 1
15.954846 -24.779278 -17.658507 34.356842 -0.998736 2.110607 -0.000418 -0.000736 417309.000000 0 0 1
17.208446 -25.000778 -17.034307 34.804269 -0.967955 2.082234 0.002800 0.000098 116731.000000 0 0 1
18.264046 -24.124178 -17.368107 34.888429 -0.922776 2.091878 -0.000820 -0.002569 396410.000000 0 0 1
19.695046 -24.617578 -16.995907 35.815930 -0.896031 2.065232 0.003378 0.001218 546375.000000 0 0 1
20.114946 -25.700728 -17.799907 37.174927 -0.906718 2.070101 0.001782 -0.000160 281779.000000 0 0 1
21.145446 -26.486538 -17.134707 37.977161 -0.897064 2.038889 0.006680 -0.001547 979596.000000 0 0 1
21.777646 -27.471378 -18.224707 39.510536 -0.900498 2.050213 0.008584 -0.002144 74506.800000 0 0 1
22.514946 -26.782028 -19.261207 39.939879 -0.871742 2.074023 0.011204 0.001530 254323.000000 0 0 1
22.921446 -27.584238 -20.350007 41.235975 -0.877459 2.086907 0.007148 0.001674 -520247.000000 0 0 1
23.935546 -26.838468 -21.217907 41.754201 -0.842509 2.103846 0.006397 0.006451 -104327.000000 0 0 1
23.499846 -25.643628 -21.837707 41.069744 -0.828993 2.131429 0.006321 0.003973 -187858.000000 0 0 1
24.261946 -24.661078 -21.232907 40.591220 -0.793556 2.121270 0.007645 0.004096 27395.800000 0 0 1
23.655046 -23.242278 -21.584507 39.568367 -0.776597 2.147781 0.019340 0.003508 -228628.000000 0 0 1
23.758446 -22.748778 -22.886407 40.071914 -0.763692 2.178682 0.010888 0.003707 139948.000000 0 0 1
23.098646 -23.459378 -23.934307 40.703083 -0.793146 2.199408 0.005361 -0.000094 528710.000000 0 0 1
22.062546 -22.613678 -24.773207 40.147804 -0.797734 2.235785 -0.001100 -0.002721 511200.000000 0 0 1
22.693446 -21.756878 -25.708577 40.611392 -0.764331 2.256268 -0.007712 0.003303 -529502.000000 0 0 1
21.785046 -21.105678 -26.502217 40.279094 -0.769560 2.288909 -0.008753 0.004227 -489210.000000 0 0 1
22.391046 -20.570878 -27.841717 41.227190 -0.743056 2.312200 -0.012804 0.002682 191401.000000 0 0 1
21.480446 -19.673178 -28.426657 40.700348 -0.741511 2.344008 -0.010017 0.003188 137150.000000 0 0 1
22.106946 -19.159478 -29.593067 41.611925 -0.714094 2.361954 -0.008912 0.003072 -277442.000000 0 0 1
21.244846 -18.249878 -30.423027 41.351688 -0.709711 2.397517 -0.005945 0.002186 -276559.000000 0 0 1
19.951646 -18.734678 -30.756287 41.170445 -0.753951 2.414406 -0.010714 0.001377 473688.000000 0 0 1
19.359046 -17.836978 -31.684787 41.192914 -0.744501 2.448354 -0.003359 0.003166 479770.000000 0 0 1
18.102846 -18.334078 -32.462947 41.445077 -0.791744 2.470715 -0.005676 0.001006 352881.000000 0 0 1
18.500246 -19.182878 -33.512377 42.817302 -0.803511 2.469761 -0.007923 0.004356 546187.000000 0 0 1
17.427446 -19.496378 -34.393220 43.205535 -0.841372 2.491516 -0.004023 0.002245 -87342.100000 0 0 1
17.845946 -20.363678 33.832008 43.333151 -0.851196 0.674944 -0.004074 -0.002444 -271860.000000 0 0 1
18.444146 -21.552778 34.255524 44.476395 -0.862964 0.691649 -0.001344 -0.001531 -41481.600000 0 0 1
18.723546 -22.505678 33.248103 44.300261 -0.876876 0.721952 -0.004421 -0.004458 149613.000000 0 0 1
19.682846 -23.647778 33.713678 45.642567 -0.876648 0.739738 -0.001526 0.001705 3155.490000 0 0 1
19.121046 -24.493178 34.686180 46.568887 -0.907955 0.730507 -0.000201 -0.003904 -172844.000000 0 0 1
19.095046 -23.973778 -33.390447 45.324219 -0.898195 2.398977 -0.000654 -0.004414 -231277.000000 0 0 1
17.952346 -24.599378 -32.538607 44.566547 -0.940356 2.389283 -0.005285 -0.004887 27505.900000 0 0 1
17.896046 -26.030198 -32.442217 45.280649 -0.968502 2.369525 -0.005295 -0.007204 -234380.000000 0 0 1
18.914346 -26.546558 -31.624057 45.415341 -0.951732 2.341067 -0.002901 -0.008336 -44597.500000 0 0 1
19.142046 -28.053468 -31.906787 46.598906 -0.972020 2.325004 0.000461 -0.007748 -268484.000000 0 0 1
18.142246 -28.856468 -31.371257 46.324860 -1.009536 2.314749 -0.005138 -0.000128 -272464.000000 0 0 1
18.634046 -30.182318 -31.254337 47.276142 -1.017693 2.293082 -0.006400 -0.003064 -147208.000000 0 0 1
17.631746 -31.144628 -30.592977 47.082869 -1.055658 2.278077 -0.004219 -0.002280 148557.000000 0 0 1
16.429346 -31.554408 -31.198957 47.317851 -1.090752 2.290748 -0.010104 -0.001752 -119051.000000 0 0 1
16.572846 -32.072998 -32.537967 48.600985 -1.093860 2.304321 -0.005373 -0.000046 -79278.700000 0 0 1
15.194746 -32.571948 -33.106367 48.865567 -1.134308 2.315153 -0.008212 -0.000291 392552.000000 0 0 1
14.424546 -31.505188 -33.542987 48.226304 -1.141436 2.339958 -0.005725 -0.000218 -907059.000000 0 0 1
13.246146 -32.010208 -34.082437 48.597596 -1.178442 2.348043 -0.003701 0.002263 -357126.000000 0 0 1
12.225546 -31.008278 -34.661892 48.087671 -1.195242 2.375761 0.002092 0.003126 205557.000000 0 0 1
11.696046 -30.101698 -33.723137 46.692180 -1.200199 2.377837 0.004648 0.000782 202912.000000 0 0 1
10.875946 -29.088948 -34.308038 46.276285 -1.213003 2.405912 0.005310 -0.000055 76881.100000 0 0 1
10.322246 -28.140298 -33.277147 44.786088 -1.219222 2.408374 0.003912 -0.000531 -386437.000000 0 0 1
9.312046 -28.741008 -32.530967 44.396211 -1.257470 2.393139 0.001342 -0.003181 -1218300.000000 0 0 1
8.339946 -27.820378 -32.195387 43.359787 -1.279543 2.407617 0.012260 -0.002094 -505875.000000 0 0 1
7.043046 -28.500208 -31.709157 43.212695 -1.328528 2.394684 0.004801 0.002509 -141420.000000 0 0 1
6.261746 -29.339588 -32.602687 44.305261 -1.360528 2.397739 -0.003152 0.004156 708015.000000 0 0 1
6.748946 -30.707568 -32.707137 45.368049 -1.354455 2.375938 -0.000504 0.002236 570274.000000 0 0 1
5.676346 -31.579888 -33.489887 46.379767 -1.392950 2.377600 -0.001313 0.001746 629116.000000 0 0 1
4.611446 -31.952298 -32.668647 45.928807 -1.427463 2.362126 -0.002133 0.001810 49175.500000 0 0 1
3.534246 -32.526618 -33.421077 46.770078 -1.462564 2.366823 -0.002802 0.004794 679656.000000 0 0 1
2.324746 -32.940068 -32.532477 46.355308 -1.500338 2.348727 0.002555 0.001999 589245.000000 0 0 1
1.496546 -31.874968 -32.067797 45.239329 -1.523880 2.358660 -0.006657 0.003977 -216973.000000 0 0 1
0.450946 -32.225418 -31.227377 44.875718 -1.556804 2.340418 -0.005462 0.003181 -383712.000000 0 0 1
-0.319654 -30.931338 -30.840187 43.680282 1.560462 2.354692 0.000302 0.002530 -391369.000000 0 0 1
-1.063754 -31.141638 -29.679697 43.032751 1.536651 2.331871 -0.005621 -0.000545 -93623.300000 0 0 1
-1.787854 -29.989098 -29.285247 41.954358 1.511250 2.343434 0.000647 0.000633 365767.000000 0 0 1
-2.639654 -30.278038 -28.009427 41.331046 1.483836 2.315406 0.001913 -0.000465 145606.000000 0 0 1
-1.711154 -30.389118 -26.941207 40.647942 1.514548 2.295340 0.002024 0.002764 427028.000000 0 0 1
-2.348654 -30.626538 -25.707757 40.054835 1.494259 2.267658 0.000864 0.000777 128054.000000 0 0 1
-1.331754 -30.979668 -24.592507 39.576569 1.527835 2.241313 -0.000128 -0.003511 -43247.200000 0 0 1
-1.866254 -30.908648 -23.307907 38.756754 1.510490 2.216036 0.007526 -0.002870 -457072.000000 0 0 1
-0.943854 -31.211958 -22.280007 38.359822 1.540565 2.190527 0.005689 0.000596 106687.000000 0 0 1
-1.551154 -31.118608 -20.836107 37.482225 1.520991 2.160233 -0.006903 0.000372 110872.000000 0 0 1
-1.797354 -29.792408 -20.317507 36.105667 1.510540 2.168473 0.002486 0.002234 191876.000000 0 0 1
-0.612254 -29.323578 -19.697207 35.330257 1.549920 2.162188 -0.002594 0.004532 -388521.000000 0 0 1
-0.649854 -27.801058 -19.231007 33.810543 1.547425 2.175827 -0.006424 0.005656 46930.400000 0 0 1
-1.472054 -27.578678 -18.074007 33.006366 1.517470 2.150280 -0.001541 0.003863 291594.000000 0 0 1
-1.175654 -26.448658 -17.349707 31.653215 1.526375 2.150909 0.001210 0.006718 -42864.300000 0 0 1
-2.201454 -26.329178 -16.208907 30.996785 1.487378 2.121072 -0.001697 0.005680 -229402.000000 0 0 1
-2.007654 -25.207748 -15.445807 29.631642 1.491320 2.119124 -0.005958 0.009217 51038.300000 0 0 1
-2.947254 -25.002078 -14.416007 29.010541 1.453457 2.090846 -0.004857 0.002520 -261968.000000 0 0 1
-2.595054 -23.775978 -13.548007 27.487815 1.462081 2.086185 -0.005320 0.004423 -83845.300000 0 0 1
-1.315554 -23.869578 -12.958807 27.192244 1.515738 2.067537 -0.008702 0.003102 -342750.000000 0 0 1
-1.205454 -22.884578 -11.963107 25.850976 1.518170 2.051916 -0.009962 0.000460 1195140.000000 0 0 1
0.250146 -22.734878 -11.344407 25.409306 -1.559794 2.033609 -0.003060 0.000994 1141230.000000 0 0 1
0.353746 -21.544778 -10.582807 24.006216 -1.554379 2.027326 -0.008435 0.000163 -389856.000000 0 1 0
1.632246 -21.415478 -10.023107 23.701258 -1.494725 2.007432 -0.010412 -0.003098 -272600.000000 0 1 0
1.894746 -20.013778 -9.525507 22.245824 -1.476406 2.013289 -0.008316 -0.001379 -1084460.000000 0 1 0
2.304146 -19.112978 -10.580007 21.967057 -1.450821 2.073311 -0.009732 0.000736 911786.000000 0 1 0
3.405046 -18.217678 -10.246107 21.176894 -1.386019 2.075827 -0.009343 0.000285 169708.000000 0 1 0
4.731646 -18.862678 -9.966007 21.852011 -1.325021 2.044368 -0.001778 0.000801 -1627780.000000 0 1 0
4.723346 -19.270178 -8.588307 21.619639 -1.330424 1.979310 -0.003038 -0.002077 -264384.000000 0 1 0
5.878646 -20.011678 -8.276107 22.439244 -1.285073 1.948539 0.003001 -0.001045 -182966.000000 0 1 0
5.560746 -21.155978 -7.278207 23.053625 -1.313765 1.891999 0.000526 -0.000281 -154758.000000 0 1 0
4.598246 -22.010978 -7.829207 23.810156 -1.364851 1.905848 -0.002845 -0.010149 -98790.000000 0 1 0
4.190246 -23.082078 -6.986707 24.477634 -1.391215 1.860254 -0.002840 -0.005632 665772.000000 0 1 0
3.048646 -23.973778 -7.607207 25.335862 -1.444309 1.875756 -0.012570 -0.007138 538193.000000 0 0 1
3.496446 -24.569678 -8.790807 26.328170 -1.429438 1.911228 -0.006426 -0.007629 379708.000000 0 0 1
2.430046 -25.203648 -9.485307 27.038862 -1.474677 1.929225 -0.010913 -0.004919 490700.000000 0 0 1
3.048746 -26.031018 -10.632307 28.283471 -1.454208 1.956185 0.000696 -0.004420 195709.000000 0 0 1
3.665046 -27.245558 -10.200307 29.322334 -1.437080 1.926093 -0.001387 -0.003801 -224741.000000 0 0 1
4.384546 -27.828068 -11.223107 30.324639 -1.414523 1.949912 0.007803 -0.003218 -260733.000000 0 0 1
4.463546 -29.364878 -11.105807 31.710539 -1.419948 1.928607 0.008011 0.001098 378204.000000 0 0 1
3.322046 -30.191878 -11.358607 32.428436 -1.461206 1.928652 0.005456 0.001901 164753.000000 0 0 1
3.656546 -31.523848 -11.324107 33.695085 -1.455319 1.913544 0.003330 -0.000700 81569.600000 0 0 1
2.567446 -32.527628 -11.807307 34.699436 -1.492028 1.918004 0.001069 -0.004982 137791.000000 0 0 1
2.332446 -32.480158 -13.189207 35.133405 -1.499108 1.955629 -0.002128 -0.001728 690794.000000 0 0 1
1.330446 -33.456148 -13.528207 36.112274 -1.531050 1.954778 -0.003498 -0.002650 230317.000000 0 0 1
0.968246 -33.475978 -15.002007 36.696578 -1.541881 1.991948 -0.001256 0.001606 527283.000000 0 0 1
-0.180954 -32.671488 -15.311907 36.082037 1.565258 2.009055 -0.003131 0.005677 516816.000000 0 0 1
-0.538554 -32.593788 -16.676207 36.616130 1.554275 2.043655 -0.006821 -0.006840 -416003.000000 0 0 1
-1.701754 -31.635888 -16.911007 35.912499 1.517056 2.061101 -0.001905 -0.005626 -857787.000000 0 0 1
-2.895054 -32.027628 -16.328807 36.066331 1.480649 2.040637 -0.000845 -0.009606 -1451620.000000 0 0 1
-3.931954 -31.669538 -17.188807 36.247414 1.447273 2.064860 0.002020 -0.005210 780488.000000 0 0 1
-5.324054 -31.664848 -16.410607 36.059897 1.404217 2.043273 0.002434 -0.009629 574215.000000 0 0 1
-5.368154 -30.617408 -15.472807 34.722479 1.397230 2.032656 0.002096 -0.009782 -286016.000000 0 0 1
-6.630654 -30.499558 -14.872707 34.574355 1.356726 2.015473 0.000111 -0.006059 -129423.000000 0 0 1
-7.180354 -31.590888 -13.944807 35.270375 1.347301 1.977266 -0.001404 -0.012480 -260934.000000 0 0 1
-7.449554 -32.812908 -14.539607 36.654918 1.347549 1.978674 0.001411 -0.015775 6866.190000 0 0 1
-8.273954 -33.545518 -13.599507 37.130940 1.328974 1.945781 0.005185 -0.013748 580107.000000 0 0 1
-8.787454 34.619954 -14.233807 38.449471 -1.322220 1.950015 0.007236 -0.015912 -706192.000000 0 0 1
-7.781054 33.654055 -14.170807 37.335666 -1.343582 1.960108 0.002716 -0.013861 -254185.000000 0 0 1
-8.049254 32.515493 -14.970607 36.690146 -1.328124 1.991089 0.003678 -0.012906 -332902.000000 0 0 1
-7.090354 -22.385478 -3.472807 23.736957 1.264054 1.717627 0.010128 0.009572 102909.000000 0 1 0
-7.007054 -21.091478 -4.071907 22.594904 1.250046 1.752000 0.005298 0.002896 60936.100000 0 1 0
-5.946454 -21.114778 -5.012007 22.501431 1.296281 1.795422 0.004222 0.005028 205810.000000 0 1 0
-5.980954 -19.947678 -6.027407 21.679744 1.279494 1.852529 0.003521 -0.004705 423415.000000 0 1 0
-6.895054 -20.203178 -7.105007 22.498696 1.241906 1.892092 0.004398 -0.002431 26138.300000 0 1 0
-7.009254 -19.219178 -8.080207 21.995368 1.221085 1.946965 -0.005314 -0.007286 150188.000000 0 1 0
-7.928854 -19.666078 -9.266007 23.140446 1.187557 1.982777 0.000532 -0.002643 208316.000000 0 1 0
-7.226454 -20.350878 -10.246207 23.903235 1.229592 2.013798 0.004777 0.004518 -362849.000000 0 1 0
-8.089654 -20.855878 -11.243207 25.036371 1.200779 2.036526 0.008795 0.013088 -98015.100000 0 0 1
-7.335054 -21.631478 -12.354707 25.968494 1.243872 2.066621 0.007521 0.010962 -89411.700000 0 0 1
-6.646454 -20.750778 -13.263307 25.508537 1.260822 2.117595 0.009503 0.004732 -175508.000000 0 0 1
-6.312954 -21.473878 -14.392507 26.610620 1.284869 2.142251 0.009312 0.007336 38537.500000 0 0 1
-5.247354 -20.848478 -15.359007 26.421447 1.324228 2.191132 0.006146 0.013196 -453279.000000 0 0 1
-3.959254 -21.038578 -14.835907 26.046144 1.384782 2.176817 -0.001246 0.015124 160351.000000 0 0 1
-2.944954 -20.259278 -15.539307 25.701774 1.426444 2.220061 -0.000905 0.017278 660247.000000 0 0 1
-2.909554 -18.705278 -15.478907 24.453006 1.416486 2.256227 0.006048 0.015256 -816439.000000 0 1 0
-3.894154 -18.058278 -16.278207 24.622061 1.358405 2.293111 0.005092 0.015102 -34256.600000 0 1 0
-3.804654 -18.192878 -17.723107 25.681993 1.364639 2.332422 0.007455 0.010689 -701163.000000 0 0 1
-5.128854 -17.975278 -18.464307 26.274444 1.292854 2.350049 0.009633 0.008662 135575.000000 0 0 1
-5.945854 -19.151378 -18.236007 27.104989 1.269765 2.308772 0.003514 0.015476 757464.000000 0 0 1
-7.331154 -18.887378 -18.479007 27.421754 1.200546 2.310246 0.009874 -0.001148 590867.000000 0 0 1
-8.300554 -19.850978 -17.805507 27.928420 1.174748 2.262098 0.006899 0.002993 -253530.000000 0 0 1
-8.020454 -21.209378 -18.163007 29.052715 1.209262 2.246151 0.005717 0.005336 549639.000000 0 0 1
-8.968854 -22.199178 -17.711207 29.781382 1.186831 2.207698 0.007223 0.001246 366357.000000 0 0 1
-8.599154 -23.654978 -18.116707 31.011587 1.222124 2.194680 0.004567 0.001014 -903221.000000 0 0 1
-8.522054 -23.797278 -19.508107 31.929643 1.226915 2.228084 -0.003943 -0.003180 912542.000000 0 0 1
-7.575054 -24.826878 -19.952207 32.739058 1.274653 2.226139 -0.002282 -0.000992 776009.000000 0 0 1
-6.059954 -24.555978 -19.725907 32.075388 1.328849 2.233164 0.002415 0.004790 -280997.000000 0 0 1
-5.482254 -23.525078 -20.532407 31.702747 1.341844 2.275298 -0.001398 -0.000918 160646.000000 0 0 1
-5.399054 -22.238478 -19.886907 30.318126 1.332625 2.286225 0.004941 0.004781 -290155.000000 0 0 1
-4.196154 -22.078678 -18.928507 29.383059 1.382982 2.270771 0.003167 0.012536 740381.000000 0 0 1
-2.914554 -22.211178 -19.595507 29.762644 1.440322 2.289478 -0.002172 0.007759 978702.000000 0 0 1
-1.900354 -22.054478 -18.599207 28.912659 1.484842 2.269583 0.000900 0.011822 512877.000000 0 0 1
-0.550854 -22.744378 -18.939607 29.602684 1.546582 2.265026 -0.002415 0.011149 149833.000000 0 0 1
0.194146 -22.113278 -19.921607 29.764160 -1.562017 2.304083 -0.006275 0.005197 -80992.700000 0 0 1
1.493646 -22.693778 -20.007407 30.290838 -1.505074 2.292294 -0.007591 0.000063 503603.000000 0 0 1
2.392446 -22.215878 -21.139107 30.759241 -1.463519 2.328485 0.001155 -0.002621 306850.000000 0 0 1
1.787446 -22.551278 -22.437507 31.862154 -1.491700 2.352100 -0.003190 -0.010212 397181.000000 0 0 1
1.140946 -21.460578 -23.104107 31.554048 -1.517682 2.392354 -0.006197 -0.009106 -180375.000000 0 0 1
0.515346 -21.922878 -24.439807 32.835687 -1.547293 2.410292 -0.005656 -0.006151 -101490.000000 0 0 1
-0.010354 -20.865778 -25.256587 32.760891 1.570300 2.451108 -0.007261 -0.007504 770636.000000 0 0 1
-1.342154 -20.434478 -24.897007 32.237094 1.505210 2.453265 -0.008292 -0.003184 592226.000000 0 0 1
-1.716154 -19.163978 -25.676487 32.085592 1.481484 2.498508 -0.008116 -0.000825 -128815.000000 0 0 1
-1.147154 -17.950578 -25.261437 31.010957 1.506977 2.522831 -0.003109 -0.002963 -222664.000000 0 0 1
-1.695954 -16.828078 -25.944437 30.970539 1.470354 2.563879 -0.005674 -0.001629 -283927.000000 0 0 1
-1.139354 -15.406778 -25.604677 29.904288 1.496979 2.598706 -0.005921 -0.000243 996728.000000 0 0 1
0.210846 -15.233878 -26.104627 30.225272 -1.556957 2.613300 -0.005631 -0.001142 574010.000000 0 0 1
0.826646 -14.009578 -25.734617 29.312491 -1.511859 2.642339 -0.005222 0.002342 400722.000000 0 0 1
0.282146 -12.702778 -26.380227 29.280652 -1.548589 2.692736 -0.009679 0.002336 -70831.800000 0 0 1
1.113746 -11.609578 -26.068897 28.558889 -1.475156 2.720914 -0.013538 0.000454 -12610.100000 0 0 1
0.605546 -10.397478 -26.588387 28.555500 -1.512622 2.768248 -0.011347 -0.000782 -348840.000000 0 0 1
1.483046 -9.110578 -26.285877 27.859458 -1.409429 2.803887 -0.011265 0.000488 1239750.000000 0 0 1
2.860246 -9.026878 -26.677067 28.307798 -1.263945 2.800509 0.001457 0.002458 520644.000000 0 0 1
3.116346 -9.330478 -28.004587 29.682088 -1.248449 2.803788 0.000427 0.002443 165193.000000 0 0 1
4.623546 -9.140378 -28.429267 30.218321 -1.102490 2.795766 0.001326 0.003944 514056.000000 0 0 1
4.930446 -7.767278 -28.601207 30.044450 -1.005201 2.830380 -0.004089 0.002961 57677.400000 0 0 1
6.225546 -7.415078 -29.058797 30.629308 -0.872383 2.819975 -0.001705 0.002858 40047.400000 0 0 1
7.371946 -7.484378 -27.963577 29.871779 -0.792966 2.782227 0.001834 0.002657 99389.400000 0 0 1
7.803746 -8.780978 -27.639717 30.032616 -0.844254 2.739703 0.001666 -0.000228 354761.000000 0 0 1
8.448246 -9.477178 -28.732827 31.412818 -0.842736 2.725524 0.003511 -0.003380 -533425.000000 0 0 1
8.931146 -10.904378 -28.347667 31.658507 -0.884552 2.680170 0.001574 -0.006002 -400246.000000 0 0 1
7.842546 -11.738978 -28.169737 31.509415 -0.981818 2.677013 0.000471 -0.001026 -356953.000000 0 0 1
8.171846 -12.962278 -27.506017 31.486199 -1.008300 2.633327 -0.000624 0.002340 -180394.000000 0 0 1
8.919446 -14.119678 -28.276427 32.840191 -1.007391 2.608090 0.000019 -0.001401 -429750.000000 0 0 1
8.219546 -14.672078 -29.375577 33.849008 -1.060143 2.621638 0.005429 -0.001119 -518185.000000 0 0 1
8.958746 -15.653178 -30.138747 35.123001 -1.050973 2.602338 0.001290 0.001400 132211.000000 0 0 1
8.120346 -16.373478 -31.231747 36.186363 -1.110398 2.612134 0.006130 0.000368 65438.900000 0 0 1
7.746646 -15.427478 -32.238787 36.569892 -1.105444 2.649966 0.001893 0.000742 376169.000000 0 0 1
6.497946 -15.729978 -32.835157 36.983822 -1.179054 2.663393 -0.000147 0.001312 24125.000000 0 0 1
5.891346 -14.519078 -33.646437 37.115958 -1.185329 2.705768 0.002744 0.000535 271040.000000 0 0 1
6.558446 -13.885678 34.683301 37.930946 -1.129539 0.416822 -0.000210 0.001439 -207264.000000 0 0 1
5.758346 -12.804178 34.325456 37.085610 -1.148172 0.388249 0.004122 -0.000305 -205318.000000 0 0 1
6.386746 -11.945278 33.251653 35.904772 -1.079801 0.386837 0.005401 -0.005268 -194600.000000 0 0 1
6.461846 -12.502478 31.907603 34.873522 -1.093764 0.415407 0.008137 -0.005650 23337.500000 0 0 1
6.810346 -11.401078 31.096883 33.813925 -1.032333 0.403615 0.009319 -0.001947 -211855.000000 0 0 1
7.350846 -11.809378 29.704673 32.800365 -1.014027 0.437956 0.001992 -0.001465 -118010.000000 0 0 1
6.382146 -12.387078 28.860793 32.048664 -1.095042 0.449809 0.002906 -0.000763 -4856.830000 0 0 1
6.751946 -12.301678 27.551063 30.918945 -1.068826 0.471091 0.002911 0.003752 -323819.000000 0 0 1
5.834546 -13.010578 26.552533 30.138913 -1.149235 0.492814 0.004519 -0.003795 -534834.000000 0 0 1
6.171546 -14.353478 26.406433 30.682406 -1.164725 0.534276 0.005234 -0.001524 -77906.900000 0 0 1
5.800146 -15.049378 25.182633 29.904690 -1.202932 0.569638 0.008914 -0.002592 1391190.000000 0 0 1
4.227246 -15.241878 25.074083 29.646148 -1.300252 0.562773 0.005822 0.000758 508574.000000 0 0 1
3.466946 -14.166578 24.852233 28.815710 -1.330786 0.530697 0.001131 0.004870 -740160.000000 0 0 1
2.086546 -14.454178 24.945003 28.905538 -1.427431 0.529651 0.003640 0.003436 297202.000000 0 0 1
1.165646 -13.230178 24.770503 28.106479 -1.482918 0.492170 0.008357 0.006877 -536061.000000 0 0 1
1.218646 -12.741678 23.438133 26.705459 -1.475444 0.499853 0.009859 0.005964 -450086.000000 0 0 1
0.431246 -11.616178 23.179433 25.930825 -1.533689 0.464836 0.014797 0.012526 -73049.000000 0 0 1
-1.064954 -11.959478 23.028133 25.970332 1.481984 0.480618 0.002393 0.012345 -1028840.000000 0 0 1
-1.289454 -12.769778 21.900533 25.384312 1.470160 0.530096 0.004670 0.007728 876164.000000 0 0 1
-2.645254 -12.774478 21.416133 25.076591 1.366609 0.547115 0.014554 -0.005797 1062570.000000 0 0 1
-2.575954 -13.615278 20.104433 24.417198 1.383811 0.603469 0.009342 -0.005178 -24000.500000 0 1 0
-2.291054 -14.995578 20.266733 25.315149 1.419187 0.642538 0.008243 -0.006148 121465.000000 0 0 1
-2.457654 -15.680578 19.012233 24.766623 1.415329 0.695622 0.002166 -0.004983 -139873.000000 0 1 0
-2.436254 -17.176778 19.217433 25.889897 1.429902 0.734337 0.000214 0.002981 -303510.000000 0 0 1
-2.528354 -17.825878 17.967233 25.435722 1.429900 0.786428 0.001712 0.000006 -246776.000000 0 0 1
-3.174354 -19.077478 18.045333 26.451101 1.405914 0.820009 -0.002062 0.001110 -411388.000000 0 0 1
-2.796054 -20.207378 17.036133 26.577921 1.433301 0.875011 -0.003085 0.004872 202527.000000 0 0 1
-1.542654 -20.807578 17.350633 27.136315 1.496793 0.877094 0.001685 0.001626 45306.900000 0 0 1
-1.664354 -21.871878 18.245833 28.531729 1.494847 0.876958 0.001013 -0.000658 -676550.000000 0 0 1
-0.389154 -22.618778 18.705933 29.354259 1.553593 0.879875 -0.002284 -0.003840 183643.000000 0 0 1
0.264046 -23.326678 17.626833 29.238825 -1.559477 0.923719 0.010126 -0.005667 -350913.000000 0 0 1
1.260846 -24.175978 18.107133 30.231373 -1.518691 0.928605 0.000728 -0.000392 312916.000000 0 0 1
2.657146 -24.084278 17.400933 29.831282 -1.460914 0.947996 0.006484 -0.005171 617391.000000 0 0 1
3.306346 -22.855078 17.721633 29.109153 -1.427127 0.916250 0.002793 0.004254 -791823.000000 0 0 1
4.224646 -22.600778 16.734933 28.437665 -1.386004 0.941622 0.000470 0.000262 -616696.000000 0 0 1
4.863546 -21.217178 16.931533 27.577156 -1.345462 0.909717 -0.000071 -0.002925 130667.000000 0 0 1
5.705846 -21.121578 18.113833 28.404026 -1.306951 0.879261 0.002901 0.001044 316403.000000 0 0 1
6.065646 -19.796778 18.507033 27.770754 -1.273482 0.841397 0.003992 -0.000287 542138.000000 0 0 1
7.168346 -19.038378 17.696533 26.963166 -1.210693 0.854862 0.005076 -0.000672 72979.500000 0 0 1
6.686546 -18.342378 16.521633 25.575713 -1.221227 0.868478 -0.000787 -0.004733 188108.000000 0 0 1
7.739646 -17.670778 15.848433 24.966605 -1.157974 0.883066 0.005064 0.000152 -114401.000000 0 1 0
7.323846 -16.729778 14.739133 23.468410 -1.158157 0.891763 0.009349 0.001258 -24264.200000 0 1 0
6.709546 -17.367278 13.597633 23.055064 -1.202127 0.939998 0.001686 -0.004843 496947.000000 0 1 0
6.088946 -16.414878 12.730433 21.646880 -1.215589 0.942094 0.002396 -0.008148 92696.900000 0 1 0
6.309446 -16.680078 11.250233 21.085584 -1.209169 1.008003 -0.000784 -0.003864 1005150.000000 0 1 0
7.710446 -16.381278 11.060733 21.216434 -1.130873 1.022389 0.004441 -0.002387 962575.000000 0 1 0
8.151946 -16.511378 9.709133 20.816991 -1.112188 1.085575 0.000648 -0.004717 245978.000000 0 1 0
9.655146 -16.162978 9.625833 21.145221 -1.032319 1.098171 0.002523 0.000075 145136.000000 0 1 0
10.196046 -16.425078 8.338033 21.053868 -1.015251 1.163603 0.001394 -0.004885 -181270.000000 0 1 0
11.545446 -15.990578 8.377233 21.428344 -0.945447 1.169142 0.006954 -0.003370 -80017.900000 0 1 0
12.528346 -16.994378 7.791033 22.504856 -0.935534 1.217286 0.015389 0.001480 -491356.000000 0 1 0
12.641646 -18.236578 8.484633 23.756536 -0.964647 1.205582 0.003640 0.002383 -66847.100000 0 1 0
13.486146 -19.129378 7.808933 24.673643 -0.956725 1.248771 0.008658 0.000134 -169055.000000 0 1 0
13.654946 -20.420978 8.565833 26.016291 -0.981406 1.235288 0.000228 -0.002939 -528767.000000 0 0 1
12.526546 -21.228278 8.614933 26.110749 -1.037697 1.234558 0.002316 -0.001368 -503788.000000 0 0 1
12.884146 -22.495878 9.149633 27.491481 -1.050667 1.231507 -0.003609 -0.003041 -746067.000000 0 0 1
11.833346 -23.236078 9.921233 27.899360 -1.099763 1.207232 0.000397 -0.001446 -560751.000000 0 0 1
11.769046 -22.643578 11.191033 27.865414 -1.091472 1.157522 0.006607 -0.003772 -518777.000000 0 0 1
10.695246 -23.077378 11.973533 28.112616 -1.136813 1.130825 0.007480 -0.006006 -530861.000000 0 0 1
10.658146 -24.545278 12.483633 29.528086 -1.161139 1.134295 0.015913 -0.000731 -344915.000000 0 0 1
11.825946 -24.750078 13.232133 30.455028 -1.125054 1.121334 0.017326 -0.008452 -222746.000000 0 0 1
11.749746 -26.041808 13.813533 31.733988 -1.146955 1.120434 0.014732 0.003134 66274.700000 0 0 1
12.919046 -26.450478 14.734733 32.918717 -1.116452 1.106706 0.019392 0.001106 -46046.900000 0 0 1
12.893146 -26.018748 16.052133 33.179503 -1.110729 1.065809 0.013365 -0.006256 375570.000000 0 0 1
13.984846 -26.587218 16.769633 34.404603 -1.086567 1.061659 0.015839 -0.000558 81195.700000 0 0 1
14.077446 -26.307418 18.276433 34.989752 -1.079454 1.021207 0.022466 -0.005357 -115767.000000 0 0 1
14.327246 -24.973778 18.683133 34.322282 -1.049946 0.995189 0.008149 -0.003092 505830.000000 0 0 1
15.648146 -24.853178 19.221733 35.100142 -1.008879 0.991273 0.004897 -0.003188 282338.000000 0 0 1
15.974046 -23.478678 19.840133 34.641729 -0.973371 0.960972 -0.005800 0.000091 -55538.800000 0 0 1
16.089446 -22.477978 18.803633 33.432116 -0.949553 0.973460 -0.006046 0.002653 846393.000000 0 0 1
14.846346 -21.756678 18.629433 32.261786 -0.971993 0.955200 0.000624 0.000449 -163580.000000 0 0 1
14.900346 -20.627278 17.546933 30.909542 -0.945220 0.967103 -0.000416 0.000830 -171929.000000 0 0 1
15.731646 -19.477078 17.694933 30.658635 -0.891378 0.955550 -0.003468 0.010019 319409.000000 0 0 1
17.099646 -19.896278 17.728333 31.663126 -0.860848 0.976526 -0.008254 0.004704 -714830.000000 0 0 1
17.873546 -18.583678 17.820533 31.343072 -0.804874 0.966037 -0.006301 0.011093 -700297.000000 0 0 1
18.115646 -18.242278 19.150133 32.057525 -0.788881 0.930581 -0.006494 0.013538 69248.000000 0 0 1
18.612146 -16.955778 19.311733 31.730954 -0.738863 0.916490 -0.000428 0.014047 -247194.000000 0 0 1
19.069046 -16.695578 20.789033 32.780402 -0.719132 0.883835 -0.001402 0.011851 -830239.000000 0 0 1
20.162546 -17.414078 21.203733 34.049621 -0.712385 0.898569 -0.004223 0.008940 -758619.000000 0 0 1
20.562946 -16.990278 22.504533 34.899259 -0.690548 0.869979 -0.003656 0.007647 101020.000000 0 0 1
32.855505 -0.965378 -8.494907 33.949663 -0.029374 1.823704 -0.002757 -0.000788 -842262.000000 0 0 1
34.244050 -0.866478 -8.470607 35.286781 -0.025298 1.813214 -0.005253 0.000851 -804585.000000 0 0 1
-34.743328 -2.090378 -8.778807 35.896183 0.060094 1.817863 -0.008273 0.002888 -600731.000000 0 0 1
-33.216924 -2.058878 -8.808307 34.426578 0.061904 1.829531 0.003386 -0.003787 -657202.000000 0 0 1
-32.636234 -3.333878 -8.836307 33.975268 0.101800 1.833902 -0.000394 -0.004685 550229.000000 0 0 1
-31.266614 -3.275478 -9.247407 32.769566 0.104379 1.856878 0.002526 -0.005822 169945.000000 0 0 1
-30.317024 -4.216778 -8.516107 31.771485 0.138203 1.842157 0.000032 -0.003161 -357482.000000 0 0 1
-30.338934 -3.921378 -7.116407 31.408142 0.128540 1.799360 0.010183 -0.001244 766571.000000 0 0 1
-29.298364 -4.664778 -6.480107 30.366858 0.157891 1.785844 0.011443 -0.002118 253096.000000 0 0 1
-29.246204 -4.322278 -4.996607 29.983139 0.146727 1.738225 0.011775 -0.003094 -353155.000000 0 0 1
-28.916354 -2.944578 -4.820407 29.462899 0.101481 1.735145 0.009242 -0.001442 548529.000000 0 0 1
-29.094614 -2.653778 -3.432907 29.416389 0.090960 1.687763 0.007118 -0.001448 -463504.000000 0 0 1
-28.720764 -1.192878 -3.115107 28.913823 0.041510 1.678743 0.009370 0.000004 1269930.000000 0 0 1
-27.282754 -0.983578 -3.023907 27.467437 0.036036 1.681111 0.014137 0.002005 1776390.000000 0 0 1
-26.889024 0.236822 -2.468807 27.003161 -0.008807 1.662351 0.012005 0.000218 -492912.000000 0 0 1
-25.420144 0.354122 -2.056507 25.505653 -0.013930 1.651513 0.011453 0.002640 -509786.000000 0 0 1
-25.195424 -0.443578 -0.942407 25.216945 0.017604 1.608177 0.010867 0.001754 -260180.000000 0 0 1
-23.869554 -0.414478 -0.533907 23.879122 0.017363 1.593157 0.005456 0.001595 -756616.000000 0 1 0
-23.536954 -1.404978 0.620193 23.587005 0.059622 1.544499 0.001137 0.004197 -354811.000000 0 1 0
-23.814654 -2.726078 0.373993 23.973092 0.113975 1.555195 0.015246 0.005062 -70648.600000 0 1 0
-22.920854 -3.556378 1.039093 23.218378 0.153932 1.526028 0.009509 0.005882 -619357.000000 0 1 0
-23.276554 -5.026678 0.961593 23.832543 0.212688 1.530437 0.019401 0.004456 -670013.000000 0 1 0
-24.336954 -5.363378 1.809093 24.986516 0.216913 1.498330 0.010097 0.002355 -38779.800000 0 1 0
-24.639754 -6.758778 1.654493 25.603436 0.267719 1.506131 0.017075 0.001044 217213.000000 0 0 1
-25.893834 -7.275478 2.418693 27.005061 0.273911 1.481112 0.009517 -0.000162 192495.000000 0 0 1
-25.686584 -7.453278 3.777793 27.011547 0.282407 1.430478 0.009833 0.002910 236338.000000 0 0 1
-26.831734 -8.107478 4.287693 28.355907 0.293437 1.419004 0.003005 0.003761 -329245.000000 0 0 1
-26.654574 -8.345478 5.828193 28.532108 0.303429 1.365081 0.016073 0.001787 -240891.000000 0 0 1
-25.818444 -9.466878 6.061693 28.159509 0.351449 1.353835 0.008904 0.002234 63650.300000 0 0 1
-25.529484 -9.683178 7.468493 28.307188 0.362530 1.303798 0.006824 -0.001326 53099.900000 0 0 1
-24.836654 -8.565678 8.302293 27.552827 0.332107 1.264717 0.008904 -0.001060 1003450.000000 0 0 1
-23.458654 -8.231078 7.993293 26.114207 0.337455 1.259713 0.006803 -0.005824 1252780.000000 0 0 1
-23.211454 -6.896078 8.412693 25.633979 0.288792 1.236415 0.009710 -0.003072 205715.000000 0 0 1
-21.800754 -6.398978 7.958793 24.074098 0.285502 1.233862 0.001535 -0.000684 44071.500000 0 1 0
-20.800354 -7.131878 8.596193 23.609594 0.330311 1.198133 -0.000194 -0.006354 -315632.000000 0 1 0
-19.533054 -6.610278 8.254493 22.211993 0.326317 1.190039 -0.002990 -0.005623 -9050.820000 0 1 0
-18.404754 -6.719378 9.287493 21.682771 0.350054 1.128147 -0.012263 -0.006112 -314395.000000 0 1 0
-18.562254 -5.878078 10.430293 22.088461 0.306678 1.079005 -0.001429 0.001195 836795.000000 0 1 0
-17.391254 -5.948778 11.257693 21.554102 0.329580 1.021251 -0.013713 -0.002098 512807.000000 0 1 0
-17.234154 -4.560678 11.985793 21.481971 0.258700 0.978887 -0.012125 -0.009467 295765.000000 0 1 0
-18.313854 -4.396478 12.918893 22.839091 0.235605 0.969577 -0.006821 -0.006028 674735.000000 0 1 0
-18.249254 -3.161678 13.513593 22.927029 0.171547 0.940459 -0.005905 -0.006066 192659.000000 0 1 0
-19.395754 -3.072878 14.548093 24.439412 0.157125 0.933192 -0.002896 -0.003806 303500.000000 0 1 0
-19.084154 -3.859078 15.683393 25.001325 0.199523 0.892712 -0.001263 -0.001465 642282.000000 0 0 1
-20.307354 -3.972378 16.390993 26.397596 0.193174 0.900871 0.002133 -0.004710 379010.000000 0 0 1
-20.178254 -5.140578 17.462793 27.176030 0.249452 0.872935 0.000052 0.005276 142042.000000 0 0 1
-21.123154 -4.907078 18.498893 28.503966 0.228259 0.864535 0.001335 0.003690 547618.000000 0 0 1
-20.794254 -5.670578 19.641193 29.160468 0.266226 0.831788 -0.001780 0.008054 -268019.000000 0 0 1
-21.697954 -5.324478 20.849893 30.559275 0.240636 0.819924 0.003236 0.006123 -311007.000000 0 0 1
-21.448254 -3.998778 21.231193 30.443084 0.184322 0.799025 0.003453 0.007631 546533.000000 0 0 1
-22.084454 -3.661878 22.484693 31.728440 0.164317 0.783198 0.005466 0.004625 115674.000000 0 0 1
-22.199354 -2.159778 22.832893 31.918912 0.096985 0.773685 0.005432 0.009500 -162125.000000 0 0 1
-23.009454 -1.421178 21.945993 31.828938 0.061687 0.810000 0.010307 0.006760 -132300.000000 0 0 1
-22.840054 -0.006178 22.082893 31.769833 0.000270 0.802251 0.009838 0.004957 306460.000000 0 0 1
-24.156854 0.747622 21.710893 32.488081 -0.030939 0.838912 0.010086 0.002439 380271.000000 0 0 1
-25.116004 0.717022 22.726593 33.879578 -0.028541 0.835503 0.006997 0.006545 486659.000000 0 0 1
-26.299364 1.491722 22.457393 34.615261 -0.056660 0.864827 0.004993 0.006320 811585.000000 0 0 1
-27.317584 1.634422 23.591493 36.131430 -0.059759 0.859343 0.002056 0.003770 -286873.000000 0 0 1
-26.862744 2.449522 24.644393 36.537012 -0.090935 0.830502 0.006722 0.002561 -14472.600000 0 0 1
-27.768784 2.326322 25.706793 37.912483 -0.083580 0.825682 0.001807 0.000694 -280637.000000 0 0 1
-27.364814 3.174822 26.876393 38.487050 -0.115502 0.797744 0.007365 0.004825 -780595.000000 0 0 1
-26.305554 2.578422 27.522993 38.159475 -0.097706 0.765173 0.008531 0.004262 -349812.000000 0 0 1
-25.945264 3.397822 28.661893 38.809870 -0.130220 0.739923 0.004382 0.002140 397890.000000 0 0 1
-24.735654 2.804022 29.477893 38.583174 -0.112878 0.701292 -0.002297 0.004040 411640.000000 0 0 1
-25.100334 1.798722 30.392093 39.458098 -0.071539 0.691583 0.000212 0.002821 -155278.000000 0 0 1
-24.070754 1.593222 31.291493 39.510721 -0.066093 0.656760 -0.001346 0.004624 -495296.000000 0 0 1
-24.405754 0.538722 32.313093 40.497741 -0.022070 0.646995 0.001319 0.006358 -214440.000000 0 0 1
-24.421954 -0.737478 31.733493 40.049847 0.030188 0.656145 0.003666 0.005046 -8673.910000 0 0 1
-24.937354 -1.666878 32.643493 41.112623 0.066743 0.653433 0.003356 0.002182 -739263.000000 0 0 1
-25.556604 -2.916178 31.945793 41.014361 0.113615 0.677898 0.000846 -0.001438 -74394.800000 0 0 1
-26.848584 -2.687378 31.421793 41.417358 0.099762 0.709539 0.008061 0.002098 157134.000000 0 0 1
-26.856184 -1.899478 30.228693 40.480075 0.070610 0.727627 0.006156 0.003154 156056.000000 0 0 1
-28.334424 -1.576178 29.788493 41.142171 0.055570 0.761158 0.009135 -0.002450 1210480.000000 0 0 1
-29.097294 -0.981778 30.844893 42.414901 0.033728 0.756536 0.008963 0.005605 69430.300000 0 0 1
-30.448784 -0.731078 30.478493 43.088298 0.024005 0.785055 0.005698 0.002593 367239.000000 0 0 1
-31.255064 -0.204278 31.664893 44.492541 0.006536 0.778895 0.006194 0.002146 -425236.000000 0 0 1
-31.558504 -1.221378 32.616293 45.401030 0.038683 0.769291 0.004990 0.003833 140301.000000 0 0 1
-32.389144 -0.859478 33.735993 46.775128 0.026530 0.765209 0.013596 0.004977 359333.000000 0 0 1
-32.524824 -2.092678 34.599793 47.533032 0.064252 0.755527 0.011999 0.006582 -13574.600000 0 0 1
-33.255424 -3.136678 33.983193 47.651016 0.094043 0.776789 0.013239 0.003283 -69297.300000 0 0 1
-33.147934 -4.361078 34.645993 48.147163 0.130813 0.767591 0.006705 0.004936 -546805.000000 0 0 1
-33.991204 -5.549178 34.169193 48.515246 0.161826 0.789362 0.006212 0.009427 666589.000000 0 0 1
34.174177 -5.151678 34.388493 48.754308 -0.149621 0.787890 0.005137 0.009968 -393071.000000 0 0 1
33.217635 -5.900578 33.725793 47.703849 -0.175800 0.785574 -0.000932 0.006977 -1582280.000000 0 0 1
31.871315 -5.360978 34.144693 47.014688 -0.166647 0.757937 -0.004923 0.011961 -1126750.000000 0 0 1
31.430755 -5.645578 -33.959848 46.615836 -0.177724 2.386933 -0.006206 0.007211 164735.000000 0 0 1
30.991665 -6.986578 -33.758648 46.356681 -0.221728 2.386542 -0.004052 0.007672 339336.000000 0 0 1
29.501285 -7.398878 -34.053348 45.658512 -0.245730 2.412572 -0.003522 0.008252 993673.000000 0 0 1
28.523595 -7.143578 -33.060748 44.245217 -0.245397 2.414660 -0.001159 0.005568 -872737.000000 0 0 1
27.297675 -7.538378 -33.534548 43.892552 -0.269439 2.440309 0.002491 0.004693 -341333.000000 0 0 1
26.085965 -7.326478 -32.531848 42.337643 -0.273805 2.447119 0.002985 0.005468 748793.000000 0 0 1
24.855235 -7.793278 -33.058648 42.087909 -0.303838 2.474246 0.000982 0.003152 -564384.000000 0 0 1
23.830675 -7.408478 -32.219748 40.754126 -0.301408 2.482566 -0.000265 0.000163 -141110.000000 0 0 1
22.425675 -7.878178 -32.755948 40.471332 -0.337834 2.513861 0.000781 -0.004405 567544.000000 0 0 1
22.229575 -9.284878 -32.784048 40.683618 -0.395655 2.507871 0.011482 -0.007829 251447.000000 0 0 1
22.201775 -9.988678 -31.528548 39.833928 -0.422774 2.484055 0.010425 -0.006919 -532298.000000 0 0 1
22.140275 -11.533878 -31.659048 40.317706 -0.480263 2.473879 0.004107 -0.003477 407357.000000 0 0 1
20.921375 -12.025778 -32.230848 40.263517 -0.521690 2.498921 0.007362 -0.006755 339632.000000 0 0 1
20.753475 -13.400278 -32.118648 40.520140 -0.573338 2.485954 -0.000341 -0.000303 -200502.000000 0 0 1
19.578175 -13.880478 -33.058448 40.851360 -0.616726 2.513649 -0.001047 -0.000104 1416470.000000 0 0 1
18.235775 -13.548878 -32.665248 39.788616 -0.638995 2.533904 -0.002306 -0.001438 674472.000000 0 0 1
17.970975 -12.176778 -32.929348 39.440738 -0.595520 2.558760 -0.000744 -0.004866 -908880.000000 0 0 1
16.609175 -11.731278 -32.341148 38.202584 -0.614950 2.580304 -0.002376 -0.005854 -451236.000000 0 0 1
15.549375 -12.096678 -33.149748 38.561878 -0.661152 2.605382 -0.006344 0.001773 -745421.000000 0 0 1
14.324475 -11.664278 -32.591148 37.462366 -0.683394 2.625939 0.002010 -0.001125 694438.000000 0 0 1
13.105775 -12.184278 -33.461848 37.946189 -0.748977 2.650512 0.003159 -0.000564 -163505.000000 0 0 1
13.027275 -13.627478 -33.451448 38.398143 -0.807912 2.628384 0.003288 0.003976 218256.000000 0 0 1
11.920575 -14.013578 -34.227948 38.859142 -0.865928 2.648390 0.000855 -0.001693 882493.000000 0 0 1
10.444175 -13.944478 -33.707548 37.943748 -0.927947 2.664548 -0.003408 0.006156 421632.000000 0 0 1
9.996975 -12.650778 -33.504348 37.182294 -0.902044 2.693058 0.002491 0.002882 -354684.000000 0 0 1
9.350275 -12.456678 -32.252948 35.816883 -0.926896 2.691704 0.005477 0.000985 -423726.000000 0 0 1
8.191975 -11.480978 -32.386848 35.324626 -0.951050 2.730876 0.003796 -0.001758 -580669.000000 0 0 1
8.588275 -10.127978 -32.400648 35.016230 -0.867479 2.752632 -0.000272 -0.003954 920360.000000 0 0 1
7.610475 -9.306078 -33.099448 35.214995 -0.885298 2.793206 0.004279 -0.004826 549253.000000 0 0 1
8.087175 -7.839978 -33.358948 35.209190 -0.769879 2.815965 0.003359 -0.001709 -130650.000000 0 0 1
8.375675 -7.189278 -32.144348 33.986714 -0.709323 2.810820 -0.000371 0.003311 126509.000000 0 0 1
8.832175 -5.897578 -32.415848 34.111229 -0.588744 2.824989 0.002976 0.005204 -164232.000000 0 0 1
8.953075 -5.036578 -31.132248 32.783251 -0.512430 2.822878 0.002320 0.011541 221844.000000 0 0 1
7.701675 -4.716978 -30.526948 31.834890 -0.549532 2.853948 -0.003386 0.010386 260673.000000 0 0 1
7.798975 -3.673178 -29.571748 30.802671 -0.440165 2.857936 -0.000423 0.014564 -85062.300000 0 0 1
6.434475 -3.117678 -29.137648 30.002082 -0.451193 2.900961 -0.001969 0.015737 -887327.000000 0 0 1
5.747675 -2.364178 -30.123148 30.757587 -0.390233 2.938131 -0.004569 0.014507 457045.000000 0 0 1
4.552375 -1.756278 -29.662048 30.060700 -0.368200 2.978553 -0.004371 0.010774 322646.000000 0 0 1
3.284975 -2.593478 -29.450548 29.746461 -0.668304 3.000423 -0.004146 0.005036 -738557.000000 0 0 1
3.525475 -3.500878 -28.401548 28.832847 -0.781898 2.968410 -0.006252 0.004073 29694.000000 0 0 1
2.682575 -4.665978 -28.427848 28.932855 -1.049020 2.954481 -0.003300 0.003149 142628.000000 0 0 1
3.157775 -5.588478 -27.315248 28.059319 -1.056471 2.910786 -0.004215 -0.000347 -66525.000000 0 0 1
2.734375 -5.229578 -26.011648 26.672666 -1.089023 2.918498 -0.007117 -0.001421 -163249.000000 0 0 1
3.073275 -6.188478 -25.040048 25.975879 -1.109862 2.872352 0.001843 -0.003759 -301729.000000 0 0 1
2.877675 -5.710178 -23.553048 24.405598 -1.103989 2.876497 0.004894 -0.004182 -359032.000000 0 1 0
3.789175 -4.726078 -23.129448 23.909517 -0.894984 2.885449 0.004333 -0.004704 76691.200000 0 1 0
3.555275 -4.470378 -21.739248 22.477081 -0.898930 2.884660 0.003473 -0.009302 -136131.000000 0 1 0
4.267375 -3.191478 -21.268148 21.925559 -0.642142 2.896094 0.001634 -0.019245 457937.000000 0 1 0
5.665075 -3.346578 -21.052648 22.056895 -0.533582 2.838675 0.007688 -0.018463 195228.000000 0 1 0
6.288475 -2.185478 -20.529248 21.581734 -0.334479 2.828004 0.011844 -0.015526 -588755.000000 0 1 0
7.786175 -2.388678 -20.442748 22.005368 -0.297669 2.762468 0.011798 -0.009776 -1729280.000000 0 1 0
8.488075 -2.288578 -21.630448 23.348689 -0.263360 2.755558 0.011223 -0.010441 606929.000000 0 1 0
9.775375 -2.929678 -21.646548 23.931444 -0.291181 2.701057 0.008321 -0.008266 1292680.000000 0 1 0
10.934375 -2.251378 -20.844748 23.645988 -0.203061 2.649898 0.002886 -0.005636 -652250.000000 0 1 0
10.778375 -2.212578 -19.474648 22.368075 -0.202467 2.627308 0.004596 -0.005272 425826.000000 0 1 0
11.901975 -1.636178 -18.798348 22.309459 -0.136615 2.572922 0.000042 -0.006481 176570.000000 0 1 0
12.179775 -0.110478 -18.922348 22.503652 -0.009070 2.569660 0.003346 -0.006959 -283030.000000 0 1 0
12.627575 0.281522 -20.165248 23.794372 0.022291 2.582016 0.001040 -0.001368 76890.400000 0 1 0
12.657075 1.689722 -20.150848 23.856097 0.132715 2.576770 0.014310 -0.008270 -89703.600000 0 1 0
12.793475 2.419822 -21.499248 25.134562 0.186937 2.597053 0.008141 -0.003254 826499.000000 0 0 1
14.056375 2.232722 -22.186148 26.358905 0.157525 2.571210 -0.002584 0.001604 754607.000000 0 0 1
14.411475 3.371622 -22.943248 27.302950 0.229820 2.568672 0.001684 0.001033 -210282.000000 0 0 1
15.917375 3.535022 -23.277648 28.420206 0.218539 2.530554 -0.002368 -0.003091 290929.000000 0 0 1
16.380875 2.601522 -24.247348 29.377455 0.157499 2.541658 0.005508 -0.004915 47173.500000 0 0 1
16.542875 1.241622 -23.731248 28.954800 0.074914 2.531502 -0.002124 -0.001438 -1535810.000000 0 0 1
9.259946 27.604322 3.125393 29.283327 1.247140 1.463863 0.000202 0.001532 169076.000000 0 0 1
9.076146 27.887022 4.494293 29.669194 1.256147 1.418731 -0.001172 0.003257 1336260.000000 0 0 1
10.364946 28.265822 5.043393 30.525802 1.219326 1.404818 -0.003479 0.009212 819455.000000 0 0 1
10.252846 28.893222 6.427493 31.324939 1.229805 1.364141 -0.006540 0.006659 -24163.600000 0 0 1
9.927846 27.849922 7.333693 30.462490 1.228363 1.327663 -0.007188 0.002584 196903.000000 0 0 1
9.938746 28.353722 8.664493 31.269564 1.233652 1.290032 -0.006821 0.001903 -323217.000000 0 0 1
9.928246 27.287922 9.782193 30.641345 1.221852 1.245860 -0.004894 0.002499 -281436.000000 0 0 1
11.162246 26.680022 10.056793 30.619575 1.174551 1.236141 -0.001493 0.002595 -98860.200000 0 0 1
11.689646 25.769122 9.091393 29.721186 1.144928 1.259924 0.001074 0.001162 502613.000000 0 0 1
12.983446 25.054922 9.680993 29.833548 1.092695 1.240313 0.001865 0.002977 206942.000000 0 0 1
13.936646 26.003022 9.941593 31.132339 1.078794 1.245770 0.003000 0.000489 -1366250.000000 0 0 1
15.076446 25.512622 10.543693 31.454134 1.037065 1.228970 0.006587 -0.000152 -600648.000000 0 0 1
16.106846 26.607922 10.834493 32.936275 1.026459 1.235601 0.009465 0.004754 -1011910.000000 0 0 1
16.693746 27.299822 9.801393 33.466830 1.021966 1.273570 0.007674 0.003173 713520.000000 0 0 1
18.125246 27.234422 9.786193 34.146857 0.983583 1.280129 0.008301 0.003575 912744.000000 0 0 1
18.959446 27.934722 10.901393 35.477452 0.974505 1.258466 0.008476 0.004202 -888361.000000 0 0 1
18.899446 29.325722 11.049493 36.596151 0.998321 1.264079 0.013357 -0.007215 -66340.000000 0 0 1
17.679646 29.890922 11.455693 36.568702 1.036671 1.252167 0.014009 -0.003945 -231781.000000 0 0 1
17.872146 31.409022 11.738093 37.996356 1.053473 1.256732 0.017392 -0.011388 -928063.000000 0 0 1
18.163246 32.225222 10.637593 38.490607 1.057545 1.290783 0.016424 -0.012764 -91004.900000 0 0 1
17.235546 32.286022 9.571493 37.829416 1.080445 1.314999 0.015082 -0.012157 -127834.000000 0 0 1
15.834946 32.797222 9.958993 37.756917 1.120992 1.303872 0.016462 -0.013226 -746940.000000 0 0 1
15.875646 34.138822 10.277893 39.027303 1.135512 1.304302 0.019443 -0.011190 -1396610.000000 0 0 1
14.640146 34.692322 10.179093 39.006474 1.171470 1.306781 0.014270 -0.010023 -1314920.000000 0 0 1
14.678346 -33.275789 10.487793 37.851364 -1.155358 1.290044 0.011430 -0.007205 -79716.900000 0 0 1
15.381946 -32.607089 9.432893 37.266687 -1.130014 1.314894 0.013292 -0.002533 90176.800000 0 0 1
15.498246 -31.181289 9.626993 36.126824 -1.109522 1.301060 0.016484 0.001101 -237954.000000 0 0 1
16.195946 -30.558989 8.423293 35.596521 -1.083446 1.331898 0.016307 -0.000113 -155424.000000 0 0 1
15.567046 -30.781089 7.171393 35.231197 -1.102572 1.365811 0.011720 -0.006322 -294061.000000 0 0 1
16.339546 -30.198489 6.149493 34.881883 -1.074834 1.393575 0.009369 0.003695 -122816.000000 0 0 1
15.775346 -29.969289 4.707493 34.193279 -1.086265 1.432685 0.003156 -0.003117 -175461.000000 0 0 1
16.023946 -31.091989 3.952993 35.200920 -1.094927 1.458261 0.002610 -0.002911 12500.100000 0 0 1
15.753146 -30.944989 2.626393 34.823152 -1.099920 1.495304 0.010426 0.002498 -175037.000000 0 0 1
15.798446 -32.382189 2.019693 36.087064 -1.116896 1.514800 0.003000 0.002257 -16551.300000 0 0 1
17.098846 -32.826589 1.678393 37.050944 -1.090581 1.525481 0.003299 0.003780 294244.000000 0 0 1
17.164346 -34.189189 1.241293 38.276053 -1.105518 1.538361 -0.000310 0.008728 -595188.000000 0 0 1
18.583246 34.704422 1.215093 39.385408 1.079175 1.539940 0.002996 0.006629 -263811.000000 0 0 1
19.060246 34.213722 2.453993 39.241481 1.062523 1.508220 0.005679 0.004268 -327404.000000 0 0 1
20.302046 33.606122 2.274793 39.328351 1.027355 1.512923 0.000868 0.005071 -377904.000000 0 0 1
20.898646 32.984522 3.605593 39.213931 1.006044 1.478720 -0.000676 0.004249 346480.000000 0 0 1
20.119446 31.945722 4.191193 37.985357 1.008752 1.460234 -0.002819 0.004470 810629.000000 0 0 1
21.092446 31.069122 4.834993 37.862366 0.974381 1.442748 0.000914 -0.001190 714590.000000 0 0 1
20.556846 30.270922 6.038793 37.086111 0.974238 1.407236 0.007540 -0.004494 -540669.000000 0 0 1
19.499446 29.462822 5.596793 35.771642 0.986148 1.413692 0.005031 -0.000816 -775219.000000 0 0 1
18.680446 29.132922 6.664493 35.243463 1.000622 1.380552 0.005447 -0.004612 503210.000000 0 0 1
17.178546 29.557922 6.410893 34.783225 1.044328 1.385427 0.006718 0.000954 387495.000000 0 0 1
16.882046 30.911422 6.412993 35.800083 1.070919 1.390691 0.008314 0.003718 -102148.000000 0 0 1
17.271446 31.575022 5.236493 36.369021 1.070262 1.426312 0.005016 0.007734 -1058040.000000 0 0 1
17.054746 33.144722 5.265493 37.645217 1.095574 1.430465 0.007684 0.006139 187791.000000 0 0 1
15.719246 33.597722 5.398293 37.483905 1.133184 1.426278 0.005290 0.004159 78718.700000 0 0 1
15.818646 -34.493989 5.515493 38.346910 -1.140821 1.426464 0.007663 0.006108 772361.000000 0 0 1
14.421946 -33.751589 5.653693 37.136593 -1.166982 1.417962 0.005532 0.003044 1153390.000000 0 0 1
13.654646 -33.871289 4.429893 36.787736 -1.187592 1.450086 -0.000468 0.005377 670373.000000 0 0 1
12.451746 -33.094489 4.579393 35.654762 -1.210932 1.442004 0.000934 -0.000061 730966.000000 0 0 1
11.743046 -32.850989 3.188493 35.032172 -1.227488 1.479654 0.001468 0.001539 -860107.000000 0 0 1
10.525146 -32.240289 3.237593 34.069003 -1.255245 1.475622 -0.006159 -0.006937 -1035930.000000 0 0 1
10.113746 -31.864389 1.917893 33.485899 -1.263454 1.513490 -0.000518 -0.003923 -1350110.000000 0 0 1
9.056246 -30.789789 1.855393 32.147615 -1.284732 1.513049 0.003098 -0.007371 -668229.000000 0 0 1
8.659546 -30.465789 0.532193 31.677046 -1.293862 1.553995 0.009624 -0.003378 -265023.000000 0 0 1
7.670246 -31.370489 0.146293 32.294917 -1.330996 1.566266 0.009505 0.000810 -1361670.000000 0 0 1
7.921746 -31.888289 -1.290507 32.882859 -1.327304 1.610052 0.014847 0.002340 308895.000000 0 0 1
9.146746 -32.628889 -1.320307 33.912396 -1.297485 1.609739 0.007466 0.002651 368219.000000 0 0 1
9.294546 -33.395589 -2.507107 34.755425 -1.299349 1.642995 0.010770 0.004636 -442805.000000 0 0 1
10.616746 -34.150789 -2.475407 35.848561 -1.269389 1.639903 0.002144 0.008264 -444490.000000 0 0 1
10.525846 34.298222 -1.530107 35.909646 1.273029 1.613419 0.001931 0.009727 67169.100000 0 0 1
11.741346 33.581622 -1.569807 35.609673 1.234446 1.614894 0.003913 0.004645 -245000.000000 0 0 1
11.765046 32.507122 -0.480407 34.573980 1.223540 1.584692 0.004040 0.011595 -590215.000000 0 0 1
12.030546 33.063022 0.848493 35.193996 1.221822 1.546685 -0.000605 0.015195 316280.000000 0 0 1
13.261646 33.696922 1.166593 36.231405 1.195857 1.538592 0.000817 0.012845 211245.000000 0 0 1
14.521146 32.803322 1.123693 35.891284 1.154052 1.539483 0.003014 0.013164 -576801.000000 0 0 1
14.900146 32.305422 -0.123307 35.576254 1.138645 1.574262 0.001873 0.008848 318162.000000 0 0 1
15.927346 31.298522 -0.101407 35.118202 1.100066 1.573684 0.004731 0.006331 683256.000000 0 0 1
16.620346 30.916722 -1.471707 35.131830 1.077535 1.612700 -0.001217 -0.000371 473751.000000 0 0 1
17.575046 31.838322 -1.999707 36.421969 1.066412 1.625728 -0.008679 0.000027 275715.000000 0 0 1
17.050846 33.026422 -2.535507 37.254593 1.094211 1.638908 -0.005283 0.001503 -621524.000000 0 0 1
18.134046 33.966622 -3.028207 38.623116 1.080415 1.649281 -0.003968 0.003147 -187698.000000 0 0 1
18.935146 34.483222 -1.967907 39.389148 1.068635 1.620778 -0.002531 0.005582 517845.000000 0 0 1
20.059246 -34.299389 -2.541607 39.815590 -1.041607 1.634674 -0.002233 0.004825 -351580.000000 0 0 1
21.158446 -33.865389 -1.491607 39.959596 -1.012355 1.608133 0.001455 0.004498 15678.300000 0 0 1
21.902946 34.625822 -0.742707 40.978509 1.006778 1.588922 0.006968 0.003910 935501.000000 0 0 1
22.567646 33.526522 -1.433107 40.439833 0.978334 1.606242 0.009141 0.005003 480704.000000 0 0 1
23.458846 33.885322 -2.660407 41.299034 0.965256 1.635259 -0.000011 0.003665 -390157.000000 0 0 1
22.607746 34.467022 -3.679707 41.383886 0.990268 1.659830 -0.003573 0.005759 -274533.000000 0 0 1
23.376946 -34.411589 -4.700107 41.865619 -0.974076 1.683300 -0.001407 0.000984 -282893.000000 0 0 1
22.576746 -33.911489 -5.946607 41.171115 -0.983425 1.715740 -0.000398 -0.001068 -269021.000000 0 0 1
21.897346 -32.702789 -5.695207 39.766840 -0.980775 1.714505 0.001314 0.004313 -36893.900000 0 0 1
21.179346 -32.393889 -6.859607 39.306271 -0.991750 1.746211 -0.003458 0.004340 -29310.900000 0 0 1
20.294146 -31.099489 -6.782307 37.749573 -0.992627 1.751443 -0.004568 0.007783 1091690.000000 0 0 1
19.023846 -31.258289 -6.115307 37.099654 -1.024076 1.736387 -0.007890 0.010385 978792.000000 0 0 1
18.299046 -30.000489 -6.092007 35.665067 -1.023087 1.742450 -0.011642 0.008938 173406.000000 0 0 1
17.181246 -29.891589 -5.059207 34.846777 -1.049123 1.716496 -0.012600 0.008340 387826.000000 0 0 1
16.069746 -30.699689 -5.446407 35.076645 -1.088565 1.726699 -0.015197 0.003255 -66881.200000 0 0 1
15.016446 -30.752889 -4.519107 34.520373 -1.116557 1.702084 -0.013672 0.001662 -503619.000000 0 0 1
13.868746 -31.635189 -4.953307 34.895022 -1.157634 1.713226 -0.012324 -0.003398 -865611.000000 0 0 1
14.059646 -33.044989 -5.016007 36.260244 -1.168528 1.709575 -0.008046 0.001989 -230200.000000 0 0 1
12.977246 -33.823989 -5.484507 36.640837 -1.204446 1.721044 0.001683 0.004347 -273766.000000 0 0 1
13.338746 34.115122 -5.479607 37.037680 1.198079 1.719288 0.003916 -0.000129 -318214.000000 0 0 1
13.506246 33.531022 -4.221507 36.394632 1.187880 1.687051 0.004417 -0.001253 -153311.000000 0 0 1
13.847346 32.151822 -4.331907 35.273986 1.164119 1.693915 0.004593 -0.000542 252259.000000 0 0 1
12.739846 31.103622 -4.760807 33.947080 1.182047 1.711502 0.011073 -0.003697 280622.000000 0 0 1
11.814546 30.679122 -3.796507 33.093889 1.203200 1.685769 0.009742 -0.003287 9066.840000 0 0 1
12.364146 29.839622 -2.773607 32.418637 1.177978 1.656457 0.007032 -0.002524 -331891.000000 0 0 1
11.322146 28.977322 -2.017607 31.176063 1.198312 1.635558 0.008363 0.000958 -115239.000000 0 0 1
10.383746 29.768722 -1.355007 31.556854 1.235179 1.613748 0.005058 0.003949 -610019.000000 0 0 1
9.378746 28.926822 -0.837307 30.420766 1.257267 1.598324 0.003497 0.005089 -399671.000000 0 0 1
8.338446 29.710722 -0.061007 30.858717 1.297181 1.572773 0.002886 0.012060 -107164.000000 0 0 1
7.315046 28.948822 0.546593 29.863740 1.323289 1.552492 0.005101 0.010303 86249.800000 0 0 1
6.140146 29.707822 0.725693 30.344401 1.366982 1.546879 0.007444 0.012845 -42930.000000 0 0 1
5.101546 29.076422 1.664293 29.567447 1.397111 1.514479 0.003102 0.011269 191673.000000 0 0 1
4.474746 27.938822 1.094393 28.316052 1.411983 1.532137 0.006677 0.000302 -215934.000000 0 0 1
3.259146 27.541122 1.671193 27.783598 1.453007 1.510610 0.002459 -0.003087 50878.300000 0 0 1
2.758746 26.285822 0.876693 26.444729 1.466227 1.537638 0.000579 -0.004609 -1511260.000000 0 0 1
1.580846 25.783822 1.300893 25.864974 1.509561 1.520480 0.002748 -0.003652 -1362340.000000 0 0 1
1.281746 24.622122 0.488993 24.660310 1.518787 1.550966 0.000576 -0.005782 419676.000000 0 1 0
-0.128954 24.027122 0.783393 24.040235 -1.565429 1.538204 0.000516 -0.001911 816166.000000 0 1 0
-1.201254 24.941022 0.534593 24.975656 -1.522670 1.549390 0.001515 -0.001824 -317849.000000 0 1 0
-2.406554 24.285422 0.763893 24.416321 -1.472024 1.539505 0.002286 0.002569 -302915.000000 0 1 0
-3.608854 25.143522 1.259793 25.432412 -1.428240 1.521241 0.003291 0.000893 -389051.000000 0 0 1
-4.666754 24.293822 1.690593 24.795695 -1.381012 1.502562 0.002758 -0.001354 229700.000000 0 1 0
-5.784554 24.957422 2.260493 25.718550 -1.343041 1.482789 0.000363 -0.000065 90514.800000 0 0 1
-6.745154 25.496622 1.196193 26.400866 -1.312170 1.525472 0.001546 0.003763 -1184970.000000 0 0 1
-6.447954 26.808822 0.657493 27.581177 -1.334763 1.546956 0.003323 0.001631 -71134.300000 0 0 1
-7.248354 27.070722 -0.472207 28.028300 -1.309177 1.587645 -0.000620 0.006726 -164933.000000 0 0 1
-6.774054 28.203622 -1.410807 29.040015 -1.335078 1.619397 -0.002023 0.007589 -9033.620000 0 0 1
-7.038554 29.529322 -0.993207 30.372826 -1.336804 1.603503 0.001481 0.002675 -44334.600000 0 0 1
-6.888354 30.457722 -2.047107 31.293975 -1.348377 1.636258 -0.001733 0.002929 -149363.000000 0 0 1
-7.126754 31.908722 -1.620407 32.735040 -1.351055 1.620317 0.003731 0.005272 -861016.000000 0 0 1
-7.269954 32.952322 -2.573007 33.842697 -1.353654 1.646898 0.005218 0.002137 1334970.000000 0 0 1
-6.079254 33.199422 -3.400407 33.922289 -1.389689 1.671206 0.006401 0.001850 1096770.000000 0 0 1
-4.798754 33.729322 -2.763907 34.180907 -1.429472 1.651746 0.001349 0.000466 -852632.000000 0 0 1
-4.869154 -34.343189 -2.438807 34.772275 1.429956 1.640991 0.003788 0.001400 535057.000000 0 0 1
-3.967354 -33.983389 -1.363007 34.241326 1.454578 1.610613 -0.002204 0.003335 461484.000000 0 0 1
-3.805054 -32.484489 -1.350007 32.734431 1.454193 1.612049 0.004765 0.000425 235518.000000 0 0 1
-4.970554 -31.850489 -0.859107 32.247451 1.415986 1.597441 0.003043 -0.001504 40768.600000 0 0 1
-4.977754 -30.504089 -1.391107 30.938854 1.409039 1.615775 0.007785 0.001188 256765.000000 0 0 1
-6.352354 -29.778289 -1.328007 30.477246 1.360625 1.614384 0.020431 0.001718 346374.000000 0 0 1
-6.841854 -29.493789 -0.018007 30.276970 1.342852 1.571391 0.013054 0.005415 -464928.000000 0 0 1
-8.030754 -28.764789 -0.107407 29.864990 1.298542 1.574393 -0.005572 0.004421 -501978.000000 0 0 1
-8.338854 -28.056089 1.260293 29.296228 1.281891 1.527764 -0.004728 0.008225 -91022.600000 0 0 1
-7.324554 -27.109589 1.531693 28.123389 1.306914 1.516306 -0.001784 0.005682 -89356.100000 0 0 1
-7.398054 -26.686989 2.862293 27.840965 1.300371 1.467806 -0.002271 0.008914 362329.000000 0 0 1
-8.465554 -25.624289 3.235193 27.179703 1.251713 1.451484 -0.006631 0.009898 -174476.000000 0 0 1
-7.950554 -24.316289 3.104793 25.770777 1.254789 1.450026 -0.003144 0.005997 -761440.000000 0 0 1
-8.829554 -23.378989 3.552893 25.242052 1.209686 1.429574 -0.000226 0.005820 -149166.000000 0 0 1
-8.002754 -22.076889 3.928893 23.809017 1.223034 1.405021 -0.000625 0.017780 916236.000000 0 1 0
-7.232054 -22.105189 5.126093 23.816356 1.254607 1.353865 -0.002022 0.010119 -124961.000000 0 1 0
-6.563354 -20.856689 5.304493 22.499261 1.265919 1.332793 -0.007398 0.011009 -270657.000000 0 1 0
-7.376754 -19.734989 5.946493 21.891712 1.213086 1.295708 -0.000079 0.004360 -76642.400000 0 1 0
-7.623254 -19.919089 7.366293 22.564272 1.205283 1.238242 -0.008704 -0.002278 34220.000000 0 1 0
-8.465854 -18.920989 7.889793 22.179345 1.150080 1.207104 -0.005773 -0.004711 -698730.000000 0 1 0
-26.256454 29.225722 -5.938607 39.734258 -0.838865 1.720817 0.009521 0.004165 385450.000000 0 0 1
-25.495414 30.118222 -5.081907 39.786294 -0.868331 1.698876 0.016839 0.004350 301933.000000 0 0 1
-24.404254 29.502822 -4.436907 38.544393 -0.879698 1.686164 0.017732 0.002698 275258.000000 0 0 1
-23.627854 30.499222 -3.497307 38.738988 -0.911672 1.661198 0.017601 -0.001699 -79865.100000 0 0 1
-24.366954 30.934922 -2.344507 39.448885 -0.903610 1.630263 0.017210 -0.005465 228704.000000 0 0 1
-23.742854 31.944622 -1.563607 39.832485 -0.931629 1.610061 0.017491 -0.004177 319644.000000 0 0 1
-22.489054 31.495322 -0.742507 38.707417 -0.950707 1.589980 0.006094 -0.006190 481797.000000 0 0 1
-21.396754 31.141622 -1.569807 37.816478 -0.968795 1.612319 -0.002139 -0.003250 294721.000000 0 0 1
-20.186154 31.048522 -0.787707 37.042030 -0.994317 1.592063 -0.009797 -0.003676 1553740.000000 0 0 1
-18.885754 30.865622 -1.690707 36.224533 -1.021694 1.617486 -0.017607 -0.000544 724226.000000 0 0 1
-17.759054 30.576922 -0.903707 35.371582 -1.044615 1.596348 -0.012893 -0.003497 -688264.000000 0 0 1
-16.698154 30.062522 -1.638407 34.427721 -1.063780 1.618404 -0.009670 -0.001446 -814325.000000 0 0 1
-15.349554 30.366222 -1.010307 34.040226 -1.102773 1.600480 -0.009812 -0.002005 -603275.000000 0 0 1
-15.103054 29.640522 0.175993 33.267007 -1.099545 1.565506 -0.008172 0.000764 407981.000000 0 0 1
-13.886154 30.137422 0.751393 33.191174 -1.139030 1.548156 -0.006458 0.000349 473342.000000 0 0 1
-13.268454 29.272122 1.868293 32.193159 -1.145218 1.512730 0.000116 -0.000286 -296731.000000 0 0 1
-14.107154 29.158422 3.015893 32.531845 -1.120184 1.477957 -0.010957 -0.001432 216266.000000 0 0 1
-13.416854 28.804422 4.213593 32.054033 -1.134888 1.438962 -0.001321 -0.000901 730855.000000 0 0 1
-12.315654 29.703322 4.872993 32.522434 -1.177749 1.420395 0.007876 -0.001839 326108.000000 0 0 1
-12.758154 30.816522 5.626693 33.824373 -1.178276 1.403669 0.000238 -0.005459 -286623.000000 0 0 1
-12.845954 32.029422 4.871893 34.851653 -1.189370 1.430548 -0.001385 -0.005634 -217518.000000 0 0 1
-12.448154 33.243522 5.713693 35.954618 -1.212505 1.411206 0.001344 0.001800 -490104.000000 0 0 1
-13.371454 33.779222 6.626693 36.928914 -1.193874 1.390375 -0.000437 0.005822 -455502.000000 0 0 1
-12.904454 -34.633889 7.392493 37.691911 1.214135 1.373387 0.003709 -0.000452 -188065.000000 0 0 1
-13.950154 -34.108289 8.387293 37.793238 1.182559 1.347007 -0.004135 0.003328 38766.600000 0 0 1
-14.289954 34.492522 9.403593 38.501486 -1.178031 1.324061 -0.002327 -0.003010 3374.190000 0 0 1
-15.504754 -34.573089 10.014193 39.191580 1.149221 1.312412 -0.001913 0.000079 -229474.000000 0 0 1
-15.983554 33.971322 11.218193 39.183830 -1.131025 1.280437 -0.003883 -0.002422 319439.000000 0 0 1
-15.395454 34.213622 12.495293 39.543954 -1.147959 1.249302 -0.004707 0.001305 460381.000000 0 0 1
-14.025154 33.803822 12.554293 38.691260 -1.177513 1.240341 -0.003505 -0.001004 579456.000000 0 0 1
-13.372254 33.860822 13.981093 38.997992 -1.194678 1.204127 -0.000715 0.001945 -221120.000000 0 0 1
-13.843654 32.876722 14.885693 38.653712 -1.172253 1.175476 -0.002045 -0.000506 37266.400000 0 0 1
-13.104354 31.663722 14.847693 37.346611 -1.178399 1.161935 -0.010232 0.000563 -476889.000000 0 0 1
-13.692654 30.479822 14.135493 36.281131 -1.148577 1.170588 -0.010393 0.002152 -262857.000000 0 0 1
-13.617354 30.626522 12.751493 35.861076 -1.152420 1.207261 -0.010688 -0.000289 -27273.900000 0 0 1
-14.800754 30.234422 12.110893 35.775079 -1.115557 1.225443 -0.008933 -0.000649 -221706.000000 0 0 1
-14.583654 30.208022 10.537693 35.160354 -1.121024 1.266414 -0.008680 0.000810 179395.000000 0 0 1
-13.969354 28.958322 10.207893 33.733193 -1.121332 1.263370 -0.010016 0.000987 179737.000000 0 0 1
-13.875354 28.910122 8.799793 33.252924 -1.123319 1.302974 -0.015017 0.000823 -581893.000000 0 0 1
-13.230054 27.616622 8.305293 31.728379 -1.124040 1.305949 -0.006704 -0.001230 920338.000000 0 0 1
-11.789654 27.571322 8.266293 31.104748 -1.166721 1.301808 0.000468 -0.002892 1073500.000000 0 0 1
-11.345854 26.260622 7.881493 29.672657 -1.162971 1.301955 0.002331 -0.006257 -229225.000000 0 0 1
-10.088354 26.303922 7.010793 29.031404 -1.204568 1.326895 0.006805 -0.007212 -523639.000000 0 0 1
-10.313954 26.758522 5.690893 29.236662 -1.202899 1.374897 0.009263 -0.005857 818922.000000 0 0 1
-9.157154 26.662422 4.840793 28.603697 -1.239970 1.400741 0.011148 0.002132 530906.000000 0 0 1
-9.529154 27.135122 3.425593 28.962982 -1.233076 1.452244 0.007321 0.002848 55180.100000 0 0 1
-9.419354 28.501422 3.291293 30.197481 -1.251610 1.461587 0.009962 0.002390 72350.300000 0 0 1
-9.675754 28.986522 2.007393 30.624635 -1.248624 1.505201 0.009782 0.004227 -481789.000000 0 0 1
-9.283854 30.417022 1.728793 31.849237 -1.274558 1.516489 0.006949 -0.003692 131992.000000 0 0 1
-10.187254 31.405922 2.206193 33.090472 -1.257131 1.504075 -0.001865 -0.009608 377934.000000 0 0 1
-9.741554 32.714422 1.747693 34.178732 -1.281382 1.519640 0.003595 -0.006129 -247771.000000 0 0 1
-10.589754 33.798022 2.387693 35.498595 -1.267160 1.503484 0.000022 0.000454 521467.000000 0 0 1
-11.925154 33.993122 1.924593 36.075555 -1.233399 1.517422 0.004890 -0.001508 403088.000000 0 0 1
-11.891254 -34.626489 0.762993 36.619364 1.240000 1.549959 0.002605 -0.002087 62988.400000 0 0 1
-13.317954 -34.232689 0.295893 36.733261 1.199772 1.562741 -0.000014 -0.004567 459211.000000 0 0 1
-14.125954 34.226422 -0.286307 37.027996 -1.179372 1.578529 0.000545 -0.006334 -73894.100000 0 0 1
-14.131954 34.125422 -1.729507 36.976313 -1.178179 1.617587 0.000108 -0.004666 900650.000000 0 0 1
-12.760054 33.762122 -2.473107 36.177564 -1.209451 1.639210 0.003780 -0.004618 1139540.000000 0 0 1
-12.415354 32.369422 -2.320307 34.746285 -1.204549 1.637625 0.001940 -0.001474 -1534400.000000 0 0 1
-11.103654 32.104322 -2.542907 34.065305 -1.237813 1.645514 -0.001447 0.000371 -1408810.000000 0 0 1
-10.797554 30.575522 -2.761607 32.543451 -1.231324 1.655758 -0.001311 0.000584 36854.900000 0 0 1
-11.150254 30.168722 -4.070807 32.419923 -1.216771 1.696694 0.004929 0.004839 122818.000000 0 0 1
-10.042154 30.238822 -4.962807 32.246871 -1.250161 1.725311 0.003681 0.001989 250464.000000 0 0 1
-10.377954 29.660522 -6.365207 32.061883 -1.234218 1.770653 0.006276 -0.000885 -112122.000000 0 0 1
-10.713454 28.275122 -6.343307 30.894954 -1.208611 1.777586 0.005093 0.005441 11182.100000 0 0 1
-10.126054 27.570122 -7.411807 30.291640 -1.218808 1.817988 0.009307 -0.000473 -116849.000000 0 0 1
-10.655354 26.104122 -7.598207 29.200933 -1.183252 1.834030 0.007129 0.001644 224104.000000 0 0 1
-10.200254 25.249922 -6.563907 28.012294 -1.186871 1.807318 0.002736 0.004220 143103.000000 0 0 1
-10.811754 23.992622 -6.759707 27.170454 -1.147420 1.822226 0.000846 0.008248 -135291.000000 0 0 1
-10.235954 23.038722 -5.750207 25.857733 -1.152698 1.795050 0.002913 0.009510 -1139130.000000 0 0 1
-8.882654 22.762622 -5.811507 25.115973 -1.198741 1.804299 0.011569 0.004660 -890265.000000 0 0 1
-8.453854 21.593322 -5.166507 23.757778 -1.197636 1.790014 0.011156 0.005561 -530119.000000 0 1 0
-8.448854 21.482422 -3.588407 23.361384 -1.196086 1.725011 0.006819 0.003003 516802.000000 0 1 0
-9.701854 21.318522 -2.889007 23.599824 -1.143717 1.693521 0.004027 0.004722 497831.000000 0 1 0
-10.233754 20.038022 -3.070607 22.708603 -1.098612 1.706430 0.002393 -0.000993 288730.000000 0 1 0
-11.591554 19.778222 -2.327107 23.042518 -1.040677 1.671961 0.005607 0.000476 362886.000000 0 1 0
-11.546754 19.655122 -0.936707 22.815099 -1.039643 1.611864 0.009627 -0.010994 -70076.600000 0 1 0
-11.154754 18.387922 -0.533707 21.513462 -1.025513 1.595607 0.001688 -0.012340 -465860.000000 0 1 0
-10.802454 18.181122 0.970793 21.170466 -1.034684 1.524924 -0.000955 -0.017108 492912.000000 0 1 0
-11.979954 18.308022 1.786493 21.952096 -0.991365 1.489325 0.002491 -0.013954 735213.000000 0 1 0
-11.651354 18.764022 3.071993 22.299769 -1.015121 1.432598 -0.002266 -0.003954 542023.000000 0 1 0
-12.892254 18.701722 4.025593 23.068810 -0.967246 1.395395 -0.001921 -0.006516 568670.000000 0 1 0
-13.400554 17.438322 4.317993 22.412385 -0.915589 1.376923 -0.001026 -0.001139 -191690.000000 0 1 0
-14.527754 17.480322 5.153693 23.306176 -0.877382 1.347823 -0.000998 -0.002083 -246021.000000 0 1 0
-15.026954 16.027222 5.440693 22.633655 -0.817597 1.328038 -0.002124 -0.000170 -104774.000000 0 1 0
-14.377754 15.306022 6.535693 21.993394 -0.816660 1.269073 0.002294 -0.002040 144271.000000 0 1 0
-14.754854 15.823322 7.814993 23.003420 -0.820326 1.224165 -0.002099 0.001876 -1654290.000000 0 1 0
-13.678954 15.776422 8.861893 22.683527 -0.856486 1.169431 -0.011916 0.008270 -147525.000000 0 1 0
-12.567154 16.662022 8.821393 22.657743 -0.924587 1.170890 -0.004835 -0.000025 55676.700000 0 1 0
-11.736854 16.357422 7.712993 21.559435 -0.948405 1.204934 -0.000384 0.000334 -1811630.000000 0 1 0
-10.621254 17.388222 7.646893 21.763186 -1.022451 1.211764 0.000339 -0.004801 -339772.000000 0 1 0
-9.668454 17.278822 8.696393 21.625539 -1.060647 1.156948 0.009409 -0.003647 -64415.100000 0 1 0
-8.988754 18.566022 8.780993 22.418758 -1.119908 1.168339 0.014425 -0.002658 585057.000000 0 1 0
-7.612254 18.437422 9.519793 22.102294 -1.179245 1.125511 0.014656 -0.007072 596211.000000 0 1 0
-6.677754 17.745322 8.667193 20.847280 -1.210877 1.142032 0.015916 -0.005951 -177503.000000 0 1 0
-5.397654 17.644522 9.210393 20.622685 -1.273925 1.107818 0.016962 -0.011776 -116012.000000 0 1 0
-4.322754 18.703622 8.951893 21.181314 -1.343666 1.134449 0.010724 -0.013061 -668664.000000 0 1 0
-4.523454 19.982022 9.573393 22.613993 -1.348172 1.133668 0.004887 -0.015152 -140332.000000 0 1 0
-4.264554 21.066822 8.691893 23.185047 -1.371065 1.186516 0.014185 -0.011362 1966260.000000 0 1 0
-2.765654 21.693822 8.762793 23.559654 -1.443995 1.189698 0.009775 -0.004365 2558600.000000 0 1 0
-1.766954 20.668022 8.550393 22.436543 -1.485512 1.179819 0.002840 0.005642 -286406.000000 0 1 0
-0.615354 21.229722 8.020193 22.702494 -1.541819 1.209728 -0.003922 -0.008343 -655580.000000 0 1 0
0.602746 20.344122 7.778193 21.788687 1.541177 1.205760 -0.005056 -0.010369 -61531.500000 0 1 0
1.256346 20.173722 9.016693 22.132741 1.508600 1.151200 -0.006875 0.007687 579823.000000 0 1 0
2.581746 19.607222 8.888593 21.682150 1.439876 1.148397 -0.003867 0.003455 863984.000000 0 1 0
3.349846 19.592322 10.193893 22.338218 1.401456 1.096915 -0.003956 -0.000258 -885987.000000 0 1 0
3.485846 18.335522 10.833693 21.580347 1.382924 1.044867 -0.010064 0.007285 580236.000000 0 1 0
4.377346 18.286122 11.979193 22.294494 1.335837 1.003545 -0.013822 0.009189 1582250.000000 0 1 0
5.892846 18.653122 11.715493 22.801696 1.264801 1.031189 -0.004837 0.005747 1154710.000000 0 1 0
6.811646 17.771522 11.023593 21.994206 1.204778 1.045806 -0.005821 0.005303 467043.000000 0 1 0
7.285546 16.745422 11.885593 21.788888 1.160422 0.993824 -0.005179 0.004549 -351898.000000 0 1 0
8.578746 16.084622 11.367393 21.483192 1.080825 1.013222 0.001697 0.000177 -134074.000000 0 1 0
9.724346 16.876122 11.295793 22.515802 1.048046 1.045253 0.010856 -0.003375 -900459.000000 0 1 0
10.733746 16.271622 10.567293 22.173106 0.987660 1.074034 0.011725 -0.006428 -632965.000000 0 1 0
11.648846 17.352222 9.990493 23.164740 0.979581 1.124885 0.013400 0.000012 -33441.000000 0 1 0
12.621846 16.873522 9.074293 22.942744 0.928559 1.164163 0.013241 -0.000300 -316230.000000 0 1 0
13.212146 17.908322 8.379393 23.779887 0.935171 1.210691 0.017556 -0.000013 59108.900000 0 1 0
14.285646 17.399122 7.383393 23.692269 0.883348 1.253881 0.009288 -0.005687 -134337.000000 0 1 0
15.467346 16.887222 7.923393 24.232152 0.829255 1.237692 0.012307 -0.007001 -260954.000000 0 1 0
16.442446 16.681822 6.921093 24.424142 0.792625 1.283489 0.013352 -0.002601 -602104.000000 0 1 0
17.829246 16.470622 7.495593 25.403687 0.745809 1.271279 0.009736 -0.002897 -732283.000000 0 0 1
17.949346 15.343422 8.347193 25.045463 0.707284 1.231014 0.006150 0.001298 338538.000000 0 0 1
19.145846 15.487522 9.114093 26.258207 0.680158 1.216325 0.004584 0.004074 169003.000000 0 0 1
19.491446 14.519622 10.290693 26.393829 0.640244 1.170284 0.000704 0.005268 -332593.000000 0 0 1
19.951646 13.372822 9.714893 25.909066 0.590487 1.186441 0.000272 0.000357 -119766.000000 0 0 1
20.383246 12.567822 10.756693 26.251348 0.552519 1.148608 0.006359 -0.000529 -514481.000000 0 0 1
21.097646 11.357322 10.210193 26.045104 0.493833 1.167970 0.004335 -0.002019 -916162.000000 0 0 1
22.426646 11.622122 9.808793 27.096874 0.478124 1.200395 0.000510 -0.001984 549588.000000 0 0 1
23.066646 10.618322 9.018093 26.947076 0.431413 1.229553 0.000716 -0.001437 144251.000000 0 0 1
23.311846 9.243222 9.674793 26.879005 0.377488 1.202594 0.003495 -0.001876 -814939.000000 0 0 1
22.133846 8.482522 9.654493 25.594326 0.365973 1.184012 0.005477 -0.002283 177494.000000 0 0 1
22.310946 7.114922 10.088593 25.498630 0.308703 1.164018 0.008666 -0.002067 -455017.000000 0 0 1
23.322046 6.135022 9.480393 25.912047 0.257229 1.196231 0.009291 -0.002309 -64332.500000 0 0 1
23.133046 5.887722 8.055793 25.193231 0.249224 1.245320 0.005444 -0.003496 354293.000000 0 0 1
24.261346 5.257722 7.471293 25.924443 0.213412 1.278455 -0.001069 -0.000657 137115.000000 0 0 1
24.000246 4.956122 5.950893 25.218804 0.203641 1.332579 -0.000485 -0.005131 -362382.000000 0 0 1
22.987946 4.029522 5.688193 24.021620 0.173526 1.331731 -0.003000 -0.001723 181131.000000 0 1 0
22.767246 3.867922 4.306893 23.491650 0.168283 1.386416 -0.003456 0.000282 -181493.000000 0 1 0
21.976646 2.534622 4.054993 22.490892 0.114825 1.389510 -0.002754 -0.003371 -325374.000000 0 1 0
22.515646 1.331922 4.532893 23.005987 0.059087 1.372468 0.002082 -0.004175 -89014.800000 0 1 0
21.863646 0.288722 3.920293 22.214209 0.013205 1.393390 0.002237 -0.003632 -560035.000000 0 1 0
22.373346 -1.150578 4.321193 22.815853 -0.051381 1.380251 -0.001364 -0.004514 -642548.000000 0 1 0
22.156046 -1.477678 5.692493 22.923315 -0.066596 1.319843 -0.004241 -0.004624 708404.000000 0 1 0
22.146546 -2.873578 5.831493 23.081015 -0.129032 1.315375 -0.019555 -0.004988 -853695.000000 0 1 0
21.813446 -3.373378 7.234593 23.228117 -0.153431 1.254069 -0.009519 -0.000332 -294806.000000 0 1 0
21.867746 -4.803578 7.332593 23.559278 -0.216231 1.254299 -0.016402 -0.001152 550457.000000 0 1 0
21.895546 -5.223678 8.709993 24.136398 -0.234195 1.201601 -0.001634 -0.000990 -319978.000000 0 1 0
21.820846 -6.740878 8.885593 24.505969 -0.299619 1.199752 0.006453 -0.001479 3247.940000 0 1 0
20.595246 -7.309878 8.477093 23.440554 -0.341060 1.200768 0.010299 -0.001268 292908.000000 0 1 0
20.356146 -8.519978 9.115693 23.875899 -0.396391 1.179059 0.007043 0.003269 -503655.000000 0 1 0
-25.186324 -33.086389 5.696993 41.970416 0.920147 1.434638 0.002076 -0.005876 -177036.000000 0 0 1
-25.782914 -34.287189 6.122993 43.334294 0.926036 1.429025 0.008838 -0.004235 62047.200000 0 0 1
-25.985444 -34.257589 7.504293 43.647911 0.921858 1.398010 0.003476 -0.002324 -353138.000000 0 0 1
-26.654664 33.952722 8.134393 43.925241 -0.905236 1.384534 0.002033 0.005279 574720.000000 0 0 1
-28.015224 33.853222 7.695893 44.610763 -0.879481 1.397417 0.007490 0.000056 603701.000000 0 0 1
-28.646354 32.625922 8.103593 44.167099 -0.850256 1.386275 0.000523 0.004050 -134156.000000 0 0 1
-30.170614 32.723222 8.104793 45.241163 -0.825962 1.390678 0.007377 -0.000299 -301764.000000 0 0 1
-30.710704 32.878722 6.781093 45.498801 -0.819479 1.421200 0.007707 -0.000055 -21234.300000 0 0 1
-32.112454 32.764422 6.808293 46.379628 -0.795447 1.423469 0.007311 -0.000843 -85026.600000 0 0 1
-32.857304 32.859222 5.443393 46.786338 -0.785427 1.454186 0.002909 -0.002216 -184704.000000 0 0 1
-32.857614 31.635422 4.749093 45.858223 -0.766450 1.467050 0.004694 -0.002745 32751.900000 0 0 1
-33.567024 31.809022 3.586693 46.383438 -0.758514 1.493392 0.003947 -0.001380 -522249.000000 0 0 1
-33.224494 30.688722 2.673093 45.307947 -0.745744 1.511764 0.003804 -0.003876 -106431.000000 0 0 1
-33.556614 29.503722 3.299193 44.804025 -0.721216 1.497094 0.004571 -0.003588 282771.000000 0 0 1
-33.081714 28.462522 2.486493 43.711527 -0.710484 1.513881 0.001524 0.000248 -405842.000000 0 0 1
-33.154524 27.055022 3.156393 42.908734 -0.684438 1.497169 0.004104 0.003154 -608510.000000 0 0 1
-34.468780 26.595822 3.204893 43.654391 -0.657177 1.497315 -0.003622 0.003615 -454159.000000 0 0 1
-34.553972 25.543222 4.157093 43.170761 -0.636571 1.474353 -0.001177 0.003523 729331.000000 0 0 1
33.507732 24.986322 4.072793 41.996095 0.640736 1.473663 0.007597 0.001310 205075.000000 0 0 1
33.171025 24.141822 2.948293 41.131945 0.629140 1.499056 0.002112 0.001407 1738.210000 0 0 1
33.836881 22.909222 2.964493 40.970174 0.595156 1.498376 -0.001963 0.006675 -894651.000000 0 0 1
33.388455 21.920122 1.809993 39.981955 0.580944 1.525511 -0.003676 0.007735 1778060.000000 0 0 1
31.971845 21.543722 1.698693 38.590366 0.592948 1.526764 -0.002368 0.010707 2220440.000000 0 0 1
31.387865 20.931222 2.888693 37.837266 0.588134 1.494377 -0.002400 0.008372 -281440.000000 0 0 1
31.496115 19.397322 2.903893 37.103827 0.552003 1.492452 0.000661 0.002379 -575034.000000 0 0 1
30.787855 18.827122 1.864493 36.136254 0.548841 1.519177 -0.001261 -0.001041 51522.900000 0 0 1
31.032475 17.465122 1.572693 35.644331 0.512618 1.526660 -0.002435 -0.001016 -427706.000000 0 0 1
30.604495 16.423522 2.660793 34.834566 0.492526 1.494338 -0.002314 -0.000398 814874.000000 0 0 1
29.198805 16.336322 2.956993 33.588531 0.510097 1.482646 -0.003040 -0.002974 938707.000000 0 0 1
28.897765 15.242822 3.804293 32.892204 0.485385 1.454877 -0.002013 -0.004446 907570.000000 0 0 1
27.380045 15.207322 4.247993 31.606565 0.506992 1.435986 -0.010097 -0.002255 804110.000000 0 0 1
26.548785 14.845622 3.211393 30.586656 0.509866 1.465609 -0.009035 -0.007662 -1335060.000000 0 0 1
25.247815 15.291022 3.299993 29.701136 0.544554 1.459460 -0.013733 -0.004984 -771929.000000 0 0 1
24.379975 14.749822 2.135593 28.574485 0.544086 1.495989 -0.006026 -0.007218 -384490.000000 0 0 1
24.533415 15.198522 0.762793 28.869800 0.554637 1.544371 -0.002286 -0.009467 -790129.000000 0 0 1
25.601945 14.676722 0.090293 29.510573 0.520530 1.567737 0.001334 -0.010324 -1714990.000000 0 0 1
25.835965 15.410322 -1.252007 30.108846 0.537818 1.612391 0.004525 -0.008622 -112150.000000 0 0 1
26.288405 16.749622 -1.214107 31.194617 0.567288 1.609727 0.003763 -0.010028 670304.000000 0 0 1
27.497725 16.925922 -0.451007 32.292648 0.551767 1.584763 0.005569 -0.009861 -519061.000000 0 0 1
28.087595 18.293122 -0.663307 33.525979 0.577280 1.590582 0.005450 -0.005725 -519793.000000 0 0 1
28.926075 18.374322 -1.809907 34.316312 0.565912 1.623563 -0.000535 -0.000390 742081.000000 0 0 1
29.776195 19.545922 -1.803807 35.663967 0.580881 1.621396 0.001201 0.002505 523329.000000 0 0 1
29.173605 20.701922 -2.630507 35.869045 0.617147 1.644199 0.001550 -0.001881 -424970.000000 0 0 1
30.069355 21.730322 -2.777007 37.203290 0.625781 1.645510 -0.010440 0.004645 -95699.600000 0 0 1
29.405955 22.807722 -3.463407 37.375093 0.659695 1.663596 0.005570 0.005965 -292384.000000 0 0 1
30.230605 24.113522 -3.643507 38.841042 0.673308 1.664740 0.001352 0.012003 -24651.100000 0 0 1
30.473995 24.822922 -2.446307 39.380531 0.683557 1.632956 -0.002157 0.012185 253668.000000 0 0 1
31.490815 24.198022 -1.681807 39.749769 0.655183 1.613119 -0.004439 0.014312 -607825.000000 0 0 1
31.703785 24.872322 -0.348907 40.297445 0.665232 1.579455 -0.003340 0.011771 34022.100000 0 0 1
32.116295 26.220822 -0.515907 41.463889 0.684681 1.583239 -0.005052 0.011109 194.584000 0 0 1
33.084785 26.542622 0.469893 42.418564 0.676118 1.559719 -0.001133 0.007001 -84793.500000 0 0 1
33.600641 28.022522 0.336793 43.753608 0.695124 1.563099 -0.001339 0.006451 -372817.000000 0 0 1
34.319090 28.255122 -0.838707 44.461841 0.688791 1.589661 -0.006522 0.004283 29764.700000 0 0 1
33.539936 28.539922 -2.000307 44.084642 0.705030 1.616186 -0.011418 0.004344 -92445.600000 0 0 1
34.203525 28.038622 -3.279707 44.348641 0.686673 1.644817 -0.009226 0.007984 -422772.000000 0 0 1
-34.343275 28.831522 -3.832707 45.004520 -0.698372 1.656062 -0.007657 0.009329 -198501.000000 0 0 1
-33.628864 28.321022 -4.965907 44.245237 -0.699927 1.683269 -0.008836 0.011061 204135.000000 0 0 1
-34.392857 28.181722 -6.348407 44.915257 -0.686463 1.712613 -0.008139 0.011142 -148162.000000 0 0 1
34.041402 27.327822 -6.287907 44.104021 0.676435 1.713854 -0.005195 0.013596 -500637.000000 0 0 1
33.040375 27.556122 -7.252307 43.630290 0.695140 1.737793 -0.002878 0.009382 485238.000000 0 0 1
31.806665 26.614922 -7.017207 42.062563 0.696764 1.738408 0.003055 0.008824 98347.900000 0 0 1
31.645765 25.257822 -7.337507 41.149131 0.673607 1.750070 0.005395 0.008143 -44315.100000 0 0 1
32.604145 24.438722 -6.688307 41.291825 0.643219 1.733490 0.000977 0.010548 -52440.100000 0 0 1
32.561825 22.937922 -7.046007 40.448324 0.613701 1.745887 0.002799 0.010591 -396540.000000 0 0 1
31.347305 22.328222 -6.732507 39.070829 0.618924 1.743976 0.002284 0.011036 -178995.000000 0 0 1
31.579915 20.924222 -6.679407 38.467240 0.585168 1.745320 0.007508 0.002568 479832.000000 0 0 1
30.411705 20.139322 -5.953507 36.958197 0.584920 1.732589 0.004078 0.002656 -129381.000000 0 0 1
29.293535 20.147222 -6.793407 36.196300 0.602471 1.759598 -0.004556 0.001831 -1236260.000000 0 0 1
28.370425 19.381322 -6.090607 34.894300 0.599329 1.746239 0.003556 -0.001128 -22785.100000 0 0 1
27.065025 19.164122 -6.943807 33.882084 0.616126 1.777199 -0.005298 -0.002186 489258.000000 0 0 1
27.144065 18.045322 -7.788807 33.512676 0.586708 1.805355 -0.002103 -0.002461 806050.000000 0 0 1
25.974695 17.982422 -8.639307 32.751945 0.605543 1.837735 -0.003636 -0.000065 589869.000000 0 0 1
26.094765 16.924222 -9.777107 32.603035 0.575368 1.875367 -0.007185 0.000168 -490947.000000 0 0 1
25.184485 16.986922 -10.811907 32.244552 0.593406 1.912730 -0.008478 0.002671 -264130.000000 0 0 1
25.417135 15.878622 -11.690707 32.168836 0.558399 1.942730 -0.007683 -0.000665 -16452.900000 0 0 1
24.682785 16.094622 -13.046007 32.225379 0.577821 1.987596 -0.004017 0.000531 -212711.000000 0 0 1
23.267375 16.149022 -12.887807 31.116832 0.606730 1.997832 -0.008154 -0.001653 356717.000000 0 0 1
22.559975 15.854222 -14.076507 30.958955 0.612575 2.042812 -0.002401 0.000124 -210409.000000 0 0 1
22.514675 14.368422 -14.609107 30.443195 0.568021 2.071315 0.001209 -0.001028 265701.000000 0 0 1
23.772075 13.906922 -15.139207 31.427848 0.529325 2.073405 0.002842 -0.002105 931631.000000 0 0 1
24.202775 14.418222 -16.390307 32.592969 0.537271 2.097722 0.003980 -0.002620 -552356.000000 0 0 1
25.503055 13.786922 -16.931507 33.573218 0.495597 2.099386 0.009227 0.000941 71927.200000 0 0 1
25.419515 12.442422 -17.366907 33.205046 0.455199 2.121187 0.009918 0.001178 313106.000000 0 0 1
26.761365 12.052622 -17.621407 34.233760 0.423165 2.111498 0.007174 -0.001185 478270.000000 0 0 1
26.934365 10.645122 -18.292107 34.254632 0.376383 2.134125 0.004615 0.002970 -228497.000000 0 0 1
26.321495 10.527322 -19.564407 34.444327 0.380465 2.174871 0.006419 -0.001549 -120557.000000 0 0 1
26.415055 9.256922 -20.141507 34.483707 0.337068 2.194552 0.003062 0.004814 -241315.000000 0 0 1
27.717355 8.931722 -20.883707 35.835132 0.311736 2.192932 0.003085 -0.000485 -1134940.000000 0 0 1
27.873525 9.680822 -22.102307 36.866837 0.334279 2.213694 0.005714 -0.002697 -80645.300000 0 0 1
28.458835 8.943722 -23.114807 37.738439 0.304495 2.230016 -0.002523 -0.001642 406187.000000 0 0 1
29.986805 8.666922 -22.904107 38.715916 0.281357 2.203831 -0.007066 0.001037 -520672.000000 0 0 1
30.862545 9.731122 -22.943407 39.668518 0.305438 2.187536 -0.010124 -0.000692 -232085.000000 0 0 1
32.184455 9.216822 -23.005007 40.620430 0.278910 2.172856 0.000066 -0.001459 248316.000000 0 0 1
33.246925 10.333522 -22.896407 41.669955 0.301346 2.152527 0.008763 -0.003947 -155269.000000 0 0 1
33.168875 10.886022 -21.579807 41.041050 0.317123 2.124464 0.000776 -0.004352 338670.000000 0 0 1
34.016883 12.015422 -21.417307 41.954973 0.339540 2.106543 -0.001579 -0.003926 -36658.100000 0 0 1
34.070927 12.630522 -20.026907 41.490182 0.355007 2.074520 -0.012416 -0.001716 -113319.000000 0 0 1
34.742898 11.796322 -19.096607 41.363058 0.327319 2.050688 -0.009351 -0.001840 388029.000000 0 0 1
34.722731 12.494022 -17.860907 40.997325 0.345398 2.021568 -0.011751 -0.002787 -207775.000000 0 0 1
-34.282247 11.703922 -16.617207 39.854558 -0.328992 2.000879 -0.010731 -0.002248 -519407.000000 0 0 1
34.444034 10.627222 -16.212507 39.524356 0.299269 1.993459 -0.013085 -0.003300 254104.000000 0 0 1
-34.407163 9.934722 -15.196507 38.903540 -0.281095 1.972102 -0.009527 -0.005211 317609.000000 0 0 1
34.302109 8.676322 -14.697807 38.313689 0.247742 1.964507 -0.010013 -0.002959 114498.000000 0 0 1
33.063555 8.998922 -14.133407 37.066595 0.265734 1.961996 -0.013179 -0.003948 52622.500000 0 0 1
33.004315 8.367422 -12.903207 36.411417 0.248294 1.933039 -0.008657 -0.001822 -447497.000000 0 0 1
31.936415 8.874422 -11.931407 35.228517 0.271040 1.916316 -0.004471 -0.001605 -328502.000000 0 0 1
32.193635 10.236322 -11.514807 35.690380 0.307852 1.899304 -0.002991 0.003915 437516.000000 0 0 1
31.093805 10.822222 -10.816507 34.654610 0.334937 1.888223 -0.003136 -0.000243 45996.000000 0 0 1
31.042555 10.523622 -9.314007 34.075469 0.326848 1.847654 -0.003775 -0.000873 300544.000000 0 0 1
32.006135 11.184522 -8.445907 34.940228 0.336184 1.814939 0.003345 -0.000578 579589.000000 0 0 1
31.806755 12.574922 -8.270807 35.188131 0.376495 1.808062 0.003579 -0.001595 -447640.000000 0 0 1
31.881295 12.987922 -6.812207 35.092866 0.386855 1.766156 0.006734 -0.003786 -277258.000000 0 0 1
33.120115 12.737622 -6.191207 36.021106 0.367151 1.743531 0.013772 -0.002955 -121524.000000 0 0 1
33.066155 12.994522 -4.795807 35.850076 0.374445 1.704973 0.014567 -0.007146 -859971.000000 0 0 1
34.380889 12.927122 -4.059507 36.954507 0.359645 1.680870 0.020669 -0.001169 -810583.000000 0 0 1
-34.372576 14.064222 -4.356707 37.393278 -0.388386 1.687572 0.021643 0.000155 47508.400000 0 0 1
-33.122644 14.016622 -3.675107 36.153584 -0.400322 1.672625 0.020989 -0.004062 455880.000000 0 0 1
-32.389324 15.388322 -3.525207 36.031873 -0.443534 1.668789 0.015018 0.000176 289575.000000 0 0 1
-32.996524 16.292122 -2.620207 36.892673 -0.458637 1.641879 0.013893 0.002183 44255.800000 0 0 1
-32.092744 17.282122 -2.252307 36.519705 -0.493976 1.632509 0.010043 0.003286 -251472.000000 0 0 1
-32.755414 18.252222 -1.286507 37.519540 -0.508375 1.605092 0.011012 0.002294 304072.000000 0 0 1
-33.651824 19.109322 -1.991207 38.750179 -0.516447 1.622205 0.008683 0.001909 385028.000000 0 0 1
-34.579920 19.790922 -1.164207 39.859840 -0.519821 1.600008 0.004696 0.006536 572247.000000 0 0 1
34.154875 20.941822 -1.923807 40.110054 0.550027 1.618778 -0.003884 0.009899 356086.000000 0 0 1
-34.564023 22.019622 -2.362807 41.050192 -0.567230 1.628387 -0.000424 0.008289 -158569.000000 0 0 1
34.533928 22.680522 -3.546007 41.467728 0.581113 1.656413 -0.011312 0.008667 -52211.500000 0 0 1
-34.040354 23.792822 -4.021907 41.725530 -0.610027 1.667336 -0.011079 0.003732 1688170.000000 0 0 1
-32.660474 23.444322 -4.346307 40.438017 -0.622585 1.678485 -0.008998 0.006875 1120430.000000 0 0 1
-31.960684 24.503922 -4.912307 40.571644 -0.654097 1.692171 -0.003600 0.005854 254709.000000 0 0 1
-30.588094 24.078622 -5.500407 39.314959 -0.666881 1.711163 -0.001522 0.004846 60294.600000 0 0 1
-30.654314 23.206122 -6.611007 39.011748 -0.647983 1.741080 0.000348 0.006497 -1303130.000000 0 0 1
-29.455384 23.016622 -7.234907 38.075299 -0.663300 1.761975 0.000577 0.004659 -1721930.000000 0 0 1
-29.550544 22.060722 -8.468807 37.836897 -0.641284 1.796533 -0.008320 0.001602 -22554.700000 0 0 1
-30.270134 22.629522 -9.581807 38.989579 -0.641954 1.819093 -0.007106 -0.001534 348091.000000 0 0 1
-29.769744 22.117522 -10.815607 38.631591 -0.638976 1.854557 -0.005805 -0.005390 34980.500000 0 0 1
-30.697824 22.440122 -12.012207 39.877420 -0.631230 1.876777 -0.000201 -0.008428 -23837.100000 0 0 1
-30.780844 23.823022 -12.307307 40.822378 -0.658658 1.877045 0.003241 -0.006920 -247986.000000 0 0 1
-31.543194 24.048222 -13.460207 41.886361 -0.651384 1.897952 0.006416 -0.008318 -771241.000000 0 0 1
-31.737084 25.546022 -13.778307 43.007947 -0.677738 1.896913 0.002384 -0.006973 -242520.000000 0 0 1
-30.583494 26.354522 -13.753007 42.650394 -0.711261 1.899123 0.005011 -0.004961 -1128740.000000 0 0 1
-29.769774 26.244722 -14.913507 42.396198 -0.722550 1.930252 0.005972 -0.006849 -277409.000000 0 0 1
-28.306534 26.596522 -14.569307 41.483726 -0.754262 1.929654 0.003508 -0.004743 44118.700000 0 0 1
-27.650204 25.751622 -13.586707 40.153187 -0.749860 1.915982 0.012742 -0.013372 317978.000000 0 0 1
-28.255784 25.686422 -12.276407 40.110993 -0.737802 1.881849 0.012503 -0.008543 -1242560.000000 0 0 1
-28.464444 27.030422 -11.468707 40.894982 -0.759563 1.855052 0.016351 -0.000033 128374.000000 0 0 1
-27.239594 27.727722 -11.234507 40.460304 -0.794278 1.852161 0.018142 0.001614 252467.000000 0 0 1
-27.518974 28.857022 -10.428607 41.216229 -0.809128 1.826599 0.007468 0.001836 511926.000000 0 0 1
-26.275624 29.704722 -10.008807 40.901774 -0.846577 1.818010 0.010404 0.003857 579489.000000 0 0 1
-26.609954 30.850522 -9.241507 41.776187 -0.859064 1.793856 0.004072 0.004700 999204.000000 0 0 1
-25.378694 31.570322 -8.941107 41.481402 -0.893695 1.788046 0.012211 0.002564 902116.000000 0 0 1
33.170425 -25.417588 34.561406 54.229343 -0.653834 0.879782 -0.007701 -0.000476 -318642.000000 0 0 1
32.780255 -24.046178 -34.661452 53.424527 -0.632894 2.276793 -0.004420 -0.001035 -549461.000000 0 0 1
31.620375 -23.913578 -33.929057 52.181302 -0.647503 2.278664 -0.001152 -0.000796 -490561.000000 0 0 1
31.195185 -22.407878 -33.589807 51.024776 -0.622911 2.289360 0.001883 0.002248 188830.000000 0 0 1
30.808235 -21.823178 34.623198 51.226598 -0.616312 0.828634 -0.000239 0.000681 -54524.500000 0 0 1
30.419325 -20.476878 -34.545016 50.378527 -0.592480 2.326374 0.001012 0.003283 9717.480000 0 0 1
30.236455 -19.685378 33.532098 49.256055 -0.577111 0.821982 0.008734 0.001118 949474.000000 0 0 1
31.466835 -19.450078 32.800823 49.440482 -0.553632 0.845389 0.008221 0.003935 1052590.000000 0 0 1
31.184085 -18.824578 31.568513 48.201483 -0.543106 0.856709 0.008674 0.003848 -415189.000000 0 0 1
32.413085 -18.693978 30.665733 48.378302 -0.523142 0.884245 -0.001873 0.009072 -240545.000000 0 0 1
33.091825 -17.470978 30.902053 48.530824 -0.485760 0.880519 -0.004630 0.004166 -26267.600000 0 0 1
34.142319 -17.199078 30.022443 48.609190 -0.466640 0.905072 -0.001038 0.005012 112906.000000 0 0 1
-34.324530 -16.186478 30.620773 48.762764 0.440647 0.891875 -0.005519 0.004322 760625.000000 0 0 1
-33.161774 -16.092678 29.757433 47.372802 0.451801 0.891617 -0.005096 0.004135 1028620.000000 0 0 1
-32.112834 -15.266578 30.213923 46.660301 0.443778 0.866458 -0.006029 0.000714 -205175.000000 0 0 1
-31.135254 -16.033078 31.114433 46.846255 0.475535 0.844397 -0.001801 0.001784 -996605.000000 0 0 1
-30.080984 -15.149978 31.428763 46.066849 0.466555 0.819971 -0.003719 0.003204 -323016.000000 0 0 1
-29.159344 -15.784778 32.275813 46.272613 0.496161 0.798873 -0.004560 0.004372 212703.000000 0 0 1
-28.165714 -14.739478 32.881083 45.735384 0.482123 0.768518 -0.004753 0.002433 -1458.340000 0 0 1
-28.820104 -14.008078 33.906437 46.652665 0.452427 0.757167 -0.005376 0.001922 367179.000000 0 0 1
-27.961314 -13.081578 34.523099 46.312063 0.437595 0.729594 -0.004980 0.000452 -383223.000000 0 0 1
-28.262024 -12.709878 -33.480457 45.620434 0.422618 2.394830 -0.003403 -0.002829 -543576.000000 0 0 1
-27.886734 -13.605778 -32.491687 44.927685 0.453916 2.379220 -0.009767 0.004365 -38127.200000 0 0 1
-28.133254 -13.093078 -31.207527 44.009300 0.435582 2.359034 0.000222 0.005679 -394849.000000 0 0 1
-28.320034 -14.170478 -30.143517 43.720229 0.463943 2.331545 0.007089 0.008180 -43257.900000 0 0 1
-29.511934 -14.921278 -30.245037 44.814742 0.468119 2.311612 0.008998 0.003742 209421.000000 0 0 1
-30.017294 -15.412078 -28.947497 44.458157 0.474342 2.279853 0.010223 0.004022 1215460.000000 0 0 1
-31.148244 -16.500978 -29.166367 45.751201 0.487168 2.262045 0.008804 0.002570 660378.000000 0 0 1
-30.645314 -17.706678 -29.770287 46.248586 0.523931 2.270122 0.008451 0.004281 -166520.000000 0 0 1
-31.713764 -18.575678 -30.029937 47.461730 0.529860 2.255856 0.008643 0.002666 -447748.000000 0 0 1
-31.521484 -20.042978 -30.339707 48.122996 0.566365 2.252944 0.008538 0.003967 165833.000000 0 0 1
-32.653774 -20.659278 -30.940567 49.501449 0.564101 2.245984 -0.002700 -0.002024 128389.000000 0 0 1
-32.207664 -21.881378 -31.387887 50.013276 0.596755 2.249252 -0.002637 -0.000228 103630.000000 0 0 1
-33.312614 -22.917578 -31.770687 51.422974 0.602596 2.236777 -0.000667 -0.001442 28214.300000 0 0 1
-34.155900 -23.120578 -30.640377 51.381119 0.595063 2.209724 -0.001127 0.003610 315040.000000 0 0 1
34.194633 -23.878778 -30.929417 51.923962 -0.609597 2.208893 -0.003524 0.002856 367360.000000 0 0 1
34.419197 -25.396198 -30.946577 52.795252 -0.635680 2.197110 -0.005260 0.002624 -108171.000000 0 0 1
-34.540625 -25.721318 -32.252937 53.804209 0.640080 2.213610 -0.004263 0.004077 300593.000000 0 0 1
-33.745224 -26.931788 -32.159107 53.835579 0.673576 2.210999 -0.001885 0.004077 328703.000000 0 0 1
-33.885024 -27.771908 -33.474667 55.136441 0.686574 2.223233 -0.002605 -0.000508 1073230.000000 0 0 1
34.294839 -28.249838 -33.713737 55.774595 -0.689047 2.219889 -0.002384 -0.001249 709629.000000 0 0 1
34.171308 -29.371798 -34.532291 56.770238 -0.710010 2.224690 -0.002204 -0.008557 -119612.000000 0 0 1
-34.649088 -30.727398 -34.200349 57.570793 0.725484 2.206890 -0.000761 -0.006197 219643.000000 0 0 1
34.408138 -31.292418 -32.958577 57.003537 -0.738011 2.187298 0.004358 -0.005300 485570.000000 0 0 1
-34.091413 -32.139688 -32.439157 56.986691 0.755938 2.176379 0.003097 -0.003925 419005.000000 0 0 1
-34.462327 -32.639348 -31.020597 56.703232 0.758237 2.149655 0.009255 -0.000963 150423.000000 0 0 1
34.038123 -33.606658 -30.914247 56.953419 -0.779020 2.144562 0.014262 -0.000287 173644.000000 0 0 1
33.590477 -33.753398 -29.562687 56.049661 -0.787817 2.126378 0.014295 -0.000077 -325564.000000 0 0 1
32.402485 -34.706085 -29.494107 55.895758 -0.819711 2.126643 0.012404 -0.000115 -771404.000000 0 0 1
31.220155 -34.224222 -30.069637 55.228422 -0.831269 2.146541 0.010675 -0.004371 -635278.000000 0 0 1
30.208965 34.374827 -29.592277 54.496910 0.849812 2.144812 0.013318 0.002099 180204.000000 0 0 1
28.826815 34.666867 -30.237857 54.287245 0.877119 2.161562 0.004764 -0.002837 229780.000000 0 0 1
28.749025 34.132825 -31.555667 54.656347 0.870808 2.186272 0.003996 -0.005517 191834.000000 0 0 1
27.509515 34.649004 -32.039927 54.624938 0.899756 2.197581 0.000927 -0.001235 187914.000000 0 0 1
27.260505 34.131215 -33.476737 55.034234 0.896850 2.224700 -0.003188 0.000844 -16838.100000 0 0 1
26.896905 32.763303 -33.560217 54.066308 0.883413 2.240461 -0.007356 0.001228 35071.400000 0 0 1
26.545195 32.474123 34.540972 54.335024 0.885520 0.881877 -0.004345 0.000245 -154481.000000 0 0 1
26.515025 30.970823 34.172099 53.197470 0.862755 0.873218 -0.003063 -0.002555 -79210.000000 0 0 1
27.723095 30.226253 34.233840 53.424266 0.828567 0.875267 0.001317 0.001199 -200326.000000 0 0 1
27.477035 28.901303 34.640078 52.822417 0.810655 0.855576 0.001149 -0.000062 128155.000000 0 0 1
28.782535 28.108583 -34.602472 53.064657 0.773552 2.281123 0.004869 0.004401 106518.000000 0 0 1
29.468095 28.389213 -33.398807 52.818523 0.766753 2.255355 0.004773 0.002928 -675872.000000 0 0 1
30.638465 27.630803 -33.368747 53.062700 0.733827 2.250876 0.012024 0.001024 -542724.000000 0 0 1
31.366105 27.606333 -32.048857 52.659960 0.721730 2.225091 0.018285 0.002510 -380467.000000 0 0 1
32.314705 28.631573 -31.815367 53.630446 0.725039 2.205866 0.012430 0.004909 25777.000000 0 0 1
31.931975 30.006443 -31.771427 54.124497 0.754320 2.198153 0.018892 0.003659 -484673.000000 0 0 1
30.903845 30.399983 -30.708577 53.124602 0.777179 2.187131 0.014843 0.005123 157545.000000 0 0 1
31.413255 30.333503 -29.365917 52.623864 0.767913 2.162811 0.013006 0.001848 -106366.000000 0 0 1
30.367555 30.521603 -28.459827 51.611224 0.787928 2.154870 0.014678 0.002077 -559590.000000 0 0 1
30.872855 30.933343 -27.110337 51.429323 0.786377 2.126025 0.021410 0.000277 -308964.000000 0 0 1
31.354545 32.253013 -26.989037 52.457339 0.799522 2.111215 0.021419 -0.001645 157362.000000 0 0 1
31.859305 32.611093 -25.719147 52.344753 0.797059 2.084426 0.012271 -0.003197 28698.800000 0 0 1
32.118655 34.113495 -25.543857 53.365037 0.815508 2.069927 0.015667 -0.002011 526269.000000 0 0 1
30.857475 -34.700518 -25.449227 52.952553 -0.843952 2.072140 0.012507 0.000549 451792.000000 0 0 1
30.963765 -33.273458 -25.304217 52.020969 -0.821338 2.078788 0.006678 0.003221 -746248.000000 0 0 1
31.560935 -32.470918 -26.488087 52.460194 -0.799609 2.100083 0.004278 0.003564 299655.000000 0 0 1
32.975495 -32.549308 -26.509327 53.381506 -0.778894 2.090475 0.009784 0.003354 -98554.700000 0 0 1
33.666556 -31.617218 -25.680847 52.844975 -0.754017 2.078264 0.012055 0.003869 -240259.000000 0 0 1
-34.344300 -31.915408 -25.812087 53.519978 0.748757 2.074062 0.002978 0.000471 -21014.000000 0 0 1
-33.981114 -33.303758 -25.424517 53.946849 0.775332 2.061547 0.002597 0.000755 5744.580000 0 0 1
-33.565424 -33.456568 -24.072107 53.154925 0.783774 2.040775 -0.000130 -0.001099 880089.000000 0 0 1
-32.094734 -33.062568 -23.671907 51.803133 0.800251 2.045370 -0.003042 0.000151 846552.000000 0 0 1
-31.900964 -31.656578 -23.670307 50.794625 0.781553 2.055561 -0.010321 0.002716 -159120.000000 0 0 1
-31.721284 -31.176888 -22.369407 49.785827 0.776743 2.036792 -0.004090 -0.003498 -350959.000000 0 0 1
-31.696244 -29.666318 -22.343407 48.825917 0.752329 2.046106 0.001231 0.000629 -33305.100000 0 0 1
-32.873504 -28.985028 -22.698707 49.356159 0.722620 2.048675 -0.006689 0.004101 -601682.000000 0 0 1
-33.027264 -28.858998 -24.088007 50.038725 0.718146 2.073033 -0.001503 0.006058 212557.000000 0 0 1
-34.182328 -27.912168 -24.549607 50.499544 0.684762 2.078458 -0.004446 0.004690 521284.000000 0 0 1
-33.931044 -26.662598 -23.970907 49.364099 0.666015 2.077839 -0.009563 0.005981 196011.000000 0 0 1
34.696131 -25.694208 -24.507407 49.645008 -0.637425 2.087082 -0.007484 0.006774 393683.000000 0 0 1
-34.243915 -25.084708 -25.813327 49.681145 0.632226 2.117156 -0.002142 0.008903 -732432.000000 0 0 1
-33.215084 -24.196878 -25.706927 48.472434 0.629592 2.129799 -0.006043 0.003745 -1131760.000000 0 0 1
-32.966404 -23.716178 -27.009407 48.772420 0.623631 2.157699 -0.002521 0.001679 875218.000000 0 0 1
-31.760504 -22.665278 -26.987497 47.442275 0.619816 2.175902 0.006154 -0.002180 709995.000000 0 0 1
-32.021044 -21.473778 -26.252227 46.643862 0.590731 2.168593 0.011484 0.004513 -78735.200000 0 0 1
-33.067684 -20.613578 -26.713627 47.244145 0.557430 2.171760 0.004203 0.003007 392107.000000 0 0 1
-34.350326 -20.640178 -25.842587 47.684391 0.541061 2.143553 0.002779 0.001788 -48620.300000 0 0 1
-34.296306 -20.138878 -24.503207 46.714218 0.530956 2.122964 0.001033 0.001241 -498204.000000 0 0 1
-33.482874 -20.811578 -23.569707 45.932078 0.556121 2.109639 -0.001069 0.002165 -131447.000000 0 0 1
-34.035294 -22.077278 -22.789807 46.531525 0.575431 2.082624 0.003737 0.002213 1195670.000000 0 0 1
34.301194 -21.862178 -21.984507 46.236839 -0.567437 2.066301 0.000057 0.004111 668278.000000 0 0 1
33.918027 -23.041978 -21.346707 46.228208 -0.596727 2.050784 -0.001473 0.003474 -181086.000000 0 0 1
32.846695 -22.708978 -20.296107 44.794364 -0.604906 2.041031 0.000685 0.001637 376202.000000 0 0 1
31.619005 -22.329678 -20.906907 43.994031 -0.614882 2.066012 0.007063 -0.000147 -392447.000000 0 0 1
30.540065 -22.267278 -20.034307 42.777339 -0.630001 2.058207 0.003851 0.000611 -479212.000000 0 0 1
29.266725 -21.732278 -20.693907 41.917430 -0.638722 2.087116 -0.000215 0.003504 -1002910.000000 0 0 1
28.763815 -22.462978 -21.726407 42.473276 -0.663014 2.107762 0.001550 0.005563 -318878.000000 0 0 1
27.608095 -21.906078 -22.318407 41.715638 -0.670744 2.135319 0.006260 0.003690 -149571.000000 0 0 1
27.699155 -20.663778 -23.265107 41.659334 -0.640941 2.163326 0.008674 -0.007712 -1220040.000000 0 0 1
27.937005 -19.507778 -22.479007 40.820772 -0.609569 2.153970 0.002563 -0.001185 -175185.000000 0 0 1
28.117925 -18.339678 -23.163807 40.786315 -0.577949 2.174786 0.004378 -0.002501 -637295.000000 0 0 1
28.819155 -17.278478 -22.306907 40.332216 -0.540087 2.156852 0.001582 -0.003150 -359252.000000 0 0 1
28.222655 -17.047878 -21.067107 39.127630 -0.543392 2.139358 0.001278 -0.002931 386532.000000 0 0 1
29.118355 -16.398778 -20.139607 39.017974 -0.512903 2.113160 -0.001547 -0.004170 675326.000000 0 0 1
30.186655 -17.282778 -19.414007 39.835063 -0.519976 2.079860 -0.005580 -0.007679 649244.000000 0 0 1
31.298085 -17.639278 -20.259907 41.245340 -0.513217 2.084269 -0.002945 -0.008774 420198.000000 0 0 1
32.218725 -18.422678 -19.502707 41.926089 -0.519426 2.054622 0.001716 -0.008681 -297662.000000 0 0 1
33.350675 -18.866478 -20.431007 43.423929 -0.514817 2.060655 0.002903 -0.006627 -282124.000000 0 0 1
34.164143 -17.738778 -20.756907 43.734450 -0.478907 2.065320 0.005101 0.000525 52407.400000 0 0 1
-34.199472 -18.216778 -21.397507 44.264074 0.489435 2.075337 0.002710 0.002410 -296.671000 0 0 1
-33.194774 -17.160278 -21.882007 43.303469 0.477121 2.100546 -0.000385 0.004602 -237318.000000 0 0 1
-32.525454 -16.571778 -20.816507 42.022089 0.471220 2.089058 -0.001099 0.003593 -403728.000000 0 0 1
-31.618884 -15.625478 -21.288507 41.195994 0.458982 2.113860 -0.004894 0.005541 -948784.000000 0 0 1
-30.354174 -15.318878 -20.490007 39.697409 0.467378 2.113152 -0.002448 0.011658 -157947.000000 0 0 1
-29.338584 -16.309678 -20.449307 39.305627 0.507371 2.117957 -0.002045 0.010356 477259.000000 0 0 1
-29.687724 -17.467578 -19.694807 39.678239 0.531829 2.090200 -0.003038 0.005812 -560029.000000 0 0 1
-28.695954 -18.611478 -19.914707 39.578283 0.575373 2.098062 -0.000723 0.002875 -173986.000000 0 0 1
-29.177654 -19.829978 -19.434407 40.277285 0.596923 2.074321 -0.004397 0.002027 546146.000000 0 0 1
-28.157194 -20.841078 -19.308707 40.000054 0.637179 2.074551 -0.006204 -0.000658 543401.000000 0 0 1
-28.790564 -22.248278 -19.109807 41.098263 0.657911 2.054407 -0.004813 0.003934 -65028.200000 0 0 1
-29.393124 -22.831878 -20.260407 42.376108 0.660419 2.069297 -0.002646 0.002316 292265.000000 0 0 1
-29.978554 -24.089178 -19.859007 43.282588 0.676900 2.047465 -0.004194 0.000710 -11710.900000 0 0 1
-30.847954 -24.661878 -20.995407 44.728197 0.674415 2.059407 -0.006839 0.004980 -23178.000000 0 0 1
-30.129584 -24.942678 -22.191507 44.971013 0.691492 2.086863 -0.009116 -0.000834 442004.000000 0 0 1
-30.988854 -25.663608 -23.106007 46.398464 0.691675 2.092077 -0.006777 0.001621 56922.900000 0 0 1
-30.562064 -25.693208 -24.600307 46.897290 0.699064 2.122991 -0.007709 0.001591 90540.500000 0 0 1
-29.369394 -26.406258 -24.917807 46.698489 0.732322 2.133635 -0.001664 -0.005912 154406.000000 0 0 1
-29.333994 -26.690228 -26.277917 47.574998 0.738243 2.155974 -0.000014 -0.001024 774366.000000 0 0 1
-27.856824 -27.034028 -26.693207 47.110176 0.770410 2.173185 0.002919 -0.003479 1137620.000000 0 0 1
-27.028794 -25.869238 -26.692627 45.959434 0.763481 2.190491 0.007099 -0.010166 1088580.000000 0 0 1
-25.614604 -26.134508 -26.853777 45.389931 0.795444 2.203868 0.007472 -0.008002 1818270.000000 0 0 1
-24.724654 -24.859878 -27.106237 44.317831 0.788125 2.228919 0.010090 -0.009916 -91505.800000 0 0 1
-24.972554 -24.321978 -28.364737 44.941578 0.772201 2.253827 0.009691 -0.010582 29599.900000 0 0 1
-24.226154 -23.127478 -28.593587 44.038393 0.762201 2.277444 0.009597 -0.009677 18583.200000 0 0 1
-24.159054 -22.599378 -30.028137 44.677520 0.752054 2.307849 0.003029 -0.004083 -196147.000000 0 0 1
-23.417054 -23.329278 -30.969557 45.295995 0.783520 2.323638 0.002351 -0.003408 -33037.900000 0 0 1
-23.474554 -22.909178 -32.316827 46.046308 0.773210 2.348764 0.000579 -0.004231 -571576.000000 0 0 1
-22.652354 -23.875278 -33.131227 46.699425 0.811676 2.359524 0.002523 -0.004427 -320946.000000 0 0 1
-23.224854 -25.145228 -33.215827 47.696620 0.825079 2.341162 0.013724 -0.007251 56822.300000 0 0 1
-22.770254 -25.782998 -34.373928 48.629358 0.847369 2.355839 -0.001351 -0.002208 7310.700000 0 0 1
-19.189154 -16.284178 -11.729807 27.766643 0.703689 2.006935 0.007618 0.003558 89596.100000 0 0 1
-19.708054 -15.222278 -10.970507 27.211710 0.657677 1.985757 0.006708 0.000580 445943.000000 0 0 1
-18.742354 -15.056078 -9.939807 26.014632 0.676761 1.962848 0.003243 -0.001093 161159.000000 0 0 1
-19.242254 -14.307878 -8.706607 25.510483 0.639370 1.919091 0.005752 -0.006173 -529979.000000 0 0 1
-20.210354 -15.007478 -7.985507 26.409300 0.638725 1.877979 0.011706 -0.009652 -47673.200000 0 0 1
-20.550454 -14.343878 -6.779607 25.962109 0.609371 1.834994 0.008651 -0.009450 -379901.000000 0 0 1
-21.747954 -14.905978 -6.008707 27.041935 0.600858 1.794866 0.009991 -0.008036 -834124.000000 0 0 1
-21.581454 -16.197378 -5.422407 27.523022 0.643836 1.769107 0.006894 -0.008057 277641.000000 0 0 1
-21.058554 -16.167778 -4.108707 26.865242 0.654767 1.724337 0.002413 -0.007559 -202952.000000 0 0 1
-20.638854 -17.574078 -3.522707 27.335325 0.705367 1.700026 -0.000398 -0.009184 -24343.000000 0 0 1
-21.757554 -18.390578 -3.278007 28.676643 0.701730 1.685356 0.009932 -0.008369 133206.000000 0 0 1
-21.512654 -19.219378 -2.132807 28.926245 0.729156 1.644596 0.002120 -0.007152 -273692.000000 0 0 1
-22.596254 -20.267778 -1.914407 30.414445 0.731129 1.633782 0.001726 -0.010439 -213035.000000 0 0 1
-22.685954 -21.298378 -2.876107 31.249727 0.753862 1.662963 0.007568 -0.010160 312298.000000 0 0 1
-23.812354 -22.148978 -2.625507 32.626657 0.749223 1.651355 0.009834 -0.010183 325610.000000 0 0 1
-23.948054 -23.279678 -3.691807 33.601818 0.771247 1.680888 0.002922 -0.008315 -574458.000000 0 0 1
-22.813954 -24.094778 -3.678807 33.385153 0.812696 1.681213 -0.001683 -0.005249 -762440.000000 0 0 1
-22.703054 -25.014778 -4.750707 34.113590 0.833806 1.710512 -0.003833 -0.002716 -447444.000000 0 0 1
-21.344654 -24.932078 -5.455807 33.271138 0.862765 1.735520 -0.001193 0.004272 -110106.000000 0 0 1
-21.110854 -23.722178 -6.192107 32.353548 0.843578 1.763373 -0.000348 0.001327 48794.900000 0 0 1
-20.760954 -22.637478 -5.373707 31.182517 0.828611 1.743992 0.000376 -0.003996 -814468.000000 0 0 1
-20.854554 -21.286678 -6.088107 30.415459 0.795652 1.772323 0.005232 -0.005949 -168928.000000 0 0 1
-19.717854 -21.053078 -6.886307 29.655473 0.818136 1.805146 0.006614 -0.004954 -116227.000000 0 0 1
-19.755754 -19.832678 -7.546807 28.992745 0.787341 1.834129 0.006934 -0.006568 -376681.000000 0 0 1
-18.423954 -19.515378 -8.220507 28.069001 0.814158 1.868021 0.016413 -0.009290 -807516.000000 0 0 1
-18.114154 -20.437078 -9.271207 28.840111 0.845581 1.898077 0.012673 -0.003453 -165831.000000 0 0 1
-16.884854 -20.069978 -9.877407 28.026157 0.871375 1.930968 0.017187 0.000753 3213.420000 0 0 1
-16.755354 -18.743178 -10.648007 27.302540 0.841337 1.971429 0.016125 0.000484 -735644.000000 0 0 1
-16.706454 -17.616978 -9.764007 26.168672 0.811920 1.953164 0.013044 -0.001386 1146370.000000 0 0 1
-15.362154 -17.363278 -9.260707 24.964773 0.846471 1.950829 0.017484 -0.005342 896709.000000 0 1 0
-15.270554 -16.111178 -8.346407 23.715446 0.812179 1.930439 0.013013 -0.006312 -66542.900000 0 1 0
-15.970854 -16.297078 -7.135707 23.907766 0.795508 1.873884 0.008604 -0.009813 121572.000000 0 1 0
-16.234554 -15.103578 -6.512007 23.110280 0.749324 1.856445 0.008873 -0.007104 -83582.500000 0 1 0
-16.749954 -15.407578 -5.096207 23.322216 0.743679 1.791087 0.006740 -0.009328 171962.000000 0 1 0
-17.305554 -14.268278 -4.412107 22.858973 0.689497 1.765030 0.009033 -0.002754 334807.000000 0 1 0
-17.403854 -14.607778 -3.050807 22.925722 0.698274 1.704266 -0.005670 -0.000151 -119655.000000 0 1 0
-18.240754 -13.540378 -2.288107 22.832047 0.638564 1.671180 -0.007009 0.001941 42238.700000 0 1 0
-19.583454 -13.468878 -2.749607 23.926611 0.602469 1.685969 -0.002814 -0.002311 284973.000000 0 1 0
-20.327054 -12.704678 -1.831707 24.040656 0.558609 1.647062 -0.003375 0.002046 301184.000000 0 1 0
-21.856754 -12.724378 -2.168207 25.383629 0.527207 1.656318 0.003397 0.003061 421617.000000 0 0 1
-22.188354 -11.946178 -3.276407 25.411987 0.493893 1.700088 0.002849 0.005976 -615201.000000 0 0 1
-23.514554 -12.197478 -3.583407 26.731134 0.478511 1.705255 0.005872 0.006504 -864292.000000 0 0 1
-23.942554 -11.491078 -4.881207 27.002166 0.447474 1.752567 0.004515 0.002089 33931.000000 0 0 1
-23.372854 -12.159878 -5.998507 27.021011 0.479721 1.794656 0.006194 -0.001650 379670.000000 0 0 1
-23.938254 -11.620478 -7.152507 27.554199 0.451928 1.833383 0.008423 -0.005728 275513.000000 0 0 1
-23.078654 -12.025678 -8.441807 27.358825 0.480364 1.884474 0.011522 -0.007269 -179460.000000 0 0 1
-21.821754 -11.435078 -8.421407 26.035938 0.482680 1.900173 0.005819 -0.009389 -492325.000000 0 0 1
-21.307154 -11.402478 -9.713207 26.045301 0.491369 1.952967 0.007036 -0.007215 -1138380.000000 0 0 1
-20.121954 -10.491778 -9.828907 24.730100 0.480628 1.979529 0.000472 -0.006004 -1061990.000000 0 1 0
-20.373854 -9.091278 -10.000307 24.448955 0.419708 1.992185 -0.000700 -0.011880 511730.000000 0 1 0
-19.216154 -8.357478 -9.638807 23.065442 0.410242 2.001917 -0.003091 -0.008179 -116862.000000 0 1 0
-19.080654 -7.025678 -10.403807 22.840112 0.352804 2.043737 -0.017562 -0.014300 -196303.000000 0 1 0
-18.599154 -7.289878 -11.703307 23.152500 0.373545 2.100744 -0.000714 -0.012629 492098.000000 0 1 0
-18.444854 -6.081278 -12.455507 23.072370 0.318477 2.141049 0.001392 -0.017938 -321167.000000 0 1 0
-17.784154 -6.315978 -13.838407 23.402334 0.341252 2.203498 0.007520 -0.012788 -397786.000000 0 1 0
-18.503054 -7.052278 -14.782607 24.710790 0.364144 2.212080 0.000617 -0.009295 375555.000000 0 1 0
-17.827854 -7.086778 -16.063607 25.021876 0.378359 2.267878 0.000452 -0.007864 261940.000000 0 0 1
-18.599354 -7.981078 -17.082007 26.484497 0.405343 2.271795 -0.003826 -0.008967 -324543.000000 0 0 1
-19.722354 -7.367878 -17.665607 27.483278 0.357525 2.268914 0.009673 -0.007511 97253.700000 0 0 1
-20.279054 -8.237078 -18.630007 28.743115 0.385828 2.275956 0.012670 -0.007389 48951.600000 0 0 1
-21.654954 -7.751978 -19.166607 29.939757 0.343764 2.265519 0.010394 -0.006824 -605049.000000 0 0 1
-21.577054 -6.685778 -20.085907 30.227679 0.300474 2.297604 0.009376 -0.004506 71426.900000 0 0 1
-22.637254 -6.601478 -20.998007 31.574374 0.283751 2.298335 0.012067 -0.006395 -17630.500000 0 0 1
-24.073754 -6.323778 -20.511707 32.253154 0.256880 2.260048 0.011649 -0.006907 -681361.000000 0 0 1
-24.287654 -5.001478 -20.092507 31.915729 0.203088 2.251769 0.007918 -0.001917 466711.000000 0 0 1
-25.521464 -4.866878 -19.374907 32.410163 0.188435 2.211555 0.010668 0.000987 368955.000000 0 0 1
-25.656644 -3.454878 -18.687307 31.928279 0.133853 2.196034 0.004831 0.000194 -116047.000000 0 0 1
-25.687074 -2.280478 -19.518107 32.341658 0.088547 2.218676 0.003436 0.001115 -278326.000000 0 0 1
-26.971824 -1.993578 -19.990807 33.631622 0.073779 2.207322 0.002151 0.004273 -528291.000000 0 0 1
-27.112274 -0.835778 -21.048707 34.333978 0.030817 2.230721 0.003363 0.006713 -353141.000000 0 0 1
-26.488384 -0.845478 -22.329107 34.654558 0.031908 2.270948 0.002774 0.003608 233299.000000 0 0 1
-27.083334 -1.796978 -23.208207 35.712141 0.066253 2.278208 0.010825 -0.000242 -76027.300000 0 0 1
-26.416154 -1.792778 -24.603407 36.143532 0.067763 2.319533 0.010345 -0.004036 -554890.000000 0 0 1
-26.570054 -0.674078 -25.485857 36.823241 0.025364 2.335209 0.006385 0.003219 -33795.200000 0 0 1
-26.038504 0.565922 -25.134657 36.194958 -0.021731 2.338416 -0.003090 0.006824 -17832.700000 0 0 1
-24.537454 0.678322 -24.758907 34.864742 -0.027637 2.360496 -0.000850 0.004351 -20167.800000 0 0 1
-23.686154 0.232422 -25.784277 35.013096 -0.009812 2.398557 -0.000827 0.000830 -144430.000000 0 0 1
-22.311154 0.280722 -25.460317 33.854012 -0.012581 2.421981 0.000965 0.003229 235327.000000 0 0 1
-21.385754 -0.036878 -26.665347 34.181758 0.001724 2.465629 0.000487 -0.006006 -106342.000000 0 0 1
-21.339854 0.957122 -27.685427 34.968391 -0.044821 2.484428 -0.002883 -0.003020 -58853.700000 0 0 1
-20.614354 0.374422 -28.731697 35.363855 -0.018161 2.519155 -0.008784 0.001937 -153656.000000 0 0 1
-20.455654 1.341222 -29.937077 36.283071 -0.065474 2.541171 -0.005727 0.007647 212732.000000 0 0 1
-19.511654 2.420722 -29.667927 35.591438 -0.123435 2.556334 -0.001214 0.002240 886584.000000 0 0 1
-19.515154 3.339822 -30.708137 36.537451 -0.169498 2.568921 -0.006099 0.002412 -135780.000000 0 0 1
-18.971154 2.848822 -32.069767 37.369646 -0.149052 2.602504 -0.006613 0.003200 -530799.000000 0 0 1
-17.565454 2.719122 -32.044987 36.644509 -0.153580 2.635165 -0.007428 0.000564 -114705.000000 0 0 1
-17.173554 2.083422 -33.229417 37.462859 -0.120726 2.661596 -0.010239 0.008047 310909.000000 0 0 1
-15.632254 1.997022 -33.401407 36.932499 -0.127062 2.700746 -0.002936 0.003293 262270.000000 0 0 1
-15.000054 3.267822 -33.535957 36.882797 -0.214502 2.712293 -0.001642 -0.001061 915077.000000 0 0 1
-13.571254 3.054322 -33.623997 36.387924 -0.221370 2.749320 -0.006208 -0.002835 822958.000000 0 0 1
-12.849554 4.362422 -33.930527 36.543432 -0.327290 2.761145 -0.000719 -0.002441 -496302.000000 0 0 1
-12.795654 5.385722 -32.881807 35.692408 -0.398395 2.742091 0.003247 -0.007223 -61433.000000 0 0 1
-12.081854 6.502122 -33.269237 35.987372 -0.493717 2.750439 0.003092 -0.003568 -434643.000000 0 0 1
-11.662654 7.400722 -32.119597 34.963648 -0.565449 2.735464 0.002717 -0.003977 -356341.000000 0 0 1
-10.618054 6.975122 -31.239147 33.723578 -0.581219 2.755346 0.007058 -0.006488 380604.000000 0 0 1
-10.786954 5.933722 -30.353827 32.755492 -0.502907 2.756275 0.009047 -0.005531 -33058.900000 0 0 1
-9.414054 5.245722 -30.042997 31.917451 -0.508371 2.797174 -0.000106 -0.005989 489080.000000 0 0 1
-8.892054 4.439622 -31.092177 32.642034 -0.463071 2.832203 0.001762 -0.003081 52379.700000 0 0 1
-9.669654 3.314622 -31.334877 32.960028 -0.330234 2.826260 0.002209 0.000841 -580728.000000 0 0 1
-9.290554 2.479022 -32.551947 33.942440 -0.260757 2.854368 0.000335 -0.006663 -123398.000000 0 0 1
-10.238354 1.468922 -32.819667 34.410931 -0.142500 2.836293 -0.000676 -0.001174 370899.000000 0 0 1
-9.813254 0.705722 -33.940797 35.338021 -0.071792 2.859450 0.000192 -0.002920 -690855.000000 0 0 1
-10.230654 1.267822 34.110029 35.633801 -0.123295 0.293497 -0.000433 -0.005111 216224.000000 0 0 1
-11.624254 1.247622 33.840771 35.803319 -0.106920 0.332635 -0.015584 -0.002587 7614.190000 0 0 1
-11.809454 1.435622 32.469673 34.580398 -0.120972 0.351196 -0.010150 0.000471 -344427.000000 0 0 1
-13.226754 1.230722 31.908343 34.563045 -0.092781 0.394491 -0.007684 -0.000811 -438733.000000 0 0 1
-14.000954 2.362422 32.157453 35.152661 -0.167158 0.415798 -0.009793 0.004374 242.615000 0 0 1
-15.323854 2.053422 31.742463 35.307521 -0.133208 0.453251 -0.011291 0.004048 68533.700000 0 0 1
-16.405454 3.132522 31.681013 35.813939 -0.188673 0.485161 -0.006335 0.010341 -184530.000000 0 0 1
-16.784254 3.831322 32.867303 37.103232 -0.224424 0.482508 -0.008884 0.007032 439472.000000 0 0 1
-15.889954 4.888322 33.180333 37.112274 -0.298447 0.464484 -0.006986 0.006373 -406553.000000 0 0 1
-16.282554 5.631222 34.419979 38.491132 -0.332967 0.464085 -0.010791 0.006843 -241304.000000 0 0 1
-17.501954 6.338822 34.431003 39.140683 -0.347482 0.495622 -0.008860 0.002192 332942.000000 0 0 1
-18.533054 5.670122 -34.232709 39.338312 -0.296903 2.626431 -0.006771 0.004602 360711.000000 0 0 1
-19.854454 6.464322 -34.271848 40.131613 -0.314761 2.594396 -0.007700 -0.001807 -245693.000000 0 0 1
-19.946754 7.706122 -33.644797 39.865144 -0.368671 2.575430 -0.003077 -0.006333 -57815.000000 0 0 1
-19.473654 8.741522 -34.507384 40.575818 -0.421930 2.587621 -0.003499 -0.003426 -125620.000000 0 0 1
-19.446654 10.186722 -33.962237 40.439773 -0.482529 2.567753 0.001304 0.003974 -266206.000000 0 0 1
-18.325254 10.424922 -33.122127 39.262823 -0.517225 2.574749 0.006358 0.000904 316572.000000 0 0 1
-18.126754 11.818722 -32.909187 39.386241 -0.577783 2.559930 0.005194 0.001876 -26821.200000 0 0 1
-17.466954 12.682222 -33.986517 40.261850 -0.628009 2.575750 -0.001088 0.000884 -737148.000000 0 0 1
-18.204754 12.695822 34.243194 40.806780 -0.608972 0.575069 0.004323 0.006054 -276387.000000 0 0 1
-17.542554 12.935522 33.017963 39.563302 -0.635375 0.583462 -0.001353 0.003755 -296415.000000 0 0 1
-18.231954 12.329722 31.786153 38.662459 -0.594622 0.605627 0.001073 0.000062 -296300.000000 0 0 1
-18.400254 10.903322 31.819033 38.339310 -0.534934 0.591810 -0.003497 0.002068 -169664.000000 0 0 1
-17.285654 10.135422 31.438113 37.281035 -0.530321 0.567451 -0.005734 0.004378 -48735.400000 0 0 1
-17.539254 8.580622 31.429323 37.000741 -0.454990 0.555903 -0.004456 -0.001340 77375.800000 0 0 1
-18.302054 8.141522 30.323273 36.342131 -0.418556 0.583783 -0.003786 -0.001434 94647.500000 0 0 1
-18.275254 6.731522 30.359973 36.069742 -0.352920 0.570369 -0.002617 0.000143 25944.400000 0 0 1
-18.870254 6.055022 29.075023 35.186741 -0.310498 0.598279 -0.008356 0.001457 -564840.000000 0 0 1
-20.210554 6.298922 28.817943 35.757751 -0.302124 0.633566 -0.004490 -0.001296 -970843.000000 0 0 1
-20.798754 5.163522 28.267913 35.472878 -0.243341 0.648670 -0.009389 -0.002057 238255.000000 0 0 1
-22.308654 5.355322 27.939603 36.152136 -0.235598 0.687501 -0.007064 -0.000828 264793.000000 0 0 1
-22.509854 6.243122 26.889353 35.618919 -0.270550 0.715268 -0.003453 -0.006019 -326500.000000 0 0 1
-23.876254 6.509322 26.785513 36.467938 -0.266159 0.745874 -0.003816 -0.009863 -820058.000000 0 0 1
-24.257254 7.338422 25.507243 35.956728 -0.293772 0.782168 -0.005514 -0.008939 -289860.000000 0 0 1
-24.362954 6.659022 24.271133 35.028332 -0.266809 0.805293 -0.002915 -0.003860 838170.000000 0 0 1
-25.407494 5.670722 24.269133 35.590570 -0.219592 0.820442 0.002474 0.000840 4821.990000 0 0 1
-25.551504 4.958022 22.898133 34.666783 -0.191659 0.849284 0.002752 0.010626 -178400.000000 0 0 1
-26.199024 5.664322 21.885333 34.604064 -0.212926 0.886085 0.001006 0.005671 -56829.200000 0 0 1
-26.105424 4.937322 20.697333 33.678627 -0.186922 0.908976 0.001841 0.004537 -283886.000000 0 0 1
-26.998874 5.516622 19.596933 33.814377 -0.201553 0.952627 0.002628 -0.001791 472156.000000 0 0 1
-28.381594 5.262522 19.802233 35.004821 -0.183338 0.969514 -0.002123 -0.002968 190665.000000 0 0 1
-29.296674 5.740622 18.844833 35.304073 -0.193496 1.007724 -0.004272 0.000942 -207524.000000 0 0 1
-30.707354 5.695722 19.427533 36.780591 -0.183400 1.014316 -0.011416 0.001582 -496112.000000 0 0 1
-31.014864 6.825022 20.292533 37.686730 -0.216604 1.002196 -0.007775 -0.008397 1053960.000000 0 0 1
-32.377114 6.668122 20.752833 39.031032 -0.203112 1.010189 -0.015187 -0.007944 717018.000000 0 0 1
-32.821324 7.769922 21.630333 40.068470 -0.232455 1.000556 -0.015219 -0.006844 -330575.000000 0 0 1
-32.158154 7.874222 22.873733 40.241246 -0.240134 0.966218 -0.009148 -0.005678 319532.000000 0 0 1
-32.694764 9.058522 23.434133 41.233033 -0.270284 0.966317 -0.010297 -0.001076 -181359.000000 0 0 1
-0.179354 33.427822 12.560893 35.710327 -1.565431 1.211363 0.000472 -0.006207 -157681.000000 0 0 1
-0.311054 33.462322 13.960193 36.258940 -1.561501 1.175574 0.004225 -0.004931 95895.000000 0 0 1
-0.333454 -34.664989 14.374193 37.528523 1.561177 1.177732 0.005070 -0.003715 -259534.000000 0 0 1
-0.396554 -34.521289 15.959593 38.034001 1.559310 1.137776 0.002452 -0.002643 335930.000000 0 0 1
-1.665154 -34.697589 16.584093 38.493214 1.522843 1.125382 0.003020 -0.006250 248624.000000 0 0 1
-1.505654 -34.679289 17.990393 39.096986 1.527407 1.092635 0.002193 -0.002640 525701.000000 0 0 1
-2.858654 -34.454489 18.736893 39.323719 1.488017 1.074152 0.002067 0.002692 375039.000000 0 0 1
-3.754654 33.918522 18.657793 38.893146 -1.460549 1.070462 0.004421 -0.000388 -252907.000000 0 0 1
-4.714554 34.102822 19.674193 39.652280 -1.433422 1.051617 0.005835 0.000967 193301.000000 0 0 1
-5.918154 33.083422 19.520593 38.866321 -1.393783 1.044598 0.004444 -0.004594 -333582.000000 0 0 1
-6.726854 33.426822 18.495893 38.790476 -1.372208 1.073768 0.001438 -0.007738 -893988.000000 0 0 1
-7.533854 32.296722 18.192693 37.826066 -1.341625 1.069051 -0.001647 -0.006181 406701.000000 0 0 1
-8.584354 32.734522 17.072393 37.903913 -1.314330 1.103569 -0.012043 -0.005614 298713.000000 0 0 1
-9.567254 33.632022 17.526593 39.112999 -1.293649 1.106156 -0.006083 -0.003243 521408.000000 0 0 1
-10.450154 34.008422 16.416693 39.182729 -1.272673 1.138477 -0.010022 -0.006330 464286.000000 0 0 1
-11.469254 -34.350889 16.646993 39.857869 1.248549 1.139929 -0.008058 -0.001419 224455.000000 0 0 1
-12.457054 -34.680189 17.627693 40.848859 1.225951 1.124603 -0.001392 -0.001702 183724.000000 0 0 1
-13.404454 -33.679089 17.865393 40.412036 1.192011 1.112879 0.000547 0.000223 350944.000000 0 0 1
-14.431154 -34.058089 18.966493 41.568492 1.170009 1.096996 0.005143 -0.000512 387172.000000 0 0 1
-13.894054 -33.752789 20.220293 41.727158 1.180294 1.064909 0.007040 0.002602 60206.200000 0 0 1
-14.642454 -34.454989 21.163593 43.005179 1.168948 1.056276 0.000897 0.003207 -144838.000000 0 0 1
-14.544954 -33.778989 22.552693 43.141624 1.164199 1.020712 0.007905 0.006264 -285280.000000 0 0 1
-15.101554 -32.522489 22.513293 42.339315 1.136080 1.010149 0.002817 0.003073 -183272.000000 0 0 1
-14.869554 -31.865689 23.715893 42.414259 1.134198 0.977437 0.005820 0.005404 142272.000000 0 0 1
-14.825554 -30.319789 23.561293 41.160918 1.116009 0.961343 -0.000543 0.002165 94489.700000 0 0 1
-14.414054 -29.781489 24.771593 41.331996 1.120036 0.928130 0.002780 0.004846 -347067.000000 0 0 1
-14.163254 -28.389289 24.788493 40.261879 1.108034 0.907546 -0.001965 0.012027 -171589.000000 0 0 1
-15.324854 -27.402989 24.548693 39.854903 1.060887 0.907203 -0.001431 0.010385 33014.700000 0 0 1
-16.286854 -27.425089 25.590693 40.893529 1.034899 0.894655 0.003184 0.002781 -170200.000000 0 0 1
-17.385854 -26.634789 25.211293 40.586811 0.992490 0.900562 0.000188 0.006070 -736635.000000 0 0 1
-18.487754 -26.523689 26.278693 41.663807 0.962068 0.888300 -0.004885 0.005412 -30903.000000 0 0 1
-19.283554 -27.705389 26.544793 42.942637 0.962745 0.904415 0.000505 0.005133 684993.000000 0 0 1
-20.175954 -28.169889 25.538393 43.044411 0.949264 0.935640 -0.005825 0.006287 223846.000000 0 0 1
-21.465054 -27.327989 25.272393 42.968144 0.904984 0.942007 -0.005324 -0.000076 -120117.000000 0 0 1
-21.262054 -26.137989 24.462393 41.637460 0.887905 0.942819 -0.001130 0.001171 275114.000000 0 0 1
-22.386054 -25.794889 23.661893 41.549932 0.856031 0.964922 -0.000208 0.000726 -59189.400000 0 0 1
-22.689254 -24.296589 23.541793 40.735028 0.819594 0.954612 0.001769 -0.000000 -252389.000000 0 0 1
-23.226854 -23.760889 24.739493 41.425947 0.796763 0.930793 0.002448 0.000309 83529.200000 0 0 1
-23.773954 -22.498589 24.568493 40.926742 0.757843 0.926915 0.001154 -0.003185 69870.300000 0 0 1
-24.295554 -21.857889 25.937193 41.722647 0.732631 0.899939 0.002962 -0.000256 728530.000000 0 0 1
-25.595714 -22.344489 26.280893 42.954652 0.717684 0.912426 0.008010 0.004275 523324.000000 0 0 1
-25.901164 -21.939489 27.614393 43.758041 0.702777 0.887864 -0.001468 -0.000894 711684.000000 0 0 1
-27.212244 -22.589989 28.294493 45.292297 0.692851 0.896038 0.001990 0.002618 839784.000000 0 0 1
-28.473864 -22.136489 27.948793 45.628063 0.660828 0.911532 0.000550 0.000280 -224234.000000 0 0 1
-28.855624 -22.587489 26.612693 45.288819 0.664150 0.942680 0.001397 0.000955 -888055.000000 0 0 1
-30.319074 -23.057889 26.607293 46.463540 0.650192 0.961063 -0.004461 0.002875 -41444.900000 0 0 1
-30.887984 -23.576189 25.373893 46.408390 0.651946 0.992316 -0.006487 -0.002937 202856.000000 0 0 1
-30.273594 -24.738789 24.871493 46.336695 0.685125 1.004209 -0.005944 -0.001441 -696925.000000 0 0 1
-30.881554 -25.281189 23.587793 46.359388 0.686010 1.037003 -0.007087 -0.001660 -335873.000000 0 0 1
-32.173744 -25.823689 23.691693 47.574248 0.676344 1.049512 -0.002037 0.000278 -234564.000000 0 0 1
-32.531274 -26.392389 22.429093 47.517430 0.681589 1.079218 0.004801 0.004331 348495.000000 0 0 1
-33.784874 -27.319889 22.448993 48.905535 0.679989 1.093896 0.010370 0.005213 -193239.000000 0 0 1
-33.749014 -28.493789 23.261893 49.920012 0.701167 1.086051 0.003862 0.006467 503269.000000 0 0 1
-32.879154 -29.568889 22.812993 49.757317 0.732439 1.094506 0.004350 0.005978 155192.000000 0 0 1
-33.419944 -30.475289 21.658993 50.147262 0.739345 1.124189 0.011915 0.005773 -345772.000000 0 0 1
-33.445714 -29.850789 20.418793 49.260659 0.728664 1.143397 0.012216 0.007397 328311.000000 0 0 1
-33.591454 -30.793289 19.405393 49.529604 0.741965 1.168216 0.012894 0.006314 -421890.000000 0 0 1
-33.962894 -30.282789 17.951193 48.915957 0.728179 1.195036 0.008012 0.005692 -238853.000000 0 0 1
-32.934004 -29.793889 17.088993 47.585272 0.735381 1.203468 0.007009 0.003644 63217.200000 0 0 1
-33.253614 -29.454489 15.760393 47.135547 0.724888 1.229867 0.005241 -0.000886 -373250.000000 0 0 1
-33.878784 -30.573889 14.921793 48.012442 0.734167 1.254772 0.004182 -0.000521 355741.000000 0 0 1
-32.998624 -31.678389 14.694193 48.045279 0.764988 1.259975 0.012493 0.000050 263015.000000 0 0 1
-33.543644 -32.525089 13.654793 48.677622 0.769983 1.286466 0.013399 -0.005411 428941.000000 0 0 1
-33.637764 -32.058489 12.162593 48.033057 0.761364 1.314796 0.009660 -0.003545 267979.000000 0 0 1
-34.662018 -31.102889 11.936793 48.076317 0.731332 1.319883 0.007785 -0.003257 147918.000000 0 0 1
-34.707352 -30.670489 10.602493 47.515177 0.723730 1.345763 0.001060 0.001730 -698269.000000 0 0 1
33.587661 -29.859389 10.298193 46.106039 -0.726704 1.345537 0.009937 0.004262 -868414.000000 0 0 1
33.560889 -28.607189 10.988793 45.447311 -0.705884 1.326584 0.001376 0.001055 1026630.000000 0 0 1
32.346545 -27.842489 10.739893 44.009641 -0.710706 1.324272 -0.002385 0.004602 870967.000000 0 0 1
32.371715 -26.915289 9.452593 43.147563 -0.693623 1.349929 -0.004509 0.003588 -217342.000000 0 0 1
33.122765 -25.750089 9.548593 43.027436 -0.660816 1.347015 -0.005351 0.003813 -217167.000000 0 0 1
33.419405 -25.291089 8.222493 42.709545 -0.647825 1.377066 -0.001865 -0.000940 335705.000000 0 0 1
34.125486 -23.872089 8.164393 42.439165 -0.610416 1.377211 0.003484 -0.005646 281051.000000 0 0 1
33.295075 -22.763189 8.436593 41.205593 -0.599689 1.364594 -0.007860 -0.001322 -276887.000000 0 0 1
34.149824 -21.676689 8.627993 41.358573 -0.565582 1.360638 0.000402 0.003282 44186.100000 0 0 1
33.354495 -20.352589 8.864393 40.066541 -0.547879 1.347709 -0.003772 0.003416 -137623.000000 0 0 1
32.824405 -20.289089 10.159693 39.903735 -0.553629 1.313357 0.000806 0.003318 -201049.000000 0 0 1
32.238485 -18.999789 10.370893 38.831267 -0.532553 1.300439 0.003478 0.005007 -94424.600000 0 0 1
32.021975 -18.860189 11.940793 39.034551 -0.532275 1.259909 0.006995 0.003469 -311236.000000 0 0 1
33.159565 -18.357289 12.596893 39.940312 -0.505606 1.249926 0.005576 0.005256 11227.400000 0 0 1
33.355065 -18.944689 13.830393 40.776726 -0.516535 1.224758 0.002763 0.007849 1093550.000000 0 0 1
34.551861 -18.338589 14.723693 41.796197 -0.487948 1.210797 -0.001912 0.007227 2174020.000000 0 0 1
-33.645884 -18.524689 14.206293 40.951537 0.503287 1.216527 -0.001591 0.011261 1177790.000000 0 0 1
-32.605574 -17.935889 14.975693 40.113476 0.502910 1.188197 -0.002906 0.008153 1456030.000000 0 0 1
-31.178224 -17.930289 14.298593 38.704350 0.521902 1.192400 0.004565 0.010770 954200.000000 0 0 1
-30.634204 -19.206889 13.965393 38.760692 0.560018 1.202209 0.002425 0.003047 35816.900000 0 0 1
-29.440124 -19.139689 13.234693 37.526067 0.576461 1.210363 0.008457 0.002469 -174.771000 0 0 1
-28.689014 -20.456589 12.834693 37.500145 0.619428 1.221478 0.011750 -0.003080 350843.000000 0 0 1
-29.275914 -21.231889 11.802993 38.041857 0.627462 1.255326 0.009169 -0.000180 -442085.000000 0 0 1
-28.293914 -22.072989 11.252793 37.608347 0.662508 1.266932 0.006979 -0.001277 -162665.000000 0 0 1
-28.841074 -23.110489 10.195593 38.338654 0.675536 1.301623 0.007055 -0.002775 234620.000000 0 0 1
-29.573824 -24.249289 10.607393 39.688233 0.686792 1.300240 0.005533 0.004852 -157331.000000 0 0 1
-30.934434 -23.923789 10.808593 40.572313 0.658291 1.301137 0.005684 -0.004121 -160291.000000 0 0 1
-31.831934 -25.207489 10.802193 42.016389 0.669778 1.310782 0.007013 -0.002569 96781.200000 0 0 1
-31.962594 -25.823289 9.571393 42.190772 0.679553 1.341944 0.004840 -0.000119 -84476.800000 0 0 1
-32.436504 -27.171689 9.690293 43.408862 0.697303 1.345666 0.008416 0.004710 172422.000000 0 0 1
-32.473784 -27.852789 8.252293 43.570917 0.708948 1.380246 0.006878 0.007100 -117157.000000 0 0 1
-31.211874 -28.213489 7.770493 42.785075 0.734985 1.388166 0.004306 0.003482 -519113.000000 0 0 1
-31.333384 -28.862089 6.501493 43.093741 0.744367 1.419349 0.004218 0.003912 454326.000000 0 0 1
-29.959494 -29.137689 5.808893 42.193832 0.771493 1.432686 -0.000398 0.004369 874738.000000 0 0 1
-29.188154 -28.030689 5.320893 40.816415 0.765172 1.440063 0.000590 0.008118 118715.000000 0 0 1
-28.181644 -28.506289 4.452193 40.331571 0.791125 1.460181 -0.000944 0.004162 88175.700000 0 0 1
-27.375744 -27.398389 3.673093 38.904944 0.785812 1.476244 0.000018 0.004447 246313.000000 0 0 1
-28.002844 -26.778489 2.545593 38.829458 0.763052 1.505191 0.001858 0.004755 161904.000000 0 0 1
-27.116684 -25.805589 1.960693 37.484494 0.760629 1.518466 0.008307 -0.002698 -667447.000000 0 0 1
-27.584484 -25.127489 0.683493 37.319722 0.738820 1.552481 0.006306 -0.001564 -360182.000000 0 0 1
-27.508674 -25.971289 -0.448207 37.834322 0.756659 1.582643 0.001500 -0.002454 -31661.100000 0 0 1
-27.622304 -25.254889 -1.674507 37.464718 0.740656 1.615507 0.004757 -0.001781 553344.000000 0 0 1
-29.057924 -25.138689 -2.316607 38.492640 0.713209 1.631016 0.002262 0.000063 643806.000000 0 0 1
-29.750924 -24.066989 -1.742207 38.306302 0.680174 1.616293 -0.002522 -0.000497 39674.500000 0 0 1
-31.083954 -23.981489 -2.220207 39.322428 0.657124 1.627288 -0.003685 -0.000904 316830.000000 0 0 1
-31.888514 -22.710889 -1.916607 39.196112 0.618865 1.619714 -0.001147 -0.001037 -53034.900000 0 0 1
-32.051974 -22.362589 -0.559807 39.086159 0.609179 1.585119 0.000760 -0.004239 356684.000000 0 0 1
-32.810974 -21.131089 -0.457207 39.029373 0.572163 1.582511 0.001597 -0.001492 130178.000000 0 0 1
-33.014104 -20.684289 0.977693 38.970845 0.559698 1.545706 0.004422 -0.001749 -196426.000000 0 0 1
-33.726494 -21.568689 1.811693 40.074518 0.568971 1.525573 0.001790 -0.002466 133676.000000 0 0 1
-33.510934 -21.411689 3.210293 39.896731 0.568565 1.490244 0.004126 -0.002253 -796266.000000 0 0 1
-34.278589 -22.437189 4.103693 41.173892 0.579570 1.470963 0.007555 -0.003201 660779.000000 0 0 1
33.818267 -22.487689 4.074293 40.816310 -0.586818 1.470810 0.004121 0.002408 593734.000000 0 0 1
33.141225 -21.313589 4.512093 39.660671 -0.571519 1.456782 0.005395 0.000619 -366330.000000 0 0 1
32.048055 -20.951489 3.455393 38.444537 -0.579009 1.480795 0.003372 0.000973 587018.000000 0 0 1
31.035455 -21.974089 3.443393 38.182679 -0.616096 1.480492 -0.006304 -0.001619 1100620.000000 0 0 1
29.763965 -21.425789 2.992993 36.795598 -0.623929 1.489365 -0.004734 0.005002 1419160.000000 0 0 1
28.511275 -22.261489 3.334993 36.326146 -0.662921 1.478860 -0.003688 0.005857 -19926.000000 0 0 1
28.368935 -23.415589 2.511293 36.869945 -0.690035 1.502631 -0.005461 0.004601 -112287.000000 0 0 1
27.084115 -23.965389 2.703293 36.265644 -0.724382 1.496186 -0.004027 0.003011 155013.000000 0 0 1
26.593615 -25.064289 1.718393 36.584038 -0.755802 1.523808 -0.003726 0.000609 133403.000000 0 0 1
26.528115 -24.660589 0.373093 36.221882 -0.748931 1.560496 -0.005934 0.002421 -12583.400000 0 0 1
26.004195 -25.712789 -0.367507 36.571857 -0.779764 1.580845 -0.003834 -0.005103 -244726.000000 0 0 1
25.236695 -25.182089 -1.638807 35.689131 -0.784315 1.616731 -0.000897 -0.006506 -87153.900000 0 0 1
25.973855 -24.636489 -2.732507 35.903542 -0.758980 1.646977 -0.009651 -0.008971 129227.000000 0 0 1
26.433225 -25.631189 -3.660607 37.000990 -0.769995 1.669891 -0.006847 -0.010648 -268301.000000 0 0 1
25.339095 -26.120289 -4.643507 36.686529 -0.800578 1.697709 -0.004820 -0.009211 168441.000000 0 0 1
24.888135 -25.213189 -5.649907 35.875418 -0.791886 1.728942 -0.003653 -0.012558 992117.000000 0 0 1
23.842075 -24.321689 -5.171007 34.448925 -0.795356 1.721472 -0.000750 -0.012334 240971.000000 0 0 1
23.335375 -23.317889 -6.242007 33.574191 -0.785023 1.757801 0.001399 -0.012752 -346833.000000 0 0 1
22.543175 -23.748989 -7.283807 33.544941 -0.811440 1.789676 -0.000880 -0.006671 -152074.000000 0 0 1
21.589075 -22.849489 -7.790507 32.386406 -0.813754 1.813727 -0.000225 -0.002264 -53556.500000 0 0 1
22.143675 -21.597089 -8.488607 32.075428 -0.772903 1.838632 -0.002472 -0.001703 -795374.000000 0 0 1
22.683275 -21.736589 -9.770507 32.900959 -0.764089 1.872311 -0.001955 -0.001732 95121.500000 0 0 1
22.510175 -20.552289 -10.497507 32.238211 -0.739963 1.902467 -0.010295 -0.002246 -217548.000000 0 0 1
23.269675 -20.538889 -11.871307 33.230282 -0.723144 1.936111 -0.010023 -0.006140 -493228.000000 0 0 1
24.646065 -20.666289 -11.730107 34.236230 -0.697793 1.920503 -0.009381 -0.012369 -972095.000000 0 0 1
25.256575 -20.167189 -12.874007 34.790087 -0.673821 1.949857 -0.010780 -0.015357 -782811.000000 0 0 1
26.721175 -20.560789 -13.024007 36.144045 -0.655838 1.939425 -0.011257 -0.006889 -717986.000000 0 0 1
26.918105 -21.871189 -13.416607 37.187883 -0.682322 1.939899 -0.012549 -0.003589 276924.000000 0 0 1
27.262675 -22.695589 -12.276407 37.537360 -0.694234 1.903971 -0.009503 -0.005431 -320220.000000 0 0 1
27.426465 -24.187389 -12.669407 38.700835 -0.722724 1.904313 -0.008695 -0.001758 -504482.000000 0 0 1
28.621935 -24.496589 -13.346907 39.967962 -0.707891 1.911277 -0.011266 -0.003832 46964.700000 0 0 1
28.748085 -25.889989 -13.535907 40.987373 -0.733136 1.907360 -0.003026 0.000451 -70275.500000 0 0 1
-3.355454 -8.958778 -27.780867 29.381888 1.212426 2.809954 -0.009142 0.001129 147556.000000 0 0 1
-3.440254 -7.709378 -27.119737 28.403345 1.151071 2.839809 -0.003843 0.002423 51748.700000 0 0 1
-4.161354 -6.784378 -27.930767 29.042597 1.020602 2.863998 0.001092 -0.001189 101890.000000 0 0 1
-4.208054 -5.403478 -27.271327 28.118154 0.909137 2.895547 -0.000205 -0.000407 -129791.000000 0 0 1
-4.936254 -5.516778 -26.057707 27.088846 0.840878 2.864793 -0.001403 0.003665 376184.000000 0 0 1
-4.703354 -4.343878 -25.257777 26.056595 0.745686 2.893339 0.003111 0.003681 -116818.000000 0 0 1
-5.498954 -4.385178 -23.963407 24.974250 0.673188 2.856106 0.000338 0.007594 37463.700000 0 1 0
-4.952654 -5.366478 -23.062507 24.191054 0.825479 2.834937 0.000449 0.005715 641336.000000 0 1 0
-5.595654 -5.242678 -21.840407 23.147363 0.752842 2.803948 0.005199 0.006557 -412145.000000 0 1 0
-4.907454 -6.157578 -20.822707 22.261716 0.897901 2.780070 0.003873 0.004730 -301501.000000 0 1 0
-5.222354 -7.506078 -21.010207 22.913817 0.962928 2.731097 -0.003783 0.009701 744853.000000 0 1 0
-4.440954 -8.304278 -20.097407 22.194344 1.079714 2.703398 -0.000302 -0.001400 -853117.000000 0 1 0
-4.954654 -9.748478 -19.962707 22.761615 1.100571 2.640449 -0.001137 -0.003771 29208.700000 0 1 0
-6.115154 -9.968378 -19.183107 22.466759 1.020542 2.594122 0.005358 0.000121 -586607.000000 0 1 0
-7.302954 -9.379678 -19.576207 22.902825 0.909245 2.595867 0.004015 -0.000755 -1409600.000000 0 1 0
-8.337354 -9.700978 -18.452207 22.452269 0.860851 2.535432 0.001437 0.000908 -412380.000000 0 1 0
-8.845554 -11.018678 -18.465007 23.251056 0.894364 2.488417 0.011133 0.002991 -289373.000000 0 1 0
-9.523854 -11.210378 -17.267607 22.683620 0.866560 2.436015 0.003351 0.000751 -480196.000000 0 1 0
-10.529654 -12.379378 -17.387207 23.799950 0.865966 2.389933 0.008003 0.002438 -15568.400000 0 1 0
-11.746554 -12.211378 -18.080507 24.779105 0.804797 2.388632 0.011689 -0.000827 323916.000000 0 1 0
-11.520054 -12.253778 -19.474307 25.731603 0.816251 2.429237 0.008668 -0.000495 -730766.000000 0 0 1
-12.769054 -12.026478 -20.359007 26.873297 0.755459 2.430413 -0.001849 0.003301 1036480.000000 0 0 1
-13.718454 -13.128278 -20.548007 27.977996 0.763419 2.395629 -0.009851 0.003788 668626.000000 0 0 1
-14.534054 -13.475678 -19.457207 27.774369 0.747630 2.346958 -0.002914 0.002954 -572986.000000 0 0 1
-15.471154 -14.624978 -19.901307 29.142900 0.757290 2.322504 -0.004555 0.005134 -12908.900000 0 0 1
-14.794354 -15.871678 -20.112107 29.585130 0.820515 2.318292 -0.002764 0.007079 126899.000000 0 0 1
-15.574854 -16.639378 -20.998907 30.990306 0.818431 2.315285 -0.001951 0.000463 -13869.800000 0 0 1
-14.954654 -17.966178 -21.311407 31.632283 0.876622 2.310032 0.001087 -0.005349 -532930.000000 0 0 1
-15.179554 -18.943278 -20.297607 31.642685 0.895253 2.267200 0.004893 -0.000244 179514.000000 0 0 1
-14.611454 -20.154478 -20.808607 32.445273 0.943506 2.267046 0.005367 -0.003034 -275837.000000 0 0 1
-15.382854 -21.432178 -20.454607 33.382052 0.948260 2.230323 0.008769 -0.005457 -183079.000000 0 0 1
-14.827254 -22.617678 -21.040907 34.265531 0.990522 2.231984 0.005075 -0.008403 22467.700000 0 0 1
-15.462054 -23.800678 -20.554507 35.043333 0.994669 2.197583 0.014520 -0.003151 -74726.800000 0 0 1
-14.979454 -25.150308 -21.122107 36.097998 1.033620 2.195840 0.015104 -0.000684 -96928.300000 0 0 1
-15.474354 -25.588378 -22.391107 37.357495 1.026898 2.213515 0.000643 -0.004902 243821.000000 0 0 1
-14.829054 -26.824668 -22.680107 38.129397 1.065795 2.207837 0.003312 0.000966 -27191.900000 0 0 1
-14.987954 -27.296318 -24.137307 39.399713 1.068657 2.230176 -0.000326 0.002684 686149.000000 0 0 1
-16.314654 -27.714848 -24.529607 40.447279 1.038756 2.222396 0.002901 -0.001810 838141.000000 0 0 1
-16.376054 -29.086618 -24.677107 41.511036 1.058020 2.207404 0.005006 0.006387 -322607.000000 0 0 1
-17.677654 -29.471238 -25.390327 42.728469 1.030504 2.207098 0.010934 0.004081 -546333.000000 0 0 1
-17.684754 -29.465848 -26.858447 43.616086 1.030246 2.234187 0.002578 0.001572 24345.900000 0 0 1
-17.620054 -28.177448 -27.536527 43.158953 1.011964 2.262728 0.002315 -0.003266 195872.000000 0 0 1
-16.363554 -28.041408 -28.438127 43.160324 1.042560 2.290145 0.002351 -0.000793 39271.100000 0 0 1
-16.529754 -28.660078 -29.661357 44.434547 1.047646 2.301682 -0.005105 -0.000042 54756.300000 0 0 1
-15.392854 -28.353128 -30.442997 44.357817 1.073422 2.327193 -0.005179 -0.000146 -33427.900000 0 0 1
-15.643254 -28.656458 -31.990307 45.708684 1.071115 2.346017 -0.003533 -0.002897 -15190.000000 0 0 1
-15.526554 -30.056898 -32.229867 46.725318 1.093979 2.331972 0.001105 -0.005446 170783.000000 0 0 1
-16.273854 -30.462138 -33.354077 48.013276 1.080139 2.338777 -0.002845 -0.005967 -171714.000000 0 0 1
-16.094754 -31.960738 -33.720517 49.169128 1.104290 2.326508 -0.003241 -0.001694 522350.000000 0 0 1
-14.861154 -32.154388 -34.431769 49.399447 1.137859 2.342012 0.011736 -0.003285 496870.000000 0 0 1
-15.003354 -33.107358 34.017622 49.783496 1.145307 0.818508 0.003267 0.001720 -1002130.000000 0 0 1
-13.692254 -33.452458 33.370151 49.194632 1.182294 0.825310 0.006153 0.001978 -1101270.000000 0 0 1
-12.952654 -34.357209 34.115815 50.120634 1.210274 0.822114 0.008241 0.001413 -904121.000000 0 0 1
-11.848354 34.714312 33.377421 49.593540 -1.241884 0.832513 0.003708 0.004578 -804421.000000 0 0 1
-10.870154 33.824430 34.149659 49.279321 -1.259851 0.805180 0.008860 0.004364 -517219.000000 0 0 1
-10.214654 34.510586 -34.297758 49.715751 -1.283026 2.332116 0.012869 0.000569 -525969.000000 0 0 1
-9.332054 33.661245 -33.594457 48.463947 -1.300354 2.336694 0.008962 0.000484 -434773.000000 0 0 1
-8.494954 34.465315 -32.571637 48.176070 -1.329135 2.313247 0.010265 -0.001168 -494394.000000 0 0 1
-9.140054 -34.395557 -31.494957 47.523965 1.311065 2.295238 0.016347 -0.001938 -328872.000000 0 0 1
-8.503954 -33.195588 -31.067167 46.254007 1.320012 2.307249 0.013023 0.000487 25577.700000 0 0 1
-9.436054 -32.420028 -30.074797 45.217151 1.287565 2.298450 0.016956 -0.001740 424580.000000 0 0 1
-9.369854 -32.888878 -28.707937 44.649951 1.293255 2.269147 0.010636 0.004282 -205959.000000 0 0 1
-9.942654 -34.176259 -28.459807 45.572291 1.287688 2.245285 0.007566 0.000431 -122788.000000 0 0 1
-10.336454 -34.601799 -27.044597 45.116926 1.280509 2.213590 -0.004408 0.007706 -90793.100000 0 0 1
-9.263954 34.697801 -26.144917 44.422009 -1.309892 2.200070 0.002899 0.007766 -415938.000000 0 0 1
-9.660354 34.515544 -24.777507 43.572584 -1.297895 2.175659 -0.000796 0.007020 5372.680000 0 0 1
-8.533654 34.415566 -23.708607 42.653869 -1.327739 2.160166 0.004279 0.005709 -85643.200000 0 0 1
-7.758654 33.285753 -23.953307 41.736063 -1.341793 2.182085 -0.000240 0.002779 -346556.000000 0 0 1
-6.877854 33.030293 -22.885407 40.768210 -1.365501 2.166818 0.005727 -0.001581 -172344.000000 0 0 1
-6.022054 31.736733 -22.997107 39.652897 -1.383275 2.189476 0.005020 -0.006399 -27896.100000 0 0 1
-4.856054 31.932703 -23.757007 40.095812 -1.419881 2.204962 0.005206 -0.003224 -587747.000000 0 0 1
-3.916754 30.929843 -23.522407 39.055086 -1.444833 2.217160 0.011868 -0.003576 769354.000000 0 0 1
-2.492954 31.303293 -24.111907 39.591603 -1.491325 2.225615 0.005818 -0.005817 546126.000000 0 0 1
-2.405354 31.193543 -25.568027 40.404787 -1.493838 2.255956 0.002744 -0.003311 340651.000000 0 0 1
-3.135254 32.154683 -26.329147 41.677061 -1.473598 2.254595 0.006030 -0.004251 180892.000000 0 0 1
-2.182254 32.515393 -27.513027 42.649498 -1.503782 2.271945 -0.001292 0.002450 605448.000000 0 0 1
-1.171354 33.529599 -27.368607 43.297191 -1.535876 2.255070 0.002616 0.000268 192091.000000 0 0 1
-1.616854 -34.610415 -27.050547 43.957106 1.524114 2.233671 -0.000013 0.001462 -430668.000000 0 0 1
-0.618454 -33.458998 -27.299087 43.187119 1.552314 2.255072 -0.003232 0.001310 -129007.000000 0 0 1
0.540546 -33.463558 -26.498427 42.688038 -1.554644 2.240490 0.001131 0.002333 -1479.000000 0 0 1
1.402046 -32.420618 -26.844977 42.115496 -1.527578 2.261933 -0.001828 -0.000290 581977.000000 0 0 1
2.673546 -32.075428 -25.998507 41.375153 -1.487637 2.250240 -0.003321 0.003604 516966.000000 0 0 1
2.350846 -31.508258 -24.733607 40.125405 -1.496324 2.234969 -0.001933 0.003206 188346.000000 0 0 1
3.454946 -30.813698 -24.215007 39.341927 -1.459139 2.233818 -0.002577 0.001808 -526818.000000 0 0 1
3.222946 -29.970538 -22.945407 37.882875 -1.463671 2.221433 -0.004833 0.002891 -341150.000000 0 0 1
3.064746 -30.793498 -21.818107 37.863729 -1.471597 2.184901 -0.004286 0.005352 396073.000000 0 0 1
2.853146 -30.022848 -20.630407 36.539370 -1.476048 2.170754 -0.006407 0.006381 -649613.000000 0 0 1
2.591846 -30.886928 -19.410907 36.571892 -1.487078 2.130294 -0.003486 0.007692 -180728.000000 0 0 1
1.471246 -31.775398 -19.531907 37.327415 -1.524528 2.121467 -0.006540 0.004282 393718.000000 0 0 1
1.707646 -33.139438 -19.980807 38.734624 -1.519313 2.112782 -0.007889 0.006478 -236669.000000 0 0 1
2.141446 -34.079798 -18.777007 38.969147 -1.508043 2.073553 -0.007061 -0.000467 181413.000000 0 0 1
3.420646 -33.873698 -18.182107 38.596856 -1.470155 2.061308 -0.010358 0.004563 366582.000000 0 0 1
3.864246 34.512081 -17.383407 38.835537 1.459293 2.034894 -0.000227 0.004057 -156789.000000 0 0 1
4.661046 33.470000 -18.176307 38.371140 1.432426 2.064281 0.009153 0.000803 -726136.000000 0 0 1
5.868146 34.039830 -18.600507 39.231671 1.400084 2.064760 0.007367 -0.002461 -369833.000000 0 0 1
6.662446 33.112403 -19.341007 38.921639 1.372240 2.090844 0.006799 -0.002106 396922.000000 0 0 1
8.049946 33.691691 -19.734207 39.866911 1.336264 2.088634 0.003673 -0.001492 -96576.800000 0 0 1
8.907646 33.665352 -18.627107 39.492673 1.312130 2.061969 0.006034 -0.000308 453490.000000 0 0 1
10.114546 34.396077 -18.976607 40.564834 1.284797 2.057607 0.011313 0.003053 952758.000000 0 0 1
11.072846 34.606955 -17.786807 40.455157 1.261130 2.026024 0.001014 -0.003202 8336.350000 0 0 1
11.637546 33.388083 -17.290607 39.359391 1.235410 2.025616 -0.003029 -0.002727 13575.700000 0 0 1
12.516246 33.595921 -16.209807 39.345904 1.214173 1.995425 -0.008975 -0.007047 877535.000000 0 0 1
13.693746 32.544363 -16.055507 38.787028 1.172513 1.997575 -0.003956 -0.011236 911643.000000 0 0 1
13.374946 31.462443 -15.215707 37.420479 1.168834 1.989542 -0.002906 -0.006959 577754.000000 0 0 1
14.559646 30.656573 -15.066907 37.132471 1.127407 1.988608 -0.009439 -0.000372 437516.000000 0 0 1
14.455746 29.545613 -13.977907 35.739246 1.115770 1.972632 -0.001408 -0.007988 -704387.000000 0 0 1
14.269446 30.057503 -12.643307 35.593873 1.127562 1.933935 -0.008033 -0.006880 253732.000000 0 0 1
12.998146 29.757703 -12.065607 34.641760 1.158974 1.926550 0.001604 -0.009597 437352.000000 0 0 1
12.648046 28.277803 -11.888107 33.180330 1.150208 1.937230 -0.003113 -0.008018 -1035760.000000 0 0 1
12.073446 27.599193 -13.030707 32.821987 1.158422 1.979055 -0.003814 -0.008688 220949.000000 0 0 1
11.616146 26.276323 -12.783407 31.445119 1.154551 1.989450 0.007465 -0.004578 155898.000000 0 0 1
10.671046 25.999913 -11.604507 30.406106 1.181334 1.962378 0.018591 -0.002616 -622517.000000 0 0 1
9.480946 26.748073 -11.545507 30.637338 1.230160 1.957183 0.009009 -0.003180 22957.200000 0 0 1
8.998446 26.984323 -10.254107 30.236938 1.248923 1.916783 0.004959 0.003772 -92558.400000 0 0 1
7.797846 27.954553 -10.315507 30.800537 1.298764 1.912309 0.001852 -0.001723 -32722.500000 0 0 1
8.207146 29.294163 -10.553207 32.200550 1.297636 1.904700 0.004169 -0.007416 181071.000000 0 0 1
7.134346 30.159223 -10.880007 32.845885 1.338510 1.908418 -0.002882 -0.003523 63072.200000 0 0 1
7.632546 31.556063 -11.275107 34.368138 1.333482 1.905055 0.003609 -0.001714 8206.710000 0 0 1
8.231146 32.334153 -10.209907 34.892569 1.321526 1.867751 0.012386 -0.001873 -6966.300000 0 0 1
8.701346 33.652467 -10.522207 36.316921 1.317773 1.864744 0.006313 -0.002452 409537.000000 0 0 1
9.845746 33.765021 -11.571707 37.025933 1.287067 1.888651 0.003178 -0.005733 -670116.000000 0 0 1
11.102946 33.395713 -11.104007 36.903225 1.249826 1.876428 -0.003829 -0.001633 -1089950.000000 0 0 1
12.028146 33.594339 -12.128107 37.687490 1.226976 1.898434 -0.005974 -0.001594 -1910020.000000 0 0 1
13.420146 33.337493 -11.713707 37.798144 1.188090 1.885886 -0.008863 -0.003783 -1650190.000000 0 0 1
13.872146 34.287972 -10.818607 38.537562 1.186350 1.855350 -0.006103 0.003038 -311149.000000 0 0 1
15.284046 34.323038 -10.793707 39.091906 1.151858 1.850542 -0.006213 -0.002972 82254.800000 0 0 1
15.700846 -34.013018 -9.763607 38.713434 -1.138327 1.825752 -0.006324 -0.002325 53712.100000 0 0 1
15.528346 -34.502463 -8.475207 38.773427 -1.147888 1.791158 -0.008031 0.001177 366180.000000 0 0 1
16.388846 -33.759028 -7.616707 38.292042 -1.118844 1.771043 -0.009668 0.005482 -602653.000000 0 0 1
16.662346 -34.489992 -6.252507 38.810916 -1.120754 1.732603 -0.006225 0.003742 -628951.000000 0 0 1
17.561146 33.901079 -6.289007 38.694038 1.092844 1.734052 -0.009082 0.001878 -77755.000000 0 0 1
18.898846 34.361666 -6.431807 39.739887 1.067955 1.733359 -0.009554 0.006379 -1321010.000000 0 0 1
19.777446 33.382463 -7.168707 39.457908 1.035947 1.753491 -0.006792 0.006519 -452032.000000 0 0 1
19.991346 32.165593 -6.490507 38.424028 1.014708 1.740528 -0.007771 0.008488 51560.900000 0 0 1
20.825246 32.221993 -5.324507 38.733681 0.997023 1.708698 -0.004623 0.005286 -443188.000000 0 0 1
21.256846 30.879863 -4.747707 37.788360 0.967917 1.696769 -0.004884 0.002396 69001.200000 0 0 1
21.944646 30.226663 -5.837307 37.805989 0.942831 1.725818 0.000269 0.005344 26984.300000 0 0 1
22.257446 28.974773 -5.337707 36.924551 0.915770 1.715862 -0.004234 0.005414 -559417.000000 0 0 1
23.097146 28.145713 -6.332907 36.956258 0.883604 1.743009 0.003847 0.006899 -1158110.000000 0 0 1
24.329946 28.720013 -6.521507 38.200988 0.867963 1.742352 0.012480 0.007043 -648068.000000 0 0 1
25.339546 27.943493 -7.176507 38.398354 0.834229 1.758798 0.003523 0.004406 563222.000000 0 0 1
26.207446 27.193813 -6.160107 38.265919 0.803867 1.732481 0.006715 0.011170 -491719.000000 0 0 1
27.105746 27.994203 -5.376307 39.335754 0.801521 1.707903 0.009159 0.009691 -108652.000000 0 0 1
28.079846 27.117533 -4.925007 39.345826 0.767966 1.696298 0.006454 0.014333 -95454.300000 0 0 1
29.078046 27.708733 -3.849407 40.350025 0.761290 1.666342 0.005334 0.010502 376224.000000 0 0 1
28.545946 28.051563 -2.557707 40.103654 0.776663 1.634617 0.004495 0.008701 -239228.000000 0 0 1
29.539046 28.466383 -1.667607 41.056925 0.766908 1.611424 -0.000081 0.009929 -337757.000000 0 0 1
29.373246 29.976243 -1.222107 41.986382 0.795558 1.599908 0.001027 0.008627 -150974.000000 0 0 1
29.764146 30.907263 -2.181607 42.964202 0.804237 1.621595 -0.001306 0.005671 51829.400000 0 0 1
29.315446 32.187943 -1.849507 43.576137 0.832069 1.613252 0.002351 0.007991 -298247.000000 0 0 1
32.016275 22.570922 19.606933 43.805481 0.614062 1.106727 0.006519 0.002233 70848.700000 0 0 1
32.114275 22.524722 21.016033 44.501274 0.611660 1.078947 0.008672 0.004980 -162857.000000 0 0 1
32.901045 23.568522 21.562233 45.857212 0.621612 1.081275 0.012662 0.010494 -13103.400000 0 0 1
32.818925 23.704122 23.088633 46.605281 0.625516 1.052492 0.005551 0.006349 162456.000000 0 0 1
31.597155 24.147922 23.654633 46.271417 0.652555 1.034199 0.003685 0.007460 340059.000000 0 0 1
31.784435 24.484522 25.042693 47.295651 0.656386 1.012794 0.007517 0.008112 -426387.000000 0 0 1
30.494335 25.044822 25.606003 47.040567 0.687591 0.995196 0.005898 0.004378 -484598.000000 0 0 1
30.248405 26.392922 25.293573 47.448047 0.717435 1.008560 0.003109 0.006702 624256.000000 0 0 1
28.935725 26.785222 25.710603 47.071854 0.746823 0.992976 0.007073 0.003362 688025.000000 0 0 1
28.760435 28.315922 25.967963 47.992595 0.777610 0.999072 0.007567 0.002061 -130628.000000 0 0 1
28.895975 29.153122 24.836593 47.976434 0.789828 1.026656 0.006538 0.000724 240030.000000 0 0 1
28.459405 30.466422 25.083083 48.654924 0.819445 1.029170 0.004152 -0.000979 -150442.000000 0 0 1
28.531115 31.388222 23.879033 48.677030 0.833045 1.058063 -0.000363 -0.004516 -32216.400000 0 0 1
29.808855 31.799522 23.438933 49.488999 0.817699 1.077401 -0.004947 -0.008573 -167140.000000 0 0 1
29.727115 32.704722 22.379433 49.539270 0.833056 1.102069 -0.005695 -0.002469 641344.000000 0 0 1
31.162725 33.124322 21.900233 50.477285 0.815902 1.122020 -0.000561 -0.005193 880749.000000 0 0 1
31.707115 33.995422 22.885933 51.815015 0.820212 1.113320 0.001865 -0.002601 -23146.900000 0 0 1
33.106375 34.137122 22.726033 52.705291 0.800726 1.124984 0.000304 -0.003024 145525.000000 0 0 1
33.746751 -34.151989 23.430633 53.424677 -0.791366 1.116786 0.000608 0.000124 -404994.000000 0 0 1
33.230595 -32.951189 22.971333 52.131904 -0.781176 1.114486 -0.000371 0.000102 2486.040000 0 0 1
33.542106 -31.827089 23.747033 51.980362 -0.759168 1.096350 0.001119 -0.001911 -711585.000000 0 0 1
32.532285 -30.652589 23.565833 50.529984 -0.755658 1.085610 0.002400 -0.002270 -267231.000000 0 0 1
31.234195 -30.856189 24.031333 50.051816 -0.779310 1.069994 0.002118 -0.003897 -433867.000000 0 0 1
30.398615 -31.307089 22.987633 49.321810 -0.800120 1.085948 0.004367 -0.002450 -495098.000000 0 0 1
29.595135 -32.622289 23.168033 49.767896 -0.834014 1.086572 0.002225 -0.000310 558547.000000 0 0 1
28.677375 -32.601889 24.279733 49.747165 -0.849354 1.060928 0.005390 -0.004864 430738.000000 0 0 1
28.202575 -33.919089 24.618963 50.517157 -0.877161 1.061757 0.005455 -0.003684 -111946.000000 0 0 1
27.231035 -33.979589 25.799713 50.613901 -0.895206 1.035919 0.011048 -0.006049 -134573.000000 0 0 1
26.920365 34.198622 26.156283 50.777977 0.903923 1.029659 0.011965 -0.005019 -57055.900000 0 0 1
26.035195 34.130622 27.251273 50.846461 0.919147 1.005161 0.012614 -0.001860 -487990.000000 0 0 1
25.806745 32.621922 27.516383 49.873131 0.901514 0.986362 0.008791 0.000726 729852.000000 0 0 1
25.111785 31.863222 26.447893 48.428893 0.903346 0.993073 0.005424 0.000315 -344913.000000 0 0 1
23.739275 32.090922 26.434683 47.876643 0.933887 0.985866 0.004110 0.002179 -806599.000000 0 0 1
23.120075 31.710122 25.038573 46.551046 0.940801 1.002884 -0.000253 0.000667 41006.700000 0 0 1
23.360075 32.544422 23.871733 46.633595 0.948230 1.033401 -0.004384 -0.001864 441657.000000 0 0 1
24.686135 32.597022 23.336133 47.080210 0.922632 1.052193 0.000720 -0.004915 397141.000000 0 0 1
24.757555 33.390022 22.018733 47.038864 0.932780 1.083661 0.000135 -0.005599 95834.500000 0 0 1
26.099005 33.535422 21.594533 47.666618 0.909458 1.100632 -0.001395 -0.000879 177702.000000 0 0 1
26.201275 34.257822 20.379533 47.701473 0.917874 1.129369 -0.011791 -0.004034 -306623.000000 0 0 1
27.601065 -34.686489 20.001133 48.631437 -0.898665 1.146939 -0.007689 -0.006691 31493.200000 0 0 1
28.389825 33.761022 19.402433 48.189658 0.871606 1.156412 -0.007563 -0.009920 265042.000000 0 0 1
29.358095 34.372722 18.539033 48.857727 0.863921 1.181595 -0.000970 -0.001812 286582.000000 0 0 1
30.355565 33.415522 17.761933 48.513335 0.833345 1.195955 -0.006878 -0.000951 108100.000000 0 0 1
31.159425 32.715622 18.639333 48.873780 0.809756 1.179511 -0.002280 -0.003332 -315609.000000 0 0 1
32.094115 31.962922 17.867333 48.691911 0.783350 1.195072 -0.003998 -0.002846 390919.000000 0 0 1
33.085285 31.134722 18.728633 49.140296 0.755034 1.179783 0.006323 -0.001556 372911.000000 0 0 1
34.048533 31.889122 19.446933 50.541091 0.752661 1.175833 0.016038 -0.004172 93078.000000 0 0 1
-34.735968 31.132122 20.358733 50.894740 -0.730740 1.159262 0.015753 -0.003143 -915696.000000 0 0 1
-33.602934 31.828422 21.026333 50.836132 -0.758285 1.144381 0.020859 0.000206 -533055.000000 0 0 1
-32.670494 32.255222 20.014333 50.083271 -0.779002 1.159693 0.022017 -0.001761 360602.000000 0 0 1
-31.431644 32.788322 20.452633 49.812975 -0.806521 1.147697 0.016969 0.001438 264329.000000 0 0 1
-31.311804 34.143922 21.154933 50.929045 -0.828639 1.142435 0.017027 0.003979 -432026.000000 0 0 1
-31.525284 34.170222 22.562233 51.676900 -0.825637 1.118978 0.025116 0.001252 133769.000000 0 0 1
-31.541864 -33.968489 23.066333 51.776473 0.822423 1.109066 0.019454 0.005912 -235014.000000 0 0 1
-31.686314 -33.891089 24.550283 52.491379 0.819006 1.084108 0.011893 -0.001112 -153453.000000 0 0 1
-32.928364 -34.322489 25.115933 53.787736 0.806125 1.084963 0.010855 0.000168 187110.000000 0 0 1
-32.837174 34.598122 26.427853 54.532022 -0.811505 1.064856 0.009201 -0.001033 -193040.000000 0 0 1
-34.207017 34.322922 27.038993 55.491352 -0.787089 1.061841 -0.001649 -0.003088 -170251.000000 0 0 1
-34.114139 33.556722 28.265663 55.576756 -0.777161 1.037252 0.004348 0.000219 -722426.000000 0 0 1
34.135696 33.394322 28.797683 55.764980 0.774420 1.028141 0.007614 -0.002579 -538839.000000 0 0 1
34.237061 32.371322 29.928473 55.819283 0.757395 1.004906 0.005688 -0.000147 -167815.000000 0 0 1
34.246308 30.983822 29.611063 54.860021 0.735425 1.000648 0.005230 0.002626 640665.000000 0 0 1
-34.231739 30.399922 28.795393 54.084581 -0.726180 1.009346 0.010331 0.002305 302612.000000 0 0 1
-34.505981 28.897122 28.524233 53.285441 -0.697164 1.005922 0.013596 0.001258 -575884.000000 0 0 1
33.979712 28.622722 27.613883 52.310683 0.700035 1.014691 0.009906 0.001033 -27038.100000 0 0 1
33.725552 27.300222 27.316313 51.272760 0.680496 1.008932 0.008777 0.006603 -137408.000000 0 0 1
33.149155 26.378122 28.415403 51.010851 0.672138 0.979971 0.008782 -0.000124 -396907.000000 0 0 1
34.006235 25.911222 29.455423 51.917602 0.651109 0.967513 0.001015 -0.001264 -211516.000000 0 0 1
33.655689 24.667722 29.975133 51.378113 0.632495 0.947860 0.009051 0.000689 -103182.000000 0 0 1
33.988032 23.309622 29.262933 50.545465 0.601145 0.953365 -0.003311 0.004588 -358814.000000 0 0 1
33.395035 23.165522 27.992883 49.350494 0.606473 0.967663 -0.001826 0.002771 -101440.000000 0 0 1
34.022674 22.251722 27.095403 48.855321 0.579200 0.982908 -0.002231 0.001396 -424316.000000 0 0 1
33.974724 20.728022 27.427473 48.334243 0.547814 0.967385 -0.003716 0.000912 204482.000000 0 0 1
32.611035 20.292422 27.332833 47.141762 0.556624 0.952312 0.001276 0.004475 842069.000000 0 0 1
32.343445 19.135722 28.098933 46.923601 0.534251 0.928766 -0.002173 -0.001755 -624347.000000 0 0 1
32.262275 19.325522 29.667453 47.900814 0.539693 0.902880 0.003447 -0.015718 -214446.000000 0 0 1
31.217895 20.027922 30.325973 47.909699 0.570414 0.885397 0.004446 -0.014702 250816.000000 0 0 1
31.162305 21.354422 29.989113 48.233261 0.600768 0.899819 0.007356 -0.006090 -1767690.000000 0 0 1
29.989975 22.088822 30.605823 48.208205 0.634831 0.882959 0.012270 -0.003264 91501.100000 0 0 1
28.677145 21.705122 30.155633 46.934563 0.647889 0.873035 0.014824 -0.001238 883971.000000 0 0 1
28.363665 22.118322 28.787713 46.070056 0.662309 0.895834 0.008272 0.007215 -494170.000000 0 0 1
28.061395 23.641722 28.614173 46.531106 0.700124 0.908477 0.010507 0.009580 52744.700000 0 0 1
29.261255 24.408822 28.704143 47.706807 0.695231 0.925196 0.014679 0.004437 276002.000000 0 0 1
29.092715 25.724722 29.229183 48.605478 0.724035 0.925599 0.010824 0.004738 -35326.500000 0 0 1
29.309805 25.963422 30.722373 49.769751 0.724929 0.905503 0.011088 0.002735 125293.000000 0 0 1
30.633405 25.794022 31.195843 50.763350 0.699845 0.909000 0.017369 0.001002 -31760.100000 0 0 1
30.669445 25.810422 32.600253 51.667874 0.699578 0.888009 0.017968 0.002529 -129539.000000 0 0 1
30.010655 24.718922 33.384241 51.246191 0.689009 0.861305 0.014757 -0.002784 -313080.000000 0 0 1
30.458565 24.695722 -34.680448 52.348222 0.681290 2.294941 0.008784 -0.004466 341600.000000 0 0 1
29.889145 23.624722 -33.938887 51.022902 0.668867 2.298517 0.007516 -0.009535 -28016.000000 0 0 1
30.821425 23.169322 -32.749637 50.589687 0.644606 2.274909 0.006798 -0.005093 -140264.000000 0 0 1
30.881035 24.062122 -31.684137 50.363763 0.661921 2.251199 0.003146 -0.003125 -101395.000000 0 0 1
31.681875 23.387822 -30.764767 49.972015 0.635912 2.233994 0.016547 -0.001786 -556248.000000 0 0 1
32.191125 24.263322 -29.588967 50.004843 0.645882 2.203990 0.015491 0.003130 73857.900000 0 0 1
32.823385 23.484022 -28.592547 49.461173 0.621031 2.187171 0.007380 0.003209 -65482.600000 0 0 1
33.453205 24.273222 -27.605017 49.702547 0.627693 2.159646 0.008118 0.000590 50656.200000 0 0 1
33.928683 23.393822 -26.386347 48.935322 0.603644 2.140293 0.002924 0.001864 -257028.000000 0 0 1
-34.544495 22.521922 -26.720297 49.137902 -0.577758 2.145733 0.003160 0.006187 60993.800000 0 0 1
34.683442 21.182322 -26.404257 48.464592 0.548274 2.146965 0.001403 0.010443 -607044.000000 0 0 1
-33.751074 20.241022 -26.883117 47.660633 -0.540210 2.170082 0.004489 0.015296 -667934.000000 0 0 1
-32.521314 20.488722 -26.265757 46.554415 -0.562193 2.170254 0.000800 0.010471 -1079110.000000 0 0 1
-31.642644 19.453222 -26.463547 45.607062 -0.551215 2.189833 0.001354 0.005931 -595677.000000 0 0 1
-30.335094 19.736122 -25.707347 44.391442 -0.576799 2.188428 0.004276 0.003277 -120196.000000 0 0 1
-30.466714 19.638022 -24.294707 43.636056 -0.572551 2.161274 0.010602 -0.001909 -155215.000000 0 0 1
-29.210584 19.913522 -23.731707 42.579344 -0.598354 2.161990 0.013345 -0.000942 -24314.000000 0 0 1
-29.248474 20.213222 -22.190007 41.909951 -0.604719 2.128770 0.004031 0.001396 39099.100000 0 0 1
-29.696274 19.088722 -21.446507 41.306182 -0.571296 2.116721 -0.003272 -0.000777 -196118.000000 0 0 1
-30.303054 19.471422 -20.242007 41.317674 -0.571125 2.082785 -0.004194 -0.000750 -383998.000000 0 0 1
-31.513904 18.545422 -19.946307 41.652299 -0.531909 2.070171 -0.006903 0.000701 648898.000000 0 0 1
-32.363684 18.869322 -18.833807 41.930558 -0.527856 2.036629 -0.013827 -0.003510 947235.000000 0 0 1
-33.192954 20.024922 -18.832007 43.097728 -0.542834 2.023013 -0.016303 0.000677 -170463.000000 0 0 1
-34.174354 20.182022 -17.644807 43.434315 -0.533450 1.989133 -0.010408 -0.002938 -91196.200000 0 0 1
-33.668644 20.700822 -16.443307 42.807522 -0.551260 1.965053 -0.003681 -0.004675 -344070.000000 0 0 1
-34.677264 20.776522 -15.482207 43.288281 -0.539787 1.936550 0.001294 -0.003973 -764431.000000 0 0 1
-34.305970 21.785122 -14.332607 43.091934 -0.565775 1.909861 0.004000 -0.006957 -152402.000000 0 0 1
-34.558378 23.141922 -14.658407 44.098741 -0.590063 1.909643 0.006231 -0.006118 920437.000000 0 0 1
33.560438 23.408622 -14.582107 43.438513 0.609050 1.913140 0.003952 -0.004096 616040.000000 0 0 1
33.250795 24.900922 -14.815007 44.103920 0.642785 1.913369 0.006435 -0.006533 -75346.200000 0 0 1
33.767352 25.676322 -13.754007 44.594622 0.650117 1.884331 0.004661 -0.006396 107208.000000 0 0 1
33.712007 27.091522 -13.882807 45.422267 0.676942 1.881406 0.004084 -0.006278 393398.000000 0 0 1
-34.673973 27.807022 -14.693807 46.812636 -0.675933 1.890079 0.005405 -0.001068 373514.000000 0 0 1
-34.625529 27.561822 -16.099107 47.093126 -0.672295 1.919688 0.010171 0.000510 1035020.000000 0 0 1
-33.347744 28.015322 -16.623607 46.618394 -0.698716 1.935411 0.005609 -0.002070 574542.000000 0 0 1
-33.144224 27.797422 -18.156507 46.913697 -0.697886 1.968193 0.002836 -0.003092 -223597.000000 0 0 1
-32.770144 26.482822 -18.597407 46.055247 -0.679684 1.986470 0.001591 -0.004472 422973.000000 0 0 1
-31.436374 26.071822 -18.293207 44.750720 -0.692384 1.991913 0.001146 -0.001393 344190.000000 0 0 1
-30.967544 24.846122 -19.142107 44.076511 -0.676159 2.020049 0.000031 0.001398 -426049.000000 0 0 1
-30.852854 25.091422 -20.522107 44.750809 -0.682775 2.047200 -0.001242 0.001846 285955.000000 0 0 1
-30.377904 24.002422 -21.344507 44.209968 -0.668692 2.074644 0.004322 0.002713 132343.000000 0 0 1
-30.397074 24.258022 -22.894807 45.128771 -0.673543 2.102870 -0.000956 0.004716 207835.000000 0 0 1
-31.749824 24.199722 -23.323707 46.234978 -0.651264 2.099553 -0.002621 0.004938 427359.000000 0 0 1
-31.791884 23.788322 -24.695207 46.759613 -0.642381 2.127195 -0.001193 0.005482 -276741.000000 0 0 1
-32.447074 24.865522 -25.512877 48.187277 -0.653878 2.128751 -0.001511 0.003326 -1029740.000000 0 0 1
-31.641944 25.965822 -25.685607 48.323772 -0.687185 2.131204 -0.003548 0.001315 -668511.000000 0 0 1
-32.292314 26.910722 -26.452677 49.666132 -0.694747 2.132478 0.002509 0.001067 -276355.000000 0 0 1
-31.609154 28.299522 -26.495397 50.020072 -0.730210 2.129038 -0.001916 0.000406 -254615.000000 0 0 1
-30.496544 28.359422 -27.338347 49.816476 -0.749103 2.151702 -0.011147 -0.000504 -906657.000000 0 0 1
-30.102064 29.697422 -27.384577 50.378430 -0.778632 2.145490 -0.008793 -0.001379 251732.000000 0 0 1
-28.674184 29.778822 -27.979817 49.918506 -0.804294 2.165798 -0.006781 -0.001943 784940.000000 0 0 1
-27.620634 29.126722 -27.211357 48.494570 -0.811932 2.166537 -0.015981 -0.003027 363819.000000 0 0 1
-26.358614 29.323822 -27.789837 48.238347 -0.838600 2.184739 -0.005644 -0.002396 475609.000000 0 0 1
-25.494644 30.556322 -27.262547 48.238078 -0.875459 2.171431 -0.003618 -0.001163 -113108.000000 0 0 1
-25.144584 30.526722 -25.884597 47.266724 -0.881776 2.150323 0.004417 -0.003117 -278067.000000 0 0 1
-26.164824 30.778522 -24.942107 47.476564 -0.866244 2.123930 -0.003573 -0.003013 -642033.000000 0 0 1
-25.704844 31.317222 -23.545907 46.860614 -0.883507 2.097246 0.000981 0.000198 216886.000000 0 0 1
-25.231544 32.677822 -23.471307 47.490769 -0.913281 2.087744 0.009843 -0.000863 434447.000000 0 0 1
-23.881054 32.845822 -23.908807 47.125193 -0.942136 2.102899 0.011278 0.006711 407720.000000 0 0 1
-23.585654 34.368522 -24.177307 48.187349 -0.969353 2.096400 0.011141 0.010739 19732.200000 0 0 1
-23.736354 -34.204489 -23.091907 47.608799 0.964139 2.077199 0.003762 0.003500 63165.200000 0 0 1
-23.580554 -32.872289 -23.496507 46.783713 0.948528 2.096980 0.008502 0.004306 -281415.000000 0 0 1
15.840546 8.191822 -25.433507 31.062713 0.477267 2.530078 0.000293 -0.005657 -587733.000000 0 0 1
14.508546 7.789522 -25.451057 30.313873 0.492724 2.567314 -0.005361 -0.004787 -672066.000000 0 0 1
14.297546 6.425822 -25.779127 30.170754 0.422384 2.595270 0.001264 -0.006365 552108.000000 0 0 1
12.799146 5.980622 -25.659257 29.291355 0.437120 2.638304 -0.002789 -0.007347 453947.000000 0 0 1
12.371746 6.054422 -24.356307 27.981169 0.455111 2.626919 0.000485 -0.008076 -886364.000000 0 0 1
11.048846 5.650822 -24.287107 27.274024 0.472758 2.669206 0.006876 -0.005677 -970182.000000 0 0 1
10.465546 5.922822 -22.911607 25.875649 0.514995 2.658259 0.008189 -0.011522 -286413.000000 0 0 1
11.070546 5.133322 -21.927007 25.093856 0.434182 2.633759 0.011551 -0.006913 67787.200000 0 0 1
10.590946 5.359522 -20.596207 23.771756 0.468474 2.618774 0.017771 -0.006597 -68913.100000 0 1 0
10.701046 6.765122 -19.904107 23.589251 0.563755 2.575082 -0.000306 -0.009837 -150678.000000 0 1 0
10.637846 6.754322 -18.449507 22.342089 0.565710 2.542369 0.006688 -0.005842 -414553.000000 0 1 0
10.974446 8.030522 -17.817907 22.414405 0.631717 2.489690 0.000363 -0.007124 69399.300000 0 1 0
12.468246 8.415222 -17.700407 23.228808 0.593703 2.437196 -0.001757 0.001346 -16607.600000 0 1 0
12.986246 7.736322 -16.569907 22.428889 0.537275 2.402048 0.012133 -0.002772 -704490.000000 0 1 0
14.323346 8.089322 -16.426507 23.247054 0.514108 2.355487 0.005967 0.006700 -673272.000000 0 1 0
14.970446 7.809422 -15.039507 22.611681 0.480822 2.298452 0.020443 0.004496 298993.000000 0 1 0
16.384946 7.997722 -15.005107 23.613201 0.454094 2.259393 0.018074 0.009027 766211.000000 0 1 0
16.805646 8.316122 -13.694907 23.219348 0.459512 2.201615 0.013807 0.007728 95608.600000 0 1 0
17.095546 9.848622 -13.569407 23.945393 0.522655 2.173269 0.011041 0.007180 -296940.000000 0 1 0
15.876546 10.511822 -13.322307 23.238911 0.584833 2.181295 0.011988 0.009489 324294.000000 0 1 0
16.050246 11.912522 -13.301107 24.009124 0.638492 2.157960 0.000973 0.006897 34940.500000 0 1 0
14.832746 12.786122 -12.878307 23.438133 0.711431 2.152514 0.007356 0.001358 191441.000000 0 1 0
14.547646 12.861122 -11.481107 22.557887 0.723943 2.104775 0.033757 -0.000372 -55200.500000 0 1 0
15.077746 14.023722 -10.867007 23.282935 0.749195 2.056394 0.028538 0.006445 -330499.000000 0 1 0
14.484946 15.410022 -11.130707 23.899269 0.816332 2.055260 0.017240 0.003917 885905.000000 0 1 0
13.181646 15.600622 -10.514507 22.971505 0.869245 2.046225 0.027403 -0.001086 869484.000000 0 1 0
12.677346 16.857422 -10.867907 23.727604 0.925995 2.046572 0.017972 0.000720 56372.700000 0 1 0
11.583146 17.338822 -9.887207 23.077281 0.981839 2.013561 0.015140 0.000401 144855.000000 0 1 0
12.054046 17.338322 -8.492607 22.760532 0.963282 1.953175 0.013390 0.007693 698138.000000 0 1 0
11.019946 17.626922 -7.541807 22.113942 1.012070 1.918823 0.012527 0.007375 -30110.400000 0 1 0
11.408146 17.326622 -6.124707 21.630295 0.988527 1.857878 0.010965 0.001499 199403.000000 0 1 0
12.472746 18.108822 -5.610307 22.693047 0.967650 1.820612 0.011892 0.002030 257774.000000 0 1 0
12.872846 17.700422 -4.326107 22.309870 0.942007 1.765943 -0.000038 0.000469 -345119.000000 0 1 0
13.968846 18.625922 -3.794707 23.589265 0.927316 1.732364 0.000418 0.000901 -40265.500000 0 1 0
15.159746 18.678622 -4.568007 24.486231 0.889016 1.758450 -0.002917 0.000377 412822.000000 0 1 0
15.839646 19.917722 -4.338607 25.815374 0.898956 1.739661 -0.003931 0.004817 -740379.000000 0 0 1
17.199546 20.045022 -4.996107 26.881004 0.861650 1.757744 -0.006576 0.007066 -98479.600000 0 0 1
18.266746 19.269522 -4.444507 26.921035 0.812107 1.736650 -0.012753 -0.004817 511765.000000 0 0 1
18.354446 18.013122 -5.048607 26.207760 0.776013 1.764646 -0.011661 -0.002256 -921290.000000 0 0 1
19.453946 17.168622 -4.416207 26.319583 0.723077 1.739385 -0.004697 -0.005165 -283672.000000 0 0 1
20.714246 17.674322 -4.846007 27.657647 0.706375 1.746919 -0.000780 -0.005039 44998.800000 0 0 1
21.689446 16.861822 -4.207007 27.793021 0.660821 1.722750 0.002279 -0.009491 728780.000000 0 0 1
23.188446 17.283422 -4.444407 29.260442 0.640516 1.723278 0.004513 -0.009091 947827.000000 0 0 1
23.527846 18.512422 -3.822007 30.180739 0.666659 1.697775 0.008343 -0.009289 -183427.000000 0 0 1
24.917246 18.663022 -3.693907 31.350000 0.642861 1.688899 0.005718 -0.003460 -230618.000000 0 0 1
25.190946 20.081422 -3.045607 32.359280 0.673012 1.665054 0.002323 -0.001303 -233730.000000 0 0 1
25.255646 21.148322 -3.924307 33.173775 0.697116 1.689369 0.002863 0.004546 241395.000000 0 0 1
25.247446 22.459822 -3.318707 33.954248 0.727033 1.668693 0.001693 -0.002246 -199814.000000 0 0 1
25.184946 23.509922 -4.440607 34.737831 0.751013 1.698979 -0.001457 0.003906 592842.000000 0 0 1
26.343146 23.700222 -5.314707 35.831661 0.732635 1.719670 0.004359 0.009393 1136680.000000 0 0 1
26.470046 22.769922 -6.360907 35.490757 0.710394 1.750997 0.002983 0.008442 111917.000000 0 0 1
27.636646 23.197722 -7.307407 36.814626 0.698298 1.770615 0.005041 0.009429 331143.000000 0 0 1
27.234346 24.366022 -8.096407 37.429459 0.729868 1.788831 0.001341 0.008053 129392.000000 0 0 1
28.259346 25.152622 -8.658207 38.809916 0.727298 1.795782 -0.001428 0.009830 -821.132000 0 0 1
29.124046 24.512622 -9.794507 39.306629 0.699634 1.822632 -0.003462 0.006630 147151.000000 0 0 1
28.511046 24.440922 -11.076107 39.152504 0.708685 1.857609 -0.000754 0.003543 -107484.000000 0 0 1
29.433046 23.823122 -11.959307 39.709827 0.680447 1.876713 -0.005497 0.002257 4913.610000 0 0 1
28.886946 23.308822 -13.292107 39.426348 0.678933 1.914671 -0.000995 0.001976 -84922.200000 0 0 1
28.928246 24.348022 -14.263907 40.411986 0.699638 1.931532 0.001352 -0.000848 -53509.900000 0 0 1
28.408146 23.848622 -15.440707 40.177045 0.698366 1.965264 0.000234 -0.002916 -568424.000000 0 0 1
28.659346 24.563122 -16.691607 41.271235 0.708585 1.987159 0.002612 -0.004679 80183.700000 0 0 1
30.055346 24.750122 -16.929107 42.455707 0.688898 1.980947 -0.001957 -0.001740 439186.000000 0 0 1
30.241046 25.555122 -18.100207 43.533925 0.701612 1.999588 0.001839 -0.006562 -255251.000000 0 0 1
31.663246 26.108122 -18.287307 44.929064 0.689536 1.989992 0.000774 -0.003429 -489654.000000 0 0 1
32.459346 25.058122 -18.697107 45.067731 0.657424 1.998593 -0.003005 -0.006083 -1594490.000000 0 0 1
33.818146 25.312922 -18.692307 46.193218 0.642541 1.987398 -0.005855 -0.002053 -901882.000000 0 0 1
34.537146 23.913522 -18.799607 46.022779 0.605607 1.991590 -0.004968 -0.004844 -40074.800000 0 0 1
34.180546 23.293022 -19.999407 45.943997 0.598181 2.021167 -0.009957 -0.000902 25965.500000 0 0 1
-34.385183 23.528222 -21.001807 46.658268 -0.600080 2.037696 -0.012834 0.003181 -204821.000000 0 0 1
-34.400183 22.607322 -22.261207 46.797702 -0.581410 2.066545 -0.004774 0.005208 -171295.000000 0 0 1
-33.916683 21.307522 -21.957407 45.677999 -0.560920 2.072249 -0.003632 0.003914 322801.000000 0 0 1
-33.770383 20.516222 -23.105907 45.773760 -0.545931 2.099929 -0.009307 0.004747 -141480.000000 0 0 1
-33.663683 18.978422 -22.979207 44.960739 -0.513350 2.107255 -0.003097 0.006045 -186876.000000 0 0 1
34.736046 18.227722 -22.622807 45.283928 0.483251 2.093907 -0.015684 0.004768 -219420.000000 0 0 1
-34.474383 16.868522 -22.891507 44.688379 -0.455056 2.108596 -0.011161 0.004340 161622.000000 0 0 1
33.875446 15.877122 -22.684007 43.751492 0.438288 2.115862 -0.016038 0.003681 492228.000000 0 0 1
32.815146 16.103422 -23.625407 43.523716 0.456205 2.144584 -0.009062 0.003079 1133050.000000 0 0 1
31.716746 15.171622 -23.595807 42.342558 0.446176 2.161878 -0.008415 -0.000023 480897.000000 0 0 1
31.956446 13.775822 -24.199107 42.386136 0.407010 2.178423 -0.013624 -0.003932 -647031.000000 0 0 1
32.273246 13.686722 -25.561457 43.385215 0.401099 2.200833 -0.014635 0.001898 308647.000000 0 0 1
32.887046 12.447822 -25.892117 43.668155 0.361838 2.205488 -0.005874 0.000885 -256195.000000 0 0 1
33.097146 12.324122 -27.471217 44.743411 0.356456 2.231880 -0.001998 0.002615 -684829.000000 0 0 1
31.912946 11.934622 -28.081117 44.152242 0.357871 2.260109 -0.002967 0.001173 -88105.700000 0 0 1
31.139246 13.021422 -28.622057 44.254177 0.396069 2.274132 -0.006296 0.008280 -69712.700000 0 0 1
31.425946 13.391222 -30.102487 45.531029 0.402819 2.293137 -0.004929 0.007889 672983.000000 0 0 1
32.790846 13.806022 -30.311797 46.740249 0.398506 2.276430 -0.004431 0.008371 850876.000000 0 0 1
33.187646 13.861922 -31.672527 47.924124 0.395657 2.292799 -0.004710 0.003158 -422269.000000 0 0 1
34.712746 14.037222 -31.841727 49.151947 0.384279 2.275519 -0.002279 0.004165 61905.400000 0 0 1
-33.954783 12.954722 -31.555227 48.129871 -0.364482 2.285809 0.003314 0.001344 143754.000000 0 0 1
-33.756483 12.843622 -30.166377 47.058146 -0.363565 2.266655 0.000609 0.003596 -1202040.000000 0 0 1
-32.735783 11.783922 -29.808247 45.815106 -0.345530 2.279198 0.001030 -0.003525 -493650.000000 0 0 1
-33.097183 10.440822 -30.103267 45.941713 -0.305579 2.285309 -0.001704 -0.004297 -151831.000000 0 0 1
-31.998083 9.587022 -30.028077 44.916297 -0.291101 2.303032 0.001177 -0.002660 -335069.000000 0 0 1
-32.274583 8.275522 -30.708607 45.311715 -0.251002 2.315452 0.010105 0.002569 -1110840.000000 0 0 1
-32.571183 8.482322 -32.065017 46.486526 -0.254765 2.331968 0.002842 0.001450 132735.000000 0 0 1
-33.011783 7.290922 -32.719697 47.047996 -0.217369 2.339847 0.005251 0.000690 300232.000000 0 0 1
-34.307883 6.587122 -32.183947 47.499763 -0.189692 2.315236 0.007294 0.006955 -249576.000000 0 0 1
-34.129383 5.753722 -31.017307 46.475730 -0.167015 2.301491 0.012112 0.004045 -433778.000000 0 0 1
34.228246 5.110522 -30.648607 46.227993 0.148212 2.295599 0.007357 0.008188 -799471.000000 0 0 1
34.258146 4.398622 -29.265827 45.270930 0.127698 2.273731 0.009710 0.005565 -38168.700000 0 0 1
-34.379183 3.302222 -29.202267 45.228369 -0.095759 2.272687 0.021872 0.005932 196295.000000 0 0 1
-34.714283 2.475422 -28.159747 44.768075 -0.071188 2.251081 0.018774 0.007917 546404.000000 0 0 1
-33.758383 1.183322 -27.988457 43.867784 -0.035038 2.262719 0.025430 0.006818 142549.000000 0 0 1
-32.544983 1.483122 -27.398257 42.568064 -0.045540 2.270034 0.026892 0.003817 -1269160.000000 0 0 1
-31.701983 0.385722 -27.440017 41.929931 -0.012167 2.284219 0.020039 0.000177 30582.000000 0 0 1
-30.536883 0.596222 -26.430787 40.391128 -0.019522 2.284147 0.020899 0.000101 124941.000000 0 0 1
-30.934383 0.241922 -25.142547 39.864047 -0.007820 2.253261 0.015592 -0.000577 342073.000000 0 0 1
-29.946083 0.548622 -24.166907 38.485170 -0.018318 2.249717 0.014657 0.001447 17764.700000 0 0 1
-30.456483 0.224422 -22.774607 38.030652 -0.007368 2.212859 0.013793 0.001112 -703446.000000 0 0 1
-30.356483 -1.103578 -22.338407 37.705947 0.036338 2.204877 0.010470 0.000334 74684.800000 0 0 1
-30.868683 -1.365478 -21.022507 37.372262 0.044206 2.168222 0.006442 0.000599 -26258.300000 0 0 1
-32.383183 -1.167278 -20.784507 38.497128 0.036030 2.141112 0.003201 0.001899 -237967.000000 0 0 1
-33.174883 -2.231478 -21.280707 39.476840 0.067163 2.140127 0.004501 -0.001576 982467.000000 0 0 1
-34.571683 -2.045578 -20.958907 40.480384 0.059100 2.115021 0.003401 -0.001150 1253650.000000 0 0 1
34.272246 -3.436278 -20.619807 40.144381 -0.099930 2.110220 -0.002038 -0.001725 -39702.700000 0 0 1
33.812646 -4.263078 -21.688607 40.396343 -0.125418 2.137549 0.002306 -0.002061 341242.000000 0 0 1
-34.667983 -4.748778 -22.520107 41.612200 0.136132 2.142648 -0.003063 -0.004003 -294991.000000 0 0 1
34.379846 -5.706578 -23.605707 42.092378 -0.164486 2.166157 -0.003297 -0.002342 -717788.000000 0 0 1
34.174746 -7.060078 -23.126007 41.863709 -0.203722 2.156051 -0.001773 0.001726 305361.000000 0 0 1
33.676546 -8.000578 -24.111907 42.184157 -0.233247 2.179235 -0.000608 0.002324 321039.000000 0 0 1
32.195246 -7.863478 -24.539107 41.237555 -0.239553 2.208145 0.002232 0.002622 -212095.000000 0 0 1
31.977146 -6.754678 -25.389007 41.385568 -0.208174 2.231250 -0.001701 -0.000341 -672343.000000 0 0 1
30.624946 -6.416678 -25.400647 40.302034 -0.206537 2.252681 0.003048 0.003920 -459691.000000 0 0 1
30.200846 -5.179178 -26.179227 40.302195 -0.169839 2.277819 -0.000307 -0.004774 -8437.130000 0 0 1
30.296646 -5.306478 -27.588217 41.317735 -0.173392 2.301923 -0.004171 -0.002870 55096.800000 0 0 1
29.884646 -4.166178 -28.261567 41.342052 -0.138516 2.323485 -0.002040 -0.004643 -161087.000000 0 0 1
29.604146 -4.555478 -29.720437 42.195524 -0.152682 2.352304 -0.002415 -0.005435 -144049.000000 0 0 1
29.110346 -3.538578 -30.512397 42.319501 -0.120964 2.376042 -0.014421 -0.002327 -27219.000000 0 0 1
28.675646 -4.066278 -31.762477 42.984675 -0.140863 2.402271 -0.005844 -0.003012 -832063.000000 0 0 1
28.570646 -2.938978 -32.797597 43.595892 -0.102507 2.422357 -0.006986 -0.001135 -957.974000 0 0 1
27.611346 -1.881278 -32.585697 42.752231 -0.068029 2.437499 -0.010357 0.000876 1059420.000000 0 0 1
26.256246 -2.257878 -32.299007 41.685901 -0.085783 2.457224 -0.008880 -0.006854 202966.000000 0 0 1
25.463446 -2.819278 -33.521417 42.190293 -0.110270 2.489028 -0.000013 -0.002905 -1001760.000000 0 0 1
25.829446 -4.061578 -34.022577 42.909119 -0.155969 2.486347 0.002825 -0.005970 -214783.000000 0 0 1
25.173646 -4.201078 34.167998 42.647551 -0.165360 0.641546 0.002991 -0.002764 -415996.000000 0 0 1
25.485446 -5.359978 33.225773 42.215984 -0.207294 0.664796 -0.000806 -0.008744 -638866.000000 0 0 1
26.688846 -5.352778 32.514143 42.404201 -0.197936 0.697007 0.002220 -0.007516 -468356.000000 0 0 1
26.705746 -4.499578 31.382653 41.452551 -0.166920 0.711973 0.006591 -0.007386 -453924.000000 0 0 1
27.180046 -2.999378 31.582253 41.775470 -0.109908 0.713616 -0.000251 -0.008000 20699.000000 0 0 1
28.542646 -2.974478 31.960423 42.953449 -0.103837 0.731653 -0.003196 -0.005133 -40836.500000 0 0 1
28.991146 -1.665478 32.265353 43.408679 -0.057385 0.732817 -0.001849 -0.001644 -492881.000000 0 0 1
30.331746 -1.686478 32.977803 44.837423 -0.055544 0.744396 -0.008033 -0.002529 -1016180.000000 0 0 1
31.396446 -1.939378 32.131063 44.965578 -0.061692 0.774787 -0.005915 -0.000364 -1605780.000000 0 0 1
32.581246 -1.862578 32.843293 46.299986 -0.057105 0.782209 0.000799 0.000288 -486193.000000 0 0 1
33.753046 -2.425778 31.993983 46.570028 -0.071745 0.813433 0.004161 -0.000417 10830.800000 0 0 1
33.979446 -1.665978 30.787713 45.883129 -0.048990 0.835236 -0.000337 0.001038 -377521.000000 0 0 1
-34.420083 -2.190478 30.147323 45.808312 0.063554 0.852479 -0.000337 -0.000060 -442754.000000 0 0 1
-34.071683 -1.599278 28.812743 44.649876 0.046904 0.869375 -0.001244 0.000769 -568242.000000 0 0 1
34.476146 -1.597278 27.837463 44.340504 -0.046297 0.892058 -0.005776 -0.000526 -643633.000000 0 0 1
-34.401083 -1.027378 26.729333 43.576912 0.029856 0.910459 -0.004230 -0.000121 -420013.000000 0 0 1
-25.243754 15.262522 12.892293 32.193212 -0.543799 1.158771 0.004661 -0.000816 -476738.000000 0 0 1
-26.488714 14.755922 13.230193 33.082128 -0.508251 1.159367 0.002778 -0.002898 -492559.000000 0 0 1
-27.429624 15.647222 13.752793 34.443565 -0.518408 1.160060 0.005124 -0.002986 -326959.000000 0 0 1
-28.782014 14.961522 13.971093 35.319158 -0.479379 1.164111 0.007647 0.002585 -442484.000000 0 0 1
-29.703104 15.786222 14.618093 36.676530 -0.488503 1.160841 0.003737 -0.005250 -864065.000000 0 0 1
-30.890334 15.132022 14.938193 37.501206 -0.455505 1.161091 0.005266 -0.003957 -357347.000000 0 0 1
-31.796214 15.980722 15.884393 38.970458 -0.465724 1.150971 0.005722 -0.004127 247124.000000 0 0 1
-31.141134 16.235522 17.131693 39.075021 -0.480584 1.116944 -0.002249 0.001150 110824.000000 0 0 1
-32.035964 16.787722 18.065993 40.429082 -0.482684 1.107548 -0.008263 -0.000811 -336568.000000 0 0 1
-31.437124 17.097222 19.435393 40.722749 -0.498113 1.073261 -0.010308 0.006294 28512.100000 0 0 1
-30.920494 15.914222 20.067493 40.150264 -0.475324 1.047417 -0.014756 0.007648 53551.100000 0 0 1
-29.833074 16.203722 20.951693 39.894189 -0.497566 1.017868 -0.010868 0.009423 360674.000000 0 0 1
-30.043634 16.820822 22.359293 41.054817 -0.510397 0.994860 -0.011985 0.007604 -262073.000000 0 0 1
-30.708204 18.107522 22.416993 42.111729 -0.532785 1.009455 -0.008764 0.010678 367210.000000 0 0 1
-31.029624 18.586322 23.746593 43.268806 -0.539674 0.989850 -0.008523 0.000863 -778226.000000 0 0 1
-31.898614 17.701422 24.718293 44.066494 -0.506619 0.975286 -0.021246 0.003571 361096.000000 0 0 1
-33.222194 17.476422 24.230593 44.679538 -0.484267 0.997601 -0.010513 0.008342 120654.000000 0 0 1
-34.045254 18.570422 24.521793 45.883093 -0.499353 1.006950 -0.011457 0.009990 -1211170.000000 0 0 1
33.983405 18.227322 24.400293 45.634213 0.492310 1.006652 -0.012009 0.005086 -79486.200000 0 0 1
33.583238 17.467722 25.509993 45.647726 0.479623 0.977804 -0.009157 0.007882 -165252.000000 0 0 1
32.521105 16.618622 25.144993 44.340405 0.472417 0.967828 -0.005277 0.005346 -154143.000000 0 0 1
32.060415 15.556622 26.145893 44.198262 0.451761 0.937805 -0.014238 0.001230 -575902.000000 0 0 1
31.156945 16.075922 27.096693 44.310509 0.476339 0.912818 0.000729 -0.003207 167240.000000 0 0 1
31.074965 15.360822 28.293193 44.744978 0.459089 0.886251 -0.002747 -0.003337 -212757.000000 0 0 1
30.173345 14.131822 28.391493 43.774604 0.438012 0.865074 -0.002331 0.008582 -291799.000000 0 0 1
30.784765 12.954422 27.886393 43.510570 0.398313 0.875112 -0.005318 0.001055 464024.000000 0 0 1
29.809345 11.954622 27.641793 42.374270 0.381399 0.860148 -0.000657 0.002164 -643273.000000 0 0 1
30.522935 10.691722 27.183593 42.248197 0.336929 0.871831 0.009923 0.002422 -196368.000000 0 0 1
31.353245 10.119622 28.156493 43.338445 0.312206 0.863622 0.009151 -0.000211 59795.800000 0 0 1
32.023945 8.988522 27.603693 43.223725 0.273640 0.878088 -0.000402 -0.000452 10293.400000 0 0 1
33.084745 8.301322 28.502193 44.450954 0.245836 0.874728 0.003138 -0.006383 -720566.000000 0 0 1
34.265018 8.982022 28.653493 45.560847 0.256366 0.890651 0.004394 -0.005421 -833874.000000 0 0 1
-34.291810 8.156622 29.296393 45.833801 -0.233520 0.877355 0.006980 -0.006537 446151.000000 0 0 1
-32.974744 8.926922 29.578393 45.187443 -0.264383 0.857181 0.012183 -0.005530 265250.000000 0 0 1
-32.146814 9.067522 28.444993 43.872032 -0.274923 0.865364 0.011803 -0.005123 528007.000000 0 0 1
-30.919384 9.749322 28.725493 43.315257 -0.305447 0.845747 0.009657 -0.004944 464304.000000 0 0 1
-30.352244 10.486022 27.478593 42.264506 -0.332640 0.863004 0.000498 -0.004634 -211055.000000 0 0 1
-30.036154 9.460522 26.566293 41.199999 -0.305135 0.870018 -0.001770 -0.009295 340103.000000 0 0 1
-29.364594 10.081122 25.448993 40.144235 -0.330701 0.884161 -0.001148 -0.005934 97496.200000 0 0 1
-28.733104 9.127422 24.444193 38.812622 -0.307581 0.889501 -0.000563 -0.004264 -70781.900000 0 0 1
-27.856484 9.723422 23.523093 37.734130 -0.335832 0.897725 -0.003210 -0.000494 -22505.600000 0 0 1
-27.359414 8.662322 22.655393 36.562825 -0.306627 0.902526 0.008253 0.003741 -51234.100000 0 0 1
-26.186124 9.202322 21.814293 35.302396 -0.337939 0.904693 -0.002408 0.002342 -2329210.000000 0 0 1
-25.164114 9.667822 22.627793 35.195403 -0.366804 0.872493 0.001837 -0.000275 -305293.000000 0 0 1
-24.109354 10.271722 21.905893 34.156074 -0.402757 0.874544 0.002757 0.002654 369685.000000 0 0 1
-23.360254 9.467622 20.807993 32.685010 -0.385056 0.880687 0.002772 0.000864 -1592750.000000 0 0 1
-24.071154 9.391022 19.587793 32.423655 -0.371974 0.922135 0.001953 -0.000547 -22392.200000 0 0 1
-23.546354 8.548722 18.615793 31.209921 -0.348261 0.931700 0.003663 -0.005058 -655028.000000 0 0 1
-23.456554 6.990122 18.918093 30.934867 -0.289624 0.912783 0.006209 0.000036 -263163.000000 0 0 1
-22.282354 6.541822 19.593693 30.384396 -0.285563 0.869956 0.012075 -0.005045 622258.000000 0 0 1
-22.174854 5.199722 20.035893 30.334770 -0.230326 0.849322 0.010208 -0.004219 -585129.000000 0 0 1
-22.409354 4.016222 19.087893 29.709541 -0.177338 0.873061 0.016437 -0.001505 241809.000000 0 0 1
-23.780354 3.809222 18.713293 30.499225 -0.158834 0.910227 0.014161 -0.004602 979558.000000 0 0 1
-23.904454 2.950722 17.559093 29.806902 -0.122817 0.940858 0.020603 -0.000361 -150624.000000 0 0 1
-23.804354 1.393322 17.806993 29.760336 -0.058466 0.929361 0.015790 -0.000148 538412.000000 0 0 1
-22.480354 0.886722 18.065693 28.853455 -0.039424 0.894231 0.016850 0.000585 1181150.000000 0 0 1
-22.568454 -0.497178 18.295793 29.057156 0.022026 0.889696 0.013334 0.007613 39673.900000 0 0 1
-21.173654 -1.128478 18.556393 28.176884 0.053246 0.851882 0.014802 0.003281 181864.000000 0 0 1
-20.581054 -0.766778 19.791793 28.563662 0.037239 0.805291 0.007954 0.010361 -954888.000000 0 0 1
-19.454154 -1.511578 20.028593 27.962359 0.077544 0.772354 0.006591 0.007141 -413634.000000 0 0 1
-18.543954 -0.823578 21.148693 28.139362 0.044383 0.720358 0.007765 0.002898 734351.000000 0 0 1
-18.997354 -1.058578 22.505693 29.470770 0.055665 0.701831 0.006890 0.004197 134704.000000 0 0 1
-17.929754 -0.916378 23.441493 29.526588 0.051065 0.653581 -0.000165 0.002488 15923.100000 0 0 1
-18.344654 -0.968978 24.962893 30.993729 0.052772 0.634417 -0.001258 0.005565 361440.000000 0 0 1
-19.106454 0.124722 25.483393 31.850831 -0.006528 0.643358 0.004814 -0.000236 7494.240000 0 0 1
-20.501454 -0.012378 25.290193 32.556161 0.000604 0.681200 -0.004329 0.003816 -356966.000000 0 0 1
-21.240554 1.194522 25.806193 33.444695 -0.056179 0.689431 -0.001185 -0.000185 -801530.000000 0 0 1
-20.879454 2.371622 25.112293 32.744518 -0.113102 0.696775 -0.002289 -0.000052 -88508.900000 0 0 1
-21.967154 3.143922 24.683493 33.192091 -0.142154 0.732274 -0.000415 -0.003163 -837928.000000 0 0 1
-21.509654 4.285522 23.770293 32.342816 -0.196662 0.745206 -0.000393 -0.000851 42839.600000 0 0 1
-21.042054 3.939522 22.464093 31.031006 -0.185079 0.761323 0.004155 -0.002434 825016.000000 0 0 1
-19.766354 3.291822 22.496493 30.127015 -0.165022 0.727677 0.005831 0.001319 -230536.000000 0 0 1
-19.210754 2.686822 21.200193 28.735349 -0.138959 0.741029 0.009580 0.003797 -238523.000000 0 0 1
-18.860654 3.567322 20.152193 27.830935 -0.186933 0.761078 0.011355 -0.001109 278848.000000 0 0 1
-18.538554 2.762822 18.982793 26.676911 -0.147942 0.779050 0.005603 0.000144 -32438.200000 0 0 1
-17.954454 3.641022 17.891293 25.606988 -0.200079 0.797234 -0.007678 0.002044 -615748.000000 0 0 1
-16.645454 4.115522 18.033093 24.883752 -0.242385 0.760207 -0.007959 -0.000708 -244786.000000 0 1 0
-16.231954 4.646722 16.756893 23.787850 -0.278813 0.789176 -0.009250 0.001334 -122635.000000 0 1 0
-14.804554 5.212822 16.762893 22.963948 -0.338553 0.752525 -0.014574 0.004946 -1184660.000000 0 1 0
-14.419854 6.301422 17.653793 23.649450 -0.411988 0.728043 -0.014947 0.000126 -745667.000000 0 1 0
-15.126054 7.505522 17.626593 24.409571 -0.460602 0.763937 -0.011555 -0.003787 -737721.000000 0 1 0
-14.833554 8.475522 16.417993 23.694288 -0.519106 0.805280 -0.006520 -0.003633 -120552.000000 0 1 0
-15.321154 7.941222 15.258293 23.035109 -0.478194 0.846788 -0.010432 -0.003130 98183.100000 0 1 0
-16.696154 8.218222 15.046893 23.931354 -0.457406 0.890849 -0.006009 -0.002389 -285051.000000 0 1 0
-17.193854 7.582122 13.792393 23.309811 -0.415326 0.937632 -0.007180 -0.002359 -484769.000000 0 1 0
-17.163654 6.211122 13.746593 22.850336 -0.347216 0.925303 0.010985 -0.001417 394030.000000 0 1 0
-17.757354 5.627222 12.588493 22.482424 -0.306884 0.976500 0.022732 -0.004473 -124568.000000 0 1 0
-17.319954 4.151822 12.578793 21.804689 -0.235274 0.955887 0.005540 -0.004950 -306427.000000 0 1 0
-17.859354 3.311622 13.560093 22.667145 -0.183345 0.929510 0.001291 -0.001420 -11105.600000 0 1 0
-17.570354 2.000822 13.469493 22.229437 -0.113386 0.919861 0.003712 -0.007650 -481815.000000 0 1 0
-18.311054 1.137722 14.543393 23.411523 -0.062053 0.900515 0.006476 -0.008642 526703.000000 0 1 0
-19.700954 1.045922 14.295893 24.363787 -0.053040 0.943734 0.013964 -0.002617 484810.000000 0 1 0
-20.518954 0.457422 15.296893 25.597493 -0.022289 0.930300 0.009770 -0.004435 589490.000000 0 0 1
-21.927054 0.042822 14.780193 26.443367 -0.001953 0.977692 0.015006 -0.006233 156301.000000 0 0 1
-21.795354 -1.125178 13.968093 25.911602 0.051579 1.001467 0.007603 -0.007412 1040670.000000 0 0 1
-23.069754 -1.638278 13.530893 26.795197 0.070895 1.041444 0.021734 -0.008209 563109.000000 0 0 1
-23.049354 -2.715378 12.475793 26.349410 0.117267 1.077564 0.015824 -0.010626 -345525.000000 0 0 1
-22.640054 -3.906578 13.033793 26.414260 0.170869 1.054759 0.014710 -0.009577 102420.000000 0 0 1
-22.566954 -4.944878 12.066393 26.063712 0.215711 1.089467 0.015890 -0.008006 42608.100000 0 0 1
-22.223454 -6.351578 12.607693 26.328281 0.278384 1.071435 0.009632 -0.002958 -441584.000000 0 0 1
-23.291054 -6.673078 13.407693 27.690601 0.279034 1.065352 0.011389 -0.004443 -266601.000000 0 0 1
-23.217254 -8.023278 13.823693 28.187025 0.332726 1.058216 0.011705 -0.003117 376567.000000 0 0 1
-24.214354 -8.393078 15.004593 29.697079 0.333657 1.041119 0.012177 0.001855 823129.000000 0 0 1
-25.595864 -8.278378 14.684993 30.648472 0.312808 1.071119 0.008985 -0.002279 438814.000000 0 0 1
-26.338544 -8.581978 15.845093 31.912948 0.314986 1.051223 0.001629 0.001220 -569155.000000 0 0 1
-27.788174 -8.069678 15.981893 33.056364 0.282626 1.066177 -0.003747 -0.003121 467054.000000 0 0 1
-28.791294 -8.709378 15.163893 33.685836 0.293749 1.103856 -0.004513 -0.003714 952643.000000 0 0 1
-28.997474 -10.150778 15.142293 34.251727 0.336726 1.112871 -0.003822 -0.005449 -756486.000000 0 0 1
-29.472584 -10.862878 16.394793 35.431971 0.353127 1.089745 -0.006184 -0.003271 -519366.000000 0 0 1
-28.404724 -10.984978 17.296893 35.024000 0.369015 1.054275 -0.006700 0.003428 361663.000000 0 0 1
-28.792734 -11.590978 18.548093 36.158043 0.382717 1.032152 -0.007642 0.006971 464567.000000 0 0 1
-27.507904 -11.760078 19.405693 35.659012 0.404000 0.995359 -0.005068 0.008022 611288.000000 0 0 1
-26.544394 -12.689478 18.943093 34.992406 0.445932 0.998756 -0.001831 0.004698 -433400.000000 0 0 1
-25.380734 -12.631778 19.702393 34.524307 0.461799 0.963460 -0.004858 0.003916 -389283.000000 0 0 1
-24.290654 -13.554478 19.095693 33.740261 0.508974 0.969197 0.009554 0.008162 -259671.000000 0 0 1
-23.779554 -12.998878 17.933893 32.497116 0.500261 0.986202 0.008896 0.008115 -863592.000000 0 0 1
-22.721754 -13.767178 17.511493 31.819266 0.544749 0.988022 0.010033 0.006809 -965652.000000 0 0 1
-22.327454 -13.621778 16.032493 30.677498 0.547806 1.020882 0.011104 0.006021 5326.310000 0 0 1
-21.739354 -12.343478 15.700093 29.520398 0.516402 1.010026 0.012523 0.001133 22947.000000 0 0 1
-21.607754 -12.045778 14.303593 28.576014 0.508564 1.046568 0.015062 0.004090 54770.000000 0 0 1
-20.365954 -11.284578 13.774893 27.052938 0.505978 1.036561 0.006065 -0.000192 -306483.000000 0 0 1
-20.416054 -9.847978 13.726393 26.499279 0.449440 1.026295 0.004669 -0.001042 39416.800000 0 0 1
-19.288554 -9.174778 13.193993 25.105902 0.443986 1.017454 0.001219 -0.004273 -30054.400000 0 0 1
-18.725754 -9.478678 11.785193 24.070521 0.468583 1.059153 -0.005414 -0.001227 -481286.000000 0 1 0
-18.032654 -10.645478 11.474493 23.878166 0.533290 1.069522 -0.016370 -0.001320 -136823.000000 0 1 0
-17.838454 -10.710578 10.062393 23.112306 0.540729 1.120348 -0.014946 -0.005542 -1078290.000000 0 1 0
-17.008754 -11.932678 9.658593 22.912332 0.611773 1.135647 -0.039083 -0.004466 1212300.000000 0 1 0
-15.581054 -11.878378 9.912893 21.957472 0.651365 1.102397 -0.029893 -0.004564 1402810.000000 0 1 0
-15.291554 -11.901378 11.301293 22.431978 0.661367 1.042801 -0.009260 -0.002006 -1279790.000000 0 1 0
-13.776154 -12.174378 11.342793 21.602242 0.723752 1.017993 -0.004393 0.002512 -111412.000000 0 1 0
-13.520754 -13.588578 11.106393 22.154282 0.787900 1.045672 -0.004178 0.000117 920497.000000 0 1 0
-12.108554 -13.846978 11.005593 21.435460 0.852275 1.031620 0.000086 -0.000843 913294.000000 0 1 0
-11.859654 -15.354478 11.010093 22.307701 0.913119 1.054623 0.008342 -0.001940 30983.600000 0 1 0
-12.318954 -16.025478 9.817693 22.471308 0.915428 1.118648 0.005994 -0.002811 288428.000000 0 1 0
-12.071454 -17.432178 9.929193 23.413451 0.965134 1.132850 0.001747 -0.002138 159148.000000 0 1 0
-12.482754 -18.228078 8.681593 23.737145 0.970339 1.196370 0.003585 0.009103 -12848.300000 0 1 0
-11.615254 -18.000678 7.596193 22.729731 0.997755 1.230044 0.001258 0.004554 -138485.000000 0 1 0
-12.004754 -18.790078 6.512593 23.229185 1.002272 1.286625 -0.003494 0.010161 -308925.000000 0 1 0
-11.175254 -18.584178 5.260193 22.314292 1.029398 1.332825 0.003945 0.009351 -165965.000000 0 1 0
-11.696554 -19.233378 4.076293 22.876809 1.024414 1.391655 0.005617 0.007263 244064.000000 0 1 0
-10.799654 -19.101978 2.994893 22.146952 1.056231 1.435153 0.009196 0.005325 59932.100000 0 1 0
-11.046054 -19.966478 1.779693 22.887614 1.065477 1.492960 0.005954 0.004204 -3210.710000 0 1 0
-10.896654 -21.334178 2.104793 24.048168 1.098577 1.483160 -0.001631 0.002616 390761.000000 0 1 0
-11.523054 -22.312578 1.166593 25.139468 1.094085 1.524375 0.006324 0.002455 798912.000000 0 0 1
-10.573054 -22.719578 -0.041607 25.059338 1.135233 1.572457 0.010123 0.005660 578587.000000 0 0 1
-10.376754 -21.680878 -1.001107 24.057010 1.124404 1.612422 0.003139 0.000055 27775.900000 0 1 0
-11.446154 -21.622478 -1.925807 24.540879 1.083935 1.649351 0.011347 -0.000346 281659.000000 0 1 0
-12.203754 -20.211078 -1.957407 23.690731 1.027576 1.653514 0.004439 -0.007031 342501.000000 0 1 0
-13.081254 -20.096678 -0.855307 23.994317 0.993777 1.606450 0.003566 -0.007308 -669769.000000 0 1 0
-14.055354 -19.166078 -1.107707 23.793246 0.938040 1.617369 0.018224 -0.004111 -530123.000000 0 1 0
24.995746 -20.324978 -4.291807 32.500949 -0.682700 1.703235 -0.009005 0.005453 58328.700000 0 0 1
23.914646 -20.588478 -3.419107 31.740920 -0.710797 1.678725 -0.011542 -0.000126 72391.300000 0 0 1
24.152446 -21.815578 -2.694607 32.657633 -0.734605 1.653401 -0.007680 0.002675 -542288.000000 0 0 1
22.966246 -22.355678 -1.897207 32.106451 -0.771927 1.629922 -0.001637 0.002047 -654340.000000 0 0 1
22.029346 -22.878278 -2.817607 31.884896 -0.804300 1.659280 0.000039 -0.004657 -341288.000000 0 0 1
20.966746 -23.392178 -2.013307 31.477799 -0.840021 1.634800 0.005370 -0.008188 -53717.900000 0 0 1
19.751346 -23.875278 -2.820007 31.114257 -0.879646 1.661555 0.003277 -0.010075 -333550.000000 0 0 1
19.142946 -22.841478 -3.542007 30.012186 -0.873264 1.689091 0.001430 -0.011499 221576.000000 0 0 1
18.154846 -23.359578 -4.465107 29.919985 -0.910119 1.720591 0.002374 -0.009032 664591.000000 0 0 1
17.261346 -22.264278 -5.169107 28.642134 -0.911303 1.752263 0.004044 -0.002959 198123.000000 0 0 1
16.215046 -21.755678 -4.366107 27.482724 -0.930294 1.730340 0.000611 0.003979 142177.000000 0 0 1
16.673846 -20.947378 -3.269107 26.972150 -0.898507 1.692298 -0.002395 0.002856 -457036.000000 0 0 1
15.611046 -20.433978 -2.268707 25.814710 -0.918411 1.658794 0.002793 0.005596 -262603.000000 0 0 1
15.134046 -21.419778 -1.368107 26.262482 -0.955691 1.622914 0.004167 0.000804 65249.700000 0 0 1
14.282346 -20.734578 -0.473407 25.181983 -0.967615 1.589597 0.004972 0.005504 -336112.000000 0 0 1
14.031346 -21.465978 0.786993 25.657090 -0.991856 1.540118 0.008427 0.000197 -245991.000000 0 0 1
13.266946 -22.654178 0.620993 26.260413 -1.041011 1.547147 0.013737 -0.002930 155343.000000 0 0 1
12.624146 -22.982578 1.861193 26.287487 -1.068497 1.499936 0.013095 -0.003876 313717.000000 0 0 1
11.592746 -24.173778 1.810893 26.870851 -1.123635 1.503353 0.010723 -0.003947 274150.000000 0 0 1
12.148946 -25.418158 1.879393 28.234939 -1.124933 1.504184 0.005986 -0.011959 -55350.700000 0 0 1
11.143846 -26.359778 1.602193 28.663395 -1.170825 1.514870 0.007525 -0.009409 35738.200000 0 0 1
11.466646 -27.770138 2.132593 30.119968 -1.179208 1.499934 0.005590 -0.006651 42675.300000 0 0 1
11.019746 -27.855418 3.455493 30.154594 -1.194084 1.455951 0.005248 -0.010990 -35518.100000 0 0 1
11.637246 -28.941098 4.027893 31.452131 -1.188480 1.442379 0.002144 -0.010805 -94019.000000 0 0 1
11.066646 -29.259138 5.433093 31.750375 -1.209198 1.398831 -0.001508 -0.008409 -195839.000000 0 0 1
11.783446 -30.295598 6.039293 33.062757 -1.199853 1.387104 0.003428 -0.010227 -195595.000000 0 0 1
11.354946 -30.589518 7.373593 33.451805 -1.215358 1.348547 -0.004526 -0.008635 -405511.000000 0 0 1
12.184446 -31.761858 7.953293 34.936102 -1.204491 1.341130 0.006085 -0.005864 55019.000000 0 0 1
11.902446 -32.165168 9.299293 35.535097 -1.216380 1.306020 0.007738 -0.005412 -694221.000000 0 0 1
10.800546 -33.011438 9.480093 36.003875 -1.254598 1.304347 0.001817 -0.009342 -315840.000000 0 0 1
10.642746 -33.464968 10.984193 36.794356 -1.262885 1.267645 -0.002549 -0.006669 -73506.300000 0 0 1
11.679946 -34.322343 11.455593 38.022033 -1.242788 1.264753 -0.003871 -0.010624 96915.000000 0 0 1
11.842746 -34.507897 12.908393 38.699770 -1.240202 1.230727 -0.006161 -0.007228 166725.000000 0 0 1
10.758946 34.023366 13.527893 38.162131 1.264524 1.208433 -0.008299 -0.005173 329517.000000 0 0 1
10.960346 32.671843 13.070593 36.856735 1.247126 1.208275 -0.003603 -0.004791 279968.000000 0 0 1
9.738446 31.984153 13.243393 35.961240 1.275237 1.193650 -0.005144 -0.002384 113187.000000 0 0 1
9.748046 30.780563 12.212293 34.519669 1.264094 1.209189 0.000544 -0.005056 -259532.000000 0 0 1
9.472946 31.077253 10.866493 34.258036 1.274924 1.248026 -0.002291 -0.002704 141570.000000 0 0 1
10.382046 31.920443 10.169393 35.073039 1.256341 1.276623 -0.009394 -0.006434 -123364.000000 0 0 1
9.857146 32.266833 8.784993 34.863848 1.274312 1.316071 -0.002961 -0.006145 250811.000000 0 0 1
8.643946 33.018163 8.772093 35.240126 1.314749 1.319228 -0.004296 -0.010089 -109251.000000 0 0 1
8.193646 33.152963 7.449093 34.953451 1.328505 1.356035 -0.001817 -0.004623 -563927.000000 0 0 1
8.794646 34.237216 6.568793 35.953884 1.319359 1.387064 -0.003555 -0.004854 -412751.000000 0 0 1
8.329546 -33.933028 6.869193 35.609234 -1.330086 1.376675 -0.000540 -0.008327 -93118.700000 0 0 1
8.858446 -32.953028 6.075393 34.659552 -1.308184 1.394598 -0.003741 -0.010039 -602306.000000 0 0 1
8.115346 -31.659138 6.327693 33.289631 -1.319864 1.379553 -0.004892 -0.011498 -368240.000000 0 0 1
8.264246 -31.183118 7.628593 33.149360 -1.311729 1.338587 -0.003964 -0.006625 1075170.000000 0 0 1
7.276346 -30.083218 7.825593 31.924679 -1.333480 1.323146 0.002296 -0.007855 1210740.000000 0 0 1
7.864246 -28.690898 7.512393 30.683058 -1.303265 1.323443 0.002044 -0.005073 -660805.000000 0 0 1
8.538646 -28.180618 8.627993 30.683839 -1.276592 1.285762 -0.002037 -0.003044 -149282.000000 0 0 1
9.428946 -27.110728 8.359493 29.896115 -1.236088 1.287400 0.006435 -0.002049 -170946.000000 0 0 1
9.061046 -25.827988 7.622893 28.412955 -1.233389 1.299180 0.001336 0.004828 -529292.000000 0 0 1
8.898146 -26.127058 6.241993 28.297750 -1.242545 1.348385 0.006476 0.004518 16340.800000 0 0 1
8.138646 -25.062878 5.646993 26.949470 -1.256809 1.359692 -0.000411 0.005244 417373.000000 0 0 1
7.650646 -25.344198 4.191093 26.803470 -1.277625 1.413788 0.007824 0.001471 -61172.400000 0 0 1
6.954846 -26.566758 3.998693 27.751614 -1.314755 1.426204 0.000959 -0.001241 -10531.400000 0 0 1
7.670246 -27.813038 3.880293 29.111071 -1.301706 1.437106 0.014286 -0.006499 285383.000000 0 0 1
6.600546 -28.890258 3.520393 29.843046 -1.346182 1.452557 0.009722 -0.004335 513380.000000 0 0 1
5.794846 -29.282788 4.632893 30.208039 -1.375428 1.416822 0.003329 -0.007338 159583.000000 0 0 1
4.582046 -29.878708 4.190693 30.517114 -1.418627 1.433038 -0.001179 -0.003593 444971.000000 0 0 1
4.656846 -31.403878 4.294393 32.036410 -1.423580 1.436344 0.004571 -0.007654 218467.000000 0 0 1
5.689746 -31.944858 3.468093 32.632420 -1.394533 1.464318 0.001598 -0.000879 162023.000000 0 0 1
5.771146 -33.356668 3.575193 34.040497 -1.399479 1.465575 0.004956 0.000896 52152.100000 0 0 1
7.037146 -33.990538 2.943593 34.835942 -1.366648 1.486197 0.002791 0.001907 38186.300000 0 0 1
7.036646 -34.065368 1.555093 34.819276 -1.367098 1.526120 0.002342 0.005748 -80241.500000 0 0 1
7.945146 34.408177 1.102793 35.330782 1.343865 1.539578 0.000924 0.005944 -306561.000000 0 0 1
7.553146 33.756801 -0.296207 34.592764 1.350670 1.579359 0.001095 0.008533 656463.000000 0 0 1
6.451146 32.836523 -0.212507 33.464902 1.376804 1.577147 0.006509 0.007434 812509.000000 0 0 1
5.183146 33.511040 -0.272007 33.910600 1.417342 1.578818 0.005978 0.004901 168823.000000 0 0 1
3.960146 32.619683 -0.023107 32.859199 1.449984 1.571500 0.005553 0.005857 -71866.900000 0 0 1
3.768146 31.694833 -1.084607 31.936464 1.452463 1.604764 0.011003 0.005428 4081.790000 0 0 1
2.631646 30.908533 -0.769807 31.029914 1.485858 1.595607 0.008787 0.001204 53004.500000 0 0 1
2.351046 29.797853 -1.824407 29.946083 1.492060 1.631757 0.000561 0.000956 -70697.100000 0 0 1
1.856546 30.324773 -3.044407 30.533703 1.509651 1.670669 -0.000166 -0.003412 15770.000000 0 0 1
1.723446 29.199923 -3.919407 29.512159 1.511842 1.703996 0.000031 -0.003097 -213377.000000 0 0 1
1.514546 29.608163 -5.398607 30.134401 1.519688 1.750920 -0.006222 -0.004964 -79089.700000 0 0 1
0.256646 30.221393 -5.598607 30.736669 1.562304 1.753966 0.000358 -0.003557 -87999.100000 0 0 1
-0.015654 31.167273 -6.644507 31.867673 -1.570294 1.780840 -0.005449 -0.003867 -454438.000000 0 0 1
0.149746 30.599713 -8.124907 31.660369 1.565903 1.830327 -0.003046 -0.001845 -190114.000000 0 0 1
-1.016754 29.947223 -8.616707 31.178800 -1.536858 1.850805 -0.002580 -0.003936 222578.000000 0 0 1
-1.050454 29.740983 -10.039607 31.407375 -1.535491 1.896164 -0.001836 0.000429 -3599.130000 0 0 1
-1.290554 31.011713 -10.913607 32.901348 -1.529205 1.908909 -0.004966 -0.002535 27153.700000 0 0 1
-0.091154 31.750573 -11.070607 33.625370 -1.567925 1.906288 -0.004445 -0.001960 -133624.000000 0 0 1
-0.238354 33.118083 -11.384007 35.020849 -1.563599 1.901875 -0.007219 -0.004859 -147428.000000 0 0 1
-0.597154 34.005648 -10.209407 35.510177 -1.553238 1.862419 -0.010564 -0.008630 -56494.900000 0 0 1
0.533846 34.172176 -9.391407 35.443210 1.555175 1.838970 -0.012200 -0.006841 -265410.000000 0 0 1
0.223446 -34.439877 -8.291707 35.424673 -1.564308 1.807054 -0.008247 -0.003437 -724334.000000 0 0 1
1.398646 -33.944668 -7.480707 34.787321 -1.529616 1.787530 -0.006221 -0.001437 -275071.000000 0 0 1
2.381746 -33.204288 -8.188907 34.282002 -1.499189 1.811997 -0.003296 -0.001893 -42536.000000 0 0 1
3.373146 -32.677338 -7.358507 33.665029 -1.467935 1.791156 -0.001351 0.001973 -1573400.000000 0 0 1
4.657746 -32.297688 -8.071307 33.615194 -1.427571 1.813274 0.002231 0.000569 -196787.000000 0 0 1
5.479246 -33.369568 -8.533307 34.876461 -1.408050 1.817978 0.007531 -0.000977 312971.000000 0 0 1
5.954946 -34.278662 -7.602807 35.613070 -1.398791 1.785936 0.008472 0.004423 -1823870.000000 0 0 1
5.897546 33.745381 -8.127807 35.207854 1.397778 1.803750 0.003066 0.001036 273948.000000 0 0 1
4.666346 33.049053 -8.319607 34.398118 1.430529 1.815081 -0.006344 -0.000011 -183560.000000 0 0 1
3.952846 33.467755 -9.441107 34.997858 1.453232 1.843943 -0.004595 -0.003132 -330229.000000 0 0 1
2.983546 32.363243 -9.885107 33.970522 1.478867 1.866059 -0.006180 -0.005315 -481977.000000 0 0 1
3.610646 31.307843 -10.627207 33.258913 1.455976 1.896029 0.002407 -0.004612 71964.700000 0 0 1
2.847646 30.110443 -10.535407 32.027217 1.476503 1.905990 -0.002131 -0.005598 -147120.000000 0 0 1
3.357846 28.876323 -11.338207 31.203719 1.455033 1.942669 -0.004303 -0.003626 -165904.000000 0 0 1
3.363446 29.183443 -12.703807 32.005825 1.456051 1.978957 -0.002237 -0.004052 835928.000000 0 0 1
4.669346 28.983313 -13.283907 32.222622 1.411064 1.995723 -0.002289 -0.007230 662658.000000 0 0 1
4.853246 29.471723 -14.690607 33.285889 1.407586 2.027895 -0.000664 -0.006211 52950.800000 0 0 1
4.082946 28.694283 -15.624907 32.926737 1.429454 2.065233 0.001240 -0.002634 319973.000000 0 0 1
4.224246 29.167403 -16.951307 33.998948 1.426969 2.092760 0.006480 -0.003603 35171.900000 0 0 1
3.190146 28.477353 -17.887107 33.779953 1.459237 2.128829 0.006468 0.004376 334540.000000 0 0 1
3.586246 27.200113 -18.357707 33.010797 1.439706 2.160497 0.002891 0.007269 -241868.000000 0 0 1
2.675846 26.793493 -19.339507 33.152194 1.471257 2.193650 0.007035 0.007467 -53138.800000 0 0 1
3.088146 25.594623 -20.175107 32.736162 1.450721 2.234825 0.001915 0.013430 81294.600000 0 0 1
3.054546 24.409973 -19.348807 31.297817 1.446308 2.237267 0.001481 0.013141 -31916.500000 0 0 1
3.823346 23.399033 -19.968407 30.997903 1.408830 2.270755 0.003426 0.009031 152847.000000 0 0 1
4.199746 22.165633 -19.089907 29.552964 1.383545 2.273071 0.003884 0.001528 -255536.000000 0 0 1
3.102446 21.311533 -18.919907 28.666522 1.426236 2.291615 0.004421 0.002560 -484956.000000 0 0 1
3.568446 20.085333 -18.338307 27.430784 1.394967 2.303027 -0.002263 0.002236 926847.000000 0 0 1
2.504946 18.973433 -17.879407 26.190439 1.439532 2.322206 -0.006366 0.000093 457460.000000 0 0 1
1.759846 19.095733 -16.688007 25.421126 1.478897 2.286916 -0.004143 -0.005469 -291354.000000 0 0 1
1.181546 17.893233 -16.246007 24.197037 1.504859 2.306899 -0.003431 -0.007106 -657907.000000 0 1 0
2.043046 16.884033 -15.516907 23.022142 1.450377 2.310406 -0.003706 -0.006033 -73037.700000 0 1 0
3.137146 16.299333 -16.234107 23.217583 1.380651 2.345097 -0.001250 -0.005061 -54149.200000 0 1 0
2.922546 15.259133 -17.131007 23.126907 1.381560 2.404966 0.000389 -0.005332 -481069.000000 0 1 0
2.769946 15.647833 -18.570207 24.441356 1.395593 2.433781 -0.005755 -0.003037 -265958.000000 0 1 0
3.892046 16.361833 -19.030707 25.397350 1.337263 2.417829 -0.000979 -0.002747 -464942.000000 0 0 1
3.751446 16.781833 -20.428307 26.702415 1.350870 2.441893 -0.003283 -0.001292 -394925.000000 0 0 1
4.073346 15.678833 -21.515807 26.932284 1.316617 2.496236 -0.005804 0.007044 526300.000000 0 0 1
3.137246 14.599933 -21.600007 26.259487 1.359134 2.536695 -0.003161 0.005338 715992.000000 0 0 1
1.845646 14.932033 -22.130507 26.760631 1.447817 2.544511 0.000963 0.003788 584066.000000 0 0 1
1.028646 13.698333 -22.598407 26.445991 1.495844 2.595406 0.005805 0.007942 -49747.700000 0 0 1
0.671346 12.774433 -21.595807 25.100114 1.518291 2.606825 0.000818 0.007135 181806.000000 0 0 1
-0.074554 11.726733 -22.205307 25.111700 -1.564439 2.655706 0.000458 0.005374 -140280.000000 0 0 1
-0.444254 10.702833 -21.106307 23.669056 -1.529312 2.671941 -0.003519 0.005472 238119.000000 0 1 0
-1.527554 11.231533 -20.290807 23.242152 -1.435620 2.632152 -0.000315 0.005434 618562.000000 0 1 0
-1.994954 10.377533 -19.272207 21.979331 -1.380875 2.640032 -0.001731 0.004895 485838.000000 0 1 0
-3.117254 9.371033 -19.708007 22.044026 -1.249663 2.677056 -0.000587 -0.000732 177416.000000 0 1 0
-2.632854 8.325433 -20.514807 22.295786 -1.264506 2.739184 -0.000919 -0.003753 -861041.000000 0 1 0
-3.697654 7.564933 -20.922907 22.553689 -1.116158 2.758983 -0.001161 0.002334 -748551.000000 0 1 0
-3.187254 6.439633 -21.860707 23.011258 -1.111202 2.824034 -0.001631 -0.000567 348928.000000 0 1 0
-2.589654 5.345133 -21.099407 21.919437 -1.119635 2.867196 -0.000946 -0.001800 315231.000000 0 1 0
-1.995554 4.434033 -22.006207 22.536993 -1.147897 2.924131 0.003275 0.001416 -399960.000000 0 1 0
-1.436554 3.206133 -21.323907 21.611386 -1.149553 2.978303 0.000094 0.003986 -52418.700000 0 1 0
-0.098554 3.375133 -20.891007 21.162122 -1.541605 2.981350 -0.000869 -0.006197 -182494.000000 0 1 0
0.277746 2.354033 -20.017607 20.157460 1.453352 3.023728 0.002727 -0.006874 -147415.000000 0 1 0
1.812446 2.420033 -19.852807 20.081720 0.927978 2.990458 -0.000159 -0.014326 -179346.000000 0 1 0
2.368946 1.884833 -21.006807 21.223818 0.672078 2.998468 -0.000467 -0.019698 -378989.000000 0 1 0
3.778846 1.996233 -20.999807 21.430271 0.486003 2.940822 0.000967 -0.015250 -260893.000000 0 1 0
4.374046 1.169133 -22.143707 22.601834 0.261183 2.939908 -0.004282 -0.005739 -808491.000000 0 1 0
5.760446 1.263633 -22.190107 22.960409 0.215943 2.881830 -0.002051 -0.001967 -624522.000000 0 1 0
6.354046 0.374133 -23.129507 23.989331 0.058813 2.873048 -0.000507 -0.002681 -347737.000000 0 1 0
7.874546 0.497833 -23.221007 24.524916 0.063136 2.814042 -0.007486 -0.004072 -420146.000000 0 1 0
8.260446 1.777233 -23.757007 25.214855 0.211919 2.799883 0.001174 -0.005882 -1004940.000000 0 0 1
9.621846 1.753333 -23.961107 25.880277 0.180246 2.754060 -0.001387 -0.002591 -1113780.000000 0 0 1
12.589346 -20.988578 23.315233 33.802546 -1.030510 0.809656 0.012257 0.006152 5765.060000 0 0 1
11.779846 -22.173578 23.288833 34.246198 -1.082458 0.822977 0.012759 0.008008 965714.000000 0 0 1
10.494946 -22.081678 22.639333 33.320921 -1.127121 0.823807 0.013699 0.007511 820209.000000 0 0 1
10.539046 -21.906178 21.088033 32.181629 -1.122383 0.856241 0.009194 0.004194 -597295.000000 0 0 1
10.891346 -20.628978 20.625333 31.138088 -1.085029 0.846801 0.007878 0.002129 -48766.200000 0 0 1
10.649246 -20.505678 19.221733 30.056019 -1.091803 0.876909 0.008443 -0.005155 70622.500000 0 0 1
11.016346 -19.076778 18.746333 28.925911 -1.047105 0.865734 0.003939 -0.000603 166860.000000 0 0 1
10.159446 -18.069378 19.274333 28.305771 -1.058599 0.821760 0.009204 0.000016 210021.000000 0 0 1
10.558546 -16.760878 18.835533 27.334726 -1.008644 0.810592 0.004382 0.002794 -161916.000000 0 0 1
9.551546 -15.743378 19.331633 26.698278 -1.025463 0.761100 0.005811 0.009949 79898.400000 0 0 1
8.260746 -15.756378 18.756633 25.851783 -1.087914 0.758970 0.007565 0.002434 44572.300000 0 0 1
7.483546 -14.640578 19.215433 25.289976 -1.098268 0.707784 0.005375 0.003362 760423.000000 0 0 1
6.013346 -14.754078 18.687233 24.557195 -1.183780 0.705993 0.002270 0.004917 256117.000000 0 1 0
5.976946 -14.728278 17.258033 23.462433 -1.185288 0.744303 0.002411 0.003546 467075.000000 0 1 0
4.665446 -14.882078 16.704933 22.853827 -1.267006 0.751088 0.001570 -0.000626 534444.000000 0 1 0
3.985546 -16.289278 16.829933 23.758616 -1.330838 0.783608 -0.009944 0.006304 462082.000000 0 1 0
2.611346 -16.156678 16.427333 23.188675 -1.410556 0.783539 -0.004723 0.003978 416628.000000 0 1 0
1.949546 -17.375478 16.734633 24.202395 -1.459063 0.807309 -0.004699 0.003179 63688.300000 0 1 0
0.437046 -17.284278 16.467633 23.877190 -1.545516 0.809749 -0.003834 0.007847 -105321.000000 0 1 0
0.176646 -17.643078 15.160133 23.262396 -1.560784 0.860971 -0.002371 0.011473 -1039640.000000 0 1 0
-1.175954 -17.783978 14.915933 23.240865 1.504768 0.873956 0.000912 0.013629 -1117420.000000 0 1 0
-1.483354 -18.267478 13.493033 22.758801 1.489772 0.936177 0.000585 0.007465 -979417.000000 0 1 0
-2.820954 -18.558978 13.323333 23.019658 1.419952 0.953564 -0.001065 0.008121 -858982.000000 0 1 0
-2.917054 -19.675978 12.491433 23.488066 1.423614 1.010048 0.000718 -0.001512 -198161.000000 0 1 0
-4.367554 -20.143678 12.304333 24.004998 1.357281 1.032617 0.001908 -0.001668 -115665.000000 0 1 0
-4.805854 -20.827178 13.473633 25.266705 1.344017 1.008351 -0.004948 0.001212 718733.000000 0 0 1
-6.197954 -21.169178 13.306133 25.760472 1.285975 1.027999 0.002208 -0.005624 818116.000000 0 0 1
-6.779054 -21.908478 14.513633 27.140054 1.270714 1.006563 0.006529 -0.004426 -898996.000000 0 0 1
-8.119654 -22.222478 14.407233 27.700825 1.220486 1.023827 0.001878 -0.008798 -954725.000000 0 0 1
-8.564954 -23.027278 15.508033 29.053624 1.214704 1.007741 0.005062 -0.007852 1058670.000000 0 0 1
-10.044054 -22.598878 15.839433 29.368009 1.152568 1.001139 0.006007 -0.008688 757856.000000 0 0 1
-10.052354 -21.276778 16.343033 28.650407 1.129425 0.963768 -0.000742 -0.004339 -655968.000000 0 0 1
-11.289354 -20.673678 16.107633 28.536053 1.070972 0.971010 0.001638 0.000826 -599443.000000 0 0 1
-11.626254 -19.395978 16.963533 28.268980 1.030807 0.927200 -0.000223 0.008713 -690382.000000 0 0 1
-11.937254 -19.751178 18.295633 29.450590 1.027161 0.900483 0.000354 0.005040 -42239.300000 0 0 1
-12.259554 -18.604078 19.057133 29.318641 0.988140 0.863211 0.000352 -0.001227 -164986.000000 0 0 1
-12.519854 -18.990078 20.560333 30.661003 0.987922 0.835820 -0.000450 0.000612 -10559.800000 0 0 1
-13.729654 -19.714178 20.649233 31.678748 0.962467 0.860798 0.001184 0.003017 -17301.700000 0 0 1
-13.888354 -20.262078 21.940433 32.936618 0.969912 0.841774 -0.003130 0.008504 -657022.000000 0 0 1
-15.127454 -21.139078 21.939033 34.015021 0.949667 0.869798 -0.005073 0.004008 -966090.000000 0 0 1
-15.286254 -22.074078 20.901733 34.026709 0.965123 0.909330 -0.005343 0.001544 714721.000000 0 0 1
-16.614354 -22.418978 20.474333 34.609907 0.933026 0.937786 -0.004472 0.002278 575249.000000 0 0 1
-17.519954 -23.209178 21.442033 36.129981 0.924185 0.935434 -0.006915 -0.000139 -582379.000000 0 0 1
-18.316354 -22.299678 22.188233 36.401678 0.883158 0.915318 0.006336 0.003138 -1991.160000 0 0 1
-18.826254 -23.033978 23.297933 37.786052 0.885580 0.906411 0.001606 -0.001201 -43357.000000 0 0 1
-19.487854 -22.174078 24.408853 38.304808 0.849786 0.879902 -0.001205 0.001672 -60419.100000 0 0 1
-20.573054 -21.373278 23.957433 38.131695 0.804473 0.891454 0.000296 0.006700 354408.000000 0 0 1
-20.554754 -20.129278 24.612353 37.860978 0.774940 0.863117 0.000142 -0.000992 164331.000000 0 0 1
-21.617354 -19.139378 24.037933 37.569243 0.724674 0.876519 -0.000180 0.002298 46270.900000 0 0 1
-21.264154 -18.463778 22.860133 36.272042 0.715026 0.888933 0.008348 0.003643 -68626.600000 0 0 1
-22.102254 -17.340678 22.690533 36.111896 0.665259 0.891379 0.003284 0.006335 -458850.000000 0 0 1
-21.796354 -16.564078 21.372133 34.730647 0.649837 0.907943 0.007725 0.007987 -173612.000000 0 0 1
-20.650954 -15.735378 21.347533 33.612218 0.651117 0.882642 0.007544 0.008588 -242386.000000 0 0 1
-20.412554 -15.411478 20.006433 32.472194 0.646693 0.907002 0.010197 0.013807 153894.000000 0 0 1
-19.529554 -14.169378 19.739333 31.173964 0.627659 0.885117 0.010472 0.010991 104855.000000 0 0 1
-19.396854 -14.035878 18.330133 30.153567 0.626401 0.917392 0.001208 0.012229 164457.000000 0 0 1
-18.491154 -12.985278 17.975133 28.872922 0.612230 0.898786 0.013459 0.003096 79460.300000 0 0 1
-18.190654 -12.877878 16.446733 27.699001 0.616034 0.935065 0.006557 -0.000264 414539.000000 0 0 1
-17.615754 -11.630778 15.940233 26.451481 0.583546 0.924014 0.002204 -0.003723 -86196.500000 0 0 1
-16.266154 -11.355678 16.205733 25.615718 0.609461 0.885829 -0.011171 -0.004213 -180566.000000 0 0 1
-15.715454 -10.161078 15.383533 24.225526 0.573957 0.882770 -0.008365 -0.006269 265657.000000 0 1 0
-16.420154 -8.961978 15.737133 24.445774 0.499606 0.871399 -0.008229 -0.005139 264135.000000 0 1 0
-16.195154 -7.843178 14.911933 23.370156 0.451002 0.878800 -0.007218 -0.004547 -663863.000000 0 1 0
-16.484154 -6.469678 15.663333 23.641575 0.374006 0.846600 -0.002066 0.001146 690730.000000 0 1 0
-15.635854 -6.207678 16.798833 23.774272 0.377931 0.786119 -0.002978 0.001297 -28065.600000 0 1 0
-14.261154 -6.055978 16.568633 22.684246 0.401573 0.751885 -0.003299 -0.000702 -928737.000000 0 1 0
-13.510554 -6.023878 17.890733 23.214231 0.419410 0.690889 0.000194 -0.001622 -381343.000000 0 1 0
-13.505454 -7.216078 18.610433 24.100151 0.490716 0.688481 -0.003153 -0.001592 386798.000000 0 1 0
-12.821054 -8.378978 18.018933 23.648862 0.578855 0.704498 -0.007167 0.001249 -132215.000000 0 1 0
-12.779054 -9.607878 18.971833 24.810200 0.644681 0.700254 -0.003602 0.000072 137031.000000 0 1 0
-14.019954 -10.232778 19.287533 25.947597 0.630495 0.732767 -0.002422 0.003502 133471.000000 0 0 1
-14.716054 -9.551378 20.339933 26.860826 0.575703 0.711728 -0.002653 0.004844 -265490.000000 0 0 1
-16.004654 -10.380078 20.706433 28.154065 0.575367 0.744438 -0.000933 0.006942 1280770.000000 0 0 1
-17.107454 -10.442178 19.783633 28.161964 0.548022 0.791899 0.008293 0.007548 805259.000000 0 0 1
-17.756654 -9.214178 19.580933 27.993085 0.478664 0.796110 0.001565 0.005738 -348783.000000 0 0 1
-18.846054 -9.119078 18.458133 27.911181 0.450662 0.848223 0.004465 0.003260 1241420.000000 0 0 1
-20.144354 -9.635378 18.818533 29.202272 0.446151 0.870532 0.003719 0.008806 352085.000000 0 0 1
-20.990454 -9.358878 17.726333 29.024311 0.419409 0.913800 0.009502 0.002170 517610.000000 0 0 1
-22.480754 -9.700178 18.095533 30.445461 0.407353 0.934328 0.010975 0.008038 541476.000000 0 0 1
-23.110754 -8.702278 18.893433 31.093382 0.360126 0.917717 0.006661 0.009862 -627277.000000 0 0 1
-24.430854 -9.060778 19.096733 32.305565 0.355149 0.938339 0.000054 0.011475 -850004.000000 0 0 1
-25.178614 -7.805378 19.723633 32.922762 0.300606 0.928435 0.001825 0.006542 21023.200000 0 0 1
-25.013454 -7.702478 21.098233 33.617503 0.298719 0.892334 0.001124 0.005318 277471.000000 0 0 1
-25.368544 -6.426178 21.568733 33.912668 0.248094 0.881482 -0.000854 0.005450 -762072.000000 0 0 1
-25.451904 -6.262578 23.111533 34.945132 0.241263 0.848157 -0.001843 0.001888 289124.000000 0 0 1
-24.310554 -6.144278 23.955333 34.678714 0.247557 0.808230 -0.004650 0.001530 96883.100000 0 0 1
-23.278654 -7.100878 23.817133 34.052519 0.296073 0.796206 -0.002063 0.002965 -416683.000000 0 0 1
-22.262854 -6.928778 24.950983 34.149586 0.301724 0.751540 0.001869 0.000814 -178428.000000 0 0 1
-21.740954 -5.605778 24.943093 33.559674 0.252348 0.732887 -0.003440 0.000270 16983.600000 0 0 1
-20.815654 -5.413578 25.995493 33.739650 0.254436 0.691213 0.000566 -0.003023 56807.200000 0 0 1
-20.360554 -3.951278 26.102893 33.339553 0.191683 0.671417 0.001346 -0.004009 87588.800000 0 0 1
-19.269154 -3.721278 26.976583 33.359920 0.190772 0.628938 -0.004111 -0.006334 -258876.000000 0 0 1
-19.548954 -3.702278 28.370523 34.651913 0.187168 0.611603 -0.001030 -0.006361 -185425.000000 0 0 1
-20.198454 -2.389478 28.864663 35.310847 0.117753 0.613836 0.004350 -0.006637 478172.000000 0 0 1
-21.474154 -2.130378 28.288993 35.580120 0.098883 0.651659 -0.002629 -0.002298 68378.300000 0 0 1
-22.201954 -1.088478 29.028663 36.561932 0.048987 0.653503 0.003260 0.002865 10225.700000 0 0 1
-23.571054 -1.047578 28.375173 36.903150 0.044414 0.693663 0.000747 0.005348 -1363240.000000 0 0 1
-23.511154 -0.528378 27.042833 35.838086 0.022470 0.715777 -0.002012 0.002438 -272800.000000 0 0 1
-24.715554 -0.065478 26.484953 36.225898 0.002649 0.750855 0.001093 0.006120 -308194.000000 0 0 1
-25.727824 -1.160078 26.074863 36.649218 0.045060 0.779207 0.001281 0.012053 -59774.000000 0 0 1
-26.482534 -1.904178 27.041773 37.897335 0.071780 0.776239 -0.002533 0.000831 392361.000000 0 0 1
-26.984074 -3.131578 26.558703 37.990943 0.115536 0.796686 -0.002414 0.001362 -307822.000000 0 0 1
-25.935564 -4.241378 26.436553 37.276455 0.162100 0.782430 -0.001848 -0.002090 -30127.600000 0 0 1
-25.346324 -4.521878 27.683693 37.805693 0.176546 0.749158 -0.002485 -0.004661 -176336.000000 0 0 1
-24.365154 -5.533878 27.676383 37.286281 0.223334 0.734349 0.002013 -0.009757 -66081.300000 0 0 1
-23.965254 -6.022078 29.053673 38.140723 0.246187 0.704787 -0.002840 -0.009558 105944.000000 0 0 1
-25.088654 -6.539578 29.742703 39.456749 0.254985 0.716962 -0.003128 -0.011492 180554.000000 0 0 1
-24.719454 -7.090378 30.993783 40.273310 0.279334 0.692603 0.002355 -0.006700 -1381090.000000 0 0 1
-25.864874 -7.579778 31.768583 41.661585 0.285071 0.703568 -0.009380 -0.008363 -1190770.000000 0 0 1
-26.664504 -8.599178 31.193043 41.927886 0.311965 0.731806 -0.016990 -0.008175 -195354.000000 0 0 1
-27.775724 -8.925078 31.971843 43.282175 0.310906 0.739681 -0.005836 -0.006787 -567139.000000 0 0 1
-28.773674 -9.730278 31.136023 43.497754 0.326094 0.773016 -0.006556 -0.013943 -625629.000000 0 0 1
-28.316994 -11.052778 30.899933 43.345380 0.372137 0.777204 -0.007509 -0.009913 442535.000000 0 0 1
-29.257134 -11.752878 30.104493 43.593469 0.381979 0.808515 -0.006917 -0.011291 -209480.000000 0 0 1
-28.646914 -13.006178 29.488783 43.120699 0.426189 0.817748 -0.004017 -0.007958 -5855.390000 0 0 1
-27.713264 -12.607578 28.480663 41.690817 0.426946 0.818743 -0.003892 -0.005710 -417880.000000 0 0 1
-26.906704 -13.668778 28.059673 41.208634 0.470032 0.821782 -0.001339 -0.000580 -1577750.000000 0 0 1
-25.688804 -13.044878 27.449743 39.794119 0.469871 0.809592 0.002910 -0.001965 -1603940.000000 0 0 1
-24.777754 -12.393678 28.280003 39.589127 0.463803 0.775119 0.004701 -0.005614 -305123.000000 0 0 1
-25.141264 -11.174878 28.916983 39.914321 0.418257 0.760522 0.002447 -0.004655 -972791.000000 0 0 1
-25.225844 -9.906578 27.997103 38.965642 0.374211 0.769142 0.000338 -0.001117 375101.000000 0 0 1
-23.979354 -9.474878 27.470693 37.675214 0.376298 0.753725 0.002133 -0.006929 458324.000000 0 0 1
-23.256154 -10.200078 26.434603 36.656221 0.413331 0.765337 0.003024 -0.005310 400578.000000 0 0 1
-23.892754 -10.262578 25.026763 36.090485 0.405699 0.804537 -0.000541 0.002786 168205.000000 0 0 1
-25.183034 -10.840678 24.872733 37.018352 0.406499 0.834021 0.000575 0.000048 12452.200000 0 0 1
-25.666954 -10.598978 23.576533 36.427789 0.391614 0.866874 -0.000624 0.007325 -816152.000000 0 0 1
-26.934464 -11.398478 23.289533 37.387070 0.400339 0.898314 0.000289 0.006209 592372.000000 0 0 1
-28.141454 -11.050878 24.017333 38.612118 0.374189 0.899482 -0.004942 0.004262 472078.000000 0 0 1
-28.126164 -11.222878 25.411823 39.532200 0.379661 0.872631 -0.003142 -0.001225 -405053.000000 0 0 1
-29.555644 -11.001378 26.024883 40.888397 0.356336 0.880863 -0.008922 -0.003574 365628.000000 0 0 1
-30.021164 -9.681278 25.894863 40.811045 0.311953 0.883427 -0.005258 -0.006213 843569.000000 0 0 1
-31.436624 -9.408978 26.046713 41.895363 0.290814 0.899874 -0.000120 -0.001609 1063970.000000 0 0 1
-31.895484 -9.503378 27.535223 43.195192 0.289578 0.879599 -0.004373 -0.008759 -486801.000000 0 0 1
-32.178384 -10.810978 27.963513 43.980493 0.324122 0.881731 -0.000336 -0.015280 100596.000000 0 0 1
-32.738314 -10.662878 29.254593 45.181029 0.314865 0.866501 -0.001409 -0.014869 -510595.000000 0 0 1
-33.352994 -11.951578 29.947133 46.390659 0.344082 0.869063 -0.000475 -0.005714 525462.000000 0 0 1
-34.528097 -12.506778 29.370313 47.023657 0.347520 0.896195 -0.001802 -0.003755 880418.000000 0 0 1
33.784029 -11.798778 29.655243 46.475856 -0.335999 0.878796 -0.002395 -0.007191 -15807.000000 0 0 1
32.602035 -12.350378 28.877433 45.269534 -0.362118 0.879028 -0.003389 -0.004752 -464337.000000 0 0 1
32.694255 -11.870378 27.553413 44.373537 -0.348273 0.900852 -0.005232 -0.003082 111811.000000 0 0 1
31.711955 -12.506478 26.733933 43.321626 -0.375650 0.905740 -0.007498 0.000298 140947.000000 0 0 1
31.518255 -11.910778 25.366453 42.174921 -0.361312 0.925471 -0.005850 -0.001310 119062.000000 0 0 1
30.854315 -10.642078 25.351453 41.327216 -0.332136 0.910397 -0.000556 -0.004972 157220.000000 0 0 1
31.045125 -10.106078 24.071533 40.563177 -0.314710 0.935479 0.001981 -0.003517 -76874.100000 0 0 1
30.747015 -8.597378 23.994933 39.938085 -0.272653 0.926291 -0.000636 0.000300 -1023780.000000 0 0 1
29.427425 -8.245078 24.104033 38.922475 -0.273179 0.902967 0.000881 -0.001555 -1573220.000000 0 0 1
29.205955 -6.872878 23.867933 38.339307 -0.231120 0.898806 0.003803 -0.004564 -254381.000000 0 0 1
27.722595 -6.465078 23.644933 37.005707 -0.229111 0.877659 0.000809 -0.001585 122389.000000 0 0 1
27.305375 -7.119978 22.432333 36.048400 -0.255074 0.899140 -0.009127 0.003314 -265828.000000 0 0 1
26.539595 -8.229178 22.760433 35.918057 -0.300671 0.884500 -0.006295 -0.001040 -795958.000000 0 0 1
13.949346 -17.696578 26.350933 34.671672 -0.903261 0.707463 0.002536 0.005597 -353046.000000 0 0 1
13.415046 -18.968378 26.311413 35.100617 -0.955233 0.723339 0.007200 0.008304 549908.000000 0 0 1
14.409546 -20.011078 26.438713 36.153614 -0.946722 0.750588 0.004061 0.004865 -69713.700000 0 0 1
13.705346 -21.364878 26.665383 36.814904 -1.000427 0.760764 0.000363 0.002978 81189.300000 0 0 1
13.031446 -21.633078 27.857233 37.600985 -1.028625 0.736440 0.003627 0.000994 -356211.000000 0 0 1
11.724846 -21.136178 27.859083 36.882768 -1.064330 0.714621 0.009586 -0.003182 -717553.000000 0 0 1
10.906246 -21.499478 29.127943 37.810195 -1.101342 0.691371 0.004764 -0.002046 267260.000000 0 0 1
11.399746 -20.788678 30.287783 38.463920 -1.069211 0.664162 0.001969 -0.003638 780257.000000 0 0 1
10.552346 -19.658678 30.721773 37.968974 -1.078161 0.628129 -0.001857 0.006300 688401.000000 0 0 1
10.615646 -18.298778 29.943123 36.662349 -1.045116 0.615081 -0.002299 0.004494 -1050330.000000 0 0 1
11.783446 -17.624378 30.124563 36.836906 -0.981465 0.613250 -0.000293 0.003537 -1502900.000000 0 0 1
11.562746 -16.264878 29.847513 35.904281 -0.952791 0.589340 -0.002815 -0.002922 134013.000000 0 0 1
12.701646 -15.234978 30.025603 35.985736 -0.875832 0.583798 -0.006222 -0.001713 218509.000000 0 0 1
12.170446 -13.974078 29.581763 34.906666 -0.854276 0.559627 -0.003203 -0.002121 352228.000000 0 0 1
12.539246 -12.938278 30.491523 35.417012 -0.801059 0.533704 -0.002715 0.001732 -3181.910000 0 0 1
12.067546 -11.525978 29.945193 34.281021 -0.762448 0.508407 0.000829 -0.002355 94177.900000 0 0 1
12.396546 -11.101078 28.620033 33.106111 -0.730322 0.526654 0.000949 -0.003600 -11662.700000 0 0 1
13.785046 -10.990878 28.375883 33.406850 -0.673095 0.555943 -0.001555 0.000228 -355528.000000 0 0 1
14.213446 -9.959978 27.295953 32.346441 -0.611225 0.566354 -0.004364 -0.002957 -73784.200000 0 0 1
14.268246 -8.580578 27.627613 32.256692 -0.541431 0.542361 -0.003636 -0.002509 565397.000000 0 0 1
15.567246 -8.195178 28.089123 33.143611 -0.484573 0.559544 -0.002136 -0.002143 189572.000000 0 0 1
15.702246 -6.688978 28.265283 33.018619 -0.402708 0.543235 -0.007836 -0.003341 635815.000000 0 0 1
17.097846 -6.387078 28.424993 33.780340 -0.357508 0.570806 -0.005917 -0.001076 680563.000000 0 0 1
17.567246 -5.342778 27.653173 33.194147 -0.295244 0.586155 -0.007726 0.001185 -752607.000000 0 0 1
19.055246 -5.363978 27.376893 33.784152 -0.274396 0.626052 -0.000513 0.000588 -2260800.000000 0 0 1
19.479746 -6.428478 26.564403 33.562678 -0.318755 0.657559 0.000987 0.005473 2110450.000000 0 0 1
20.905546 -6.311478 26.182263 34.093805 -0.293203 0.695165 0.005405 0.000906 2721170.000000 0 0 1
21.934746 -6.293578 27.406843 35.663388 -0.279417 0.694323 0.009625 -0.000657 -935567.000000 0 0 1
22.166546 -5.003878 27.921813 36.000308 -0.222019 0.683132 0.006577 -0.004732 486108.000000 0 0 1
23.022646 -4.971778 29.096203 37.434608 -0.212686 0.680507 0.003874 -0.007348 412211.000000 0 0 1
23.358646 -3.505478 29.567103 37.843471 -0.148960 0.674050 0.001167 -0.006635 -371060.000000 0 0 1
24.252746 -2.836378 28.733003 37.707111 -0.116422 0.704393 0.004206 -0.000653 -61307.900000 0 0 1
24.425146 -1.433578 29.064653 37.992064 -0.058625 0.699725 0.003085 0.000640 -268758.000000 0 0 1
25.428246 -0.834478 28.054643 37.872880 -0.032805 0.736598 0.006344 0.002815 -19925.900000 0 0 1
26.785146 -1.115978 28.265633 38.956841 -0.041640 0.758945 0.007190 -0.000428 -1033880.000000 0 0 1
27.558146 -0.910478 27.159123 38.702692 -0.033026 0.792963 0.004457 -0.004939 -289930.000000 0 0 1
29.037246 -0.987978 27.600713 40.074145 -0.034011 0.811045 0.000797 -0.001040 -140231.000000 0 0 1
29.386646 -0.015078 28.514903 40.947221 -0.000513 0.800453 -0.004283 0.002162 -213734.000000 0 0 1
30.721346 -0.153678 28.958523 42.218725 -0.005002 0.814934 -0.004924 -0.002182 338787.000000 0 0 1
31.182946 0.915022 30.014383 43.290606 0.029335 0.804706 -0.004501 -0.002055 -13506.400000 0 0 1
31.279846 2.236322 29.468723 43.032959 0.071373 0.816475 -0.004783 -0.001644 150159.000000 0 0 1
31.452246 3.174422 30.523563 43.943243 0.100588 0.802914 -0.004355 0.000998 -201090.000000 0 0 1
31.898946 4.591722 30.002703 44.031680 0.142964 0.821138 -0.007493 0.000897 -17709.700000 0 0 1
31.756346 5.715922 30.832693 44.629500 0.178086 0.808120 -0.000657 0.004566 480080.000000 0 0 1
30.418446 6.197222 30.917083 43.812709 0.200982 0.787435 -0.002508 0.002035 310145.000000 0 0 1
30.245446 7.204422 32.114913 44.699646 0.233841 0.769210 -0.006013 0.002050 -373497.000000 0 0 1
30.683746 6.716722 33.380163 45.834942 0.215502 0.755004 -0.002387 0.004562 265170.000000 0 0 1
30.718246 7.686722 34.374911 46.736825 0.245198 0.744393 0.001976 0.001583 -173296.000000 0 0 1
31.127346 7.143322 -33.614387 46.366645 0.225581 2.381786 0.003612 0.004084 548521.000000 0 0 1
30.033146 6.424522 -33.009537 45.087624 0.210738 2.392225 0.000162 0.004645 556645.000000 0 0 1
29.931346 5.068022 -33.344947 45.093856 0.167731 2.403059 -0.003466 0.002306 -59538.900000 0 0 1
30.654046 4.012522 -32.446997 44.817167 0.130157 2.380359 -0.000125 0.002259 -50483.600000 0 0 1
30.612546 2.653322 -32.843067 44.975940 0.086458 2.389464 -0.003546 -0.002399 15565.600000 0 0 1
31.236446 1.830122 -31.895287 44.680804 0.058522 2.365774 -0.001843 0.004955 -198369.000000 0 0 1
31.128646 0.324122 -32.076107 44.698706 0.010412 2.371157 -0.002652 0.004345 -16445.700000 0 0 1
32.078946 -0.067678 -33.084487 46.083041 -0.002110 2.371623 -0.000190 0.002706 503701.000000 0 0 1
32.624346 -1.397478 -33.017947 46.437977 -0.042809 2.361732 0.000165 0.002396 285993.000000 0 0 1
33.508246 -1.744478 -31.828197 46.248026 -0.052014 2.329811 0.002404 0.004138 -678331.000000 0 0 1
32.786246 -1.778078 -30.608107 44.888258 -0.054179 2.321117 0.004573 0.000675 -108112.000000 0 0 1
33.613646 -1.976478 -29.476337 44.750845 -0.058732 2.289855 0.013717 -0.003294 -333303.000000 0 0 1
32.879746 -1.744278 -28.209847 43.357994 -0.053001 2.279205 0.011972 -0.003454 -342996.000000 0 0 1
32.532146 -0.366978 -28.020397 42.937371 -0.011280 2.281791 0.008026 -0.000403 179783.000000 0 0 1
31.624246 -0.199078 -26.949997 41.550390 -0.006295 2.276553 0.000532 0.001659 -115956.000000 0 0 1
31.031946 1.207722 -26.965127 41.128559 0.038899 2.285813 -0.005870 0.002481 -200566.000000 0 0 1
30.284446 1.507122 -28.132797 41.362705 0.049725 2.318762 -0.011086 0.001184 227545.000000 0 0 1
29.666046 2.761422 -27.947027 40.850166 0.092816 2.324213 -0.008977 0.004745 27196.100000 0 0 1
29.047346 3.316622 -29.251387 41.356885 0.113688 2.356456 -0.011917 0.002561 62069.200000 0 0 1
28.138446 4.364022 -28.948687 40.605952 0.153865 2.364446 -0.007630 0.006481 81230.700000 0 0 1
27.317046 4.690522 -30.041227 40.874165 0.170049 2.396417 -0.005417 0.003805 121971.000000 0 0 1
26.151346 5.612722 -29.559057 39.863936 0.211417 2.406098 -0.001381 0.003008 -345153.000000 0 0 1
25.210946 4.956122 -28.754367 38.561231 0.194111 2.412352 0.002043 0.002484 -52014.400000 0 0 1
24.315246 5.989222 -28.337047 37.816534 0.241508 2.417845 0.007609 -0.001971 -194021.000000 0 0 1
22.971746 5.445022 -27.800967 36.472499 0.232736 2.437570 0.007119 -0.000027 -340317.000000 0 0 1
22.221446 4.920322 -28.856297 36.751709 0.217906 2.473765 0.012049 -0.002663 236106.000000 0 0 1
20.944746 4.455722 -28.418087 35.582629 0.209612 2.495846 0.009397 -0.008735 222680.000000 0 0 1
20.111646 3.929022 -29.618527 36.016283 0.192931 2.536351 -0.002611 -0.002875 -295240.000000 0 0 1
20.521846 2.710222 -30.185327 36.601167 0.131305 2.540485 -0.003222 -0.001478 215284.000000 0 0 1
19.612846 2.262622 -31.178957 36.904072 0.114857 2.577109 -0.006097 0.000540 17428.700000 0 0 1
19.631946 3.018922 -32.518497 38.104853 0.152581 2.593261 -0.000096 0.003595 -35288.800000 0 0 1
20.846346 2.710222 -33.166557 39.267492 0.129284 2.576673 0.003913 0.002710 -19430.300000 0 0 1
20.733246 3.148822 -34.517210 40.388369 0.150721 2.595639 0.002155 0.009399 -283161.000000 0 0 1
21.986246 2.953122 34.060149 40.647382 0.133518 0.577295 0.000025 0.012340 -386233.000000 0 0 1
22.410346 1.642422 33.951572 40.714008 0.073158 0.584652 0.005409 0.003662 273439.000000 0 0 1
23.831946 1.536622 33.887579 41.457097 0.064388 0.613890 0.002438 0.002148 366470.000000 0 0 1
24.363446 0.111522 33.607524 41.509705 0.004577 0.627274 -0.004006 0.012202 -819987.000000 0 0 1
24.143746 -0.550178 32.374213 40.389514 -0.022784 0.640913 -0.000948 0.007575 451942.000000 0 0 1
22.769346 -0.644178 32.009943 39.287333 -0.028284 0.618473 0.002792 0.001843 1013970.000000 0 0 1
21.828546 -1.639078 32.873693 39.494958 -0.074948 0.587459 0.002932 0.002281 -38288.200000 0 0 1
21.949746 -2.993878 32.520263 39.348725 -0.135560 0.598001 0.004454 -0.005842 -23495.200000 0 0 1
21.249646 -3.875778 33.400549 39.776448 -0.180409 0.574053 0.001111 0.000035 -122958.000000 0 0 1
21.130746 -5.392778 32.972613 39.532059 -0.249876 0.584347 0.000159 0.004122 -14360.500000 0 0 1
22.354346 -6.081478 32.800193 40.156616 -0.265621 0.614942 0.005473 0.000803 -288301.000000 0 0 1
22.120846 -7.420378 32.497683 40.006165 -0.323652 0.622683 0.006962 0.000169 -208469.000000 0 0 1
23.338046 -8.371078 32.329353 40.742195 -0.344394 0.654241 0.003459 -0.002374 192109.000000 0 0 1
23.948346 -7.940178 31.113173 40.057449 -0.320149 0.681365 0.003937 -0.001664 -149663.000000 0 0 1
25.282246 -8.365978 30.931783 40.816134 -0.319562 0.710812 0.004788 0.003593 461826.000000 0 0 1
25.931046 -8.023578 29.562323 40.133875 -0.300076 0.742778 0.005300 -0.002169 378649.000000 0 0 1
25.135746 -8.635378 28.553813 39.008919 -0.330917 0.749570 0.002774 -0.004223 248103.000000 0 0 1
25.681846 -8.352178 27.286223 38.390807 -0.314428 0.780234 0.003738 -0.003978 344185.000000 0 0 1
24.963446 -9.259778 26.207373 37.359651 -0.355201 0.793312 0.004887 -0.006746 32079.500000 0 0 1
23.608746 -8.957878 25.988603 36.235672 -0.362649 0.771005 -0.001459 -0.011534 -478658.000000 0 0 1
23.083946 -9.956878 25.129023 35.545405 -0.407223 0.785612 0.005038 -0.010304 924355.000000 0 0 1
21.760146 -9.314278 24.506513 34.070939 -0.404445 0.768032 0.011390 -0.002868 891011.000000 0 0 1
20.655046 -9.508178 25.367213 34.066580 -0.431413 0.730806 0.008902 -0.002778 293372.000000 0 0 1
19.435046 -9.183678 24.679983 32.728619 -0.441433 0.716545 0.004692 -0.000164 1079140.000000 0 0 1
18.201246 -9.154778 25.643723 32.752036 -0.466025 0.671377 0.001082 -0.001651 116364.000000 0 0 1
17.631846 -10.354378 26.187793 33.224925 -0.530995 0.662922 0.003003 -0.003219 285572.000000 0 0 1
18.328846 -11.092178 27.214083 34.635088 -0.544217 0.666909 0.004590 -0.003646 121892.000000 0 0 1
17.315346 -11.979978 27.989303 35.024879 -0.605249 0.644956 0.007370 -0.006643 241383.000000 0 0 1
16.692046 -12.984678 27.160373 34.422553 -0.661117 0.661570 -0.005684 -0.006653 80348.700000 0 0 1
15.962446 -13.961478 27.863803 35.015912 -0.718629 0.650556 -0.003449 -0.004347 -286295.000000 0 0 1
16.763446 -15.017278 28.633223 36.419682 -0.730509 0.666158 0.000641 -0.002305 -261237.000000 0 0 1
15.891046 -15.866478 29.396933 36.992569 -0.784625 0.652330 -0.001748 -0.002869 612478.000000 0 0 1
16.559346 -16.966778 30.075793 38.296695 -0.797550 0.667557 -0.000692 -0.000402 -527398.000000 0 0 1
16.723046 -18.357278 29.386553 38.473620 -0.831950 0.701600 -0.000190 0.001181 -180561.000000 0 0 1
17.695146 -18.213778 28.383893 38.085500 -0.799840 0.729860 0.002267 -0.000977 136326.000000 0 0 1
17.988446 -19.459378 27.736423 38.360927 -0.824657 0.762606 0.000372 0.002369 161008.000000 0 0 1
19.172846 -19.259978 26.741703 38.126939 -0.787665 0.793456 -0.001611 0.004832 701205.000000 0 0 1
20.378046 -18.729078 27.295223 38.872514 -0.743258 0.792352 0.001986 -0.002108 600686.000000 0 0 1
21.242046 -18.171978 26.303803 38.384051 -0.707662 0.815809 -0.000221 0.000525 381820.000000 0 0 1
22.726546 -18.144278 26.720023 39.492662 -0.673749 0.827685 0.001803 -0.003127 -93912.200000 0 0 1
23.412346 -19.397178 26.834333 40.552064 -0.691880 0.847679 0.000205 -0.004183 987591.000000 0 0 1
24.795946 -19.043878 27.029903 41.329456 -0.654937 0.857922 0.004270 -0.005060 847475.000000 0 0 1
25.696646 -20.286378 27.287563 42.620017 -0.668279 0.875970 -0.000084 0.000376 -288800.000000 0 0 1
25.342846 -20.963378 28.446483 43.484773 -0.691102 0.857710 0.005999 0.001352 -260656.000000 0 0 1
26.122646 -22.070278 28.788343 44.701885 -0.701509 0.871071 0.009632 -0.001145 -372844.000000 0 0 1
25.388046 -23.135778 29.629403 45.362084 -0.739016 0.859026 0.013143 -0.004497 -280764.000000 0 0 1
25.093046 -22.702878 30.944193 45.854386 -0.735432 0.830054 0.011176 -0.002033 -86956.800000 0 0 1
24.691346 -23.794878 31.726373 46.716395 -0.766911 0.824223 0.009702 -0.004853 -196828.000000 0 0 1
23.978246 -23.486178 33.062233 47.113354 -0.775031 0.792932 0.009726 -0.002679 14120.400000 0 0 1
23.530146 -24.692878 33.650543 47.914143 -0.809505 0.792160 0.008448 -0.002189 -102650.000000 0 0 1
23.423446 -24.516978 -34.405308 48.305955 -0.808204 2.363477 0.007089 -0.000083 -597175.000000 0 0 1
23.143346 -25.800408 -33.662227 48.315847 -0.839633 2.341600 0.003145 -0.002205 935978.000000 0 0 1
21.961246 -26.573898 -33.972057 48.400094 -0.880151 2.348859 0.001645 -0.004457 557418.000000 0 0 1
21.581746 -26.829678 34.107012 48.465366 -0.893379 0.790148 0.003985 -0.006608 -222819.000000 0 0 1
20.354046 -27.792468 34.007323 48.406678 -0.938682 0.791845 0.004285 -0.007478 476193.000000 0 0 1
20.605746 -29.166648 34.186961 49.437217 -0.955732 0.807201 0.003812 -0.000229 514923.000000 0 0 1
19.351446 -29.831428 34.320897 49.419799 -0.995340 0.803104 -0.005563 0.001762 345141.000000 0 0 1
19.563146 -31.354508 34.513731 50.566980 -1.012964 0.819571 -0.004673 0.003677 -135693.000000 0 0 1
20.066546 -31.766998 -33.641487 50.433700 -1.007409 2.301030 -0.004459 0.001014 268963.000000 0 0 1
20.766746 -32.984388 -33.699877 51.525812 -1.008901 2.283708 -0.014269 0.004435 17793.000000 0 0 1
21.487346 -33.379848 -32.368747 51.221637 -0.998847 2.254844 -0.007137 0.008461 -338748.000000 0 0 1
22.275746 -34.553715 -32.497827 52.404932 -0.998177 2.239704 -0.014148 0.004934 302132.000000 0 0 1
23.038246 34.573521 -31.369537 52.058976 0.983009 2.217522 -0.008637 0.000377 793904.000000 0 0 1
24.227546 -33.976328 -30.864197 51.903406 -0.951351 2.207623 -0.000405 0.001389 -144410.000000 0 0 1
24.621046 -34.238403 -29.567247 51.504235 -0.947362 2.182269 -0.000776 -0.001875 25162.200000 0 0 1
25.350546 -33.078048 -29.060727 50.806824 -0.916891 2.179720 0.000815 0.002423 64413.000000 0 0 1
25.739746 -33.154518 -27.617677 50.244330 -0.910639 2.152763 0.001808 -0.001687 -503482.000000 0 0 1
26.674146 -34.121228 -27.365667 51.231319 -0.907285 2.134309 -0.003244 -0.002324 -817597.000000 0 0 1
27.320046 -33.979378 -26.147657 50.839778 -0.893610 2.111005 -0.001320 0.002574 105447.000000 0 0 1
-26.276174 -30.964289 9.214893 41.642992 0.867118 1.347666 0.012155 -0.003745 -210135.000000 0 0 1
-26.173544 -32.053089 10.127193 42.602992 0.886034 1.330788 0.006233 0.000145 -748053.000000 0 0 1
-24.914454 -32.119589 10.720593 42.039614 0.911063 1.312937 0.003341 0.002374 -379864.000000 0 0 1
-24.756754 -33.342389 11.657393 43.133590 0.932112 1.297131 0.000648 0.001630 100660.000000 0 0 1
-24.863754 -34.542689 10.819393 43.914268 0.946906 1.321858 -0.000170 0.001920 84483.900000 0 0 1
-24.936454 33.762122 11.631193 43.554475 -0.934636 1.300466 -0.007663 0.000947 16445.800000 0 0 1
-24.587554 32.432722 10.909993 42.136175 -0.922125 1.308890 -0.005019 0.005381 382186.000000 0 0 1
-25.729994 31.869522 10.248493 42.222395 -0.891587 1.325621 -0.002645 0.005732 473385.000000 0 0 1
-25.478894 30.575722 9.719093 40.969618 -0.876075 1.331286 -0.000137 0.006924 -461944.000000 0 0 1
-24.899354 30.401422 8.337993 40.171463 -0.884565 1.361716 -0.000550 0.009325 -801817.000000 0 0 1
-23.509554 30.350522 8.405793 39.300263 -0.911735 1.355245 -0.000979 0.007569 -687382.000000 0 0 1
-22.932154 30.447222 7.085593 38.770126 -0.925265 1.387004 -0.006040 0.006272 5099.110000 0 0 1
-21.623354 29.642122 7.002493 37.353176 -0.940557 1.382213 0.008990 0.004462 -410172.000000 0 0 1
-21.652154 28.235022 7.224793 36.307435 -0.916595 1.370470 0.003446 0.006697 179344.000000 0 0 1
-22.152054 27.422222 6.151093 35.784462 -0.891309 1.398046 -0.002814 0.004660 -528260.000000 0 0 1
-22.342254 25.873822 6.338493 34.767909 -0.858512 1.387462 -0.000483 0.005037 535821.000000 0 0 1
-23.369354 25.513522 7.345793 35.369863 -0.829233 1.361588 0.004379 0.009909 1338590.000000 0 0 1
-23.673854 24.136022 7.534693 34.637704 -0.795065 1.351515 0.007582 -0.001631 -208286.000000 0 0 1
-24.071454 23.269422 6.254893 34.059134 -0.768458 1.386100 0.004514 -0.005206 555135.000000 0 0 1
-25.456454 23.439322 5.862793 35.097083 -0.744168 1.402965 0.006865 -0.001133 1236550.000000 0 0 1
-25.730224 22.878122 4.566693 34.731939 -0.726790 1.438931 0.008643 -0.005145 28710.200000 0 0 1
-25.501664 23.812422 3.349393 35.051173 -0.751157 1.475093 0.007430 -0.003694 472755.000000 0 0 1
-24.124054 24.187022 3.259593 34.316278 -0.786702 1.475666 0.002014 -0.000170 751991.000000 0 0 1
-23.855054 24.923022 2.089693 34.562804 -0.807289 1.510299 0.005463 0.002303 739742.000000 0 0 1
-22.468254 25.665822 2.153193 34.178840 -0.851731 1.507757 -0.002218 0.004740 670965.000000 0 0 1
-22.221554 26.512122 1.040593 34.608856 -0.873213 1.540725 0.002670 -0.001299 -1567630.000000 0 0 1
-20.912654 26.874922 1.132193 34.071724 -0.909523 1.537561 -0.009654 -0.003558 -2004300.000000 0 0 1
-20.322254 27.481122 -0.171607 34.179460 -0.934050 1.575817 -0.011674 -0.003483 112076.000000 0 0 1
-20.140954 26.614722 -1.317707 33.402662 -0.922983 1.610256 -0.008604 0.000786 214205.000000 0 0 1
-19.207754 25.553222 -1.155607 31.988129 -0.926223 1.606930 -0.011548 0.003901 -126042.000000 0 0 1
-18.937354 24.626022 -2.421707 31.159734 -0.915247 1.648594 -0.016175 0.003465 -49134.500000 0 0 1
-19.951654 23.690122 -2.720107 31.091628 -0.870852 1.658395 -0.009198 0.002015 -42689.500000 0 0 1
-19.622954 23.099822 -3.983607 30.570103 -0.866601 1.701479 -0.008209 0.004046 675127.000000 0 0 1
-20.910254 22.378222 -4.555407 30.964097 -0.819296 1.718451 -0.005490 0.001901 895279.000000 0 0 1
-21.724754 23.315722 -5.237107 32.295745 -0.820707 1.733676 -0.000693 0.005226 -97476.500000 0 0 1
-22.754654 22.733222 -5.990107 32.717809 -0.784927 1.754919 0.004129 0.004989 59634.400000 0 0 1
-22.967954 23.537422 -7.273007 33.681357 -0.797643 1.788446 0.002537 0.004284 -248501.000000 0 0 1
-21.830754 23.323222 -8.053407 32.945590 -0.818439 1.817744 -0.004814 0.004503 -46116.100000 0 0 1
-21.863054 24.088122 -9.227407 33.813840 -0.833783 1.847191 -0.001176 0.000738 91494.100000 0 0 1
-20.960454 23.534422 -10.378007 33.180004 -0.843182 1.888914 -0.003869 -0.001488 -226210.000000 0 0 1
-21.573854 22.567022 -11.256307 33.187439 -0.807894 1.916835 -0.001442 0.001846 42500.600000 0 0 1
-20.692254 21.977322 -12.190407 32.554233 -0.815506 1.954616 -0.010779 0.004232 -104471.000000 0 0 1
-21.322154 21.414122 -13.505507 33.099813 -0.787550 1.991085 -0.005694 0.002661 -95878.600000 0 0 1
-22.356454 20.480822 -13.363507 33.133947 -0.741641 1.985936 -0.005247 0.002280 -203732.000000 0 0 1
-23.119054 20.400122 -14.517607 34.079562 -0.723003 2.010854 -0.004442 -0.000622 -83818.800000 0 0 1
-24.129454 19.246222 -14.617207 34.151286 -0.673290 2.013090 0.001823 -0.001070 -113990.000000 0 0 1
-23.701654 18.267522 -15.568607 33.732066 -0.656635 2.050524 -0.007539 0.003030 66975.700000 0 0 1
-24.721654 17.336522 -15.831207 34.093141 -0.611577 2.053699 0.009817 0.004149 -295515.000000 0 0 1
-24.340154 16.459922 -17.039207 33.966258 -0.594605 2.096303 0.011416 0.002493 -296477.000000 0 0 1
-23.442054 15.449022 -16.690207 32.661372 -0.582697 2.107153 0.015194 0.006151 -161834.000000 0 0 1
-23.088754 14.688522 -17.845707 32.669749 -0.566596 2.148672 0.015534 0.000895 242117.000000 0 0 1
-22.362554 13.334622 -17.596207 31.424870 -0.537689 2.165116 0.012677 0.001446 429351.000000 0 0 1
-21.128954 13.398522 -16.897107 30.190484 -0.565138 2.164800 0.009776 0.001578 191347.000000 0 0 1
-20.376654 12.239122 -17.014807 29.231965 -0.540893 2.192058 0.007757 -0.000898 -676933.000000 0 0 1
-19.078554 12.216022 -16.223107 27.864164 -0.569527 2.192254 0.004726 0.001297 -322019.000000 0 0 1
-18.034954 13.013722 -16.772407 27.855523 -0.625065 2.216952 -0.001035 0.000927 -196097.000000 0 0 1
-17.159554 13.291922 -15.736207 26.809582 -0.659065 2.198098 -0.000403 0.004695 -708468.000000 0 0 1
-16.325554 14.537022 -16.001607 27.090592 -0.727511 2.202686 -0.000687 0.005482 -106323.000000 0 0 1
-15.537654 14.493222 -17.209007 27.342679 -0.750634 2.251555 0.000394 0.003262 196872.000000 0 0 1
-14.708654 15.615222 -17.341507 27.584552 -0.815285 2.250635 -0.000326 -0.000522 -408525.000000 0 0 1
-13.939354 15.567322 -18.653407 28.010653 -0.840515 2.299549 -0.001702 0.001590 135062.000000 0 0 1
-12.934754 14.547022 -18.596507 26.921252 -0.843998 2.333356 0.002563 0.004824 -2071.420000 0 0 1
-12.335054 14.437322 -19.883307 27.494285 -0.863761 2.379191 0.007240 0.002614 -192164.000000 0 0 1
-11.321354 13.322922 -19.955607 26.531106 -0.866439 2.422128 0.004894 0.005195 -137397.000000 0 0 1
-11.958954 12.057522 -20.080807 26.299035 -0.789502 2.439600 0.001572 0.006145 -242390.000000 0 0 1
-10.975554 11.056322 -20.081207 25.415742 -0.789064 2.481783 0.001143 0.017240 -305311.000000 0 0 1
-11.297254 9.714622 -20.800207 25.586138 -0.710219 2.519994 -0.001405 0.007177 -297485.000000 0 0 1
-11.182554 9.816022 -22.174607 26.704251 -0.720412 2.550581 0.002596 -0.000313 -104551.000000 0 0 1
-10.992854 8.524822 -22.713607 26.635003 -0.659615 2.592068 0.003344 -0.000790 -286218.000000 0 0 1
-11.019854 8.512122 -24.243707 27.958018 -0.657706 2.620241 0.005372 -0.003115 362499.000000 0 0 1
-9.965854 9.175322 -24.946007 28.386759 -0.744122 2.644118 -0.003601 -0.003453 46716.400000 0 0 1
-10.038854 8.669022 -26.221107 29.384979 -0.712306 2.673278 -0.001861 -0.004731 -187987.000000 0 0 1
-9.434054 9.599222 -27.301027 30.438340 -0.794076 2.683571 -0.008202 -0.005064 246114.000000 0 0 1
-8.080254 9.977322 -27.193367 30.071859 -0.890071 2.700486 -0.014492 -0.003537 59258.200000 0 0 1
-7.900254 11.167822 -26.396357 29.730488 -0.955113 2.663458 -0.012101 -0.003489 149415.000000 0 0 1
-6.422054 11.647622 -26.426237 29.584724 -1.066908 2.675296 -0.006370 -0.002141 257718.000000 0 0 1
-6.088454 12.409022 -27.576537 30.846694 -1.114659 2.676961 -0.009292 -0.004375 -193194.000000 0 0 1
-4.729454 12.759722 -27.486587 30.670682 -1.215840 2.681890 -0.001549 -0.001776 -71216.000000 0 0 1
-4.093054 12.837522 -28.918917 31.903900 -1.262150 2.705569 -0.003531 0.003353 -207053.000000 0 0 1
-2.695354 12.871222 -29.025907 31.865916 -1.364370 2.716199 0.002152 0.005870 -159254.000000 0 0 1
-2.268154 12.603422 -30.375777 32.964809 -1.392739 2.742620 0.001405 0.008233 -385028.000000 0 0 1
-0.754454 12.657022 -30.566577 33.092069 -1.511259 2.748380 0.002680 0.006716 -804969.000000 0 0 1
-0.272954 11.461422 -29.941197 32.061098 -1.546986 2.775909 0.003895 0.010269 919409.000000 0 0 1
1.135446 11.242622 -30.200697 32.245432 1.470143 2.783561 0.008290 0.010504 1230050.000000 0 0 1
1.480046 10.548322 -31.560627 33.309621 1.431395 2.816099 0.004599 0.011344 -392506.000000 0 0 1
1.305546 11.417722 -32.623347 34.588316 1.456947 2.802900 0.007983 0.009221 188385.000000 0 0 1
1.601246 10.741822 -33.800767 35.502712 1.422819 2.830702 0.009437 0.008052 -74393.100000 0 0 1
1.812446 11.691022 34.400441 36.377951 1.416992 0.331240 0.001931 0.003127 -286676.000000 0 0 1
3.111446 12.226622 34.443752 36.681650 1.321604 0.351110 0.000098 0.000841 -386976.000000 0 0 1
3.237746 13.042422 33.299373 35.908718 1.327468 0.383572 0.000464 -0.002504 57244.800000 0 0 1
4.666546 13.223222 32.739763 35.616321 1.231536 0.404664 -0.002774 -0.000103 -42294.800000 0 0 1
5.187646 12.055622 32.135343 34.712101 1.164437 0.387735 -0.001938 0.000518 713996.000000 0 0 1
6.578146 12.264022 31.832853 34.742032 1.078472 0.412146 0.006996 0.003577 724262.000000 0 0 1
7.268946 10.973422 31.286563 33.942637 0.985744 0.398232 0.001060 0.006151 50443.700000 0 0 1
6.766746 10.630822 29.993453 32.533221 1.003955 0.397755 -0.006896 0.004343 193453.000000 0 0 1
7.630646 9.713822 29.335703 31.830309 0.904932 0.398542 -0.005733 0.001067 -89043.100000 0 0 1
6.940946 8.824222 28.344853 30.487281 0.904293 0.377125 -0.008766 0.002933 220373.000000 0 0 1
6.070346 7.794422 28.823713 30.469797 0.909113 0.330203 -0.011957 -0.001961 174684.000000 0 0 1
5.563746 6.973222 27.772033 29.169623 0.897354 0.310806 -0.004752 0.002139 -275929.000000 0 0 1
4.728446 5.807722 28.305163 29.279175 0.887477 0.258660 -0.002207 -0.005463 78343.100000 0 0 1
5.545046 4.777522 28.893393 29.806047 0.711181 0.248102 -0.005290 -0.006479 357327.000000 0 0 1
4.837246 4.173022 29.956383 30.630017 0.711813 0.210113 -0.004483 -0.009331 -240248.000000 0 0 1
5.465446 2.878222 30.553513 31.171661 0.484717 0.199481 0.005469 -0.006541 153356.000000 0 0 1
5.425246 1.700322 29.750603 30.288988 0.303713 0.188827 0.003937 -0.007992 169909.000000 0 0 1
6.633646 1.619222 29.005773 29.798692 0.239411 0.231206 0.008172 -0.009393 154895.000000 0 0 1
6.820546 0.314622 28.214383 29.028783 0.046096 0.237432 0.008145 -0.010065 -18295.000000 0 0 1
7.070546 -0.807278 29.054473 29.913320 -0.113683 0.240207 0.004976 -0.006334 14121.200000 0 0 1
7.584846 -1.814078 28.226913 29.284457 -0.234761 0.269564 0.004156 0.001975 -514486.000000 0 0 1
8.167646 -2.999678 28.906823 30.187960 -0.351971 0.292377 -0.002493 0.007362 -1618970.000000 0 0 1
9.476046 -2.825578 29.247263 30.873642 -0.289787 0.326030 -0.004919 -0.001108 -1632290.000000 0 0 1
10.210446 -3.951478 28.790213 30.801684 -0.369253 0.363393 -0.003715 0.002905 -483455.000000 0 0 1
11.701746 -3.844778 29.155313 31.650363 -0.317452 0.399724 -0.005341 -0.001074 -337530.000000 0 0 1
12.444746 -4.984378 28.866593 31.827597 -0.380955 0.434769 -0.006186 0.000007 -101244.000000 0 0 1
12.417046 -6.077278 29.810153 32.859726 -0.455156 0.434230 -0.003186 -0.002273 -601365.000000 0 0 1
11.697046 -7.378878 29.289663 32.390633 -0.562783 0.441145 -0.003370 -0.001492 -438234.000000 0 0 1
10.302946 -7.231178 29.325813 31.913069 -0.611970 0.405442 0.000222 -0.005550 -750764.000000 0 0 1
9.782046 -8.447278 28.833383 31.597609 -0.712308 0.421398 0.003390 -0.004117 -299981.000000 0 0 1
8.261746 -8.292578 28.714583 31.008879 -0.787261 0.387090 0.006812 -0.002620 -198986.000000 0 0 1
7.583146 -8.159378 29.958113 31.961979 -0.821985 0.355982 0.008867 -0.004574 365122.000000 0 0 1
6.188946 -7.924078 29.790253 31.441267 -0.907730 0.325506 0.007677 0.001581 611995.000000 0 0 1
5.452646 -7.198778 30.954923 32.245326 -0.922550 0.283859 0.008048 -0.001647 -33306.300000 0 0 1
5.477346 -7.924278 32.203573 33.613474 -0.965994 0.290658 0.011231 -0.003425 21036.300000 0 0 1
4.930446 -7.203078 33.302833 34.427784 -0.970555 0.256340 0.010093 -0.003197 -421519.000000 0 0 1
5.710346 -6.048678 33.874772 34.881152 -0.814162 0.240797 0.008268 0.001694 -400463.000000 0 0 1
5.753546 -5.026278 32.936943 33.811374 -0.718035 0.227922 0.009191 -0.000628 -161411.000000 0 0 1
6.440546 -3.907478 33.430044 34.268307 -0.545331 0.221640 0.005972 0.001596 -401549.000000 0 0 1
6.228946 -2.703778 32.528203 33.229418 -0.409525 0.205800 0.010905 0.000206 243509.000000 0 0 1
4.887746 -2.242978 32.503613 32.945499 -0.430229 0.163968 0.012165 -0.001703 -83215.000000 0 0 1
4.864146 -1.071778 31.694883 32.083863 -0.216877 0.155874 0.009802 -0.001819 -583802.000000 0 0 1
3.488546 -0.473978 31.449153 31.645598 -0.135040 0.111482 0.010381 -0.005295 -868174.000000 0 0 1
2.933146 0.032222 32.605723 32.737403 0.010985 0.089722 0.006183 -0.000293 -818535.000000 0 0 1
1.694046 0.622522 32.370493 32.420767 0.352158 0.055697 0.008528 -0.001990 -555533.000000 0 0 1
0.766946 0.596522 33.567432 33.581491 0.661050 0.028937 0.004633 -0.000545 -389447.000000 0 0 1
1.145346 1.636622 34.471057 34.528888 0.960189 0.057885 -0.000100 0.003414 428206.000000 0 0 1
0.305846 1.765622 -33.816227 33.863671 1.399276 3.088652 -0.003230 0.004672 8860.230000 0 0 1
0.879046 2.903522 -32.965977 33.105269 1.276817 3.049827 -0.004833 0.002729 -124922.000000 0 0 1
1.836046 2.564822 -32.014677 32.169690 0.949507 3.043384 -0.010170 0.008371 -87179.800000 0 0 1
2.443846 3.689622 -31.395707 31.706090 0.985783 3.001554 -0.004448 0.008617 -329774.000000 0 0 1
3.583546 3.357422 -30.446407 30.839874 0.752832 2.981683 -0.003259 0.009943 -542981.000000 0 0 1
3.188946 2.788522 -29.247367 29.552559 0.718509 2.997753 -0.007423 0.004078 52076.600000 0 0 1
4.294946 2.672922 -28.371237 28.818712 0.556685 2.965141 -0.003353 0.005454 -36956.200000 0 0 1
4.003046 1.928022 -27.055417 27.417827 0.448851 2.978821 -0.008077 0.006744 -21557.100000 0 0 1
3.901846 0.501622 -27.094747 27.378849 0.127859 2.997408 -0.004483 0.005110 100344.000000 0 0 1
3.307646 -0.086278 -25.958337 26.168363 -0.026079 3.014812 -0.000874 0.001133 -152335.000000 0 0 1
3.796046 -1.530078 -25.699237 26.023103 -0.383151 2.983661 0.000471 -0.001705 -1067750.000000 0 0 1
5.087346 -1.574678 -25.246817 25.802374 -0.300175 2.933704 0.001147 0.000314 -1307140.000000 0 0 1
5.397846 -2.927078 -25.018407 25.760924 -0.496887 2.900915 0.002120 -0.008344 -998569.000000 0 0 1
6.813446 -3.200778 -24.575707 25.702790 -0.439176 2.844356 0.004918 -0.010487 -733148.000000 0 0 1
7.741346 -3.181778 -25.653837 26.984653 -0.389962 2.826225 -0.000092 0.005815 186454.000000 0 0 1
8.995046 -3.616478 -25.114447 26.920721 -0.382274 2.773190 0.003725 0.004887 424045.000000 0 0 1
-28.075934 -4.566078 18.097733 33.714019 0.161222 1.004155 0.001121 -0.005966 -353452.000000 0 0 1
-29.476174 -4.417578 18.027733 34.833303 0.148762 1.026819 -0.005167 -0.003721 -279499.000000 0 0 1
-30.075574 -5.022478 19.134633 35.998606 0.165468 1.010381 -0.006754 -0.000703 1585900.000000 0 0 1
-31.608024 -4.600178 19.324033 37.331583 0.144524 1.026715 -0.006624 -0.002188 1303320.000000 0 0 1
-32.474214 -5.020378 18.318233 37.620958 0.153382 1.062241 -0.008301 -0.002071 4202.460000 0 0 1
-33.794404 -5.078178 18.839233 39.022639 0.149151 1.066973 -0.006385 0.003765 -156202.000000 0 0 1
34.699336 -5.468378 17.784033 39.372820 -0.156308 1.102145 -0.002099 0.000068 -1372630.000000 0 0 1
33.457398 -5.574178 18.325433 38.552438 -0.165089 1.075448 0.002740 -0.000220 -1202380.000000 0 0 1
32.404045 -5.536678 17.387333 37.188658 -0.169230 1.084286 0.000507 0.000966 257663.000000 0 0 1
30.964075 -5.661478 17.904933 36.213435 -0.180843 1.053620 0.006393 -0.001563 -265071.000000 0 0 1
30.469615 -4.681478 18.775533 36.094796 -0.152452 1.023743 0.005409 -0.003501 -9815.800000 0 0 1
29.381405 -5.271878 19.451033 35.628673 -0.177540 0.993289 0.001607 -0.002837 -88370.100000 0 0 1
28.831485 -4.413778 20.590333 35.702910 -0.151909 0.956097 0.001362 -0.004454 -25284.700000 0 0 1
28.049845 -3.231578 20.389133 34.827484 -0.114703 0.945383 0.003968 -0.001669 575688.000000 0 0 1
28.770255 -2.116378 19.890233 35.040377 -0.073429 0.967163 0.001413 0.003172 53139.500000 0 0 1
27.752675 -0.962078 19.838133 34.127527 -0.034652 0.950478 0.000668 0.003732 130823.000000 0 0 1
28.397635 0.281522 19.563133 34.485085 0.009913 0.967582 0.006782 -0.000516 264975.000000 0 0 1
27.433105 1.296322 19.679833 33.786854 0.047219 0.949032 0.012245 -0.003107 18874.100000 0 0 1
27.818275 2.575822 18.965133 33.766367 0.092331 0.974409 0.007929 -0.000056 -8316.190000 0 0 1
27.807695 2.432622 17.589433 32.993540 0.087258 1.008515 0.005994 0.000575 83560.000000 0 0 1
27.928685 3.677422 16.986733 32.895045 0.130919 1.028164 0.002037 0.001754 45856.600000 0 0 1
27.722785 3.571722 15.426333 31.926192 0.128131 1.066505 -0.000352 0.000638 -371843.000000 0 0 1
27.563505 4.805422 14.830233 31.666618 0.172605 1.083404 -0.006068 0.006716 122751.000000 0 0 1
26.919895 4.620522 13.595533 30.510138 0.169983 1.108944 0.002268 0.008841 23792.700000 0 0 1
26.332305 5.956622 12.987033 29.958883 0.222466 1.122429 -0.004422 0.011007 199571.000000 0 0 1
25.139725 6.475122 13.534433 29.276507 0.252086 1.090213 -0.000558 0.003160 -226757.000000 0 0 1
24.800825 7.691622 12.949633 29.016116 0.300729 1.108180 0.005762 0.001162 -862396.000000 0 0 1
23.673975 8.344322 13.752233 28.621822 0.338872 1.069594 0.010722 -0.002935 -111479.000000 0 0 1
22.353275 7.867522 13.710733 27.377929 0.338422 1.046279 0.010566 -0.000897 362898.000000 0 0 1
22.200575 6.544022 14.256733 27.183528 0.286650 1.018713 0.010410 -0.002026 -1287210.000000 0 0 1
20.860275 5.853922 13.970733 25.779854 0.273588 0.998071 0.012759 -0.001248 -281773.000000 0 0 1
20.502075 5.746422 12.574833 24.728180 0.273273 1.037328 0.007148 -0.000887 215831.000000 0 1 0
19.467975 4.858922 12.305333 23.537893 0.244588 1.020678 0.007365 -0.001852 -609905.000000 0 1 0
19.243275 4.689222 10.800933 22.559978 0.239023 1.071549 0.010656 -0.004597 -261317.000000 0 1 0
20.237675 3.852122 10.254633 23.012167 0.188094 1.108932 0.007906 -0.004812 440628.000000 0 1 0
20.136975 3.725722 8.853033 22.310423 0.182950 1.162756 0.023273 -0.006590 -714658.000000 0 1 0
21.323375 3.042222 8.209733 23.050838 0.141714 1.206644 0.021015 -0.003969 -1669190.000000 0 1 0
21.241775 1.628122 8.436133 22.913580 0.076498 1.193754 0.003055 -0.005727 434467.000000 0 1 0
22.128975 0.908622 7.614333 23.419974 0.041037 1.239656 -0.001859 -0.002926 1098370.000000 0 1 0
23.713275 1.139622 7.728733 24.967008 0.048021 1.256068 0.005747 -0.000829 970528.000000 0 1 0
24.363975 0.593822 8.853533 25.929538 0.024368 1.222342 -0.004987 0.008366 248258.000000 0 0 1
24.006775 1.207822 10.086433 26.067609 0.050269 1.173493 -0.007257 0.005393 -1115330.000000 0 0 1
24.770735 0.603722 11.238133 27.207525 0.024368 1.144993 -0.011713 0.007128 892693.000000 0 0 1
26.215495 0.688722 11.108533 28.480274 0.026266 1.170118 -0.005049 0.004575 1145140.000000 0 0 1
26.741465 0.059222 12.263933 29.419611 0.002215 1.140805 -0.008582 0.003761 -202886.000000 0 0 1
28.273405 0.136322 12.386233 30.867828 0.004822 1.157897 -0.004274 0.002810 59047.700000 0 0 1
28.733845 1.496722 12.541133 31.387164 0.052042 1.159757 -0.002659 0.007990 280416.000000 0 0 1
30.120665 1.522922 12.831633 32.775365 0.050518 1.168533 -0.003432 0.007531 192710.000000 0 0 1
30.542595 2.924822 13.394633 33.478663 0.095471 1.159176 -0.007772 0.006769 -713145.000000 0 0 1
30.502065 4.048822 12.507033 33.214377 0.131968 1.184722 -0.007973 0.009032 452968.000000 0 0 1
31.260605 5.202422 12.931433 34.227366 0.164910 1.183367 -0.009189 -0.000188 763738.000000 0 0 1
32.750235 5.167022 12.458433 35.418760 0.156481 1.211360 -0.014846 0.002526 398787.000000 0 0 1
33.476868 4.138922 13.140933 36.201043 0.123011 1.199312 -0.013362 0.003375 341950.000000 0 0 1
-34.704830 4.094622 12.690933 37.178636 -0.117441 1.222443 -0.014901 0.005558 570990.000000 0 0 1
-33.825724 2.937322 13.318333 36.471708 -0.086620 1.196982 -0.010315 0.004553 -463097.000000 0 0 1
-34.113259 1.623722 12.894433 36.505032 -0.047562 1.209782 -0.004646 0.008392 362768.000000 0 0 1
34.168898 1.034022 13.259333 36.665961 0.030253 1.200786 -0.006259 0.013479 159390.000000 0 0 1
33.948006 0.673922 14.745233 37.018147 0.019849 1.161107 -0.009122 0.012280 -322227.000000 0 0 1
-34.676085 -0.314678 15.206333 37.865056 0.009075 1.157541 -0.007673 0.007050 322121.000000 0 0 1
34.582355 -0.591978 16.581333 38.356620 -0.017116 1.123761 -0.006480 0.005390 -864287.000000 0 0 1
-33.901234 -1.424678 17.242633 38.060896 0.042000 1.100638 -0.009813 -0.000563 -1295300.000000 0 0 1
-32.683834 -0.789078 17.452433 37.059993 0.024138 1.080459 -0.014383 0.001619 -162984.000000 0 0 1
-31.820934 -1.305578 18.478533 36.820274 0.041006 1.045051 -0.010526 0.000566 330114.000000 0 0 1
-32.141164 -0.889078 19.879133 37.802445 0.027655 1.017060 -0.012401 -0.000633 -561731.000000 0 0 1
-32.877384 -1.878078 20.563533 38.824071 0.057062 1.012597 -0.014687 -0.002744 -113115.000000 0 0 1
-33.013834 -1.544278 21.933233 39.665662 0.046743 0.984893 -0.015120 0.001179 210159.000000 0 0 1
-33.600084 -2.658678 22.862433 40.727449 0.078963 0.974778 -0.010554 0.006582 -70385.600000 0 0 1
-32.784594 -3.804178 22.778233 40.101737 0.115519 0.966709 -0.004097 0.003401 -132006.000000 0 0 1
-33.237494 -4.996578 23.385033 40.945776 0.149212 0.962924 0.003402 0.003730 -431356.000000 0 0 1
-33.265084 -4.889978 24.952483 41.870086 0.145955 0.932348 -0.000351 -0.000461 286976.000000 0 0 1
-32.004034 -4.664478 25.571613 41.230122 0.144728 0.901777 0.000210 0.001344 -215318.000000 0 0 1
-32.058134 -4.609878 27.003633 42.168367 0.142818 0.875808 -0.000280 -0.002906 -59426.000000 0 0 1
-31.027794 -3.665578 27.592243 41.683238 0.117593 0.847378 0.004858 -0.002457 -236140.000000 0 0 1
-31.340134 -2.258678 27.465383 41.733115 0.071945 0.852478 0.007184 -0.000409 -400711.000000 0 0 1
-30.506994 -1.590578 26.549223 40.473051 0.052091 0.855326 0.004310 -0.003972 -227272.000000 0 0 1
-30.760254 -0.040678 26.471893 40.582706 0.001322 0.860188 -0.001243 -0.005044 -671332.000000 0 0 1
-31.941364 0.375522 25.879933 41.111588 -0.011756 0.889881 -0.004911 -0.002655 -985453.000000 0 0 1
-31.975244 1.758722 25.685133 41.051619 -0.054947 0.894795 -0.002903 0.003737 488840.000000 0 0 1
-33.290884 2.294222 25.011413 41.702724 -0.068806 0.927602 -0.013231 0.001695 516177.000000 0 0 1
-33.539274 1.817022 23.698833 41.107410 -0.054123 0.956345 -0.014646 0.006958 -24111.000000 0 0 1
-34.638700 2.445922 23.057133 41.682772 -0.070495 0.984647 -0.010551 0.007602 249680.000000 0 0 1
-34.190138 3.663722 22.242433 40.952585 -0.106750 0.996640 -0.012093 0.005824 -165457.000000 0 0 1
-33.420634 3.315122 21.139633 39.683913 -0.098870 1.009008 -0.021109 0.001079 -187918.000000 0 0 1
-34.285429 3.079822 20.011133 39.817351 -0.089588 1.044224 -0.014132 -0.000146 226715.000000 0 0 1
-33.569344 2.339022 18.868933 38.579898 -0.069565 1.059753 -0.017472 -0.000900 -896791.000000 0 0 1
-32.623964 3.102322 18.255733 37.512921 -0.094808 1.062543 -0.014711 -0.000352 -665503.000000 0 0 1
-32.162144 2.367722 17.106833 36.505525 -0.073486 1.083080 -0.011038 -0.001524 -56309.100000 0 0 1
-31.140194 3.133422 16.245433 35.262503 -0.100286 1.092013 -0.011090 0.000582 -78054.400000 0 0 1
-31.769244 4.305822 15.815433 35.748467 -0.134713 1.112514 -0.008257 -0.002570 -243396.000000 0 0 1
-30.974314 5.129522 15.038533 34.812033 -0.164116 1.124096 -0.004695 -0.000685 -718309.000000 0 0 1
-31.630904 6.473422 14.705833 35.477892 -0.201867 1.143395 -0.001949 -0.006058 74913.400000 0 0 1
-30.898604 7.045522 13.636933 34.501146 -0.224188 1.164445 -0.002985 -0.003583 245997.000000 0 0 1
-31.309934 8.364222 13.457333 35.090911 -0.261047 1.177214 -0.002610 -0.001250 -173431.000000 0 0 1
-30.625904 9.071722 12.262633 34.214241 -0.287977 1.204235 -0.000816 -0.000476 -211595.000000 0 0 1
-30.944694 10.464822 12.297933 34.904523 -0.326105 1.210736 0.000657 -0.001542 279633.000000 0 0 1
-30.252414 11.165222 11.275133 34.161372 -0.353561 1.234434 -0.007857 -0.001075 -214771.000000 0 0 1
-30.292174 12.686622 11.463133 34.784617 -0.396615 1.234974 -0.002163 -0.004728 6252.280000 0 0 1
-29.846784 13.239022 10.243533 34.220348 -0.417491 1.266795 -0.012975 -0.000351 51468.900000 0 0 1
-29.886914 14.639822 10.454233 34.883277 -0.455487 1.266427 -0.006112 -0.001399 26469.600000 0 0 1
-29.212994 15.344622 9.237133 34.266326 -0.483656 1.297851 -0.008381 -0.007034 458610.000000 0 0 1
-27.792944 15.383522 9.340733 33.111173 -0.505530 1.284812 -0.001870 -0.004330 443955.000000 0 0 1
-27.218124 16.496922 8.662633 32.985086 -0.544893 1.305057 -0.003794 -0.005334 712714.000000 0 0 1
-25.682174 16.697622 8.916033 31.904236 -0.576490 1.287562 0.003623 -0.003428 845105.000000 0 0 1
-25.287404 17.261322 10.213633 32.275755 -0.598956 1.248812 0.005450 -0.005680 275211.000000 0 0 1
-25.755234 18.576922 10.405033 33.417044 -0.624870 1.254163 0.004030 -0.006276 -323406.000000 0 0 1
-25.588184 19.064522 11.841333 34.035692 -0.640327 1.215456 0.011562 0.000206 -667823.000000 0 0 1
-24.275254 19.270722 12.253133 33.328486 -0.670975 1.194318 0.004137 0.007244 -608766.000000 0 0 1
-24.119554 19.747122 13.602833 34.010863 -0.686051 1.159328 0.009861 0.001642 -185469.000000 0 0 1
-24.482754 18.747922 14.733633 34.175573 -0.653512 1.125067 0.010135 0.004203 -28233.700000 0 0 1
-23.562754 17.682922 14.979733 33.049683 -0.643796 1.100390 0.006349 0.006706 319116.000000 0 0 1
-24.046154 16.849022 16.019633 33.447507 -0.611192 1.071340 0.012325 0.008032 81504.100000 0 0 1
-23.046254 15.706222 16.327233 32.317082 -0.598208 1.041160 0.007372 0.009139 895656.000000 0 0 1
-21.941654 16.036322 17.198133 32.161710 -0.631140 1.006597 0.005193 0.007884 579738.000000 0 0 1
-21.154354 14.861822 17.450933 31.191594 -0.612430 0.977043 -0.004206 0.009132 266811.000000 0 0 1
-21.587154 14.002022 18.701133 31.808713 -0.575410 0.942305 0.004249 0.007589 -290712.000000 0 0 1
-21.498254 14.599522 19.960633 32.768092 -0.596563 0.915810 0.006911 0.009644 -13686.900000 0 0 1
-21.990654 13.672022 20.862033 33.252631 -0.556237 0.892612 0.010798 0.007807 -617459.000000 0 0 1
-21.674554 13.934122 22.318933 34.089307 -0.571353 0.856985 0.011738 0.006919 1023710.000000 0 0 1
-20.277454 13.770122 22.683733 33.396754 -0.596551 0.824097 0.014031 0.005334 1032970.000000 0 0 1
-19.674254 15.039022 22.633433 33.548782 -0.652654 0.830316 0.009055 0.006695 -1157520.000000 0 0 1
-18.160554 15.014622 22.907933 32.863627 -0.690853 0.799507 0.001779 0.003931 165254.000000 0 0 1
-17.348754 14.431022 21.884233 31.434906 -0.693844 0.800739 -0.001596 0.002937 -89600.200000 0 0 1
-17.241754 15.244122 20.735733 30.977927 -0.723983 0.837434 0.001521 0.007238 -2015140.000000 0 0 1
-16.125454 14.821522 19.812233 29.533580 -0.743289 0.835459 0.000102 0.002420 943881.000000 0 0 1
-14.769954 14.724022 20.300433 29.104226 -0.783841 0.798882 0.007959 0.002819 1060930.000000 0 0 1
-14.209754 15.795722 21.070833 29.923268 -0.838205 0.789554 0.001765 -0.000643 -1065420.000000 0 0 1
-13.204854 15.302022 22.137833 29.976719 -0.858833 0.739952 -0.005502 -0.000475 393638.000000 0 0 1
-12.042154 14.823622 21.428933 28.704571 -0.888563 0.727959 0.001022 0.001168 662340.000000 0 0 1
-11.187054 14.172922 22.418833 28.785864 -0.902598 0.678024 0.007579 0.001473 -395915.000000 0 0 1
-9.829654 13.723922 21.957933 27.696912 -0.949252 0.655417 0.002990 0.003080 -2473590.000000 0 0 1
-9.362854 12.656822 22.765033 27.678600 -0.933889 0.605043 0.007418 0.005230 57826.600000 0 0 1
-8.236454 12.084522 22.135333 26.530130 -0.972547 0.583849 0.007285 0.006707 -327086.000000 0 0 1
-6.925254 12.856522 22.214633 26.584567 -1.076704 0.581533 0.003911 0.006890 -1701770.000000 0 0 1
-6.812554 13.876422 21.165733 26.209812 -1.114419 0.630810 0.001249 0.006431 153202.000000 0 0 1
-5.868754 14.965422 21.393033 26.759447 -1.197072 0.644405 -0.006286 0.002852 422081.000000 0 0 1
-6.365854 15.997022 22.444133 28.287240 -1.192067 0.654362 -0.002715 -0.003050 54660.700000 0 0 1
-7.546554 16.663522 22.083733 28.676030 -1.145551 0.691781 -0.007685 -0.001167 -519137.000000 0 0 1
-7.255454 17.695322 21.189033 28.543671 -1.181681 0.734244 -0.004827 0.005493 -1677770.000000 0 0 1
-8.124554 17.781522 19.927433 27.915829 -1.142211 0.775830 -0.004239 0.007668 1247410.000000 0 0 1
-9.384354 18.485022 20.052533 28.842091 -1.101029 0.802025 -0.004001 0.008134 690806.000000 0 0 1
-10.289254 17.915522 20.980933 29.445445 -1.049473 0.777691 0.002097 0.000998 -1359860.000000 0 0 1
-11.530354 18.792422 21.175433 30.569644 -1.020463 0.805578 -0.002245 -0.000483 -12419.000000 0 0 1
-12.375354 18.868922 20.041033 30.179937 -0.990313 0.844572 0.000467 0.004560 559688.000000 0 0 1
-13.573854 19.628422 20.284133 31.320449 -0.965770 0.866323 -0.002222 -0.000825 349758.000000 0 0 1
-14.475554 19.728822 19.079333 31.028842 -0.937792 0.908550 0.009320 -0.001424 -510766.000000 0 0 1
-15.126054 18.491522 18.789533 30.393757 -0.885176 0.904341 0.009843 0.000958 -93928.200000 0 0 1
-15.789554 18.592022 17.550033 30.049575 -0.866729 0.947104 0.010040 0.002558 -1318710.000000 0 0 1
-16.614154 17.350622 17.297733 29.602124 -0.807078 0.946729 0.001739 -0.001342 414317.000000 0 0 1
-17.801254 17.106222 18.053833 30.585100 -0.765490 0.939388 -0.008068 0.006837 1081690.000000 0 0 1
-18.866654 18.079722 17.786133 31.609706 -0.764102 0.973173 0.001388 0.006807 211399.000000 0 0 1
33.091725 -9.607578 12.090793 36.517874 -0.282563 1.233335 0.010377 -0.001401 47309.800000 0 0 1
31.802765 -10.107978 11.800093 35.395328 -0.307736 1.230910 0.006519 -0.000613 255817.000000 0 0 1
31.388935 -11.217778 12.637093 35.648280 -0.343234 1.208424 0.013952 0.001996 685305.000000 0 0 1
29.921175 -11.749778 12.521193 34.498033 -0.374190 1.199360 0.001594 0.002418 82393.500000 0 0 1
28.946015 -10.819578 12.858293 33.470446 -0.357705 1.176489 0.000529 -0.001088 -106946.000000 0 0 1
27.595585 -11.208878 12.751293 32.399857 -0.385826 1.166295 -0.000289 0.000876 450646.000000 0 0 1
27.011965 -12.084278 13.907393 32.696966 -0.420663 1.131457 -0.004240 0.002845 -747317.000000 0 0 1
27.065785 -11.411978 15.170193 33.059412 -0.399020 1.094066 -0.005324 -0.000006 -185290.000000 0 0 1
26.631835 -12.183678 16.248693 33.492039 -0.429061 1.064261 -0.006707 0.002207 -606623.000000 0 0 1
25.113635 -12.145578 16.526593 32.424343 -0.450462 1.035964 -0.007524 0.001813 -96717.200000 0 0 1
24.703035 -10.854978 16.956693 31.868478 -0.414020 1.009737 -0.008909 0.000873 -148185.000000 0 0 1
24.461745 -9.983378 15.893193 30.832424 -0.387488 1.029240 -0.005640 0.000171 -750894.000000 0 0 1
24.157175 -8.583878 16.346093 30.404717 -0.341419 1.003188 -0.003729 -0.001710 685217.000000 0 0 1
25.357075 -7.879378 16.730993 31.384582 -0.301278 1.008541 -0.011896 -0.002050 702134.000000 0 0 1
24.941405 -6.596378 17.161493 30.985524 -0.258555 0.983809 -0.012337 -0.003558 776892.000000 0 0 1
26.096395 -5.512378 17.039893 31.650689 -0.208171 1.002290 -0.007318 -0.003341 697482.000000 0 0 1
26.410325 -5.145878 15.715793 31.160415 -0.192432 1.042166 -0.008867 -0.001573 -1825.550000 0 0 1
27.715405 -4.616278 15.677493 32.175106 -0.165045 1.061852 -0.001399 -0.004659 -74181.200000 0 0 1
28.015055 -3.879278 14.393693 31.734374 -0.137596 1.100032 -0.009299 0.000609 -291913.000000 0 0 1
28.288025 -4.679878 13.242993 31.583073 -0.163952 1.138115 -0.013424 0.002759 279485.000000 0 0 1
28.400585 -3.814178 12.120093 31.113306 -0.133500 1.170657 -0.007011 0.003134 -148125.000000 0 0 1
28.737235 -4.562078 10.784193 31.031275 -0.157438 1.215864 -0.009290 -0.002181 -177060.000000 0 0 1
30.103505 -4.961478 10.745293 32.346539 -0.163346 1.232169 0.003319 -0.003032 564139.000000 0 0 1
30.339465 -5.657678 9.527993 32.299769 -0.184362 1.271355 0.002880 -0.002325 -226016.000000 0 0 1
31.688385 -6.364378 9.472093 33.680552 -0.198206 1.285717 0.003710 -0.002603 399539.000000 0 0 1
32.891515 -5.619178 9.264693 34.630355 -0.169206 1.299967 0.002414 0.001953 444406.000000 0 0 1
34.030961 -6.410078 9.017593 35.784248 -0.186179 1.316051 0.012304 -0.003791 -330918.000000 0 0 1
-34.297292 -5.546978 8.732393 35.823566 0.160344 1.324554 0.005114 0.001860 -779128.000000 0 0 1
-34.422578 -4.982378 7.422193 35.564405 0.143743 1.360554 0.006366 -0.003523 -68879.800000 0 0 1
-33.407704 -4.051778 7.162193 34.406229 0.120693 1.361097 0.001674 0.009079 -451243.000000 0 0 1
-33.591414 -3.355978 5.828593 34.258111 0.099575 1.399827 0.000656 -0.000657 -478306.000000 0 0 1
-32.943704 -3.926078 4.704693 33.508743 0.118616 1.429929 0.000203 -0.000641 185187.000000 0 0 1
-33.044674 -3.137578 3.513493 33.378729 0.094666 1.465340 -0.004724 0.005887 -129025.000000 0 0 1
-32.272594 -3.766478 2.321393 32.574462 0.116183 1.499472 -0.007956 0.007694 53340.000000 0 0 1
-32.801294 -4.927578 1.724893 33.214171 0.149110 1.518841 -0.002020 0.005588 112097.000000 0 0 1
-33.993304 -4.798878 0.960893 34.343810 0.140245 1.542814 -0.000252 0.003633 -75168.100000 0 0 1
-33.748084 -4.814778 -0.566307 34.094515 0.141712 1.587407 0.008654 0.003814 -1161700.000000 0 0 1
-33.547104 -6.191478 -1.003307 34.128423 0.182507 1.600199 0.013857 -0.001054 176122.000000 0 0 1
-32.744274 -6.251478 -2.184007 33.407160 0.188648 1.636218 0.010169 0.000437 247812.000000 0 0 1
-31.232694 -6.022178 -1.921007 31.865939 0.190479 1.631117 0.001795 -0.000906 -422033.000000 0 0 1
-30.556844 -7.093178 -1.291307 31.395882 0.228091 1.611938 0.010918 0.002826 -151269.000000 0 0 1
-29.833054 -6.589578 -0.231207 30.553021 0.217391 1.578364 0.001216 -0.002335 -572810.000000 0 0 1
-29.377304 -7.689778 0.749693 30.376319 0.256015 1.546114 0.001399 0.001744 -321991.000000 0 0 1
-28.510274 -8.605678 0.133793 29.781057 0.293148 1.566304 0.005981 0.005335 365918.000000 0 0 1
-28.188064 -9.739578 0.904993 29.836980 0.332679 1.540460 0.007934 0.004319 -183475.000000 0 0 1
-27.912244 -10.984278 0.061993 29.995859 0.374916 1.568730 0.006415 0.002806 49013.800000 0 0 1
-26.654164 -10.973878 -0.607307 28.831221 0.390563 1.591862 0.007630 0.003015 523797.000000 0 0 1
-26.037844 -12.252378 -0.641707 28.783709 0.439820 1.593092 0.005898 0.002791 -241631.000000 0 0 1
-26.544974 -13.382278 -1.569407 29.768844 0.466951 1.623541 0.000826 0.004250 292044.000000 0 0 1
-27.820314 -13.983578 -1.257207 31.162332 0.465757 1.611151 0.003889 0.002399 1103400.000000 0 0 1
-27.927144 -15.056878 -2.101107 31.797006 0.494474 1.636923 -0.001522 0.002633 -393826.000000 0 0 1
-28.845264 -16.196078 -1.696707 33.124629 0.511615 1.622041 -0.000022 -0.000605 -127717.000000 0 0 1
-28.287294 -16.963278 -0.595707 32.989069 0.540183 1.588855 -0.003889 -0.000425 3959.530000 0 0 1
-29.219024 -17.720778 0.150193 34.173088 0.545171 1.566401 0.002907 -0.000292 -356210.000000 0 0 1
-29.398194 -19.239378 -0.312807 35.135528 0.579491 1.579699 0.001231 0.001965 -498217.000000 0 0 1
-28.247284 -19.953478 0.017493 34.583965 0.614999 1.570291 0.002310 -0.005903 -52086.600000 0 0 1
-28.455454 -21.367878 -0.021807 35.585103 0.644092 1.571409 0.001028 -0.005903 17362.100000 0 0 1
-29.344224 -22.008678 1.066093 36.696076 0.643512 1.541740 0.000603 -0.004274 -190877.000000 0 0 1
-28.700164 -22.123578 2.329593 36.312245 0.656713 1.506598 -0.002363 -0.003005 -164572.000000 0 0 1
-29.620544 -22.454378 3.319193 37.317459 0.648644 1.481734 -0.002360 0.001580 -294953.000000 0 0 1
-28.927524 -22.628678 4.661693 37.021482 0.663826 1.444543 0.002145 0.000476 -260940.000000 0 0 1
-28.355224 -21.447578 5.175793 35.927791 0.647578 1.426232 -0.000609 0.000186 -538.890000 0 0 1
-27.772304 -21.583878 6.421993 35.754813 0.660666 1.390204 0.000740 0.002177 -69378.600000 0 0 1
-27.456714 -20.298278 7.184593 34.892831 0.636607 1.363408 0.003838 0.002423 -3253.210000 0 0 1
-26.569334 -20.536278 8.249593 34.579243 0.658017 1.329903 0.000064 -0.001449 -222949.000000 0 0 1
-26.217564 -19.375478 8.912693 33.796537 0.636441 1.303924 0.004866 -0.001121 -126271.000000 0 0 1
-25.033754 -19.657578 9.849493 33.318489 0.665678 1.270696 0.006975 -0.000114 -172527.000000 0 0 1
-25.460434 -20.364478 11.014493 34.413148 0.674648 1.244997 0.013168 -0.003201 626265.000000 0 0 1
-24.397254 -20.615978 11.962193 34.107750 0.701591 1.212459 0.018063 -0.003078 534894.000000 0 0 1
-23.999654 -19.460378 12.890393 33.479127 0.681328 1.175558 0.015054 0.000483 -402619.000000 0 0 1
-23.147854 -18.502778 12.313393 32.090428 0.674332 1.176987 0.008859 -0.001260 -110339.000000 0 0 1
-23.008554 -17.291278 13.125593 31.633259 0.644470 1.142930 0.006353 -0.001420 329210.000000 0 0 1
-22.215754 -17.338778 14.476393 31.681839 0.662720 1.096255 0.005841 0.002647 -349349.000000 0 0 1
-22.962854 -17.768178 15.577093 32.949152 0.658547 1.078374 0.009293 -0.002137 -672988.000000 0 0 1
-22.178654 -18.014878 16.728193 33.109832 0.682173 1.041144 0.007567 0.003107 -8892.420000 0 0 1
-22.998354 -18.622678 17.910693 34.590770 0.680652 1.026533 0.008926 0.005265 668997.000000 0 0 1
-23.879354 -17.696578 18.572793 35.047697 0.637770 1.012279 0.009624 0.007554 313699.000000 0 0 1
-24.647654 -18.335878 19.563893 36.420560 0.639598 1.003723 0.002401 0.006947 -315658.000000 0 0 1
-25.603094 -17.494678 20.369093 37.100972 0.599432 0.989608 -0.002845 0.009311 -228344.000000 0 0 1
-24.934654 -16.780578 21.410693 36.901796 0.592362 0.951813 0.001739 0.003051 111529.000000 0 0 1
-25.830594 -15.907678 22.090493 37.526840 0.551990 0.941398 -0.001138 0.003627 -57381.200000 0 0 1
-25.159764 -15.037078 23.173693 37.365057 0.538700 0.901803 -0.000299 0.006550 18407.700000 0 0 1
-24.201654 -14.188478 22.541793 35.988406 0.530256 0.893918 -0.000017 0.009757 42554.600000 0 0 1
-23.274754 -13.667078 23.448493 35.753811 0.530959 0.855512 0.004418 0.006803 -479651.000000 0 0 1
-22.174154 -12.898278 22.723693 34.269883 0.526841 0.845870 0.002659 0.006044 -409664.000000 0 0 1
-22.620454 -11.628578 22.218893 33.772592 0.474843 0.852773 0.004137 0.011352 1359430.000000 0 0 1
-21.565054 -10.907878 21.490993 32.340317 0.468287 0.843937 0.007244 0.011296 632505.000000 0 0 1
-21.100654 -9.536078 22.130193 32.029983 0.424460 0.808034 0.005752 0.009402 105217.000000 0 0 1
-20.579754 -9.517478 23.467093 32.631474 0.433174 0.768211 0.004196 0.006610 793335.000000 0 0 1
-19.233954 -10.013478 23.448593 31.938241 0.480003 0.746330 0.001424 0.003993 459832.000000 0 0 1
-18.606954 -9.938878 24.915493 32.646314 0.490592 0.702554 0.002927 -0.003304 316040.000000 0 0 1
-18.953354 -11.086678 25.708793 33.809556 0.529276 0.706867 0.005379 -0.002725 172780.000000 0 0 1
-18.274954 -10.985778 26.959693 34.372755 0.541256 0.669176 0.004500 -0.008977 -786178.000000 0 0 1
-18.284554 -12.256778 27.875793 35.519197 0.590538 0.668408 0.010989 -0.012951 324069.000000 0 0 1
-19.519954 -12.794878 28.356393 36.726319 0.580216 0.688657 0.012899 -0.012142 -217875.000000 0 0 1
-20.376854 -13.315078 27.370493 36.628559 0.578791 0.726890 0.001332 -0.008608 997556.000000 0 0 1
-21.720754 -13.880078 28.026593 38.078047 0.568620 0.743609 0.001705 -0.006576 1118470.000000 0 0 1
-21.474154 -15.020078 28.864893 38.986204 0.610356 0.737150 -0.000346 -0.005867 158446.000000 0 0 1
-20.786954 -14.854678 30.124193 39.499695 0.620468 0.703406 0.000720 -0.003111 169101.000000 0 0 1
-21.225454 -15.873578 31.181493 40.924026 0.642127 0.704499 0.005998 -0.003404 -387086.000000 0 0 1
-20.827654 -17.225078 31.038193 41.156578 0.691006 0.716439 0.006270 0.000354 -208190.000000 0 0 1
-20.937554 -18.016378 32.198393 42.422960 0.710548 0.709043 0.006691 0.001326 493935.000000 0 0 1
-22.375454 -18.358078 32.738593 43.697774 0.687090 0.723935 0.008819 0.006491 741087.000000 0 0 1
-23.001254 -17.293378 33.447593 44.123237 0.644681 0.710479 0.005976 0.003494 -216521.000000 0 0 1
-24.273854 -17.702578 33.892393 45.291230 0.630112 0.725269 0.000352 0.004358 -396460.000000 0 0 1
-25.062154 -16.645878 34.650693 45.889730 0.586282 0.715011 -0.003054 0.002820 -416327.000000 0 0 1
-24.683754 -16.455978 -33.401648 44.673896 0.588007 2.415353 -0.001509 0.001677 24270.100000 0 0 1
-25.439744 -15.391578 -32.838348 44.299417 0.544103 2.405774 -0.001844 0.002137 -610407.000000 0 0 1
-24.844054 -14.902378 -31.492848 42.791440 0.540299 2.397882 0.000043 0.003609 -459867.000000 0 0 1
-25.126064 -15.630878 -30.366448 42.400054 0.556510 2.369122 -0.000088 0.005110 112025.000000 0 0 1
-24.446254 -15.047678 -29.255648 40.987131 0.551769 2.365672 0.003834 0.012623 82439.100000 0 0 1
-24.795654 -15.898078 -28.007848 40.644961 0.570138 2.331022 0.004526 0.006663 1261510.000000 0 0 1
-26.150944 -15.791478 -27.494748 41.099925 0.543252 2.303623 0.003645 0.005984 1275300.000000 0 0 1
-26.439124 -14.687878 -26.573048 40.260252 0.507083 2.291657 0.008213 0.008018 7639.800000 0 0 1
-25.568804 -14.548078 -25.231548 38.756178 0.517297 2.279741 0.012878 0.007102 818620.000000 0 0 1
-24.235154 -14.137278 -25.586348 37.971918 0.528078 2.310167 0.010120 0.005267 1760730.000000 0 0 1
-23.217154 -14.369978 -24.558748 36.724169 0.554228 2.303303 0.002965 0.008806 937232.000000 0 0 1
-22.562454 -15.765578 -24.596148 36.913253 0.609888 2.300063 0.000519 0.008510 -457228.000000 0 0 1
-21.734954 -16.057178 -25.710948 37.300054 0.636276 2.331319 0.002484 0.007779 452245.000000 0 0 1
-21.258154 -17.426378 -25.711748 37.638833 0.686668 2.322819 0.002575 0.003451 401739.000000 0 0 1
-20.338754 -17.734678 -26.948848 38.136913 0.717108 2.355526 -0.000570 0.002198 268190.000000 0 0 1
-21.067754 -17.763878 -28.154048 39.396142 0.700521 2.366905 0.006406 0.003966 218492.000000 0 0 1
-21.920254 -18.890378 -28.292648 40.469962 0.711292 2.344938 0.007226 -0.002349 -133715.000000 0 0 1
-22.754954 -18.822278 -29.583748 41.800290 0.691091 2.357091 0.002223 0.002183 -49697.600000 0 0 1
-21.983654 -19.134578 -30.734148 42.355649 0.716219 2.382733 0.001028 0.003191 468708.000000 0 0 1
-22.744254 -18.900578 -31.894648 43.494845 0.693362 2.393955 -0.000098 0.009725 -389957.000000 0 0 1
-21.948554 -19.322878 -33.166648 44.216956 0.721864 2.418993 0.005032 0.003742 392302.000000 0 0 1
-20.737054 -18.532878 -33.372648 43.442222 0.729328 2.446833 0.004407 0.006937 816693.000000 0 0 1
-19.548754 -19.095378 -32.903148 42.771537 0.773667 2.448505 0.003499 0.005643 -613516.000000 0 0 1
-19.080654 -20.215478 -33.840848 43.794291 0.814269 2.453916 0.000943 0.004221 -1342220.000000 0 0 1
-18.779954 -19.779578 34.293293 43.817215 0.811317 0.671894 -0.005404 0.002909 161746.000000 0 0 1
-18.378854 -20.771878 33.395393 43.410891 0.846446 0.693073 -0.005933 0.006404 -523783.000000 0 0 1
-19.522054 -21.412378 32.619393 43.630555 0.831545 0.726314 0.002260 0.003368 -264609.000000 0 0 1
-20.367054 -22.255178 33.415793 45.019163 0.829668 0.734364 0.001970 0.000571 479763.000000 0 0 1
-21.430954 -22.792578 32.600493 45.183842 0.816178 0.764819 0.003725 -0.001482 -73584.900000 0 0 1
-21.153554 -23.959678 31.672393 44.996439 0.847520 0.789942 0.000585 -0.003689 -648784.000000 0 0 1
-20.860854 -25.167048 32.348793 45.989129 0.878683 0.790625 -0.002299 0.000074 -166218.000000 0 0 1
-20.922454 -26.247568 31.476893 46.016070 0.897814 0.817508 0.000693 0.001062 -274615.000000 0 0 1
-20.445054 -27.586198 32.110993 47.011854 0.932994 0.818879 -0.009229 -0.004163 -558419.000000 0 0 1
-21.214954 -28.021588 33.223493 48.364079 0.922771 0.813519 -0.011218 -0.004013 -201354.000000 0 0 1
-20.566954 -29.061788 33.950593 49.195832 0.954923 0.809154 -0.011505 -0.006743 -834560.000000 0 0 1
-21.600054 -29.996978 34.574893 50.614269 0.946724 0.818790 -0.005724 -0.001987 1454.440000 0 0 1
-22.636754 -30.479828 33.687593 50.757231 0.931997 0.845041 -0.009404 -0.001524 1286440.000000 0 0 1
-23.646354 -29.545858 33.266593 50.386248 0.895856 0.849669 -0.007354 -0.003807 -1204520.000000 0 0 1
-24.712554 -29.334648 34.325293 51.472883 0.870710 0.840807 -0.005285 -0.001874 -955656.000000 0 0 1
-25.790944 -28.488518 33.907493 51.249259 0.835055 0.847820 0.002603 -0.003316 -63399.300000 0 0 1
-26.619914 -28.406128 -34.394748 51.947345 0.817848 2.294424 -0.001075 0.000372 -855524.000000 0 0 1
-27.891194 -27.624668 -34.686748 52.385222 0.780597 2.294477 -0.002833 -0.000472 187409.000000 0 0 1
-28.965634 -28.425588 34.200093 53.072294 0.775989 0.870550 0.000045 -0.001613 1140900.000000 0 0 1
-30.071944 -27.664668 33.666493 52.944201 0.743728 0.881640 0.001038 -0.000370 516264.000000 0 0 1
